    1C
    1UUSER                                                              
    1UDATE              27.october.2022                                 
    1UTIME              00:14:19                                        
    1UHOST                                                              
    1UPGM               CalculiX                                        
    1UVERSION           Version 2.17                             
    1UCOMPILETIME       Thu Jul 23 21:43:50 CEST 2020                    
    1UDIR                                                               
    1UDBN                                                               
    1UMAT    1SOLIDMATERIAL                                             
    2C                          4360                                     1
 -1         1 6.93313E+01 3.14132E+01 0.00000E+00
 -1         2 8.25313E+01 2.81636E+01 0.00000E+00
 -1         3 1.50000E+02 0.00000E+00 0.00000E+00
 -1         4 1.50000E+02 5.00000E+01 0.00000E+00
 -1         5 0.00000E+00 0.00000E+00 0.00000E+00
 -1         6 0.00000E+00 5.00000E+01 0.00000E+00
 -1         7 0.00000E+00 4.70500E+01 0.00000E+00
 -1         8 0.00000E+00 4.41000E+01 0.00000E+00
 -1         9 0.00000E+00 4.11500E+01 0.00000E+00
 -1        10 0.00000E+00 3.82000E+01 0.00000E+00
 -1        11 0.00000E+00 3.52500E+01 0.00000E+00
 -1        12 0.00000E+00 3.23500E+01 0.00000E+00
 -1        13 0.00000E+00 2.94000E+01 0.00000E+00
 -1        14 0.00000E+00 2.64500E+01 0.00000E+00
 -1        15 0.00000E+00 2.35000E+01 0.00000E+00
 -1        16 0.00000E+00 2.05500E+01 0.00000E+00
 -1        17 0.00000E+00 1.76000E+01 0.00000E+00
 -1        18 0.00000E+00 1.47000E+01 0.00000E+00
 -1        19 0.00000E+00 1.17500E+01 0.00000E+00
 -1        20 0.00000E+00 8.80000E+00 0.00000E+00
 -1        21 0.00000E+00 5.85000E+00 0.00000E+00
 -1        22 0.00000E+00 2.90000E+00 0.00000E+00
 -1        23 3.15000E+00 5.00000E+01 0.00000E+00
 -1        24 6.15000E+00 5.00000E+01 0.00000E+00
 -1        25 9.15000E+00 5.00000E+01 0.00000E+00
 -1        26 1.21500E+01 5.00000E+01 0.00000E+00
 -1        27 1.51500E+01 5.00000E+01 0.00000E+00
 -1        28 1.81500E+01 5.00000E+01 0.00000E+00
 -1        29 2.11500E+01 5.00000E+01 0.00000E+00
 -1        30 2.41500E+01 5.00000E+01 0.00000E+00
 -1        31 2.71500E+01 5.00000E+01 0.00000E+00
 -1        32 3.01500E+01 5.00000E+01 0.00000E+00
 -1        33 3.31500E+01 5.00000E+01 0.00000E+00
 -1        34 3.61500E+01 5.00000E+01 0.00000E+00
 -1        35 3.91500E+01 5.00000E+01 0.00000E+00
 -1        36 4.21500E+01 5.00000E+01 0.00000E+00
 -1        37 4.51500E+01 5.00000E+01 0.00000E+00
 -1        38 4.81500E+01 5.00000E+01 0.00000E+00
 -1        39 5.11500E+01 5.00000E+01 0.00000E+00
 -1        40 5.41500E+01 5.00000E+01 0.00000E+00
 -1        41 5.71500E+01 5.00000E+01 0.00000E+00
 -1        42 6.01500E+01 5.00000E+01 0.00000E+00
 -1        43 6.31500E+01 5.00000E+01 0.00000E+00
 -1        44 6.61500E+01 5.00000E+01 0.00000E+00
 -1        45 6.91500E+01 5.00000E+01 0.00000E+00
 -1        46 7.21500E+01 5.00000E+01 0.00000E+00
 -1        47 7.51500E+01 5.00000E+01 0.00000E+00
 -1        48 7.81500E+01 5.00000E+01 0.00000E+00
 -1        49 8.11500E+01 5.00000E+01 0.00000E+00
 -1        50 8.41500E+01 5.00000E+01 0.00000E+00
 -1        51 8.71500E+01 5.00000E+01 0.00000E+00
 -1        52 9.01500E+01 5.00000E+01 0.00000E+00
 -1        53 9.31500E+01 5.00000E+01 0.00000E+00
 -1        54 9.61500E+01 5.00000E+01 0.00000E+00
 -1        55 9.91500E+01 5.00000E+01 0.00000E+00
 -1        56 1.02150E+02 5.00000E+01 0.00000E+00
 -1        57 1.05150E+02 5.00000E+01 0.00000E+00
 -1        58 1.08150E+02 5.00000E+01 0.00000E+00
 -1        59 1.11150E+02 5.00000E+01 0.00000E+00
 -1        60 1.14150E+02 5.00000E+01 0.00000E+00
 -1        61 1.17150E+02 5.00000E+01 0.00000E+00
 -1        62 1.20150E+02 5.00000E+01 0.00000E+00
 -1        63 1.23150E+02 5.00000E+01 0.00000E+00
 -1        64 1.26150E+02 5.00000E+01 0.00000E+00
 -1        65 1.29150E+02 5.00000E+01 0.00000E+00
 -1        66 1.32150E+02 5.00000E+01 0.00000E+00
 -1        67 1.35150E+02 5.00000E+01 0.00000E+00
 -1        68 1.38150E+02 5.00000E+01 0.00000E+00
 -1        69 1.41150E+02 5.00000E+01 0.00000E+00
 -1        70 1.44150E+02 5.00000E+01 0.00000E+00
 -1        71 1.47150E+02 5.00000E+01 0.00000E+00
 -1        72 3.15000E+00 0.00000E+00 0.00000E+00
 -1        73 6.15000E+00 0.00000E+00 0.00000E+00
 -1        74 9.15000E+00 0.00000E+00 0.00000E+00
 -1        75 1.21500E+01 0.00000E+00 0.00000E+00
 -1        76 1.51500E+01 0.00000E+00 0.00000E+00
 -1        77 1.81500E+01 0.00000E+00 0.00000E+00
 -1        78 2.11500E+01 0.00000E+00 0.00000E+00
 -1        79 2.41500E+01 0.00000E+00 0.00000E+00
 -1        80 2.71500E+01 0.00000E+00 0.00000E+00
 -1        81 3.01500E+01 0.00000E+00 0.00000E+00
 -1        82 3.31500E+01 0.00000E+00 0.00000E+00
 -1        83 3.61500E+01 0.00000E+00 0.00000E+00
 -1        84 3.91500E+01 0.00000E+00 0.00000E+00
 -1        85 4.21500E+01 0.00000E+00 0.00000E+00
 -1        86 4.51500E+01 0.00000E+00 0.00000E+00
 -1        87 4.81500E+01 0.00000E+00 0.00000E+00
 -1        88 5.11500E+01 0.00000E+00 0.00000E+00
 -1        89 5.41500E+01 0.00000E+00 0.00000E+00
 -1        90 5.71500E+01 0.00000E+00 0.00000E+00
 -1        91 6.01500E+01 0.00000E+00 0.00000E+00
 -1        92 6.31500E+01 0.00000E+00 0.00000E+00
 -1        93 6.61500E+01 0.00000E+00 0.00000E+00
 -1        94 6.91500E+01 0.00000E+00 0.00000E+00
 -1        95 7.21500E+01 0.00000E+00 0.00000E+00
 -1        96 7.51500E+01 0.00000E+00 0.00000E+00
 -1        97 7.81500E+01 0.00000E+00 0.00000E+00
 -1        98 8.11500E+01 0.00000E+00 0.00000E+00
 -1        99 8.41500E+01 0.00000E+00 0.00000E+00
 -1       100 8.71500E+01 0.00000E+00 0.00000E+00
 -1       101 9.01500E+01 0.00000E+00 0.00000E+00
 -1       102 9.31500E+01 0.00000E+00 0.00000E+00
 -1       103 9.61500E+01 0.00000E+00 0.00000E+00
 -1       104 9.91500E+01 0.00000E+00 0.00000E+00
 -1       105 1.02150E+02 0.00000E+00 0.00000E+00
 -1       106 1.05150E+02 0.00000E+00 0.00000E+00
 -1       107 1.08150E+02 0.00000E+00 0.00000E+00
 -1       108 1.11150E+02 0.00000E+00 0.00000E+00
 -1       109 1.14150E+02 0.00000E+00 0.00000E+00
 -1       110 1.17150E+02 0.00000E+00 0.00000E+00
 -1       111 1.20150E+02 0.00000E+00 0.00000E+00
 -1       112 1.23150E+02 0.00000E+00 0.00000E+00
 -1       113 1.26150E+02 0.00000E+00 0.00000E+00
 -1       114 1.29150E+02 0.00000E+00 0.00000E+00
 -1       115 1.32150E+02 0.00000E+00 0.00000E+00
 -1       116 1.35150E+02 0.00000E+00 0.00000E+00
 -1       117 1.38150E+02 0.00000E+00 0.00000E+00
 -1       118 1.41150E+02 0.00000E+00 0.00000E+00
 -1       119 1.44150E+02 0.00000E+00 0.00000E+00
 -1       120 1.47150E+02 0.00000E+00 0.00000E+00
 -1       121 1.50000E+02 2.95000E+00 0.00000E+00
 -1       122 1.50000E+02 5.90000E+00 0.00000E+00
 -1       123 1.50000E+02 8.85000E+00 0.00000E+00
 -1       124 1.50000E+02 1.18000E+01 0.00000E+00
 -1       125 1.50000E+02 1.47500E+01 0.00000E+00
 -1       126 1.50000E+02 1.76500E+01 0.00000E+00
 -1       127 1.50000E+02 2.06000E+01 0.00000E+00
 -1       128 1.50000E+02 2.35500E+01 0.00000E+00
 -1       129 1.50000E+02 2.65000E+01 0.00000E+00
 -1       130 1.50000E+02 2.94500E+01 0.00000E+00
 -1       131 1.50000E+02 3.24000E+01 0.00000E+00
 -1       132 1.50000E+02 3.53000E+01 0.00000E+00
 -1       133 1.50000E+02 3.82500E+01 0.00000E+00
 -1       134 1.50000E+02 4.12000E+01 0.00000E+00
 -1       135 1.50000E+02 4.41500E+01 0.00000E+00
 -1       136 1.50000E+02 4.71000E+01 0.00000E+00
 -1       137 8.23622E+01 2.66341E+01 0.00000E+00
 -1       138 8.18962E+01 2.52502E+01 0.00000E+00
 -1       139 8.11582E+01 2.39997E+01 0.00000E+00
 -1       140 8.01683E+01 2.29197E+01 0.00000E+00
 -1       141 7.89027E+01 2.20289E+01 0.00000E+00
 -1       142 7.75296E+01 2.14548E+01 0.00000E+00
 -1       143 7.60169E+01 2.11804E+01 0.00000E+00
 -1       144 7.45200E+01 2.12370E+01 0.00000E+00
 -1       145 7.30807E+01 2.16066E+01 0.00000E+00
 -1       146 7.17290E+01 2.22863E+01 0.00000E+00
 -1       147 7.05923E+01 2.32031E+01 0.00000E+00
 -1       148 6.96953E+01 2.42982E+01 0.00000E+00
 -1       149 6.90213E+01 2.55908E+01 0.00000E+00
 -1       150 6.86310E+01 2.69867E+01 0.00000E+00
 -1       151 6.85469E+01 2.86308E+01 0.00000E+00
 -1       152 6.88008E+01 3.00872E+01 0.00000E+00
 -1       153 7.01040E+01 3.25844E+01 0.00000E+00
 -1       154 7.11794E+01 3.36464E+01 0.00000E+00
 -1       155 7.23499E+01 3.43988E+01 0.00000E+00
 -1       156 7.37204E+01 3.49253E+01 0.00000E+00
 -1       157 7.50878E+01 3.51495E+01 0.00000E+00
 -1       158 7.65975E+01 3.50819E+01 0.00000E+00
 -1       159 7.79580E+01 3.47295E+01 0.00000E+00
 -1       160 7.92238E+01 3.41105E+01 0.00000E+00
 -1       161 8.03272E+01 3.32625E+01 0.00000E+00
 -1       162 8.12702E+01 3.21718E+01 0.00000E+00
 -1       163 8.19899E+01 3.08629E+01 0.00000E+00
 -1       164 8.23957E+01 2.95349E+01 0.00000E+00
 -1       165 2.59800E+00 4.55750E+01 0.00000E+00
 -1       166 2.59800E+00 4.26250E+01 0.00000E+00
 -1       167 2.59800E+00 3.96750E+01 0.00000E+00
 -1       168 2.59800E+00 3.67250E+01 0.00000E+00
 -1       169 2.59800E+00 3.38250E+01 0.00000E+00
 -1       170 2.59800E+00 3.08750E+01 0.00000E+00
 -1       171 2.59800E+00 2.79250E+01 0.00000E+00
 -1       172 2.59800E+00 2.49750E+01 0.00000E+00
 -1       173 2.59800E+00 2.20250E+01 0.00000E+00
 -1       174 2.59800E+00 1.90750E+01 0.00000E+00
 -1       175 2.59800E+00 1.61750E+01 0.00000E+00
 -1       176 2.59800E+00 1.32250E+01 0.00000E+00
 -1       177 2.59800E+00 1.02750E+01 0.00000E+00
 -1       178 2.59800E+00 7.32500E+00 0.00000E+00
 -1       179 2.59800E+00 4.37500E+00 0.00000E+00
 -1       180 2.87400E+00 2.18750E+00 0.00000E+00
 -1       181 4.65000E+00 4.74020E+01 0.00000E+00
 -1       182 7.65000E+00 4.74020E+01 0.00000E+00
 -1       183 1.06500E+01 4.74020E+01 0.00000E+00
 -1       184 1.36500E+01 4.74020E+01 0.00000E+00
 -1       185 1.66500E+01 4.74020E+01 0.00000E+00
 -1       186 1.96500E+01 4.74020E+01 0.00000E+00
 -1       187 2.26500E+01 4.74020E+01 0.00000E+00
 -1       188 2.56500E+01 4.74020E+01 0.00000E+00
 -1       189 2.86500E+01 4.74020E+01 0.00000E+00
 -1       190 3.16500E+01 4.74020E+01 0.00000E+00
 -1       191 3.46500E+01 4.74020E+01 0.00000E+00
 -1       192 3.76500E+01 4.74020E+01 0.00000E+00
 -1       193 4.06500E+01 4.74020E+01 0.00000E+00
 -1       194 4.36500E+01 4.74020E+01 0.00000E+00
 -1       195 4.66500E+01 4.74020E+01 0.00000E+00
 -1       196 4.96500E+01 4.74020E+01 0.00000E+00
 -1       197 5.26500E+01 4.74020E+01 0.00000E+00
 -1       198 5.56500E+01 4.74020E+01 0.00000E+00
 -1       199 5.86500E+01 4.74020E+01 0.00000E+00
 -1       200 6.16500E+01 4.74020E+01 0.00000E+00
 -1       201 6.46500E+01 4.74020E+01 0.00000E+00
 -1       202 6.76500E+01 4.74020E+01 0.00000E+00
 -1       203 7.06500E+01 4.74020E+01 0.00000E+00
 -1       204 7.36500E+01 4.74020E+01 0.00000E+00
 -1       205 7.66500E+01 4.74020E+01 0.00000E+00
 -1       206 7.96500E+01 4.74020E+01 0.00000E+00
 -1       207 8.26500E+01 4.74020E+01 0.00000E+00
 -1       208 8.56500E+01 4.74020E+01 0.00000E+00
 -1       209 8.86500E+01 4.74020E+01 0.00000E+00
 -1       210 9.16500E+01 4.74020E+01 0.00000E+00
 -1       211 9.46500E+01 4.74020E+01 0.00000E+00
 -1       212 9.76500E+01 4.74020E+01 0.00000E+00
 -1       213 1.00650E+02 4.74020E+01 0.00000E+00
 -1       214 1.03650E+02 4.74020E+01 0.00000E+00
 -1       215 1.06650E+02 4.74020E+01 0.00000E+00
 -1       216 1.09650E+02 4.74020E+01 0.00000E+00
 -1       217 1.12650E+02 4.74020E+01 0.00000E+00
 -1       218 1.15650E+02 4.74020E+01 0.00000E+00
 -1       219 1.18650E+02 4.74020E+01 0.00000E+00
 -1       220 1.21650E+02 4.74020E+01 0.00000E+00
 -1       221 1.24650E+02 4.74020E+01 0.00000E+00
 -1       222 1.27650E+02 4.74020E+01 0.00000E+00
 -1       223 1.30650E+02 4.74020E+01 0.00000E+00
 -1       224 1.33650E+02 4.74020E+01 0.00000E+00
 -1       225 1.36650E+02 4.74020E+01 0.00000E+00
 -1       226 1.39650E+02 4.74020E+01 0.00000E+00
 -1       227 1.42650E+02 4.74020E+01 0.00000E+00
 -1       228 1.45650E+02 4.74020E+01 0.00000E+00
 -1       229 5.87400E+00 2.18750E+00 0.00000E+00
 -1       230 8.87400E+00 2.18750E+00 0.00000E+00
 -1       231 1.18740E+01 2.18750E+00 0.00000E+00
 -1       232 1.48740E+01 2.18750E+00 0.00000E+00
 -1       233 1.78740E+01 2.18750E+00 0.00000E+00
 -1       234 2.08740E+01 2.18750E+00 0.00000E+00
 -1       235 2.38740E+01 2.18750E+00 0.00000E+00
 -1       236 2.68740E+01 2.18750E+00 0.00000E+00
 -1       237 2.98740E+01 2.18750E+00 0.00000E+00
 -1       238 3.28740E+01 2.18750E+00 0.00000E+00
 -1       239 3.58740E+01 2.18750E+00 0.00000E+00
 -1       240 3.88740E+01 2.18750E+00 0.00000E+00
 -1       241 4.18740E+01 2.18750E+00 0.00000E+00
 -1       242 4.48740E+01 2.18750E+00 0.00000E+00
 -1       243 4.78740E+01 2.18750E+00 0.00000E+00
 -1       244 5.08740E+01 2.18750E+00 0.00000E+00
 -1       245 5.38740E+01 2.18750E+00 0.00000E+00
 -1       246 5.68740E+01 2.18750E+00 0.00000E+00
 -1       247 5.98740E+01 2.18750E+00 0.00000E+00
 -1       248 6.28740E+01 2.18750E+00 0.00000E+00
 -1       249 6.58740E+01 2.18750E+00 0.00000E+00
 -1       250 6.88740E+01 2.18750E+00 0.00000E+00
 -1       251 7.18740E+01 2.18750E+00 0.00000E+00
 -1       252 7.48740E+01 2.18750E+00 0.00000E+00
 -1       253 7.78740E+01 2.18750E+00 0.00000E+00
 -1       254 8.08740E+01 2.18750E+00 0.00000E+00
 -1       255 8.38740E+01 2.18750E+00 0.00000E+00
 -1       256 8.68740E+01 2.18750E+00 0.00000E+00
 -1       257 8.98740E+01 2.18750E+00 0.00000E+00
 -1       258 9.28740E+01 2.18750E+00 0.00000E+00
 -1       259 9.58740E+01 2.18750E+00 0.00000E+00
 -1       260 9.88740E+01 2.18750E+00 0.00000E+00
 -1       261 1.01874E+02 2.18750E+00 0.00000E+00
 -1       262 1.04874E+02 2.18750E+00 0.00000E+00
 -1       263 1.07874E+02 2.18750E+00 0.00000E+00
 -1       264 1.10874E+02 2.18750E+00 0.00000E+00
 -1       265 1.13874E+02 2.18750E+00 0.00000E+00
 -1       266 1.16874E+02 2.18750E+00 0.00000E+00
 -1       267 1.19874E+02 2.18750E+00 0.00000E+00
 -1       268 1.22874E+02 2.18750E+00 0.00000E+00
 -1       269 1.25874E+02 2.18750E+00 0.00000E+00
 -1       270 1.28874E+02 2.18750E+00 0.00000E+00
 -1       271 1.31874E+02 2.18750E+00 0.00000E+00
 -1       272 1.34874E+02 2.18750E+00 0.00000E+00
 -1       273 1.37874E+02 2.18750E+00 0.00000E+00
 -1       274 1.40874E+02 2.18750E+00 0.00000E+00
 -1       275 1.43874E+02 2.18750E+00 0.00000E+00
 -1       276 1.46874E+02 2.18750E+00 0.00000E+00
 -1       277 1.47402E+02 4.42500E+00 0.00000E+00
 -1       278 1.47402E+02 7.37500E+00 0.00000E+00
 -1       279 1.47402E+02 1.03250E+01 0.00000E+00
 -1       280 1.47402E+02 1.32750E+01 0.00000E+00
 -1       281 1.47402E+02 1.61750E+01 0.00000E+00
 -1       282 1.47402E+02 1.91250E+01 0.00000E+00
 -1       283 1.47402E+02 2.20750E+01 0.00000E+00
 -1       284 1.47402E+02 2.50250E+01 0.00000E+00
 -1       285 1.47402E+02 2.79750E+01 0.00000E+00
 -1       286 1.47402E+02 3.09250E+01 0.00000E+00
 -1       287 1.47402E+02 3.38250E+01 0.00000E+00
 -1       288 1.47402E+02 3.67750E+01 0.00000E+00
 -1       289 1.47402E+02 3.97250E+01 0.00000E+00
 -1       290 1.47402E+02 4.26750E+01 0.00000E+00
 -1       291 1.46526E+02 4.50385E+01 0.00000E+00
 -1       292 8.37351E+01 2.72564E+01 0.00000E+00
 -1       293 8.32782E+01 2.55553E+01 0.00000E+00
 -1       294 8.25714E+01 2.40087E+01 0.00000E+00
 -1       295 8.15570E+01 2.26405E+01 0.00000E+00
 -1       296 8.03298E+01 2.13458E+01 0.00000E+00
 -1       297 7.87161E+01 2.05460E+01 0.00000E+00
 -1       298 7.70196E+01 1.99598E+01 0.00000E+00
 -1       299 7.52195E+01 1.99135E+01 0.00000E+00
 -1       300 7.34780E+01 2.01663E+01 0.00000E+00
 -1       301 7.18225E+01 2.07884E+01 0.00000E+00
 -1       302 7.03995E+01 2.18010E+01 0.00000E+00
 -1       303 6.92059E+01 2.29824E+01 0.00000E+00
 -1       304 6.82833E+01 2.43839E+01 0.00000E+00
 -1       305 6.76585E+01 2.59623E+01 0.00000E+00
 -1       306 6.70434E+01 2.77298E+01 0.00000E+00
 -1       307 6.73970E+01 2.95816E+01 0.00000E+00
 -1       308 6.79404E+01 3.12006E+01 0.00000E+00
 -1       309 6.87056E+01 3.26664E+01 0.00000E+00
 -1       310 6.95543E+01 3.42165E+01 0.00000E+00
 -1       311 7.10637E+01 3.51129E+01 0.00000E+00
 -1       312 7.25403E+01 3.59502E+01 0.00000E+00
 -1       313 7.42079E+01 3.62338E+01 0.00000E+00
 -1       314 7.59044E+01 3.64943E+01 0.00000E+00
 -1       315 7.75818E+01 3.60794E+01 0.00000E+00
 -1       316 7.91603E+01 3.55844E+01 0.00000E+00
 -1       317 8.05143E+01 3.46478E+01 0.00000E+00
 -1       318 8.17159E+01 3.35101E+01 0.00000E+00
 -1       319 8.28392E+01 3.21823E+01 0.00000E+00
 -1       320 8.33523E+01 3.05532E+01 0.00000E+00
 -1       321 8.36700E+01 2.89686E+01 0.00000E+00
 -1       322 5.19600E+00 4.11500E+01 0.00000E+00
 -1       323 5.19600E+00 4.41000E+01 0.00000E+00
 -1       324 5.19600E+00 3.52750E+01 0.00000E+00
 -1       325 5.19600E+00 3.23250E+01 0.00000E+00
 -1       326 5.19600E+00 2.93750E+01 0.00000E+00
 -1       327 5.19600E+00 2.64250E+01 0.00000E+00
 -1       328 5.19600E+00 2.34750E+01 0.00000E+00
 -1       329 5.19600E+00 2.05250E+01 0.00000E+00
 -1       330 5.19600E+00 1.76250E+01 0.00000E+00
 -1       331 5.19600E+00 1.46750E+01 0.00000E+00
 -1       332 5.19600E+00 1.17250E+01 0.00000E+00
 -1       333 5.19600E+00 8.77500E+00 0.00000E+00
 -1       334 5.19600E+00 5.82500E+00 0.00000E+00
 -1       335 5.53500E+00 4.00625E+00 0.00000E+00
 -1       336 8.53500E+00 4.00625E+00 0.00000E+00
 -1       337 9.15000E+00 4.48040E+01 0.00000E+00
 -1       338 1.21500E+01 4.48040E+01 0.00000E+00
 -1       339 1.51500E+01 4.48040E+01 0.00000E+00
 -1       340 1.81500E+01 4.48040E+01 0.00000E+00
 -1       341 2.11500E+01 4.48040E+01 0.00000E+00
 -1       342 2.41500E+01 4.48040E+01 0.00000E+00
 -1       343 2.71500E+01 4.48040E+01 0.00000E+00
 -1       344 3.01500E+01 4.48040E+01 0.00000E+00
 -1       345 3.31500E+01 4.48040E+01 0.00000E+00
 -1       346 3.61500E+01 4.48040E+01 0.00000E+00
 -1       347 3.91500E+01 4.48040E+01 0.00000E+00
 -1       348 4.21500E+01 4.48040E+01 0.00000E+00
 -1       349 4.51500E+01 4.48040E+01 0.00000E+00
 -1       350 4.81500E+01 4.48040E+01 0.00000E+00
 -1       351 5.11500E+01 4.48040E+01 0.00000E+00
 -1       352 5.41500E+01 4.48040E+01 0.00000E+00
 -1       353 5.71500E+01 4.48040E+01 0.00000E+00
 -1       354 6.01500E+01 4.48040E+01 0.00000E+00
 -1       355 6.31500E+01 4.48040E+01 0.00000E+00
 -1       356 6.61500E+01 4.48040E+01 0.00000E+00
 -1       357 6.91500E+01 4.48040E+01 0.00000E+00
 -1       358 7.21500E+01 4.48040E+01 0.00000E+00
 -1       359 7.51500E+01 4.48040E+01 0.00000E+00
 -1       360 7.81500E+01 4.48040E+01 0.00000E+00
 -1       361 8.11500E+01 4.48040E+01 0.00000E+00
 -1       362 8.41500E+01 4.48040E+01 0.00000E+00
 -1       363 8.71500E+01 4.48040E+01 0.00000E+00
 -1       364 9.01500E+01 4.48040E+01 0.00000E+00
 -1       365 9.31500E+01 4.48040E+01 0.00000E+00
 -1       366 9.61500E+01 4.48040E+01 0.00000E+00
 -1       367 9.91500E+01 4.48040E+01 0.00000E+00
 -1       368 1.02150E+02 4.48040E+01 0.00000E+00
 -1       369 1.05150E+02 4.48040E+01 0.00000E+00
 -1       370 1.08150E+02 4.48040E+01 0.00000E+00
 -1       371 1.11150E+02 4.48040E+01 0.00000E+00
 -1       372 1.14150E+02 4.48040E+01 0.00000E+00
 -1       373 1.17150E+02 4.48040E+01 0.00000E+00
 -1       374 1.20150E+02 4.48040E+01 0.00000E+00
 -1       375 1.23150E+02 4.48040E+01 0.00000E+00
 -1       376 1.26150E+02 4.48040E+01 0.00000E+00
 -1       377 1.29150E+02 4.48040E+01 0.00000E+00
 -1       378 1.32150E+02 4.48040E+01 0.00000E+00
 -1       379 1.35150E+02 4.48040E+01 0.00000E+00
 -1       380 1.38150E+02 4.48040E+01 0.00000E+00
 -1       381 1.41150E+02 4.48040E+01 0.00000E+00
 -1       382 1.43838E+02 4.49212E+01 0.00000E+00
 -1       383 1.15350E+01 4.00625E+00 0.00000E+00
 -1       384 1.45350E+01 4.00625E+00 0.00000E+00
 -1       385 1.75350E+01 4.00625E+00 0.00000E+00
 -1       386 2.05350E+01 4.00625E+00 0.00000E+00
 -1       387 2.35350E+01 4.00625E+00 0.00000E+00
 -1       388 2.65350E+01 4.00625E+00 0.00000E+00
 -1       389 2.95350E+01 4.00625E+00 0.00000E+00
 -1       390 3.25350E+01 4.00625E+00 0.00000E+00
 -1       391 3.55350E+01 4.00625E+00 0.00000E+00
 -1       392 3.85350E+01 4.00625E+00 0.00000E+00
 -1       393 4.15350E+01 4.00625E+00 0.00000E+00
 -1       394 4.45350E+01 4.00625E+00 0.00000E+00
 -1       395 4.75350E+01 4.00625E+00 0.00000E+00
 -1       396 5.05350E+01 4.00625E+00 0.00000E+00
 -1       397 5.35350E+01 4.00625E+00 0.00000E+00
 -1       398 5.65350E+01 4.00625E+00 0.00000E+00
 -1       399 5.95350E+01 4.00625E+00 0.00000E+00
 -1       400 6.25350E+01 4.00625E+00 0.00000E+00
 -1       401 6.55350E+01 4.00625E+00 0.00000E+00
 -1       402 6.85350E+01 4.00625E+00 0.00000E+00
 -1       403 7.15350E+01 4.00625E+00 0.00000E+00
 -1       404 7.45350E+01 4.00625E+00 0.00000E+00
 -1       405 7.75350E+01 4.00625E+00 0.00000E+00
 -1       406 8.05350E+01 4.00625E+00 0.00000E+00
 -1       407 8.35350E+01 4.00625E+00 0.00000E+00
 -1       408 8.65350E+01 4.00625E+00 0.00000E+00
 -1       409 8.95350E+01 4.00625E+00 0.00000E+00
 -1       410 9.25350E+01 4.00625E+00 0.00000E+00
 -1       411 9.55350E+01 4.00625E+00 0.00000E+00
 -1       412 9.85350E+01 4.00625E+00 0.00000E+00
 -1       413 1.01535E+02 4.00625E+00 0.00000E+00
 -1       414 1.04535E+02 4.00625E+00 0.00000E+00
 -1       415 1.07535E+02 4.00625E+00 0.00000E+00
 -1       416 1.10535E+02 4.00625E+00 0.00000E+00
 -1       417 1.13535E+02 4.00625E+00 0.00000E+00
 -1       418 1.16535E+02 4.00625E+00 0.00000E+00
 -1       419 1.19535E+02 4.00625E+00 0.00000E+00
 -1       420 1.22535E+02 4.00625E+00 0.00000E+00
 -1       421 1.25535E+02 4.00625E+00 0.00000E+00
 -1       422 1.28535E+02 4.00625E+00 0.00000E+00
 -1       423 1.31535E+02 4.00625E+00 0.00000E+00
 -1       424 1.34535E+02 4.00625E+00 0.00000E+00
 -1       425 1.37535E+02 4.00625E+00 0.00000E+00
 -1       426 1.40535E+02 4.00625E+00 0.00000E+00
 -1       427 1.43535E+02 4.00625E+00 0.00000E+00
 -1       428 1.45469E+02 4.21562E+00 0.00000E+00
 -1       429 1.44804E+02 1.18000E+01 0.00000E+00
 -1       430 1.44804E+02 8.85000E+00 0.00000E+00
 -1       431 1.45136E+02 6.53281E+00 0.00000E+00
 -1       432 1.44804E+02 1.47000E+01 0.00000E+00
 -1       433 1.44804E+02 1.76500E+01 0.00000E+00
 -1       434 1.44804E+02 2.06000E+01 0.00000E+00
 -1       435 1.44804E+02 2.35500E+01 0.00000E+00
 -1       436 1.44804E+02 2.65000E+01 0.00000E+00
 -1       437 1.44804E+02 2.94500E+01 0.00000E+00
 -1       438 1.44804E+02 3.23500E+01 0.00000E+00
 -1       439 1.44804E+02 3.53000E+01 0.00000E+00
 -1       440 1.44804E+02 3.82500E+01 0.00000E+00
 -1       441 1.44804E+02 4.12000E+01 0.00000E+00
 -1       442 8.43323E+01 2.41387E+01 0.00000E+00
 -1       443 8.52490E+01 2.81712E+01 0.00000E+00
 -1       444 8.47891E+01 2.58398E+01 0.00000E+00
 -1       445 8.33074E+01 2.24030E+01 0.00000E+00
 -1       446 8.20665E+01 2.09285E+01 0.00000E+00
 -1       447 5.19600E+00 3.82125E+01 0.00000E+00
 -1       448 7.84006E+01 1.87110E+01 0.00000E+00
 -1       449 7.61529E+01 1.86409E+01 0.00000E+00
 -1       450 7.41384E+01 1.85913E+01 0.00000E+00
 -1       451 7.21059E+01 1.90287E+01 0.00000E+00
 -1       452 7.03110E+01 2.01703E+01 0.00000E+00
 -1       453 6.86552E+01 2.12323E+01 0.00000E+00
 -1       454 6.75920E+01 2.29244E+01 0.00000E+00
 -1       455 6.65320E+01 2.46035E+01 0.00000E+00
 -1       456 6.59170E+01 2.63710E+01 0.00000E+00
 -1       457 6.59470E+01 2.88987E+01 0.00000E+00
 -1       458 6.62810E+01 3.08569E+01 0.00000E+00
 -1       459 6.71740E+01 3.25333E+01 0.00000E+00
 -1       460 6.79931E+01 3.40640E+01 0.00000E+00
 -1       461 6.96472E+01 3.57792E+01 0.00000E+00
 -1       462 7.11238E+01 3.66165E+01 0.00000E+00
 -1       463 7.31147E+01 3.76177E+01 0.00000E+00
 -1       464 7.48112E+01 3.78782E+01 0.00000E+00
 -1       465 7.71147E+01 3.77891E+01 0.00000E+00
 -1       466 7.86933E+01 3.72941E+01 0.00000E+00
 -1       467 8.08130E+01 3.65267E+01 0.00000E+00
 -1       468 8.20146E+01 3.53889E+01 0.00000E+00
 -1       469 8.32671E+01 3.36834E+01 0.00000E+00
 -1       470 8.44919E+01 3.18074E+01 0.00000E+00
 -1       471 8.48096E+01 3.02228E+01 0.00000E+00
 -1       472 8.02102E+01 1.95593E+01 0.00000E+00
 -1       473 6.80859E+01 3.56266E+01 0.00000E+00
 -1       474 6.48205E+01 2.75400E+01 0.00000E+00
 -1       475 1.00350E+01 6.60425E+00 0.00000E+00
 -1       476 7.79400E+00 3.08500E+01 0.00000E+00
 -1       477 7.79400E+00 3.38000E+01 0.00000E+00
 -1       478 7.79400E+00 2.49500E+01 0.00000E+00
 -1       479 7.79400E+00 2.20000E+01 0.00000E+00
 -1       480 7.79400E+00 1.91000E+01 0.00000E+00
 -1       481 7.79400E+00 1.61500E+01 0.00000E+00
 -1       482 7.79400E+00 1.32000E+01 0.00000E+00
 -1       483 7.79400E+00 1.02500E+01 0.00000E+00
 -1       484 1.30350E+01 6.60425E+00 0.00000E+00
 -1       485 1.06500E+01 4.22060E+01 0.00000E+00
 -1       486 7.99267E+01 1.78098E+01 0.00000E+00
 -1       487 1.36500E+01 4.22060E+01 0.00000E+00
 -1       488 1.66500E+01 4.22060E+01 0.00000E+00
 -1       489 1.96500E+01 4.22060E+01 0.00000E+00
 -1       490 2.26500E+01 4.22060E+01 0.00000E+00
 -1       491 2.56500E+01 4.22060E+01 0.00000E+00
 -1       492 2.86500E+01 4.22060E+01 0.00000E+00
 -1       493 3.16500E+01 4.22060E+01 0.00000E+00
 -1       494 3.46500E+01 4.22060E+01 0.00000E+00
 -1       495 3.76500E+01 4.22060E+01 0.00000E+00
 -1       496 4.06500E+01 4.22060E+01 0.00000E+00
 -1       497 4.36500E+01 4.22060E+01 0.00000E+00
 -1       498 4.66500E+01 4.22060E+01 0.00000E+00
 -1       499 4.96500E+01 4.22060E+01 0.00000E+00
 -1       500 5.26500E+01 4.22060E+01 0.00000E+00
 -1       501 5.56500E+01 4.22060E+01 0.00000E+00
 -1       502 5.86500E+01 4.22060E+01 0.00000E+00
 -1       503 6.16500E+01 4.22060E+01 0.00000E+00
 -1       504 6.46500E+01 4.22060E+01 0.00000E+00
 -1       505 6.76500E+01 4.22060E+01 0.00000E+00
 -1       506 7.06500E+01 4.22060E+01 0.00000E+00
 -1       507 7.36500E+01 4.22060E+01 0.00000E+00
 -1       508 7.66500E+01 4.22060E+01 0.00000E+00
 -1       509 7.96500E+01 4.22060E+01 0.00000E+00
 -1       510 8.26500E+01 4.22060E+01 0.00000E+00
 -1       511 8.56500E+01 4.22060E+01 0.00000E+00
 -1       512 8.86500E+01 4.22060E+01 0.00000E+00
 -1       513 9.16500E+01 4.22060E+01 0.00000E+00
 -1       514 9.46500E+01 4.22060E+01 0.00000E+00
 -1       515 9.76500E+01 4.22060E+01 0.00000E+00
 -1       516 1.00650E+02 4.22060E+01 0.00000E+00
 -1       517 1.03650E+02 4.22060E+01 0.00000E+00
 -1       518 1.06650E+02 4.22060E+01 0.00000E+00
 -1       519 1.09650E+02 4.22060E+01 0.00000E+00
 -1       520 1.12650E+02 4.22060E+01 0.00000E+00
 -1       521 1.15650E+02 4.22060E+01 0.00000E+00
 -1       522 1.18650E+02 4.22060E+01 0.00000E+00
 -1       523 1.21650E+02 4.22060E+01 0.00000E+00
 -1       524 1.24650E+02 4.22060E+01 0.00000E+00
 -1       525 1.27650E+02 4.22060E+01 0.00000E+00
 -1       526 1.30650E+02 4.22060E+01 0.00000E+00
 -1       527 1.33650E+02 4.22060E+01 0.00000E+00
 -1       528 1.36650E+02 4.22060E+01 0.00000E+00
 -1       529 1.39650E+02 4.22060E+01 0.00000E+00
 -1       530 8.65408E+01 2.44574E+01 0.00000E+00
 -1       531 1.90350E+01 6.60425E+00 0.00000E+00
 -1       532 2.20350E+01 6.60425E+00 0.00000E+00
 -1       533 2.50350E+01 6.60425E+00 0.00000E+00
 -1       534 2.80350E+01 6.60425E+00 0.00000E+00
 -1       535 3.10350E+01 6.60425E+00 0.00000E+00
 -1       536 3.40350E+01 6.60425E+00 0.00000E+00
 -1       537 3.70350E+01 6.60425E+00 0.00000E+00
 -1       538 4.00350E+01 6.60425E+00 0.00000E+00
 -1       539 4.30350E+01 6.60425E+00 0.00000E+00
 -1       540 4.60350E+01 6.60425E+00 0.00000E+00
 -1       541 4.90350E+01 6.60425E+00 0.00000E+00
 -1       542 5.20350E+01 6.60425E+00 0.00000E+00
 -1       543 5.50350E+01 6.60425E+00 0.00000E+00
 -1       544 5.80350E+01 6.60425E+00 0.00000E+00
 -1       545 6.10350E+01 6.60425E+00 0.00000E+00
 -1       546 6.40350E+01 6.60425E+00 0.00000E+00
 -1       547 6.70350E+01 6.60425E+00 0.00000E+00
 -1       548 7.00350E+01 6.60425E+00 0.00000E+00
 -1       549 7.30350E+01 6.60425E+00 0.00000E+00
 -1       550 7.60350E+01 6.60425E+00 0.00000E+00
 -1       551 7.90350E+01 6.60425E+00 0.00000E+00
 -1       552 8.20350E+01 6.60425E+00 0.00000E+00
 -1       553 8.50350E+01 6.60425E+00 0.00000E+00
 -1       554 8.80350E+01 6.60425E+00 0.00000E+00
 -1       555 9.10350E+01 6.60425E+00 0.00000E+00
 -1       556 9.40350E+01 6.60425E+00 0.00000E+00
 -1       557 9.70350E+01 6.60425E+00 0.00000E+00
 -1       558 1.00035E+02 6.60425E+00 0.00000E+00
 -1       559 1.03035E+02 6.60425E+00 0.00000E+00
 -1       560 1.06035E+02 6.60425E+00 0.00000E+00
 -1       561 1.09035E+02 6.60425E+00 0.00000E+00
 -1       562 1.12035E+02 6.60425E+00 0.00000E+00
 -1       563 1.15035E+02 6.60425E+00 0.00000E+00
 -1       564 1.18035E+02 6.60425E+00 0.00000E+00
 -1       565 1.21035E+02 6.60425E+00 0.00000E+00
 -1       566 1.24035E+02 6.60425E+00 0.00000E+00
 -1       567 1.27035E+02 6.60425E+00 0.00000E+00
 -1       568 1.30035E+02 6.60425E+00 0.00000E+00
 -1       569 1.33035E+02 6.60425E+00 0.00000E+00
 -1       570 1.36035E+02 6.60425E+00 0.00000E+00
 -1       571 1.39035E+02 6.60425E+00 0.00000E+00
 -1       572 1.42035E+02 6.60425E+00 0.00000E+00
 -1       573 1.42206E+02 1.61750E+01 0.00000E+00
 -1       574 1.42206E+02 1.91250E+01 0.00000E+00
 -1       575 1.42206E+02 1.03250E+01 0.00000E+00
 -1       576 1.42206E+02 1.32500E+01 0.00000E+00
 -1       577 1.42206E+02 2.20750E+01 0.00000E+00
 -1       578 1.42206E+02 2.50250E+01 0.00000E+00
 -1       579 1.42206E+02 2.79750E+01 0.00000E+00
 -1       580 1.42206E+02 3.08750E+01 0.00000E+00
 -1       581 1.42206E+02 3.38250E+01 0.00000E+00
 -1       582 1.42206E+02 3.67750E+01 0.00000E+00
 -1       583 1.42206E+02 3.97250E+01 0.00000E+00
 -1       584 8.67064E+01 2.95562E+01 0.00000E+00
 -1       585 1.60350E+01 6.60425E+00 0.00000E+00
 -1       586 8.55159E+01 2.27217E+01 0.00000E+00
 -1       587 8.39557E+01 3.55017E+01 0.00000E+00
 -1       588 8.39992E+01 2.05614E+01 0.00000E+00
 -1       589 8.70007E+01 2.67889E+01 0.00000E+00
 -1       590 6.56117E+01 2.28484E+01 0.00000E+00
 -1       591 7.79400E+00 2.79000E+01 0.00000E+00
 -1       592 7.51858E+01 1.69853E+01 0.00000E+00
 -1       593 6.46711E+01 3.01239E+01 0.00000E+00
 -1       594 7.73302E+01 1.69617E+01 0.00000E+00
 -1       595 7.27261E+01 1.69695E+01 0.00000E+00
 -1       596 7.03779E+01 1.82937E+01 0.00000E+00
 -1       597 6.86024E+01 1.93281E+01 0.00000E+00
 -1       598 6.66749E+01 2.11563E+01 0.00000E+00
 -1       599 6.46047E+01 2.49236E+01 0.00000E+00
 -1       600 8.53156E+01 3.36831E+01 0.00000E+00
 -1       601 6.53616E+01 3.24226E+01 0.00000E+00
 -1       602 6.61807E+01 3.39533E+01 0.00000E+00
 -1       603 6.96634E+01 3.74711E+01 0.00000E+00
 -1       604 7.13487E+01 3.86494E+01 0.00000E+00
 -1       605 7.37026E+01 3.94432E+01 0.00000E+00
 -1       606 7.60260E+01 3.94637E+01 0.00000E+00
 -1       607 7.85174E+01 3.94979E+01 0.00000E+00
 -1       608 8.06371E+01 3.87305E+01 0.00000E+00
 -1       609 8.27082E+01 3.73248E+01 0.00000E+00
 -1       610 8.63887E+01 3.11408E+01 0.00000E+00
 -1       611 7.92300E+00 4.16780E+01 0.00000E+00
 -1       612 7.61550E+00 6.21462E+00 0.00000E+00
 -1       613 8.21564E+01 1.88636E+01 0.00000E+00
 -1       614 7.79400E+00 3.67375E+01 0.00000E+00
 -1       615 1.41678E+02 4.22645E+01 0.00000E+00
 -1       616 6.62736E+01 3.55159E+01 0.00000E+00
 -1       617 6.81021E+01 3.73186E+01 0.00000E+00
 -1       618 6.35446E+01 2.87652E+01 0.00000E+00
 -1       619 7.88564E+01 1.60605E+01 0.00000E+00
 -1       620 7.85850E+00 3.92077E+01 0.00000E+00
 -1       621 6.35082E+01 2.60925E+01 0.00000E+00
 -1       622 1.03920E+01 2.05500E+01 0.00000E+00
 -1       623 1.03920E+01 2.35000E+01 0.00000E+00
 -1       624 1.03920E+01 1.46750E+01 0.00000E+00
 -1       625 1.03920E+01 1.17250E+01 0.00000E+00
 -1       626 1.15350E+01 9.20225E+00 0.00000E+00
 -1       627 8.62984E+01 2.05598E+01 0.00000E+00
 -1       628 1.45350E+01 9.20225E+00 0.00000E+00
 -1       629 8.28240E+01 3.97241E+01 0.00000E+00
 -1       630 1.05855E+01 3.97357E+01 0.00000E+00
 -1       631 1.51500E+01 3.96080E+01 0.00000E+00
 -1       632 1.81500E+01 3.96080E+01 0.00000E+00
 -1       633 2.11500E+01 3.96080E+01 0.00000E+00
 -1       634 2.41500E+01 3.96080E+01 0.00000E+00
 -1       635 2.71500E+01 3.96080E+01 0.00000E+00
 -1       636 3.01500E+01 3.96080E+01 0.00000E+00
 -1       637 3.31500E+01 3.96080E+01 0.00000E+00
 -1       638 3.61500E+01 3.96080E+01 0.00000E+00
 -1       639 3.91500E+01 3.96080E+01 0.00000E+00
 -1       640 4.21500E+01 3.96080E+01 0.00000E+00
 -1       641 4.51500E+01 3.96080E+01 0.00000E+00
 -1       642 4.81500E+01 3.96080E+01 0.00000E+00
 -1       643 5.11500E+01 3.96080E+01 0.00000E+00
 -1       644 5.41500E+01 3.96080E+01 0.00000E+00
 -1       645 5.71500E+01 3.96080E+01 0.00000E+00
 -1       646 6.01500E+01 3.96080E+01 0.00000E+00
 -1       647 6.31500E+01 3.96080E+01 0.00000E+00
 -1       648 6.61500E+01 3.96080E+01 0.00000E+00
 -1       649 8.71500E+01 3.96080E+01 0.00000E+00
 -1       650 9.01500E+01 3.96080E+01 0.00000E+00
 -1       651 9.31500E+01 3.96080E+01 0.00000E+00
 -1       652 9.61500E+01 3.96080E+01 0.00000E+00
 -1       653 9.91500E+01 3.96080E+01 0.00000E+00
 -1       654 1.02150E+02 3.96080E+01 0.00000E+00
 -1       655 1.05150E+02 3.96080E+01 0.00000E+00
 -1       656 1.08150E+02 3.96080E+01 0.00000E+00
 -1       657 1.11150E+02 3.96080E+01 0.00000E+00
 -1       658 1.14150E+02 3.96080E+01 0.00000E+00
 -1       659 1.17150E+02 3.96080E+01 0.00000E+00
 -1       660 1.20150E+02 3.96080E+01 0.00000E+00
 -1       661 1.23150E+02 3.96080E+01 0.00000E+00
 -1       662 1.26150E+02 3.96080E+01 0.00000E+00
 -1       663 1.29150E+02 3.96080E+01 0.00000E+00
 -1       664 1.32150E+02 3.96080E+01 0.00000E+00
 -1       665 1.35150E+02 3.96080E+01 0.00000E+00
 -1       666 1.38150E+02 3.96080E+01 0.00000E+00
 -1       667 8.73233E+01 2.22955E+01 0.00000E+00
 -1       668 2.05350E+01 9.20225E+00 0.00000E+00
 -1       669 2.95350E+01 9.20225E+00 0.00000E+00
 -1       670 3.25350E+01 9.20225E+00 0.00000E+00
 -1       671 3.55350E+01 9.20225E+00 0.00000E+00
 -1       672 3.85350E+01 9.20225E+00 0.00000E+00
 -1       673 4.15350E+01 9.20225E+00 0.00000E+00
 -1       674 4.45350E+01 9.20225E+00 0.00000E+00
 -1       675 4.75350E+01 9.20225E+00 0.00000E+00
 -1       676 5.05350E+01 9.20225E+00 0.00000E+00
 -1       677 5.35350E+01 9.20225E+00 0.00000E+00
 -1       678 5.65350E+01 9.20225E+00 0.00000E+00
 -1       679 5.95350E+01 9.20225E+00 0.00000E+00
 -1       680 6.25350E+01 9.20225E+00 0.00000E+00
 -1       681 6.55350E+01 9.20225E+00 0.00000E+00
 -1       682 6.85350E+01 9.20225E+00 0.00000E+00
 -1       683 7.15350E+01 9.20225E+00 0.00000E+00
 -1       684 7.45350E+01 9.20225E+00 0.00000E+00
 -1       685 7.75350E+01 9.20225E+00 0.00000E+00
 -1       686 8.05350E+01 9.20225E+00 0.00000E+00
 -1       687 8.35350E+01 9.20225E+00 0.00000E+00
 -1       688 8.65350E+01 9.20225E+00 0.00000E+00
 -1       689 8.95350E+01 9.20225E+00 0.00000E+00
 -1       690 9.25350E+01 9.20225E+00 0.00000E+00
 -1       691 9.55350E+01 9.20225E+00 0.00000E+00
 -1       692 9.85350E+01 9.20225E+00 0.00000E+00
 -1       693 1.01535E+02 9.20225E+00 0.00000E+00
 -1       694 1.04535E+02 9.20225E+00 0.00000E+00
 -1       695 1.07535E+02 9.20225E+00 0.00000E+00
 -1       696 1.10535E+02 9.20225E+00 0.00000E+00
 -1       697 1.13535E+02 9.20225E+00 0.00000E+00
 -1       698 1.16535E+02 9.20225E+00 0.00000E+00
 -1       699 1.19535E+02 9.20225E+00 0.00000E+00
 -1       700 1.22535E+02 9.20225E+00 0.00000E+00
 -1       701 1.25535E+02 9.20225E+00 0.00000E+00
 -1       702 1.28535E+02 9.20225E+00 0.00000E+00
 -1       703 1.31535E+02 9.20225E+00 0.00000E+00
 -1       704 1.34535E+02 9.20225E+00 0.00000E+00
 -1       705 1.37535E+02 9.20225E+00 0.00000E+00
 -1       706 1.39870E+02 9.76363E+00 0.00000E+00
 -1       707 8.43534E+01 1.83279E+01 0.00000E+00
 -1       708 1.39608E+02 2.35500E+01 0.00000E+00
 -1       709 1.40178E+02 3.96665E+01 0.00000E+00
 -1       710 1.39608E+02 1.76500E+01 0.00000E+00
 -1       711 1.39608E+02 2.65000E+01 0.00000E+00
 -1       712 1.39608E+02 2.06000E+01 0.00000E+00
 -1       713 1.39608E+02 2.94000E+01 0.00000E+00
 -1       714 1.39608E+02 3.23500E+01 0.00000E+00
 -1       715 1.39608E+02 3.53000E+01 0.00000E+00
 -1       716 1.75350E+01 9.20225E+00 0.00000E+00
 -1       717 6.45491E+01 2.10007E+01 0.00000E+00
 -1       718 8.75866E+01 3.31441E+01 0.00000E+00
 -1       719 8.82292E+01 3.06857E+01 0.00000E+00
 -1       720 8.87257E+01 2.83716E+01 0.00000E+00
 -1       721 7.39691E+01 1.49272E+01 0.00000E+00
 -1       722 8.89466E+01 2.51940E+01 0.00000E+00
 -1       723 2.65350E+01 9.20225E+00 0.00000E+00
 -1       724 2.35350E+01 9.20225E+00 0.00000E+00
 -1       725 1.28678E+01 3.96719E+01 0.00000E+00
 -1       726 8.17744E+01 1.67861E+01 0.00000E+00
 -1       727 1.03920E+01 1.76125E+01 0.00000E+00
 -1       728 1.03920E+01 3.23250E+01 0.00000E+00
 -1       729 6.34540E+01 3.17426E+01 0.00000E+00
 -1       730 7.07095E+01 1.61377E+01 0.00000E+00
 -1       731 6.86268E+01 1.73290E+01 0.00000E+00
 -1       732 6.34144E+01 2.30640E+01 0.00000E+00
 -1       733 6.95713E+01 3.93972E+01 0.00000E+00
 -1       734 6.41112E+01 3.40762E+01 0.00000E+00
 -1       735 8.50240E+01 3.75711E+01 0.00000E+00
 -1       736 8.63839E+01 3.57524E+01 0.00000E+00
 -1       737 6.63430E+01 1.88762E+01 0.00000E+00
 -1       738 7.61135E+01 1.49036E+01 0.00000E+00
 -1       739 1.03920E+01 3.52625E+01 0.00000E+00
 -1       740 1.03920E+01 2.64500E+01 0.00000E+00
 -1       741 7.46656E+01 4.12154E+01 0.00000E+00
 -1       742 8.07041E+01 1.50367E+01 0.00000E+00
 -1       743 1.39608E+02 1.47250E+01 0.00000E+00
 -1       744 1.39739E+02 1.22443E+01 0.00000E+00
 -1       745 6.23180E+01 2.42330E+01 0.00000E+00
 -1       746 6.62898E+01 3.72079E+01 0.00000E+00
 -1       747 7.19525E+01 1.40954E+01 0.00000E+00
 -1       748 6.23275E+01 3.03838E+01 0.00000E+00
 -1       749 1.03920E+01 2.93875E+01 0.00000E+00
 -1       750 6.22323E+01 2.73178E+01 0.00000E+00
 -1       751 1.38879E+02 3.74540E+01 0.00000E+00
 -1       752 6.38796E+01 1.86158E+01 0.00000E+00
 -1       753 1.29900E+01 1.32000E+01 0.00000E+00
 -1       754 6.21853E+01 2.10444E+01 0.00000E+00
 -1       755 7.50169E+01 1.26977E+01 0.00000E+00
 -1       756 1.96500E+01 3.70100E+01 0.00000E+00
 -1       757 2.26500E+01 3.70100E+01 0.00000E+00
 -1       758 2.56500E+01 3.70100E+01 0.00000E+00
 -1       759 2.86500E+01 3.70100E+01 0.00000E+00
 -1       760 3.16500E+01 3.70100E+01 0.00000E+00
 -1       761 3.46500E+01 3.70100E+01 0.00000E+00
 -1       762 3.76500E+01 3.70100E+01 0.00000E+00
 -1       763 4.06500E+01 3.70100E+01 0.00000E+00
 -1       764 4.36500E+01 3.70100E+01 0.00000E+00
 -1       765 4.66500E+01 3.70100E+01 0.00000E+00
 -1       766 4.96500E+01 3.70100E+01 0.00000E+00
 -1       767 5.26500E+01 3.70100E+01 0.00000E+00
 -1       768 5.56500E+01 3.70100E+01 0.00000E+00
 -1       769 5.86500E+01 3.70100E+01 0.00000E+00
 -1       770 6.16500E+01 3.70100E+01 0.00000E+00
 -1       771 9.04821E+01 2.99587E+01 0.00000E+00
 -1       772 9.16500E+01 3.70100E+01 0.00000E+00
 -1       773 9.46500E+01 3.70100E+01 0.00000E+00
 -1       774 9.76500E+01 3.70100E+01 0.00000E+00
 -1       775 1.00650E+02 3.70100E+01 0.00000E+00
 -1       776 1.03650E+02 3.70100E+01 0.00000E+00
 -1       777 1.06650E+02 3.70100E+01 0.00000E+00
 -1       778 1.09650E+02 3.70100E+01 0.00000E+00
 -1       779 1.12650E+02 3.70100E+01 0.00000E+00
 -1       780 1.15650E+02 3.70100E+01 0.00000E+00
 -1       781 1.18650E+02 3.70100E+01 0.00000E+00
 -1       782 1.21650E+02 3.70100E+01 0.00000E+00
 -1       783 1.24650E+02 3.70100E+01 0.00000E+00
 -1       784 1.27650E+02 3.70100E+01 0.00000E+00
 -1       785 1.30650E+02 3.70100E+01 0.00000E+00
 -1       786 1.33650E+02 3.70100E+01 0.00000E+00
 -1       787 1.36264E+02 3.72320E+01 0.00000E+00
 -1       788 8.88649E+01 2.02147E+01 0.00000E+00
 -1       789 2.20350E+01 1.18003E+01 0.00000E+00
 -1       790 3.10350E+01 1.18003E+01 0.00000E+00
 -1       791 4.00350E+01 1.18003E+01 0.00000E+00
 -1       792 4.30350E+01 1.18003E+01 0.00000E+00
 -1       793 4.60350E+01 1.18003E+01 0.00000E+00
 -1       794 4.90350E+01 1.18003E+01 0.00000E+00
 -1       795 5.20350E+01 1.18003E+01 0.00000E+00
 -1       796 5.50350E+01 1.18003E+01 0.00000E+00
 -1       797 5.80350E+01 1.18003E+01 0.00000E+00
 -1       798 6.10350E+01 1.18003E+01 0.00000E+00
 -1       799 6.40350E+01 1.18003E+01 0.00000E+00
 -1       800 6.70350E+01 1.18003E+01 0.00000E+00
 -1       801 7.00350E+01 1.18003E+01 0.00000E+00
 -1       802 7.90350E+01 1.14201E+01 0.00000E+00
 -1       803 8.20350E+01 1.14201E+01 0.00000E+00
 -1       804 8.50350E+01 1.14201E+01 0.00000E+00
 -1       805 8.80350E+01 1.14201E+01 0.00000E+00
 -1       806 9.10350E+01 1.14201E+01 0.00000E+00
 -1       807 9.40350E+01 1.14201E+01 0.00000E+00
 -1       808 9.70350E+01 1.14201E+01 0.00000E+00
 -1       809 1.00035E+02 1.14201E+01 0.00000E+00
 -1       810 1.03035E+02 1.14201E+01 0.00000E+00
 -1       811 1.06035E+02 1.14201E+01 0.00000E+00
 -1       812 1.09035E+02 1.14201E+01 0.00000E+00
 -1       813 1.12035E+02 1.14201E+01 0.00000E+00
 -1       814 1.15035E+02 1.14201E+01 0.00000E+00
 -1       815 1.18035E+02 1.14201E+01 0.00000E+00
 -1       816 1.21035E+02 1.14201E+01 0.00000E+00
 -1       817 1.24035E+02 1.14201E+01 0.00000E+00
 -1       818 1.27035E+02 1.14201E+01 0.00000E+00
 -1       819 1.30035E+02 1.14201E+01 0.00000E+00
 -1       820 1.33035E+02 1.14201E+01 0.00000E+00
 -1       821 1.36035E+02 1.14201E+01 0.00000E+00
 -1       822 1.37887E+02 1.18322E+01 0.00000E+00
 -1       823 1.37010E+02 2.79500E+01 0.00000E+00
 -1       824 8.41159E+01 1.57972E+01 0.00000E+00
 -1       825 1.37010E+02 3.38250E+01 0.00000E+00
 -1       826 1.37010E+02 2.50000E+01 0.00000E+00
 -1       827 2.80350E+01 1.18003E+01 0.00000E+00
 -1       828 1.37010E+02 3.08875E+01 0.00000E+00
 -1       829 3.70350E+01 1.18003E+01 0.00000E+00
 -1       830 3.40350E+01 1.18003E+01 0.00000E+00
 -1       831 8.90170E+01 3.63812E+01 0.00000E+00
 -1       832 8.98395E+01 3.24171E+01 0.00000E+00
 -1       833 6.40561E+01 3.65027E+01 0.00000E+00
 -1       834 2.50350E+01 1.18003E+01 0.00000E+00
 -1       835 1.66500E+01 3.70100E+01 0.00000E+00
 -1       836 1.04888E+01 3.74991E+01 0.00000E+00
 -1       837 1.37625E+01 1.12011E+01 0.00000E+00
 -1       838 9.10486E+01 2.69367E+01 0.00000E+00
 -1       839 8.69199E+01 1.79828E+01 0.00000E+00
 -1       840 6.21317E+01 3.33743E+01 0.00000E+00
 -1       841 9.04882E+01 2.31133E+01 0.00000E+00
 -1       842 6.61470E+01 1.61277E+01 0.00000E+00
 -1       843 6.87334E+01 1.50991E+01 0.00000E+00
 -1       844 7.82818E+01 1.35929E+01 0.00000E+00
 -1       845 1.29900E+01 2.20250E+01 0.00000E+00
 -1       846 1.29900E+01 2.49750E+01 0.00000E+00
 -1       847 1.29900E+01 1.61375E+01 0.00000E+00
 -1       848 6.10889E+01 2.22134E+01 0.00000E+00
 -1       849 1.67625E+01 1.12011E+01 0.00000E+00
 -1       850 1.27710E+01 3.74352E+01 0.00000E+00
 -1       851 1.37010E+02 1.61875E+01 0.00000E+00
 -1       852 1.37010E+02 1.91375E+01 0.00000E+00
 -1       853 1.37010E+02 2.20688E+01 0.00000E+00
 -1       854 6.10421E+01 2.54582E+01 0.00000E+00
 -1       855 9.25902E+01 2.48559E+01 0.00000E+00
 -1       856 1.93988E+01 1.15007E+01 0.00000E+00
 -1       857 1.29900E+01 1.90875E+01 0.00000E+00
 -1       858 6.10052E+01 3.20156E+01 0.00000E+00
 -1       859 1.29900E+01 3.37938E+01 0.00000E+00
 -1       860 6.10152E+01 2.89364E+01 0.00000E+00
 -1       861 1.36637E+02 3.55285E+01 0.00000E+00
 -1       862 1.29900E+01 3.08563E+01 0.00000E+00
 -1       863 3.85350E+01 1.43982E+01 0.00000E+00
 -1       864 8.68814E+01 1.51408E+01 0.00000E+00
 -1       865 2.41500E+01 3.44120E+01 0.00000E+00
 -1       866 2.71500E+01 3.44120E+01 0.00000E+00
 -1       867 3.01500E+01 3.44120E+01 0.00000E+00
 -1       868 3.31500E+01 3.44120E+01 0.00000E+00
 -1       869 3.61500E+01 3.44120E+01 0.00000E+00
 -1       870 3.91500E+01 3.44120E+01 0.00000E+00
 -1       871 4.21500E+01 3.44120E+01 0.00000E+00
 -1       872 4.51500E+01 3.44120E+01 0.00000E+00
 -1       873 4.81500E+01 3.44120E+01 0.00000E+00
 -1       874 5.11500E+01 3.44120E+01 0.00000E+00
 -1       875 5.41500E+01 3.44120E+01 0.00000E+00
 -1       876 5.71500E+01 3.44120E+01 0.00000E+00
 -1       877 9.31500E+01 3.44120E+01 0.00000E+00
 -1       878 9.24687E+01 3.17911E+01 0.00000E+00
 -1       879 1.59900E+01 1.32000E+01 0.00000E+00
 -1       880 6.66206E+01 1.35526E+01 0.00000E+00
 -1       881 9.61500E+01 3.44120E+01 0.00000E+00
 -1       882 9.91500E+01 3.44120E+01 0.00000E+00
 -1       883 1.02150E+02 3.44120E+01 0.00000E+00
 -1       884 1.05150E+02 3.44120E+01 0.00000E+00
 -1       885 1.08150E+02 3.44120E+01 0.00000E+00
 -1       886 1.11150E+02 3.44120E+01 0.00000E+00
 -1       887 1.14150E+02 3.44120E+01 0.00000E+00
 -1       888 1.17150E+02 3.44120E+01 0.00000E+00
 -1       889 1.20150E+02 3.44120E+01 0.00000E+00
 -1       890 1.23150E+02 3.44120E+01 0.00000E+00
 -1       891 1.26150E+02 3.44120E+01 0.00000E+00
 -1       892 1.29150E+02 3.44120E+01 0.00000E+00
 -1       893 1.32150E+02 3.44120E+01 0.00000E+00
 -1       894 1.37449E+02 1.40098E+01 0.00000E+00
 -1       895 1.81500E+01 3.44120E+01 0.00000E+00
 -1       896 4.15350E+01 1.43982E+01 0.00000E+00
 -1       897 5.05350E+01 1.43982E+01 0.00000E+00
 -1       898 5.35350E+01 1.43982E+01 0.00000E+00
 -1       899 5.65350E+01 1.43982E+01 0.00000E+00
 -1       900 5.95350E+01 1.43982E+01 0.00000E+00
 -1       901 6.25350E+01 1.43982E+01 0.00000E+00
 -1       902 8.28925E+01 1.32523E+01 0.00000E+00
 -1       903 8.95350E+01 1.40181E+01 0.00000E+00
 -1       904 9.25350E+01 1.40181E+01 0.00000E+00
 -1       905 9.55350E+01 1.40181E+01 0.00000E+00
 -1       906 9.85350E+01 1.40181E+01 0.00000E+00
 -1       907 1.01535E+02 1.40181E+01 0.00000E+00
 -1       908 1.04535E+02 1.40181E+01 0.00000E+00
 -1       909 1.07535E+02 1.40181E+01 0.00000E+00
 -1       910 1.10535E+02 1.40181E+01 0.00000E+00
 -1       911 1.13535E+02 1.40181E+01 0.00000E+00
 -1       912 1.16535E+02 1.40181E+01 0.00000E+00
 -1       913 1.19535E+02 1.40181E+01 0.00000E+00
 -1       914 1.22535E+02 1.40181E+01 0.00000E+00
 -1       915 1.25535E+02 1.40181E+01 0.00000E+00
 -1       916 1.28535E+02 1.40181E+01 0.00000E+00
 -1       917 1.31535E+02 1.40181E+01 0.00000E+00
 -1       918 2.95350E+01 1.43982E+01 0.00000E+00
 -1       919 4.75350E+01 1.43982E+01 0.00000E+00
 -1       920 9.30352E+01 2.87691E+01 0.00000E+00
 -1       921 2.35350E+01 1.43982E+01 0.00000E+00
 -1       922 1.34412E+02 2.64750E+01 0.00000E+00
 -1       923 2.65350E+01 1.43982E+01 0.00000E+00
 -1       924 1.29900E+01 2.79188E+01 0.00000E+00
 -1       925 8.62137E+01 1.36352E+01 0.00000E+00
 -1       926 9.19433E+01 2.03945E+01 0.00000E+00
 -1       927 4.45350E+01 1.43982E+01 0.00000E+00
 -1       928 8.95644E+01 1.76417E+01 0.00000E+00
 -1       929 2.11500E+01 3.44120E+01 0.00000E+00
 -1       930 1.55700E+01 3.26341E+01 0.00000E+00
 -1       931 6.33740E+01 1.58779E+01 0.00000E+00
 -1       932 6.10761E+01 1.84652E+01 0.00000E+00
 -1       933 5.98130E+01 2.34386E+01 0.00000E+00
 -1       934 1.55880E+01 2.35000E+01 0.00000E+00
 -1       935 5.99796E+01 1.96342E+01 0.00000E+00
 -1       936 1.34682E+02 1.45858E+01 0.00000E+00
 -1       937 1.34394E+02 3.49702E+01 0.00000E+00
 -1       938 1.34412E+02 2.94125E+01 0.00000E+00
 -1       939 3.25350E+01 1.43982E+01 0.00000E+00
 -1       940 8.05350E+01 1.36379E+01 0.00000E+00
 -1       941 1.55880E+01 2.05625E+01 0.00000E+00
 -1       942 1.34682E+02 1.75358E+01 0.00000E+00
 -1       943 5.98250E+01 2.70769E+01 0.00000E+00
 -1       944 1.34412E+02 2.35438E+01 0.00000E+00
 -1       945 9.40453E+01 2.21372E+01 0.00000E+00
 -1       946 9.45768E+01 2.66883E+01 0.00000E+00
 -1       947 2.08988E+01 1.40987E+01 0.00000E+00
 -1       948 3.55350E+01 1.43982E+01 0.00000E+00
 -1       949 5.96929E+01 3.05681E+01 0.00000E+00
 -1       950 1.34580E+02 3.26497E+01 0.00000E+00
 -1       951 9.40350E+01 1.66161E+01 0.00000E+00
 -1       952 2.56500E+01 3.18140E+01 0.00000E+00
 -1       953 1.63076E+01 1.65250E+01 0.00000E+00
 -1       954 2.86500E+01 3.18140E+01 0.00000E+00
 -1       955 3.16500E+01 3.18140E+01 0.00000E+00
 -1       956 3.46500E+01 3.18140E+01 0.00000E+00
 -1       957 3.76500E+01 3.18140E+01 0.00000E+00
 -1       958 4.06500E+01 3.18140E+01 0.00000E+00
 -1       959 4.36500E+01 3.18140E+01 0.00000E+00
 -1       960 4.66500E+01 3.18140E+01 0.00000E+00
 -1       961 4.96500E+01 3.18140E+01 0.00000E+00
 -1       962 5.26500E+01 3.18140E+01 0.00000E+00
 -1       963 5.56500E+01 3.18140E+01 0.00000E+00
 -1       964 9.54687E+01 3.17911E+01 0.00000E+00
 -1       965 9.84687E+01 3.17911E+01 0.00000E+00
 -1       966 1.01469E+02 3.17911E+01 0.00000E+00
 -1       967 1.04469E+02 3.17911E+01 0.00000E+00
 -1       968 1.07469E+02 3.17911E+01 0.00000E+00
 -1       969 1.10469E+02 3.17911E+01 0.00000E+00
 -1       970 1.13469E+02 3.17911E+01 0.00000E+00
 -1       971 1.16469E+02 3.17911E+01 0.00000E+00
 -1       972 1.19469E+02 3.17911E+01 0.00000E+00
 -1       973 1.22469E+02 3.17911E+01 0.00000E+00
 -1       974 1.25469E+02 3.17911E+01 0.00000E+00
 -1       975 1.28469E+02 3.17911E+01 0.00000E+00
 -1       976 1.31469E+02 3.17911E+01 0.00000E+00
 -1       977 4.00350E+01 1.69963E+01 0.00000E+00
 -1       978 5.50350E+01 1.69963E+01 0.00000E+00
 -1       979 5.20350E+01 1.69963E+01 0.00000E+00
 -1       980 1.31535E+02 1.69681E+01 0.00000E+00
 -1       981 1.00035E+02 1.66161E+01 0.00000E+00
 -1       982 1.03035E+02 1.66161E+01 0.00000E+00
 -1       983 1.06035E+02 1.66161E+01 0.00000E+00
 -1       984 1.09035E+02 1.66161E+01 0.00000E+00
 -1       985 1.12035E+02 1.66161E+01 0.00000E+00
 -1       986 1.15035E+02 1.66161E+01 0.00000E+00
 -1       987 1.18035E+02 1.66161E+01 0.00000E+00
 -1       988 1.21035E+02 1.66161E+01 0.00000E+00
 -1       989 1.24035E+02 1.66161E+01 0.00000E+00
 -1       990 1.27035E+02 1.66161E+01 0.00000E+00
 -1       991 1.29285E+02 1.67921E+01 0.00000E+00
 -1       992 2.80350E+01 1.69963E+01 0.00000E+00
 -1       993 1.55880E+01 2.64438E+01 0.00000E+00
 -1       994 4.90350E+01 1.69963E+01 0.00000E+00
 -1       995 9.70350E+01 1.66161E+01 0.00000E+00
 -1       996 2.50350E+01 1.69963E+01 0.00000E+00
 -1       997 5.80350E+01 1.69963E+01 0.00000E+00
 -1       998 1.34412E+02 2.06125E+01 0.00000E+00
 -1       999 1.78532E+01 1.40129E+01 0.00000E+00
 -1      1000 2.26500E+01 3.18140E+01 0.00000E+00
 -1      1001 1.55880E+01 2.93813E+01 0.00000E+00
 -1      1002 1.96500E+01 3.18140E+01 0.00000E+00
 -1      1003 5.87038E+01 2.08594E+01 0.00000E+00
 -1      1004 5.85959E+01 2.50572E+01 0.00000E+00
 -1      1005 3.10350E+01 1.69963E+01 0.00000E+00
 -1      1006 4.30350E+01 1.69963E+01 0.00000E+00
 -1      1007 6.10350E+01 1.69963E+01 0.00000E+00
 -1      1008 9.55401E+01 1.93766E+01 0.00000E+00
 -1      1009 4.60350E+01 1.69963E+01 0.00000E+00
 -1      1010 1.81860E+01 2.20313E+01 0.00000E+00
 -1      1011 1.81860E+01 2.49750E+01 0.00000E+00
 -1      1012 1.31814E+02 2.50094E+01 0.00000E+00
 -1      1013 5.85027E+01 2.87086E+01 0.00000E+00
 -1      1014 9.60319E+01 2.39696E+01 0.00000E+00
 -1      1015 2.23988E+01 1.66967E+01 0.00000E+00
 -1      1016 3.70350E+01 1.69963E+01 0.00000E+00
 -1      1017 9.65227E+01 2.92397E+01 0.00000E+00
 -1      1018 1.31814E+02 2.79469E+01 0.00000E+00
 -1      1019 3.01500E+01 2.92160E+01 0.00000E+00
 -1      1020 3.31500E+01 2.92160E+01 0.00000E+00
 -1      1021 3.61500E+01 2.92160E+01 0.00000E+00
 -1      1022 3.91500E+01 2.92160E+01 0.00000E+00
 -1      1023 4.21500E+01 2.92160E+01 0.00000E+00
 -1      1024 4.51500E+01 2.92160E+01 0.00000E+00
 -1      1025 4.81500E+01 2.92160E+01 0.00000E+00
 -1      1026 5.11500E+01 2.92160E+01 0.00000E+00
 -1      1027 5.41500E+01 2.92160E+01 0.00000E+00
 -1      1028 5.65350E+01 1.95942E+01 0.00000E+00
 -1      1029 9.99687E+01 2.91931E+01 0.00000E+00
 -1      1030 1.02969E+02 2.91931E+01 0.00000E+00
 -1      1031 1.05969E+02 2.91931E+01 0.00000E+00
 -1      1032 1.08969E+02 2.91931E+01 0.00000E+00
 -1      1033 1.11969E+02 2.91931E+01 0.00000E+00
 -1      1034 1.14969E+02 2.91931E+01 0.00000E+00
 -1      1035 1.17969E+02 2.91931E+01 0.00000E+00
 -1      1036 1.20969E+02 2.91931E+01 0.00000E+00
 -1      1037 1.23969E+02 2.91931E+01 0.00000E+00
 -1      1038 1.26969E+02 2.91931E+01 0.00000E+00
 -1      1039 2.71500E+01 2.92160E+01 0.00000E+00
 -1      1040 1.07535E+02 1.92141E+01 0.00000E+00
 -1      1041 1.31265E+02 2.00448E+01 0.00000E+00
 -1      1042 1.04535E+02 1.92141E+01 0.00000E+00
 -1      1043 1.01535E+02 1.92141E+01 0.00000E+00
 -1      1044 1.10535E+02 1.92141E+01 0.00000E+00
 -1      1045 1.13535E+02 1.92141E+01 0.00000E+00
 -1      1046 1.16535E+02 1.92141E+01 0.00000E+00
 -1      1047 1.19535E+02 1.92141E+01 0.00000E+00
 -1      1048 1.22535E+02 1.92141E+01 0.00000E+00
 -1      1049 1.25535E+02 1.92141E+01 0.00000E+00
 -1      1050 1.89539E+01 2.83688E+01 0.00000E+00
 -1      1051 2.19539E+01 2.83688E+01 0.00000E+00
 -1      1052 5.05350E+01 1.95942E+01 0.00000E+00
 -1      1053 9.85376E+01 1.92954E+01 0.00000E+00
 -1      1054 3.40350E+01 1.69963E+01 0.00000E+00
 -1      1055 1.31539E+02 2.25271E+01 0.00000E+00
 -1      1056 1.93532E+01 1.66109E+01 0.00000E+00
 -1      1057 5.35350E+01 1.95942E+01 0.00000E+00
 -1      1058 2.45519E+01 2.87924E+01 0.00000E+00
 -1      1059 2.65350E+01 1.95942E+01 0.00000E+00
 -1      1060 1.87696E+01 1.93211E+01 0.00000E+00
 -1      1061 5.72736E+01 2.66890E+01 0.00000E+00
 -1      1062 5.70183E+01 2.90716E+01 0.00000E+00
 -1      1063 1.29969E+02 2.91931E+01 0.00000E+00
 -1      1064 5.74867E+01 2.24781E+01 0.00000E+00
 -1      1065 9.72847E+01 2.16325E+01 0.00000E+00
 -1      1066 2.35351E+01 1.95943E+01 0.00000E+00
 -1      1067 1.27785E+02 1.93901E+01 0.00000E+00
 -1      1068 2.07840E+01 2.35031E+01 0.00000E+00
 -1      1069 4.75350E+01 1.95942E+01 0.00000E+00
 -1      1070 3.85350E+01 1.95942E+01 0.00000E+00
 -1      1071 9.79778E+01 2.65210E+01 0.00000E+00
 -1      1072 1.29094E+02 2.40540E+01 0.00000E+00
 -1      1073 2.95350E+01 1.95942E+01 0.00000E+00
 -1      1074 1.29532E+02 2.66236E+01 0.00000E+00
 -1      1075 4.15350E+01 1.95942E+01 0.00000E+00
 -1      1076 2.13689E+01 2.59360E+01 0.00000E+00
 -1      1077 1.12035E+02 2.18121E+01 0.00000E+00
 -1      1078 3.46500E+01 2.66180E+01 0.00000E+00
 -1      1079 3.76500E+01 2.66180E+01 0.00000E+00
 -1      1080 4.06500E+01 2.66180E+01 0.00000E+00
 -1      1081 4.36500E+01 2.66180E+01 0.00000E+00
 -1      1082 4.66500E+01 2.66180E+01 0.00000E+00
 -1      1083 4.96500E+01 2.66180E+01 0.00000E+00
 -1      1084 5.26500E+01 2.66180E+01 0.00000E+00
 -1      1085 3.25350E+01 1.95942E+01 0.00000E+00
 -1      1086 2.86500E+01 2.66180E+01 0.00000E+00
 -1      1087 1.04469E+02 2.65951E+01 0.00000E+00
 -1      1088 1.07469E+02 2.65951E+01 0.00000E+00
 -1      1089 1.10469E+02 2.65951E+01 0.00000E+00
 -1      1090 1.13469E+02 2.65951E+01 0.00000E+00
 -1      1091 1.16469E+02 2.65951E+01 0.00000E+00
 -1      1092 1.19469E+02 2.65951E+01 0.00000E+00
 -1      1093 1.22469E+02 2.65951E+01 0.00000E+00
 -1      1094 1.25469E+02 2.65951E+01 0.00000E+00
 -1      1095 1.06035E+02 2.18121E+01 0.00000E+00
 -1      1096 1.03035E+02 2.18121E+01 0.00000E+00
 -1      1097 1.15035E+02 2.18121E+01 0.00000E+00
 -1      1098 1.18035E+02 2.18121E+01 0.00000E+00
 -1      1099 1.21035E+02 2.18121E+01 0.00000E+00
 -1      1100 1.24035E+02 2.18121E+01 0.00000E+00
 -1      1101 2.07656E+01 2.05067E+01 0.00000E+00
 -1      1102 2.50351E+01 2.21923E+01 0.00000E+00
 -1      1103 1.01469E+02 2.65951E+01 0.00000E+00
 -1      1104 3.55350E+01 1.95942E+01 0.00000E+00
 -1      1105 1.09035E+02 2.18121E+01 0.00000E+00
 -1      1106 4.45350E+01 1.95942E+01 0.00000E+00
 -1      1107 5.44867E+01 2.24781E+01 0.00000E+00
 -1      1108 1.28440E+02 2.17220E+01 0.00000E+00
 -1      1109 5.14867E+01 2.24781E+01 0.00000E+00
 -1      1110 3.16500E+01 2.66180E+01 0.00000E+00
 -1      1111 2.29095E+01 2.28477E+01 0.00000E+00
 -1      1112 5.54558E+01 2.65941E+01 0.00000E+00
 -1      1113 5.58801E+01 2.45835E+01 0.00000E+00
 -1      1114 2.34945E+01 2.52805E+01 0.00000E+00
 -1      1115 2.60519E+01 2.61944E+01 0.00000E+00
 -1      1116 2.80351E+01 2.21923E+01 0.00000E+00
 -1      1117 1.26285E+02 2.19881E+01 0.00000E+00
 -1      1118 4.84867E+01 2.24781E+01 0.00000E+00
 -1      1119 4.00350E+01 2.21922E+01 0.00000E+00
 -1      1120 1.00160E+02 2.17223E+01 0.00000E+00
 -1      1121 3.70350E+01 2.21922E+01 0.00000E+00
 -1      1122 9.93767E+01 2.41138E+01 0.00000E+00
 -1      1123 1.25454E+02 2.41586E+01 0.00000E+00
 -1      1124 3.10351E+01 2.21923E+01 0.00000E+00
 -1      1125 4.51500E+01 2.40200E+01 0.00000E+00
 -1      1126 4.25925E+01 2.31061E+01 0.00000E+00
 -1      1127 1.08969E+02 2.39971E+01 0.00000E+00
 -1      1128 1.04535E+02 2.44101E+01 0.00000E+00
 -1      1129 3.31500E+01 2.40200E+01 0.00000E+00
 -1      1130 2.55435E+01 2.41933E+01 0.00000E+00
 -1      1131 3.40350E+01 2.21923E+01 0.00000E+00
 -1      1132 0.00000E+00 4.85250E+01 0.00000E+00
 -1      1133 0.00000E+00 4.55750E+01 0.00000E+00
 -1      1134 0.00000E+00 4.26250E+01 0.00000E+00
 -1      1135 0.00000E+00 3.96750E+01 0.00000E+00
 -1      1136 0.00000E+00 3.67250E+01 0.00000E+00
 -1      1137 0.00000E+00 3.38000E+01 0.00000E+00
 -1      1138 0.00000E+00 3.08750E+01 0.00000E+00
 -1      1139 0.00000E+00 2.79250E+01 0.00000E+00
 -1      1140 0.00000E+00 2.49750E+01 0.00000E+00
 -1      1141 0.00000E+00 2.20250E+01 0.00000E+00
 -1      1142 0.00000E+00 1.90750E+01 0.00000E+00
 -1      1143 0.00000E+00 1.61500E+01 0.00000E+00
 -1      1144 0.00000E+00 1.32250E+01 0.00000E+00
 -1      1145 0.00000E+00 1.02750E+01 0.00000E+00
 -1      1146 0.00000E+00 7.32500E+00 0.00000E+00
 -1      1147 0.00000E+00 4.37500E+00 0.00000E+00
 -1      1148 0.00000E+00 1.45000E+00 0.00000E+00
 -1      1149 1.57500E+00 5.00000E+01 0.00000E+00
 -1      1150 4.65000E+00 5.00000E+01 0.00000E+00
 -1      1151 7.65000E+00 5.00000E+01 0.00000E+00
 -1      1152 1.06500E+01 5.00000E+01 0.00000E+00
 -1      1153 1.36500E+01 5.00000E+01 0.00000E+00
 -1      1154 1.66500E+01 5.00000E+01 0.00000E+00
 -1      1155 1.96500E+01 5.00000E+01 0.00000E+00
 -1      1156 2.26500E+01 5.00000E+01 0.00000E+00
 -1      1157 2.56500E+01 5.00000E+01 0.00000E+00
 -1      1158 2.86500E+01 5.00000E+01 0.00000E+00
 -1      1159 3.16500E+01 5.00000E+01 0.00000E+00
 -1      1160 3.46500E+01 5.00000E+01 0.00000E+00
 -1      1161 3.76500E+01 5.00000E+01 0.00000E+00
 -1      1162 4.06500E+01 5.00000E+01 0.00000E+00
 -1      1163 4.36500E+01 5.00000E+01 0.00000E+00
 -1      1164 4.66500E+01 5.00000E+01 0.00000E+00
 -1      1165 4.96500E+01 5.00000E+01 0.00000E+00
 -1      1166 5.26500E+01 5.00000E+01 0.00000E+00
 -1      1167 5.56500E+01 5.00000E+01 0.00000E+00
 -1      1168 5.86500E+01 5.00000E+01 0.00000E+00
 -1      1169 6.16500E+01 5.00000E+01 0.00000E+00
 -1      1170 6.46500E+01 5.00000E+01 0.00000E+00
 -1      1171 6.76500E+01 5.00000E+01 0.00000E+00
 -1      1172 7.06500E+01 5.00000E+01 0.00000E+00
 -1      1173 7.36500E+01 5.00000E+01 0.00000E+00
 -1      1174 7.66500E+01 5.00000E+01 0.00000E+00
 -1      1175 7.96500E+01 5.00000E+01 0.00000E+00
 -1      1176 8.26500E+01 5.00000E+01 0.00000E+00
 -1      1177 8.56500E+01 5.00000E+01 0.00000E+00
 -1      1178 8.86500E+01 5.00000E+01 0.00000E+00
 -1      1179 9.16500E+01 5.00000E+01 0.00000E+00
 -1      1180 9.46500E+01 5.00000E+01 0.00000E+00
 -1      1181 9.76500E+01 5.00000E+01 0.00000E+00
 -1      1182 1.00650E+02 5.00000E+01 0.00000E+00
 -1      1183 1.03650E+02 5.00000E+01 0.00000E+00
 -1      1184 1.06650E+02 5.00000E+01 0.00000E+00
 -1      1185 1.09650E+02 5.00000E+01 0.00000E+00
 -1      1186 1.12650E+02 5.00000E+01 0.00000E+00
 -1      1187 1.15650E+02 5.00000E+01 0.00000E+00
 -1      1188 1.18650E+02 5.00000E+01 0.00000E+00
 -1      1189 1.21650E+02 5.00000E+01 0.00000E+00
 -1      1190 1.24650E+02 5.00000E+01 0.00000E+00
 -1      1191 1.27650E+02 5.00000E+01 0.00000E+00
 -1      1192 1.30650E+02 5.00000E+01 0.00000E+00
 -1      1193 1.33650E+02 5.00000E+01 0.00000E+00
 -1      1194 1.36650E+02 5.00000E+01 0.00000E+00
 -1      1195 1.39650E+02 5.00000E+01 0.00000E+00
 -1      1196 1.42650E+02 5.00000E+01 0.00000E+00
 -1      1197 1.45650E+02 5.00000E+01 0.00000E+00
 -1      1198 1.48575E+02 5.00000E+01 0.00000E+00
 -1      1199 1.57500E+00 0.00000E+00 0.00000E+00
 -1      1200 4.65000E+00 0.00000E+00 0.00000E+00
 -1      1201 7.65000E+00 0.00000E+00 0.00000E+00
 -1      1202 1.06500E+01 0.00000E+00 0.00000E+00
 -1      1203 1.36500E+01 0.00000E+00 0.00000E+00
 -1      1204 1.66500E+01 0.00000E+00 0.00000E+00
 -1      1205 1.96500E+01 0.00000E+00 0.00000E+00
 -1      1206 2.26500E+01 0.00000E+00 0.00000E+00
 -1      1207 2.56500E+01 0.00000E+00 0.00000E+00
 -1      1208 2.86500E+01 0.00000E+00 0.00000E+00
 -1      1209 3.16500E+01 0.00000E+00 0.00000E+00
 -1      1210 3.46500E+01 0.00000E+00 0.00000E+00
 -1      1211 3.76500E+01 0.00000E+00 0.00000E+00
 -1      1212 4.06500E+01 0.00000E+00 0.00000E+00
 -1      1213 4.36500E+01 0.00000E+00 0.00000E+00
 -1      1214 4.66500E+01 0.00000E+00 0.00000E+00
 -1      1215 4.96500E+01 0.00000E+00 0.00000E+00
 -1      1216 5.26500E+01 0.00000E+00 0.00000E+00
 -1      1217 5.56500E+01 0.00000E+00 0.00000E+00
 -1      1218 5.86500E+01 0.00000E+00 0.00000E+00
 -1      1219 6.16500E+01 0.00000E+00 0.00000E+00
 -1      1220 6.46500E+01 0.00000E+00 0.00000E+00
 -1      1221 6.76500E+01 0.00000E+00 0.00000E+00
 -1      1222 7.06500E+01 0.00000E+00 0.00000E+00
 -1      1223 7.36500E+01 0.00000E+00 0.00000E+00
 -1      1224 7.66500E+01 0.00000E+00 0.00000E+00
 -1      1225 7.96500E+01 0.00000E+00 0.00000E+00
 -1      1226 8.26500E+01 0.00000E+00 0.00000E+00
 -1      1227 8.56500E+01 0.00000E+00 0.00000E+00
 -1      1228 8.86500E+01 0.00000E+00 0.00000E+00
 -1      1229 9.16500E+01 0.00000E+00 0.00000E+00
 -1      1230 9.46500E+01 0.00000E+00 0.00000E+00
 -1      1231 9.76500E+01 0.00000E+00 0.00000E+00
 -1      1232 1.00650E+02 0.00000E+00 0.00000E+00
 -1      1233 1.03650E+02 0.00000E+00 0.00000E+00
 -1      1234 1.06650E+02 0.00000E+00 0.00000E+00
 -1      1235 1.09650E+02 0.00000E+00 0.00000E+00
 -1      1236 1.12650E+02 0.00000E+00 0.00000E+00
 -1      1237 1.15650E+02 0.00000E+00 0.00000E+00
 -1      1238 1.18650E+02 0.00000E+00 0.00000E+00
 -1      1239 1.21650E+02 0.00000E+00 0.00000E+00
 -1      1240 1.24650E+02 0.00000E+00 0.00000E+00
 -1      1241 1.27650E+02 0.00000E+00 0.00000E+00
 -1      1242 1.30650E+02 0.00000E+00 0.00000E+00
 -1      1243 1.33650E+02 0.00000E+00 0.00000E+00
 -1      1244 1.36650E+02 0.00000E+00 0.00000E+00
 -1      1245 1.39650E+02 0.00000E+00 0.00000E+00
 -1      1246 1.42650E+02 0.00000E+00 0.00000E+00
 -1      1247 1.45650E+02 0.00000E+00 0.00000E+00
 -1      1248 1.48575E+02 0.00000E+00 0.00000E+00
 -1      1249 1.50000E+02 1.47500E+00 0.00000E+00
 -1      1250 1.50000E+02 4.42500E+00 0.00000E+00
 -1      1251 1.50000E+02 7.37500E+00 0.00000E+00
 -1      1252 1.50000E+02 1.03250E+01 0.00000E+00
 -1      1253 1.50000E+02 1.32750E+01 0.00000E+00
 -1      1254 1.50000E+02 1.62000E+01 0.00000E+00
 -1      1255 1.50000E+02 1.91250E+01 0.00000E+00
 -1      1256 1.50000E+02 2.20750E+01 0.00000E+00
 -1      1257 1.50000E+02 2.50250E+01 0.00000E+00
 -1      1258 1.50000E+02 2.79750E+01 0.00000E+00
 -1      1259 1.50000E+02 3.09250E+01 0.00000E+00
 -1      1260 1.50000E+02 3.38500E+01 0.00000E+00
 -1      1261 1.50000E+02 3.67750E+01 0.00000E+00
 -1      1262 1.50000E+02 3.97250E+01 0.00000E+00
 -1      1263 1.50000E+02 4.26750E+01 0.00000E+00
 -1      1264 1.50000E+02 4.56250E+01 0.00000E+00
 -1      1265 1.50000E+02 4.85500E+01 0.00000E+00
 -1      1266 8.24889E+01 2.73942E+01 0.00000E+00
 -1      1267 8.21654E+01 2.59299E+01 0.00000E+00
 -1      1268 8.15597E+01 2.46057E+01 0.00000E+00
 -1      1269 8.06916E+01 2.34337E+01 0.00000E+00
 -1      1270 7.95602E+01 2.24392E+01 0.00000E+00
 -1      1271 7.82314E+01 2.17053E+01 0.00000E+00
 -1      1272 7.67808E+01 2.12760E+01 0.00000E+00
 -1      1273 7.52669E+01 2.11686E+01 0.00000E+00
 -1      1274 7.37905E+01 2.13835E+01 0.00000E+00
 -1      1275 7.23864E+01 2.19098E+01 0.00000E+00
 -1      1276 7.11367E+01 2.27150E+01 0.00000E+00
 -1      1277 7.01161E+01 2.37279E+01 0.00000E+00
 -1      1278 6.93246E+01 2.49269E+01 0.00000E+00
 -1      1279 6.87899E+01 2.62786E+01 0.00000E+00
 -1      1280 6.85405E+01 2.78063E+01 0.00000E+00
 -1      1281 6.86353E+01 2.93657E+01 0.00000E+00
 -1      1282 6.90322E+01 3.07638E+01 0.00000E+00
 -1      1283 6.96882E+01 3.20182E+01 0.00000E+00
 -1      1284 7.06129E+01 3.31445E+01 0.00000E+00
 -1      1285 7.17459E+01 3.40517E+01 0.00000E+00
 -1      1286 7.30213E+01 3.46981E+01 0.00000E+00
 -1      1287 7.43985E+01 3.50713E+01 0.00000E+00
 -1      1288 7.58445E+01 3.51566E+01 0.00000E+00
 -1      1289 7.72866E+01 3.49399E+01 0.00000E+00
 -1      1290 7.86065E+01 3.44519E+01 0.00000E+00
 -1      1291 7.97966E+01 3.37140E+01 0.00000E+00
 -1      1292 8.08268E+01 3.27415E+01 0.00000E+00
 -1      1293 8.16651E+01 3.15366E+01 0.00000E+00
 -1      1294 8.22258E+01 3.02090E+01 0.00000E+00
 -1      1295 8.24973E+01 2.88526E+01 0.00000E+00
 -1      1296 1.57500E+00 4.85250E+01 0.00000E+00
 -1      1297 1.29900E+00 4.48375E+01 0.00000E+00
 -1      1298 1.29900E+00 4.63125E+01 0.00000E+00
 -1      1299 1.29900E+00 4.18875E+01 0.00000E+00
 -1      1300 1.29900E+00 4.33625E+01 0.00000E+00
 -1      1301 2.59800E+00 4.41000E+01 0.00000E+00
 -1      1302 1.29900E+00 3.89375E+01 0.00000E+00
 -1      1303 1.29900E+00 4.04125E+01 0.00000E+00
 -1      1304 2.59800E+00 4.11500E+01 0.00000E+00
 -1      1305 1.29900E+00 3.59875E+01 0.00000E+00
 -1      1306 1.29900E+00 3.74625E+01 0.00000E+00
 -1      1307 2.59800E+00 3.82000E+01 0.00000E+00
 -1      1308 1.29900E+00 3.30875E+01 0.00000E+00
 -1      1309 1.29900E+00 3.45375E+01 0.00000E+00
 -1      1310 2.59800E+00 3.52750E+01 0.00000E+00
 -1      1311 1.29900E+00 3.01375E+01 0.00000E+00
 -1      1312 1.29900E+00 3.16125E+01 0.00000E+00
 -1      1313 2.59800E+00 3.23500E+01 0.00000E+00
 -1      1314 1.29900E+00 2.71875E+01 0.00000E+00
 -1      1315 1.29900E+00 2.86625E+01 0.00000E+00
 -1      1316 2.59800E+00 2.94000E+01 0.00000E+00
 -1      1317 1.29900E+00 2.42375E+01 0.00000E+00
 -1      1318 1.29900E+00 2.57125E+01 0.00000E+00
 -1      1319 2.59800E+00 2.64500E+01 0.00000E+00
 -1      1320 1.29900E+00 2.12875E+01 0.00000E+00
 -1      1321 1.29900E+00 2.27625E+01 0.00000E+00
 -1      1322 2.59800E+00 2.35000E+01 0.00000E+00
 -1      1323 1.29900E+00 1.83375E+01 0.00000E+00
 -1      1324 1.29900E+00 1.98125E+01 0.00000E+00
 -1      1325 2.59800E+00 2.05500E+01 0.00000E+00
 -1      1326 1.29900E+00 1.54375E+01 0.00000E+00
 -1      1327 1.29900E+00 1.68875E+01 0.00000E+00
 -1      1328 2.59800E+00 1.76250E+01 0.00000E+00
 -1      1329 1.29900E+00 1.24875E+01 0.00000E+00
 -1      1330 1.29900E+00 1.39625E+01 0.00000E+00
 -1      1331 2.59800E+00 1.47000E+01 0.00000E+00
 -1      1332 1.29900E+00 9.53750E+00 0.00000E+00
 -1      1333 1.29900E+00 1.10125E+01 0.00000E+00
 -1      1334 2.59800E+00 1.17500E+01 0.00000E+00
 -1      1335 1.29900E+00 6.58750E+00 0.00000E+00
 -1      1336 1.29900E+00 8.06250E+00 0.00000E+00
 -1      1337 2.59800E+00 8.80000E+00 0.00000E+00
 -1      1338 1.29900E+00 3.63750E+00 0.00000E+00
 -1      1339 1.29900E+00 5.11250E+00 0.00000E+00
 -1      1340 2.59800E+00 5.85000E+00 0.00000E+00
 -1      1341 1.43700E+00 1.09375E+00 0.00000E+00
 -1      1342 1.43700E+00 2.54375E+00 0.00000E+00
 -1      1343 2.73600E+00 3.28125E+00 0.00000E+00
 -1      1344 3.01200E+00 1.09375E+00 0.00000E+00
 -1      1345 3.90000E+00 4.87010E+01 0.00000E+00
 -1      1346 5.40000E+00 4.87010E+01 0.00000E+00
 -1      1347 6.90000E+00 4.87010E+01 0.00000E+00
 -1      1348 8.40000E+00 4.87010E+01 0.00000E+00
 -1      1349 6.15000E+00 4.74020E+01 0.00000E+00
 -1      1350 9.90000E+00 4.87010E+01 0.00000E+00
 -1      1351 1.14000E+01 4.87010E+01 0.00000E+00
 -1      1352 9.15000E+00 4.74020E+01 0.00000E+00
 -1      1353 1.29000E+01 4.87010E+01 0.00000E+00
 -1      1354 1.44000E+01 4.87010E+01 0.00000E+00
 -1      1355 1.21500E+01 4.74020E+01 0.00000E+00
 -1      1356 1.59000E+01 4.87010E+01 0.00000E+00
 -1      1357 1.74000E+01 4.87010E+01 0.00000E+00
 -1      1358 1.51500E+01 4.74020E+01 0.00000E+00
 -1      1359 1.89000E+01 4.87010E+01 0.00000E+00
 -1      1360 2.04000E+01 4.87010E+01 0.00000E+00
 -1      1361 1.81500E+01 4.74020E+01 0.00000E+00
 -1      1362 2.19000E+01 4.87010E+01 0.00000E+00
 -1      1363 2.34000E+01 4.87010E+01 0.00000E+00
 -1      1364 2.11500E+01 4.74020E+01 0.00000E+00
 -1      1365 2.49000E+01 4.87010E+01 0.00000E+00
 -1      1366 2.64000E+01 4.87010E+01 0.00000E+00
 -1      1367 2.41500E+01 4.74020E+01 0.00000E+00
 -1      1368 2.79000E+01 4.87010E+01 0.00000E+00
 -1      1369 2.94000E+01 4.87010E+01 0.00000E+00
 -1      1370 2.71500E+01 4.74020E+01 0.00000E+00
 -1      1371 3.09000E+01 4.87010E+01 0.00000E+00
 -1      1372 3.24000E+01 4.87010E+01 0.00000E+00
 -1      1373 3.01500E+01 4.74020E+01 0.00000E+00
 -1      1374 3.39000E+01 4.87010E+01 0.00000E+00
 -1      1375 3.54000E+01 4.87010E+01 0.00000E+00
 -1      1376 3.31500E+01 4.74020E+01 0.00000E+00
 -1      1377 3.69000E+01 4.87010E+01 0.00000E+00
 -1      1378 3.84000E+01 4.87010E+01 0.00000E+00
 -1      1379 3.61500E+01 4.74020E+01 0.00000E+00
 -1      1380 3.99000E+01 4.87010E+01 0.00000E+00
 -1      1381 4.14000E+01 4.87010E+01 0.00000E+00
 -1      1382 3.91500E+01 4.74020E+01 0.00000E+00
 -1      1383 4.29000E+01 4.87010E+01 0.00000E+00
 -1      1384 4.44000E+01 4.87010E+01 0.00000E+00
 -1      1385 4.21500E+01 4.74020E+01 0.00000E+00
 -1      1386 4.59000E+01 4.87010E+01 0.00000E+00
 -1      1387 4.74000E+01 4.87010E+01 0.00000E+00
 -1      1388 4.51500E+01 4.74020E+01 0.00000E+00
 -1      1389 4.89000E+01 4.87010E+01 0.00000E+00
 -1      1390 5.04000E+01 4.87010E+01 0.00000E+00
 -1      1391 4.81500E+01 4.74020E+01 0.00000E+00
 -1      1392 5.19000E+01 4.87010E+01 0.00000E+00
 -1      1393 5.34000E+01 4.87010E+01 0.00000E+00
 -1      1394 5.11500E+01 4.74020E+01 0.00000E+00
 -1      1395 5.49000E+01 4.87010E+01 0.00000E+00
 -1      1396 5.64000E+01 4.87010E+01 0.00000E+00
 -1      1397 5.41500E+01 4.74020E+01 0.00000E+00
 -1      1398 5.79000E+01 4.87010E+01 0.00000E+00
 -1      1399 5.94000E+01 4.87010E+01 0.00000E+00
 -1      1400 5.71500E+01 4.74020E+01 0.00000E+00
 -1      1401 6.09000E+01 4.87010E+01 0.00000E+00
 -1      1402 6.24000E+01 4.87010E+01 0.00000E+00
 -1      1403 6.01500E+01 4.74020E+01 0.00000E+00
 -1      1404 6.39000E+01 4.87010E+01 0.00000E+00
 -1      1405 6.54000E+01 4.87010E+01 0.00000E+00
 -1      1406 6.31500E+01 4.74020E+01 0.00000E+00
 -1      1407 6.69000E+01 4.87010E+01 0.00000E+00
 -1      1408 6.84000E+01 4.87010E+01 0.00000E+00
 -1      1409 6.61500E+01 4.74020E+01 0.00000E+00
 -1      1410 6.99000E+01 4.87010E+01 0.00000E+00
 -1      1411 7.14000E+01 4.87010E+01 0.00000E+00
 -1      1412 6.91500E+01 4.74020E+01 0.00000E+00
 -1      1413 7.29000E+01 4.87010E+01 0.00000E+00
 -1      1414 7.44000E+01 4.87010E+01 0.00000E+00
 -1      1415 7.21500E+01 4.74020E+01 0.00000E+00
 -1      1416 7.59000E+01 4.87010E+01 0.00000E+00
 -1      1417 7.74000E+01 4.87010E+01 0.00000E+00
 -1      1418 7.51500E+01 4.74020E+01 0.00000E+00
 -1      1419 7.89000E+01 4.87010E+01 0.00000E+00
 -1      1420 8.04000E+01 4.87010E+01 0.00000E+00
 -1      1421 7.81500E+01 4.74020E+01 0.00000E+00
 -1      1422 8.19000E+01 4.87010E+01 0.00000E+00
 -1      1423 8.34000E+01 4.87010E+01 0.00000E+00
 -1      1424 8.11500E+01 4.74020E+01 0.00000E+00
 -1      1425 8.49000E+01 4.87010E+01 0.00000E+00
 -1      1426 8.64000E+01 4.87010E+01 0.00000E+00
 -1      1427 8.41500E+01 4.74020E+01 0.00000E+00
 -1      1428 8.79000E+01 4.87010E+01 0.00000E+00
 -1      1429 8.94000E+01 4.87010E+01 0.00000E+00
 -1      1430 8.71500E+01 4.74020E+01 0.00000E+00
 -1      1431 9.09000E+01 4.87010E+01 0.00000E+00
 -1      1432 9.24000E+01 4.87010E+01 0.00000E+00
 -1      1433 9.01500E+01 4.74020E+01 0.00000E+00
 -1      1434 9.39000E+01 4.87010E+01 0.00000E+00
 -1      1435 9.54000E+01 4.87010E+01 0.00000E+00
 -1      1436 9.31500E+01 4.74020E+01 0.00000E+00
 -1      1437 9.69000E+01 4.87010E+01 0.00000E+00
 -1      1438 9.84000E+01 4.87010E+01 0.00000E+00
 -1      1439 9.61500E+01 4.74020E+01 0.00000E+00
 -1      1440 9.99000E+01 4.87010E+01 0.00000E+00
 -1      1441 1.01400E+02 4.87010E+01 0.00000E+00
 -1      1442 9.91500E+01 4.74020E+01 0.00000E+00
 -1      1443 1.02900E+02 4.87010E+01 0.00000E+00
 -1      1444 1.04400E+02 4.87010E+01 0.00000E+00
 -1      1445 1.02150E+02 4.74020E+01 0.00000E+00
 -1      1446 1.05900E+02 4.87010E+01 0.00000E+00
 -1      1447 1.07400E+02 4.87010E+01 0.00000E+00
 -1      1448 1.05150E+02 4.74020E+01 0.00000E+00
 -1      1449 1.08900E+02 4.87010E+01 0.00000E+00
 -1      1450 1.10400E+02 4.87010E+01 0.00000E+00
 -1      1451 1.08150E+02 4.74020E+01 0.00000E+00
 -1      1452 1.11900E+02 4.87010E+01 0.00000E+00
 -1      1453 1.13400E+02 4.87010E+01 0.00000E+00
 -1      1454 1.11150E+02 4.74020E+01 0.00000E+00
 -1      1455 1.14900E+02 4.87010E+01 0.00000E+00
 -1      1456 1.16400E+02 4.87010E+01 0.00000E+00
 -1      1457 1.14150E+02 4.74020E+01 0.00000E+00
 -1      1458 1.17900E+02 4.87010E+01 0.00000E+00
 -1      1459 1.19400E+02 4.87010E+01 0.00000E+00
 -1      1460 1.17150E+02 4.74020E+01 0.00000E+00
 -1      1461 1.20900E+02 4.87010E+01 0.00000E+00
 -1      1462 1.22400E+02 4.87010E+01 0.00000E+00
 -1      1463 1.20150E+02 4.74020E+01 0.00000E+00
 -1      1464 1.23900E+02 4.87010E+01 0.00000E+00
 -1      1465 1.25400E+02 4.87010E+01 0.00000E+00
 -1      1466 1.23150E+02 4.74020E+01 0.00000E+00
 -1      1467 1.26900E+02 4.87010E+01 0.00000E+00
 -1      1468 1.28400E+02 4.87010E+01 0.00000E+00
 -1      1469 1.26150E+02 4.74020E+01 0.00000E+00
 -1      1470 1.29900E+02 4.87010E+01 0.00000E+00
 -1      1471 1.31400E+02 4.87010E+01 0.00000E+00
 -1      1472 1.29150E+02 4.74020E+01 0.00000E+00
 -1      1473 1.32900E+02 4.87010E+01 0.00000E+00
 -1      1474 1.34400E+02 4.87010E+01 0.00000E+00
 -1      1475 1.32150E+02 4.74020E+01 0.00000E+00
 -1      1476 1.35900E+02 4.87010E+01 0.00000E+00
 -1      1477 1.37400E+02 4.87010E+01 0.00000E+00
 -1      1478 1.35150E+02 4.74020E+01 0.00000E+00
 -1      1479 1.38900E+02 4.87010E+01 0.00000E+00
 -1      1480 1.40400E+02 4.87010E+01 0.00000E+00
 -1      1481 1.38150E+02 4.74020E+01 0.00000E+00
 -1      1482 1.41900E+02 4.87010E+01 0.00000E+00
 -1      1483 1.43400E+02 4.87010E+01 0.00000E+00
 -1      1484 1.41150E+02 4.74020E+01 0.00000E+00
 -1      1485 1.44900E+02 4.87010E+01 0.00000E+00
 -1      1486 1.46400E+02 4.87010E+01 0.00000E+00
 -1      1487 1.44150E+02 4.74020E+01 0.00000E+00
 -1      1488 1.48575E+02 4.85500E+01 0.00000E+00
 -1      1489 1.47825E+02 4.72510E+01 0.00000E+00
 -1      1490 6.01200E+00 1.09375E+00 0.00000E+00
 -1      1491 4.51200E+00 1.09375E+00 0.00000E+00
 -1      1492 4.37400E+00 2.18750E+00 0.00000E+00
 -1      1493 9.01200E+00 1.09375E+00 0.00000E+00
 -1      1494 7.51200E+00 1.09375E+00 0.00000E+00
 -1      1495 7.37400E+00 2.18750E+00 0.00000E+00
 -1      1496 1.20120E+01 1.09375E+00 0.00000E+00
 -1      1497 1.05120E+01 1.09375E+00 0.00000E+00
 -1      1498 1.03740E+01 2.18750E+00 0.00000E+00
 -1      1499 1.50120E+01 1.09375E+00 0.00000E+00
 -1      1500 1.35120E+01 1.09375E+00 0.00000E+00
 -1      1501 1.33740E+01 2.18750E+00 0.00000E+00
 -1      1502 1.80120E+01 1.09375E+00 0.00000E+00
 -1      1503 1.65120E+01 1.09375E+00 0.00000E+00
 -1      1504 1.63740E+01 2.18750E+00 0.00000E+00
 -1      1505 2.10120E+01 1.09375E+00 0.00000E+00
 -1      1506 1.95120E+01 1.09375E+00 0.00000E+00
 -1      1507 1.93740E+01 2.18750E+00 0.00000E+00
 -1      1508 2.40120E+01 1.09375E+00 0.00000E+00
 -1      1509 2.25120E+01 1.09375E+00 0.00000E+00
 -1      1510 2.23740E+01 2.18750E+00 0.00000E+00
 -1      1511 2.70120E+01 1.09375E+00 0.00000E+00
 -1      1512 2.55120E+01 1.09375E+00 0.00000E+00
 -1      1513 2.53740E+01 2.18750E+00 0.00000E+00
 -1      1514 3.00120E+01 1.09375E+00 0.00000E+00
 -1      1515 2.85120E+01 1.09375E+00 0.00000E+00
 -1      1516 2.83740E+01 2.18750E+00 0.00000E+00
 -1      1517 3.30120E+01 1.09375E+00 0.00000E+00
 -1      1518 3.15120E+01 1.09375E+00 0.00000E+00
 -1      1519 3.13740E+01 2.18750E+00 0.00000E+00
 -1      1520 3.60120E+01 1.09375E+00 0.00000E+00
 -1      1521 3.45120E+01 1.09375E+00 0.00000E+00
 -1      1522 3.43740E+01 2.18750E+00 0.00000E+00
 -1      1523 3.90120E+01 1.09375E+00 0.00000E+00
 -1      1524 3.75120E+01 1.09375E+00 0.00000E+00
 -1      1525 3.73740E+01 2.18750E+00 0.00000E+00
 -1      1526 4.20120E+01 1.09375E+00 0.00000E+00
 -1      1527 4.05120E+01 1.09375E+00 0.00000E+00
 -1      1528 4.03740E+01 2.18750E+00 0.00000E+00
 -1      1529 4.50120E+01 1.09375E+00 0.00000E+00
 -1      1530 4.35120E+01 1.09375E+00 0.00000E+00
 -1      1531 4.33740E+01 2.18750E+00 0.00000E+00
 -1      1532 4.80120E+01 1.09375E+00 0.00000E+00
 -1      1533 4.65120E+01 1.09375E+00 0.00000E+00
 -1      1534 4.63740E+01 2.18750E+00 0.00000E+00
 -1      1535 5.10120E+01 1.09375E+00 0.00000E+00
 -1      1536 4.95120E+01 1.09375E+00 0.00000E+00
 -1      1537 4.93740E+01 2.18750E+00 0.00000E+00
 -1      1538 5.40120E+01 1.09375E+00 0.00000E+00
 -1      1539 5.25120E+01 1.09375E+00 0.00000E+00
 -1      1540 5.23740E+01 2.18750E+00 0.00000E+00
 -1      1541 5.70120E+01 1.09375E+00 0.00000E+00
 -1      1542 5.55120E+01 1.09375E+00 0.00000E+00
 -1      1543 5.53740E+01 2.18750E+00 0.00000E+00
 -1      1544 6.00120E+01 1.09375E+00 0.00000E+00
 -1      1545 5.85120E+01 1.09375E+00 0.00000E+00
 -1      1546 5.83740E+01 2.18750E+00 0.00000E+00
 -1      1547 6.30120E+01 1.09375E+00 0.00000E+00
 -1      1548 6.15120E+01 1.09375E+00 0.00000E+00
 -1      1549 6.13740E+01 2.18750E+00 0.00000E+00
 -1      1550 6.60120E+01 1.09375E+00 0.00000E+00
 -1      1551 6.45120E+01 1.09375E+00 0.00000E+00
 -1      1552 6.43740E+01 2.18750E+00 0.00000E+00
 -1      1553 6.90120E+01 1.09375E+00 0.00000E+00
 -1      1554 6.75120E+01 1.09375E+00 0.00000E+00
 -1      1555 6.73740E+01 2.18750E+00 0.00000E+00
 -1      1556 7.20120E+01 1.09375E+00 0.00000E+00
 -1      1557 7.05120E+01 1.09375E+00 0.00000E+00
 -1      1558 7.03740E+01 2.18750E+00 0.00000E+00
 -1      1559 7.50120E+01 1.09375E+00 0.00000E+00
 -1      1560 7.35120E+01 1.09375E+00 0.00000E+00
 -1      1561 7.33740E+01 2.18750E+00 0.00000E+00
 -1      1562 7.80120E+01 1.09375E+00 0.00000E+00
 -1      1563 7.65120E+01 1.09375E+00 0.00000E+00
 -1      1564 7.63740E+01 2.18750E+00 0.00000E+00
 -1      1565 8.10120E+01 1.09375E+00 0.00000E+00
 -1      1566 7.95120E+01 1.09375E+00 0.00000E+00
 -1      1567 7.93740E+01 2.18750E+00 0.00000E+00
 -1      1568 8.40120E+01 1.09375E+00 0.00000E+00
 -1      1569 8.25120E+01 1.09375E+00 0.00000E+00
 -1      1570 8.23740E+01 2.18750E+00 0.00000E+00
 -1      1571 8.70120E+01 1.09375E+00 0.00000E+00
 -1      1572 8.55120E+01 1.09375E+00 0.00000E+00
 -1      1573 8.53740E+01 2.18750E+00 0.00000E+00
 -1      1574 9.00120E+01 1.09375E+00 0.00000E+00
 -1      1575 8.85120E+01 1.09375E+00 0.00000E+00
 -1      1576 8.83740E+01 2.18750E+00 0.00000E+00
 -1      1577 9.30120E+01 1.09375E+00 0.00000E+00
 -1      1578 9.15120E+01 1.09375E+00 0.00000E+00
 -1      1579 9.13740E+01 2.18750E+00 0.00000E+00
 -1      1580 9.60120E+01 1.09375E+00 0.00000E+00
 -1      1581 9.45120E+01 1.09375E+00 0.00000E+00
 -1      1582 9.43740E+01 2.18750E+00 0.00000E+00
 -1      1583 9.90120E+01 1.09375E+00 0.00000E+00
 -1      1584 9.75120E+01 1.09375E+00 0.00000E+00
 -1      1585 9.73740E+01 2.18750E+00 0.00000E+00
 -1      1586 1.02012E+02 1.09375E+00 0.00000E+00
 -1      1587 1.00512E+02 1.09375E+00 0.00000E+00
 -1      1588 1.00374E+02 2.18750E+00 0.00000E+00
 -1      1589 1.05012E+02 1.09375E+00 0.00000E+00
 -1      1590 1.03512E+02 1.09375E+00 0.00000E+00
 -1      1591 1.03374E+02 2.18750E+00 0.00000E+00
 -1      1592 1.08012E+02 1.09375E+00 0.00000E+00
 -1      1593 1.06512E+02 1.09375E+00 0.00000E+00
 -1      1594 1.06374E+02 2.18750E+00 0.00000E+00
 -1      1595 1.11012E+02 1.09375E+00 0.00000E+00
 -1      1596 1.09512E+02 1.09375E+00 0.00000E+00
 -1      1597 1.09374E+02 2.18750E+00 0.00000E+00
 -1      1598 1.14012E+02 1.09375E+00 0.00000E+00
 -1      1599 1.12512E+02 1.09375E+00 0.00000E+00
 -1      1600 1.12374E+02 2.18750E+00 0.00000E+00
 -1      1601 1.17012E+02 1.09375E+00 0.00000E+00
 -1      1602 1.15512E+02 1.09375E+00 0.00000E+00
 -1      1603 1.15374E+02 2.18750E+00 0.00000E+00
 -1      1604 1.20012E+02 1.09375E+00 0.00000E+00
 -1      1605 1.18512E+02 1.09375E+00 0.00000E+00
 -1      1606 1.18374E+02 2.18750E+00 0.00000E+00
 -1      1607 1.23012E+02 1.09375E+00 0.00000E+00
 -1      1608 1.21512E+02 1.09375E+00 0.00000E+00
 -1      1609 1.21374E+02 2.18750E+00 0.00000E+00
 -1      1610 1.26012E+02 1.09375E+00 0.00000E+00
 -1      1611 1.24512E+02 1.09375E+00 0.00000E+00
 -1      1612 1.24374E+02 2.18750E+00 0.00000E+00
 -1      1613 1.29012E+02 1.09375E+00 0.00000E+00
 -1      1614 1.27512E+02 1.09375E+00 0.00000E+00
 -1      1615 1.27374E+02 2.18750E+00 0.00000E+00
 -1      1616 1.32012E+02 1.09375E+00 0.00000E+00
 -1      1617 1.30512E+02 1.09375E+00 0.00000E+00
 -1      1618 1.30374E+02 2.18750E+00 0.00000E+00
 -1      1619 1.35012E+02 1.09375E+00 0.00000E+00
 -1      1620 1.33512E+02 1.09375E+00 0.00000E+00
 -1      1621 1.33374E+02 2.18750E+00 0.00000E+00
 -1      1622 1.38012E+02 1.09375E+00 0.00000E+00
 -1      1623 1.36512E+02 1.09375E+00 0.00000E+00
 -1      1624 1.36374E+02 2.18750E+00 0.00000E+00
 -1      1625 1.41012E+02 1.09375E+00 0.00000E+00
 -1      1626 1.39512E+02 1.09375E+00 0.00000E+00
 -1      1627 1.39374E+02 2.18750E+00 0.00000E+00
 -1      1628 1.44012E+02 1.09375E+00 0.00000E+00
 -1      1629 1.42512E+02 1.09375E+00 0.00000E+00
 -1      1630 1.42374E+02 2.18750E+00 0.00000E+00
 -1      1631 1.47012E+02 1.09375E+00 0.00000E+00
 -1      1632 1.45512E+02 1.09375E+00 0.00000E+00
 -1      1633 1.45374E+02 2.18750E+00 0.00000E+00
 -1      1634 1.48575E+02 1.47500E+00 0.00000E+00
 -1      1635 1.48701E+02 5.16250E+00 0.00000E+00
 -1      1636 1.48701E+02 3.68750E+00 0.00000E+00
 -1      1637 1.48701E+02 8.11250E+00 0.00000E+00
 -1      1638 1.48701E+02 6.63750E+00 0.00000E+00
 -1      1639 1.47402E+02 5.90000E+00 0.00000E+00
 -1      1640 1.48701E+02 1.10625E+01 0.00000E+00
 -1      1641 1.48701E+02 9.58750E+00 0.00000E+00
 -1      1642 1.47402E+02 8.85000E+00 0.00000E+00
 -1      1643 1.48701E+02 1.40125E+01 0.00000E+00
 -1      1644 1.48701E+02 1.25375E+01 0.00000E+00
 -1      1645 1.47402E+02 1.18000E+01 0.00000E+00
 -1      1646 1.48701E+02 1.69125E+01 0.00000E+00
 -1      1647 1.48701E+02 1.54625E+01 0.00000E+00
 -1      1648 1.47402E+02 1.47250E+01 0.00000E+00
 -1      1649 1.48701E+02 1.98625E+01 0.00000E+00
 -1      1650 1.48701E+02 1.83875E+01 0.00000E+00
 -1      1651 1.47402E+02 1.76500E+01 0.00000E+00
 -1      1652 1.48701E+02 2.28125E+01 0.00000E+00
 -1      1653 1.48701E+02 2.13375E+01 0.00000E+00
 -1      1654 1.47402E+02 2.06000E+01 0.00000E+00
 -1      1655 1.48701E+02 2.57625E+01 0.00000E+00
 -1      1656 1.48701E+02 2.42875E+01 0.00000E+00
 -1      1657 1.47402E+02 2.35500E+01 0.00000E+00
 -1      1658 1.48701E+02 2.87125E+01 0.00000E+00
 -1      1659 1.48701E+02 2.72375E+01 0.00000E+00
 -1      1660 1.47402E+02 2.65000E+01 0.00000E+00
 -1      1661 1.48701E+02 3.16625E+01 0.00000E+00
 -1      1662 1.48701E+02 3.01875E+01 0.00000E+00
 -1      1663 1.47402E+02 2.94500E+01 0.00000E+00
 -1      1664 1.48701E+02 3.45625E+01 0.00000E+00
 -1      1665 1.48701E+02 3.31125E+01 0.00000E+00
 -1      1666 1.47402E+02 3.23750E+01 0.00000E+00
 -1      1667 1.48701E+02 3.75125E+01 0.00000E+00
 -1      1668 1.48701E+02 3.60375E+01 0.00000E+00
 -1      1669 1.47402E+02 3.53000E+01 0.00000E+00
 -1      1670 1.48701E+02 4.04625E+01 0.00000E+00
 -1      1671 1.48701E+02 3.89875E+01 0.00000E+00
 -1      1672 1.47402E+02 3.82500E+01 0.00000E+00
 -1      1673 1.48701E+02 4.34125E+01 0.00000E+00
 -1      1674 1.48701E+02 4.19375E+01 0.00000E+00
 -1      1675 1.47402E+02 4.12000E+01 0.00000E+00
 -1      1676 1.48263E+02 4.60692E+01 0.00000E+00
 -1      1677 1.48263E+02 4.45942E+01 0.00000E+00
 -1      1678 1.46964E+02 4.38568E+01 0.00000E+00
 -1      1679 1.46088E+02 4.62202E+01 0.00000E+00
 -1      1680 8.30486E+01 2.69452E+01 0.00000E+00
 -1      1681 8.31332E+01 2.77100E+01 0.00000E+00
 -1      1682 8.25872E+01 2.54027E+01 0.00000E+00
 -1      1683 8.28202E+01 2.60947E+01 0.00000E+00
 -1      1684 8.18648E+01 2.40042E+01 0.00000E+00
 -1      1685 8.22338E+01 2.46294E+01 0.00000E+00
 -1      1686 8.08627E+01 2.27801E+01 0.00000E+00
 -1      1687 8.13576E+01 2.33201E+01 0.00000E+00
 -1      1688 7.96162E+01 2.16874E+01 0.00000E+00
 -1      1689 8.02490E+01 2.21327E+01 0.00000E+00
 -1      1690 7.81228E+01 2.10004E+01 0.00000E+00
 -1      1691 7.88094E+01 2.12875E+01 0.00000E+00
 -1      1692 7.65182E+01 2.05701E+01 0.00000E+00
 -1      1693 7.72746E+01 2.07073E+01 0.00000E+00
 -1      1694 7.48697E+01 2.05752E+01 0.00000E+00
 -1      1695 7.56182E+01 2.05470E+01 0.00000E+00
 -1      1696 7.32793E+01 2.08865E+01 0.00000E+00
 -1      1697 7.39990E+01 2.07017E+01 0.00000E+00
 -1      1698 7.17758E+01 2.15373E+01 0.00000E+00
 -1      1699 7.24516E+01 2.11975E+01 0.00000E+00
 -1      1700 7.04959E+01 2.25021E+01 0.00000E+00
 -1      1701 7.10643E+01 2.20436E+01 0.00000E+00
 -1      1702 6.94506E+01 2.36403E+01 0.00000E+00
 -1      1703 6.98991E+01 2.30928E+01 0.00000E+00
 -1      1704 6.86523E+01 2.49874E+01 0.00000E+00
 -1      1705 6.89893E+01 2.43410E+01 0.00000E+00
 -1      1706 6.81447E+01 2.64745E+01 0.00000E+00
 -1      1707 6.83399E+01 2.57765E+01 0.00000E+00
 -1      1708 6.77952E+01 2.81803E+01 0.00000E+00
 -1      1709 6.78372E+01 2.73582E+01 0.00000E+00
 -1      1710 6.80989E+01 2.98344E+01 0.00000E+00
 -1      1711 6.79720E+01 2.91062E+01 0.00000E+00
 -1      1712 6.86359E+01 3.13069E+01 0.00000E+00
 -1      1713 6.83706E+01 3.06439E+01 0.00000E+00
 -1      1714 6.94048E+01 3.26254E+01 0.00000E+00
 -1      1715 6.90185E+01 3.20398E+01 0.00000E+00
 -1      1716 7.03669E+01 3.39314E+01 0.00000E+00
 -1      1717 6.98291E+01 3.34005E+01 0.00000E+00
 -1      1718 7.17068E+01 3.47559E+01 0.00000E+00
 -1      1719 7.11216E+01 3.43796E+01 0.00000E+00
 -1      1720 7.31303E+01 3.54378E+01 0.00000E+00
 -1      1721 7.24451E+01 3.51745E+01 0.00000E+00
 -1      1722 7.46479E+01 3.56917E+01 0.00000E+00
 -1      1723 7.39641E+01 3.55795E+01 0.00000E+00
 -1      1724 7.62509E+01 3.57881E+01 0.00000E+00
 -1      1725 7.54961E+01 3.58219E+01 0.00000E+00
 -1      1726 7.77699E+01 3.54044E+01 0.00000E+00
 -1      1727 7.70896E+01 3.55806E+01 0.00000E+00
 -1      1728 7.91921E+01 3.48474E+01 0.00000E+00
 -1      1729 7.85592E+01 3.51569E+01 0.00000E+00
 -1      1730 8.04207E+01 3.39552E+01 0.00000E+00
 -1      1731 7.98690E+01 3.43792E+01 0.00000E+00
 -1      1732 8.14930E+01 3.28409E+01 0.00000E+00
 -1      1733 8.10215E+01 3.33863E+01 0.00000E+00
 -1      1734 8.24146E+01 3.15226E+01 0.00000E+00
 -1      1735 8.20547E+01 3.21771E+01 0.00000E+00
 -1      1736 8.28740E+01 3.00440E+01 0.00000E+00
 -1      1737 8.26711E+01 3.07080E+01 0.00000E+00
 -1      1738 8.31007E+01 2.85661E+01 0.00000E+00
 -1      1739 8.30329E+01 2.92517E+01 0.00000E+00
 -1      1740 8.09434E+01 2.19931E+01 0.00000E+00
 -1      1741 8.20642E+01 2.33246E+01 0.00000E+00
 -1      1742 1.48437E+02 2.56875E+00 0.00000E+00
 -1      1743 1.47138E+02 3.30625E+00 0.00000E+00
 -1      1744 8.35067E+01 2.64058E+01 0.00000E+00
 -1      1745 8.29248E+01 2.47820E+01 0.00000E+00
 -1      1746 8.37026E+01 2.81125E+01 0.00000E+00
 -1      1747 7.95229E+01 2.09459E+01 0.00000E+00
 -1      1748 7.78678E+01 2.02529E+01 0.00000E+00
 -1      1749 7.61195E+01 1.99366E+01 0.00000E+00
 -1      1750 7.43487E+01 2.00399E+01 0.00000E+00
 -1      1751 7.26503E+01 2.04774E+01 0.00000E+00
 -1      1752 7.11110E+01 2.12947E+01 0.00000E+00
 -1      1753 6.98027E+01 2.23917E+01 0.00000E+00
 -1      1754 6.87446E+01 2.36832E+01 0.00000E+00
 -1      1755 6.79709E+01 2.51731E+01 0.00000E+00
 -1      1756 6.73510E+01 2.68460E+01 0.00000E+00
 -1      1757 6.72202E+01 2.86557E+01 0.00000E+00
 -1      1758 6.76687E+01 3.03911E+01 0.00000E+00
 -1      1759 6.83230E+01 3.19335E+01 0.00000E+00
 -1      1760 6.91300E+01 3.34415E+01 0.00000E+00
 -1      1761 7.03090E+01 3.46647E+01 0.00000E+00
 -1      1762 7.18020E+01 3.55316E+01 0.00000E+00
 -1      1763 7.33741E+01 3.60920E+01 0.00000E+00
 -1      1764 7.50561E+01 3.63641E+01 0.00000E+00
 -1      1765 7.67431E+01 3.62868E+01 0.00000E+00
 -1      1766 7.83710E+01 3.58319E+01 0.00000E+00
 -1      1767 7.98373E+01 3.51161E+01 0.00000E+00
 -1      1768 8.11151E+01 3.40790E+01 0.00000E+00
 -1      1769 8.22775E+01 3.28462E+01 0.00000E+00
 -1      1770 8.30958E+01 3.13677E+01 0.00000E+00
 -1      1771 8.35112E+01 2.97609E+01 0.00000E+00
 -1      1772 2.87400E+00 4.77875E+01 0.00000E+00
 -1      1773 3.89700E+00 4.04125E+01 0.00000E+00
 -1      1774 3.89700E+00 4.18875E+01 0.00000E+00
 -1      1775 3.89700E+00 4.33625E+01 0.00000E+00
 -1      1776 3.89700E+00 4.48375E+01 0.00000E+00
 -1      1777 5.19600E+00 4.26250E+01 0.00000E+00
 -1      1778 3.89700E+00 3.45500E+01 0.00000E+00
 -1      1779 3.89700E+00 3.60000E+01 0.00000E+00
 -1      1780 3.89700E+00 3.16000E+01 0.00000E+00
 -1      1781 3.89700E+00 3.30750E+01 0.00000E+00
 -1      1782 5.19600E+00 3.38000E+01 0.00000E+00
 -1      1783 3.89700E+00 2.86500E+01 0.00000E+00
 -1      1784 3.89700E+00 3.01250E+01 0.00000E+00
 -1      1785 5.19600E+00 3.08500E+01 0.00000E+00
 -1      1786 3.89700E+00 2.57000E+01 0.00000E+00
 -1      1787 3.89700E+00 2.71750E+01 0.00000E+00
 -1      1788 5.19600E+00 2.79000E+01 0.00000E+00
 -1      1789 3.89700E+00 2.27500E+01 0.00000E+00
 -1      1790 3.89700E+00 2.42250E+01 0.00000E+00
 -1      1791 5.19600E+00 2.49500E+01 0.00000E+00
 -1      1792 3.89700E+00 1.98000E+01 0.00000E+00
 -1      1793 3.89700E+00 2.12750E+01 0.00000E+00
 -1      1794 5.19600E+00 2.20000E+01 0.00000E+00
 -1      1795 3.89700E+00 1.69000E+01 0.00000E+00
 -1      1796 3.89700E+00 1.83500E+01 0.00000E+00
 -1      1797 5.19600E+00 1.90750E+01 0.00000E+00
 -1      1798 3.89700E+00 1.39500E+01 0.00000E+00
 -1      1799 3.89700E+00 1.54250E+01 0.00000E+00
 -1      1800 5.19600E+00 1.61500E+01 0.00000E+00
 -1      1801 3.89700E+00 1.10000E+01 0.00000E+00
 -1      1802 3.89700E+00 1.24750E+01 0.00000E+00
 -1      1803 5.19600E+00 1.32000E+01 0.00000E+00
 -1      1804 3.89700E+00 8.05000E+00 0.00000E+00
 -1      1805 3.89700E+00 9.52500E+00 0.00000E+00
 -1      1806 5.19600E+00 1.02500E+01 0.00000E+00
 -1      1807 3.89700E+00 5.10000E+00 0.00000E+00
 -1      1808 3.89700E+00 6.57500E+00 0.00000E+00
 -1      1809 5.19600E+00 7.30000E+00 0.00000E+00
 -1      1810 4.20450E+00 3.09687E+00 0.00000E+00
 -1      1811 4.06650E+00 4.19063E+00 0.00000E+00
 -1      1812 5.36550E+00 4.91563E+00 0.00000E+00
 -1      1813 5.70450E+00 3.09687E+00 0.00000E+00
 -1      1814 3.62400E+00 4.64885E+01 0.00000E+00
 -1      1815 8.70450E+00 3.09687E+00 0.00000E+00
 -1      1816 7.20450E+00 3.09687E+00 0.00000E+00
 -1      1817 7.03500E+00 4.00625E+00 0.00000E+00
 -1      1818 4.92300E+00 4.57510E+01 0.00000E+00
 -1      1819 8.40000E+00 4.61030E+01 0.00000E+00
 -1      1820 9.90000E+00 4.61030E+01 0.00000E+00
 -1      1821 1.14000E+01 4.61030E+01 0.00000E+00
 -1      1822 1.29000E+01 4.61030E+01 0.00000E+00
 -1      1823 1.06500E+01 4.48040E+01 0.00000E+00
 -1      1824 1.44000E+01 4.61030E+01 0.00000E+00
 -1      1825 1.59000E+01 4.61030E+01 0.00000E+00
 -1      1826 1.36500E+01 4.48040E+01 0.00000E+00
 -1      1827 1.74000E+01 4.61030E+01 0.00000E+00
 -1      1828 1.89000E+01 4.61030E+01 0.00000E+00
 -1      1829 1.66500E+01 4.48040E+01 0.00000E+00
 -1      1830 2.04000E+01 4.61030E+01 0.00000E+00
 -1      1831 2.19000E+01 4.61030E+01 0.00000E+00
 -1      1832 1.96500E+01 4.48040E+01 0.00000E+00
 -1      1833 2.34000E+01 4.61030E+01 0.00000E+00
 -1      1834 2.49000E+01 4.61030E+01 0.00000E+00
 -1      1835 2.26500E+01 4.48040E+01 0.00000E+00
 -1      1836 2.64000E+01 4.61030E+01 0.00000E+00
 -1      1837 2.79000E+01 4.61030E+01 0.00000E+00
 -1      1838 2.56500E+01 4.48040E+01 0.00000E+00
 -1      1839 2.94000E+01 4.61030E+01 0.00000E+00
 -1      1840 3.09000E+01 4.61030E+01 0.00000E+00
 -1      1841 2.86500E+01 4.48040E+01 0.00000E+00
 -1      1842 3.24000E+01 4.61030E+01 0.00000E+00
 -1      1843 3.39000E+01 4.61030E+01 0.00000E+00
 -1      1844 3.16500E+01 4.48040E+01 0.00000E+00
 -1      1845 3.54000E+01 4.61030E+01 0.00000E+00
 -1      1846 3.69000E+01 4.61030E+01 0.00000E+00
 -1      1847 3.46500E+01 4.48040E+01 0.00000E+00
 -1      1848 3.84000E+01 4.61030E+01 0.00000E+00
 -1      1849 3.99000E+01 4.61030E+01 0.00000E+00
 -1      1850 3.76500E+01 4.48040E+01 0.00000E+00
 -1      1851 4.14000E+01 4.61030E+01 0.00000E+00
 -1      1852 4.29000E+01 4.61030E+01 0.00000E+00
 -1      1853 4.06500E+01 4.48040E+01 0.00000E+00
 -1      1854 4.44000E+01 4.61030E+01 0.00000E+00
 -1      1855 4.59000E+01 4.61030E+01 0.00000E+00
 -1      1856 4.36500E+01 4.48040E+01 0.00000E+00
 -1      1857 4.74000E+01 4.61030E+01 0.00000E+00
 -1      1858 4.89000E+01 4.61030E+01 0.00000E+00
 -1      1859 4.66500E+01 4.48040E+01 0.00000E+00
 -1      1860 5.04000E+01 4.61030E+01 0.00000E+00
 -1      1861 5.19000E+01 4.61030E+01 0.00000E+00
 -1      1862 4.96500E+01 4.48040E+01 0.00000E+00
 -1      1863 5.34000E+01 4.61030E+01 0.00000E+00
 -1      1864 5.49000E+01 4.61030E+01 0.00000E+00
 -1      1865 5.26500E+01 4.48040E+01 0.00000E+00
 -1      1866 5.64000E+01 4.61030E+01 0.00000E+00
 -1      1867 5.79000E+01 4.61030E+01 0.00000E+00
 -1      1868 5.56500E+01 4.48040E+01 0.00000E+00
 -1      1869 5.94000E+01 4.61030E+01 0.00000E+00
 -1      1870 6.09000E+01 4.61030E+01 0.00000E+00
 -1      1871 5.86500E+01 4.48040E+01 0.00000E+00
 -1      1872 6.24000E+01 4.61030E+01 0.00000E+00
 -1      1873 6.39000E+01 4.61030E+01 0.00000E+00
 -1      1874 6.16500E+01 4.48040E+01 0.00000E+00
 -1      1875 6.54000E+01 4.61030E+01 0.00000E+00
 -1      1876 6.69000E+01 4.61030E+01 0.00000E+00
 -1      1877 6.46500E+01 4.48040E+01 0.00000E+00
 -1      1878 6.84000E+01 4.61030E+01 0.00000E+00
 -1      1879 6.99000E+01 4.61030E+01 0.00000E+00
 -1      1880 6.76500E+01 4.48040E+01 0.00000E+00
 -1      1881 7.14000E+01 4.61030E+01 0.00000E+00
 -1      1882 7.29000E+01 4.61030E+01 0.00000E+00
 -1      1883 7.06500E+01 4.48040E+01 0.00000E+00
 -1      1884 7.44000E+01 4.61030E+01 0.00000E+00
 -1      1885 7.59000E+01 4.61030E+01 0.00000E+00
 -1      1886 7.36500E+01 4.48040E+01 0.00000E+00
 -1      1887 7.74000E+01 4.61030E+01 0.00000E+00
 -1      1888 7.89000E+01 4.61030E+01 0.00000E+00
 -1      1889 7.66500E+01 4.48040E+01 0.00000E+00
 -1      1890 8.04000E+01 4.61030E+01 0.00000E+00
 -1      1891 8.19000E+01 4.61030E+01 0.00000E+00
 -1      1892 7.96500E+01 4.48040E+01 0.00000E+00
 -1      1893 8.34000E+01 4.61030E+01 0.00000E+00
 -1      1894 8.49000E+01 4.61030E+01 0.00000E+00
 -1      1895 8.26500E+01 4.48040E+01 0.00000E+00
 -1      1896 8.64000E+01 4.61030E+01 0.00000E+00
 -1      1897 8.79000E+01 4.61030E+01 0.00000E+00
 -1      1898 8.56500E+01 4.48040E+01 0.00000E+00
 -1      1899 8.94000E+01 4.61030E+01 0.00000E+00
 -1      1900 9.09000E+01 4.61030E+01 0.00000E+00
 -1      1901 8.86500E+01 4.48040E+01 0.00000E+00
 -1      1902 9.24000E+01 4.61030E+01 0.00000E+00
 -1      1903 9.39000E+01 4.61030E+01 0.00000E+00
 -1      1904 9.16500E+01 4.48040E+01 0.00000E+00
 -1      1905 9.54000E+01 4.61030E+01 0.00000E+00
 -1      1906 9.69000E+01 4.61030E+01 0.00000E+00
 -1      1907 9.46500E+01 4.48040E+01 0.00000E+00
 -1      1908 9.84000E+01 4.61030E+01 0.00000E+00
 -1      1909 9.99000E+01 4.61030E+01 0.00000E+00
 -1      1910 9.76500E+01 4.48040E+01 0.00000E+00
 -1      1911 1.01400E+02 4.61030E+01 0.00000E+00
 -1      1912 1.02900E+02 4.61030E+01 0.00000E+00
 -1      1913 1.00650E+02 4.48040E+01 0.00000E+00
 -1      1914 1.04400E+02 4.61030E+01 0.00000E+00
 -1      1915 1.05900E+02 4.61030E+01 0.00000E+00
 -1      1916 1.03650E+02 4.48040E+01 0.00000E+00
 -1      1917 1.07400E+02 4.61030E+01 0.00000E+00
 -1      1918 1.08900E+02 4.61030E+01 0.00000E+00
 -1      1919 1.06650E+02 4.48040E+01 0.00000E+00
 -1      1920 1.10400E+02 4.61030E+01 0.00000E+00
 -1      1921 1.11900E+02 4.61030E+01 0.00000E+00
 -1      1922 1.09650E+02 4.48040E+01 0.00000E+00
 -1      1923 1.13400E+02 4.61030E+01 0.00000E+00
 -1      1924 1.14900E+02 4.61030E+01 0.00000E+00
 -1      1925 1.12650E+02 4.48040E+01 0.00000E+00
 -1      1926 1.16400E+02 4.61030E+01 0.00000E+00
 -1      1927 1.17900E+02 4.61030E+01 0.00000E+00
 -1      1928 1.15650E+02 4.48040E+01 0.00000E+00
 -1      1929 1.19400E+02 4.61030E+01 0.00000E+00
 -1      1930 1.20900E+02 4.61030E+01 0.00000E+00
 -1      1931 1.18650E+02 4.48040E+01 0.00000E+00
 -1      1932 1.22400E+02 4.61030E+01 0.00000E+00
 -1      1933 1.23900E+02 4.61030E+01 0.00000E+00
 -1      1934 1.21650E+02 4.48040E+01 0.00000E+00
 -1      1935 1.25400E+02 4.61030E+01 0.00000E+00
 -1      1936 1.26900E+02 4.61030E+01 0.00000E+00
 -1      1937 1.24650E+02 4.48040E+01 0.00000E+00
 -1      1938 1.28400E+02 4.61030E+01 0.00000E+00
 -1      1939 1.29900E+02 4.61030E+01 0.00000E+00
 -1      1940 1.27650E+02 4.48040E+01 0.00000E+00
 -1      1941 1.31400E+02 4.61030E+01 0.00000E+00
 -1      1942 1.32900E+02 4.61030E+01 0.00000E+00
 -1      1943 1.30650E+02 4.48040E+01 0.00000E+00
 -1      1944 1.34400E+02 4.61030E+01 0.00000E+00
 -1      1945 1.35900E+02 4.61030E+01 0.00000E+00
 -1      1946 1.33650E+02 4.48040E+01 0.00000E+00
 -1      1947 1.37400E+02 4.61030E+01 0.00000E+00
 -1      1948 1.38900E+02 4.61030E+01 0.00000E+00
 -1      1949 1.36650E+02 4.48040E+01 0.00000E+00
 -1      1950 1.40400E+02 4.61030E+01 0.00000E+00
 -1      1951 1.41900E+02 4.61030E+01 0.00000E+00
 -1      1952 1.39650E+02 4.48040E+01 0.00000E+00
 -1      1953 1.43244E+02 4.61616E+01 0.00000E+00
 -1      1954 1.44744E+02 4.61616E+01 0.00000E+00
 -1      1955 1.45182E+02 4.49799E+01 0.00000E+00
 -1      1956 1.42494E+02 4.48626E+01 0.00000E+00
 -1      1957 1.17045E+01 3.09687E+00 0.00000E+00
 -1      1958 1.02045E+01 3.09687E+00 0.00000E+00
 -1      1959 1.00350E+01 4.00625E+00 0.00000E+00
 -1      1960 1.47045E+01 3.09687E+00 0.00000E+00
 -1      1961 1.32045E+01 3.09687E+00 0.00000E+00
 -1      1962 1.30350E+01 4.00625E+00 0.00000E+00
 -1      1963 1.77045E+01 3.09687E+00 0.00000E+00
 -1      1964 1.62045E+01 3.09687E+00 0.00000E+00
 -1      1965 1.60350E+01 4.00625E+00 0.00000E+00
 -1      1966 2.07045E+01 3.09687E+00 0.00000E+00
 -1      1967 1.92045E+01 3.09687E+00 0.00000E+00
 -1      1968 1.90350E+01 4.00625E+00 0.00000E+00
 -1      1969 2.37045E+01 3.09687E+00 0.00000E+00
 -1      1970 2.22045E+01 3.09687E+00 0.00000E+00
 -1      1971 2.20350E+01 4.00625E+00 0.00000E+00
 -1      1972 2.67045E+01 3.09687E+00 0.00000E+00
 -1      1973 2.52045E+01 3.09687E+00 0.00000E+00
 -1      1974 2.50350E+01 4.00625E+00 0.00000E+00
 -1      1975 2.97045E+01 3.09687E+00 0.00000E+00
 -1      1976 2.82045E+01 3.09687E+00 0.00000E+00
 -1      1977 2.80350E+01 4.00625E+00 0.00000E+00
 -1      1978 3.27045E+01 3.09687E+00 0.00000E+00
 -1      1979 3.12045E+01 3.09687E+00 0.00000E+00
 -1      1980 3.10350E+01 4.00625E+00 0.00000E+00
 -1      1981 3.57045E+01 3.09687E+00 0.00000E+00
 -1      1982 3.42045E+01 3.09687E+00 0.00000E+00
 -1      1983 3.40350E+01 4.00625E+00 0.00000E+00
 -1      1984 3.87045E+01 3.09687E+00 0.00000E+00
 -1      1985 3.72045E+01 3.09687E+00 0.00000E+00
 -1      1986 3.70350E+01 4.00625E+00 0.00000E+00
 -1      1987 4.17045E+01 3.09687E+00 0.00000E+00
 -1      1988 4.02045E+01 3.09687E+00 0.00000E+00
 -1      1989 4.00350E+01 4.00625E+00 0.00000E+00
 -1      1990 4.47045E+01 3.09687E+00 0.00000E+00
 -1      1991 4.32045E+01 3.09687E+00 0.00000E+00
 -1      1992 4.30350E+01 4.00625E+00 0.00000E+00
 -1      1993 4.77045E+01 3.09687E+00 0.00000E+00
 -1      1994 4.62045E+01 3.09687E+00 0.00000E+00
 -1      1995 4.60350E+01 4.00625E+00 0.00000E+00
 -1      1996 5.07045E+01 3.09687E+00 0.00000E+00
 -1      1997 4.92045E+01 3.09687E+00 0.00000E+00
 -1      1998 4.90350E+01 4.00625E+00 0.00000E+00
 -1      1999 5.37045E+01 3.09687E+00 0.00000E+00
 -1      2000 5.22045E+01 3.09687E+00 0.00000E+00
 -1      2001 5.20350E+01 4.00625E+00 0.00000E+00
 -1      2002 5.67045E+01 3.09687E+00 0.00000E+00
 -1      2003 5.52045E+01 3.09687E+00 0.00000E+00
 -1      2004 5.50350E+01 4.00625E+00 0.00000E+00
 -1      2005 5.97045E+01 3.09687E+00 0.00000E+00
 -1      2006 5.82045E+01 3.09687E+00 0.00000E+00
 -1      2007 5.80350E+01 4.00625E+00 0.00000E+00
 -1      2008 6.27045E+01 3.09687E+00 0.00000E+00
 -1      2009 6.12045E+01 3.09687E+00 0.00000E+00
 -1      2010 6.10350E+01 4.00625E+00 0.00000E+00
 -1      2011 6.57045E+01 3.09687E+00 0.00000E+00
 -1      2012 6.42045E+01 3.09687E+00 0.00000E+00
 -1      2013 6.40350E+01 4.00625E+00 0.00000E+00
 -1      2014 6.87045E+01 3.09687E+00 0.00000E+00
 -1      2015 6.72045E+01 3.09687E+00 0.00000E+00
 -1      2016 6.70350E+01 4.00625E+00 0.00000E+00
 -1      2017 7.17045E+01 3.09687E+00 0.00000E+00
 -1      2018 7.02045E+01 3.09687E+00 0.00000E+00
 -1      2019 7.00350E+01 4.00625E+00 0.00000E+00
 -1      2020 7.47045E+01 3.09687E+00 0.00000E+00
 -1      2021 7.32045E+01 3.09687E+00 0.00000E+00
 -1      2022 7.30350E+01 4.00625E+00 0.00000E+00
 -1      2023 7.77045E+01 3.09687E+00 0.00000E+00
 -1      2024 7.62045E+01 3.09687E+00 0.00000E+00
 -1      2025 7.60350E+01 4.00625E+00 0.00000E+00
 -1      2026 8.07045E+01 3.09687E+00 0.00000E+00
 -1      2027 7.92045E+01 3.09687E+00 0.00000E+00
 -1      2028 7.90350E+01 4.00625E+00 0.00000E+00
 -1      2029 8.37045E+01 3.09687E+00 0.00000E+00
 -1      2030 8.22045E+01 3.09687E+00 0.00000E+00
 -1      2031 8.20350E+01 4.00625E+00 0.00000E+00
 -1      2032 8.67045E+01 3.09687E+00 0.00000E+00
 -1      2033 8.52045E+01 3.09687E+00 0.00000E+00
 -1      2034 8.50350E+01 4.00625E+00 0.00000E+00
 -1      2035 8.97045E+01 3.09687E+00 0.00000E+00
 -1      2036 8.82045E+01 3.09687E+00 0.00000E+00
 -1      2037 8.80350E+01 4.00625E+00 0.00000E+00
 -1      2038 9.27045E+01 3.09687E+00 0.00000E+00
 -1      2039 9.12045E+01 3.09687E+00 0.00000E+00
 -1      2040 9.10350E+01 4.00625E+00 0.00000E+00
 -1      2041 9.57045E+01 3.09687E+00 0.00000E+00
 -1      2042 9.42045E+01 3.09687E+00 0.00000E+00
 -1      2043 9.40350E+01 4.00625E+00 0.00000E+00
 -1      2044 9.87045E+01 3.09687E+00 0.00000E+00
 -1      2045 9.72045E+01 3.09687E+00 0.00000E+00
 -1      2046 9.70350E+01 4.00625E+00 0.00000E+00
 -1      2047 1.01704E+02 3.09687E+00 0.00000E+00
 -1      2048 1.00204E+02 3.09687E+00 0.00000E+00
 -1      2049 1.00035E+02 4.00625E+00 0.00000E+00
 -1      2050 1.04704E+02 3.09687E+00 0.00000E+00
 -1      2051 1.03204E+02 3.09687E+00 0.00000E+00
 -1      2052 1.03035E+02 4.00625E+00 0.00000E+00
 -1      2053 1.07704E+02 3.09687E+00 0.00000E+00
 -1      2054 1.06204E+02 3.09687E+00 0.00000E+00
 -1      2055 1.06035E+02 4.00625E+00 0.00000E+00
 -1      2056 1.10704E+02 3.09687E+00 0.00000E+00
 -1      2057 1.09204E+02 3.09687E+00 0.00000E+00
 -1      2058 1.09035E+02 4.00625E+00 0.00000E+00
 -1      2059 1.13704E+02 3.09687E+00 0.00000E+00
 -1      2060 1.12204E+02 3.09687E+00 0.00000E+00
 -1      2061 1.12035E+02 4.00625E+00 0.00000E+00
 -1      2062 1.16704E+02 3.09687E+00 0.00000E+00
 -1      2063 1.15204E+02 3.09687E+00 0.00000E+00
 -1      2064 1.15035E+02 4.00625E+00 0.00000E+00
 -1      2065 1.19704E+02 3.09687E+00 0.00000E+00
 -1      2066 1.18204E+02 3.09687E+00 0.00000E+00
 -1      2067 1.18035E+02 4.00625E+00 0.00000E+00
 -1      2068 1.22704E+02 3.09687E+00 0.00000E+00
 -1      2069 1.21204E+02 3.09687E+00 0.00000E+00
 -1      2070 1.21035E+02 4.00625E+00 0.00000E+00
 -1      2071 1.25704E+02 3.09687E+00 0.00000E+00
 -1      2072 1.24204E+02 3.09687E+00 0.00000E+00
 -1      2073 1.24035E+02 4.00625E+00 0.00000E+00
 -1      2074 1.28704E+02 3.09687E+00 0.00000E+00
 -1      2075 1.27204E+02 3.09687E+00 0.00000E+00
 -1      2076 1.27035E+02 4.00625E+00 0.00000E+00
 -1      2077 1.31704E+02 3.09687E+00 0.00000E+00
 -1      2078 1.30204E+02 3.09687E+00 0.00000E+00
 -1      2079 1.30035E+02 4.00625E+00 0.00000E+00
 -1      2080 1.34704E+02 3.09687E+00 0.00000E+00
 -1      2081 1.33204E+02 3.09687E+00 0.00000E+00
 -1      2082 1.33035E+02 4.00625E+00 0.00000E+00
 -1      2083 1.37704E+02 3.09687E+00 0.00000E+00
 -1      2084 1.36204E+02 3.09687E+00 0.00000E+00
 -1      2085 1.36035E+02 4.00625E+00 0.00000E+00
 -1      2086 1.40704E+02 3.09687E+00 0.00000E+00
 -1      2087 1.39204E+02 3.09687E+00 0.00000E+00
 -1      2088 1.39035E+02 4.00625E+00 0.00000E+00
 -1      2089 1.43704E+02 3.09687E+00 0.00000E+00
 -1      2090 1.42204E+02 3.09687E+00 0.00000E+00
 -1      2091 1.42035E+02 4.00625E+00 0.00000E+00
 -1      2092 1.46171E+02 3.20156E+00 0.00000E+00
 -1      2093 1.44671E+02 3.20156E+00 0.00000E+00
 -1      2094 1.44502E+02 4.11094E+00 0.00000E+00
 -1      2095 1.46435E+02 4.32031E+00 0.00000E+00
 -1      2096 1.46103E+02 1.25375E+01 0.00000E+00
 -1      2097 1.46103E+02 1.10625E+01 0.00000E+00
 -1      2098 1.46103E+02 9.58750E+00 0.00000E+00
 -1      2099 1.46103E+02 8.11250E+00 0.00000E+00
 -1      2100 1.44804E+02 1.03250E+01 0.00000E+00
 -1      2101 1.46269E+02 6.95391E+00 0.00000E+00
 -1      2102 1.46269E+02 5.47891E+00 0.00000E+00
 -1      2103 1.45302E+02 5.37422E+00 0.00000E+00
 -1      2104 1.44970E+02 7.69141E+00 0.00000E+00
 -1      2105 1.46103E+02 1.54375E+01 0.00000E+00
 -1      2106 1.46103E+02 1.39875E+01 0.00000E+00
 -1      2107 1.44804E+02 1.32500E+01 0.00000E+00
 -1      2108 1.46103E+02 1.83875E+01 0.00000E+00
 -1      2109 1.46103E+02 1.69125E+01 0.00000E+00
 -1      2110 1.44804E+02 1.61750E+01 0.00000E+00
 -1      2111 1.46103E+02 2.13375E+01 0.00000E+00
 -1      2112 1.46103E+02 1.98625E+01 0.00000E+00
 -1      2113 1.44804E+02 1.91250E+01 0.00000E+00
 -1      2114 1.46103E+02 2.42875E+01 0.00000E+00
 -1      2115 1.46103E+02 2.28125E+01 0.00000E+00
 -1      2116 1.44804E+02 2.20750E+01 0.00000E+00
 -1      2117 1.46103E+02 2.72375E+01 0.00000E+00
 -1      2118 1.46103E+02 2.57625E+01 0.00000E+00
 -1      2119 1.44804E+02 2.50250E+01 0.00000E+00
 -1      2120 1.46103E+02 3.01875E+01 0.00000E+00
 -1      2121 1.46103E+02 2.87125E+01 0.00000E+00
 -1      2122 1.44804E+02 2.79750E+01 0.00000E+00
 -1      2123 1.46103E+02 3.30875E+01 0.00000E+00
 -1      2124 1.46103E+02 3.16375E+01 0.00000E+00
 -1      2125 1.44804E+02 3.09000E+01 0.00000E+00
 -1      2126 1.46103E+02 3.60375E+01 0.00000E+00
 -1      2127 1.46103E+02 3.45625E+01 0.00000E+00
 -1      2128 1.44804E+02 3.38250E+01 0.00000E+00
 -1      2129 1.46103E+02 3.89875E+01 0.00000E+00
 -1      2130 1.46103E+02 3.75125E+01 0.00000E+00
 -1      2131 1.44804E+02 3.67750E+01 0.00000E+00
 -1      2132 1.46103E+02 4.19375E+01 0.00000E+00
 -1      2133 1.46103E+02 4.04625E+01 0.00000E+00
 -1      2134 1.44804E+02 3.97250E+01 0.00000E+00
 -1      2135 8.34518E+01 2.40737E+01 0.00000E+00
 -1      2136 8.38053E+01 2.48470E+01 0.00000E+00
 -1      2137 8.44920E+01 2.77138E+01 0.00000E+00
 -1      2138 8.44595E+01 2.85699E+01 0.00000E+00
 -1      2139 8.40337E+01 2.56975E+01 0.00000E+00
 -1      2140 8.42621E+01 2.65481E+01 0.00000E+00
 -1      2141 8.45607E+01 2.49892E+01 0.00000E+00
 -1      2142 8.24322E+01 2.25217E+01 0.00000E+00
 -1      2143 8.29394E+01 2.32058E+01 0.00000E+00
 -1      2144 8.11981E+01 2.11371E+01 0.00000E+00
 -1      2145 8.18118E+01 2.17845E+01 0.00000E+00
 -1      2146 3.89700E+00 3.74688E+01 0.00000E+00
 -1      2147 3.89700E+00 3.89437E+01 0.00000E+00
 -1      2148 5.19600E+00 3.96813E+01 0.00000E+00
 -1      2149 5.19600E+00 3.67438E+01 0.00000E+00
 -1      2150 7.77101E+01 1.93354E+01 0.00000E+00
 -1      2151 7.85583E+01 1.96285E+01 0.00000E+00
 -1      2152 7.56862E+01 1.92772E+01 0.00000E+00
 -1      2153 7.65862E+01 1.93004E+01 0.00000E+00
 -1      2154 7.38082E+01 1.93788E+01 0.00000E+00
 -1      2155 7.46790E+01 1.92524E+01 0.00000E+00
 -1      2156 7.19642E+01 1.99086E+01 0.00000E+00
 -1      2157 7.27919E+01 1.95975E+01 0.00000E+00
 -1      2158 7.03552E+01 2.09857E+01 0.00000E+00
 -1      2159 7.10667E+01 2.04794E+01 0.00000E+00
 -1      2160 6.89305E+01 2.21073E+01 0.00000E+00
 -1      2161 6.95273E+01 2.15166E+01 0.00000E+00
 -1      2162 6.79376E+01 2.36541E+01 0.00000E+00
 -1      2163 6.83989E+01 2.29534E+01 0.00000E+00
 -1      2164 6.70953E+01 2.52829E+01 0.00000E+00
 -1      2165 6.74077E+01 2.44937E+01 0.00000E+00
 -1      2166 6.64802E+01 2.70504E+01 0.00000E+00
 -1      2167 6.67877E+01 2.61666E+01 0.00000E+00
 -1      2168 6.62245E+01 2.54872E+01 0.00000E+00
 -1      2169 6.66720E+01 2.92402E+01 0.00000E+00
 -1      2170 6.64952E+01 2.83142E+01 0.00000E+00
 -1      2171 6.71107E+01 3.10287E+01 0.00000E+00
 -1      2172 6.68390E+01 3.02193E+01 0.00000E+00
 -1      2173 6.79398E+01 3.25999E+01 0.00000E+00
 -1      2174 6.75572E+01 3.18669E+01 0.00000E+00
 -1      2175 6.87737E+01 3.41402E+01 0.00000E+00
 -1      2176 6.83493E+01 3.33652E+01 0.00000E+00
 -1      2177 7.03554E+01 3.54460E+01 0.00000E+00
 -1      2178 6.96008E+01 3.49979E+01 0.00000E+00
 -1      2179 7.18320E+01 3.62834E+01 0.00000E+00
 -1      2180 7.10937E+01 3.58647E+01 0.00000E+00
 -1      2181 7.03855E+01 3.61979E+01 0.00000E+00
 -1      2182 7.36613E+01 3.69257E+01 0.00000E+00
 -1      2183 7.28275E+01 3.67840E+01 0.00000E+00
 -1      2184 7.53578E+01 3.71862E+01 0.00000E+00
 -1      2185 7.45095E+01 3.70560E+01 0.00000E+00
 -1      2186 7.39629E+01 3.77479E+01 0.00000E+00
 -1      2187 7.73482E+01 3.69342E+01 0.00000E+00
 -1      2188 7.65095E+01 3.71417E+01 0.00000E+00
 -1      2189 7.89268E+01 3.64393E+01 0.00000E+00
 -1      2190 7.81375E+01 3.66867E+01 0.00000E+00
 -1      2191 7.79040E+01 3.75416E+01 0.00000E+00
 -1      2192 8.06636E+01 3.55873E+01 0.00000E+00
 -1      2193 7.99867E+01 3.60555E+01 0.00000E+00
 -1      2194 8.18652E+01 3.44495E+01 0.00000E+00
 -1      2195 8.12644E+01 3.50184E+01 0.00000E+00
 -1      2196 8.14138E+01 3.59578E+01 0.00000E+00
 -1      2197 8.30532E+01 3.29329E+01 0.00000E+00
 -1      2198 8.24915E+01 3.35967E+01 0.00000E+00
 -1      2199 8.39221E+01 3.11803E+01 0.00000E+00
 -1      2200 8.36656E+01 3.19949E+01 0.00000E+00
 -1      2201 8.42398E+01 2.95957E+01 0.00000E+00
 -1      2202 8.40810E+01 3.03880E+01 0.00000E+00
 -1      2203 8.46508E+01 3.10151E+01 0.00000E+00
 -1      2204 7.94632E+01 2.00527E+01 0.00000E+00
 -1      2205 8.02700E+01 2.04526E+01 0.00000E+00
 -1      2206 8.11383E+01 2.02439E+01 0.00000E+00
 -1      2207 6.42300E+00 4.57510E+01 0.00000E+00
 -1      2208 7.93054E+01 1.91352E+01 0.00000E+00
 -1      2209 7.17300E+00 4.44520E+01 0.00000E+00
 -1      2210 8.50191E+01 2.70055E+01 0.00000E+00
 -1      2211 8.38198E+01 2.32708E+01 0.00000E+00
 -1      2212 1.45665E+02 4.31193E+01 0.00000E+00
 -1      2213 8.50293E+01 2.91970E+01 0.00000E+00
 -1      2214 8.26869E+01 2.16657E+01 0.00000E+00
 -1      2215 8.26408E+01 3.45361E+01 0.00000E+00
 -1      2216 7.97531E+01 3.69104E+01 0.00000E+00
 -1      2217 7.59629E+01 3.78336E+01 0.00000E+00
 -1      2218 7.21192E+01 3.71171E+01 0.00000E+00
 -1      2219 6.88201E+01 3.49216E+01 0.00000E+00
 -1      2220 6.80395E+01 3.48453E+01 0.00000E+00
 -1      2221 6.88665E+01 3.57029E+01 0.00000E+00
 -1      2222 6.75835E+01 3.32986E+01 0.00000E+00
 -1      2223 6.67275E+01 3.16951E+01 0.00000E+00
 -1      2224 6.59320E+01 2.76349E+01 0.00000E+00
 -1      2225 6.53687E+01 2.69555E+01 0.00000E+00
 -1      2226 6.53838E+01 2.82193E+01 0.00000E+00
 -1      2227 6.70620E+01 2.37639E+01 0.00000E+00
 -1      2228 6.81236E+01 2.20783E+01 0.00000E+00
 -1      2229 6.94831E+01 2.07013E+01 0.00000E+00
 -1      2230 7.12084E+01 1.95995E+01 0.00000E+00
 -1      2231 7.31222E+01 1.88100E+01 0.00000E+00
 -1      2232 7.72767E+01 1.86760E+01 0.00000E+00
 -1      2233 7.51457E+01 1.86161E+01 0.00000E+00
 -1      2234 6.61140E+01 2.98778E+01 0.00000E+00
 -1      2235 8.38795E+01 3.27454E+01 0.00000E+00
 -1      2236 1.07850E+01 5.30525E+00 0.00000E+00
 -1      2237 9.28500E+00 5.30525E+00 0.00000E+00
 -1      2238 6.49500E+00 3.01125E+01 0.00000E+00
 -1      2239 6.49500E+00 3.15875E+01 0.00000E+00
 -1      2240 6.49500E+00 3.30625E+01 0.00000E+00
 -1      2241 6.49500E+00 3.45375E+01 0.00000E+00
 -1      2242 7.79400E+00 3.23250E+01 0.00000E+00
 -1      2243 6.49500E+00 2.42125E+01 0.00000E+00
 -1      2244 6.49500E+00 2.56875E+01 0.00000E+00
 -1      2245 6.49500E+00 2.12625E+01 0.00000E+00
 -1      2246 6.49500E+00 2.27375E+01 0.00000E+00
 -1      2247 7.79400E+00 2.34750E+01 0.00000E+00
 -1      2248 6.49500E+00 1.83625E+01 0.00000E+00
 -1      2249 6.49500E+00 1.98125E+01 0.00000E+00
 -1      2250 7.79400E+00 2.05500E+01 0.00000E+00
 -1      2251 6.49500E+00 1.54125E+01 0.00000E+00
 -1      2252 6.49500E+00 1.68875E+01 0.00000E+00
 -1      2253 7.79400E+00 1.76250E+01 0.00000E+00
 -1      2254 6.49500E+00 1.24625E+01 0.00000E+00
 -1      2255 6.49500E+00 1.39375E+01 0.00000E+00
 -1      2256 7.79400E+00 1.46750E+01 0.00000E+00
 -1      2257 6.49500E+00 9.51250E+00 0.00000E+00
 -1      2258 6.49500E+00 1.09875E+01 0.00000E+00
 -1      2259 7.79400E+00 1.17250E+01 0.00000E+00
 -1      2260 1.37850E+01 5.30525E+00 0.00000E+00
 -1      2261 1.22850E+01 5.30525E+00 0.00000E+00
 -1      2262 1.15350E+01 6.60425E+00 0.00000E+00
 -1      2263 9.90000E+00 4.35050E+01 0.00000E+00
 -1      2264 1.14000E+01 4.35050E+01 0.00000E+00
 -1      2265 7.91636E+01 1.82604E+01 0.00000E+00
 -1      2266 8.00684E+01 1.86846E+01 0.00000E+00
 -1      2267 1.29000E+01 4.35050E+01 0.00000E+00
 -1      2268 1.44000E+01 4.35050E+01 0.00000E+00
 -1      2269 1.21500E+01 4.22060E+01 0.00000E+00
 -1      2270 1.59000E+01 4.35050E+01 0.00000E+00
 -1      2271 1.74000E+01 4.35050E+01 0.00000E+00
 -1      2272 1.51500E+01 4.22060E+01 0.00000E+00
 -1      2273 1.89000E+01 4.35050E+01 0.00000E+00
 -1      2274 2.04000E+01 4.35050E+01 0.00000E+00
 -1      2275 1.81500E+01 4.22060E+01 0.00000E+00
 -1      2276 2.19000E+01 4.35050E+01 0.00000E+00
 -1      2277 2.34000E+01 4.35050E+01 0.00000E+00
 -1      2278 2.11500E+01 4.22060E+01 0.00000E+00
 -1      2279 2.49000E+01 4.35050E+01 0.00000E+00
 -1      2280 2.64000E+01 4.35050E+01 0.00000E+00
 -1      2281 2.41500E+01 4.22060E+01 0.00000E+00
 -1      2282 2.79000E+01 4.35050E+01 0.00000E+00
 -1      2283 2.94000E+01 4.35050E+01 0.00000E+00
 -1      2284 2.71500E+01 4.22060E+01 0.00000E+00
 -1      2285 3.09000E+01 4.35050E+01 0.00000E+00
 -1      2286 3.24000E+01 4.35050E+01 0.00000E+00
 -1      2287 3.01500E+01 4.22060E+01 0.00000E+00
 -1      2288 3.39000E+01 4.35050E+01 0.00000E+00
 -1      2289 3.54000E+01 4.35050E+01 0.00000E+00
 -1      2290 3.31500E+01 4.22060E+01 0.00000E+00
 -1      2291 3.69000E+01 4.35050E+01 0.00000E+00
 -1      2292 3.84000E+01 4.35050E+01 0.00000E+00
 -1      2293 3.61500E+01 4.22060E+01 0.00000E+00
 -1      2294 3.99000E+01 4.35050E+01 0.00000E+00
 -1      2295 4.14000E+01 4.35050E+01 0.00000E+00
 -1      2296 3.91500E+01 4.22060E+01 0.00000E+00
 -1      2297 4.29000E+01 4.35050E+01 0.00000E+00
 -1      2298 4.44000E+01 4.35050E+01 0.00000E+00
 -1      2299 4.21500E+01 4.22060E+01 0.00000E+00
 -1      2300 4.59000E+01 4.35050E+01 0.00000E+00
 -1      2301 4.74000E+01 4.35050E+01 0.00000E+00
 -1      2302 4.51500E+01 4.22060E+01 0.00000E+00
 -1      2303 4.89000E+01 4.35050E+01 0.00000E+00
 -1      2304 5.04000E+01 4.35050E+01 0.00000E+00
 -1      2305 4.81500E+01 4.22060E+01 0.00000E+00
 -1      2306 5.19000E+01 4.35050E+01 0.00000E+00
 -1      2307 5.34000E+01 4.35050E+01 0.00000E+00
 -1      2308 5.11500E+01 4.22060E+01 0.00000E+00
 -1      2309 5.49000E+01 4.35050E+01 0.00000E+00
 -1      2310 5.64000E+01 4.35050E+01 0.00000E+00
 -1      2311 5.41500E+01 4.22060E+01 0.00000E+00
 -1      2312 5.79000E+01 4.35050E+01 0.00000E+00
 -1      2313 5.94000E+01 4.35050E+01 0.00000E+00
 -1      2314 5.71500E+01 4.22060E+01 0.00000E+00
 -1      2315 6.09000E+01 4.35050E+01 0.00000E+00
 -1      2316 6.24000E+01 4.35050E+01 0.00000E+00
 -1      2317 6.01500E+01 4.22060E+01 0.00000E+00
 -1      2318 6.39000E+01 4.35050E+01 0.00000E+00
 -1      2319 6.54000E+01 4.35050E+01 0.00000E+00
 -1      2320 6.31500E+01 4.22060E+01 0.00000E+00
 -1      2321 6.69000E+01 4.35050E+01 0.00000E+00
 -1      2322 6.84000E+01 4.35050E+01 0.00000E+00
 -1      2323 6.61500E+01 4.22060E+01 0.00000E+00
 -1      2324 6.99000E+01 4.35050E+01 0.00000E+00
 -1      2325 7.14000E+01 4.35050E+01 0.00000E+00
 -1      2326 6.91500E+01 4.22060E+01 0.00000E+00
 -1      2327 7.29000E+01 4.35050E+01 0.00000E+00
 -1      2328 7.44000E+01 4.35050E+01 0.00000E+00
 -1      2329 7.21500E+01 4.22060E+01 0.00000E+00
 -1      2330 7.59000E+01 4.35050E+01 0.00000E+00
 -1      2331 7.74000E+01 4.35050E+01 0.00000E+00
 -1      2332 7.51500E+01 4.22060E+01 0.00000E+00
 -1      2333 7.89000E+01 4.35050E+01 0.00000E+00
 -1      2334 8.04000E+01 4.35050E+01 0.00000E+00
 -1      2335 7.81500E+01 4.22060E+01 0.00000E+00
 -1      2336 8.19000E+01 4.35050E+01 0.00000E+00
 -1      2337 8.34000E+01 4.35050E+01 0.00000E+00
 -1      2338 8.11500E+01 4.22060E+01 0.00000E+00
 -1      2339 8.49000E+01 4.35050E+01 0.00000E+00
 -1      2340 8.64000E+01 4.35050E+01 0.00000E+00
 -1      2341 8.41500E+01 4.22060E+01 0.00000E+00
 -1      2342 8.79000E+01 4.35050E+01 0.00000E+00
 -1      2343 8.94000E+01 4.35050E+01 0.00000E+00
 -1      2344 8.71500E+01 4.22060E+01 0.00000E+00
 -1      2345 9.09000E+01 4.35050E+01 0.00000E+00
 -1      2346 9.24000E+01 4.35050E+01 0.00000E+00
 -1      2347 9.01500E+01 4.22060E+01 0.00000E+00
 -1      2348 9.39000E+01 4.35050E+01 0.00000E+00
 -1      2349 9.54000E+01 4.35050E+01 0.00000E+00
 -1      2350 9.31500E+01 4.22060E+01 0.00000E+00
 -1      2351 9.69000E+01 4.35050E+01 0.00000E+00
 -1      2352 9.84000E+01 4.35050E+01 0.00000E+00
 -1      2353 9.61500E+01 4.22060E+01 0.00000E+00
 -1      2354 9.99000E+01 4.35050E+01 0.00000E+00
 -1      2355 1.01400E+02 4.35050E+01 0.00000E+00
 -1      2356 9.91500E+01 4.22060E+01 0.00000E+00
 -1      2357 1.02900E+02 4.35050E+01 0.00000E+00
 -1      2358 1.04400E+02 4.35050E+01 0.00000E+00
 -1      2359 1.02150E+02 4.22060E+01 0.00000E+00
 -1      2360 1.05900E+02 4.35050E+01 0.00000E+00
 -1      2361 1.07400E+02 4.35050E+01 0.00000E+00
 -1      2362 1.05150E+02 4.22060E+01 0.00000E+00
 -1      2363 1.08900E+02 4.35050E+01 0.00000E+00
 -1      2364 1.10400E+02 4.35050E+01 0.00000E+00
 -1      2365 1.08150E+02 4.22060E+01 0.00000E+00
 -1      2366 1.11900E+02 4.35050E+01 0.00000E+00
 -1      2367 1.13400E+02 4.35050E+01 0.00000E+00
 -1      2368 1.11150E+02 4.22060E+01 0.00000E+00
 -1      2369 1.14900E+02 4.35050E+01 0.00000E+00
 -1      2370 1.16400E+02 4.35050E+01 0.00000E+00
 -1      2371 1.14150E+02 4.22060E+01 0.00000E+00
 -1      2372 1.17900E+02 4.35050E+01 0.00000E+00
 -1      2373 1.19400E+02 4.35050E+01 0.00000E+00
 -1      2374 1.17150E+02 4.22060E+01 0.00000E+00
 -1      2375 1.20900E+02 4.35050E+01 0.00000E+00
 -1      2376 1.22400E+02 4.35050E+01 0.00000E+00
 -1      2377 1.20150E+02 4.22060E+01 0.00000E+00
 -1      2378 1.23900E+02 4.35050E+01 0.00000E+00
 -1      2379 1.25400E+02 4.35050E+01 0.00000E+00
 -1      2380 1.23150E+02 4.22060E+01 0.00000E+00
 -1      2381 1.26900E+02 4.35050E+01 0.00000E+00
 -1      2382 1.28400E+02 4.35050E+01 0.00000E+00
 -1      2383 1.26150E+02 4.22060E+01 0.00000E+00
 -1      2384 1.29900E+02 4.35050E+01 0.00000E+00
 -1      2385 1.31400E+02 4.35050E+01 0.00000E+00
 -1      2386 1.29150E+02 4.22060E+01 0.00000E+00
 -1      2387 1.32900E+02 4.35050E+01 0.00000E+00
 -1      2388 1.34400E+02 4.35050E+01 0.00000E+00
 -1      2389 1.32150E+02 4.22060E+01 0.00000E+00
 -1      2390 1.35900E+02 4.35050E+01 0.00000E+00
 -1      2391 1.37400E+02 4.35050E+01 0.00000E+00
 -1      2392 1.35150E+02 4.22060E+01 0.00000E+00
 -1      2393 1.38900E+02 4.35050E+01 0.00000E+00
 -1      2394 1.40400E+02 4.35050E+01 0.00000E+00
 -1      2395 1.38150E+02 4.22060E+01 0.00000E+00
 -1      2396 8.54365E+01 2.42980E+01 0.00000E+00
 -1      2397 8.56650E+01 2.51486E+01 0.00000E+00
 -1      2398 1.97850E+01 5.30525E+00 0.00000E+00
 -1      2399 1.82850E+01 5.30525E+00 0.00000E+00
 -1      2400 2.27850E+01 5.30525E+00 0.00000E+00
 -1      2401 2.12850E+01 5.30525E+00 0.00000E+00
 -1      2402 2.05350E+01 6.60425E+00 0.00000E+00
 -1      2403 2.57850E+01 5.30525E+00 0.00000E+00
 -1      2404 2.42850E+01 5.30525E+00 0.00000E+00
 -1      2405 2.35350E+01 6.60425E+00 0.00000E+00
 -1      2406 2.87850E+01 5.30525E+00 0.00000E+00
 -1      2407 2.72850E+01 5.30525E+00 0.00000E+00
 -1      2408 2.65350E+01 6.60425E+00 0.00000E+00
 -1      2409 3.17850E+01 5.30525E+00 0.00000E+00
 -1      2410 3.02850E+01 5.30525E+00 0.00000E+00
 -1      2411 2.95350E+01 6.60425E+00 0.00000E+00
 -1      2412 3.47850E+01 5.30525E+00 0.00000E+00
 -1      2413 3.32850E+01 5.30525E+00 0.00000E+00
 -1      2414 3.25350E+01 6.60425E+00 0.00000E+00
 -1      2415 3.77850E+01 5.30525E+00 0.00000E+00
 -1      2416 3.62850E+01 5.30525E+00 0.00000E+00
 -1      2417 3.55350E+01 6.60425E+00 0.00000E+00
 -1      2418 4.07850E+01 5.30525E+00 0.00000E+00
 -1      2419 3.92850E+01 5.30525E+00 0.00000E+00
 -1      2420 3.85350E+01 6.60425E+00 0.00000E+00
 -1      2421 4.37850E+01 5.30525E+00 0.00000E+00
 -1      2422 4.22850E+01 5.30525E+00 0.00000E+00
 -1      2423 4.15350E+01 6.60425E+00 0.00000E+00
 -1      2424 4.67850E+01 5.30525E+00 0.00000E+00
 -1      2425 4.52850E+01 5.30525E+00 0.00000E+00
 -1      2426 4.45350E+01 6.60425E+00 0.00000E+00
 -1      2427 4.97850E+01 5.30525E+00 0.00000E+00
 -1      2428 4.82850E+01 5.30525E+00 0.00000E+00
 -1      2429 4.75350E+01 6.60425E+00 0.00000E+00
 -1      2430 5.27850E+01 5.30525E+00 0.00000E+00
 -1      2431 5.12850E+01 5.30525E+00 0.00000E+00
 -1      2432 5.05350E+01 6.60425E+00 0.00000E+00
 -1      2433 5.57850E+01 5.30525E+00 0.00000E+00
 -1      2434 5.42850E+01 5.30525E+00 0.00000E+00
 -1      2435 5.35350E+01 6.60425E+00 0.00000E+00
 -1      2436 5.87850E+01 5.30525E+00 0.00000E+00
 -1      2437 5.72850E+01 5.30525E+00 0.00000E+00
 -1      2438 5.65350E+01 6.60425E+00 0.00000E+00
 -1      2439 6.17850E+01 5.30525E+00 0.00000E+00
 -1      2440 6.02850E+01 5.30525E+00 0.00000E+00
 -1      2441 5.95350E+01 6.60425E+00 0.00000E+00
 -1      2442 6.47850E+01 5.30525E+00 0.00000E+00
 -1      2443 6.32850E+01 5.30525E+00 0.00000E+00
 -1      2444 6.25350E+01 6.60425E+00 0.00000E+00
 -1      2445 6.77850E+01 5.30525E+00 0.00000E+00
 -1      2446 6.62850E+01 5.30525E+00 0.00000E+00
 -1      2447 6.55350E+01 6.60425E+00 0.00000E+00
 -1      2448 7.07850E+01 5.30525E+00 0.00000E+00
 -1      2449 6.92850E+01 5.30525E+00 0.00000E+00
 -1      2450 6.85350E+01 6.60425E+00 0.00000E+00
 -1      2451 7.37850E+01 5.30525E+00 0.00000E+00
 -1      2452 7.22850E+01 5.30525E+00 0.00000E+00
 -1      2453 7.15350E+01 6.60425E+00 0.00000E+00
 -1      2454 7.67850E+01 5.30525E+00 0.00000E+00
 -1      2455 7.52850E+01 5.30525E+00 0.00000E+00
 -1      2456 7.45350E+01 6.60425E+00 0.00000E+00
 -1      2457 7.97850E+01 5.30525E+00 0.00000E+00
 -1      2458 7.82850E+01 5.30525E+00 0.00000E+00
 -1      2459 7.75350E+01 6.60425E+00 0.00000E+00
 -1      2460 8.27850E+01 5.30525E+00 0.00000E+00
 -1      2461 8.12850E+01 5.30525E+00 0.00000E+00
 -1      2462 8.05350E+01 6.60425E+00 0.00000E+00
 -1      2463 8.57850E+01 5.30525E+00 0.00000E+00
 -1      2464 8.42850E+01 5.30525E+00 0.00000E+00
 -1      2465 8.35350E+01 6.60425E+00 0.00000E+00
 -1      2466 8.87850E+01 5.30525E+00 0.00000E+00
 -1      2467 8.72850E+01 5.30525E+00 0.00000E+00
 -1      2468 8.65350E+01 6.60425E+00 0.00000E+00
 -1      2469 9.17850E+01 5.30525E+00 0.00000E+00
 -1      2470 9.02850E+01 5.30525E+00 0.00000E+00
 -1      2471 8.95350E+01 6.60425E+00 0.00000E+00
 -1      2472 9.47850E+01 5.30525E+00 0.00000E+00
 -1      2473 9.32850E+01 5.30525E+00 0.00000E+00
 -1      2474 9.25350E+01 6.60425E+00 0.00000E+00
 -1      2475 9.77850E+01 5.30525E+00 0.00000E+00
 -1      2476 9.62850E+01 5.30525E+00 0.00000E+00
 -1      2477 9.55350E+01 6.60425E+00 0.00000E+00
 -1      2478 1.00785E+02 5.30525E+00 0.00000E+00
 -1      2479 9.92850E+01 5.30525E+00 0.00000E+00
 -1      2480 9.85350E+01 6.60425E+00 0.00000E+00
 -1      2481 1.03785E+02 5.30525E+00 0.00000E+00
 -1      2482 1.02285E+02 5.30525E+00 0.00000E+00
 -1      2483 1.01535E+02 6.60425E+00 0.00000E+00
 -1      2484 1.06785E+02 5.30525E+00 0.00000E+00
 -1      2485 1.05285E+02 5.30525E+00 0.00000E+00
 -1      2486 1.04535E+02 6.60425E+00 0.00000E+00
 -1      2487 1.09785E+02 5.30525E+00 0.00000E+00
 -1      2488 1.08285E+02 5.30525E+00 0.00000E+00
 -1      2489 1.07535E+02 6.60425E+00 0.00000E+00
 -1      2490 1.12785E+02 5.30525E+00 0.00000E+00
 -1      2491 1.11285E+02 5.30525E+00 0.00000E+00
 -1      2492 1.10535E+02 6.60425E+00 0.00000E+00
 -1      2493 1.15785E+02 5.30525E+00 0.00000E+00
 -1      2494 1.14285E+02 5.30525E+00 0.00000E+00
 -1      2495 1.13535E+02 6.60425E+00 0.00000E+00
 -1      2496 1.18785E+02 5.30525E+00 0.00000E+00
 -1      2497 1.17285E+02 5.30525E+00 0.00000E+00
 -1      2498 1.16535E+02 6.60425E+00 0.00000E+00
 -1      2499 1.21785E+02 5.30525E+00 0.00000E+00
 -1      2500 1.20285E+02 5.30525E+00 0.00000E+00
 -1      2501 1.19535E+02 6.60425E+00 0.00000E+00
 -1      2502 1.24785E+02 5.30525E+00 0.00000E+00
 -1      2503 1.23285E+02 5.30525E+00 0.00000E+00
 -1      2504 1.22535E+02 6.60425E+00 0.00000E+00
 -1      2505 1.27785E+02 5.30525E+00 0.00000E+00
 -1      2506 1.26285E+02 5.30525E+00 0.00000E+00
 -1      2507 1.25535E+02 6.60425E+00 0.00000E+00
 -1      2508 1.30785E+02 5.30525E+00 0.00000E+00
 -1      2509 1.29285E+02 5.30525E+00 0.00000E+00
 -1      2510 1.28535E+02 6.60425E+00 0.00000E+00
 -1      2511 1.33785E+02 5.30525E+00 0.00000E+00
 -1      2512 1.32285E+02 5.30525E+00 0.00000E+00
 -1      2513 1.31535E+02 6.60425E+00 0.00000E+00
 -1      2514 1.36785E+02 5.30525E+00 0.00000E+00
 -1      2515 1.35285E+02 5.30525E+00 0.00000E+00
 -1      2516 1.34535E+02 6.60425E+00 0.00000E+00
 -1      2517 1.39785E+02 5.30525E+00 0.00000E+00
 -1      2518 1.38285E+02 5.30525E+00 0.00000E+00
 -1      2519 1.37535E+02 6.60425E+00 0.00000E+00
 -1      2520 1.42785E+02 5.30525E+00 0.00000E+00
 -1      2521 1.41285E+02 5.30525E+00 0.00000E+00
 -1      2522 1.40535E+02 6.60425E+00 0.00000E+00
 -1      2523 1.44336E+02 5.26953E+00 0.00000E+00
 -1      2524 1.43505E+02 1.69125E+01 0.00000E+00
 -1      2525 1.43505E+02 1.54375E+01 0.00000E+00
 -1      2526 1.43505E+02 1.98625E+01 0.00000E+00
 -1      2527 1.43505E+02 1.83875E+01 0.00000E+00
 -1      2528 1.42206E+02 1.76500E+01 0.00000E+00
 -1      2529 1.43505E+02 1.10625E+01 0.00000E+00
 -1      2530 1.43505E+02 9.58750E+00 0.00000E+00
 -1      2531 1.43505E+02 1.39750E+01 0.00000E+00
 -1      2532 1.43505E+02 1.25250E+01 0.00000E+00
 -1      2533 1.42206E+02 1.17875E+01 0.00000E+00
 -1      2534 1.42206E+02 1.47125E+01 0.00000E+00
 -1      2535 1.43505E+02 2.28125E+01 0.00000E+00
 -1      2536 1.43505E+02 2.13375E+01 0.00000E+00
 -1      2537 1.42206E+02 2.06000E+01 0.00000E+00
 -1      2538 1.43505E+02 2.57625E+01 0.00000E+00
 -1      2539 1.43505E+02 2.42875E+01 0.00000E+00
 -1      2540 1.42206E+02 2.35500E+01 0.00000E+00
 -1      2541 1.43505E+02 2.87125E+01 0.00000E+00
 -1      2542 1.43505E+02 2.72375E+01 0.00000E+00
 -1      2543 1.42206E+02 2.65000E+01 0.00000E+00
 -1      2544 1.43505E+02 3.16125E+01 0.00000E+00
 -1      2545 1.43505E+02 3.01625E+01 0.00000E+00
 -1      2546 1.42206E+02 2.94250E+01 0.00000E+00
 -1      2547 1.43505E+02 3.45625E+01 0.00000E+00
 -1      2548 1.43505E+02 3.30875E+01 0.00000E+00
 -1      2549 1.42206E+02 3.23500E+01 0.00000E+00
 -1      2550 1.43505E+02 3.75125E+01 0.00000E+00
 -1      2551 1.43505E+02 3.60375E+01 0.00000E+00
 -1      2552 1.42206E+02 3.53000E+01 0.00000E+00
 -1      2553 1.43505E+02 4.04625E+01 0.00000E+00
 -1      2554 1.43505E+02 3.89875E+01 0.00000E+00
 -1      2555 1.42206E+02 3.82500E+01 0.00000E+00
 -1      2556 1.44321E+02 4.30606E+01 0.00000E+00
 -1      2557 8.59777E+01 2.88637E+01 0.00000E+00
 -1      2558 8.57580E+01 2.98895E+01 0.00000E+00
 -1      2559 1.67850E+01 5.30525E+00 0.00000E+00
 -1      2560 1.52850E+01 5.30525E+00 0.00000E+00
 -1      2561 1.75350E+01 6.60425E+00 0.00000E+00
 -1      2562 8.44116E+01 2.25623E+01 0.00000E+00
 -1      2563 8.49241E+01 2.34302E+01 0.00000E+00
 -1      2564 8.60284E+01 2.35896E+01 0.00000E+00
 -1      2565 8.36114E+01 3.45926E+01 0.00000E+00
 -1      2566 8.29851E+01 3.54453E+01 0.00000E+00
 -1      2567 8.30328E+01 2.07449E+01 0.00000E+00
 -1      2568 8.36533E+01 2.14822E+01 0.00000E+00
 -1      2569 8.58949E+01 2.63143E+01 0.00000E+00
 -1      2570 8.61248E+01 2.74801E+01 0.00000E+00
 -1      2571 8.67707E+01 2.56232E+01 0.00000E+00
 -1      2572 6.60718E+01 2.37260E+01 0.00000E+00
 -1      2573 6.66018E+01 2.28864E+01 0.00000E+00
 -1      2574 6.49500E+00 2.71625E+01 0.00000E+00
 -1      2575 6.49500E+00 2.86375E+01 0.00000E+00
 -1      2576 7.79400E+00 2.93750E+01 0.00000E+00
 -1      2577 7.79400E+00 2.64250E+01 0.00000E+00
 -1      2578 7.46621E+01 1.77883E+01 0.00000E+00
 -1      2579 7.56693E+01 1.78131E+01 0.00000E+00
 -1      2580 6.54761E+01 3.04904E+01 0.00000E+00
 -1      2581 6.53091E+01 2.95113E+01 0.00000E+00
 -1      2582 7.67416E+01 1.78013E+01 0.00000E+00
 -1      2583 7.78654E+01 1.78364E+01 0.00000E+00
 -1      2584 7.24160E+01 1.79991E+01 0.00000E+00
 -1      2585 7.34322E+01 1.77804E+01 0.00000E+00
 -1      2586 7.03444E+01 1.92320E+01 0.00000E+00
 -1      2587 7.12419E+01 1.86612E+01 0.00000E+00
 -1      2588 6.86288E+01 2.02802E+01 0.00000E+00
 -1      2589 6.94567E+01 1.97492E+01 0.00000E+00
 -1      2590 6.71334E+01 2.20403E+01 0.00000E+00
 -1      2591 6.76650E+01 2.11943E+01 0.00000E+00
 -1      2592 6.61433E+01 2.20024E+01 0.00000E+00
 -1      2593 6.52608E+01 2.56473E+01 0.00000E+00
 -1      2594 6.55683E+01 2.47635E+01 0.00000E+00
 -1      2595 8.49038E+01 3.27453E+01 0.00000E+00
 -1      2596 8.42913E+01 3.36832E+01 0.00000E+00
 -1      2597 6.62678E+01 3.24780E+01 0.00000E+00
 -1      2598 6.58213E+01 3.16398E+01 0.00000E+00
 -1      2599 6.70869E+01 3.40086E+01 0.00000E+00
 -1      2600 6.66774E+01 3.32433E+01 0.00000E+00
 -1      2601 6.57712E+01 3.31880E+01 0.00000E+00
 -1      2602 7.03936E+01 3.70438E+01 0.00000E+00
 -1      2603 6.96553E+01 3.66252E+01 0.00000E+00
 -1      2604 7.22317E+01 3.81335E+01 0.00000E+00
 -1      2605 7.12362E+01 3.76330E+01 0.00000E+00
 -1      2606 7.42569E+01 3.86607E+01 0.00000E+00
 -1      2607 7.34087E+01 3.85304E+01 0.00000E+00
 -1      2608 7.65703E+01 3.86264E+01 0.00000E+00
 -1      2609 7.54186E+01 3.86709E+01 0.00000E+00
 -1      2610 7.86053E+01 3.83960E+01 0.00000E+00
 -1      2611 7.78160E+01 3.86435E+01 0.00000E+00
 -1      2612 8.07251E+01 3.76286E+01 0.00000E+00
 -1      2613 7.96652E+01 3.80123E+01 0.00000E+00
 -1      2614 7.95773E+01 3.91142E+01 0.00000E+00
 -1      2615 8.23614E+01 3.63569E+01 0.00000E+00
 -1      2616 8.17606E+01 3.69258E+01 0.00000E+00
 -1      2617 8.55992E+01 3.06818E+01 0.00000E+00
 -1      2618 8.54403E+01 3.14741E+01 0.00000E+00
 -1      2619 8.65475E+01 3.03485E+01 0.00000E+00
 -1      2620 6.55950E+00 4.28890E+01 0.00000E+00
 -1      2621 8.53650E+00 4.32410E+01 0.00000E+00
 -1      2622 9.28650E+00 4.19420E+01 0.00000E+00
 -1      2623 6.55950E+00 4.14140E+01 0.00000E+00
 -1      2624 8.07525E+00 5.11044E+00 0.00000E+00
 -1      2625 6.57525E+00 5.11044E+00 0.00000E+00
 -1      2626 6.40575E+00 6.01981E+00 0.00000E+00
 -1      2627 8.82525E+00 6.40944E+00 0.00000E+00
 -1      2628 8.11833E+01 1.92115E+01 0.00000E+00
 -1      2629 8.21114E+01 1.98961E+01 0.00000E+00
 -1      2630 7.62580E+01 1.69735E+01 0.00000E+00
 -1      2631 7.79400E+00 3.52687E+01 0.00000E+00
 -1      2632 6.49500E+00 3.60062E+01 0.00000E+00
 -1      2633 6.49500E+00 3.74750E+01 0.00000E+00
 -1      2634 1.45350E+01 6.60425E+00 0.00000E+00
 -1      2635 6.40575E+00 7.49481E+00 0.00000E+00
 -1      2636 8.10415E+01 1.83367E+01 0.00000E+00
 -1      2637 8.16727E+01 3.80277E+01 0.00000E+00
 -1      2638 7.72717E+01 3.94808E+01 0.00000E+00
 -1      2639 7.48643E+01 3.94534E+01 0.00000E+00
 -1      2640 8.33320E+01 3.64133E+01 0.00000E+00
 -1      2641 1.43586E+02 6.56853E+00 0.00000E+00
 -1      2642 8.30778E+01 1.97125E+01 0.00000E+00
 -1      2643 1.43419E+02 7.72713E+00 0.00000E+00
 -1      2644 7.25257E+01 3.90463E+01 0.00000E+00
 -1      2645 1.42758E+02 4.35929E+01 0.00000E+00
 -1      2646 1.43241E+02 4.17323E+01 0.00000E+00
 -1      2647 1.41942E+02 4.09948E+01 0.00000E+00
 -1      2648 1.41414E+02 4.35342E+01 0.00000E+00
 -1      2649 6.71333E+01 3.47900E+01 0.00000E+00
 -1      2650 6.62271E+01 3.47346E+01 0.00000E+00
 -1      2651 6.71797E+01 3.55713E+01 0.00000E+00
 -1      2652 6.88828E+01 3.73948E+01 0.00000E+00
 -1      2653 6.88747E+01 3.65489E+01 0.00000E+00
 -1      2654 6.80940E+01 3.64726E+01 0.00000E+00
 -1      2655 8.68535E+01 2.81725E+01 0.00000E+00
 -1      2656 7.70475E+00 8.23231E+00 0.00000E+00
 -1      2657 8.47575E+01 2.16416E+01 0.00000E+00
 -1      2658 8.58521E+01 3.24119E+01 0.00000E+00
 -1      2659 8.46356E+01 3.45924E+01 0.00000E+00
 -1      2660 6.51082E+01 2.38860E+01 0.00000E+00
 -1      2661 6.76386E+01 2.02422E+01 0.00000E+00
 -1      2662 6.94902E+01 1.88109E+01 0.00000E+00
 -1      2663 7.15520E+01 1.76316E+01 0.00000E+00
 -1      2664 6.47458E+01 2.88320E+01 0.00000E+00
 -1      2665 6.41826E+01 2.81526E+01 0.00000E+00
 -1      2666 6.41079E+01 2.94446E+01 0.00000E+00
 -1      2667 7.86285E+01 1.73858E+01 0.00000E+00
 -1      2668 7.93915E+01 1.69352E+01 0.00000E+00
 -1      2669 7.80933E+01 1.65111E+01 0.00000E+00
 -1      2670 6.50164E+01 3.12733E+01 0.00000E+00
 -1      2671 6.52725E+00 3.87101E+01 0.00000E+00
 -1      2672 6.52725E+00 4.01789E+01 0.00000E+00
 -1      2673 7.89075E+00 4.04429E+01 0.00000E+00
 -1      2674 7.82625E+00 3.79726E+01 0.00000E+00
 -1      2675 7.39559E+01 1.69774E+01 0.00000E+00
 -1      2676 6.47126E+01 2.62318E+01 0.00000E+00
 -1      2677 6.40564E+01 2.55080E+01 0.00000E+00
 -1      2678 6.41644E+01 2.68162E+01 0.00000E+00
 -1      2679 7.05061E+01 3.80603E+01 0.00000E+00
 -1      2680 1.42120E+02 8.46463E+00 0.00000E+00
 -1      2681 1.40664E+02 4.22352E+01 0.00000E+00
 -1      2682 9.09300E+00 1.98250E+01 0.00000E+00
 -1      2683 9.09300E+00 2.12750E+01 0.00000E+00
 -1      2684 9.09300E+00 2.27500E+01 0.00000E+00
 -1      2685 9.09300E+00 2.42250E+01 0.00000E+00
 -1      2686 1.03920E+01 2.20250E+01 0.00000E+00
 -1      2687 9.09300E+00 1.39375E+01 0.00000E+00
 -1      2688 9.09300E+00 1.54125E+01 0.00000E+00
 -1      2689 9.09300E+00 1.09875E+01 0.00000E+00
 -1      2690 9.09300E+00 1.24625E+01 0.00000E+00
 -1      2691 1.03920E+01 1.32000E+01 0.00000E+00
 -1      2692 1.22850E+01 7.90325E+00 0.00000E+00
 -1      2693 1.07850E+01 7.90325E+00 0.00000E+00
 -1      2694 8.51488E+01 2.05606E+01 0.00000E+00
 -1      2695 8.59072E+01 2.16408E+01 0.00000E+00
 -1      2696 7.75837E+01 4.08520E+01 0.00000E+00
 -1      2697 7.63380E+01 4.08349E+01 0.00000E+00
 -1      2698 1.52850E+01 7.90325E+00 0.00000E+00
 -1      2699 1.37850E+01 7.90325E+00 0.00000E+00
 -1      2700 1.30350E+01 9.20225E+00 0.00000E+00
 -1      2701 8.91450E+00 8.42712E+00 0.00000E+00
 -1      2702 8.27661E+01 3.85245E+01 0.00000E+00
 -1      2703 8.17306E+01 3.92273E+01 0.00000E+00
 -1      2704 9.25425E+00 4.07069E+01 0.00000E+00
 -1      2705 1.06178E+01 4.09709E+01 0.00000E+00
 -1      2706 9.22200E+00 3.94717E+01 0.00000E+00
 -1      2707 1.44000E+01 4.09070E+01 0.00000E+00
 -1      2708 1.59000E+01 4.09070E+01 0.00000E+00
 -1      2709 1.74000E+01 4.09070E+01 0.00000E+00
 -1      2710 1.89000E+01 4.09070E+01 0.00000E+00
 -1      2711 1.66500E+01 3.96080E+01 0.00000E+00
 -1      2712 2.04000E+01 4.09070E+01 0.00000E+00
 -1      2713 2.19000E+01 4.09070E+01 0.00000E+00
 -1      2714 1.96500E+01 3.96080E+01 0.00000E+00
 -1      2715 2.34000E+01 4.09070E+01 0.00000E+00
 -1      2716 2.49000E+01 4.09070E+01 0.00000E+00
 -1      2717 2.26500E+01 3.96080E+01 0.00000E+00
 -1      2718 2.64000E+01 4.09070E+01 0.00000E+00
 -1      2719 2.79000E+01 4.09070E+01 0.00000E+00
 -1      2720 2.56500E+01 3.96080E+01 0.00000E+00
 -1      2721 2.94000E+01 4.09070E+01 0.00000E+00
 -1      2722 3.09000E+01 4.09070E+01 0.00000E+00
 -1      2723 2.86500E+01 3.96080E+01 0.00000E+00
 -1      2724 3.24000E+01 4.09070E+01 0.00000E+00
 -1      2725 3.39000E+01 4.09070E+01 0.00000E+00
 -1      2726 3.16500E+01 3.96080E+01 0.00000E+00
 -1      2727 3.54000E+01 4.09070E+01 0.00000E+00
 -1      2728 3.69000E+01 4.09070E+01 0.00000E+00
 -1      2729 3.46500E+01 3.96080E+01 0.00000E+00
 -1      2730 3.84000E+01 4.09070E+01 0.00000E+00
 -1      2731 3.99000E+01 4.09070E+01 0.00000E+00
 -1      2732 3.76500E+01 3.96080E+01 0.00000E+00
 -1      2733 4.14000E+01 4.09070E+01 0.00000E+00
 -1      2734 4.29000E+01 4.09070E+01 0.00000E+00
 -1      2735 4.06500E+01 3.96080E+01 0.00000E+00
 -1      2736 4.44000E+01 4.09070E+01 0.00000E+00
 -1      2737 4.59000E+01 4.09070E+01 0.00000E+00
 -1      2738 4.36500E+01 3.96080E+01 0.00000E+00
 -1      2739 4.74000E+01 4.09070E+01 0.00000E+00
 -1      2740 4.89000E+01 4.09070E+01 0.00000E+00
 -1      2741 4.66500E+01 3.96080E+01 0.00000E+00
 -1      2742 5.04000E+01 4.09070E+01 0.00000E+00
 -1      2743 5.19000E+01 4.09070E+01 0.00000E+00
 -1      2744 4.96500E+01 3.96080E+01 0.00000E+00
 -1      2745 5.34000E+01 4.09070E+01 0.00000E+00
 -1      2746 5.49000E+01 4.09070E+01 0.00000E+00
 -1      2747 5.26500E+01 3.96080E+01 0.00000E+00
 -1      2748 5.64000E+01 4.09070E+01 0.00000E+00
 -1      2749 5.79000E+01 4.09070E+01 0.00000E+00
 -1      2750 5.56500E+01 3.96080E+01 0.00000E+00
 -1      2751 5.94000E+01 4.09070E+01 0.00000E+00
 -1      2752 6.09000E+01 4.09070E+01 0.00000E+00
 -1      2753 5.86500E+01 3.96080E+01 0.00000E+00
 -1      2754 6.24000E+01 4.09070E+01 0.00000E+00
 -1      2755 6.39000E+01 4.09070E+01 0.00000E+00
 -1      2756 6.16500E+01 3.96080E+01 0.00000E+00
 -1      2757 6.54000E+01 4.09070E+01 0.00000E+00
 -1      2758 6.69000E+01 4.09070E+01 0.00000E+00
 -1      2759 6.46500E+01 3.96080E+01 0.00000E+00
 -1      2760 7.21763E+01 4.08246E+01 0.00000E+00
 -1      2761 7.36763E+01 4.08246E+01 0.00000E+00
 -1      2762 7.90837E+01 4.08520E+01 0.00000E+00
 -1      2763 8.12370E+01 4.09650E+01 0.00000E+00
 -1      2764 8.27370E+01 4.09650E+01 0.00000E+00
 -1      2765 8.42370E+01 4.09650E+01 0.00000E+00
 -1      2766 8.64000E+01 4.09070E+01 0.00000E+00
 -1      2767 8.79000E+01 4.09070E+01 0.00000E+00
 -1      2768 8.94000E+01 4.09070E+01 0.00000E+00
 -1      2769 9.09000E+01 4.09070E+01 0.00000E+00
 -1      2770 8.86500E+01 3.96080E+01 0.00000E+00
 -1      2771 9.24000E+01 4.09070E+01 0.00000E+00
 -1      2772 9.39000E+01 4.09070E+01 0.00000E+00
 -1      2773 9.16500E+01 3.96080E+01 0.00000E+00
 -1      2774 9.54000E+01 4.09070E+01 0.00000E+00
 -1      2775 9.69000E+01 4.09070E+01 0.00000E+00
 -1      2776 9.46500E+01 3.96080E+01 0.00000E+00
 -1      2777 9.84000E+01 4.09070E+01 0.00000E+00
 -1      2778 9.99000E+01 4.09070E+01 0.00000E+00
 -1      2779 9.76500E+01 3.96080E+01 0.00000E+00
 -1      2780 1.01400E+02 4.09070E+01 0.00000E+00
 -1      2781 1.02900E+02 4.09070E+01 0.00000E+00
 -1      2782 1.00650E+02 3.96080E+01 0.00000E+00
 -1      2783 1.04400E+02 4.09070E+01 0.00000E+00
 -1      2784 1.05900E+02 4.09070E+01 0.00000E+00
 -1      2785 1.03650E+02 3.96080E+01 0.00000E+00
 -1      2786 1.07400E+02 4.09070E+01 0.00000E+00
 -1      2787 1.08900E+02 4.09070E+01 0.00000E+00
 -1      2788 1.06650E+02 3.96080E+01 0.00000E+00
 -1      2789 1.10400E+02 4.09070E+01 0.00000E+00
 -1      2790 1.11900E+02 4.09070E+01 0.00000E+00
 -1      2791 1.09650E+02 3.96080E+01 0.00000E+00
 -1      2792 1.13400E+02 4.09070E+01 0.00000E+00
 -1      2793 1.14900E+02 4.09070E+01 0.00000E+00
 -1      2794 1.12650E+02 3.96080E+01 0.00000E+00
 -1      2795 1.16400E+02 4.09070E+01 0.00000E+00
 -1      2796 1.17900E+02 4.09070E+01 0.00000E+00
 -1      2797 1.15650E+02 3.96080E+01 0.00000E+00
 -1      2798 1.19400E+02 4.09070E+01 0.00000E+00
 -1      2799 1.20900E+02 4.09070E+01 0.00000E+00
 -1      2800 1.18650E+02 3.96080E+01 0.00000E+00
 -1      2801 1.22400E+02 4.09070E+01 0.00000E+00
 -1      2802 1.23900E+02 4.09070E+01 0.00000E+00
 -1      2803 1.21650E+02 3.96080E+01 0.00000E+00
 -1      2804 1.25400E+02 4.09070E+01 0.00000E+00
 -1      2805 1.26900E+02 4.09070E+01 0.00000E+00
 -1      2806 1.24650E+02 3.96080E+01 0.00000E+00
 -1      2807 1.28400E+02 4.09070E+01 0.00000E+00
 -1      2808 1.29900E+02 4.09070E+01 0.00000E+00
 -1      2809 1.27650E+02 3.96080E+01 0.00000E+00
 -1      2810 1.31400E+02 4.09070E+01 0.00000E+00
 -1      2811 1.32900E+02 4.09070E+01 0.00000E+00
 -1      2812 1.30650E+02 3.96080E+01 0.00000E+00
 -1      2813 1.34400E+02 4.09070E+01 0.00000E+00
 -1      2814 1.35900E+02 4.09070E+01 0.00000E+00
 -1      2815 1.33650E+02 3.96080E+01 0.00000E+00
 -1      2816 1.37400E+02 4.09070E+01 0.00000E+00
 -1      2817 1.38900E+02 4.09070E+01 0.00000E+00
 -1      2818 1.36650E+02 3.96080E+01 0.00000E+00
 -1      2819 8.64196E+01 2.25086E+01 0.00000E+00
 -1      2820 8.69321E+01 2.33764E+01 0.00000E+00
 -1      2821 8.68109E+01 2.14276E+01 0.00000E+00
 -1      2822 2.12850E+01 7.90325E+00 0.00000E+00
 -1      2823 1.97850E+01 7.90325E+00 0.00000E+00
 -1      2824 3.02850E+01 7.90325E+00 0.00000E+00
 -1      2825 2.87850E+01 7.90325E+00 0.00000E+00
 -1      2826 3.32850E+01 7.90325E+00 0.00000E+00
 -1      2827 3.17850E+01 7.90325E+00 0.00000E+00
 -1      2828 3.10350E+01 9.20225E+00 0.00000E+00
 -1      2829 3.62850E+01 7.90325E+00 0.00000E+00
 -1      2830 3.47850E+01 7.90325E+00 0.00000E+00
 -1      2831 3.40350E+01 9.20225E+00 0.00000E+00
 -1      2832 3.92850E+01 7.90325E+00 0.00000E+00
 -1      2833 3.77850E+01 7.90325E+00 0.00000E+00
 -1      2834 3.70350E+01 9.20225E+00 0.00000E+00
 -1      2835 4.22850E+01 7.90325E+00 0.00000E+00
 -1      2836 4.07850E+01 7.90325E+00 0.00000E+00
 -1      2837 4.00350E+01 9.20225E+00 0.00000E+00
 -1      2838 4.52850E+01 7.90325E+00 0.00000E+00
 -1      2839 4.37850E+01 7.90325E+00 0.00000E+00
 -1      2840 4.30350E+01 9.20225E+00 0.00000E+00
 -1      2841 4.82850E+01 7.90325E+00 0.00000E+00
 -1      2842 4.67850E+01 7.90325E+00 0.00000E+00
 -1      2843 4.60350E+01 9.20225E+00 0.00000E+00
 -1      2844 5.12850E+01 7.90325E+00 0.00000E+00
 -1      2845 4.97850E+01 7.90325E+00 0.00000E+00
 -1      2846 4.90350E+01 9.20225E+00 0.00000E+00
 -1      2847 5.42850E+01 7.90325E+00 0.00000E+00
 -1      2848 5.27850E+01 7.90325E+00 0.00000E+00
 -1      2849 5.20350E+01 9.20225E+00 0.00000E+00
 -1      2850 5.72850E+01 7.90325E+00 0.00000E+00
 -1      2851 5.57850E+01 7.90325E+00 0.00000E+00
 -1      2852 5.50350E+01 9.20225E+00 0.00000E+00
 -1      2853 6.02850E+01 7.90325E+00 0.00000E+00
 -1      2854 5.87850E+01 7.90325E+00 0.00000E+00
 -1      2855 5.80350E+01 9.20225E+00 0.00000E+00
 -1      2856 6.32850E+01 7.90325E+00 0.00000E+00
 -1      2857 6.17850E+01 7.90325E+00 0.00000E+00
 -1      2858 6.10350E+01 9.20225E+00 0.00000E+00
 -1      2859 6.62850E+01 7.90325E+00 0.00000E+00
 -1      2860 6.47850E+01 7.90325E+00 0.00000E+00
 -1      2861 6.40350E+01 9.20225E+00 0.00000E+00
 -1      2862 6.92850E+01 7.90325E+00 0.00000E+00
 -1      2863 6.77850E+01 7.90325E+00 0.00000E+00
 -1      2864 6.70350E+01 9.20225E+00 0.00000E+00
 -1      2865 7.22850E+01 7.90325E+00 0.00000E+00
 -1      2866 7.07850E+01 7.90325E+00 0.00000E+00
 -1      2867 7.00350E+01 9.20225E+00 0.00000E+00
 -1      2868 7.52850E+01 7.90325E+00 0.00000E+00
 -1      2869 7.37850E+01 7.90325E+00 0.00000E+00
 -1      2870 7.30350E+01 9.20225E+00 0.00000E+00
 -1      2871 7.82850E+01 7.90325E+00 0.00000E+00
 -1      2872 7.67850E+01 7.90325E+00 0.00000E+00
 -1      2873 7.60350E+01 9.20225E+00 0.00000E+00
 -1      2874 8.12850E+01 7.90325E+00 0.00000E+00
 -1      2875 7.97850E+01 7.90325E+00 0.00000E+00
 -1      2876 7.90350E+01 9.20225E+00 0.00000E+00
 -1      2877 8.42850E+01 7.90325E+00 0.00000E+00
 -1      2878 8.27850E+01 7.90325E+00 0.00000E+00
 -1      2879 8.20350E+01 9.20225E+00 0.00000E+00
 -1      2880 8.72850E+01 7.90325E+00 0.00000E+00
 -1      2881 8.57850E+01 7.90325E+00 0.00000E+00
 -1      2882 8.50350E+01 9.20225E+00 0.00000E+00
 -1      2883 9.02850E+01 7.90325E+00 0.00000E+00
 -1      2884 8.87850E+01 7.90325E+00 0.00000E+00
 -1      2885 8.80350E+01 9.20225E+00 0.00000E+00
 -1      2886 9.32850E+01 7.90325E+00 0.00000E+00
 -1      2887 9.17850E+01 7.90325E+00 0.00000E+00
 -1      2888 9.10350E+01 9.20225E+00 0.00000E+00
 -1      2889 9.62850E+01 7.90325E+00 0.00000E+00
 -1      2890 9.47850E+01 7.90325E+00 0.00000E+00
 -1      2891 9.40350E+01 9.20225E+00 0.00000E+00
 -1      2892 9.92850E+01 7.90325E+00 0.00000E+00
 -1      2893 9.77850E+01 7.90325E+00 0.00000E+00
 -1      2894 9.70350E+01 9.20225E+00 0.00000E+00
 -1      2895 1.02285E+02 7.90325E+00 0.00000E+00
 -1      2896 1.00785E+02 7.90325E+00 0.00000E+00
 -1      2897 1.00035E+02 9.20225E+00 0.00000E+00
 -1      2898 1.05285E+02 7.90325E+00 0.00000E+00
 -1      2899 1.03785E+02 7.90325E+00 0.00000E+00
 -1      2900 1.03035E+02 9.20225E+00 0.00000E+00
 -1      2901 1.08285E+02 7.90325E+00 0.00000E+00
 -1      2902 1.06785E+02 7.90325E+00 0.00000E+00
 -1      2903 1.06035E+02 9.20225E+00 0.00000E+00
 -1      2904 1.11285E+02 7.90325E+00 0.00000E+00
 -1      2905 1.09785E+02 7.90325E+00 0.00000E+00
 -1      2906 1.09035E+02 9.20225E+00 0.00000E+00
 -1      2907 1.14285E+02 7.90325E+00 0.00000E+00
 -1      2908 1.12785E+02 7.90325E+00 0.00000E+00
 -1      2909 1.12035E+02 9.20225E+00 0.00000E+00
 -1      2910 1.17285E+02 7.90325E+00 0.00000E+00
 -1      2911 1.15785E+02 7.90325E+00 0.00000E+00
 -1      2912 1.15035E+02 9.20225E+00 0.00000E+00
 -1      2913 1.20285E+02 7.90325E+00 0.00000E+00
 -1      2914 1.18785E+02 7.90325E+00 0.00000E+00
 -1      2915 1.18035E+02 9.20225E+00 0.00000E+00
 -1      2916 1.23285E+02 7.90325E+00 0.00000E+00
 -1      2917 1.21785E+02 7.90325E+00 0.00000E+00
 -1      2918 1.21035E+02 9.20225E+00 0.00000E+00
 -1      2919 1.26285E+02 7.90325E+00 0.00000E+00
 -1      2920 1.24785E+02 7.90325E+00 0.00000E+00
 -1      2921 1.24035E+02 9.20225E+00 0.00000E+00
 -1      2922 1.29285E+02 7.90325E+00 0.00000E+00
 -1      2923 1.27785E+02 7.90325E+00 0.00000E+00
 -1      2924 1.27035E+02 9.20225E+00 0.00000E+00
 -1      2925 1.32285E+02 7.90325E+00 0.00000E+00
 -1      2926 1.30785E+02 7.90325E+00 0.00000E+00
 -1      2927 1.30035E+02 9.20225E+00 0.00000E+00
 -1      2928 1.35285E+02 7.90325E+00 0.00000E+00
 -1      2929 1.33785E+02 7.90325E+00 0.00000E+00
 -1      2930 1.33035E+02 9.20225E+00 0.00000E+00
 -1      2931 1.38285E+02 7.90325E+00 0.00000E+00
 -1      2932 1.36785E+02 7.90325E+00 0.00000E+00
 -1      2933 1.36035E+02 9.20225E+00 0.00000E+00
 -1      2934 1.40953E+02 8.18394E+00 0.00000E+00
 -1      2935 1.39453E+02 8.18394E+00 0.00000E+00
 -1      2936 1.38703E+02 9.48294E+00 0.00000E+00
 -1      2937 1.41038E+02 1.00443E+01 0.00000E+00
 -1      2938 8.32549E+01 1.85957E+01 0.00000E+00
 -1      2939 8.41763E+01 1.94446E+01 0.00000E+00
 -1      2940 1.40907E+02 2.42875E+01 0.00000E+00
 -1      2941 1.40907E+02 2.28125E+01 0.00000E+00
 -1      2942 1.39914E+02 4.09362E+01 0.00000E+00
 -1      2943 1.40928E+02 4.09655E+01 0.00000E+00
 -1      2944 1.39164E+02 3.96372E+01 0.00000E+00
 -1      2945 1.40907E+02 1.83875E+01 0.00000E+00
 -1      2946 1.40907E+02 1.69125E+01 0.00000E+00
 -1      2947 1.40907E+02 2.72375E+01 0.00000E+00
 -1      2948 1.40907E+02 2.57625E+01 0.00000E+00
 -1      2949 1.39608E+02 2.50250E+01 0.00000E+00
 -1      2950 1.40907E+02 2.13375E+01 0.00000E+00
 -1      2951 1.40907E+02 1.98625E+01 0.00000E+00
 -1      2952 1.39608E+02 1.91250E+01 0.00000E+00
 -1      2953 1.39608E+02 2.20750E+01 0.00000E+00
 -1      2954 1.40907E+02 3.01375E+01 0.00000E+00
 -1      2955 1.40907E+02 2.86875E+01 0.00000E+00
 -1      2956 1.39608E+02 2.79500E+01 0.00000E+00
 -1      2957 1.40907E+02 3.30875E+01 0.00000E+00
 -1      2958 1.40907E+02 3.16125E+01 0.00000E+00
 -1      2959 1.39608E+02 3.08750E+01 0.00000E+00
 -1      2960 1.40907E+02 3.60375E+01 0.00000E+00
 -1      2961 1.40907E+02 3.45625E+01 0.00000E+00
 -1      2962 1.39608E+02 3.38250E+01 0.00000E+00
 -1      2963 1.82850E+01 7.90325E+00 0.00000E+00
 -1      2964 1.67850E+01 7.90325E+00 0.00000E+00
 -1      2965 1.60350E+01 9.20225E+00 0.00000E+00
 -1      2966 1.90350E+01 9.20225E+00 0.00000E+00
 -1      2967 6.50804E+01 2.19246E+01 0.00000E+00
 -1      2968 6.56120E+01 2.10785E+01 0.00000E+00
 -1      2969 8.69877E+01 3.21424E+01 0.00000E+00
 -1      2970 8.64511E+01 3.34136E+01 0.00000E+00
 -1      2971 8.74678E+01 3.01209E+01 0.00000E+00
 -1      2972 8.73089E+01 3.09132E+01 0.00000E+00
 -1      2973 8.78632E+01 2.75803E+01 0.00000E+00
 -1      2974 8.77160E+01 2.89639E+01 0.00000E+00
 -1      2975 7.33476E+01 1.59483E+01 0.00000E+00
 -1      2976 7.45774E+01 1.59562E+01 0.00000E+00
 -1      2977 8.77437E+01 2.48257E+01 0.00000E+00
 -1      2978 8.79736E+01 2.59914E+01 0.00000E+00
 -1      2979 2.72850E+01 7.90325E+00 0.00000E+00
 -1      2980 2.57850E+01 7.90325E+00 0.00000E+00
 -1      2981 2.80350E+01 9.20225E+00 0.00000E+00
 -1      2982 2.42850E+01 7.90325E+00 0.00000E+00
 -1      2983 2.27850E+01 7.90325E+00 0.00000E+00
 -1      2984 2.50350E+01 9.20225E+00 0.00000E+00
 -1      2985 1.17589E+01 4.09389E+01 0.00000E+00
 -1      2986 1.32589E+01 4.09389E+01 0.00000E+00
 -1      2987 1.40089E+01 3.96399E+01 0.00000E+00
 -1      2988 1.17266E+01 3.97038E+01 0.00000E+00
 -1      2989 8.08506E+01 1.72980E+01 0.00000E+00
 -1      2990 8.19654E+01 1.78249E+01 0.00000E+00
 -1      2991 9.09300E+00 1.68813E+01 0.00000E+00
 -1      2992 9.09300E+00 1.83563E+01 0.00000E+00
 -1      2993 1.03920E+01 1.90812E+01 0.00000E+00
 -1      2994 1.03920E+01 1.61437E+01 0.00000E+00
 -1      2995 9.09300E+00 3.15875E+01 0.00000E+00
 -1      2996 9.09300E+00 3.30625E+01 0.00000E+00
 -1      2997 6.44078E+01 3.20826E+01 0.00000E+00
 -1      2998 6.40626E+01 3.09333E+01 0.00000E+00
 -1      2999 7.05437E+01 1.72157E+01 0.00000E+00
 -1      3000 7.17178E+01 1.65536E+01 0.00000E+00
 -1      3001 6.86146E+01 1.83285E+01 0.00000E+00
 -1      3002 6.95023E+01 1.78113E+01 0.00000E+00
 -1      3003 6.40095E+01 2.39938E+01 0.00000E+00
 -1      3004 6.45130E+01 2.29562E+01 0.00000E+00
 -1      3005 7.04600E+01 3.90233E+01 0.00000E+00
 -1      3006 6.96174E+01 3.84342E+01 0.00000E+00
 -1      3007 6.51460E+01 3.40148E+01 0.00000E+00
 -1      3008 6.47364E+01 3.32494E+01 0.00000E+00
 -1      3009 1.41192E+02 3.96958E+01 0.00000E+00
 -1      3010 8.44899E+01 3.65364E+01 0.00000E+00
 -1      3011 8.38661E+01 3.74480E+01 0.00000E+00
 -1      3012 8.01436E+01 4.04682E+01 0.00000E+00
 -1      3013 8.58498E+01 3.47177E+01 0.00000E+00
 -1      3014 8.51698E+01 3.56271E+01 0.00000E+00
 -1      3015 8.57040E+01 3.66617E+01 0.00000E+00
 -1      3016 6.65089E+01 2.00163E+01 0.00000E+00
 -1      3017 6.74727E+01 1.91022E+01 0.00000E+00
 -1      3018 7.56497E+01 1.59444E+01 0.00000E+00
 -1      3019 7.67219E+01 1.59326E+01 0.00000E+00
 -1      3020 7.50413E+01 1.49154E+01 0.00000E+00
 -1      3021 9.09300E+00 3.45313E+01 0.00000E+00
 -1      3022 9.09300E+00 3.60000E+01 0.00000E+00
 -1      3023 1.03920E+01 3.37938E+01 0.00000E+00
 -1      3024 1.03920E+01 2.49750E+01 0.00000E+00
 -1      3025 9.09300E+00 2.57000E+01 0.00000E+00
 -1      3026 9.09300E+00 2.71750E+01 0.00000E+00
 -1      3027 9.66450E+00 9.72612E+00 0.00000E+00
 -1      3028 6.54461E+01 1.99385E+01 0.00000E+00
 -1      3029 7.56578E+01 4.17107E+01 0.00000E+00
 -1      3030 7.53458E+01 4.03396E+01 0.00000E+00
 -1      3031 8.39240E+01 3.86476E+01 0.00000E+00
 -1      3032 8.30639E+01 1.75570E+01 0.00000E+00
 -1      3033 8.03154E+01 1.64233E+01 0.00000E+00
 -1      3034 8.12392E+01 1.59114E+01 0.00000E+00
 -1      3035 7.97802E+01 1.55486E+01 0.00000E+00
 -1      3036 6.78607E+01 3.95026E+01 0.00000E+00
 -1      3037 6.86107E+01 4.08016E+01 0.00000E+00
 -1      3038 7.01107E+01 4.08016E+01 0.00000E+00
 -1      3039 8.49870E+01 3.96660E+01 0.00000E+00
 -1      3040 1.39608E+02 1.61875E+01 0.00000E+00
 -1      3041 1.40907E+02 1.54500E+01 0.00000E+00
 -1      3042 1.40907E+02 1.39875E+01 0.00000E+00
 -1      3043 6.51924E+01 3.47961E+01 0.00000E+00
 -1      3044 2.20350E+01 9.20225E+00 0.00000E+00
 -1      3045 1.40973E+02 1.27472E+01 0.00000E+00
 -1      3046 1.40973E+02 1.12847E+01 0.00000E+00
 -1      3047 1.39805E+02 1.10040E+01 0.00000E+00
 -1      3048 1.39674E+02 1.34847E+01 0.00000E+00
 -1      3049 8.84774E+01 2.95286E+01 0.00000E+00
 -1      3050 6.34613E+01 2.45783E+01 0.00000E+00
 -1      3051 6.28662E+01 2.36485E+01 0.00000E+00
 -1      3052 6.29131E+01 2.51628E+01 0.00000E+00
 -1      3053 6.74849E+01 1.81026E+01 0.00000E+00
 -1      3054 1.41192E+02 3.82207E+01 0.00000E+00
 -1      3055 6.96681E+01 1.67333E+01 0.00000E+00
 -1      3056 6.71879E+01 3.64173E+01 0.00000E+00
 -1      3057 6.62817E+01 3.63619E+01 0.00000E+00
 -1      3058 6.71960E+01 3.72632E+01 0.00000E+00
 -1      3059 8.79079E+01 3.19149E+01 0.00000E+00
 -1      3060 6.88367E+01 3.83579E+01 0.00000E+00
 -1      3061 8.81350E+01 2.37447E+01 0.00000E+00
 -1      3062 7.23393E+01 1.55324E+01 0.00000E+00
 -1      3063 7.29608E+01 1.45113E+01 0.00000E+00
 -1      3064 7.13310E+01 1.51165E+01 0.00000E+00
 -1      3065 8.88362E+01 2.67828E+01 0.00000E+00
 -1      3066 8.69853E+01 3.44482E+01 0.00000E+00
 -1      3067 6.34993E+01 3.02539E+01 0.00000E+00
 -1      3068 6.29361E+01 2.95745E+01 0.00000E+00
 -1      3069 6.28908E+01 3.10632E+01 0.00000E+00
 -1      3070 1.09635E+01 1.04636E+01 0.00000E+00
 -1      3071 7.74849E+01 1.54820E+01 0.00000E+00
 -1      3072 9.09300E+00 2.86437E+01 0.00000E+00
 -1      3073 9.09300E+00 3.01187E+01 0.00000E+00
 -1      3074 1.03920E+01 3.08563E+01 0.00000E+00
 -1      3075 1.03920E+01 2.79188E+01 0.00000E+00
 -1      3076 6.39818E+01 2.20324E+01 0.00000E+00
 -1      3077 6.37826E+01 3.29094E+01 0.00000E+00
 -1      3078 6.35264E+01 2.74289E+01 0.00000E+00
 -1      3079 6.28703E+01 2.67051E+01 0.00000E+00
 -1      3080 6.28885E+01 2.80415E+01 0.00000E+00
 -1      3081 8.53259E+01 1.94438E+01 0.00000E+00
 -1      3082 1.39529E+02 3.85602E+01 0.00000E+00
 -1      3083 1.40542E+02 3.71145E+01 0.00000E+00
 -1      3084 1.39243E+02 3.63770E+01 0.00000E+00
 -1      3085 1.38514E+02 3.85310E+01 0.00000E+00
 -1      3086 7.41841E+01 4.03293E+01 0.00000E+00
 -1      3087 6.42144E+01 1.98083E+01 0.00000E+00
 -1      3088 6.51113E+01 1.87460E+01 0.00000E+00
 -1      3089 1.16910E+01 1.24625E+01 0.00000E+00
 -1      3090 1.16910E+01 1.39375E+01 0.00000E+00
 -1      3091 8.60870E+01 3.85895E+01 0.00000E+00
 -1      3092 6.27998E+01 2.20542E+01 0.00000E+00
 -1      3093 6.33672E+01 2.10226E+01 0.00000E+00
 -1      3094 7.44930E+01 1.38124E+01 0.00000E+00
 -1      3095 7.55652E+01 1.38006E+01 0.00000E+00
 -1      3096 6.71261E+01 3.84633E+01 0.00000E+00
 -1      3097 1.89000E+01 3.83090E+01 0.00000E+00
 -1      3098 2.04000E+01 3.83090E+01 0.00000E+00
 -1      3099 2.19000E+01 3.83090E+01 0.00000E+00
 -1      3100 2.34000E+01 3.83090E+01 0.00000E+00
 -1      3101 2.11500E+01 3.70100E+01 0.00000E+00
 -1      3102 2.49000E+01 3.83090E+01 0.00000E+00
 -1      3103 2.64000E+01 3.83090E+01 0.00000E+00
 -1      3104 2.41500E+01 3.70100E+01 0.00000E+00
 -1      3105 2.79000E+01 3.83090E+01 0.00000E+00
 -1      3106 2.94000E+01 3.83090E+01 0.00000E+00
 -1      3107 2.71500E+01 3.70100E+01 0.00000E+00
 -1      3108 3.09000E+01 3.83090E+01 0.00000E+00
 -1      3109 3.24000E+01 3.83090E+01 0.00000E+00
 -1      3110 3.01500E+01 3.70100E+01 0.00000E+00
 -1      3111 3.39000E+01 3.83090E+01 0.00000E+00
 -1      3112 3.54000E+01 3.83090E+01 0.00000E+00
 -1      3113 3.31500E+01 3.70100E+01 0.00000E+00
 -1      3114 3.69000E+01 3.83090E+01 0.00000E+00
 -1      3115 3.84000E+01 3.83090E+01 0.00000E+00
 -1      3116 3.61500E+01 3.70100E+01 0.00000E+00
 -1      3117 3.99000E+01 3.83090E+01 0.00000E+00
 -1      3118 4.14000E+01 3.83090E+01 0.00000E+00
 -1      3119 3.91500E+01 3.70100E+01 0.00000E+00
 -1      3120 4.29000E+01 3.83090E+01 0.00000E+00
 -1      3121 4.44000E+01 3.83090E+01 0.00000E+00
 -1      3122 4.21500E+01 3.70100E+01 0.00000E+00
 -1      3123 4.59000E+01 3.83090E+01 0.00000E+00
 -1      3124 4.74000E+01 3.83090E+01 0.00000E+00
 -1      3125 4.51500E+01 3.70100E+01 0.00000E+00
 -1      3126 4.89000E+01 3.83090E+01 0.00000E+00
 -1      3127 5.04000E+01 3.83090E+01 0.00000E+00
 -1      3128 4.81500E+01 3.70100E+01 0.00000E+00
 -1      3129 5.19000E+01 3.83090E+01 0.00000E+00
 -1      3130 5.34000E+01 3.83090E+01 0.00000E+00
 -1      3131 5.11500E+01 3.70100E+01 0.00000E+00
 -1      3132 5.49000E+01 3.83090E+01 0.00000E+00
 -1      3133 5.64000E+01 3.83090E+01 0.00000E+00
 -1      3134 5.41500E+01 3.70100E+01 0.00000E+00
 -1      3135 5.79000E+01 3.83090E+01 0.00000E+00
 -1      3136 5.94000E+01 3.83090E+01 0.00000E+00
 -1      3137 5.71500E+01 3.70100E+01 0.00000E+00
 -1      3138 6.09000E+01 3.83090E+01 0.00000E+00
 -1      3139 6.24000E+01 3.83090E+01 0.00000E+00
 -1      3140 6.01500E+01 3.70100E+01 0.00000E+00
 -1      3141 7.16370E+01 3.94202E+01 0.00000E+00
 -1      3142 8.67670E+01 3.76802E+01 0.00000E+00
 -1      3143 7.41578E+01 4.17107E+01 0.00000E+00
 -1      3144 8.96039E+01 2.91652E+01 0.00000E+00
 -1      3145 8.93556E+01 3.03222E+01 0.00000E+00
 -1      3146 9.09000E+01 3.83090E+01 0.00000E+00
 -1      3147 9.24000E+01 3.83090E+01 0.00000E+00
 -1      3148 9.39000E+01 3.83090E+01 0.00000E+00
 -1      3149 9.54000E+01 3.83090E+01 0.00000E+00
 -1      3150 9.31500E+01 3.70100E+01 0.00000E+00
 -1      3151 9.69000E+01 3.83090E+01 0.00000E+00
 -1      3152 9.84000E+01 3.83090E+01 0.00000E+00
 -1      3153 9.61500E+01 3.70100E+01 0.00000E+00
 -1      3154 9.99000E+01 3.83090E+01 0.00000E+00
 -1      3155 1.01400E+02 3.83090E+01 0.00000E+00
 -1      3156 9.91500E+01 3.70100E+01 0.00000E+00
 -1      3157 1.02900E+02 3.83090E+01 0.00000E+00
 -1      3158 1.04400E+02 3.83090E+01 0.00000E+00
 -1      3159 1.02150E+02 3.70100E+01 0.00000E+00
 -1      3160 1.05900E+02 3.83090E+01 0.00000E+00
 -1      3161 1.07400E+02 3.83090E+01 0.00000E+00
 -1      3162 1.05150E+02 3.70100E+01 0.00000E+00
 -1      3163 1.08900E+02 3.83090E+01 0.00000E+00
 -1      3164 1.10400E+02 3.83090E+01 0.00000E+00
 -1      3165 1.08150E+02 3.70100E+01 0.00000E+00
 -1      3166 1.11900E+02 3.83090E+01 0.00000E+00
 -1      3167 1.13400E+02 3.83090E+01 0.00000E+00
 -1      3168 1.11150E+02 3.70100E+01 0.00000E+00
 -1      3169 1.14900E+02 3.83090E+01 0.00000E+00
 -1      3170 1.16400E+02 3.83090E+01 0.00000E+00
 -1      3171 1.14150E+02 3.70100E+01 0.00000E+00
 -1      3172 1.17900E+02 3.83090E+01 0.00000E+00
 -1      3173 1.19400E+02 3.83090E+01 0.00000E+00
 -1      3174 1.17150E+02 3.70100E+01 0.00000E+00
 -1      3175 1.20900E+02 3.83090E+01 0.00000E+00
 -1      3176 1.22400E+02 3.83090E+01 0.00000E+00
 -1      3177 1.20150E+02 3.70100E+01 0.00000E+00
 -1      3178 1.23900E+02 3.83090E+01 0.00000E+00
 -1      3179 1.25400E+02 3.83090E+01 0.00000E+00
 -1      3180 1.23150E+02 3.70100E+01 0.00000E+00
 -1      3181 1.26900E+02 3.83090E+01 0.00000E+00
 -1      3182 1.28400E+02 3.83090E+01 0.00000E+00
 -1      3183 1.26150E+02 3.70100E+01 0.00000E+00
 -1      3184 1.29900E+02 3.83090E+01 0.00000E+00
 -1      3185 1.31400E+02 3.83090E+01 0.00000E+00
 -1      3186 1.29150E+02 3.70100E+01 0.00000E+00
 -1      3187 1.32900E+02 3.83090E+01 0.00000E+00
 -1      3188 1.34400E+02 3.83090E+01 0.00000E+00
 -1      3189 1.32150E+02 3.70100E+01 0.00000E+00
 -1      3190 1.35707E+02 3.84200E+01 0.00000E+00
 -1      3191 1.37207E+02 3.84200E+01 0.00000E+00
 -1      3192 1.37572E+02 3.73430E+01 0.00000E+00
 -1      3193 1.34957E+02 3.71210E+01 0.00000E+00
 -1      3194 8.75816E+01 2.03873E+01 0.00000E+00
 -1      3195 8.80941E+01 2.12551E+01 0.00000E+00
 -1      3196 2.27850E+01 1.05013E+01 0.00000E+00
 -1      3197 2.12850E+01 1.05013E+01 0.00000E+00
 -1      3198 3.17850E+01 1.05013E+01 0.00000E+00
 -1      3199 3.02850E+01 1.05013E+01 0.00000E+00
 -1      3200 4.07850E+01 1.05013E+01 0.00000E+00
 -1      3201 3.92850E+01 1.05013E+01 0.00000E+00
 -1      3202 4.37850E+01 1.05013E+01 0.00000E+00
 -1      3203 4.22850E+01 1.05013E+01 0.00000E+00
 -1      3204 4.15350E+01 1.18003E+01 0.00000E+00
 -1      3205 4.67850E+01 1.05013E+01 0.00000E+00
 -1      3206 4.52850E+01 1.05013E+01 0.00000E+00
 -1      3207 4.45350E+01 1.18003E+01 0.00000E+00
 -1      3208 4.97850E+01 1.05013E+01 0.00000E+00
 -1      3209 4.82850E+01 1.05013E+01 0.00000E+00
 -1      3210 4.75350E+01 1.18003E+01 0.00000E+00
 -1      3211 5.27850E+01 1.05013E+01 0.00000E+00
 -1      3212 5.12850E+01 1.05013E+01 0.00000E+00
 -1      3213 5.05350E+01 1.18003E+01 0.00000E+00
 -1      3214 5.57850E+01 1.05013E+01 0.00000E+00
 -1      3215 5.42850E+01 1.05013E+01 0.00000E+00
 -1      3216 5.35350E+01 1.18003E+01 0.00000E+00
 -1      3217 5.87850E+01 1.05013E+01 0.00000E+00
 -1      3218 5.72850E+01 1.05013E+01 0.00000E+00
 -1      3219 5.65350E+01 1.18003E+01 0.00000E+00
 -1      3220 6.17850E+01 1.05013E+01 0.00000E+00
 -1      3221 6.02850E+01 1.05013E+01 0.00000E+00
 -1      3222 5.95350E+01 1.18003E+01 0.00000E+00
 -1      3223 6.47850E+01 1.05013E+01 0.00000E+00
 -1      3224 6.32850E+01 1.05013E+01 0.00000E+00
 -1      3225 6.25350E+01 1.18003E+01 0.00000E+00
 -1      3226 6.77850E+01 1.05013E+01 0.00000E+00
 -1      3227 6.62850E+01 1.05013E+01 0.00000E+00
 -1      3228 6.55350E+01 1.18003E+01 0.00000E+00
 -1      3229 7.07850E+01 1.05013E+01 0.00000E+00
 -1      3230 6.92850E+01 1.05013E+01 0.00000E+00
 -1      3231 6.85350E+01 1.18003E+01 0.00000E+00
 -1      3232 7.47760E+01 1.09500E+01 0.00000E+00
 -1      3233 7.32760E+01 1.09500E+01 0.00000E+00
 -1      3234 7.62760E+01 1.09500E+01 0.00000E+00
 -1      3235 7.97850E+01 1.03112E+01 0.00000E+00
 -1      3236 7.82850E+01 1.03112E+01 0.00000E+00
 -1      3237 8.27850E+01 1.03112E+01 0.00000E+00
 -1      3238 8.12850E+01 1.03112E+01 0.00000E+00
 -1      3239 8.05350E+01 1.14201E+01 0.00000E+00
 -1      3240 8.57850E+01 1.03112E+01 0.00000E+00
 -1      3241 8.42850E+01 1.03112E+01 0.00000E+00
 -1      3242 8.35350E+01 1.14201E+01 0.00000E+00
 -1      3243 8.87850E+01 1.03112E+01 0.00000E+00
 -1      3244 8.72850E+01 1.03112E+01 0.00000E+00
 -1      3245 8.65350E+01 1.14201E+01 0.00000E+00
 -1      3246 9.17850E+01 1.03112E+01 0.00000E+00
 -1      3247 9.02850E+01 1.03112E+01 0.00000E+00
 -1      3248 8.95350E+01 1.14201E+01 0.00000E+00
 -1      3249 9.47850E+01 1.03112E+01 0.00000E+00
 -1      3250 9.32850E+01 1.03112E+01 0.00000E+00
 -1      3251 9.25350E+01 1.14201E+01 0.00000E+00
 -1      3252 9.77850E+01 1.03112E+01 0.00000E+00
 -1      3253 9.62850E+01 1.03112E+01 0.00000E+00
 -1      3254 9.55350E+01 1.14201E+01 0.00000E+00
 -1      3255 1.00785E+02 1.03112E+01 0.00000E+00
 -1      3256 9.92850E+01 1.03112E+01 0.00000E+00
 -1      3257 9.85350E+01 1.14201E+01 0.00000E+00
 -1      3258 1.03785E+02 1.03112E+01 0.00000E+00
 -1      3259 1.02285E+02 1.03112E+01 0.00000E+00
 -1      3260 1.01535E+02 1.14201E+01 0.00000E+00
 -1      3261 1.06785E+02 1.03112E+01 0.00000E+00
 -1      3262 1.05285E+02 1.03112E+01 0.00000E+00
 -1      3263 1.04535E+02 1.14201E+01 0.00000E+00
 -1      3264 1.09785E+02 1.03112E+01 0.00000E+00
 -1      3265 1.08285E+02 1.03112E+01 0.00000E+00
 -1      3266 1.07535E+02 1.14201E+01 0.00000E+00
 -1      3267 1.12785E+02 1.03112E+01 0.00000E+00
 -1      3268 1.11285E+02 1.03112E+01 0.00000E+00
 -1      3269 1.10535E+02 1.14201E+01 0.00000E+00
 -1      3270 1.15785E+02 1.03112E+01 0.00000E+00
 -1      3271 1.14285E+02 1.03112E+01 0.00000E+00
 -1      3272 1.13535E+02 1.14201E+01 0.00000E+00
 -1      3273 1.18785E+02 1.03112E+01 0.00000E+00
 -1      3274 1.17285E+02 1.03112E+01 0.00000E+00
 -1      3275 1.16535E+02 1.14201E+01 0.00000E+00
 -1      3276 1.21785E+02 1.03112E+01 0.00000E+00
 -1      3277 1.20285E+02 1.03112E+01 0.00000E+00
 -1      3278 1.19535E+02 1.14201E+01 0.00000E+00
 -1      3279 1.24785E+02 1.03112E+01 0.00000E+00
 -1      3280 1.23285E+02 1.03112E+01 0.00000E+00
 -1      3281 1.22535E+02 1.14201E+01 0.00000E+00
 -1      3282 1.27785E+02 1.03112E+01 0.00000E+00
 -1      3283 1.26285E+02 1.03112E+01 0.00000E+00
 -1      3284 1.25535E+02 1.14201E+01 0.00000E+00
 -1      3285 1.30785E+02 1.03112E+01 0.00000E+00
 -1      3286 1.29285E+02 1.03112E+01 0.00000E+00
 -1      3287 1.28535E+02 1.14201E+01 0.00000E+00
 -1      3288 1.33785E+02 1.03112E+01 0.00000E+00
 -1      3289 1.32285E+02 1.03112E+01 0.00000E+00
 -1      3290 1.31535E+02 1.14201E+01 0.00000E+00
 -1      3291 1.36785E+02 1.03112E+01 0.00000E+00
 -1      3292 1.35285E+02 1.03112E+01 0.00000E+00
 -1      3293 1.34535E+02 1.14201E+01 0.00000E+00
 -1      3294 1.38879E+02 1.07979E+01 0.00000E+00
 -1      3295 1.37711E+02 1.05172E+01 0.00000E+00
 -1      3296 1.36961E+02 1.16261E+01 0.00000E+00
 -1      3297 1.38813E+02 1.20383E+01 0.00000E+00
 -1      3298 1.38309E+02 2.86750E+01 0.00000E+00
 -1      3299 1.38309E+02 2.72250E+01 0.00000E+00
 -1      3300 8.29452E+01 1.62916E+01 0.00000E+00
 -1      3301 8.42347E+01 1.70625E+01 0.00000E+00
 -1      3302 1.38309E+02 3.45625E+01 0.00000E+00
 -1      3303 1.38309E+02 3.30875E+01 0.00000E+00
 -1      3304 1.38309E+02 2.57500E+01 0.00000E+00
 -1      3305 1.38309E+02 2.42750E+01 0.00000E+00
 -1      3306 1.37010E+02 2.64750E+01 0.00000E+00
 -1      3307 2.87850E+01 1.05013E+01 0.00000E+00
 -1      3308 2.72850E+01 1.05013E+01 0.00000E+00
 -1      3309 2.95350E+01 1.18003E+01 0.00000E+00
 -1      3310 1.38309E+02 3.16187E+01 0.00000E+00
 -1      3311 1.38309E+02 3.01437E+01 0.00000E+00
 -1      3312 1.37010E+02 2.94188E+01 0.00000E+00
 -1      3313 1.37010E+02 3.23563E+01 0.00000E+00
 -1      3314 3.77850E+01 1.05013E+01 0.00000E+00
 -1      3315 3.62850E+01 1.05013E+01 0.00000E+00
 -1      3316 3.85350E+01 1.18003E+01 0.00000E+00
 -1      3317 3.47850E+01 1.05013E+01 0.00000E+00
 -1      3318 3.32850E+01 1.05013E+01 0.00000E+00
 -1      3319 3.25350E+01 1.18003E+01 0.00000E+00
 -1      3320 3.55350E+01 1.18003E+01 0.00000E+00
 -1      3321 8.80835E+01 3.79946E+01 0.00000E+00
 -1      3322 8.95835E+01 3.79946E+01 0.00000E+00
 -1      3323 9.03335E+01 3.66956E+01 0.00000E+00
 -1      3324 8.77005E+01 3.60668E+01 0.00000E+00
 -1      3325 8.90344E+01 3.15514E+01 0.00000E+00
 -1      3326 8.87131E+01 3.27806E+01 0.00000E+00
 -1      3327 9.01608E+01 3.11879E+01 0.00000E+00
 -1      3328 8.83018E+01 3.47626E+01 0.00000E+00
 -1      3329 6.51648E+01 3.60093E+01 0.00000E+00
 -1      3330 6.40837E+01 3.52894E+01 0.00000E+00
 -1      3331 2.57850E+01 1.05013E+01 0.00000E+00
 -1      3332 2.42850E+01 1.05013E+01 0.00000E+00
 -1      3333 2.65350E+01 1.18003E+01 0.00000E+00
 -1      3334 1.59000E+01 3.83090E+01 0.00000E+00
 -1      3335 1.74000E+01 3.83090E+01 0.00000E+00
 -1      3336 1.81500E+01 3.70100E+01 0.00000E+00
 -1      3337 9.14137E+00 3.71183E+01 0.00000E+00
 -1      3338 9.17362E+00 3.83534E+01 0.00000E+00
 -1      3339 1.05371E+01 3.86174E+01 0.00000E+00
 -1      3340 1.04404E+01 3.63808E+01 0.00000E+00
 -1      3341 1.26488E+01 1.02017E+01 0.00000E+00
 -1      3342 1.20772E+01 1.14631E+01 0.00000E+00
 -1      3343 1.33763E+01 1.22006E+01 0.00000E+00
 -1      3344 1.41488E+01 1.02017E+01 0.00000E+00
 -1      3345 8.99976E+01 2.60653E+01 0.00000E+00
 -1      3346 8.98872E+01 2.76541E+01 0.00000E+00
 -1      3347 8.56367E+01 1.81553E+01 0.00000E+00
 -1      3348 8.66092E+01 1.92713E+01 0.00000E+00
 -1      3349 8.78924E+01 1.90988E+01 0.00000E+00
 -1      3350 6.31215E+01 3.37253E+01 0.00000E+00
 -1      3351 6.27929E+01 3.25585E+01 0.00000E+00
 -1      3352 8.89058E+01 2.27044E+01 0.00000E+00
 -1      3353 8.97174E+01 2.41536E+01 0.00000E+00
 -1      3354 8.96765E+01 2.16640E+01 0.00000E+00
 -1      3355 6.62450E+01 1.75020E+01 0.00000E+00
 -1      3356 6.73869E+01 1.67284E+01 0.00000E+00
 -1      3357 6.86801E+01 1.62140E+01 0.00000E+00
 -1      3358 6.97214E+01 1.56184E+01 0.00000E+00
 -1      3359 7.71976E+01 1.42483E+01 0.00000E+00
 -1      3360 7.85691E+01 1.48267E+01 0.00000E+00
 -1      3361 1.16910E+01 2.12875E+01 0.00000E+00
 -1      3362 1.16910E+01 2.27625E+01 0.00000E+00
 -1      3363 6.62199E+01 3.84079E+01 0.00000E+00
 -1      3364 1.16910E+01 2.42375E+01 0.00000E+00
 -1      3365 1.16910E+01 2.57125E+01 0.00000E+00
 -1      3366 1.29900E+01 2.35000E+01 0.00000E+00
 -1      3367 1.29900E+01 1.46687E+01 0.00000E+00
 -1      3368 1.16910E+01 1.54063E+01 0.00000E+00
 -1      3369 1.16910E+01 1.68750E+01 0.00000E+00
 -1      3370 8.94282E+01 3.43992E+01 0.00000E+00
 -1      3371 6.22516E+01 2.26387E+01 0.00000E+00
 -1      3372 6.16371E+01 2.16289E+01 0.00000E+00
 -1      3373 6.17034E+01 2.32232E+01 0.00000E+00
 -1      3374 9.07654E+01 2.84477E+01 0.00000E+00
 -1      3375 1.56488E+01 1.02017E+01 0.00000E+00
 -1      3376 1.52625E+01 1.12011E+01 0.00000E+00
 -1      3377 1.71488E+01 1.02017E+01 0.00000E+00
 -1      3378 7.94929E+01 1.43148E+01 0.00000E+00
 -1      3379 7.66493E+01 1.31453E+01 0.00000E+00
 -1      3380 1.16299E+01 3.74672E+01 0.00000E+00
 -1      3381 1.16783E+01 3.85855E+01 0.00000E+00
 -1      3382 1.28194E+01 3.85536E+01 0.00000E+00
 -1      3383 6.36031E+01 3.80553E+01 0.00000E+00
 -1      3384 6.51031E+01 3.80553E+01 0.00000E+00
 -1      3385 1.38309E+02 1.69188E+01 0.00000E+00
 -1      3386 1.38309E+02 1.54563E+01 0.00000E+00
 -1      3387 6.74402E+01 1.56134E+01 0.00000E+00
 -1      3388 2.35350E+01 1.18003E+01 0.00000E+00
 -1      3389 7.25260E+01 1.22490E+01 0.00000E+00
 -1      3390 8.24100E+01 1.54170E+01 0.00000E+00
 -1      3391 1.38309E+02 1.98687E+01 0.00000E+00
 -1      3392 1.38309E+02 1.83937E+01 0.00000E+00
 -1      3393 1.37010E+02 1.76625E+01 0.00000E+00
 -1      3394 8.55179E+01 1.68900E+01 0.00000E+00
 -1      3395 1.38309E+02 2.28094E+01 0.00000E+00
 -1      3396 1.38309E+02 2.13344E+01 0.00000E+00
 -1      3397 1.37010E+02 2.06031E+01 0.00000E+00
 -1      3398 1.37010E+02 2.35344E+01 0.00000E+00
 -1      3399 6.22751E+01 2.57754E+01 0.00000E+00
 -1      3400 6.16800E+01 2.48456E+01 0.00000E+00
 -1      3401 6.16372E+01 2.63880E+01 0.00000E+00
 -1      3402 9.07684E+01 2.50250E+01 0.00000E+00
 -1      3403 9.18194E+01 2.58963E+01 0.00000E+00
 -1      3404 9.15392E+01 2.39846E+01 0.00000E+00
 -1      3405 1.99669E+01 1.03515E+01 0.00000E+00
 -1      3406 1.84669E+01 1.03515E+01 0.00000E+00
 -1      3407 1.80806E+01 1.13509E+01 0.00000E+00
 -1      3408 2.07169E+01 1.16505E+01 0.00000E+00
 -1      3409 7.03429E+01 1.45972E+01 0.00000E+00
 -1      3410 1.16910E+01 1.98188E+01 0.00000E+00
 -1      3411 1.29900E+01 2.05562E+01 0.00000E+00
 -1      3412 1.16910E+01 1.83500E+01 0.00000E+00
 -1      3413 6.22296E+01 3.18791E+01 0.00000E+00
 -1      3414 6.16664E+01 3.11997E+01 0.00000E+00
 -1      3415 6.15685E+01 3.26950E+01 0.00000E+00
 -1      3416 6.28531E+01 3.67563E+01 0.00000E+00
 -1      3417 1.16910E+01 3.30594E+01 0.00000E+00
 -1      3418 1.16910E+01 3.45281E+01 0.00000E+00
 -1      3419 1.39605E+01 3.85216E+01 0.00000E+00
 -1      3420 1.47105E+01 3.72226E+01 0.00000E+00
 -1      3421 6.22799E+01 2.88508E+01 0.00000E+00
 -1      3422 6.16238E+01 2.81271E+01 0.00000E+00
 -1      3423 6.16714E+01 2.96601E+01 0.00000E+00
 -1      3424 6.30324E+01 1.98301E+01 0.00000E+00
 -1      3425 6.50133E+01 1.73718E+01 0.00000E+00
 -1      3426 1.37758E+02 3.64912E+01 0.00000E+00
 -1      3427 1.38123E+02 3.54142E+01 0.00000E+00
 -1      3428 1.36824E+02 3.46768E+01 0.00000E+00
 -1      3429 1.36451E+02 3.63802E+01 0.00000E+00
 -1      3430 7.34847E+01 1.33965E+01 0.00000E+00
 -1      3431 1.16910E+01 3.01219E+01 0.00000E+00
 -1      3432 1.16910E+01 3.15906E+01 0.00000E+00
 -1      3433 1.29900E+01 3.23250E+01 0.00000E+00
 -1      3434 3.92850E+01 1.30992E+01 0.00000E+00
 -1      3435 3.77850E+01 1.30992E+01 0.00000E+00
 -1      3436 8.54987E+01 1.54690E+01 0.00000E+00
 -1      3437 8.69007E+01 1.65618E+01 0.00000E+00
 -1      3438 1.15815E+01 3.63489E+01 0.00000E+00
 -1      3439 1.28805E+01 3.56145E+01 0.00000E+00
 -1      3440 2.34000E+01 3.57110E+01 0.00000E+00
 -1      3441 2.49000E+01 3.57110E+01 0.00000E+00
 -1      3442 2.64000E+01 3.57110E+01 0.00000E+00
 -1      3443 2.79000E+01 3.57110E+01 0.00000E+00
 -1      3444 2.56500E+01 3.44120E+01 0.00000E+00
 -1      3445 2.94000E+01 3.57110E+01 0.00000E+00
 -1      3446 3.09000E+01 3.57110E+01 0.00000E+00
 -1      3447 2.86500E+01 3.44120E+01 0.00000E+00
 -1      3448 3.24000E+01 3.57110E+01 0.00000E+00
 -1      3449 3.39000E+01 3.57110E+01 0.00000E+00
 -1      3450 3.16500E+01 3.44120E+01 0.00000E+00
 -1      3451 3.54000E+01 3.57110E+01 0.00000E+00
 -1      3452 3.69000E+01 3.57110E+01 0.00000E+00
 -1      3453 3.46500E+01 3.44120E+01 0.00000E+00
 -1      3454 3.84000E+01 3.57110E+01 0.00000E+00
 -1      3455 3.99000E+01 3.57110E+01 0.00000E+00
 -1      3456 3.76500E+01 3.44120E+01 0.00000E+00
 -1      3457 4.14000E+01 3.57110E+01 0.00000E+00
 -1      3458 4.29000E+01 3.57110E+01 0.00000E+00
 -1      3459 4.06500E+01 3.44120E+01 0.00000E+00
 -1      3460 4.44000E+01 3.57110E+01 0.00000E+00
 -1      3461 4.59000E+01 3.57110E+01 0.00000E+00
 -1      3462 4.36500E+01 3.44120E+01 0.00000E+00
 -1      3463 4.74000E+01 3.57110E+01 0.00000E+00
 -1      3464 4.89000E+01 3.57110E+01 0.00000E+00
 -1      3465 4.66500E+01 3.44120E+01 0.00000E+00
 -1      3466 5.04000E+01 3.57110E+01 0.00000E+00
 -1      3467 5.19000E+01 3.57110E+01 0.00000E+00
 -1      3468 4.96500E+01 3.44120E+01 0.00000E+00
 -1      3469 5.34000E+01 3.57110E+01 0.00000E+00
 -1      3470 5.49000E+01 3.57110E+01 0.00000E+00
 -1      3471 5.26500E+01 3.44120E+01 0.00000E+00
 -1      3472 5.64000E+01 3.57110E+01 0.00000E+00
 -1      3473 5.79000E+01 3.57110E+01 0.00000E+00
 -1      3474 5.56500E+01 3.44120E+01 0.00000E+00
 -1      3475 6.03909E+01 3.51922E+01 0.00000E+00
 -1      3476 6.18909E+01 3.51922E+01 0.00000E+00
 -1      3477 6.28806E+01 3.55431E+01 0.00000E+00
 -1      3478 9.24000E+01 3.57110E+01 0.00000E+00
 -1      3479 9.39000E+01 3.57110E+01 0.00000E+00
 -1      3480 9.14754E+01 3.08749E+01 0.00000E+00
 -1      3481 9.11541E+01 3.21041E+01 0.00000E+00
 -1      3482 1.48763E+01 1.22006E+01 0.00000E+00
 -1      3483 1.44900E+01 1.32000E+01 0.00000E+00
 -1      3484 1.63762E+01 1.22006E+01 0.00000E+00
 -1      3485 6.63838E+01 1.48402E+01 0.00000E+00
 -1      3486 6.76770E+01 1.43259E+01 0.00000E+00
 -1      3487 9.54000E+01 3.57110E+01 0.00000E+00
 -1      3488 9.69000E+01 3.57110E+01 0.00000E+00
 -1      3489 9.46500E+01 3.44120E+01 0.00000E+00
 -1      3490 9.84000E+01 3.57110E+01 0.00000E+00
 -1      3491 9.99000E+01 3.57110E+01 0.00000E+00
 -1      3492 9.76500E+01 3.44120E+01 0.00000E+00
 -1      3493 1.01400E+02 3.57110E+01 0.00000E+00
 -1      3494 1.02900E+02 3.57110E+01 0.00000E+00
 -1      3495 1.00650E+02 3.44120E+01 0.00000E+00
 -1      3496 1.04400E+02 3.57110E+01 0.00000E+00
 -1      3497 1.05900E+02 3.57110E+01 0.00000E+00
 -1      3498 1.03650E+02 3.44120E+01 0.00000E+00
 -1      3499 1.07400E+02 3.57110E+01 0.00000E+00
 -1      3500 1.08900E+02 3.57110E+01 0.00000E+00
 -1      3501 1.06650E+02 3.44120E+01 0.00000E+00
 -1      3502 1.10400E+02 3.57110E+01 0.00000E+00
 -1      3503 1.11900E+02 3.57110E+01 0.00000E+00
 -1      3504 1.09650E+02 3.44120E+01 0.00000E+00
 -1      3505 1.13400E+02 3.57110E+01 0.00000E+00
 -1      3506 1.14900E+02 3.57110E+01 0.00000E+00
 -1      3507 1.12650E+02 3.44120E+01 0.00000E+00
 -1      3508 1.16400E+02 3.57110E+01 0.00000E+00
 -1      3509 1.17900E+02 3.57110E+01 0.00000E+00
 -1      3510 1.15650E+02 3.44120E+01 0.00000E+00
 -1      3511 1.19400E+02 3.57110E+01 0.00000E+00
 -1      3512 1.20900E+02 3.57110E+01 0.00000E+00
 -1      3513 1.18650E+02 3.44120E+01 0.00000E+00
 -1      3514 1.22400E+02 3.57110E+01 0.00000E+00
 -1      3515 1.23900E+02 3.57110E+01 0.00000E+00
 -1      3516 1.21650E+02 3.44120E+01 0.00000E+00
 -1      3517 1.25400E+02 3.57110E+01 0.00000E+00
 -1      3518 1.26900E+02 3.57110E+01 0.00000E+00
 -1      3519 1.24650E+02 3.44120E+01 0.00000E+00
 -1      3520 1.28400E+02 3.57110E+01 0.00000E+00
 -1      3521 1.29900E+02 3.57110E+01 0.00000E+00
 -1      3522 1.27650E+02 3.44120E+01 0.00000E+00
 -1      3523 1.31400E+02 3.57110E+01 0.00000E+00
 -1      3524 1.32900E+02 3.57110E+01 0.00000E+00
 -1      3525 1.30650E+02 3.44120E+01 0.00000E+00
 -1      3526 1.38528E+02 1.43674E+01 0.00000E+00
 -1      3527 1.38594E+02 1.31271E+01 0.00000E+00
 -1      3528 1.37668E+02 1.29210E+01 0.00000E+00
 -1      3529 1.37229E+02 1.50987E+01 0.00000E+00
 -1      3530 1.74000E+01 3.57110E+01 0.00000E+00
 -1      3531 1.89000E+01 3.57110E+01 0.00000E+00
 -1      3532 4.22850E+01 1.30992E+01 0.00000E+00
 -1      3533 4.07850E+01 1.30992E+01 0.00000E+00
 -1      3534 4.00350E+01 1.43982E+01 0.00000E+00
 -1      3535 5.12850E+01 1.30992E+01 0.00000E+00
 -1      3536 4.97850E+01 1.30992E+01 0.00000E+00
 -1      3537 5.42850E+01 1.30992E+01 0.00000E+00
 -1      3538 5.27850E+01 1.30992E+01 0.00000E+00
 -1      3539 5.20350E+01 1.43982E+01 0.00000E+00
 -1      3540 5.72850E+01 1.30992E+01 0.00000E+00
 -1      3541 5.57850E+01 1.30992E+01 0.00000E+00
 -1      3542 5.50350E+01 1.43982E+01 0.00000E+00
 -1      3543 6.02850E+01 1.30992E+01 0.00000E+00
 -1      3544 5.87850E+01 1.30992E+01 0.00000E+00
 -1      3545 5.80350E+01 1.43982E+01 0.00000E+00
 -1      3546 6.32850E+01 1.30992E+01 0.00000E+00
 -1      3547 6.17850E+01 1.30992E+01 0.00000E+00
 -1      3548 6.10350E+01 1.43982E+01 0.00000E+00
 -1      3549 6.68278E+01 1.26764E+01 0.00000E+00
 -1      3550 6.53278E+01 1.26764E+01 0.00000E+00
 -1      3551 8.17983E+01 1.41445E+01 0.00000E+00
 -1      3552 8.35042E+01 1.45247E+01 0.00000E+00
 -1      3553 7.70260E+01 1.20589E+01 0.00000E+00
 -1      3554 8.39637E+01 1.23362E+01 0.00000E+00
 -1      3555 8.24637E+01 1.23362E+01 0.00000E+00
 -1      3556 9.02850E+01 1.27191E+01 0.00000E+00
 -1      3557 8.87850E+01 1.27191E+01 0.00000E+00
 -1      3558 9.32850E+01 1.27191E+01 0.00000E+00
 -1      3559 9.17850E+01 1.27191E+01 0.00000E+00
 -1      3560 9.10350E+01 1.40181E+01 0.00000E+00
 -1      3561 9.62850E+01 1.27191E+01 0.00000E+00
 -1      3562 9.47850E+01 1.27191E+01 0.00000E+00
 -1      3563 9.40350E+01 1.40181E+01 0.00000E+00
 -1      3564 9.92850E+01 1.27191E+01 0.00000E+00
 -1      3565 9.77850E+01 1.27191E+01 0.00000E+00
 -1      3566 9.70350E+01 1.40181E+01 0.00000E+00
 -1      3567 1.02285E+02 1.27191E+01 0.00000E+00
 -1      3568 1.00785E+02 1.27191E+01 0.00000E+00
 -1      3569 1.00035E+02 1.40181E+01 0.00000E+00
 -1      3570 1.05285E+02 1.27191E+01 0.00000E+00
 -1      3571 1.03785E+02 1.27191E+01 0.00000E+00
 -1      3572 1.03035E+02 1.40181E+01 0.00000E+00
 -1      3573 1.08285E+02 1.27191E+01 0.00000E+00
 -1      3574 1.06785E+02 1.27191E+01 0.00000E+00
 -1      3575 1.06035E+02 1.40181E+01 0.00000E+00
 -1      3576 1.11285E+02 1.27191E+01 0.00000E+00
 -1      3577 1.09785E+02 1.27191E+01 0.00000E+00
 -1      3578 1.09035E+02 1.40181E+01 0.00000E+00
 -1      3579 1.14285E+02 1.27191E+01 0.00000E+00
 -1      3580 1.12785E+02 1.27191E+01 0.00000E+00
 -1      3581 1.12035E+02 1.40181E+01 0.00000E+00
 -1      3582 1.17285E+02 1.27191E+01 0.00000E+00
 -1      3583 1.15785E+02 1.27191E+01 0.00000E+00
 -1      3584 1.15035E+02 1.40181E+01 0.00000E+00
 -1      3585 1.20285E+02 1.27191E+01 0.00000E+00
 -1      3586 1.18785E+02 1.27191E+01 0.00000E+00
 -1      3587 1.18035E+02 1.40181E+01 0.00000E+00
 -1      3588 1.23285E+02 1.27191E+01 0.00000E+00
 -1      3589 1.21785E+02 1.27191E+01 0.00000E+00
 -1      3590 1.21035E+02 1.40181E+01 0.00000E+00
 -1      3591 1.26285E+02 1.27191E+01 0.00000E+00
 -1      3592 1.24785E+02 1.27191E+01 0.00000E+00
 -1      3593 1.24035E+02 1.40181E+01 0.00000E+00
 -1      3594 1.29285E+02 1.27191E+01 0.00000E+00
 -1      3595 1.27785E+02 1.27191E+01 0.00000E+00
 -1      3596 1.27035E+02 1.40181E+01 0.00000E+00
 -1      3597 1.32285E+02 1.27191E+01 0.00000E+00
 -1      3598 1.30785E+02 1.27191E+01 0.00000E+00
 -1      3599 1.30035E+02 1.40181E+01 0.00000E+00
 -1      3600 3.02850E+01 1.30992E+01 0.00000E+00
 -1      3601 2.87850E+01 1.30992E+01 0.00000E+00
 -1      3602 4.82850E+01 1.30992E+01 0.00000E+00
 -1      3603 4.67850E+01 1.30992E+01 0.00000E+00
 -1      3604 4.90350E+01 1.43982E+01 0.00000E+00
 -1      3605 9.20419E+01 2.78529E+01 0.00000E+00
 -1      3606 9.17587E+01 2.93639E+01 0.00000E+00
 -1      3607 9.27520E+01 3.02801E+01 0.00000E+00
 -1      3608 1.48200E+01 3.54019E+01 0.00000E+00
 -1      3609 2.42850E+01 1.30992E+01 0.00000E+00
 -1      3610 2.27850E+01 1.30992E+01 0.00000E+00
 -1      3611 1.35711E+02 2.72125E+01 0.00000E+00
 -1      3612 1.35711E+02 2.57375E+01 0.00000E+00
 -1      3613 2.72850E+01 1.30992E+01 0.00000E+00
 -1      3614 2.57850E+01 1.30992E+01 0.00000E+00
 -1      3615 2.80350E+01 1.43982E+01 0.00000E+00
 -1      3616 6.51730E+01 3.68553E+01 0.00000E+00
 -1      3617 1.16910E+01 2.71844E+01 0.00000E+00
 -1      3618 1.16910E+01 2.86531E+01 0.00000E+00
 -1      3619 1.29900E+01 2.93875E+01 0.00000E+00
 -1      3620 8.71244E+01 1.25276E+01 0.00000E+00
 -1      3621 8.56244E+01 1.25276E+01 0.00000E+00
 -1      3622 8.45531E+01 1.34437E+01 0.00000E+00
 -1      3623 8.78744E+01 1.38266E+01 0.00000E+00
 -1      3624 9.07448E+01 3.47136E+01 0.00000E+00
 -1      3625 9.04041E+01 2.03046E+01 0.00000E+00
 -1      3626 9.12157E+01 2.17539E+01 0.00000E+00
 -1      3627 4.52850E+01 1.30992E+01 0.00000E+00
 -1      3628 4.37850E+01 1.30992E+01 0.00000E+00
 -1      3629 4.30350E+01 1.43982E+01 0.00000E+00
 -1      3630 4.60350E+01 1.43982E+01 0.00000E+00
 -1      3631 8.82422E+01 1.78123E+01 0.00000E+00
 -1      3632 8.92147E+01 1.89282E+01 0.00000E+00
 -1      3633 2.04000E+01 3.57110E+01 0.00000E+00
 -1      3634 2.19000E+01 3.57110E+01 0.00000E+00
 -1      3635 2.26500E+01 3.44120E+01 0.00000E+00
 -1      3636 1.42800E+01 3.32139E+01 0.00000E+00
 -1      3637 1.61100E+01 3.48221E+01 0.00000E+00
 -1      3638 1.68600E+01 3.35231E+01 0.00000E+00
 -1      3639 1.42800E+01 3.17452E+01 0.00000E+00
 -1      3640 6.36268E+01 1.72468E+01 0.00000E+00
 -1      3641 6.47605E+01 1.60028E+01 0.00000E+00
 -1      3642 6.16307E+01 1.97548E+01 0.00000E+00
 -1      3643 6.24778E+01 1.85405E+01 0.00000E+00
 -1      3644 5.96409E+01 3.38932E+01 0.00000E+00
 -1      3645 1.44900E+01 1.46687E+01 0.00000E+00
 -1      3646 8.82229E+01 1.63913E+01 0.00000E+00
 -1      3647 6.10655E+01 2.38358E+01 0.00000E+00
 -1      3648 6.04509E+01 2.28260E+01 0.00000E+00
 -1      3649 6.04275E+01 2.44484E+01 0.00000E+00
 -1      3650 1.42890E+01 2.27625E+01 0.00000E+00
 -1      3651 1.42890E+01 2.42375E+01 0.00000E+00
 -1      3652 6.05342E+01 2.09238E+01 0.00000E+00
 -1      3653 6.10825E+01 2.03393E+01 0.00000E+00
 -1      3654 6.05279E+01 1.90497E+01 0.00000E+00
 -1      3655 1.96500E+01 3.44120E+01 0.00000E+00
 -1      3656 9.28093E+01 3.31016E+01 0.00000E+00
 -1      3657 9.14948E+01 3.34146E+01 0.00000E+00
 -1      3658 6.49973E+01 1.47152E+01 0.00000E+00
 -1      3659 7.09938E+01 1.29478E+01 0.00000E+00
 -1      3660 1.35846E+02 1.53866E+01 0.00000E+00
 -1      3661 1.36065E+02 1.42978E+01 0.00000E+00
 -1      3662 1.34022E+02 3.59901E+01 0.00000E+00
 -1      3663 1.35329E+02 3.61011E+01 0.00000E+00
 -1      3664 1.35515E+02 3.52494E+01 0.00000E+00
 -1      3665 1.33272E+02 3.46911E+01 0.00000E+00
 -1      3666 6.93842E+01 1.34497E+01 0.00000E+00
 -1      3667 1.35711E+02 3.01500E+01 0.00000E+00
 -1      3668 1.35711E+02 2.86812E+01 0.00000E+00
 -1      3669 1.34412E+02 2.79438E+01 0.00000E+00
 -1      3670 3.32850E+01 1.30992E+01 0.00000E+00
 -1      3671 3.17850E+01 1.30992E+01 0.00000E+00
 -1      3672 3.10350E+01 1.43982E+01 0.00000E+00
 -1      3673 6.78842E+01 1.34497E+01 0.00000E+00
 -1      3674 7.86584E+01 1.25065E+01 0.00000E+00
 -1      3675 8.12850E+01 1.25290E+01 0.00000E+00
 -1      3676 7.97850E+01 1.25290E+01 0.00000E+00
 -1      3677 1.33859E+02 1.30029E+01 0.00000E+00
 -1      3678 1.33109E+02 1.43019E+01 0.00000E+00
 -1      3679 1.42890E+01 2.12938E+01 0.00000E+00
 -1      3680 1.55880E+01 2.20313E+01 0.00000E+00
 -1      3681 1.42890E+01 1.98250E+01 0.00000E+00
 -1      3682 7.94084E+01 1.36154E+01 0.00000E+00
 -1      3683 1.35846E+02 1.68616E+01 0.00000E+00
 -1      3684 1.34682E+02 1.60608E+01 0.00000E+00
 -1      3685 1.35846E+02 1.83366E+01 0.00000E+00
 -1      3686 1.35359E+02 1.30029E+01 0.00000E+00
 -1      3687 1.36742E+02 1.27150E+01 0.00000E+00
 -1      3688 6.22251E+01 1.71716E+01 0.00000E+00
 -1      3689 6.10287E+01 2.71973E+01 0.00000E+00
 -1      3690 6.04335E+01 2.62676E+01 0.00000E+00
 -1      3691 6.04201E+01 2.80067E+01 0.00000E+00
 -1      3692 1.35711E+02 2.42719E+01 0.00000E+00
 -1      3693 1.35711E+02 2.28062E+01 0.00000E+00
 -1      3694 1.34412E+02 2.50094E+01 0.00000E+00
 -1      3695 9.07538E+01 1.90181E+01 0.00000E+00
 -1      3696 9.22667E+01 2.26252E+01 0.00000E+00
 -1      3697 9.33177E+01 2.34966E+01 0.00000E+00
 -1      3698 9.29943E+01 2.12659E+01 0.00000E+00
 -1      3699 9.28127E+01 2.68125E+01 0.00000E+00
 -1      3700 9.38060E+01 2.77287E+01 0.00000E+00
 -1      3701 9.35835E+01 2.57721E+01 0.00000E+00
 -1      3702 8.06195E+01 1.43373E+01 0.00000E+00
 -1      3703 2.14669E+01 1.29495E+01 0.00000E+00
 -1      3704 2.01488E+01 1.27997E+01 0.00000E+00
 -1      3705 2.22169E+01 1.42485E+01 0.00000E+00
 -1      3706 1.29900E+01 2.64469E+01 0.00000E+00
 -1      3707 1.29900E+01 1.76125E+01 0.00000E+00
 -1      3708 3.70350E+01 1.43982E+01 0.00000E+00
 -1      3709 3.62850E+01 1.30992E+01 0.00000E+00
 -1      3710 3.47850E+01 1.30992E+01 0.00000E+00
 -1      3711 2.50350E+01 1.43982E+01 0.00000E+00
 -1      3712 6.10102E+01 3.04760E+01 0.00000E+00
 -1      3713 6.03541E+01 2.97523E+01 0.00000E+00
 -1      3714 6.03491E+01 3.12919E+01 0.00000E+00
 -1      3715 1.35702E+02 3.43976E+01 0.00000E+00
 -1      3716 1.34487E+02 3.38100E+01 0.00000E+00
 -1      3717 1.35795E+02 3.32374E+01 0.00000E+00
 -1      3718 1.35795E+02 3.17686E+01 0.00000E+00
 -1      3719 1.33365E+02 3.35309E+01 0.00000E+00
 -1      3720 9.47850E+01 1.53171E+01 0.00000E+00
 -1      3721 9.32850E+01 1.53171E+01 0.00000E+00
 -1      3722 2.49000E+01 3.31130E+01 0.00000E+00
 -1      3723 2.64000E+01 3.31130E+01 0.00000E+00
 -1      3724 1.61488E+01 1.48625E+01 0.00000E+00
 -1      3725 1.46488E+01 1.63313E+01 0.00000E+00
 -1      3726 2.79000E+01 3.31130E+01 0.00000E+00
 -1      3727 2.94000E+01 3.31130E+01 0.00000E+00
 -1      3728 2.71500E+01 3.18140E+01 0.00000E+00
 -1      3729 3.09000E+01 3.31130E+01 0.00000E+00
 -1      3730 3.24000E+01 3.31130E+01 0.00000E+00
 -1      3731 3.01500E+01 3.18140E+01 0.00000E+00
 -1      3732 3.39000E+01 3.31130E+01 0.00000E+00
 -1      3733 3.54000E+01 3.31130E+01 0.00000E+00
 -1      3734 3.31500E+01 3.18140E+01 0.00000E+00
 -1      3735 3.69000E+01 3.31130E+01 0.00000E+00
 -1      3736 3.84000E+01 3.31130E+01 0.00000E+00
 -1      3737 3.61500E+01 3.18140E+01 0.00000E+00
 -1      3738 3.99000E+01 3.31130E+01 0.00000E+00
 -1      3739 4.14000E+01 3.31130E+01 0.00000E+00
 -1      3740 3.91500E+01 3.18140E+01 0.00000E+00
 -1      3741 4.29000E+01 3.31130E+01 0.00000E+00
 -1      3742 4.44000E+01 3.31130E+01 0.00000E+00
 -1      3743 4.21500E+01 3.18140E+01 0.00000E+00
 -1      3744 4.59000E+01 3.31130E+01 0.00000E+00
 -1      3745 4.74000E+01 3.31130E+01 0.00000E+00
 -1      3746 4.51500E+01 3.18140E+01 0.00000E+00
 -1      3747 4.89000E+01 3.31130E+01 0.00000E+00
 -1      3748 5.04000E+01 3.31130E+01 0.00000E+00
 -1      3749 4.81500E+01 3.18140E+01 0.00000E+00
 -1      3750 5.19000E+01 3.31130E+01 0.00000E+00
 -1      3751 5.34000E+01 3.31130E+01 0.00000E+00
 -1      3752 5.11500E+01 3.18140E+01 0.00000E+00
 -1      3753 5.49000E+01 3.31130E+01 0.00000E+00
 -1      3754 5.64000E+01 3.31130E+01 0.00000E+00
 -1      3755 5.41500E+01 3.18140E+01 0.00000E+00
 -1      3756 9.39687E+01 3.17911E+01 0.00000E+00
 -1      3757 9.43093E+01 3.31016E+01 0.00000E+00
 -1      3758 9.58093E+01 3.31016E+01 0.00000E+00
 -1      3759 9.73093E+01 3.31016E+01 0.00000E+00
 -1      3760 9.88093E+01 3.31016E+01 0.00000E+00
 -1      3761 9.69687E+01 3.17911E+01 0.00000E+00
 -1      3762 1.00309E+02 3.31016E+01 0.00000E+00
 -1      3763 1.01809E+02 3.31016E+01 0.00000E+00
 -1      3764 9.99687E+01 3.17911E+01 0.00000E+00
 -1      3765 1.03309E+02 3.31016E+01 0.00000E+00
 -1      3766 1.04809E+02 3.31016E+01 0.00000E+00
 -1      3767 1.02969E+02 3.17911E+01 0.00000E+00
 -1      3768 1.06309E+02 3.31016E+01 0.00000E+00
 -1      3769 1.07809E+02 3.31016E+01 0.00000E+00
 -1      3770 1.05969E+02 3.17911E+01 0.00000E+00
 -1      3771 1.09309E+02 3.31016E+01 0.00000E+00
 -1      3772 1.10809E+02 3.31016E+01 0.00000E+00
 -1      3773 1.08969E+02 3.17911E+01 0.00000E+00
 -1      3774 1.12309E+02 3.31016E+01 0.00000E+00
 -1      3775 1.13809E+02 3.31016E+01 0.00000E+00
 -1      3776 1.11969E+02 3.17911E+01 0.00000E+00
 -1      3777 1.15309E+02 3.31016E+01 0.00000E+00
 -1      3778 1.16809E+02 3.31016E+01 0.00000E+00
 -1      3779 1.14969E+02 3.17911E+01 0.00000E+00
 -1      3780 1.18309E+02 3.31016E+01 0.00000E+00
 -1      3781 1.19809E+02 3.31016E+01 0.00000E+00
 -1      3782 1.17969E+02 3.17911E+01 0.00000E+00
 -1      3783 1.21309E+02 3.31016E+01 0.00000E+00
 -1      3784 1.22809E+02 3.31016E+01 0.00000E+00
 -1      3785 1.20969E+02 3.17911E+01 0.00000E+00
 -1      3786 1.24309E+02 3.31016E+01 0.00000E+00
 -1      3787 1.25809E+02 3.31016E+01 0.00000E+00
 -1      3788 1.23969E+02 3.17911E+01 0.00000E+00
 -1      3789 1.27309E+02 3.31016E+01 0.00000E+00
 -1      3790 1.28809E+02 3.31016E+01 0.00000E+00
 -1      3791 1.26969E+02 3.17911E+01 0.00000E+00
 -1      3792 1.30309E+02 3.31016E+01 0.00000E+00
 -1      3793 1.31809E+02 3.31016E+01 0.00000E+00
 -1      3794 1.29969E+02 3.17911E+01 0.00000E+00
 -1      3795 4.07850E+01 1.56973E+01 0.00000E+00
 -1      3796 3.92850E+01 1.56973E+01 0.00000E+00
 -1      3797 5.57850E+01 1.56973E+01 0.00000E+00
 -1      3798 5.42850E+01 1.56973E+01 0.00000E+00
 -1      3799 5.27850E+01 1.56973E+01 0.00000E+00
 -1      3800 5.12850E+01 1.56973E+01 0.00000E+00
 -1      3801 5.35350E+01 1.69963E+01 0.00000E+00
 -1      3802 6.37045E+01 1.38391E+01 0.00000E+00
 -1      3803 8.51648E+01 1.47162E+01 0.00000E+00
 -1      3804 8.17137E+01 1.34451E+01 0.00000E+00
 -1      3805 1.33109E+02 1.57769E+01 0.00000E+00
 -1      3806 1.31535E+02 1.54931E+01 0.00000E+00
 -1      3807 1.33109E+02 1.72519E+01 0.00000E+00
 -1      3808 1.00785E+02 1.53171E+01 0.00000E+00
 -1      3809 9.92850E+01 1.53171E+01 0.00000E+00
 -1      3810 1.03785E+02 1.53171E+01 0.00000E+00
 -1      3811 1.02285E+02 1.53171E+01 0.00000E+00
 -1      3812 1.01535E+02 1.66161E+01 0.00000E+00
 -1      3813 1.06785E+02 1.53171E+01 0.00000E+00
 -1      3814 1.05285E+02 1.53171E+01 0.00000E+00
 -1      3815 1.04535E+02 1.66161E+01 0.00000E+00
 -1      3816 1.09785E+02 1.53171E+01 0.00000E+00
 -1      3817 1.08285E+02 1.53171E+01 0.00000E+00
 -1      3818 1.07535E+02 1.66161E+01 0.00000E+00
 -1      3819 1.12785E+02 1.53171E+01 0.00000E+00
 -1      3820 1.11285E+02 1.53171E+01 0.00000E+00
 -1      3821 1.10535E+02 1.66161E+01 0.00000E+00
 -1      3822 1.15785E+02 1.53171E+01 0.00000E+00
 -1      3823 1.14285E+02 1.53171E+01 0.00000E+00
 -1      3824 1.13535E+02 1.66161E+01 0.00000E+00
 -1      3825 1.18785E+02 1.53171E+01 0.00000E+00
 -1      3826 1.17285E+02 1.53171E+01 0.00000E+00
 -1      3827 1.16535E+02 1.66161E+01 0.00000E+00
 -1      3828 1.21785E+02 1.53171E+01 0.00000E+00
 -1      3829 1.20285E+02 1.53171E+01 0.00000E+00
 -1      3830 1.19535E+02 1.66161E+01 0.00000E+00
 -1      3831 1.24785E+02 1.53171E+01 0.00000E+00
 -1      3832 1.23285E+02 1.53171E+01 0.00000E+00
 -1      3833 1.22535E+02 1.66161E+01 0.00000E+00
 -1      3834 1.27785E+02 1.53171E+01 0.00000E+00
 -1      3835 1.26285E+02 1.53171E+01 0.00000E+00
 -1      3836 1.25535E+02 1.66161E+01 0.00000E+00
 -1      3837 1.30410E+02 1.54051E+01 0.00000E+00
 -1      3838 1.28910E+02 1.54051E+01 0.00000E+00
 -1      3839 1.28160E+02 1.67041E+01 0.00000E+00
 -1      3840 1.30410E+02 1.68801E+01 0.00000E+00
 -1      3841 2.87850E+01 1.56973E+01 0.00000E+00
 -1      3842 2.72850E+01 1.56973E+01 0.00000E+00
 -1      3843 1.55880E+01 2.49719E+01 0.00000E+00
 -1      3844 1.42890E+01 2.57094E+01 0.00000E+00
 -1      3845 1.42890E+01 2.71812E+01 0.00000E+00
 -1      3846 4.97850E+01 1.56973E+01 0.00000E+00
 -1      3847 4.82850E+01 1.56973E+01 0.00000E+00
 -1      3848 5.05350E+01 1.69963E+01 0.00000E+00
 -1      3849 9.77850E+01 1.53171E+01 0.00000E+00
 -1      3850 9.62850E+01 1.53171E+01 0.00000E+00
 -1      3851 9.85350E+01 1.66161E+01 0.00000E+00
 -1      3852 2.57850E+01 1.56973E+01 0.00000E+00
 -1      3853 2.42850E+01 1.56973E+01 0.00000E+00
 -1      3854 2.65350E+01 1.69963E+01 0.00000E+00
 -1      3855 9.17997E+01 1.71289E+01 0.00000E+00
 -1      3856 9.29891E+01 1.85053E+01 0.00000E+00
 -1      3857 1.46488E+01 1.78063E+01 0.00000E+00
 -1      3858 8.65476E+01 1.43880E+01 0.00000E+00
 -1      3859 5.87850E+01 1.56973E+01 0.00000E+00
 -1      3860 5.72850E+01 1.56973E+01 0.00000E+00
 -1      3861 5.65350E+01 1.69963E+01 0.00000E+00
 -1      3862 1.35711E+02 2.13406E+01 0.00000E+00
 -1      3863 1.35711E+02 1.98750E+01 0.00000E+00
 -1      3864 1.34412E+02 2.20781E+01 0.00000E+00
 -1      3865 1.73078E+01 1.26070E+01 0.00000E+00
 -1      3866 1.69216E+01 1.36064E+01 0.00000E+00
 -1      3867 1.70804E+01 1.52690E+01 0.00000E+00
 -1      3868 1.86260E+01 1.27568E+01 0.00000E+00
 -1      3869 2.19000E+01 3.31130E+01 0.00000E+00
 -1      3870 2.34000E+01 3.31130E+01 0.00000E+00
 -1      3871 2.41500E+01 3.18140E+01 0.00000E+00
 -1      3872 1.42890E+01 2.86500E+01 0.00000E+00
 -1      3873 1.42890E+01 3.01187E+01 0.00000E+00
 -1      3874 1.55880E+01 2.79125E+01 0.00000E+00
 -1      3875 1.89000E+01 3.31130E+01 0.00000E+00
 -1      3876 2.04000E+01 3.31130E+01 0.00000E+00
 -1      3877 2.11500E+01 3.18140E+01 0.00000E+00
 -1      3878 9.42520E+01 3.02801E+01 0.00000E+00
 -1      3879 5.98963E+01 2.15364E+01 0.00000E+00
 -1      3880 5.93417E+01 2.02468E+01 0.00000E+00
 -1      3881 5.92584E+01 2.21490E+01 0.00000E+00
 -1      3882 5.98190E+01 2.52577E+01 0.00000E+00
 -1      3883 5.92044E+01 2.42479E+01 0.00000E+00
 -1      3884 5.92104E+01 2.60671E+01 0.00000E+00
 -1      3885 5.76715E+01 3.11911E+01 0.00000E+00
 -1      3886 5.84215E+01 3.24901E+01 0.00000E+00
 -1      3887 1.76100E+01 3.22241E+01 0.00000E+00
 -1      3888 8.82082E+01 1.45794E+01 0.00000E+00
 -1      3889 1.33024E+02 3.22204E+01 0.00000E+00
 -1      3890 1.55790E+01 3.10077E+01 0.00000E+00
 -1      3891 1.34496E+02 3.10311E+01 0.00000E+00
 -1      3892 8.95497E+01 1.58299E+01 0.00000E+00
 -1      3893 3.02850E+01 1.56973E+01 0.00000E+00
 -1      3894 2.95350E+01 1.69963E+01 0.00000E+00
 -1      3895 3.17850E+01 1.56973E+01 0.00000E+00
 -1      3896 9.10497E+01 1.58299E+01 0.00000E+00
 -1      3897 1.34547E+02 1.90741E+01 0.00000E+00
 -1      3898 4.22850E+01 1.56973E+01 0.00000E+00
 -1      3899 4.15350E+01 1.69963E+01 0.00000E+00
 -1      3900 4.37850E+01 1.56973E+01 0.00000E+00
 -1      3901 3.40350E+01 1.43982E+01 0.00000E+00
 -1      3902 1.59478E+01 1.85438E+01 0.00000E+00
 -1      3903 9.55350E+01 1.66161E+01 0.00000E+00
 -1      3904 6.17850E+01 1.56973E+01 0.00000E+00
 -1      3905 6.02850E+01 1.56973E+01 0.00000E+00
 -1      3906 9.47876E+01 1.79964E+01 0.00000E+00
 -1      3907 9.37417E+01 1.98856E+01 0.00000E+00
 -1      3908 9.47927E+01 2.07569E+01 0.00000E+00
 -1      3909 9.62876E+01 1.79964E+01 0.00000E+00
 -1      3910 4.67850E+01 1.56973E+01 0.00000E+00
 -1      3911 4.52850E+01 1.56973E+01 0.00000E+00
 -1      3912 4.45350E+01 1.69963E+01 0.00000E+00
 -1      3913 4.75350E+01 1.69963E+01 0.00000E+00
 -1      3914 1.68870E+01 2.12969E+01 0.00000E+00
 -1      3915 1.68870E+01 2.27656E+01 0.00000E+00
 -1      3916 1.68870E+01 2.42375E+01 0.00000E+00
 -1      3917 1.68870E+01 2.57094E+01 0.00000E+00
 -1      3918 1.81860E+01 2.35031E+01 0.00000E+00
 -1      3919 1.33113E+02 2.57422E+01 0.00000E+00
 -1      3920 1.33113E+02 2.42766E+01 0.00000E+00
 -1      3921 5.97590E+01 2.88225E+01 0.00000E+00
 -1      3922 5.91638E+01 2.78928E+01 0.00000E+00
 -1      3923 5.90978E+01 2.96384E+01 0.00000E+00
 -1      3924 9.43110E+01 2.44128E+01 0.00000E+00
 -1      3925 9.53043E+01 2.53290E+01 0.00000E+00
 -1      3926 9.50386E+01 2.30534E+01 0.00000E+00
 -1      3927 2.29669E+01 1.55475E+01 0.00000E+00
 -1      3928 2.16488E+01 1.53977E+01 0.00000E+00
 -1      3929 2.37169E+01 1.68465E+01 0.00000E+00
 -1      3930 5.95350E+01 1.69963E+01 0.00000E+00
 -1      3931 3.77850E+01 1.56973E+01 0.00000E+00
 -1      3932 3.62850E+01 1.56973E+01 0.00000E+00
 -1      3933 3.85350E+01 1.69963E+01 0.00000E+00
 -1      3934 1.93760E+01 1.40558E+01 0.00000E+00
 -1      3935 9.47790E+01 2.90044E+01 0.00000E+00
 -1      3936 9.59957E+01 3.05154E+01 0.00000E+00
 -1      3937 9.74957E+01 3.05154E+01 0.00000E+00
 -1      3938 9.55498E+01 2.79640E+01 0.00000E+00
 -1      3939 1.33113E+02 2.86797E+01 0.00000E+00
 -1      3940 1.33113E+02 2.72109E+01 0.00000E+00
 -1      3941 1.31814E+02 2.64781E+01 0.00000E+00
 -1      3942 1.76190E+01 3.05976E+01 0.00000E+00
 -1      3943 5.90073E+01 1.83152E+01 0.00000E+00
 -1      3944 5.95555E+01 1.77307E+01 0.00000E+00
 -1      3945 2.94000E+01 3.05150E+01 0.00000E+00
 -1      3946 3.09000E+01 3.05150E+01 0.00000E+00
 -1      3947 3.24000E+01 3.05150E+01 0.00000E+00
 -1      3948 3.39000E+01 3.05150E+01 0.00000E+00
 -1      3949 3.16500E+01 2.92160E+01 0.00000E+00
 -1      3950 3.54000E+01 3.05150E+01 0.00000E+00
 -1      3951 3.69000E+01 3.05150E+01 0.00000E+00
 -1      3952 3.46500E+01 2.92160E+01 0.00000E+00
 -1      3953 3.84000E+01 3.05150E+01 0.00000E+00
 -1      3954 3.99000E+01 3.05150E+01 0.00000E+00
 -1      3955 3.76500E+01 2.92160E+01 0.00000E+00
 -1      3956 4.14000E+01 3.05150E+01 0.00000E+00
 -1      3957 4.29000E+01 3.05150E+01 0.00000E+00
 -1      3958 4.06500E+01 2.92160E+01 0.00000E+00
 -1      3959 4.44000E+01 3.05150E+01 0.00000E+00
 -1      3960 4.59000E+01 3.05150E+01 0.00000E+00
 -1      3961 4.36500E+01 2.92160E+01 0.00000E+00
 -1      3962 4.74000E+01 3.05150E+01 0.00000E+00
 -1      3963 4.89000E+01 3.05150E+01 0.00000E+00
 -1      3964 4.66500E+01 2.92160E+01 0.00000E+00
 -1      3965 5.04000E+01 3.05150E+01 0.00000E+00
 -1      3966 5.19000E+01 3.05150E+01 0.00000E+00
 -1      3967 4.96500E+01 2.92160E+01 0.00000E+00
 -1      3968 5.34000E+01 3.05150E+01 0.00000E+00
 -1      3969 5.49000E+01 3.05150E+01 0.00000E+00
 -1      3970 5.26500E+01 2.92160E+01 0.00000E+00
 -1      3971 5.72850E+01 1.82952E+01 0.00000E+00
 -1      3972 5.57850E+01 1.82952E+01 0.00000E+00
 -1      3973 9.92187E+01 3.04921E+01 0.00000E+00
 -1      3974 1.00719E+02 3.04921E+01 0.00000E+00
 -1      3975 1.02219E+02 3.04921E+01 0.00000E+00
 -1      3976 1.03719E+02 3.04921E+01 0.00000E+00
 -1      3977 1.01469E+02 2.91931E+01 0.00000E+00
 -1      3978 1.05219E+02 3.04921E+01 0.00000E+00
 -1      3979 1.06719E+02 3.04921E+01 0.00000E+00
 -1      3980 1.04469E+02 2.91931E+01 0.00000E+00
 -1      3981 1.08219E+02 3.04921E+01 0.00000E+00
 -1      3982 1.09719E+02 3.04921E+01 0.00000E+00
 -1      3983 1.07469E+02 2.91931E+01 0.00000E+00
 -1      3984 1.11219E+02 3.04921E+01 0.00000E+00
 -1      3985 1.12719E+02 3.04921E+01 0.00000E+00
 -1      3986 1.10469E+02 2.91931E+01 0.00000E+00
 -1      3987 1.14219E+02 3.04921E+01 0.00000E+00
 -1      3988 1.15719E+02 3.04921E+01 0.00000E+00
 -1      3989 1.13469E+02 2.91931E+01 0.00000E+00
 -1      3990 1.17219E+02 3.04921E+01 0.00000E+00
 -1      3991 1.18719E+02 3.04921E+01 0.00000E+00
 -1      3992 1.16469E+02 2.91931E+01 0.00000E+00
 -1      3993 1.20219E+02 3.04921E+01 0.00000E+00
 -1      3994 1.21719E+02 3.04921E+01 0.00000E+00
 -1      3995 1.19469E+02 2.91931E+01 0.00000E+00
 -1      3996 1.23219E+02 3.04921E+01 0.00000E+00
 -1      3997 1.24719E+02 3.04921E+01 0.00000E+00
 -1      3998 1.22469E+02 2.91931E+01 0.00000E+00
 -1      3999 1.26219E+02 3.04921E+01 0.00000E+00
 -1      4000 1.27719E+02 3.04921E+01 0.00000E+00
 -1      4001 1.25469E+02 2.91931E+01 0.00000E+00
 -1      4002 2.64000E+01 3.05150E+01 0.00000E+00
 -1      4003 2.79000E+01 3.05150E+01 0.00000E+00
 -1      4004 2.86500E+01 2.92160E+01 0.00000E+00
 -1      4005 6.29545E+01 1.51381E+01 0.00000E+00
 -1      4006 6.22045E+01 1.64371E+01 0.00000E+00
 -1      4007 5.82573E+01 1.96142E+01 0.00000E+00
 -1      4008 1.08285E+02 1.79151E+01 0.00000E+00
 -1      4009 1.06785E+02 1.79151E+01 0.00000E+00
 -1      4010 1.32973E+02 1.87903E+01 0.00000E+00
 -1      4011 1.31400E+02 1.85064E+01 0.00000E+00
 -1      4012 1.32838E+02 2.03287E+01 0.00000E+00
 -1      4013 1.05285E+02 1.79151E+01 0.00000E+00
 -1      4014 1.03785E+02 1.79151E+01 0.00000E+00
 -1      4015 1.06035E+02 1.92141E+01 0.00000E+00
 -1      4016 1.02285E+02 1.79151E+01 0.00000E+00
 -1      4017 1.00785E+02 1.79151E+01 0.00000E+00
 -1      4018 1.03035E+02 1.92141E+01 0.00000E+00
 -1      4019 1.11285E+02 1.79151E+01 0.00000E+00
 -1      4020 1.09785E+02 1.79151E+01 0.00000E+00
 -1      4021 1.09035E+02 1.92141E+01 0.00000E+00
 -1      4022 1.14285E+02 1.79151E+01 0.00000E+00
 -1      4023 1.12785E+02 1.79151E+01 0.00000E+00
 -1      4024 1.12035E+02 1.92141E+01 0.00000E+00
 -1      4025 1.17285E+02 1.79151E+01 0.00000E+00
 -1      4026 1.15785E+02 1.79151E+01 0.00000E+00
 -1      4027 1.15035E+02 1.92141E+01 0.00000E+00
 -1      4028 1.20285E+02 1.79151E+01 0.00000E+00
 -1      4029 1.18785E+02 1.79151E+01 0.00000E+00
 -1      4030 1.18035E+02 1.92141E+01 0.00000E+00
 -1      4031 1.23285E+02 1.79151E+01 0.00000E+00
 -1      4032 1.21785E+02 1.79151E+01 0.00000E+00
 -1      4033 1.21035E+02 1.92141E+01 0.00000E+00
 -1      4034 1.26285E+02 1.79151E+01 0.00000E+00
 -1      4035 1.24785E+02 1.79151E+01 0.00000E+00
 -1      4036 1.24035E+02 1.92141E+01 0.00000E+00
 -1      4037 1.72709E+01 2.88750E+01 0.00000E+00
 -1      4038 1.93019E+01 3.00914E+01 0.00000E+00
 -1      4039 2.08019E+01 3.00914E+01 0.00000E+00
 -1      4040 2.23019E+01 3.00914E+01 0.00000E+00
 -1      4041 2.04539E+01 2.83688E+01 0.00000E+00
 -1      4042 5.90776E+01 3.32138E+01 0.00000E+00
 -1      4043 5.12850E+01 1.82952E+01 0.00000E+00
 -1      4044 4.97850E+01 1.82952E+01 0.00000E+00
 -1      4045 9.92863E+01 1.79557E+01 0.00000E+00
 -1      4046 9.77863E+01 1.79557E+01 0.00000E+00
 -1      4047 9.70388E+01 1.93360E+01 0.00000E+00
 -1      4048 1.00036E+02 1.92547E+01 0.00000E+00
 -1      4049 3.47850E+01 1.56973E+01 0.00000E+00
 -1      4050 3.32850E+01 1.56973E+01 0.00000E+00
 -1      4051 3.25350E+01 1.69963E+01 0.00000E+00
 -1      4052 1.32940E+02 3.06018E+01 0.00000E+00
 -1      4053 1.32976E+02 2.30354E+01 0.00000E+00
 -1      4054 1.32976E+02 2.15698E+01 0.00000E+00
 -1      4055 1.31402E+02 2.12860E+01 0.00000E+00
 -1      4056 1.31677E+02 2.37682E+01 0.00000E+00
 -1      4057 1.86032E+01 1.53119E+01 0.00000E+00
 -1      4058 1.78304E+01 1.65680E+01 0.00000E+00
 -1      4059 2.01260E+01 1.53548E+01 0.00000E+00
 -1      4060 5.42850E+01 1.82952E+01 0.00000E+00
 -1      4061 5.27850E+01 1.82952E+01 0.00000E+00
 -1      4062 5.50350E+01 1.95942E+01 0.00000E+00
 -1      4063 1.72709E+01 2.74063E+01 0.00000E+00
 -1      4064 2.36010E+01 3.03032E+01 0.00000E+00
 -1      4065 2.51010E+01 3.03032E+01 0.00000E+00
 -1      4066 2.58510E+01 2.90042E+01 0.00000E+00
 -1      4067 2.32529E+01 2.85806E+01 0.00000E+00
 -1      4068 6.10555E+01 1.77307E+01 0.00000E+00
 -1      4069 2.72850E+01 1.82952E+01 0.00000E+00
 -1      4070 2.57850E+01 1.82952E+01 0.00000E+00
 -1      4071 1.75386E+01 1.79231E+01 0.00000E+00
 -1      4072 1.71788E+01 1.99418E+01 0.00000E+00
 -1      4073 1.84778E+01 2.06762E+01 0.00000E+00
 -1      4074 1.90614E+01 1.79660E+01 0.00000E+00
 -1      4075 1.31641E+02 2.98690E+01 0.00000E+00
 -1      4076 5.85493E+01 2.68829E+01 0.00000E+00
 -1      4077 5.79347E+01 2.58731E+01 0.00000E+00
 -1      4078 5.78881E+01 2.76988E+01 0.00000E+00
 -1      4079 5.63342E+01 3.04428E+01 0.00000E+00
 -1      4080 5.83556E+01 2.98199E+01 0.00000E+00
 -1      4081 5.55842E+01 2.91438E+01 0.00000E+00
 -1      4082 1.85699E+01 2.66719E+01 0.00000E+00
 -1      4083 1.29219E+02 3.04921E+01 0.00000E+00
 -1      4084 1.30719E+02 3.04921E+01 0.00000E+00
 -1      4085 5.80413E+01 2.37677E+01 0.00000E+00
 -1      4086 5.86498E+01 2.29583E+01 0.00000E+00
 -1      4087 5.80952E+01 2.16688E+01 0.00000E+00
 -1      4088 3.55350E+01 1.69963E+01 0.00000E+00
 -1      4089 2.08760E+01 1.66538E+01 0.00000E+00
 -1      4090 9.64124E+01 2.05046E+01 0.00000E+00
 -1      4091 9.56650E+01 2.18848E+01 0.00000E+00
 -1      4092 9.66583E+01 2.28010E+01 0.00000E+00
 -1      4093 9.79111E+01 2.04639E+01 0.00000E+00
 -1      4094 2.50350E+01 1.95943E+01 0.00000E+00
 -1      4095 2.42850E+01 1.82953E+01 0.00000E+00
 -1      4096 1.30275E+02 1.84184E+01 0.00000E+00
 -1      4097 1.27410E+02 1.80031E+01 0.00000E+00
 -1      4098 1.26660E+02 1.93021E+01 0.00000E+00
 -1      4099 1.28535E+02 1.80911E+01 0.00000E+00
 -1      4100 1.94850E+01 2.27672E+01 0.00000E+00
 -1      4101 1.94850E+01 2.42391E+01 0.00000E+00
 -1      4102 1.30891E+02 2.85700E+01 0.00000E+00
 -1      4103 5.20350E+01 1.95942E+01 0.00000E+00
 -1      4104 2.29669E+01 1.81455E+01 0.00000E+00
 -1      4105 4.82850E+01 1.82952E+01 0.00000E+00
 -1      4106 4.67850E+01 1.82952E+01 0.00000E+00
 -1      4107 4.90350E+01 1.95942E+01 0.00000E+00
 -1      4108 3.92850E+01 1.82952E+01 0.00000E+00
 -1      4109 3.77850E+01 1.82952E+01 0.00000E+00
 -1      4110 9.82457E+01 2.92164E+01 0.00000E+00
 -1      4111 9.70048E+01 2.52453E+01 0.00000E+00
 -1      4112 9.62773E+01 2.66047E+01 0.00000E+00
 -1      4113 9.72503E+01 2.78804E+01 0.00000E+00
 -1      4114 1.30454E+02 2.45317E+01 0.00000E+00
 -1      4115 1.30317E+02 2.32906E+01 0.00000E+00
 -1      4116 3.02850E+01 1.82952E+01 0.00000E+00
 -1      4117 2.87850E+01 1.82952E+01 0.00000E+00
 -1      4118 2.80350E+01 1.95942E+01 0.00000E+00
 -1      4119 1.30673E+02 2.72852E+01 0.00000E+00
 -1      4120 1.30673E+02 2.58165E+01 0.00000E+00
 -1      4121 1.29313E+02 2.53388E+01 0.00000E+00
 -1      4122 1.29750E+02 2.79083E+01 0.00000E+00
 -1      4123 4.22850E+01 1.82952E+01 0.00000E+00
 -1      4124 4.07850E+01 1.82952E+01 0.00000E+00
 -1      4125 4.00350E+01 1.95942E+01 0.00000E+00
 -1      4126 1.28469E+02 2.91931E+01 0.00000E+00
 -1      4127 1.97775E+01 2.54555E+01 0.00000E+00
 -1      4128 2.01614E+01 2.71524E+01 0.00000E+00
 -1      4129 2.16614E+01 2.71524E+01 0.00000E+00
 -1      4130 2.10765E+01 2.47195E+01 0.00000E+00
 -1      4131 1.12785E+02 2.05131E+01 0.00000E+00
 -1      4132 1.11285E+02 2.05131E+01 0.00000E+00
 -1      4133 3.39000E+01 2.79170E+01 0.00000E+00
 -1      4134 3.54000E+01 2.79170E+01 0.00000E+00
 -1      4135 3.69000E+01 2.79170E+01 0.00000E+00
 -1      4136 3.84000E+01 2.79170E+01 0.00000E+00
 -1      4137 3.61500E+01 2.66180E+01 0.00000E+00
 -1      4138 3.99000E+01 2.79170E+01 0.00000E+00
 -1      4139 4.14000E+01 2.79170E+01 0.00000E+00
 -1      4140 3.91500E+01 2.66180E+01 0.00000E+00
 -1      4141 4.29000E+01 2.79170E+01 0.00000E+00
 -1      4142 4.44000E+01 2.79170E+01 0.00000E+00
 -1      4143 4.21500E+01 2.66180E+01 0.00000E+00
 -1      4144 4.59000E+01 2.79170E+01 0.00000E+00
 -1      4145 4.74000E+01 2.79170E+01 0.00000E+00
 -1      4146 4.51500E+01 2.66180E+01 0.00000E+00
 -1      4147 4.89000E+01 2.79170E+01 0.00000E+00
 -1      4148 5.04000E+01 2.79170E+01 0.00000E+00
 -1      4149 4.81500E+01 2.66180E+01 0.00000E+00
 -1      4150 5.19000E+01 2.79170E+01 0.00000E+00
 -1      4151 5.34000E+01 2.79170E+01 0.00000E+00
 -1      4152 5.11500E+01 2.66180E+01 0.00000E+00
 -1      4153 3.32850E+01 1.82952E+01 0.00000E+00
 -1      4154 3.17850E+01 1.82952E+01 0.00000E+00
 -1      4155 3.10350E+01 1.95942E+01 0.00000E+00
 -1      4156 5.76194E+01 2.02268E+01 0.00000E+00
 -1      4157 2.79000E+01 2.79170E+01 0.00000E+00
 -1      4158 2.94000E+01 2.79170E+01 0.00000E+00
 -1      4159 1.03719E+02 2.78941E+01 0.00000E+00
 -1      4160 1.05219E+02 2.78941E+01 0.00000E+00
 -1      4161 1.06719E+02 2.78941E+01 0.00000E+00
 -1      4162 1.08219E+02 2.78941E+01 0.00000E+00
 -1      4163 1.05969E+02 2.65951E+01 0.00000E+00
 -1      4164 1.09719E+02 2.78941E+01 0.00000E+00
 -1      4165 1.11219E+02 2.78941E+01 0.00000E+00
 -1      4166 1.08969E+02 2.65951E+01 0.00000E+00
 -1      4167 1.12719E+02 2.78941E+01 0.00000E+00
 -1      4168 1.14219E+02 2.78941E+01 0.00000E+00
 -1      4169 1.11969E+02 2.65951E+01 0.00000E+00
 -1      4170 1.15719E+02 2.78941E+01 0.00000E+00
 -1      4171 1.17219E+02 2.78941E+01 0.00000E+00
 -1      4172 1.14969E+02 2.65951E+01 0.00000E+00
 -1      4173 1.18719E+02 2.78941E+01 0.00000E+00
 -1      4174 1.20219E+02 2.78941E+01 0.00000E+00
 -1      4175 1.17969E+02 2.65951E+01 0.00000E+00
 -1      4176 1.21719E+02 2.78941E+01 0.00000E+00
 -1      4177 1.23219E+02 2.78941E+01 0.00000E+00
 -1      4178 1.20969E+02 2.65951E+01 0.00000E+00
 -1      4179 1.24719E+02 2.78941E+01 0.00000E+00
 -1      4180 1.26219E+02 2.78941E+01 0.00000E+00
 -1      4181 1.23969E+02 2.65951E+01 0.00000E+00
 -1      4182 2.05842E+01 1.80089E+01 0.00000E+00
 -1      4183 1.29525E+02 1.97174E+01 0.00000E+00
 -1      4184 1.06785E+02 2.05131E+01 0.00000E+00
 -1      4185 1.05285E+02 2.05131E+01 0.00000E+00
 -1      4186 1.03785E+02 2.05131E+01 0.00000E+00
 -1      4187 1.02285E+02 2.05131E+01 0.00000E+00
 -1      4188 1.04535E+02 2.18121E+01 0.00000E+00
 -1      4189 1.15785E+02 2.05131E+01 0.00000E+00
 -1      4190 1.14285E+02 2.05131E+01 0.00000E+00
 -1      4191 1.13535E+02 2.18121E+01 0.00000E+00
 -1      4192 1.18785E+02 2.05131E+01 0.00000E+00
 -1      4193 1.17285E+02 2.05131E+01 0.00000E+00
 -1      4194 1.16535E+02 2.18121E+01 0.00000E+00
 -1      4195 1.21785E+02 2.05131E+01 0.00000E+00
 -1      4196 1.20285E+02 2.05131E+01 0.00000E+00
 -1      4197 1.19535E+02 2.18121E+01 0.00000E+00
 -1      4198 1.24785E+02 2.05131E+01 0.00000E+00
 -1      4199 1.23285E+02 2.05131E+01 0.00000E+00
 -1      4200 1.22535E+02 2.18121E+01 0.00000E+00
 -1      4201 1.94758E+01 2.12690E+01 0.00000E+00
 -1      4202 2.07748E+01 2.20049E+01 0.00000E+00
 -1      4203 2.57850E+01 2.08933E+01 0.00000E+00
 -1      4204 2.42851E+01 2.08933E+01 0.00000E+00
 -1      4205 5.70108E+01 2.10362E+01 0.00000E+00
 -1      4206 1.28250E+02 2.79083E+01 0.00000E+00
 -1      4207 1.00719E+02 2.78941E+01 0.00000E+00
 -1      4208 1.02219E+02 2.78941E+01 0.00000E+00
 -1      4209 1.02969E+02 2.65951E+01 0.00000E+00
 -1      4210 9.89732E+01 2.78571E+01 0.00000E+00
 -1      4211 3.70350E+01 1.95942E+01 0.00000E+00
 -1      4212 3.62850E+01 1.82952E+01 0.00000E+00
 -1      4213 3.47850E+01 1.82952E+01 0.00000E+00
 -1      4214 1.09785E+02 2.05131E+01 0.00000E+00
 -1      4215 1.08285E+02 2.05131E+01 0.00000E+00
 -1      4216 1.07535E+02 2.18121E+01 0.00000E+00
 -1      4217 1.10535E+02 2.18121E+01 0.00000E+00
 -1      4218 4.52850E+01 1.82952E+01 0.00000E+00
 -1      4219 4.37850E+01 1.82952E+01 0.00000E+00
 -1      4220 4.60350E+01 1.95942E+01 0.00000E+00
 -1      4221 5.55108E+01 2.10362E+01 0.00000E+00
 -1      4222 5.40108E+01 2.10362E+01 0.00000E+00
 -1      4223 5.59867E+01 2.24781E+01 0.00000E+00
 -1      4224 1.29990E+02 2.21246E+01 0.00000E+00
 -1      4225 1.29852E+02 2.08834E+01 0.00000E+00
 -1      4226 1.28112E+02 2.05561E+01 0.00000E+00
 -1      4227 1.28767E+02 2.28880E+01 0.00000E+00
 -1      4228 1.97676E+01 1.99139E+01 0.00000E+00
 -1      4229 5.25108E+01 2.10362E+01 0.00000E+00
 -1      4230 5.10108E+01 2.10362E+01 0.00000E+00
 -1      4231 5.29867E+01 2.24781E+01 0.00000E+00
 -1      4232 3.09000E+01 2.79170E+01 0.00000E+00
 -1      4233 3.24000E+01 2.79170E+01 0.00000E+00
 -1      4234 3.01500E+01 2.66180E+01 0.00000E+00
 -1      4235 2.15822E+01 1.86017E+01 0.00000E+00
 -1      4236 2.21504E+01 2.00505E+01 0.00000E+00
 -1      4237 2.32223E+01 2.12210E+01 0.00000E+00
 -1      4238 2.18376E+01 2.16772E+01 0.00000E+00
 -1      4239 2.18468E+01 2.31754E+01 0.00000E+00
 -1      4240 2.39723E+01 2.25200E+01 0.00000E+00
 -1      4241 3.31500E+01 2.66180E+01 0.00000E+00
 -1      4242 5.48029E+01 2.79050E+01 0.00000E+00
 -1      4243 5.62371E+01 2.78328E+01 0.00000E+00
 -1      4244 5.40529E+01 2.66060E+01 0.00000E+00
 -1      4245 5.72380E+01 2.48204E+01 0.00000E+00
 -1      4246 5.66834E+01 2.35308E+01 0.00000E+00
 -1      4247 5.51834E+01 2.35308E+01 0.00000E+00
 -1      4248 5.65768E+01 2.56363E+01 0.00000E+00
 -1      4249 2.21392E+01 2.43918E+01 0.00000E+00
 -1      4250 2.24317E+01 2.56082E+01 0.00000E+00
 -1      4251 2.32020E+01 2.40641E+01 0.00000E+00
 -1      4252 3.40350E+01 1.95942E+01 0.00000E+00
 -1      4253 9.97232E+01 2.65581E+01 0.00000E+00
 -1      4254 2.66010E+01 2.77052E+01 0.00000E+00
 -1      4255 2.73510E+01 2.64062E+01 0.00000E+00
 -1      4256 2.53019E+01 2.74934E+01 0.00000E+00
 -1      4257 2.27242E+01 2.68247E+01 0.00000E+00
 -1      4258 1.27500E+02 2.66093E+01 0.00000E+00
 -1      4259 2.72850E+01 2.08933E+01 0.00000E+00
 -1      4260 2.65351E+01 2.21923E+01 0.00000E+00
 -1      4261 2.87850E+01 2.08933E+01 0.00000E+00
 -1      4262 5.77605E+01 2.88901E+01 0.00000E+00
 -1      4263 1.25910E+02 2.06011E+01 0.00000E+00
 -1      4264 1.25160E+02 2.19001E+01 0.00000E+00
 -1      4265 1.27035E+02 2.06891E+01 0.00000E+00
 -1      4266 4.99867E+01 2.24781E+01 0.00000E+00
 -1      4267 4.95108E+01 2.10362E+01 0.00000E+00
 -1      4268 4.80108E+01 2.10362E+01 0.00000E+00
 -1      4269 2.40232E+01 2.70365E+01 0.00000E+00
 -1      4270 4.30350E+01 1.95942E+01 0.00000E+00
 -1      4271 4.07850E+01 2.08932E+01 0.00000E+00
 -1      4272 3.92850E+01 2.08932E+01 0.00000E+00
 -1      4273 1.00847E+02 2.04682E+01 0.00000E+00
 -1      4274 9.93487E+01 2.05088E+01 0.00000E+00
 -1      4275 9.87223E+01 2.16774E+01 0.00000E+00
 -1      4276 1.01597E+02 2.17672E+01 0.00000E+00
 -1      4277 5.63647E+01 2.66415E+01 0.00000E+00
 -1      4278 5.71460E+01 2.78803E+01 0.00000E+00
 -1      4279 3.77850E+01 2.08932E+01 0.00000E+00
 -1      4280 3.62850E+01 2.08932E+01 0.00000E+00
 -1      4281 3.85350E+01 2.21922E+01 0.00000E+00
 -1      4282 9.77043E+01 2.40417E+01 0.00000E+00
 -1      4283 9.86772E+01 2.53174E+01 0.00000E+00
 -1      4284 1.00423E+02 2.53545E+01 0.00000E+00
 -1      4285 9.83307E+01 2.28731E+01 0.00000E+00
 -1      4286 1.27282E+02 2.53246E+01 0.00000E+00
 -1      4287 1.25461E+02 2.53769E+01 0.00000E+00
 -1      4288 1.27274E+02 2.41063E+01 0.00000E+00
 -1      4289 1.26947E+02 2.29403E+01 0.00000E+00
 -1      4290 1.23961E+02 2.53769E+01 0.00000E+00
 -1      4291 3.17850E+01 2.08933E+01 0.00000E+00
 -1      4292 3.02850E+01 2.08933E+01 0.00000E+00
 -1      4293 2.95351E+01 2.21923E+01 0.00000E+00
 -1      4294 3.88425E+01 2.44051E+01 0.00000E+00
 -1      4295 4.03425E+01 2.44051E+01 0.00000E+00
 -1      4296 4.44000E+01 2.53190E+01 0.00000E+00
 -1      4297 4.59000E+01 2.53190E+01 0.00000E+00
 -1      4298 4.75683E+01 2.45480E+01 0.00000E+00
 -1      4299 4.90683E+01 2.45480E+01 0.00000E+00
 -1      4300 5.05683E+01 2.45480E+01 0.00000E+00
 -1      4301 5.20683E+01 2.45480E+01 0.00000E+00
 -1      4302 4.13138E+01 2.26492E+01 0.00000E+00
 -1      4303 4.16213E+01 2.48621E+01 0.00000E+00
 -1      4304 4.31213E+01 2.48621E+01 0.00000E+00
 -1      4305 4.20638E+01 2.13502E+01 0.00000E+00
 -1      4306 1.08219E+02 2.52961E+01 0.00000E+00
 -1      4307 1.09719E+02 2.52961E+01 0.00000E+00
 -1      4308 1.11252E+02 2.42036E+01 0.00000E+00
 -1      4309 1.12752E+02 2.42036E+01 0.00000E+00
 -1      4310 1.14252E+02 2.42036E+01 0.00000E+00
 -1      4311 1.15752E+02 2.42036E+01 0.00000E+00
 -1      4312 1.17252E+02 2.42036E+01 0.00000E+00
 -1      4313 1.18752E+02 2.42036E+01 0.00000E+00
 -1      4314 1.20252E+02 2.42036E+01 0.00000E+00
 -1      4315 1.21752E+02 2.42036E+01 0.00000E+00
 -1      4316 1.05285E+02 2.31111E+01 0.00000E+00
 -1      4317 1.03785E+02 2.31111E+01 0.00000E+00
 -1      4318 5.56680E+01 2.55888E+01 0.00000E+00
 -1      4319 4.63425E+01 2.18071E+01 0.00000E+00
 -1      4320 4.48425E+01 2.18071E+01 0.00000E+00
 -1      4321 3.24000E+01 2.53190E+01 0.00000E+00
 -1      4322 3.39000E+01 2.53190E+01 0.00000E+00
 -1      4323 2.47732E+01 2.57375E+01 0.00000E+00
 -1      4324 2.42265E+01 2.35205E+01 0.00000E+00
 -1      4325 2.45190E+01 2.47369E+01 0.00000E+00
 -1      4326 2.57977E+01 2.51939E+01 0.00000E+00
 -1      4327 2.52893E+01 2.31928E+01 0.00000E+00
 -1      4328 3.47850E+01 2.08933E+01 0.00000E+00
 -1      4329 3.32850E+01 2.08933E+01 0.00000E+00
 -1      4330 3.25350E+01 2.21923E+01 0.00000E+00
 -1      4331 3.55350E+01 2.21923E+01 0.00000E+00
 -1      4332 4.35638E+01 2.13502E+01 0.00000E+00
 -1      4333 1.03002E+02 2.55026E+01 0.00000E+00
 -1      4334 1.04502E+02 2.55026E+01 0.00000E+00
 -1      4335 1.06002E+02 2.55026E+01 0.00000E+00
 -1      4336 5.35683E+01 2.45480E+01 0.00000E+00
 -1      4337 2.98425E+01 2.44051E+01 0.00000E+00
 -1      4338 3.13425E+01 2.44051E+01 0.00000E+00
 -1      4339 3.58425E+01 2.44051E+01 0.00000E+00
 -1      4340 3.73425E+01 2.44051E+01 0.00000E+00
 -1      4341 5.42651E+01 2.56008E+01 0.00000E+00
 -1      4342 4.38713E+01 2.35631E+01 0.00000E+00
 -1      4343 4.68183E+01 2.32490E+01 0.00000E+00
 -1      4344 1.06752E+02 2.42036E+01 0.00000E+00
 -1      4345 1.10502E+02 2.29046E+01 0.00000E+00
 -1      4346 1.23245E+02 2.29853E+01 0.00000E+00
 -1      4347 1.01956E+02 2.42619E+01 0.00000E+00
 -1      4348 1.01206E+02 2.29629E+01 0.00000E+00
 -1      4349 1.07502E+02 2.29046E+01 0.00000E+00
 -1      4350 2.67893E+01 2.31928E+01 0.00000E+00
 -1      4351 1.27362E+02 2.18551E+01 0.00000E+00
 -1      4352 2.83425E+01 2.44051E+01 0.00000E+00
 -1      4353 3.20925E+01 2.31061E+01 0.00000E+00
 -1      4354 3.50925E+01 2.31061E+01 0.00000E+00
 -1      4355 1.09002E+02 2.29046E+01 0.00000E+00
 -1      4356 1.24745E+02 2.29853E+01 0.00000E+00
 -1      4357 9.97683E+01 2.29180E+01 0.00000E+00
 -1      4358 1.25870E+02 2.30733E+01 0.00000E+00
 -1      4359 2.70435E+01 2.41933E+01 0.00000E+00
 -1      4360 3.35925E+01 2.31061E+01 0.00000E+00
 -3
    3C                          2098                                     1
 -1       165    8    0    1
 -2         6         7        23      1132      1296      1149
 -1       166    8    0    1
 -2         7         8       165      1133      1297      1298
 -1       167    8    0    1
 -2         8         9       166      1134      1299      1300
 -1       168    8    0    1
 -2         8       166       165      1300      1301      1297
 -1       169    8    0    1
 -2         9        10       167      1135      1302      1303
 -1       170    8    0    1
 -2         9       167       166      1303      1304      1299
 -1       171    8    0    1
 -2        10        11       168      1136      1305      1306
 -1       172    8    0    1
 -2        10       168       167      1306      1307      1302
 -1       173    8    0    1
 -2        11        12       169      1137      1308      1309
 -1       174    8    0    1
 -2        11       169       168      1309      1310      1305
 -1       175    8    0    1
 -2        12        13       170      1138      1311      1312
 -1       176    8    0    1
 -2        12       170       169      1312      1313      1308
 -1       177    8    0    1
 -2        13        14       171      1139      1314      1315
 -1       178    8    0    1
 -2        13       171       170      1315      1316      1311
 -1       179    8    0    1
 -2        14        15       172      1140      1317      1318
 -1       180    8    0    1
 -2        14       172       171      1318      1319      1314
 -1       181    8    0    1
 -2        15        16       173      1141      1320      1321
 -1       182    8    0    1
 -2        15       173       172      1321      1322      1317
 -1       183    8    0    1
 -2        16        17       174      1142      1323      1324
 -1       184    8    0    1
 -2        16       174       173      1324      1325      1320
 -1       185    8    0    1
 -2        17        18       175      1143      1326      1327
 -1       186    8    0    1
 -2        17       175       174      1327      1328      1323
 -1       187    8    0    1
 -2        18        19       176      1144      1329      1330
 -1       188    8    0    1
 -2        18       176       175      1330      1331      1326
 -1       189    8    0    1
 -2        19        20       177      1145      1332      1333
 -1       190    8    0    1
 -2        19       177       176      1333      1334      1329
 -1       191    8    0    1
 -2        20        21       178      1146      1335      1336
 -1       192    8    0    1
 -2        20       178       177      1336      1337      1332
 -1       193    8    0    1
 -2        21        22       179      1147      1338      1339
 -1       194    8    0    1
 -2        21       179       178      1339      1340      1335
 -1       195    8    0    1
 -2        22         5       180      1148      1341      1342
 -1       196    8    0    1
 -2       179        22       180      1338      1342      1343
 -1       197    8    0    1
 -2         5        72       180      1199      1344      1341
 -1       198    8    0    1
 -2        24        23       181      1150      1345      1346
 -1       199    8    0    1
 -2        25        24       182      1151      1347      1348
 -1       200    8    0    1
 -2        24       181       182      1346      1349      1347
 -1       201    8    0    1
 -2        26        25       183      1152      1350      1351
 -1       202    8    0    1
 -2        25       182       183      1348      1352      1350
 -1       203    8    0    1
 -2        27        26       184      1153      1353      1354
 -1       204    8    0    1
 -2        26       183       184      1351      1355      1353
 -1       205    8    0    1
 -2        28        27       185      1154      1356      1357
 -1       206    8    0    1
 -2        27       184       185      1354      1358      1356
 -1       207    8    0    1
 -2        29        28       186      1155      1359      1360
 -1       208    8    0    1
 -2        28       185       186      1357      1361      1359
 -1       209    8    0    1
 -2        30        29       187      1156      1362      1363
 -1       210    8    0    1
 -2        29       186       187      1360      1364      1362
 -1       211    8    0    1
 -2        31        30       188      1157      1365      1366
 -1       212    8    0    1
 -2        30       187       188      1363      1367      1365
 -1       213    8    0    1
 -2        32        31       189      1158      1368      1369
 -1       214    8    0    1
 -2        31       188       189      1366      1370      1368
 -1       215    8    0    1
 -2        33        32       190      1159      1371      1372
 -1       216    8    0    1
 -2        32       189       190      1369      1373      1371
 -1       217    8    0    1
 -2        34        33       191      1160      1374      1375
 -1       218    8    0    1
 -2        33       190       191      1372      1376      1374
 -1       219    8    0    1
 -2        35        34       192      1161      1377      1378
 -1       220    8    0    1
 -2        34       191       192      1375      1379      1377
 -1       221    8    0    1
 -2        36        35       193      1162      1380      1381
 -1       222    8    0    1
 -2        35       192       193      1378      1382      1380
 -1       223    8    0    1
 -2        37        36       194      1163      1383      1384
 -1       224    8    0    1
 -2        36       193       194      1381      1385      1383
 -1       225    8    0    1
 -2        38        37       195      1164      1386      1387
 -1       226    8    0    1
 -2        37       194       195      1384      1388      1386
 -1       227    8    0    1
 -2        39        38       196      1165      1389      1390
 -1       228    8    0    1
 -2        38       195       196      1387      1391      1389
 -1       229    8    0    1
 -2        40        39       197      1166      1392      1393
 -1       230    8    0    1
 -2        39       196       197      1390      1394      1392
 -1       231    8    0    1
 -2        41        40       198      1167      1395      1396
 -1       232    8    0    1
 -2        40       197       198      1393      1397      1395
 -1       233    8    0    1
 -2        42        41       199      1168      1398      1399
 -1       234    8    0    1
 -2        41       198       199      1396      1400      1398
 -1       235    8    0    1
 -2        43        42       200      1169      1401      1402
 -1       236    8    0    1
 -2        42       199       200      1399      1403      1401
 -1       237    8    0    1
 -2        44        43       201      1170      1404      1405
 -1       238    8    0    1
 -2        43       200       201      1402      1406      1404
 -1       239    8    0    1
 -2        45        44       202      1171      1407      1408
 -1       240    8    0    1
 -2        44       201       202      1405      1409      1407
 -1       241    8    0    1
 -2        46        45       203      1172      1410      1411
 -1       242    8    0    1
 -2        45       202       203      1408      1412      1410
 -1       243    8    0    1
 -2        47        46       204      1173      1413      1414
 -1       244    8    0    1
 -2        46       203       204      1411      1415      1413
 -1       245    8    0    1
 -2        48        47       205      1174      1416      1417
 -1       246    8    0    1
 -2        47       204       205      1414      1418      1416
 -1       247    8    0    1
 -2        49        48       206      1175      1419      1420
 -1       248    8    0    1
 -2        48       205       206      1417      1421      1419
 -1       249    8    0    1
 -2        50        49       207      1176      1422      1423
 -1       250    8    0    1
 -2        49       206       207      1420      1424      1422
 -1       251    8    0    1
 -2        51        50       208      1177      1425      1426
 -1       252    8    0    1
 -2        50       207       208      1423      1427      1425
 -1       253    8    0    1
 -2        52        51       209      1178      1428      1429
 -1       254    8    0    1
 -2        51       208       209      1426      1430      1428
 -1       255    8    0    1
 -2        53        52       210      1179      1431      1432
 -1       256    8    0    1
 -2        52       209       210      1429      1433      1431
 -1       257    8    0    1
 -2        54        53       211      1180      1434      1435
 -1       258    8    0    1
 -2        53       210       211      1432      1436      1434
 -1       259    8    0    1
 -2        55        54       212      1181      1437      1438
 -1       260    8    0    1
 -2        54       211       212      1435      1439      1437
 -1       261    8    0    1
 -2        56        55       213      1182      1440      1441
 -1       262    8    0    1
 -2        55       212       213      1438      1442      1440
 -1       263    8    0    1
 -2        57        56       214      1183      1443      1444
 -1       264    8    0    1
 -2        56       213       214      1441      1445      1443
 -1       265    8    0    1
 -2        58        57       215      1184      1446      1447
 -1       266    8    0    1
 -2        57       214       215      1444      1448      1446
 -1       267    8    0    1
 -2        59        58       216      1185      1449      1450
 -1       268    8    0    1
 -2        58       215       216      1447      1451      1449
 -1       269    8    0    1
 -2        60        59       217      1186      1452      1453
 -1       270    8    0    1
 -2        59       216       217      1450      1454      1452
 -1       271    8    0    1
 -2        61        60       218      1187      1455      1456
 -1       272    8    0    1
 -2        60       217       218      1453      1457      1455
 -1       273    8    0    1
 -2        62        61       219      1188      1458      1459
 -1       274    8    0    1
 -2        61       218       219      1456      1460      1458
 -1       275    8    0    1
 -2        63        62       220      1189      1461      1462
 -1       276    8    0    1
 -2        62       219       220      1459      1463      1461
 -1       277    8    0    1
 -2        64        63       221      1190      1464      1465
 -1       278    8    0    1
 -2        63       220       221      1462      1466      1464
 -1       279    8    0    1
 -2        65        64       222      1191      1467      1468
 -1       280    8    0    1
 -2        64       221       222      1465      1469      1467
 -1       281    8    0    1
 -2        66        65       223      1192      1470      1471
 -1       282    8    0    1
 -2        65       222       223      1468      1472      1470
 -1       283    8    0    1
 -2        67        66       224      1193      1473      1474
 -1       284    8    0    1
 -2        66       223       224      1471      1475      1473
 -1       285    8    0    1
 -2        68        67       225      1194      1476      1477
 -1       286    8    0    1
 -2        67       224       225      1474      1478      1476
 -1       287    8    0    1
 -2        69        68       226      1195      1479      1480
 -1       288    8    0    1
 -2        68       225       226      1477      1481      1479
 -1       289    8    0    1
 -2        70        69       227      1196      1482      1483
 -1       290    8    0    1
 -2        69       226       227      1480      1484      1482
 -1       291    8    0    1
 -2        71        70       228      1197      1485      1486
 -1       292    8    0    1
 -2        70       227       228      1483      1487      1485
 -1       293    8    0    1
 -2         4        71       136      1198      1488      1265
 -1       294    8    0    1
 -2       136        71       228      1488      1486      1489
 -1       295    8    0    1
 -2        72        73       229      1200      1490      1491
 -1       296    8    0    1
 -2        72       229       180      1491      1492      1344
 -1       297    8    0    1
 -2        73        74       230      1201      1493      1494
 -1       298    8    0    1
 -2        73       230       229      1494      1495      1490
 -1       299    8    0    1
 -2        74        75       231      1202      1496      1497
 -1       300    8    0    1
 -2        74       231       230      1497      1498      1493
 -1       301    8    0    1
 -2        75        76       232      1203      1499      1500
 -1       302    8    0    1
 -2        75       232       231      1500      1501      1496
 -1       303    8    0    1
 -2        76        77       233      1204      1502      1503
 -1       304    8    0    1
 -2        76       233       232      1503      1504      1499
 -1       305    8    0    1
 -2        77        78       234      1205      1505      1506
 -1       306    8    0    1
 -2        77       234       233      1506      1507      1502
 -1       307    8    0    1
 -2        78        79       235      1206      1508      1509
 -1       308    8    0    1
 -2        78       235       234      1509      1510      1505
 -1       309    8    0    1
 -2        79        80       236      1207      1511      1512
 -1       310    8    0    1
 -2        79       236       235      1512      1513      1508
 -1       311    8    0    1
 -2        80        81       237      1208      1514      1515
 -1       312    8    0    1
 -2        80       237       236      1515      1516      1511
 -1       313    8    0    1
 -2        81        82       238      1209      1517      1518
 -1       314    8    0    1
 -2        81       238       237      1518      1519      1514
 -1       315    8    0    1
 -2        82        83       239      1210      1520      1521
 -1       316    8    0    1
 -2        82       239       238      1521      1522      1517
 -1       317    8    0    1
 -2        83        84       240      1211      1523      1524
 -1       318    8    0    1
 -2        83       240       239      1524      1525      1520
 -1       319    8    0    1
 -2        84        85       241      1212      1526      1527
 -1       320    8    0    1
 -2        84       241       240      1527      1528      1523
 -1       321    8    0    1
 -2        85        86       242      1213      1529      1530
 -1       322    8    0    1
 -2        85       242       241      1530      1531      1526
 -1       323    8    0    1
 -2        86        87       243      1214      1532      1533
 -1       324    8    0    1
 -2        86       243       242      1533      1534      1529
 -1       325    8    0    1
 -2        87        88       244      1215      1535      1536
 -1       326    8    0    1
 -2        87       244       243      1536      1537      1532
 -1       327    8    0    1
 -2        88        89       245      1216      1538      1539
 -1       328    8    0    1
 -2        88       245       244      1539      1540      1535
 -1       329    8    0    1
 -2        89        90       246      1217      1541      1542
 -1       330    8    0    1
 -2        89       246       245      1542      1543      1538
 -1       331    8    0    1
 -2        90        91       247      1218      1544      1545
 -1       332    8    0    1
 -2        90       247       246      1545      1546      1541
 -1       333    8    0    1
 -2        91        92       248      1219      1547      1548
 -1       334    8    0    1
 -2        91       248       247      1548      1549      1544
 -1       335    8    0    1
 -2        92        93       249      1220      1550      1551
 -1       336    8    0    1
 -2        92       249       248      1551      1552      1547
 -1       337    8    0    1
 -2        93        94       250      1221      1553      1554
 -1       338    8    0    1
 -2        93       250       249      1554      1555      1550
 -1       339    8    0    1
 -2        94        95       251      1222      1556      1557
 -1       340    8    0    1
 -2        94       251       250      1557      1558      1553
 -1       341    8    0    1
 -2        95        96       252      1223      1559      1560
 -1       342    8    0    1
 -2        95       252       251      1560      1561      1556
 -1       343    8    0    1
 -2        96        97       253      1224      1562      1563
 -1       344    8    0    1
 -2        96       253       252      1563      1564      1559
 -1       345    8    0    1
 -2        97        98       254      1225      1565      1566
 -1       346    8    0    1
 -2        97       254       253      1566      1567      1562
 -1       347    8    0    1
 -2        98        99       255      1226      1568      1569
 -1       348    8    0    1
 -2        98       255       254      1569      1570      1565
 -1       349    8    0    1
 -2        99       100       256      1227      1571      1572
 -1       350    8    0    1
 -2        99       256       255      1572      1573      1568
 -1       351    8    0    1
 -2       100       101       257      1228      1574      1575
 -1       352    8    0    1
 -2       100       257       256      1575      1576      1571
 -1       353    8    0    1
 -2       101       102       258      1229      1577      1578
 -1       354    8    0    1
 -2       101       258       257      1578      1579      1574
 -1       355    8    0    1
 -2       102       103       259      1230      1580      1581
 -1       356    8    0    1
 -2       102       259       258      1581      1582      1577
 -1       357    8    0    1
 -2       103       104       260      1231      1583      1584
 -1       358    8    0    1
 -2       103       260       259      1584      1585      1580
 -1       359    8    0    1
 -2       104       105       261      1232      1586      1587
 -1       360    8    0    1
 -2       104       261       260      1587      1588      1583
 -1       361    8    0    1
 -2       105       106       262      1233      1589      1590
 -1       362    8    0    1
 -2       105       262       261      1590      1591      1586
 -1       363    8    0    1
 -2       106       107       263      1234      1592      1593
 -1       364    8    0    1
 -2       106       263       262      1593      1594      1589
 -1       365    8    0    1
 -2       107       108       264      1235      1595      1596
 -1       366    8    0    1
 -2       107       264       263      1596      1597      1592
 -1       367    8    0    1
 -2       108       109       265      1236      1598      1599
 -1       368    8    0    1
 -2       108       265       264      1599      1600      1595
 -1       369    8    0    1
 -2       109       110       266      1237      1601      1602
 -1       370    8    0    1
 -2       109       266       265      1602      1603      1598
 -1       371    8    0    1
 -2       110       111       267      1238      1604      1605
 -1       372    8    0    1
 -2       110       267       266      1605      1606      1601
 -1       373    8    0    1
 -2       111       112       268      1239      1607      1608
 -1       374    8    0    1
 -2       111       268       267      1608      1609      1604
 -1       375    8    0    1
 -2       112       113       269      1240      1610      1611
 -1       376    8    0    1
 -2       112       269       268      1611      1612      1607
 -1       377    8    0    1
 -2       113       114       270      1241      1613      1614
 -1       378    8    0    1
 -2       113       270       269      1614      1615      1610
 -1       379    8    0    1
 -2       114       115       271      1242      1616      1617
 -1       380    8    0    1
 -2       114       271       270      1617      1618      1613
 -1       381    8    0    1
 -2       115       116       272      1243      1619      1620
 -1       382    8    0    1
 -2       115       272       271      1620      1621      1616
 -1       383    8    0    1
 -2       116       117       273      1244      1622      1623
 -1       384    8    0    1
 -2       116       273       272      1623      1624      1619
 -1       385    8    0    1
 -2       117       118       274      1245      1625      1626
 -1       386    8    0    1
 -2       117       274       273      1626      1627      1622
 -1       387    8    0    1
 -2       118       119       275      1246      1628      1629
 -1       388    8    0    1
 -2       118       275       274      1629      1630      1625
 -1       389    8    0    1
 -2       119       120       276      1247      1631      1632
 -1       390    8    0    1
 -2       119       276       275      1632      1633      1628
 -1       391    8    0    1
 -2       120         3       121      1248      1249      1634
 -1       392    8    0    1
 -2       121       122       277      1250      1635      1636
 -1       393    8    0    1
 -2       122       123       278      1251      1637      1638
 -1       394    8    0    1
 -2       122       278       277      1638      1639      1635
 -1       395    8    0    1
 -2       123       124       279      1252      1640      1641
 -1       396    8    0    1
 -2       123       279       278      1641      1642      1637
 -1       397    8    0    1
 -2       124       125       280      1253      1643      1644
 -1       398    8    0    1
 -2       124       280       279      1644      1645      1640
 -1       399    8    0    1
 -2       125       126       281      1254      1646      1647
 -1       400    8    0    1
 -2       125       281       280      1647      1648      1643
 -1       401    8    0    1
 -2       126       127       282      1255      1649      1650
 -1       402    8    0    1
 -2       126       282       281      1650      1651      1646
 -1       403    8    0    1
 -2       127       128       283      1256      1652      1653
 -1       404    8    0    1
 -2       127       283       282      1653      1654      1649
 -1       405    8    0    1
 -2       128       129       284      1257      1655      1656
 -1       406    8    0    1
 -2       128       284       283      1656      1657      1652
 -1       407    8    0    1
 -2       129       130       285      1258      1658      1659
 -1       408    8    0    1
 -2       129       285       284      1659      1660      1655
 -1       409    8    0    1
 -2       130       131       286      1259      1661      1662
 -1       410    8    0    1
 -2       130       286       285      1662      1663      1658
 -1       411    8    0    1
 -2       131       132       287      1260      1664      1665
 -1       412    8    0    1
 -2       131       287       286      1665      1666      1661
 -1       413    8    0    1
 -2       132       133       288      1261      1667      1668
 -1       414    8    0    1
 -2       132       288       287      1668      1669      1664
 -1       415    8    0    1
 -2       133       134       289      1262      1670      1671
 -1       416    8    0    1
 -2       133       289       288      1671      1672      1667
 -1       417    8    0    1
 -2       134       135       290      1263      1673      1674
 -1       418    8    0    1
 -2       134       290       289      1674      1675      1670
 -1       419    8    0    1
 -2       135       136       291      1264      1676      1677
 -1       420    8    0    1
 -2       290       135       291      1673      1677      1678
 -1       421    8    0    1
 -2       136       228       291      1489      1679      1676
 -1       422    8    0    1
 -2         2       137       292      1266      1680      1681
 -1       423    8    0    1
 -2       137       138       293      1267      1682      1683
 -1       424    8    0    1
 -2       138       139       294      1268      1684      1685
 -1       425    8    0    1
 -2       139       140       295      1269      1686      1687
 -1       426    8    0    1
 -2       140       141       296      1270      1688      1689
 -1       427    8    0    1
 -2       141       142       297      1271      1690      1691
 -1       428    8    0    1
 -2       142       143       298      1272      1692      1693
 -1       429    8    0    1
 -2       143       144       299      1273      1694      1695
 -1       430    8    0    1
 -2       144       145       300      1274      1696      1697
 -1       431    8    0    1
 -2       145       146       301      1275      1698      1699
 -1       432    8    0    1
 -2       146       147       302      1276      1700      1701
 -1       433    8    0    1
 -2       147       148       303      1277      1702      1703
 -1       434    8    0    1
 -2       148       149       304      1278      1704      1705
 -1       435    8    0    1
 -2       149       150       305      1279      1706      1707
 -1       436    8    0    1
 -2       150       151       306      1280      1708      1709
 -1       437    8    0    1
 -2       151       152       307      1281      1710      1711
 -1       438    8    0    1
 -2       152         1       308      1282      1712      1713
 -1       439    8    0    1
 -2         1       153       309      1283      1714      1715
 -1       440    8    0    1
 -2       153       154       310      1284      1716      1717
 -1       441    8    0    1
 -2       154       155       311      1285      1718      1719
 -1       442    8    0    1
 -2       155       156       312      1286      1720      1721
 -1       443    8    0    1
 -2       156       157       313      1287      1722      1723
 -1       444    8    0    1
 -2       157       158       314      1288      1724      1725
 -1       445    8    0    1
 -2       158       159       315      1289      1726      1727
 -1       446    8    0    1
 -2       159       160       316      1290      1728      1729
 -1       447    8    0    1
 -2       160       161       317      1291      1730      1731
 -1       448    8    0    1
 -2       161       162       318      1292      1732      1733
 -1       449    8    0    1
 -2       162       163       319      1293      1734      1735
 -1       450    8    0    1
 -2       163       164       320      1294      1736      1737
 -1       451    8    0    1
 -2       164         2       321      1295      1738      1739
 -1       452    8    0    1
 -2       295       140       296      1686      1689      1740
 -1       453    8    0    1
 -2       294       139       295      1684      1687      1741
 -1       454    8    0    1
 -2       120       121       276      1634      1742      1631
 -1       455    8    0    1
 -2       121       277       276      1636      1743      1742
 -1       456    8    0    1
 -2       292       137       293      1680      1683      1744
 -1       457    8    0    1
 -2       293       138       294      1682      1685      1745
 -1       458    8    0    1
 -2         2       292       321      1681      1746      1738
 -1       459    8    0    1
 -2       141       297       296      1691      1747      1688
 -1       460    8    0    1
 -2       142       298       297      1693      1748      1690
 -1       461    8    0    1
 -2       143       299       298      1695      1749      1692
 -1       462    8    0    1
 -2       144       300       299      1697      1750      1694
 -1       463    8    0    1
 -2       145       301       300      1699      1751      1696
 -1       464    8    0    1
 -2       146       302       301      1701      1752      1698
 -1       465    8    0    1
 -2       147       303       302      1703      1753      1700
 -1       466    8    0    1
 -2       148       304       303      1705      1754      1702
 -1       467    8    0    1
 -2       149       305       304      1707      1755      1704
 -1       468    8    0    1
 -2       150       306       305      1709      1756      1706
 -1       469    8    0    1
 -2       151       307       306      1711      1757      1708
 -1       470    8    0    1
 -2       152       308       307      1713      1758      1710
 -1       471    8    0    1
 -2         1       309       308      1715      1759      1712
 -1       472    8    0    1
 -2       153       310       309      1717      1760      1714
 -1       473    8    0    1
 -2       154       311       310      1719      1761      1716
 -1       474    8    0    1
 -2       155       312       311      1721      1762      1718
 -1       475    8    0    1
 -2       156       313       312      1723      1763      1720
 -1       476    8    0    1
 -2       157       314       313      1725      1764      1722
 -1       477    8    0    1
 -2       158       315       314      1727      1765      1724
 -1       478    8    0    1
 -2       159       316       315      1729      1766      1726
 -1       479    8    0    1
 -2       160       317       316      1731      1767      1728
 -1       480    8    0    1
 -2       161       318       317      1733      1768      1730
 -1       481    8    0    1
 -2       162       319       318      1735      1769      1732
 -1       482    8    0    1
 -2       163       320       319      1737      1770      1734
 -1       483    8    0    1
 -2       164       321       320      1739      1771      1736
 -1       484    8    0    1
 -2        23         7       165      1296      1298      1772
 -1       485    8    0    1
 -2       166       167       322      1304      1773      1774
 -1       486    8    0    1
 -2       165       166       323      1301      1775      1776
 -1       487    8    0    1
 -2       166       322       323      1774      1777      1775
 -1       488    8    0    1
 -2       168       169       324      1310      1778      1779
 -1       489    8    0    1
 -2       169       170       325      1313      1780      1781
 -1       490    8    0    1
 -2       169       325       324      1781      1782      1778
 -1       491    8    0    1
 -2       170       171       326      1316      1783      1784
 -1       492    8    0    1
 -2       170       326       325      1784      1785      1780
 -1       493    8    0    1
 -2       171       172       327      1319      1786      1787
 -1       494    8    0    1
 -2       171       327       326      1787      1788      1783
 -1       495    8    0    1
 -2       172       173       328      1322      1789      1790
 -1       496    8    0    1
 -2       172       328       327      1790      1791      1786
 -1       497    8    0    1
 -2       173       174       329      1325      1792      1793
 -1       498    8    0    1
 -2       173       329       328      1793      1794      1789
 -1       499    8    0    1
 -2       174       175       330      1328      1795      1796
 -1       500    8    0    1
 -2       174       330       329      1796      1797      1792
 -1       501    8    0    1
 -2       175       176       331      1331      1798      1799
 -1       502    8    0    1
 -2       175       331       330      1799      1800      1795
 -1       503    8    0    1
 -2       176       177       332      1334      1801      1802
 -1       504    8    0    1
 -2       176       332       331      1802      1803      1798
 -1       505    8    0    1
 -2       177       178       333      1337      1804      1805
 -1       506    8    0    1
 -2       177       333       332      1805      1806      1801
 -1       507    8    0    1
 -2       178       179       334      1340      1807      1808
 -1       508    8    0    1
 -2       178       334       333      1808      1809      1804
 -1       509    8    0    1
 -2       179       180       335      1343      1810      1811
 -1       510    8    0    1
 -2       334       179       335      1807      1811      1812
 -1       511    8    0    1
 -2       180       229       335      1492      1813      1810
 -1       512    8    0    1
 -2       181        23       165      1345      1772      1814
 -1       513    8    0    1
 -2       229       230       336      1495      1815      1816
 -1       514    8    0    1
 -2       229       336       335      1816      1817      1813
 -1       515    8    0    1
 -2       181       165       323      1814      1776      1818
 -1       516    8    0    1
 -2       183       182       337      1352      1819      1820
 -1       517    8    0    1
 -2       184       183       338      1355      1821      1822
 -1       518    8    0    1
 -2       183       337       338      1820      1823      1821
 -1       519    8    0    1
 -2       185       184       339      1358      1824      1825
 -1       520    8    0    1
 -2       184       338       339      1822      1826      1824
 -1       521    8    0    1
 -2       186       185       340      1361      1827      1828
 -1       522    8    0    1
 -2       185       339       340      1825      1829      1827
 -1       523    8    0    1
 -2       187       186       341      1364      1830      1831
 -1       524    8    0    1
 -2       186       340       341      1828      1832      1830
 -1       525    8    0    1
 -2       188       187       342      1367      1833      1834
 -1       526    8    0    1
 -2       187       341       342      1831      1835      1833
 -1       527    8    0    1
 -2       189       188       343      1370      1836      1837
 -1       528    8    0    1
 -2       188       342       343      1834      1838      1836
 -1       529    8    0    1
 -2       190       189       344      1373      1839      1840
 -1       530    8    0    1
 -2       189       343       344      1837      1841      1839
 -1       531    8    0    1
 -2       191       190       345      1376      1842      1843
 -1       532    8    0    1
 -2       190       344       345      1840      1844      1842
 -1       533    8    0    1
 -2       192       191       346      1379      1845      1846
 -1       534    8    0    1
 -2       191       345       346      1843      1847      1845
 -1       535    8    0    1
 -2       193       192       347      1382      1848      1849
 -1       536    8    0    1
 -2       192       346       347      1846      1850      1848
 -1       537    8    0    1
 -2       194       193       348      1385      1851      1852
 -1       538    8    0    1
 -2       193       347       348      1849      1853      1851
 -1       539    8    0    1
 -2       195       194       349      1388      1854      1855
 -1       540    8    0    1
 -2       194       348       349      1852      1856      1854
 -1       541    8    0    1
 -2       196       195       350      1391      1857      1858
 -1       542    8    0    1
 -2       195       349       350      1855      1859      1857
 -1       543    8    0    1
 -2       197       196       351      1394      1860      1861
 -1       544    8    0    1
 -2       196       350       351      1858      1862      1860
 -1       545    8    0    1
 -2       198       197       352      1397      1863      1864
 -1       546    8    0    1
 -2       197       351       352      1861      1865      1863
 -1       547    8    0    1
 -2       199       198       353      1400      1866      1867
 -1       548    8    0    1
 -2       198       352       353      1864      1868      1866
 -1       549    8    0    1
 -2       200       199       354      1403      1869      1870
 -1       550    8    0    1
 -2       199       353       354      1867      1871      1869
 -1       551    8    0    1
 -2       201       200       355      1406      1872      1873
 -1       552    8    0    1
 -2       200       354       355      1870      1874      1872
 -1       553    8    0    1
 -2       202       201       356      1409      1875      1876
 -1       554    8    0    1
 -2       201       355       356      1873      1877      1875
 -1       555    8    0    1
 -2       203       202       357      1412      1878      1879
 -1       556    8    0    1
 -2       202       356       357      1876      1880      1878
 -1       557    8    0    1
 -2       204       203       358      1415      1881      1882
 -1       558    8    0    1
 -2       203       357       358      1879      1883      1881
 -1       559    8    0    1
 -2       205       204       359      1418      1884      1885
 -1       560    8    0    1
 -2       204       358       359      1882      1886      1884
 -1       561    8    0    1
 -2       206       205       360      1421      1887      1888
 -1       562    8    0    1
 -2       205       359       360      1885      1889      1887
 -1       563    8    0    1
 -2       207       206       361      1424      1890      1891
 -1       564    8    0    1
 -2       206       360       361      1888      1892      1890
 -1       565    8    0    1
 -2       208       207       362      1427      1893      1894
 -1       566    8    0    1
 -2       207       361       362      1891      1895      1893
 -1       567    8    0    1
 -2       209       208       363      1430      1896      1897
 -1       568    8    0    1
 -2       208       362       363      1894      1898      1896
 -1       569    8    0    1
 -2       210       209       364      1433      1899      1900
 -1       570    8    0    1
 -2       209       363       364      1897      1901      1899
 -1       571    8    0    1
 -2       211       210       365      1436      1902      1903
 -1       572    8    0    1
 -2       210       364       365      1900      1904      1902
 -1       573    8    0    1
 -2       212       211       366      1439      1905      1906
 -1       574    8    0    1
 -2       211       365       366      1903      1907      1905
 -1       575    8    0    1
 -2       213       212       367      1442      1908      1909
 -1       576    8    0    1
 -2       212       366       367      1906      1910      1908
 -1       577    8    0    1
 -2       214       213       368      1445      1911      1912
 -1       578    8    0    1
 -2       213       367       368      1909      1913      1911
 -1       579    8    0    1
 -2       215       214       369      1448      1914      1915
 -1       580    8    0    1
 -2       214       368       369      1912      1916      1914
 -1       581    8    0    1
 -2       216       215       370      1451      1917      1918
 -1       582    8    0    1
 -2       215       369       370      1915      1919      1917
 -1       583    8    0    1
 -2       217       216       371      1454      1920      1921
 -1       584    8    0    1
 -2       216       370       371      1918      1922      1920
 -1       585    8    0    1
 -2       218       217       372      1457      1923      1924
 -1       586    8    0    1
 -2       217       371       372      1921      1925      1923
 -1       587    8    0    1
 -2       219       218       373      1460      1926      1927
 -1       588    8    0    1
 -2       218       372       373      1924      1928      1926
 -1       589    8    0    1
 -2       220       219       374      1463      1929      1930
 -1       590    8    0    1
 -2       219       373       374      1927      1931      1929
 -1       591    8    0    1
 -2       221       220       375      1466      1932      1933
 -1       592    8    0    1
 -2       220       374       375      1930      1934      1932
 -1       593    8    0    1
 -2       222       221       376      1469      1935      1936
 -1       594    8    0    1
 -2       221       375       376      1933      1937      1935
 -1       595    8    0    1
 -2       223       222       377      1472      1938      1939
 -1       596    8    0    1
 -2       222       376       377      1936      1940      1938
 -1       597    8    0    1
 -2       224       223       378      1475      1941      1942
 -1       598    8    0    1
 -2       223       377       378      1939      1943      1941
 -1       599    8    0    1
 -2       225       224       379      1478      1944      1945
 -1       600    8    0    1
 -2       224       378       379      1942      1946      1944
 -1       601    8    0    1
 -2       226       225       380      1481      1947      1948
 -1       602    8    0    1
 -2       225       379       380      1945      1949      1947
 -1       603    8    0    1
 -2       227       226       381      1484      1950      1951
 -1       604    8    0    1
 -2       226       380       381      1948      1952      1950
 -1       605    8    0    1
 -2       228       227       382      1487      1953      1954
 -1       606    8    0    1
 -2       291       228       382      1679      1954      1955
 -1       607    8    0    1
 -2       227       381       382      1951      1956      1953
 -1       608    8    0    1
 -2       230       231       383      1498      1957      1958
 -1       609    8    0    1
 -2       230       383       336      1958      1959      1815
 -1       610    8    0    1
 -2       231       232       384      1501      1960      1961
 -1       611    8    0    1
 -2       231       384       383      1961      1962      1957
 -1       612    8    0    1
 -2       232       233       385      1504      1963      1964
 -1       613    8    0    1
 -2       232       385       384      1964      1965      1960
 -1       614    8    0    1
 -2       233       234       386      1507      1966      1967
 -1       615    8    0    1
 -2       233       386       385      1967      1968      1963
 -1       616    8    0    1
 -2       234       235       387      1510      1969      1970
 -1       617    8    0    1
 -2       234       387       386      1970      1971      1966
 -1       618    8    0    1
 -2       235       236       388      1513      1972      1973
 -1       619    8    0    1
 -2       235       388       387      1973      1974      1969
 -1       620    8    0    1
 -2       236       237       389      1516      1975      1976
 -1       621    8    0    1
 -2       236       389       388      1976      1977      1972
 -1       622    8    0    1
 -2       237       238       390      1519      1978      1979
 -1       623    8    0    1
 -2       237       390       389      1979      1980      1975
 -1       624    8    0    1
 -2       238       239       391      1522      1981      1982
 -1       625    8    0    1
 -2       238       391       390      1982      1983      1978
 -1       626    8    0    1
 -2       239       240       392      1525      1984      1985
 -1       627    8    0    1
 -2       239       392       391      1985      1986      1981
 -1       628    8    0    1
 -2       240       241       393      1528      1987      1988
 -1       629    8    0    1
 -2       240       393       392      1988      1989      1984
 -1       630    8    0    1
 -2       241       242       394      1531      1990      1991
 -1       631    8    0    1
 -2       241       394       393      1991      1992      1987
 -1       632    8    0    1
 -2       242       243       395      1534      1993      1994
 -1       633    8    0    1
 -2       242       395       394      1994      1995      1990
 -1       634    8    0    1
 -2       243       244       396      1537      1996      1997
 -1       635    8    0    1
 -2       243       396       395      1997      1998      1993
 -1       636    8    0    1
 -2       244       245       397      1540      1999      2000
 -1       637    8    0    1
 -2       244       397       396      2000      2001      1996
 -1       638    8    0    1
 -2       245       246       398      1543      2002      2003
 -1       639    8    0    1
 -2       245       398       397      2003      2004      1999
 -1       640    8    0    1
 -2       246       247       399      1546      2005      2006
 -1       641    8    0    1
 -2       246       399       398      2006      2007      2002
 -1       642    8    0    1
 -2       247       248       400      1549      2008      2009
 -1       643    8    0    1
 -2       247       400       399      2009      2010      2005
 -1       644    8    0    1
 -2       248       249       401      1552      2011      2012
 -1       645    8    0    1
 -2       248       401       400      2012      2013      2008
 -1       646    8    0    1
 -2       249       250       402      1555      2014      2015
 -1       647    8    0    1
 -2       249       402       401      2015      2016      2011
 -1       648    8    0    1
 -2       250       251       403      1558      2017      2018
 -1       649    8    0    1
 -2       250       403       402      2018      2019      2014
 -1       650    8    0    1
 -2       251       252       404      1561      2020      2021
 -1       651    8    0    1
 -2       251       404       403      2021      2022      2017
 -1       652    8    0    1
 -2       252       253       405      1564      2023      2024
 -1       653    8    0    1
 -2       252       405       404      2024      2025      2020
 -1       654    8    0    1
 -2       253       254       406      1567      2026      2027
 -1       655    8    0    1
 -2       253       406       405      2027      2028      2023
 -1       656    8    0    1
 -2       254       255       407      1570      2029      2030
 -1       657    8    0    1
 -2       254       407       406      2030      2031      2026
 -1       658    8    0    1
 -2       255       256       408      1573      2032      2033
 -1       659    8    0    1
 -2       255       408       407      2033      2034      2029
 -1       660    8    0    1
 -2       256       257       409      1576      2035      2036
 -1       661    8    0    1
 -2       256       409       408      2036      2037      2032
 -1       662    8    0    1
 -2       257       258       410      1579      2038      2039
 -1       663    8    0    1
 -2       257       410       409      2039      2040      2035
 -1       664    8    0    1
 -2       258       259       411      1582      2041      2042
 -1       665    8    0    1
 -2       258       411       410      2042      2043      2038
 -1       666    8    0    1
 -2       259       260       412      1585      2044      2045
 -1       667    8    0    1
 -2       259       412       411      2045      2046      2041
 -1       668    8    0    1
 -2       260       261       413      1588      2047      2048
 -1       669    8    0    1
 -2       260       413       412      2048      2049      2044
 -1       670    8    0    1
 -2       261       262       414      1591      2050      2051
 -1       671    8    0    1
 -2       261       414       413      2051      2052      2047
 -1       672    8    0    1
 -2       262       263       415      1594      2053      2054
 -1       673    8    0    1
 -2       262       415       414      2054      2055      2050
 -1       674    8    0    1
 -2       263       264       416      1597      2056      2057
 -1       675    8    0    1
 -2       263       416       415      2057      2058      2053
 -1       676    8    0    1
 -2       264       265       417      1600      2059      2060
 -1       677    8    0    1
 -2       264       417       416      2060      2061      2056
 -1       678    8    0    1
 -2       265       266       418      1603      2062      2063
 -1       679    8    0    1
 -2       265       418       417      2063      2064      2059
 -1       680    8    0    1
 -2       266       267       419      1606      2065      2066
 -1       681    8    0    1
 -2       266       419       418      2066      2067      2062
 -1       682    8    0    1
 -2       267       268       420      1609      2068      2069
 -1       683    8    0    1
 -2       267       420       419      2069      2070      2065
 -1       684    8    0    1
 -2       268       269       421      1612      2071      2072
 -1       685    8    0    1
 -2       268       421       420      2072      2073      2068
 -1       686    8    0    1
 -2       269       270       422      1615      2074      2075
 -1       687    8    0    1
 -2       269       422       421      2075      2076      2071
 -1       688    8    0    1
 -2       270       271       423      1618      2077      2078
 -1       689    8    0    1
 -2       270       423       422      2078      2079      2074
 -1       690    8    0    1
 -2       271       272       424      1621      2080      2081
 -1       691    8    0    1
 -2       271       424       423      2081      2082      2077
 -1       692    8    0    1
 -2       272       273       425      1624      2083      2084
 -1       693    8    0    1
 -2       272       425       424      2084      2085      2080
 -1       694    8    0    1
 -2       273       274       426      1627      2086      2087
 -1       695    8    0    1
 -2       273       426       425      2087      2088      2083
 -1       696    8    0    1
 -2       274       275       427      1630      2089      2090
 -1       697    8    0    1
 -2       274       427       426      2090      2091      2086
 -1       698    8    0    1
 -2       275       276       428      1633      2092      2093
 -1       699    8    0    1
 -2       427       275       428      2089      2093      2094
 -1       700    8    0    1
 -2       276       277       428      1743      2095      2092
 -1       701    8    0    1
 -2       279       280       429      1645      2096      2097
 -1       702    8    0    1
 -2       278       279       430      1642      2098      2099
 -1       703    8    0    1
 -2       279       429       430      2097      2100      2098
 -1       704    8    0    1
 -2       277       278       431      1639      2101      2102
 -1       705    8    0    1
 -2       428       277       431      2095      2102      2103
 -1       706    8    0    1
 -2       278       430       431      2099      2104      2101
 -1       707    8    0    1
 -2       280       281       432      1648      2105      2106
 -1       708    8    0    1
 -2       280       432       429      2106      2107      2096
 -1       709    8    0    1
 -2       281       282       433      1651      2108      2109
 -1       710    8    0    1
 -2       281       433       432      2109      2110      2105
 -1       711    8    0    1
 -2       282       283       434      1654      2111      2112
 -1       712    8    0    1
 -2       282       434       433      2112      2113      2108
 -1       713    8    0    1
 -2       283       284       435      1657      2114      2115
 -1       714    8    0    1
 -2       283       435       434      2115      2116      2111
 -1       715    8    0    1
 -2       284       285       436      1660      2117      2118
 -1       716    8    0    1
 -2       284       436       435      2118      2119      2114
 -1       717    8    0    1
 -2       285       286       437      1663      2120      2121
 -1       718    8    0    1
 -2       285       437       436      2121      2122      2117
 -1       719    8    0    1
 -2       286       287       438      1666      2123      2124
 -1       720    8    0    1
 -2       286       438       437      2124      2125      2120
 -1       721    8    0    1
 -2       287       288       439      1669      2126      2127
 -1       722    8    0    1
 -2       287       439       438      2127      2128      2123
 -1       723    8    0    1
 -2       288       289       440      1672      2129      2130
 -1       724    8    0    1
 -2       288       440       439      2130      2131      2126
 -1       725    8    0    1
 -2       289       290       441      1675      2132      2133
 -1       726    8    0    1
 -2       289       441       440      2133      2134      2129
 -1       727    8    0    1
 -2       293       294       442      1745      2135      2136
 -1       728    8    0    1
 -2       321       292       443      1746      2137      2138
 -1       729    8    0    1
 -2       292       293       444      1744      2139      2140
 -1       730    8    0    1
 -2       293       442       444      2136      2141      2139
 -1       731    8    0    1
 -2       294       295       445      1741      2142      2143
 -1       732    8    0    1
 -2       295       296       446      1740      2144      2145
 -1       733    8    0    1
 -2       167       168       447      1307      2146      2147
 -1       734    8    0    1
 -2       322       167       447      1773      2147      2148
 -1       735    8    0    1
 -2       168       324       447      1779      2149      2146
 -1       736    8    0    1
 -2       297       298       448      1748      2150      2151
 -1       737    8    0    1
 -2       298       299       449      1749      2152      2153
 -1       738    8    0    1
 -2       299       300       450      1750      2154      2155
 -1       739    8    0    1
 -2       300       301       451      1751      2156      2157
 -1       740    8    0    1
 -2       301       302       452      1752      2158      2159
 -1       741    8    0    1
 -2       302       303       453      1753      2160      2161
 -1       742    8    0    1
 -2       303       304       454      1754      2162      2163
 -1       743    8    0    1
 -2       304       305       455      1755      2164      2165
 -1       744    8    0    1
 -2       305       306       456      1756      2166      2167
 -1       745    8    0    1
 -2       305       456       455      2167      2168      2164
 -1       746    8    0    1
 -2       306       307       457      1757      2169      2170
 -1       747    8    0    1
 -2       307       308       458      1758      2171      2172
 -1       748    8    0    1
 -2       308       309       459      1759      2173      2174
 -1       749    8    0    1
 -2       309       310       460      1760      2175      2176
 -1       750    8    0    1
 -2       310       311       461      1761      2177      2178
 -1       751    8    0    1
 -2       311       312       462      1762      2179      2180
 -1       752    8    0    1
 -2       311       462       461      2180      2181      2177
 -1       753    8    0    1
 -2       312       313       463      1763      2182      2183
 -1       754    8    0    1
 -2       313       314       464      1764      2184      2185
 -1       755    8    0    1
 -2       313       464       463      2185      2186      2182
 -1       756    8    0    1
 -2       314       315       465      1765      2187      2188
 -1       757    8    0    1
 -2       315       316       466      1766      2189      2190
 -1       758    8    0    1
 -2       315       466       465      2190      2191      2187
 -1       759    8    0    1
 -2       316       317       467      1767      2192      2193
 -1       760    8    0    1
 -2       317       318       468      1768      2194      2195
 -1       761    8    0    1
 -2       317       468       467      2195      2196      2192
 -1       762    8    0    1
 -2       318       319       469      1769      2197      2198
 -1       763    8    0    1
 -2       319       320       470      1770      2199      2200
 -1       764    8    0    1
 -2       320       321       471      1771      2201      2202
 -1       765    8    0    1
 -2       320       471       470      2202      2203      2199
 -1       766    8    0    1
 -2       296       297       472      1747      2204      2205
 -1       767    8    0    1
 -2       446       296       472      2144      2205      2206
 -1       768    8    0    1
 -2       181       323       182      1818      2207      1349
 -1       769    8    0    1
 -2       297       448       472      2151      2208      2204
 -1       770    8    0    1
 -2       337       182       323      1819      2207      2209
 -1       771    8    0    1
 -2       443       292       444      2137      2140      2210
 -1       772    8    0    1
 -2       294       445       442      2143      2211      2135
 -1       773    8    0    1
 -2       441       290       291      2132      1678      2212
 -1       774    8    0    1
 -2       321       443       471      2138      2213      2201
 -1       775    8    0    1
 -2       445       295       446      2142      2145      2214
 -1       776    8    0    1
 -2       468       318       469      2194      2198      2215
 -1       777    8    0    1
 -2       466       316       467      2189      2193      2216
 -1       778    8    0    1
 -2       464       314       465      2184      2188      2217
 -1       779    8    0    1
 -2       462       312       463      2179      2183      2218
 -1       780    8    0    1
 -2       460       310       473      2175      2219      2220
 -1       781    8    0    1
 -2       310       461       473      2178      2221      2219
 -1       782    8    0    1
 -2       459       309       460      2173      2176      2222
 -1       783    8    0    1
 -2       458       308       459      2171      2174      2223
 -1       784    8    0    1
 -2       456       306       474      2166      2224      2225
 -1       785    8    0    1
 -2       306       457       474      2170      2226      2224
 -1       786    8    0    1
 -2       454       304       455      2162      2165      2227
 -1       787    8    0    1
 -2       453       303       454      2160      2163      2228
 -1       788    8    0    1
 -2       452       302       453      2158      2161      2229
 -1       789    8    0    1
 -2       451       301       452      2156      2159      2230
 -1       790    8    0    1
 -2       450       300       451      2154      2157      2231
 -1       791    8    0    1
 -2       448       298       449      2150      2153      2232
 -1       792    8    0    1
 -2       449       299       450      2152      2155      2233
 -1       793    8    0    1
 -2       457       307       458      2169      2172      2234
 -1       794    8    0    1
 -2       469       319       470      2197      2200      2235
 -1       795    8    0    1
 -2       336       383       475      1959      2236      2237
 -1       796    8    0    1
 -2       325       326       476      1785      2238      2239
 -1       797    8    0    1
 -2       324       325       477      1782      2240      2241
 -1       798    8    0    1
 -2       325       476       477      2239      2242      2240
 -1       799    8    0    1
 -2       327       328       478      1791      2243      2244
 -1       800    8    0    1
 -2       328       329       479      1794      2245      2246
 -1       801    8    0    1
 -2       328       479       478      2246      2247      2243
 -1       802    8    0    1
 -2       329       330       480      1797      2248      2249
 -1       803    8    0    1
 -2       329       480       479      2249      2250      2245
 -1       804    8    0    1
 -2       330       331       481      1800      2251      2252
 -1       805    8    0    1
 -2       330       481       480      2252      2253      2248
 -1       806    8    0    1
 -2       331       332       482      1803      2254      2255
 -1       807    8    0    1
 -2       331       482       481      2255      2256      2251
 -1       808    8    0    1
 -2       332       333       483      1806      2257      2258
 -1       809    8    0    1
 -2       332       483       482      2258      2259      2254
 -1       810    8    0    1
 -2       383       384       484      1962      2260      2261
 -1       811    8    0    1
 -2       383       484       475      2261      2262      2236
 -1       812    8    0    1
 -2       338       337       485      1823      2263      2264
 -1       813    8    0    1
 -2       472       448       486      2208      2265      2266
 -1       814    8    0    1
 -2       339       338       487      1826      2267      2268
 -1       815    8    0    1
 -2       338       485       487      2264      2269      2267
 -1       816    8    0    1
 -2       340       339       488      1829      2270      2271
 -1       817    8    0    1
 -2       339       487       488      2268      2272      2270
 -1       818    8    0    1
 -2       341       340       489      1832      2273      2274
 -1       819    8    0    1
 -2       340       488       489      2271      2275      2273
 -1       820    8    0    1
 -2       342       341       490      1835      2276      2277
 -1       821    8    0    1
 -2       341       489       490      2274      2278      2276
 -1       822    8    0    1
 -2       343       342       491      1838      2279      2280
 -1       823    8    0    1
 -2       342       490       491      2277      2281      2279
 -1       824    8    0    1
 -2       344       343       492      1841      2282      2283
 -1       825    8    0    1
 -2       343       491       492      2280      2284      2282
 -1       826    8    0    1
 -2       345       344       493      1844      2285      2286
 -1       827    8    0    1
 -2       344       492       493      2283      2287      2285
 -1       828    8    0    1
 -2       346       345       494      1847      2288      2289
 -1       829    8    0    1
 -2       345       493       494      2286      2290      2288
 -1       830    8    0    1
 -2       347       346       495      1850      2291      2292
 -1       831    8    0    1
 -2       346       494       495      2289      2293      2291
 -1       832    8    0    1
 -2       348       347       496      1853      2294      2295
 -1       833    8    0    1
 -2       347       495       496      2292      2296      2294
 -1       834    8    0    1
 -2       349       348       497      1856      2297      2298
 -1       835    8    0    1
 -2       348       496       497      2295      2299      2297
 -1       836    8    0    1
 -2       350       349       498      1859      2300      2301
 -1       837    8    0    1
 -2       349       497       498      2298      2302      2300
 -1       838    8    0    1
 -2       351       350       499      1862      2303      2304
 -1       839    8    0    1
 -2       350       498       499      2301      2305      2303
 -1       840    8    0    1
 -2       352       351       500      1865      2306      2307
 -1       841    8    0    1
 -2       351       499       500      2304      2308      2306
 -1       842    8    0    1
 -2       353       352       501      1868      2309      2310
 -1       843    8    0    1
 -2       352       500       501      2307      2311      2309
 -1       844    8    0    1
 -2       354       353       502      1871      2312      2313
 -1       845    8    0    1
 -2       353       501       502      2310      2314      2312
 -1       846    8    0    1
 -2       355       354       503      1874      2315      2316
 -1       847    8    0    1
 -2       354       502       503      2313      2317      2315
 -1       848    8    0    1
 -2       356       355       504      1877      2318      2319
 -1       849    8    0    1
 -2       355       503       504      2316      2320      2318
 -1       850    8    0    1
 -2       357       356       505      1880      2321      2322
 -1       851    8    0    1
 -2       356       504       505      2319      2323      2321
 -1       852    8    0    1
 -2       358       357       506      1883      2324      2325
 -1       853    8    0    1
 -2       357       505       506      2322      2326      2324
 -1       854    8    0    1
 -2       359       358       507      1886      2327      2328
 -1       855    8    0    1
 -2       358       506       507      2325      2329      2327
 -1       856    8    0    1
 -2       360       359       508      1889      2330      2331
 -1       857    8    0    1
 -2       359       507       508      2328      2332      2330
 -1       858    8    0    1
 -2       361       360       509      1892      2333      2334
 -1       859    8    0    1
 -2       360       508       509      2331      2335      2333
 -1       860    8    0    1
 -2       362       361       510      1895      2336      2337
 -1       861    8    0    1
 -2       361       509       510      2334      2338      2336
 -1       862    8    0    1
 -2       363       362       511      1898      2339      2340
 -1       863    8    0    1
 -2       362       510       511      2337      2341      2339
 -1       864    8    0    1
 -2       364       363       512      1901      2342      2343
 -1       865    8    0    1
 -2       363       511       512      2340      2344      2342
 -1       866    8    0    1
 -2       365       364       513      1904      2345      2346
 -1       867    8    0    1
 -2       364       512       513      2343      2347      2345
 -1       868    8    0    1
 -2       366       365       514      1907      2348      2349
 -1       869    8    0    1
 -2       365       513       514      2346      2350      2348
 -1       870    8    0    1
 -2       367       366       515      1910      2351      2352
 -1       871    8    0    1
 -2       366       514       515      2349      2353      2351
 -1       872    8    0    1
 -2       368       367       516      1913      2354      2355
 -1       873    8    0    1
 -2       367       515       516      2352      2356      2354
 -1       874    8    0    1
 -2       369       368       517      1916      2357      2358
 -1       875    8    0    1
 -2       368       516       517      2355      2359      2357
 -1       876    8    0    1
 -2       370       369       518      1919      2360      2361
 -1       877    8    0    1
 -2       369       517       518      2358      2362      2360
 -1       878    8    0    1
 -2       371       370       519      1922      2363      2364
 -1       879    8    0    1
 -2       370       518       519      2361      2365      2363
 -1       880    8    0    1
 -2       372       371       520      1925      2366      2367
 -1       881    8    0    1
 -2       371       519       520      2364      2368      2366
 -1       882    8    0    1
 -2       373       372       521      1928      2369      2370
 -1       883    8    0    1
 -2       372       520       521      2367      2371      2369
 -1       884    8    0    1
 -2       374       373       522      1931      2372      2373
 -1       885    8    0    1
 -2       373       521       522      2370      2374      2372
 -1       886    8    0    1
 -2       375       374       523      1934      2375      2376
 -1       887    8    0    1
 -2       374       522       523      2373      2377      2375
 -1       888    8    0    1
 -2       376       375       524      1937      2378      2379
 -1       889    8    0    1
 -2       375       523       524      2376      2380      2378
 -1       890    8    0    1
 -2       377       376       525      1940      2381      2382
 -1       891    8    0    1
 -2       376       524       525      2379      2383      2381
 -1       892    8    0    1
 -2       378       377       526      1943      2384      2385
 -1       893    8    0    1
 -2       377       525       526      2382      2386      2384
 -1       894    8    0    1
 -2       379       378       527      1946      2387      2388
 -1       895    8    0    1
 -2       378       526       527      2385      2389      2387
 -1       896    8    0    1
 -2       380       379       528      1949      2390      2391
 -1       897    8    0    1
 -2       379       527       528      2388      2392      2390
 -1       898    8    0    1
 -2       381       380       529      1952      2393      2394
 -1       899    8    0    1
 -2       380       528       529      2391      2395      2393
 -1       900    8    0    1
 -2       444       442       530      2141      2396      2397
 -1       901    8    0    1
 -2       385       386       531      1968      2398      2399
 -1       902    8    0    1
 -2       386       387       532      1971      2400      2401
 -1       903    8    0    1
 -2       386       532       531      2401      2402      2398
 -1       904    8    0    1
 -2       387       388       533      1974      2403      2404
 -1       905    8    0    1
 -2       387       533       532      2404      2405      2400
 -1       906    8    0    1
 -2       388       389       534      1977      2406      2407
 -1       907    8    0    1
 -2       388       534       533      2407      2408      2403
 -1       908    8    0    1
 -2       389       390       535      1980      2409      2410
 -1       909    8    0    1
 -2       389       535       534      2410      2411      2406
 -1       910    8    0    1
 -2       390       391       536      1983      2412      2413
 -1       911    8    0    1
 -2       390       536       535      2413      2414      2409
 -1       912    8    0    1
 -2       391       392       537      1986      2415      2416
 -1       913    8    0    1
 -2       391       537       536      2416      2417      2412
 -1       914    8    0    1
 -2       392       393       538      1989      2418      2419
 -1       915    8    0    1
 -2       392       538       537      2419      2420      2415
 -1       916    8    0    1
 -2       393       394       539      1992      2421      2422
 -1       917    8    0    1
 -2       393       539       538      2422      2423      2418
 -1       918    8    0    1
 -2       394       395       540      1995      2424      2425
 -1       919    8    0    1
 -2       394       540       539      2425      2426      2421
 -1       920    8    0    1
 -2       395       396       541      1998      2427      2428
 -1       921    8    0    1
 -2       395       541       540      2428      2429      2424
 -1       922    8    0    1
 -2       396       397       542      2001      2430      2431
 -1       923    8    0    1
 -2       396       542       541      2431      2432      2427
 -1       924    8    0    1
 -2       397       398       543      2004      2433      2434
 -1       925    8    0    1
 -2       397       543       542      2434      2435      2430
 -1       926    8    0    1
 -2       398       399       544      2007      2436      2437
 -1       927    8    0    1
 -2       398       544       543      2437      2438      2433
 -1       928    8    0    1
 -2       399       400       545      2010      2439      2440
 -1       929    8    0    1
 -2       399       545       544      2440      2441      2436
 -1       930    8    0    1
 -2       400       401       546      2013      2442      2443
 -1       931    8    0    1
 -2       400       546       545      2443      2444      2439
 -1       932    8    0    1
 -2       401       402       547      2016      2445      2446
 -1       933    8    0    1
 -2       401       547       546      2446      2447      2442
 -1       934    8    0    1
 -2       402       403       548      2019      2448      2449
 -1       935    8    0    1
 -2       402       548       547      2449      2450      2445
 -1       936    8    0    1
 -2       403       404       549      2022      2451      2452
 -1       937    8    0    1
 -2       403       549       548      2452      2453      2448
 -1       938    8    0    1
 -2       404       405       550      2025      2454      2455
 -1       939    8    0    1
 -2       404       550       549      2455      2456      2451
 -1       940    8    0    1
 -2       405       406       551      2028      2457      2458
 -1       941    8    0    1
 -2       405       551       550      2458      2459      2454
 -1       942    8    0    1
 -2       406       407       552      2031      2460      2461
 -1       943    8    0    1
 -2       406       552       551      2461      2462      2457
 -1       944    8    0    1
 -2       407       408       553      2034      2463      2464
 -1       945    8    0    1
 -2       407       553       552      2464      2465      2460
 -1       946    8    0    1
 -2       408       409       554      2037      2466      2467
 -1       947    8    0    1
 -2       408       554       553      2467      2468      2463
 -1       948    8    0    1
 -2       409       410       555      2040      2469      2470
 -1       949    8    0    1
 -2       409       555       554      2470      2471      2466
 -1       950    8    0    1
 -2       410       411       556      2043      2472      2473
 -1       951    8    0    1
 -2       410       556       555      2473      2474      2469
 -1       952    8    0    1
 -2       411       412       557      2046      2475      2476
 -1       953    8    0    1
 -2       411       557       556      2476      2477      2472
 -1       954    8    0    1
 -2       412       413       558      2049      2478      2479
 -1       955    8    0    1
 -2       412       558       557      2479      2480      2475
 -1       956    8    0    1
 -2       413       414       559      2052      2481      2482
 -1       957    8    0    1
 -2       413       559       558      2482      2483      2478
 -1       958    8    0    1
 -2       414       415       560      2055      2484      2485
 -1       959    8    0    1
 -2       414       560       559      2485      2486      2481
 -1       960    8    0    1
 -2       415       416       561      2058      2487      2488
 -1       961    8    0    1
 -2       415       561       560      2488      2489      2484
 -1       962    8    0    1
 -2       416       417       562      2061      2490      2491
 -1       963    8    0    1
 -2       416       562       561      2491      2492      2487
 -1       964    8    0    1
 -2       417       418       563      2064      2493      2494
 -1       965    8    0    1
 -2       417       563       562      2494      2495      2490
 -1       966    8    0    1
 -2       418       419       564      2067      2496      2497
 -1       967    8    0    1
 -2       418       564       563      2497      2498      2493
 -1       968    8    0    1
 -2       419       420       565      2070      2499      2500
 -1       969    8    0    1
 -2       419       565       564      2500      2501      2496
 -1       970    8    0    1
 -2       420       421       566      2073      2502      2503
 -1       971    8    0    1
 -2       420       566       565      2503      2504      2499
 -1       972    8    0    1
 -2       421       422       567      2076      2505      2506
 -1       973    8    0    1
 -2       421       567       566      2506      2507      2502
 -1       974    8    0    1
 -2       422       423       568      2079      2508      2509
 -1       975    8    0    1
 -2       422       568       567      2509      2510      2505
 -1       976    8    0    1
 -2       423       424       569      2082      2511      2512
 -1       977    8    0    1
 -2       423       569       568      2512      2513      2508
 -1       978    8    0    1
 -2       424       425       570      2085      2514      2515
 -1       979    8    0    1
 -2       424       570       569      2515      2516      2511
 -1       980    8    0    1
 -2       425       426       571      2088      2517      2518
 -1       981    8    0    1
 -2       425       571       570      2518      2519      2514
 -1       982    8    0    1
 -2       426       427       572      2091      2520      2521
 -1       983    8    0    1
 -2       426       572       571      2521      2522      2517
 -1       984    8    0    1
 -2       427       428       431      2094      2103      2523
 -1       985    8    0    1
 -2       432       433       573      2110      2524      2525
 -1       986    8    0    1
 -2       433       434       574      2113      2526      2527
 -1       987    8    0    1
 -2       433       574       573      2527      2528      2524
 -1       988    8    0    1
 -2       430       429       575      2100      2529      2530
 -1       989    8    0    1
 -2       429       432       576      2107      2531      2532
 -1       990    8    0    1
 -2       575       429       576      2529      2532      2533
 -1       991    8    0    1
 -2       432       573       576      2525      2534      2531
 -1       992    8    0    1
 -2       434       435       577      2116      2535      2536
 -1       993    8    0    1
 -2       434       577       574      2536      2537      2526
 -1       994    8    0    1
 -2       435       436       578      2119      2538      2539
 -1       995    8    0    1
 -2       435       578       577      2539      2540      2535
 -1       996    8    0    1
 -2       436       437       579      2122      2541      2542
 -1       997    8    0    1
 -2       436       579       578      2542      2543      2538
 -1       998    8    0    1
 -2       437       438       580      2125      2544      2545
 -1       999    8    0    1
 -2       437       580       579      2545      2546      2541
 -1      1000    8    0    1
 -2       438       439       581      2128      2547      2548
 -1      1001    8    0    1
 -2       438       581       580      2548      2549      2544
 -1      1002    8    0    1
 -2       439       440       582      2131      2550      2551
 -1      1003    8    0    1
 -2       439       582       581      2551      2552      2547
 -1      1004    8    0    1
 -2       440       441       583      2134      2553      2554
 -1      1005    8    0    1
 -2       440       583       582      2554      2555      2550
 -1      1006    8    0    1
 -2       441       291       382      2212      1955      2556
 -1      1007    8    0    1
 -2       471       443       584      2213      2557      2558
 -1      1008    8    0    1
 -2       384       385       585      1965      2559      2560
 -1      1009    8    0    1
 -2       385       531       585      2399      2561      2559
 -1      1010    8    0    1
 -2       442       445       586      2211      2562      2563
 -1      1011    8    0    1
 -2       442       586       530      2563      2564      2396
 -1      1012    8    0    1
 -2       468       469       587      2215      2565      2566
 -1      1013    8    0    1
 -2       445       446       588      2214      2567      2568
 -1      1014    8    0    1
 -2       443       444       589      2210      2569      2570
 -1      1015    8    0    1
 -2       444       530       589      2397      2571      2569
 -1      1016    8    0    1
 -2       454       455       590      2227      2572      2573
 -1      1017    8    0    1
 -2       326       327       591      1788      2574      2575
 -1      1018    8    0    1
 -2       476       326       591      2238      2575      2576
 -1      1019    8    0    1
 -2       327       478       591      2244      2577      2574
 -1      1020    8    0    1
 -2       449       450       592      2233      2578      2579
 -1      1021    8    0    1
 -2       457       458       593      2234      2580      2581
 -1      1022    8    0    1
 -2       448       449       594      2232      2582      2583
 -1      1023    8    0    1
 -2       450       451       595      2231      2584      2585
 -1      1024    8    0    1
 -2       451       452       596      2230      2586      2587
 -1      1025    8    0    1
 -2       452       453       597      2229      2588      2589
 -1      1026    8    0    1
 -2       453       454       598      2228      2590      2591
 -1      1027    8    0    1
 -2       454       590       598      2573      2592      2590
 -1      1028    8    0    1
 -2       455       456       599      2168      2593      2594
 -1      1029    8    0    1
 -2       469       470       600      2235      2595      2596
 -1      1030    8    0    1
 -2       458       459       601      2223      2597      2598
 -1      1031    8    0    1
 -2       459       460       602      2222      2599      2600
 -1      1032    8    0    1
 -2       459       602       601      2600      2601      2597
 -1      1033    8    0    1
 -2       461       462       603      2181      2602      2603
 -1      1034    8    0    1
 -2       462       463       604      2218      2604      2605
 -1      1035    8    0    1
 -2       463       464       605      2186      2606      2607
 -1      1036    8    0    1
 -2       464       465       606      2217      2608      2609
 -1      1037    8    0    1
 -2       465       466       607      2191      2610      2611
 -1      1038    8    0    1
 -2       466       467       608      2216      2612      2613
 -1      1039    8    0    1
 -2       466       608       607      2613      2614      2610
 -1      1040    8    0    1
 -2       467       468       609      2196      2615      2616
 -1      1041    8    0    1
 -2       470       471       610      2203      2617      2618
 -1      1042    8    0    1
 -2       471       584       610      2558      2619      2617
 -1      1043    8    0    1
 -2       337       323       611      2209      2620      2621
 -1      1044    8    0    1
 -2       485       337       611      2263      2621      2622
 -1      1045    8    0    1
 -2       323       322       611      1777      2623      2620
 -1      1046    8    0    1
 -2       335       336       612      1817      2624      2625
 -1      1047    8    0    1
 -2       334       335       612      1812      2625      2626
 -1      1048    8    0    1
 -2       336       475       612      2237      2627      2624
 -1      1049    8    0    1
 -2       446       472       613      2206      2628      2629
 -1      1050    8    0    1
 -2       449       592       594      2579      2630      2582
 -1      1051    8    0    1
 -2       324       477       614      2241      2631      2632
 -1      1052    8    0    1
 -2       324       614       447      2632      2633      2149
 -1      1053    8    0    1
 -2       484       384       585      2260      2560      2634
 -1      1054    8    0    1
 -2       333       334       612      1809      2626      2635
 -1      1055    8    0    1
 -2       613       472       486      2628      2266      2636
 -1      1056    8    0    1
 -2       608       467       609      2612      2616      2637
 -1      1057    8    0    1
 -2       606       465       607      2608      2611      2638
 -1      1058    8    0    1
 -2       605       464       606      2606      2609      2639
 -1      1059    8    0    1
 -2       468       587       609      2566      2640      2615
 -1      1060    8    0    1
 -2       427       431       572      2523      2641      2520
 -1      1061    8    0    1
 -2       588       446       613      2567      2629      2642
 -1      1062    8    0    1
 -2       431       430       572      2104      2643      2641
 -1      1063    8    0    1
 -2       604       463       605      2604      2607      2644
 -1      1064    8    0    1
 -2       441       382       615      2556      2645      2646
 -1      1065    8    0    1
 -2       583       441       615      2553      2646      2647
 -1      1066    8    0    1
 -2       382       381       615      1956      2648      2645
 -1      1067    8    0    1
 -2       602       460       616      2599      2649      2650
 -1      1068    8    0    1
 -2       460       473       616      2220      2651      2649
 -1      1069    8    0    1
 -2       461       603       617      2603      2652      2653
 -1      1070    8    0    1
 -2       461       617       473      2653      2654      2221
 -1      1071    8    0    1
 -2       584       443       589      2557      2570      2655
 -1      1072    8    0    1
 -2       333       612       483      2635      2656      2257
 -1      1073    8    0    1
 -2       586       445       588      2562      2568      2657
 -1      1074    8    0    1
 -2       600       470       610      2595      2618      2658
 -1      1075    8    0    1
 -2       587       469       600      2565      2596      2659
 -1      1076    8    0    1
 -2       590       455       599      2572      2594      2660
 -1      1077    8    0    1
 -2       597       453       598      2588      2591      2661
 -1      1078    8    0    1
 -2       596       452       597      2586      2589      2662
 -1      1079    8    0    1
 -2       595       451       596      2584      2587      2663
 -1      1080    8    0    1
 -2       474       457       618      2226      2664      2665
 -1      1081    8    0    1
 -2       457       593       618      2581      2666      2664
 -1      1082    8    0    1
 -2       486       448       619      2265      2667      2668
 -1      1083    8    0    1
 -2       448       594       619      2583      2669      2667
 -1      1084    8    0    1
 -2       593       458       601      2580      2598      2670
 -1      1085    8    0    1
 -2       322       447       620      2148      2671      2672
 -1      1086    8    0    1
 -2       611       322       620      2623      2672      2673
 -1      1087    8    0    1
 -2       447       614       620      2633      2674      2671
 -1      1088    8    0    1
 -2       450       595       592      2585      2675      2578
 -1      1089    8    0    1
 -2       599       456       621      2593      2676      2677
 -1      1090    8    0    1
 -2       456       474       621      2225      2678      2676
 -1      1091    8    0    1
 -2       603       462       604      2602      2605      2679
 -1      1092    8    0    1
 -2       572       430       575      2643      2530      2680
 -1      1093    8    0    1
 -2       615       381       529      2648      2394      2681
 -1      1094    8    0    1
 -2       479       480       622      2250      2682      2683
 -1      1095    8    0    1
 -2       478       479       623      2247      2684      2685
 -1      1096    8    0    1
 -2       479       622       623      2683      2686      2684
 -1      1097    8    0    1
 -2       481       482       624      2256      2687      2688
 -1      1098    8    0    1
 -2       482       483       625      2259      2689      2690
 -1      1099    8    0    1
 -2       482       625       624      2690      2691      2687
 -1      1100    8    0    1
 -2       475       484       626      2262      2692      2693
 -1      1101    8    0    1
 -2       586       588       627      2657      2694      2695
 -1      1102    8    0    1
 -2       606       607       508      2638      2696      2697
 -1      1103    8    0    1
 -2       484       585       628      2634      2698      2699
 -1      1104    8    0    1
 -2       484       628       626      2699      2700      2692
 -1      1105    8    0    1
 -2       612       475       483      2627      2701      2656
 -1      1106    8    0    1
 -2       608       609       629      2637      2702      2703
 -1      1107    8    0    1
 -2       485       611       630      2622      2704      2705
 -1      1108    8    0    1
 -2       611       620       630      2673      2706      2704
 -1      1109    8    0    1
 -2       488       487       631      2272      2707      2708
 -1      1110    8    0    1
 -2       489       488       632      2275      2709      2710
 -1      1111    8    0    1
 -2       488       631       632      2708      2711      2709
 -1      1112    8    0    1
 -2       490       489       633      2278      2712      2713
 -1      1113    8    0    1
 -2       489       632       633      2710      2714      2712
 -1      1114    8    0    1
 -2       491       490       634      2281      2715      2716
 -1      1115    8    0    1
 -2       490       633       634      2713      2717      2715
 -1      1116    8    0    1
 -2       492       491       635      2284      2718      2719
 -1      1117    8    0    1
 -2       491       634       635      2716      2720      2718
 -1      1118    8    0    1
 -2       493       492       636      2287      2721      2722
 -1      1119    8    0    1
 -2       492       635       636      2719      2723      2721
 -1      1120    8    0    1
 -2       494       493       637      2290      2724      2725
 -1      1121    8    0    1
 -2       493       636       637      2722      2726      2724
 -1      1122    8    0    1
 -2       495       494       638      2293      2727      2728
 -1      1123    8    0    1
 -2       494       637       638      2725      2729      2727
 -1      1124    8    0    1
 -2       496       495       639      2296      2730      2731
 -1      1125    8    0    1
 -2       495       638       639      2728      2732      2730
 -1      1126    8    0    1
 -2       497       496       640      2299      2733      2734
 -1      1127    8    0    1
 -2       496       639       640      2731      2735      2733
 -1      1128    8    0    1
 -2       498       497       641      2302      2736      2737
 -1      1129    8    0    1
 -2       497       640       641      2734      2738      2736
 -1      1130    8    0    1
 -2       499       498       642      2305      2739      2740
 -1      1131    8    0    1
 -2       498       641       642      2737      2741      2739
 -1      1132    8    0    1
 -2       500       499       643      2308      2742      2743
 -1      1133    8    0    1
 -2       499       642       643      2740      2744      2742
 -1      1134    8    0    1
 -2       501       500       644      2311      2745      2746
 -1      1135    8    0    1
 -2       500       643       644      2743      2747      2745
 -1      1136    8    0    1
 -2       502       501       645      2314      2748      2749
 -1      1137    8    0    1
 -2       501       644       645      2746      2750      2748
 -1      1138    8    0    1
 -2       503       502       646      2317      2751      2752
 -1      1139    8    0    1
 -2       502       645       646      2749      2753      2751
 -1      1140    8    0    1
 -2       504       503       647      2320      2754      2755
 -1      1141    8    0    1
 -2       503       646       647      2752      2756      2754
 -1      1142    8    0    1
 -2       505       504       648      2323      2757      2758
 -1      1143    8    0    1
 -2       504       647       648      2755      2759      2757
 -1      1144    8    0    1
 -2       507       506       605      2329      2760      2761
 -1      1145    8    0    1
 -2       509       508       607      2335      2696      2762
 -1      1146    8    0    1
 -2       510       509       629      2338      2763      2764
 -1      1147    8    0    1
 -2       511       510       629      2341      2764      2765
 -1      1148    8    0    1
 -2       512       511       649      2344      2766      2767
 -1      1149    8    0    1
 -2       513       512       650      2347      2768      2769
 -1      1150    8    0    1
 -2       512       649       650      2767      2770      2768
 -1      1151    8    0    1
 -2       514       513       651      2350      2771      2772
 -1      1152    8    0    1
 -2       513       650       651      2769      2773      2771
 -1      1153    8    0    1
 -2       515       514       652      2353      2774      2775
 -1      1154    8    0    1
 -2       514       651       652      2772      2776      2774
 -1      1155    8    0    1
 -2       516       515       653      2356      2777      2778
 -1      1156    8    0    1
 -2       515       652       653      2775      2779      2777
 -1      1157    8    0    1
 -2       517       516       654      2359      2780      2781
 -1      1158    8    0    1
 -2       516       653       654      2778      2782      2780
 -1      1159    8    0    1
 -2       518       517       655      2362      2783      2784
 -1      1160    8    0    1
 -2       517       654       655      2781      2785      2783
 -1      1161    8    0    1
 -2       519       518       656      2365      2786      2787
 -1      1162    8    0    1
 -2       518       655       656      2784      2788      2786
 -1      1163    8    0    1
 -2       520       519       657      2368      2789      2790
 -1      1164    8    0    1
 -2       519       656       657      2787      2791      2789
 -1      1165    8    0    1
 -2       521       520       658      2371      2792      2793
 -1      1166    8    0    1
 -2       520       657       658      2790      2794      2792
 -1      1167    8    0    1
 -2       522       521       659      2374      2795      2796
 -1      1168    8    0    1
 -2       521       658       659      2793      2797      2795
 -1      1169    8    0    1
 -2       523       522       660      2377      2798      2799
 -1      1170    8    0    1
 -2       522       659       660      2796      2800      2798
 -1      1171    8    0    1
 -2       524       523       661      2380      2801      2802
 -1      1172    8    0    1
 -2       523       660       661      2799      2803      2801
 -1      1173    8    0    1
 -2       525       524       662      2383      2804      2805
 -1      1174    8    0    1
 -2       524       661       662      2802      2806      2804
 -1      1175    8    0    1
 -2       526       525       663      2386      2807      2808
 -1      1176    8    0    1
 -2       525       662       663      2805      2809      2807
 -1      1177    8    0    1
 -2       527       526       664      2389      2810      2811
 -1      1178    8    0    1
 -2       526       663       664      2808      2812      2810
 -1      1179    8    0    1
 -2       528       527       665      2392      2813      2814
 -1      1180    8    0    1
 -2       527       664       665      2811      2815      2813
 -1      1181    8    0    1
 -2       529       528       666      2395      2816      2817
 -1      1182    8    0    1
 -2       528       665       666      2814      2818      2816
 -1      1183    8    0    1
 -2       530       586       667      2564      2819      2820
 -1      1184    8    0    1
 -2       586       627       667      2695      2821      2819
 -1      1185    8    0    1
 -2       531       532       668      2402      2822      2823
 -1      1186    8    0    1
 -2       534       535       669      2411      2824      2825
 -1      1187    8    0    1
 -2       535       536       670      2414      2826      2827
 -1      1188    8    0    1
 -2       535       670       669      2827      2828      2824
 -1      1189    8    0    1
 -2       536       537       671      2417      2829      2830
 -1      1190    8    0    1
 -2       536       671       670      2830      2831      2826
 -1      1191    8    0    1
 -2       537       538       672      2420      2832      2833
 -1      1192    8    0    1
 -2       537       672       671      2833      2834      2829
 -1      1193    8    0    1
 -2       538       539       673      2423      2835      2836
 -1      1194    8    0    1
 -2       538       673       672      2836      2837      2832
 -1      1195    8    0    1
 -2       539       540       674      2426      2838      2839
 -1      1196    8    0    1
 -2       539       674       673      2839      2840      2835
 -1      1197    8    0    1
 -2       540       541       675      2429      2841      2842
 -1      1198    8    0    1
 -2       540       675       674      2842      2843      2838
 -1      1199    8    0    1
 -2       541       542       676      2432      2844      2845
 -1      1200    8    0    1
 -2       541       676       675      2845      2846      2841
 -1      1201    8    0    1
 -2       542       543       677      2435      2847      2848
 -1      1202    8    0    1
 -2       542       677       676      2848      2849      2844
 -1      1203    8    0    1
 -2       543       544       678      2438      2850      2851
 -1      1204    8    0    1
 -2       543       678       677      2851      2852      2847
 -1      1205    8    0    1
 -2       544       545       679      2441      2853      2854
 -1      1206    8    0    1
 -2       544       679       678      2854      2855      2850
 -1      1207    8    0    1
 -2       545       546       680      2444      2856      2857
 -1      1208    8    0    1
 -2       545       680       679      2857      2858      2853
 -1      1209    8    0    1
 -2       546       547       681      2447      2859      2860
 -1      1210    8    0    1
 -2       546       681       680      2860      2861      2856
 -1      1211    8    0    1
 -2       547       548       682      2450      2862      2863
 -1      1212    8    0    1
 -2       547       682       681      2863      2864      2859
 -1      1213    8    0    1
 -2       548       549       683      2453      2865      2866
 -1      1214    8    0    1
 -2       548       683       682      2866      2867      2862
 -1      1215    8    0    1
 -2       549       550       684      2456      2868      2869
 -1      1216    8    0    1
 -2       549       684       683      2869      2870      2865
 -1      1217    8    0    1
 -2       550       551       685      2459      2871      2872
 -1      1218    8    0    1
 -2       550       685       684      2872      2873      2868
 -1      1219    8    0    1
 -2       551       552       686      2462      2874      2875
 -1      1220    8    0    1
 -2       551       686       685      2875      2876      2871
 -1      1221    8    0    1
 -2       552       553       687      2465      2877      2878
 -1      1222    8    0    1
 -2       552       687       686      2878      2879      2874
 -1      1223    8    0    1
 -2       553       554       688      2468      2880      2881
 -1      1224    8    0    1
 -2       553       688       687      2881      2882      2877
 -1      1225    8    0    1
 -2       554       555       689      2471      2883      2884
 -1      1226    8    0    1
 -2       554       689       688      2884      2885      2880
 -1      1227    8    0    1
 -2       555       556       690      2474      2886      2887
 -1      1228    8    0    1
 -2       555       690       689      2887      2888      2883
 -1      1229    8    0    1
 -2       556       557       691      2477      2889      2890
 -1      1230    8    0    1
 -2       556       691       690      2890      2891      2886
 -1      1231    8    0    1
 -2       557       558       692      2480      2892      2893
 -1      1232    8    0    1
 -2       557       692       691      2893      2894      2889
 -1      1233    8    0    1
 -2       558       559       693      2483      2895      2896
 -1      1234    8    0    1
 -2       558       693       692      2896      2897      2892
 -1      1235    8    0    1
 -2       559       560       694      2486      2898      2899
 -1      1236    8    0    1
 -2       559       694       693      2899      2900      2895
 -1      1237    8    0    1
 -2       560       561       695      2489      2901      2902
 -1      1238    8    0    1
 -2       560       695       694      2902      2903      2898
 -1      1239    8    0    1
 -2       561       562       696      2492      2904      2905
 -1      1240    8    0    1
 -2       561       696       695      2905      2906      2901
 -1      1241    8    0    1
 -2       562       563       697      2495      2907      2908
 -1      1242    8    0    1
 -2       562       697       696      2908      2909      2904
 -1      1243    8    0    1
 -2       563       564       698      2498      2910      2911
 -1      1244    8    0    1
 -2       563       698       697      2911      2912      2907
 -1      1245    8    0    1
 -2       564       565       699      2501      2913      2914
 -1      1246    8    0    1
 -2       564       699       698      2914      2915      2910
 -1      1247    8    0    1
 -2       565       566       700      2504      2916      2917
 -1      1248    8    0    1
 -2       565       700       699      2917      2918      2913
 -1      1249    8    0    1
 -2       566       567       701      2507      2919      2920
 -1      1250    8    0    1
 -2       566       701       700      2920      2921      2916
 -1      1251    8    0    1
 -2       567       568       702      2510      2922      2923
 -1      1252    8    0    1
 -2       567       702       701      2923      2924      2919
 -1      1253    8    0    1
 -2       568       569       703      2513      2925      2926
 -1      1254    8    0    1
 -2       568       703       702      2926      2927      2922
 -1      1255    8    0    1
 -2       569       570       704      2516      2928      2929
 -1      1256    8    0    1
 -2       569       704       703      2929      2930      2925
 -1      1257    8    0    1
 -2       570       571       705      2519      2931      2932
 -1      1258    8    0    1
 -2       570       705       704      2932      2933      2928
 -1      1259    8    0    1
 -2       571       572       706      2522      2934      2935
 -1      1260    8    0    1
 -2       705       571       706      2931      2935      2936
 -1      1261    8    0    1
 -2       572       575       706      2680      2937      2934
 -1      1262    8    0    1
 -2       588       613       707      2642      2938      2939
 -1      1263    8    0    1
 -2       577       578       708      2540      2940      2941
 -1      1264    8    0    1
 -2       615       529       709      2681      2942      2943
 -1      1265    8    0    1
 -2       529       666       709      2817      2944      2942
 -1      1266    8    0    1
 -2       573       574       710      2528      2945      2946
 -1      1267    8    0    1
 -2       578       579       711      2543      2947      2948
 -1      1268    8    0    1
 -2       578       711       708      2948      2949      2940
 -1      1269    8    0    1
 -2       574       577       712      2537      2950      2951
 -1      1270    8    0    1
 -2       710       574       712      2945      2951      2952
 -1      1271    8    0    1
 -2       577       708       712      2941      2953      2950
 -1      1272    8    0    1
 -2       579       580       713      2546      2954      2955
 -1      1273    8    0    1
 -2       579       713       711      2955      2956      2947
 -1      1274    8    0    1
 -2       580       581       714      2549      2957      2958
 -1      1275    8    0    1
 -2       580       714       713      2958      2959      2954
 -1      1276    8    0    1
 -2       581       582       715      2552      2960      2961
 -1      1277    8    0    1
 -2       581       715       714      2961      2962      2957
 -1      1278    8    0    1
 -2       585       531       716      2561      2963      2964
 -1      1279    8    0    1
 -2       628       585       716      2698      2964      2965
 -1      1280    8    0    1
 -2       531       668       716      2823      2966      2963
 -1      1281    8    0    1
 -2       598       590       717      2592      2967      2968
 -1      1282    8    0    1
 -2       600       610       718      2658      2969      2970
 -1      1283    8    0    1
 -2       610       584       719      2619      2971      2972
 -1      1284    8    0    1
 -2       584       589       720      2655      2973      2974
 -1      1285    8    0    1
 -2       592       595       721      2675      2975      2976
 -1      1286    8    0    1
 -2       589       530       722      2571      2977      2978
 -1      1287    8    0    1
 -2       533       534       723      2408      2979      2980
 -1      1288    8    0    1
 -2       534       669       723      2825      2981      2979
 -1      1289    8    0    1
 -2       532       533       724      2405      2982      2983
 -1      1290    8    0    1
 -2       533       723       724      2980      2984      2982
 -1      1291    8    0    1
 -2       487       485       725      2269      2985      2986
 -1      1292    8    0    1
 -2       631       487       725      2707      2986      2987
 -1      1293    8    0    1
 -2       485       630       725      2705      2988      2985
 -1      1294    8    0    1
 -2       613       486       726      2636      2989      2990
 -1      1295    8    0    1
 -2       480       481       727      2253      2991      2992
 -1      1296    8    0    1
 -2       622       480       727      2682      2992      2993
 -1      1297    8    0    1
 -2       481       624       727      2688      2994      2991
 -1      1298    8    0    1
 -2       477       476       728      2242      2995      2996
 -1      1299    8    0    1
 -2       593       601       729      2670      2997      2998
 -1      1300    8    0    1
 -2       595       596       730      2663      2999      3000
 -1      1301    8    0    1
 -2       596       597       731      2662      3001      3002
 -1      1302    8    0    1
 -2       590       599       732      2660      3003      3004
 -1      1303    8    0    1
 -2       603       604       733      2679      3005      3006
 -1      1304    8    0    1
 -2       601       602       734      2601      3007      3008
 -1      1305    8    0    1
 -2       583       615       709      2647      2943      3009
 -1      1306    8    0    1
 -2       609       587       735      2640      3010      3011
 -1      1307    8    0    1
 -2       607       608       509      2614      3012      2762
 -1      1308    8    0    1
 -2       587       600       736      2659      3013      3014
 -1      1309    8    0    1
 -2       587       736       735      3014      3015      3010
 -1      1310    8    0    1
 -2       597       598       737      2661      3016      3017
 -1      1311    8    0    1
 -2       594       592       738      2630      3018      3019
 -1      1312    8    0    1
 -2       592       721       738      2976      3020      3018
 -1      1313    8    0    1
 -2       509       608       629      3012      2703      2763
 -1      1314    8    0    1
 -2       614       477       739      2631      3021      3022
 -1      1315    8    0    1
 -2       477       728       739      2996      3023      3021
 -1      1316    8    0    1
 -2       478       623       740      2685      3024      3025
 -1      1317    8    0    1
 -2       478       740       591      3025      3026      2577
 -1      1318    8    0    1
 -2       483       475       626      2701      2693      3027
 -1      1319    8    0    1
 -2       598       717       737      2968      3028      3016
 -1      1320    8    0    1
 -2       606       508       741      2697      3029      3030
 -1      1321    8    0    1
 -2       629       609       735      2702      3011      3031
 -1      1322    8    0    1
 -2       613       726       707      2990      3032      2938
 -1      1323    8    0    1
 -2       726       486       742      2989      3033      3034
 -1      1324    8    0    1
 -2       486       619       742      2668      3035      3033
 -1      1325    8    0    1
 -2       505       648       733      2758      3036      3037
 -1      1326    8    0    1
 -2       506       505       733      2326      3037      3038
 -1      1327    8    0    1
 -2       511       629       649      2765      3039      2766
 -1      1328    8    0    1
 -2       573       710       743      2946      3040      3041
 -1      1329    8    0    1
 -2       573       743       576      3041      3042      2534
 -1      1330    8    0    1
 -2       734       602       616      3007      2650      3043
 -1      1331    8    0    1
 -2       668       532       724      2822      2983      3044
 -1      1332    8    0    1
 -2       575       576       744      2533      3045      3046
 -1      1333    8    0    1
 -2       706       575       744      2937      3046      3047
 -1      1334    8    0    1
 -2       576       743       744      3042      3048      3045
 -1      1335    8    0    1
 -2       719       584       720      2971      2974      3049
 -1      1336    8    0    1
 -2       732       599       745      3003      3050      3051
 -1      1337    8    0    1
 -2       599       621       745      2677      3052      3050
 -1      1338    8    0    1
 -2       731       597       737      3001      3017      3053
 -1      1339    8    0    1
 -2       582       583       709      2555      3009      3054
 -1      1340    8    0    1
 -2       730       596       731      2999      3002      3055
 -1      1341    8    0    1
 -2       616       473       746      2651      3056      3057
 -1      1342    8    0    1
 -2       473       617       746      2654      3058      3056
 -1      1343    8    0    1
 -2       718       610       719      2969      2972      3059
 -1      1344    8    0    1
 -2       617       603       733      2652      3006      3060
 -1      1345    8    0    1
 -2       722       530       667      2977      2820      3061
 -1      1346    8    0    1
 -2       721       595       747      2975      3062      3063
 -1      1347    8    0    1
 -2       595       730       747      3000      3064      3062
 -1      1348    8    0    1
 -2       720       589       722      2973      2978      3065
 -1      1349    8    0    1
 -2       600       718       736      2970      3066      3013
 -1      1350    8    0    1
 -2       618       593       748      2666      3067      3068
 -1      1351    8    0    1
 -2       593       729       748      2998      3069      3067
 -1      1352    8    0    1
 -2       483       626       625      3027      3070      2689
 -1      1353    8    0    1
 -2       619       594       738      2669      3019      3071
 -1      1354    8    0    1
 -2       476       591       749      2576      3072      3073
 -1      1355    8    0    1
 -2       728       476       749      2995      3073      3074
 -1      1356    8    0    1
 -2       591       740       749      3026      3075      3072
 -1      1357    8    0    1
 -2       717       590       732      2967      3004      3076
 -1      1358    8    0    1
 -2       729       601       734      2997      3008      3077
 -1      1359    8    0    1
 -2       621       474       750      2678      3078      3079
 -1      1360    8    0    1
 -2       474       618       750      2665      3080      3078
 -1      1361    8    0    1
 -2       627       588       707      2694      2939      3081
 -1      1362    8    0    1
 -2       582       709       751      3054      3082      3083
 -1      1363    8    0    1
 -2       715       582       751      2960      3083      3084
 -1      1364    8    0    1
 -2       709       666       751      2944      3085      3082
 -1      1365    8    0    1
 -2       605       606       741      2639      3030      3086
 -1      1366    8    0    1
 -2       737       717       752      3028      3087      3088
 -1      1367    8    0    1
 -2       624       625       753      2691      3089      3090
 -1      1368    8    0    1
 -2       629       735       649      3031      3091      3039
 -1      1369    8    0    1
 -2       717       732       754      3076      3092      3093
 -1      1370    8    0    1
 -2       738       721       755      3020      3094      3095
 -1      1371    8    0    1
 -2       733       648       617      3036      3096      3060
 -1      1372    8    0    1
 -2       633       632       756      2714      3097      3098
 -1      1373    8    0    1
 -2       634       633       757      2717      3099      3100
 -1      1374    8    0    1
 -2       633       756       757      3098      3101      3099
 -1      1375    8    0    1
 -2       635       634       758      2720      3102      3103
 -1      1376    8    0    1
 -2       634       757       758      3100      3104      3102
 -1      1377    8    0    1
 -2       636       635       759      2723      3105      3106
 -1      1378    8    0    1
 -2       635       758       759      3103      3107      3105
 -1      1379    8    0    1
 -2       637       636       760      2726      3108      3109
 -1      1380    8    0    1
 -2       636       759       760      3106      3110      3108
 -1      1381    8    0    1
 -2       638       637       761      2729      3111      3112
 -1      1382    8    0    1
 -2       637       760       761      3109      3113      3111
 -1      1383    8    0    1
 -2       639       638       762      2732      3114      3115
 -1      1384    8    0    1
 -2       638       761       762      3112      3116      3114
 -1      1385    8    0    1
 -2       640       639       763      2735      3117      3118
 -1      1386    8    0    1
 -2       639       762       763      3115      3119      3117
 -1      1387    8    0    1
 -2       641       640       764      2738      3120      3121
 -1      1388    8    0    1
 -2       640       763       764      3118      3122      3120
 -1      1389    8    0    1
 -2       642       641       765      2741      3123      3124
 -1      1390    8    0    1
 -2       641       764       765      3121      3125      3123
 -1      1391    8    0    1
 -2       643       642       766      2744      3126      3127
 -1      1392    8    0    1
 -2       642       765       766      3124      3128      3126
 -1      1393    8    0    1
 -2       644       643       767      2747      3129      3130
 -1      1394    8    0    1
 -2       643       766       767      3127      3131      3129
 -1      1395    8    0    1
 -2       645       644       768      2750      3132      3133
 -1      1396    8    0    1
 -2       644       767       768      3130      3134      3132
 -1      1397    8    0    1
 -2       646       645       769      2753      3135      3136
 -1      1398    8    0    1
 -2       645       768       769      3133      3137      3135
 -1      1399    8    0    1
 -2       647       646       770      2756      3138      3139
 -1      1400    8    0    1
 -2       646       769       770      3136      3140      3138
 -1      1401    8    0    1
 -2       605       506       733      2760      3038      3141
 -1      1402    8    0    1
 -2       735       736       649      3015      3142      3091
 -1      1403    8    0    1
 -2       508       507       741      2332      3143      3029
 -1      1404    8    0    1
 -2       719       720       771      3049      3144      3145
 -1      1405    8    0    1
 -2       651       650       772      2773      3146      3147
 -1      1406    8    0    1
 -2       652       651       773      2776      3148      3149
 -1      1407    8    0    1
 -2       651       772       773      3147      3150      3148
 -1      1408    8    0    1
 -2       653       652       774      2779      3151      3152
 -1      1409    8    0    1
 -2       652       773       774      3149      3153      3151
 -1      1410    8    0    1
 -2       654       653       775      2782      3154      3155
 -1      1411    8    0    1
 -2       653       774       775      3152      3156      3154
 -1      1412    8    0    1
 -2       655       654       776      2785      3157      3158
 -1      1413    8    0    1
 -2       654       775       776      3155      3159      3157
 -1      1414    8    0    1
 -2       656       655       777      2788      3160      3161
 -1      1415    8    0    1
 -2       655       776       777      3158      3162      3160
 -1      1416    8    0    1
 -2       657       656       778      2791      3163      3164
 -1      1417    8    0    1
 -2       656       777       778      3161      3165      3163
 -1      1418    8    0    1
 -2       658       657       779      2794      3166      3167
 -1      1419    8    0    1
 -2       657       778       779      3164      3168      3166
 -1      1420    8    0    1
 -2       659       658       780      2797      3169      3170
 -1      1421    8    0    1
 -2       658       779       780      3167      3171      3169
 -1      1422    8    0    1
 -2       660       659       781      2800      3172      3173
 -1      1423    8    0    1
 -2       659       780       781      3170      3174      3172
 -1      1424    8    0    1
 -2       661       660       782      2803      3175      3176
 -1      1425    8    0    1
 -2       660       781       782      3173      3177      3175
 -1      1426    8    0    1
 -2       662       661       783      2806      3178      3179
 -1      1427    8    0    1
 -2       661       782       783      3176      3180      3178
 -1      1428    8    0    1
 -2       663       662       784      2809      3181      3182
 -1      1429    8    0    1
 -2       662       783       784      3179      3183      3181
 -1      1430    8    0    1
 -2       664       663       785      2812      3184      3185
 -1      1431    8    0    1
 -2       663       784       785      3182      3186      3184
 -1      1432    8    0    1
 -2       665       664       786      2815      3187      3188
 -1      1433    8    0    1
 -2       664       785       786      3185      3189      3187
 -1      1434    8    0    1
 -2       666       665       787      2818      3190      3191
 -1      1435    8    0    1
 -2       751       666       787      3085      3191      3192
 -1      1436    8    0    1
 -2       665       786       787      3188      3193      3190
 -1      1437    8    0    1
 -2       667       627       788      2821      3194      3195
 -1      1438    8    0    1
 -2       668       724       789      3044      3196      3197
 -1      1439    8    0    1
 -2       669       670       790      2828      3198      3199
 -1      1440    8    0    1
 -2       672       673       791      2837      3200      3201
 -1      1441    8    0    1
 -2       673       674       792      2840      3202      3203
 -1      1442    8    0    1
 -2       673       792       791      3203      3204      3200
 -1      1443    8    0    1
 -2       674       675       793      2843      3205      3206
 -1      1444    8    0    1
 -2       674       793       792      3206      3207      3202
 -1      1445    8    0    1
 -2       675       676       794      2846      3208      3209
 -1      1446    8    0    1
 -2       675       794       793      3209      3210      3205
 -1      1447    8    0    1
 -2       676       677       795      2849      3211      3212
 -1      1448    8    0    1
 -2       676       795       794      3212      3213      3208
 -1      1449    8    0    1
 -2       677       678       796      2852      3214      3215
 -1      1450    8    0    1
 -2       677       796       795      3215      3216      3211
 -1      1451    8    0    1
 -2       678       679       797      2855      3217      3218
 -1      1452    8    0    1
 -2       678       797       796      3218      3219      3214
 -1      1453    8    0    1
 -2       679       680       798      2858      3220      3221
 -1      1454    8    0    1
 -2       679       798       797      3221      3222      3217
 -1      1455    8    0    1
 -2       680       681       799      2861      3223      3224
 -1      1456    8    0    1
 -2       680       799       798      3224      3225      3220
 -1      1457    8    0    1
 -2       681       682       800      2864      3226      3227
 -1      1458    8    0    1
 -2       681       800       799      3227      3228      3223
 -1      1459    8    0    1
 -2       682       683       801      2867      3229      3230
 -1      1460    8    0    1
 -2       682       801       800      3230      3231      3226
 -1      1461    8    0    1
 -2       683       684       755      2870      3232      3233
 -1      1462    8    0    1
 -2       684       685       755      2873      3234      3232
 -1      1463    8    0    1
 -2       685       686       802      2876      3235      3236
 -1      1464    8    0    1
 -2       686       687       803      2879      3237      3238
 -1      1465    8    0    1
 -2       686       803       802      3238      3239      3235
 -1      1466    8    0    1
 -2       687       688       804      2882      3240      3241
 -1      1467    8    0    1
 -2       687       804       803      3241      3242      3237
 -1      1468    8    0    1
 -2       688       689       805      2885      3243      3244
 -1      1469    8    0    1
 -2       688       805       804      3244      3245      3240
 -1      1470    8    0    1
 -2       689       690       806      2888      3246      3247
 -1      1471    8    0    1
 -2       689       806       805      3247      3248      3243
 -1      1472    8    0    1
 -2       690       691       807      2891      3249      3250
 -1      1473    8    0    1
 -2       690       807       806      3250      3251      3246
 -1      1474    8    0    1
 -2       691       692       808      2894      3252      3253
 -1      1475    8    0    1
 -2       691       808       807      3253      3254      3249
 -1      1476    8    0    1
 -2       692       693       809      2897      3255      3256
 -1      1477    8    0    1
 -2       692       809       808      3256      3257      3252
 -1      1478    8    0    1
 -2       693       694       810      2900      3258      3259
 -1      1479    8    0    1
 -2       693       810       809      3259      3260      3255
 -1      1480    8    0    1
 -2       694       695       811      2903      3261      3262
 -1      1481    8    0    1
 -2       694       811       810      3262      3263      3258
 -1      1482    8    0    1
 -2       695       696       812      2906      3264      3265
 -1      1483    8    0    1
 -2       695       812       811      3265      3266      3261
 -1      1484    8    0    1
 -2       696       697       813      2909      3267      3268
 -1      1485    8    0    1
 -2       696       813       812      3268      3269      3264
 -1      1486    8    0    1
 -2       697       698       814      2912      3270      3271
 -1      1487    8    0    1
 -2       697       814       813      3271      3272      3267
 -1      1488    8    0    1
 -2       698       699       815      2915      3273      3274
 -1      1489    8    0    1
 -2       698       815       814      3274      3275      3270
 -1      1490    8    0    1
 -2       699       700       816      2918      3276      3277
 -1      1491    8    0    1
 -2       699       816       815      3277      3278      3273
 -1      1492    8    0    1
 -2       700       701       817      2921      3279      3280
 -1      1493    8    0    1
 -2       700       817       816      3280      3281      3276
 -1      1494    8    0    1
 -2       701       702       818      2924      3282      3283
 -1      1495    8    0    1
 -2       701       818       817      3283      3284      3279
 -1      1496    8    0    1
 -2       702       703       819      2927      3285      3286
 -1      1497    8    0    1
 -2       702       819       818      3286      3287      3282
 -1      1498    8    0    1
 -2       703       704       820      2930      3288      3289
 -1      1499    8    0    1
 -2       703       820       819      3289      3290      3285
 -1      1500    8    0    1
 -2       704       705       821      2933      3291      3292
 -1      1501    8    0    1
 -2       704       821       820      3292      3293      3288
 -1      1502    8    0    1
 -2       705       706       822      2936      3294      3295
 -1      1503    8    0    1
 -2       821       705       822      3291      3295      3296
 -1      1504    8    0    1
 -2       706       744       822      3047      3297      3294
 -1      1505    8    0    1
 -2       711       713       823      2956      3298      3299
 -1      1506    8    0    1
 -2       707       726       824      3032      3300      3301
 -1      1507    8    0    1
 -2       714       715       825      2962      3302      3303
 -1      1508    8    0    1
 -2       708       711       826      2949      3304      3305
 -1      1509    8    0    1
 -2       711       823       826      3299      3306      3304
 -1      1510    8    0    1
 -2       723       669       827      2981      3307      3308
 -1      1511    8    0    1
 -2       669       790       827      3199      3309      3307
 -1      1512    8    0    1
 -2       713       714       828      2959      3310      3311
 -1      1513    8    0    1
 -2       823       713       828      3298      3311      3312
 -1      1514    8    0    1
 -2       714       825       828      3303      3313      3310
 -1      1515    8    0    1
 -2       605       741       507      3086      3143      2761
 -1      1516    8    0    1
 -2       671       672       829      2834      3314      3315
 -1      1517    8    0    1
 -2       672       791       829      3201      3316      3314
 -1      1518    8    0    1
 -2       670       671       830      2831      3317      3318
 -1      1519    8    0    1
 -2       790       670       830      3198      3318      3319
 -1      1520    8    0    1
 -2       671       829       830      3315      3320      3317
 -1      1521    8    0    1
 -2       650       649       831      2770      3321      3322
 -1      1522    8    0    1
 -2       772       650       831      3146      3322      3323
 -1      1523    8    0    1
 -2       649       736       831      3142      3324      3321
 -1      1524    8    0    1
 -2       718       719       832      3059      3325      3326
 -1      1525    8    0    1
 -2       719       771       832      3145      3327      3325
 -1      1526    8    0    1
 -2       736       718       831      3066      3328      3324
 -1      1527    8    0    1
 -2       734       616       833      3043      3329      3330
 -1      1528    8    0    1
 -2       724       723       834      2984      3331      3332
 -1      1529    8    0    1
 -2       723       827       834      3308      3333      3331
 -1      1530    8    0    1
 -2       632       631       835      2711      3334      3335
 -1      1531    8    0    1
 -2       632       835       756      3335      3336      3097
 -1      1532    8    0    1
 -2       620       614       836      2674      3337      3338
 -1      1533    8    0    1
 -2       630       620       836      2706      3338      3339
 -1      1534    8    0    1
 -2       614       739       836      3022      3340      3337
 -1      1535    8    0    1
 -2       625       626       837      3070      3341      3342
 -1      1536    8    0    1
 -2       753       625       837      3089      3342      3343
 -1      1537    8    0    1
 -2       626       628       837      2700      3344      3341
 -1      1538    8    0    1
 -2       720       722       838      3065      3345      3346
 -1      1539    8    0    1
 -2       627       707       839      3081      3347      3348
 -1      1540    8    0    1
 -2       627       839       788      3348      3349      3194
 -1      1541    8    0    1
 -2       729       734       840      3077      3350      3351
 -1      1542    8    0    1
 -2       722       667       841      3061      3352      3353
 -1      1543    8    0    1
 -2       667       788       841      3195      3354      3352
 -1      1544    8    0    1
 -2       731       737       842      3053      3355      3356
 -1      1545    8    0    1
 -2       730       731       843      3055      3357      3358
 -1      1546    8    0    1
 -2       619       738       844      3071      3359      3360
 -1      1547    8    0    1
 -2       623       622       845      2686      3361      3362
 -1      1548    8    0    1
 -2       617       648       746      3096      3363      3058
 -1      1549    8    0    1
 -2       740       623       846      3024      3364      3365
 -1      1550    8    0    1
 -2       623       845       846      3362      3366      3364
 -1      1551    8    0    1
 -2       624       753       847      3090      3367      3368
 -1      1552    8    0    1
 -2       624       847       727      3368      3369      2994
 -1      1553    8    0    1
 -2       831       718       832      3328      3326      3370
 -1      1554    8    0    1
 -2       754       732       848      3092      3371      3372
 -1      1555    8    0    1
 -2       732       745       848      3051      3373      3371
 -1      1556    8    0    1
 -2       720       838       771      3346      3374      3144
 -1      1557    8    0    1
 -2       837       628       849      3344      3375      3376
 -1      1558    8    0    1
 -2       628       716       849      2965      3377      3375
 -1      1559    8    0    1
 -2       742       619       844      3035      3360      3378
 -1      1560    8    0    1
 -2       738       755       844      3095      3379      3359
 -1      1561    8    0    1
 -2       630       836       850      3339      3380      3381
 -1      1562    8    0    1
 -2       630       850       725      3381      3382      2988
 -1      1563    8    0    1
 -2       648       647       833      2759      3383      3384
 -1      1564    8    0    1
 -2       743       710       851      3040      3385      3386
 -1      1565    8    0    1
 -2       731       842       843      3356      3387      3357
 -1      1566    8    0    1
 -2       789       724       834      3196      3332      3388
 -1      1567    8    0    1
 -2       683       755       801      3233      3389      3229
 -1      1568    8    0    1
 -2       824       726       742      3300      3034      3390
 -1      1569    8    0    1
 -2       710       712       852      2952      3391      3392
 -1      1570    8    0    1
 -2       710       852       851      3392      3393      3385
 -1      1571    8    0    1
 -2       707       824       839      3301      3394      3347
 -1      1572    8    0    1
 -2       712       708       853      2953      3395      3396
 -1      1573    8    0    1
 -2       852       712       853      3391      3396      3397
 -1      1574    8    0    1
 -2       708       826       853      3305      3398      3395
 -1      1575    8    0    1
 -2       745       621       854      3052      3399      3400
 -1      1576    8    0    1
 -2       621       750       854      3079      3401      3399
 -1      1577    8    0    1
 -2       838       722       855      3345      3402      3403
 -1      1578    8    0    1
 -2       722       841       855      3353      3404      3402
 -1      1579    8    0    1
 -2       716       668       856      2966      3405      3406
 -1      1580    8    0    1
 -2       849       716       856      3377      3406      3407
 -1      1581    8    0    1
 -2       668       789       856      3197      3408      3405
 -1      1582    8    0    1
 -2       747       730       843      3064      3358      3409
 -1      1583    8    0    1
 -2       845       622       857      3361      3410      3411
 -1      1584    8    0    1
 -2       622       727       857      2993      3412      3410
 -1      1585    8    0    1
 -2       748       729       858      3069      3413      3414
 -1      1586    8    0    1
 -2       729       840       858      3351      3415      3413
 -1      1587    8    0    1
 -2       647       770       833      3139      3416      3383
 -1      1588    8    0    1
 -2       739       728       859      3023      3417      3418
 -1      1589    8    0    1
 -2       631       725       850      2987      3382      3419
 -1      1590    8    0    1
 -2       835       631       850      3334      3419      3420
 -1      1591    8    0    1
 -2       750       618       860      3080      3421      3422
 -1      1592    8    0    1
 -2       618       748       860      3068      3423      3421
 -1      1593    8    0    1
 -2       717       754       752      3093      3424      3087
 -1      1594    8    0    1
 -2       842       737       752      3355      3088      3425
 -1      1595    8    0    1
 -2       715       751       861      3084      3426      3427
 -1      1596    8    0    1
 -2       825       715       861      3302      3427      3428
 -1      1597    8    0    1
 -2       751       787       861      3192      3429      3426
 -1      1598    8    0    1
 -2       755       721       747      3094      3063      3430
 -1      1599    8    0    1
 -2       728       749       862      3074      3431      3432
 -1      1600    8    0    1
 -2       728       862       859      3432      3433      3417
 -1      1601    8    0    1
 -2       829       791       863      3316      3434      3435
 -1      1602    8    0    1
 -2       839       824       864      3394      3436      3437
 -1      1603    8    0    1
 -2       850       836       739      3380      3340      3438
 -1      1604    8    0    1
 -2       739       859       850      3418      3439      3438
 -1      1605    8    0    1
 -2       758       757       865      3104      3440      3441
 -1      1606    8    0    1
 -2       759       758       866      3107      3442      3443
 -1      1607    8    0    1
 -2       758       865       866      3441      3444      3442
 -1      1608    8    0    1
 -2       760       759       867      3110      3445      3446
 -1      1609    8    0    1
 -2       759       866       867      3443      3447      3445
 -1      1610    8    0    1
 -2       761       760       868      3113      3448      3449
 -1      1611    8    0    1
 -2       760       867       868      3446      3450      3448
 -1      1612    8    0    1
 -2       762       761       869      3116      3451      3452
 -1      1613    8    0    1
 -2       761       868       869      3449      3453      3451
 -1      1614    8    0    1
 -2       763       762       870      3119      3454      3455
 -1      1615    8    0    1
 -2       762       869       870      3452      3456      3454
 -1      1616    8    0    1
 -2       764       763       871      3122      3457      3458
 -1      1617    8    0    1
 -2       763       870       871      3455      3459      3457
 -1      1618    8    0    1
 -2       765       764       872      3125      3460      3461
 -1      1619    8    0    1
 -2       764       871       872      3458      3462      3460
 -1      1620    8    0    1
 -2       766       765       873      3128      3463      3464
 -1      1621    8    0    1
 -2       765       872       873      3461      3465      3463
 -1      1622    8    0    1
 -2       767       766       874      3131      3466      3467
 -1      1623    8    0    1
 -2       766       873       874      3464      3468      3466
 -1      1624    8    0    1
 -2       768       767       875      3134      3469      3470
 -1      1625    8    0    1
 -2       767       874       875      3467      3471      3469
 -1      1626    8    0    1
 -2       769       768       876      3137      3472      3473
 -1      1627    8    0    1
 -2       768       875       876      3470      3474      3472
 -1      1628    8    0    1
 -2       770       769       840      3140      3475      3476
 -1      1629    8    0    1
 -2       734       833       770      3330      3416      3477
 -1      1630    8    0    1
 -2       773       772       877      3150      3478      3479
 -1      1631    8    0    1
 -2       832       771       878      3327      3480      3481
 -1      1632    8    0    1
 -2       753       837       879      3343      3482      3483
 -1      1633    8    0    1
 -2       837       849       879      3376      3484      3482
 -1      1634    8    0    1
 -2       843       842       880      3387      3485      3486
 -1      1635    8    0    1
 -2       774       773       881      3153      3487      3488
 -1      1636    8    0    1
 -2       773       877       881      3479      3489      3487
 -1      1637    8    0    1
 -2       775       774       882      3156      3490      3491
 -1      1638    8    0    1
 -2       774       881       882      3488      3492      3490
 -1      1639    8    0    1
 -2       776       775       883      3159      3493      3494
 -1      1640    8    0    1
 -2       775       882       883      3491      3495      3493
 -1      1641    8    0    1
 -2       777       776       884      3162      3496      3497
 -1      1642    8    0    1
 -2       776       883       884      3494      3498      3496
 -1      1643    8    0    1
 -2       778       777       885      3165      3499      3500
 -1      1644    8    0    1
 -2       777       884       885      3497      3501      3499
 -1      1645    8    0    1
 -2       779       778       886      3168      3502      3503
 -1      1646    8    0    1
 -2       778       885       886      3500      3504      3502
 -1      1647    8    0    1
 -2       780       779       887      3171      3505      3506
 -1      1648    8    0    1
 -2       779       886       887      3503      3507      3505
 -1      1649    8    0    1
 -2       781       780       888      3174      3508      3509
 -1      1650    8    0    1
 -2       780       887       888      3506      3510      3508
 -1      1651    8    0    1
 -2       782       781       889      3177      3511      3512
 -1      1652    8    0    1
 -2       781       888       889      3509      3513      3511
 -1      1653    8    0    1
 -2       783       782       890      3180      3514      3515
 -1      1654    8    0    1
 -2       782       889       890      3512      3516      3514
 -1      1655    8    0    1
 -2       784       783       891      3183      3517      3518
 -1      1656    8    0    1
 -2       783       890       891      3515      3519      3517
 -1      1657    8    0    1
 -2       785       784       892      3186      3520      3521
 -1      1658    8    0    1
 -2       784       891       892      3518      3522      3520
 -1      1659    8    0    1
 -2       786       785       893      3189      3523      3524
 -1      1660    8    0    1
 -2       785       892       893      3521      3525      3523
 -1      1661    8    0    1
 -2       744       743       894      3048      3526      3527
 -1      1662    8    0    1
 -2       822       744       894      3297      3527      3528
 -1      1663    8    0    1
 -2       743       851       894      3386      3529      3526
 -1      1664    8    0    1
 -2       756       835       895      3336      3530      3531
 -1      1665    8    0    1
 -2       791       792       896      3204      3532      3533
 -1      1666    8    0    1
 -2       791       896       863      3533      3534      3434
 -1      1667    8    0    1
 -2       794       795       897      3213      3535      3536
 -1      1668    8    0    1
 -2       795       796       898      3216      3537      3538
 -1      1669    8    0    1
 -2       795       898       897      3538      3539      3535
 -1      1670    8    0    1
 -2       796       797       899      3219      3540      3541
 -1      1671    8    0    1
 -2       796       899       898      3541      3542      3537
 -1      1672    8    0    1
 -2       797       798       900      3222      3543      3544
 -1      1673    8    0    1
 -2       797       900       899      3544      3545      3540
 -1      1674    8    0    1
 -2       798       799       901      3225      3546      3547
 -1      1675    8    0    1
 -2       798       901       900      3547      3548      3543
 -1      1676    8    0    1
 -2       799       800       880      3228      3549      3550
 -1      1677    8    0    1
 -2       824       742       902      3390      3551      3552
 -1      1678    8    0    1
 -2       685       802       755      3236      3553      3234
 -1      1679    8    0    1
 -2       803       804       902      3242      3554      3555
 -1      1680    8    0    1
 -2       805       806       903      3248      3556      3557
 -1      1681    8    0    1
 -2       806       807       904      3251      3558      3559
 -1      1682    8    0    1
 -2       806       904       903      3559      3560      3556
 -1      1683    8    0    1
 -2       807       808       905      3254      3561      3562
 -1      1684    8    0    1
 -2       807       905       904      3562      3563      3558
 -1      1685    8    0    1
 -2       808       809       906      3257      3564      3565
 -1      1686    8    0    1
 -2       808       906       905      3565      3566      3561
 -1      1687    8    0    1
 -2       809       810       907      3260      3567      3568
 -1      1688    8    0    1
 -2       809       907       906      3568      3569      3564
 -1      1689    8    0    1
 -2       810       811       908      3263      3570      3571
 -1      1690    8    0    1
 -2       810       908       907      3571      3572      3567
 -1      1691    8    0    1
 -2       811       812       909      3266      3573      3574
 -1      1692    8    0    1
 -2       811       909       908      3574      3575      3570
 -1      1693    8    0    1
 -2       812       813       910      3269      3576      3577
 -1      1694    8    0    1
 -2       812       910       909      3577      3578      3573
 -1      1695    8    0    1
 -2       813       814       911      3272      3579      3580
 -1      1696    8    0    1
 -2       813       911       910      3580      3581      3576
 -1      1697    8    0    1
 -2       814       815       912      3275      3582      3583
 -1      1698    8    0    1
 -2       814       912       911      3583      3584      3579
 -1      1699    8    0    1
 -2       815       816       913      3278      3585      3586
 -1      1700    8    0    1
 -2       815       913       912      3586      3587      3582
 -1      1701    8    0    1
 -2       816       817       914      3281      3588      3589
 -1      1702    8    0    1
 -2       816       914       913      3589      3590      3585
 -1      1703    8    0    1
 -2       817       818       915      3284      3591      3592
 -1      1704    8    0    1
 -2       817       915       914      3592      3593      3588
 -1      1705    8    0    1
 -2       818       819       916      3287      3594      3595
 -1      1706    8    0    1
 -2       818       916       915      3595      3596      3591
 -1      1707    8    0    1
 -2       819       820       917      3290      3597      3598
 -1      1708    8    0    1
 -2       819       917       916      3598      3599      3594
 -1      1709    8    0    1
 -2       827       790       918      3309      3600      3601
 -1      1710    8    0    1
 -2       793       794       919      3210      3602      3603
 -1      1711    8    0    1
 -2       794       897       919      3536      3604      3602
 -1      1712    8    0    1
 -2       771       838       920      3374      3605      3606
 -1      1713    8    0    1
 -2       771       920       878      3606      3607      3480
 -1      1714    8    0    1
 -2       835       850       859      3420      3439      3608
 -1      1715    8    0    1
 -2       789       834       921      3388      3609      3610
 -1      1716    8    0    1
 -2       826       823       922      3306      3611      3612
 -1      1717    8    0    1
 -2       834       827       923      3333      3613      3614
 -1      1718    8    0    1
 -2       827       918       923      3601      3615      3613
 -1      1719    8    0    1
 -2       833       616       746      3329      3057      3616
 -1      1720    8    0    1
 -2       749       740       924      3075      3617      3618
 -1      1721    8    0    1
 -2       749       924       862      3618      3619      3431
 -1      1722    8    0    1
 -2       804       805       925      3245      3620      3621
 -1      1723    8    0    1
 -2       902       804       925      3554      3621      3622
 -1      1724    8    0    1
 -2       805       903       925      3557      3623      3620
 -1      1725    8    0    1
 -2       648       833       746      3384      3616      3363
 -1      1726    8    0    1
 -2       831       832       772      3370      3624      3323
 -1      1727    8    0    1
 -2       841       788       926      3354      3625      3626
 -1      1728    8    0    1
 -2       792       793       927      3207      3627      3628
 -1      1729    8    0    1
 -2       896       792       927      3532      3628      3629
 -1      1730    8    0    1
 -2       793       919       927      3603      3630      3627
 -1      1731    8    0    1
 -2       788       839       928      3349      3631      3632
 -1      1732    8    0    1
 -2       757       756       929      3101      3633      3634
 -1      1733    8    0    1
 -2       757       929       865      3634      3635      3440
 -1      1734    8    0    1
 -2       840       734       770      3350      3477      3476
 -1      1735    8    0    1
 -2       835       859       930      3608      3636      3637
 -1      1736    8    0    1
 -2       895       835       930      3530      3637      3638
 -1      1737    8    0    1
 -2       859       862       930      3433      3639      3636
 -1      1738    8    0    1
 -2       842       752       931      3425      3640      3641
 -1      1739    8    0    1
 -2       752       754       932      3424      3642      3643
 -1      1740    8    0    1
 -2       604       605       733      2644      3141      3005
 -1      1741    8    0    1
 -2       840       769       876      3475      3473      3644
 -1      1742    8    0    1
 -2       847       753       879      3367      3483      3645
 -1      1743    8    0    1
 -2       839       864       928      3437      3646      3631
 -1      1744    8    0    1
 -2       848       745       933      3373      3647      3648
 -1      1745    8    0    1
 -2       745       854       933      3400      3649      3647
 -1      1746    8    0    1
 -2       846       845       934      3366      3650      3651
 -1      1747    8    0    1
 -2       754       848       935      3372      3652      3653
 -1      1748    8    0    1
 -2       754       935       932      3653      3654      3642
 -1      1749    8    0    1
 -2       756       895       929      3531      3655      3633
 -1      1750    8    0    1
 -2       832       878       877      3481      3656      3657
 -1      1751    8    0    1
 -2       880       842       931      3485      3641      3658
 -1      1752    8    0    1
 -2       755       747       801      3430      3659      3389
 -1      1753    8    0    1
 -2       894       851       936      3529      3660      3661
 -1      1754    8    0    1
 -2       787       786       937      3193      3662      3663
 -1      1755    8    0    1
 -2       861       787       937      3429      3663      3664
 -1      1756    8    0    1
 -2       786       893       937      3524      3665      3662
 -1      1757    8    0    1
 -2       747       843       801      3409      3666      3659
 -1      1758    8    0    1
 -2       823       828       938      3312      3667      3668
 -1      1759    8    0    1
 -2       823       938       922      3668      3669      3611
 -1      1760    8    0    1
 -2       790       830       939      3319      3670      3671
 -1      1761    8    0    1
 -2       790       939       918      3671      3672      3600
 -1      1762    8    0    1
 -2       800       801       843      3231      3666      3673
 -1      1763    8    0    1
 -2       755       802       844      3553      3674      3379
 -1      1764    8    0    1
 -2       802       803       940      3239      3675      3676
 -1      1765    8    0    1
 -2       917       820       936      3597      3677      3678
 -1      1766    8    0    1
 -2       934       845       941      3650      3679      3680
 -1      1767    8    0    1
 -2       845       857       941      3411      3681      3679
 -1      1768    8    0    1
 -2       844       802       940      3674      3676      3682
 -1      1769    8    0    1
 -2       936       851       942      3660      3683      3684
 -1      1770    8    0    1
 -2       851       852       942      3393      3685      3683
 -1      1771    8    0    1
 -2       936       820       821      3677      3293      3686
 -1      1772    8    0    1
 -2       821       822       894      3296      3528      3687
 -1      1773    8    0    1
 -2       931       752       932      3640      3643      3688
 -1      1774    8    0    1
 -2       854       750       943      3401      3689      3690
 -1      1775    8    0    1
 -2       750       860       943      3422      3691      3689
 -1      1776    8    0    1
 -2       936       821       894      3686      3687      3661
 -1      1777    8    0    1
 -2       853       826       944      3398      3692      3693
 -1      1778    8    0    1
 -2       826       922       944      3612      3694      3692
 -1      1779    8    0    1
 -2       788       928       926      3632      3695      3625
 -1      1780    8    0    1
 -2       855       841       945      3404      3696      3697
 -1      1781    8    0    1
 -2       841       926       945      3626      3698      3696
 -1      1782    8    0    1
 -2       920       838       946      3605      3699      3700
 -1      1783    8    0    1
 -2       838       855       946      3403      3701      3699
 -1      1784    8    0    1
 -2       742       844       940      3378      3682      3702
 -1      1785    8    0    1
 -2       856       789       947      3408      3703      3704
 -1      1786    8    0    1
 -2       789       921       947      3610      3705      3703
 -1      1787    8    0    1
 -2       740       846       924      3365      3706      3617
 -1      1788    8    0    1
 -2       857       727       847      3412      3369      3707
 -1      1789    8    0    1
 -2       829       863       948      3435      3708      3709
 -1      1790    8    0    1
 -2       829       948       830      3709      3710      3320
 -1      1791    8    0    1
 -2       921       834       923      3609      3614      3711
 -1      1792    8    0    1
 -2       860       748       949      3423      3712      3713
 -1      1793    8    0    1
 -2       748       858       949      3414      3714      3712
 -1      1794    8    0    1
 -2       825       861       937      3428      3664      3715
 -1      1795    8    0    1
 -2       772       832       877      3624      3657      3478
 -1      1796    8    0    1
 -2       825       937       950      3715      3716      3717
 -1      1797    8    0    1
 -2       828       825       950      3313      3717      3718
 -1      1798    8    0    1
 -2       937       893       950      3665      3719      3716
 -1      1799    8    0    1
 -2       904       905       951      3563      3720      3721
 -1      1800    8    0    1
 -2       866       865       952      3444      3722      3723
 -1      1801    8    0    1
 -2       847       879       953      3645      3724      3725
 -1      1802    8    0    1
 -2       867       866       954      3447      3726      3727
 -1      1803    8    0    1
 -2       866       952       954      3723      3728      3726
 -1      1804    8    0    1
 -2       868       867       955      3450      3729      3730
 -1      1805    8    0    1
 -2       867       954       955      3727      3731      3729
 -1      1806    8    0    1
 -2       869       868       956      3453      3732      3733
 -1      1807    8    0    1
 -2       868       955       956      3730      3734      3732
 -1      1808    8    0    1
 -2       870       869       957      3456      3735      3736
 -1      1809    8    0    1
 -2       869       956       957      3733      3737      3735
 -1      1810    8    0    1
 -2       871       870       958      3459      3738      3739
 -1      1811    8    0    1
 -2       870       957       958      3736      3740      3738
 -1      1812    8    0    1
 -2       872       871       959      3462      3741      3742
 -1      1813    8    0    1
 -2       871       958       959      3739      3743      3741
 -1      1814    8    0    1
 -2       873       872       960      3465      3744      3745
 -1      1815    8    0    1
 -2       872       959       960      3742      3746      3744
 -1      1816    8    0    1
 -2       874       873       961      3468      3747      3748
 -1      1817    8    0    1
 -2       873       960       961      3745      3749      3747
 -1      1818    8    0    1
 -2       875       874       962      3471      3750      3751
 -1      1819    8    0    1
 -2       874       961       962      3748      3752      3750
 -1      1820    8    0    1
 -2       876       875       963      3474      3753      3754
 -1      1821    8    0    1
 -2       875       962       963      3751      3755      3753
 -1      1822    8    0    1
 -2       877       878       964      3656      3756      3757
 -1      1823    8    0    1
 -2       877       964       881      3757      3758      3489
 -1      1824    8    0    1
 -2       882       881       965      3492      3759      3760
 -1      1825    8    0    1
 -2       881       964       965      3758      3761      3759
 -1      1826    8    0    1
 -2       883       882       966      3495      3762      3763
 -1      1827    8    0    1
 -2       882       965       966      3760      3764      3762
 -1      1828    8    0    1
 -2       884       883       967      3498      3765      3766
 -1      1829    8    0    1
 -2       883       966       967      3763      3767      3765
 -1      1830    8    0    1
 -2       885       884       968      3501      3768      3769
 -1      1831    8    0    1
 -2       884       967       968      3766      3770      3768
 -1      1832    8    0    1
 -2       886       885       969      3504      3771      3772
 -1      1833    8    0    1
 -2       885       968       969      3769      3773      3771
 -1      1834    8    0    1
 -2       887       886       970      3507      3774      3775
 -1      1835    8    0    1
 -2       886       969       970      3772      3776      3774
 -1      1836    8    0    1
 -2       888       887       971      3510      3777      3778
 -1      1837    8    0    1
 -2       887       970       971      3775      3779      3777
 -1      1838    8    0    1
 -2       889       888       972      3513      3780      3781
 -1      1839    8    0    1
 -2       888       971       972      3778      3782      3780
 -1      1840    8    0    1
 -2       890       889       973      3516      3783      3784
 -1      1841    8    0    1
 -2       889       972       973      3781      3785      3783
 -1      1842    8    0    1
 -2       891       890       974      3519      3786      3787
 -1      1843    8    0    1
 -2       890       973       974      3784      3788      3786
 -1      1844    8    0    1
 -2       892       891       975      3522      3789      3790
 -1      1845    8    0    1
 -2       891       974       975      3787      3791      3789
 -1      1846    8    0    1
 -2       893       892       976      3525      3792      3793
 -1      1847    8    0    1
 -2       892       975       976      3790      3794      3792
 -1      1848    8    0    1
 -2       863       896       977      3534      3795      3796
 -1      1849    8    0    1
 -2       898       899       978      3542      3797      3798
 -1      1850    8    0    1
 -2       897       898       979      3539      3799      3800
 -1      1851    8    0    1
 -2       898       978       979      3798      3801      3799
 -1      1852    8    0    1
 -2       799       880       931      3550      3658      3802
 -1      1853    8    0    1
 -2       824       902       925      3552      3622      3803
 -1      1854    8    0    1
 -2       940       803       902      3675      3555      3804
 -1      1855    8    0    1
 -2       917       936       980      3678      3805      3806
 -1      1856    8    0    1
 -2       936       942       980      3684      3807      3805
 -1      1857    8    0    1
 -2       906       907       981      3569      3808      3809
 -1      1858    8    0    1
 -2       907       908       982      3572      3810      3811
 -1      1859    8    0    1
 -2       907       982       981      3811      3812      3808
 -1      1860    8    0    1
 -2       908       909       983      3575      3813      3814
 -1      1861    8    0    1
 -2       908       983       982      3814      3815      3810
 -1      1862    8    0    1
 -2       909       910       984      3578      3816      3817
 -1      1863    8    0    1
 -2       909       984       983      3817      3818      3813
 -1      1864    8    0    1
 -2       910       911       985      3581      3819      3820
 -1      1865    8    0    1
 -2       910       985       984      3820      3821      3816
 -1      1866    8    0    1
 -2       911       912       986      3584      3822      3823
 -1      1867    8    0    1
 -2       911       986       985      3823      3824      3819
 -1      1868    8    0    1
 -2       912       913       987      3587      3825      3826
 -1      1869    8    0    1
 -2       912       987       986      3826      3827      3822
 -1      1870    8    0    1
 -2       913       914       988      3590      3828      3829
 -1      1871    8    0    1
 -2       913       988       987      3829      3830      3825
 -1      1872    8    0    1
 -2       914       915       989      3593      3831      3832
 -1      1873    8    0    1
 -2       914       989       988      3832      3833      3828
 -1      1874    8    0    1
 -2       915       916       990      3596      3834      3835
 -1      1875    8    0    1
 -2       915       990       989      3835      3836      3831
 -1      1876    8    0    1
 -2       916       917       991      3599      3837      3838
 -1      1877    8    0    1
 -2       990       916       991      3834      3838      3839
 -1      1878    8    0    1
 -2       917       980       991      3806      3840      3837
 -1      1879    8    0    1
 -2       800       843       880      3673      3486      3549
 -1      1880    8    0    1
 -2       923       918       992      3615      3841      3842
 -1      1881    8    0    1
 -2       846       934       993      3651      3843      3844
 -1      1882    8    0    1
 -2       846       993       924      3844      3845      3706
 -1      1883    8    0    1
 -2       919       897       994      3604      3846      3847
 -1      1884    8    0    1
 -2       897       979       994      3800      3848      3846
 -1      1885    8    0    1
 -2       905       906       995      3566      3849      3850
 -1      1886    8    0    1
 -2       906       981       995      3809      3851      3849
 -1      1887    8    0    1
 -2       902       742       940      3551      3702      3804
 -1      1888    8    0    1
 -2       921       923       996      3711      3852      3853
 -1      1889    8    0    1
 -2       923       992       996      3842      3854      3852
 -1      1890    8    0    1
 -2       926       928       951      3695      3855      3856
 -1      1891    8    0    1
 -2       857       847       953      3707      3725      3857
 -1      1892    8    0    1
 -2       864       824       925      3436      3803      3858
 -1      1893    8    0    1
 -2       899       900       997      3545      3859      3860
 -1      1894    8    0    1
 -2       899       997       978      3860      3861      3797
 -1      1895    8    0    1
 -2       852       853       998      3397      3862      3863
 -1      1896    8    0    1
 -2       853       944       998      3693      3864      3862
 -1      1897    8    0    1
 -2       879       849       999      3484      3865      3866
 -1      1898    8    0    1
 -2       953       879       999      3724      3866      3867
 -1      1899    8    0    1
 -2       849       856       999      3407      3868      3865
 -1      1900    8    0    1
 -2       865       929      1000      3635      3869      3870
 -1      1901    8    0    1
 -2       865      1000       952      3870      3871      3722
 -1      1902    8    0    1
 -2       862       924      1001      3619      3872      3873
 -1      1903    8    0    1
 -2       924       993      1001      3845      3874      3872
 -1      1904    8    0    1
 -2       929       895      1002      3655      3875      3876
 -1      1905    8    0    1
 -2       929      1002      1000      3876      3877      3869
 -1      1906    8    0    1
 -2       878       920       964      3607      3878      3756
 -1      1907    8    0    1
 -2       935       848      1003      3652      3879      3880
 -1      1908    8    0    1
 -2       848       933      1003      3648      3881      3879
 -1      1909    8    0    1
 -2       933       854      1004      3649      3882      3883
 -1      1910    8    0    1
 -2       854       943      1004      3690      3884      3882
 -1      1911    8    0    1
 -2       876       963       949      3754      3885      3886
 -1      1912    8    0    1
 -2       895       930      1002      3638      3887      3875
 -1      1913    8    0    1
 -2       864       925       903      3858      3623      3888
 -1      1914    8    0    1
 -2       893       976       950      3793      3889      3719
 -1      1915    8    0    1
 -2       930       862      1001      3639      3873      3890
 -1      1916    8    0    1
 -2       828       950       938      3718      3891      3667
 -1      1917    8    0    1
 -2       928       864       903      3646      3888      3892
 -1      1918    8    0    1
 -2       992       918      1005      3841      3893      3894
 -1      1919    8    0    1
 -2       918       939      1005      3672      3895      3893
 -1      1920    8    0    1
 -2       904       951       928      3721      3855      3896
 -1      1921    8    0    1
 -2       942       852       998      3685      3863      3897
 -1      1922    8    0    1
 -2       977       896      1006      3795      3898      3899
 -1      1923    8    0    1
 -2       896       927      1006      3629      3900      3898
 -1      1924    8    0    1
 -2       928       903       904      3892      3560      3896
 -1      1925    8    0    1
 -2       939       830       948      3670      3710      3901
 -1      1926    8    0    1
 -2       941       857       953      3681      3857      3902
 -1      1927    8    0    1
 -2       905       995       951      3850      3903      3720
 -1      1928    8    0    1
 -2       900       901      1007      3548      3904      3905
 -1      1929    8    0    1
 -2       926       951      1008      3856      3906      3907
 -1      1930    8    0    1
 -2       945       926      1008      3698      3907      3908
 -1      1931    8    0    1
 -2       951       995      1008      3903      3909      3906
 -1      1932    8    0    1
 -2       927       919      1009      3630      3910      3911
 -1      1933    8    0    1
 -2      1006       927      1009      3900      3911      3912
 -1      1934    8    0    1
 -2       919       994      1009      3847      3913      3910
 -1      1935    8    0    1
 -2       934       941      1010      3680      3914      3915
 -1      1936    8    0    1
 -2       993       934      1011      3843      3916      3917
 -1      1937    8    0    1
 -2       934      1010      1011      3915      3918      3916
 -1      1938    8    0    1
 -2       944       922      1012      3694      3919      3920
 -1      1939    8    0    1
 -2       943       860      1013      3691      3921      3922
 -1      1940    8    0    1
 -2       860       949      1013      3713      3923      3921
 -1      1941    8    0    1
 -2       946       855      1014      3701      3924      3925
 -1      1942    8    0    1
 -2       855       945      1014      3697      3926      3924
 -1      1943    8    0    1
 -2       947       921      1015      3705      3927      3928
 -1      1944    8    0    1
 -2       921       996      1015      3853      3929      3927
 -1      1945    8    0    1
 -2       900      1007       997      3905      3930      3859
 -1      1946    8    0    1
 -2       948       863      1016      3708      3931      3932
 -1      1947    8    0    1
 -2       863       977      1016      3796      3933      3931
 -1      1948    8    0    1
 -2       999       856       947      3868      3704      3934
 -1      1949    8    0    1
 -2       964       920      1017      3878      3935      3936
 -1      1950    8    0    1
 -2       965       964      1017      3761      3936      3937
 -1      1951    8    0    1
 -2       920       946      1017      3700      3938      3935
 -1      1952    8    0    1
 -2       922       938      1018      3669      3939      3940
 -1      1953    8    0    1
 -2       922      1018      1012      3940      3941      3919
 -1      1954    8    0    1
 -2      1002       930      1001      3887      3890      3942
 -1      1955    8    0    1
 -2       932       935       997      3654      3943      3944
 -1      1956    8    0    1
 -2       955       954      1019      3731      3945      3946
 -1      1957    8    0    1
 -2       956       955      1020      3734      3947      3948
 -1      1958    8    0    1
 -2       955      1019      1020      3946      3949      3947
 -1      1959    8    0    1
 -2       957       956      1021      3737      3950      3951
 -1      1960    8    0    1
 -2       956      1020      1021      3948      3952      3950
 -1      1961    8    0    1
 -2       958       957      1022      3740      3953      3954
 -1      1962    8    0    1
 -2       957      1021      1022      3951      3955      3953
 -1      1963    8    0    1
 -2       959       958      1023      3743      3956      3957
 -1      1964    8    0    1
 -2       958      1022      1023      3954      3958      3956
 -1      1965    8    0    1
 -2       960       959      1024      3746      3959      3960
 -1      1966    8    0    1
 -2       959      1023      1024      3957      3961      3959
 -1      1967    8    0    1
 -2       961       960      1025      3749      3962      3963
 -1      1968    8    0    1
 -2       960      1024      1025      3960      3964      3962
 -1      1969    8    0    1
 -2       962       961      1026      3752      3965      3966
 -1      1970    8    0    1
 -2       961      1025      1026      3963      3967      3965
 -1      1971    8    0    1
 -2       963       962      1027      3755      3968      3969
 -1      1972    8    0    1
 -2       962      1026      1027      3966      3970      3968
 -1      1973    8    0    1
 -2       978       997      1028      3861      3971      3972
 -1      1974    8    0    1
 -2       966       965      1029      3764      3973      3974
 -1      1975    8    0    1
 -2       967       966      1030      3767      3975      3976
 -1      1976    8    0    1
 -2       966      1029      1030      3974      3977      3975
 -1      1977    8    0    1
 -2       968       967      1031      3770      3978      3979
 -1      1978    8    0    1
 -2       967      1030      1031      3976      3980      3978
 -1      1979    8    0    1
 -2       969       968      1032      3773      3981      3982
 -1      1980    8    0    1
 -2       968      1031      1032      3979      3983      3981
 -1      1981    8    0    1
 -2       970       969      1033      3776      3984      3985
 -1      1982    8    0    1
 -2       969      1032      1033      3982      3986      3984
 -1      1983    8    0    1
 -2       971       970      1034      3779      3987      3988
 -1      1984    8    0    1
 -2       970      1033      1034      3985      3989      3987
 -1      1985    8    0    1
 -2       972       971      1035      3782      3990      3991
 -1      1986    8    0    1
 -2       971      1034      1035      3988      3992      3990
 -1      1987    8    0    1
 -2       973       972      1036      3785      3993      3994
 -1      1988    8    0    1
 -2       972      1035      1036      3991      3995      3993
 -1      1989    8    0    1
 -2       974       973      1037      3788      3996      3997
 -1      1990    8    0    1
 -2       973      1036      1037      3994      3998      3996
 -1      1991    8    0    1
 -2       975       974      1038      3791      3999      4000
 -1      1992    8    0    1
 -2       974      1037      1038      3997      4001      3999
 -1      1993    8    0    1
 -2       954       952      1039      3728      4002      4003
 -1      1994    8    0    1
 -2       954      1039      1019      4003      4004      3945
 -1      1995    8    0    1
 -2       799       931       901      3802      4005      3546
 -1      1996    8    0    1
 -2      1007       901       931      3904      4005      4006
 -1      1997    8    0    1
 -2       997       935      1028      3943      4007      3971
 -1      1998    8    0    1
 -2       983       984      1040      3818      4008      4009
 -1      1999    8    0    1
 -2       980       942      1041      3807      4010      4011
 -1      2000    8    0    1
 -2       942       998      1041      3897      4012      4010
 -1      2001    8    0    1
 -2       982       983      1042      3815      4013      4014
 -1      2002    8    0    1
 -2       983      1040      1042      4009      4015      4013
 -1      2003    8    0    1
 -2       981       982      1043      3812      4016      4017
 -1      2004    8    0    1
 -2       982      1042      1043      4014      4018      4016
 -1      2005    8    0    1
 -2       984       985      1044      3821      4019      4020
 -1      2006    8    0    1
 -2       984      1044      1040      4020      4021      4008
 -1      2007    8    0    1
 -2       985       986      1045      3824      4022      4023
 -1      2008    8    0    1
 -2       985      1045      1044      4023      4024      4019
 -1      2009    8    0    1
 -2       986       987      1046      3827      4025      4026
 -1      2010    8    0    1
 -2       986      1046      1045      4026      4027      4022
 -1      2011    8    0    1
 -2       987       988      1047      3830      4028      4029
 -1      2012    8    0    1
 -2       987      1047      1046      4029      4030      4025
 -1      2013    8    0    1
 -2       988       989      1048      3833      4031      4032
 -1      2014    8    0    1
 -2       988      1048      1047      4032      4033      4028
 -1      2015    8    0    1
 -2       989       990      1049      3836      4034      4035
 -1      2016    8    0    1
 -2       989      1049      1048      4035      4036      4031
 -1      2017    8    0    1
 -2      1002      1001      1050      3942      4037      4038
 -1      2018    8    0    1
 -2      1000      1002      1051      3877      4039      4040
 -1      2019    8    0    1
 -2      1002      1050      1051      4038      4041      4039
 -1      2020    8    0    1
 -2       840       876       858      3644      4042      3415
 -1      2021    8    0    1
 -2       994       979      1052      3848      4043      4044
 -1      2022    8    0    1
 -2       995       981      1053      3851      4045      4046
 -1      2023    8    0    1
 -2      1008       995      1053      3909      4046      4047
 -1      2024    8    0    1
 -2       981      1043      1053      4017      4048      4045
 -1      2025    8    0    1
 -2       939       948      1054      3901      4049      4050
 -1      2026    8    0    1
 -2       939      1054      1005      4050      4051      3895
 -1      2027    8    0    1
 -2       950       976       938      3889      4052      3891
 -1      2028    8    0    1
 -2       998       944      1055      3864      4053      4054
 -1      2029    8    0    1
 -2      1041       998      1055      4012      4054      4055
 -1      2030    8    0    1
 -2       944      1012      1055      3920      4056      4053
 -1      2031    8    0    1
 -2       953       999      1056      3867      4057      4058
 -1      2032    8    0    1
 -2       999       947      1056      3934      4059      4057
 -1      2033    8    0    1
 -2       979       978      1057      3801      4060      4061
 -1      2034    8    0    1
 -2       978      1028      1057      3972      4062      4060
 -1      2035    8    0    1
 -2      1001       993      1050      3874      4063      4037
 -1      2036    8    0    1
 -2       952      1000      1058      3871      4064      4065
 -1      2037    8    0    1
 -2      1039       952      1058      4002      4065      4066
 -1      2038    8    0    1
 -2      1000      1051      1058      4040      4067      4064
 -1      2039    8    0    1
 -2       931       932      1007      3688      4068      4006
 -1      2040    8    0    1
 -2       996       992      1059      3854      4069      4070
 -1      2041    8    0    1
 -2       941       953      1060      3902      4071      4072
 -1      2042    8    0    1
 -2      1010       941      1060      3914      4072      4073
 -1      2043    8    0    1
 -2       953      1056      1060      4058      4074      4071
 -1      2044    8    0    1
 -2       938       976      1018      4052      4075      3939
 -1      2045    8    0    1
 -2       858       876       949      4042      3886      3714
 -1      2046    8    0    1
 -2      1004       943      1061      3884      4076      4077
 -1      2047    8    0    1
 -2       943      1013      1061      3922      4078      4076
 -1      2048    8    0    1
 -2       949       963      1062      3885      4079      4080
 -1      2049    8    0    1
 -2       963      1027      1062      3969      4081      4079
 -1      2050    8    0    1
 -2      1050       993      1011      4063      3917      4082
 -1      2051    8    0    1
 -2       976       975      1063      3794      4083      4084
 -1      2052    8    0    1
 -2       933      1004      1064      3883      4085      4086
 -1      2053    8    0    1
 -2       933      1064      1003      4086      4087      3881
 -1      2054    8    0    1
 -2      1054       948      1016      4049      3932      4088
 -1      2055    8    0    1
 -2      1056       947      1015      4059      3928      4089
 -1      2056    8    0    1
 -2       945      1008      1065      3908      4090      4091
 -1      2057    8    0    1
 -2      1014       945      1065      3926      4091      4092
 -1      2058    8    0    1
 -2      1008      1053      1065      4047      4093      4090
 -1      2059    8    0    1
 -2       996      1059      1066      4070      4094      4095
 -1      2060    8    0    1
 -2       980      1041       991      4011      4096      3840
 -1      2061    8    0    1
 -2      1049       990      1067      4034      4097      4098
 -1      2062    8    0    1
 -2       990       991      1067      3839      4099      4097
 -1      2063    8    0    1
 -2      1011      1010      1068      3918      4100      4101
 -1      2064    8    0    1
 -2       976      1063      1018      4084      4102      4075
 -1      2065    8    0    1
 -2      1007       932       997      4068      3944      3930
 -1      2066    8    0    1
 -2      1052       979      1057      4043      4061      4103
 -1      2067    8    0    1
 -2       996      1066      1015      4095      4104      3929
 -1      2068    8    0    1
 -2      1009       994      1069      3913      4105      4106
 -1      2069    8    0    1
 -2       994      1052      1069      4044      4107      4105
 -1      2070    8    0    1
 -2      1016       977      1070      3933      4108      4109
 -1      2071    8    0    1
 -2      1029       965      1017      3973      3937      4110
 -1      2072    8    0    1
 -2       946      1014      1071      3925      4111      4112
 -1      2073    8    0    1
 -2       946      1071      1017      4112      4113      3938
 -1      2074    8    0    1
 -2      1055      1012      1072      4056      4114      4115
 -1      2075    8    0    1
 -2       992      1005      1073      3894      4116      4117
 -1      2076    8    0    1
 -2       992      1073      1059      4117      4118      4069
 -1      2077    8    0    1
 -2      1012      1018      1074      3941      4119      4120
 -1      2078    8    0    1
 -2      1072      1012      1074      4114      4120      4121
 -1      2079    8    0    1
 -2      1018      1063      1074      4102      4122      4119
 -1      2080    8    0    1
 -2       977      1006      1075      3899      4123      4124
 -1      2081    8    0    1
 -2       977      1075      1070      4124      4125      4108
 -1      2082    8    0    1
 -2      1063       975      1038      4083      4000      4126
 -1      2083    8    0    1
 -2      1050      1011      1076      4082      4127      4128
 -1      2084    8    0    1
 -2      1051      1050      1076      4041      4128      4129
 -1      2085    8    0    1
 -2      1011      1068      1076      4101      4130      4127
 -1      2086    8    0    1
 -2      1044      1045      1077      4024      4131      4132
 -1      2087    8    0    1
 -2      1021      1020      1078      3952      4133      4134
 -1      2088    8    0    1
 -2      1022      1021      1079      3955      4135      4136
 -1      2089    8    0    1
 -2      1021      1078      1079      4134      4137      4135
 -1      2090    8    0    1
 -2      1023      1022      1080      3958      4138      4139
 -1      2091    8    0    1
 -2      1022      1079      1080      4136      4140      4138
 -1      2092    8    0    1
 -2      1024      1023      1081      3961      4141      4142
 -1      2093    8    0    1
 -2      1023      1080      1081      4139      4143      4141
 -1      2094    8    0    1
 -2      1025      1024      1082      3964      4144      4145
 -1      2095    8    0    1
 -2      1024      1081      1082      4142      4146      4144
 -1      2096    8    0    1
 -2      1026      1025      1083      3967      4147      4148
 -1      2097    8    0    1
 -2      1025      1082      1083      4145      4149      4147
 -1      2098    8    0    1
 -2      1027      1026      1084      3970      4150      4151
 -1      2099    8    0    1
 -2      1026      1083      1084      4148      4152      4150
 -1      2100    8    0    1
 -2      1005      1054      1085      4051      4153      4154
 -1      2101    8    0    1
 -2      1005      1085      1073      4154      4155      4116
 -1      2102    8    0    1
 -2       935      1003      1028      3880      4156      4007
 -1      2103    8    0    1
 -2      1019      1039      1086      4004      4157      4158
 -1      2104    8    0    1
 -2      1031      1030      1087      3980      4159      4160
 -1      2105    8    0    1
 -2      1032      1031      1088      3983      4161      4162
 -1      2106    8    0    1
 -2      1031      1087      1088      4160      4163      4161
 -1      2107    8    0    1
 -2      1033      1032      1089      3986      4164      4165
 -1      2108    8    0    1
 -2      1032      1088      1089      4162      4166      4164
 -1      2109    8    0    1
 -2      1034      1033      1090      3989      4167      4168
 -1      2110    8    0    1
 -2      1033      1089      1090      4165      4169      4167
 -1      2111    8    0    1
 -2      1035      1034      1091      3992      4170      4171
 -1      2112    8    0    1
 -2      1034      1090      1091      4168      4172      4170
 -1      2113    8    0    1
 -2      1036      1035      1092      3995      4173      4174
 -1      2114    8    0    1
 -2      1035      1091      1092      4171      4175      4173
 -1      2115    8    0    1
 -2      1037      1036      1093      3998      4176      4177
 -1      2116    8    0    1
 -2      1036      1092      1093      4174      4178      4176
 -1      2117    8    0    1
 -2      1038      1037      1094      4001      4179      4180
 -1      2118    8    0    1
 -2      1037      1093      1094      4177      4181      4179
 -1      2119    8    0    1
 -2      1060      1056      1015      4074      4089      4182
 -1      2120    8    0    1
 -2       991      1041      1067      4096      4183      4099
 -1      2121    8    0    1
 -2      1042      1040      1095      4015      4184      4185
 -1      2122    8    0    1
 -2      1043      1042      1096      4018      4186      4187
 -1      2123    8    0    1
 -2      1042      1095      1096      4185      4188      4186
 -1      2124    8    0    1
 -2      1045      1046      1097      4027      4189      4190
 -1      2125    8    0    1
 -2      1045      1097      1077      4190      4191      4131
 -1      2126    8    0    1
 -2      1046      1047      1098      4030      4192      4193
 -1      2127    8    0    1
 -2      1046      1098      1097      4193      4194      4189
 -1      2128    8    0    1
 -2      1047      1048      1099      4033      4195      4196
 -1      2129    8    0    1
 -2      1047      1099      1098      4196      4197      4192
 -1      2130    8    0    1
 -2      1048      1049      1100      4036      4198      4199
 -1      2131    8    0    1
 -2      1048      1100      1099      4199      4200      4195
 -1      2132    8    0    1
 -2      1068      1010      1101      4100      4201      4202
 -1      2133    8    0    1
 -2      1066      1059      1102      4094      4203      4204
 -1      2134    8    0    1
 -2      1028      1003      1064      4156      4087      4205
 -1      2135    8    0    1
 -2      1063      1038      1074      4126      4206      4122
 -1      2136    8    0    1
 -2      1030      1029      1103      3977      4207      4208
 -1      2137    8    0    1
 -2      1030      1103      1087      4208      4209      4159
 -1      2138    8    0    1
 -2      1029      1017      1071      4110      4113      4210
 -1      2139    8    0    1
 -2      1016      1070      1104      4109      4211      4212
 -1      2140    8    0    1
 -2      1016      1104      1054      4212      4213      4088
 -1      2141    8    0    1
 -2      1040      1044      1105      4021      4214      4215
 -1      2142    8    0    1
 -2      1095      1040      1105      4184      4215      4216
 -1      2143    8    0    1
 -2      1044      1077      1105      4132      4217      4214
 -1      2144    8    0    1
 -2      1006      1009      1106      3912      4218      4219
 -1      2145    8    0    1
 -2      1009      1069      1106      4106      4220      4218
 -1      2146    8    0    1
 -2      1057      1028      1107      4062      4221      4222
 -1      2147    8    0    1
 -2      1028      1064      1107      4205      4223      4221
 -1      2148    8    0    1
 -2      1041      1055      1108      4055      4224      4225
 -1      2149    8    0    1
 -2      1067      1041      1108      4183      4225      4226
 -1      2150    8    0    1
 -2      1055      1072      1108      4115      4227      4224
 -1      2151    8    0    1
 -2      1010      1060      1101      4073      4228      4201
 -1      2152    8    0    1
 -2      1052      1057      1109      4103      4229      4230
 -1      2153    8    0    1
 -2      1057      1107      1109      4222      4231      4229
 -1      2154    8    0    1
 -2      1020      1019      1110      3949      4232      4233
 -1      2155    8    0    1
 -2      1019      1086      1110      4158      4234      4232
 -1      2156    8    0    1
 -2      1060      1015      1101      4182      4235      4228
 -1      2157    8    0    1
 -2      1101      1015      1066      4235      4104      4236
 -1      2158    8    0    1
 -2      1101      1066      1111      4236      4237      4238
 -1      2159    8    0    1
 -2      1068      1101      1111      4202      4238      4239
 -1      2160    8    0    1
 -2      1066      1102      1111      4204      4240      4237
 -1      2161    8    0    1
 -2      1078      1020      1110      4133      4233      4241
 -1      2162    8    0    1
 -2      1062      1027      1112      4081      4242      4243
 -1      2163    8    0    1
 -2      1027      1084      1112      4151      4244      4242
 -1      2164    8    0    1
 -2      1064      1004      1113      4085      4245      4246
 -1      2165    8    0    1
 -2      1107      1064      1113      4223      4246      4247
 -1      2166    8    0    1
 -2      1004      1061      1113      4077      4248      4245
 -1      2167    8    0    1
 -2      1076      1068      1114      4130      4249      4250
 -1      2168    8    0    1
 -2      1068      1111      1114      4239      4251      4249
 -1      2169    8    0    1
 -2      1085      1054      1104      4153      4213      4252
 -1      2170    8    0    1
 -2      1029      1071      1103      4210      4253      4207
 -1      2171    8    0    1
 -2      1086      1039      1115      4157      4254      4255
 -1      2172    8    0    1
 -2      1039      1058      1115      4066      4256      4254
 -1      2173    8    0    1
 -2      1051      1076      1114      4129      4250      4257
 -1      2174    8    0    1
 -2      1038      1094      1074      4180      4258      4206
 -1      2175    8    0    1
 -2      1102      1059      1116      4203      4259      4260
 -1      2176    8    0    1
 -2      1059      1073      1116      4118      4261      4259
 -1      2177    8    0    1
 -2      1013       949      1062      3923      4080      4262
 -1      2178    8    0    1
 -2      1100      1049      1117      4198      4263      4264
 -1      2179    8    0    1
 -2      1049      1067      1117      4098      4265      4263
 -1      2180    8    0    1
 -2      1052      1109      1118      4230      4266      4267
 -1      2181    8    0    1
 -2      1052      1118      1069      4267      4268      4107
 -1      2182    8    0    1
 -2      1051      1114      1058      4257      4269      4067
 -1      2183    8    0    1
 -2      1006      1106      1075      4219      4270      4123
 -1      2184    8    0    1
 -2      1070      1075      1119      4125      4271      4272
 -1      2185    8    0    1
 -2      1053      1043      1120      4048      4273      4274
 -1      2186    8    0    1
 -2      1065      1053      1120      4093      4274      4275
 -1      2187    8    0    1
 -2      1043      1096      1120      4187      4276      4273
 -1      2188    8    0    1
 -2      1062      1112      1061      4243      4277      4278
 -1      2189    8    0    1
 -2      1104      1070      1121      4211      4279      4280
 -1      2190    8    0    1
 -2      1070      1119      1121      4272      4281      4279
 -1      2191    8    0    1
 -2      1071      1014      1122      4111      4282      4283
 -1      2192    8    0    1
 -2      1103      1071      1122      4253      4283      4284
 -1      2193    8    0    1
 -2      1014      1065      1122      4092      4285      4282
 -1      2194    8    0    1
 -2      1013      1062      1061      4262      4278      4078
 -1      2195    8    0    1
 -2      1072      1074      1094      4121      4258      4286
 -1      2196    8    0    1
 -2      1072      1094      1123      4286      4287      4288
 -1      2197    8    0    1
 -2      1108      1072      1123      4227      4288      4289
 -1      2198    8    0    1
 -2      1094      1093      1123      4181      4290      4287
 -1      2199    8    0    1
 -2      1073      1085      1124      4155      4291      4292
 -1      2200    8    0    1
 -2      1073      1124      1116      4292      4293      4261
 -1      2201    8    0    1
 -2      1080      1079      1119      4140      4294      4295
 -1      2202    8    0    1
 -2      1082      1081      1125      4146      4296      4297
 -1      2203    8    0    1
 -2      1083      1082      1118      4149      4298      4299
 -1      2204    8    0    1
 -2      1084      1083      1109      4152      4300      4301
 -1      2205    8    0    1
 -2      1080      1119      1126      4295      4302      4303
 -1      2206    8    0    1
 -2      1081      1080      1126      4143      4303      4304
 -1      2207    8    0    1
 -2      1119      1075      1126      4271      4305      4302
 -1      2208    8    0    1
 -2      1089      1088      1127      4166      4306      4307
 -1      2209    8    0    1
 -2      1090      1089      1077      4169      4308      4309
 -1      2210    8    0    1
 -2      1091      1090      1097      4172      4310      4311
 -1      2211    8    0    1
 -2      1092      1091      1098      4175      4312      4313
 -1      2212    8    0    1
 -2      1093      1092      1099      4178      4314      4315
 -1      2213    8    0    1
 -2      1096      1095      1128      4188      4316      4317
 -1      2214    8    0    1
 -2      1097      1098      1091      4194      4312      4311
 -1      2215    8    0    1
 -2      1061      1112      1113      4277      4318      4248
 -1      2216    8    0    1
 -2      1106      1069      1125      4220      4319      4320
 -1      2217    8    0    1
 -2      1077      1097      1090      4191      4310      4309
 -1      2218    8    0    1
 -2      1098      1099      1092      4197      4314      4313
 -1      2219    8    0    1
 -2      1078      1110      1129      4241      4321      4322
 -1      2220    8    0    1
 -2      1058      1114      1115      4269      4323      4256
 -1      2221    8    0    1
 -2      1114      1111      1130      4251      4324      4325
 -1      2222    8    0    1
 -2      1115      1114      1130      4323      4325      4326
 -1      2223    8    0    1
 -2      1111      1102      1130      4240      4327      4324
 -1      2224    8    0    1
 -2      1109      1083      1118      4300      4299      4266
 -1      2225    8    0    1
 -2      1085      1104      1131      4252      4328      4329
 -1      2226    8    0    1
 -2      1124      1085      1131      4291      4329      4330
 -1      2227    8    0    1
 -2      1104      1121      1131      4280      4331      4328
 -1      2228    8    0    1
 -2      1075      1106      1126      4270      4332      4305
 -1      2229    8    0    1
 -2      1087      1103      1128      4209      4333      4334
 -1      2230    8    0    1
 -2      1088      1087      1128      4163      4334      4335
 -1      2231    8    0    1
 -2      1109      1107      1084      4231      4336      4301
 -1      2232    8    0    1
 -2      1110      1086      1124      4234      4337      4338
 -1      2233    8    0    1
 -2      1079      1078      1121      4137      4339      4340
 -1      2234    8    0    1
 -2      1119      1079      1121      4294      4340      4281
 -1      2235    8    0    1
 -2      1112      1084      1113      4244      4341      4318
 -1      2236    8    0    1
 -2      1106      1125      1126      4320      4342      4332
 -1      2237    8    0    1
 -2      1082      1125      1118      4297      4343      4298
 -1      2238    8    0    1
 -2      1127      1088      1128      4306      4335      4344
 -1      2239    8    0    1
 -2      1081      1126      1125      4304      4342      4296
 -1      2240    8    0    1
 -2      1077      1089      1127      4308      4307      4345
 -1      2241    8    0    1
 -2      1093      1099      1123      4315      4346      4290
 -1      2242    8    0    1
 -2      1096      1128      1122      4317      4347      4348
 -1      2243    8    0    1
 -2      1128      1095      1127      4316      4349      4344
 -1      2244    8    0    1
 -2      1102      1116      1130      4260      4350      4327
 -1      2245    8    0    1
 -2      1125      1069      1118      4319      4268      4343
 -1      2246    8    0    1
 -2      1067      1108      1117      4226      4351      4265
 -1      2247    8    0    1
 -2      1113      1084      1107      4341      4336      4247
 -1      2248    8    0    1
 -2      1103      1122      1128      4284      4347      4333
 -1      2249    8    0    1
 -2      1124      1086      1116      4337      4352      4293
 -1      2250    8    0    1
 -2      1110      1124      1129      4338      4353      4321
 -1      2251    8    0    1
 -2      1078      1129      1121      4322      4354      4339
 -1      2252    8    0    1
 -2      1127      1095      1105      4349      4216      4355
 -1      2253    8    0    1
 -2      1099      1100      1123      4200      4356      4346
 -1      2254    8    0    1
 -2      1120      1096      1122      4276      4348      4357
 -1      2255    8    0    1
 -2      1120      1122      1065      4357      4285      4275
 -1      2256    8    0    1
 -2      1100      1117      1123      4264      4358      4356
 -1      2257    8    0    1
 -2      1086      1115      1116      4255      4359      4352
 -1      2258    8    0    1
 -2      1105      1077      1127      4217      4345      4355
 -1      2259    8    0    1
 -2      1129      1124      1131      4353      4330      4360
 -1      2260    8    0    1
 -2      1117      1108      1123      4351      4289      4358
 -1      2261    8    0    1
 -2      1115      1130      1116      4326      4350      4359
 -1      2262    8    0    1
 -2      1121      1129      1131      4354      4360      4331
 -3
    1PSTEP                         1           1           1          
  100CL  101 1.000000000        4360                     0    1           1
 -4  DISP        4    1
 -5  D1          1    2    1    0
 -5  D2          1    2    2    0
 -5  D3          1    2    3    0
 -5  ALL         1    2    0    0    1ALL
 -1         1 5.70087E-03-5.84912E-04-1.62067E-14
 -1         2 9.84340E-03-2.93489E-04-2.30248E-14
 -1         3 1.48298E-02-3.89425E-04-7.02209E-14
 -1         4 1.55711E-02-1.81297E-03-7.04019E-14
 -1         5 0.00000E+00 0.00000E+00 0.00000E+00
 -1         6 0.00000E+00 0.00000E+00 0.00000E+00
 -1         7 0.00000E+00 0.00000E+00 0.00000E+00
 -1         8 0.00000E+00 0.00000E+00 0.00000E+00
 -1         9 0.00000E+00 0.00000E+00 0.00000E+00
 -1        10 0.00000E+00 0.00000E+00 0.00000E+00
 -1        11 0.00000E+00 0.00000E+00 0.00000E+00
 -1        12 0.00000E+00 0.00000E+00 0.00000E+00
 -1        13 0.00000E+00 0.00000E+00 0.00000E+00
 -1        14 0.00000E+00 0.00000E+00 0.00000E+00
 -1        15 0.00000E+00 0.00000E+00 0.00000E+00
 -1        16 0.00000E+00 0.00000E+00 0.00000E+00
 -1        17 0.00000E+00 0.00000E+00 0.00000E+00
 -1        18 0.00000E+00 0.00000E+00 0.00000E+00
 -1        19 0.00000E+00 0.00000E+00 0.00000E+00
 -1        20 0.00000E+00 0.00000E+00 0.00000E+00
 -1        21 0.00000E+00 0.00000E+00 0.00000E+00
 -1        22 0.00000E+00 0.00000E+00 0.00000E+00
 -1        23 4.09797E-04-2.59329E-04 2.05693E-17
 -1        24 7.00813E-04-3.97938E-04-3.01849E-17
 -1        25 9.70235E-04-4.93252E-04-1.50321E-16
 -1        26 1.23439E-03-5.59453E-04-3.38905E-16
 -1        27 1.49797E-03-6.05599E-04-5.96132E-16
 -1        28 1.76325E-03-6.36984E-04-9.20471E-16
 -1        29 2.03141E-03-6.57233E-04-1.31253E-15
 -1        30 2.30319E-03-6.68988E-04-1.77187E-15
 -1        31 2.57911E-03-6.74270E-04-2.29801E-15
 -1        32 2.85970E-03-6.74701E-04-2.89428E-15
 -1        33 3.14557E-03-6.71686E-04-3.55695E-15
 -1        34 3.43754E-03-6.66574E-04-4.27590E-15
 -1        35 3.73670E-03-6.60847E-04-5.05526E-15
 -1        36 4.04446E-03-6.56333E-04-5.89454E-15
 -1        37 4.36252E-03-6.55467E-04-6.78784E-15
 -1        38 4.69272E-03-6.61597E-04-7.74150E-15
 -1        39 5.03675E-03-6.79273E-04-8.74972E-15
 -1        40 5.39536E-03-7.14380E-04-9.81090E-15
 -1        41 5.76729E-03-7.73777E-04-1.09270E-14
 -1        42 6.14757E-03-8.63847E-04-1.21029E-14
 -1        43 6.52612E-03-9.87237E-04-1.33423E-14
 -1        44 6.88805E-03-1.13769E-03-1.46477E-14
 -1        45 7.21806E-03-1.29516E-03-1.60212E-14
 -1        46 7.50926E-03-1.42654E-03-1.74643E-14
 -1        47 7.77150E-03-1.49716E-03-1.89781E-14
 -1        48 8.03005E-03-1.48946E-03-2.05630E-14
 -1        49 8.31237E-03-1.41423E-03-2.22137E-14
 -1        50 8.63285E-03-1.30359E-03-2.39327E-14
 -1        51 8.98828E-03-1.19257E-03-2.57150E-14
 -1        52 9.36456E-03-1.10493E-03-2.75585E-14
 -1        53 9.74615E-03-1.05002E-03-2.94545E-14
 -1        54 1.01217E-02-1.02694E-03-3.13935E-14
 -1        55 1.04851E-02-1.02988E-03-3.33658E-14
 -1        56 1.08344E-02-1.05195E-03-3.53723E-14
 -1        57 1.11703E-02-1.08704E-03-3.74138E-14
 -1        58 1.14943E-02-1.13041E-03-3.94749E-14
 -1        59 1.18086E-02-1.17867E-03-4.15465E-14
 -1        60 1.21152E-02-1.22948E-03-4.36218E-14
 -1        61 1.24157E-02-1.28133E-03-4.57024E-14
 -1        62 1.27118E-02-1.33329E-03-4.78067E-14
 -1        63 1.30045E-02-1.38480E-03-4.99592E-14
 -1        64 1.32947E-02-1.43557E-03-5.21582E-14
 -1        65 1.35832E-02-1.48548E-03-5.43913E-14
 -1        66 1.38704E-02-1.53451E-03-5.66568E-14
 -1        67 1.41569E-02-1.58272E-03-5.89538E-14
 -1        68 1.44428E-02-1.63018E-03-6.12559E-14
 -1        69 1.47285E-02-1.67701E-03-6.35488E-14
 -1        70 1.50141E-02-1.72334E-03-6.58498E-14
 -1        71 1.52997E-02-1.76935E-03-6.81750E-14
 -1        72 4.12247E-04 2.60028E-04 3.16689E-17
 -1        73 7.00690E-04 4.00641E-04-4.06576E-19
 -1        74 9.70865E-04 4.95055E-04-9.54640E-17
 -1        75 1.23536E-03 5.61253E-04-2.53707E-16
 -1        76 1.49913E-03 6.07547E-04-4.74338E-16
 -1        77 1.76454E-03 6.39189E-04-7.57722E-16
 -1        78 2.03281E-03 6.59819E-04-1.10380E-15
 -1        79 2.30464E-03 6.72123E-04-1.51090E-15
 -1        80 2.58052E-03 6.78186E-04-1.97976E-15
 -1        81 2.86086E-03 6.79721E-04-2.51253E-15
 -1        82 3.14608E-03 6.78235E-04-3.11438E-15
 -1        83 3.43667E-03 6.75179E-04-3.78057E-15
 -1        84 3.73320E-03 6.72089E-04-4.50659E-15
 -1        85 4.03621E-03 6.70710E-04-5.29711E-15
 -1        86 4.34616E-03 6.73099E-04-6.15621E-15
 -1        87 4.66315E-03 6.81655E-04-7.08543E-15
 -1        88 4.98665E-03 6.99020E-04-8.07760E-15
 -1        89 5.31503E-03 7.27753E-04-9.12495E-15
 -1        90 5.64525E-03 7.69661E-04-1.02284E-14
 -1        91 5.97262E-03 8.24739E-04-1.13930E-14
 -1        92 6.29116E-03 8.89847E-04-1.26222E-14
 -1        93 6.59489E-03 9.57629E-04-1.39148E-14
 -1        94 6.87997E-03 1.01656E-03-1.52742E-14
 -1        95 7.14700E-03 1.05302E-03-1.66917E-14
 -1        96 7.40220E-03 1.05531E-03-1.81672E-14
 -1        97 7.65593E-03 1.01809E-03-1.97003E-14
 -1        98 7.91917E-03 9.44573E-04-2.12941E-14
 -1        99 8.19945E-03 8.45184E-04-2.29552E-14
 -1       100 8.49883E-03 7.33459E-04-2.46868E-14
 -1       101 8.81445E-03 6.21725E-04-2.64911E-14
 -1       102 9.14069E-03 5.18475E-04-2.83538E-14
 -1       103 9.47149E-03 4.27869E-04-3.02708E-14
 -1       104 9.80185E-03 3.50621E-04-3.22231E-14
 -1       105 1.01284E-02 2.85331E-04-3.42264E-14
 -1       106 1.04494E-02 2.29648E-04-3.62945E-14
 -1       107 1.07642E-02 1.81053E-04-3.84140E-14
 -1       108 1.10731E-02 1.37286E-04-4.05690E-14
 -1       109 1.13765E-02 9.65195E-05-4.27603E-14
 -1       110 1.16755E-02 5.73754E-05-4.49700E-14
 -1       111 1.19707E-02 1.88805E-05-4.72218E-14
 -1       112 1.22631E-02-1.96120E-05-4.95205E-14
 -1       113 1.25532E-02-5.84994E-05-5.18433E-14
 -1       114 1.28417E-02-9.79989E-05-5.41593E-14
 -1       115 1.31290E-02-1.38203E-04-5.64766E-14
 -1       116 1.34155E-02-1.79120E-04-5.87825E-14
 -1       117 1.37015E-02-2.20707E-04-6.10843E-14
 -1       118 1.39872E-02-2.62884E-04-6.33947E-14
 -1       119 1.42728E-02-3.05537E-04-6.57033E-14
 -1       120 1.45584E-02-3.48509E-04-6.80173E-14
 -1       121 1.48722E-02-4.73741E-04-7.02141E-14
 -1       122 1.49146E-02-5.58126E-04-7.02181E-14
 -1       123 1.49573E-02-6.42510E-04-7.01989E-14
 -1       124 1.50004E-02-7.26772E-04-7.01766E-14
 -1       125 1.50437E-02-8.10818E-04-7.01517E-14
 -1       126 1.50866E-02-8.93193E-04-7.01491E-14
 -1       127 1.51303E-02-9.76759E-04-7.01573E-14
 -1       128 1.51740E-02-1.06016E-03-7.01610E-14
 -1       129 1.52177E-02-1.14352E-03-7.01838E-14
 -1       130 1.52614E-02-1.22693E-03-7.01988E-14
 -1       131 1.53051E-02-1.31052E-03-7.02249E-14
 -1       132 1.53483E-02-1.39292E-03-7.02688E-14
 -1       133 1.53924E-02-1.47700E-03-7.03071E-14
 -1       134 1.54368E-02-1.56128E-03-7.03574E-14
 -1       135 1.54816E-02-1.64569E-03-7.03931E-14
 -1       136 1.55267E-02-1.73008E-03-7.03989E-14
 -1       137 9.77315E-03-1.15527E-04-2.29129E-14
 -1       138 9.61332E-03 4.84801E-05-2.26292E-14
 -1       139 9.37115E-03 2.00005E-04-2.21897E-14
 -1       140 9.05258E-03 3.35114E-04-2.16273E-14
 -1       141 8.65095E-03 4.51894E-04-2.09371E-14
 -1       142 8.21726E-03 5.32331E-04-2.02065E-14
 -1       143 7.74349E-03 5.77708E-04-1.94165E-14
 -1       144 7.27579E-03 5.81782E-04-1.86541E-14
 -1       145 6.82889E-03 5.46866E-04-1.79357E-14
 -1       146 6.41168E-03 4.74048E-04-1.72785E-14
 -1       147 6.06253E-03 3.72565E-04-1.67390E-14
 -1       148 5.78893E-03 2.49863E-04-1.63228E-14
 -1       149 5.58484E-03 1.03981E-04-1.60178E-14
 -1       150 5.46868E-03-5.64068E-05-1.58483E-14
 -1       151 5.44770E-03-2.45042E-04-1.58212E-14
 -1       152 5.53109E-03-4.19829E-04-1.59478E-14
 -1       153 5.94780E-03-7.37645E-04-1.65797E-14
 -1       154 6.29151E-03-8.84415E-04-1.70961E-14
 -1       155 6.66850E-03-9.95796E-04-1.76706E-14
 -1       156 7.10982E-03-1.08071E-03-1.83595E-14
 -1       157 7.55308E-03-1.12320E-03-1.90620E-14
 -1       158 8.03744E-03-1.12417E-03-1.98527E-14
 -1       159 8.47281E-03-1.08320E-03-2.05728E-14
 -1       160 8.87099E-03-1.00539E-03-2.12491E-14
 -1       161 9.21251E-03-8.99452E-04-2.18431E-14
 -1       162 9.49736E-03-7.65496E-04-2.23538E-14
 -1       163 9.70728E-03-6.09730E-04-2.27484E-14
 -1       164 9.81766E-03-4.53458E-04-2.29640E-14
 -1       165 2.40125E-04-1.24604E-04-1.24480E-17
 -1       166 2.25283E-04-9.36704E-05-2.25717E-17
 -1       167 2.19690E-04-7.18119E-05-2.79013E-17
 -1       168 2.16933E-04-5.41752E-05-3.08862E-17
 -1       169 2.15439E-04-3.91608E-05-3.23024E-17
 -1       170 2.14580E-04-2.53209E-05-3.28920E-17
 -1       171 2.14135E-04-1.23286E-05-3.29496E-17
 -1       172 2.14001E-04 2.72908E-07-3.28649E-17
 -1       173 2.14149E-04 1.28869E-05-3.23024E-17
 -1       174 2.14612E-04 2.59189E-05-3.13605E-17
 -1       175 2.15477E-04 3.95896E-05-2.98494E-17
 -1       176 2.17024E-04 5.49811E-05-2.72236E-17
 -1       177 2.19825E-04 7.28404E-05-2.32087E-17
 -1       178 2.25454E-04 9.50632E-05-1.64291E-17
 -1       179 2.39061E-04 1.26673E-04-4.87213E-18
 -1       180 2.96992E-04 1.84394E-04 7.50132E-18
 -1       181 4.67653E-04-2.61555E-04-3.36001E-17
 -1       182 7.65381E-04-3.78242E-04-1.33320E-16
 -1       183 1.04910E-03-4.58752E-04-2.98044E-16
 -1       184 1.32671E-03-5.14608E-04-5.29236E-16
 -1       185 1.60201E-03-5.52726E-04-8.26138E-16
 -1       186 1.87726E-03-5.77684E-04-1.18934E-15
 -1       187 2.15385E-03-5.92688E-04-1.61873E-15
 -1       188 2.43272E-03-6.00101E-04-2.11354E-15
 -1       189 2.71458E-03-6.01742E-04-2.67521E-15
 -1       190 3.00009E-03-5.99090E-04-3.30338E-15
 -1       191 3.28994E-03-5.93465E-04-3.99274E-15
 -1       192 3.58491E-03-5.86205E-04-4.74003E-15
 -1       193 3.88595E-03-5.78870E-04-5.54845E-15
 -1       194 4.19415E-03-5.73496E-04-6.41386E-15
 -1       195 4.51070E-03-5.72901E-04-7.33719E-15
 -1       196 4.83674E-03-5.81026E-04-8.31682E-15
 -1       197 5.17309E-03-6.03247E-04-9.34846E-15
 -1       198 5.51979E-03-6.46407E-04-1.04358E-14
 -1       199 5.87540E-03-7.18110E-04-1.15791E-14
 -1       200 6.23622E-03-8.24493E-04-1.27819E-14
 -1       201 6.59579E-03-9.65696E-04-1.40501E-14
 -1       202 6.94561E-03-1.12952E-03-1.53861E-14
 -1       203 7.27834E-03-1.28720E-03-1.67932E-14
 -1       204 7.59313E-03-1.39876E-03-1.82705E-14
 -1       205 7.89887E-03-1.43160E-03-1.98187E-14
 -1       206 8.21022E-03-1.38139E-03-2.14379E-14
 -1       207 8.53827E-03-1.27516E-03-2.31193E-14
 -1       208 8.88454E-03-1.15322E-03-2.48679E-14
 -1       209 9.24281E-03-1.04819E-03-2.66749E-14
 -1       210 9.60451E-03-9.76217E-04-2.85412E-14
 -1       211 9.96256E-03-9.39692E-04-3.04516E-14
 -1       212 1.03127E-02-9.33475E-04-3.24005E-14
 -1       213 1.06529E-02-9.50070E-04-3.43813E-14
 -1       214 1.09833E-02-9.82390E-04-3.64014E-14
 -1       215 1.13044E-02-1.02479E-03-3.84516E-14
 -1       216 1.16176E-02-1.07315E-03-4.05152E-14
 -1       217 1.19241E-02-1.12468E-03-4.25910E-14
 -1       218 1.22254E-02-1.17754E-03-4.46754E-14
 -1       219 1.25224E-02-1.23058E-03-4.67751E-14
 -1       220 1.28162E-02-1.28316E-03-4.89110E-14
 -1       221 1.31076E-02-1.33490E-03-5.10903E-14
 -1       222 1.33971E-02-1.38567E-03-5.33041E-14
 -1       223 1.36853E-02-1.43544E-03-5.55494E-14
 -1       224 1.39726E-02-1.48425E-03-5.78219E-14
 -1       225 1.42592E-02-1.53221E-03-6.01131E-14
 -1       226 1.45453E-02-1.57941E-03-6.24064E-14
 -1       227 1.48312E-02-1.62601E-03-6.47050E-14
 -1       228 1.51170E-02-1.67216E-03-6.70156E-14
 -1       229 6.03250E-04 3.28290E-04-3.52332E-17
 -1       230 8.92006E-04 4.27853E-04-1.36843E-16
 -1       231 1.17087E-03 4.97082E-04-2.99833E-16
 -1       232 1.44560E-03 5.45108E-04-5.24090E-16
 -1       233 1.71934E-03 5.77668E-04-8.09628E-16
 -1       234 1.99390E-03 5.98679E-04-1.15776E-15
 -1       235 2.27042E-03 6.10985E-04-1.56726E-15
 -1       236 2.54962E-03 6.16762E-04-2.03786E-15
 -1       237 2.83210E-03 6.17763E-04-2.57087E-15
 -1       238 3.11833E-03 6.15506E-04-3.16943E-15
 -1       239 3.40879E-03 6.11434E-04-3.83367E-15
 -1       240 3.70396E-03 6.07062E-04-4.55981E-15
 -1       241 4.00429E-03 6.04119E-04-5.34820E-15
 -1       242 4.31010E-03 6.04667E-04-6.20298E-15
 -1       243 4.62146E-03 6.11157E-04-7.12535E-15
 -1       244 4.93801E-03 6.26370E-04-8.10933E-15
 -1       245 5.25867E-03 6.53123E-04-9.15165E-15
 -1       246 5.58146E-03 6.93629E-04-1.02499E-14
 -1       247 5.90334E-03 7.48415E-04-1.14078E-14
 -1       248 6.22050E-03 8.14884E-04-1.26322E-14
 -1       249 6.52903E-03 8.85982E-04-1.39212E-14
 -1       250 6.82623E-03 9.49937E-04-1.52744E-14
 -1       251 7.11208E-03 9.92134E-04-1.66847E-14
 -1       252 7.39009E-03 9.99409E-04-1.81555E-14
 -1       253 7.66658E-03 9.65106E-04-1.96871E-14
 -1       254 7.94844E-03 8.91936E-04-2.12788E-14
 -1       255 8.24062E-03 7.90774E-04-2.29359E-14
 -1       256 8.54462E-03 6.76181E-04-2.46615E-14
 -1       257 8.85879E-03 5.61504E-04-2.64543E-14
 -1       258 9.17962E-03 4.55908E-04-2.83098E-14
 -1       259 9.50318E-03 3.63814E-04-3.02171E-14
 -1       260 9.82613E-03 2.85906E-04-3.21661E-14
 -1       261 1.01461E-02 2.20608E-04-3.41693E-14
 -1       262 1.04618E-02 1.65354E-04-3.62294E-14
 -1       263 1.07727E-02 1.17437E-04-3.83372E-14
 -1       264 1.10788E-02 7.44510E-05-4.04800E-14
 -1       265 1.13806E-02 3.44687E-05-4.26547E-14
 -1       266 1.16786E-02-3.94690E-06-4.48585E-14
 -1       267 1.19734E-02-4.18005E-05-4.70968E-14
 -1       268 1.22657E-02-7.97501E-05-4.93786E-14
 -1       269 1.25561E-02-1.18193E-04-5.16808E-14
 -1       270 1.28449E-02-1.57337E-04-5.39814E-14
 -1       271 1.31326E-02-1.97266E-04-5.62836E-14
 -1       272 1.34196E-02-2.37976E-04-5.85801E-14
 -1       273 1.37059E-02-2.79412E-04-6.08771E-14
 -1       274 1.39920E-02-3.21488E-04-6.31771E-14
 -1       275 1.42778E-02-3.64083E-04-6.54858E-14
 -1       276 1.45635E-02-4.07040E-04-6.77986E-14
 -1       277 1.46459E-02-4.78546E-04-6.82019E-14
 -1       278 1.46885E-02-5.62779E-04-6.81931E-14
 -1       279 1.47314E-02-6.46894E-04-6.81797E-14
 -1       280 1.47747E-02-7.30833E-04-6.81687E-14
 -1       281 1.48175E-02-8.13147E-04-6.81610E-14
 -1       282 1.48612E-02-8.96680E-04-6.81647E-14
 -1       283 1.49050E-02-9.80054E-04-6.81741E-14
 -1       284 1.49487E-02-1.06334E-03-6.81890E-14
 -1       285 1.49924E-02-1.14663E-03-6.82065E-14
 -1       286 1.50360E-02-1.23001E-03-6.82360E-14
 -1       287 1.50790E-02-1.31214E-03-6.82688E-14
 -1       288 1.51229E-02-1.39589E-03-6.83023E-14
 -1       289 1.51671E-02-1.47984E-03-6.83300E-14
 -1       290 1.52117E-02-1.56397E-03-6.83555E-14
 -1       291 1.51643E-02-1.61807E-03-6.76909E-14
 -1       292 9.84172E-03-2.59631E-04-2.37174E-14
 -1       293 9.68222E-03-1.49003E-04-2.34270E-14
 -1       294 9.41902E-03-1.62289E-05-2.29975E-14
 -1       295 9.08104E-03 1.46020E-04-2.24003E-14
 -1       296 8.67757E-03 3.22698E-04-2.16998E-14
 -1       297 8.28424E-03 4.97952E-04-2.08162E-14
 -1       298 7.89239E-03 6.21482E-04-1.99117E-14
 -1       299 7.51611E-03 6.61360E-04-1.89843E-14
 -1       300 7.14428E-03 6.17434E-04-1.81142E-14
 -1       301 6.76425E-03 5.01846E-04-1.73143E-14
 -1       302 6.37902E-03 3.49648E-04-1.66486E-14
 -1       303 6.03265E-03 1.94164E-04-1.61035E-14
 -1       304 5.73550E-03 5.43587E-05-1.56946E-14
 -1       305 5.52013E-03-6.16760E-05-1.54271E-14
 -1       306 5.41360E-03-1.64874E-04-1.51724E-14
 -1       307 5.46429E-03-2.61239E-04-1.53391E-14
 -1       308 5.64003E-03-3.77611E-04-1.55915E-14
 -1       309 5.91177E-03-5.18902E-04-1.59480E-14
 -1       310 6.28683E-03-6.75288E-04-1.63500E-14
 -1       311 6.65432E-03-8.81449E-04-1.70617E-14
 -1       312 7.04497E-03-1.05336E-03-1.77814E-14
 -1       313 7.40953E-03-1.16816E-03-1.86159E-14
 -1       314 7.78401E-03-1.21236E-03-1.94922E-14
 -1       315 8.16121E-03-1.15481E-03-2.03794E-14
 -1       316 8.52301E-03-1.03661E-03-2.12307E-14
 -1       317 8.89383E-03-8.80589E-04-2.19701E-14
 -1       318 9.24245E-03-7.15804E-04-2.26346E-14
 -1       319 9.54525E-03-5.52977E-04-2.32656E-14
 -1       320 9.76576E-03-4.42645E-04-2.35419E-14
 -1       321 9.86510E-03-3.48756E-04-2.37042E-14
 -1       322 4.55518E-04-1.62501E-04-9.54437E-17
 -1       323 4.74085E-04-2.10724E-04-7.86860E-17
 -1       324 4.40815E-04-9.21057E-05-1.10992E-16
 -1       325 4.37766E-04-6.34035E-05-1.13929E-16
 -1       326 4.36049E-04-3.69412E-05-1.15278E-16
 -1       327 4.35276E-04-1.16915E-05-1.15200E-16
 -1       328 4.35303E-04 1.31907E-05-1.14183E-16
 -1       329 4.36134E-04 3.85008E-05-1.11812E-16
 -1       330 4.37888E-04 6.46272E-05-1.07932E-16
 -1       331 4.41023E-04 9.35038E-05-1.02152E-16
 -1       332 4.46415E-04 1.26177E-04-9.33498E-17
 -1       333 4.56103E-04 1.65058E-04-8.03089E-17
 -1       334 4.75702E-04 2.14779E-04-6.04002E-17
 -1       335 5.31385E-04 2.67487E-04-5.13200E-17
 -1       336 8.23720E-04 3.68993E-04-1.56738E-16
 -1       337 8.62935E-04-3.52416E-04-2.49444E-16
 -1       338 1.14953E-03-4.18496E-04-4.56449E-16
 -1       339 1.43288E-03-4.64365E-04-7.27933E-16
 -1       340 1.71462E-03-4.95060E-04-1.06382E-15
 -1       341 1.99604E-03-5.14253E-04-1.46437E-15
 -1       342 2.27811E-03-5.24672E-04-1.92915E-15
 -1       343 2.56157E-03-5.28381E-04-2.45861E-15
 -1       344 2.84705E-03-5.26999E-04-3.05339E-15
 -1       345 3.13507E-03-5.21884E-04-3.71131E-15
 -1       346 3.42621E-03-5.14307E-04-4.42774E-15
 -1       347 3.72104E-03-5.05634E-04-5.20427E-15
 -1       348 4.02026E-03-4.97552E-04-6.04106E-15
 -1       349 4.32466E-03-4.92337E-04-6.93521E-15
 -1       350 4.63514E-03-4.93176E-04-7.88612E-15
 -1       351 4.95278E-03-5.04517E-04-8.88926E-15
 -1       352 5.27879E-03-5.32346E-04-9.94683E-15
 -1       353 5.61445E-03-5.84128E-04-1.10593E-14
 -1       354 5.96066E-03-6.67874E-04-1.22282E-14
 -1       355 6.31685E-03-7.89436E-04-1.34607E-14
 -1       356 6.67907E-03-9.46850E-04-1.47577E-14
 -1       357 7.03901E-03-1.12192E-03-1.61251E-14
 -1       358 7.38763E-03-1.27536E-03-1.75665E-14
 -1       359 7.72374E-03-1.35816E-03-1.90778E-14
 -1       360 8.05804E-03-1.34293E-03-2.06592E-14
 -1       361 8.40315E-03-1.24649E-03-2.23091E-14
 -1       362 8.76113E-03-1.11616E-03-2.40234E-14
 -1       363 9.12393E-03-9.95425E-04-2.58031E-14
 -1       364 9.48250E-03-9.07708E-04-2.76369E-14
 -1       365 9.83185E-03-8.58275E-04-2.95167E-14
 -1       366 1.01707E-02-8.42580E-04-3.14399E-14
 -1       367 1.04999E-02-8.52810E-04-3.34020E-14
 -1       368 1.08207E-02-8.81262E-04-3.53971E-14
 -1       369 1.11343E-02-9.21632E-04-3.74295E-14
 -1       370 1.14421E-02-9.69237E-04-3.94855E-14
 -1       371 1.17449E-02-1.02081E-03-4.15539E-14
 -1       372 1.20438E-02-1.07420E-03-4.36408E-14
 -1       373 1.23394E-02-1.12802E-03-4.57398E-14
 -1       374 1.26325E-02-1.18146E-03-4.78601E-14
 -1       375 1.29236E-02-1.23406E-03-5.00209E-14
 -1       376 1.32131E-02-1.28564E-03-5.22216E-14
 -1       377 1.35015E-02-1.33612E-03-5.44535E-14
 -1       378 1.37890E-02-1.38555E-03-5.67030E-14
 -1       379 1.40759E-02-1.43403E-03-5.89757E-14
 -1       380 1.43623E-02-1.48166E-03-6.12614E-14
 -1       381 1.46484E-02-1.52858E-03-6.35526E-14
 -1       382 1.49064E-02-1.57349E-03-6.56141E-14
 -1       383 1.10931E-03 4.40811E-04-3.21669E-16
 -1       384 1.39052E-03 4.90818E-04-5.46912E-16
 -1       385 1.66976E-03 5.24730E-04-8.32884E-16
 -1       386 1.94873E-03 5.46591E-04-1.18057E-15
 -1       387 2.22858E-03 5.59366E-04-1.58913E-15
 -1       388 2.51012E-03 5.65310E-04-2.05882E-15
 -1       389 2.79397E-03 5.66222E-04-2.58976E-15
 -1       390 3.08064E-03 5.63635E-04-3.18467E-15
 -1       391 3.37058E-03 5.58983E-04-3.84449E-15
 -1       392 3.66425E-03 5.53752E-04-4.56712E-15
 -1       393 3.96206E-03 5.49631E-04-5.35158E-15
 -1       394 4.26438E-03 5.48638E-04-6.20081E-15
 -1       395 4.57144E-03 5.53203E-04-7.11633E-15
 -1       396 4.88321E-03 5.66141E-04-8.09354E-15
 -1       397 5.19924E-03 5.90418E-04-9.12890E-15
 -1       398 5.51847E-03 6.28583E-04-1.02195E-14
 -1       399 5.83901E-03 6.81746E-04-1.13705E-14
 -1       400 6.15811E-03 7.48092E-04-1.25876E-14
 -1       401 6.47247E-03 8.21323E-04-1.38706E-14
 -1       402 6.77916E-03 8.89893E-04-1.52163E-14
 -1       403 7.07706E-03 9.38416E-04-1.66203E-14
 -1       404 7.36816E-03 9.51967E-04-1.80858E-14
 -1       405 7.65733E-03 9.22062E-04-1.96112E-14
 -1       406 7.95036E-03 8.50477E-04-2.11961E-14
 -1       407 8.25130E-03 7.48482E-04-2.28469E-14
 -1       408 8.56103E-03 6.31756E-04-2.45656E-14
 -1       409 8.87766E-03 5.14720E-04-2.63514E-14
 -1       410 9.19804E-03 4.07172E-04-2.81993E-14
 -1       411 9.51904E-03 3.13750E-04-3.01000E-14
 -1       412 9.83825E-03 2.35113E-04-3.20442E-14
 -1       413 1.01541E-02 1.69562E-04-3.40410E-14
 -1       414 1.04660E-02 1.14393E-04-3.60911E-14
 -1       415 1.07735E-02 6.67769E-05-3.81897E-14
 -1       416 1.10770E-02 2.42114E-05-4.03245E-14
 -1       417 1.13769E-02-1.53021E-05-4.24879E-14
 -1       418 1.16735E-02-5.32484E-05-4.46818E-14
 -1       419 1.19675E-02-9.06626E-05-4.69086E-14
 -1       420 1.22593E-02-1.28220E-04-4.91748E-14
 -1       421 1.25494E-02-1.66324E-04-5.14641E-14
 -1       422 1.28381E-02-2.05185E-04-5.37550E-14
 -1       423 1.31259E-02-2.44882E-04-5.60422E-14
 -1       424 1.34129E-02-2.85407E-04-5.83311E-14
 -1       425 1.36994E-02-3.26701E-04-6.06196E-14
 -1       426 1.39856E-02-3.68670E-04-6.29144E-14
 -1       427 1.42715E-02-4.11196E-04-6.52207E-14
 -1       428 1.44587E-02-4.44810E-04-6.67084E-14
 -1       429 1.45057E-02-6.51342E-04-6.61756E-14
 -1       430 1.44625E-02-5.67458E-04-6.61829E-14
 -1       431 1.44605E-02-5.06184E-04-6.64464E-14
 -1       432 1.45484E-02-7.33576E-04-6.61693E-14
 -1       433 1.45922E-02-8.16998E-04-6.61705E-14
 -1       434 1.46360E-02-9.00223E-04-6.61789E-14
 -1       435 1.46798E-02-9.83317E-04-6.61911E-14
 -1       436 1.47235E-02-1.06636E-03-6.62131E-14
 -1       437 1.47671E-02-1.14946E-03-6.62397E-14
 -1       438 1.48100E-02-1.23127E-03-6.62709E-14
 -1       439 1.48537E-02-1.31469E-03-6.62995E-14
 -1       440 1.48976E-02-1.39835E-03-6.63208E-14
 -1       441 1.49419E-02-1.48224E-03-6.63408E-14
 -1       442 9.53811E-03-1.63996E-04-2.40150E-14
 -1       443 9.89030E-03-3.18927E-04-2.46214E-14
 -1       444 9.75651E-03-2.45708E-04-2.43122E-14
 -1       445 9.19928E-03-1.71165E-05-2.33921E-14
 -1       446 8.83125E-03 1.64042E-04-2.26582E-14
 -1       447 4.46055E-04-1.24340E-04-1.05262E-16
 -1       448 8.03540E-03 5.75052E-04-2.06128E-14
 -1       449 7.67393E-03 6.81884E-04-1.94365E-14
 -1       450 7.34745E-03 6.79440E-04-1.84143E-14
 -1       451 7.00479E-03 5.76930E-04-1.74260E-14
 -1       452 6.62256E-03 4.02199E-04-1.65912E-14
 -1       453 6.26420E-03 2.19966E-04-1.58407E-14
 -1       454 5.91119E-03 6.27661E-05-1.53809E-14
 -1       455 5.62283E-03-5.94177E-05-1.49308E-14
 -1       456 5.44776E-03-1.30281E-04-1.46810E-14
 -1       457 5.40895E-03-1.95670E-04-1.47134E-14
 -1       458 5.54469E-03-2.61349E-04-1.48713E-14
 -1       459 5.79400E-03-3.73132E-04-1.52701E-14
 -1       460 6.09856E-03-5.09269E-04-1.56433E-14
 -1       461 6.56783E-03-7.57667E-04-1.64035E-14
 -1       462 6.89813E-03-9.46348E-04-1.71001E-14
 -1       463 7.31035E-03-1.14748E-03-1.80750E-14
 -1       464 7.59738E-03-1.23303E-03-1.89318E-14
 -1       465 7.97509E-03-1.22224E-03-2.01353E-14
 -1       466 8.25548E-03-1.12945E-03-2.09839E-14
 -1       467 8.65617E-03-9.32312E-04-2.21520E-14
 -1       468 8.96384E-03-7.71504E-04-2.28250E-14
 -1       469 9.34879E-03-5.86328E-04-2.35307E-14
 -1       470 9.67752E-03-4.39036E-04-2.42256E-14
 -1       471 9.82801E-03-3.76002E-04-2.43923E-14
 -1       472 8.38992E-03 4.00625E-04-2.16030E-14
 -1       473 6.33880E-03-6.05222E-04-1.56918E-14
 -1       474 5.38003E-03-1.58058E-04-1.42252E-14
 -1       475 9.31365E-04 3.40383E-04-2.76644E-16
 -1       476 6.65924E-04-7.31022E-05-2.44406E-16
 -1       477 6.70102E-04-1.13055E-04-2.40327E-16
 -1       478 6.63011E-04 1.08118E-06-2.44664E-16
 -1       479 6.63789E-04 3.76729E-05-2.41347E-16
 -1       480 6.66088E-04 7.47711E-05-2.35448E-16
 -1       481 6.70390E-04 1.14887E-04-2.26263E-16
 -1       482 6.77558E-04 1.58937E-04-2.13374E-16
 -1       483 6.89459E-04 2.08960E-04-1.94923E-16
 -1       484 1.21759E-03 3.98095E-04-4.83405E-16
 -1       485 9.76725E-04-3.22488E-04-3.79406E-16
 -1       486 8.19988E-03 4.89171E-04-2.14094E-14
 -1       487 1.26298E-03-3.74417E-04-6.26032E-16
 -1       488 1.54860E-03-4.10553E-04-9.35849E-16
 -1       489 1.83363E-03-4.34179E-04-1.30906E-15
 -1       490 2.11847E-03-4.48090E-04-1.74551E-15
 -1       491 2.40359E-03-4.54496E-04-2.24403E-15
 -1       492 2.68937E-03-4.55138E-04-2.80640E-15
 -1       493 2.97616E-03-4.51435E-04-3.43185E-15
 -1       494 3.26427E-03-4.44632E-04-4.11818E-15
 -1       495 3.55399E-03-4.35960E-04-4.86381E-15
 -1       496 3.84567E-03-4.26813E-04-5.66956E-15
 -1       497 4.13971E-03-4.18965E-04-6.53466E-15
 -1       498 4.43673E-03-4.14818E-04-7.45689E-15
 -1       499 4.73770E-03-4.17699E-04-8.43229E-15
 -1       500 5.04422E-03-4.32188E-04-9.45963E-15
 -1       501 5.35892E-03-4.64429E-04-1.05431E-14
 -1       502 5.68562E-03-5.22280E-04-1.16816E-14
 -1       503 6.02887E-03-6.14797E-04-1.28792E-14
 -1       504 6.39165E-03-7.49930E-04-1.41398E-14
 -1       505 6.77020E-03-9.26562E-04-1.54661E-14
 -1       506 7.15154E-03-1.11961E-03-1.68659E-14
 -1       507 7.52141E-03-1.26763E-03-1.83378E-14
 -1       508 7.88089E-03-1.30597E-03-1.98830E-14
 -1       509 8.24691E-03-1.22412E-03-2.15004E-14
 -1       510 8.62616E-03-1.07979E-03-2.31828E-14
 -1       511 9.00762E-03-9.38338E-04-2.49303E-14
 -1       512 9.37501E-03-8.35776E-04-2.67370E-14
 -1       513 9.72336E-03-7.76586E-04-2.85904E-14
 -1       514 1.00541E-02-7.54322E-04-3.04871E-14
 -1       515 1.03719E-02-7.59803E-04-3.24256E-14
 -1       516 1.06807E-02-7.84793E-04-3.44010E-14
 -1       517 1.09836E-02-8.22780E-04-3.64103E-14
 -1       518 1.12825E-02-8.68919E-04-3.84520E-14
 -1       519 1.15783E-02-9.19764E-04-4.05156E-14
 -1       520 1.18720E-02-9.72957E-04-4.25962E-14
 -1       521 1.21639E-02-1.02695E-03-4.46941E-14
 -1       522 1.24543E-02-1.08079E-03-4.68074E-14
 -1       523 1.27437E-02-1.13390E-03-4.89511E-14
 -1       524 1.30321E-02-1.18603E-03-5.11369E-14
 -1       525 1.33197E-02-1.23705E-03-5.33512E-14
 -1       526 1.36069E-02-1.28698E-03-5.55867E-14
 -1       527 1.38935E-02-1.33590E-03-5.78426E-14
 -1       528 1.41799E-02-1.38392E-03-6.01166E-14
 -1       529 1.44660E-02-1.43116E-03-6.23969E-14
 -1       530 9.69976E-03-2.50809E-04-2.53237E-14
 -1       531 1.78605E-03 4.65154E-04-1.07581E-15
 -1       532 2.06956E-03 4.81609E-04-1.46268E-15
 -1       533 2.35350E-03 4.90209E-04-1.90964E-15
 -1       534 2.63842E-03 4.92906E-04-2.41684E-15
 -1       535 2.92478E-03 4.91310E-04-2.98612E-15
 -1       536 3.21301E-03 4.86843E-04-3.61895E-15
 -1       537 3.50349E-03 4.80894E-04-4.31451E-15
 -1       538 3.79666E-03 4.74966E-04-5.07168E-15
 -1       539 4.09299E-03 4.70821E-04-5.89207E-15
 -1       540 4.39298E-03 4.70601E-04-6.77744E-15
 -1       541 4.69721E-03 4.76896E-04-7.72535E-15
 -1       542 5.00621E-03 4.92694E-04-8.73218E-15
 -1       543 5.32032E-03 5.21105E-04-9.79433E-15
 -1       544 5.63943E-03 5.64708E-04-1.09150E-14
 -1       545 5.96243E-03 6.24336E-04-1.21000E-14
 -1       546 6.28682E-03 6.97242E-04-1.33507E-14
 -1       547 6.60872E-03 7.75063E-04-1.46639E-14
 -1       548 6.92416E-03 8.42891E-04-1.60387E-14
 -1       549 7.23165E-03 8.81793E-04-1.74724E-14
 -1       550 7.53413E-03 8.75946E-04-1.89700E-14
 -1       551 7.83772E-03 8.20648E-04-2.05259E-14
 -1       552 8.14787E-03 7.25026E-04-2.21447E-14
 -1       553 8.46596E-03 6.06902E-04-2.38313E-14
 -1       554 8.78936E-03 4.84362E-04-2.55856E-14
 -1       555 9.11393E-03 3.70158E-04-2.74044E-14
 -1       556 9.43621E-03 2.70571E-04-2.92809E-14
 -1       557 9.75422E-03 1.86913E-04-3.12055E-14
 -1       558 1.00673E-02 1.17620E-04-3.31708E-14
 -1       559 1.03756E-02 5.98874E-05-3.51920E-14
 -1       560 1.06795E-02 1.06937E-05-3.72635E-14
 -1       561 1.09798E-02-3.26763E-05-3.93740E-14
 -1       562 1.12769E-02-7.24261E-05-4.15183E-14
 -1       563 1.15714E-02-1.10219E-04-4.36867E-14
 -1       564 1.18639E-02-1.47236E-04-4.58907E-14
 -1       565 1.21547E-02-1.84264E-04-4.81268E-14
 -1       566 1.24442E-02-2.21786E-04-5.03900E-14
 -1       567 1.27326E-02-2.60068E-04-5.26616E-14
 -1       568 1.30202E-02-2.99223E-04-5.49337E-14
 -1       569 1.33072E-02-3.39261E-04-5.72086E-14
 -1       570 1.35938E-02-3.80133E-04-5.94837E-14
 -1       571 1.38800E-02-4.21751E-04-6.17672E-14
 -1       572 1.41660E-02-4.64005E-04-6.40620E-14
 -1       573 1.43232E-02-7.37791E-04-6.41844E-14
 -1       574 1.43671E-02-8.20818E-04-6.41912E-14
 -1       575 1.42366E-02-5.72294E-04-6.41884E-14
 -1       576 1.42797E-02-6.55194E-04-6.41850E-14
 -1       577 1.44110E-02-9.03636E-04-6.42061E-14
 -1       578 1.44548E-02-9.86340E-04-6.42272E-14
 -1       579 1.44984E-02-1.06904E-03-6.42480E-14
 -1       580 1.45412E-02-1.15044E-03-6.42706E-14
 -1       581 1.45847E-02-1.23346E-03-6.42941E-14
 -1       582 1.46284E-02-1.31675E-03-6.43191E-14
 -1       583 1.46723E-02-1.40035E-03-6.43381E-14
 -1       584 9.90844E-03-3.51609E-04-2.55093E-14
 -1       585 1.50231E-03 4.38373E-04-7.49641E-16
 -1       586 9.44141E-03-1.55414E-04-2.46811E-14
 -1       587 9.19241E-03-6.47444E-04-2.39439E-14
 -1       588 9.02064E-03 3.56357E-05-2.37515E-14
 -1       589 9.88696E-03-3.11523E-04-2.56410E-14
 -1       590 5.75554E-03-1.19679E-05-1.45143E-14
 -1       591 6.63688E-04-3.54704E-05-2.45667E-16
 -1       592 7.51381E-03 7.11227E-04-1.89060E-14
 -1       593 5.43509E-03-2.02499E-04-1.41813E-14
 -1       594 7.80159E-03 6.65636E-04-2.00082E-14
 -1       595 7.18254E-03 6.58746E-04-1.76856E-14
 -1       596 6.79846E-03 4.88097E-04-1.65919E-14
 -1       597 6.47089E-03 3.19444E-04-1.57882E-14
 -1       598 6.04373E-03 1.09838E-04-1.49543E-14
 -1       599 5.49835E-03-1.01828E-04-1.41089E-14
 -1       600 9.53000E-03-4.94693E-04-2.47295E-14
 -1       601 5.66406E-03-2.84043E-04-1.44862E-14
 -1       602 5.90907E-03-3.84914E-04-1.48450E-14
 -1       603 6.76810E-03-8.47658E-04-1.64149E-14
 -1       604 7.10547E-03-1.04644E-03-1.72134E-14
 -1       605 7.47393E-03-1.21909E-03-1.83733E-14
 -1       606 7.79508E-03-1.26766E-03-1.95625E-14
 -1       607 8.13883E-03-1.20040E-03-2.08911E-14
 -1       608 8.46537E-03-1.04750E-03-2.20577E-14
 -1       609 8.85412E-03-8.31136E-04-2.32297E-14
 -1       610 9.82364E-03-3.85370E-04-2.53398E-14
 -1       611 7.12983E-04-2.47904E-04-2.13673E-16
 -1       612 7.03713E-04 2.87085E-04-1.48173E-16
 -1       613 8.59692E-03 2.65007E-04-2.26634E-14
 -1       614 6.77068E-04-1.56649E-04-2.32765E-16
 -1       615 1.46602E-02-1.46439E-03-6.39472E-14
 -1       616 6.10698E-03-4.75127E-04-1.48883E-14
 -1       617 6.53230E-03-7.06594E-04-1.56998E-14
 -1       618 5.34939E-03-1.67716E-04-1.37005E-14
 -1       619 7.97521E-03 6.07066E-04-2.07889E-14
 -1       620 6.92306E-04-1.99134E-04-2.26046E-16
 -1       621 5.38244E-03-1.28011E-04-1.36620E-14
 -1       622 8.99289E-04 7.17729E-05-4.11184E-16
 -1       623 8.96993E-04 2.43528E-05-4.18546E-16
 -1       624 9.12111E-04 1.73545E-04-3.83455E-16
 -1       625 9.24739E-04 2.31393E-04-3.60345E-16
 -1       626 1.04949E-03 3.07175E-04-4.12309E-16
 -1       627 9.28001E-03-7.81568E-05-2.50919E-14
 -1       628 1.33551E-03 3.51820E-04-6.59059E-16
 -1       629 8.72670E-03-9.54614E-04-2.32949E-14
 -1       630 9.51022E-04-2.64204E-04-3.98377E-16
 -1       631 1.38420E-03-3.26791E-04-8.07233E-16
 -1       632 1.67060E-03-3.53892E-04-1.15389E-15
 -1       633 1.95708E-03-3.71029E-04-1.56236E-15
 -1       634 2.24344E-03-3.80261E-04-2.03161E-15
 -1       635 2.52967E-03-3.83323E-04-2.56273E-15
 -1       636 2.81579E-03-3.81647E-04-3.15674E-15
 -1       637 3.10183E-03-3.76459E-04-3.81173E-15
 -1       638 3.38780E-03-3.68889E-04-4.52593E-15
 -1       639 3.67370E-03-3.60112E-04-5.30093E-15
 -1       640 3.95958E-03-3.51493E-04-6.13570E-15
 -1       641 4.24560E-03-3.44763E-04-7.02899E-15
 -1       642 4.53226E-03-3.42209E-04-7.97659E-15
 -1       643 4.82070E-03-3.46907E-04-8.97553E-15
 -1       644 5.11326E-03-3.63031E-04-1.00286E-14
 -1       645 5.41429E-03-3.96433E-04-1.11386E-14
 -1       646 5.73076E-03-4.55524E-04-1.23043E-14
 -1       647 6.07172E-03-5.52617E-04-1.35314E-14
 -1       648 6.44592E-03-7.03074E-04-1.48194E-14
 -1       649 9.29195E-03-7.54361E-04-2.58376E-14
 -1       650 9.64115E-03-6.88811E-04-2.76649E-14
 -1       651 9.96275E-03-6.65025E-04-2.95385E-14
 -1       652 1.02670E-02-6.69526E-04-3.14549E-14
 -1       653 1.05612E-02-6.93056E-04-3.34094E-14
 -1       654 1.08505E-02-7.29259E-04-3.53979E-14
 -1       655 1.11376E-02-7.73680E-04-3.74242E-14
 -1       656 1.14239E-02-8.23129E-04-3.94756E-14
 -1       657 1.17099E-02-8.75337E-04-4.15478E-14
 -1       658 1.19960E-02-9.28736E-04-4.36392E-14
 -1       659 1.22821E-02-9.82292E-04-4.57485E-14
 -1       660 1.25682E-02-1.03537E-03-4.78808E-14
 -1       661 1.28544E-02-1.08759E-03-5.00504E-14
 -1       662 1.31404E-02-1.13882E-03-5.22529E-14
 -1       663 1.34265E-02-1.18900E-03-5.44755E-14
 -1       664 1.37125E-02-1.23817E-03-5.67155E-14
 -1       665 1.39984E-02-1.28644E-03-5.89721E-14
 -1       666 1.42842E-02-1.33391E-03-6.12428E-14
 -1       667 9.54719E-03-1.90720E-04-2.57440E-14
 -1       668 1.90762E-03 4.02907E-04-1.33031E-15
 -1       669 2.76596E-03 4.19389E-04-2.78450E-15
 -1       670 3.05304E-03 4.15843E-04-3.39112E-15
 -1       671 3.34106E-03 4.10025E-04-4.05972E-15
 -1       672 3.63040E-03 4.03235E-04-4.78989E-15
 -1       673 3.92151E-03 3.96929E-04-5.58235E-15
 -1       674 4.21504E-03 3.92852E-04-6.43829E-15
 -1       675 4.51188E-03 3.93162E-04-7.35670E-15
 -1       676 4.81320E-03 4.00516E-04-8.33445E-15
 -1       677 5.12046E-03 4.18066E-04-9.36979E-15
 -1       678 5.43513E-03 4.49266E-04-1.04626E-14
 -1       679 5.75815E-03 4.97254E-04-1.16172E-14
 -1       680 6.08888E-03 5.63410E-04-1.28346E-14
 -1       681 6.42401E-03 6.44707E-04-1.41152E-14
 -1       682 6.75736E-03 7.30083E-04-1.54579E-14
 -1       683 7.08274E-03 7.99044E-04-1.68611E-14
 -1       684 7.39891E-03 8.24554E-04-1.83262E-14
 -1       685 7.71195E-03 7.92433E-04-1.98549E-14
 -1       686 8.03087E-03 7.04297E-04-2.14441E-14
 -1       687 8.35948E-03 5.82315E-04-2.30990E-14
 -1       688 8.69429E-03 4.51495E-04-2.48196E-14
 -1       689 9.02861E-03 3.29434E-04-2.66099E-14
 -1       690 9.35712E-03 2.24161E-04-2.84624E-14
 -1       691 9.67748E-03 1.36798E-04-3.03645E-14
 -1       692 9.98977E-03 6.51697E-05-3.23084E-14
 -1       693 1.02952E-02 5.96096E-06-3.43027E-14
 -1       694 1.05953E-02-4.41517E-05-3.63466E-14
 -1       695 1.08914E-02-8.80437E-05-3.84330E-14
 -1       696 1.11847E-02-1.28013E-04-4.05508E-14
 -1       697 1.14759E-02-1.65794E-04-4.27002E-14
 -1       698 1.17656E-02-2.02629E-04-4.48801E-14
 -1       699 1.20543E-02-2.39362E-04-4.70930E-14
 -1       700 1.23421E-02-2.76525E-04-4.93329E-14
 -1       701 1.26294E-02-3.14421E-04-5.15843E-14
 -1       702 1.29162E-02-3.53191E-04-5.38423E-14
 -1       703 1.32027E-02-3.92865E-04-5.61023E-14
 -1       704 1.34890E-02-4.33404E-04-5.83607E-14
 -1       705 1.37750E-02-4.74730E-04-6.06296E-14
 -1       706 1.40059E-02-5.23318E-04-6.24070E-14
 -1       707 8.84241E-03 1.41672E-04-2.38985E-14
 -1       708 1.41863E-02-9.06743E-04-6.22536E-14
 -1       709 1.44783E-02-1.36726E-03-6.27895E-14
 -1       710 1.40983E-02-7.41952E-04-6.22172E-14
 -1       711 1.42300E-02-9.88947E-04-6.22708E-14
 -1       712 1.41424E-02-8.24456E-04-6.22361E-14
 -1       713 1.42728E-02-1.06982E-03-6.22850E-14
 -1       714 1.43161E-02-1.15230E-03-6.23033E-14
 -1       715 1.43594E-02-1.23509E-03-6.23227E-14
 -1       716 1.62165E-03 3.82832E-04-9.64791E-16
 -1       717 5.83348E-03 5.45770E-05-1.40300E-14
 -1       718 9.75526E-03-4.41077E-04-2.60774E-14
 -1       719 9.93048E-03-3.77775E-04-2.64418E-14
 -1       720 9.98661E-03-3.47569E-04-2.67111E-14
 -1       721 7.35920E-03 7.23256E-04-1.82429E-14
 -1       722 9.88610E-03-3.02055E-04-2.67877E-14
 -1       723 2.47954E-03 4.19383E-04-2.23916E-15
 -1       724 2.19351E-03 4.14432E-04-1.75481E-15
 -1       725 1.16714E-03-2.99644E-04-5.84466E-16
 -1       726 8.39217E-03 3.92760E-04-2.23946E-14
 -1       727 9.04097E-04 1.20964E-04-3.99915E-16
 -1       728 9.03755E-04-1.18584E-04-4.18099E-16
 -1       729 5.48983E-03-2.21970E-04-1.36784E-14
 -1       730 6.93577E-03 5.86199E-04-1.67008E-14
 -1       731 6.61118E-03 4.24184E-04-1.57605E-14
 -1       732 5.56483E-03-4.74166E-05-1.35839E-14
 -1       733 6.89589E-03-9.33335E-04-1.63697E-14
 -1       734 5.73926E-03-3.14817E-04-1.39594E-14
 -1       735 9.14405E-03-7.19946E-04-2.45747E-14
 -1       736 9.44257E-03-5.72368E-04-2.53729E-14
 -1       737 6.21236E-03 2.26189E-04-1.47671E-14
 -1       738 7.61400E-03 7.22448E-04-1.93238E-14
 -1       739 9.11546E-04-1.70944E-04-4.09618E-16
 -1       740 8.96936E-04-2.23959E-05-4.22104E-16
 -1       741 7.63219E-03-1.27805E-03-1.88578E-14
 -1       742 8.17619E-03 5.28217E-04-2.17538E-14
 -1       743 1.40545E-02-6.59824E-04-6.22096E-14
 -1       744 1.40300E-02-5.91722E-04-6.23084E-14
 -1       745 5.41389E-03-8.26851E-05-1.31472E-14
 -1       746 6.28194E-03-5.74907E-04-1.48933E-14
 -1       747 7.12284E-03 6.91634E-04-1.72348E-14
 -1       748 5.35365E-03-1.81769E-04-1.32074E-14
 -1       749 8.99100E-04-6.95423E-05-4.21948E-16
 -1       750 5.29911E-03-1.39381E-04-1.31476E-14
 -1       751 1.43218E-02-1.28445E-03-6.17837E-14
 -1       752 5.93531E-03 1.63480E-04-1.36985E-14
 -1       753 1.16187E-03 2.36530E-04-5.75742E-16
 -1       754 5.60214E-03 2.52816E-05-1.30398E-14
 -1       755 7.47171E-03 7.60726E-04-1.86983E-14
 -1       756 1.79685E-03-2.94765E-04-1.38087E-15
 -1       757 2.08366E-03-3.06273E-04-1.82171E-15
 -1       758 2.37017E-03-3.11629E-04-2.32285E-15
 -1       759 2.65601E-03-3.12175E-04-2.88563E-15
 -1       760 2.94087E-03-3.09071E-04-3.51006E-15
 -1       761 3.22447E-03-3.03354E-04-4.19376E-15
 -1       762 3.50650E-03-2.96036E-04-4.93657E-15
 -1       763 3.78664E-03-2.88191E-04-5.73975E-15
 -1       764 4.06462E-03-2.81068E-04-6.60296E-15
 -1       765 4.34028E-03-2.76183E-04-7.52271E-15
 -1       766 4.61386E-03-2.75424E-04-8.49513E-15
 -1       767 4.88634E-03-2.81187E-04-9.51859E-15
 -1       768 5.16017E-03-2.96692E-04-1.05998E-14
 -1       769 5.44051E-03-3.27346E-04-1.17365E-14
 -1       770 5.73777E-03-3.81440E-04-1.29298E-14
 -1       771 1.00606E-02-3.82612E-04-2.78107E-14
 -1       772 9.90266E-03-5.72843E-04-2.85941E-14
 -1       773 1.01859E-02-5.81327E-04-3.04856E-14
 -1       774 1.04605E-02-6.06190E-04-3.24222E-14
 -1       775 1.07326E-02-6.41764E-04-3.43926E-14
 -1       776 1.10053E-02-6.84565E-04-3.63985E-14
 -1       777 1.12798E-02-7.32120E-04-3.84379E-14
 -1       778 1.15564E-02-7.82576E-04-4.04994E-14
 -1       779 1.18350E-02-8.34545E-04-4.25839E-14
 -1       780 1.21154E-02-8.87031E-04-4.46839E-14
 -1       781 1.23971E-02-9.39359E-04-4.68086E-14
 -1       782 1.26800E-02-9.91110E-04-4.89657E-14
 -1       783 1.29637E-02-1.04205E-03-5.11546E-14
 -1       784 1.32480E-02-1.09209E-03-5.33688E-14
 -1       785 1.35328E-02-1.14123E-03-5.55946E-14
 -1       786 1.38179E-02-1.18952E-03-5.78370E-14
 -1       787 1.40697E-02-1.23722E-03-5.98028E-14
 -1       788 9.51099E-03-1.37084E-04-2.66179E-14
 -1       789 2.03292E-03 3.38675E-04-1.59564E-15
 -1       790 2.89264E-03 3.45683E-04-3.16143E-15
 -1       791 3.75185E-03 3.26688E-04-5.27231E-15
 -1       792 4.03948E-03 3.20036E-04-6.09965E-15
 -1       793 4.32897E-03 3.15670E-04-6.98958E-15
 -1       794 4.62170E-03 3.15635E-04-7.93875E-15
 -1       795 4.91964E-03 3.22583E-04-8.94597E-15
 -1       796 5.22540E-03 3.39943E-04-1.00098E-14
 -1       797 5.54194E-03 3.72015E-04-1.11349E-14
 -1       798 5.87163E-03 4.23604E-04-1.23216E-14
 -1       799 6.21383E-03 4.97935E-04-1.35691E-14
 -1       800 6.56469E-03 5.93226E-04-1.48783E-14
 -1       801 6.91277E-03 6.91774E-04-1.62512E-14
 -1       802 7.90010E-03 7.00898E-04-2.07312E-14
 -1       803 8.23844E-03 5.75588E-04-2.23552E-14
 -1       804 8.58592E-03 4.32690E-04-2.40462E-14
 -1       805 8.93255E-03 2.99438E-04-2.58034E-14
 -1       806 9.27022E-03 1.87192E-04-2.76259E-14
 -1       807 9.59538E-03 9.63284E-05-2.95068E-14
 -1       808 9.90864E-03 2.31929E-05-3.14317E-14
 -1       809 1.02123E-02-3.66221E-05-3.34015E-14
 -1       810 1.05092E-02-8.70201E-05-3.54192E-14
 -1       811 1.08014E-02-1.31092E-04-3.74817E-14
 -1       812 1.10908E-02-1.71184E-04-3.95767E-14
 -1       813 1.13784E-02-2.09024E-04-4.17053E-14
 -1       814 1.16650E-02-2.45847E-04-4.38642E-14
 -1       815 1.19510E-02-2.82496E-04-4.60571E-14
 -1       816 1.22368E-02-3.19516E-04-4.82755E-14
 -1       817 1.25225E-02-3.57226E-04-5.05091E-14
 -1       818 1.28081E-02-3.95785E-04-5.27521E-14
 -1       819 1.30938E-02-4.35239E-04-5.50011E-14
 -1       820 1.33794E-02-4.75560E-04-5.72508E-14
 -1       821 1.36651E-02-5.16680E-04-5.95054E-14
 -1       822 1.38476E-02-5.54062E-04-6.09055E-14
 -1       823 1.40052E-02-9.90279E-04-6.03198E-14
 -1       824 8.64403E-03 2.88854E-04-2.36820E-14
 -1       825 1.40909E-02-1.15349E-03-6.03457E-14
 -1       826 1.39616E-02-9.08675E-04-6.03094E-14
 -1       827 2.60628E-03 3.47780E-04-2.57906E-15
 -1       828 1.40481E-02-1.07171E-03-6.03310E-14
 -1       829 3.46516E-03 3.34023E-04-4.50658E-15
 -1       830 3.17887E-03 3.40735E-04-3.80317E-15
 -1       831 9.67330E-03-5.60576E-04-2.69657E-14
 -1       832 9.95315E-03-4.24041E-04-2.74429E-14
 -1       833 5.95487E-03-4.29136E-04-1.39327E-14
 -1       834 2.31971E-03 3.45877E-04-2.05782E-15
 -1       835 1.51031E-03-2.75602E-04-1.00012E-15
 -1       836 9.29457E-04-2.15548E-04-4.06190E-16
 -1       837 1.24686E-03 2.92366E-04-6.19825E-16
 -1       838 1.00693E-02-3.47083E-04-2.81138E-14
 -1       839 9.13095E-03 3.34900E-05-2.53858E-14
 -1       840 5.52137E-03-2.51214E-04-1.31340E-14
 -1       841 9.85775E-03-2.66905E-04-2.76852E-14
 -1       842 6.34413E-03 3.67239E-04-1.46173E-14
 -1       843 6.70893E-03 5.28740E-04-1.57538E-14
 -1       844 7.84876E-03 6.82596E-04-2.04096E-14
 -1       845 1.13678E-03 5.68167E-05-6.34265E-16
 -1       846 1.13524E-03 1.13136E-06-6.42044E-16
 -1       847 1.14947E-03 1.73246E-04-6.02291E-16
 -1       848 5.43804E-03-1.96828E-05-1.26150E-14
 -1       849 1.53296E-03 3.23765E-04-9.17306E-16
 -1       850 1.14399E-03-2.46423E-04-5.94729E-16
 -1       851 1.38296E-02-6.64071E-04-6.02599E-14
 -1       852 1.38740E-02-7.46264E-04-6.02748E-14
 -1       853 1.39180E-02-8.27571E-04-6.02918E-14
 -1       854 5.28490E-03-1.02228E-04-1.26451E-14
 -1       855 1.00918E-02-3.25017E-04-2.90361E-14
 -1       856 1.78283E-03 3.34704E-04-1.23282E-15
 -1       857 1.14135E-03 1.13569E-04-6.21194E-16
 -1       858 5.35920E-03-2.03174E-04-1.26766E-14
 -1       859 1.14888E-03-1.70230E-04-6.34248E-16
 -1       860 5.25005E-03-1.51669E-04-1.26682E-14
 -1       861 1.40803E-02-1.19530E-03-6.00743E-14
 -1       862 1.14104E-03-1.11061E-04-6.42278E-16
 -1       863 3.58584E-03 2.59544E-04-4.96121E-15
 -1       864 8.95244E-03 1.80536E-04-2.52655E-14
 -1       865 2.21267E-03-2.40468E-04-2.08759E-15
 -1       866 2.49839E-03-2.42934E-04-2.61968E-15
 -1       867 2.78276E-03-2.41935E-04-3.21320E-15
 -1       868 3.06519E-03-2.38392E-04-3.86693E-15
 -1       869 3.34513E-03-2.33173E-04-4.57847E-15
 -1       870 3.62197E-03-2.27152E-04-5.34949E-15
 -1       871 3.89506E-03-2.21269E-04-6.18169E-15
 -1       872 4.16372E-03-2.16573E-04-7.07158E-15
 -1       873 4.42730E-03-2.14239E-04-8.01667E-15
 -1       874 4.68529E-03-2.15556E-04-9.01304E-15
 -1       875 4.93763E-03-2.21940E-04-1.00640E-14
 -1       876 5.18583E-03-2.35288E-04-1.11719E-14
 -1       877 1.01292E-02-4.97690E-04-2.95202E-14
 -1       878 1.01486E-02-4.32252E-04-2.90681E-14
 -1       879 1.44671E-03 2.66893E-04-8.64614E-16
 -1       880 6.48406E-03 5.07041E-04-1.47525E-14
 -1       881 1.03759E-02-5.25570E-04-3.14353E-14
 -1       882 1.06262E-02-5.61268E-04-3.33891E-14
 -1       883 1.08819E-02-6.02416E-04-3.53775E-14
 -1       884 1.11429E-02-6.47574E-04-3.73993E-14
 -1       885 1.14089E-02-6.95529E-04-3.94494E-14
 -1       886 1.16791E-02-7.45229E-04-4.15224E-14
 -1       887 1.19529E-02-7.95815E-04-4.36181E-14
 -1       888 1.22296E-02-8.46636E-04-4.57381E-14
 -1       889 1.25086E-02-8.97236E-04-4.78833E-14
 -1       890 1.27893E-02-9.47329E-04-5.00613E-14
 -1       891 1.30714E-02-9.96763E-04-5.22657E-14
 -1       892 1.33545E-02-1.04548E-03-5.44788E-14
 -1       893 1.36384E-02-1.09349E-03-5.67092E-14
 -1       894 1.38385E-02-6.09242E-04-6.05800E-14
 -1       895 1.63991E-03-2.20973E-04-1.20272E-15
 -1       896 3.86847E-03 2.51800E-04-5.76153E-15
 -1       897 4.72201E-03 2.37445E-04-8.52300E-15
 -1       898 5.01482E-03 2.41918E-04-9.55987E-15
 -1       899 5.31748E-03 2.56516E-04-1.06533E-14
 -1       900 5.63489E-03 2.87120E-04-1.18083E-14
 -1       901 5.97187E-03 3.41885E-04-1.30258E-14
 -1       902 8.38775E-03 4.68006E-04-2.29015E-14
 -1       903 9.20804E-03 1.27953E-04-2.68139E-14
 -1       904 9.53856E-03 3.58221E-05-2.86662E-14
 -1       905 9.85151E-03-3.56244E-05-3.05701E-14
 -1       906 1.01514E-02-9.29114E-05-3.25183E-14
 -1       907 1.04427E-02-1.41199E-04-3.45122E-14
 -1       908 1.07289E-02-1.83878E-04-3.65497E-14
 -1       909 1.10123E-02-2.23215E-04-3.86237E-14
 -1       910 1.12945E-02-2.60748E-04-4.07274E-14
 -1       911 1.15764E-02-2.97529E-04-4.28657E-14
 -1       912 1.18585E-02-3.34266E-04-4.50373E-14
 -1       913 1.21411E-02-3.71417E-04-4.72370E-14
 -1       914 1.24243E-02-4.09253E-04-4.94526E-14
 -1       915 1.27080E-02-4.47909E-04-5.16788E-14
 -1       916 1.29922E-02-4.87422E-04-5.39121E-14
 -1       917 1.32767E-02-5.27769E-04-5.61478E-14
 -1       918 2.73353E-03 2.76162E-04-2.92888E-15
 -1       919 4.43506E-03 2.39192E-04-7.54297E-15
 -1       920 1.02095E-02-3.89094E-04-2.93898E-14
 -1       921 2.16100E-03 2.72959E-04-1.87327E-15
 -1       922 1.37378E-02-9.10636E-04-5.83754E-14
 -1       923 2.44760E-03 2.76609E-04-2.37116E-15
 -1       924 1.13662E-03-5.43994E-05-6.44717E-16
 -1       925 8.80302E-03 2.82109E-04-2.48170E-14
 -1       926 9.81100E-03-2.00031E-04-2.85147E-14
 -1       927 4.15116E-03 2.44578E-04-6.62169E-15
 -1       928 9.40540E-03-3.90935E-05-2.69630E-14
 -1       929 1.92623E-03-2.33525E-04-1.61535E-15
 -1       930 1.38798E-03-1.64364E-04-9.02717E-16
 -1       931 6.01578E-03 2.91156E-04-1.34184E-14
 -1       932 5.63889E-03 1.28014E-04-1.25340E-14
 -1       933 5.28200E-03-5.02580E-05-1.21254E-14
 -1       934 1.37801E-03 3.25183E-05-9.03259E-16
 -1       935 5.47309E-03 7.28730E-05-1.21209E-14
 -1       936 1.35843E-02-5.86778E-04-5.85075E-14
 -1       937 1.38592E-02-1.14447E-03-5.83882E-14
 -1       938 1.37807E-02-9.91218E-04-5.83847E-14
 -1       939 3.01856E-03 2.72592E-04-3.54571E-15
 -1       940 8.11462E-03 5.80023E-04-2.16163E-14
 -1       941 1.38171E-03 9.54536E-05-8.89561E-16
 -1       942 1.36292E-02-6.68787E-04-5.85266E-14
 -1       943 5.18508E-03-1.19309E-04-1.21787E-14
 -1       944 1.36943E-02-8.30322E-04-5.83612E-14
 -1       945 1.00798E-02-2.76487E-04-2.98865E-14
 -1       946 1.02781E-02-3.72596E-04-3.03318E-14
 -1       947 1.91052E-03 2.73302E-04-1.47871E-15
 -1       948 3.30264E-03 2.66772E-04-4.22243E-15
 -1       949 5.21821E-03-1.67780E-04-1.21513E-14
 -1       950 1.38434E-02-1.08304E-03-5.85204E-14
 -1       951 9.81208E-03-9.95540E-05-2.97092E-14
 -1       952 2.34397E-03-1.74129E-04-2.35954E-15
 -1       953 1.46116E-03 1.89694E-04-9.37699E-16
 -1       954 2.62829E-03-1.74796E-04-2.92179E-15
 -1       955 2.91051E-03-1.73297E-04-3.54427E-15
 -1       956 3.18985E-03-1.70335E-04-4.22553E-15
 -1       957 3.46551E-03-1.66622E-04-4.96547E-15
 -1       958 3.73663E-03-1.62899E-04-5.76527E-15
 -1       959 4.00224E-03-1.59953E-04-6.62458E-15
 -1       960 4.26116E-03-1.58621E-04-7.54041E-15
 -1       961 4.51197E-03-1.59740E-04-8.51044E-15
 -1       962 4.75286E-03-1.64046E-04-9.53330E-15
 -1       963 4.98155E-03-1.72199E-04-1.06131E-14
 -1       964 1.03606E-02-4.63546E-04-3.09747E-14
 -1       965 1.05884E-02-4.99341E-04-3.29207E-14
 -1       966 1.08282E-02-5.38842E-04-3.49024E-14
 -1       967 1.10776E-02-5.81525E-04-3.69171E-14
 -1       968 1.13346E-02-6.26726E-04-3.89597E-14
 -1       969 1.15979E-02-6.73715E-04-4.10285E-14
 -1       970 1.18662E-02-7.21810E-04-4.31232E-14
 -1       971 1.21386E-02-7.70443E-04-4.52431E-14
 -1       972 1.24141E-02-8.19182E-04-4.73927E-14
 -1       973 1.26923E-02-8.67732E-04-4.95659E-14
 -1       974 1.29724E-02-9.15910E-04-5.17629E-14
 -1       975 1.32540E-02-9.63622E-04-5.39736E-14
 -1       976 1.35368E-02-1.01084E-03-5.61968E-14
 -1       977 3.70380E-03 1.87237E-04-5.42179E-15
 -1       978 5.09515E-03 1.58323E-04-1.01758E-14
 -1       979 4.81139E-03 1.58692E-04-9.11029E-15
 -1       980 1.33225E-02-6.09228E-04-5.61770E-14
 -1       981 1.03868E-02-1.95387E-04-3.36080E-14
 -1       982 1.06645E-02-2.35226E-04-3.56201E-14
 -1       983 1.09403E-02-2.72981E-04-3.76737E-14
 -1       984 1.12158E-02-3.09840E-04-3.97566E-14
 -1       985 1.14920E-02-3.46534E-04-4.18705E-14
 -1       986 1.17694E-02-3.83513E-04-4.40187E-14
 -1       987 1.20482E-02-4.21063E-04-4.62005E-14
 -1       988 1.23283E-02-4.59344E-04-4.83983E-14
 -1       989 1.26096E-02-4.98424E-04-5.06102E-14
 -1       990 1.28919E-02-5.38308E-04-5.28287E-14
 -1       991 1.31071E-02-5.73534E-04-5.44982E-14
 -1       992 2.57703E-03 2.07227E-04-2.69467E-15
 -1       993 1.37790E-03-2.98903E-05-9.10516E-16
 -1       994 4.53315E-03 1.63720E-04-8.10090E-15
 -1       995 1.01042E-02-1.51411E-04-3.16359E-14
 -1       996 2.29139E-03 2.06236E-04-2.16128E-15
 -1       997 5.38989E-03 1.67138E-04-1.12979E-14
 -1       998 1.36503E-02-7.49855E-04-5.83433E-14
 -1       999 1.61992E-03 2.60346E-04-1.08517E-15
 -1      1000 2.05838E-03-1.70545E-04-1.85677E-15
 -1      1001 1.38138E-03-9.27408E-05-9.11750E-16
 -1      1002 1.77252E-03-1.63253E-04-1.41352E-15
 -1      1003 5.30169E-03 2.89902E-05-1.16449E-14
 -1      1004 5.14619E-03-7.76238E-05-1.16746E-14
 -1      1005 2.86139E-03 2.05206E-04-3.28707E-15
 -1      1006 3.98099E-03 1.79137E-04-6.25412E-15
 -1      1007 5.70331E-03 1.93503E-04-1.24821E-14
 -1      1008 1.00818E-02-2.16009E-04-3.07615E-14
 -1      1009 4.25704E-03 1.71001E-04-7.14783E-15
 -1      1010 1.62455E-03 6.91933E-05-1.20420E-15
 -1      1011 1.62240E-03 1.26927E-06-1.21743E-15
 -1      1012 1.34711E-02-8.32074E-04-5.64335E-14
 -1      1013 5.11144E-03-1.33515E-04-1.16767E-14
 -1      1014 1.03057E-02-3.36576E-04-3.12083E-14
 -1      1015 2.04107E-03 2.10048E-04-1.73673E-15
 -1      1016 3.42491E-03 1.94656E-04-4.64981E-15
 -1      1017 1.04429E-02-4.31857E-04-3.16245E-14
 -1      1018 1.35142E-02-9.11651E-04-5.64449E-14
 -1      1019 2.76049E-03-1.07688E-04-3.22813E-15
 -1      1020 3.04032E-03-1.06707E-04-3.87787E-15
 -1      1021 3.31644E-03-1.05270E-04-4.58669E-15
 -1      1022 3.58791E-03-1.03954E-04-5.35462E-15
 -1      1023 3.85371E-03-1.03367E-04-6.18261E-15
 -1      1024 4.11257E-03-1.04179E-04-7.06802E-15
 -1      1025 4.36287E-03-1.07097E-04-8.00995E-15
 -1      1026 4.60233E-03-1.12763E-04-9.00566E-15
 -1      1027 4.82765E-03-1.21718E-04-1.00571E-14
 -1      1028 5.15602E-03 7.33855E-05-1.07925E-14
 -1      1029 1.06987E-02-4.71136E-04-3.38767E-14
 -1      1030 1.09367E-02-5.09501E-04-3.58769E-14
 -1      1031 1.11850E-02-5.50644E-04-3.79080E-14
 -1      1032 1.14414E-02-5.93942E-04-3.99646E-14
 -1      1033 1.17042E-02-6.38799E-04-4.20485E-14
 -1      1034 1.19720E-02-6.84665E-04-4.41610E-14
 -1      1035 1.22440E-02-7.31089E-04-4.63052E-14
 -1      1036 1.25192E-02-7.77738E-04-4.84737E-14
 -1      1037 1.27971E-02-8.24383E-04-5.06575E-14
 -1      1038 1.30770E-02-8.70875E-04-5.28616E-14
 -1      1039 2.47785E-03-1.07696E-04-2.63686E-15
 -1      1040 1.11412E-02-3.55817E-04-3.87905E-14
 -1      1041 1.33444E-02-6.89531E-04-5.59961E-14
 -1      1042 1.08739E-02-3.19906E-04-3.67295E-14
 -1      1043 1.06081E-02-2.84419E-04-3.46979E-14
 -1      1044 1.14108E-02-3.92424E-04-4.08804E-14
 -1      1045 1.16828E-02-4.29821E-04-4.30051E-14
 -1      1046 1.19572E-02-4.68055E-04-4.51626E-14
 -1      1047 1.22339E-02-5.07121E-04-4.73465E-14
 -1      1048 1.25125E-02-5.46981E-04-4.95437E-14
 -1      1049 1.27928E-02-5.87576E-04-5.17483E-14
 -1      1050 1.69776E-03-7.84653E-05-1.32365E-15
 -1      1051 1.98278E-03-8.27631E-05-1.75292E-15
 -1      1052 4.62327E-03 9.02519E-05-8.66175E-15
 -1      1053 1.03457E-02-2.50863E-04-3.27091E-14
 -1      1054 3.14409E-03 2.00826E-04-3.93828E-15
 -1      1055 1.34081E-02-7.60831E-04-5.62154E-14
 -1      1056 1.75064E-03 2.02927E-04-1.30665E-15
 -1      1057 4.88819E-03 8.06442E-05-9.70009E-15
 -1      1058 2.23057E-03-9.57175E-05-2.17271E-15
 -1      1059 2.42406E-03 1.38990E-04-2.45976E-15
 -1      1060 1.68561E-03 1.34508E-04-1.25910E-15
 -1      1061 5.03508E-03-9.65442E-05-1.11884E-14
 -1      1062 5.02299E-03-1.31446E-04-1.11126E-14
 -1      1063 1.33585E-02-9.17149E-04-5.50759E-14
 -1      1064 5.14091E-03-1.30506E-05-1.12085E-14
 -1      1065 1.03235E-02-2.96713E-04-3.19583E-14
 -1      1066 2.13865E-03 1.37197E-04-1.95053E-15
 -1      1067 1.30067E-02-6.23188E-04-5.34088E-14
 -1      1068 1.86938E-03 3.70071E-05-1.56464E-15
 -1      1069 4.35786E-03 1.00087E-04-7.67940E-15
 -1      1070 3.54658E-03 1.25035E-04-5.08391E-15
 -1      1071 1.05149E-02-4.02421E-04-3.25261E-14
 -1      1072 1.32012E-02-7.66433E-04-5.44095E-14
 -1      1073 2.70817E-03 1.38289E-04-3.02724E-15
 -1      1074 1.32803E-02-8.41569E-04-5.47453E-14
 -1      1075 3.82013E-03 1.17756E-04-5.88813E-15
 -1      1076 1.92448E-03-2.23327E-05-1.66067E-15
 -1      1077 1.15972E-02-4.72846E-04-4.19929E-14
 -1      1078 3.17358E-03-4.22644E-05-4.21327E-15
 -1      1079 3.44695E-03-4.31129E-05-4.94944E-15
 -1      1080 3.71512E-03-4.47993E-05-5.74547E-15
 -1      1081 3.97708E-03-4.78275E-05-6.60009E-15
 -1      1082 4.23159E-03-5.28220E-05-7.51220E-15
 -1      1083 4.47652E-03-6.04248E-05-8.48016E-15
 -1      1084 4.70950E-03-7.11864E-05-9.50357E-15
 -1      1085 2.99030E-03 1.35524E-04-3.65374E-15
 -1      1086 2.61487E-03-4.15185E-05-2.91865E-15
 -1      1087 1.10278E-02-4.78988E-04-3.68532E-14
 -1      1088 1.12798E-02-5.18214E-04-3.88983E-14
 -1      1089 1.15388E-02-5.59506E-04-4.09720E-14
 -1      1090 1.18033E-02-6.02232E-04-4.30756E-14
 -1      1091 1.20725E-02-6.45930E-04-4.52117E-14
 -1      1092 1.23455E-02-6.90268E-04-4.73737E-14
 -1      1093 1.26214E-02-7.34982E-04-4.95530E-14
 -1      1094 1.28999E-02-7.79891E-04-5.17460E-14
 -1      1095 1.10688E-02-3.98081E-04-3.78256E-14
 -1      1096 1.08111E-02-3.62927E-04-3.57843E-14
 -1      1097 1.18671E-02-5.12103E-04-4.41290E-14
 -1      1098 1.21402E-02-5.52317E-04-4.62929E-14
 -1      1099 1.24160E-02-5.93330E-04-4.84748E-14
 -1      1100 1.26942E-02-6.34988E-04-5.06709E-14
 -1      1101 1.87243E-03 1.10336E-04-1.54043E-15
 -1      1102 2.27509E-03 7.17115E-05-2.22519E-15
 -1      1103 1.07847E-02-4.42291E-04-3.48332E-14
 -1      1104 3.26991E-03 1.31022E-04-4.33899E-15
 -1      1105 1.13309E-02-4.34738E-04-3.98933E-14
 -1      1106 4.09052E-03 1.09397E-04-6.75366E-15
 -1      1107 4.90174E-03 2.70060E-06-1.00983E-14
 -1      1108 1.31044E-02-6.94747E-04-5.39122E-14
 -1      1109 4.65718E-03 1.69104E-05-9.04228E-15
 -1      1110 2.89585E-03-4.18772E-05-3.53698E-15
 -1      1111 2.07212E-03 5.43274E-05-1.88094E-15
 -1      1112 4.91341E-03-8.45330E-05-1.05097E-14
 -1      1113 4.96734E-03-5.06613E-05-1.06412E-14
 -1      1114 2.12627E-03-6.57834E-06-1.98841E-15
 -1      1115 2.36922E-03-3.02241E-05-2.42912E-15
 -1      1116 2.55930E-03 7.17079E-05-2.76761E-15
 -1      1117 1.29067E-02-6.71256E-04-5.23240E-14
 -1      1118 4.40634E-03 2.89463E-05-8.04131E-15
 -1      1119 3.66902E-03 5.85199E-05-5.52454E-15
 -1      1120 1.05659E-02-3.29131E-04-3.38555E-14
 -1      1121 3.39705E-03 6.37283E-05-4.74695E-15
 -1      1122 1.05686E-02-3.71988E-04-3.33968E-14
 -1      1123 1.28625E-02-7.16220E-04-5.17256E-14
 -1      1124 2.84151E-03 7.03094E-05-3.36877E-15
 -1      1125 4.11086E-03 5.37467E-06-7.01714E-15
 -1      1126 3.89265E-03 3.18498E-05-6.24932E-15
 -1      1127 1.13665E-02-4.82671E-04-3.98897E-14
 -1      1128 1.09956E-02-4.35872E-04-3.68606E-14
 -1      1129 3.03545E-03 2.26414E-05-3.84798E-15
 -1      1130 2.32098E-03 2.07589E-05-2.32858E-15
 -1      1131 3.12100E-03 6.76608E-05-4.02851E-15
 -1      1132 0.00000E+00 0.00000E+00 0.00000E+00
 -1      1133 0.00000E+00 0.00000E+00 0.00000E+00
 -1      1134 0.00000E+00 0.00000E+00 0.00000E+00
 -1      1135 0.00000E+00 0.00000E+00 0.00000E+00
 -1      1136 0.00000E+00 0.00000E+00 0.00000E+00
 -1      1137 0.00000E+00 0.00000E+00 0.00000E+00
 -1      1138 0.00000E+00 0.00000E+00 0.00000E+00
 -1      1139 0.00000E+00 0.00000E+00 0.00000E+00
 -1      1140 0.00000E+00 0.00000E+00 0.00000E+00
 -1      1141 0.00000E+00 0.00000E+00 0.00000E+00
 -1      1142 0.00000E+00 0.00000E+00 0.00000E+00
 -1      1143 0.00000E+00 0.00000E+00 0.00000E+00
 -1      1144 0.00000E+00 0.00000E+00 0.00000E+00
 -1      1145 0.00000E+00 0.00000E+00 0.00000E+00
 -1      1146 0.00000E+00 0.00000E+00 0.00000E+00
 -1      1147 0.00000E+00 0.00000E+00 0.00000E+00
 -1      1148 0.00000E+00 0.00000E+00 0.00000E+00
 -1      1149 2.10850E-04-1.47730E-04 9.06664E-18
 -1      1150 5.49595E-04-3.35474E-04-1.39998E-17
 -1      1151 8.30623E-04-4.55098E-04-9.83507E-17
 -1      1152 1.09972E-03-5.34478E-04-2.53310E-16
 -1      1153 1.36501E-03-5.88908E-04-4.76995E-16
 -1      1154 1.63018E-03-6.26187E-04-7.68211E-16
 -1      1155 1.89730E-03-6.50865E-04-1.12627E-15
 -1      1156 2.16750E-03-6.65979E-04-1.55167E-15
 -1      1157 2.44151E-03-6.73776E-04-2.04418E-15
 -1      1158 2.71990E-03-6.76006E-04-2.60523E-15
 -1      1159 3.00325E-03-6.74121E-04-3.23512E-15
 -1      1160 3.29229E-03-6.69434E-04-3.92626E-15
 -1      1161 3.58798E-03-6.63289E-04-4.67368E-15
 -1      1162 3.89156E-03-6.57256E-04-5.48309E-15
 -1      1163 4.20455E-03-6.53382E-04-6.34983E-15
 -1      1164 4.52871E-03-6.54484E-04-7.27275E-15
 -1      1165 4.86573E-03-6.64494E-04-8.25394E-15
 -1      1166 5.21681E-03-6.88764E-04-9.28724E-15
 -1      1167 5.58171E-03-7.34090E-04-1.03759E-14
 -1      1168 5.95743E-03-8.07963E-04-1.15238E-14
 -1      1169 6.33674E-03-9.16219E-04-1.27331E-14
 -1      1170 6.70736E-03-1.05835E-03-1.40063E-14
 -1      1171 7.05406E-03-1.22137E-03-1.53449E-14
 -1      1172 7.36505E-03-1.37648E-03-1.67517E-14
 -1      1173 7.64118E-03-1.48535E-03-1.82313E-14
 -1      1174 7.90030E-03-1.51783E-03-1.97816E-14
 -1      1175 8.16988E-03-1.46993E-03-2.13979E-14
 -1      1176 8.47146E-03-1.36655E-03-2.30793E-14
 -1      1177 8.81014E-03-1.24593E-03-2.48337E-14
 -1      1178 9.17651E-03-1.14036E-03-2.66477E-14
 -1      1179 9.55545E-03-1.06674E-03-2.85139E-14
 -1      1180 9.93368E-03-1.02813E-03-3.04292E-14
 -1      1181 1.03028E-02-1.01979E-03-3.23854E-14
 -1      1182 1.06589E-02-1.03439E-03-3.43730E-14
 -1      1183 1.10013E-02-1.06488E-03-3.63967E-14
 -1      1184 1.13313E-02-1.10566E-03-3.84465E-14
 -1      1185 1.16506E-02-1.15263E-03-4.05090E-14
 -1      1186 1.19611E-02-1.20298E-03-4.25862E-14
 -1      1187 1.22648E-02-1.25486E-03-4.46677E-14
 -1      1188 1.25632E-02-1.30713E-03-4.67592E-14
 -1      1189 1.28577E-02-1.35908E-03-4.88856E-14
 -1      1190 1.31493E-02-1.41035E-03-5.10641E-14
 -1      1191 1.34387E-02-1.46075E-03-5.32831E-14
 -1      1192 1.37266E-02-1.51025E-03-5.55289E-14
 -1      1193 1.40135E-02-1.55886E-03-5.78109E-14
 -1      1194 1.42998E-02-1.60667E-03-6.01100E-14
 -1      1195 1.45856E-02-1.65378E-03-6.24043E-14
 -1      1196 1.48712E-02-1.70031E-03-6.46997E-14
 -1      1197 1.51568E-02-1.74642E-03-6.70128E-14
 -1      1198 1.54353E-02-1.79118E-03-6.92934E-14
 -1      1199 2.27552E-04 1.60060E-04 1.62224E-17
 -1      1200 5.51796E-04 3.40083E-04 8.53809E-18
 -1      1201 8.31622E-04 4.57269E-04-5.53756E-17
 -1      1202 1.10073E-03 5.36212E-04-1.82783E-16
 -1      1203 1.36608E-03 5.90711E-04-3.72776E-16
 -1      1204 1.63136E-03 6.28202E-04-6.24961E-16
 -1      1205 1.89859E-03 6.53189E-04-9.40423E-16
 -1      1206 2.16887E-03 6.68754E-04-1.31588E-15
 -1      1207 2.44288E-03 6.77198E-04-1.75398E-15
 -1      1208 2.72109E-03 6.80354E-04-2.25534E-15
 -1      1209 3.00396E-03 6.79776E-04-2.82269E-15
 -1      1210 3.29193E-03 6.76896E-04-3.45621E-15
 -1      1211 3.58553E-03 6.73165E-04-4.15241E-15
 -1      1212 3.88532E-03 6.70192E-04-4.91156E-15
 -1      1213 4.19177E-03 6.69871E-04-5.73558E-15
 -1      1214 4.50516E-03 6.74461E-04-6.63057E-15
 -1      1215 4.82526E-03 6.86584E-04-7.59164E-15
 -1      1216 5.15100E-03 7.09037E-04-8.61167E-15
 -1      1217 5.48008E-03 7.44302E-04-9.68600E-15
 -1      1218 5.80869E-03 7.93653E-04-1.08208E-14
 -1      1219 6.13156E-03 8.55845E-04-1.20180E-14
 -1      1220 6.44276E-03 9.25698E-04-1.32787E-14
 -1      1221 6.73731E-03 9.93344E-04-1.46023E-14
 -1      1222 7.01348E-03 1.04520E-03-1.59918E-14
 -1      1223 7.27463E-03 1.06730E-03-1.74396E-14
 -1      1224 7.52907E-03 1.05014E-03-1.89445E-14
 -1      1225 7.78757E-03 9.92515E-04-2.05044E-14
 -1      1226 8.05942E-03 9.02073E-04-2.21309E-14
 -1      1227 8.34939E-03 7.92115E-04-2.38280E-14
 -1      1228 8.65698E-03 6.76704E-04-2.55992E-14
 -1      1229 8.97787E-03 5.66820E-04-2.74306E-14
 -1      1230 9.30624E-03 4.68800E-04-2.93228E-14
 -1      1231 9.63662E-03 3.84773E-04-3.12574E-14
 -1      1232 9.96490E-03 3.14004E-04-3.32313E-14
 -1      1233 1.02885E-02 2.54285E-04-3.52648E-14
 -1      1234 1.06064E-02 2.02958E-04-3.73580E-14
 -1      1235 1.09182E-02 1.57510E-04-3.94913E-14
 -1      1236 1.12243E-02 1.15844E-04-4.16691E-14
 -1      1237 1.15256E-02 7.63470E-05-4.38705E-14
 -1      1238 1.18227E-02 3.78575E-05-4.61028E-14
 -1      1239 1.21166E-02-4.12226E-07-4.83740E-14
 -1      1240 1.24079E-02-3.89605E-05-5.06842E-14
 -1      1241 1.26972E-02-7.80731E-05-5.30045E-14
 -1      1242 1.29852E-02-1.17887E-04-5.53200E-14
 -1      1243 1.32721E-02-1.58440E-04-5.76286E-14
 -1      1244 1.35584E-02-1.99706E-04-5.99310E-14
 -1      1245 1.38443E-02-2.41617E-04-6.22376E-14
 -1      1246 1.41300E-02-2.84076E-04-6.45498E-14
 -1      1247 1.44156E-02-3.26946E-04-6.68593E-14
 -1      1248 1.46941E-02-3.68941E-04-6.91247E-14
 -1      1249 1.48510E-02-4.31556E-04-7.02161E-14
 -1      1250 1.48933E-02-5.15905E-04-7.02209E-14
 -1      1251 1.49359E-02-6.00294E-04-7.02123E-14
 -1      1252 1.49787E-02-6.84620E-04-7.01895E-14
 -1      1253 1.50220E-02-7.68775E-04-7.01663E-14
 -1      1254 1.50651E-02-8.51987E-04-7.01467E-14
 -1      1255 1.51084E-02-9.34962E-04-7.01527E-14
 -1      1256 1.51521E-02-1.01845E-03-7.01601E-14
 -1      1257 1.51958E-02-1.10184E-03-7.01746E-14
 -1      1258 1.52395E-02-1.18523E-03-7.01945E-14
 -1      1259 1.52832E-02-1.26874E-03-7.02092E-14
 -1      1260 1.53266E-02-1.35174E-03-7.02445E-14
 -1      1261 1.53702E-02-1.43498E-03-7.02896E-14
 -1      1262 1.54145E-02-1.51916E-03-7.03299E-14
 -1      1263 1.54591E-02-1.60351E-03-7.03778E-14
 -1      1264 1.55041E-02-1.68791E-03-7.03976E-14
 -1      1265 1.55488E-02-1.77155E-03-7.04069E-14
 -1      1266 9.85911E-03-2.18192E-04-2.29961E-14
 -1      1267 9.72679E-03-6.74144E-05-2.28010E-14
 -1      1268 9.50033E-03 8.39901E-05-2.24354E-14
 -1      1269 9.19460E-03 2.36694E-04-2.19308E-14
 -1      1270 8.81865E-03 3.85207E-04-2.13121E-14
 -1      1271 8.39971E-03 5.10936E-04-2.06027E-14
 -1      1272 7.96087E-03 5.94409E-04-1.98365E-14
 -1      1273 7.51341E-03 6.24990E-04-1.90581E-14
 -1      1274 7.07759E-03 5.98218E-04-1.83145E-14
 -1      1275 6.65553E-03 5.21010E-04-1.76153E-14
 -1      1276 6.26713E-03 4.07677E-04-1.70091E-14
 -1      1277 5.93711E-03 2.76682E-04-1.65279E-14
 -1      1278 5.67168E-03 1.37478E-04-1.61624E-14
 -1      1279 5.48729E-03-5.09208E-06-1.59215E-14
 -1      1280 5.40316E-03-1.56627E-04-1.58166E-14
 -1      1281 5.44078E-03-3.12614E-04-1.58702E-14
 -1      1282 5.58697E-03-4.64663E-04-1.60694E-14
 -1      1283 5.82153E-03-6.20048E-04-1.63916E-14
 -1      1284 6.14071E-03-7.82289E-04-1.68380E-14
 -1      1285 6.51619E-03-9.35648E-04-1.73913E-14
 -1      1286 6.92316E-03-1.06085E-03-1.80338E-14
 -1      1287 7.35000E-03-1.14450E-03-1.87400E-14
 -1      1288 7.79038E-03-1.17130E-03-1.94880E-14
 -1      1289 8.22878E-03-1.13921E-03-2.02416E-14
 -1      1290 8.63559E-03-1.05589E-03-2.09377E-14
 -1      1291 9.01022E-03-9.37503E-04-2.15721E-14
 -1      1292 9.34239E-03-7.97847E-04-2.21210E-14
 -1      1293 9.61681E-03-6.46539E-04-2.25720E-14
 -1      1294 9.80024E-03-4.99594E-04-2.28739E-14
 -1      1295 9.88105E-03-3.61797E-04-2.30119E-14
 -1      1296 1.66214E-04-1.09879E-04-1.02999E-18
 -1      1297 1.12456E-04-5.66309E-05-1.33221E-17
 -1      1298 1.17443E-04-6.72463E-05-1.00018E-17
 -1      1299 1.08454E-04-4.30994E-05-1.89464E-17
 -1      1300 1.10262E-04-4.92302E-05-1.72795E-17
 -1      1301 2.26240E-04-1.06796E-04-4.04814E-17
 -1      1302 1.06950E-04-3.31934E-05-2.18873E-17
 -1      1303 1.07766E-04-3.79249E-05-2.10200E-17
 -1      1304 2.19223E-04-8.15813E-05-5.03883E-17
 -1      1305 1.06198E-04-2.49299E-05-2.36898E-17
 -1      1306 1.06621E-04-2.89468E-05-2.32426E-17
 -1      1307 2.16105E-04-6.23719E-05-5.60804E-17
 -1      1308 1.05794E-04-1.77293E-05-2.46114E-17
 -1      1309 1.06024E-04-2.12586E-05-2.43810E-17
 -1      1310 2.14463E-04-4.63368E-05-5.94414E-17
 -1      1311 1.05568E-04-1.09824E-05-2.50451E-17
 -1      1312 1.05695E-04-1.43074E-05-2.50044E-17
 -1      1313 2.13531E-04-3.20584E-05-6.11761E-17
 -1      1314 1.05461E-04-4.57200E-06-2.50857E-17
 -1      1315 1.05517E-04-7.75083E-06-2.50722E-17
 -1      1316 2.13010E-04-1.87350E-05-6.18537E-17
 -1      1317 1.05447E-04 1.70429E-06-2.50044E-17
 -1      1318 1.05446E-04-1.42962E-06-2.50857E-17
 -1      1319 2.12776E-04-6.00121E-06-6.19893E-17
 -1      1320 1.05523E-04 8.03508E-06-2.45165E-17
 -1      1321 1.05464E-04 4.84981E-06-2.46520E-17
 -1      1322 2.12782E-04 6.55164E-06-6.13387E-17
 -1      1323 1.05706E-04 1.46164E-05-2.38389E-17
 -1      1324 1.05575E-04 1.12768E-05-2.40422E-17
 -1      1325 2.13028E-04 1.93111E-05-6.00512E-17
 -1      1326 1.06041E-04 2.15514E-05-2.26192E-17
 -1      1327 1.05805E-04 1.79994E-05-2.30122E-17
 -1      1328 2.13560E-04 3.25751E-05-5.80455E-17
 -1      1329 1.06650E-04 2.93822E-05-2.07625E-17
 -1      1330 1.06220E-04 2.53215E-05-2.14265E-17
 -1      1331 2.14512E-04 4.69461E-05-5.46980E-17
 -1      1332 1.07797E-04 3.84933E-05-1.79435E-17
 -1      1333 1.06972E-04 3.36943E-05-1.90413E-17
 -1      1334 2.16189E-04 6.32943E-05-4.99546E-17
 -1      1335 1.10248E-04 4.99662E-05-1.32815E-17
 -1      1336 1.08462E-04 4.37639E-05-1.52601E-17
 -1      1337 2.19322E-04 8.28112E-05-4.25278E-17
 -1      1338 1.16763E-04 6.72809E-05-5.71917E-18
 -1      1339 1.12105E-04 5.74257E-05-9.31059E-18
 -1      1340 2.26235E-04 1.08609E-04-3.12250E-17
 -1      1341 1.57089E-04 1.09414E-04 5.92245E-18
 -1      1342 1.35374E-04 8.57029E-05-1.38236E-18
 -1      1343 2.55624E-04 1.51212E-04-1.77674E-17
 -1      1344 3.34070E-04 2.19625E-04 1.78893E-18
 -1      1345 4.20323E-04-2.60213E-04-2.27682E-17
 -1      1346 5.73051E-04-3.34419E-04-5.08491E-17
 -1      1347 7.19943E-04-3.94070E-04-9.73478E-17
 -1      1348 8.62886E-04-4.42311E-04-1.60828E-16
 -1      1349 6.10938E-04-3.28112E-04-9.32143E-17
 -1      1350 1.00277E-03-4.82212E-04-2.40734E-16
 -1      1351 1.14055E-03-5.14908E-04-3.37471E-16
 -1      1352 9.03905E-04-4.26664E-04-2.25541E-16
 -1      1353 1.27709E-03-5.42244E-04-4.50947E-16
 -1      1354 1.41290E-03-5.64697E-04-5.81620E-16
 -1      1355 1.18639E-03-4.93446E-04-4.23666E-16
 -1      1356 1.54844E-03-5.83309E-04-7.28896E-16
 -1      1357 1.68399E-03-5.98408E-04-8.92475E-16
 -1      1358 1.46381E-03-5.38983E-04-6.87994E-16
 -1      1359 1.81982E-03-6.10598E-04-1.07263E-15
 -1      1360 1.95608E-03-6.20174E-04-1.26938E-15
 -1      1361 1.73957E-03-5.69337E-04-1.01801E-15
 -1      1362 2.09294E-03-6.27512E-04-1.48286E-15
 -1      1363 2.23048E-03-6.32872E-04-1.71347E-15
 -1      1364 2.01575E-03-5.88375E-04-1.41394E-15
 -1      1365 2.36882E-03-6.36504E-04-1.96052E-15
 -1      1366 2.50803E-03-6.38638E-04-2.22394E-15
 -1      1367 2.29365E-03-5.98818E-04-1.87604E-15
 -1      1368 2.64821E-03-6.39447E-04-2.50498E-15
 -1      1369 2.78941E-03-6.39142E-04-2.80292E-15
 -1      1370 2.57415E-03-6.02696E-04-2.40449E-15
 -1      1371 2.93175E-03-6.37851E-04-3.11631E-15
 -1      1372 3.07529E-03-6.35777E-04-3.44627E-15
 -1      1373 2.85796E-03-6.01599E-04-2.99892E-15
 -1      1374 3.22015E-03-6.33029E-04-3.79103E-15
 -1      1375 3.36643E-03-6.29824E-04-4.15030E-15
 -1      1376 3.14576E-03-5.96868E-04-3.65688E-15
 -1      1377 3.51426E-03-6.26275E-04-4.52497E-15
 -1      1378 3.66377E-03-6.22634E-04-4.91358E-15
 -1      1379 3.43830E-03-5.89768E-04-4.37503E-15
 -1      1380 3.81512E-03-6.19051E-04-5.31771E-15
 -1      1381 3.96846E-03-6.15838E-04-5.73692E-15
 -1      1382 3.73645E-03-5.81673E-04-5.15342E-15
 -1      1383 4.12396E-03-6.13225E-04-6.16995E-15
 -1      1384 4.28180E-03-6.11613E-04-6.61736E-15
 -1      1385 4.04121E-03-5.74300E-04-5.99045E-15
 -1      1386 4.44217E-03-6.11368E-04-7.07877E-15
 -1      1387 4.60521E-03-6.13010E-04-7.55452E-15
 -1      1388 4.35368E-03-5.69992E-04-6.88458E-15
 -1      1389 4.77108E-03-6.17107E-04-8.04356E-15
 -1      1390 4.93988E-03-6.24321E-04-8.54744E-15
 -1      1391 4.67499E-03-5.72073E-04-7.83514E-15
 -1      1392 5.11166E-03-6.35483E-04-9.06432E-15
 -1      1393 5.28638E-03-6.51383E-04-9.59344E-15
 -1      1394 5.00605E-03-5.85230E-04-8.84060E-15
 -1      1395 5.46391E-03-6.73124E-04-1.01373E-14
 -1      1396 5.64392E-03-7.01530E-04-1.06962E-14
 -1      1397 5.34722E-03-6.15797E-04-9.90016E-15
 -1      1398 5.82598E-03-7.37818E-04-1.12693E-14
 -1      1399 6.00936E-03-7.82590E-04-1.18576E-14
 -1      1400 5.69782E-03-6.71575E-04-1.10160E-14
 -1      1401 6.19323E-03-8.36698E-04-1.24609E-14
 -1      1402 6.37639E-03-9.00009E-04-1.30809E-14
 -1      1403 6.05545E-03-7.60510E-04-1.21905E-14
 -1      1404 6.55767E-03-9.72135E-04-1.37166E-14
 -1      1405 6.73556E-03-1.05141E-03-1.43675E-14
 -1      1406 6.41536E-03-8.87251E-04-1.34272E-14
 -1      1407 6.90885E-03-1.13526E-03-1.50370E-14
 -1      1408 7.07635E-03-1.21998E-03-1.57234E-14
 -1      1409 6.77035E-03-1.04696E-03-1.47299E-14
 -1      1410 7.23746E-03-1.30066E-03-1.64268E-14
 -1      1411 7.39222E-03-1.37219E-03-1.71470E-14
 -1      1412 7.11230E-03-1.21855E-03-1.61016E-14
 -1      1413 7.54131E-03-1.42909E-03-1.78849E-14
 -1      1414 7.68650E-03-1.46724E-03-1.86438E-14
 -1      1415 7.43637E-03-1.36400E-03-1.75428E-14
 -1      1416 7.82962E-03-1.48384E-03-1.94181E-14
 -1      1417 7.97357E-03-1.47826E-03-2.02094E-14
 -1      1418 7.74612E-03-1.44161E-03-1.90546E-14
 -1      1419 8.12037E-03-1.45222E-03-2.10184E-14
 -1      1420 8.27223E-03-1.40925E-03-2.18416E-14
 -1      1421 8.05398E-03-1.42963E-03-2.06372E-14
 -1      1422 8.43012E-03-1.35445E-03-2.26828E-14
 -1      1423 8.59454E-03-1.29293E-03-2.35417E-14
 -1      1424 8.37378E-03-1.34141E-03-2.22872E-14
 -1      1425 8.76517E-03-1.22996E-03-2.44166E-14
 -1      1426 8.94102E-03-1.16979E-03-2.53090E-14
 -1      1427 8.71162E-03-1.21601E-03-2.40024E-14
 -1      1428 9.12095E-03-1.11565E-03-2.62141E-14
 -1      1429 9.30349E-03-1.06962E-03-2.71322E-14
 -1      1430 9.06433E-03-1.09426E-03-2.57814E-14
 -1      1431 9.48744E-03-1.03257E-03-2.80650E-14
 -1      1432 9.67147E-03-1.00496E-03-2.90098E-14
 -1      1433 9.42416E-03-1.00182E-03-2.76173E-14
 -1      1434 9.85468E-03-9.86172E-04-2.99667E-14
 -1      1435 1.00362E-02-9.75716E-04-3.09312E-14
 -1      1436 9.78350E-03-9.47039E-04-2.95039E-14
 -1      1437 1.02155E-02-9.72404E-04-3.19062E-14
 -1      1438 1.03923E-02-9.75448E-04-3.28912E-14
 -1      1439 1.01370E-02-9.27042E-04-3.14316E-14
 -1      1440 1.05663E-02-9.83687E-04-3.38850E-14
 -1      1441 1.07374E-02-9.96326E-04-3.48873E-14
 -1      1442 1.04818E-02-9.34281E-04-3.33971E-14
 -1      1443 1.09057E-02-1.01246E-03-3.58978E-14
 -1      1444 1.10712E-02-1.03142E-03-3.69152E-14
 -1      1445 1.08169E-02-9.60769E-04-3.53990E-14
 -1      1446 1.12342E-02-1.05258E-03-3.79377E-14
 -1      1447 1.13948E-02-1.07542E-03-3.89642E-14
 -1      1448 1.11426E-02-9.99838E-04-3.74306E-14
 -1      1449 1.15531E-02-1.09954E-03-3.99967E-14
 -1      1450 1.17094E-02-1.12456E-03-4.10318E-14
 -1      1451 1.14599E-02-1.04654E-03-3.94842E-14
 -1      1452 1.18639E-02-1.15024E-03-4.20703E-14
 -1      1453 1.20168E-02-1.17631E-03-4.31124E-14
 -1      1454 1.17699E-02-1.09744E-03-4.15552E-14
 -1      1455 1.21682E-02-1.20265E-03-4.41525E-14
 -1      1456 1.23184E-02-1.22907E-03-4.51956E-14
 -1      1457 1.20740E-02-1.15030E-03-4.36358E-14
 -1      1458 1.24674E-02-1.25550E-03-4.62464E-14
 -1      1459 1.26155E-02-1.28183E-03-4.73037E-14
 -1      1460 1.23733E-02-1.20369E-03-4.57299E-14
 -1      1461 1.27627E-02-1.30803E-03-4.83689E-14
 -1      1462 1.29092E-02-1.33403E-03-4.94451E-14
 -1      1463 1.26688E-02-1.25679E-03-4.78483E-14
 -1      1464 1.30550E-02-1.35982E-03-5.05346E-14
 -1      1465 1.32003E-02-1.38537E-03-5.16353E-14
 -1      1466 1.29615E-02-1.30912E-03-5.00059E-14
 -1      1467 1.33451E-02-1.41069E-03-5.27415E-14
 -1      1468 1.34896E-02-1.43576E-03-5.38568E-14
 -1      1469 1.32521E-02-1.36047E-03-5.22024E-14
 -1      1470 1.36337E-02-1.46059E-03-5.49807E-14
 -1      1471 1.37775E-02-1.48517E-03-5.61090E-14
 -1      1472 1.35410E-02-1.41078E-03-5.44314E-14
 -1      1473 1.39211E-02-1.50953E-03-5.72463E-14
 -1      1474 1.40645E-02-1.53367E-03-5.83920E-14
 -1      1475 1.38288E-02-1.46008E-03-5.66886E-14
 -1      1476 1.42077E-02-1.55761E-03-5.95384E-14
 -1      1477 1.43509E-02-1.58136E-03-6.06823E-14
 -1      1478 1.41158E-02-1.50846E-03-5.89682E-14
 -1      1479 1.44939E-02-1.60494E-03-6.18296E-14
 -1      1480 1.46368E-02-1.62835E-03-6.29784E-14
 -1      1481 1.44022E-02-1.55601E-03-6.12588E-14
 -1      1482 1.47797E-02-1.65162E-03-6.41296E-14
 -1      1483 1.49226E-02-1.67477E-03-6.52802E-14
 -1      1484 1.46882E-02-1.60288E-03-6.35545E-14
 -1      1485 1.50655E-02-1.69782E-03-6.64362E-14
 -1      1486 1.52083E-02-1.72080E-03-6.75989E-14
 -1      1487 1.49741E-02-1.64920E-03-6.58601E-14
 -1      1488 1.54131E-02-1.74975E-03-6.92906E-14
 -1      1489 1.53218E-02-1.70117E-03-6.87050E-14
 -1      1490 6.41298E-04 3.69232E-04-3.47758E-17
 -1      1491 4.91519E-04 3.01791E-04-8.53809E-18
 -1      1492 4.43899E-04 2.64135E-04-2.32019E-17
 -1      1493 9.26424E-04 4.67138E-04-1.33940E-16
 -1      1494 7.85753E-04 4.22727E-04-7.65853E-17
 -1      1495 7.43304E-04 3.87094E-04-9.43527E-17
 -1      1496 1.20119E-03 5.34049E-04-2.94754E-16
 -1      1497 1.06454E-03 5.03684E-04-2.06459E-16
 -1      1498 1.02918E-03 4.70248E-04-2.27181E-16
 -1      1499 1.47205E-03 5.80203E-04-5.17341E-16
 -1      1500 1.33678E-03 5.59335E-04-3.98417E-16
 -1      1501 1.30729E-03 5.27287E-04-4.20928E-16
 -1      1502 1.74247E-03 6.11437E-04-8.02215E-16
 -1      1503 1.60713E-03 5.97444E-04-6.51782E-16
 -1      1504 1.58219E-03 5.66200E-04-6.75959E-16
 -1      1505 2.01436E-03 6.31555E-04-1.14906E-15
 -1      1506 1.87813E-03 6.22710E-04-9.67772E-16
 -1      1507 1.85669E-03 5.91879E-04-9.92682E-16
 -1      1508 2.28884E-03 6.43280E-04-1.55656E-15
 -1      1509 2.15122E-03 6.38327E-04-1.34558E-15
 -1      1510 2.13243E-03 6.07650E-04-1.37139E-15
 -1      1511 2.56661E-03 6.48700E-04-2.02675E-15
 -1      1512 2.42728E-03 6.46660E-04-1.78366E-15
 -1      1513 2.41042E-03 6.15958E-04-1.81123E-15
 -1      1514 2.84821E-03 6.49511E-04-2.56114E-15
 -1      1515 2.70690E-03 6.49576E-04-2.28580E-15
 -1      1516 2.69135E-03 6.18707E-04-2.31298E-15
 -1      1517 3.13411E-03 6.47193E-04-3.16076E-15
 -1      1518 2.99059E-03 6.48641E-04-2.85292E-15
 -1      1519 2.97578E-03 6.17483E-04-2.87949E-15
 -1      1520 3.42482E-03 6.43165E-04-3.82489E-15
 -1      1521 3.27884E-03 6.45287E-04-3.48475E-15
 -1      1522 3.26420E-03 6.13721E-04-3.51092E-15
 -1      1523 3.72081E-03 6.38929E-04-4.55118E-15
 -1      1524 3.57212E-03 6.40956E-04-4.18009E-15
 -1      1525 3.55707E-03 6.08859E-04-4.20540E-15
 -1      1526 4.02256E-03 6.36215E-04-5.34239E-15
 -1      1527 3.87094E-03 6.37248E-04-4.93865E-15
 -1      1528 3.85485E-03 6.04488E-04-4.96287E-15
 -1      1529 4.33039E-03 6.37095E-04-6.19860E-15
 -1      1530 4.17570E-03 6.36055E-04-5.76202E-15
 -1      1531 4.15790E-03 6.02492E-04-5.78433E-15
 -1      1532 4.64429E-03 6.44044E-04-7.12403E-15
 -1      1533 4.48659E-03 6.39650E-04-6.65298E-15
 -1      1534 4.46641E-03 6.05154E-04-6.67341E-15
 -1      1535 4.96373E-03 6.59880E-04-8.11101E-15
 -1      1536 4.80337E-03 6.50701E-04-7.61015E-15
 -1      1537 4.78021E-03 6.15176E-04-7.62649E-15
 -1      1538 5.28729E-03 6.87458E-04-9.15537E-15
 -1      1539 5.12510E-03 6.72101E-04-8.62616E-15
 -1      1540 5.09857E-03 6.35529E-04-8.63974E-15
 -1      1541 5.61247E-03 7.29012E-04-1.02577E-14
 -1      1542 5.44987E-03 7.06499E-04-9.69972E-15
 -1      1543 5.41997E-03 6.69004E-04-9.70992E-15
 -1      1544 5.93558E-03 7.85021E-04-1.14205E-14
 -1      1545 5.77455E-03 7.55409E-04-1.08311E-14
 -1      1546 5.74197E-03 7.17335E-04-1.08395E-14
 -1      1547 6.25208E-03 8.52727E-04-1.26470E-14
 -1      1548 6.09497E-03 8.17870E-04-1.20255E-14
 -1      1549 6.06123E-03 7.79834E-04-1.20307E-14
 -1      1550 6.55752E-03 9.24786E-04-1.39368E-14
 -1      1551 6.40645E-03 8.88940E-04-1.32840E-14
 -1      1552 6.37398E-03 8.51820E-04-1.32867E-14
 -1      1553 6.84907E-03 9.89069E-04-1.52907E-14
 -1      1554 6.70514E-03 9.58793E-04-1.46059E-14
 -1      1555 6.67693E-03 9.23559E-04-1.46064E-14
 -1      1556 7.12716E-03 1.03072E-03-1.67057E-14
 -1      1557 6.98963E-03 1.01354E-03-1.59907E-14
 -1      1558 6.96867E-03 9.80934E-04-1.59882E-14
 -1      1559 7.39626E-03 1.03655E-03-1.81804E-14
 -1      1560 7.26240E-03 1.03855E-03-1.74353E-14
 -1      1561 7.25088E-03 1.00871E-03-1.74294E-14
 -1      1562 7.66391E-03 1.00025E-03-1.97122E-14
 -1      1563 7.52970E-03 1.02354E-03-1.89387E-14
 -1      1564 7.52842E-03 9.95865E-04-1.89313E-14
 -1      1565 7.93823E-03 9.24914E-04-2.13029E-14
 -1      1566 7.79975E-03 9.66790E-04-2.05006E-14
 -1      1567 7.80789E-03 9.40147E-04-2.04914E-14
 -1      1568 8.22496E-03 8.21865E-04-2.29632E-14
 -1      1569 8.07979E-03 8.75911E-04-2.21242E-14
 -1      1570 8.09517E-03 8.49096E-04-2.21152E-14
 -1      1571 8.52598E-03 7.05933E-04-2.46931E-14
 -1      1572 8.37370E-03 7.64614E-04-2.38192E-14
 -1      1573 8.39342E-03 7.36779E-04-2.38069E-14
 -1      1574 8.83945E-03 5.90552E-04-2.64914E-14
 -1      1575 8.68137E-03 6.47542E-04-2.55841E-14
 -1      1576 8.70249E-03 6.18346E-04-2.55672E-14
 -1      1577 9.16135E-03 4.84791E-04-2.83474E-14
 -1      1578 8.99965E-03 5.36152E-04-2.74119E-14
 -1      1579 9.01979E-03 5.05681E-04-2.73904E-14
 -1      1580 9.48709E-03 3.92888E-04-3.02584E-14
 -1      1581 9.32403E-03 4.37046E-04-2.92969E-14
 -1      1582 9.34168E-03 4.05620E-04-2.92716E-14
 -1      1583 9.81271E-03 3.15333E-04-3.22117E-14
 -1      1584 9.65015E-03 3.52412E-04-3.12299E-14
 -1      1585 9.66461E-03 3.20423E-04-3.12007E-14
 -1      1586 1.01354E-02 2.50401E-04-3.42136E-14
 -1      1587 9.97456E-03 2.81454E-04-3.32058E-14
 -1      1588 9.98581E-03 2.49254E-04-3.31764E-14
 -1      1589 1.04535E-02 1.95438E-04-3.62754E-14
 -1      1590 1.02951E-02 2.21850E-04-3.52373E-14
 -1      1591 1.03035E-02 1.89708E-04-3.52066E-14
 -1      1592 1.07663E-02 1.47704E-04-3.83820E-14
 -1      1593 1.06106E-02 1.70826E-04-3.73235E-14
 -1      1594 1.06167E-02 1.38918E-04-3.72874E-14
 -1      1595 1.10740E-02 1.04795E-04-4.05325E-14
 -1      1596 1.09208E-02 1.25774E-04-3.94525E-14
 -1      1597 1.09251E-02 9.41965E-05-3.94113E-14
 -1      1598 1.13769E-02 6.48025E-05-4.27148E-14
 -1      1599 1.12260E-02 8.45301E-05-4.16206E-14
 -1      1600 1.12291E-02 5.33189E-05-4.15722E-14
 -1      1601 1.16756E-02 2.63153E-05-4.49264E-14
 -1      1602 1.15267E-02 4.54386E-05-4.38171E-14
 -1      1603 1.15291E-02 1.45891E-05-4.37613E-14
 -1      1604 1.19710E-02-1.16471E-05-4.71736E-14
 -1      1605 1.18237E-02 7.31375E-06-4.60448E-14
 -1      1606 1.18256E-02-2.32030E-05-4.59852E-14
 -1      1607 1.22635E-02-4.97232E-05-4.94552E-14
 -1      1608 1.21175E-02-3.06429E-05-4.83099E-14
 -1      1609 1.21192E-02-6.08685E-05-4.82426E-14
 -1      1610 1.25540E-02-8.82956E-05-5.17617E-14
 -1      1611 1.24090E-02-6.89318E-05-5.06069E-14
 -1      1612 1.24106E-02-9.89119E-05-5.05322E-14
 -1      1613 1.28428E-02-1.27564E-04-5.40731E-14
 -1      1614 1.26986E-02-1.07836E-04-5.29172E-14
 -1      1615 1.27003E-02-1.37615E-04-5.28330E-14
 -1      1616 1.31305E-02-1.67605E-04-5.63778E-14
 -1      1617 1.29868E-02-1.47487E-04-5.52265E-14
 -1      1618 1.29886E-02-1.77107E-04-5.51327E-14
 -1      1619 1.34173E-02-2.08413E-04-5.86813E-14
 -1      1620 1.32740E-02-1.87916E-04-5.75312E-14
 -1      1621 1.32760E-02-2.17412E-04-5.74332E-14
 -1      1622 1.37036E-02-2.49935E-04-6.09801E-14
 -1      1623 1.35605E-02-2.29090E-04-5.98321E-14
 -1      1624 1.35627E-02-2.58494E-04-5.97301E-14
 -1      1625 1.39895E-02-2.92082E-04-6.32889E-14
 -1      1626 1.38466E-02-2.70937E-04-6.21327E-14
 -1      1627 1.38489E-02-3.00274E-04-6.20293E-14
 -1      1628 1.42752E-02-3.34738E-04-6.55938E-14
 -1      1629 1.41324E-02-3.13356E-04-6.44407E-14
 -1      1630 1.41348E-02-3.42648E-04-6.43331E-14
 -1      1631 1.45609E-02-3.77739E-04-6.79091E-14
 -1      1632 1.44181E-02-3.56208E-04-6.67508E-14
 -1      1633 1.44206E-02-3.85477E-04-6.66417E-14
 -1      1634 1.47152E-02-4.11087E-04-6.91161E-14
 -1      1635 1.47802E-02-5.18284E-04-6.92107E-14
 -1      1636 1.47590E-02-4.76129E-04-6.92107E-14
 -1      1637 1.48228E-02-6.02560E-04-6.91974E-14
 -1      1638 1.48015E-02-5.60431E-04-6.92062E-14
 -1      1639 1.46671E-02-5.20640E-04-6.82007E-14
 -1      1640 1.48658E-02-6.86724E-04-6.91801E-14
 -1      1641 1.48443E-02-6.44661E-04-6.91893E-14
 -1      1642 1.47098E-02-6.04816E-04-6.81888E-14
 -1      1643 1.49091E-02-7.70709E-04-6.91645E-14
 -1      1644 1.48874E-02-7.28742E-04-6.91728E-14
 -1      1645 1.47529E-02-6.88842E-04-6.81765E-14
 -1      1646 1.49520E-02-8.53064E-04-6.91567E-14
 -1      1647 1.49305E-02-8.11913E-04-6.91587E-14
 -1      1648 1.47960E-02-7.71967E-04-6.81668E-14
 -1      1649 1.49957E-02-9.36642E-04-6.91632E-14
 -1      1650 1.49738E-02-8.94876E-04-6.91582E-14
 -1      1651 1.48393E-02-8.54894E-04-6.81658E-14
 -1      1652 1.50395E-02-1.02007E-03-6.91695E-14
 -1      1653 1.50176E-02-9.78370E-04-6.91640E-14
 -1      1654 1.48831E-02-9.38354E-04-6.81689E-14
 -1      1655 1.50832E-02-1.10343E-03-6.91864E-14
 -1      1656 1.50613E-02-1.06175E-03-6.91788E-14
 -1      1657 1.49268E-02-1.02169E-03-6.81803E-14
 -1      1658 1.51269E-02-1.18682E-03-6.92059E-14
 -1      1659 1.51050E-02-1.14512E-03-6.91970E-14
 -1      1660 1.49705E-02-1.10499E-03-6.81997E-14
 -1      1661 1.51705E-02-1.27033E-03-6.92306E-14
 -1      1662 1.51487E-02-1.22855E-03-6.92159E-14
 -1      1663 1.50142E-02-1.18834E-03-6.82214E-14
 -1      1664 1.52136E-02-1.35260E-03-6.92644E-14
 -1      1665 1.51920E-02-1.31144E-03-6.92459E-14
 -1      1666 1.50575E-02-1.27110E-03-6.82491E-14
 -1      1667 1.52576E-02-1.43650E-03-6.93014E-14
 -1      1668 1.52355E-02-1.39452E-03-6.92842E-14
 -1      1669 1.51009E-02-1.35404E-03-6.82817E-14
 -1      1670 1.53019E-02-1.52060E-03-6.93385E-14
 -1      1671 1.52797E-02-1.47853E-03-6.93201E-14
 -1      1672 1.51449E-02-1.43789E-03-6.83135E-14
 -1      1673 1.53466E-02-1.60485E-03-6.93741E-14
 -1      1674 1.53242E-02-1.56271E-03-6.93587E-14
 -1      1675 1.51893E-02-1.52193E-03-6.83442E-14
 -1      1676 1.53454E-02-1.67409E-03-6.90445E-14
 -1      1677 1.53229E-02-1.63194E-03-6.90395E-14
 -1      1678 1.51879E-02-1.59106E-03-6.80270E-14
 -1      1679 1.51406E-02-1.64516E-03-6.73560E-14
 -1      1680 9.84600E-03-2.26875E-04-2.33226E-14
 -1      1681 9.88986E-03-2.73855E-04-2.33773E-14
 -1      1682 9.66174E-03-1.08103E-04-2.30386E-14
 -1      1683 9.76086E-03-1.64162E-04-2.31808E-14
 -1      1684 9.37781E-03 3.44210E-05-2.26025E-14
 -1      1685 9.51967E-03-3.50462E-05-2.28253E-14
 -1      1686 9.02533E-03 2.03461E-04-2.20252E-14
 -1      1687 9.19505E-03 1.22543E-04-2.23050E-14
 -1      1688 8.61289E-03 3.83376E-04-2.13383E-14
 -1      1689 8.80233E-03 2.96174E-04-2.16835E-14
 -1      1690 8.21583E-03 5.45769E-04-2.05331E-14
 -1      1691 8.39772E-03 4.77599E-04-2.09011E-14
 -1      1692 7.81617E-03 6.50468E-04-1.96859E-14
 -1      1693 7.99692E-03 6.11105E-04-2.00819E-14
 -1      1694 7.43152E-03 6.69297E-04-1.88452E-14
 -1      1695 7.60692E-03 6.70850E-04-1.92232E-14
 -1      1696 7.04910E-03 6.06712E-04-1.80503E-14
 -1      1697 7.22468E-03 6.45201E-04-1.84082E-14
 -1      1698 6.65736E-03 4.78713E-04-1.73142E-14
 -1      1699 6.83854E-03 5.44629E-04-1.76438E-14
 -1      1700 6.27304E-03 3.23270E-04-1.67075E-14
 -1      1701 6.44480E-03 3.97385E-04-1.69743E-14
 -1      1702 5.93345E-03 1.69064E-04-1.62252E-14
 -1      1703 6.08428E-03 2.38614E-04-1.64313E-14
 -1      1704 5.64830E-03 3.13005E-05-1.58658E-14
 -1      1705 5.77192E-03 9.26717E-05-1.60169E-14
 -1      1706 5.45514E-03-8.30039E-05-1.56441E-14
 -1      1707 5.53112E-03-3.34294E-05-1.57284E-14
 -1      1708 5.38074E-03-1.89789E-04-1.55019E-14
 -1      1709 5.39615E-03-1.45250E-04-1.55158E-14
 -1      1710 5.46281E-03-2.94466E-04-1.56485E-14
 -1      1711 5.40870E-03-2.46727E-04-1.55844E-14
 -1      1712 5.66298E-03-4.20600E-04-1.59077E-14
 -1      1713 5.55722E-03-3.60870E-04-1.57787E-14
 -1      1714 5.95251E-03-5.71748E-04-1.62756E-14
 -1      1715 5.80922E-03-4.98239E-04-1.60913E-14
 -1      1716 6.34148E-03-7.42937E-04-1.67371E-14
 -1      1717 6.16175E-03-6.51320E-04-1.64809E-14
 -1      1718 6.71318E-03-9.39862E-04-1.73856E-14
 -1      1719 6.53834E-03-8.56904E-04-1.70987E-14
 -1      1720 7.11187E-03-1.10156E-03-1.80989E-14
 -1      1721 6.93015E-03-1.03064E-03-1.77520E-14
 -1      1722 7.48269E-03-1.19808E-03-1.88702E-14
 -1      1723 7.31207E-03-1.16270E-03-1.85204E-14
 -1      1724 7.87134E-03-1.21771E-03-1.97009E-14
 -1      1725 7.69160E-03-1.22183E-03-1.93083E-14
 -1      1726 8.25481E-03-1.14497E-03-2.04991E-14
 -1      1727 8.08254E-03-1.18614E-03-2.01408E-14
 -1      1728 8.62574E-03-1.01277E-03-2.12583E-14
 -1      1729 8.45300E-03-1.08045E-03-2.09188E-14
 -1      1730 8.99826E-03-8.53044E-04-2.19244E-14
 -1      1731 8.83131E-03-9.29370E-04-2.16253E-14
 -1      1732 9.34504E-03-6.87337E-04-2.25026E-14
 -1      1733 9.18848E-03-7.63505E-04-2.22486E-14
 -1      1734 9.63572E-03-5.29768E-04-2.30083E-14
 -1      1735 9.50725E-03-5.95253E-04-2.28105E-14
 -1      1736 9.82961E-03-4.20313E-04-2.32533E-14
 -1      1737 9.75676E-03-4.70006E-04-2.31465E-14
 -1      1738 9.90173E-03-3.25229E-04-2.33669E-14
 -1      1739 9.88303E-03-3.67307E-04-2.33357E-14
 -1      1740 8.84628E-03 2.08661E-04-2.20644E-14
 -1      1741 9.24114E-03 2.26147E-05-2.27101E-14
 -1      1742 1.47178E-02-4.40359E-04-6.90077E-14
 -1      1743 1.46047E-02-4.42760E-04-6.80020E-14
 -1      1744 9.80483E-03-2.32806E-04-2.35839E-14
 -1      1745 9.56988E-03-1.25854E-04-2.32246E-14
 -1      1746 9.90516E-03-3.04353E-04-2.37181E-14
 -1      1747 8.44132E-03 4.13232E-04-2.12769E-14
 -1      1748 8.05462E-03 5.88961E-04-2.03839E-14
 -1      1749 7.69721E-03 6.86051E-04-1.94680E-14
 -1      1750 7.34813E-03 6.80425E-04-1.85702E-14
 -1      1751 6.99088E-03 5.80779E-04-1.77320E-14
 -1      1752 6.61250E-03 4.18841E-04-1.69942E-14
 -1      1753 6.23279E-03 2.40283E-04-1.63856E-14
 -1      1754 5.88614E-03 8.01166E-05-1.59080E-14
 -1      1755 5.60194E-03-4.44982E-05-1.55683E-14
 -1      1756 5.41792E-03-1.39250E-04-1.53059E-14
 -1      1757 5.38430E-03-2.01712E-04-1.52616E-14
 -1      1758 5.51329E-03-2.85014E-04-1.54719E-14
 -1      1759 5.76195E-03-4.02762E-04-1.57807E-14
 -1      1760 6.11465E-03-5.55552E-04-1.61634E-14
 -1      1761 6.50408E-03-7.57031E-04-1.67210E-14
 -1      1762 6.89230E-03-9.73611E-04-1.74424E-14
 -1      1763 7.25491E-03-1.14402E-03-1.82250E-14
 -1      1764 7.60816E-03-1.23710E-03-1.90814E-14
 -1      1765 7.94991E-03-1.22608E-03-1.99599E-14
 -1      1766 8.30572E-03-1.11816E-03-2.08233E-14
 -1      1767 8.66602E-03-9.51858E-04-2.16166E-14
 -1      1768 9.03963E-03-7.66849E-04-2.23152E-14
 -1      1769 9.39078E-03-5.88239E-04-2.29534E-14
 -1      1770 9.68034E-03-4.56514E-04-2.34051E-14
 -1      1771 9.86003E-03-3.70861E-04-2.36267E-14
 -1      1772 2.84577E-04-1.75282E-04-2.17654E-17
 -1      1773 3.32392E-04-1.15294E-04-8.02852E-17
 -1      1774 3.36390E-04-1.31511E-04-7.49455E-17
 -1      1775 3.42192E-04-1.50538E-04-6.82776E-17
 -1      1776 3.51545E-04-1.72569E-04-5.88722E-17
 -1      1777 4.58414E-04-1.85891E-04-1.08474E-16
 -1      1778 3.24898E-04-6.40875E-05-9.18997E-17
 -1      1779 3.26054E-04-7.52835E-05-9.01379E-17
 -1      1780 3.23363E-04-4.28903E-05-9.38377E-17
 -1      1781 3.24041E-04-5.32151E-05-9.29703E-17
 -1      1782 4.36884E-04-7.75752E-05-1.36650E-16
 -1      1783 3.22528E-04-2.31783E-05-9.47051E-17
 -1      1784 3.22884E-04-3.28768E-05-9.44476E-17
 -1      1785 4.34797E-04-5.00696E-05-1.39035E-16
 -1      1786 3.22205E-04-4.21708E-06-9.46237E-17
 -1      1787 3.22313E-04-1.36271E-05-9.47457E-17
 -1      1788 4.33697E-04-2.42699E-05-1.39916E-16
 -1      1789 3.22332E-04 1.46141E-05-9.34040E-17
 -1      1790 3.22212E-04 5.19367E-06-9.42172E-17
 -1      1791 4.33366E-04 7.48772E-07-1.39361E-16
 -1      1792 3.22934E-04 3.39180E-05-9.11407E-17
 -1      1793 3.22562E-04 2.41865E-05-9.23740E-17
 -1      1794 4.33746E-04 2.57975E-05-1.37260E-16
 -1      1795 3.24110E-04 5.40051E-05-8.76442E-17
 -1      1796 3.23424E-04 4.38046E-05-8.97313E-17
 -1      1797 4.34894E-04 5.14664E-05-1.33614E-16
 -1      1798 3.26191E-04 7.64212E-05-8.23994E-17
 -1      1799 3.24987E-04 6.49415E-05-8.54080E-17
 -1      1800 4.37034E-04 7.88839E-05-1.28166E-16
 -1      1801 3.29837E-04 1.02154E-04-7.43898E-17
 -1      1802 3.27723E-04 8.88406E-05-7.88351E-17
 -1      1803 4.40728E-04 1.09548E-04-1.19913E-16
 -1      1804 3.36706E-04 1.33613E-04-6.23281E-17
 -1      1805 3.32627E-04 1.17103E-04-6.91179E-17
 -1      1806 4.47133E-04 1.45172E-04-1.07688E-16
 -1      1807 3.52077E-04 1.76146E-04-4.40864E-17
 -1      1808 3.42789E-04 1.53281E-04-5.43050E-17
 -1      1809 4.59411E-04 1.89269E-04-8.98126E-17
 -1      1810 4.07020E-04 2.32049E-04-3.13605E-17
 -1      1811 3.77685E-04 2.01116E-04-3.97089E-17
 -1      1812 4.95532E-04 2.41714E-04-7.35631E-17
 -1      1813 5.57676E-04 2.99993E-04-6.02545E-17
 -1      1814 3.39525E-04-1.89615E-04-4.11048E-17
 -1      1815 8.52478E-04 4.02540E-04-1.64541E-16
 -1      1816 7.06153E-04 3.55886E-04-1.04788E-16
 -1      1817 6.72745E-04 3.25451E-04-1.13435E-16
 -1      1818 4.58499E-04-2.34719E-04-7.59484E-17
 -1      1819 8.06477E-04-3.69776E-04-2.08126E-16
 -1      1820 9.51756E-04-4.09757E-04-2.93385E-16
 -1      1821 1.09469E-03-4.43104E-04-3.94501E-16
 -1      1822 1.23654E-03-4.70517E-04-5.12042E-16
 -1      1823 1.00378E-03-3.91728E-04-3.63967E-16
 -1      1824 1.37723E-03-4.93355E-04-6.45846E-16
 -1      1825 1.51733E-03-5.11911E-04-7.96265E-16
 -1      1826 1.28989E-03-4.46696E-04-6.02911E-16
 -1      1827 1.65705E-03-5.27073E-04-9.62799E-16
 -1      1828 1.79662E-03-5.39080E-04-1.14530E-15
 -1      1829 1.57312E-03-4.83964E-04-9.06447E-16
 -1      1830 1.93626E-03-5.48513E-04-1.34434E-15
 -1      1831 2.07607E-03-5.55574E-04-1.55962E-15
 -1      1832 1.85511E-03-5.08012E-04-1.27433E-15
 -1      1833 2.21624E-03-5.60656E-04-1.79171E-15
 -1      1834 2.35682E-03-5.63939E-04-2.03968E-15
 -1      1835 2.13712E-03-5.22058E-04-1.70728E-15
 -1      1836 2.49794E-03-5.65698E-04-2.30373E-15
 -1      1837 2.63967E-03-5.66095E-04-2.58506E-15
 -1      1838 2.42008E-03-5.28468E-04-2.20420E-15
 -1      1839 2.78211E-03-5.65332E-04-2.88264E-15
 -1      1840 2.92532E-03-5.63560E-04-3.19528E-15
 -1      1841 2.70470E-03-5.29042E-04-2.76598E-15
 -1      1842 3.06938E-03-5.60942E-04-3.52398E-15
 -1      1843 3.21440E-03-5.57631E-04-3.86738E-15
 -1      1844 2.99157E-03-5.25220E-04-3.39180E-15
 -1      1845 3.36042E-03-5.53783E-04-4.22637E-15
 -1      1846 3.50759E-03-5.49567E-04-4.60031E-15
 -1      1847 3.28127E-03-5.18263E-04-4.07867E-15
 -1      1848 3.65593E-03-5.45163E-04-4.98934E-15
 -1      1849 3.80565E-03-5.40779E-04-5.39279E-15
 -1      1850 3.57435E-03-5.09428E-04-4.82546E-15
 -1      1851 3.95673E-03-5.36662E-04-5.81056E-15
 -1      1852 4.10943E-03-5.33081E-04-6.24376E-15
 -1      1853 3.87146E-03-5.00173E-04-5.63201E-15
 -1      1854 4.26372E-03-5.30399E-04-6.69080E-15
 -1      1855 4.41986E-03-5.28983E-04-7.15202E-15
 -1      1856 4.17330E-03-4.92405E-04-6.49673E-15
 -1      1857 4.57785E-03-5.29372E-04-7.62618E-15
 -1      1858 4.73791E-03-5.32066E-04-8.11436E-15
 -1      1859 4.48069E-03-4.88791E-04-7.41826E-15
 -1      1860 4.90007E-03-5.37836E-04-8.61811E-15
 -1      1861 5.06445E-03-5.47360E-04-9.13401E-15
 -1      1862 4.79457E-03-4.93125E-04-8.39525E-15
 -1      1863 5.23120E-03-5.61651E-04-9.66271E-15
 -1      1864 5.40012E-03-5.81593E-04-1.02054E-14
 -1      1865 5.11607E-03-5.10703E-04-9.42597E-15
 -1      1866 5.57162E-03-6.08336E-04-1.07628E-14
 -1      1867 5.74498E-03-6.42903E-04-1.13349E-14
 -1      1868 5.44650E-03-5.48542E-04-1.05110E-14
 -1      1869 5.92096E-03-6.86259E-04-1.19215E-14
 -1      1870 6.09801E-03-7.39273E-04-1.25233E-14
 -1      1871 5.78715E-03-6.15043E-04-1.16536E-14
 -1      1872 6.27725E-03-8.02087E-04-1.31405E-14
 -1      1873 6.45620E-03-8.74662E-04-1.37743E-14
 -1      1874 6.13869E-03-7.18344E-04-1.28554E-14
 -1      1875 6.63595E-03-9.55457E-04-1.44247E-14
 -1      1876 6.81351E-03-1.04215E-03-1.50924E-14
 -1      1877 6.49938E-03-8.62156E-04-1.41215E-14
 -1      1878 6.98929E-03-1.13087E-03-1.57774E-14
 -1      1879 7.16151E-03-1.21645E-03-1.64797E-14
 -1      1880 6.86275E-03-1.03763E-03-1.54542E-14
 -1      1881 7.32944E-03-1.29314E-03-1.71990E-14
 -1      1882 7.49440E-03-1.35441E-03-1.79366E-14
 -1      1883 7.21832E-03-1.21458E-03-1.68570E-14
 -1      1884 7.65451E-03-1.39571E-03-1.86926E-14
 -1      1885 7.81528E-03-1.41290E-03-1.94669E-14
 -1      1886 7.55856E-03-1.34343E-03-1.83309E-14
 -1      1887 7.97447E-03-1.40539E-03-2.02587E-14
 -1      1888 8.13785E-03-1.37568E-03-2.10659E-14
 -1      1889 7.88912E-03-1.37873E-03-1.98787E-14
 -1      1890 8.30341E-03-1.32762E-03-2.18915E-14
 -1      1891 8.47390E-03-1.26773E-03-2.27316E-14
 -1      1892 8.22574E-03-1.31399E-03-2.14948E-14
 -1      1893 8.64822E-03-1.20156E-03-2.35886E-14
 -1      1894 8.82492E-03-1.13512E-03-2.44632E-14
 -1      1895 8.57794E-03-1.18754E-03-2.31764E-14
 -1      1896 9.00417E-03-1.07293E-03-2.53510E-14
 -1      1897 9.18327E-03-1.01778E-03-2.62547E-14
 -1      1898 8.94063E-03-1.05161E-03-2.49222E-14
 -1      1899 9.36318E-03-9.71758E-04-2.71721E-14
 -1      1900 9.54117E-03-9.35483E-04-2.81012E-14
 -1      1901 9.30303E-03-9.41969E-04-2.67270E-14
 -1      1902 9.71840E-03-9.09136E-04-2.90433E-14
 -1      1903 9.89311E-03-8.91950E-04-2.99949E-14
 -1      1904 9.65761E-03-8.71937E-04-2.85839E-14
 -1      1905 1.00662E-02-8.83102E-04-3.09591E-14
 -1      1906 1.02367E-02-8.81569E-04-3.19304E-14
 -1      1907 1.00016E-02-8.40292E-04-3.04868E-14
 -1      1908 1.04051E-02-8.86207E-04-3.29100E-14
 -1      1909 1.05712E-02-8.96091E-04-3.39019E-14
 -1      1910 1.03352E-02-8.39409E-04-3.24281E-14
 -1      1911 1.07352E-02-9.10163E-04-3.49003E-14
 -1      1912 1.08971E-02-9.27705E-04-3.59088E-14
 -1      1913 1.06598E-02-8.60750E-04-3.44051E-14
 -1      1914 1.10569E-02-9.47894E-04-3.69244E-14
 -1      1915 1.12151E-02-9.70207E-04-3.79444E-14
 -1      1916 1.09768E-02-8.96939E-04-3.64169E-14
 -1      1917 1.13714E-02-9.94070E-04-3.89716E-14
 -1      1918 1.15262E-02-1.01911E-03-4.00036E-14
 -1      1919 1.12874E-02-9.42357E-04-3.84602E-14
 -1      1920 1.16795E-02-1.04497E-03-4.10381E-14
 -1      1921 1.18316E-02-1.07137E-03-4.20770E-14
 -1      1922 1.15928E-02-9.93030E-04-4.05225E-14
 -1      1923 1.19824E-02-1.09812E-03-4.31181E-14
 -1      1924 1.21323E-02-1.12502E-03-4.41627E-14
 -1      1925 1.18937E-02-1.04629E-03-4.25987E-14
 -1      1926 1.22811E-02-1.15195E-03-4.52107E-14
 -1      1927 1.24291E-02-1.17882E-03-4.62651E-14
 -1      1928 1.21910E-02-1.10044E-03-4.46914E-14
 -1      1929 1.25764E-02-1.20555E-03-4.73295E-14
 -1      1930 1.27230E-02-1.23207E-03-4.83974E-14
 -1      1931 1.24855E-02-1.15443E-03-4.68043E-14
 -1      1932 1.28691E-02-1.25837E-03-4.94760E-14
 -1      1933 1.30146E-02-1.28441E-03-5.05664E-14
 -1      1934 1.27777E-02-1.20769E-03-4.89482E-14
 -1      1935 1.31597E-02-1.31019E-03-5.16632E-14
 -1      1936 1.33044E-02-1.33568E-03-5.27703E-14
 -1      1937 1.30681E-02-1.25992E-03-5.11255E-14
 -1      1938 1.34488E-02-1.36091E-03-5.38848E-14
 -1      1939 1.35929E-02-1.38586E-03-5.50058E-14
 -1      1940 1.33571E-02-1.31103E-03-5.33387E-14
 -1      1941 1.37368E-02-1.41057E-03-5.61345E-14
 -1      1942 1.38804E-02-1.43502E-03-5.72674E-14
 -1      1943 1.36451E-02-1.36103E-03-5.55790E-14
 -1      1944 1.40239E-02-1.45924E-03-5.84027E-14
 -1      1945 1.41673E-02-1.48324E-03-5.95440E-14
 -1      1946 1.39323E-02-1.40999E-03-5.78406E-14
 -1      1947 1.43105E-02-1.50704E-03-6.06870E-14
 -1      1948 1.44537E-02-1.53065E-03-6.18312E-14
 -1      1949 1.42190E-02-1.45803E-03-6.01153E-14
 -1      1950 1.45967E-02-1.55409E-03-6.29820E-14
 -1      1951 1.47397E-02-1.57738E-03-6.41318E-14
 -1      1952 1.45053E-02-1.50529E-03-6.24058E-14
 -1      1953 1.48687E-02-1.59982E-03-6.51631E-14
 -1      1954 1.50116E-02-1.62289E-03-6.63179E-14
 -1      1955 1.50353E-02-1.59586E-03-6.66524E-14
 -1      1956 1.47774E-02-1.55116E-03-6.45850E-14
 -1      1957 1.13761E-03 4.72976E-04-3.28405E-16
 -1      1958 9.95757E-04 4.41051E-04-2.38809E-16
 -1      1959 9.63809E-04 4.11742E-04-2.48513E-16
 -1      1960 1.41719E-03 5.21380E-04-5.53241E-16
 -1      1961 1.27775E-03 4.99542E-04-4.33112E-16
 -1      1962 1.24859E-03 4.71560E-04-4.43493E-16
 -1      1963 1.69457E-03 5.53951E-04-8.39416E-16
 -1      1964 1.55596E-03 5.39402E-04-6.88834E-16
 -1      1965 1.52958E-03 5.12387E-04-6.99459E-16
 -1      1966 1.97185E-03 5.74790E-04-1.18693E-15
 -1      1967 1.83311E-03 5.65666E-04-1.00543E-15
 -1      1968 1.80910E-03 5.39282E-04-1.01626E-15
 -1      1969 2.25036E-03 5.86807E-04-1.59569E-15
 -1      1970 2.11089E-03 5.81771E-04-1.38356E-15
 -1      1971 2.08876E-03 5.55768E-04-1.39408E-15
 -1      1972 2.53096E-03 5.92200E-04-2.06550E-15
 -1      1973 2.39035E-03 5.90227E-04-1.82321E-15
 -1      1974 2.36962E-03 5.64421E-04-1.83283E-15
 -1      1975 2.81431E-03 5.92720E-04-2.59858E-15
 -1      1976 2.67226E-03 5.92978E-04-2.32368E-15
 -1      1977 2.65243E-03 5.67226E-04-2.33292E-15
 -1      1978 3.10091E-03 5.89869E-04-3.19575E-15
 -1      1979 2.95717E-03 5.91631E-04-2.88884E-15
 -1      1980 2.93777E-03 5.65805E-04-2.89609E-15
 -1      1981 3.39125E-03 5.85062E-04-3.85683E-15
 -1      1982 3.24558E-03 5.87623E-04-3.51844E-15
 -1      1983 3.22614E-03 5.61602E-04-3.52400E-15
 -1      1984 3.68578E-03 5.79785E-04-4.58112E-15
 -1      1985 3.53796E-03 5.82386E-04-4.21131E-15
 -1      1986 3.51799E-03 5.56039E-04-4.21505E-15
 -1      1987 3.98490E-03 5.75741E-04-5.36822E-15
 -1      1988 3.83473E-03 5.77496E-04-4.96642E-15
 -1      1989 3.81374E-03 5.50674E-04-4.96852E-15
 -1      1990 4.28892E-03 5.74986E-04-6.22072E-15
 -1      1991 4.13627E-03 5.74820E-04-5.78606E-15
 -1      1992 4.11378E-03 5.47347E-04-5.78518E-15
 -1      1993 4.59794E-03 5.80011E-04-7.13859E-15
 -1      1994 4.44281E-03 5.76626E-04-6.67165E-15
 -1      1995 4.41838E-03 5.48302E-04-6.66833E-15
 -1      1996 4.91172E-03 5.93705E-04-8.11855E-15
 -1      1997 4.75428E-03 5.85619E-04-7.62055E-15
 -1      1998 4.72765E-03 5.56236E-04-7.61370E-15
 -1      1999 5.22947E-03 6.19110E-04-9.15610E-15
 -1      2000 5.07020E-03 6.04813E-04-8.63047E-15
 -1      2001 5.04134E-03 5.74193E-04-8.61966E-15
 -1      2002 5.54968E-03 6.58796E-04-1.02530E-14
 -1      2003 5.38945E-03 6.37116E-04-9.69705E-15
 -1      2004 5.35874E-03 6.05187E-04-9.68282E-15
 -1      2005 5.87002E-03 7.13769E-04-1.14092E-14
 -1      2006 5.71010E-03 6.84478E-04-1.08238E-14
 -1      2007 5.67846E-03 6.51399E-04-1.08060E-14
 -1      2008 6.18741E-03 7.81911E-04-1.26299E-14
 -1      2009 6.02941E-03 7.46544E-04-1.20112E-14
 -1      2010 5.99827E-03 7.12842E-04-1.19905E-14
 -1      2011 6.49849E-03 8.56429E-04-1.39147E-14
 -1      2012 6.34404E-03 8.19022E-04-1.32642E-14
 -1      2013 6.31520E-03 7.85670E-04-1.32399E-14
 -1      2014 6.80063E-03 9.25228E-04-1.52618E-14
 -1      2015 6.65082E-03 8.92416E-04-1.45805E-14
 -1      2016 6.62603E-03 8.60718E-04-1.45531E-14
 -1      2017 7.09333E-03 9.72693E-04-1.66697E-14
 -1      2018 6.94804E-03 9.52507E-04-1.59587E-14
 -1      2019 6.92853E-03 9.23654E-04-1.59274E-14
 -1      2020 7.37913E-03 9.84101E-04-1.81389E-14
 -1      2021 7.23667E-03 9.83428E-04-1.73960E-14
 -1      2022 7.22292E-03 9.57939E-04-1.73621E-14
 -1      2023 7.66329E-03 9.51644E-04-1.96660E-14
 -1      2024 7.52084E-03 9.73310E-04-1.88946E-14
 -1      2025 7.51269E-03 9.50664E-04-1.88571E-14
 -1      2026 7.95176E-03 8.77616E-04-2.12559E-14
 -1      2027 7.80648E-03 9.19184E-04-2.04540E-14
 -1      2028 7.80349E-03 8.98119E-04-2.04125E-14
 -1      2029 8.24872E-03 7.73650E-04-2.29094E-14
 -1      2030 8.09892E-03 8.28441E-04-2.20740E-14
 -1      2031 8.10047E-03 8.07545E-04-2.20314E-14
 -1      2032 8.55533E-03 6.55509E-04-2.46321E-14
 -1      2033 8.40085E-03 7.15466E-04-2.37616E-14
 -1      2034 8.40606E-03 6.93792E-04-2.37156E-14
 -1      2035 8.86997E-03 5.37610E-04-2.64217E-14
 -1      2036 8.71186E-03 5.95921E-04-2.55186E-14
 -1      2037 8.71953E-03 5.73117E-04-2.54677E-14
 -1      2038 9.18959E-03 4.29683E-04-2.82699E-14
 -1      2039 9.02945E-03 4.82113E-04-2.73383E-14
 -1      2040 9.03818E-03 4.58258E-04-2.72846E-14
 -1      2041 9.51092E-03 3.36261E-04-3.01713E-14
 -1      2042 9.35031E-03 3.81123E-04-2.92142E-14
 -1      2043 9.35881E-03 3.56484E-04-2.91578E-14
 -1      2044 9.83127E-03 2.57866E-04-3.21221E-14
 -1      2045 9.67143E-03 2.95296E-04-3.11418E-14
 -1      2046 9.67873E-03 2.70164E-04-3.10817E-14
 -1      2047 1.01487E-02 1.92665E-04-3.41214E-14
 -1      2048 9.99050E-03 2.23786E-04-3.31147E-14
 -1      2049 9.99607E-03 1.98411E-04-3.30518E-14
 -1      2050 1.04623E-02 1.37852E-04-3.61748E-14
 -1      2051 1.03061E-02 1.64133E-04-3.51415E-14
 -1      2052 1.03098E-02 1.38706E-04-3.50751E-14
 -1      2053 1.07715E-02 9.05331E-05-3.82712E-14
 -1      2054 1.06174E-02 1.13406E-04-3.72179E-14
 -1      2055 1.06193E-02 8.80560E-05-3.71469E-14
 -1      2056 1.10764E-02 4.81814E-05-4.04097E-14
 -1      2057 1.09245E-02 6.88544E-05-3.93360E-14
 -1      2058 1.09248E-02 4.36653E-05-3.92609E-14
 -1      2059 1.13774E-02 8.79593E-06-4.25792E-14
 -1      2060 1.12273E-02 2.82040E-05-4.14923E-14
 -1      2061 1.12265E-02 3.22036E-06-4.14111E-14
 -1      2062 1.16749E-02-2.90962E-05-4.47814E-14
 -1      2063 1.15265E-02-1.02779E-05-4.36745E-14
 -1      2064 1.15247E-02-3.50397E-05-4.35905E-14
 -1      2065 1.19695E-02-6.65125E-05-4.70152E-14
 -1      2066 1.18225E-02-4.78262E-05-4.58936E-14
 -1      2067 1.18201E-02-7.23695E-05-4.58027E-14
 -1      2068 1.22618E-02-1.04110E-04-4.92844E-14
 -1      2069 1.21159E-02-8.52668E-05-4.81458E-14
 -1      2070 1.21130E-02-1.09607E-04-4.80477E-14
 -1      2071 1.25522E-02-1.42278E-04-5.15706E-14
 -1      2072 1.24072E-02-1.23112E-04-5.04249E-14
 -1      2073 1.24041E-02-1.47273E-04-5.03213E-14
 -1      2074 1.28411E-02-1.81215E-04-5.38696E-14
 -1      2075 1.26968E-02-1.61647E-04-5.27204E-14
 -1      2076 1.26935E-02-1.85653E-04-5.26079E-14
 -1      2077 1.31290E-02-2.20991E-04-5.61623E-14
 -1      2078 1.29851E-02-2.00999E-04-5.50162E-14
 -1      2079 1.29819E-02-2.24876E-04-5.48987E-14
 -1      2080 1.34160E-02-2.61593E-04-5.84560E-14
 -1      2081 1.32726E-02-2.41192E-04-5.73097E-14
 -1      2082 1.32693E-02-2.64964E-04-5.71881E-14
 -1      2083 1.37025E-02-3.02958E-04-6.07499E-14
 -1      2084 1.35593E-02-2.82186E-04-5.96020E-14
 -1      2085 1.35561E-02-3.05874E-04-5.94760E-14
 -1      2086 1.39887E-02-3.44993E-04-6.30500E-14
 -1      2087 1.38456E-02-3.23899E-04-6.18992E-14
 -1      2088 1.38425E-02-3.47522E-04-6.17687E-14
 -1      2089 1.42746E-02-3.87577E-04-6.53542E-14
 -1      2090 1.41317E-02-3.66225E-04-6.42022E-14
 -1      2091 1.41285E-02-3.89801E-04-6.40703E-14
 -1      2092 1.45111E-02-4.25882E-04-6.72566E-14
 -1      2093 1.43682E-02-4.04381E-04-6.60982E-14
 -1      2094 1.43651E-02-4.27930E-04-6.59675E-14
 -1      2095 1.45523E-02-4.61627E-04-6.74575E-14
 -1      2096 1.46401E-02-6.90985E-04-6.71767E-14
 -1      2097 1.46184E-02-6.49062E-04-6.71809E-14
 -1      2098 1.45969E-02-6.07084E-04-6.71859E-14
 -1      2099 1.45754E-02-5.65064E-04-6.71905E-14
 -1      2100 1.44839E-02-6.09385E-04-6.61854E-14
 -1      2101 1.45744E-02-5.34413E-04-6.73218E-14
 -1      2102 1.45531E-02-4.92324E-04-6.73255E-14
 -1      2103 1.44595E-02-4.75460E-04-6.65806E-14
 -1      2104 1.44614E-02-5.36791E-04-6.63183E-14
 -1      2105 1.46829E-02-7.73259E-04-6.71715E-14
 -1      2106 1.46615E-02-7.32149E-04-6.71723E-14
 -1      2107 1.45269E-02-6.92447E-04-6.61803E-14
 -1      2108 1.47266E-02-8.56749E-04-6.71730E-14
 -1      2109 1.47048E-02-8.15028E-04-6.71709E-14
 -1      2110 1.45702E-02-7.75279E-04-6.61771E-14
 -1      2111 1.47704E-02-9.40072E-04-6.71788E-14
 -1      2112 1.47485E-02-8.98427E-04-6.71762E-14
 -1      2113 1.46140E-02-8.58604E-04-6.61810E-14
 -1      2114 1.48142E-02-1.02329E-03-6.71955E-14
 -1      2115 1.47923E-02-9.81689E-04-6.71843E-14
 -1      2116 1.46578E-02-9.41767E-04-6.61915E-14
 -1      2117 1.48579E-02-1.10649E-03-6.72168E-14
 -1      2118 1.48360E-02-1.06489E-03-6.72057E-14
 -1      2119 1.47016E-02-1.02484E-03-6.62100E-14
 -1      2120 1.49015E-02-1.18976E-03-6.72392E-14
 -1      2121 1.48797E-02-1.14811E-03-6.72273E-14
 -1      2122 1.47453E-02-1.10791E-03-6.62321E-14
 -1      2123 1.49444E-02-1.27175E-03-6.72691E-14
 -1      2124 1.49230E-02-1.23073E-03-6.72526E-14
 -1      2125 1.47885E-02-1.19037E-03-6.62567E-14
 -1      2126 1.49882E-02-1.35534E-03-6.72987E-14
 -1      2127 1.49663E-02-1.31352E-03-6.72830E-14
 -1      2128 1.48318E-02-1.27299E-03-6.62839E-14
 -1      2129 1.50323E-02-1.43915E-03-6.73240E-14
 -1      2130 1.50102E-02-1.39722E-03-6.73120E-14
 -1      2131 1.48756E-02-1.35653E-03-6.63095E-14
 -1      2132 1.50767E-02-1.52316E-03-6.73497E-14
 -1      2133 1.50545E-02-1.48113E-03-6.73363E-14
 -1      2134 1.49197E-02-1.44031E-03-6.63326E-14
 -1      2135 9.47698E-03-1.45153E-04-2.35186E-14
 -1      2136 9.62028E-03-1.98261E-04-2.37358E-14
 -1      2137 9.90340E-03-3.05171E-04-2.41799E-14
 -1      2138 9.91521E-03-3.20536E-04-2.41706E-14
 -1      2139 9.74070E-03-2.39661E-04-2.38826E-14
 -1      2140 9.83287E-03-2.70479E-04-2.40281E-14
 -1      2141 9.67167E-03-2.39446E-04-2.41798E-14
 -1      2142 9.11267E-03 1.61982E-05-2.29070E-14
 -1      2143 9.28910E-03-6.55338E-05-2.32088E-14
 -1      2144 8.71362E-03 2.18076E-04-2.21958E-14
 -1      2145 8.90826E-03 1.16388E-04-2.25453E-14
 -1      2146 3.27546E-04-8.75211E-05-8.76442E-17
 -1      2147 3.29620E-04-1.00664E-04-8.43645E-17
 -1      2148 4.46710E-04-1.42975E-04-1.22799E-16
 -1      2149 4.40472E-04-1.07939E-04-1.31649E-16
 -1      2150 7.94285E-03 6.29059E-04-2.02806E-14
 -1      2151 8.10328E-03 5.53824E-04-2.07354E-14
 -1      2152 7.60472E-03 7.12512E-04-1.92324E-14
 -1      2153 7.75423E-03 6.88421E-04-1.96953E-14
 -1      2154 7.28648E-03 6.80483E-04-1.82873E-14
 -1      2155 7.43364E-03 7.10317E-04-1.87204E-14
 -1      2156 6.94375E-03 5.47368E-04-1.73897E-14
 -1      2157 7.10411E-03 6.21062E-04-1.77890E-14
 -1      2158 6.55846E-03 3.55277E-04-1.66339E-14
 -1      2159 6.73626E-03 4.48338E-04-1.69662E-14
 -1      2160 6.19064E-03 1.63833E-04-1.59866E-14
 -1      2161 6.36351E-03 2.50904E-04-1.62551E-14
 -1      2162 5.83407E-03 1.06194E-05-1.55496E-14
 -1      2163 5.99224E-03 7.79415E-05-1.57515E-14
 -1      2164 5.55476E-03-9.79657E-05-1.51884E-14
 -1      2165 5.67417E-03-5.65755E-05-1.53207E-14
 -1      2166 5.39374E-03-1.58158E-04-1.49353E-14
 -1      2167 5.45748E-03-1.34997E-04-1.50611E-14
 -1      2168 5.50389E-03-1.26696E-04-1.48157E-14
 -1      2169 5.40133E-03-2.04806E-04-1.50332E-14
 -1      2170 5.37089E-03-1.84967E-04-1.49509E-14
 -1      2171 5.57419E-03-2.71482E-04-1.52399E-14
 -1      2172 5.47531E-03-2.36050E-04-1.51135E-14
 -1      2173 5.85842E-03-3.91824E-04-1.56207E-14
 -1      2174 5.71078E-03-3.30928E-04-1.54434E-14
 -1      2175 6.21783E-03-5.49506E-04-1.60094E-14
 -1      2176 6.02860E-03-4.65207E-04-1.58110E-14
 -1      2177 6.65676E-03-8.00861E-04-1.67503E-14
 -1      2178 6.47301E-03-6.86509E-04-1.63948E-14
 -1      2179 7.01051E-03-1.00891E-03-1.74646E-14
 -1      2180 6.83476E-03-9.06540E-04-1.71044E-14
 -1      2181 6.77108E-03-8.43984E-04-1.67705E-14
 -1      2182 7.38056E-03-1.19276E-03-1.83725E-14
 -1      2183 7.23046E-03-1.12149E-03-1.79546E-14
 -1      2184 7.67960E-03-1.26535E-03-1.92387E-14
 -1      2185 7.53425E-03-1.24077E-03-1.88030E-14
 -1      2186 7.47254E-03-1.22690E-03-1.85256E-14
 -1      2187 8.02406E-03-1.22169E-03-2.02817E-14
 -1      2188 7.87654E-03-1.25784E-03-1.98395E-14
 -1      2189 8.32919E-03-1.09349E-03-2.11256E-14
 -1      2190 8.17566E-03-1.16789E-03-2.07014E-14
 -1      2191 8.08681E-03-1.20525E-03-2.05782E-14
 -1      2192 8.71137E-03-8.85397E-04-2.20808E-14
 -1      2193 8.54378E-03-9.79698E-04-2.17067E-14
 -1      2194 9.05801E-03-7.02300E-04-2.27441E-14
 -1      2195 8.88371E-03-7.95043E-04-2.24125E-14
 -1      2196 8.77349E-03-8.34411E-04-2.25043E-14
 -1      2197 9.43578E-03-5.22527E-04-2.34026E-14
 -1      2198 9.27216E-03-6.00637E-04-2.30901E-14
 -1      2199 9.73736E-03-4.01979E-04-2.38891E-14
 -1      2200 9.61724E-03-4.42990E-04-2.37484E-14
 -1      2201 9.88261E-03-3.47563E-04-2.40552E-14
 -1      2202 9.82291E-03-3.70647E-04-2.39730E-14
 -1      2203 9.78064E-03-3.75525E-04-2.43182E-14
 -1      2204 8.29529E-03 4.55498E-04-2.12298E-14
 -1      2205 8.47350E-03 3.50477E-04-2.16742E-14
 -1      2206 8.57385E-03 2.71169E-04-2.21462E-14
 -1      2207 6.07323E-04-2.95197E-04-1.25090E-16
 -1      2208 8.17585E-03 5.03355E-04-2.11247E-14
 -1      2209 6.63411E-04-2.88992E-04-1.71046E-16
 -1      2210 9.87516E-03-2.99561E-04-2.44818E-14
 -1      2211 9.37254E-03-1.32627E-04-2.37177E-14
 -1      2212 1.50529E-02-1.55016E-03-6.70166E-14
 -1      2213 9.90778E-03-3.32695E-04-2.45189E-14
 -1      2214 8.99366E-03 3.98807E-05-2.30398E-14
 -1      2215 9.13751E-03-6.42158E-04-2.31882E-14
 -1      2216 8.41991E-03-1.04037E-03-2.15817E-14
 -1      2217 7.78074E-03-1.27548E-03-1.95531E-14
 -1      2218 7.14330E-03-1.06799E-03-1.76075E-14
 -1      2219 6.35795E-03-5.99273E-04-1.60368E-14
 -1      2220 6.24588E-03-5.23682E-04-1.56841E-14
 -1      2221 6.48162E-03-6.54508E-04-1.60628E-14
 -1      2222 5.94868E-03-3.98424E-04-1.54701E-14
 -1      2223 5.64532E-03-2.76549E-04-1.50816E-14
 -1      2224 5.36817E-03-1.70115E-04-1.47069E-14
 -1      2225 5.38128E-03-1.60638E-04-1.44636E-14
 -1      2226 5.35914E-03-1.72885E-04-1.44798E-14
 -1      2227 5.75610E-03-4.15055E-05-1.51655E-14
 -1      2228 6.10486E-03 1.04352E-04-1.56227E-14
 -1      2229 6.47570E-03 2.91207E-04-1.62270E-14
 -1      2230 6.85486E-03 4.97020E-04-1.70218E-14
 -1      2231 7.20235E-03 6.58983E-04-1.79360E-14
 -1      2232 7.83870E-03 6.66677E-04-2.00393E-14
 -1      2233 7.51405E-03 7.22812E-04-1.89425E-14
 -1      2234 5.43410E-03-2.06893E-04-1.48023E-14
 -1      2235 9.52632E-03-4.66932E-04-2.38855E-14
 -1      2236 1.01649E-03 3.93543E-04-3.17644E-16
 -1      2237 8.71916E-04 3.58422E-04-2.32101E-16
 -1      2238 5.47991E-04-5.38649E-05-1.98124E-16
 -1      2239 5.49100E-04-7.02276E-05-1.96945E-16
 -1      2240 5.50595E-04-8.72389E-05-1.95211E-16
 -1      2241 5.52530E-04-1.04952E-04-1.92974E-16
 -1      2242 6.65542E-04-9.30416E-05-2.65995E-16
 -1      2243 5.46471E-04 8.62504E-06-1.97406E-16
 -1      2244 5.46453E-04-6.77792E-06-1.98301E-16
 -1      2245 5.47287E-04 3.97962E-05-1.94154E-16
 -1      2246 5.46746E-04 2.41334E-05-1.96159E-16
 -1      2247 6.61253E-04 1.93675E-05-2.66741E-16
 -1      2248 5.49239E-04 7.16934E-05-1.88651E-16
 -1      2249 5.48108E-04 5.55465E-05-1.91714E-16
 -1      2250 6.62695E-04 5.62022E-05-2.61875E-16
 -1      2251 5.52772E-04 1.06595E-04-1.80235E-16
 -1      2252 5.50781E-04 8.87815E-05-1.84775E-16
 -1      2253 6.65754E-04 9.47916E-05-2.53717E-16
 -1      2254 5.58726E-04 1.45557E-04-1.68146E-16
 -1      2255 5.55386E-04 1.25493E-04-1.74855E-16
 -1      2256 6.71050E-04 1.36887E-04-2.41994E-16
 -1      2257 5.68963E-04 1.90973E-04-1.50609E-16
 -1      2258 5.63198E-04 1.67324E-04-1.60150E-16
 -1      2259 6.79798E-04 1.83994E-04-2.25243E-16
 -1      2260 1.30238E-03 4.47537E-04-5.33184E-16
 -1      2261 1.15980E-03 4.23141E-04-4.17797E-16
 -1      2262 1.07212E-03 3.74411E-04-3.90218E-16
 -1      2263 9.15375E-04-3.40866E-04-3.31969E-16
 -1      2264 1.05962E-03-3.72851E-04-4.37557E-16
 -1      2265 8.09145E-03 5.45916E-04-2.10276E-14
 -1      2266 8.25100E-03 4.49862E-04-2.15274E-14
 -1      2267 1.20308E-03-3.99739E-04-5.59055E-16
 -1      2268 1.34617E-03-4.21958E-04-6.96451E-16
 -1      2269 1.11768E-03-3.53021E-04-5.14346E-16
 -1      2270 1.48872E-03-4.40325E-04-8.49716E-16
 -1      2271 1.63098E-03-4.55126E-04-1.01910E-15
 -1      2272 1.40449E-03-3.96480E-04-7.92525E-16
 -1      2273 1.77299E-03-4.67001E-04-1.20393E-15
 -1      2274 1.91490E-03-4.76156E-04-1.40509E-15
 -1      2275 1.69038E-03-4.25663E-04-1.13344E-15
 -1      2276 2.05681E-03-4.83062E-04-1.62232E-15
 -1      2277 2.19880E-03-4.87896E-04-1.85564E-15
 -1      2278 1.97571E-03-4.43763E-04-1.53763E-15
 -1      2279 2.34097E-03-4.90996E-04-2.10448E-15
 -1      2280 2.48337E-03-4.92512E-04-2.36931E-15
 -1      2281 2.26096E-03-4.53313E-04-2.00491E-15
 -1      2282 2.62609E-03-4.92696E-04-2.65073E-15
 -1      2283 2.76917E-03-4.91680E-04-2.94793E-15
 -1      2284 2.54661E-03-4.56277E-04-2.53577E-15
 -1      2285 2.91268E-03-4.89663E-04-3.26014E-15
 -1      2286 3.05668E-03-4.86769E-04-3.58786E-15
 -1      2287 2.83304E-03-4.54207E-04-3.12939E-15
 -1      2288 3.20120E-03-4.83172E-04-3.93102E-15
 -1      2289 3.34635E-03-4.79002E-04-4.28952E-15
 -1      2290 3.12061E-03-4.48398E-04-3.78460E-15
 -1      2291 3.49210E-03-4.74441E-04-4.66287E-15
 -1      2292 3.63861E-03-4.69640E-04-5.05090E-15
 -1      2293 3.40961E-03-4.40038E-04-4.50067E-15
 -1      2294 3.78584E-03-4.64820E-04-5.45397E-15
 -1      2295 3.93396E-03-4.60178E-04-5.87151E-15
 -1      2296 3.70035E-03-4.30387E-04-5.27643E-15
 -1      2297 4.08294E-03-4.56015E-04-6.30300E-15
 -1      2298 4.23300E-03-4.52600E-04-6.75036E-15
 -1      2299 3.99318E-03-4.20966E-04-6.11112E-15
 -1      2300 4.38408E-03-4.50359E-04-7.21107E-15
 -1      2301 4.53646E-03-4.49679E-04-7.68476E-15
 -1      2302 4.28860E-03-4.13801E-04-7.00302E-15
 -1      2303 4.69014E-03-4.51145E-04-8.17269E-15
 -1      2304 4.84540E-03-4.55333E-04-8.67507E-15
 -1      2305 4.58734E-03-4.11705E-04-7.95189E-15
 -1      2306 5.00241E-03-4.62997E-04-9.19040E-15
 -1      2307 5.16137E-03-4.74987E-04-9.71789E-15
 -1      2308 4.89069E-03-4.18611E-04-8.95360E-15
 -1      2309 5.32276E-03-4.92176E-04-1.02606E-14
 -1      2310 5.48662E-03-5.15801E-04-1.08170E-14
 -1      2311 5.20079E-03-4.39923E-04-1.00103E-14
 -1      2312 5.65384E-03-5.46684E-04-1.13869E-14
 -1      2313 5.82403E-03-5.86425E-04-1.19722E-14
 -1      2314 5.52112E-03-4.82875E-04-1.11219E-14
 -1      2315 5.99860E-03-6.35479E-04-1.25724E-14
 -1      2316 6.17622E-03-6.95481E-04-1.31881E-14
 -1      2317 5.85642E-03-5.56511E-04-1.22903E-14
 -1      2318 6.35860E-03-7.65984E-04-1.38196E-14
 -1      2319 6.54282E-03-8.47334E-04-1.44677E-14
 -1      2320 6.21143E-03-6.70754E-04-1.35206E-14
 -1      2321 6.73015E-03-9.37447E-04-1.51345E-14
 -1      2322 6.91626E-03-1.03237E-03-1.58170E-14
 -1      2323 6.58655E-03-8.32151E-04-1.48154E-14
 -1      2324 7.10118E-03-1.12743E-03-1.65175E-14
 -1      2325 7.28203E-03-1.21405E-03-1.72350E-14
 -1      2326 6.97164E-03-1.02938E-03-1.61788E-14
 -1      2327 7.45643E-03-1.28693E-03-1.79701E-14
 -1      2328 7.62916E-03-1.33422E-03-1.87252E-14
 -1      2329 7.34613E-03-1.21820E-03-1.76124E-14
 -1      2330 7.79742E-03-1.35267E-03-1.95003E-14
 -1      2331 7.96895E-03-1.34140E-03-2.02915E-14
 -1      2332 7.70235E-03-1.32281E-03-1.91213E-14
 -1      2333 8.14108E-03-1.30264E-03-2.10989E-14
 -1      2334 8.31971E-03-1.24464E-03-2.19238E-14
 -1      2335 8.05539E-03-1.29426E-03-2.07035E-14
 -1      2336 8.50273E-03-1.17288E-03-2.27646E-14
 -1      2337 8.68822E-03-1.09934E-03-2.36222E-14
 -1      2338 8.42598E-03-1.16221E-03-2.23535E-14
 -1      2339 8.87566E-03-1.02844E-03-2.44945E-14
 -1      2340 9.06104E-03-9.64353E-04-2.53820E-14
 -1      2341 8.80992E-03-1.00483E-03-2.40670E-14
 -1      2342 9.24528E-03-9.09971E-04-2.62838E-14
 -1      2343 9.42493E-03-8.66166E-04-2.71989E-14
 -1      2344 9.18913E-03-8.76551E-04-2.58414E-14
 -1      2345 9.60168E-03-8.33704E-04-2.81272E-14
 -1      2346 9.77388E-03-8.10932E-04-2.90653E-14
 -1      2347 9.54977E-03-7.93897E-04-2.76705E-14
 -1      2348 9.94304E-03-7.97602E-04-3.00139E-14
 -1      2349 1.01086E-02-7.92046E-04-3.09759E-14
 -1      2350 9.88995E-03-7.54481E-04-2.95446E-14
 -1      2351 1.02716E-02-7.93493E-04-3.19458E-14
 -1      2352 1.04320E-02-8.00619E-04-3.29236E-14
 -1      2353 1.02139E-02-7.48109E-04-3.14628E-14
 -1      2354 1.05904E-02-8.12543E-04-3.39127E-14
 -1      2355 1.07470E-02-8.28333E-04-3.49092E-14
 -1      2356 1.05267E-02-7.65405E-04-3.34198E-14
 -1      2357 1.09019E-02-8.47205E-04-3.59133E-14
 -1      2358 1.10556E-02-8.68536E-04-3.69264E-14
 -1      2359 1.08322E-02-7.98706E-04-3.54109E-14
 -1      2360 1.12079E-02-8.91717E-04-3.79473E-14
 -1      2361 1.13593E-02-9.16335E-04-3.89740E-14
 -1      2362 1.11328E-02-8.42248E-04-3.74357E-14
 -1      2363 1.15096E-02-9.41958E-04-4.00053E-14
 -1      2364 1.16591E-02-9.68318E-04-4.10402E-14
 -1      2365 1.14300E-02-8.91888E-04-3.94874E-14
 -1      2366 1.18077E-02-9.95127E-04-4.20788E-14
 -1      2367 1.19558E-02-1.02221E-03-4.31228E-14
 -1      2368 1.17247E-02-9.44763E-04-4.15583E-14
 -1      2369 1.21031E-02-1.04940E-03-4.41685E-14
 -1      2370 1.22500E-02-1.07658E-03-4.52193E-14
 -1      2371 1.20175E-02-9.98975E-04-4.36447E-14
 -1      2372 1.23962E-02-1.10365E-03-4.62799E-14
 -1      2373 1.25421E-02-1.13055E-03-4.73465E-14
 -1      2374 1.23087E-02-1.05332E-03-4.57527E-14
 -1      2375 1.26875E-02-1.15723E-03-4.84180E-14
 -1      2376 1.28326E-02-1.18365E-03-4.94977E-14
 -1      2377 1.25986E-02-1.10709E-03-4.78853E-14
 -1      2378 1.29773E-02-1.20980E-03-5.05880E-14
 -1      2379 1.31218E-02-1.23566E-03-5.16860E-14
 -1      2380 1.28876E-02-1.15990E-03-5.00493E-14
 -1      2381 1.32660E-02-1.26124E-03-5.27919E-14
 -1      2382 1.34100E-02-1.28652E-03-5.39059E-14
 -1      2383 1.31757E-02-1.21159E-03-5.22463E-14
 -1      2384 1.35539E-02-1.31153E-03-5.50248E-14
 -1      2385 1.36975E-02-1.33627E-03-5.61499E-14
 -1      2386 1.34631E-02-1.26214E-03-5.44714E-14
 -1      2387 1.38410E-02-1.36076E-03-5.72801E-14
 -1      2388 1.39844E-02-1.38501E-03-5.84107E-14
 -1      2389 1.37500E-02-1.31159E-03-5.67157E-14
 -1      2390 1.41277E-02-1.40903E-03-5.95472E-14
 -1      2391 1.42709E-02-1.43285E-03-6.06858E-14
 -1      2392 1.40366E-02-1.36007E-03-5.89788E-14
 -1      2393 1.44140E-02-1.45648E-03-6.18286E-14
 -1      2394 1.45571E-02-1.47993E-03-6.29770E-14
 -1      2395 1.43229E-02-1.40769E-03-6.12561E-14
 -1      2396 9.63013E-03-2.46736E-04-2.46812E-14
 -1      2397 9.73978E-03-2.75734E-04-2.48321E-14
 -1      2398 1.86770E-03 5.08107E-04-1.14611E-15
 -1      2399 1.72672E-03 4.97624E-04-9.70253E-16
 -1      2400 2.14981E-03 5.22226E-04-1.54340E-15
 -1      2401 2.00870E-03 5.16245E-04-1.33735E-15
 -1      2402 1.92750E-03 4.76277E-04-1.27875E-15
 -1      2403 2.43280E-03 5.29017E-04-2.00137E-15
 -1      2404 2.29115E-03 5.26427E-04-1.76459E-15
 -1      2405 2.21147E-03 4.88128E-04-1.69519E-15
 -1      2406 2.71734E-03 5.30351E-04-2.52096E-15
 -1      2407 2.57485E-03 5.30273E-04-2.25358E-15
 -1      2408 2.49608E-03 4.93173E-04-2.17252E-15
 -1      2409 3.00394E-03 5.27785E-04-3.10380E-15
 -1      2410 2.86035E-03 5.29472E-04-2.80429E-15
 -1      2411 2.78184E-03 4.93164E-04-2.71125E-15
 -1      2412 3.29305E-03 5.22729E-04-3.74928E-15
 -1      2413 3.14815E-03 5.25486E-04-3.41861E-15
 -1      2414 3.06921E-03 4.89586E-04-3.31245E-15
 -1      2415 3.58512E-03 5.16608E-04-4.45798E-15
 -1      2416 3.43868E-03 5.19713E-04-4.09570E-15
 -1      2417 3.35861E-03 4.83810E-04-3.97615E-15
 -1      2418 3.88054E-03 5.11012E-04-5.22922E-15
 -1      2419 3.73238E-03 5.13641E-04-4.83589E-15
 -1      2420 3.65044E-03 4.77253E-04-4.70236E-15
 -1      2421 4.17975E-03 5.07846E-04-6.06481E-15
 -1      2422 4.02965E-03 5.09000E-04-5.63872E-15
 -1      2423 3.94515E-03 4.71528E-04-5.49150E-15
 -1      2424 4.48310E-03 5.09446E-04-6.96403E-15
 -1      2425 4.33089E-03 5.07899E-04-6.50631E-15
 -1      2426 4.24322E-03 4.68587E-04-6.34434E-15
 -1      2427 4.79088E-03 5.18607E-04-7.92511E-15
 -1      2428 4.63645E-03 5.12904E-04-7.43680E-15
 -1      2429 4.54520E-03 4.70828E-04-7.26008E-15
 -1      2430 5.10316E-03 5.38466E-04-8.94468E-15
 -1      2431 4.94652E-03 5.27011E-04-8.42805E-15
 -1      2432 4.85165E-03 4.81130E-04-8.23666E-15
 -1      2433 5.41968E-03 5.72068E-04-1.00237E-14
 -1      2434 5.26103E-03 5.53387E-04-9.47705E-15
 -1      2435 5.16308E-03 5.02711E-04-9.27142E-15
 -1      2436 5.73950E-03 6.21500E-04-1.11611E-14
 -1      2437 5.57940E-03 5.94742E-04-1.05843E-14
 -1      2438 5.47971E-03 5.38693E-04-1.03645E-14
 -1      2439 6.06078E-03 6.86431E-04-1.23630E-14
 -1      2440 5.90028E-03 6.52181E-04-1.17542E-14
 -1      2441 5.80106E-03 5.91168E-04-1.15180E-14
 -1      2442 6.38057E-03 7.62240E-04-1.36286E-14
 -1      2443 6.22121E-03 7.23463E-04-1.29876E-14
 -1      2444 6.12541E-03 6.59586E-04-1.27364E-14
 -1      2445 6.69532E-03 8.38469E-04-1.49561E-14
 -1      2446 6.53884E-03 8.01209E-04-1.42847E-14
 -1      2447 6.44943E-03 7.38627E-04-1.40170E-14
 -1      2448 7.00227E-03 8.99072E-04-1.63461E-14
 -1      2449 6.84974E-03 8.71858E-04-1.56435E-14
 -1      2450 6.76869E-03 8.16248E-04-1.53604E-14
 -1      2451 7.30172E-03 9.26331E-04-1.77969E-14
 -1      2452 7.15255E-03 9.17889E-04-1.70639E-14
 -1      2453 7.07988E-03 8.74291E-04-1.67651E-14
 -1      2454 7.59752E-03 9.07908E-04-1.93051E-14
 -1      2455 7.44934E-03 9.23201E-04-1.85426E-14
 -1      2456 7.38349E-03 8.93471E-04-1.82288E-14
 -1      2457 7.89595E-03 8.42614E-04-2.08800E-14
 -1      2458 7.74580E-03 8.80652E-04-2.00851E-14
 -1      2459 7.68478E-03 8.62368E-04-1.97567E-14
 -1      2460 8.20152E-03 7.41392E-04-2.25146E-14
 -1      2461 8.04756E-03 7.95464E-04-2.16892E-14
 -1      2462 7.99064E-03 7.83345E-04-2.13467E-14
 -1      2463 8.51517E-03 6.21537E-04-2.42169E-14
 -1      2464 8.35745E-03 6.82665E-04-2.33577E-14
 -1      2465 8.30481E-03 6.71560E-04-2.29997E-14
 -1      2466 8.83457E-03 4.99720E-04-2.59875E-14
 -1      2467 8.67448E-03 5.60036E-04-2.50938E-14
 -1      2468 8.62631E-03 5.46704E-04-2.47201E-14
 -1      2469 9.15620E-03 3.87383E-04-2.78176E-14
 -1      2470 8.99546E-03 4.41913E-04-2.68951E-14
 -1      2471 8.95114E-03 4.25169E-04-2.65057E-14
 -1      2472 9.47697E-03 2.90022E-04-2.97030E-14
 -1      2473 9.31697E-03 3.36698E-04-2.87533E-14
 -1      2474 9.27511E-03 3.16590E-04-2.83513E-14
 -1      2475 9.79487E-03 2.08532E-04-3.16378E-14
 -1      2476 9.63645E-03 2.47356E-04-3.06633E-14
 -1      2477 9.59545E-03 2.24440E-04-3.02485E-14
 -1      2478 1.01089E-02 1.41146E-04-3.36215E-14
 -1      2479 9.95245E-03 1.73231E-04-3.26247E-14
 -1      2480 9.91097E-03 1.48168E-04-3.21954E-14
 -1      2481 1.04187E-02 8.49621E-05-3.56557E-14
 -1      2482 1.02644E-02 1.11831E-04-3.46323E-14
 -1      2483 1.02215E-02 8.52364E-05-3.41909E-14
 -1      2484 1.07245E-02 3.69335E-05-3.77355E-14
 -1      2485 1.05721E-02 6.00930E-05-3.66907E-14
 -1      2486 1.05275E-02 3.24881E-05-3.62358E-14
 -1      2487 1.10265E-02-5.63443E-06-3.98562E-14
 -1      2488 1.08759E-02 1.51034E-05-3.87907E-14
 -1      2489 1.08295E-02-1.30904E-05-3.83241E-14
 -1      2490 1.13252E-02-4.48953E-05-4.20094E-14
 -1      2491 1.11762E-02-2.55730E-05-4.09283E-14
 -1      2492 1.11281E-02-5.40329E-05-4.04489E-14
 -1      2493 1.16210E-02-8.24492E-05-4.41921E-14
 -1      2494 1.14734E-02-6.38090E-05-4.30974E-14
 -1      2495 1.14239E-02-9.23011E-05-4.26056E-14
 -1      2496 1.19145E-02-1.19412E-04-4.64092E-14
 -1      2497 1.17680E-02-1.00952E-04-4.52966E-14
 -1      2498 1.17174E-02-1.29319E-04-4.47931E-14
 -1      2499 1.22060E-02-1.56512E-04-4.86571E-14
 -1      2500 1.20604E-02-1.37911E-04-4.75289E-14
 -1      2501 1.20090E-02-1.66057E-04-4.70143E-14
 -1      2502 1.24960E-02-1.94187E-04-5.09249E-14
 -1      2503 1.23512E-02-1.75257E-04-4.97906E-14
 -1      2504 1.22992E-02-2.03134E-04-4.92619E-14
 -1      2505 1.27848E-02-2.32663E-04-5.32054E-14
 -1      2506 1.26405E-02-2.13314E-04-5.20629E-14
 -1      2507 1.25881E-02-2.40907E-04-5.15266E-14
 -1      2508 1.30726E-02-2.72028E-04-5.54853E-14
 -1      2509 1.29288E-02-2.52231E-04-5.43458E-14
 -1      2510 1.28762E-02-2.79546E-04-5.37967E-14
 -1      2511 1.33598E-02-3.12275E-04-5.77701E-14
 -1      2512 1.32163E-02-2.92042E-04-5.66291E-14
 -1      2513 1.31636E-02-3.19101E-04-5.60715E-14
 -1      2514 1.36464E-02-3.53343E-04-6.00525E-14
 -1      2515 1.35031E-02-3.32709E-04-5.89098E-14
 -1      2516 1.34504E-02-3.59541E-04-5.83479E-14
 -1      2517 1.39327E-02-3.95138E-04-6.23429E-14
 -1      2518 1.37896E-02-3.74154E-04-6.11965E-14
 -1      2519 1.37368E-02-4.00789E-04-6.06275E-14
 -1      2520 1.42187E-02-4.37542E-04-6.46435E-14
 -1      2521 1.40757E-02-4.16269E-04-6.34935E-14
 -1      2522 1.40230E-02-4.42743E-04-6.29171E-14
 -1      2523 1.43659E-02-4.58631E-04-6.58353E-14
 -1      2524 1.44576E-02-7.77301E-04-6.51838E-14
 -1      2525 1.44357E-02-7.35650E-04-6.51831E-14
 -1      2526 1.45015E-02-8.60440E-04-6.51920E-14
 -1      2527 1.44795E-02-8.18895E-04-6.51875E-14
 -1      2528 1.43451E-02-7.79312E-04-6.41956E-14
 -1      2529 1.43711E-02-6.11721E-04-6.51878E-14
 -1      2530 1.43494E-02-5.69810E-04-6.51902E-14
 -1      2531 1.44140E-02-6.94287E-04-6.51848E-14
 -1      2532 1.43926E-02-6.53216E-04-6.51852E-14
 -1      2533 1.42580E-02-6.13743E-04-6.41929E-14
 -1      2534 1.43014E-02-6.96498E-04-6.41912E-14
 -1      2535 1.45453E-02-9.43414E-04-6.52042E-14
 -1      2536 1.45234E-02-9.01941E-04-6.51962E-14
 -1      2537 1.43890E-02-8.62233E-04-6.42065E-14
 -1      2538 1.45891E-02-1.02631E-03-6.52270E-14
 -1      2539 1.45672E-02-9.84865E-04-6.52152E-14
 -1      2540 1.44329E-02-9.44990E-04-6.42249E-14
 -1      2541 1.46327E-02-1.10923E-03-6.52461E-14
 -1      2542 1.46109E-02-1.06776E-03-6.52351E-14
 -1      2543 1.44766E-02-1.02769E-03-6.42430E-14
 -1      2544 1.46755E-02-1.19087E-03-6.52718E-14
 -1      2545 1.46541E-02-1.15003E-03-6.52611E-14
 -1      2546 1.45198E-02-1.10974E-03-6.42633E-14
 -1      2547 1.47191E-02-1.27411E-03-6.52964E-14
 -1      2548 1.46973E-02-1.23246E-03-6.52844E-14
 -1      2549 1.45629E-02-1.19194E-03-6.42868E-14
 -1      2550 1.47629E-02-1.35760E-03-6.53219E-14
 -1      2551 1.47410E-02-1.31582E-03-6.53098E-14
 -1      2552 1.46064E-02-1.27509E-03-6.43110E-14
 -1      2553 1.48070E-02-1.44136E-03-6.53411E-14
 -1      2554 1.47849E-02-1.39945E-03-6.53302E-14
 -1      2555 1.46502E-02-1.35855E-03-6.43341E-14
 -1      2556 1.49240E-02-1.52789E-03-6.59810E-14
 -1      2557 9.93084E-03-3.32124E-04-2.50779E-14
 -1      2558 9.89526E-03-3.40853E-04-2.49609E-14
 -1      2559 1.58561E-03 4.84269E-04-8.09655E-16
 -1      2560 1.44421E-03 4.67826E-04-6.63721E-16
 -1      2561 1.64349E-03 4.55422E-04-9.22304E-16
 -1      2562 9.31657E-03-1.30322E-04-2.40472E-14
 -1      2563 9.48546E-03-1.96014E-04-2.43637E-14
 -1      2564 9.58578E-03-2.34813E-04-2.50171E-14
 -1      2565 9.24424E-03-5.80070E-04-2.37477E-14
 -1      2566 9.05547E-03-6.75245E-04-2.33953E-14
 -1      2567 8.90068E-03 6.83586E-05-2.32182E-14
 -1      2568 9.08189E-03-2.44432E-05-2.35865E-14
 -1      2569 9.84918E-03-3.04756E-04-2.49885E-14
 -1      2570 9.91798E-03-3.18765E-04-2.51439E-14
 -1      2571 9.82684E-03-3.02079E-04-2.54972E-14
 -1      2572 5.68896E-03-7.10160E-05-1.47359E-14
 -1      2573 5.83886E-03-1.82130E-05-1.49578E-14
 -1      2574 5.46693E-04-2.22683E-05-1.98680E-16
 -1      2575 5.47197E-04-3.78951E-05-1.98653E-16
 -1      2576 6.62564E-04-5.42588E-05-2.68882E-16
 -1      2577 6.61206E-04-1.71849E-05-2.69018E-16
 -1      2578 7.44914E-03 7.27584E-04-1.86799E-14
 -1      2579 7.58420E-03 7.29446E-04-1.91906E-14
 -1      2580 5.46487E-03-2.03858E-04-1.45362E-14
 -1      2581 5.39410E-03-1.87830E-04-1.44580E-14
 -1      2582 7.73260E-03 7.03526E-04-1.97413E-14
 -1      2583 7.88648E-03 6.46866E-04-2.03276E-14
 -1      2584 7.13337E-03 6.37652E-04-1.75748E-14
 -1      2585 7.27929E-03 6.94825E-04-1.80673E-14
 -1      2586 6.75909E-03 4.41582E-04-1.66075E-14
 -1      2587 6.93160E-03 5.39242E-04-1.70236E-14
 -1      2588 6.40761E-03 2.47484E-04-1.58309E-14
 -1      2589 6.58221E-03 3.44158E-04-1.62025E-14
 -1      2590 6.00122E-03 4.90187E-05-1.51823E-14
 -1      2591 6.17418E-03 1.29240E-04-1.54087E-14
 -1      2592 5.90239E-03 1.57182E-05-1.47486E-14
 -1      2593 5.45427E-03-1.38071E-04-1.44068E-14
 -1      2594 5.54640E-03-1.16226E-04-1.45296E-14
 -1      2595 9.60426E-03-4.30532E-04-2.44870E-14
 -1      2596 9.43348E-03-4.95145E-04-2.41366E-14
 -1      2597 5.72320E-03-2.85698E-04-1.48895E-14
 -1      2598 5.59101E-03-2.41652E-04-1.46911E-14
 -1      2599 6.01311E-03-4.04237E-04-1.52561E-14
 -1      2600 5.86026E-03-3.39510E-04-1.50721E-14
 -1      2601 5.77810E-03-2.99451E-04-1.46791E-14
 -1      2602 6.86908E-03-8.91479E-04-1.67796E-14
 -1      2603 6.71246E-03-7.89799E-04-1.64307E-14
 -1      2604 7.23157E-03-1.11395E-03-1.76659E-14
 -1      2605 7.05018E-03-1.00353E-03-1.71825E-14
 -1      2606 7.54360E-03-1.25659E-03-1.86760E-14
 -1      2607 7.42215E-03-1.20930E-03-1.82479E-14
 -1      2608 7.86403E-03-1.27845E-03-1.98730E-14
 -1      2609 7.70661E-03-1.28566E-03-1.92722E-14
 -1      2610 8.15827E-03-1.18412E-03-2.09577E-14
 -1      2611 8.04043E-03-1.23627E-03-2.05345E-14
 -1      2612 8.51311E-03-9.89065E-04-2.21245E-14
 -1      2613 8.33171E-03-1.09639E-03-2.15358E-14
 -1      2614 8.27660E-03-1.14204E-03-2.14901E-14
 -1      2615 8.86681E-03-7.79119E-04-2.30431E-14
 -1      2616 8.72321E-03-8.65178E-04-2.27043E-14
 -1      2617 9.84396E-03-3.56041E-04-2.48777E-14
 -1      2618 9.76950E-03-3.75411E-04-2.47915E-14
 -1      2619 9.89536E-03-3.50215E-04-2.54392E-14
 -1      2620 5.88647E-04-2.34991E-04-1.58619E-16
 -1      2621 7.81458E-04-3.00445E-04-2.52768E-16
 -1      2622 8.41221E-04-2.88656E-04-3.10421E-16
 -1      2623 5.79285E-04-2.07183E-04-1.69244E-16
 -1      2624 7.57575E-04 3.30142E-04-1.70952E-16
 -1      2625 6.11161E-04 2.81824E-04-1.12269E-16
 -1      2626 5.84651E-04 2.55171E-04-1.16850E-16
 -1      2627 8.13782E-04 3.18269E-04-2.25135E-16
 -1      2628 8.46098E-03 3.23232E-04-2.21505E-14
 -1      2629 8.66936E-03 1.96698E-04-2.26814E-14
 -1      2630 7.65265E-03 7.23221E-04-1.94712E-14
 -1      2631 6.70676E-04-1.34833E-04-2.59788E-16
 -1      2632 5.55062E-04-1.23641E-04-1.89708E-16
 -1      2633 5.58293E-04-1.43455E-04-1.85195E-16
 -1      2634 1.35864E-03 4.22715E-04-6.26371E-16
 -1      2635 5.72412E-04 2.24982E-04-1.31473E-16
 -1      2636 8.36760E-03 3.79373E-04-2.20506E-14
 -1      2637 8.63010E-03-9.36667E-04-2.26566E-14
 -1      2638 7.95569E-03-1.27050E-03-2.02434E-14
 -1      2639 7.64007E-03-1.28279E-03-1.89860E-14
 -1      2640 8.99906E-03-7.17165E-04-2.35993E-14
 -1      2641 1.43132E-02-4.84982E-04-6.52557E-14
 -1      2642 8.78451E-03 1.30811E-04-2.32220E-14
 -1      2643 1.43142E-02-5.15634E-04-6.51275E-14
 -1      2644 7.31511E-03-1.15954E-03-1.78104E-14
 -1      2645 1.47832E-02-1.51900E-03-6.47822E-14
 -1      2646 1.48010E-02-1.47343E-03-6.51448E-14
 -1      2647 1.46661E-02-1.43240E-03-6.41460E-14
 -1      2648 1.46542E-02-1.49653E-03-6.37526E-14
 -1      2649 6.12933E-03-4.53104E-04-1.52806E-14
 -1      2650 6.01861E-03-3.99380E-04-1.48825E-14
 -1      2651 6.23775E-03-5.07871E-04-1.53036E-14
 -1      2652 6.67602E-03-7.64859E-04-1.60762E-14
 -1      2653 6.58928E-03-7.09902E-04-1.60701E-14
 -1      2654 6.46739E-03-6.36216E-04-1.57147E-14
 -1      2655 9.94629E-03-3.30594E-04-2.55903E-14
 -1      2656 6.89862E-04 2.47491E-04-1.92243E-16
 -1      2657 9.22831E-03-9.45732E-05-2.42294E-14
 -1      2658 9.70373E-03-4.03896E-04-2.50474E-14
 -1      2659 9.35883E-03-5.35187E-04-2.43465E-14
 -1      2660 5.60711E-03-8.95781E-05-1.43250E-14
 -1      2661 6.27695E-03 1.89193E-04-1.53836E-14
 -1      2662 6.66560E-03 3.98735E-04-1.62038E-14
 -1      2663 7.02399E-03 5.94703E-04-1.71513E-14
 -1      2664 5.35727E-03-1.73419E-04-1.42158E-14
 -1      2665 5.33645E-03-1.64973E-04-1.39753E-14
 -1      2666 5.36291E-03-1.73111E-04-1.39535E-14
 -1      2667 7.97239E-03 6.08037E-04-2.07206E-14
 -1      2668 8.05699E-03 5.65064E-04-2.11167E-14
 -1      2669 7.87517E-03 6.56652E-04-2.04144E-14
 -1      2670 5.51674E-03-2.14510E-04-1.43468E-14
 -1      2671 5.64779E-04-1.62107E-04-1.82187E-16
 -1      2672 5.70147E-04-1.85100E-04-1.75221E-16
 -1      2673 6.98336E-04-2.23945E-04-2.41452E-16
 -1      2674 6.81276E-04-1.78104E-04-2.51887E-16
 -1      2675 7.35895E-03 7.20076E-04-1.83069E-14
 -1      2676 5.39847E-03-1.49234E-04-1.41796E-14
 -1      2677 5.41755E-03-1.34627E-04-1.38978E-14
 -1      2678 5.35671E-03-1.52238E-04-1.39558E-14
 -1      2679 6.97027E-03-9.53586E-04-1.68342E-14
 -1      2680 1.42011E-02-5.18151E-04-6.41308E-14
 -1      2681 1.45630E-02-1.44787E-03-6.31727E-14
 -1      2682 7.80095E-04 7.51050E-05-3.39748E-16
 -1      2683 7.78724E-04 5.38280E-05-3.43814E-16
 -1      2684 7.77797E-04 3.25476E-05-3.46823E-16
 -1      2685 7.77334E-04 1.15382E-05-3.49208E-16
 -1      2686 8.95946E-04 4.80805E-05-4.37448E-16
 -1      2687 7.92002E-04 1.69097E-04-3.12982E-16
 -1      2688 7.87869E-04 1.44033E-04-3.21466E-16
 -1      2689 8.03981E-04 2.23804E-04-2.90864E-16
 -1      2690 7.97332E-04 1.95624E-04-3.03035E-16
 -1      2691 9.15345E-04 2.02760E-04-3.92956E-16
 -1      2692 1.13047E-03 3.54411E-04-4.66302E-16
 -1      2693 9.86710E-04 3.26724E-04-3.60646E-16
 -1      2694 9.14160E-03-5.04565E-05-2.44325E-14
 -1      2695 9.34877E-03-1.42902E-04-2.49033E-14
 -1      2696 7.98631E-03-1.28336E-03-2.04055E-14
 -1      2697 7.83491E-03-1.30894E-03-1.97478E-14
 -1      2698 1.41719E-03 3.97079E-04-7.22810E-16
 -1      2699 1.27387E-03 3.77741E-04-5.87082E-16
 -1      2700 1.19049E-03 3.33357E-04-5.46614E-16
 -1      2701 8.03508E-04 2.73624E-04-2.55357E-16
 -1      2702 8.75787E-03-8.86731E-04-2.32796E-14
 -1      2703 8.57576E-03-9.98166E-04-2.26903E-14
 -1      2704 8.28597E-04-2.60452E-04-3.19704E-16
 -1      2705 9.60306E-04-2.94575E-04-4.09991E-16
 -1      2706 8.18064E-04-2.33958E-04-3.27280E-16
 -1      2707 1.32121E-03-3.53043E-04-7.34859E-16
 -1      2708 1.46466E-03-3.70245E-04-8.91146E-16
 -1      2709 1.60795E-03-3.84350E-04-1.06298E-15
 -1      2710 1.75120E-03-3.95562E-04-1.25027E-15
 -1      2711 1.52611E-03-3.43316E-04-9.92330E-16
 -1      2712 1.89434E-03-4.04340E-04-1.45299E-15
 -1      2713 2.03743E-03-4.10867E-04-1.67174E-15
 -1      2714 1.81306E-03-3.64949E-04-1.36893E-15
 -1      2715 2.18048E-03-4.15500E-04-1.90624E-15
 -1      2716 2.32354E-03-4.18386E-04-2.15581E-15
 -1      2717 2.09984E-03-3.77627E-04-1.80758E-15
 -1      2718 2.46662E-03-4.19805E-04-2.42125E-15
 -1      2719 2.60976E-03-4.19881E-04-2.70288E-15
 -1      2720 2.38640E-03-3.83281E-04-2.30778E-15
 -1      2721 2.75298E-03-4.18837E-04-2.99993E-15
 -1      2722 2.89633E-03-4.16781E-04-3.31164E-15
 -1      2723 2.67277E-03-3.83492E-04-2.87048E-15
 -1      2724 3.03978E-03-4.13903E-04-3.63911E-15
 -1      2725 3.18341E-03-4.10305E-04-3.98172E-15
 -1      2726 2.95899E-03-3.79569E-04-3.49493E-15
 -1      2727 3.32717E-03-4.06171E-04-4.33904E-15
 -1      2728 3.47116E-03-4.01608E-04-4.71224E-15
 -1      2729 3.24508E-03-3.72658E-04-4.17934E-15
 -1      2730 3.61532E-03-3.96820E-04-5.09997E-15
 -1      2731 3.75975E-03-3.91936E-04-5.50229E-15
 -1      2732 3.53105E-03-3.63871E-04-4.92388E-15
 -1      2733 3.90439E-03-3.87209E-04-5.91945E-15
 -1      2734 4.04939E-03-3.82814E-04-6.35094E-15
 -1      2735 3.81689E-03-3.54433E-04-5.72808E-15
 -1      2736 4.19467E-03-3.79081E-04-6.79670E-15
 -1      2737 4.34046E-03-3.76262E-04-7.25700E-15
 -1      2738 4.10269E-03-3.45839E-04-6.59122E-15
 -1      2739 4.48672E-03-3.74787E-04-7.73090E-15
 -1      2740 4.63374E-03-3.75046E-04-8.21790E-15
 -1      2741 4.38874E-03-3.40042E-04-7.51039E-15
 -1      2742 4.78160E-03-3.77566E-04-8.71861E-15
 -1      2743 4.93073E-03-3.82980E-04-9.23288E-15
 -1      2744 4.67583E-03-3.39660E-04-8.48437E-15
 -1      2745 5.08142E-03-3.91879E-04-9.76002E-15
 -1      2746 5.23423E-03-4.05297E-04-1.03017E-14
 -1      2747 4.96569E-03-3.48241E-04-9.51084E-15
 -1      2748 5.38987E-03-4.23800E-04-1.08575E-14
 -1      2749 5.54898E-03-4.49163E-04-1.14265E-14
 -1      2750 5.26179E-03-3.70639E-04-1.05932E-14
 -1      2751 5.71288E-03-4.81725E-04-1.20096E-14
 -1      2752 5.88185E-03-5.24180E-04-1.26086E-14
 -1      2753 5.57029E-03-4.13998E-04-1.17310E-14
 -1      2754 6.05801E-03-5.76537E-04-1.32230E-14
 -1      2755 6.24020E-03-6.42330E-04-1.38525E-14
 -1      2756 5.90041E-03-4.88847E-04-1.29270E-14
 -1      2757 6.43126E-03-7.20776E-04-1.44992E-14
 -1      2758 6.62639E-03-8.13811E-04-1.51628E-14
 -1      2759 6.26257E-03-6.10799E-04-1.41860E-14
 -1      2760 7.32081E-03-1.18490E-03-1.76349E-14
 -1      2761 7.51136E-03-1.26348E-03-1.83783E-14
 -1      2762 8.17639E-03-1.22560E-03-2.12168E-14
 -1      2763 8.45736E-03-1.10774E-03-2.24077E-14
 -1      2764 8.65621E-03-1.01954E-03-2.32587E-14
 -1      2765 8.85472E-03-9.38898E-04-2.41234E-14
 -1      2766 9.13880E-03-8.38997E-04-2.54002E-14
 -1      2767 9.32477E-03-7.87725E-04-2.63010E-14
 -1      2768 9.50475E-03-7.51293E-04-2.72150E-14
 -1      2769 9.67688E-03-7.25338E-04-2.81408E-14
 -1      2770 9.46656E-03-7.05169E-04-2.67606E-14
 -1      2771 9.84361E-03-7.10232E-04-2.90775E-14
 -1      2772 1.00049E-02-7.02839E-04-3.00245E-14
 -1      2773 9.80393E-03-6.64073E-04-2.86100E-14
 -1      2774 1.01624E-02-7.02951E-04-3.09820E-14
 -1      2775 1.03167E-02-7.08618E-04-3.19498E-14
 -1      2776 1.01170E-02-6.57491E-04-3.05028E-14
 -1      2777 1.04685E-02-7.19307E-04-3.29283E-14
 -1      2778 1.06185E-02-7.33825E-04-3.39152E-14
 -1      2779 1.04156E-02-6.73972E-04-3.24376E-14
 -1      2780 1.07672E-02-7.51587E-04-3.49114E-14
 -1      2781 1.09148E-02-7.71887E-04-3.59137E-14
 -1      2782 1.07067E-02-7.05752E-04-3.44109E-14
 -1      2783 1.10616E-02-7.94190E-04-3.69243E-14
 -1      2784 1.12080E-02-8.18068E-04-3.79443E-14
 -1      2785 1.09944E-02-7.47555E-04-3.64162E-14
 -1      2786 1.13537E-02-8.43092E-04-3.89709E-14
 -1      2787 1.14992E-02-8.68998E-04-4.00019E-14
 -1      2788 1.12807E-02-7.95643E-04-3.84548E-14
 -1      2789 1.16444E-02-8.95470E-04-4.10376E-14
 -1      2790 1.17893E-02-9.22345E-04-4.20775E-14
 -1      2791 1.15667E-02-8.47347E-04-4.05159E-14
 -1      2792 1.19340E-02-9.49407E-04-4.31225E-14
 -1      2793 1.20785E-02-9.76556E-04-4.41692E-14
 -1      2794 1.18527E-02-9.00802E-04-4.25968E-14
 -1      2795 1.22228E-02-1.00366E-03-4.52250E-14
 -1      2796 1.23670E-02-1.03065E-03-4.62887E-14
 -1      2797 1.21387E-02-9.54753E-04-4.46975E-14
 -1      2798 1.25111E-02-1.05745E-03-4.73544E-14
 -1      2799 1.26550E-02-1.08404E-03-4.84289E-14
 -1      2800 1.24248E-02-1.00840E-03-4.68218E-14
 -1      2801 1.27988E-02-1.11037E-03-4.95111E-14
 -1      2802 1.29424E-02-1.13643E-03-5.06022E-14
 -1      2803 1.27110E-02-1.06128E-03-4.89720E-14
 -1      2804 1.30860E-02-1.16221E-03-5.17022E-14
 -1      2805 1.32295E-02-1.18770E-03-5.28071E-14
 -1      2806 1.29971E-02-1.11315E-03-5.11564E-14
 -1      2807 1.33729E-02-1.21292E-03-5.39170E-14
 -1      2808 1.35162E-02-1.23787E-03-5.50343E-14
 -1      2809 1.32832E-02-1.16395E-03-5.33668E-14
 -1      2810 1.36595E-02-1.26255E-03-5.61576E-14
 -1      2811 1.38027E-02-1.28699E-03-5.72831E-14
 -1      2812 1.35693E-02-1.21368E-03-5.55990E-14
 -1      2813 1.39458E-02-1.31119E-03-5.84125E-14
 -1      2814 1.40889E-02-1.33517E-03-5.95443E-14
 -1      2815 1.38553E-02-1.26242E-03-5.78467E-14
 -1      2816 1.42319E-02-1.35895E-03-6.06824E-14
 -1      2817 1.43749E-02-1.38255E-03-6.18242E-14
 -1      2818 1.41412E-02-1.31030E-03-6.01101E-14
 -1      2819 9.49433E-03-2.00635E-04-2.52262E-14
 -1      2820 9.62913E-03-2.44928E-04-2.55493E-14
 -1      2821 9.41550E-03-1.58569E-04-2.54324E-14
 -1      2822 1.98840E-03 4.43814E-04-1.41446E-15
 -1      2823 1.84575E-03 4.36032E-04-1.21908E-15
 -1      2824 2.84594E-03 4.55767E-04-2.90368E-15
 -1      2825 2.70256E-03 4.56869E-04-2.61688E-15
 -1      2826 3.13364E-03 4.51321E-04-3.52279E-15
 -1      2827 2.98962E-03 4.53875E-04-3.20555E-15
 -1      2828 2.90961E-03 4.18302E-04-3.09795E-15
 -1      2829 3.42289E-03 4.44956E-04-4.20459E-15
 -1      2830 3.27804E-03 4.48303E-04-3.85625E-15
 -1      2831 3.19722E-03 4.13115E-04-3.73508E-15
 -1      2832 3.71408E-03 4.38069E-04-4.94849E-15
 -1      2833 3.56821E-03 4.41492E-04-4.56904E-15
 -1      2834 3.48590E-03 4.06271E-04-4.43536E-15
 -1      2835 4.00770E-03 4.32270E-04-5.75568E-15
 -1      2836 3.86055E-03 4.34927E-04-5.34396E-15
 -1      2837 3.77607E-03 3.99124E-04-5.19616E-15
 -1      2838 4.30437E-03 4.29529E-04-6.62536E-15
 -1      2839 4.15561E-03 4.30382E-04-6.18247E-15
 -1      2840 4.06828E-03 3.93260E-04-6.02078E-15
 -1      2841 4.60484E-03 4.32277E-04-7.55678E-15
 -1      2842 4.45409E-03 4.30044E-04-7.08351E-15
 -1      2843 4.36330E-03 3.90633E-04-6.90711E-15
 -1      2844 4.91007E-03 4.43449E-04-8.54827E-15
 -1      2845 4.75684E-03 4.36598E-04-8.04581E-15
 -1      2846 4.66220E-03 3.93678E-04-7.85420E-15
 -1      2847 5.22105E-03 4.66363E-04-9.59858E-15
 -1      2848 5.06485E-03 4.53199E-04-9.06564E-15
 -1      2849 4.96635E-03 4.05379E-04-8.86089E-15
 -1      2850 5.53859E-03 5.04300E-04-1.07064E-14
 -1      2851 5.37909E-03 4.83229E-04-1.01450E-14
 -1      2852 5.27734E-03 4.29203E-04-9.92540E-15
 -1      2853 5.86266E-03 5.59556E-04-1.18767E-14
 -1      2854 5.70002E-03 5.29655E-04-1.12834E-14
 -1      2855 5.59659E-03 4.68753E-04-1.10495E-14
 -1      2856 6.19153E-03 6.31640E-04-1.31099E-14
 -1      2857 6.02688E-03 5.93694E-04-1.24851E-14
 -1      2858 5.92448E-03 5.26817E-04-1.22351E-14
 -1      2859 6.52114E-03 7.14609E-04-1.44060E-14
 -1      2860 6.35674E-03 6.72446E-04-1.37504E-14
 -1      2861 6.25905E-03 6.03165E-04-1.34838E-14
 -1      2862 6.84578E-03 7.94689E-04-1.57637E-14
 -1      2863 6.68449E-03 7.56409E-04-1.50769E-14
 -1      2864 6.59504E-03 6.91376E-04-1.47952E-14
 -1      2865 7.16110E-03 8.50385E-04-1.71852E-14
 -1      2866 7.00455E-03 8.27156E-04-1.64672E-14
 -1      2867 6.92508E-03 7.74570E-04-1.61687E-14
 -1      2868 7.46827E-03 8.60820E-04-1.86637E-14
 -1      2869 7.31483E-03 8.62602E-04-1.79173E-14
 -1      2870 7.24376E-03 8.27788E-04-1.76034E-14
 -1      2871 7.77454E-03 8.14654E-04-2.02084E-14
 -1      2872 7.62045E-03 8.44509E-04-1.94270E-14
 -1      2873 7.55472E-03 8.26369E-04-1.91005E-14
 -1      2874 8.08816E-03 7.20213E-04-2.18141E-14
 -1      2875 7.92995E-03 7.72241E-04-2.10033E-14
 -1      2876 7.86736E-03 7.62455E-04-2.06595E-14
 -1      2877 8.41136E-03 5.97532E-04-2.34853E-14
 -1      2878 8.24868E-03 6.60738E-04-2.26423E-14
 -1      2879 8.19029E-03 6.51399E-04-2.22836E-14
 -1      2880 8.74057E-03 4.68777E-04-2.52239E-14
 -1      2881 8.57570E-03 5.32704E-04-2.43458E-14
 -1      2882 8.52311E-03 5.18992E-04-2.39731E-14
 -1      2883 9.07010E-03 3.49140E-04-2.70254E-14
 -1      2884 8.90581E-03 4.07217E-04-2.61163E-14
 -1      2885 8.85945E-03 3.88491E-04-2.57278E-14
 -1      2886 9.39543E-03 2.45742E-04-2.88865E-14
 -1      2887 9.23363E-03 2.95289E-04-2.79498E-14
 -1      2888 9.19232E-03 2.72803E-04-2.75464E-14
 -1      2889 9.71448E-03 1.59724E-04-3.07944E-14
 -1      2890 9.55590E-03 2.00686E-04-2.98337E-14
 -1      2891 9.51755E-03 1.75905E-04-2.94214E-14
 -1      2892 1.00270E-02 8.91162E-05-3.27553E-14
 -1      2893 9.87160E-03 1.22712E-04-3.17686E-14
 -1      2894 9.83414E-03 9.66379E-05-3.13433E-14
 -1      2895 1.03338E-02 3.07489E-05-3.47624E-14
 -1      2896 1.01811E-02 5.86274E-05-3.37527E-14
 -1      2897 1.01430E-02 3.18255E-05-3.33145E-14
 -1      2898 1.06358E-02-1.86509E-05-3.68148E-14
 -1      2899 1.04853E-02 5.12300E-06-3.57820E-14
 -1      2900 1.04456E-02-2.21111E-05-3.53321E-14
 -1      2901 1.09340E-02-6.19596E-05-3.89101E-14
 -1      2902 1.07853E-02-4.09119E-05-3.78589E-14
 -1      2903 1.07435E-02-6.84060E-05-3.73948E-14
 -1      2904 1.12294E-02-1.01486E-04-4.10409E-14
 -1      2905 1.10820E-02-8.20797E-05-3.99725E-14
 -1      2906 1.10380E-02-1.09711E-04-3.94965E-14
 -1      2907 1.15224E-02-1.38964E-04-4.31998E-14
 -1      2908 1.13761E-02-1.20398E-04-4.21158E-14
 -1      2909 1.13302E-02-1.48068E-04-4.16296E-14
 -1      2910 1.18137E-02-1.75624E-04-4.53933E-14
 -1      2911 1.16682E-02-1.57340E-04-4.42926E-14
 -1      2912 1.16206E-02-1.84968E-04-4.37927E-14
 -1      2913 1.21036E-02-2.12287E-04-4.76154E-14
 -1      2914 1.19588E-02-1.93920E-04-4.65006E-14
 -1      2915 1.19098E-02-2.21444E-04-4.59895E-14
 -1      2916 1.23924E-02-2.49461E-04-4.98615E-14
 -1      2917 1.22481E-02-2.30790E-04-4.87369E-14
 -1      2918 1.21980E-02-2.58169E-04-4.82132E-14
 -1      2919 1.26804E-02-2.87425E-04-5.21200E-14
 -1      2920 1.25365E-02-2.68334E-04-5.09904E-14
 -1      2921 1.24856E-02-2.95545E-04-5.04558E-14
 -1      2922 1.29677E-02-3.26297E-04-5.43855E-14
 -1      2923 1.28241E-02-3.06744E-04-5.32523E-14
 -1      2924 1.27726E-02-3.33778E-04-5.27116E-14
 -1      2925 1.32546E-02-3.66092E-04-5.66550E-14
 -1      2926 1.31112E-02-3.46080E-04-5.55192E-14
 -1      2927 1.30593E-02-3.72940E-04-5.49714E-14
 -1      2928 1.35411E-02-4.06759E-04-5.89237E-14
 -1      2929 1.33979E-02-3.86320E-04-5.77909E-14
 -1      2930 1.33457E-02-4.13016E-04-5.72339E-14
 -1      2931 1.38273E-02-4.48209E-04-6.12029E-14
 -1      2932 1.36842E-02-4.27391E-04-6.00620E-14
 -1      2933 1.36319E-02-4.53938E-04-5.94998E-14
 -1      2934 1.40858E-02-4.93630E-04-6.32371E-14
 -1      2935 1.39428E-02-4.72517E-04-6.20913E-14
 -1      2936 1.38904E-02-4.98928E-04-6.15241E-14
 -1      2937 1.41212E-02-5.47716E-04-6.33026E-14
 -1      2938 8.69904E-03 1.86791E-04-2.32942E-14
 -1      2939 8.90351E-03 7.06226E-05-2.38405E-14
 -1      2940 1.43205E-02-9.46474E-04-6.32454E-14
 -1      2941 1.42986E-02-9.05232E-04-6.32351E-14
 -1      2942 1.44720E-02-1.39924E-03-6.25955E-14
 -1      2943 1.45691E-02-1.41585E-03-6.33702E-14
 -1      2944 1.43811E-02-1.35066E-03-6.20203E-14
 -1      2945 1.42326E-02-7.81295E-04-6.32141E-14
 -1      2946 1.42106E-02-7.39866E-04-6.32087E-14
 -1      2947 1.43641E-02-1.02895E-03-6.32611E-14
 -1      2948 1.43423E-02-9.87705E-04-6.32556E-14
 -1      2949 1.42082E-02-9.47844E-04-6.22674E-14
 -1      2950 1.42766E-02-8.63965E-04-6.32273E-14
 -1      2951 1.42546E-02-8.22657E-04-6.32194E-14
 -1      2952 1.41203E-02-7.83228E-04-6.22352E-14
 -1      2953 1.41643E-02-8.65613E-04-6.22506E-14
 -1      2954 1.44069E-02-1.11011E-03-6.32815E-14
 -1      2955 1.43855E-02-1.06951E-03-6.32703E-14
 -1      2956 1.42514E-02-1.02937E-03-6.22833E-14
 -1      2957 1.44503E-02-1.19288E-03-6.33021E-14
 -1      2958 1.44286E-02-1.15146E-03-6.32917E-14
 -1      2959 1.42944E-02-1.11103E-03-6.23003E-14
 -1      2960 1.44937E-02-1.27595E-03-6.33261E-14
 -1      2961 1.44720E-02-1.23437E-03-6.33142E-14
 -1      2962 1.43376E-02-1.19366E-03-6.23207E-14
 -1      2963 1.70305E-03 4.25837E-04-1.03841E-15
 -1      2964 1.56019E-03 4.13024E-04-8.73135E-16
 -1      2965 1.47731E-03 3.70727E-04-8.22462E-16
 -1      2966 1.76387E-03 3.95684E-04-1.15770E-15
 -1      2967 5.80408E-03-5.44229E-06-1.42881E-14
 -1      2968 5.94586E-03 5.23895E-05-1.45048E-14
 -1      2969 9.79902E-03-3.89933E-04-2.57241E-14
 -1      2970 9.65176E-03-4.34889E-04-2.54127E-14
 -1      2971 9.93858E-03-3.52526E-04-2.59871E-14
 -1      2972 9.89588E-03-3.61876E-04-2.59018E-14
 -1      2973 9.96368E-03-3.35301E-04-2.61881E-14
 -1      2974 9.97136E-03-3.42025E-04-2.61208E-14
 -1      2975 7.29130E-03 7.15201E-04-1.79832E-14
 -1      2976 7.43796E-03 7.40501E-04-1.85935E-14
 -1      2977 9.81038E-03-2.97658E-04-2.60667E-14
 -1      2978 9.90274E-03-3.18323E-04-2.62286E-14
 -1      2979 2.55942E-03 4.56969E-04-2.34628E-15
 -1      2980 2.41649E-03 4.55939E-04-2.09044E-15
 -1      2981 2.62275E-03 4.20567E-04-2.52211E-15
 -1      2982 2.27371E-03 4.53527E-04-1.84962E-15
 -1      2983 2.13103E-03 4.49590E-04-1.62468E-15
 -1      2984 2.33636E-03 4.18598E-04-2.00714E-15
 -1      2985 1.06892E-03-3.14643E-04-4.97473E-16
 -1      2986 1.21238E-03-3.38387E-04-6.26154E-16
 -1      2987 1.27381E-03-3.15810E-04-7.11413E-16
 -1      2988 1.05661E-03-2.84639E-04-5.07420E-16
 -1      2989 8.27242E-03 4.42381E-04-2.19186E-14
 -1      2990 8.46016E-03 3.26797E-04-2.25501E-14
 -1      2991 7.84574E-04 1.20198E-04-3.28730E-16
 -1      2992 7.82037E-04 9.72495E-05-3.34761E-16
 -1      2993 8.99352E-04 9.64224E-05-4.27772E-16
 -1      2994 9.05492E-04 1.47386E-04-4.13284E-16
 -1      2995 7.81802E-04-9.52185E-05-3.48747E-16
 -1      2996 7.84263E-04-1.18079E-04-3.46050E-16
 -1      2997 5.56117E-03-2.24483E-04-1.40937E-14
 -1      2998 5.44548E-03-1.94370E-04-1.39431E-14
 -1      2999 6.90203E-03 5.44631E-04-1.66626E-14
 -1      3000 7.07662E-03 6.36301E-04-1.72048E-14
 -1      3001 6.57491E-03 3.64597E-04-1.57911E-14
 -1      3002 6.73056E-03 4.51971E-04-1.61899E-14
 -1      3003 5.52488E-03-9.69819E-05-1.38614E-14
 -1      3004 5.65441E-03-5.95605E-05-1.40605E-14
 -1      3005 7.02330E-03-9.95776E-04-1.68126E-14
 -1      3006 6.86648E-03-8.89202E-04-1.64165E-14
 -1      3007 5.82397E-03-3.16785E-04-1.44137E-14
 -1      3008 5.70143E-03-2.71536E-04-1.42366E-14
 -1      3009 1.45752E-02-1.38388E-03-6.35668E-14
 -1      3010 9.14246E-03-6.61676E-04-2.42724E-14
 -1      3011 8.98340E-03-7.54611E-04-2.39128E-14
 -1      3012 8.32026E-03-1.15269E-03-2.18000E-14
 -1      3013 9.47478E-03-5.05997E-04-2.50645E-14
 -1      3014 9.30940E-03-5.77498E-04-2.46680E-14
 -1      3015 9.28597E-03-6.23377E-04-2.49886E-14
 -1      3016 6.15356E-03 1.46519E-04-1.48794E-14
 -1      3017 6.36112E-03 2.51769E-04-1.52907E-14
 -1      3018 7.56730E-03 7.40923E-04-1.91339E-14
 -1      3019 7.69327E-03 7.19227E-04-1.96835E-14
 -1      3020 7.48874E-03 7.50091E-04-1.87980E-14
 -1      3021 7.87459E-04-1.41803E-04-3.42405E-16
 -1      3022 7.91466E-04-1.66619E-04-3.37282E-16
 -1      3023 9.05055E-04-1.44887E-04-4.36730E-16
 -1      3024 8.94814E-04 9.79240E-07-4.43303E-16
 -1      3025 7.77308E-04-9.41482E-06-3.50712E-16
 -1      3026 7.77718E-04-3.04049E-05-3.51417E-16
 -1      3027 8.65431E-04 2.61465E-04-3.12670E-16
 -1      3028 6.03014E-03 1.15794E-04-1.44143E-14
 -1      3029 7.75934E-03-1.31983E-03-1.93878E-14
 -1      3030 7.70920E-03-1.30076E-03-1.92323E-14
 -1      3031 8.91484E-03-8.26094E-04-2.39476E-14
 -1      3032 8.59496E-03 2.60442E-04-2.31567E-14
 -1      3033 8.15808E-03 5.15220E-04-2.16031E-14
 -1      3034 8.25961E-03 4.68006E-04-2.20936E-14
 -1      3035 8.06052E-03 5.78742E-04-2.12876E-14
 -1      3036 6.68358E-03-8.06663E-04-1.56051E-14
 -1      3037 6.85168E-03-9.28482E-04-1.59409E-14
 -1      3038 7.05230E-03-1.03886E-03-1.66402E-14
 -1      3039 9.00520E-03-8.32430E-04-2.45672E-14
 -1      3040 1.40763E-02-7.00915E-04-6.22261E-14
 -1      3041 1.41888E-02-6.98712E-04-6.32059E-14
 -1      3042 1.41670E-02-6.57477E-04-6.32046E-14
 -1      3043 5.91633E-03-3.59927E-04-1.44348E-14
 -1      3044 2.05015E-03 4.10901E-04-1.55269E-15
 -1      3045 1.41548E-02-6.23368E-04-6.32527E-14
 -1      3046 1.41332E-02-5.81970E-04-6.32538E-14
 -1      3047 1.40178E-02-5.57519E-04-6.23649E-14
 -1      3048 1.40422E-02-6.25785E-04-6.22695E-14
 -1      3049 9.99015E-03-3.53851E-04-2.65893E-14
 -1      3050 5.44844E-03-1.12230E-04-1.36388E-14
 -1      3051 5.47619E-03-8.39819E-05-1.33798E-14
 -1      3052 5.38320E-03-1.19979E-04-1.34183E-14
 -1      3053 6.43204E-03 3.13358E-04-1.52760E-14
 -1      3054 1.45532E-02-1.34207E-03-6.35579E-14
 -1      3055 6.79883E-03 5.11397E-04-1.62413E-14
 -1      3056 6.33775E-03-5.63068E-04-1.53081E-14
 -1      3057 6.21226E-03-5.02850E-04-1.49081E-14
 -1      3058 6.42342E-03-6.20741E-04-1.53120E-14
 -1      3059 9.86789E-03-3.87330E-04-2.62742E-14
 -1      3060 6.74661E-03-8.17227E-04-1.60544E-14
 -1      3061 9.74530E-03-2.72315E-04-2.62801E-14
 -1      3062 7.17103E-03 6.88503E-04-1.74791E-14
 -1      3063 7.24901E-03 7.25768E-04-1.77538E-14
 -1      3064 7.05094E-03 6.54104E-04-1.69821E-14
 -1      3065 9.97339E-03-3.33004E-04-2.67657E-14
 -1      3066 9.60914E-03-4.76755E-04-2.57414E-14
 -1      3067 5.37970E-03-1.77487E-04-1.37048E-14
 -1      3068 5.32914E-03-1.67234E-04-1.34685E-14
 -1      3069 5.40046E-03-1.85830E-04-1.34572E-14
 -1      3070 9.83618E-04 2.69745E-04-4.06074E-16
 -1      3071 7.77816E-03 6.97393E-04-2.00674E-14
 -1      3072 7.78583E-04-5.15555E-05-3.51160E-16
 -1      3073 7.79921E-04-7.31431E-05-3.50265E-16
 -1      3074 8.99101E-04-9.41130E-05-4.42924E-16
 -1      3075 8.95828E-04-4.59860E-05-4.44970E-16
 -1      3076 5.69187E-03-2.23269E-05-1.38228E-14
 -1      3077 5.59721E-03-2.42184E-04-1.38335E-14
 -1      3078 5.32315E-03-1.54215E-04-1.36952E-14
 -1      3079 5.31756E-03-1.42798E-04-1.34171E-14
 -1      3080 5.29995E-03-1.53254E-04-1.34372E-14
 -1      3081 9.05037E-03 9.28245E-06-2.45068E-14
 -1      3082 1.43999E-02-1.32586E-03-6.22922E-14
 -1      3083 1.44750E-02-1.30073E-03-6.30558E-14
 -1      3084 1.43405E-02-1.25979E-03-6.20615E-14
 -1      3085 1.43029E-02-1.30920E-03-6.15213E-14
 -1      3086 7.56715E-03-1.27412E-03-1.86372E-14
 -1      3087 5.89770E-03 9.19771E-05-1.38828E-14
 -1      3088 6.08192E-03 1.75483E-04-1.42463E-14
 -1      3089 1.04084E-03 2.37036E-04-4.81250E-16
 -1      3090 1.03402E-03 2.05735E-04-4.95142E-16
 -1      3091 9.20348E-03-7.22572E-04-2.52182E-14
 -1      3092 5.58537E-03-2.87722E-05-1.33299E-14
 -1      3093 5.71635E-03 1.83953E-05-1.35487E-14
 -1      3094 7.42249E-03 7.60114E-04-1.84904E-14
 -1      3095 7.53999E-03 7.59705E-04-1.90289E-14
 -1      3096 6.51385E-03-6.90838E-04-1.52784E-14
 -1      3097 1.73230E-03-3.25887E-04-1.28551E-15
 -1      3098 1.87589E-03-3.33847E-04-1.48959E-15
 -1      3099 2.01942E-03-3.39868E-04-1.70939E-15
 -1      3100 2.16290E-03-3.44092E-04-1.94475E-15
 -1      3101 1.93946E-03-3.02335E-04-1.61238E-15
 -1      3102 2.30627E-03-3.46792E-04-2.19521E-15
 -1      3103 2.44954E-03-3.48084E-04-2.46088E-15
 -1      3104 2.22646E-03-3.10373E-04-2.08324E-15
 -1      3105 2.59267E-03-3.48198E-04-2.74264E-15
 -1      3106 2.73566E-03-3.47230E-04-3.03971E-15
 -1      3107 2.51288E-03-3.12923E-04-2.61560E-15
 -1      3108 2.87847E-03-3.45378E-04-3.35097E-15
 -1      3109 3.02112E-03-3.42722E-04-3.67798E-15
 -1      3110 2.79841E-03-3.11231E-04-3.20887E-15
 -1      3111 3.16355E-03-3.39450E-04-4.02044E-15
 -1      3112 3.30579E-03-3.35635E-04-4.37721E-15
 -1      3113 3.08275E-03-3.06380E-04-3.86232E-15
 -1      3114 3.44776E-03-3.31470E-04-4.74904E-15
 -1      3115 3.58951E-03-3.27031E-04-5.13587E-15
 -1      3116 3.36561E-03-2.99371E-04-4.57592E-15
 -1      3117 3.73093E-03-3.22543E-04-5.53781E-15
 -1      3118 3.87211E-03-3.18096E-04-5.95441E-15
 -1      3119 3.64666E-03-2.91214E-04-5.34867E-15
 -1      3120 4.01294E-03-3.13961E-04-6.38557E-15
 -1      3121 4.15353E-03-3.10265E-04-6.83131E-15
 -1      3122 3.92558E-03-2.83034E-04-6.18105E-15
 -1      3123 4.29379E-03-3.07335E-04-7.29080E-15
 -1      3124 4.43393E-03-3.05366E-04-7.76385E-15
 -1      3125 4.20211E-03-2.76170E-04-7.07165E-15
 -1      3126 4.57389E-03-3.04740E-04-8.24967E-15
 -1      3127 4.71404E-03-3.05779E-04-8.74924E-15
 -1      3128 4.47627E-03-2.72261E-04-8.01670E-15
 -1      3129 4.85443E-03-3.08890E-04-9.26346E-15
 -1      3130 4.99571E-03-3.14659E-04-9.78982E-15
 -1      3131 4.74860E-03-2.73342E-04-9.01525E-15
 -1      3132 5.13813E-03-3.23449E-04-1.03304E-14
 -1      3133 5.28280E-03-3.36360E-04-1.08855E-14
 -1      3134 5.02087E-03-2.82032E-04-1.00694E-14
 -1      3135 5.43038E-03-3.53673E-04-1.14538E-14
 -1      3136 5.58253E-03-3.77767E-04-1.20365E-14
 -1      3137 5.29697E-03-3.01829E-04-1.11776E-14
 -1      3138 5.74082E-03-4.08505E-04-1.26345E-14
 -1      3139 5.90693E-03-4.50791E-04-1.32473E-14
 -1      3140 5.58552E-03-3.39351E-04-1.23427E-14
 -1      3141 7.20394E-03-1.10612E-03-1.73757E-14
 -1      3142 9.34425E-03-6.48362E-04-2.56234E-14
 -1      3143 7.58075E-03-1.29432E-03-1.86170E-14
 -1      3144 1.00412E-02-3.60870E-04-2.72717E-14
 -1      3145 1.00119E-02-3.69815E-04-2.71349E-14
 -1      3146 9.77382E-03-6.16511E-04-2.81421E-14
 -1      3147 9.92897E-03-6.10391E-04-2.90781E-14
 -1      3148 1.00787E-02-6.12111E-04-3.00252E-14
 -1      3149 1.02248E-02-6.18552E-04-3.09812E-14
 -1      3150 1.00477E-02-5.66101E-04-2.95461E-14
 -1      3151 1.03681E-02-6.29690E-04-3.19475E-14
 -1      3152 1.05099E-02-6.44082E-04-3.29256E-14
 -1      3153 1.03259E-02-5.86148E-04-3.14602E-14
 -1      3154 1.06505E-02-6.61434E-04-3.39112E-14
 -1      3155 1.07907E-02-6.81057E-04-3.49061E-14
 -1      3156 1.05983E-02-6.18516E-04-3.34128E-14
 -1      3157 1.09306E-02-7.02564E-04-3.59087E-14
 -1      3158 1.10706E-02-7.25590E-04-3.69195E-14
 -1      3159 1.08699E-02-6.59200E-04-3.54003E-14
 -1      3160 1.12106E-02-7.49762E-04-3.79376E-14
 -1      3161 1.13509E-02-7.74873E-04-3.89635E-14
 -1      3162 1.11430E-02-7.05482E-04-3.74229E-14
 -1      3163 1.14914E-02-8.00612E-04-3.99951E-14
 -1      3164 1.16322E-02-8.26856E-04-4.10311E-14
 -1      3165 1.14182E-02-7.55325E-04-3.94724E-14
 -1      3166 1.17732E-02-8.53366E-04-4.20702E-14
 -1      3167 1.19146E-02-8.80071E-04-4.31156E-14
 -1      3168 1.16956E-02-8.07173E-04-4.15444E-14
 -1      3169 1.20561E-02-9.06800E-04-4.41690E-14
 -1      3170 1.21979E-02-9.33514E-04-4.52254E-14
 -1      3171 1.19750E-02-8.59875E-04-4.36383E-14
 -1      3172 1.23398E-02-9.60102E-04-4.62872E-14
 -1      3173 1.24820E-02-9.86543E-04-4.73565E-14
 -1      3174 1.22560E-02-9.12630E-04-4.57534E-14
 -1      3175 1.26242E-02-1.01277E-03-4.84343E-14
 -1      3176 1.27666E-02-1.03878E-03-4.95180E-14
 -1      3177 1.25383E-02-9.64916E-04-4.78948E-14
 -1      3178 1.29090E-02-1.06454E-03-5.06089E-14
 -1      3179 1.30516E-02-1.09005E-03-5.17093E-14
 -1      3180 1.28216E-02-1.01643E-03-5.00655E-14
 -1      3181 1.31942E-02-1.11530E-03-5.28152E-14
 -1      3182 1.33368E-02-1.14030E-03-5.39237E-14
 -1      3183 1.31056E-02-1.06704E-03-5.22636E-14
 -1      3184 1.34795E-02-1.16504E-03-5.50389E-14
 -1      3185 1.36223E-02-1.18955E-03-5.61591E-14
 -1      3186 1.33902E-02-1.11670E-03-5.44818E-14
 -1      3187 1.37651E-02-1.21383E-03-5.72825E-14
 -1      3188 1.39078E-02-1.23790E-03-5.84076E-14
 -1      3189 1.36752E-02-1.16545E-03-5.67172E-14
 -1      3190 1.40339E-02-1.26183E-03-5.93932E-14
 -1      3191 1.41768E-02-1.28554E-03-6.05276E-14
 -1      3192 1.41956E-02-1.26091E-03-6.07988E-14
 -1      3193 1.39437E-02-1.21343E-03-5.88231E-14
 -1      3194 9.39398E-03-1.28495E-04-2.58662E-14
 -1      3195 9.52367E-03-1.81414E-04-2.61966E-14
 -1      3196 2.11269E-03 3.77568E-04-1.69317E-15
 -1      3197 1.96928E-03 3.72241E-04-1.47903E-15
 -1      3198 2.97289E-03 3.80866E-04-3.29420E-15
 -1      3199 2.82945E-03 3.82867E-04-2.98955E-15
 -1      3200 3.83654E-03 3.60490E-04-5.44578E-15
 -1      3201 3.69197E-03 3.64105E-04-5.04803E-15
 -1      3202 4.12700E-03 3.54522E-04-6.28714E-15
 -1      3203 3.98150E-03 3.57226E-04-5.85873E-15
 -1      3204 3.89551E-03 3.22205E-04-5.69676E-15
 -1      3205 4.42009E-03 3.51845E-04-7.18914E-15
 -1      3206 4.27314E-03 3.52629E-04-6.73070E-15
 -1      3207 4.18389E-03 3.16041E-04-6.55400E-15
 -1      3208 4.71720E-03 3.54867E-04-8.15235E-15
 -1      3209 4.56805E-03 3.52450E-04-7.66338E-15
 -1      3210 4.47476E-03 3.13084E-04-7.47273E-15
 -1      3211 5.02019E-03 3.66611E-04-9.17398E-15
 -1      3212 4.86786E-03 3.59391E-04-8.65615E-15
 -1      3213 4.76986E-03 3.15684E-04-8.45129E-15
 -1      3214 5.33132E-03 3.90750E-04-1.02533E-14
 -1      3215 5.17466E-03 3.76806E-04-9.70598E-15
 -1      3216 5.07160E-03 3.26913E-04-9.48745E-15
 -1      3217 5.65275E-03 4.31389E-04-1.13935E-14
 -1      3218 5.49077E-03 4.08651E-04-1.08154E-14
 -1      3219 5.38299E-03 3.50762E-04-1.05820E-14
 -1      3220 5.98536E-03 4.92156E-04-1.25938E-14
 -1      3221 5.81792E-03 4.59016E-04-1.19853E-14
 -1      3222 5.70707E-03 3.92141E-04-1.17371E-14
 -1      3223 6.32699E-03 5.73591E-04-1.38584E-14
 -1      3224 6.15562E-03 5.30434E-04-1.32187E-14
 -1      3225 6.04526E-03 4.56126E-04-1.29535E-14
 -1      3226 6.67063E-03 6.68645E-04-1.51842E-14
 -1      3227 6.49935E-03 6.20463E-04-1.45141E-14
 -1      3228 6.39486E-03 5.44124E-04-1.42330E-14
 -1      3229 7.00704E-03 7.57029E-04-1.65738E-14
 -1      3230 6.84031E-03 7.15867E-04-1.58700E-14
 -1      3231 6.74694E-03 6.48657E-04-1.55740E-14
 -1      3232 7.43623E-03 8.02528E-04-1.85332E-14
 -1      3233 7.27616E-03 7.93714E-04-1.77900E-14
 -1      3234 7.59498E-03 7.90827E-04-1.92924E-14
 -1      3235 7.96177E-03 7.10379E-04-2.11057E-14
 -1      3236 7.80008E-03 7.59411E-04-2.03097E-14
 -1      3237 8.29417E-03 5.82541E-04-2.27477E-14
 -1      3238 8.12624E-03 6.49514E-04-2.19181E-14
 -1      3239 8.06163E-03 6.50597E-04-2.15546E-14
 -1      3240 8.63581E-03 4.42868E-04-2.44536E-14
 -1      3241 8.46456E-03 5.12307E-04-2.35919E-14
 -1      3242 8.40517E-03 5.07462E-04-2.32131E-14
 -1      3243 8.97744E-03 3.13438E-04-2.62261E-14
 -1      3244 8.80741E-03 3.75988E-04-2.53326E-14
 -1      3245 8.75499E-03 3.63728E-04-2.49372E-14
 -1      3246 9.31148E-03 2.03786E-04-2.80611E-14
 -1      3247 9.14590E-03 2.56075E-04-2.71355E-14
 -1      3248 9.09992E-03 2.38370E-04-2.67271E-14
 -1      3249 9.63484E-03 1.14248E-04-2.99448E-14
 -1      3250 9.47464E-03 1.56720E-04-2.89964E-14
 -1      3251 9.43296E-03 1.36384E-04-2.85736E-14
 -1      3252 9.94794E-03 4.17948E-05-3.18821E-14
 -1      3253 9.79264E-03 7.61976E-05-3.09076E-14
 -1      3254 9.75281E-03 5.48519E-05-3.04739E-14
 -1      3255 1.02527E-02-1.75843E-05-3.38667E-14
 -1      3256 1.01012E-02 1.07553E-05-3.28687E-14
 -1      3257 1.00614E-02-1.08056E-05-3.24228E-14
 -1      3258 1.05512E-02-6.75886E-05-3.58941E-14
 -1      3259 1.04026E-02-4.35313E-05-3.48755E-14
 -1      3260 1.03615E-02-6.50682E-05-3.44180E-14
 -1      3261 1.08454E-02-1.11263E-04-3.79647E-14
 -1      3262 1.06988E-02-9.00461E-05-3.69235E-14
 -1      3263 1.06558E-02-1.11539E-04-3.64558E-14
 -1      3264 1.11368E-02-1.50975E-04-4.00715E-14
 -1      3265 1.09914E-02-1.31490E-04-3.90145E-14
 -1      3266 1.09463E-02-1.52970E-04-3.85338E-14
 -1      3267 1.14263E-02-1.88485E-04-4.22082E-14
 -1      3268 1.12817E-02-1.69918E-04-4.11365E-14
 -1      3269 1.12346E-02-1.91403E-04-4.06442E-14
 -1      3270 1.17145E-02-2.25049E-04-4.43792E-14
 -1      3271 1.15705E-02-2.06827E-04-4.32889E-14
 -1      3272 1.15216E-02-2.28314E-04-4.27879E-14
 -1      3273 1.20020E-02-2.61517E-04-4.65787E-14
 -1      3274 1.18583E-02-2.43258E-04-4.54757E-14
 -1      3275 1.18079E-02-2.64728E-04-4.49624E-14
 -1      3276 1.22889E-02-2.98429E-04-4.88026E-14
 -1      3277 1.21455E-02-2.79896E-04-4.76873E-14
 -1      3278 1.20937E-02-3.01325E-04-4.71657E-14
 -1      3279 1.25755E-02-3.36093E-04-5.10441E-14
 -1      3280 1.24322E-02-3.17156E-04-4.99232E-14
 -1      3281 1.23795E-02-3.38521E-04-4.93902E-14
 -1      3282 1.28618E-02-3.74652E-04-5.32949E-14
 -1      3283 1.27186E-02-3.55257E-04-5.21682E-14
 -1      3284 1.26651E-02-3.76541E-04-5.16295E-14
 -1      3285 1.31479E-02-4.14141E-04-5.55499E-14
 -1      3286 1.30049E-02-3.94282E-04-5.44212E-14
 -1      3287 1.29508E-02-4.15473E-04-5.38742E-14
 -1      3288 1.34340E-02-4.54520E-04-5.78087E-14
 -1      3289 1.32910E-02-4.34223E-04-5.66788E-14
 -1      3290 1.32365E-02-4.55319E-04-5.61256E-14
 -1      3291 1.37199E-02-4.95707E-04-6.00724E-14
 -1      3292 1.35769E-02-4.75018E-04-5.89393E-14
 -1      3293 1.35221E-02-4.96017E-04-5.83811E-14
 -1      3294 1.39266E-02-5.38670E-04-6.16591E-14
 -1      3295 1.38112E-02-5.14403E-04-6.07739E-14
 -1      3296 1.37563E-02-5.35310E-04-6.02106E-14
 -1      3297 1.39387E-02-5.72830E-04-6.16135E-14
 -1      3298 1.41388E-02-1.02999E-03-6.13078E-14
 -1      3299 1.41175E-02-9.89693E-04-6.13021E-14
 -1      3300 8.50180E-03 3.35265E-04-2.30536E-14
 -1      3301 8.71886E-03 2.09666E-04-2.38082E-14
 -1      3302 1.42250E-02-1.19429E-03-6.13393E-14
 -1      3303 1.42034E-02-1.15299E-03-6.13300E-14
 -1      3304 1.40957E-02-9.48732E-04-6.12919E-14
 -1      3305 1.40739E-02-9.07776E-04-6.12840E-14
 -1      3306 1.39834E-02-9.49463E-04-6.03224E-14
 -1      3307 2.68609E-03 3.84044E-04-2.70004E-15
 -1      3308 2.54274E-03 3.84293E-04-2.42585E-15
 -1      3309 2.74936E-03 3.47530E-04-2.88058E-15
 -1      3310 1.41820E-02-1.11197E-03-6.13250E-14
 -1      3311 1.41604E-02-1.07086E-03-6.13154E-14
 -1      3312 1.40266E-02-1.03096E-03-6.03369E-14
 -1      3313 1.40695E-02-1.11255E-03-6.03490E-14
 -1      3314 3.54775E-03 3.67849E-04-4.66611E-15
 -1      3315 3.40378E-03 3.71571E-04-4.30011E-15
 -1      3316 3.60847E-03 3.29767E-04-4.89975E-15
 -1      3317 3.26001E-03 3.75072E-04-3.94919E-15
 -1      3318 3.11639E-03 3.78232E-04-3.61367E-15
 -1      3319 3.03575E-03 3.43576E-04-3.49213E-15
 -1      3320 3.32203E-03 3.37291E-04-4.16487E-15
 -1      3321 9.48028E-03-6.36808E-04-2.64164E-14
 -1      3322 9.64755E-03-6.13511E-04-2.73308E-14
 -1      3323 9.78858E-03-5.52636E-04-2.77889E-14
 -1      3324 9.55625E-03-5.44794E-04-2.61793E-14
 -1      3325 9.95263E-03-3.86935E-04-2.69532E-14
 -1      3326 9.86715E-03-4.12623E-04-2.67710E-14
 -1      3327 1.00290E-02-3.91058E-04-2.76393E-14
 -1      3328 9.70815E-03-4.80855E-04-2.65370E-14
 -1      3329 6.04144E-03-4.26430E-04-1.44229E-14
 -1      3330 5.85070E-03-3.49642E-04-1.39623E-14
 -1      3331 2.39941E-03 3.83397E-04-2.16679E-15
 -1      3332 2.25606E-03 3.81241E-04-1.92258E-15
 -1      3333 2.46274E-03 3.48052E-04-2.32884E-15
 -1      3334 1.44530E-03-3.03061E-04-9.22006E-16
 -1      3335 1.58877E-03-3.15684E-04-1.09614E-15
 -1      3336 1.65234E-03-2.87351E-04-1.20216E-15
 -1      3337 7.99797E-04-1.87292E-04-3.35398E-16
 -1      3338 8.07840E-04-2.10943E-04-3.31020E-16
 -1      3339 9.37173E-04-2.40665E-04-4.23842E-16
 -1      3340 9.17797E-04-1.93735E-04-4.29967E-16
 -1      3341 1.14578E-03 3.02977E-04-5.29795E-16
 -1      3342 1.08302E-03 2.64824E-04-5.00535E-16
 -1      3343 1.20200E-03 2.65250E-04-6.17101E-16
 -1      3344 1.28906E-03 3.23442E-04-6.58504E-16
 -1      3345 9.99880E-03-3.33531E-04-2.74625E-14
 -1      3346 1.00430E-02-3.48762E-04-2.74217E-14
 -1      3347 8.97739E-03 6.99400E-05-2.46525E-14
 -1      3348 9.18897E-03-3.78356E-05-2.52567E-14
 -1      3349 9.32057E-03-7.10193E-05-2.60163E-14
 -1      3350 5.62038E-03-2.59801E-04-1.35605E-14
 -1      3351 5.49923E-03-2.18856E-04-1.34226E-14
 -1      3352 9.71510E-03-2.50272E-04-2.67213E-14
 -1      3353 9.87993E-03-2.96862E-04-2.72510E-14
 -1      3354 9.69817E-03-2.22609E-04-2.71667E-14
 -1      3355 6.30286E-03 2.88444E-04-1.47136E-14
 -1      3356 6.49360E-03 3.85819E-04-1.52012E-14
 -1      3357 6.68532E-03 4.78366E-04-1.57730E-14
 -1      3358 6.83847E-03 5.60760E-04-1.62378E-14
 -1      3359 7.72787E-03 7.23478E-04-1.98811E-14
 -1      3360 7.89447E-03 6.61595E-04-2.06177E-14
 -1      3361 1.01570E-03 6.58550E-05-5.38455E-16
 -1      3362 1.01439E-03 3.97737E-05-5.43023E-16
 -1      3363 6.38484E-03-6.26849E-04-1.48766E-14
 -1      3364 1.01372E-03 1.39316E-05-5.46465E-16
 -1      3365 1.01369E-03-1.18009E-05-5.48823E-16
 -1      3366 1.13392E-03 2.89993E-05-6.60103E-16
 -1      3367 1.15317E-03 2.05274E-04-6.09593E-16
 -1      3368 1.02843E-03 1.75869E-04-5.06905E-16
 -1      3369 1.02398E-03 1.47154E-04-5.17097E-16
 -1      3370 9.82835E-03-4.67830E-04-2.72204E-14
 -1      3371 5.49956E-03-5.02501E-05-1.31131E-14
 -1      3372 5.51395E-03-1.23770E-05-1.28459E-14
 -1      3373 5.42071E-03-6.55132E-05-1.28977E-14
 -1      3374 1.00933E-02-3.63420E-04-2.79764E-14
 -1      3375 1.43241E-03 3.40576E-04-8.01591E-16
 -1      3376 1.38825E-03 3.10974E-04-7.79487E-16
 -1      3377 1.57590E-03 3.54666E-04-9.59614E-16
 -1      3378 7.99486E-03 6.25310E-04-2.10956E-14
 -1      3379 7.65387E-03 7.50103E-04-1.95622E-14
 -1      3380 1.03423E-03-2.33009E-04-5.16907E-16
 -1      3381 1.04487E-03-2.58329E-04-5.12977E-16
 -1      3382 1.15307E-03-2.74050E-04-6.10961E-16
 -1      3383 6.02935E-03-4.78548E-04-1.37507E-14
 -1      3384 6.21215E-03-5.46142E-04-1.43916E-14
 -1      3385 1.39639E-02-7.02918E-04-6.12464E-14
 -1      3386 1.39419E-02-6.61947E-04-6.12409E-14
 -1      3387 6.54173E-03 4.45540E-04-1.51962E-14
 -1      3388 2.17583E-03 3.43930E-04-1.83715E-15
 -1      3389 7.19829E-03 7.56146E-04-1.74696E-14
 -1      3390 8.39304E-03 4.11271E-04-2.27258E-14
 -1      3391 1.40081E-02-7.85268E-04-6.12613E-14
 -1      3392 1.39860E-02-7.44136E-04-6.12559E-14
 -1      3393 1.38517E-02-7.05219E-04-6.02757E-14
 -1      3394 8.87479E-03 1.48594E-04-2.45456E-14
 -1      3395 1.40521E-02-8.67069E-04-6.12774E-14
 -1      3396 1.40301E-02-8.26064E-04-6.12680E-14
 -1      3397 1.38960E-02-7.86953E-04-6.02909E-14
 -1      3398 1.39398E-02-8.68135E-04-6.03055E-14
 -1      3399 5.32318E-03-1.26022E-04-1.31639E-14
 -1      3400 5.33285E-03-1.04978E-04-1.29104E-14
 -1      3401 5.27360E-03-1.27855E-04-1.29109E-14
 -1      3402 9.99440E-03-3.22044E-04-2.79176E-14
 -1      3403 1.00926E-02-3.41335E-04-2.85870E-14
 -1      3404 9.98953E-03-3.06190E-04-2.83711E-14
 -1      3405 1.84431E-03 3.70006E-04-1.29990E-15
 -1      3406 1.70084E-03 3.60809E-04-1.11375E-15
 -1      3407 1.65676E-03 3.31539E-04-1.08725E-15
 -1      3408 1.90709E-03 3.38598E-04-1.42615E-15
 -1      3409 6.93382E-03 6.26187E-04-1.65004E-14
 -1      3410 1.01769E-03 9.22661E-05-5.32696E-16
 -1      3411 1.13692E-03 8.52824E-05-6.49302E-16
 -1      3412 1.02040E-03 1.19249E-04-5.25689E-16
 -1      3413 5.41573E-03-1.96508E-04-1.31896E-14
 -1      3414 5.34357E-03-1.80790E-04-1.29587E-14
 -1      3415 5.42672E-03-2.11643E-04-1.29236E-14
 -1      3416 5.84788E-03-3.87254E-04-1.34438E-14
 -1      3417 1.02353E-03-1.44451E-04-5.42752E-16
 -1      3418 1.02786E-03-1.73043E-04-5.37642E-16
 -1      3419 1.26154E-03-2.87704E-04-7.18040E-16
 -1      3420 1.32508E-03-2.64587E-04-8.04451E-16
 -1      3421 5.28570E-03-1.55766E-04-1.31946E-14
 -1      3422 5.25299E-03-1.45806E-04-1.29219E-14
 -1      3423 5.28059E-03-1.59396E-04-1.29525E-14
 -1      3424 5.76750E-03 7.39867E-05-1.33865E-14
 -1      3425 6.15219E-03 2.51927E-04-1.41734E-14
 -1      3426 1.42009E-02-1.23986E-03-6.09360E-14
 -1      3427 1.42198E-02-1.21529E-03-6.12051E-14
 -1      3428 1.40856E-02-1.17439E-03-6.02186E-14
 -1      3429 1.40749E-02-1.21626E-03-5.99471E-14
 -1      3430 7.30876E-03 7.52735E-04-1.79751E-14
 -1      3431 1.01745E-03-8.98595E-05-5.48769E-16
 -1      3432 1.02008E-03-1.16770E-04-5.46451E-16
 -1      3433 1.14270E-03-1.40832E-04-6.60550E-16
 -1      3434 3.66818E-03 2.92112E-04-5.13500E-15
 -1      3435 3.52579E-03 2.96071E-04-4.75078E-15
 -1      3436 8.79019E-03 2.25387E-04-2.44858E-14
 -1      3437 9.02625E-03 1.00110E-04-2.53446E-14
 -1      3438 1.02456E-03-2.08703E-04-5.19943E-16
 -1      3439 1.14365E-03-2.08622E-04-6.36969E-16
 -1      3440 2.14721E-03-2.74169E-04-1.97237E-15
 -1      3441 2.29054E-03-2.76529E-04-2.22333E-15
 -1      3442 2.43364E-03-2.77738E-04-2.48955E-15
 -1      3443 2.57649E-03-2.77879E-04-2.77144E-15
 -1      3444 2.35506E-03-2.42647E-04-2.36496E-15
 -1      3445 2.71900E-03-2.77144E-04-3.06780E-15
 -1      3446 2.86115E-03-2.75598E-04-3.37911E-15
 -1      3447 2.64033E-03-2.43057E-04-2.92762E-15
 -1      3448 3.00284E-03-2.73421E-04-3.70553E-15
 -1      3449 3.14407E-03-2.70664E-04-4.04730E-15
 -1      3450 2.92388E-03-2.40441E-04-3.55049E-15
 -1      3451 3.28472E-03-2.67512E-04-4.40391E-15
 -1      3452 3.42480E-03-2.64003E-04-4.77493E-15
 -1      3453 3.20514E-03-2.35683E-04-4.23278E-15
 -1      3454 3.56419E-03-2.60343E-04-5.16087E-15
 -1      3455 3.70288E-03-2.56566E-04-5.56204E-15
 -1      3456 3.48352E-03-2.29633E-04-4.97459E-15
 -1      3457 3.84073E-03-2.52908E-04-5.97778E-15
 -1      3458 3.97778E-03-2.49405E-04-6.40823E-15
 -1      3459 3.75837E-03-2.23178E-04-5.77557E-15
 -1      3460 4.11386E-03-2.46334E-04-6.85303E-15
 -1      3461 4.24906E-03-2.43737E-04-7.31183E-15
 -1      3462 4.02900E-03-2.17284E-04-6.63575E-15
 -1      3463 4.38318E-03-2.41932E-04-7.78384E-15
 -1      3464 4.51644E-03-2.40979E-04-8.26916E-15
 -1      3465 4.29470E-03-2.13023E-04-7.55208E-15
 -1      3466 4.64861E-03-2.41221E-04-8.76863E-15
 -1      3467 4.78015E-03-2.42777E-04-9.28204E-15
 -1      3468 4.55483E-03-2.11556E-04-8.52341E-15
 -1      3469 4.91079E-03-2.45974E-04-9.80807E-15
 -1      3470 5.04150E-03-2.51160E-04-1.03483E-14
 -1      3471 4.80903E-03-2.14081E-04-9.54784E-15
 -1      3472 5.17190E-03-2.58634E-04-1.09024E-14
 -1      3473 5.30382E-03-2.68794E-04-1.14701E-14
 -1      3474 5.05785E-03-2.21950E-04-1.06277E-14
 -1      3475 5.49460E-03-2.75500E-04-1.24468E-14
 -1      3476 5.62984E-03-2.97845E-04-1.30532E-14
 -1      3477 5.75172E-03-3.29901E-04-1.34585E-14
 -1      3478 1.00260E-02-5.21519E-04-2.90699E-14
 -1      3479 1.01586E-02-5.31231E-04-3.00163E-14
 -1      3480 1.01142E-02-3.99919E-04-2.84509E-14
 -1      3481 1.00615E-02-4.17017E-04-2.82644E-14
 -1      3482 1.34486E-03 2.82139E-04-7.56299E-16
 -1      3483 1.30226E-03 2.54047E-04-7.31782E-16
 -1      3484 1.48812E-03 2.96291E-04-9.09984E-16
 -1      3485 6.43125E-03 4.36857E-04-1.47062E-14
 -1      3486 6.60769E-03 5.16195E-04-1.52664E-14
 -1      3487 1.02889E-02-5.44367E-04-3.09726E-14
 -1      3488 1.04195E-02-5.59843E-04-3.19390E-14
 -1      3489 1.02571E-02-5.04127E-04-3.04852E-14
 -1      3490 1.05495E-02-5.77502E-04-3.29148E-14
 -1      3491 1.06804E-02-5.96891E-04-3.39012E-14
 -1      3492 1.05039E-02-5.38383E-04-3.24185E-14
 -1      3493 1.08118E-02-6.17741E-04-3.48949E-14
 -1      3494 1.09442E-02-6.39876E-04-3.58971E-14
 -1      3495 1.07558E-02-5.78217E-04-3.43886E-14
 -1      3496 1.10774E-02-6.62992E-04-3.69072E-14
 -1      3497 1.12116E-02-6.87011E-04-3.79246E-14
 -1      3498 1.10134E-02-6.22332E-04-3.63929E-14
 -1      3499 1.13466E-02-7.11642E-04-3.89503E-14
 -1      3500 1.14826E-02-7.36842E-04-3.99827E-14
 -1      3501 1.12764E-02-6.69608E-04-3.84286E-14
 -1      3502 1.16193E-02-7.62365E-04-4.10189E-14
 -1      3503 1.17568E-02-7.88186E-04-4.20584E-14
 -1      3504 1.15442E-02-7.18993E-04-4.04906E-14
 -1      3505 1.18950E-02-8.14112E-04-4.31050E-14
 -1      3506 1.20338E-02-8.40133E-04-4.41605E-14
 -1      3507 1.18160E-02-7.69566E-04-4.25748E-14
 -1      3508 1.21731E-02-8.66109E-04-4.52189E-14
 -1      3509 1.23130E-02-8.92037E-04-4.62833E-14
 -1      3510 1.20911E-02-8.20595E-04-4.46823E-14
 -1      3511 1.24532E-02-9.17822E-04-4.73556E-14
 -1      3512 1.25939E-02-9.43471E-04-4.84363E-14
 -1      3513 1.23689E-02-8.71546E-04-4.68173E-14
 -1      3514 1.27349E-02-9.68923E-04-4.95232E-14
 -1      3515 1.28761E-02-9.94189E-04-5.06153E-14
 -1      3516 1.26487E-02-9.22066E-04-4.89788E-14
 -1      3517 1.30176E-02-1.01924E-03-5.17140E-14
 -1      3518 1.31594E-02-1.04408E-03-5.28186E-14
 -1      3519 1.29301E-02-9.71948E-04-5.11669E-14
 -1      3520 1.33013E-02-1.06870E-03-5.39284E-14
 -1      3521 1.34434E-02-1.09312E-03-5.50399E-14
 -1      3522 1.32127E-02-1.02110E-03-5.33749E-14
 -1      3523 1.35856E-02-1.11733E-03-5.61553E-14
 -1      3524 1.37279E-02-1.14135E-03-5.72766E-14
 -1      3525 1.34963E-02-1.06951E-03-5.55965E-14
 -1      3526 1.39464E-02-6.34466E-04-6.14031E-14
 -1      3527 1.39341E-02-6.00473E-04-6.14487E-14
 -1      3528 1.38429E-02-5.81672E-04-6.07476E-14
 -1      3529 1.38339E-02-6.36691E-04-6.04251E-14
 -1      3530 1.57343E-03-2.49682E-04-1.11948E-15
 -1      3531 1.71678E-03-2.58379E-04-1.31018E-15
 -1      3532 3.95312E-03 2.84343E-04-5.94869E-15
 -1      3533 3.81057E-03 2.88159E-04-5.53462E-15
 -1      3534 3.72690E-03 2.54944E-04-5.37165E-15
 -1      3535 4.81986E-03 2.76090E-04-8.75064E-15
 -1      3536 4.67284E-03 2.74358E-04-8.24614E-15
 -1      3537 5.11985E-03 2.86161E-04-9.80054E-15
 -1      3538 4.96872E-03 2.79756E-04-9.26817E-15
 -1      3539 4.86707E-03 2.35898E-04-9.04984E-15
 -1      3540 5.43105E-03 3.08967E-04-1.09116E-14
 -1      3541 5.27384E-03 2.95494E-04-1.03489E-14
 -1      3542 5.16470E-03 2.44069E-04-1.01156E-14
 -1      3543 5.75760E-03 3.50453E-04-1.20812E-14
 -1      3544 5.59231E-03 3.26742E-04-1.14888E-14
 -1      3545 5.47520E-03 2.65054E-04-1.12405E-14
 -1      3546 6.10228E-03 4.17722E-04-1.33125E-14
 -1      3547 5.92792E-03 3.80211E-04-1.26888E-14
 -1      3548 5.80403E-03 3.06253E-04-1.24249E-14
 -1      3549 6.53470E-03 5.52279E-04-1.48345E-14
 -1      3550 6.35521E-03 4.99320E-04-1.41737E-14
 -1      3551 8.26985E-03 5.00132E-04-2.23453E-14
 -1      3552 8.49613E-03 3.82471E-04-2.33107E-14
 -1      3553 7.68519E-03 7.58536E-04-1.97194E-14
 -1      3554 8.47952E-03 4.50482E-04-2.34918E-14
 -1      3555 8.30190E-03 5.27936E-04-2.26488E-14
 -1      3556 9.23405E-03 1.55124E-04-2.72373E-14
 -1      3557 9.06313E-03 2.10642E-04-2.63274E-14
 -1      3558 9.56380E-03 6.34047E-05-2.90987E-14
 -1      3559 9.40130E-03 1.06688E-04-2.81631E-14
 -1      3560 9.37309E-03 7.44546E-05-2.77507E-14
 -1      3561 9.87804E-03-8.83695E-06-3.10115E-14
 -1      3562 9.72270E-03 2.53246E-05-3.00476E-14
 -1      3563 9.69621E-03-6.01699E-06-2.96266E-14
 -1      3564 1.01805E-02-6.72002E-05-3.29742E-14
 -1      3565 1.00305E-02-3.93430E-05-3.19862E-14
 -1      3566 1.00029E-02-6.89400E-05-3.15501E-14
 -1      3567 1.04750E-02-1.16284E-04-3.49790E-14
 -1      3568 1.03285E-02-9.26221E-05-3.39718E-14
 -1      3569 1.02983E-02-1.20552E-04-3.35236E-14
 -1      3570 1.07643E-02-1.59365E-04-3.70229E-14
 -1      3571 1.06201E-02-1.38387E-04-3.59962E-14
 -1      3572 1.05867E-02-1.65124E-04-3.55369E-14
 -1      3573 1.10508E-02-1.98778E-04-3.91069E-14
 -1      3574 1.09078E-02-1.79405E-04-3.80601E-14
 -1      3575 1.08712E-02-2.05428E-04-3.75897E-14
 -1      3576 1.13357E-02-2.36173E-04-4.12226E-14
 -1      3577 1.11934E-02-2.17644E-04-4.01613E-14
 -1      3578 1.11537E-02-2.43321E-04-3.96780E-14
 -1      3579 1.16200E-02-2.72709E-04-4.33720E-14
 -1      3580 1.14779E-02-2.54494E-04-4.22925E-14
 -1      3581 1.14355E-02-2.80061E-04-4.17991E-14
 -1      3582 1.19042E-02-3.09169E-04-4.55516E-14
 -1      3583 1.17621E-02-2.90914E-04-4.44570E-14
 -1      3584 1.17174E-02-3.16505E-04-4.39528E-14
 -1      3585 1.21884E-02-3.46057E-04-4.77551E-14
 -1      3586 1.20463E-02-3.27540E-04-4.66521E-14
 -1      3587 1.19997E-02-3.53214E-04-4.61369E-14
 -1      3588 1.24729E-02-3.83669E-04-4.99793E-14
 -1      3589 1.23306E-02-3.64763E-04-4.88648E-14
 -1      3590 1.22825E-02-3.90538E-04-4.83423E-14
 -1      3591 1.27577E-02-4.22149E-04-5.22115E-14
 -1      3592 1.26153E-02-4.02798E-04-5.10939E-14
 -1      3593 1.25659E-02-4.28666E-04-5.05615E-14
 -1      3594 1.30426E-02-4.61534E-04-5.44543E-14
 -1      3595 1.29001E-02-4.41729E-04-5.33346E-14
 -1      3596 1.28499E-02-4.67672E-04-5.27932E-14
 -1      3597 1.33278E-02-5.01795E-04-5.67013E-14
 -1      3598 1.31852E-02-4.81559E-04-5.55760E-14
 -1      3599 1.31343E-02-5.07556E-04-5.50311E-14
 -1      3600 2.81264E-03 3.11100E-04-3.06303E-15
 -1      3601 2.66958E-03 3.12321E-04-2.77085E-15
 -1      3602 4.52725E-03 2.74364E-04-7.75661E-15
 -1      3603 4.38272E-03 2.75600E-04-7.28183E-15
 -1      3604 4.57750E-03 2.35589E-04-8.04170E-15
 -1      3605 1.01538E-02-3.68549E-04-2.87613E-14
 -1      3606 1.01472E-02-3.82225E-04-2.86071E-14
 -1      3607 1.01987E-02-4.04575E-04-2.92425E-14
 -1      3608 1.32624E-03-2.22725E-04-8.28683E-16
 -1      3609 2.23957E-03 3.10030E-04-1.98362E-15
 -1      3610 2.09600E-03 3.06825E-04-1.75061E-15
 -1      3611 1.38713E-02-9.50362E-04-5.93527E-14
 -1      3612 1.38496E-02-9.09745E-04-5.93437E-14
 -1      3613 2.52638E-03 3.12624E-04-2.49369E-15
 -1      3614 2.38303E-03 3.11929E-04-2.23127E-15
 -1      3615 2.59026E-03 2.77216E-04-2.66077E-15
 -1      3616 6.12326E-03-4.78077E-04-1.44250E-14
 -1      3617 1.01429E-03-3.75704E-05-5.49894E-16
 -1      3618 1.01552E-03-6.35042E-05-5.49812E-16
 -1      3619 1.13668E-03-8.28128E-05-6.65863E-16
 -1      3620 8.86176E-03 2.88616E-04-2.53289E-14
 -1      3621 8.68409E-03 3.58627E-04-2.44512E-14
 -1      3622 8.58660E-03 3.73162E-04-2.38692E-14
 -1      3623 9.00238E-03 1.96828E-04-2.58246E-14
 -1      3624 9.92427E-03-4.82280E-04-2.80321E-14
 -1      3625 9.66579E-03-1.82870E-04-2.75750E-14
 -1      3626 9.83465E-03-2.44259E-04-2.81141E-14
 -1      3627 4.23902E-03 2.77866E-04-6.82211E-15
 -1      3628 4.09587E-03 2.80845E-04-6.37801E-15
 -1      3629 4.00937E-03 2.46928E-04-6.20153E-15
 -1      3630 4.29240E-03 2.39973E-04-7.09147E-15
 -1      3631 9.26558E-03-1.64977E-05-2.61848E-14
 -1      3632 9.45140E-03-9.94712E-05-2.68083E-14
 -1      3633 1.86024E-03-2.65263E-04-1.51608E-15
 -1      3634 2.00377E-03-2.70448E-04-1.73668E-15
 -1      3635 2.06869E-03-2.38247E-04-1.86266E-15
 -1      3636 1.26649E-03-1.69205E-04-7.83512E-16
 -1      3637 1.44613E-03-2.19236E-04-9.73288E-16
 -1      3638 1.51198E-03-1.93083E-04-1.06753E-15
 -1      3639 1.26212E-03-1.37599E-04-7.88323E-16
 -1      3640 5.98985E-03 2.18638E-04-1.35778E-14
 -1      3641 6.18667E-03 3.18412E-04-1.40299E-14
 -1      3642 5.62729E-03 6.47265E-05-1.28066E-14
 -1      3643 5.78794E-03 1.30469E-04-1.31280E-14
 -1      3644 5.35510E-03-2.28648E-04-1.21519E-14
 -1      3645 1.29503E-03 2.19842E-04-7.48533E-16
 -1      3646 9.17424E-03 5.72826E-05-2.61252E-14
 -1      3647 5.34292E-03-7.82074E-05-1.26482E-14
 -1      3648 5.35008E-03-4.70524E-05-1.23876E-14
 -1      3649 5.27354E-03-8.60662E-05-1.24026E-14
 -1      3650 1.25534E-03 4.58535E-05-7.84081E-16
 -1      3651 1.25449E-03 1.60560E-05-7.88689E-16
 -1      3652 5.45660E-03 1.49892E-05-1.23876E-14
 -1      3653 5.54006E-03 3.73854E-05-1.25968E-14
 -1      3654 5.55478E-03 8.97888E-05-1.23462E-14
 -1      3655 1.78192E-03-2.28786E-04-1.42052E-15
 -1      3656 1.01476E-02-4.55351E-04-2.93088E-14
 -1      3657 1.00397E-02-4.49412E-04-2.84882E-14
 -1      3658 6.26184E-03 3.92457E-04-1.40953E-14
 -1      3659 7.02592E-03 7.00341E-04-1.67572E-14
 -1      3660 1.37069E-02-6.25349E-04-5.93885E-14
 -1      3661 1.37112E-02-5.97962E-04-5.95470E-14
 -1      3662 1.38384E-02-1.16697E-03-5.81174E-14
 -1      3663 1.39642E-02-1.19077E-03-5.90989E-14
 -1      3664 1.39696E-02-1.16991E-03-5.92376E-14
 -1      3665 1.37486E-02-1.11897E-03-5.75522E-14
 -1      3666 6.83236E-03 6.22615E-04-1.60188E-14
 -1      3667 1.39143E-02-1.03138E-03-5.93630E-14
 -1      3668 1.38928E-02-9.90841E-04-5.93570E-14
 -1      3669 1.37592E-02-9.50886E-04-5.83815E-14
 -1      3670 3.09828E-03 3.06522E-04-3.69240E-15
 -1      3671 2.95553E-03 3.09143E-04-3.37022E-15
 -1      3672 2.87587E-03 2.74861E-04-3.24786E-15
 -1      3673 6.65028E-03 5.61461E-04-1.53318E-14
 -1      3674 7.86810E-03 7.02834E-04-2.05893E-14
 -1      3675 8.16792E-03 5.82753E-04-2.20057E-14
 -1      3676 7.99494E-03 6.54445E-04-2.11917E-14
 -1      3677 1.34818E-02-5.31191E-04-5.78833E-14
 -1      3678 1.34304E-02-5.57178E-04-5.73301E-14
 -1      3679 1.25702E-03 7.57819E-05-7.78023E-16
 -1      3680 1.37787E-03 6.40663E-05-9.17967E-16
 -1      3681 1.25953E-03 1.06121E-04-7.70244E-16
 -1      3682 7.97151E-03 6.46438E-04-2.10270E-14
 -1      3683 1.37292E-02-6.66461E-04-5.93951E-14
 -1      3684 1.36067E-02-6.27870E-04-5.85182E-14
 -1      3685 1.37516E-02-7.07441E-04-5.94055E-14
 -1      3686 1.36245E-02-5.51844E-04-5.90100E-14
 -1      3687 1.37517E-02-5.62943E-04-6.00493E-14
 -1      3688 5.83060E-03 1.95278E-04-1.29912E-14
 -1      3689 5.23029E-03-1.32329E-04-1.26731E-14
 -1      3690 5.21685E-03-1.16708E-04-1.24268E-14
 -1      3691 5.19840E-03-1.35507E-04-1.24383E-14
 -1      3692 1.38279E-02-8.69397E-04-5.93360E-14
 -1      3693 1.38060E-02-8.29026E-04-5.93283E-14
 -1      3694 1.37161E-02-8.70478E-04-5.83687E-14
 -1      3695 9.61476E-03-1.36047E-04-2.77508E-14
 -1      3696 9.96991E-03-2.79622E-04-2.87922E-14
 -1      3697 1.00923E-02-3.07821E-04-2.94755E-14
 -1      3698 9.95423E-03-2.48065E-04-2.92124E-14
 -1      3699 1.01785E-02-3.61580E-04-2.92256E-14
 -1      3700 1.02556E-02-3.81353E-04-2.98694E-14
 -1      3701 1.01974E-02-3.52350E-04-2.96928E-14
 -1      3702 8.13084E-03 5.62790E-04-2.17059E-14
 -1      3703 1.97070E-03 3.06745E-04-1.55546E-15
 -1      3704 1.84538E-03 3.05321E-04-1.37225E-15
 -1      3705 2.03498E-03 2.74512E-04-1.68808E-15
 -1      3706 1.13384E-03-2.66561E-05-6.65470E-16
 -1      3707 1.14314E-03 1.43595E-04-6.32835E-16
 -1      3708 3.44409E-03 2.62881E-04-4.60207E-15
 -1      3709 3.38338E-03 2.99867E-04-4.38271E-15
 -1      3710 3.24088E-03 3.03405E-04-4.02972E-15
 -1      3711 2.30379E-03 2.75953E-04-2.13280E-15
 -1      3712 5.27615E-03-1.65852E-04-1.26902E-14
 -1      3713 5.21933E-03-1.54180E-04-1.24251E-14
 -1      3714 5.27336E-03-1.75259E-04-1.24306E-14
 -1      3715 1.39750E-02-1.14907E-03-5.93722E-14
 -1      3716 1.38512E-02-1.11370E-03-5.84595E-14
 -1      3717 1.39670E-02-1.11823E-03-5.94374E-14
 -1      3718 1.39457E-02-1.07747E-03-5.94335E-14
 -1      3719 1.37409E-02-1.08834E-03-5.76197E-14
 -1      3720 9.82904E-03-7.12263E-05-3.01518E-14
 -1      3721 9.67493E-03-3.91293E-05-2.92025E-14
 -1      3722 2.27732E-03-2.07759E-04-2.24174E-15
 -1      3723 2.42012E-03-2.08784E-04-2.50800E-15
 -1      3724 1.45172E-03 2.28846E-04-9.21599E-16
 -1      3725 1.30323E-03 1.83555E-04-7.80531E-16
 -1      3726 2.56255E-03-2.09020E-04-2.78922E-15
 -1      3727 2.70454E-03-2.08519E-04-3.08538E-15
 -1      3728 2.48568E-03-1.75011E-04-2.65211E-15
 -1      3729 2.84598E-03-2.07446E-04-3.39636E-15
 -1      3730 2.98682E-03-2.05832E-04-3.72231E-15
 -1      3731 2.76914E-03-1.74350E-04-3.24392E-15
 -1      3732 3.12692E-03-2.03847E-04-4.06326E-15
 -1      3733 3.26625E-03-2.01508E-04-4.41925E-15
 -1      3734 3.05003E-03-1.71850E-04-3.89513E-15
 -1      3735 3.40468E-03-1.99000E-04-4.78931E-15
 -1      3736 3.54213E-03-1.96329E-04-5.17453E-15
 -1      3737 3.32755E-03-1.68211E-04-4.60550E-15
 -1      3738 3.67848E-03-1.93705E-04-5.57512E-15
 -1      3739 3.81366E-03-1.91114E-04-5.99007E-15
 -1      3740 3.60087E-03-1.64152E-04-5.37527E-15
 -1      3741 3.94748E-03-1.88806E-04-6.42002E-15
 -1      3742 4.07993E-03-1.86742E-04-6.86366E-15
 -1      3743 3.86904E-03-1.60422E-04-6.20486E-15
 -1      3744 4.21074E-03-1.85217E-04-7.32131E-15
 -1      3745 4.33993E-03-1.84148E-04-7.79270E-15
 -1      3746 4.13096E-03-1.57818E-04-7.09152E-15
 -1      3747 4.46716E-03-1.83881E-04-8.27771E-15
 -1      3748 4.59255E-03-1.84256E-04-8.77691E-15
 -1      3749 4.38526E-03-1.57150E-04-8.03386E-15
 -1      3750 4.71557E-03-1.85675E-04-9.28947E-15
 -1      3751 4.83660E-03-1.87872E-04-9.81540E-15
 -1      3752 4.63023E-03-1.59131E-04-9.03109E-15
 -1      3753 4.95474E-03-1.91385E-04-1.03548E-14
 -1      3754 5.07084E-03-1.95782E-04-1.09084E-14
 -1      3755 4.86362E-03-1.64283E-04-1.00828E-14
 -1      3756 1.02599E-02-4.41681E-04-3.00277E-14
 -1      3757 1.02598E-02-4.71025E-04-3.02565E-14
 -1      3758 1.03750E-02-4.88430E-04-3.12164E-14
 -1      3759 1.04923E-02-5.06581E-04-3.21870E-14
 -1      3760 1.06122E-02-5.26037E-04-3.31646E-14
 -1      3761 1.04780E-02-4.77400E-04-3.19527E-14
 -1      3762 1.07342E-02-5.46229E-04-3.41519E-14
 -1      3763 1.08585E-02-5.67494E-04-3.51495E-14
 -1      3764 1.07105E-02-5.16225E-04-3.39159E-14
 -1      3765 1.09846E-02-5.89402E-04-3.61536E-14
 -1      3766 1.11126E-02-6.12164E-04-3.71646E-14
 -1      3767 1.09542E-02-5.58051E-04-3.59124E-14
 -1      3768 1.12422E-02-6.35419E-04-3.81844E-14
 -1      3769 1.13733E-02-6.59286E-04-3.92111E-14
 -1      3770 1.12068E-02-6.02532E-04-3.79408E-14
 -1      3771 1.15058E-02-6.83474E-04-4.02452E-14
 -1      3772 1.16395E-02-7.08048E-04-4.12837E-14
 -1      3773 1.14666E-02-6.49050E-04-3.99971E-14
 -1      3774 1.17743E-02-7.32782E-04-4.23290E-14
 -1      3775 1.19102E-02-7.57718E-04-4.33786E-14
 -1      3776 1.17321E-02-6.96927E-04-4.20815E-14
 -1      3777 1.20469E-02-7.82682E-04-4.44345E-14
 -1      3778 1.21844E-02-8.07707E-04-4.54991E-14
 -1      3779 1.20023E-02-7.45552E-04-4.41875E-14
 -1      3780 1.23226E-02-8.32666E-04-4.65701E-14
 -1      3781 1.24615E-02-8.57585E-04-4.76491E-14
 -1      3782 1.22762E-02-7.94437E-04-4.63235E-14
 -1      3783 1.26009E-02-8.82379E-04-4.87306E-14
 -1      3784 1.27408E-02-9.07071E-04-4.98210E-14
 -1      3785 1.25530E-02-8.43228E-04-4.84826E-14
 -1      3786 1.28811E-02-9.31606E-04-5.09190E-14
 -1      3787 1.30218E-02-9.56005E-04-5.20171E-14
 -1      3788 1.28321E-02-8.91697E-04-5.06670E-14
 -1      3789 1.31629E-02-9.80235E-04-5.31207E-14
 -1      3790 1.33042E-02-1.00432E-03-5.42297E-14
 -1      3791 1.31130E-02-9.39714E-04-5.28696E-14
 -1      3792 1.34457E-02-1.02823E-03-5.53417E-14
 -1      3793 1.35875E-02-1.05201E-03-5.64574E-14
 -1      3794 1.33952E-02-9.87228E-04-5.50856E-14
 -1      3795 3.78480E-03 2.18361E-04-5.60916E-15
 -1      3796 3.64469E-03 2.22481E-04-5.20845E-15
 -1      3797 5.20499E-03 2.00897E-04-1.04312E-14
 -1      3798 5.05656E-03 1.96809E-04-9.88334E-15
 -1      3799 4.91096E-03 1.95346E-04-9.35040E-15
 -1      3800 4.76736E-03 1.95420E-04-8.83173E-15
 -1      3801 4.95127E-03 1.54228E-04-9.65191E-15
 -1      3802 6.13191E-03 3.94463E-04-1.35150E-14
 -1      3803 8.71228E-03 2.80527E-04-2.42669E-14
 -1      3804 8.24070E-03 5.29563E-04-2.22746E-14
 -1      3805 1.34531E-02-5.98137E-04-5.73416E-14
 -1      3806 1.32995E-02-5.68640E-04-5.61639E-14
 -1      3807 1.34757E-02-6.38916E-04-5.73513E-14
 -1      3808 1.04141E-02-1.70800E-04-3.40727E-14
 -1      3809 1.02712E-02-1.48692E-04-3.30760E-14
 -1      3810 1.06964E-02-2.11622E-04-3.60951E-14
 -1      3811 1.05557E-02-1.91614E-04-3.50791E-14
 -1      3812 1.05270E-02-2.17949E-04-3.46206E-14
 -1      3813 1.09760E-02-2.49800E-04-3.81527E-14
 -1      3814 1.08364E-02-2.30931E-04-3.71188E-14
 -1      3815 1.08034E-02-2.55946E-04-3.66508E-14
 -1      3816 1.12549E-02-2.86679E-04-4.02483E-14
 -1      3817 1.11155E-02-2.68336E-04-3.91968E-14
 -1      3818 1.10786E-02-2.92694E-04-3.87174E-14
 -1      3819 1.15339E-02-3.23143E-04-4.23745E-14
 -1      3820 1.13943E-02-3.04925E-04-4.13081E-14
 -1      3821 1.13542E-02-3.29068E-04-4.08169E-14
 -1      3822 1.18137E-02-3.59766E-04-4.45332E-14
 -1      3823 1.16737E-02-3.41413E-04-4.34499E-14
 -1      3824 1.16308E-02-3.65612E-04-4.29469E-14
 -1      3825 1.20943E-02-3.96918E-04-4.67182E-14
 -1      3826 1.19539E-02-3.78266E-04-4.56224E-14
 -1      3827 1.19088E-02-4.02661E-04-4.51091E-14
 -1      3828 1.23760E-02-4.34813E-04-4.89237E-14
 -1      3829 1.22350E-02-4.15770E-04-4.78188E-14
 -1      3830 1.21881E-02-4.40421E-04-4.72964E-14
 -1      3831 1.26585E-02-4.73547E-04-5.11397E-14
 -1      3832 1.25171E-02-4.54076E-04-5.00315E-14
 -1      3833 1.24688E-02-4.78992E-04-4.95007E-14
 -1      3834 1.29418E-02-5.13141E-04-5.33692E-14
 -1      3835 1.28001E-02-4.93241E-04-5.22533E-14
 -1      3836 1.27506E-02-5.18399E-04-5.17163E-14
 -1      3837 1.31916E-02-5.50883E-04-5.53248E-14
 -1      3838 1.30496E-02-5.30617E-04-5.42085E-14
 -1      3839 1.29994E-02-5.55940E-04-5.36633E-14
 -1      3840 1.32147E-02-5.91367E-04-5.53389E-14
 -1      3841 2.65443E-03 2.41889E-04-2.82971E-15
 -1      3842 2.51160E-03 2.42278E-04-2.54991E-15
 -1      3843 1.37599E-03 1.31148E-06-9.28280E-16
 -1      3844 1.25444E-03-1.35946E-05-7.91766E-16
 -1      3845 1.25520E-03-4.33060E-05-7.93487E-16
 -1      3846 4.62535E-03 1.96944E-04-8.32739E-15
 -1      3847 4.48433E-03 1.99339E-04-7.83728E-15
 -1      3848 4.67071E-03 1.58344E-04-8.61385E-15
 -1      3849 1.01264E-02-1.25189E-04-3.20899E-14
 -1      3850 9.97928E-03-9.94133E-05-3.11135E-14
 -1      3851 1.02473E-02-1.77216E-04-3.26286E-14
 -1      3852 2.36852E-03 2.41751E-04-2.28452E-15
 -1      3853 2.22522E-03 2.40247E-04-2.03362E-15
 -1      3854 2.43370E-03 2.07502E-04-2.43840E-15
 -1      3855 9.61007E-03-7.97998E-05-2.83353E-14
 -1      3856 9.80447E-03-1.56042E-04-2.91253E-14
 -1      3857 1.29838E-03 1.51081E-04-7.92904E-16
 -1      3858 8.86863E-03 2.27889E-04-2.50599E-14
 -1      3859 5.51333E-03 2.19191E-04-1.15699E-14
 -1      3860 5.35696E-03 2.07734E-04-1.09934E-14
 -1      3861 5.24029E-03 1.56278E-04-1.07464E-14
 -1      3862 1.37841E-02-7.88612E-04-5.93207E-14
 -1      3863 1.37620E-02-7.48123E-04-5.93144E-14
 -1      3864 1.36723E-02-7.90125E-04-5.83528E-14
 -1      3865 1.57466E-03 2.93378E-04-1.01926E-15
 -1      3866 1.53189E-03 2.65265E-04-9.90622E-16
 -1      3867 1.53858E-03 2.25304E-04-1.03040E-15
 -1      3868 1.69986E-03 2.98302E-04-1.17739E-15
 -1      3869 1.99105E-03-2.02783E-04-1.75394E-15
 -1      3870 2.13427E-03-2.05785E-04-1.99012E-15
 -1      3871 2.20046E-03-1.73109E-04-2.11986E-15
 -1      3872 1.25679E-03-7.31983E-05-7.93799E-16
 -1      3873 1.25921E-03-1.03470E-04-7.92728E-16
 -1      3874 1.37767E-03-6.13956E-05-9.32536E-16
 -1      3875 1.70465E-03-1.93158E-04-1.32647E-15
 -1      3876 1.84781E-03-1.98602E-04-1.53303E-15
 -1      3877 1.91439E-03-1.67865E-04-1.64678E-15
 -1      3878 1.02949E-02-4.21314E-04-3.01908E-14
 -1      3879 5.36950E-03-5.13001E-06-1.21455E-14
 -1      3880 5.38271E-03 4.09523E-05-1.19024E-14
 -1      3881 5.28816E-03-2.05569E-05-1.19050E-14
 -1      3882 5.20777E-03-9.63230E-05-1.21713E-14
 -1      3883 5.20135E-03-7.21355E-05-1.19161E-14
 -1      3884 5.15243E-03-1.03207E-04-1.19419E-14
 -1      3885 5.09912E-03-1.63311E-04-1.13860E-14
 -1      3886 5.19625E-03-1.90799E-04-1.16760E-14
 -1      3887 1.57851E-03-1.65981E-04-1.16454E-15
 -1      3888 9.07584E-03 1.46972E-04-2.60517E-14
 -1      3889 1.36899E-02-1.04690E-03-5.73618E-14
 -1      3890 1.38255E-03-1.28688E-04-9.28673E-16
 -1      3891 1.38120E-02-1.03703E-03-5.84554E-14
 -1      3892 9.29566E-03 3.88071E-05-2.69082E-14
 -1      3893 2.79696E-03 2.40742E-04-3.12468E-15
 -1      3894 2.71888E-03 2.06732E-04-3.00117E-15
 -1      3895 2.93916E-03 2.38884E-04-3.43449E-15
 -1      3896 9.46193E-03-6.11734E-06-2.78268E-14
 -1      3897 1.36397E-02-7.09414E-04-5.84351E-14
 -1      3898 3.92466E-03 2.14197E-04-6.02544E-15
 -1      3899 3.84193E-03 1.82423E-04-5.84823E-15
 -1      3900 4.06442E-03 2.10074E-04-6.45575E-15
 -1      3901 3.16048E-03 2.69802E-04-3.89448E-15
 -1      3902 1.41884E-03 1.42029E-04-9.35639E-16
 -1      3903 9.96017E-03-1.31063E-04-3.06798E-14
 -1      3904 5.84307E-03 2.59259E-04-1.27696E-14
 -1      3905 5.67530E-03 2.35310E-04-1.21626E-14
 -1      3906 9.95077E-03-1.65885E-04-3.02489E-14
 -1      3907 9.94711E-03-2.14256E-04-2.96442E-14
 -1      3908 1.00821E-02-2.51983E-04-3.03392E-14
 -1      3909 1.00920E-02-1.87828E-04-3.12121E-14
 -1      3910 4.34406E-03 2.02499E-04-7.36165E-15
 -1      3911 4.20413E-03 2.06119E-04-6.90123E-15
 -1      3912 4.11828E-03 1.73812E-04-6.71105E-15
 -1      3913 4.39399E-03 1.65433E-04-7.63358E-15
 -1      3914 1.50141E-03 8.34931E-05-1.06157E-15
 -1      3915 1.49943E-03 5.05015E-05-1.06925E-15
 -1      3916 1.49842E-03 1.76740E-05-1.07507E-15
 -1      3917 1.49836E-03-1.50831E-05-1.07915E-15
 -1      3918 1.62162E-03 3.52736E-05-1.23195E-15
 -1      3919 1.36043E-02-8.71229E-04-5.74056E-14
 -1      3920 1.35826E-02-8.31299E-04-5.73983E-14
 -1      3921 5.17067E-03-1.40144E-04-1.21830E-14
 -1      3922 5.13326E-03-1.26489E-04-1.19418E-14
 -1      3923 5.14866E-03-1.46343E-04-1.19291E-14
 -1      3924 1.02012E-02-3.34325E-04-3.01256E-14
 -1      3925 1.03006E-02-3.58170E-04-3.07789E-14
 -1      3926 1.02021E-02-3.12108E-04-3.05578E-14
 -1      3927 2.09993E-03 2.41936E-04-1.82330E-15
 -1      3928 1.97456E-03 2.42602E-04-1.62438E-15
 -1      3929 2.16548E-03 2.09070E-04-1.96115E-15
 -1      3930 5.54510E-03 1.70789E-04-1.19003E-14
 -1      3931 3.50430E-03 2.26425E-04-4.82364E-15
 -1      3932 3.36356E-03 2.30142E-04-4.45350E-15
 -1      3933 3.56406E-03 1.90575E-04-5.04624E-15
 -1      3934 1.76408E-03 2.68711E-04-1.29257E-15
 -1      3935 1.03299E-02-4.08228E-04-3.05091E-14
 -1      3936 1.04133E-02-4.44145E-04-3.13084E-14
 -1      3937 1.05218E-02-4.62214E-04-3.22803E-14
 -1      3938 1.03715E-02-4.01403E-04-3.09855E-14
 -1      3939 1.36473E-02-9.51312E-04-5.74173E-14
 -1      3940 1.36259E-02-9.11246E-04-5.74114E-14
 -1      3941 1.34927E-02-8.71832E-04-5.64439E-14
 -1      3942 1.57453E-03-1.27703E-04-1.16994E-15
 -1      3943 5.43610E-03 1.13295E-04-1.17270E-14
 -1      3944 5.51679E-03 1.39580E-04-1.19275E-14
 -1      3945 2.69341E-03-1.41190E-04-3.09273E-15
 -1      3946 2.83431E-03-1.40581E-04-3.40275E-15
 -1      3947 2.97446E-03-1.39690E-04-3.72925E-15
 -1      3948 3.11377E-03-1.38516E-04-4.06900E-15
 -1      3949 2.90013E-03-1.07272E-04-3.56394E-15
 -1      3950 3.25210E-03-1.37222E-04-4.42323E-15
 -1      3951 3.38938E-03-1.35797E-04-4.79286E-15
 -1      3952 3.17817E-03-1.05874E-04-4.24300E-15
 -1      3953 3.52544E-03-1.34427E-04-5.17749E-15
 -1      3954 3.66020E-03-1.33079E-04-5.57688E-15
 -1      3955 3.45193E-03-1.04293E-04-4.98108E-15
 -1      3956 3.79349E-03-1.31974E-04-5.99064E-15
 -1      3957 3.92518E-03-1.31050E-04-6.41975E-15
 -1      3958 3.72043E-03-1.03116E-04-5.77812E-15
 -1      3959 4.05506E-03-1.30576E-04-6.86263E-15
 -1      3960 4.18300E-03-1.30438E-04-7.31927E-15
 -1      3961 3.98248E-03-1.02978E-04-6.63463E-15
 -1      3962 4.30868E-03-1.30982E-04-7.79026E-15
 -1      3963 4.43195E-03-1.31973E-04-8.27490E-15
 -1      3964 4.23661E-03-1.04576E-04-7.54748E-15
 -1      3965 4.55236E-03-1.33865E-04-8.77316E-15
 -1      3966 4.66972E-03-1.36234E-04-9.28576E-15
 -1      3967 4.48077E-03-1.08587E-04-8.51660E-15
 -1      3968 4.78330E-03-1.39724E-04-9.81126E-15
 -1      3969 4.89286E-03-1.43571E-04-1.03505E-14
 -1      3970 4.71207E-03-1.15564E-04-9.54004E-15
 -1      3971 5.26899E-03 1.11164E-04-1.10623E-14
 -1      3972 5.12668E-03 1.11131E-04-1.05010E-14
 -1      3973 1.06514E-02-4.83021E-04-3.34078E-14
 -1      3974 1.07681E-02-5.02583E-04-3.43976E-14
 -1      3975 1.08878E-02-5.22639E-04-3.53970E-14
 -1      3976 1.10103E-02-5.43586E-04-3.64040E-14
 -1      3977 1.08195E-02-4.88971E-04-3.48803E-14
 -1      3978 1.11350E-02-5.65003E-04-3.74192E-14
 -1      3979 1.12619E-02-5.87105E-04-3.84400E-14
 -1      3980 1.10619E-02-5.28966E-04-3.68962E-14
 -1      3981 1.13906E-02-6.09583E-04-3.94688E-14
 -1      3982 1.15210E-02-6.32542E-04-4.05048E-14
 -1      3983 1.13138E-02-5.71417E-04-3.89407E-14
 -1      3984 1.16529E-02-6.55747E-04-4.15456E-14
 -1      3985 1.17860E-02-6.79259E-04-4.25946E-14
 -1      3986 1.15730E-02-6.15714E-04-4.10114E-14
 -1      3987 1.19204E-02-7.02902E-04-4.36503E-14
 -1      3988 1.20558E-02-7.26714E-04-4.47129E-14
 -1      3989 1.18381E-02-6.61254E-04-4.31101E-14
 -1      3990 1.21921E-02-7.50562E-04-4.57796E-14
 -1      3991 1.23293E-02-7.74471E-04-4.68558E-14
 -1      3992 1.21079E-02-7.07546E-04-4.52373E-14
 -1      3993 1.24672E-02-7.98350E-04-4.79386E-14
 -1      3994 1.26058E-02-8.22218E-04-4.90240E-14
 -1      3995 1.23815E-02-7.54196E-04-4.73900E-14
 -1      3996 1.27450E-02-8.46012E-04-5.01188E-14
 -1      3997 1.28847E-02-8.69751E-04-5.12160E-14
 -1      3998 1.26580E-02-8.00928E-04-4.95686E-14
 -1      3999 1.30249E-02-8.93392E-04-5.23144E-14
 -1      4000 1.31654E-02-9.16952E-04-5.34188E-14
 -1      4001 1.29368E-02-8.47561E-04-5.17626E-14
 -1      4002 2.40982E-03-1.41112E-04-2.51616E-15
 -1      4003 2.55188E-03-1.41374E-04-2.79709E-15
 -1      4004 2.61875E-03-1.07928E-04-2.94281E-15
 -1      4005 6.00058E-03 3.11307E-04-1.32383E-14
 -1      4006 5.86161E-03 2.30931E-04-1.29638E-14
 -1      4007 5.31056E-03 6.41462E-05-1.14654E-14
 -1      4008 1.11788E-02-3.34264E-04-3.92780E-14
 -1      4009 1.10430E-02-3.16245E-04-3.82383E-14
 -1      4010 1.34865E-02-6.79358E-04-5.72610E-14
 -1      4011 1.33334E-02-6.49527E-04-5.60889E-14
 -1      4012 1.34972E-02-7.19606E-04-5.71714E-14
 -1      4013 1.09075E-02-2.98270E-04-3.72052E-14
 -1      4014 1.07720E-02-2.80255E-04-3.61826E-14
 -1      4015 1.10084E-02-3.38983E-04-3.77604E-14
 -1      4016 1.06367E-02-2.62150E-04-3.51690E-14
 -1      4017 1.05009E-02-2.43771E-04-3.41635E-14
 -1      4018 1.07423E-02-3.03847E-04-3.57149E-14
 -1      4019 1.14516E-02-3.70622E-04-4.13835E-14
 -1      4020 1.13149E-02-3.52389E-04-4.03271E-14
 -1      4021 1.12765E-02-3.74856E-04-3.98378E-14
 -1      4022 1.17262E-02-4.07574E-04-4.35174E-14
 -1      4023 1.15886E-02-3.89022E-04-4.24462E-14
 -1      4024 1.15470E-02-4.11614E-04-4.19461E-14
 -1      4025 1.20027E-02-4.45271E-04-4.56822E-14
 -1      4026 1.18642E-02-4.26332E-04-4.45965E-14
 -1      4027 1.18201E-02-4.49248E-04-4.40847E-14
 -1      4028 1.22810E-02-4.83786E-04-4.78712E-14
 -1      4029 1.21416E-02-4.64432E-04-4.67752E-14
 -1      4030 1.20955E-02-4.87772E-04-4.62528E-14
 -1      4031 1.25609E-02-5.23125E-04-5.00733E-14
 -1      4032 1.24208E-02-5.03360E-04-4.89705E-14
 -1      4033 1.23731E-02-5.27148E-04-4.84413E-14
 -1      4034 1.28422E-02-5.63262E-04-5.22857E-14
 -1      4035 1.27014E-02-5.43101E-04-5.11789E-14
 -1      4036 1.26525E-02-5.67316E-04-5.06432E-14
 -1      4037 1.53782E-03-8.69036E-05-1.12887E-15
 -1      4038 1.73309E-03-1.20680E-04-1.38947E-15
 -1      4039 1.87588E-03-1.24051E-04-1.59992E-15
 -1      4040 2.01878E-03-1.26602E-04-1.82498E-15
 -1      4041 1.83902E-03-8.10933E-05-1.55057E-15
 -1      4042 5.27588E-03-2.08762E-04-1.19320E-14
 -1      4043 4.71347E-03 1.20242E-04-8.90152E-15
 -1      4044 4.57766E-03 1.24502E-04-8.39659E-15
 -1      4045 1.03662E-02-2.26216E-04-3.31696E-14
 -1      4046 1.02289E-02-2.06785E-04-3.21826E-14
 -1      4047 1.02163E-02-2.37395E-04-3.17417E-14
 -1      4048 1.04787E-02-2.70180E-04-3.37081E-14
 -1      4049 3.22247E-03 2.33499E-04-4.09826E-15
 -1      4050 3.08099E-03 2.36458E-04-3.75889E-15
 -1      4051 3.00251E-03 2.03264E-04-3.62311E-15
 -1      4052 1.36587E-02-1.00120E-03-5.72939E-14
 -1      4053 1.35511E-02-7.95471E-04-5.72881E-14
 -1      4054 1.35290E-02-7.55486E-04-5.72813E-14
 -1      4055 1.33763E-02-7.25220E-04-5.61081E-14
 -1      4056 1.34396E-02-7.96448E-04-5.63273E-14
 -1      4057 1.68371E-03 2.32837E-04-1.21333E-15
 -1      4058 1.60441E-03 1.97841E-04-1.13405E-15
 -1      4059 1.82909E-03 2.38524E-04-1.41131E-15
 -1      4060 4.98745E-03 1.13262E-04-9.95341E-15
 -1      4061 4.84973E-03 1.16283E-04-9.42020E-15
 -1      4062 5.01918E-03 7.22881E-05-1.02559E-14
 -1      4063 1.53577E-03-5.35447E-05-1.12837E-15
 -1      4064 2.14310E-03-1.33650E-04-2.03223E-15
 -1      4065 2.28581E-03-1.34967E-04-2.28578E-15
 -1      4066 2.35350E-03-1.01993E-04-2.41801E-15
 -1      4067 2.10573E-03-8.95425E-05-1.97647E-15
 -1      4068 5.67465E-03 1.52288E-04-1.25270E-14
 -1      4069 2.49941E-03 1.73258E-04-2.59521E-15
 -1      4070 2.35670E-03 1.72974E-04-2.32716E-15
 -1      4071 1.57161E-03 1.63866E-04-1.11300E-15
 -1      4072 1.53173E-03 1.15228E-04-1.08727E-15
 -1      4073 1.65331E-03 1.01810E-04-1.25261E-15
 -1      4074 1.71645E-03 1.68892E-04-1.30358E-15
 -1      4075 1.35256E-02-9.61154E-04-5.63251E-14
 -1      4076 5.10235E-03-1.09792E-04-1.16941E-14
 -1      4077 5.07814E-03-9.08091E-05-1.14467E-14
 -1      4078 5.05999E-03-1.15736E-04-1.14476E-14
 -1      4079 4.99147E-03-1.47294E-04-1.08785E-14
 -1      4080 5.10870E-03-1.45185E-04-1.16423E-14
 -1      4081 4.92069E-03-1.24484E-04-1.05937E-14
 -1      4082 1.65803E-03-3.82735E-05-1.29122E-15
 -1      4083 1.33063E-02-9.40409E-04-5.45272E-14
 -1      4084 1.34476E-02-9.63775E-04-5.56406E-14
 -1      4085 5.13549E-03-5.25944E-05-1.14584E-14
 -1      4086 5.20790E-03-3.87656E-05-1.16806E-14
 -1      4087 5.21373E-03-6.00629E-07-1.14452E-14
 -1      4088 3.28428E-03 1.97699E-04-4.30431E-15
 -1      4089 1.89478E-03 2.07758E-04-1.53274E-15
 -1      4090 1.02094E-02-2.62351E-04-3.13714E-14
 -1      4091 1.02041E-02-2.90496E-04-3.09295E-14
 -1      4092 1.03189E-02-3.20556E-04-3.15936E-14
 -1      4093 1.03365E-02-2.77387E-04-3.23443E-14
 -1      4094 2.28065E-03 1.38711E-04-2.21610E-15
 -1      4095 2.21374E-03 1.71888E-04-2.07411E-15
 -1      4096 1.32259E-02-6.31482E-04-5.52507E-14
 -1      4097 1.29494E-02-5.80876E-04-5.31209E-14
 -1      4098 1.28996E-02-6.05406E-04-5.25775E-14
 -1      4099 1.30567E-02-5.98613E-04-5.39565E-14
 -1      4100 1.74552E-03 5.38542E-05-1.39847E-15
 -1      4101 1.74436E-03 1.87677E-05-1.40574E-15
 -1      4102 1.34363E-02-9.14443E-04-5.57638E-14
 -1      4103 4.75357E-03 8.26262E-05-9.18964E-15
 -1      4104 2.08852E-03 1.74107E-04-1.86178E-15
 -1      4105 4.44229E-03 1.29065E-04-7.90612E-15
 -1      4106 4.30678E-03 1.33667E-04-7.42989E-15
 -1      4107 4.48903E-03 9.34289E-05-8.17984E-15
 -1      4108 3.62357E-03 1.55422E-04-5.27010E-15
 -1      4109 3.48513E-03 1.59127E-04-4.88414E-15
 -1      4110 1.05732E-02-4.49705E-04-3.27518E-14
 -1      4111 1.04204E-02-3.71807E-04-3.18764E-14
 -1      4112 1.03997E-02-3.87767E-04-3.14309E-14
 -1      4113 1.04884E-02-4.17161E-04-3.20837E-14
 -1      4114 1.33360E-02-7.99143E-04-5.54253E-14
 -1      4115 1.33045E-02-7.63758E-04-5.53161E-14
 -1      4116 2.78370E-03 1.71805E-04-3.17507E-15
 -1      4117 2.64176E-03 1.72862E-04-2.87762E-15
 -1      4118 2.56563E-03 1.39096E-04-2.75427E-15
 -1      4119 1.33971E-02-8.76476E-04-5.55976E-14
 -1      4120 1.33756E-02-8.36930E-04-5.55917E-14
 -1      4121 1.32408E-02-8.03946E-04-5.45817E-14
 -1      4122 1.33194E-02-8.79249E-04-5.49146E-14
 -1      4123 3.89851E-03 1.47254E-04-6.08961E-15
 -1      4124 3.76133E-03 1.51466E-04-5.67200E-15
 -1      4125 3.68291E-03 1.21041E-04-5.49677E-15
 -1      4126 1.32175E-02-8.93982E-04-5.39700E-14
 -1      4127 1.77198E-03-1.02112E-05-1.45073E-15
 -1      4128 1.80952E-03-5.12292E-05-1.50825E-15
 -1      4129 1.95214E-03-5.25072E-05-1.72658E-15
 -1      4130 1.89541E-03 7.49212E-06-1.63246E-15
 -1      4131 1.16405E-02-4.52195E-04-4.25070E-14
 -1      4132 1.15057E-02-4.33319E-04-4.14469E-14
 -1      4133 3.10567E-03-7.41663E-05-4.06394E-15
 -1      4134 3.24352E-03-7.38774E-05-4.41712E-15
 -1      4135 3.38020E-03-7.37119E-05-4.78575E-15
 -1      4136 3.51562E-03-7.36109E-05-5.16933E-15
 -1      4137 3.30997E-03-4.25573E-05-4.59210E-15
 -1      4138 3.64962E-03-7.37667E-05-5.56739E-15
 -1      4139 3.78208E-03-7.41135E-05-5.98003E-15
 -1      4140 3.58066E-03-4.37396E-05-5.35723E-15
 -1      4141 3.91284E-03-7.48786E-05-6.40755E-15
 -1      4142 4.04171E-03-7.59825E-05-6.84954E-15
 -1      4143 3.84552E-03-4.60014E-05-6.18147E-15
 -1      4144 4.16848E-03-7.77222E-05-7.30626E-15
 -1      4145 4.29288E-03-7.99012E-05-7.77667E-15
 -1      4146 4.10336E-03-4.99426E-05-7.06524E-15
 -1      4147 4.41462E-03-8.29644E-05-8.26041E-15
 -1      4148 4.53333E-03-8.65290E-05-8.75861E-15
 -1      4149 4.35247E-03-5.63198E-05-8.00564E-15
 -1      4150 4.64859E-03-9.12298E-05-9.27017E-15
 -1      4151 4.75983E-03-9.64714E-05-9.79577E-15
 -1      4152 4.59061E-03-6.56766E-05-9.00072E-15
 -1      4153 3.06605E-03 1.68066E-04-3.81378E-15
 -1      4154 2.92514E-03 1.70205E-04-3.48700E-15
 -1      4155 2.84890E-03 1.37188E-04-3.35082E-15
 -1      4156 5.22808E-03 4.49305E-05-1.12346E-14
 -1      4157 2.54517E-03-7.46271E-05-2.79559E-15
 -1      4158 2.68643E-03-7.46931E-05-3.09045E-15
 -1      4159 1.09864E-02-4.94083E-04-3.63699E-14
 -1      4160 1.11098E-02-5.13980E-04-3.73867E-14
 -1      4161 1.12353E-02-5.34332E-04-3.84091E-14
 -1      4162 1.13629E-02-5.55321E-04-3.94379E-14
 -1      4163 1.11547E-02-4.98201E-04-3.78774E-14
 -1      4164 1.14921E-02-5.76680E-04-4.04765E-14
 -1      4165 1.16230E-02-5.98466E-04-4.15189E-14
 -1      4166 1.14097E-02-5.38519E-04-3.99386E-14
 -1      4167 1.17552E-02-6.20504E-04-4.25694E-14
 -1      4168 1.18887E-02-6.42849E-04-4.36286E-14
 -1      4169 1.16713E-02-5.80609E-04-4.20293E-14
 -1      4170 1.20233E-02-6.65329E-04-4.46935E-14
 -1      4171 1.21589E-02-6.87999E-04-4.57639E-14
 -1      4172 1.19380E-02-6.23880E-04-4.41475E-14
 -1      4173 1.22954E-02-7.10737E-04-4.68436E-14
 -1      4174 1.24327E-02-7.33576E-04-4.79286E-14
 -1      4175 1.22089E-02-6.67954E-04-4.62967E-14
 -1      4176 1.25708E-02-7.56435E-04-4.90173E-14
 -1      4177 1.27095E-02-7.79336E-04-5.01118E-14
 -1      4178 1.24833E-02-7.12526E-04-4.84668E-14
 -1      4179 1.28487E-02-8.02219E-04-5.12095E-14
 -1      4180 1.29885E-02-8.25110E-04-5.23069E-14
 -1      4181 1.27605E-02-7.57359E-04-5.06533E-14
 -1      4182 1.86154E-03 1.72528E-04-1.50874E-15
 -1      4183 1.31754E-02-6.56253E-04-5.47038E-14
 -1      4184 1.11061E-02-3.78344E-04-3.83120E-14
 -1      4185 1.09745E-02-3.60696E-04-3.72820E-14
 -1      4186 1.08438E-02-3.43353E-04-3.62610E-14
 -1      4187 1.07138E-02-3.26407E-04-3.52492E-14
 -1      4188 1.09411E-02-3.81353E-04-3.68056E-14
 -1      4189 1.19125E-02-4.90755E-04-4.46482E-14
 -1      4190 1.17761E-02-4.71358E-04-4.35736E-14
 -1      4191 1.17323E-02-4.92627E-04-4.30635E-14
 -1      4192 1.21873E-02-5.30254E-04-4.68180E-14
 -1      4193 1.20495E-02-5.10401E-04-4.57301E-14
 -1      4194 1.20036E-02-5.32289E-04-4.52087E-14
 -1      4195 1.24644E-02-5.70573E-04-4.90079E-14
 -1      4196 1.23255E-02-5.50322E-04-4.79121E-14
 -1      4197 1.22780E-02-5.72854E-04-4.73811E-14
 -1      4198 1.27435E-02-6.11613E-04-5.12072E-14
 -1      4199 1.26037E-02-5.91017E-04-5.01066E-14
 -1      4200 1.25549E-02-6.14181E-04-4.95700E-14
 -1      4201 1.74693E-03 8.97406E-05-1.38743E-15
 -1      4202 1.86918E-03 7.37543E-05-1.57280E-15
 -1      4203 2.34825E-03 1.05395E-04-2.36061E-15
 -1      4204 2.20561E-03 1.04802E-04-2.10513E-15
 -1      4205 5.14565E-03 2.29059E-05-1.10188E-14
 -1      4206 1.31787E-02-8.56425E-04-5.38032E-14
 -1      4207 1.07476E-02-4.56644E-04-3.43629E-14
 -1      4208 1.08655E-02-4.75085E-04-3.53632E-14
 -1      4209 1.09077E-02-4.60189E-04-3.58449E-14
 -1      4210 1.06141E-02-4.35901E-04-3.32093E-14
 -1      4211 3.40793E-03 1.27923E-04-4.72220E-15
 -1      4212 3.34608E-03 1.62480E-04-4.51261E-15
 -1      4213 3.20636E-03 1.65495E-04-4.15560E-15
 -1      4214 1.13717E-02-4.14669E-04-4.03938E-14
 -1      4215 1.12384E-02-3.96357E-04-3.93484E-14
 -1      4216 1.12006E-02-4.16858E-04-3.88601E-14
 -1      4217 1.14645E-02-4.54096E-04-4.09458E-14
 -1      4218 4.17118E-03 1.38328E-04-6.96824E-15
 -1      4219 4.03506E-03 1.42866E-04-6.52145E-15
 -1      4220 4.22319E-03 1.03700E-04-7.22630E-15
 -1      4221 5.01886E-03 2.99471E-05-1.04607E-14
 -1      4222 4.89182E-03 3.69777E-05-9.91564E-15
 -1      4223 5.01712E-03-9.71017E-06-1.06629E-14
 -1      4224 1.32561E-02-7.27680E-04-5.50662E-14
 -1      4225 1.32242E-02-6.92303E-04-5.49560E-14
 -1      4226 1.30556E-02-6.59017E-04-5.36653E-14
 -1      4227 1.31529E-02-7.30579E-04-5.41667E-14
 -1      4228 1.77775E-03 1.23223E-04-1.41594E-15
 -1      4229 4.76509E-03 4.39080E-05-9.38569E-15
 -1      4230 4.63730E-03 5.04575E-05-8.86933E-15
 -1      4231 4.77663E-03 7.51116E-06-9.57932E-15
 -1      4232 2.82700E-03-7.46234E-05-3.39991E-15
 -1      4233 2.96679E-03-7.44126E-05-3.72491E-15
 -1      4234 2.75497E-03-4.17100E-05-3.23881E-15
 -1      4235 1.95470E-03 1.59896E-04-1.65815E-15
 -1      4236 2.00443E-03 1.24188E-04-1.75867E-15
 -1      4237 2.10368E-03 9.57091E-05-1.93620E-15
 -1      4238 1.97091E-03 8.29981E-05-1.72650E-15
 -1      4239 1.96961E-03 4.57409E-05-1.73844E-15
 -1      4240 2.17265E-03 6.31639E-05-2.06858E-15
 -1      4241 3.03442E-03-4.20077E-05-3.88602E-15
 -1      4242 4.85955E-03-1.02619E-04-1.02999E-14
 -1      4243 4.95623E-03-1.08224E-04-1.08261E-14
 -1      4244 4.80754E-03-7.81623E-05-1.00167E-14
 -1      4245 5.05187E-03-6.78057E-05-1.11678E-14
 -1      4246 5.04305E-03-3.80241E-05-1.09403E-14
 -1      4247 4.92950E-03-2.79691E-05-1.03847E-14
 -1      4248 4.99246E-03-7.69166E-05-1.09297E-14
 -1      4249 1.99656E-03 1.56748E-05-1.78958E-15
 -1      4250 2.02430E-03-1.45767E-05-1.84035E-15
 -1      4251 2.09778E-03 2.39931E-05-1.95440E-15
 -1      4252 3.12982E-03 1.33375E-04-4.00690E-15
 -1      4253 1.06517E-02-4.22016E-04-3.36827E-14
 -1      4254 2.42203E-03-6.89641E-05-2.55174E-15
 -1      4255 2.49141E-03-3.59192E-05-2.68687E-15
 -1      4256 2.29860E-03-6.31619E-05-2.31930E-15
 -1      4257 2.05287E-03-4.50463E-05-1.88938E-15
 -1      4258 1.30897E-02-8.10678E-04-5.32467E-14
 -1      4259 2.49057E-03 1.05484E-04-2.63052E-15
 -1      4260 2.41655E-03 7.20035E-05-2.50729E-15
 -1      4261 2.63248E-03 1.05059E-04-2.91523E-15
 -1      4262 5.05825E-03-1.30651E-04-1.14076E-14
 -1      4263 1.28500E-02-6.29494E-04-5.20362E-14
 -1      4264 1.28004E-02-6.53129E-04-5.14959E-14
 -1      4265 1.29567E-02-6.47486E-04-5.28690E-14
 -1      4266 4.52986E-03 2.17214E-05-8.55074E-15
 -1      4267 4.50903E-03 5.66277E-05-8.36572E-15
 -1      4268 4.37955E-03 6.23549E-05-7.87723E-15
 -1      4269 2.17660E-03-5.10117E-05-2.10032E-15
 -1      4270 3.95464E-03 1.12923E-04-6.33197E-15
 -1      4271 3.74234E-03 8.75270E-05-5.72475E-15
 -1      4272 3.60670E-03 9.10104E-05-5.32152E-15
 -1      4273 1.05886E-02-3.09321E-04-3.42850E-14
 -1      4274 1.04611E-02-2.93929E-04-3.32911E-14
 -1      4275 1.04474E-02-3.15213E-04-3.29117E-14
 -1      4276 1.06904E-02-3.47519E-04-3.48219E-14
 -1      4277 4.96749E-03-9.16592E-05-1.08626E-14
 -1      4278 5.01475E-03-1.14171E-04-1.11670E-14
 -1      4279 3.47009E-03 9.40978E-05-4.93269E-15
 -1      4280 3.33249E-03 9.68624E-05-4.55963E-15
 -1      4281 3.53265E-03 6.10833E-05-5.14604E-15
 -1      4282 1.04402E-02-3.55872E-04-3.23056E-14
 -1      4283 1.05473E-02-3.88890E-04-3.29702E-14
 -1      4284 1.06829E-02-4.07925E-04-3.41236E-14
 -1      4285 1.04539E-02-3.37836E-04-3.26871E-14
 -1      4286 1.30504E-02-7.73526E-04-5.30815E-14
 -1      4287 1.28814E-02-7.48040E-04-5.17403E-14
 -1      4288 1.30315E-02-7.41302E-04-5.30690E-14
 -1      4289 1.29833E-02-7.05816E-04-5.28212E-14
 -1      4290 1.27420E-02-7.25930E-04-5.06412E-14
 -1      4291 2.91463E-03 1.02936E-04-3.52886E-15
 -1      4292 2.77385E-03 1.04220E-04-3.21485E-15
 -1      4293 2.69996E-03 7.12324E-05-3.07850E-15
 -1      4294 3.55416E-03 7.98708E-06-5.25567E-15
 -1      4295 3.68823E-03 6.02910E-06-5.65620E-15
 -1      4296 4.04075E-03-2.12104E-05-6.82488E-15
 -1      4297 4.16813E-03-2.44440E-05-7.28114E-15
 -1      4298 4.31074E-03-1.31335E-05-7.79392E-15
 -1      4299 4.43440E-03-1.80693E-05-8.27905E-15
 -1      4300 4.55581E-03-2.41146E-05-8.77832E-15
 -1      4301 4.67437E-03-3.07099E-05-9.29117E-15
 -1      4302 3.78023E-03 4.48159E-05-5.90002E-15
 -1      4303 3.80042E-03-6.33979E-06-6.01507E-15
 -1      4304 3.93147E-03-8.82511E-06-6.44274E-15
 -1      4305 3.85413E-03 7.34948E-05-6.08855E-15
 -1      4306 1.13252E-02-5.00963E-04-3.93999E-14
 -1      4307 1.14547E-02-5.20946E-04-4.04393E-14
 -1      4308 1.15709E-02-5.17413E-04-4.14920E-14
 -1      4309 1.17036E-02-5.37673E-04-4.25477E-14
 -1      4310 1.18374E-02-5.58150E-04-4.36089E-14
 -1      4311 1.19722E-02-5.78954E-04-4.46801E-14
 -1      4312 1.21080E-02-5.99920E-04-4.57560E-14
 -1      4313 1.22446E-02-6.21125E-04-4.68399E-14
 -1      4314 1.23819E-02-6.42443E-04-4.79276E-14
 -1      4315 1.25200E-02-6.63935E-04-4.90194E-14
 -1      4316 1.10343E-02-4.18157E-04-3.73459E-14
 -1      4317 1.09076E-02-4.00701E-04-3.63272E-14
 -1      4318 4.93062E-03-7.01549E-05-1.05920E-14
 -1      4319 4.22714E-03 5.04231E-05-7.36457E-15
 -1      4320 4.09647E-03 5.51909E-05-6.90654E-15
 -1      4321 2.96434E-03-9.44047E-06-3.71023E-15
 -1      4322 3.10320E-03-1.00272E-05-4.04799E-15
 -1      4323 2.24685E-03-1.83456E-05-2.22226E-15
 -1      4324 2.19558E-03 3.78659E-05-2.11803E-15
 -1      4325 2.22265E-03 7.04497E-06-2.17426E-15
 -1      4326 2.34392E-03-4.70877E-06-2.39789E-15
 -1      4327 2.29688E-03 4.63292E-05-2.29570E-15
 -1      4328 3.19402E-03 9.92388E-05-4.20176E-15
 -1      4329 3.05470E-03 1.01292E-04-3.85778E-15
 -1      4330 2.98091E-03 6.91141E-05-3.70910E-15
 -1      4331 3.25871E-03 6.57362E-05-4.39742E-15
 -1      4332 3.98743E-03 6.94267E-05-6.51935E-15
 -1      4333 1.08919E-02-4.39691E-04-3.58482E-14
 -1      4334 1.10150E-02-4.57793E-04-3.68606E-14
 -1      4335 1.11401E-02-4.76633E-04-3.78816E-14
 -1      4336 4.79034E-03-3.88436E-05-9.81763E-15
 -1      4337 2.72583E-03 1.45397E-05-3.16168E-15
 -1      4338 2.86625E-03 1.39958E-05-3.47372E-15
 -1      4339 3.28218E-03 1.10887E-05-4.49792E-15
 -1      4340 3.41877E-03 9.72198E-06-4.86879E-15
 -1      4341 4.83002E-03-6.22632E-05-1.00808E-14
 -1      4342 4.00092E-03 1.81780E-05-6.64545E-15
 -1      4343 4.25590E-03 1.67233E-05-7.53735E-15
 -1      4344 1.11808E-02-4.59160E-04-3.83720E-14
 -1      4345 1.14822E-02-4.78468E-04-4.09436E-14
 -1      4346 1.26392E-02-6.54225E-04-5.01006E-14
 -1      4347 1.07822E-02-4.03649E-04-3.51212E-14
 -1      4348 1.06900E-02-3.69057E-04-3.45911E-14
 -1      4349 1.12201E-02-4.40634E-04-3.88618E-14
 -1      4350 2.43909E-03 4.62977E-05-2.56236E-15
 -1      4351 1.30055E-02-6.83041E-04-5.31208E-14
 -1      4352 2.58473E-03 1.49873E-05-2.86392E-15
 -1      4353 2.93775E-03 4.63672E-05-3.62300E-15
 -1      4354 3.21563E-03 4.36592E-05-4.30384E-15
 -1      4355 1.13505E-02-4.59360E-04-3.98988E-14
 -1      4356 1.27785E-02-6.75522E-04-5.11990E-14
 -1      4357 1.05713E-02-3.52979E-04-3.36353E-14
 -1      4358 1.28847E-02-6.93876E-04-5.20269E-14
 -1      4359 2.46218E-03 2.06486E-05-2.61672E-15
 -1      4360 3.07715E-03 4.51415E-05-3.95636E-15
 -3
    1PSTEP                         2           1           1          
  100CL  101 1.000000000        4360                     0    1           1
 -4  STRESS      6    1
 -5  SXX         1    4    1    1
 -5  SYY         1    4    2    2
 -5  SZZ         1    4    3    3
 -5  SXY         1    4    1    2
 -5  SYZ         1    4    2    3
 -5  SZX         1    4    3    1
 -1         1-1.19642E+00-5.78619E+00-2.12508E+00-2.19968E+00-1.26371E-12-6.99468E-13
 -1         2-6.97277E-01-2.44819E+01-3.37519E+00-7.29358E-02 4.55663E-13 1.00309E-13
 -1         3 2.00000E+01 1.59313E-04 2.35569E-03 1.22588E-04-6.68210E-13-6.77809E-13
 -1         4 1.99999E+01 1.21409E-04 2.35324E-03-8.81487E-05 2.32305E-13 1.25945E-13
 -1         5 3.26376E+01 6.11825E+00 2.72567E+00 6.20241E+00-2.06779E-14 1.47432E-12
 -1         6 3.56059E+01 1.22110E+01 5.09725E+00-8.61339E+00-8.39884E-14 1.36746E-12
 -1         7 2.07782E+01 6.08745E+00-1.26283E-01-4.70519E+00-1.37668E-14 2.68442E-13
 -1         8 1.96608E+01 5.93111E+00 5.22450E-02-3.25289E+00-1.62231E-14-7.42535E-14
 -1         9 1.91454E+01 5.77396E+00 5.01162E-02-2.50166E+00-1.44953E-14-2.63881E-13
 -1        10 1.89149E+01 5.69750E+00 5.18056E-02-1.92444E+00-8.65800E-15-3.55427E-13
 -1        11 1.87973E+01 5.65795E+00 5.03742E-02-1.43044E+00-1.04179E-14-3.94543E-13
 -1        12 1.87346E+01 5.63650E+00 4.82084E-02-9.93901E-01-4.51961E-15-4.15043E-13
 -1        13 1.87004E+01 5.62486E+00 4.64268E-02-5.81310E-01-4.04798E-15-4.07403E-13
 -1        14 1.86854E+01 5.61978E+00 4.54782E-02-1.86256E-01 1.36046E-15-4.07005E-13
 -1        15 1.86857E+01 5.61988E+00 4.55149E-02 2.03385E-01 3.36536E-15-4.00133E-13
 -1        16 1.87013E+01 5.62517E+00 4.65510E-02 5.99247E-01 4.10598E-15-3.90176E-13
 -1        17 1.87364E+01 5.63698E+00 4.84701E-02 1.01377E+00 7.61392E-15-3.71568E-13
 -1        18 1.88002E+01 5.65868E+00 5.07472E-02 1.45341E+00 1.06603E-14-3.34407E-13
 -1        19 1.89189E+01 5.69869E+00 5.20448E-02 1.95317E+00 1.39810E-14-2.72032E-13
 -1        20 1.91502E+01 5.77631E+00 4.98691E-02 2.53832E+00 1.79926E-14-1.55711E-13
 -1        21 1.96565E+01 5.94570E+00 4.74105E-02 3.28671E+00 2.07750E-14 6.60075E-14
 -1        22 2.11580E+01 6.36783E+00 1.40351E-01 4.50332E+00 4.09395E-15 5.05330E-13
 -1        23 2.29448E+01-1.37566E+00-9.37175E-01-7.06699E-01-5.09731E-14 1.07696E-12
 -1        24 1.93106E+01-9.94695E-02-3.09022E-01 6.31221E-02-1.28716E-14 8.19957E-13
 -1        25 1.86429E+01-5.66625E-02-6.87373E-02 6.03469E-02-4.36370E-15 5.76306E-13
 -1        26 1.84644E+01-2.27865E-02-6.94702E-03 3.25312E-02-4.18394E-15 3.94740E-13
 -1        27 1.85083E+01-1.28778E-02 6.44117E-04 2.21431E-02-9.61340E-15 2.70868E-13
 -1        28 1.86692E+01-7.76631E-03 3.26294E-04 1.59437E-02 3.54572E-15 2.31156E-13
 -1        29 1.88967E+01-5.16379E-03-3.71959E-04 1.20218E-02 2.82502E-15 1.69156E-13
 -1        30 1.91678E+01-3.97679E-03-9.86939E-04 9.46193E-03 1.26563E-14 1.15656E-13
 -1        31 1.94750E+01-3.68674E-03-1.85032E-03 7.88954E-03-1.05510E-14-1.73711E-14
 -1        32 1.98214E+01-4.00527E-03-3.11467E-03 7.18893E-03-2.52756E-14-1.79743E-13
 -1        33 2.02175E+01-4.73846E-03-4.80450E-03 7.38915E-03 4.67193E-14-1.58433E-13
 -1        34 2.06800E+01-5.70184E-03-6.86956E-03 8.62096E-03 5.05504E-15-2.23888E-14
 -1        35 2.12296E+01-6.64749E-03-9.14560E-03 1.10909E-02-2.85703E-14-1.75946E-13
 -1        36 2.18880E+01-7.17819E-03-1.12165E-02 1.50302E-02 1.05047E-14-1.79048E-13
 -1        37 2.26721E+01-6.64408E-03-1.21527E-02 2.05533E-02-2.56026E-14-5.85556E-14
 -1        38 2.35831E+01-4.05195E-03-1.01205E-02 2.73145E-02-7.04051E-15-1.52586E-13
 -1        39 2.45876E+01 1.89133E-03-2.02850E-03 3.37960E-02 7.93456E-15-1.57631E-13
 -1        40 2.55883E+01 1.23470E-02 1.62062E-02 3.61242E-02-3.79303E-14-2.18473E-13
 -1        41 2.63890E+01 2.70943E-02 4.72961E-02 2.68243E-02 1.34998E-14-4.44481E-13
 -1        42 2.66774E+01 4.22936E-02 8.65649E-02-4.74786E-03-1.80424E-14-3.85489E-13
 -1        43 2.60784E+01 4.87664E-02 1.13383E-01-6.57793E-02-5.55597E-14-2.76737E-13
 -1        44 2.43553E+01 3.44040E-02 9.07770E-02-1.43620E-01 5.19910E-14-1.93137E-13
 -1        45 2.17464E+01-4.85863E-03-4.58936E-03-1.92502E-01-1.32528E-14-7.85344E-14
 -1        46 1.91771E+01-5.28864E-02-1.37387E-01-1.53468E-01-4.50395E-14-2.84592E-13
 -1        47 1.79185E+01-7.84868E-02-2.13145E-01-2.03461E-02-2.74719E-14-1.62209E-13
 -1        48 1.86932E+01-6.25559E-02-1.65531E-01 1.26905E-01 3.86453E-15 8.41688E-15
 -1        49 2.10536E+01-1.73796E-02-3.73346E-02 1.92825E-01 3.07200E-14-2.15619E-13
 -1        50 2.37717E+01 2.64583E-02 7.36981E-02 1.61081E-01-5.31042E-14-6.09568E-13
 -1        51 2.57734E+01 4.72409E-02 1.12920E-01 8.47968E-02 1.11855E-14-4.23422E-13
 -1        52 2.66571E+01 4.49705E-02 9.55412E-02 1.74747E-02 1.73984E-14-9.59684E-14
 -1        53 2.65736E+01 3.07376E-02 5.64822E-02-2.12841E-02-1.38761E-14 9.31568E-14
 -1        54 2.58896E+01 1.52433E-02 2.22679E-02-3.50780E-02-6.57879E-14-8.73815E-14
 -1        55 2.49450E+01 3.46289E-03 7.13973E-04-3.46332E-02 1.68954E-14-6.95208E-14
 -1        56 2.39671E+01-3.65367E-03-9.73843E-03-2.84551E-02-5.72115E-14-1.41860E-13
 -1        57 2.30771E+01-7.07370E-03-1.31564E-02-2.12166E-02 6.32326E-14 4.93832E-14
 -1        58 2.23237E+01-8.11523E-03-1.29670E-02-1.48756E-02 7.88426E-15-3.46121E-14
 -1        59 2.17144E+01-7.84233E-03-1.12913E-02-9.95707E-03-4.02575E-14-2.09441E-13
 -1        60 2.12369E+01-6.95661E-03-9.22969E-03-6.38248E-03-1.01505E-14-6.72379E-14
 -1        61 2.08715E+01-5.86643E-03-7.27258E-03-3.88744E-03 4.98621E-14-1.74117E-13
 -1        62 2.05974E+01-4.78589E-03-5.59647E-03-2.19658E-03-8.98335E-14-2.97482E-13
 -1        63 2.03957E+01-3.81390E-03-4.23430E-03-1.08080E-03-4.07082E-14-6.71640E-13
 -1        64 2.02502E+01-2.98636E-03-3.16211E-03-3.65794E-04-1.00948E-13-7.36223E-13
 -1        65 2.01476E+01-2.30724E-03-2.33965E-03 7.65668E-05-4.06436E-14-5.03479E-13
 -1        66 2.00776E+01-1.76558E-03-1.72838E-03 3.40786E-04-8.46393E-14-6.76286E-13
 -1        67 2.00320E+01-1.34355E-03-1.29817E-03 5.00328E-04 3.12257E-14-7.15882E-13
 -1        68 2.00048E+01-1.01700E-03-1.02086E-03 6.21508E-04 2.83539E-14 3.36146E-13
 -1        69 1.99917E+01-7.47300E-04-8.28942E-04 7.73727E-04 6.33005E-15 1.82130E-13
 -1        70 1.99897E+01-4.40161E-04-4.96066E-04 1.03745E-03-1.75537E-14 1.87467E-13
 -1        71 1.99956E+01 7.32301E-05 6.68435E-04 1.23445E-03-1.13097E-13 2.55682E-14
 -1        72 2.09659E+01-4.03618E-01-9.78941E-01-3.10772E-01 1.41345E-14 1.36020E-12
 -1        73 1.92778E+01-6.59437E-02-2.90432E-01-5.35769E-02 1.73464E-14 1.02537E-12
 -1        74 1.86552E+01-2.08543E-02-6.43136E-02-1.98339E-02 9.16097E-15 7.99269E-13
 -1        75 1.84768E+01-1.04517E-02-9.87149E-03-1.46926E-02 3.99290E-15 6.77730E-13
 -1        76 1.85211E+01-5.98020E-03-3.29964E-04-1.14380E-02 5.32999E-15 5.52494E-13
 -1        77 1.86812E+01-3.70226E-03 2.55792E-04-9.03883E-03 2.26642E-15 5.18737E-13
 -1        78 1.89065E+01-2.53557E-03-1.60062E-04-7.24356E-03-1.47843E-14 5.65810E-13
 -1        79 1.91726E+01-1.99313E-03-6.09810E-04-5.87150E-03 1.59524E-14 4.84527E-13
 -1        80 1.94693E+01-1.80647E-03-1.18671E-03-4.88422E-03-9.18086E-15 3.22906E-13
 -1        81 1.97951E+01-1.78949E-03-1.91970E-03-4.33069E-03 4.01638E-14 2.50950E-13
 -1        82 2.01532E+01-1.77683E-03-2.69541E-03-4.31245E-03 1.31363E-14 1.61355E-13
 -1        83 2.05484E+01-1.58968E-03-3.28493E-03-4.95913E-03-9.87154E-15 1.16537E-13
 -1        84 2.09839E+01-1.01764E-03-3.33175E-03-6.39863E-03 2.06665E-14 7.79706E-14
 -1        85 2.14565E+01 1.79211E-04-2.31701E-03-8.69650E-03-2.02955E-15 2.95623E-14
 -1        86 2.19512E+01 2.23127E-03 4.49468E-04-1.17357E-02 1.57960E-14-1.38478E-13
 -1        87 2.24339E+01 5.25521E-03 5.73249E-03-1.50120E-02 1.19234E-14-3.18616E-13
 -1        88 2.28448E+01 9.05783E-03 1.40404E-02-1.73520E-02-4.80293E-14-1.01248E-13
 -1        89 2.30943E+01 1.28676E-02 2.49235E-02-1.66725E-02 4.41815E-14-7.88908E-14
 -1        90 2.30695E+01 1.51361E-02 3.59403E-02-1.01213E-02-8.74615E-15-7.44530E-14
 -1        91 2.26608E+01 1.37586E-02 4.18978E-02 4.83494E-03 5.72448E-15-6.92727E-14
 -1        92 2.18133E+01 7.08908E-03 3.57130E-02 2.79853E-02-2.98391E-14-3.02692E-14
 -1        93 2.05958E+01-4.33283E-03 1.24597E-02 5.34374E-02 8.30591E-15-1.31388E-14
 -1        94 1.92488E+01-1.67178E-02-2.46119E-02 6.93477E-02-1.37707E-14-2.80498E-13
 -1        95 1.81512E+01-2.44196E-02-6.08708E-02 6.34291E-02-5.49855E-14-3.26371E-14
 -1        96 1.76756E+01-2.37416E-02-7.77479E-02 3.34411E-02 6.08498E-14 2.00641E-13
 -1        97 1.79988E+01-1.51737E-02-6.48988E-02-9.05300E-03-4.06008E-14 4.53769E-13
 -1        98 1.90014E+01-3.31852E-03-3.05038E-02-4.50431E-02 7.58180E-14 2.67061E-13
 -1        99 2.03365E+01 6.98330E-03 7.51213E-03-6.13316E-02-1.92521E-14-3.77760E-13
 -1       100 2.16132E+01 1.28197E-02 3.33403E-02-5.73813E-02-4.92109E-15-6.24341E-13
 -1       101 2.25582E+01 1.39730E-02 4.19770E-02-4.14081E-02 2.96853E-14-5.58107E-13
 -1       102 2.30711E+01 1.18667E-02 3.73314E-02-2.27892E-02-2.43501E-14-6.73467E-13
 -1       103 2.31887E+01 8.31444E-03 2.64613E-02-7.43246E-03-5.71958E-14-3.02117E-13
 -1       104 2.30161E+01 4.69826E-03 1.50110E-02 2.69426E-03 3.66223E-14 3.39800E-13
 -1       105 2.26698E+01 1.75544E-03 5.89001E-03 8.04783E-03 7.87801E-14 9.75669E-14
 -1       106 2.22469E+01-2.94845E-04-1.67973E-04 9.98137E-03-3.66842E-14-1.71745E-13
 -1       107 2.18156E+01-1.52646E-03-3.56442E-03 9.85111E-03-5.47937E-14-3.46612E-13
 -1       108 2.14167E+01-2.12833E-03-5.05587E-03 8.67859E-03 9.00923E-15-6.69410E-13
 -1       109 2.10706E+01-2.30077E-03-5.35477E-03 7.11999E-03 2.98981E-15-5.14470E-13
 -1       110 2.07839E+01-2.21057E-03-4.99579E-03 5.54689E-03 7.15420E-15-5.53755E-13
 -1       111 2.05550E+01-1.98012E-03-4.33272E-03 4.14178E-03 5.46980E-14-8.15579E-13
 -1       112 2.03780E+01-1.69172E-03-3.57925E-03 2.97410E-03-4.24401E-14-1.03002E-12
 -1       113 2.02451E+01-1.39681E-03-2.85433E-03 2.05145E-03 6.05548E-14-9.64006E-13
 -1       114 2.01484E+01-1.12510E-03-2.21865E-03 1.35100E-03-9.92142E-14-3.49196E-13
 -1       115 2.00805E+01-8.91402E-04-1.70071E-03 8.36118E-04-1.64240E-15-1.53171E-13
 -1       116 2.00352E+01-6.98529E-04-1.31214E-03 4.61685E-04 6.87818E-14 7.90218E-15
 -1       117 2.00075E+01-5.40404E-04-1.05036E-03 1.73856E-04 1.05707E-13-6.26540E-13
 -1       118 1.99936E+01-3.97035E-04-8.66081E-04-9.80326E-05-7.28812E-14-1.02216E-12
 -1       119 1.99909E+01-1.59548E-04-5.00661E-04-5.21617E-04 5.54599E-14-1.10524E-12
 -1       120 1.99959E+01 2.91981E-04 6.04334E-04-1.11329E-03 2.35713E-13-1.40267E-12
 -1       121 1.99999E+01-3.95514E-03 4.18756E-04-1.37585E-03-1.06442E-12 3.19160E-13
 -1       122 1.99995E+01-8.23870E-03-6.88671E-04-6.68856E-04 8.56461E-14 1.15820E-13
 -1       123 1.99994E+01-3.76991E-03-8.13441E-04-4.58345E-05 7.25973E-13 3.54084E-13
 -1       124 1.99996E+01 8.70766E-03-5.14584E-04 3.67558E-04 8.09405E-13 1.96021E-14
 -1       125 1.99998E+01 2.59157E-02-1.00472E-04 5.47722E-04 1.24038E-12 1.20125E-15
 -1       126 2.00000E+01 4.33867E-02 2.76144E-04 5.39301E-04 8.94524E-14-1.37573E-13
 -1       127 2.00002E+01 5.77310E-02 5.62187E-04 3.79657E-04 2.07455E-13 1.68233E-13
 -1       128 2.00003E+01 6.55500E-02 7.14774E-04 1.24092E-04 7.02171E-14-2.94056E-13
 -1       129 2.00003E+01 6.51717E-02 7.11554E-04-1.63720E-04 2.95099E-14 2.94688E-13
 -1       130 2.00002E+01 5.66268E-02 5.50725E-04-4.16376E-04 2.90727E-13 9.14107E-14
 -1       131 2.00000E+01 4.16715E-02 2.50085E-04-5.71284E-04-2.65064E-13-1.63964E-13
 -1       132 1.99998E+01 2.38213E-02-1.39782E-04-5.61301E-04-7.43347E-13 1.32061E-13
 -1       133 1.99996E+01 6.59715E-03-5.57520E-04-3.50165E-04-4.90395E-13 1.86588E-14
 -1       134 1.99994E+01-5.52726E-03-8.82345E-04 5.32318E-05-1.05459E-12-7.12083E-14
 -1       135 1.99996E+01-9.13599E-03-6.34158E-04 1.01077E-03-2.51097E-13-3.75466E-14
 -1       136 1.99996E+01-4.24979E-03 4.49297E-04 2.07409E-03-1.25491E-13 5.57325E-15
 -1       137-1.37526E+00-1.91832E+01-3.02653E+00-3.74001E+00 7.70661E-13 1.44711E-13
 -1       138-1.41097E+00-7.68561E+00-2.18174E+00-2.75584E+00 1.33560E-13-1.15241E-13
 -1       139 3.18820E+00 4.00382E+00-9.99560E-01 3.81850E+00 2.14773E-13 4.34264E-13
 -1       140 1.55380E+01 1.05494E+01 4.05518E-01 1.26798E+01 1.05987E-12 1.17600E-12
 -1       141 3.48345E+01 1.00450E+01 1.80751E+00 1.81221E+01 6.84397E-13 1.02607E-12
 -1       142 5.38018E+01 5.09284E+00 2.89225E+00 1.51791E+01 7.95197E-14 2.88269E-13
 -1       143 6.48348E+01 1.20491E+00 3.44920E+00 4.40724E+00-1.79648E-14-1.81077E-13
 -1       144 6.24893E+01 2.04715E+00 3.33618E+00-8.73673E+00 1.54470E-13-6.45650E-13
 -1       145 4.82103E+01 6.85954E+00 2.60508E+00-1.71945E+01 6.32397E-13-1.61682E-12
 -1       146 2.82335E+01 1.09705E+01 1.38961E+00-1.72252E+01 1.07758E-12-1.68426E-12
 -1       147 1.11388E+01 9.50343E+00-6.76005E-03-1.03009E+01 1.30057E-12-1.30074E-12
 -1       148 1.40997E+00 1.36363E+00-1.31407E+00-1.75832E+00 1.35086E-12-8.55593E-13
 -1       149-1.68064E+00-1.08976E+01-2.42506E+00 3.60050E+00 1.13742E-12-4.28518E-13
 -1       150-1.15452E+00-2.13073E+01-3.13370E+00 2.90263E+00 4.05759E-13-1.24392E-13
 -1       151-9.02515E-01-2.41088E+01-3.33223E+00-1.24002E+00 6.27831E-14 3.01842E-15
 -1       152-1.71174E+00-1.74772E+01-2.96684E+00-4.35820E+00-7.52565E-13-2.39947E-13
 -1       153 4.88102E+00 4.91084E+00-9.00678E-01 5.11059E+00-1.00558E-12-6.58085E-13
 -1       154 1.92708E+01 1.04860E+01 5.97357E-01 1.40556E+01-7.69218E-13-1.07842E-12
 -1       155 3.82183E+01 9.35995E+00 2.02656E+00 1.82509E+01-7.29278E-13-1.56458E-12
 -1       156 5.70176E+01 4.60557E+00 3.18194E+00 1.46934E+01-4.91017E-13-1.14803E-12
 -1       157 6.71105E+01 1.13919E+00 3.75523E+00 3.83621E+00-3.49200E-14-2.90948E-13
 -1       158 6.40388E+01 2.21502E+00 3.58359E+00-9.19431E+00-4.09605E-14 5.34711E-13
 -1       159 4.93042E+01 6.84172E+00 2.71894E+00-1.74041E+01-4.18998E-13 1.16535E-12
 -1       160 2.97657E+01 1.05844E+01 1.43797E+00-1.73515E+01-8.31113E-13 1.16990E-12
 -1       161 1.24269E+01 9.45019E+00-4.05548E-03-1.08336E+01-1.21392E-12 1.21414E-12
 -1       162 1.69889E+00 1.33049E+00-1.41249E+00-2.00276E+00-8.83627E-13 7.88258E-13
 -1       163-1.89706E+00-1.08673E+01-2.51961E+00 3.80939E+00-1.96787E-13 3.77753E-14
 -1       164-1.30673E+00-2.09296E+01-3.17531E+00 3.78853E+00-4.71845E-14 1.01436E-13
 -1       165 2.09914E+01 3.68474E+00-5.69519E-02-3.58345E+00-1.98567E-13 8.28330E-14
 -1       166 1.99926E+01 4.20531E+00-4.55711E-02-2.77909E+00-1.89944E-13-1.25153E-13
 -1       167 1.95257E+01 4.48062E+00-3.10747E-02-2.16476E+00-1.50960E-13-2.44688E-13
 -1       168 1.92879E+01 4.62661E+00-2.32416E-02-1.64426E+00-1.11925E-13-3.13494E-13
 -1       169 1.91570E+01 4.71472E+00-1.92594E-02-1.19245E+00-7.77282E-14-3.30487E-13
 -1       170 1.90808E+01 4.77077E+00-1.71325E-02-7.72319E-01-4.28482E-14-3.34219E-13
 -1       171 1.90411E+01 4.80180E+00-1.60934E-02-3.76365E-01 1.01224E-15-3.36034E-13
 -1       172 1.90291E+01 4.81137E+00-1.57927E-02 8.28244E-03 2.68037E-14-3.42191E-13
 -1       173 1.90423E+01 4.80039E+00-1.61364E-02 3.93268E-01 5.47050E-14-3.31134E-13
 -1       174 1.90836E+01 4.76759E+00-1.72168E-02 7.90282E-01 8.91533E-14-3.20216E-13
 -1       175 1.91604E+01 4.71016E+00-1.94199E-02 1.20496E+00 1.13201E-13-2.90628E-13
 -1       176 1.92961E+01 4.61658E+00-2.37617E-02 1.66771E+00 1.66534E-13-2.41283E-13
 -1       177 1.95384E+01 4.46358E+00-3.25834E-02 2.19521E+00 1.96183E-13-1.60705E-13
 -1       178 2.00154E+01 4.18081E+00-4.68331E-02 2.81717E+00 2.26545E-13-1.09114E-14
 -1       179 2.11121E+01 3.45577E+00-5.93760E-02 3.51046E+00 2.14516E-13 2.46879E-13
 -1       180 2.23689E+01 1.14009E+00-3.35295E-01 2.99531E+00 1.49071E-13 5.92706E-13
 -1       181 2.19325E+01 8.55730E-01 7.45452E-04-1.94047E+00-1.65347E-13 3.22346E-13
 -1       182 2.04270E+01 1.90679E-01-9.73778E-03-7.46172E-01-1.42506E-13 2.40443E-13
 -1       183 1.96742E+01 1.03576E-01 1.37937E-02-2.64340E-01-9.81402E-14 1.78187E-13
 -1       184 1.93639E+01 5.06256E-02 1.02665E-02-3.91635E-02-8.42655E-14 1.09422E-13
 -1       185 1.92745E+01 2.78818E-02 5.53202E-03 8.00062E-02-4.93472E-14 6.87046E-14
 -1       186 1.93168E+01 1.70686E-02 2.92337E-03 1.49898E-01-5.64942E-14 4.59105E-14
 -1       187 1.94425E+01 1.24228E-02 1.78234E-03 1.96051E-01-2.44646E-14 1.25296E-14
 -1       188 1.96270E+01 1.16155E-02 1.33305E-03 2.32762E-01-6.40248E-14-2.15903E-14
 -1       189 1.98599E+01 1.35238E-02 1.20431E-03 2.69259E-01-5.88380E-14 1.28875E-14
 -1       190 2.01399E+01 1.74947E-02 1.23376E-03 3.12104E-01-1.29031E-14 5.88533E-14
 -1       191 2.04720E+01 2.30007E-02 1.32900E-03 3.66089E-01-1.45598E-15-7.70957E-14
 -1       192 2.08648E+01 2.93557E-02 1.40115E-03 4.34253E-01-6.51403E-14-1.40012E-13
 -1       193 2.13284E+01 3.53506E-02 1.33374E-03 5.17078E-01-4.55696E-14-8.87363E-14
 -1       194 2.18710E+01 3.86975E-02 9.70359E-04 6.10557E-01 3.29888E-14-1.85663E-13
 -1       195 2.24936E+01 3.52335E-02 1.32614E-04 7.02716E-01-3.59720E-14-1.23206E-13
 -1       196 2.31820E+01 1.80569E-02-1.29929E-03 7.68288E-01 1.90923E-14-9.04287E-14
 -1       197 2.38959E+01-2.25564E-02-3.22282E-03 7.62524E-01-2.77329E-14-3.60319E-14
 -1       198 2.45564E+01-9.60985E-02-5.03707E-03 6.18632E-01-6.03948E-14-9.61939E-14
 -1       199 2.50369E+01-2.01847E-01-5.64121E-03 2.60331E-01-6.54502E-14-1.07148E-13
 -1       200 2.51715E+01-3.08251E-01-4.00387E-03-3.51245E-01 6.88165E-15-2.15924E-13
 -1       201 2.48030E+01-3.32243E-01-6.17039E-04-1.12269E+00 1.30678E-13-9.52780E-14
 -1       202 2.38973E+01-1.69206E-01-1.11355E-04-1.73669E+00-4.02269E-14-1.26172E-13
 -1       203 2.26988E+01 1.91754E-01-5.12775E-03-1.72820E+00 3.19840E-15-1.19052E-13
 -1       204 2.17599E+01 5.45696E-01-1.13184E-02-8.51097E-01 7.01834E-14-1.03795E-13
 -1       205 2.16399E+01 5.96643E-01-1.09232E-02 5.24714E-01 5.72754E-14-8.57478E-14
 -1       206 2.24177E+01 2.95451E-01-6.23110E-03 1.59219E+00-1.18622E-13-1.96664E-13
 -1       207 2.36185E+01-9.29759E-02-6.86104E-04 1.81604E+00-1.97684E-13-3.12047E-13
 -1       208 2.46402E+01-3.11675E-01-9.04228E-04 1.31588E+00 1.31792E-13-2.87366E-13
 -1       209 2.51589E+01-3.24634E-01-2.93989E-03 5.48567E-01 1.95014E-13-1.84013E-13
 -1       210 2.51510E+01-2.29642E-01-5.47753E-03-1.16304E-01 4.11316E-14-9.71090E-14
 -1       211 2.47574E+01-1.18357E-01-5.24648E-03-5.33766E-01-1.21689E-13-2.53486E-14
 -1       212 2.41497E+01-3.51747E-02-3.57055E-03-7.19012E-01 2.60187E-15 2.24118E-14
 -1       213 2.34676E+01 1.36138E-02-1.58369E-03-7.45124E-01-3.42618E-14 1.05005E-14
 -1       214 2.28030E+01 3.63231E-02 1.62506E-05-6.83497E-01 9.40262E-14 1.69138E-13
 -1       215 2.22059E+01 4.31080E-02 1.01465E-03-5.84526E-01-1.41812E-13-1.41945E-13
 -1       216 2.16970E+01 4.15977E-02 1.48739E-03-4.77901E-01-1.52601E-13-2.64039E-13
 -1       217 2.12789E+01 3.64929E-02 1.60130E-03-3.78637E-01-1.38303E-13-5.05402E-13
 -1       218 2.09448E+01 3.03481E-02 1.51075E-03-2.92895E-01 4.77311E-14-3.27901E-13
 -1       219 2.06838E+01 2.44030E-02 1.32508E-03-2.22068E-01-2.59676E-14-2.04263E-13
 -1       220 2.04837E+01 1.91724E-02 1.11069E-03-1.65260E-01-3.18354E-13-3.18303E-13
 -1       221 2.03331E+01 1.48051E-02 9.03162E-04-1.20645E-01-1.61833E-13-5.27904E-13
 -1       222 2.02220E+01 1.12817E-02 7.18853E-04-8.61605E-02 2.08457E-13-5.14451E-13
 -1       223 2.01417E+01 8.51746E-03 5.62838E-04-5.98265E-02-9.43839E-15-2.40073E-14
 -1       224 2.00853E+01 6.41067E-03 4.33140E-04-3.98708E-02 1.28639E-13 1.52783E-13
 -1       225 2.00471E+01 4.86198E-03 3.22598E-04-2.47687E-02 4.30038E-13 1.79290E-13
 -1       226 2.00228E+01 3.75709E-03 2.23852E-04-1.32625E-02 1.65038E-14-9.80296E-14
 -1       227 2.00087E+01 2.88076E-03 1.56962E-04-4.50999E-03-3.94350E-14-1.21281E-13
 -1       228 2.00017E+01 1.73517E-03 1.25693E-04 1.60345E-03-3.56254E-14-5.24601E-14
 -1       229 2.09292E+01 2.76495E-01-5.10135E-02 1.14943E+00 1.69195E-13 5.12522E-13
 -1       230 1.98549E+01 1.27458E-01 8.45371E-03 4.27330E-01 1.12400E-13 3.93022E-13
 -1       231 1.93735E+01 5.97369E-02 1.28570E-02 1.30270E-01 7.64389E-14 2.73987E-13
 -1       232 1.91969E+01 3.05007E-02 7.78550E-03-1.63376E-02 5.40316E-14 2.15326E-13
 -1       233 1.91922E+01 1.70849E-02 4.02806E-03-9.64240E-02 9.48254E-15 2.03795E-13
 -1       234 1.92898E+01 1.05533E-02 2.15893E-03-1.43896E-01-1.84237E-14 1.51856E-13
 -1       235 1.94524E+01 7.62706E-03 1.29567E-03-1.75350E-01 7.70155E-14 1.50664E-13
 -1       236 1.96611E+01 6.80545E-03 8.59979E-04-1.99981E-01 7.97859E-14 8.83146E-14
 -1       237 1.99068E+01 7.21760E-03 5.94763E-04-2.23164E-01 4.62728E-14 5.55697E-15
 -1       238 2.01867E+01 8.17536E-03 3.89250E-04-2.47737E-01 7.21244E-15 6.59858E-14
 -1       239 2.05001E+01 8.95939E-03 1.85032E-04-2.74277E-01 1.57065E-14 7.68686E-14
 -1       240 2.08458E+01 8.67802E-03-5.38742E-05-3.00842E-01 4.32037E-14 4.96272E-15
 -1       241 2.12187E+01 6.16453E-03-3.40038E-04-3.22363E-01 8.11030E-14-7.92081E-14
 -1       242 2.16059E+01-4.59419E-05-6.46478E-04-3.29873E-01 8.62252E-14-1.93165E-13
 -1       243 2.19825E+01-1.15392E-02-8.84953E-04-3.10019E-01 2.58364E-14-9.94975E-14
 -1       244 2.23081E+01-2.94302E-02-8.97701E-04-2.45752E-01-1.37148E-13-5.26051E-14
 -1       245 2.25256E+01-5.30920E-02-4.98514E-04-1.19738E-01 3.30226E-14-1.13254E-13
 -1       246 2.25662E+01-7.81599E-02 3.97805E-04 7.75785E-02 2.46981E-14-1.12321E-13
 -1       247 2.23651E+01-9.46699E-02 1.53349E-03 3.34474E-01-4.65825E-14-1.20960E-13
 -1       248 2.18908E+01-8.76969E-02 2.21684E-03 6.02911E-01-3.50642E-14 4.93529E-16
 -1       249 2.11826E+01-4.41031E-02 1.49886E-03 7.93999E-01-1.10589E-17-7.51725E-14
 -1       250 2.03788E+01 3.42960E-02-8.92876E-04 8.02588E-01 9.74284E-14 2.92865E-14
 -1       251 1.97017E+01 1.20560E-01-3.68375E-03 5.66377E-01-5.43853E-14-6.01077E-14
 -1       252 1.93796E+01 1.70852E-01-4.84765E-03 1.29835E-01-1.90937E-13-1.49719E-13
 -1       253 1.95323E+01 1.57279E-01-2.91377E-03-3.55902E-01-3.82927E-14 1.43402E-13
 -1       254 2.01049E+01 8.74703E-02 3.75046E-04-7.11019E-01 2.13410E-13-4.82210E-14
 -1       255 2.08972E+01 9.76007E-04 2.96980E-03-8.30300E-01 1.60171E-13-1.16142E-13
 -1       256 2.16726E+01-6.38851E-02 3.45387E-03-7.25995E-01 1.01386E-13-1.31103E-13
 -1       257 2.22563E+01-9.13061E-02 2.23105E-03-4.88899E-01-3.58719E-14-2.41899E-13
 -1       258 2.25746E+01-8.71630E-02 4.68063E-04-2.21469E-01-7.62194E-15-2.36833E-13
 -1       259 2.26383E+01-6.61352E-02-8.65546E-04 5.97761E-03-2.51517E-13-8.13740E-14
 -1       260 2.25050E+01-4.11261E-02-1.44916E-03 1.64003E-01-1.00699E-13-1.73073E-14
 -1       261 2.22458E+01-1.95360E-02-1.41457E-03 2.52588E-01 9.65088E-14 1.06674E-13
 -1       262 2.19243E+01-3.99348E-03-1.04806E-03 2.86039E-01 7.13917E-14 1.95710E-13
 -1       263 2.15885E+01 5.65969E-03-5.93896E-04 2.82087E-01 1.18530E-13-8.06462E-14
 -1       264 2.12700E+01 1.07042E-02-1.94339E-04 2.56287E-01 1.41139E-13-1.22335E-13
 -1       265 2.09863E+01 1.25893E-02 9.58756E-05 2.20176E-01-6.77838E-14-2.79729E-13
 -1       266 2.07451E+01 1.25310E-02 2.74800E-04 1.81370E-01 6.39864E-15-2.98269E-13
 -1       267 2.05474E+01 1.14137E-02 3.63674E-04 1.44378E-01 3.71885E-14 1.51977E-13
 -1       268 2.03902E+01 9.82499E-03 3.89141E-04 1.11519E-01 1.21025E-13 3.31091E-13
 -1       269 2.02688E+01 8.12742E-03 3.74760E-04 8.36840E-02 2.08441E-14 1.64480E-13
 -1       270 2.01775E+01 6.52907E-03 3.38024E-04 6.09039E-02-3.14053E-13 2.09182E-13
 -1       271 2.01110E+01 5.14014E-03 2.89803E-04 4.27245E-02 1.15510E-13 8.63956E-14
 -1       272 2.00642E+01 4.01167E-03 2.34660E-04 2.84488E-02-1.52449E-14-8.17741E-14
 -1       273 2.00330E+01 3.14577E-03 1.70983E-04 1.72993E-02 3.15519E-13 1.21126E-13
 -1       274 2.00139E+01 2.51563E-03 1.03609E-04 8.57867E-03 1.20593E-13 1.12474E-14
 -1       275 2.00040E+01 2.01431E-03 1.14443E-04 1.82701E-03 3.27439E-14-1.81133E-13
 -1       276 2.00003E+01 5.84418E-04 2.54303E-04-2.37801E-03-4.56858E-14-1.54513E-14
 -1       277 2.00019E+01 2.06784E-03 9.81028E-05-4.37831E-04-8.54678E-15 8.08535E-13
 -1       278 2.00025E+01 8.22653E-03 2.27402E-05 5.28110E-03 2.24915E-13 2.79420E-13
 -1       279 2.00018E+01 1.87063E-02 5.88200E-06 1.08781E-02 2.23564E-13 2.85050E-13
 -1       280 2.00006E+01 3.22309E-02-2.07196E-06 1.40999E-02 3.02545E-13 2.87220E-13
 -1       281 1.99993E+01 4.63643E-02-3.09456E-05 1.42568E-02 9.06019E-14-6.29304E-13
 -1       282 1.99982E+01 5.90412E-02-6.12446E-05 1.14156E-02 1.42463E-13-1.38478E-13
 -1       283 1.99974E+01 6.76529E-02-8.47949E-05 6.21581E-03 7.90047E-14-1.39135E-14
 -1       284 1.99971E+01 7.05997E-02-9.31493E-05-2.60381E-04 2.36906E-13 9.06305E-14
 -1       285 1.99974E+01 6.73148E-02-8.42668E-05-6.71630E-03-1.40294E-13-1.81013E-13
 -1       286 1.99982E+01 5.83818E-02-6.06766E-05-1.18443E-02-3.87284E-13-1.73203E-13
 -1       287 1.99994E+01 4.56951E-02-2.84726E-05-1.45144E-02-2.16774E-13-3.98548E-13
 -1       288 2.00007E+01 3.11711E-02-2.55999E-06-1.41364E-02-9.43508E-14 2.21245E-13
 -1       289 2.00019E+01 1.76458E-02 2.09142E-06-1.05707E-02 1.44974E-13-7.86534E-14
 -1       290 2.00025E+01 7.76158E-03 7.72336E-05-4.93850E-03-4.50826E-14 1.40396E-13
 -1       291 2.00037E+01 4.67722E-03 6.36117E-05-1.28775E-03-9.65049E-14 1.98534E-14
 -1       292-7.59478E-01-1.02414E+01-9.19692E-01 1.46064E+00 3.32234E-14 1.25483E-13
 -1       293 2.81513E+00-8.31724E+00-7.94442E-01 3.48673E+00 1.10134E-13-3.02369E-13
 -1       294 9.33199E+00-4.65153E+00-4.95428E-01 5.63725E+00 2.38365E-13 3.47639E-13
 -1       295 1.83294E+01-6.86987E-01-9.49747E-02 7.30804E+00-6.92224E-14 4.39371E-13
 -1       296 2.90295E+01 2.04275E+00 2.74293E-01 7.01944E+00 3.43101E-13 2.14745E-13
 -1       297 3.80454E+01 4.92819E+00 6.31632E-01 5.85688E+00 4.41284E-13-2.36200E-14
 -1       298 4.34429E+01 6.56562E+00 7.90956E-01 2.75815E+00 2.02643E-13-9.36751E-14
 -1       299 4.57893E+01 6.80765E+00 9.35903E-01-6.79282E-01 1.44690E-13-2.47947E-13
 -1       300 4.25878E+01 6.08727E+00 8.22872E-01-4.11035E+00 5.14019E-13-2.58543E-13
 -1       301 3.54186E+01 4.24714E+00 5.56845E-01-6.61019E+00 3.28616E-13-4.45505E-13
 -1       302 2.55687E+01 1.80319E+00 2.03385E-01-7.79960E+00 4.55025E-13-5.96023E-13
 -1       303 1.57677E+01-1.73245E+00-2.04637E-01-6.94035E+00 5.18752E-13-6.15452E-13
 -1       304 7.41735E+00-5.68860E+00-5.85689E-01-5.10028E+00 5.25052E-13-4.56905E-13
 -1       305 1.61164E+00-9.08223E+00-8.41121E-01-2.98482E+00 2.95458E-13-5.16406E-13
 -1       306-7.99092E-01-8.82144E+00-6.34071E-01-1.01958E+00 7.49609E-14-2.21545E-13
 -1       307-1.73796E-01-1.00058E+01-8.76145E-01 1.65360E+00-7.53703E-14-3.93741E-13
 -1       308 3.89947E+00-7.97680E+00-7.97915E-01 3.64596E+00-2.78083E-13-3.55514E-13
 -1       309 1.10449E+01-4.30939E+00-4.63254E-01 5.77152E+00-3.87024E-13-1.26898E-13
 -1       310 2.23440E+01-2.09192E+00-3.86950E-02 6.59054E+00-1.43469E-13-3.05311E-13
 -1       311 3.12331E+01 2.28064E+00 3.31300E-01 6.81014E+00-1.59026E-13-5.74818E-13
 -1       312 3.95611E+01 4.82278E+00 6.56692E-01 4.74878E+00-3.88696E-13-2.01367E-13
 -1       313 4.61788E+01 6.37054E+00 1.02902E+00 2.79560E+00-4.74412E-13-1.67671E-13
 -1       314 4.60055E+01 7.09073E+00 9.37772E-01-6.19853E-01-4.02844E-13 1.42490E-13
 -1       315 4.41078E+01 5.85168E+00 9.40954E-01-4.22318E+00-4.32876E-13 4.12059E-13
 -1       316 3.65014E+01 3.87804E+00 5.74941E-01-6.03283E+00-2.10099E-13 3.99958E-13
 -1       317 2.70609E+01 1.39846E+00 2.14060E-01-7.41403E+00-2.82413E-13 2.47358E-13
 -1       318 1.67904E+01-1.94246E+00-2.27452E-01-6.75217E+00-2.73975E-13 4.04010E-13
 -1       319 8.64130E+00-5.91779E+00-5.16063E-01-5.37390E+00 5.49560E-14 4.18311E-13
 -1       320 1.88302E+00-9.08926E+00-8.57128E-01-2.79396E+00-6.57807E-15 1.84130E-13
 -1       321-1.02376E+00-1.09045E+01-1.00445E+00-7.25439E-01-8.39537E-14 2.16160E-13
 -1       322 2.01492E+01 3.00673E+00-2.18939E-02-2.05945E+00-1.87836E-13-1.27315E-13
 -1       323 2.07536E+01 2.20694E+00-1.74939E-02-2.33211E+00-2.02801E-13-3.12250E-15
 -1       324 1.96001E+01 3.71893E+00-1.54560E-02-1.28049E+00-1.16373E-13-2.35645E-13
 -1       325 1.94721E+01 3.88593E+00-1.35202E-02-8.93973E-01-7.02587E-14-2.54041E-13
 -1       326 1.93981E+01 3.98410E+00-1.24821E-02-5.24648E-01-2.03251E-14-2.56562E-13
 -1       327 1.93644E+01 4.02926E+00-1.20370E-02-1.66703E-01 2.30288E-14-2.63994E-13
 -1       328 1.93655E+01 4.02749E+00-1.20552E-02 1.87499E-01 5.64581E-14-2.74704E-13
 -1       329 1.94017E+01 3.97849E+00-1.25274E-02 5.45865E-01 8.94985E-14-2.63932E-13
 -1       330 1.94772E+01 3.87783E+00-1.35816E-02 9.09632E-01 1.16484E-13-2.30454E-13
 -1       331 1.96086E+01 3.70564E+00-1.55200E-02 1.29677E+00 1.66863E-13-1.72558E-13
 -1       332 1.98255E+01 3.42601E+00-1.87360E-02 1.69933E+00 2.09801E-13-1.28288E-13
 -1       333 2.01910E+01 2.96114E+00-2.27928E-02 2.08926E+00 2.48254E-13-3.80009E-14
 -1       334 2.07451E+01 2.12872E+00-3.02647E-02 2.29015E+00 2.46610E-13 1.19429E-13
 -1       335 2.10777E+01 1.18619E+00-2.46670E-02 1.89672E+00 2.21699E-13 2.67926E-13
 -1       336 2.03903E+01 4.91896E-01 8.47540E-03 8.99233E-01 1.75039E-13 1.96676E-13
 -1       337 2.04680E+01 6.81349E-01 1.27004E-02-9.87899E-01-1.53759E-13 2.86300E-14
 -1       338 2.00676E+01 3.49346E-01 7.34125E-03-4.09237E-01-1.24813E-13 2.04610E-14
 -1       339 1.98430E+01 1.95512E-01 4.36874E-03-8.22075E-02-8.61183E-14 2.81291E-14
 -1       340 1.97474E+01 1.17781E-01 2.19377E-03 1.15494E-01-7.14331E-14-1.98658E-15
 -1       341 1.97458E+01 7.87005E-02 1.23046E-03 2.43140E-01-3.56421E-14-2.46294E-14
 -1       342 1.98121E+01 6.21191E-02 8.65848E-04 3.34947E-01-4.47759E-14-2.03720E-14
 -1       343 1.99303E+01 6.02478E-02 7.85687E-04 4.12443E-01-1.39704E-14-1.55673E-15
 -1       344 2.00922E+01 6.88255E-02 8.54142E-04 4.90185E-01-2.83615E-14-1.28072E-14
 -1       345 2.02946E+01 8.49851E-02 1.00754E-03 5.78467E-01-8.02194E-14-1.04701E-13
 -1       346 2.05385E+01 1.05962E-01 1.19470E-03 6.84229E-01-5.09336E-14-1.19030E-13
 -1       347 2.08269E+01 1.27883E-01 1.34701E-03 8.10720E-01-7.36731E-14-9.84335E-14
 -1       348 2.11641E+01 1.44179E-01 1.35624E-03 9.55847E-01-2.68186E-14-6.46835E-14
 -1       349 2.15546E+01 1.43380E-01 1.05663E-03 1.10886E+00 2.49244E-14-5.65290E-14
 -1       350 2.20021E+01 1.06451E-01 2.25397E-04 1.24497E+00 2.67856E-14-5.20390E-14
 -1       351 2.25094E+01 5.17463E-03-1.36649E-03 1.31806E+00-1.39962E-14-1.46009E-13
 -1       352 2.30770E+01-1.93876E-01-3.84739E-03 1.25363E+00-1.08044E-13-1.38933E-13
 -1       353 2.36963E+01-5.09552E-01-6.73724E-03 9.49910E-01-2.87014E-14-1.37630E-13
 -1       354 2.43316E+01-8.99658E-01-9.00584E-03 3.04049E-01 1.32294E-15-1.09015E-13
 -1       355 2.48769E+01-1.18258E+00-9.50114E-03-7.07814E-01 1.03471E-13 4.56759E-14
 -1       356 2.51254E+01-1.00661E+00-8.46164E-03-1.86412E+00 1.26513E-13 1.35273E-14
 -1       357 2.48757E+01-8.53111E-02-1.69642E-02-2.56455E+00 1.58640E-15 1.67518E-13
 -1       358 2.42455E+01 1.31587E+00-2.94413E-02-2.05490E+00-6.49186E-14 1.74048E-13
 -1       359 2.38360E+01 2.15520E+00-2.79982E-02-2.67614E-01-3.90486E-14-8.78734E-14
 -1       360 2.40947E+01 1.63856E+00-2.71789E-02 1.70708E+00-1.56142E-13-3.76959E-13
 -1       361 2.47533E+01 2.40481E-01-2.02113E-02 2.58183E+00-1.50919E-13-2.65741E-13
 -1       362 2.51207E+01-8.45153E-01-1.38382E-02 2.12853E+00 2.35627E-14-1.64428E-13
 -1       363 2.49994E+01-1.19088E+00-7.68108E-03 1.01708E+00 1.53388E-13-2.58062E-13
 -1       364 2.45133E+01-9.87464E-01-9.88535E-03-5.91669E-02 8.40719E-14-3.39214E-13
 -1       365 2.38980E+01-5.98396E-01-7.43722E-03-7.95138E-01-1.14637E-14-1.52219E-13
 -1       366 2.32832E+01-2.53393E-01-4.39740E-03-1.16772E+00 4.62408E-14 5.39126E-14
 -1       367 2.27191E+01-2.30644E-02-1.76643E-03-1.27075E+00 4.73609E-14 2.07328E-13
 -1       368 2.22191E+01 1.02039E-01 6.46565E-05-1.21052E+00 6.65529E-14 1.51988E-13
 -1       369 2.17844E+01 1.54458E-01 1.09191E-03-1.06910E+00-1.84293E-13-4.09305E-14
 -1       370 2.14129E+01 1.64328E-01 1.52367E-03-8.99407E-01-2.23215E-13 2.20231E-14
 -1       371 2.11012E+01 1.52644E-01 1.58827E-03-7.31373E-01-1.33123E-13-5.72487E-14
 -1       372 2.08443E+01 1.32059E-01 1.46138E-03-5.79683E-01 1.43576E-13 1.56940E-13
 -1       373 2.06364E+01 1.09432E-01 1.25540E-03-4.49941E-01 1.75756E-13 9.06163E-14
 -1       374 2.04711E+01 8.81100E-02 1.03340E-03-3.42808E-01-1.06064E-13 2.88401E-13
 -1       375 2.03418E+01 6.94788E-02 8.26673E-04-2.56523E-01-3.40364E-13 5.74624E-13
 -1       376 2.02426E+01 5.39162E-02 6.48051E-04-1.88332E-01 3.59913E-14 6.66679E-13
 -1       377 2.01677E+01 4.13233E-02 5.00696E-04-1.35244E-01 2.97545E-13 5.36483E-13
 -1       378 2.01123E+01 3.14040E-02 3.82859E-04-9.44017E-02 1.68552E-13 5.01790E-13
 -1       379 2.00721E+01 2.37899E-02 2.89432E-04-6.32493E-02 1.46558E-13 3.52434E-13
 -1       380 2.00438E+01 1.80730E-02 2.17958E-04-3.96448E-02-1.72708E-13 1.10898E-13
 -1       381 2.00242E+01 1.37144E-02 1.86246E-04-2.18501E-02-2.07835E-13-1.52042E-13
 -1       382 2.00120E+01 9.42314E-03 7.79295E-05-9.59428E-03-3.11482E-14-2.32256E-14
 -1       383 1.99107E+01 2.34625E-01 1.09280E-02 3.63053E-01 1.34041E-13 1.45434E-13
 -1       384 1.96516E+01 1.25273E-01 6.37977E-03 7.17643E-02 9.62949E-14 8.46077E-14
 -1       385 1.95568E+01 7.18010E-02 3.09952E-03-9.55038E-02 2.09537E-14 2.90225E-14
 -1       386 1.95704E+01 4.47221E-02 1.56715E-03-1.97421E-01 2.89060E-14-1.93597E-14
 -1       387 1.96571E+01 3.16994E-02 9.38562E-04-2.65135E-01 6.83194E-14-7.10520E-14
 -1       388 1.97959E+01 2.68404E-02 6.88842E-04-3.16290E-01 9.45139E-14-3.60416E-14
 -1       389 1.99750E+01 2.67317E-02 5.90186E-04-3.61276E-01 7.43326E-14-8.24396E-15
 -1       390 2.01886E+01 2.87790E-02 5.39957E-04-4.05756E-01-3.21257E-14 1.38254E-14
 -1       391 2.04338E+01 3.04164E-02 4.70135E-04-4.51430E-01 3.51213E-14-3.03432E-14
 -1       392 2.07084E+01 2.86190E-02 3.15854E-04-4.95866E-01 1.21631E-13-3.20798E-14
 -1       393 2.10086E+01 1.95863E-02 1.08751E-05-5.31762E-01 1.56737E-13-1.10391E-13
 -1       394 2.13266E+01-1.29057E-03-5.02259E-04-5.45974E-01 1.16345E-13-7.53766E-14
 -1       395 2.16476E+01-3.88275E-02-1.24604E-03-5.18933E-01-1.71429E-14-7.33048E-14
 -1       396 2.19479E+01-9.62041E-02-2.16545E-03-4.25666E-01-8.65546E-14-3.97675E-14
 -1       397 2.21923E+01-1.71156E-01-3.07991E-03-2.40487E-01 1.27941E-13-1.26290E-13
 -1       398 2.23350E+01-2.50116E-01-3.65819E-03 5.19670E-02 5.19691E-14-1.17139E-13
 -1       399 2.23249E+01-3.02649E-01-3.49099E-03 4.37860E-01-4.38961E-14-1.46356E-13
 -1       400 2.21201E+01-2.83226E-01-2.42574E-03 8.51563E-01-8.02633E-14-9.41920E-14
 -1       401 2.17166E+01-1.49972E-01-4.60457E-04 1.16533E+00-2.04568E-14 4.92445E-15
 -1       402 2.11832E+01 9.48306E-02 1.35205E-03 1.21767E+00 6.38140E-14 3.94949E-14
 -1       403 2.06765E+01 3.72393E-01 3.22482E-03 8.99296E-01 1.39272E-14 5.40833E-14
 -1       404 2.03946E+01 5.42645E-01 4.13825E-03 2.57104E-01-1.16212E-13 7.87716E-15
 -1       405 2.04627E+01 5.12176E-01 5.34845E-03-4.85601E-01-7.74363E-14-5.86861E-14
 -1       406 2.08532E+01 2.95126E-01 4.57162E-03-1.04565E+00 1.82626E-13-3.63728E-15
 -1       407 2.14000E+01 1.57368E-02 2.47210E-03-1.24717E+00 2.51821E-13 2.09064E-13
 -1       408 2.19097E+01-1.99975E-01-4.58935E-04-1.10020E+00 8.38114E-14 1.33259E-13
 -1       409 2.22552E+01-2.96105E-01-2.85224E-03-7.42148E-01 1.09867E-13 2.23870E-13
 -1       410 2.23979E+01-2.88078E-01-4.03642E-03-3.31179E-01-6.96446E-14 2.71674E-13
 -1       411 2.23612E+01-2.22204E-01-3.96317E-03 2.29070E-02-2.20945E-13 1.95504E-13
 -1       412 2.21945E+01-1.40741E-01-3.10902E-03 2.72683E-01-2.08874E-13-1.73742E-14
 -1       413 2.19497E+01-6.87990E-02-1.98289E-03 4.15830E-01-1.09418E-14 5.74647E-14
 -1       414 2.16697E+01-1.59745E-02-9.42974E-04 4.72627E-01 1.06998E-13 1.85827E-13
 -1       415 2.13863E+01 1.75438E-02-1.52594E-04 4.69486E-01 3.11670E-13 3.54659E-13
 -1       416 2.11198E+01 3.55835E-02 3.61364E-04 4.30259E-01 1.69398E-13 1.27234E-13
 -1       417 2.08821E+01 4.27831E-02 6.41032E-04 3.73116E-01-5.52628E-14 1.23110E-13
 -1       418 2.06784E+01 4.31635E-02 7.50517E-04 3.10394E-01-6.62535E-14 1.25503E-13
 -1       419 2.05093E+01 3.97216E-02 7.50338E-04 2.49649E-01-2.80155E-13 8.41671E-14
 -1       420 2.03728E+01 3.44906E-02 6.88114E-04 1.94961E-01 4.82553E-14 4.22615E-13
 -1       421 2.02655E+01 2.87520E-02 5.97104E-04 1.48074E-01 6.72396E-14 6.04344E-13
 -1       422 2.01832E+01 2.32567E-02 4.98461E-04 1.09278E-01-4.64997E-14 4.71402E-13
 -1       423 2.01216E+01 1.84078E-02 4.03937E-04 7.80172E-02 8.45843E-14 3.25817E-13
 -1       424 2.00769E+01 1.43921E-02 3.18555E-04 5.33015E-02-3.35596E-14 4.51644E-13
 -1       425 2.00455E+01 1.12230E-02 2.43525E-04 3.39750E-02 1.28836E-13 4.77928E-13
 -1       426 2.00244E+01 8.74474E-03 1.69713E-04 1.90118E-02 2.85076E-13 7.01966E-13
 -1       427 2.00111E+01 6.48365E-03 1.14261E-04 7.77085E-03 9.43006E-14 6.40971E-13
 -1       428 2.00057E+01 4.91752E-03 5.47438E-05 2.98023E-03-6.76341E-14 7.39658E-13
 -1       429 2.00047E+01 3.81625E-02 4.27088E-05 2.54447E-02 2.00908E-13 2.73630E-13
 -1       430 2.00085E+01 2.34168E-02 7.43270E-05 1.89092E-02-1.16540E-13 4.79701E-13
 -1       431 2.00084E+01 1.26845E-02 8.08540E-05 1.05414E-02-2.01581E-13 5.01819E-13
 -1       432 1.99998E+01 5.33285E-02 3.91043E-07 2.73980E-02-1.03598E-13-6.38355E-13
 -1       433 1.99950E+01 6.74098E-02-3.95137E-05 2.42315E-02-1.52695E-13-3.32190E-13
 -1       434 1.99913E+01 7.81472E-02-7.21118E-05 1.64893E-02 1.03902E-13 1.40590E-13
 -1       435 1.99892E+01 8.39688E-02-9.02908E-05 5.64401E-03-2.82514E-13-3.52161E-13
 -1       436 1.99893E+01 8.39908E-02-9.01391E-05-6.29389E-03-5.41506E-13-1.04159E-13
 -1       437 1.99914E+01 7.81787E-02-7.11877E-05-1.71118E-02-3.75477E-13-3.42654E-13
 -1       438 1.99951E+01 6.76007E-02-3.78617E-05-2.46619E-02-4.02537E-13-2.41006E-13
 -1       439 2.00001E+01 5.34166E-02-5.62207E-07-2.76973E-02-9.10301E-14 6.20186E-13
 -1       440 2.00051E+01 3.78516E-02 3.74542E-05-2.53923E-02 2.29475E-13 1.50784E-13
 -1       441 2.00090E+01 2.27385E-02 6.59668E-05-1.83032E-02 1.27759E-13-3.15710E-13
 -1       442 1.07753E+01-5.35056E+00-1.63159E-02 7.08560E+00 1.54141E-13 1.56250E-13
 -1       443 1.33410E+00-3.95091E+00-1.58403E-02 3.03749E-01-8.08949E-14 4.39149E-13
 -1       444 4.42723E+00-4.85528E+00-5.15651E-02 5.09098E+00 7.50233E-14-9.76164E-14
 -1       445 1.89340E+01-5.21897E+00-9.62334E-03 6.77222E+00-3.72757E-14 1.32921E-13
 -1       446 2.61613E+01-3.43457E+00-1.54300E-02 4.52042E+00-1.63924E-13 2.09957E-13
 -1       447 1.98087E+01 3.44938E+00-1.86063E-02-1.68059E+00-1.62637E-13-1.97076E-13
 -1       448 3.36875E+01 5.06646E+00-3.22425E-02-3.74746E-01 3.49526E-13 6.91253E-14
 -1       449 3.60614E+01 7.96724E+00 8.71220E-02-5.89303E-02 2.11081E-13-2.68154E-14
 -1       450 3.52209E+01 7.39321E+00 3.94634E-02 1.94400E-01 2.42750E-13 3.16344E-14
 -1       451 3.36584E+01 3.93223E+00 8.16001E-03-2.34488E-01 2.89227E-13 1.93970E-13
 -1       452 3.03782E+01-4.41166E-01 1.40519E-02-2.83902E+00 1.90334E-14 9.14269E-14
 -1       453 2.46767E+01-4.06010E+00-2.53639E-03-5.13706E+00 2.34673E-14 1.02765E-13
 -1       454 1.64438E+01-5.36893E+00-3.55459E-02-7.08354E+00 1.39999E-13-1.66284E-13
 -1       455 8.85232E+00-5.23742E+00-2.66059E-02-6.74538E+00 7.59670E-14-4.48364E-13
 -1       456 3.68466E+00-4.13452E+00 2.32522E-02-4.23734E+00 6.86742E-14-4.14946E-13
 -1       457 1.57082E+00-4.29227E+00-3.93416E-02 1.42018E+00-1.29514E-14-3.07809E-13
 -1       458 5.40865E+00-5.03685E+00-5.87105E-02 5.19534E+00-1.02418E-14-3.83638E-13
 -1       459 1.19242E+01-5.85952E+00-9.03194E-02 6.75375E+00-1.72085E-14-4.82288E-14
 -1       460 1.97943E+01-5.43526E+00-3.87048E-02 6.29641E+00-8.08659E-14 6.85008E-14
 -1       461 2.87935E+01-2.65542E+00-7.97012E-03 3.27653E+00 7.14845E-14-1.20598E-13
 -1       462 3.32575E+01 9.79366E-01 3.62045E-02 1.32613E+00-1.26659E-13 9.14546E-14
 -1       463 3.53200E+01 5.64570E+00 6.54499E-02-7.16570E-01-2.97443E-13 1.39763E-13
 -1       464 3.58796E+01 7.68479E+00 2.18527E-02-2.81078E-01-5.47395E-13 6.78416E-14
 -1       465 3.55940E+01 6.91251E+00 2.24620E-02 6.12140E-01-4.92870E-13 2.34597E-13
 -1       466 3.49617E+01 3.96774E+00 4.17169E-02 3.03684E-01-3.02841E-13 3.24657E-13
 -1       467 3.11746E+01-1.31274E+00-4.02886E-02-1.38869E+00-8.68689E-14 3.41199E-13
 -1       468 2.67380E+01-3.95257E+00 1.39873E-02-4.26668E+00 5.86198E-14 3.78447E-14
 -1       469 1.77901E+01-5.60705E+00-4.50581E-02-6.65670E+00 2.35229E-13 2.77563E-13
 -1       470 8.82838E+00-5.42557E+00-6.45485E-02-6.37596E+00 7.49401E-15 2.26250E-13
 -1       471 3.51966E+00-4.96615E+00-6.27917E-02-4.04125E+00-1.35350E-13 2.22503E-13
 -1       472 3.17861E+01 9.10655E-01 4.13104E-03 1.38089E+00 3.52187E-13-3.38202E-14
 -1       473 2.55486E+01-5.19531E+00-4.92457E-03 3.98653E+00 2.27367E-13-1.24782E-13
 -1       474 3.98804E+00-1.91700E+00 1.59677E-01-1.66292E+00 6.94098E-14-3.49332E-13
 -1       475 2.03934E+01 8.45020E-01 4.06275E-03 9.23470E-01 1.71720E-13 3.97485E-14
 -1       476 1.97315E+01 3.16784E+00-5.32802E-03-6.01380E-01-4.09899E-14-2.28789E-13
 -1       477 1.98360E+01 2.98249E+00-5.95842E-03-9.06578E-01-8.11766E-14-2.04465E-13
 -1       478 1.96546E+01 3.30114E+00-4.92190E-03 8.40904E-03 3.55319E-14-2.37417E-13
 -1       479 1.96754E+01 3.26493E+00-5.00653E-03 3.12635E-01 7.10762E-14-2.39036E-13
 -1       480 1.97353E+01 3.15994E+00-5.34894E-03 6.13042E-01 9.01093E-14-2.25974E-13
 -1       481 1.98425E+01 2.96962E+00-5.91389E-03 9.17343E-01 1.44704E-13-1.59352E-13
 -1       482 2.00057E+01 2.66978E+00-6.49403E-03 1.20686E+00 1.81069E-13-1.31346E-13
 -1       483 2.02508E+01 2.20914E+00-5.66922E-03 1.45166E+00 2.06805E-13-7.92103E-14
 -1       484 2.01509E+01 4.75432E-01 5.16544E-03 3.99808E-01 1.48900E-13 2.46128E-14
 -1       485 2.03670E+01 9.95264E-01 2.97070E-03-8.81332E-01-1.31977E-13-8.66941E-14
 -1       486 3.01638E+01 1.88401E+00-1.22877E-01-1.35700E+00 3.32991E-13-1.50768E-13
 -1       487 2.02138E+01 5.80688E-01 2.40278E-03-3.89324E-01-1.04991E-13-7.87635E-14
 -1       488 2.00908E+01 3.53504E-01 1.07497E-03-5.86713E-02-8.79814E-14-6.61758E-14
 -1       489 2.00211E+01 2.30192E-01 5.91132E-04 1.63819E-01-7.03782E-14-6.01770E-14
 -1       490 2.00024E+01 1.66930E-01 3.72736E-04 3.20759E-01-4.25043E-14-6.11025E-14
 -1       491 2.00263E+01 1.42235E-01 3.11636E-04 4.42893E-01-4.57016E-14-7.97537E-14
 -1       492 2.00846E+01 1.44214E-01 3.27610E-04 5.51785E-01-3.80237E-14-1.13681E-13
 -1       493 2.01716E+01 1.65409E-01 3.88597E-04 6.63059E-01-8.76944E-14-1.05433E-13
 -1       494 2.02838E+01 1.99882E-01 4.76364E-04 7.87865E-01-9.97293E-14-6.67799E-14
 -1       495 2.04195E+01 2.41042E-01 5.69814E-04 9.33325E-01-1.15961E-14-1.02274E-13
 -1       496 2.05794E+01 2.79243E-01 6.34994E-04 1.10198E+00-3.88765E-14-4.88964E-14
 -1       497 2.07676E+01 2.98584E-01 6.15638E-04 1.29005E+00-3.15552E-15-8.74265E-14
 -1       498 2.09945E+01 2.72753E-01 4.25705E-04 1.48433E+00 4.24774E-14-9.67460E-14
 -1       499 2.12821E+01 1.60720E-01-4.26202E-05 1.65704E+00-6.39274E-14-1.39890E-13
 -1       500 2.16726E+01-9.41033E-02-8.84119E-04 1.75829E+00-6.94570E-14-1.40809E-13
 -1       501 2.22336E+01-5.51189E-01-2.31918E-03 1.70516E+00-8.57484E-14-1.21818E-13
 -1       502 2.30466E+01-1.22246E+00-3.44704E-03 1.37538E+00 3.16848E-14-9.34533E-14
 -1       503 2.41607E+01-1.97829E+00-4.70734E-03 6.15086E-01 1.21693E-13-2.28856E-14
 -1       504 2.54427E+01-2.35070E+00-9.27656E-03-6.69971E-01 1.51230E-13 4.87804E-15
 -1       505 2.64467E+01-1.55774E+00-2.32084E-02-2.16548E+00 9.76332E-14 4.97770E-14
 -1       506 2.65442E+01 9.25373E-01-7.73579E-02-2.88862E+00-1.10432E-13-8.20663E-14
 -1       507 2.62521E+01 3.54527E+00-1.03427E-01-1.67028E+00-1.79721E-13-3.32089E-13
 -1       508 2.61058E+01 4.07760E+00-1.19901E-01 1.04885E+00-3.48922E-13-6.12623E-13
 -1       509 2.66145E+01 1.68595E+00-9.44180E-02 2.90450E+00-1.74413E-13-5.89351E-13
 -1       510 2.65483E+01-9.61737E-01-3.34927E-02 2.51551E+00-1.68025E-14-4.53301E-13
 -1       511 2.57354E+01-2.32509E+00-1.04913E-02 1.04047E+00 7.29529E-14-4.14874E-13
 -1       512 2.44995E+01-2.12582E+00-7.53364E-03-3.07510E-01 1.04525E-13-2.84015E-13
 -1       513 2.33250E+01-1.40618E+00-4.24458E-03-1.19947E+00 7.34602E-14-1.20218E-13
 -1       514 2.24424E+01-6.84697E-01-2.39187E-03-1.61263E+00 1.39561E-13 1.15957E-14
 -1       515 2.18356E+01-1.66879E-01-1.10054E-03-1.70930E+00 8.51742E-14 1.26301E-13
 -1       516 2.14215E+01 1.38208E-01-1.49675E-04-1.62233E+00 6.64970E-14 2.02473E-13
 -1       517 2.11269E+01 2.84772E-01 4.20005E-04-1.44404E+00-1.52625E-13 1.32720E-13
 -1       518 2.09036E+01 3.31847E-01 6.79637E-04-1.23177E+00-1.18837E-13 7.48984E-15
 -1       519 2.07250E+01 3.24029E-01 7.39995E-04-1.01869E+00-2.33434E-13 2.90670E-13
 -1       520 2.05776E+01 2.90082E-01 6.94204E-04-8.22319E-01-9.53710E-15 2.40064E-13
 -1       521 2.04547E+01 2.46760E-01 6.02544E-04-6.50518E-01 4.99969E-15-8.03273E-14
 -1       522 2.03527E+01 2.02990E-01 4.98833E-04-5.05412E-01 6.87852E-14-1.23792E-13
 -1       523 2.02691E+01 1.63036E-01 4.00292E-04-3.85986E-01 1.06257E-13 5.22593E-14
 -1       524 2.02016E+01 1.28569E-01 3.14244E-04-2.89674E-01 5.91988E-14 4.93244E-13
 -1       525 2.01480E+01 9.99137E-02 2.42654E-04-2.13294E-01-2.06066E-14 2.71975E-13
 -1       526 2.01062E+01 7.67502E-02 1.85455E-04-1.53586E-01 1.81994E-13 1.20578E-13
 -1       527 2.00741E+01 5.84798E-02 1.41817E-04-1.07483E-01 9.57165E-14 4.02602E-13
 -1       528 2.00497E+01 4.43263E-02 1.08227E-04-7.22877E-02-2.28056E-13 3.07668E-13
 -1       529 2.00314E+01 3.34440E-02 9.33743E-05-4.57497E-02-2.70589E-13-9.79326E-14
 -1       530 1.07856E+01-2.94182E+00 1.52748E-01 6.26593E+00 4.12517E-14-1.35308E-14
 -1       531 1.99093E+01 1.72340E-01 1.22777E-03-1.39160E-01 6.39266E-14-2.78830E-14
 -1       532 1.98970E+01 1.15709E-01 6.33833E-04-2.79364E-01 7.99713E-14-7.86835E-14
 -1       533 1.99370E+01 8.80626E-02 4.17116E-04-3.80125E-01 8.42400E-14-1.02613E-13
 -1       534 2.00180E+01 7.78463E-02 3.40877E-04-4.60918E-01 1.90030E-14-8.13675E-14
 -1       535 2.01326E+01 7.72893E-02 3.18099E-04-5.33759E-01-1.99580E-14 8.30885E-15
 -1       536 2.02764E+01 7.97777E-02 3.02071E-04-6.04832E-01 4.80836E-14-3.05841E-14
 -1       537 2.04479E+01 7.83565E-02 2.53638E-04-6.74915E-01 9.70182E-14-6.40387E-14
 -1       538 2.06465E+01 6.47818E-02 1.30190E-04-7.38960E-01 1.39310E-13-2.55087E-14
 -1       539 2.08729E+01 2.90653E-02-1.13176E-04-7.85133E-01 9.38930E-14-5.19277E-15
 -1       540 2.11271E+01-4.00056E-02-5.16774E-04-7.93749E-01 3.12467E-14 1.24661E-13
 -1       541 2.14079E+01-1.52365E-01-1.09529E-03-7.36946E-01-2.39903E-14 1.59352E-13
 -1       542 2.17094E+01-3.10678E-01-1.79704E-03-5.80735E-01 7.47446E-14-4.89328E-16
 -1       543 2.20159E+01-4.99444E-01-2.44929E-03-2.92274E-01 4.34888E-14 8.57486E-14
 -1       544 2.22936E+01-6.70404E-01-2.70340E-03 1.43456E-01-4.43226E-14 1.36864E-13
 -1       545 2.24836E+01-7.33168E-01-2.12696E-03 6.94667E-01-8.75645E-14 1.26471E-13
 -1       546 2.25098E+01-5.73082E-01-1.17873E-03 1.24760E+00-2.17011E-14 1.94794E-14
 -1       547 2.23191E+01-1.15819E-01 5.73051E-04 1.59280E+00 9.80130E-15-1.14337E-13
 -1       548 2.19564E+01 5.52099E-01-3.96773E-04 1.49050E+00-2.08727E-14 5.43763E-14
 -1       549 2.16091E+01 1.14941E+00 7.16781E-04 8.25597E-01-5.39172E-14 1.73808E-13
 -1       550 2.15025E+01 1.33127E+00 1.99457E-03-1.78111E-01-4.10446E-14 1.21564E-13
 -1       551 2.17135E+01 9.80020E-01 9.83324E-04-1.11774E+00 1.04586E-13 8.99438E-15
 -1       552 2.20967E+01 3.22060E-01 1.18400E-03-1.59547E+00 1.29170E-13-4.38607E-14
 -1       553 2.24193E+01-2.96330E-01-2.80686E-04-1.52970E+00 1.65169E-13 6.58729E-14
 -1       554 2.25421E+01-6.50958E-01-1.65090E-03-1.09279E+00-2.34231E-15 5.95841E-14
 -1       555 2.24605E+01-7.22402E-01-2.66527E-03-5.28418E-01-6.58691E-14 2.93218E-13
 -1       556 2.22424E+01-6.08038E-01-2.81906E-03-1.72368E-02-5.52564E-14 2.02836E-13
 -1       557 2.19619E+01-4.20052E-01-2.33645E-03 3.58151E-01 4.33777E-14 1.48708E-13
 -1       558 2.16694E+01-2.34535E-01-1.56458E-03 5.85449E-01-4.94955E-14-5.94377E-14
 -1       559 2.13921E+01-8.74636E-02-8.13454E-04 6.88149E-01-1.06871E-13-1.42963E-14
 -1       560 2.11419E+01 1.29836E-02-2.25882E-04 7.00918E-01-1.97159E-14 1.81813E-13
 -1       561 2.09224E+01 7.24953E-02 1.67187E-04 6.56577E-01 2.40611E-13 4.96833E-13
 -1       562 2.07338E+01 1.01324E-01 3.90215E-04 5.81173E-01 1.45209E-13 5.92633E-13
 -1       563 2.05747E+01 1.09554E-01 4.87258E-04 4.93207E-01-5.23683E-14 3.49277E-13
 -1       564 2.04426E+01 1.05291E-01 5.01132E-04 4.04670E-01-1.01353E-13 3.00216E-13
 -1       565 2.03348E+01 9.43701E-02 4.66694E-04 3.22579E-01-3.70353E-13 2.15973E-13
 -1       566 2.02484E+01 8.06772E-02 4.08750E-04 2.50446E-01-1.09230E-13 5.97341E-13
 -1       567 2.01803E+01 6.66253E-02 3.43178E-04 1.89473E-01 7.96199E-14 6.40050E-13
 -1       568 2.01277E+01 5.36013E-02 2.78824E-04 1.39442E-01-6.29124E-14 5.54067E-13
 -1       569 2.00877E+01 4.23150E-02 2.19004E-04 9.93408E-02-3.58496E-14 6.84951E-13
 -1       570 2.00580E+01 3.30353E-02 1.77272E-04 6.77940E-02 1.74363E-13 5.08946E-13
 -1       571 2.00362E+01 2.56388E-02 1.62017E-04 4.33784E-02 1.73298E-13 2.63343E-13
 -1       572 2.00204E+01 1.94008E-02 1.24548E-04 2.47510E-02-3.44477E-14 4.39593E-13
 -1       573 1.99935E+01 7.81902E-02-1.13818E-05 3.99931E-02 8.88249E-14-6.61399E-13
 -1       574 1.99844E+01 9.31332E-02-2.56672E-05 3.10913E-02-1.41641E-13 1.27649E-13
 -1       575 2.00133E+01 4.10798E-02-6.19172E-06 3.74712E-02 4.15513E-14 5.04275E-13
 -1       576 2.00038E+01 6.01626E-02 2.12608E-06 4.21633E-02-5.88526E-14-2.90689E-13
 -1       577 1.99782E+01 1.03041E-01-3.75885E-05 1.69010E-02-2.31356E-13-2.40490E-13
 -1       578 1.99760E+01 1.06668E-01-4.19816E-05-2.07933E-04-4.58706E-13-4.94475E-13
 -1       579 1.99782E+01 1.03509E-01-3.73200E-05-1.73620E-02-4.26588E-13 3.47496E-14
 -1       580 1.99844E+01 9.41252E-02-2.55693E-05-3.14244E-02-2.01219E-13-2.93817E-13
 -1       581 1.99937E+01 7.92772E-02-1.77193E-05-4.04147E-02-4.90535E-14 1.17626E-14
 -1       582 2.00043E+01 6.09916E-02-1.55069E-05-4.24703E-02-2.18178E-13 4.82991E-13
 -1       583 2.00139E+01 4.16541E-02 3.87122E-05-3.74138E-02-3.01164E-13-1.82713E-13
 -1       584 5.46561E+00-1.47911E+00 1.82713E-01-2.46725E+00-3.59261E-14 3.63196E-13
 -1       585 1.99895E+01 2.78308E-01 2.61724E-03 7.11235E-02 9.84341E-14-1.54784E-14
 -1       586 1.63525E+01-4.89269E+00 9.55561E-02 6.86965E+00 8.21496E-14 7.88883E-14
 -1       587 2.37088E+01-5.69049E+00 1.75037E-02-4.60629E+00 2.76966E-13 1.12934E-13
 -1       588 2.39281E+01-5.29360E+00 1.68867E-02 4.59047E+00 7.43849E-14 1.71779E-13
 -1       589 5.97231E+00-1.16630E+00 1.92105E-01 2.98959E+00-8.57439E-14 2.25209E-13
 -1       590 1.59175E+01-4.83612E+00 1.02629E-01-6.97273E+00-1.03875E-13-7.14567E-14
 -1       591 1.96728E+01 3.26998E+00-5.01525E-03-2.95739E-01 9.69466E-16-2.25841E-13
 -1       592 2.99925E+01 7.39446E+00-1.78679E-01 2.76081E-01 1.96926E-13-1.00332E-13
 -1       593 6.03010E+00-2.17109E+00 1.56178E-01 3.66481E+00 1.66395E-14-3.61378E-13
 -1       594 2.96905E+01 6.39035E+00-1.82146E-01-1.21661E+00 4.11379E-13-1.81254E-13
 -1       595 2.95719E+01 4.92331E+00-1.64683E-01 1.78547E+00 2.14835E-13-9.51322E-15
 -1       596 3.00696E+01 2.27840E-01-1.07580E-01 6.10693E-01 6.18984E-14 1.82000E-13
 -1       597 2.79149E+01-3.43843E+00-2.77654E-02-1.87364E+00-5.68625E-14 1.35947E-13
 -1       598 2.20483E+01-5.52367E+00 2.15612E-02-5.49788E+00-1.09780E-13 1.95378E-13
 -1       599 9.51284E+00-2.81517E+00 1.54077E-01-5.86405E+00-1.35142E-13-3.55438E-13
 -1       600 1.66080E+01-5.09313E+00 9.96759E-02-6.60487E+00 1.22825E-13-8.78117E-14
 -1       601 1.20544E+01-4.15706E+00 1.24906E-01 6.51341E+00 1.38375E-13-8.20247E-14
 -1       602 1.77923E+01-5.41670E+00 7.11172E-02 6.45938E+00 1.14908E-13 1.72414E-13
 -1       603 3.01398E+01-2.00098E+00-9.11017E-02-9.07453E-02-5.21458E-14-7.99083E-14
 -1       604 3.10131E+01 1.65893E+00-1.79265E-01-1.84096E+00-2.43271E-13-3.92533E-14
 -1       605 3.04393E+01 5.65121E+00-1.35401E-01-1.80820E+00-4.48919E-13 1.21052E-13
 -1       606 3.04794E+01 6.72577E+00-1.88721E-01 4.84927E-01-5.36071E-13-5.22100E-14
 -1       607 3.00056E+01 3.93838E+00-1.76141E-01 2.39259E+00-2.96138E-13-2.63012E-13
 -1       608 3.02056E+01 2.71913E-02-1.07884E-01 1.96739E+00-5.46715E-14-5.64548E-14
 -1       609 2.83545E+01-4.04230E+00-4.84093E-02-1.01734E+00 2.86954E-13 3.13076E-13
 -1       610 8.49032E+00-2.70479E+00 1.49167E-01-5.17352E+00-1.21007E-13 2.50730E-13
 -1       611 2.04069E+01 1.76825E+00-5.23643E-03-1.47570E+00-1.72626E-13-1.03539E-13
 -1       612 2.05922E+01 1.31066E+00-9.49191E-04 1.50953E+00 2.11887E-13 6.76661E-14
 -1       613 2.84915E+01-2.70762E+00-5.76061E-02 9.58510E-01-5.77836E-15 2.35090E-14
 -1       614 1.99957E+01 2.68872E+00-6.49807E-03-1.19466E+00-1.31221E-13-1.89236E-13
 -1       615 2.00216E+01 2.69928E-02 8.46550E-05-3.13601E-02-2.25599E-13-1.43720E-14
 -1       616 2.26089E+01-5.62566E+00 4.77624E-02 4.80185E+00 2.27741E-13 1.20083E-13
 -1       617 2.79772E+01-4.29313E+00-4.91181E-02 1.22615E+00 2.33567E-13-1.12438E-13
 -1       618 6.38792E+00-5.64191E-01 1.84143E-01 8.48373E-01 2.09884E-14-4.43770E-13
 -1       619 2.79478E+01 3.90770E+00-1.45133E-01-2.09962E+00 2.47684E-13-1.45862E-13
 -1       620 2.01844E+01 2.30348E+00-5.73873E-03-1.38607E+00-1.56403E-13-1.63319E-13
 -1       621 8.19059E+00-1.09654E+00 1.70658E-01-3.83109E+00-3.23387E-14-1.62724E-13
 -1       622 1.99394E+01 2.54517E+00-1.55412E-03 3.60098E-01 7.49087E-14-2.12693E-13
 -1       623 1.99006E+01 2.62816E+00-1.48468E-03 1.23356E-01 3.43752E-14-2.07843E-13
 -1       624 2.01256E+01 2.10965E+00-1.60547E-03 7.87511E-01 1.57824E-13-1.19251E-13
 -1       625 2.02559E+01 1.72000E+00-2.20856E-03 9.26848E-01 1.66843E-13-1.04364E-13
 -1       626 2.03459E+01 1.07010E+00 2.93104E-03 7.63098E-01 1.67206E-13-5.89176E-14
 -1       627 2.11614E+01-4.79555E+00 4.36692E-02 5.00983E+00-2.00048E-14-6.26218E-14
 -1       628 2.02452E+01 6.63227E-01 1.12450E-03 3.27469E-01 1.29957E-13-6.19330E-14
 -1       629 2.80347E+01-2.52776E+00-5.41733E-02 1.45202E+00 2.15909E-13-1.99667E-13
 -1       630 2.03122E+01 1.46256E+00 1.27595E-04-9.28307E-01-1.36167E-13-1.35986E-13
 -1       631 2.02758E+01 7.38102E-01-6.94166E-04-2.89893E-01-7.33390E-14-1.15856E-13
 -1       632 2.02144E+01 4.87776E-01 2.81661E-04 6.09112E-03-7.10416E-14-7.74011E-14
 -1       633 2.01619E+01 3.41543E-01 1.05623E-04 2.19763E-01-3.58260E-14-7.07473E-14
 -1       634 2.01275E+01 2.67382E-01 8.19606E-05 3.82717E-01-7.63718E-14-1.16490E-13
 -1       635 2.01101E+01 2.43659E-01 8.71849E-05 5.17857E-01-5.31656E-14-1.32275E-13
 -1       636 2.01061E+01 2.56497E-01 1.05765E-04 6.43809E-01-1.03610E-15-5.36322E-14
 -1       637 2.01115E+01 2.95718E-01 1.34626E-04 7.74719E-01-2.73941E-14 3.98783E-14
 -1       638 2.01219E+01 3.51979E-01 1.71512E-04 9.20897E-01-6.81319E-14 1.30741E-13
 -1       639 2.01346E+01 4.13958E-01 2.10947E-04 1.08913E+00-1.18233E-13 5.04961E-14
 -1       640 2.01494E+01 4.64917E-01 2.43632E-04 1.28259E+00-3.03746E-14-1.53561E-14
 -1       641 2.01731E+01 4.78141E-01 2.55161E-04 1.50036E+00 2.29796E-14 1.95955E-15
 -1       642 2.02254E+01 4.11221E-01 2.37014E-04 1.73620E+00-1.62948E-14-4.14641E-14
 -1       643 2.03508E+01 2.00392E-01 2.51772E-04 1.97585E+00-1.04882E-13-3.44352E-14
 -1       644 2.06358E+01-2.40736E-01 5.23242E-04 2.18968E+00-1.12160E-13-6.60158E-14
 -1       645 2.12307E+01-1.00504E+00 4.46638E-04 2.30431E+00-3.36819E-14 1.33296E-14
 -1       646 2.23328E+01-2.10185E+00 3.30222E-03 2.18330E+00 1.18319E-13-7.86506E-14
 -1       647 2.41286E+01-3.27744E+00 6.45053E-03 1.52706E+00 2.31042E-13-1.43174E-13
 -1       648 2.65624E+01-3.71168E+00 5.82740E-03 6.89637E-02 2.38916E-13-7.49132E-14
 -1       649 2.47696E+01-3.58251E+00 1.35367E-03-1.21529E+00 1.92806E-14-1.28417E-13
 -1       650 2.27228E+01-2.39378E+00 5.94314E-05-2.04991E+00 1.35168E-13-1.01646E-13
 -1       651 2.14635E+01-1.22516E+00 2.94207E-03-2.26365E+00 3.13958E-13 7.82036E-14
 -1       652 2.07638E+01-3.69190E-01 7.03320E-04-2.17904E+00 1.93010E-13 4.18127E-14
 -1       653 2.04208E+01 1.51894E-01 2.53621E-04-1.96570E+00 1.44581E-13 2.13925E-13
 -1       654 2.02687E+01 4.18572E-01 2.53615E-04-1.71143E+00-1.59456E-13 1.77391E-13
 -1       655 2.02067E+01 5.20970E-01 2.87440E-04-1.45312E+00-1.38503E-13 1.98743E-13
 -1       656 2.01809E+01 5.28078E-01 2.84307E-04-1.20865E+00-1.60755E-13 1.10010E-13
 -1       657 2.01659E+01 4.85978E-01 2.56086E-04-9.87074E-01-1.27117E-13 1.46575E-13
 -1       658 2.01515E+01 4.22842E-01 2.18279E-04-7.92547E-01-1.12556E-13 2.37417E-13
 -1       659 2.01351E+01 3.54665E-01 1.78555E-04-6.26109E-01-1.95591E-13 1.12562E-13
 -1       660 2.01169E+01 2.89798E-01 1.41924E-04-4.86776E-01 6.79959E-14 1.12725E-13
 -1       661 2.00982E+01 2.32088E-01 1.10513E-04-3.72332E-01 4.80092E-14-4.65850E-14
 -1       662 2.00803E+01 1.82863E-01 8.46209E-05-2.79917E-01-1.41337E-15-1.32812E-13
 -1       663 2.00639E+01 1.42129E-01 6.34857E-05-2.06444E-01 4.42638E-14 4.15156E-14
 -1       664 2.00495E+01 1.09240E-01 4.68127E-05-1.48873E-01 2.65484E-13-2.52997E-13
 -1       665 2.00370E+01 8.32067E-02 5.11492E-05-1.04366E-01-2.29293E-14-7.26575E-14
 -1       666 2.00263E+01 6.28299E-02 2.84706E-05-7.05364E-02-4.32679E-13-9.68751E-14
 -1       667 1.66503E+01-3.59845E+00 8.94465E-02 6.02524E+00-2.11775E-14 6.02608E-14
 -1       668 2.01060E+01 2.79705E-01 3.36788E-04-1.90564E-01 1.18434E-13-1.21303E-13
 -1       669 2.01180E+01 1.50384E-01 1.20562E-04-5.65251E-01-2.95347E-14-3.58467E-14
 -1       670 2.01723E+01 1.50035E-01 1.20677E-04-6.59507E-01 7.72753E-15-8.17663E-14
 -1       671 2.02495E+01 1.50879E-01 1.16622E-04-7.52534E-01 1.00727E-13-5.97030E-14
 -1       672 2.03515E+01 1.40286E-01 9.51516E-05-8.44255E-01 1.03428E-13-6.08779E-14
 -1       673 2.04839E+01 1.03210E-01 3.84680E-05-9.28343E-01 4.32938E-14 7.11728E-14
 -1       674 2.06562E+01 2.18691E-02-7.06502E-05-9.91056E-01-1.90522E-14 1.53601E-13
 -1       675 2.08822E+01-1.22600E-01-2.56494E-04-1.00974E+00 1.41812E-15 1.35350E-13
 -1       676 2.11793E+01-3.44698E-01-5.35216E-04-9.51661E-01 9.69804E-14 1.05930E-13
 -1       677 2.15627E+01-6.42583E-01-8.73341E-04-7.74382E-01 2.18043E-14 1.80573E-13
 -1       678 2.20326E+01-9.76640E-01-1.13839E-03-4.31663E-01-2.62724E-14 2.53395E-13
 -1       679 2.25503E+01-1.24133E+00-1.13672E-03 1.06404E-01-1.04366E-13 2.07237E-13
 -1       680 2.30190E+01-1.25335E+00-1.95629E-04 8.06171E-01-8.33015E-14 2.73923E-13
 -1       681 2.32688E+01-7.89351E-01-2.53680E-03 1.51264E+00 1.23855E-14 4.20062E-13
 -1       682 2.31861E+01 2.23989E-01-2.85543E-03 1.87219E+00 5.18201E-14 2.52728E-13
 -1       683 2.28061E+01 1.53855E+00-2.19585E-03 1.55029E+00-5.12463E-14 1.53204E-13
 -1       684 2.25566E+01 2.24721E+00-1.14758E-02 4.54635E-01-8.74535E-14 1.95506E-13
 -1       685 2.25889E+01 2.16791E+00-7.63802E-03-8.94615E-01 8.34775E-14 9.67303E-14
 -1       686 2.29673E+01 1.08531E+00-6.43917E-03-1.75567E+00 1.63342E-13-1.42806E-14
 -1       687 2.32588E+01-1.63557E-01-4.19637E-03-1.82995E+00 1.26344E-13-5.22043E-14
 -1       688 2.32260E+01-9.96916E-01-1.57369E-03-1.30923E+00 1.34780E-14 2.28973E-13
 -1       689 2.28870E+01-1.27725E+00-1.00742E-03-5.84491E-01-2.36298E-14 2.23419E-13
 -1       690 2.23911E+01-1.14914E+00-7.98905E-04 6.15340E-02 3.28895E-14 1.40698E-13
 -1       691 2.18875E+01-8.39688E-01-8.40109E-04 5.19809E-01-3.00558E-14 1.02892E-13
 -1       692 2.14519E+01-5.04706E-01-5.92134E-04 7.87141E-01 1.23398E-13 3.43056E-14
 -1       693 2.11067E+01-2.25004E-01-3.27843E-04 9.01863E-01-1.17853E-13-1.13565E-13
 -1       694 2.08442E+01-2.48218E-02-1.16450E-04 9.10375E-01-2.48629E-13 5.60162E-15
 -1       695 2.06473E+01 1.00854E-01 2.91675E-05 8.52514E-01-1.53511E-13 7.28992E-14
 -1       696 2.04988E+01 1.68029E-01 1.14750E-04 7.58427E-01 2.20222E-13 2.17863E-13
 -1       697 2.03854E+01 1.94144E-01 1.55804E-04 6.49222E-01 6.56871E-14 2.46039E-13
 -1       698 2.02976E+01 1.94033E-01 1.65375E-04 5.38700E-01-1.51016E-15 1.64719E-13
 -1       699 2.02287E+01 1.78848E-01 1.56827E-04 4.35186E-01-1.57243E-13 4.01786E-13
 -1       700 2.01745E+01 1.56334E-01 1.38989E-04 3.43117E-01-3.04173E-13 1.89320E-13
 -1       701 2.01316E+01 1.31524E-01 1.18324E-04 2.64273E-01-6.17475E-14 1.27588E-13
 -1       702 2.00979E+01 1.07463E-01 9.87159E-05 1.98733E-01-8.65571E-14 2.86723E-13
 -1       703 2.00715E+01 8.58302E-02 7.72988E-05 1.45585E-01 1.28592E-14 2.38445E-13
 -1       704 2.00509E+01 6.74183E-02 6.00823E-05 1.03407E-01 1.18693E-13 1.26378E-13
 -1       705 2.00349E+01 5.23999E-02 8.09863E-05 7.06023E-02 1.38805E-13 3.12230E-13
 -1       706 2.00227E+01 4.67911E-02 5.09925E-05 5.25186E-02-1.72006E-13 5.51838E-13
 -1       707 2.60030E+01-4.28966E+00-1.72671E-02 1.76572E+00-1.40253E-13-3.15373E-15
 -1       708 1.99586E+01 1.34489E-01-1.60962E-05 1.22177E-02 4.00106E-14-6.60460E-13
 -1       709 2.00199E+01 5.13972E-02 8.14496E-06-5.24487E-02-2.58796E-13-1.22900E-13
 -1       710 1.99790E+01 1.09785E-01-7.33494E-06 5.11707E-02 1.10019E-13-4.73058E-13
 -1       711 1.99585E+01 1.35055E-01-1.40864E-05-1.19716E-02 2.76694E-14-1.52499E-13
 -1       712 1.99658E+01 1.25699E-01-1.16751E-05 3.43896E-02-9.05239E-14 7.61237E-14
 -1       713 1.99655E+01 1.27442E-01-1.08648E-05-3.40678E-02-1.64571E-13 1.55081E-14
 -1       714 1.99788E+01 1.12147E-01-1.91668E-05-5.13442E-02-3.58357E-15-7.08366E-14
 -1       715 1.99962E+01 9.08745E-02-2.46683E-05-6.04943E-02-1.13185E-13 1.98786E-13
 -1       716 2.01615E+01 4.21453E-01 6.99298E-04 2.30124E-02 9.87720E-14-6.74081E-14
 -1       717 2.01152E+01-4.67941E+00 5.04438E-02-5.43054E+00-1.38504E-13 2.44982E-13
 -1       718 1.45280E+01-2.82775E+00 9.94450E-02-5.64555E+00 1.94469E-13-2.70312E-13
 -1       719 9.57932E+00-7.72240E-01 1.40590E-01-3.54466E+00-2.68032E-14 3.29077E-13
 -1       720 8.02695E+00 2.17415E-01 1.44389E-01-2.55686E-02-1.47910E-13 3.06491E-13
 -1       721 2.63632E+01 5.38476E+00-1.31934E-01 1.20227E+00 2.07959E-13 9.83554E-14
 -1       722 1.10260E+01-6.91126E-01 1.28564E-01 4.15050E+00-1.22170E-13 2.05860E-13
 -1       723 2.00870E+01 1.63364E-01 1.28617E-04-4.64199E-01 3.04232E-14-5.29040E-14
 -1       724 2.00819E+01 2.01002E-01 1.46877E-04-3.45132E-01 7.09945E-14-6.16156E-14
 -1       725 2.03042E+01 1.04260E+00 4.04189E-04-5.74980E-01-9.52181E-14-1.19577E-13
 -1       726 2.79518E+01-8.50421E-01-7.17864E-02-1.22232E+00 1.66932E-13-2.30906E-13
 -1       727 2.00150E+01 2.37669E+00-1.66170E-03 5.85905E-01 1.14964E-13-1.40897E-13
 -1       728 2.00109E+01 2.38847E+00-1.59631E-03-5.77970E-01-6.00066E-14-1.80868E-13
 -1       729 1.11600E+01-1.91826E+00 1.32394E-01 4.98037E+00 7.03847E-14-9.79494E-14
 -1       730 2.78597E+01 1.57968E+00-1.10952E-01 2.07931E+00 5.30409E-14 1.85262E-13
 -1       731 2.78653E+01-2.07443E+00-5.95753E-02 5.18909E-01-6.08463E-14 9.74984E-14
 -1       732 1.48937E+01-3.00187E+00 9.91917E-02-5.91982E+00-1.64736E-13-6.99579E-14
 -1       733 2.90179E+01-1.14478E+00-1.15555E-01-2.12358E+00-1.51153E-13 8.36553E-14
 -1       734 1.71375E+01-3.91370E+00 1.05378E-01 5.75843E+00 1.50591E-13 3.03289E-13
 -1       735 2.56043E+01-4.91888E+00 5.42759E-03-2.20272E+00 2.31929E-13 1.99599E-13
 -1       736 2.14094E+01-4.74559E+00 6.93817E-02-4.69186E+00 6.53921E-14 2.32758E-13
 -1       737 2.52339E+01-4.71904E+00-6.28686E-03-2.65151E+00-1.08273E-13 1.06162E-13
 -1       738 2.63255E+01 5.83643E+00-1.46283E-01-5.13140E-01 1.68622E-13 1.55218E-13
 -1       739 2.01218E+01 2.12620E+00-1.07164E-03-7.80623E-01-8.99983E-14-1.50258E-13
 -1       740 1.98997E+01 2.63035E+00-1.48910E-03-1.15358E-01 2.54688E-14-2.16512E-13
 -1       741 2.72093E+01 5.01654E+00-1.66272E-01-7.31863E-01-3.44981E-13-4.18185E-13
 -1       742 2.67574E+01 1.18879E+00-6.97614E-02-2.28980E+00 2.71432E-13-4.79478E-14
 -1       743 1.99958E+01 8.86478E-02-2.35488E-05 6.00109E-02 2.36055E-13-4.94662E-13
 -1       744 2.00104E+01 6.77166E-02 8.78179E-07 5.93668E-02 4.08690E-14-1.88482E-14
 -1       745 1.27449E+01-1.49225E+00 1.06652E-01-4.88857E+00-1.06665E-13-1.60819E-13
 -1       746 2.53265E+01-4.92176E+00 8.72081E-03 2.48084E+00 2.99239E-13-1.41666E-13
 -1       747 2.58417E+01 3.04177E+00-7.82370E-02 2.07637E+00 2.83211E-14 2.09245E-13
 -1       748 9.83328E+00-3.82303E-01 1.34202E-01 2.93489E+00 5.57922E-14-2.67251E-13
 -1       749 1.99363E+01 2.55264E+00-1.53417E-03-3.50891E-01-1.19843E-14-1.87229E-13
 -1       750 8.65476E+00 7.87495E-02 1.38335E-01-1.54257E+00-4.40221E-14-2.19526E-13
 -1       751 2.00101E+01 7.84261E-02-1.09081E-05-6.77988E-02-4.91343E-13-1.77992E-13
 -1       752 2.29037E+01-4.28762E+00 1.21253E-02-3.26802E+00-8.85481E-14 7.10273E-14
 -1       753 2.02737E+01 1.38390E+00 5.57955E-04 5.46025E-01 1.47376E-13-1.00372E-13
 -1       754 1.85440E+01-3.15537E+00 3.82697E-02-4.83496E+00-7.65950E-14 6.92198E-14
 -1       755 2.42757E+01 4.35003E+00-6.11749E-02 3.78651E-01 5.45120E-14 4.22870E-14
 -1       756 2.02616E+01 5.90337E-01 2.73330E-05 7.78165E-02-6.78250E-14-1.15957E-13
 -1       757 2.02112E+01 4.40828E-01 3.98426E-06 2.66208E-01-8.01870E-14-1.26485E-13
 -1       758 2.01527E+01 3.69775E-01 9.75223E-06 4.17413E-01-6.25458E-14-8.66104E-14
 -1       759 2.00886E+01 3.56693E-01 1.77729E-05 5.49263E-01 3.28200E-14-5.74804E-14
 -1       760 2.00174E+01 3.86678E-01 2.59022E-05 6.76223E-01 3.15878E-14-7.64175E-14
 -1       761 1.99347E+01 4.47371E-01 3.76882E-05 8.09816E-01-1.21133E-14-5.63150E-14
 -1       762 1.98354E+01 5.26284E-01 5.33459E-05 9.58918E-01-6.45948E-14-3.55444E-15
 -1       763 1.97146E+01 6.07742E-01 7.24426E-05 1.13055E+00-4.64566E-14 1.33578E-13
 -1       764 1.95706E+01 6.68967E-01 9.89863E-05 1.33104E+00-3.19678E-14 1.63293E-13
 -1       765 1.94089E+01 6.75016E-01 1.44440E-04 1.56796E+00-6.34564E-14 7.31627E-14
 -1       766 1.92512E+01 5.72143E-01 2.99959E-04 1.85282E+00-8.61735E-14-3.06409E-14
 -1       767 1.91512E+01 2.80314E-01 1.22057E-03 2.20228E+00-6.84394E-14 4.59139E-14
 -1       768 1.92082E+01-3.08132E-01 2.99306E-03 2.64176E+00-2.66612E-14 1.58721E-13
 -1       769 1.97218E+01-1.36620E+00-2.95357E-03 3.11327E+00 3.22897E-14 1.84770E-13
 -1       770 2.09913E+01-2.92317E+00 1.28977E-02 3.54418E+00 5.83708E-14 1.08629E-13
 -1       771 1.11447E+01 4.91067E-01 7.54114E-02-1.81862E+00 2.10402E-13 1.25431E-13
 -1       772 1.99288E+01-1.70510E+00 1.12347E-03-3.26922E+00 2.22352E-13 1.72475E-13
 -1       773 1.92681E+01-4.83827E-01 3.33715E-03-2.71703E+00 1.43923E-13 2.67507E-14
 -1       774 1.91356E+01 2.12562E-01 1.32296E-03-2.24367E+00 1.75929E-13-1.45761E-13
 -1       775 1.92031E+01 5.76671E-01 4.51509E-04-1.85865E+00 8.69499E-14-1.76826E-13
 -1       776 1.93469E+01 7.26269E-01 2.45993E-04-1.54145E+00-5.08676E-14-3.22960E-14
 -1       777 1.95019E+01 7.48286E-01 1.60918E-04-1.27460E+00-1.88053E-13-7.95176E-14
 -1       778 1.96397E+01 7.00857E-01 1.14374E-04-1.04613E+00-1.35390E-13 7.07840E-14
 -1       779 1.97508E+01 6.20585E-01 8.86298E-05-8.49481E-01-1.89758E-13 1.70118E-14
 -1       780 1.98353E+01 5.29357E-01 6.84486E-05-6.81032E-01-1.24923E-13-2.78495E-14
 -1       781 1.98966E+01 4.39463E-01 5.17801E-05-5.38320E-01 6.23470E-14 4.69754E-13
 -1       782 1.99394E+01 3.57207E-01 3.84721E-05-4.19113E-01 1.16554E-13 4.24726E-13
 -1       783 1.99682E+01 2.85325E-01 2.84566E-05-3.21068E-01 8.35069E-14 2.83622E-13
 -1       784 1.99868E+01 2.24515E-01 2.00940E-05-2.41692E-01 7.36638E-14 2.24824E-13
 -1       785 1.99981E+01 1.74354E-01 1.12670E-05-1.78428E-01-8.51267E-14 1.46188E-14
 -1       786 2.00045E+01 1.33739E-01 7.58113E-06-1.28903E-01 1.38129E-13-2.60495E-13
 -1       787 2.00093E+01 1.02721E-01 1.02120E-05-9.48832E-02-2.07120E-13-2.00417E-13
 -1       788 1.96936E+01-3.34888E+00 2.82379E-02 4.46464E+00-1.36152E-13-1.22820E-13
 -1       789 2.01998E+01 3.76013E-01 1.70287E-05-2.42842E-01 6.07893E-14-8.29291E-14
 -1       790 2.01134E+01 2.38074E-01 3.33793E-05-6.30543E-01 5.51396E-14-2.89477E-14
 -1       791 2.01557E+01 2.12700E-01 4.03388E-05-9.67524E-01-5.07594E-14 2.77803E-14
 -1       792 2.02279E+01 1.43362E-01 2.27720E-05-1.08079E+00-2.33689E-14 7.96756E-14
 -1       793 2.03579E+01 3.02243E-03-7.99923E-06-1.18007E+00 8.13238E-15 1.69272E-13
 -1       794 2.05764E+01-2.35475E-01-8.08403E-05-1.24356E+00 4.27116E-14 9.04715E-14
 -1       795 2.09237E+01-5.92136E-01-2.17478E-04-1.23568E+00 2.45063E-14 1.41641E-13
 -1       796 2.14426E+01-1.06084E+00-3.58743E-04-1.10099E+00-2.65338E-14 1.34587E-13
 -1       797 2.21563E+01-1.57300E+00-3.55800E-04-7.62885E-01-1.05446E-13 1.67621E-13
 -1       798 2.30263E+01-1.94139E+00 8.47218E-04-1.32818E-01-1.59881E-13 1.31710E-13
 -1       799 2.38809E+01-1.83017E+00-2.50067E-03 7.73329E-01-8.67400E-14 1.22418E-13
 -1       800 2.43873E+01-8.46854E-01-2.38138E-03 1.71375E+00 1.13689E-13 6.84609E-14
 -1       801 2.42819E+01 1.08037E+00-4.85062E-02 2.18983E+00 4.45737E-15 2.95277E-13
 -1       802 2.38313E+01 2.37333E+00-4.37431E-02-1.74541E+00 2.93585E-13-5.43723E-14
 -1       803 2.42142E+01 3.76429E-01-1.69396E-02-2.06992E+00 9.80206E-14-2.91763E-14
 -1       804 2.41028E+01-1.17193E+00-8.79934E-03-1.46923E+00-3.76861E-14 2.30900E-14
 -1       805 2.35333E+01-1.81940E+00-3.37080E-03-5.50942E-01-1.13407E-13-6.47658E-14
 -1       806 2.27276E+01-1.74183E+00 2.88198E-05 2.49415E-01 2.20664E-14 2.61739E-13
 -1       807 2.19459E+01-1.32369E+00-5.64319E-04 7.68033E-01 8.31403E-14 3.15823E-13
 -1       808 2.13195E+01-8.32996E-01-3.72316E-04 1.03828E+00 1.01973E-13-4.38427E-14
 -1       809 2.08681E+01-4.08799E-01-1.80137E-04 1.12801E+00-4.25318E-14 1.34316E-14
 -1       810 2.05642E+01-9.62710E-02-6.60583E-05 1.10516E+00-1.18777E-13 2.64330E-13
 -1       811 2.03687E+01 1.07230E-01 9.67810E-06 1.01810E+00-5.28103E-14 8.17617E-15
 -1       812 2.02462E+01 2.22660E-01 5.17249E-05 8.99008E-01 5.44201E-14-1.19883E-13
 -1       813 2.01703E+01 2.74440E-01 7.48508E-05 7.68597E-01 1.22846E-13-1.81854E-13
 -1       814 2.01228E+01 2.84124E-01 7.89457E-05 6.39785E-01-1.13267E-13-4.29712E-14
 -1       815 2.00924E+01 2.68390E-01 7.42660E-05 5.20194E-01-3.14554E-13 3.18731E-13
 -1       816 2.00718E+01 2.39166E-01 6.58589E-05 4.13888E-01-2.15794E-13 4.23425E-13
 -1       817 2.00571E+01 2.04481E-01 5.55663E-05 3.22493E-01-1.53391E-13 2.88401E-13
 -1       818 2.00459E+01 1.69411E-01 4.57036E-05 2.46032E-01-1.18305E-13 2.64630E-13
 -1       819 2.00369E+01 1.36770E-01 3.61014E-05 1.83541E-01 4.53928E-14 1.33465E-13
 -1       820 2.00291E+01 1.08338E-01 9.21788E-06 1.33658E-01 6.66484E-14-2.13672E-14
 -1       821 2.00224E+01 8.45844E-02 3.16237E-05 9.45548E-02-1.27335E-13 2.45714E-13
 -1       822 2.00153E+01 7.59878E-02-6.00768E-05 7.54219E-02-1.35189E-13 2.45613E-13
 -1       823 1.99378E+01 1.68232E-01-1.96077E-06-3.10564E-02 2.21084E-13-7.11464E-14
 -1       824 2.61713E+01-2.64252E+00-3.12247E-02-5.46073E-01-1.01358E-13-6.40564E-14
 -1       825 1.99769E+01 1.30436E-01-1.10110E-05-7.79981E-02-1.84276E-13 5.89559E-14
 -1       826 1.99326E+01 1.72405E-01-1.05779E-05 1.14023E-03 4.47815E-14-4.51474E-13
 -1       827 2.01313E+01 2.49240E-01 2.98906E-05-5.18440E-01-2.94824E-14-2.10442E-14
 -1       828 1.99532E+01 1.53794E-01-1.41195E-05-5.88351E-02-2.47123E-13-3.77007E-15
 -1       829 2.01202E+01 2.37305E-01 4.17769E-05-8.52296E-01 7.77926E-14-5.59236E-14
 -1       830 2.01085E+01 2.39549E-01 3.76704E-05-7.40102E-01 5.33509E-14-8.57543E-14
 -1       831 2.04703E+01-3.10138E+00 4.28235E-02-4.00444E+00 6.08263E-14 2.86162E-13
 -1       832 1.38453E+01-9.33886E-01 6.47942E-02-4.11418E+00 1.38996E-13-1.24739E-13
 -1       833 2.20895E+01-4.46070E+00 2.10632E-02 4.01257E+00 1.13951E-13-1.37806E-14
 -1       834 2.01606E+01 2.88948E-01 2.13801E-05-3.94013E-01 2.14897E-14-4.50793E-14
 -1       835 2.03035E+01 8.39841E-01 4.58117E-04-1.67081E-01-5.63545E-14-1.09000E-13
 -1       836 2.02201E+01 1.83203E+00 4.39326E-05-8.86662E-01-1.23741E-13-1.33021E-13
 -1       837 2.03017E+01 1.00401E+00-8.13517E-05 4.60311E-01 1.46802E-13-7.76938E-14
 -1       838 1.13979E+01 6.87955E-01 7.22750E-02 1.48898E+00 7.89437E-14 9.69346E-14
 -1       839 2.36249E+01-4.20610E+00 1.98205E-03 2.61858E+00-2.39532E-13-1.32347E-13
 -1       840 1.54050E+01-2.01457E+00 6.97817E-02 4.78557E+00 1.49075E-13 1.30757E-13
 -1       841 1.50545E+01-1.21223E+00 4.18339E-02 4.32882E+00-1.13590E-14 9.16576E-14
 -1       842 2.57492E+01-3.19834E+00-1.48496E-02-1.60714E-01-1.63004E-13 1.99893E-13
 -1       843 2.64713E+01-7.04003E-01-6.43338E-02 1.80003E+00-7.49921E-14 3.88320E-13
 -1       844 2.52734E+01 3.70972E+00-8.49215E-02-1.75947E+00 2.37928E-13-2.60096E-14
 -1       845 2.00914E+01 2.02518E+00-2.87731E-04 1.67503E-01 4.96180E-14-1.82947E-13
 -1       846 2.00747E+01 2.06892E+00-2.99820E-04 2.01361E-03 3.53403E-14-1.97667E-13
 -1       847 2.02103E+01 1.68001E+00 2.32740E-04 4.60246E-01 1.24814E-13-1.08485E-13
 -1       848 1.64769E+01-1.98269E+00 4.80797E-02-4.62803E+00-1.02212E-13 2.13839E-14
 -1       849 2.02621E+01 6.61493E-01 2.64097E-04 1.34298E-01 1.08727E-13-9.53471E-14
 -1       850 2.02872E+01 1.35116E+00 2.62709E-04-5.85803E-01-9.21087E-14-1.09775E-13
 -1       851 1.99775E+01 1.25962E-01 2.55607E-05 7.77262E-02 2.05916E-13-7.72856E-13
 -1       852 1.99542E+01 1.49987E-01-7.48045E-06 5.95167E-02 2.60367E-13-3.51479E-13
 -1       853 1.99384E+01 1.66047E-01-7.25276E-06 3.27579E-02-2.02053E-13-5.04449E-14
 -1       854 1.17470E+01-2.06122E-01 8.36009E-02-3.28286E+00-6.57590E-14-1.09822E-13
 -1       855 1.40488E+01 2.95490E-01 2.53667E-02 2.61597E+00-1.31137E-13 2.57681E-13
 -1       856 2.02306E+01 4.86321E-01-1.07275E-04-7.81671E-02 1.03026E-13-8.40356E-14
 -1       857 2.01400E+01 1.89621E+00 1.27098E-05 3.25650E-01 1.02111E-13-1.48163E-13
 -1       858 1.33742E+01-5.96508E-01 8.24528E-02 3.65389E+00 1.43803E-13 8.82731E-14
 -1       859 2.02073E+01 1.69496E+00 8.50665E-05-4.58514E-01-7.10332E-14-1.26928E-13
 -1       860 1.01973E+01 5.27166E-01 9.79693E-02 7.42794E-01-3.60705E-14-3.66169E-13
 -1       861 1.99923E+01 1.18138E-01 1.57888E-04-8.82308E-02-3.12701E-13-2.51332E-13
 -1       862 2.01351E+01 1.90765E+00-1.92585E-04-3.19599E-01-3.28209E-14-1.53608E-13
 -1       863 1.98989E+01 3.39092E-01 2.91389E-05-9.04288E-01-2.55376E-14 2.72669E-14
 -1       864 2.44224E+01-3.05599E+00 5.23844E-03 5.28041E-01-2.08878E-13 1.01641E-13
 -1       865 2.01960E+01 5.22457E-01-5.30434E-05 2.84504E-01-1.70015E-14-6.84497E-14
 -1       866 2.01039E+01 4.66214E-01-5.09607E-06 4.11140E-01 4.01983E-15-2.67406E-14
 -1       867 1.99880E+01 4.71084E-01 4.15673E-07 5.25086E-01 5.87220E-15 3.39670E-15
 -1       868 1.98462E+01 5.21852E-01 8.28553E-07 6.36834E-01 1.66502E-14-2.08319E-14
 -1       869 1.96732E+01 6.04491E-01 4.34641E-06 7.54734E-01 3.19841E-15 3.83265E-14
 -1       870 1.94613E+01 7.04386E-01 4.32131E-06 8.85997E-01-5.22240E-15 7.00261E-14
 -1       871 1.92014E+01 8.03277E-01 8.01470E-07 1.03821E+00 2.41892E-14 3.08522E-14
 -1       872 1.88849E+01 8.75938E-01-5.52819E-06 1.22202E+00-7.89508E-14 6.11169E-14
 -1       873 1.85058E+01 8.86011E-01-4.09983E-06 1.45611E+00-8.66535E-14 6.29733E-14
 -1       874 1.80666E+01 7.79464E-01 2.26986E-04 1.77512E+00-5.01065E-14 6.82125E-14
 -1       875 1.75909E+01 4.70496E-01 1.10537E-03 2.24258E+00-6.28577E-15-9.72963E-16
 -1       876 1.72606E+01-1.24858E-01 1.58096E-02 2.97705E+00-2.20496E-14 3.40952E-14
 -1       877 1.71112E+01-3.46966E-01 1.67577E-02-3.11146E+00 8.58367E-14 1.02528E-13
 -1       878 1.42824E+01 3.47358E-01 2.41049E-02-2.56073E+00 2.08504E-13-1.44539E-13
 -1       879 2.03015E+01 9.28079E-01-4.85667E-04 2.29802E-01 1.16900E-13-1.03643E-13
 -1       880 2.51276E+01-1.65410E+00-4.09947E-03 1.22034E+00-2.31846E-15 1.48666E-13
 -1       881 1.74329E+01 4.01162E-01-8.14295E-04-2.33768E+00 9.31911E-14 5.13306E-14
 -1       882 1.79032E+01 7.89960E-01-4.96958E-04-1.81179E+00-1.74557E-14 4.15555E-14
 -1       883 1.83451E+01 9.47324E-01-3.57442E-04-1.44916E+00 7.19495E-14-1.50707E-13
 -1       884 1.87252E+01 9.69066E-01-2.44185E-04-1.18255E+00-1.11554E-13-1.92630E-13
 -1       885 1.90374E+01 9.13854E-01-1.70831E-04-9.72369E-01-1.84567E-13-3.38123E-15
 -1       886 1.92863E+01 8.19220E-01-1.02443E-04-7.98112E-01-8.56269E-14 1.33930E-14
 -1       887 1.94800E+01 7.08877E-01-6.33211E-05-6.49850E-01-1.52178E-13 2.43290E-13
 -1       888 1.96279E+01 5.97272E-01-4.39600E-05-5.22867E-01 9.06200E-14 1.36422E-13
 -1       889 1.97391E+01 4.92548E-01-3.26783E-05-4.14748E-01 1.89631E-13 1.29172E-13
 -1       890 1.98212E+01 3.98886E-01-2.41242E-05-3.23855E-01 1.16238E-13 2.70794E-13
 -1       891 1.98809E+01 3.17894E-01-1.78625E-05-2.48622E-01 5.75850E-14 1.68637E-13
 -1       892 1.99236E+01 2.49738E-01-3.45444E-06-1.87462E-01-2.02579E-13 1.93083E-13
 -1       893 1.99536E+01 1.93418E-01-1.17699E-05-1.38578E-01 2.72299E-14 1.38517E-13
 -1       894 1.99980E+01 1.00798E-01 5.15646E-05 8.00398E-02-1.53507E-14-8.31470E-14
 -1       895 2.02966E+01 8.96907E-01-4.01995E-05-5.71430E-02-6.46839E-14-1.55387E-13
 -1       896 1.98641E+01 3.00465E-01 3.53833E-05-1.04886E+00 1.41571E-14 1.63831E-14
 -1       897 2.01522E+01-3.40559E-01 3.11584E-05-1.53067E+00 5.83397E-15 2.63196E-14
 -1       898 2.05453E+01-8.45130E-01 2.03991E-05-1.64555E+00-8.30655E-14 9.07299E-14
 -1       899 2.12148E+01-1.51560E+00 3.55100E-04-1.64376E+00-3.99293E-14 1.11335E-13
 -1       900 2.22279E+01-2.25825E+00-1.08968E-04-1.40275E+00 1.93723E-14 6.75079E-14
 -1       901 2.35960E+01-2.80079E+00-6.48692E-03-7.38161E-01-1.37675E-13-1.35348E-13
 -1       902 2.52125E+01-5.82173E-01-3.12813E-02-1.85973E+00 8.50318E-14-7.67947E-14
 -1       903 2.31169E+01-2.56032E+00-1.20418E-02 8.00131E-01-3.09987E-13 7.91186E-14
 -1       904 2.19526E+01-1.93885E+00-1.08458E-03 1.32213E+00-4.36849E-14 1.90132E-13
 -1       905 2.10492E+01-1.22393E+00 1.51234E-04 1.52237E+00 2.98529E-13-5.96216E-15
 -1       906 2.04700E+01-6.12772E-01 2.25256E-04 1.49664E+00-6.54062E-15-1.52504E-14
 -1       907 2.01283E+01-1.64842E-01 1.00156E-04 1.37181E+00-1.06420E-13 5.21211E-14
 -1       908 1.99474E+01 1.29104E-01 5.38876E-05 1.20816E+00-1.64878E-13 1.23492E-13
 -1       909 1.98672E+01 2.99891E-01 2.98917E-05 1.03580E+00 3.61675E-14 2.18734E-13
 -1       910 1.98456E+01 3.81171E-01 3.42722E-05 8.69595E-01 9.16501E-14 3.01126E-13
 -1       911 1.98548E+01 4.02240E-01 2.37733E-05 7.16893E-01-8.54945E-14 3.07502E-13
 -1       912 1.98778E+01 3.85922E-01 1.62104E-05 5.80895E-01-3.28876E-13 9.15540E-15
 -1       913 1.99049E+01 3.48662E-01 1.25876E-05 4.62785E-01-2.76868E-13-3.53014E-14
 -1       914 1.99307E+01 3.01886E-01 8.44487E-06 3.62457E-01-2.07246E-13 6.21571E-14
 -1       915 1.99528E+01 2.53022E-01 1.26396E-06 2.78900E-01-7.85956E-14-2.10972E-14
 -1       916 1.99705E+01 2.06559E-01 1.79302E-05 2.10816E-01 4.29632E-14-1.75417E-13
 -1       917 1.99836E+01 1.65127E-01 5.79806E-05 1.56069E-01-1.92747E-14 2.42135E-15
 -1       918 2.00906E+01 3.40681E-01 6.80615E-06-5.36934E-01 4.23464E-14-9.72846E-14
 -1       919 1.99503E+01-3.51809E-03 1.09877E-05-1.37285E+00 4.55625E-14-3.20489E-14
 -1       920 1.29798E+01 1.07221E+00 2.64843E-02-3.66003E-01 5.92321E-14 1.40617E-14
 -1       921 2.02207E+01 4.56420E-01 5.75369E-05-2.80346E-01 2.25565E-14-8.03473E-14
 -1       922 1.99008E+01 2.16212E-01-1.11952E-05-1.92030E-02 2.05112E-14-3.46795E-15
 -1       923 2.01584E+01 3.73726E-01 1.79594E-06-4.16571E-01-2.12757E-14-7.57980E-14
 -1       924 2.00900E+01 2.02971E+00-3.19560E-04-1.63177E-01 6.94459E-16-1.68224E-13
 -1       925 2.45471E+01-2.35817E+00-4.79582E-03-4.99302E-01-1.05894E-13 8.60163E-15
 -1       926 1.83585E+01-1.71905E+00 6.44615E-03 3.63763E+00-1.09979E-13-2.39920E-13
 -1       927 1.98704E+01 1.97980E-01 1.06350E-05-1.20703E+00-3.40438E-14-1.96094E-14
 -1       928 2.18753E+01-3.20385E+00 8.83015E-03 2.78876E+00-1.94250E-13-2.66911E-13
 -1       929 2.02629E+01 6.58306E-01-4.30856E-05 1.34059E-01-5.81378E-14-1.36229E-13
 -1       930 2.02572E+01 1.34271E+00-8.61301E-04-2.18697E-01-6.33876E-14-1.26108E-13
 -1       931 2.39329E+01-3.42971E+00-1.18027E-02-1.24214E+00-9.91249E-14 1.38097E-13
 -1       932 2.10036E+01-3.04694E+00 1.61882E-02-3.31243E+00-7.59995E-14 1.13850E-13
 -1       933 1.49399E+01-7.90443E-01 3.87332E-02-3.83274E+00-1.57468E-13-3.92759E-14
 -1       934 2.01933E+01 1.58940E+00-5.31289E-05 4.70493E-02 4.73555E-14-1.73498E-13
 -1       935 1.94056E+01-2.32728E+00 1.29740E-02-3.64562E+00-1.72988E-13 2.26622E-14
 -1       936 1.99856E+01 1.34716E-01-2.00606E-05 1.09352E-01 2.68176E-14-3.35868E-14
 -1       937 1.99771E+01 1.51774E-01 2.19923E-05-1.11875E-01 4.43066E-14 2.06235E-14
 -1       938 1.99152E+01 2.05068E-01 2.97703E-06-5.98325E-02-7.98776E-14-3.78701E-13
 -1       939 2.00213E+01 3.36904E-01 9.71925E-06-6.52849E-01 5.57907E-14-4.91525E-14
 -1       940 2.55228E+01 1.55396E+00-4.64870E-02-2.23536E+00 2.81948E-13 8.15997E-14
 -1       941 2.02169E+01 1.50710E+00-6.32370E-04 1.37114E-01 7.26943E-14-1.47575E-13
 -1       942 1.99500E+01 1.68234E-01-2.82764E-05 9.25524E-02 5.48290E-14-4.70109E-13
 -1       943 1.16114E+01 6.52547E-01 6.10691E-02-1.31246E+00-1.13794E-13-1.39761E-13
 -1       944 1.99017E+01 2.14166E-01-3.03082E-05 2.36889E-02-2.09305E-13-5.04106E-14
 -1       945 1.67470E+01-3.62449E-01 1.19433E-02 2.96000E+00-7.49397E-14 3.03030E-14
 -1       946 1.42500E+01 1.02905E+00 1.01659E-02 1.01420E+00-1.19524E-13-1.35611E-13
 -1       947 2.02629E+01 5.67677E-01-4.46380E-05-1.40419E-01 4.89359E-14-6.84538E-14
 -1       948 1.99552E+01 3.43273E-01 1.52776E-05-7.73329E-01 2.31804E-14 3.20612E-15
 -1       949 1.26058E+01 4.42205E-01 5.12694E-02 2.14783E+00 6.54417E-14-1.54080E-13
 -1       950 1.99485E+01 1.75530E-01-2.21944E-05-9.36309E-02-4.52564E-14 5.73493E-14
 -1       951 2.04952E+01-1.56958E+00 2.63098E-03 2.25188E+00 1.53078E-13-7.34400E-14
 -1       952 2.01363E+01 5.84433E-01-1.63730E-05 2.60829E-01 3.28349E-14-1.20040E-13
 -1       953 2.02857E+01 1.17036E+00 1.10381E-04 1.84237E-01 8.89284E-14-8.23772E-14
 -1       954 2.00053E+01 5.49432E-01-2.75676E-05 3.52790E-01 6.58757E-14-9.03970E-14
 -1       955 1.98363E+01 5.75905E-01-1.06806E-05 4.36275E-01 3.37946E-14-3.32691E-14
 -1       956 1.96262E+01 6.46991E-01-2.75407E-05 5.17205E-01-1.02365E-14-4.19604E-14
 -1       957 1.93674E+01 7.48133E-01-4.31180E-05 6.00289E-01 1.86333E-14-6.81040E-14
 -1       958 1.90482E+01 8.63805E-01-6.16521E-05 6.90358E-01-3.94164E-14-8.89081E-14
 -1       959 1.86522E+01 9.75482E-01-1.17029E-04 7.93765E-01 1.70711E-14-7.47845E-14
 -1       960 1.81568E+01 1.06033E+00-2.33760E-04 9.22279E-01-7.67612E-14-6.82836E-14
 -1       961 1.75302E+01 1.08912E+00-4.03755E-04 1.10007E+00-8.46747E-14-1.46678E-13
 -1       962 1.67258E+01 1.02053E+00-4.66495E-04 1.37480E+00-5.99954E-14-5.86953E-14
 -1       963 1.57099E+01 7.90425E-01 2.87158E-03 1.83371E+00 2.76732E-15-6.45547E-14
 -1       964 1.56337E+01 8.83680E-01 9.24648E-03-1.78925E+00 1.24748E-13-2.02978E-13
 -1       965 1.66731E+01 1.10678E+00 2.18002E-03-1.31360E+00 1.23990E-13-2.69146E-13
 -1       966 1.74596E+01 1.17708E+00 3.25400E-04-1.03046E+00 1.45688E-14-3.10797E-13
 -1       967 1.80640E+01 1.15510E+00 4.51744E-05-8.44250E-01-4.30380E-14-3.81743E-13
 -1       968 1.85319E+01 1.07526E+00-1.83611E-05-7.05467E-01-4.42733E-14-2.92153E-13
 -1       969 1.88951E+01 9.63760E-01 4.73187E-05-5.91846E-01-6.05401E-14-1.39135E-13
 -1       970 1.91767E+01 8.38620E-01 4.41825E-05-4.93285E-01 5.83318E-15-1.42150E-13
 -1       971 1.93938E+01 7.12518E-01 2.30822E-05-4.05973E-01 9.43398E-14 5.65860E-14
 -1       972 1.95602E+01 5.92987E-01 9.66946E-06-3.28849E-01 2.01548E-13 1.28726E-13
 -1       973 1.96863E+01 4.84680E-01 1.33795E-06-2.61815E-01 1.68844E-13 1.20747E-13
 -1       974 1.97808E+01 3.89749E-01 5.73409E-06-2.04601E-01-1.52851E-14-4.54518E-14
 -1       975 1.98507E+01 3.08579E-01 8.70754E-06-1.57016E-01-1.39854E-14 1.16996E-13
 -1       976 1.99011E+01 2.41361E-01 3.68402E-05-1.18065E-01-1.03133E-13 1.18667E-13
 -1       977 1.95931E+01 4.60025E-01 6.97601E-05-9.04122E-01 3.11437E-14-3.32898E-14
 -1       978 1.98724E+01-1.02364E+00 6.89817E-04-2.20433E+00-5.10949E-14 6.04085E-15
 -1       979 1.95078E+01-3.78202E-01 3.89737E-04-1.87473E+00-2.32830E-14 4.16403E-14
 -1       980 1.99297E+01 2.09900E-01 9.02818E-05 1.35299E-01-2.36015E-13-6.87658E-13
 -1       981 1.95154E+01-1.82206E-01 3.77537E-04 1.68415E+00-6.54420E-14 6.11547E-14
 -1       982 1.93974E+01 1.89404E-01 1.33649E-04 1.39631E+00-1.44649E-13 2.19244E-13
 -1       983 1.93936E+01 4.04377E-01 1.03968E-05 1.14444E+00-2.92953E-13 1.94095E-13
 -1       984 1.94488E+01 5.08070E-01 5.78332E-05 9.30157E-01-5.20426E-14 1.89731E-13
 -1       985 1.95300E+01 5.35965E-01-1.25291E-06 7.50062E-01 7.72514E-14 2.46806E-13
 -1       986 1.96171E+01 5.16860E-01-2.64111E-05 5.99325E-01-7.93647E-14 2.60935E-13
 -1       987 1.96998E+01 4.70300E-01-2.01496E-05 4.73730E-01-2.05003E-13 1.04398E-13
 -1       988 1.97725E+01 4.10502E-01-1.47794E-05 3.70027E-01-2.50092E-13-5.28029E-14
 -1       989 1.98333E+01 3.47083E-01-1.26312E-05 2.85204E-01 2.26597E-14-4.03597E-13
 -1       990 1.98821E+01 2.85847E-01-7.51924E-06 2.16866E-01 1.43846E-13-6.22061E-13
 -1       991 1.99073E+01 2.46493E-01-3.74207E-05 1.72569E-01 1.03565E-13-7.15006E-13
 -1       992 2.00945E+01 4.53047E-01 7.71512E-06-4.03154E-01 2.45110E-14-1.17242E-13
 -1       993 2.01932E+01 1.59157E+00 1.22986E-04-4.90869E-02-3.37520E-15-1.60749E-13
 -1       994 1.93789E+01 4.29174E-02 1.57524E-04-1.56647E+00-3.64475E-14 9.49081E-14
 -1       995 1.98333E+01-7.58043E-01 8.31588E-04 1.99120E+00 1.27933E-13 9.79232E-14
 -1       996 2.01879E+01 5.20074E-01-4.15936E-05-2.88002E-01 1.24818E-14-6.73367E-14
 -1       997 2.06445E+01-1.92574E+00 4.52249E-03-2.45960E+00-5.68474E-14 9.53437E-15
 -1       998 1.99177E+01 1.99427E-01-2.12690E-05 6.32226E-02-5.46435E-14-6.35139E-13
 -1       999 2.02947E+01 8.00790E-01-3.06653E-04 6.97672E-02 9.85548E-14-5.74781E-14
 -1      1000 2.02284E+01 6.98484E-01 6.06493E-05 1.53560E-01-1.09407E-14-8.29598E-14
 -1      1001 2.02178E+01 1.51212E+00 5.90553E-05-1.38994E-01-3.30289E-14-1.19585E-13
 -1      1002 2.02805E+01 9.03531E-01 1.90865E-04 2.13291E-02-5.41023E-14-8.89305E-14
 -1      1003 1.79217E+01-1.42633E+00 2.25283E-02-3.55921E+00-1.44045E-13-7.38826E-14
 -1      1004 1.38438E+01 2.62347E-01 2.86084E-02-2.55762E+00-2.00092E-13-1.12434E-13
 -1      1005 1.99828E+01 4.34835E-01-6.22085E-06-5.12611E-01 4.85941E-14-9.31825E-14
 -1      1006 1.94733E+01 4.15155E-01 7.17908E-05-1.08378E+00 3.48047E-14-4.16212E-14
 -1      1007 2.19468E+01-2.98292E+00 1.43775E-03-2.42622E+00-8.17273E-14 2.37168E-13
 -1      1008 1.86685E+01-7.10197E-01 3.48607E-03 2.57617E+00 9.40548E-14-1.80378E-13
 -1      1009 1.93890E+01 2.90031E-01-2.88116E-05-1.30331E+00-4.64309E-14 5.08507E-14
 -1      1010 2.02534E+01 1.19729E+00 1.65941E-04 2.40406E-02 1.80070E-14-1.15134E-13
 -1      1011 2.02429E+01 1.23451E+00-4.43360E-04-3.01268E-03 3.18992E-15-1.49708E-13
 -1      1012 1.98554E+01 2.70028E-01 4.86569E-06 4.61678E-03-9.54235E-14 1.00344E-13
 -1      1013 1.26805E+01 9.44042E-01 4.37717E-02 2.88670E-01-1.35851E-14-1.65391E-13
 -1      1014 1.59916E+01 5.80085E-01 3.11264E-03 1.93234E+00-1.92769E-13 1.38559E-13
 -1      1015 2.02518E+01 6.19210E-01-1.53495E-04-1.76817E-01 5.97675E-14-5.23281E-14
 -1      1016 1.97253E+01 4.60940E-01 6.92279E-06-7.54531E-01-2.38967E-14 6.55819E-15
 -1      1017 1.52377E+01 1.24401E+00 4.95206E-03-4.91981E-01 4.67917E-14-2.02943E-13
 -1      1018 1.98640E+01 2.65282E-01 2.32468E-06-5.14084E-02-1.62227E-13-3.64719E-13
 -1      1019 1.98815E+01 6.12193E-01-8.61321E-05 2.37326E-01 6.89836E-14-1.64474E-13
 -1      1020 1.96645E+01 6.59493E-01-2.81600E-05 2.80050E-01 3.31315E-14-1.41439E-13
 -1      1021 1.93966E+01 7.45260E-01-1.24023E-04 3.15459E-01 1.90584E-14-6.31604E-14
 -1      1022 1.90666E+01 8.56431E-01-1.53512E-04 3.45176E-01-5.18213E-15-8.64468E-14
 -1      1023 1.86600E+01 9.75553E-01-1.28872E-04 3.68532E-01 1.26299E-14-6.35377E-14
 -1      1024 1.81491E+01 1.08702E+00-3.33343E-04 3.85652E-01-9.19924E-14-1.63252E-13
 -1      1025 1.74957E+01 1.17218E+00-4.86813E-04 4.01518E-01-1.00556E-13-1.70839E-13
 -1      1026 1.66362E+01 1.21118E+00-4.17537E-04 4.29043E-01-8.49871E-14-2.04853E-13
 -1      1027 1.54566E+01 1.18728E+00 3.13581E-03 4.91343E-01 2.05705E-14-1.44947E-13
 -1      1028 1.86477E+01-1.01363E+00 4.98832E-03-2.85515E+00-8.46687E-14-6.32292E-14
 -1      1029 1.65743E+01 1.29985E+00 2.20335E-04-3.86960E-01-1.24139E-13-5.18621E-13
 -1      1030 1.74054E+01 1.26550E+00-9.68951E-05-3.54455E-01-1.23895E-13-6.29633E-13
 -1      1031 1.80238E+01 1.19122E+00-1.95203E-04-3.32006E-01 5.02681E-14-5.39553E-13
 -1      1032 1.84968E+01 1.08367E+00-1.84458E-05-3.08553E-01 8.48499E-14-5.36445E-13
 -1      1033 1.88625E+01 9.58372E-01-3.78480E-05-2.79222E-01 3.80271E-14-4.71661E-13
 -1      1034 1.91457E+01 8.28679E-01-1.17494E-04-2.45697E-01 2.77805E-14-3.65720E-13
 -1      1035 1.93664E+01 7.00831E-01-1.02121E-04-2.10021E-01 1.79788E-13-3.33871E-13
 -1      1036 1.95369E+01 5.81244E-01-6.53174E-05-1.74901E-01 2.76125E-13-2.92755E-13
 -1      1037 1.96673E+01 4.73880E-01-2.98575E-05-1.42080E-01 1.22620E-13-2.40025E-13
 -1      1038 1.97660E+01 3.79950E-01 2.31906E-06-1.12132E-01-1.59442E-13 4.55718E-14
 -1      1039 2.00505E+01 6.22908E-01-1.08951E-04 1.87109E-01 4.30517E-14-6.35988E-14
 -1      1040 1.89773E+01 6.64120E-01 2.06059E-04 9.32211E-01-1.50373E-13 1.64181E-13
 -1      1041 1.98792E+01 2.52533E-01-6.36637E-05 9.81820E-02-6.04194E-14-3.58959E-13
 -1      1042 1.88032E+01 5.56684E-01-3.16835E-04 1.19732E+00-2.62880E-13 3.24811E-13
 -1      1043 1.86644E+01 3.23088E-01-3.59942E-04 1.54498E+00-3.28583E-13 2.34981E-13
 -1      1044 1.91549E+01 6.87127E-01-3.89640E-05 7.25574E-01-6.20429E-14 1.55233E-13
 -1      1045 1.93203E+01 6.59314E-01-1.50385E-04 5.65246E-01-4.46048E-14 2.15392E-13
 -1      1046 1.94676E+01 6.00163E-01-1.17271E-04 4.38253E-01-9.38059E-15 7.38969E-14
 -1      1047 1.95931E+01 5.25538E-01-6.39611E-05 3.37909E-01 1.03648E-14-7.58034E-14
 -1      1048 1.96967E+01 4.46346E-01-6.08117E-05 2.58588E-01 5.70595E-14-3.34069E-13
 -1      1049 1.97792E+01 3.70247E-01-6.17885E-05 1.95894E-01 2.98172E-13-4.68937E-13
 -1      1050 2.02570E+01 1.10430E+00-3.05176E-04-1.20859E-02-1.87545E-14-1.05157E-13
 -1      1051 2.02293E+01 8.47465E-01 2.23270E-04 5.74575E-02-2.47949E-14-8.48971E-14
 -1      1052 1.85738E+01 1.83498E-01-1.51890E-04-1.71837E+00-1.24682E-14 3.90671E-14
 -1      1053 1.85751E+01-6.98507E-02-3.09687E-05 1.99478E+00-8.68132E-14-5.87025E-14
 -1      1054 1.98578E+01 4.44766E-01-1.27371E-06-6.26676E-01-1.21540E-14-7.96609E-14
 -1      1055 1.98599E+01 2.67061E-01 2.62157E-05 5.27985E-02 2.25447E-15-1.86127E-13
 -1      1056 2.02887E+01 8.39022E-01 6.32082E-04-1.91360E-02 9.49837E-14-6.30655E-14
 -1      1057 1.84942E+01-2.76278E-01-4.15787E-04-2.22302E+00 1.50200E-14 9.87112E-16
 -1      1058 2.01578E+01 7.00796E-01-4.72751E-05 1.20163E-01 2.10985E-14-4.08100E-14
 -1      1059 2.01163E+01 5.68671E-01-6.25484E-05-2.55982E-01 4.18447E-14-6.87513E-15
 -1      1060 2.02795E+01 1.03261E+00 4.49014E-04 2.00434E-02 5.95038E-14-4.96402E-14
 -1      1061 1.37902E+01 8.78585E-01 1.68360E-02-1.14798E+00-1.11953E-13-4.60552E-14
 -1      1062 1.38124E+01 1.06278E+00 1.34106E-02 5.11019E-01-2.23023E-14-1.30882E-13
 -1      1063 1.98389E+01 3.00219E-01-1.01018E-04-8.70221E-02 5.09714E-14-4.03613E-13
 -1      1064 1.64214E+01-4.41362E-01 1.16551E-02-3.09695E+00-1.45714E-13-9.67384E-14
 -1      1065 1.74191E+01 1.92280E-01-2.42969E-04 2.11888E+00-1.01092E-13 3.11956E-13
 -1      1066 2.02135E+01 6.80533E-01 1.59198E-04-1.60531E-01 5.57875E-14-2.67786E-14
 -1      1067 1.98262E+01 3.19258E-01-4.05925E-05 1.54412E-01 3.53877E-14-4.65091E-13
 -1      1068 2.02443E+01 9.58360E-01 1.15156E-04-2.36400E-02-1.79665E-14-1.36852E-13
 -1      1069 1.87462E+01 4.48046E-01-1.80043E-04-1.34165E+00-4.56764E-14 5.77985E-14
 -1      1070 1.94318E+01 5.93676E-01-1.05399E-04-6.75307E-01-1.71227E-14-1.41472E-13
 -1      1071 1.58838E+01 1.17249E+00 1.24146E-03 6.54450E-01-1.14417E-13-2.26384E-13
 -1      1072 1.97990E+01 3.32270E-01 5.91018E-05 3.31130E-02-1.98917E-17-2.09480E-13
 -1      1073 1.99853E+01 5.25841E-01-3.39086E-05-3.45589E-01 5.01507E-14-6.64375E-14
 -1      1074 1.98093E+01 3.23699E-01 2.40696E-05-3.05621E-02-1.11350E-13-1.41509E-13
 -1      1075 1.92083E+01 6.04189E-01-1.57567E-04-8.42987E-01-1.33071E-14-6.54013E-14
 -1      1076 2.02343E+01 9.19772E-01 4.48877E-04 7.18675E-03 9.96914E-15-1.31701E-13
 -1      1077 1.89969E+01 8.12400E-01 3.15738E-05 4.68092E-01 2.39591E-14-6.36054E-14
 -1      1078 1.95065E+01 7.10332E-01 6.02294E-04 6.24692E-02 7.81042E-14-1.21296E-13
 -1      1079 1.91943E+01 8.03779E-01 4.89412E-05 4.05854E-02-2.81116E-15-7.56223E-14
 -1      1080 1.88235E+01 9.05561E-01-2.97080E-04-1.57004E-03-3.19547E-14-4.91949E-14
 -1      1081 1.83733E+01 1.00108E+00-7.41788E-04-6.90676E-02-9.66220E-14-1.48718E-13
 -1      1082 1.77981E+01 1.08997E+00 9.53250E-04-1.72119E-01-8.01260E-14-1.78855E-13
 -1      1083 1.70546E+01 1.13487E+00 1.33274E-04-3.41241E-01-5.98400E-14-1.17319E-13
 -1      1084 1.60601E+01 1.13585E+00 2.24099E-03-5.76994E-01-3.14540E-14-2.68592E-14
 -1      1085 1.98249E+01 5.30196E-01-5.20152E-05-4.38409E-01 8.55545E-15-6.75650E-14
 -1      1086 1.99552E+01 6.38706E-01-7.34912E-05 6.36971E-02 9.76084E-15-1.07334E-13
 -1      1087 1.76968E+01 1.18318E+00 6.34942E-04 1.91693E-01-3.95546E-14-6.22336E-14
 -1      1088 1.82184E+01 1.11591E+00 7.79346E-05 8.96807E-02 5.09806E-14-2.33396E-13
 -1      1089 1.86287E+01 1.01386E+00 4.65573E-04 3.06628E-02-1.23450E-13-2.93883E-13
 -1      1090 1.89460E+01 9.00009E-01-1.03356E-04-8.81521E-03 4.38681E-14-4.41447E-13
 -1      1091 1.92044E+01 7.76315E-01-1.21794E-04-3.11739E-02 1.17855E-13-4.53894E-13
 -1      1092 1.94069E+01 6.55823E-01-1.04803E-04-4.04803E-02 2.62365E-13-5.38801E-13
 -1      1093 1.95690E+01 5.42174E-01 4.82501E-04-4.15078E-02 3.19709E-13-4.13107E-13
 -1      1094 1.96916E+01 4.39025E-01 6.83857E-05-3.73051E-02 3.90593E-14-1.50782E-13
 -1      1095 1.84383E+01 8.52337E-01 2.85735E-04 8.37559E-01-2.62454E-13-1.53482E-13
 -1      1096 1.80967E+01 7.73093E-01-7.01466E-06 1.13604E+00-2.48176E-13-6.91084E-14
 -1      1097 1.92173E+01 7.34835E-01 2.58492E-06 3.49284E-01 1.41089E-14 1.26278E-13
 -1      1098 1.94009E+01 6.43432E-01 2.07369E-05 2.61778E-01 5.68755E-14 1.39855E-13
 -1      1099 1.95502E+01 5.47666E-01-1.88550E-04 1.93285E-01 2.60461E-13-1.30108E-13
 -1      1100 1.96748E+01 4.54677E-01 6.70530E-04 1.42906E-01 2.64290E-13-3.18676E-13
 -1      1101 2.02587E+01 8.90807E-01-5.62678E-04-5.32863E-02 3.15913E-14-4.28602E-14
 -1      1102 2.01490E+01 6.80696E-01 1.56981E-04-1.20148E-01 3.34950E-14-3.63532E-14
 -1      1103 1.69985E+01 1.22045E+00 2.04745E-04 3.48601E-01-1.47608E-14-9.66969E-14
 -1      1104 1.96397E+01 5.59976E-01-4.83577E-05-5.45112E-01-3.18809E-14-8.23830E-14
 -1      1105 1.87508E+01 8.51499E-01 9.58635E-04 6.22454E-01-5.59587E-15-3.14135E-14
 -1      1106 1.89742E+01 5.68015E-01 2.56467E-04-1.05831E+00-5.70203E-14 2.21604E-14
 -1      1107 1.69197E+01 2.14494E-01 3.58009E-03-2.19737E+00 9.25757E-14-6.50801E-14
 -1      1108 1.98030E+01 3.32362E-01 3.11243E-05 9.42512E-02 7.39141E-14-3.05313E-13
 -1      1109 1.74569E+01 5.65427E-01-2.09996E-04-1.57775E+00 3.59392E-14-1.07724E-13
 -1      1110 1.97579E+01 6.48890E-01 2.44255E-04 6.74080E-02 4.57271E-14-1.42460E-13
 -1      1111 2.02089E+01 7.96069E-01-2.55386E-06-6.59962E-02 1.40493E-14-8.14424E-14
 -1      1112 1.48946E+01 1.00467E+00 1.60261E-02-8.96688E-01 1.23008E-14 2.76045E-14
 -1      1113 1.53846E+01 5.61329E-01-4.03234E-03-1.94254E+00-2.26204E-14-3.27158E-14
 -1      1114 2.01860E+01 7.82135E-01-2.27616E-04-4.88875E-03 3.28673E-14-1.51215E-13
 -1      1115 2.00922E+01 6.80420E-01 4.83402E-04 3.41029E-02 3.11862E-14-1.29118E-13
 -1      1116 2.00180E+01 6.06596E-01 2.03271E-04-1.76152E-01 7.23935E-14-6.03280E-14
 -1      1117 1.97425E+01 3.91579E-01 1.86297E-04 1.09892E-01 5.06336E-14-2.50658E-13
 -1      1118 1.79546E+01 7.41028E-01-7.37873E-04-1.14167E+00-7.46308E-14-1.06474E-13
 -1      1119 1.90892E+01 7.42733E-01 1.03006E-04-5.19663E-01-4.63431E-14-1.64072E-13
 -1      1120 1.77553E+01 5.56890E-01-4.45008E-04 1.55140E+00-3.27258E-13 2.34160E-13
 -1      1121 1.93826E+01 6.82025E-01 3.31449E-05-3.97190E-01 3.92731E-14-1.18191E-13
 -1      1122 1.68698E+01 9.01511E-01-7.15234E-04 1.22118E+00-7.04693E-14 2.07369E-13
 -1      1123 1.96894E+01 4.35221E-01-3.56866E-04 4.79156E-02 1.86485E-13-4.56804E-13
 -1      1124 1.98442E+01 5.95453E-01 7.22057E-05-2.38425E-01 4.38336E-14-2.27778E-14
 -1      1125 1.82510E+01 9.20937E-01-1.15679E-03-5.84041E-01-7.94346E-14-1.30852E-13
 -1      1126 1.87241E+01 8.30647E-01 1.18859E-03-5.48930E-01-7.14244E-14-1.52822E-13
 -1      1127 1.85375E+01 9.76580E-01-1.75680E-03 3.82986E-01-4.24172E-14-3.99261E-13
 -1      1128 1.78767E+01 1.05830E+00-1.82031E-03 5.91657E-01-1.49416E-13-4.69414E-14
 -1      1129 1.96544E+01 6.48213E-01-1.72394E-03-1.46795E-01 8.46310E-14-6.48002E-14
 -1      1130 2.01162E+01 6.88235E-01-3.73445E-04-5.11857E-02 4.75195E-14-1.42787E-13
 -1      1131 1.96404E+01 6.24248E-01 9.70703E-04-3.07936E-01 5.49128E-14-7.13794E-14
 -1      1132 2.78731E+01 9.05628E+00 2.31437E+00-6.67228E+00-2.40918E-14 8.03080E-13
 -1      1133 2.05197E+01 6.21905E+00 2.10405E-01-3.88338E+00-1.35170E-14 1.33650E-13
 -1      1134 1.94332E+01 5.85295E+00 7.65961E-02-2.86467E+00-9.24955E-15-1.61175E-13
 -1      1135 1.90400E+01 5.73042E+00 6.13931E-02-2.20931E+00-6.42542E-15-3.03278E-13
 -1      1136 1.88616E+01 5.67597E+00 5.82438E-02-1.67515E+00-4.73059E-15-3.67857E-13
 -1      1137 1.87702E+01 5.64766E+00 5.53580E-02-1.21064E+00-2.45984E-15-3.97004E-13
 -1      1138 1.87213E+01 5.63231E+00 5.30420E-02-7.86634E-01-1.69049E-15-4.05936E-13
 -1      1139 1.86965E+01 5.62440E+00 5.14381E-02-3.83314E-01-2.27899E-16-3.97624E-13
 -1      1140 1.86891E+01 5.62202E+00 5.09120E-02 8.54588E-03 2.79724E-17-3.94217E-13
 -1      1141 1.86972E+01 5.62461E+00 5.15403E-02 4.00803E-01 1.93313E-15-3.89790E-13
 -1      1142 1.87227E+01 5.63279E+00 5.32734E-02 8.05436E-01 2.26381E-15-3.72499E-13
 -1      1143 1.87730E+01 5.64872E+00 5.60041E-02 1.23201E+00 5.28223E-15-3.43970E-13
 -1      1144 1.88655E+01 5.67729E+00 5.88223E-02 1.70091E+00 5.29264E-15-2.95153E-13
 -1      1145 1.90446E+01 5.73180E+00 6.13991E-02 2.24210E+00 7.85830E-15-2.05480E-13
 -1      1146 1.94297E+01 5.85012E+00 7.06882E-02 2.90480E+00 1.05055E-14-3.75949E-14
 -1      1147 2.04266E+01 6.17432E+00 1.54365E-01 3.85800E+00 1.16851E-14 2.88929E-13
 -1      1148 2.51383E+01 7.96841E+00 1.42291E+00 5.82392E+00 2.27041E-14 9.54653E-13
 -1      1149 2.86978E+01 3.59843E+00 1.26018E+00-4.19935E+00-9.58955E-14 1.23490E-12
 -1      1150 2.01592E+01-1.77752E-01-6.15639E-01-1.08729E-01-2.92683E-14 1.00631E-12
 -1      1151 1.87873E+01-9.67418E-02-2.36102E-01 6.23190E-02-6.85216E-15 6.95723E-13
 -1      1152 1.84746E+01-4.89471E-02-6.02721E-02 4.01487E-02-1.23118E-14 4.87305E-13
 -1      1153 1.84467E+01-2.60844E-02-1.66881E-02 2.63906E-02-9.80899E-15 3.22076E-13
 -1      1154 1.85669E+01-1.52240E-02-7.34728E-03 1.87187E-02-4.82535E-15 2.65381E-13
 -1      1155 1.87696E+01-9.63411E-03-4.89446E-03 1.39623E-02 4.01578E-15 2.13340E-13
 -1      1156 1.90227E+01-6.89655E-03-4.14545E-03 1.08744E-02-4.14772E-15 1.29787E-13
 -1      1157 1.93128E+01-5.92941E-03-4.43980E-03 8.90088E-03 7.04319E-15 7.81493E-14
 -1      1158 1.96386E+01-6.15495E-03-5.70288E-03 7.83333E-03-1.06281E-14-1.18512E-13
 -1      1159 2.00075E+01-7.22812E-03-7.83809E-03 7.64522E-03-4.91013E-15-2.23406E-13
 -1      1160 2.04335E+01-8.87614E-03-1.06904E-02 8.42180E-03 3.73200E-14-4.92002E-14
 -1      1161 2.09358E+01-1.07835E-02-1.39856E-02 1.03276E-02-2.37525E-14-9.44002E-14
 -1      1162 2.15364E+01-1.24646E-02-1.71689E-02 1.35659E-02 1.42681E-16-2.52831E-13
 -1      1163 2.22562E+01-1.30955E-02-1.91059E-02 1.82788E-02 2.78954E-15-5.09974E-14
 -1      1164 2.31069E+01-1.13036E-02-1.76274E-02 2.43038E-02-2.53571E-14-1.24421E-13
 -1      1165 2.40767E+01-4.98943E-03-9.03870E-03 3.06575E-02 1.73443E-14-1.78000E-13
 -1      1166 2.51059E+01 8.53873E-03 1.18765E-02 3.46228E-02-1.23409E-14-1.62818E-13
 -1      1167 2.60524E+01 3.15192E-02 4.99612E-02 3.06076E-02-3.40565E-14-3.21233E-13
 -1      1168 2.66591E+01 6.27998E-02 1.03744E-01 9.78872E-03 2.57372E-14-4.29695E-13
 -1      1169 2.65605E+01 9.25025E-02 1.54805E-01-3.65608E-02-7.91034E-15-3.76879E-13
 -1      1170 2.54029E+01 9.74896E-02 1.60199E-01-1.05888E-01-3.63112E-14-2.29969E-13
 -1      1171 2.31346E+01 4.89219E-02 7.20580E-02-1.69546E-01 4.53977E-14-9.51184E-14
 -1      1172 2.03442E+01-5.46340E-02-1.04409E-01-1.74969E-01-3.92871E-14-1.70558E-13
 -1      1173 1.82437E+01-1.55330E-01-2.69312E-01-8.81422E-02-1.39871E-14-3.17288E-13
 -1      1174 1.79758E+01-1.68948E-01-2.91647E-01 5.40392E-02-2.55455E-14-4.05578E-14
 -1      1175 1.97007E+01-8.42414E-02-1.52673E-01 1.61892E-01 3.14115E-14-1.21431E-14
 -1      1176 2.24522E+01 2.70181E-02 3.39733E-02 1.78569E-01-2.06818E-14-4.80532E-13
 -1      1177 2.49436E+01 9.04992E-02 1.47332E-01 1.24147E-01 6.79058E-15-5.75401E-13
 -1      1178 2.64052E+01 9.69442E-02 1.61772E-01 5.24115E-02 3.72098E-15-2.87687E-13
 -1      1179 2.67566E+01 7.05033E-02 1.17522E-01-5.75760E-04-9.28077E-15 1.53211E-14
 -1      1180 2.63087E+01 3.80867E-02 6.14879E-02-2.71787E-02-1.85347E-14 8.49112E-14
 -1      1181 2.54433E+01 1.24433E-02 1.85700E-02-3.43577E-02-8.98500E-15-1.96756E-13
 -1      1182 2.44504E+01-3.53343E-03-6.63497E-03-3.15146E-02 2.73675E-14-9.70231E-14
 -1      1183 2.35009E+01-1.16064E-02-1.81170E-02-2.51094E-02-1.42605E-15-1.05308E-13
 -1      1184 2.26739E+01-1.45060E-02-2.12961E-02-1.84602E-02 4.69722E-14 1.06623E-13
 -1      1185 2.19928E+01-1.44921E-02-2.02841E-02-1.28577E-02-8.39042E-15-2.50890E-13
 -1      1186 2.14522E+01-1.30715E-02-1.75629E-02-8.57575E-03 9.39049E-15-1.16034E-13
 -1      1187 2.10345E+01-1.11290E-02-1.44293E-02-5.47901E-03-3.60942E-14-1.05582E-13
 -1      1188 2.07184E+01-9.13406E-03-1.14768E-02-3.31875E-03-1.73508E-14-1.67476E-13
 -1      1189 2.04839E+01-7.30864E-03-8.92941E-03-1.85322E-03-2.52784E-14-4.09415E-13
 -1      1190 2.03131E+01-5.73855E-03-6.83512E-03-8.84812E-04-6.38560E-14-7.99584E-13
 -1      1191 2.01914E+01-4.44027E-03-5.16758E-03-2.62976E-04-9.94685E-15-5.75796E-13
 -1      1192 2.01069E+01-3.39812E-03-3.87630E-03 1.24463E-04-1.02925E-13-4.61572E-13
 -1      1193 2.00505E+01-2.58292E-03-2.90941E-03 3.62804E-04-4.31673E-14-7.93923E-13
 -1      1194 2.00151E+01-1.95932E-03-2.21817E-03 5.22675E-04 5.56946E-14-1.35361E-13
 -1      1195 1.99958E+01-1.48350E-03-1.73027E-03 6.71708E-04-6.14708E-14 3.75704E-13
 -1      1196 1.99888E+01-1.06459E-03-1.26472E-03 8.71152E-04 5.58482E-14 2.69356E-13
 -1      1197 1.99918E+01-7.32776E-04-2.67532E-04 1.22028E-03-5.93093E-14-8.25797E-14
 -1      1198 1.99982E+01 6.48292E-04 1.62254E-03 5.50774E-04 4.94304E-14 4.10901E-14
 -1      1199 2.76840E+01 5.23570E-01 3.70659E-01 1.96001E+00-1.98314E-14 1.49941E-12
 -1      1200 2.00201E+01-6.64753E-02-5.72935E-01 1.29028E-01 8.28851E-15 1.21320E-12
 -1      1201 1.88646E+01-4.11097E-02-1.93130E-01 1.96869E-02 1.43462E-14 9.07685E-13
 -1      1202 1.85070E+01-2.22861E-02-5.12558E-02 2.12954E-03 8.39259E-15 7.43849E-13
 -1      1203 1.84637E+01-1.37082E-02-1.48216E-02-3.08301E-03 3.87689E-15 6.28417E-13
 -1      1204 1.85782E+01-9.22125E-03-6.83178E-03-4.25073E-03 2.82760E-15 5.28876E-13
 -1      1205 1.87775E+01-6.75916E-03-4.97545E-03-4.18197E-03-3.54079E-15 5.33459E-13
 -1      1206 1.90268E+01-5.49771E-03-4.41886E-03-3.69505E-03-6.71907E-15 5.51600E-13
 -1      1207 1.93098E+01-5.00276E-03-4.48186E-03-3.08963E-03-2.07299E-15 4.06376E-13
 -1      1208 1.96214E+01-4.98062E-03-5.04991E-03-2.55717E-03 1.79101E-14 2.90374E-13
 -1      1209 1.99629E+01-5.16449E-03-5.93221E-03-2.27794E-03 2.53954E-14 1.90637E-13
 -1      1210 2.03387E+01-5.25160E-03-6.79579E-03-2.44995E-03 1.71586E-15 1.43604E-13
 -1      1211 2.07535E+01-4.85507E-03-7.13839E-03-3.29376E-03 7.95875E-15 1.24525E-13
 -1      1212 2.12082E+01-3.47322E-03-6.23570E-03-5.03287E-03-1.28553E-14 4.74135E-14
 -1      1213 2.16949E+01-5.02656E-04-3.10636E-03-7.82745E-03-1.54314E-15-2.09312E-14
 -1      1214 2.21905E+01 4.64987E-03 3.41411E-03-1.16284E-02 3.10922E-14-2.58946E-13
 -1      1215 2.26496E+01 1.22739E-02 1.43371E-02-1.59221E-02-3.98466E-15-2.38618E-13
 -1      1216 2.29982E+01 2.18122E-02 2.97315E-02-1.93896E-02-2.23996E-15-8.10923E-14
 -1      1217 2.31334E+01 3.11547E-02 4.74191E-02-1.96538E-02 4.72148E-15-8.15485E-14
 -1      1218 2.29384E+01 3.62210E-02 6.16333E-02-1.35589E-02-2.89786E-15-3.90972E-14
 -1      1219 2.23209E+01 3.18305E-02 6.30938E-02 1.41939E-03 8.33578E-15-3.70329E-14
 -1      1220 2.12760E+01 1.46712E-02 4.26312E-02 2.44667E-02-3.94788E-14 2.23849E-14
 -1      1221 1.99528E+01-1.24033E-02-1.33797E-03 4.88909E-02 5.29732E-14-1.31076E-13
 -1      1222 1.86699E+01-3.87874E-02-5.58949E-02 6.30798E-02-6.22146E-14-2.17069E-13
 -1      1223 1.78277E+01-5.17012E-02-9.67967E-02 5.68929E-02 3.41524E-14 1.93560E-14
 -1      1224 1.77262E+01-4.52554E-02-1.02919E-01 3.01759E-02 4.28737E-15 3.12033E-13
 -1      1225 1.84036E+01-2.48573E-02-7.24396E-02-6.17908E-03-3.46819E-14 4.49654E-13
 -1      1226 1.96139E+01-1.98854E-03-2.34714E-02-3.64353E-02 5.72188E-14-1.28758E-13
 -1      1227 2.09653E+01 1.42493E-02 2.06098E-02-5.07288E-02 5.63297E-15-4.09943E-13
 -1      1228 2.21086E+01 2.11366E-02 4.55279E-02-4.87892E-02-2.59966E-14-7.03618E-13
 -1      1229 2.28520E+01 2.06396E-02 5.03007E-02-3.68336E-02 3.13677E-14-6.33545E-13
 -1      1230 2.31676E+01 1.62188E-02 4.19018E-02-2.20052E-02 6.50998E-15-5.97914E-13
 -1      1231 2.31328E+01 1.07043E-02 2.84693E-02-9.07656E-03-3.90870E-14 1.05887E-13
 -1      1232 2.28637E+01 5.73424E-03 1.55631E-02 5.36507E-05 8.43921E-15 2.55716E-13
 -1      1233 2.24704E+01 1.95631E-03 5.68116E-03 5.40475E-03 1.54127E-14 7.85136E-15
 -1      1234 2.20365E+01-5.71860E-04-7.72614E-04 7.83846E-03-2.79843E-15-2.20206E-13
 -1      1235 2.16168E+01-2.05638E-03-4.37858E-03 8.35620E-03 1.54236E-14-5.00272E-13
 -1      1236 2.12414E+01-2.77322E-03-5.97183E-03 7.78479E-03-8.95806E-15-6.81957E-13
 -1      1237 2.09236E+01-2.97626E-03-6.29863E-03 6.70170E-03-1.23308E-14-3.96045E-13
 -1      1238 2.06652E+01-2.86578E-03-5.91357E-03 5.46602E-03 8.23923E-15-7.87252E-13
 -1      1239 2.04623E+01-2.58623E-03-5.18739E-03 4.27812E-03 2.87569E-14-9.19896E-13
 -1      1240 2.03076E+01-2.23547E-03-4.35001E-03 3.23500E-03 5.40261E-14-9.72488E-13
 -1      1241 2.01933E+01-1.87663E-03-3.53554E-03 2.37150E-03-2.62948E-14-6.39775E-13
 -1      1242 2.01115E+01-1.54879E-03-2.81867E-03 1.68742E-03-5.89378E-15-2.27959E-13
 -1      1243 2.00553E+01-1.27339E-03-2.23932E-03 1.16231E-03-3.43882E-14-1.03529E-13
 -1      1244 2.00192E+01-1.05373E-03-1.81205E-03 7.60840E-04 1.03698E-14-2.30193E-13
 -1      1245 1.99987E+01-8.76006E-04-1.51243E-03 4.29882E-04 7.41858E-14-9.96068E-13
 -1      1246 1.99905E+01-6.52764E-04-1.17007E-03 5.96822E-05-1.22263E-15-9.32294E-13
 -1      1247 1.99923E+01-5.40137E-05-1.97659E-04-5.21235E-04 1.11665E-13-1.30405E-12
 -1      1248 1.99984E+01 5.16059E-04 1.58054E-03-5.14717E-04-6.09016E-14-1.12110E-12
 -1      1249 2.00002E+01-1.57353E-03 1.43147E-03-5.69556E-04-9.96116E-13-5.46320E-15
 -1      1250 1.99993E+01-7.32009E-03-4.84881E-04-9.67120E-04-6.69490E-13 4.22349E-14
 -1      1251 1.99990E+01-7.51660E-03-1.22425E-03-3.49122E-04 5.18392E-13 1.81380E-13
 -1      1252 1.99992E+01 1.29512E-03-1.02151E-03 1.53147E-04 8.71488E-13-2.98868E-15
 -1      1253 1.99996E+01 1.68585E-02-4.34825E-04 4.42863E-04 1.13927E-12-1.76318E-14
 -1      1254 2.00000E+01 3.49874E-02 2.08826E-04 5.26745E-04 5.22907E-13-1.56913E-13
 -1      1255 2.00004E+01 5.15845E-02 7.57458E-04 4.49339E-04 3.09903E-14 5.95079E-14
 -1      1256 2.00007E+01 6.31383E-02 1.12669E-03 2.45903E-04 3.68011E-13-1.08829E-13
 -1      1257 2.00008E+01 6.70209E-02 1.25302E-03-2.02207E-05-1.37503E-13 1.84578E-14
 -1      1258 2.00007E+01 6.23850E-02 1.11603E-03-2.85110E-04 2.82563E-13 1.31949E-13
 -1      1259 2.00004E+01 5.01457E-02 7.30647E-04-4.82125E-04 1.89886E-14-1.83954E-13
 -1      1260 2.00000E+01 3.30249E-02 1.62487E-04-5.52528E-04-6.73549E-13-7.08061E-14
 -1      1261 1.99996E+01 1.46801E-02-4.98652E-04-4.42627E-04-4.50106E-13 5.86108E-14
 -1      1262 1.99992E+01-6.74232E-04-1.08591E-03-1.26600E-04-9.55760E-13-8.57951E-14
 -1      1263 1.99991E+01-8.98005E-03-1.24826E-03 4.61377E-04-7.25001E-13-5.24228E-14
 -1      1264 1.99993E+01-7.30042E-03-2.36077E-04 1.57111E-03 8.74561E-15-1.15526E-13
 -1      1265 2.00003E+01-1.89559E-03 1.40538E-03 7.37351E-04 1.46628E-14 1.40254E-13
 -1      1266-1.07915E+00-2.34929E+01-3.65028E+00-2.19418E+00 8.17901E-13 1.58810E-13
 -1      1267-1.68326E+00-1.44747E+01-2.96434E+00-3.90993E+00 4.40981E-13 1.23734E-13
 -1      1268 3.66995E-01-1.99530E+00-1.76789E+00 1.40026E-02-3.86358E-14-1.02141E-14
 -1      1269 8.95850E+00 7.86269E+00-2.31081E-01 8.23524E+00 8.23563E-13 9.05942E-13
 -1      1270 2.54273E+01 1.11657E+01 1.41973E+00 1.59805E+01 9.25038E-13 1.24922E-12
 -1      1271 4.57239E+01 8.19255E+00 2.91803E+00 1.75857E+01 3.85914E-13 7.71383E-13
 -1      1272 6.15522E+01 3.45421E+00 3.87085E+00 1.03642E+01 3.13638E-15 1.01141E-13
 -1      1273 6.62572E+01 1.71704E+00 4.13834E+00-2.30451E+00 5.18474E-14-3.90910E-13
 -1      1274 5.73069E+01 4.82216E+00 3.61800E+00-1.36837E+01 4.06813E-13-1.19926E-12
 -1      1275 3.91579E+01 9.63126E+00 2.45849E+00-1.80330E+01 9.45577E-13-1.73683E-12
 -1      1276 1.96454E+01 1.10044E+01 9.02544E-01-1.41769E+01 1.18283E-12-1.50235E-12
 -1      1277 5.81055E+00 5.80132E+00-6.79635E-01-5.84110E+00 1.32228E-12-1.11200E-12
 -1      1278-6.30131E-01-5.12661E+00-2.09661E+00 1.50068E+00 1.30851E-12-7.12319E-13
 -1      1279-1.64261E+00-1.75428E+01-3.24381E+00 3.93030E+00 7.74492E-13-3.27655E-13
 -1      1280-1.13183E+00-2.45345E+01-3.73257E+00 9.77337E-01 2.44194E-13-3.23422E-14
 -1      1281-1.42483E+00-2.26214E+01-3.68556E+00-3.27421E+00-3.24185E-13-1.32824E-13
 -1      1282-1.85651E+00-1.25335E+01-2.90145E+00-3.95306E+00-1.10112E-12-5.12479E-13
 -1      1283 1.29712E+00-4.10894E-01-1.63730E+00 9.75451E-01-1.20703E-12-7.39186E-13
 -1      1284 1.16962E+01 8.33504E+00-7.03735E-02 9.63302E+00-8.28670E-13-8.24230E-13
 -1      1285 2.91371E+01 1.07706E+01 1.66079E+00 1.68664E+01-8.41327E-13-1.33293E-12
 -1      1286 4.89805E+01 7.64674E+00 3.16517E+00 1.72849E+01-6.39488E-13-1.52300E-12
 -1      1287 6.45794E+01 3.06861E+00 4.23417E+00 9.85376E+00-2.09416E-13-7.72715E-13
 -1      1288 6.80390E+01 1.93182E+00 4.41413E+00-2.82464E+00-2.20102E-14 1.20570E-13
 -1      1289 5.87512E+01 4.86511E+00 3.83176E+00-1.40994E+01-2.33147E-13 8.24785E-13
 -1      1290 4.04127E+01 9.44363E+00 2.53032E+00-1.81282E+01-6.17062E-13 1.22080E-12
 -1      1291 2.11138E+01 1.07805E+01 9.42455E-01-1.45282E+01-1.02318E-12 1.22680E-12
 -1      1292 6.49479E+00 5.73756E+00-7.69776E-01-6.21721E+00-1.17550E-12 1.01363E-12
 -1      1293-6.76326E-01-5.16428E+00-2.22126E+00 1.49699E+00-4.67182E-13 3.93463E-13
 -1      1294-1.85154E+00-1.71463E+01-3.25156E+00 4.43380E+00-1.80744E-13 4.56302E-14
 -1      1295-1.07053E+00-2.43901E+01-3.75984E+00 2.10997E+00 1.64202E-13 3.51420E-14
 -1      1296 2.22029E+01 1.83535E+00-7.23463E-01-2.77782E+00-3.54716E-14 6.64135E-13
 -1      1297 2.03424E+01 4.68364E+00-4.78741E-02-3.28378E+00-1.05096E-13-8.45157E-15
 -1      1298 2.08349E+01 4.79926E+00-1.12529E-01-4.13753E+00-1.31506E-13 1.44634E-13
 -1      1299 1.95363E+01 4.99273E+00-1.92130E-02-2.62778E+00-1.05957E-13-2.25285E-13
 -1      1300 1.98251E+01 5.08629E+00 8.11734E-04-3.01983E+00-1.17802E-13-1.30965E-13
 -1      1301 2.05161E+01 3.94736E+00-2.55972E-02-3.04714E+00-1.81587E-13-2.77556E-15
 -1      1302 1.92018E+01 5.08824E+00-3.24657E-03-2.04224E+00-8.04599E-14-3.27943E-13
 -1      1303 1.93453E+01 5.14198E+00 1.11841E-02-2.33603E+00-9.54792E-14-2.78510E-13
 -1      1304 1.97641E+01 4.36812E+00-2.34545E-02-2.46023E+00-1.67959E-13-1.81431E-13
 -1      1305 1.90306E+01 5.13957E+00 3.35794E-03-1.53690E+00-6.14231E-14-3.81483E-13
 -1      1306 1.91072E+01 5.16880E+00 1.33016E-02-1.78596E+00-6.89934E-14-3.58130E-13
 -1      1307 1.94110E+01 4.56334E+00-1.91156E-02-1.90055E+00-1.24091E-13-2.77018E-13
 -1      1308 1.89373E+01 5.17274E+00 6.26740E-03-1.09337E+00-3.83127E-14-4.01776E-13
 -1      1309 1.89800E+01 5.18920E+00 1.30524E-02-1.31243E+00-5.00199E-14-3.88812E-13
 -1      1310 1.92259E+01 4.67650E+00-1.56637E-02-1.41612E+00-9.11680E-14-3.17343E-13
 -1      1311 1.88845E+01 5.19509E+00 7.79314E-03-6.77100E-01-2.33212E-14-4.01696E-13
 -1      1312 1.89083E+01 5.20423E+00 1.20550E-02-8.83556E-01-2.87400E-14-4.04083E-13
 -1      1313 1.91217E+01 4.74753E+00-1.35998E-02-9.80991E-01-5.65915E-14-3.31610E-13
 -1      1314 1.88591E+01 5.20859E+00 8.88885E-03-2.81531E-01 4.80502E-15-4.02818E-13
 -1      1315 1.88697E+01 5.21264E+00 1.09107E-02-4.78987E-01-6.37207E-15-3.99738E-13
 -1      1316 1.90635E+01 4.79054E+00-1.25160E-02-5.73586E-01-2.24632E-14-3.29462E-13
 -1      1317 1.88548E+01 5.21410E+00 9.90607E-03 1.05768E-01 1.73492E-14-3.99247E-13
 -1      1318 1.88546E+01 5.21399E+00 9.83473E-03-8.89235E-02 1.23993E-14-4.04170E-13
 -1      1319 1.90375E+01 4.81062E+00-1.20586E-02-1.83810E-01 1.56489E-14-3.38875E-13
 -1      1320 1.88709E+01 5.21214E+00 1.10002E-02 4.96410E-01 3.42070E-14-3.89831E-13
 -1      1321 1.88597E+01 5.20786E+00 8.82278E-03 2.98537E-01 2.90714E-14-3.94615E-13
 -1      1322 1.90381E+01 4.80991E+00-1.20804E-02 2.00507E-01 3.75153E-14-3.31672E-13
 -1      1323 1.89108E+01 5.20283E+00 1.21354E-02 9.02446E-01 5.38285E-14-3.73923E-13
 -1      1324 1.88862E+01 5.19357E+00 7.73066E-03 6.95034E-01 4.65827E-14-3.84371E-13
 -1      1325 1.90655E+01 4.78829E+00-1.25812E-02 5.90973E-01 6.87291E-14-3.23647E-13
 -1      1326 1.89832E+01 5.18709E+00 1.31586E-02 1.33004E+00 7.03413E-14-3.41017E-13
 -1      1327 1.89398E+01 5.17028E+00 6.13450E-03 1.10957E+00 6.35225E-14-3.62902E-13
 -1      1328 1.91250E+01 4.74378E+00-1.36186E-02 9.96232E-01 9.65530E-14-3.04236E-13
 -1      1329 1.91136E+01 5.16460E+00 1.33004E-02 1.81203E+00 9.98004E-14-2.82246E-13
 -1      1330 1.90356E+01 5.13470E+00 3.00860E-03 1.56020E+00 8.93834E-14-3.13768E-13
 -1      1331 1.92317E+01 4.66975E+00-1.57887E-02 1.43396E+00 1.31770E-13-2.59400E-13
 -1      1332 1.93548E+01 5.13599E+00 1.08291E-02 2.36945E+00 1.21611E-13-1.83166E-13
 -1      1333 1.92092E+01 5.08027E+00-4.24259E-03 2.07178E+00 1.09138E-13-2.44943E-13
 -1      1334 1.94221E+01 4.55054E+00-1.96268E-02 1.92726E+00 1.73391E-13-1.98938E-13
 -1      1335 1.98506E+01 5.09530E+00 6.81287E-03 3.05806E+00 1.39805E-13 2.90046E-15
 -1      1336 1.95477E+01 4.98315E+00-2.00467E-02 2.66949E+00 1.27343E-13-1.08063E-13
 -1      1337 1.97829E+01 4.34738E+00-2.41726E-02 2.49762E+00 2.02557E-13-8.00124E-14
 -1      1338 2.10699E+01 4.89567E+00 8.71151E-03 4.03089E+00 1.21431E-13 3.46723E-13
 -1      1339 2.03171E+01 4.72713E+00-4.71384E-02 3.39265E+00 1.15713E-13 1.36606E-13
 -1      1340 2.05542E+01 3.91070E+00-2.19793E-02 3.15061E+00 2.07764E-13 1.23679E-13
 -1      1341 2.71140E+01 3.19340E+00 9.22674E-01 4.56183E+00 5.29438E-14 9.93539E-13
 -1      1342 2.19716E+01 3.51429E+00-1.80881E-01 3.86531E+00 5.73708E-14 5.43121E-13
 -1      1343 2.20741E+01 2.55558E+00-3.23726E-02 3.43292E+00 1.95305E-13 4.30433E-13
 -1      1344 2.13646E+01 3.58647E-01-7.61692E-01 1.17479E+00 9.33212E-14 9.60954E-13
 -1      1345 2.19418E+01 1.30840E-01-4.00038E-01-1.27476E+00-1.00142E-13 6.84064E-13
 -1      1346 2.06309E+01 3.05881E-01-1.64089E-01-7.96818E-01-9.92401E-14 5.65124E-13
 -1      1347 2.00420E+01 1.53564E-01-7.31394E-02-3.93265E-01-7.37813E-14 5.11448E-13
 -1      1348 1.95830E+01 9.16524E-02-1.45596E-02-3.21093E-01-7.22686E-14 4.05814E-13
 -1      1349 2.09421E+01 3.68480E-01-1.04027E-01-1.25601E+00-1.68164E-13 2.88235E-13
 -1      1350 1.92368E+01 6.52900E-02 3.27414E-03-1.25059E-01-5.14632E-14 3.68646E-13
 -1      1351 1.90950E+01 4.24426E-02 1.35034E-02-1.06773E-01-5.49179E-14 2.90993E-13
 -1      1352 1.99113E+01 1.34578E-01-3.53349E-02-4.84583E-01-1.17035E-13 2.13912E-13
 -1      1353 1.89492E+01 3.30290E-02 1.34361E-02-1.41939E-02-3.66647E-14 2.40717E-13
 -1      1354 1.89467E+01 2.13193E-02 1.13497E-02-3.97370E-03-3.88856E-14 1.78496E-13
 -1      1355 1.94593E+01 5.73913E-02-8.94644E-03-1.45189E-01-1.03403E-13 1.45273E-13
 -1      1356 1.89106E+01 1.83780E-02 8.98130E-03 4.45751E-02-2.56704E-14 1.66213E-13
 -1      1357 1.89770E+01 1.19493E-02 6.79306E-03 5.05132E-02-1.83612E-14 1.43798E-13
 -1      1358 1.92843E+01 2.77272E-02-4.17022E-03 2.32723E-02-6.31752E-14 8.80164E-14
 -1      1359 1.90048E+01 1.12670E-02 4.90299E-03 7.88184E-02-2.74021E-14 1.28144E-13
 -1      1360 1.91097E+01 7.49121E-03 4.08165E-03 8.25677E-02-2.86422E-14 1.03617E-13
 -1      1361 1.92743E+01 1.51287E-02-3.17350E-03 1.16490E-01-5.22208E-14 6.30251E-14
 -1      1362 1.91777E+01 7.88299E-03 2.69632E-03 1.01212E-01-9.13516E-15 9.14815E-14
 -1      1363 1.93075E+01 5.68861E-03 2.75635E-03 1.04020E-01-1.42838E-14 5.86970E-14
 -1      1364 1.93654E+01 9.69070E-03-2.61406E-03 1.73777E-01-3.31115E-14 3.79525E-14
 -1      1365 1.94039E+01 6.73969E-03 1.59069E-03 1.18890E-01-1.95076E-14 5.41858E-14
 -1      1366 1.95537E+01 5.57849E-03 2.08764E-03 1.21601E-01-4.24794E-14-1.89050E-14
 -1      1367 1.95238E+01 8.06100E-03-2.26183E-03 2.14744E-01-4.71207E-14 5.32972E-15
 -1      1368 1.96737E+01 7.13449E-03 9.67848E-04 1.36502E-01-4.14447E-14-1.84037E-14
 -1      1369 1.98443E+01 6.66907E-03 1.70424E-03 1.39751E-01-4.52546E-14-7.80842E-14
 -1      1370 1.97337E+01 8.91591E-03-2.20693E-03 2.51024E-01-6.73478E-14-2.59326E-14
 -1      1371 1.99876E+01 8.67807E-03 5.24402E-04 1.57395E-01-3.81439E-14-5.44738E-14
 -1      1372 2.01837E+01 8.64619E-03 1.43210E-03 1.61686E-01 1.78696E-14-6.86482E-14
 -1      1373 1.99897E+01 1.15922E-02-2.45885E-03 2.90460E-01-5.46577E-14 3.78600E-14
 -1      1374 2.03532E+01 1.10925E-02 1.03522E-04 1.84058E-01 3.74243E-14-9.70270E-14
 -1      1375 2.05826E+01 1.12213E-02 1.16234E-03 1.89784E-01 4.70067E-15-6.50617E-14
 -1      1376 2.02943E+01 1.56618E-02-2.97263E-03 3.38717E-01 2.16587E-14-7.02083E-15
 -1      1377 2.07829E+01 1.40678E-02-4.02460E-04 2.18146E-01-4.15750E-14-9.51461E-14
 -1      1378 2.10551E+01 1.39924E-02 7.95368E-04 2.25556E-01-5.88171E-14-1.45322E-13
 -1      1379 2.06548E+01 2.06709E-02-3.67983E-03 3.99731E-01-4.81737E-14-1.40191E-13
 -1      1380 2.12919E+01 1.70982E-02-1.08047E-03 2.60102E-01-3.54558E-14-1.26447E-13
 -1      1381 2.16166E+01 1.62589E-02 2.33871E-04 2.69173E-01-1.06182E-14-1.54318E-13
 -1      1382 2.10810E+01 2.58684E-02-4.47985E-03 4.75320E-01-5.66272E-14-1.01333E-13
 -1      1383 2.18944E+01 1.92420E-02-1.97195E-03 3.08208E-01 3.00122E-14-1.62679E-13
 -1      1384 2.22786E+01 1.67529E-02-5.76740E-04 3.18385E-01-3.74158E-15-1.32420E-13
 -1      1385 2.15831E+01 2.98121E-02-5.19795E-03 5.63842E-01 1.51099E-14-1.33337E-13
 -1      1386 2.25983E+01 1.87680E-02-2.98144E-03 3.56838E-01-3.64717E-14-1.30090E-13
 -1      1387 2.30406E+01 1.32879E-02-1.53568E-03 3.66557E-01-2.56199E-14-1.25452E-13
 -1      1388 2.21669E+01 2.97792E-02-5.50697E-03 6.57505E-01-2.66497E-14-1.81156E-13
 -1      1389 2.33953E+01 1.27360E-02-3.69324E-03 3.93712E-01 1.66823E-14-1.23530E-13
 -1      1390 2.38767E+01 2.48042E-03-2.18857E-03 3.99649E-01 1.04673E-14-1.36193E-13
 -1      1391 2.28279E+01 2.10357E-02-4.80863E-03 7.37980E-01-1.70025E-15-9.39119E-14
 -1      1392 2.42455E+01-3.20472E-03-3.12949E-03 3.96504E-01-1.42165E-14-1.13819E-13
 -1      1393 2.47162E+01-1.99325E-02-1.50305E-03 3.92673E-01-3.98696E-14-1.47386E-13
 -1      1394 2.35414E+01-3.57174E-03-2.10971E-03 7.70556E-01 4.30103E-16-5.12342E-14
 -1      1395 2.50575E+01-3.38710E-02 3.58691E-04 3.30909E-01-5.34885E-14-1.73316E-13
 -1      1396 2.54222E+01-5.69762E-02 2.01831E-03 3.08368E-01-3.90538E-14-2.45781E-13
 -1      1397 2.42500E+01-5.22810E-02 3.95652E-03 6.99420E-01-5.83700E-14-8.10662E-14
 -1      1398 2.56681E+01-8.08662E-02 8.36369E-03 1.55822E-01 1.88564E-15-2.72485E-13
 -1      1399 2.57825E+01-1.04877E-01 9.25826E-03 1.04812E-01-3.61378E-14-2.54331E-13
 -1      1400 2.48507E+01-1.28602E-01 1.45348E-02 4.51897E-01-5.97751E-14-9.09012E-14
 -1      1401 2.58431E+01-1.34041E-01 2.01070E-02-1.54184E-01-1.13798E-14-3.12776E-13
 -1      1402 2.55446E+01-1.43637E-01 1.79352E-02-2.36171E-01-1.74184E-14-2.84474E-13
 -1      1403 2.51911E+01-2.17658E-01 2.87564E-02-3.31123E-02-3.63789E-14-1.82504E-13
 -1      1404 2.53335E+01-1.60450E-01 2.88805E-02-5.60365E-01 9.81160E-15-1.91236E-13
 -1      1405 2.45346E+01-1.32356E-01 1.96198E-02-6.53041E-01 5.53863E-14-1.30923E-13
 -1      1406 2.50928E+01-2.68715E-01 4.04921E-02-7.34707E-01 8.35582E-14-2.15438E-13
 -1      1407 2.40320E+01-1.10746E-01 2.15177E-02-9.07412E-01 3.71612E-14-1.68573E-13
 -1      1408 2.28608E+01-3.24015E-02 3.72873E-03-9.58735E-01-1.59551E-14-1.41345E-13
 -1      1409 2.44334E+01-2.02315E-01 3.58373E-02-1.45099E+00 4.26395E-14-6.37407E-14
 -1      1410 2.21992E+01 3.64161E-02-8.21468E-03-9.49650E-01-1.61746E-14-1.36544E-13
 -1      1411 2.10700E+01 1.37239E-01-2.87967E-02-9.00159E-01-2.94955E-14-1.80980E-13
 -1      1412 2.33010E+01 2.18509E-02 1.08271E-03-1.77977E+00-3.29389E-14-1.39590E-13
 -1      1413 2.05529E+01 2.10717E-01-4.46468E-02-5.29942E-01 6.97012E-15-1.63668E-13
 -1      1414 2.00058E+01 2.66714E-01-5.57236E-02-3.78592E-01 1.73785E-14-1.45682E-13
 -1      1415 2.21215E+01 3.13947E-01-5.35715E-02-1.33656E+00 4.22648E-14-7.29833E-14
 -1      1416 1.99393E+01 2.77834E-01-5.76705E-02 1.96737E-01 1.37668E-14-1.07062E-13
 -1      1417 2.02759E+01 2.43235E-01-5.05500E-02 3.63111E-01-2.77556E-17-6.28247E-14
 -1      1418 2.15282E+01 4.76962E-01-8.48587E-02-1.69884E-01 7.83956E-14-1.59883E-13
 -1      1419 2.07045E+01 1.79703E-01-3.68687E-02 8.11524E-01-3.33067E-14-1.40457E-13
 -1      1420 2.17383E+01 8.30306E-02-1.75178E-02 8.90474E-01-2.26572E-14-2.01714E-13
 -1      1421 2.18965E+01 3.76089E-01-6.48159E-02 1.09846E+00-3.13291E-14-1.21108E-13
 -1      1422 2.24000E+01 6.73953E-03-3.15828E-03 9.89863E-01-1.05166E-13-3.05381E-13
 -1      1423 2.36132E+01-8.18849E-02 1.62035E-02 9.59379E-01-1.39447E-13-4.19123E-13
 -1      1424 2.29938E+01 9.77253E-02-1.11701E-02 1.75510E+00-1.88245E-13-2.56416E-13
 -1      1425 2.41790E+01-1.16215E-01 1.73328E-02 7.53624E-01 6.78884E-14-4.31183E-13
 -1      1426 2.50985E+01-1.56644E-01 2.84559E-02 6.65385E-01 9.99079E-14-3.48131E-13
 -1      1427 2.41974E+01-1.61132E-01 2.91461E-02 1.59440E+00-7.49227E-15-3.16858E-13
 -1      1428 2.53903E+01-1.46613E-01 1.92128E-02 3.43672E-01 4.14096E-14-2.75807E-13
 -1      1429 2.58186E+01-1.44221E-01 2.31702E-02 2.56366E-01 8.44012E-14-1.94619E-13
 -1      1430 2.50037E+01-2.64710E-01 4.12544E-02 9.34638E-01 1.18006E-13-2.00668E-13
 -1      1431 2.58259E+01-1.16147E-01 1.15903E-02-2.47013E-02 4.48322E-14-8.47759E-14
 -1      1432 2.58090E+01-9.38749E-02 1.11424E-02-8.35944E-02 1.28855E-14-4.38625E-15
 -1      1433 2.52481E+01-2.35912E-01 3.21544E-02 2.05182E-01 1.55325E-13-2.30623E-13
 -1      1434 2.56089E+01-6.76012E-02 3.51253E-03-2.61149E-01-4.49536E-14 6.89275E-14
 -1      1435 2.53028E+01-4.33158E-02 1.99950E-03-2.89567E-01-9.22179E-14 3.90278E-14
 -1      1436 2.50158E+01-1.49872E-01 1.76204E-02-3.38054E-01-4.58279E-14-5.19064E-14
 -1      1437 2.49888E+01-2.66883E-02-9.19178E-04-3.68919E-01-1.43407E-14-7.60468E-14
 -1      1438 2.45482E+01-8.10994E-03-2.50343E-03-3.75883E-01 4.16334E-14-2.72456E-14
 -1      1439 2.44830E+01-6.73134E-02 5.87081E-03-6.36297E-01-8.29276E-14-1.41076E-14
 -1      1440 2.41954E+01-4.25892E-04-2.19539E-03-3.87727E-01-8.34608E-15 2.14620E-14
 -1      1441 2.37295E+01 1.13922E-02-3.63708E-03-3.82774E-01-6.38973E-14-7.16545E-14
 -1      1442 2.38141E+01-1.10193E-02-1.33352E-03-7.38123E-01 3.21373E-14 5.49196E-14
 -1      1443 2.33865E+01 1.32071E-02-1.79312E-03-3.57363E-01-3.77042E-14 2.26451E-14
 -1      1444 2.29564E+01 1.97339E-02-3.13238E-03-3.47244E-01 9.44537E-14 8.61030E-14
 -1      1445 2.31261E+01 1.94383E-02-4.82398E-03-7.17402E-01-3.23852E-14 4.91161E-14
 -1      1446 2.26493E+01 1.84754E-02-8.93972E-04-3.05971E-01-2.40650E-14 3.11817E-14
 -1      1447 2.22812E+01 2.15374E-02-2.15648E-03-2.94594E-01-7.21541E-14-5.86545E-14
 -1      1448 2.24881E+01 3.19455E-02-5.98889E-03-6.35241E-01 3.92739E-14 4.35702E-14
 -1      1449 2.20205E+01 1.90422E-02-9.32187E-05-2.50053E-01-1.16429E-13-1.73654E-13
 -1      1450 2.17204E+01 2.00733E-02-1.25375E-03-2.39351E-01-1.09530E-13-2.39943E-13
 -1      1451 2.19328E+01 3.41703E-02-5.92658E-03-5.31420E-01-1.90595E-13-2.42982E-13
 -1      1452 2.15069E+01 1.73450E-02 4.31562E-04-1.97895E-01-3.85074E-14-3.39655E-13
 -1      1453 2.12702E+01 1.72908E-02-5.89441E-04-1.88644E-01-3.71615E-14-2.91772E-13
 -1      1454 2.14698E+01 3.14084E-02-5.31501E-03-4.27982E-01-1.05525E-13-4.37057E-13
 -1      1455 2.11002E+01 1.47948E-02 6.98617E-04-1.52868E-01-2.03774E-14-2.44297E-13
 -1      1456 2.09180E+01 1.42218E-02-1.59765E-04-1.45248E-01 2.30716E-14-3.04452E-13
 -1      1457 2.10956E+01 2.67480E-02-4.51961E-03-3.35284E-01-6.52057E-14-4.62493E-13
 -1      1458 2.07856E+01 1.21251E-02 7.84158E-04-1.15730E-01 4.75516E-14-2.41570E-13
 -1      1459 2.06483E+01 1.13516E-02 9.09979E-05-1.09642E-01-1.13936E-13-3.38359E-13
 -1      1460 2.08005E+01 2.17812E-02-3.71891E-03-2.56959E-01 6.80022E-14-2.30833E-13
 -1      1461 2.05471E+01 9.67474E-03 7.61674E-04-8.59963E-02-1.56665E-13-3.93896E-13
 -1      1462 2.04456E+01 8.86952E-03 2.20860E-04-8.12352E-02-1.66233E-13-5.94287E-13
 -1      1463 2.05723E+01 1.72281E-02-2.99118E-03-1.93173E-01-2.02035E-13-2.17511E-13
 -1      1464 2.03697E+01 7.57146E-03 6.84380E-04-6.26878E-02-8.04809E-14-6.36792E-13
 -1      1465 2.02961E+01 6.81846E-03 2.74867E-04-5.90243E-02-1.12332E-13-6.84517E-13
 -1      1466 2.03993E+01 1.33498E-02-2.36435E-03-1.42523E-01-2.54786E-13-4.30645E-13
 -1      1467 2.02403E+01 5.83907E-03 5.85293E-04-4.47059E-02 1.26249E-14-5.80243E-13
 -1      1468 2.01882E+01 5.17567E-03 2.83472E-04-4.19226E-02 9.60506E-14-6.01190E-13
 -1      1469 2.02703E+01 1.01867E-02-1.84239E-03-1.03043E-01-2.85576E-14-5.24943E-13
 -1      1470 2.01480E+01 4.45562E-03 4.81887E-04-3.10009E-02-2.48903E-14-3.26627E-13
 -1      1471 2.01121E+01 3.89420E-03 2.64584E-04-2.89052E-02-5.97364E-14-3.58938E-13
 -1      1472 2.01762E+01 7.68666E-03-1.41886E-03-7.27011E-02 1.84600E-13-3.67762E-13
 -1      1473 2.00840E+01 3.38256E-03 3.80100E-04-2.06364E-02-2.53526E-14-3.19114E-13
 -1      1474 2.00605E+01 2.92157E-03 2.25708E-04-1.90625E-02 5.20032E-14-3.09639E-13
 -1      1475 2.01092E+01 5.76726E-03-1.08384E-03-4.96181E-02-2.27867E-15 9.35088E-14
 -1      1476 2.00415E+01 2.57774E-03 2.76881E-04-1.28072E-02 2.85427E-13-2.17069E-13
 -1      1477 2.00273E+01 2.20571E-03 1.67718E-04-1.16135E-02 2.61353E-13 2.17282E-13
 -1      1478 2.00629E+01 4.34428E-03-8.26902E-04-3.21436E-02 3.27919E-13 1.40319E-13
 -1      1479 2.00153E+01 1.99397E-03 1.66334E-04-6.84444E-03-7.91451E-15 9.45249E-14
 -1      1480 2.00082E+01 1.67908E-03 9.98404E-05-5.91455E-03-8.70286E-14 5.97117E-14
 -1      1481 2.00325E+01 3.33648E-03-6.34479E-04-1.88845E-02 2.14583E-13 5.23879E-14
 -1      1482 2.00015E+01 1.53462E-03 6.40350E-05-2.28906E-03 6.69034E-14 3.51801E-14
 -1      1483 1.99997E+01 1.19695E-03 7.52326E-05-1.55279E-03-6.70650E-15 1.23960E-13
 -1      1484 2.00140E+01 2.61071E-03-4.71966E-04-8.78601E-03-4.22851E-14-5.18413E-14
 -1      1485 1.99966E+01 1.19425E-03 1.07993E-04 9.48304E-04-4.70341E-14 2.43615E-14
 -1      1486 1.99986E+01 4.83762E-04 3.40198E-04 1.52553E-03-8.55643E-14 1.13702E-13
 -1      1487 2.00041E+01 1.83013E-03-2.81336E-04-1.43202E-03-3.65651E-14-1.59390E-13
 -1      1488 1.99984E+01-9.83819E-04 8.10536E-04 1.41913E-03-1.37412E-13 9.45642E-14
 -1      1489 2.00002E+01-1.06981E-03 1.49663E-04 2.26091E-03-6.17913E-14-4.50868E-15
 -1      1490 2.02151E+01 7.54134E-02-1.51533E-01 4.76274E-01 1.00933E-13 7.62557E-13
 -1      1491 2.14731E+01 2.15866E-01-2.28993E-01 7.12587E-01 8.19900E-14 9.02098E-13
 -1      1492 2.16846E+01 8.78819E-01-8.55322E-02 2.04762E+00 1.60212E-13 5.88335E-13
 -1      1493 1.93076E+01 3.27206E-02-2.11775E-02 1.78135E-01 6.04256E-14 5.90222E-13
 -1      1494 1.97176E+01 1.13864E-01-6.23489E-02 2.30252E-01 6.07535E-14 6.87292E-13
 -1      1495 2.02783E+01 1.87417E-01-5.51886E-02 7.70891E-01 1.38715E-13 4.65915E-13
 -1      1496 1.89507E+01 1.58182E-02 5.61126E-03 4.35520E-02 3.50397E-14 4.74412E-13
 -1      1497 1.90768E+01 5.24855E-02 1.17607E-03 7.03693E-02 3.59174E-14 5.33858E-13
 -1      1498 1.95554E+01 7.26309E-02-1.23374E-02 2.81461E-01 9.67507E-14 3.44920E-13
 -1      1499 1.88734E+01 8.23680E-03 6.79201E-03-2.27545E-02 2.61791E-14 3.94127E-13
 -1      1500 1.88712E+01 2.73630E-02 1.12346E-02-7.42958E-03 2.68487E-14 4.42174E-13
 -1      1501 1.92485E+01 3.27278E-02-2.81181E-03 6.03639E-02 6.77288E-14 2.42854E-13
 -1      1502 1.89457E+01 4.77586E-03 4.48706E-03-5.87071E-02 1.19210E-14 3.56996E-13
 -1      1503 1.88782E+01 1.60483E-02 8.67325E-03-4.91707E-02 1.21971E-14 3.62651E-13
 -1      1504 1.91702E+01 1.58963E-02-2.14835E-03-5.36557E-02 3.10125E-14 2.15739E-13
 -1      1505 1.91042E+01 3.13629E-03 2.87791E-03-7.99721E-02-7.50008E-15 3.54028E-13
 -1      1506 1.90003E+01 1.03824E-02 5.54954E-03-7.34939E-02-9.75153E-15 3.37588E-13
 -1      1507 1.92239E+01 8.20875E-03-2.38869E-03-1.17999E-01-8.64369E-15 1.89460E-13
 -1      1508 1.93171E+01 2.47269E-03 1.95247E-03-9.41930E-02 4.63920E-14 3.27547E-13
 -1      1509 1.91906E+01 7.55790E-03 3.64650E-03-8.92672E-02 2.35657E-14 3.65196E-13
 -1      1510 1.93581E+01 4.72734E-03-2.41693E-03-1.57822E-01 2.66271E-14 1.54589E-13
 -1      1511 1.95692E+01 2.39126E-03 1.32355E-03-1.05664E-01 4.44578E-14 2.05677E-13
 -1      1512 1.94259E+01 6.36813E-03 2.57242E-03-1.01337E-01 5.46288E-14 2.72869E-13
 -1      1513 1.95460E+01 3.50884E-03-2.38564E-03-1.86055E-01 8.55004E-14 1.26970E-13
 -1      1514 1.98548E+01 2.63971E-03 8.01442E-04-1.16918E-01 4.11659E-14 1.36767E-13
 -1      1515 1.96962E+01 6.17694E-03 1.91034E-03-1.12563E-01 1.58707E-14 1.61317E-13
 -1      1516 1.97742E+01 3.59346E-03-2.44121E-03-2.10036E-01 5.59698E-14 4.96356E-14
 -1      1517 2.01740E+01 2.99151E-03 3.39523E-04-1.29273E-01 1.61902E-14 1.24405E-13
 -1      1518 1.99989E+01 6.53365E-03 1.44453E-03-1.24517E-01 2.69173E-14 1.57757E-13
 -1      1519 2.00373E+01 4.35527E-03-2.60619E-03-2.33926E-01 2.87521E-14 2.45875E-14
 -1      1520 2.05284E+01 3.18788E-03-3.62785E-05-1.42910E-01 9.25096E-15 7.99118E-14
 -1      1521 2.03350E+01 7.00192E-03 1.07610E-03-1.37649E-01 1.76335E-14 1.14700E-13
 -1      1522 2.03339E+01 5.23300E-03-2.82594E-03-2.59494E-01 1.65193E-14 8.16695E-14
 -1      1523 2.09187E+01 2.89667E-03-2.47116E-04-1.56706E-01 3.94004E-14 3.32043E-14
 -1      1524 2.07060E+01 7.05845E-03 7.59810E-04-1.51175E-01 6.86604E-15 3.97078E-14
 -1      1525 2.06635E+01 5.59033E-03-2.98835E-03-2.86142E-01 2.11301E-14 4.29242E-14
 -1      1526 2.13404E+01 1.68515E-03-1.51082E-04-1.67873E-01 3.57978E-14-2.82205E-14
 -1      1527 2.11105E+01 6.01838E-03 4.85735E-04-1.62780E-01 3.81563E-14-3.48679E-15
 -1      1528 2.10235E+01 4.61701E-03-2.91450E-03-3.10474E-01 6.95297E-14-1.95404E-14
 -1      1529 2.17790E+01-9.71323E-04 4.71589E-04-1.71524E-01 4.59758E-14-1.42502E-13
 -1      1530 2.15398E+01 3.00055E-03 2.87066E-04-1.68217E-01 5.46345E-14-7.14784E-14
 -1      1531 2.14058E+01 1.27314E-03-2.34117E-03-3.25607E-01 8.40180E-14-1.42783E-13
 -1      1532 2.22046E+01-5.59471E-03 1.90661E-03-1.60387E-01 1.13341E-14-2.17621E-13
 -1      1533 2.19731E+01-3.00705E-03 2.56824E-04-1.61006E-01 3.59096E-14-1.66728E-13
 -1      1534 2.17923E+01-5.66037E-03-9.21593E-04-3.20526E-01 6.53633E-14-1.61803E-13
 -1      1535 2.25669E+01-1.24440E-02 4.41280E-03-1.25174E-01-9.70959E-14-7.23354E-14
 -1      1536 2.23721E+01-1.28660E-02 5.50968E-04-1.32627E-01-6.24186E-14-1.75538E-13
 -1      1537 2.21511E+01-1.72924E-02 1.71397E-03-2.80116E-01-5.97122E-14-8.05983E-14
 -1      1538 2.27927E+01-2.10084E-02 7.97438E-03-5.64682E-02 4.09880E-14-6.24700E-14
 -1      1539 2.26774E+01-2.66376E-02 1.33654E-03-7.39614E-02-2.55742E-14-7.59870E-14
 -1      1540 2.24339E+01-3.38952E-02 5.77579E-03-1.87089E-01-5.81280E-14-8.48076E-14
 -1      1541 2.27931E+01-2.92959E-02 1.18658E-02 5.07843E-02-2.55438E-15-1.15594E-13
 -1      1542 2.28095E+01-4.24992E-02 2.63107E-03 2.10444E-02 2.90462E-14-1.13453E-13
 -1      1543 2.25767E+01-5.35862E-02 1.09645E-02-2.75484E-02 4.68453E-14-1.06349E-13
 -1      1544 2.24838E+01-3.33342E-02 1.42050E-02 1.89790E-01-1.32698E-14-1.09066E-13
 -1      1545 2.26813E+01-5.55813E-02 4.01496E-03 1.48912E-01-1.51381E-14-9.78679E-14
 -1      1546 2.25097E+01-7.06622E-02 1.60265E-02 1.98355E-01-1.12610E-14-8.84531E-14
 -1      1547 2.18257E+01-2.78368E-02 1.20704E-02 3.33677E-01-2.22439E-14-1.50643E-14
 -1      1548 2.22264E+01-5.78638E-02 4.40672E-03 2.88781E-01-1.14405E-15-3.72168E-14
 -1      1549 2.21791E+01-7.49064E-02 1.85465E-02 4.61949E-01-3.92898E-14-6.83065E-14
 -1      1550 2.08758E+01-9.16829E-03 2.98147E-03 4.33411E-01-2.04350E-15-3.66859E-14
 -1      1551 2.14441E+01-4.10130E-02 2.28619E-03 3.98574E-01-3.39611E-14-7.08114E-14
 -1      1552 2.15826E+01-5.40580E-02 1.57615E-02 6.95573E-01-4.63848E-14-2.67598E-14
 -1      1553 1.98215E+01 1.99245E-02-1.23358E-02 4.32023E-01 2.57927E-14-9.32587E-14
 -1      1554 2.04445E+01-2.85693E-03-3.17518E-03 4.24185E-01 6.66988E-14-4.71428E-14
 -1      1555 2.08058E+01-2.25419E-03 6.36232E-03 8.01246E-01 8.37813E-14-1.69222E-14
 -1      1556 1.89559E+01 4.80311E-02-2.77387E-02 2.97471E-01-5.94021E-14-4.73753E-14
 -1      1557 1.94601E+01 4.61505E-02-1.05010E-02 3.26905E-01-3.04748E-14-1.42511E-13
 -1      1558 2.00333E+01 6.99171E-02-6.90322E-03 6.92534E-01 2.51275E-14 4.55816E-14
 -1      1559 1.85698E+01 6.02099E-02-3.45553E-02 5.67468E-02-6.50244E-14 3.33405E-14
 -1      1560 1.87865E+01 8.42881E-02-1.57117E-02 1.17004E-01-1.30004E-13-8.19934E-14
 -1      1561 1.95027E+01 1.31644E-01-1.81721E-02 3.57065E-01-1.29235E-13-1.58528E-13
 -1      1562 1.88055E+01 4.97599E-02-2.73121E-02-2.05948E-01-3.61482E-14 3.08833E-13
 -1      1563 1.86553E+01 9.23822E-02-1.49047E-02-1.36638E-01-1.36557E-14 1.64153E-13
 -1      1564 1.94006E+01 1.49224E-01-2.19010E-02-1.07099E-01-1.05261E-13-1.70632E-14
 -1      1565 1.95781E+01 2.25553E-02-1.00811E-02-3.93308E-01 1.23377E-13 1.07012E-13
 -1      1566 1.91152E+01 6.73279E-02-7.60143E-03-3.40693E-01 4.16576E-14 1.75283E-13
 -1      1567 1.97649E+01 1.10782E-01-1.75490E-02-5.32371E-01 5.40158E-14 1.19385E-13
 -1      1568 2.06224E+01-6.56449E-03 8.18713E-03-4.50777E-01 5.81405E-14-2.67585E-13
 -1      1569 2.00039E+01 2.44478E-02 2.07987E-03-4.29245E-01 1.61539E-13 1.01932E-14
 -1      1570 2.04634E+01 3.70167E-02-9.08179E-03-7.72613E-01 2.56397E-13-9.41330E-14
 -1      1571 2.16327E+01-2.58933E-02 1.95402E-02-3.88276E-01 4.35854E-14-3.29330E-13
 -1      1572 2.10374E+01-1.52347E-02 9.47412E-03-3.96190E-01 1.09747E-14-2.66114E-13
 -1      1573 2.12682E+01-3.46736E-02-1.06597E-03-7.80663E-01 7.40627E-14-1.48985E-13
 -1      1574 2.23889E+01-3.21105E-02 2.19218E-02-2.57090E-01-1.03129E-14-3.42056E-13
 -1      1575 2.19441E+01-3.86927E-02 1.20254E-02-2.82659E-01-2.34326E-14-3.91281E-13
 -1      1576 2.19657E+01-7.75376E-02 3.93293E-03-6.09108E-01 2.59064E-14-1.55018E-13
 -1      1577 2.28033E+01-2.85489E-02 1.79106E-02-1.12901E-01-2.46227E-14-4.30204E-13
 -1      1578 2.25584E+01-4.45220E-02 1.03651E-02-1.43211E-01 5.49387E-14-3.69607E-13
 -1      1579 2.24280E+01-8.68061E-02 5.76241E-03-3.55891E-01 8.47846E-15-2.77327E-13
 -1      1580 2.28972E+01-2.04600E-02 1.14603E-02 7.38132E-03-1.63162E-13-2.06099E-13
 -1      1581 2.28380E+01-3.84070E-02 6.65952E-03-1.89874E-02-1.47405E-13-3.93147E-13
 -1      1582 2.26234E+01-7.29504E-02 5.47198E-03-1.07938E-01-9.74568E-14-2.34636E-13
 -1      1583 2.27492E+01-1.19034E-02 5.43736E-03 8.93193E-02-9.98941E-15 1.30895E-13
 -1      1584 2.28285E+01-2.72206E-02 2.92756E-03 7.05168E-02-1.16872E-13-1.10626E-13
 -1      1585 2.25881E+01-4.97343E-02 4.22960E-03 8.49345E-02-2.21587E-13 3.33639E-14
 -1      1586 2.24513E+01-4.95376E-03 1.09410E-03 1.34031E-01 1.08391E-13 4.68219E-14
 -1      1587 2.26151E+01-1.58479E-02 2.17054E-04 1.22924E-01 7.27849E-14 1.82648E-13
 -1      1588 2.23886E+01-2.69940E-02 2.82195E-03 2.08220E-01 9.94864E-15 9.52190E-15
 -1      1589 2.20830E+01-1.81307E-04-1.46456E-03 1.49817E-01-2.33112E-14 3.94233E-14
 -1      1590 2.22853E+01-6.68422E-03-1.28087E-03 1.44878E-01 4.44043E-14 8.14609E-14
 -1      1591 2.20942E+01-9.34677E-03 1.62665E-03 2.69212E-01 7.17312E-14 1.28450E-13
 -1      1592 2.17022E+01 2.63895E-03-2.64398E-03 1.46378E-01-5.95254E-16-1.74281E-13
 -1      1593 2.19102E+01-3.44496E-04-1.82856E-03 1.45687E-01 5.48357E-14-8.43362E-14
 -1      1594 2.17617E+01 2.28856E-03 7.47813E-04 2.83981E-01 1.51940E-13 1.73012E-13
 -1      1595 2.13451E+01 4.00344E-03-2.93892E-03 1.31982E-01 9.44883E-14-3.55569E-13
 -1      1596 2.15387E+01 3.47573E-03-1.79599E-03 1.33852E-01 4.46130E-14-3.04237E-13
 -1      1597 2.14314E+01 8.81525E-03 1.60914E-04 2.69160E-01 8.16478E-14-1.39709E-13
 -1      1598 2.10310E+01 4.40720E-03-2.75014E-03 1.12631E-01-2.02511E-14-3.82913E-13
 -1      1599 2.11999E+01 5.39583E-03-1.48842E-03 1.15805E-01-2.94870E-14-4.59783E-13
 -1      1600 2.11281E+01 1.16678E-02-1.99406E-04 2.38273E-01 8.02453E-14-1.44722E-13
 -1      1601 2.07673E+01 4.24249E-03-2.34586E-03 9.22101E-02-6.33174E-15-4.64903E-13
 -1      1602 2.09079E+01 6.03578E-03-1.10193E-03 9.58483E-02 5.94717E-15-4.71691E-13
 -1      1603 2.08643E+01 1.21771E-02-3.98692E-04 2.00878E-01 5.15300E-15-2.91984E-13
 -1      1604 2.05540E+01 3.78440E-03-1.88382E-03 7.29676E-02 5.40520E-14-3.41162E-13
 -1      1605 2.06667E+01 5.89551E-03-7.39732E-04 7.65600E-02 4.14861E-14-3.09277E-13
 -1      1606 2.06441E+01 1.13583E-02-4.89698E-04 1.63024E-01-1.70684E-14-1.64498E-13
 -1      1607 2.03866E+01 3.21041E-03-1.44615E-03 5.60224E-02-1.25628E-14-3.75856E-13
 -1      1608 2.04742E+01 5.33446E-03-4.43892E-04 5.92932E-02 9.27908E-14-2.50730E-13
 -1      1609 2.04663E+01 9.90262E-03-5.11398E-04 1.28126E-01 9.56975E-14 2.89640E-13
 -1      1610 2.02591E+01 2.62703E-03-1.06934E-03 4.17704E-02 1.10443E-14-3.72744E-13
 -1      1611 2.03252E+01 4.59190E-03-2.22687E-04 4.45983E-02-1.37877E-14-4.10691E-13
 -1      1612 2.03270E+01 8.24344E-03-4.91675E-04 9.77888E-02 1.01836E-13 1.93685E-13
 -1      1613 2.01648E+01 2.09345E-03-7.65107E-04 3.01779E-02-1.92433E-13-3.93054E-14
 -1      1614 2.02131E+01 3.81748E-03-6.89441E-05 3.25379E-02-1.58159E-13-3.33577E-13
 -1      1615 2.02208E+01 6.63170E-03-4.50485E-04 7.24803E-02-2.07535E-13 1.72170E-13
 -1      1616 2.00972E+01 1.63965E-03-5.34036E-04 2.09748E-02 4.27826E-14-6.59104E-15
 -1      1617 2.01313E+01 3.09998E-03 2.91051E-05 2.28999E-02-2.69186E-15-8.56088E-14
 -1      1618 2.01421E+01 5.20009E-03-4.02802E-04 5.19930E-02-4.57025E-14 1.51812E-13
 -1      1619 2.00509E+01 1.27753E-03-3.73583E-04 1.37752E-02 6.05352E-14-5.01322E-14
 -1      1620 2.00739E+01 2.48897E-03 8.17478E-05 1.53326E-02-2.76731E-14-1.16331E-13
 -1      1621 2.00857E+01 4.00992E-03-3.60867E-04 3.57565E-02 1.84121E-14 2.78273E-14
 -1      1622 2.00213E+01 1.00226E-03-2.78915E-04 8.15903E-03 1.49281E-13-1.49477E-13
 -1      1623 2.00355E+01 2.00427E-03 9.50787E-05 9.43229E-03 1.13467E-13 5.81972E-14
 -1      1624 2.00470E+01 3.07845E-03-3.33987E-04 2.30364E-02 1.27143E-13-9.12038E-14
 -1      1625 2.00046E+01 7.95374E-04-2.24995E-04 3.75058E-03 1.29350E-14-5.46866E-13
 -1      1626 2.00120E+01 1.63760E-03 7.60933E-05 4.82373E-03 2.05220E-13-3.00550E-13
 -1      1627 2.00221E+01 2.38329E-03-3.23447E-04 1.30931E-02 3.11610E-13 1.58661E-13
 -1      1628 1.99980E+01 6.04900E-04-9.61247E-05 2.96259E-04 6.88787E-14-5.70422E-13
 -1      1629 2.00000E+01 1.33365E-03 6.40483E-05 1.25192E-03-3.04196E-14-5.10708E-13
 -1      1630 2.00078E+01 1.88614E-03-2.84250E-04 5.36415E-03 1.34853E-14-1.95070E-13
 -1      1631 1.99983E+01 1.36733E-04 4.07758E-04-1.74158E-03-9.14027E-15-6.64834E-13
 -1      1632 1.99965E+01 7.30236E-04 1.83642E-04-1.11329E-03 4.27614E-14-6.29605E-13
 -1      1633 2.00012E+01 1.04222E-03-1.31186E-04-2.83911E-04 9.33192E-14-1.61468E-13
 -1      1634 1.99986E+01-1.00248E-03 7.32310E-04-1.24090E-03-3.98871E-13-4.69768E-13
 -1      1635 2.00009E+01-2.37099E-03-1.22866E-04-3.21719E-04 3.47910E-14 4.34349E-13
 -1      1636 2.00006E+01-1.22113E-03 2.35591E-04-8.18346E-04-4.77460E-13 4.56701E-13
 -1      1637 2.00010E+01 2.94730E-03-2.01547E-04 2.84731E-03 4.57489E-13 3.42315E-13
 -1      1638 2.00010E+01 5.56461E-04-9.85865E-05 2.14763E-03 2.08135E-13 2.19894E-13
 -1      1639 2.00020E+01 4.41187E-03-2.10353E-04 2.31386E-03 8.39890E-14 5.04869E-13
 -1      1640 2.00006E+01 1.40698E-02-1.50215E-04 5.72492E-03 5.51105E-13 3.60116E-14
 -1      1641 2.00008E+01 8.13508E-03-1.31484E-04 5.19814E-03 4.19980E-13 3.55848E-13
 -1      1642 2.00017E+01 1.26962E-02-3.12346E-04 8.15793E-03 2.22958E-13 3.32117E-13
 -1      1643 2.00000E+01 2.90207E-02-7.98674E-05 7.29576E-03 8.51238E-13 1.95518E-13
 -1      1644 2.00003E+01 2.09364E-02-8.35708E-05 7.09545E-03 4.86876E-13 3.09333E-13
 -1      1645 2.00010E+01 2.50337E-02-1.73478E-04 1.26311E-02 2.54537E-13 2.27298E-13
 -1      1646 1.99994E+01 4.44439E-02-3.39883E-05 7.24638E-03 1.47704E-13-4.19367E-13
 -1      1647 1.99997E+01 3.62569E-02-3.43638E-05 7.37932E-03 5.82458E-13-3.42008E-13
 -1      1648 2.00000E+01 3.93897E-02 1.47354E-05 1.43299E-02 2.08839E-13-3.06876E-13
 -1      1649 1.99989E+01 5.76888E-02-3.81813E-06 5.65485E-03 1.25312E-13 5.65731E-14
 -1      1650 1.99991E+01 5.09647E-02-2.64839E-06 6.08166E-03 1.21150E-13-3.65311E-14
 -1      1651 1.99990E+01 5.33305E-02 1.96540E-04 1.29749E-02 1.24159E-13-3.18452E-13
 -1      1652 1.99986E+01 6.57877E-02 1.19246E-05 2.88536E-03 1.06869E-13-2.12592E-13
 -1      1653 1.99987E+01 6.21228E-02 1.38536E-05 3.50632E-03 1.22869E-13 1.76176E-13
 -1      1654 1.99983E+01 6.44017E-02 3.36489E-04 8.90817E-03 9.36649E-14 2.67960E-14
 -1      1655 1.99985E+01 6.71242E-02 1.65718E-05-4.83081E-04 1.97090E-13 2.82367E-13
 -1      1656 1.99985E+01 6.73031E-02 1.89056E-05 2.05164E-04 1.24954E-13-1.35051E-13
 -1      1657 1.99979E+01 7.04164E-02 4.12216E-04 3.00947E-03 1.08005E-13-2.11404E-13
 -1      1658 1.99987E+01 6.14184E-02 1.00691E-05-3.77104E-03 1.64547E-14 7.37233E-14
 -1      1659 1.99986E+01 6.54258E-02 1.32112E-05-3.15435E-03-1.97195E-15 1.11477E-13
 -1      1660 1.99979E+01 7.02457E-02 4.11997E-04-3.52322E-03 1.38297E-13 6.61757E-14
 -1      1661 1.99992E+01 4.98015E-02-9.66119E-06-6.30253E-03-2.52397E-13-2.16295E-13
 -1      1662 1.99989E+01 5.68138E-02-3.54196E-06-5.88896E-03-9.33984E-14-4.17376E-14
 -1      1663 1.99983E+01 6.38982E-02 3.34079E-04-9.37717E-03-3.52144E-13-1.72342E-13
 -1      1664 1.99997E+01 3.49170E-02-4.13378E-05-7.50886E-03-4.53552E-13-1.25946E-13
 -1      1665 1.99994E+01 4.32732E-02-3.81919E-05-7.39481E-03-1.74325E-13-3.25022E-13
 -1      1666 1.99991E+01 5.26445E-02 1.95040E-04-1.33180E-02-2.88248E-13-3.88064E-13
 -1      1667 2.00004E+01 1.93880E-02-9.02983E-05-7.09355E-03-2.55105E-13 9.20350E-14
 -1      1668 2.00000E+01 2.74737E-02-9.08443E-05-7.32788E-03-3.83237E-13 2.78074E-13
 -1      1669 2.00001E+01 3.85001E-02 6.05565E-06-1.44882E-02-2.38865E-13 1.29658E-13
 -1      1670 2.00008E+01 6.74825E-03-1.63609E-04-5.01648E-03-5.04091E-13-5.74127E-14
 -1      1671 2.00007E+01 1.25385E-02-1.60156E-04-5.58284E-03-2.76602E-13-7.70655E-14
 -1      1672 2.00011E+01 2.39453E-02-1.87803E-04-1.25095E-02 1.33553E-14-1.13231E-13
 -1      1673 2.00013E+01-2.90603E-04-5.42016E-05-1.95790E-03-2.36846E-13 1.47569E-13
 -1      1674 2.00009E+01 1.78889E-03-2.30492E-04-2.71536E-03-4.91642E-13 1.24331E-14
 -1      1675 2.00017E+01 1.18819E-02-3.27561E-04-7.73372E-03 1.50052E-14-1.22959E-14
 -1      1676 2.00012E+01-2.91942E-04 2.04462E-04 5.53035E-04-9.57448E-14-6.82456E-14
 -1      1677 2.00014E+01-1.38449E-03-2.05105E-04-7.73422E-05-1.25062E-13-2.29714E-14
 -1      1678 2.00034E+01 6.23850E-03 8.78381E-05-3.14780E-03-5.88204E-14 1.78825E-13
 -1      1679 2.00031E+01 3.67548E-03 2.81783E-04 4.42545E-05-1.88679E-14-9.60981E-14
 -1      1680-5.30529E-01-1.42347E+01-1.64710E+00-8.03664E-01 4.14668E-13 8.87901E-14
 -1      1681-5.58573E-01-1.65555E+01-1.85878E+00 4.15463E-01 2.29650E-13 1.92568E-13
 -1      1682 1.32509E+00-7.80378E+00-1.20418E+00 4.66220E-01 1.52323E-13-1.72279E-13
 -1      1683 5.83013E-01-1.29563E+01-1.73415E+00-1.62291E-01 3.29292E-13-9.52086E-14
 -1      1684 6.70326E+00-2.55875E-01-5.47328E-01 4.51406E+00 1.40776E-13 3.49942E-13
 -1      1685 3.71679E+00-5.67540E+00-1.30256E+00 1.69051E+00 1.79301E-13 4.43534E-14
 -1      1686 1.67796E+01 5.03406E+00 1.90485E-01 9.58278E+00 4.92384E-13 7.30305E-13
 -1      1687 1.04989E+01 1.65472E+00-6.70941E-01 5.91571E+00 1.14353E-13 4.52971E-13
 -1      1688 3.12426E+01 6.11054E+00 9.08709E-01 1.21388E+01 5.35127E-13 5.31797E-13
 -1      1689 2.23022E+01 5.63232E+00 8.71372E-02 1.00916E+01 5.92082E-13 6.63469E-13
 -1      1690 4.47421E+01 5.12338E+00 1.47290E+00 1.04920E+01 2.74822E-13 1.38112E-13
 -1      1691 3.61500E+01 6.63686E+00 8.33932E-01 1.18905E+01 5.25302E-13 5.04929E-13
 -1      1692 5.28845E+01 3.73334E+00 1.70954E+00 3.85326E+00 1.01114E-13-1.50213E-13
 -1      1693 4.79908E+01 5.02933E+00 1.38158E+00 8.45008E+00 1.48284E-13 4.39648E-14
 -1      1694 5.32189E+01 3.90053E+00 1.68946E+00-4.20342E+00 1.17711E-13-4.11116E-13
 -1      1695 5.42452E+01 3.58170E+00 1.74143E+00 1.41633E+00 4.89053E-14-2.53408E-13
 -1      1696 4.49305E+01 5.62258E+00 1.28436E+00-1.02834E+01 5.58248E-13-8.99947E-13
 -1      1697 5.13270E+01 4.02121E+00 1.72080E+00-6.61547E+00 3.76241E-13-4.64850E-13
 -1      1698 3.17026E+01 6.79003E+00 6.43318E-01-1.19217E+01 6.73017E-13-1.05493E-12
 -1      1699 4.07705E+01 5.68611E+00 1.34818E+00-1.17291E+01 4.68819E-13-1.02518E-12
 -1      1700 1.81923E+01 5.26310E+00-1.15643E-01-9.33322E+00 8.67750E-13-9.59455E-13
 -1      1701 2.64079E+01 6.53913E+00 7.40033E-01-1.21274E+01 7.42295E-13-1.11799E-12
 -1      1702 8.39742E+00-6.09034E-02-8.23818E-01-4.72514E+00 9.10383E-13-7.18647E-13
 -1      1703 1.35763E+01 3.96328E+00 5.24290E-03-8.26389E+00 8.95062E-13-9.41913E-13
 -1      1704 2.64339E+00-7.69293E+00-1.42973E+00-9.41471E-01 8.30447E-13-4.31544E-13
 -1      1705 4.92392E+00-2.09466E+00-7.32972E-01-3.28653E+00 9.31033E-13-5.99520E-13
 -1      1706 2.00495E-01-1.42500E+01-1.73390E+00 8.24351E-02 3.65041E-13-3.12750E-13
 -1      1707 5.70406E-01-9.68582E+00-1.33001E+00 1.53525E-01 6.89226E-13-4.21801E-13
 -1      1708-6.06391E-01-1.55441E+01-1.61439E+00-7.81970E-01 5.94004E-14-8.49876E-14
 -1      1709-5.63865E-01-1.43953E+01-1.52215E+00 5.37101E-01 2.30482E-13-1.48215E-13
 -1      1710-3.87137E-01-1.32439E+01-1.58278E+00-1.02581E+00-3.77920E-13-3.35426E-13
 -1      1711-4.11199E-01-1.60765E+01-1.78361E+00-4.81389E-03-3.55826E-14-1.90986E-13
 -1      1712 1.96410E+00-6.70522E+00-1.18882E+00 7.59222E-01-7.68385E-13-4.75731E-13
 -1      1713 9.50000E-01-1.19046E+01-1.70699E+00-3.00084E-01-5.15810E-13-3.13402E-13
 -1      1714 8.18221E+00 3.20095E-01-5.62952E-01 5.16139E+00-7.04770E-13-3.68594E-13
 -1      1715 4.64256E+00-4.63260E+00-1.28911E+00 2.06958E+00-7.77600E-13-4.24716E-13
 -1      1716 2.07133E+01 4.00388E+00 2.65132E-01 9.75140E+00-4.28546E-13-6.75016E-13
 -1      1717 1.38016E+01 1.24968E+00-5.30504E-01 6.39701E+00-5.57776E-13-4.54636E-13
 -1      1718 3.39358E+01 5.97755E+00 1.03157E+00 1.21634E+01-4.69846E-13-1.00631E-12
 -1      1719 2.51143E+01 5.86733E+00 2.17233E-01 1.06194E+01-4.74398E-13-8.17790E-13
 -1      1720 4.70684E+01 4.78851E+00 1.61161E+00 9.60823E+00-4.99933E-13-6.92002E-13
 -1      1721 3.86872E+01 6.16973E+00 9.56539E-01 1.12914E+01-5.14089E-13-9.05498E-13
 -1      1722 5.54222E+01 3.56310E+00 1.97514E+00 3.66393E+00-2.58654E-13-2.58682E-13
 -1      1723 5.08910E+01 4.76338E+00 1.65116E+00 8.35915E+00-4.41036E-13-5.86753E-13
 -1      1724 5.41013E+01 4.06667E+00 1.79090E+00-4.35505E+00-2.06862E-13 3.43614E-13
 -1      1725 5.54428E+01 3.70874E+00 1.88420E+00 1.11868E+00-2.18603E-13 4.69069E-15
 -1      1726 4.61937E+01 5.57780E+00 1.41360E+00-1.05350E+01-4.45192E-13 8.34444E-13
 -1      1727 5.28052E+01 3.99798E+00 1.88897E+00-6.93477E+00-2.63817E-13 5.20251E-13
 -1      1728 3.30107E+01 6.36797E+00 6.61141E-01-1.16588E+01-4.82170E-13 7.68052E-13
 -1      1729 4.19305E+01 5.45511E+00 1.42471E+00-1.15003E+01-3.41116E-13 8.08908E-13
 -1      1730 1.95442E+01 5.04493E+00-1.14220E-01-9.42035E+00-6.90004E-13 7.54063E-13
 -1      1731 2.78755E+01 6.17991E+00 7.70576E-01-1.20234E+01-5.93192E-13 6.44818E-13
 -1      1732 9.07366E+00-9.08129E-02-8.48688E-01-4.76756E+00-5.95524E-13 5.89861E-13
 -1      1733 1.47130E+01 3.88314E+00 6.76025E-03-8.43629E+00-7.81819E-13 7.62168E-13
 -1      1734 3.29002E+00-7.75282E+00-1.39577E+00-1.14782E+00-9.42579E-14 2.70561E-13
 -1      1735 5.83128E+00-2.34050E+00-7.26010E-01-3.58544E+00-3.73923E-13 5.90861E-13
 -1      1736 1.68660E-01-1.42296E+01-1.83140E+00 5.51532E-01 1.31006E-14 6.57946E-14
 -1      1737 5.89598E-01-9.70186E+00-1.39218E+00 3.56206E-01-1.01696E-13 6.91808E-14
 -1      1738-6.43522E-01-1.69045E+01-1.89204E+00-1.03595E-01 1.54793E-13 1.37057E-13
 -1      1739-6.91938E-01-1.53648E+01-1.77107E+00 1.22871E+00-4.03566E-14 1.47327E-13
 -1      1740 2.41351E+01 9.89327E-01 2.94411E-01 7.40184E+00 1.37113E-13 4.19220E-13
 -1      1741 1.37236E+01-2.76121E+00-3.38091E-01 6.44964E+00 1.64313E-14 4.50695E-13
 -1      1742 2.00000E+01-1.46230E-03 3.15754E-04-2.03700E-03-4.90345E-13 2.04993E-13
 -1      1743 2.00010E+01 1.44655E-03 1.50376E-04-1.50680E-03-6.49399E-14 5.03450E-13
 -1      1744 5.71044E-01-1.01438E+01-1.20385E+00 2.34402E+00 6.55587E-14-1.28397E-13
 -1      1745 5.70790E+00-6.97629E+00-8.70957E-01 4.47715E+00 2.49134E-13 3.06699E-14
 -1      1746-1.36100E+00-1.14780E+01-1.33356E+00 3.58108E-01-4.64906E-16 2.92988E-13
 -1      1747 3.42502E+01 4.00174E+00 8.06040E-01 6.56617E+00 4.68847E-13 1.23679E-13
 -1      1748 4.19814E+01 6.42356E+00 1.23723E+00 4.44661E+00 3.14138E-13-5.86198E-14
 -1      1749 4.59998E+01 7.35497E+00 1.42937E+00 1.11323E+00 1.68310E-13-1.89404E-13
 -1      1750 4.55143E+01 7.14879E+00 1.44062E+00-2.49242E+00 3.61378E-13-2.73170E-13
 -1      1751 4.00350E+01 5.79469E+00 1.15293E+00-5.50503E+00 4.27963E-13-3.82361E-13
 -1      1752 3.11806E+01 3.45354E+00 6.85251E-01-7.45081E+00 4.01235E-13-5.42122E-13
 -1      1753 2.08125E+01 1.81252E-01 8.80080E-02-7.41763E+00 5.06484E-13-6.68576E-13
 -1      1754 1.14142E+01-3.90441E+00-4.88503E-01-5.97092E+00 5.41678E-13-5.15532E-13
 -1      1755 4.10280E+00-7.99767E+00-9.91105E-01-3.94327E+00 4.14446E-13-5.20448E-13
 -1      1756-1.26435E-01-1.00148E+01-1.14046E+00-1.94026E+00 2.07334E-13-3.92075E-13
 -1      1757-1.02872E+00-1.03783E+01-1.13886E+00 3.22105E-01-1.74721E-14-2.51965E-13
 -1      1758 1.38912E+00-9.80018E+00-1.18117E+00 2.55459E+00-1.54099E-13-4.50362E-13
 -1      1759 7.13234E+00-6.54587E+00-8.22887E-01 4.59519E+00-3.44169E-13-2.63012E-13
 -1      1760 1.68139E+01-2.93773E+00-1.66673E-01 6.50919E+00-3.17413E-13-1.84630E-13
 -1      1761 2.67817E+01 1.97920E-01 2.00342E-01 6.59790E+00-1.32949E-13-4.77174E-13
 -1      1762 3.62883E+01 4.02468E+00 8.65552E-01 6.02158E+00-2.69035E-13-4.31877E-13
 -1      1763 4.39464E+01 6.30669E+00 1.35164E+00 3.88902E+00-4.50640E-13-1.94844E-13
 -1      1764 4.76103E+01 7.46068E+00 1.60474E+00 1.09011E+00-4.56635E-13-1.02696E-14
 -1      1765 4.65358E+01 7.17332E+00 1.53927E+00-2.48407E+00-3.98570E-13 2.23987E-13
 -1      1766 4.13188E+01 5.47483E+00 1.21729E+00-5.29680E+00-3.59296E-13 4.85056E-13
 -1      1767 3.24916E+01 3.09310E+00 7.21543E-01-6.93805E+00-2.47025E-13 2.94098E-13
 -1      1768 2.20766E+01-1.11321E-01 8.45110E-02-7.14954E+00-2.97540E-13 3.78475E-13
 -1      1769 1.24705E+01-4.29828E+00-5.13613E-01-5.89222E+00-7.54952E-14 4.57412E-13
 -1      1770 4.87170E+00-7.91954E+00-9.10709E-01-4.08252E+00-3.40838E-14 3.49241E-13
 -1      1771-5.52263E-02-1.08630E+01-1.29686E+00-1.62856E+00-1.39888E-14 1.52323E-13
 -1      1772 2.28048E+01 1.97911E+00-2.40777E-02-2.70471E+00-1.23894E-13 5.38541E-13
 -1      1773 1.98356E+01 3.72317E+00-3.49593E-02-2.12078E+00-1.69267E-13-1.63997E-13
 -1      1774 2.00592E+01 3.56221E+00-4.25196E-02-2.40792E+00-1.94240E-13-1.00593E-13
 -1      1775 2.03643E+01 3.17996E+00-4.50487E-02-2.55454E+00-1.87879E-13-2.60555E-14
 -1      1776 2.05726E+01 2.80457E+00-1.41903E-01-2.82430E+00-2.01065E-13 6.50244E-14
 -1      1777 2.04354E+01 2.69376E+00-2.73612E-03-2.18641E+00-1.92569E-13-5.65381E-14
 -1      1778 1.93724E+01 4.21109E+00-2.02954E-02-1.23902E+00-1.00882E-13-2.56944E-13
 -1      1779 1.94468E+01 4.16861E+00-1.68410E-02-1.46127E+00-1.17552E-13-2.48532E-13
 -1      1780 1.92723E+01 4.32435E+00-1.68573E-02-8.35097E-01-5.67140E-14-2.67701E-13
 -1      1781 1.93170E+01 4.29825E+00-1.40395E-02-1.04215E+00-7.71568E-14-2.66334E-13
 -1      1782 1.95410E+01 3.81588E+00-8.93809E-03-1.08616E+00-9.46456E-14-2.45788E-13
 -1      1783 1.92171E+01 4.39009E+00-1.47663E-02-4.52054E-01-1.21366E-14-2.69694E-13
 -1      1784 1.92408E+01 4.37590E+00-1.30466E-02-6.47478E-01-2.97560E-14-2.70586E-13
 -1      1785 1.94390E+01 3.94491E+00-8.79067E-03-7.08600E-01-3.94901E-14-2.58384E-13
 -1      1786 1.91958E+01 4.41823E+00-1.35310E-02-8.04756E-02 2.82562E-14-2.74770E-13
 -1      1787 1.92029E+01 4.41387E+00-1.30007E-02-2.70412E-01 1.32309E-14-2.70433E-13
 -1      1788 1.93846E+01 4.01500E+00-8.66936E-03-3.45317E-01-2.34201E-15-2.59520E-13
 -1      1789 1.92043E+01 4.41236E+00-1.29453E-02 2.89317E-01 5.52338E-14-2.72326E-13
 -1      1790 1.91961E+01 4.41731E+00-1.36201E-02 9.92107E-02 4.26155E-14-2.78434E-13
 -1      1791 1.93682E+01 4.03625E+00-8.63616E-03 1.03824E-02 3.92554E-14-2.70636E-13
 -1      1792 1.92442E+01 4.37158E+00-1.30434E-02 6.67134E-01 9.27270E-14-2.64001E-13
 -1      1793 1.92194E+01 4.38665E+00-1.48760E-02 4.71200E-01 7.13988E-14-2.69515E-13
 -1      1794 1.93870E+01 4.01138E+00-8.70738E-03 3.66318E-01 6.89023E-14-2.67304E-13
 -1      1795 1.93213E+01 4.29207E+00-1.40894E-02 1.05629E+00 1.17197E-13-2.27767E-13
 -1      1796 1.92761E+01 4.31865E+00-1.70194E-02 8.51994E-01 1.01112E-13-2.45245E-13
 -1      1797 1.94435E+01 3.93811E+00-8.77069E-03 7.27017E-01 1.01814E-13-2.52021E-13
 -1      1798 1.94555E+01 4.15673E+00-1.70697E-02 1.48086E+00 1.70800E-13-1.86302E-13
 -1      1799 1.93779E+01 4.20208E+00-2.06036E-02 1.25357E+00 1.40533E-13-2.05370E-13
 -1      1800 1.95478E+01 3.80548E+00-8.92215E-03 1.10217E+00 1.42035E-13-1.98477E-13
 -1      1801 1.96832E+01 3.93117E+00-2.48600E-02 1.94411E+00 2.06857E-13-1.19776E-13
 -1      1802 1.95517E+01 4.01108E+00-2.69978E-02 1.68746E+00 1.86232E-13-1.60694E-13
 -1      1803 1.97242E+01 3.58786E+00-8.49160E-03 1.49704E+00 1.80996E-13-1.53747E-13
 -1      1804 2.00831E+01 3.52427E+00-4.47946E-02 2.43817E+00 2.42299E-13-4.44089E-15
 -1      1805 1.98485E+01 3.68794E+00-3.96780E-02 2.14833E+00 2.18059E-13-7.07871E-14
 -1      1806 2.00187E+01 3.23408E+00-5.18208E-03 1.89569E+00 2.25720E-13-7.41230E-14
 -1      1807 2.09083E+01 2.67788E+00-5.72090E-02 2.82873E+00 2.31806E-13 1.99112E-13
 -1      1808 2.04127E+01 3.09504E+00-5.01748E-02 2.58500E+00 2.30337E-13 7.57727E-14
 -1      1809 2.05215E+01 2.61241E+00 3.19516E-03 2.20943E+00 2.43625E-13 3.68802E-14
 -1      1810 2.16980E+01 1.21045E+00-1.21582E-01 2.30809E+00 1.94525E-13 4.49002E-13
 -1      1811 2.12535E+01 2.25834E+00 1.08969E-04 2.71464E+00 2.15303E-13 2.83468E-13
 -1      1812 2.09276E+01 1.68410E+00-2.25697E-02 2.11122E+00 2.34830E-13 1.95146E-13
 -1      1813 2.09278E+01 7.77698E-01-6.19683E-02 1.50343E+00 2.02269E-13 3.90472E-13
 -1      1814 2.17657E+01 2.45152E+00 9.06169E-02-3.02435E+00-1.67321E-13 2.36158E-13
 -1      1815 2.00954E+01 2.99881E-01-8.52875E-03 6.34663E-01 1.45772E-13 2.95751E-13
 -1      1816 2.06369E+01 4.41330E-01-1.21868E-02 1.01251E+00 1.60524E-13 3.53763E-13
 -1      1817 2.07349E+01 8.45335E-01 2.07150E-03 1.38860E+00 1.94969E-13 2.36476E-13
 -1      1818 2.14870E+01 1.73978E+00 7.93115E-02-2.31123E+00-1.79568E-13 1.55299E-13
 -1      1819 2.05167E+01 5.03632E-01 3.26512E-02-8.94253E-01-1.39000E-13 1.35773E-13
 -1      1820 2.00972E+01 3.57018E-01 8.35993E-03-6.00164E-01-1.17188E-13 9.73215E-14
 -1      1821 1.99128E+01 2.64045E-01 2.76120E-02-3.56667E-01-1.12016E-13 9.02906E-14
 -1      1822 1.97374E+01 1.86981E-01 1.12384E-02-2.14120E-01-1.10609E-13 6.79578E-14
 -1      1823 2.02183E+01 4.91999E-01-6.33852E-03-6.80268E-01-1.42475E-13 2.05261E-14
 -1      1824 1.96297E+01 1.43486E-01 1.69674E-02-7.26725E-02-8.68012E-14 7.77624E-14
 -1      1825 1.95726E+01 1.06539E-01 8.08034E-03 5.36739E-03-6.59052E-14 5.35882E-14
 -1      1826 1.99176E+01 2.58726E-01-6.24418E-03-2.38404E-01-1.08222E-13 3.17897E-14
 -1      1827 1.95271E+01 8.42505E-02 9.14807E-03 9.05336E-02-5.50317E-14 4.27440E-14
 -1      1828 1.95415E+01 6.57767E-02 5.58060E-03 1.37116E-01-4.98557E-14 3.16130E-14
 -1      1829 1.97689E+01 1.47167E-01-5.32183E-03 2.05725E-02-8.10411E-14 1.09867E-14
 -1      1830 1.95416E+01 5.42979E-02 4.86558E-03 1.91909E-01-4.99460E-14 1.55251E-14
 -1      1831 1.96011E+01 4.58235E-02 4.39701E-03 2.22908E-01-1.83308E-14-1.19629E-14
 -1      1832 1.97283E+01 9.17243E-02-4.31357E-03 1.81403E-01-6.41171E-14-1.03137E-14
 -1      1833 1.96343E+01 4.06965E-02 2.66481E-03 2.62314E-01-3.63638E-14-1.12678E-14
 -1      1834 1.97254E+01 3.84306E-02 4.01120E-03 2.86664E-01-4.42939E-14-1.07230E-14
 -1      1835 1.97655E+01 6.55820E-02-3.40171E-03 2.90022E-01-3.92216E-14-2.32476E-14
 -1      1836 1.97839E+01 3.75004E-02 1.55051E-03 3.20135E-01-3.75858E-14-9.57117E-15
 -1      1837 1.99007E+01 3.95087E-02 4.10724E-03 3.43570E-01-2.33332E-14 4.69473E-15
 -1      1838 1.98606E+01 5.72842E-02-2.74804E-03 3.73950E-01-2.89067E-14-4.95751E-15
 -1      1839 1.99805E+01 4.15747E-02 1.01440E-03 3.77517E-01-3.51236E-14 2.34289E-14
 -1      1840 2.01220E+01 4.67215E-02 4.52216E-03 4.04058E-01-1.86493E-14 4.40764E-14
 -1      1841 2.00019E+01 6.10174E-02-2.37536E-03 4.51058E-01-2.05923E-14-2.01782E-14
 -1      1842 2.02217E+01 5.09523E-02 7.94965E-04 4.43036E-01-3.43341E-14-1.74934E-14
 -1      1843 2.03899E+01 5.83521E-02 5.13648E-03 4.75565E-01-3.24528E-14-6.99130E-14
 -1      1844 2.01843E+01 7.33849E-02-2.23235E-03 5.33705E-01-6.09399E-14-5.70027E-14
 -1      1845 2.05099E+01 6.39261E-02 7.34678E-04 5.22670E-01-4.93770E-14-8.58677E-14
 -1      1846 2.07089E+01 7.25283E-02 5.79828E-03 5.62961E-01-5.11490E-14-1.14236E-13
 -1      1847 2.04071E+01 9.17073E-02-2.25333E-03 6.30501E-01-6.50736E-14-1.23648E-13
 -1      1848 2.08510E+01 7.82875E-02 7.17875E-04 6.19662E-01-4.82589E-14-9.47158E-14
 -1      1849 2.10854E+01 8.63938E-02 6.26319E-03 6.67946E-01-6.37713E-14-9.48081E-14
 -1      1850 2.06727E+01 1.12797E-01-2.38392E-03 7.46582E-01-4.20308E-14-1.04900E-13
 -1      1851 2.12518E+01 9.03782E-02 6.53102E-04 7.33314E-01-4.50807E-14-1.11202E-13
 -1      1852 2.15249E+01 9.49642E-02 6.13236E-03 7.87229E-01 1.13401E-14-1.26808E-13
 -1      1853 2.09851E+01 1.31580E-01-2.59414E-03 8.82636E-01-6.81141E-14-8.95381E-14
 -1      1854 2.17184E+01 9.37513E-02 4.85899E-04 8.56381E-01 1.93118E-14-1.24242E-13
 -1      1855 2.20297E+01 8.95533E-02 4.79949E-03 9.09098E-01-3.82290E-15-6.15558E-14
 -1      1856 2.13490E+01 1.39203E-01-2.89366E-03 1.03244E+00 1.31587E-14-7.50093E-14
 -1      1857 2.22530E+01 7.74492E-02 2.43666E-04 9.70637E-01-6.16456E-15-6.59806E-14
 -1      1858 2.25935E+01 5.60508E-02 1.45926E-03 1.00808E+00 2.05229E-14-6.87402E-14
 -1      1859 2.17689E+01 1.20596E-01-3.34632E-03 1.17852E+00 4.34342E-15-4.96313E-14
 -1      1860 2.28494E+01 2.45688E-02 9.86122E-05 1.04057E+00 2.39218E-15-9.35896E-14
 -1      1861 2.31968E+01-2.55263E-02-4.71732E-03 1.03827E+00-1.34970E-14-5.82958E-14
 -1      1862 2.22482E+01 5.22834E-02-4.05258E-03 1.28583E+00 1.42920E-14-8.33543E-14
 -1      1863 2.34875E+01-8.65269E-02 3.35922E-04 1.00679E+00-7.14372E-14-9.52806E-14
 -1      1864 2.38002E+01-1.76168E-01-1.39613E-02 9.28740E-01-7.14203E-14-1.02089E-13
 -1      1865 2.27888E+01-9.64816E-02-5.02630E-03 1.29439E+00-7.14524E-14-1.66718E-13
 -1      1866 2.41230E+01-2.72466E-01 1.18564E-03 7.85440E-01-3.63225E-14-1.47864E-13
 -1      1867 2.43375E+01-4.00471E-01-2.47890E-02 5.91002E-01-4.86659E-14-1.34571E-13
 -1      1868 2.33868E+01-3.51773E-01-5.73989E-03 1.11577E+00-6.13485E-14-1.14619E-13
 -1      1869 2.46736E+01-5.19191E-01 1.80419E-03 2.87839E-01-7.01973E-14-9.44791E-14
 -1      1870 2.47123E+01-6.49054E-01-3.24154E-02-4.43319E-02-2.43347E-14-1.05408E-13
 -1      1871 2.40216E+01-7.01831E-01-4.62936E-03 6.45886E-01-2.42167E-14-1.27170E-13
 -1      1872 2.50022E+01-7.34143E-01-9.65911E-04-5.15503E-01 2.81650E-14-3.86682E-14
 -1      1873 2.48035E+01-7.69268E-01-2.82209E-02-9.38859E-01 1.31594E-13-4.07408E-14
 -1      1874 2.46260E+01-1.03299E+00 1.06241E-03-1.84367E-01 4.54289E-14-3.78947E-14
 -1      1875 2.49286E+01-7.10882E-01-1.11286E-02-1.46807E+00 1.49611E-13-3.95430E-15
 -1      1876 2.45000E+01-5.26030E-01-8.09847E-03-1.81477E+00 1.50522E-14-6.56766E-15
 -1      1877 2.50432E+01-1.07586E+00 1.14110E-02-1.28785E+00 1.42998E-13 2.39565E-14
 -1      1878 2.43476E+01-2.34619E-01-2.98017E-02-2.12007E+00-5.41618E-14 4.97831E-14
 -1      1879 2.38199E+01 1.88754E-01 1.46184E-02-2.13369E+00-1.19158E-14 4.47316E-14
 -1      1880 2.50515E+01-5.15533E-01 1.29306E-02-2.25793E+00 4.77240E-14 7.59682E-14
 -1      1881 2.34606E+01 6.28494E-01-3.76895E-02-1.88405E+00-2.40120E-14 9.34669E-15
 -1      1882 2.30632E+01 1.04810E+00 1.60707E-02-1.41291E+00 6.00214E-15-1.02366E-14
 -1      1883 2.45813E+01 6.19674E-01-1.89566E-02-2.39070E+00-4.12066E-14 2.04930E-13
 -1      1884 2.28291E+01 1.31325E+00-1.54380E-02-5.90906E-01 2.62637E-14-1.39836E-13
 -1      1885 2.27806E+01 1.37342E+00-6.46533E-03 1.67330E-01 2.34049E-14-1.15840E-13
 -1      1886 2.40103E+01 1.72057E+00-4.86716E-02-1.21316E+00-4.37497E-14 2.83725E-14
 -1      1887 2.29294E+01 1.21068E+00 1.43430E-02 1.07125E+00-3.41810E-14-2.11249E-13
 -1      1888 2.32523E+01 8.52812E-01-3.38841E-02 1.65238E+00-1.44315E-13-2.77060E-13
 -1      1889 2.39252E+01 1.86624E+00-5.59372E-02 7.52396E-01-9.10487E-14-2.36087E-13
 -1      1890 2.36251E+01 4.15501E-01 1.85872E-02 2.06925E+00-1.73179E-13-2.35298E-13
 -1      1891 2.41508E+01-4.09577E-02-3.26838E-02 2.17156E+00-1.60613E-13-2.76026E-13
 -1      1892 2.44282E+01 9.52890E-01-2.23654E-02 2.23083E+00-1.71373E-13-3.81026E-13
 -1      1893 2.43699E+01-3.86864E-01-3.47297E-03 1.97983E+00-8.72841E-14-2.48716E-13
 -1      1894 2.48439E+01-6.37941E-01-1.73757E-02 1.69289E+00 4.41635E-14-2.25404E-13
 -1      1895 2.49793E+01-2.88793E-01-5.28598E-04 2.40479E+00-5.72146E-14-1.66383E-13
 -1      1896 2.47866E+01-7.47970E-01-2.46461E-02 1.18890E+00 1.28888E-13-2.56677E-13
 -1      1897 2.50530E+01-7.56217E-01-2.01064E-03 7.66627E-01 2.30807E-13-1.74317E-13
 -1      1898 2.51086E+01-9.92760E-01 1.40448E-02 1.58468E+00 6.04933E-14-2.84394E-13
 -1      1899 2.47966E+01-6.96424E-01-3.26311E-02 2.66923E-01 1.86986E-13-2.44969E-13
 -1      1900 2.48195E+01-5.79300E-01 1.53784E-03-9.49273E-02 9.42215E-14-2.22260E-13
 -1      1901 2.47818E+01-1.07868E+00 3.55012E-03 4.64475E-01 1.07586E-13-3.31824E-13
 -1      1902 2.44925E+01-4.60920E-01-2.73496E-02-4.40012E-01-1.56975E-14-8.27255E-14
 -1      1903 2.43234E+01-3.26131E-01 1.76703E-03-6.66202E-01-7.04862E-14-9.03461E-14
 -1      1904 2.42156E+01-7.89284E-01-4.15335E-03-4.46811E-01 7.39270E-14-2.86068E-13
 -1      1905 2.40011E+01-2.20999E-01-1.65198E-02-8.41980E-01-6.25056E-14-4.06645E-14
 -1      1906 2.37172E+01-1.19761E-01 9.86683E-04-9.42229E-01 2.11029E-15 5.53776E-14
 -1      1907 2.35914E+01-4.25661E-01-5.92461E-03-9.96975E-01-3.09388E-15-4.66046E-14
 -1      1908 2.34267E+01-4.93525E-02-6.59736E-03-9.91944E-01 4.76507E-15 1.28117E-13
 -1      1909 2.30973E+01 1.07322E-02 6.56091E-04-1.00520E+00 5.72074E-14 1.02577E-13
 -1      1910 2.29968E+01-1.40282E-01-5.45180E-03-1.22916E+00 5.40772E-14 1.44180E-13
 -1      1911 2.28439E+01 4.93340E-02 3.73151E-04-9.78874E-01-3.32015E-15 5.95210E-14
 -1      1912 2.25168E+01 7.76709E-02 8.22386E-04-9.43462E-01 8.24522E-14 1.43034E-13
 -1      1913 2.24612E+01 3.58237E-02-4.50596E-03-1.24596E+00 6.40867E-14 2.47844E-13
 -1      1914 2.22991E+01 9.43551E-02 4.35919E-03-8.79624E-01-3.96905E-14 7.47419E-14
 -1      1915 2.20016E+01 1.02834E-01 1.15176E-03-8.22997E-01-1.56794E-13-6.84604E-14
 -1      1916 2.19915E+01 1.23590E-01-3.74486E-03-1.14206E+00-3.19443E-14-4.27089E-15
 -1      1917 2.18172E+01 1.06681E-01 6.10038E-03-7.46283E-01-1.68633E-13-1.30210E-13
 -1      1918 2.15615E+01 1.04507E-01 1.41588E-03-6.84936E-01-1.37073E-13-6.56632E-14
 -1      1919 2.15873E+01 1.54327E-01-3.23677E-03-9.84708E-01-2.00302E-13 6.55156E-15
 -1      1920 2.14075E+01 1.01803E-01 6.42457E-03-6.09122E-01-1.42901E-13-1.66907E-13
 -1      1921 2.11961E+01 9.48346E-02 1.53674E-03-5.51606E-01-2.05664E-13-2.16695E-13
 -1      1922 2.12455E+01 1.53474E-01-2.87654E-03-8.14917E-01-2.00486E-13-1.23952E-14
 -1      1923 2.10697E+01 8.93538E-02 5.98007E-03-4.83352E-01 1.59876E-15-1.46762E-13
 -1      1924 2.09000E+01 8.08926E-02 1.52456E-03-4.33316E-01 1.10313E-13 3.23683E-15
 -1      1925 2.09617E+01 1.37701E-01-2.57055E-03-6.54654E-01 2.03067E-14 2.16063E-14
 -1      1926 2.07978E+01 7.46821E-02 5.19502E-03-3.75102E-01 1.63953E-13 6.98454E-15
 -1      1927 2.06647E+01 6.63984E-02 1.42007E-03-3.33488E-01 1.27981E-13 8.12732E-14
 -1      1928 2.07304E+01 1.16622E-01-2.27322E-03-5.13829E-01 1.12027E-13 1.57769E-13
 -1      1929 2.05836E+01 6.04635E-02 4.31981E-03-2.85548E-01-6.69070E-14 1.40537E-13
 -1      1930 2.04813E+01 5.30923E-02 1.26481E-03-2.51957E-01-2.21453E-13 2.05843E-13
 -1      1931 2.05451E+01 9.52364E-02-1.97427E-03-3.95431E-01 6.00453E-14 1.23265E-13
 -1      1932 2.04179E+01 4.78603E-02 3.48488E-03-2.13443E-01-3.32378E-13 2.06845E-13
 -1      1933 2.03407E+01 4.16423E-02 1.09088E-03-1.86904E-01-2.31328E-13 1.03597E-13
 -1      1934 2.03992E+01 7.58435E-02-1.68000E-03-2.98828E-01-2.54730E-13 4.82530E-13
 -1      1935 2.02920E+01 3.72421E-02 2.74805E-03-1.56537E-01-1.17404E-13 1.14208E-13
 -1      1936 2.02348E+01 3.21784E-02 9.19735E-04-1.35909E-01 8.58469E-14 1.81774E-13
 -1      1937 2.02862E+01 5.92862E-02-1.40085E-03-2.21717E-01-1.36889E-13 5.78697E-13
 -1      1938 2.01981E+01 2.85968E-02 2.12673E-03-1.12318E-01 3.56834E-13 5.21235E-14
 -1      1939 2.01567E+01 2.45862E-02 7.63873E-04-9.64856E-02 2.43194E-13 2.80074E-13
 -1      1940 2.02003E+01 4.56845E-02-1.14548E-03-1.61205E-01 1.59103E-13 5.47207E-13
 -1      1941 2.01296E+01 2.17502E-02 1.61741E-03-7.83689E-02 8.55348E-14 3.80850E-13
 -1      1942 2.01003E+01 1.86557E-02 6.28025E-04-6.63211E-02 1.84728E-13 4.84758E-13
 -1      1943 2.01361E+01 3.48353E-02-9.18757E-04-1.14357E-01 2.51485E-13 5.50970E-13
 -1      1944 2.00807E+01 1.64688E-02 1.20567E-03-5.25211E-02 1.52262E-13 3.93542E-13
 -1      1945 2.00608E+01 1.41439E-02 5.09015E-04-4.33850E-02 2.69120E-13 2.77565E-13
 -1      1946 2.00892E+01 2.64081E-02-7.22347E-04-7.84616E-02 9.42721E-14 4.99509E-13
 -1      1947 2.00469E+01 1.24976E-02 8.71468E-04-3.29261E-02 4.85380E-14 1.37874E-13
 -1      1948 2.00341E+01 1.07962E-02 4.08016E-04-2.59947E-02-5.62189E-14-7.31548E-14
 -1      1949 2.00556E+01 2.00290E-02-5.51593E-04-5.11606E-02 5.04250E-14 1.91959E-13
 -1      1950 2.00245E+01 9.47059E-03 5.79461E-04-1.80675E-02-3.65256E-14-2.18786E-13
 -1      1951 2.00170E+01 8.13282E-03 3.08750E-04-1.28832E-02-1.07763E-13-1.99660E-13
 -1      1952 2.00323E+01 1.53079E-02-3.87185E-04-3.05350E-02-2.44715E-13-7.01532E-14
 -1      1953 2.00110E+01 6.86836E-03 4.04317E-04-7.35666E-03-6.11549E-14-1.62801E-13
 -1      1954 2.00071E+01 5.35704E-03 2.38302E-04-3.93418E-03-1.63675E-14-5.97218E-14
 -1      1955 2.00073E+01 6.39866E-03-2.56488E-04-5.24293E-03-7.04948E-14 4.17943E-14
 -1      1956 2.00168E+01 1.09166E-02-4.04961E-04-1.54887E-02-6.88803E-14-1.73222E-13
 -1      1957 1.96363E+01 1.46368E-01 8.26859E-03 2.31167E-01 1.14950E-13 2.00310E-13
 -1      1958 1.98955E+01 2.07512E-01 1.67006E-02 4.06897E-01 1.26205E-13 2.65950E-13
 -1      1959 2.01118E+01 3.54549E-01-1.76275E-03 6.23183E-01 1.56666E-13 1.77225E-13
 -1      1960 1.94254E+01 7.87928E-02 7.43826E-03 1.80276E-02 8.21947E-14 1.35443E-13
 -1      1961 1.95235E+01 1.07728E-01 1.45566E-02 1.11243E-01 8.76122E-14 1.72587E-13
 -1      1962 1.97445E+01 1.72702E-01-2.26570E-03 2.14406E-01 1.13630E-13 1.23573E-13
 -1      1963 1.93778E+01 4.58768E-02 5.07577E-03-1.02375E-01 9.58305E-15 1.11738E-13
 -1      1964 1.93849E+01 6.06859E-02 8.84202E-03-4.82489E-02 3.59318E-14 1.13181E-13
 -1      1965 1.95785E+01 9.20153E-02-3.23571E-03-1.30713E-02 6.52061E-14 5.57575E-14
 -1      1966 1.94341E+01 2.91907E-02 3.70016E-03-1.75213E-01-2.50299E-15 5.29316E-14
 -1      1967 1.93874E+01 3.69667E-02 5.02426E-03-1.41113E-01 2.62572E-15 9.51513E-14
 -1      1968 1.95455E+01 5.31002E-02-3.36986E-03-1.46682E-01 2.01295E-14 8.58059E-15
 -1      1969 1.95590E+01 2.12243E-02 3.04208E-03-2.23759E-01 6.77909E-14 1.58289E-14
 -1      1970 1.94783E+01 2.51123E-02 2.99788E-03-1.99912E-01 1.36436E-14 2.88792E-14
 -1      1971 1.96005E+01 3.41273E-02-2.98288E-03-2.30978E-01 5.20533E-14-3.44474E-14
 -1      1972 1.97329E+01 1.83673E-02 2.72594E-03-2.61118E-01 7.70631E-14 2.53176E-14
 -1      1973 1.96282E+01 2.00029E-02 1.98071E-03-2.41928E-01 9.66076E-14 3.81906E-14
 -1      1974 1.97162E+01 2.58777E-02-2.53668E-03-2.90101E-01 9.39104E-14-6.74136E-14
 -1      1975 1.99455E+01 1.84701E-02 2.55195E-03-2.94983E-01 6.51230E-14-1.45007E-14
 -1      1976 1.98218E+01 1.88859E-02 1.47463E-03-2.77095E-01 6.09801E-14 2.02387E-14
 -1      1977 1.98768E+01 2.37721E-02-2.21060E-03-3.37972E-01 7.08021E-14-1.56154E-14
 -1      1978 2.01923E+01 1.98438E-02 2.40550E-03-3.29466E-01-2.94528E-14 1.03254E-14
 -1      1979 2.00514E+01 1.98630E-02 1.21473E-03-3.11050E-01 5.66008E-15-9.59703E-15
 -1      1980 2.00741E+01 2.49016E-02-2.02780E-03-3.82602E-01 2.02705E-14 3.05350E-14
 -1      1981 2.04715E+01 2.07695E-02 2.18313E-03-3.65571E-01 1.57016E-14 3.17063E-14
 -1      1982 2.03141E+01 2.12036E-02 1.04057E-03-3.46174E-01 9.30083E-15 2.24346E-14
 -1      1983 2.03041E+01 2.67897E-02-1.95392E-03-4.27692E-01 1.04223E-14 5.74535E-15
 -1      1984 2.07812E+01 1.91897E-02 1.76323E-03-4.00955E-01 8.24002E-14 2.23461E-14
 -1      1985 2.06082E+01 2.09623E-02 8.26630E-04-3.81674E-01 5.31334E-14 3.84509E-14
 -1      1986 2.05645E+01 2.67618E-02-1.93560E-03-4.72929E-01 6.55783E-14-4.59472E-14
 -1      1987 2.11167E+01 1.25122E-02 1.00660E-03-4.29236E-01 1.18342E-13-1.00558E-13
 -1      1988 2.09311E+01 1.67205E-02 4.57058E-04-4.13104E-01 1.02113E-13-5.77908E-14
 -1      1989 2.08529E+01 2.15526E-02-1.90505E-03-5.13530E-01 1.54321E-13-7.79292E-14
 -1      1990 2.14672E+01-2.37808E-03-2.14749E-04-4.39116E-01 7.88684E-14-1.56145E-13
 -1      1991 2.12759E+01 5.48362E-03-1.73822E-04-4.31590E-01 9.19434E-14-9.38585E-14
 -1      1992 2.11638E+01 7.14080E-03-1.76990E-03-5.39372E-01 1.19422E-13-8.62417E-14
 -1      1993 2.18127E+01-2.86475E-02-1.94916E-03-4.13872E-01-1.62933E-14-5.14970E-14
 -1      1994 2.16286E+01-1.60850E-02-1.14070E-03-4.23149E-01 1.73325E-14-1.32883E-13
 -1      1995 2.14864E+01-2.09670E-02-1.39897E-03-5.34184E-01 5.78985E-14-9.10589E-14
 -1      1996 2.21211E+01-6.81572E-02-4.04998E-03-3.32287E-01-1.30254E-13-4.19179E-14
 -1      1997 2.19644E+01-5.07318E-02-2.44695E-03-3.68924E-01-4.89944E-14-2.44891E-14
 -1      1998 2.18019E+01-6.65388E-02-6.11572E-04-4.75687E-01-5.36726E-14-5.11390E-14
 -1      1999 2.23469E+01-1.18762E-01-6.03995E-03-1.72880E-01 6.51085E-14-1.35068E-13
 -1      2000 2.22453E+01-9.84910E-02-3.97224E-03-2.47756E-01-1.97455E-14-7.99725E-14
 -1      2001 2.20809E+01-1.29860E-01 8.09001E-04-3.38310E-01 1.61988E-14-9.41137E-14
 -1      2002 2.24345E+01-1.70344E-01-7.06164E-03 7.62669E-02 4.36578E-14-1.23529E-13
 -1      2003 2.24199E+01-1.53091E-01-5.42623E-03-4.31643E-02 5.38059E-14-1.61658E-13
 -1      2004 2.22825E+01-2.03053E-01 3.02942E-03-1.00864E-01 8.44706E-14-1.06645E-13
 -1      2005 2.23281E+01-2.01470E-01-6.15355E-03 4.01031E-01-5.53915E-14-1.18296E-13
 -1      2006 2.24292E+01-1.97809E-01-6.34197E-03 2.43550E-01-3.71404E-15-1.35397E-13
 -1      2007 2.23564E+01-2.64655E-01 5.93694E-03 2.38616E-01 1.69335E-14-1.42029E-13
 -1      2008 2.19934E+01-1.81685E-01-2.99037E-03 7.42492E-01-3.47881E-14-6.96092E-14
 -1      2009 2.22219E+01-2.04497E-01-6.21523E-03 5.75581E-01-6.34631E-14-1.25889E-13
 -1      2010 2.22534E+01-2.78024E-01 8.71998E-03 6.41816E-01-7.82933E-14-1.26297E-13
 -1      2011 2.14472E+01-8.56275E-02 1.25305E-03 9.90261E-01-4.89951E-15-5.38476E-14
 -1      2012 2.17831E+01-1.41970E-01-4.46530E-03 8.67710E-01-4.29145E-14-1.21188E-14
 -1      2013 2.19465E+01-2.02011E-01 9.65124E-03 1.01257E+00-5.02749E-14-5.43923E-14
 -1      2014 2.07886E+01 7.98466E-02 3.67037E-03 1.01112E+00 7.20431E-14 2.94625E-14
 -1      2015 2.11686E+01 6.60872E-04-1.03209E-03 9.96644E-01 2.48805E-14-3.62609E-14
 -1      2016 2.14649E+01-1.93024E-02 6.63007E-03 1.20391E+00 3.48878E-14 2.99353E-14
 -1      2017 2.02002E+01 2.57576E-01 2.38439E-03 7.22673E-01-3.20542E-14 3.53016E-15
 -1      2018 2.05258E+01 1.88049E-01 4.03507E-03 8.53863E-01 7.12312E-14 2.47892E-14
 -1      2019 2.09236E+01 2.28918E-01-6.12475E-04 1.07514E+00 4.47862E-14 3.68672E-14
 -1      2020 1.98937E+01 3.56944E-01-1.66613E-03 1.76368E-01-1.79296E-13-9.28721E-14
 -1      2021 2.00603E+01 3.35988E-01 9.12493E-03 4.25240E-01-1.35560E-13-8.87003E-14
 -1      2022 2.05091E+01 4.40332E-01-7.91771E-03 5.89373E-01-6.35863E-14 2.51769E-14
 -1      2023 1.99966E+01 3.23928E-01-3.92526E-03-4.37984E-01-4.08267E-14 2.02945E-14
 -1      2024 1.99429E+01 3.65229E-01 1.20763E-02-1.59962E-01-1.34977E-13-1.12442E-13
 -1      2025 2.03937E+01 5.06216E-01-1.00031E-02-1.14627E-01-1.11583E-13 6.37500E-15
 -1      2026 2.04749E+01 1.76184E-01-2.75883E-03-8.90244E-01 2.04835E-13 2.99431E-14
 -1      2027 2.02164E+01 2.58649E-01 1.08187E-02-6.86781E-01 8.84206E-14 6.06052E-14
 -1      2028 2.06301E+01 3.89921E-01-5.61280E-03-7.77214E-01 7.10430E-14-8.68303E-14
 -1      2029 2.11478E+01-3.35626E-03 1.28369E-03-1.04370E+00 2.21188E-13 6.84626E-14
 -1      2030 2.07704E+01 7.79903E-02 5.46858E-03-9.71800E-01 2.79311E-13 8.40786E-14
 -1      2031 2.11140E+01 1.53865E-01 5.02480E-04-1.16065E+00 2.26921E-13 1.31604E-13
 -1      2032 2.17966E+01-1.36732E-01 4.88052E-03-9.12293E-01 1.29684E-13-6.07327E-15
 -1      2033 2.14128E+01-8.73779E-02-1.12532E-03-9.63356E-01 8.57968E-14 1.86483E-15
 -1      2034 2.16563E+01-8.54818E-02 3.80326E-03-1.18326E+00 1.34046E-13 1.40088E-13
 -1      2035 2.22657E+01-1.92559E-01 6.12755E-03-6.11153E-01 8.16621E-15-7.43038E-14
 -1      2036 2.19655E+01-1.81567E-01-6.21648E-03-7.34979E-01 9.65443E-14 6.20762E-14
 -1      2037 2.20920E+01-2.39179E-01 3.55984E-03-9.23870E-01 8.60891E-14 1.97294E-13
 -1      2038 2.24968E+01-1.83433E-01 5.10295E-03-2.70530E-01-7.50389E-14-1.35779E-14
 -1      2039 2.23238E+01-1.99430E-01-8.51182E-03-4.12074E-01-3.38115E-14-7.22367E-14
 -1      2040 2.23388E+01-2.84809E-01 1.71017E-03-5.34375E-01 5.42118E-14 2.34132E-13
 -1      2041 2.25081E+01-1.39461E-01 3.06872E-03 2.00714E-02-2.18376E-13 4.26074E-14
 -1      2042 2.24624E+01-1.66833E-01-8.30170E-03-1.01686E-01-1.62792E-13-1.84768E-14
 -1      2043 2.23914E+01-2.50425E-01 9.86078E-05-1.49794E-01-1.63080E-13 2.06534E-13
 -1      2044 2.23549E+01-8.70558E-02 1.12623E-03 2.22879E-01-1.22429E-13-1.39428E-15
 -1      2045 2.24107E+01-1.14278E-01-6.56946E-03 1.36920E-01-2.30879E-13-7.53087E-15
 -1      2046 2.22876E+01-1.78942E-01-6.66742E-04 1.52101E-01-2.15930E-13 6.91305E-14
 -1      2047 2.20998E+01-4.14977E-02-2.03823E-04 3.37313E-01 8.31106E-15 1.10211E-13
 -1      2048 2.22225E+01-6.29140E-02-4.29909E-03 2.87776E-01-5.07268E-14-6.45317E-16
 -1      2049 2.20790E+01-1.03778E-01-8.01907E-04 3.47571E-01-9.74399E-14-5.57237E-15
 -1      2050 2.17968E+01-8.38329E-03-8.79750E-04 3.81063E-01 9.77802E-14 1.65242E-13
 -1      2051 2.19541E+01-2.26521E-02-2.15536E-03 3.60926E-01 6.88827E-14 1.81518E-13
 -1      2052 2.18137E+01-4.23935E-02-6.66889E-04 4.46369E-01 3.58606E-14 1.42991E-13
 -1      2053 2.14859E+01 1.24381E-02-1.07379E-03 3.76404E-01 2.26772E-13 1.18787E-13
 -1      2054 2.16529E+01 4.41520E-03-4.66815E-04 3.76627E-01 1.86970E-13 2.55568E-13
 -1      2055 2.15294E+01 1.47054E-04-5.05338E-04 4.72212E-01 1.95803E-13 2.62272E-13
 -1      2056 2.11928E+01 2.35056E-02-9.90091E-04 3.43096E-01 7.82991E-14-3.94027E-14
 -1      2057 2.13528E+01 2.00868E-02 6.86068E-04 3.55567E-01 1.17876E-13-6.65401E-14
 -1      2058 2.12524E+01 2.55445E-02-4.07710E-04 4.50333E-01 2.84931E-13 2.65181E-13
 -1      2059 2.09321E+01 2.77882E-02-7.85400E-04 2.95971E-01-8.91729E-14-1.07258E-13
 -1      2060 2.10754E+01 2.73737E-02 1.35974E-03 3.14542E-01 7.57586E-14-3.33304E-14
 -1      2061 2.09989E+01 3.79599E-02-3.76002E-04 4.01717E-01 7.26370E-14 8.80131E-14
 -1      2062 2.07098E+01 2.78273E-02-5.55531E-04 2.44943E-01 3.54220E-15 5.69963E-14
 -1      2063 2.08323E+01 2.91528E-02 1.66503E-03 2.65459E-01-1.36303E-13-1.23623E-13
 -1      2064 2.07773E+01 4.16755E-02-3.81963E-04 3.41549E-01-1.25876E-13 8.72879E-14
 -1      2065 2.05267E+01 2.55054E-02-3.48659E-04 1.95980E-01-1.39538E-13 1.40179E-13
 -1      2066 2.06275E+01 2.76823E-02 1.71780E-03 2.15903E-01-1.44218E-13 1.60566E-14
 -1      2067 2.05905E+01 4.01638E-02-3.97771E-04 2.79713E-01-1.41479E-13 1.68978E-13
 -1      2068 2.03803E+01 2.20944E-02-1.82657E-04 1.52221E-01 1.01361E-13 4.68833E-13
 -1      2069 2.04606E+01 2.45498E-02 1.61596E-03 1.70187E-01 2.42705E-14 4.05267E-13
 -1      2070 2.04378E+01 3.59097E-02-4.06004E-04 2.21973E-01-1.56646E-13 2.29122E-13
 -1      2071 2.02662E+01 1.83937E-02-5.90813E-05 1.14939E-01 8.62367E-14 4.28795E-13
 -1      2072 2.03285E+01 2.07868E-02 1.43267E-03 1.30363E-01 1.52627E-13 4.69457E-13
 -1      2073 2.03161E+01 3.05448E-02-3.99660E-04 1.71207E-01 1.07551E-13 4.73921E-13
 -1      2074 2.01797E+01 1.48709E-02 2.78578E-05 8.42607E-02-2.12495E-13 2.93440E-13
 -1      2075 2.02266E+01 1.70181E-02 1.21782E-03 9.70469E-02-5.42992E-14 2.75216E-13
 -1      2076 2.02216E+01 2.50650E-02-3.78755E-04 1.28409E-01-8.90726E-15 5.03580E-13
 -1      2077 2.01159E+01 1.17770E-02 8.58187E-05 5.96586E-02 1.22484E-13 1.40808E-13
 -1      2078 2.01502E+01 1.35936E-02 1.00216E-03 6.99949E-02-9.91834E-14 2.44595E-13
 -1      2079 2.01500E+01 2.00322E-02-3.46982E-04 9.34334E-02-2.68774E-15 4.29322E-13
 -1      2080 2.00703E+01 9.22584E-03 1.20279E-04 4.02736E-02-4.82310E-14 1.47990E-13
 -1      2081 2.00945E+01 1.06895E-02 8.02037E-04 4.85012E-02 1.04242E-13 2.27264E-13
 -1      2082 2.00972E+01 1.57310E-02-3.09385E-04 6.54999E-02 7.34712E-14 3.77251E-13
 -1      2083 2.00392E+01 7.21972E-03 1.30929E-04 2.51310E-02 2.68896E-13 2.42096E-13
 -1      2084 2.00554E+01 8.36083E-03 6.22988E-04 3.16523E-02 3.70918E-14 1.91344E-13
 -1      2085 2.00595E+01 1.22593E-02-2.71142E-04 4.35294E-02-1.23102E-14 4.83785E-13
 -1      2086 2.00192E+01 5.64509E-03 1.12042E-04 1.33784E-02 1.56897E-13 4.13867E-13
 -1      2087 2.00292E+01 6.53601E-03 4.59870E-04 1.85463E-02 4.24271E-13 4.27137E-13
 -1      2088 2.00336E+01 9.52705E-03-2.39643E-04 2.64244E-02 2.82425E-13 5.29525E-13
 -1      2089 2.00077E+01 4.23947E-03 1.54532E-04 4.59751E-03-2.46120E-14 2.19078E-13
 -1      2090 2.00129E+01 4.98094E-03 3.03837E-04 8.48624E-03 2.22924E-14 2.84962E-13
 -1      2091 2.00167E+01 7.31013E-03-1.91460E-04 1.32928E-02 1.49019E-13 6.62276E-13
 -1      2092 2.00029E+01 2.55430E-03 1.94843E-04 1.88704E-04-4.84205E-14 4.06732E-13
 -1      2093 2.00051E+01 3.86544E-03 1.90248E-04 2.53993E-03 2.51550E-15 2.78686E-13
 -1      2094 2.00079E+01 5.72313E-03-1.03342E-04 5.33901E-03 1.39982E-14 6.32458E-13
 -1      2095 2.00038E+01 3.36568E-03 4.90765E-05 1.17705E-03-7.98653E-14 8.59545E-13
 -1      2096 2.00022E+01 3.50922E-02-1.22161E-04 1.97492E-02 2.51553E-13 2.07668E-13
 -1      2097 2.00037E+01 2.87362E-02 2.28840E-04 1.79944E-02 2.25755E-13 3.55468E-13
 -1      2098 2.00049E+01 2.11407E-02-2.05144E-05 1.49918E-02 5.50970E-14 3.62111E-13
 -1      2099 2.00058E+01 1.60376E-02 2.19059E-04 1.18173E-02 2.70847E-14 4.06507E-13
 -1      2100 2.00064E+01 3.05472E-02-6.20685E-05 2.23956E-02 7.16723E-14 3.79984E-13
 -1      2101 2.00054E+01 1.05725E-02 5.72794E-05 7.98670E-03-3.26341E-14 4.06950E-13
 -1      2102 2.00051E+01 7.16223E-03 1.51828E-04 4.79250E-03-1.41534E-13 6.95752E-13
 -1      2103 2.00073E+01 8.59127E-03 7.91378E-05 6.71504E-03-1.32557E-13 5.92070E-13
 -1      2104 2.00080E+01 1.76791E-02-1.59995E-04 1.45784E-02-1.86791E-13 5.13365E-13
 -1      2105 1.99990E+01 4.95319E-02-2.19507E-04 2.06715E-02-8.14791E-14-6.51332E-13
 -1      2106 2.00007E+01 4.29116E-02 1.44033E-04 2.06829E-02 7.18989E-14-1.46464E-13
 -1      2107 2.00023E+01 4.58405E-02 4.25435E-05 2.66655E-02 8.41813E-14-1.60676E-13
 -1      2108 1.99960E+01 6.27273E-02-2.96012E-04 1.75598E-02-3.50692E-15-3.41204E-13
 -1      2109 1.99975E+01 5.67938E-02 1.56228E-05 1.93156E-02-5.14018E-14-3.34463E-13
 -1      2110 1.99976E+01 6.08501E-02 1.60442E-04 2.60547E-02-1.66854E-13-4.79092E-13
 -1      2111 1.99939E+01 7.22997E-02-3.29656E-04 1.10234E-02 1.09944E-13 9.21314E-14
 -1      2112 1.99949E+01 6.82680E-02-1.20577E-04 1.41499E-02 6.61303E-14 3.38602E-14
 -1      2113 1.99935E+01 7.36152E-02 2.68636E-04 2.05462E-02-2.95331E-14-1.27350E-13
 -1      2114 1.99929E+01 7.66792E-02-3.11143E-04 2.35134E-03-1.19979E-13-2.06379E-13
 -1      2115 1.99933E+01 7.53046E-02-2.34365E-04 6.22324E-03-5.03305E-14-2.42306E-13
 -1      2116 1.99907E+01 8.21442E-02 3.42992E-04 1.11679E-02 1.01962E-16-2.49133E-13
 -1      2117 1.99933E+01 7.51442E-02-2.39377E-04-6.79945E-03-2.51553E-13-2.26462E-13
 -1      2118 1.99929E+01 7.66926E-02-3.05909E-04-2.93693E-03-1.11986E-13 9.62429E-14
 -1      2119 1.99898E+01 8.51590E-02 3.71141E-04-3.25793E-04-4.30406E-13-1.06917E-13
 -1      2120 1.99950E+01 6.79512E-02-1.25848E-04-1.46733E-02-4.00092E-13-1.84891E-13
 -1      2121 1.99939E+01 7.21511E-02-3.23984E-04-1.15851E-02-2.99777E-13-3.37631E-13
 -1      2122 1.99908E+01 8.21849E-02 3.46844E-04-1.18074E-02-4.82269E-13-3.30206E-13
 -1      2123 1.99976E+01 5.65504E-02 1.49127E-05-1.96552E-02-3.81708E-13-3.18489E-13
 -1      2124 1.99961E+01 6.24904E-02-2.94398E-04-1.79890E-02-4.99363E-13-6.57739E-14
 -1      2125 1.99937E+01 7.37379E-02 2.81624E-04-2.10727E-02-3.88749E-13-1.85613E-13
 -1      2126 2.00009E+01 4.24331E-02 1.49217E-04-2.08456E-02-9.27495E-14 4.88062E-13
 -1      2127 1.99991E+01 4.92358E-02-2.23231E-04-2.09462E-02-2.00258E-13 1.42603E-13
 -1      2128 1.99978E+01 6.10122E-02 1.67219E-04-2.64271E-02-2.04618E-13 3.94227E-14
 -1      2129 2.00040E+01 2.80460E-02 2.31979E-04-1.78259E-02 2.38300E-13 4.87935E-14
 -1      2130 2.00024E+01 3.44102E-02-1.26472E-04-1.97423E-02 1.59650E-13 1.71564E-13
 -1      2131 2.00026E+01 4.57273E-02 3.42632E-05-2.67875E-02 9.83131E-14 4.59712E-13
 -1      2132 2.00057E+01 1.48749E-02-1.24942E-07-1.11993E-02 6.70336E-14-1.66051E-13
 -1      2133 2.00053E+01 2.03763E-02 2.41379E-06-1.45933E-02 2.10527E-13-1.07994E-13
 -1      2134 2.00069E+01 3.02530E-02-2.64443E-05-2.20708E-02 1.27171E-13-1.21510E-13
 -1      2135 1.03141E+01-4.97406E+00-1.32784E-01 6.50307E+00 2.25819E-13 2.94001E-13
 -1      2136 6.78090E+00-6.56646E+00-3.93313E-01 5.31091E+00 1.51212E-13 8.64586E-15
 -1      2137 4.23147E-01-6.76712E+00-3.46023E-01 1.12669E+00-5.76761E-14 2.77500E-13
 -1      2138 3.15740E-01-7.10346E+00-3.92544E-01-4.62411E-01-8.12128E-14 2.86215E-13
 -1      2139 3.92782E+00-6.38127E+00-2.80757E-01 4.50515E+00 9.49796E-14-2.14523E-13
 -1      2140 1.78248E+00-7.19074E+00-4.17230E-01 3.14308E+00 3.80806E-14-9.50351E-14
 -1      2141 7.48404E+00-5.38599E+00-1.55707E-01 6.11192E+00 1.12743E-13 5.35405E-14
 -1      2142 1.87355E+01-3.04040E+00 4.03818E-03 7.01115E+00-3.20854E-14 2.82996E-13
 -1      2143 1.41561E+01-4.91580E+00-3.06852E-01 6.26839E+00 9.31477E-14 2.29428E-13
 -1      2144 2.72771E+01-7.28374E-01 9.11945E-02 5.73598E+00 1.03528E-13 2.41807E-13
 -1      2145 2.23448E+01-2.36065E+00-1.66989E-01 5.85628E+00-8.52096E-14 3.78031E-13
 -1      2146 1.95414E+01 4.02934E+00-2.57595E-02-1.66608E+00-1.36607E-13-2.32207E-13
 -1      2147 1.96683E+01 3.95263E+00-2.39980E-02-1.92060E+00-1.60544E-13-1.94497E-13
 -1      2148 1.99889E+01 3.26452E+00-7.75080E-03-1.87047E+00-1.75823E-13-1.63968E-13
 -1      2149 1.97110E+01 3.60528E+00-9.02187E-03-1.47937E+00-1.31841E-13-2.18010E-13
 -1      2150 3.80003E+01 5.79844E+00 2.51992E-01 1.40804E+00 2.99705E-13 3.07532E-14
 -1      2151 3.56993E+01 4.62628E+00 1.15993E-01 2.38676E+00 3.86413E-13 1.94289E-15
 -1      2152 4.05331E+01 7.25700E+00 3.77584E-01-5.68019E-02 1.78579E-13-1.24074E-13
 -1      2153 3.93336E+01 7.04032E+00 2.51046E-01 1.09047E+00 1.98619E-13-4.14113E-14
 -1      2154 3.85182E+01 6.44743E+00 2.28360E-01-1.58997E+00 3.32678E-13-7.72715E-14
 -1      2155 4.00028E+01 6.99180E+00 3.39675E-01-5.28784E-01 2.01783E-13-1.30174E-13
 -1      2156 3.43933E+01 3.70521E+00 1.00051E-01-3.09819E+00 2.91100E-13-1.14131E-13
 -1      2157 3.75344E+01 4.98709E+00 2.95303E-01-2.29404E+00 3.91853E-13-2.14828E-14
 -1      2158 2.79061E+01 3.63575E-01-4.33451E-02-5.17468E+00 2.22156E-13-1.85518E-13
 -1      2159 3.24789E+01 1.91913E+00 2.18074E-01-4.72285E+00 2.21573E-13-1.59317E-13
 -1      2160 2.03503E+01-3.13282E+00-2.04133E-01-6.05620E+00 2.54130E-13-2.96096E-13
 -1      2161 2.50846E+01-1.25942E+00 1.20132E-01-6.36538E+00 2.53964E-13-1.84186E-13
 -1      2162 1.18513E+01-5.43370E+00-3.56200E-01-6.10501E+00 3.29514E-13-3.19411E-13
 -1      2163 1.61925E+01-3.52693E+00-4.65199E-02-7.02330E+00 3.48943E-13-3.58436E-13
 -1      2164 5.25145E+00-6.81899E+00-3.87882E-01-4.86579E+00 1.60649E-13-5.31825E-13
 -1      2165 8.40886E+00-5.37307E+00-1.64983E-01-6.10726E+00 2.89102E-13-4.86361E-13
 -1      2166 1.44243E+00-6.12186E+00-2.23232E-01-2.54812E+00 9.65894E-14-3.57492E-13
 -1      2167 2.80716E+00-6.53141E+00-3.20307E-01-3.89008E+00 1.96732E-13-4.73455E-13
 -1      2168 5.98779E+00-5.06888E+00-1.53289E-01-5.49032E+00 7.43849E-14-4.40703E-13
 -1      2169 7.90679E-01-7.12232E+00-4.15701E-01 1.76533E+00-5.65659E-14-3.06644E-13
 -1      2170 3.70913E-01-6.40178E+00-3.03653E-01 9.87659E-02 2.56739E-14-2.27207E-13
 -1      2171 4.94399E+00-6.38917E+00-2.97248E-01 4.65784E+00-1.29841E-13-3.49748E-13
 -1      2172 2.64121E+00-7.18226E+00-4.09285E-01 3.33782E+00-4.36318E-14-3.87246E-13
 -1      2173 1.16430E+01-5.07682E+00-1.90808E-01 6.31880E+00-1.97398E-13-7.23310E-14
 -1      2174 7.83192E+00-6.72535E+00-4.58470E-01 5.18491E+00-1.27010E-13-2.00173E-13
 -1      2175 2.06653E+01-3.81487E+00-1.20303E-01 6.33444E+00-1.14520E-13-6.87228E-14
 -1      2176 1.54807E+01-5.00269E+00-3.24926E-01 5.99343E+00-2.42473E-13-1.87905E-14
 -1      2177 3.00131E+01-9.14228E-02 2.43885E-01 5.13786E+00-3.29736E-14-3.69482E-13
 -1      2178 2.55812E+01-2.24454E+00-3.85423E-02 5.00095E+00-1.50990E-14-2.90934E-13
 -1      2179 3.59704E+01 2.95204E+00 2.78913E-01 3.18317E+00-2.40488E-13-2.18714E-14
 -1      2180 3.21731E+01 1.33492E+00 4.86501E-02 3.93294E+00-1.10550E-13-2.48357E-13
 -1      2181 3.12762E+01-7.61401E-01 1.13762E-01 2.33306E+00 3.85803E-15-2.80331E-14
 -1      2182 4.01607E+01 5.90667E+00 4.01022E-01 1.19251E+00-3.79530E-13 2.03171E-14
 -1      2183 3.71827E+01 4.92365E+00 1.61833E-01 1.71605E+00-3.29126E-13 2.57017E-14
 -1      2184 4.03303E+01 7.23206E+00 2.68329E-01-1.60428E-01-4.87776E-13 7.56964E-14
 -1      2185 4.05854E+01 6.77589E+00 3.39733E-01 8.53270E-01-5.09592E-13-3.00593E-14
 -1      2186 3.61707E+01 7.05727E+00 3.27918E-01-5.20999E-01-3.98959E-13 1.14575E-13
 -1      2187 3.95061E+01 6.06386E+00 2.91276E-01-1.37408E+00-4.17333E-13 2.39697E-13
 -1      2188 4.01645E+01 6.86754E+00 2.78286E-01-2.53399E-01-4.64018E-13 1.34920E-13
 -1      2189 3.54890E+01 3.62478E+00 9.65179E-02-2.61983E+00-2.18950E-13 3.32623E-13
 -1      2190 3.90162E+01 4.85693E+00 3.68593E-01-2.05630E+00-3.41810E-13 3.19300E-13
 -1      2191 3.58980E+01 5.84791E+00 3.26901E-01 4.58679E-01-3.75755E-13 2.78055E-13
 -1      2192 2.91586E+01-4.23023E-01-8.81504E-02-4.21551E+00-1.64396E-13 2.70228E-13
 -1      2193 3.34224E+01 1.23571E+00 2.02311E-01-3.67046E+00-1.70156E-13 2.95541E-13
 -1      2194 2.18993E+01-3.13534E+00-2.09333E-01-5.56654E+00-9.87543E-14 1.96509E-13
 -1      2195 2.68449E+01-1.35666E+00 1.21390E-01-5.75000E+00-1.41331E-13 1.56097E-13
 -1      2196 2.93399E+01-2.47373E+00 1.37783E-01-2.87335E+00-1.19349E-15 2.58682E-13
 -1      2197 1.30710E+01-5.62188E+00-3.26138E-01-5.93937E+00 1.72085E-13 3.83443E-13
 -1      2198 1.74428E+01-3.79516E+00-6.56379E-02-6.73280E+00-1.57652E-14 4.07674E-13
 -1      2199 5.38382E+00-7.02643E+00-4.44618E-01-4.57452E+00 8.88178E-15 3.19467E-13
 -1      2200 8.87392E+00-5.57058E+00-1.85236E-01-5.98528E+00 1.70974E-14 3.09891E-13
 -1      2201 1.18466E+00-7.57466E+00-4.66851E-01-2.26901E+00-1.47632E-13 1.85185E-13
 -1      2202 2.97923E+00-6.80172E+00-3.19244E-01-3.62240E+00-1.07359E-13 2.62429E-13
 -1      2203 6.04310E+00-5.43859E+00-1.77224E-01-5.25245E+00 8.93730E-15 2.34757E-13
 -1      2204 3.44617E+01 2.87076E+00 2.32865E-01 3.59514E+00 4.23876E-13-6.95000E-14
 -1      2205 3.02892E+01 1.17449E+00-3.00705E-02 3.97137E+00 3.56631E-13 6.86118E-14
 -1      2206 2.94338E+01-1.15734E+00 1.37011E-01 3.00883E+00 1.02113E-13 7.52731E-14
 -1      2207 2.07248E+01 1.10890E+00-2.01457E-02-1.58993E+00-1.72994E-13 1.17474E-13
 -1      2208 3.33126E+01 3.28489E+00 2.07903E-01 5.31456E-01 3.70037E-13 1.83187E-15
 -1      2209 2.06277E+01 1.33184E+00-1.90848E-02-1.64310E+00-1.80165E-13 2.16251E-14
 -1      2210 2.53594E+00-4.81536E+00-1.73099E-01 2.71959E+00-6.05904E-14 1.78690E-13
 -1      2211 1.47984E+01-5.50277E+00-6.67326E-02 7.02120E+00 8.34888E-14 1.40542E-13
 -1      2212 2.00068E+01 1.29881E-02 8.45390E-05-9.75031E-03 4.75832E-15-4.74233E-14
 -1      2213 2.10639E+00-4.83783E+00-1.90120E-01-1.85516E+00-6.82787E-14 2.65898E-13
 -1      2214 2.28110E+01-4.30989E+00 6.92065E-02 5.68741E+00-1.20792E-13 2.31010E-13
 -1      2215 2.24576E+01-4.81533E+00 1.09485E-02-5.59214E+00 1.19182E-13 1.47493E-13
 -1      2216 3.36186E+01 1.52389E+00 1.93022E-01-5.47813E-01-1.94997E-13 3.30791E-13
 -1      2217 3.65576E+01 7.67520E+00 2.89760E-01 1.61582E-01-5.83700E-13 1.25830E-13
 -1      2218 3.49991E+01 3.58501E+00 2.69510E-01 3.69179E-01-2.53159E-13 1.52600E-13
 -1      2219 2.42114E+01-3.79076E+00 1.47449E-02 5.18301E+00 4.83502E-14-2.53686E-13
 -1      2220 2.30584E+01-5.08184E+00 1.25015E-01 5.26762E+00 8.21010E-14-4.21885E-14
 -1      2221 2.68637E+01-4.22835E+00-1.54484E-01 3.54896E+00 1.33615E-13-1.46660E-13
 -1      2222 1.59423E+01-5.66644E+00-4.02920E-02 6.59448E+00-8.64309E-14 1.64452E-14
 -1      2223 8.50792E+00-5.76336E+00-1.75187E-01 5.95293E+00-7.32747E-15-2.06613E-13
 -1      2224 1.81703E+00-5.02113E+00-1.47907E-01-1.38531E+00 8.83876E-14-3.21965E-13
 -1      2225 3.65354E+00-3.17196E+00 8.58722E-03-2.84030E+00 3.47222E-14-3.94018E-13
 -1      2226 2.70293E+00-3.08134E+00 4.92220E-02-2.39526E-01 6.35308E-14-3.25406E-13
 -1      2227 1.25296E+01-5.56928E+00-1.01795E-01-6.90854E+00 1.31173E-13-2.88519E-13
 -1      2228 2.07671E+01-4.72627E+00 2.18330E-02-6.26382E+00 6.60583E-14-1.22902E-13
 -1      2229 2.77610E+01-2.18177E+00 1.13140E-01-3.93248E+00 4.19664E-14 1.22735E-13
 -1      2230 3.26271E+01 1.96566E+00 2.08780E-01-1.62564E+00 1.33921E-13 5.87308E-14
 -1      2231 3.50109E+01 6.01710E+00 2.68436E-01 2.84144E-03 3.00981E-13 1.34504E-13
 -1      2232 3.54094E+01 6.86419E+00 2.34212E-01-2.14768E-01 3.08198E-13 9.15934E-16
 -1      2233 3.63153E+01 8.08307E+00 3.36864E-01 6.23668E-02 2.28206E-13-6.41362E-14
 -1      2234 3.20267E+00-5.01980E+00-1.82394E-01 3.32209E+00-3.21132E-14-3.94074E-13
 -1      2235 1.32322E+01-5.78266E+00-9.44614E-02-6.53422E+00 1.00864E-13 2.59702E-13
 -1      2236 2.01693E+01 5.16974E-01 4.31832E-03 6.35336E-01 1.47927E-13 9.73557E-14
 -1      2237 2.04257E+01 7.07507E-01 2.08493E-02 9.31395E-01 1.72553E-13 1.18020E-13
 -1      2238 1.95620E+01 3.56985E+00-1.12915E-02-5.65913E-01-2.75290E-14-2.41441E-13
 -1      2239 1.96009E+01 3.52074E+00-1.03183E-02-7.44728E-01-5.24383E-14-2.43133E-13
 -1      2240 1.96508E+01 3.42621E+00-1.30429E-02-9.03845E-01-7.14085E-14-2.27275E-13
 -1      2241 1.97153E+01 3.34120E+00-1.26017E-02-1.08921E+00-1.00483E-13-2.16388E-13
 -1      2242 1.97899E+01 3.09181E+00 4.91660E-04-7.53921E-01-5.55277E-14-2.16522E-13
 -1      2243 1.95089E+01 3.65966E+00-9.57929E-03 9.56173E-02 4.94311E-14-2.55337E-13
 -1      2244 1.95083E+01 3.66055E+00-9.60103E-03-7.67912E-02 2.78202E-14-2.51446E-13
 -1      2245 1.95378E+01 3.61673E+00-9.59252E-03 4.26807E-01 8.00794E-14-2.50640E-13
 -1      2246 1.95185E+01 3.64112E+00-1.02094E-02 2.52598E-01 6.26936E-14-2.61277E-13
 -1      2247 1.96697E+01 3.29513E+00-4.34767E-04 1.60451E-01 5.31045E-14-2.38037E-13
 -1      2248 1.96053E+01 3.51256E+00-1.04034E-02 7.58312E-01 1.06277E-13-2.35213E-13
 -1      2249 1.95658E+01 3.56283E+00-1.13717E-02 5.82261E-01 8.95670E-14-2.50364E-13
 -1      2250 1.97107E+01 3.22581E+00-9.84893E-05 4.62717E-01 7.70037E-14-2.33798E-13
 -1      2251 1.97228E+01 3.32777E+00-1.26811E-02 1.10269E+00 1.58452E-13-1.63865E-13
 -1      2252 1.96566E+01 3.41549E+00-1.31091E-02 9.17105E-01 1.25786E-13-1.98311E-13
 -1      2253 1.97950E+01 3.08168E+00 5.53448E-04 7.65208E-01 1.12815E-13-1.94924E-13
 -1      2254 1.99067E+01 3.02950E+00-1.78615E-02 1.44559E+00 1.97204E-13-1.32259E-13
 -1      2255 1.98051E+01 3.17561E+00-1.54237E-02 1.25672E+00 1.69403E-13-1.51009E-13
 -1      2256 1.99324E+01 2.84275E+00 2.12560E-03 1.06294E+00 1.63353E-13-1.45266E-13
 -1      2257 2.01842E+01 2.55753E+00-2.81288E-02 1.75073E+00 2.30249E-13-6.00058E-14
 -1      2258 2.00342E+01 2.80157E+00-1.72706E-02 1.57579E+00 2.09703E-13-9.99843E-14
 -1      2259 2.01326E+01 2.47735E+00 5.95083E-03 1.32611E+00 1.95293E-13-9.90475E-14
 -1      2260 1.99170E+01 2.85249E-01 5.53227E-03 2.28373E-01 1.17469E-13 6.16846E-14
 -1      2261 2.00622E+01 3.81535E-01 2.02656E-02 3.92710E-01 1.34692E-13 8.94428E-14
 -1      2262 2.02389E+01 6.51521E-01-2.67134E-03 6.48692E-01 1.64087E-13 3.57184E-14
 -1      2263 2.04189E+01 8.66973E-01 1.26186E-02-9.53964E-01-1.39724E-13-2.55716E-14
 -1      2264 2.02204E+01 6.46407E-01-3.10478E-03-6.38241E-01-1.26246E-13-2.99806E-14
 -1      2265 3.15998E+01 3.36746E+00-1.67570E-01-7.74008E-01 3.28793E-13-4.35207E-14
 -1      2266 3.10147E+01 1.47751E+00-5.10432E-02-1.41914E-01 3.32845E-13-2.30926E-14
 -1      2267 2.01605E+01 4.91535E-01 1.55738E-02-4.11491E-01-1.14634E-13-2.08954E-14
 -1      2268 2.00370E+01 3.72420E-01 1.10172E-03-2.30236E-01-9.58782E-14-2.59262E-14
 -1      2269 2.02766E+01 7.74883E-01-1.80501E-03-6.25165E-01-1.20770E-13-8.07357E-14
 -1      2270 1.99838E+01 2.92904E-01 1.07155E-02-7.93733E-02-9.14978E-14-1.93382E-14
 -1      2271 1.99263E+01 2.28392E-01 1.89051E-03 3.23057E-02-8.65508E-14-2.88236E-14
 -1      2272 2.01338E+01 4.56254E-01-4.47036E-03-2.17900E-01-1.02037E-13-7.63231E-14
 -1      2273 1.98965E+01 1.85421E-01 6.37276E-03 1.33565E-01-8.16869E-14-2.65422E-14
 -1      2274 1.98897E+01 1.51302E-01 2.30281E-03 2.06535E-01-5.50494E-14-3.85052E-14
 -1      2275 2.00394E+01 2.85635E-01-4.22343E-03 5.62520E-02-7.50013E-14-5.64954E-14
 -1      2276 1.98826E+01 1.29426E-01 3.56996E-03 2.77714E-01-3.78992E-14-4.95273E-14
 -1      2277 1.99127E+01 1.14042E-01 2.66575E-03 3.30387E-01-4.02058E-14-4.18339E-14
 -1      2278 1.99988E+01 1.93694E-01-3.59636E-03 2.44312E-01-6.19823E-14-6.74333E-14
 -1      2279 1.99250E+01 1.05562E-01 1.83949E-03 3.85904E-01-4.72888E-14-4.92430E-14
 -1      2280 1.99833E+01 1.02626E-01 3.08159E-03 4.29926E-01-2.98961E-14-4.34400E-14
 -1      2281 2.00042E+01 1.50827E-01-2.88127E-03 3.82781E-01-3.94411E-14-4.79379E-14
 -1      2282 2.00116E+01 1.03390E-01 7.41442E-04 4.79861E-01-2.87425E-14-6.33481E-14
 -1      2283 2.00933E+01 1.09318E-01 3.57688E-03 5.23150E-01-2.75813E-14-8.96344E-14
 -1      2284 2.00474E+01 1.40201E-01-2.29017E-03 4.97526E-01-4.39361E-14-1.08975E-13
 -1      2285 2.01349E+01 1.16742E-01 3.07534E-05 5.74817E-01-6.54538E-14-6.94087E-14
 -1      2286 2.02381E+01 1.29073E-01 4.14336E-03 6.22944E-01-9.59363E-14-9.84508E-14
 -1      2287 2.01214E+01 1.52251E-01-1.85176E-03 6.07052E-01-5.34000E-14-1.15347E-13
 -1      2288 2.02915E+01 1.41080E-01-4.29214E-04 6.81592E-01-9.02974E-14-8.97293E-14
 -1      2289 2.04163E+01 1.57509E-01 4.73045E-03 7.38275E-01-6.72226E-14-1.14955E-13
 -1      2290 2.02219E+01 1.80366E-01-1.53909E-03 7.24706E-01-9.87054E-14-8.08186E-14
 -1      2291 2.04810E+01 1.71739E-01-7.03199E-04 8.07282E-01-1.62420E-14-1.10111E-13
 -1      2292 2.06285E+01 1.89220E-01 5.22926E-03 8.74243E-01-2.34034E-14-1.04440E-13
 -1      2293 2.03464E+01 2.18358E-01-1.32906E-03 8.59627E-01-6.30663E-14-9.99624E-14
 -1      2294 2.07051E+01 2.02144E-01-7.85696E-04 9.54807E-01-6.55644E-14-6.93325E-14
 -1      2295 2.08770E+01 2.15759E-01 5.44837E-03 1.03099E+00-3.45514E-14-7.05667E-15
 -1      2296 2.04946E+01 2.58150E-01-1.24205E-03 1.01669E+00-1.39388E-14-8.58230E-14
 -1      2297 2.09683E+01 2.21471E-01-5.77539E-04 1.12120E+00-8.19657E-16-5.39620E-14
 -1      2298 2.11659E+01 2.22885E-01 5.08404E-03 1.20119E+00 2.45782E-14-8.45938E-14
 -1      2299 2.06686E+01 2.86956E-01-1.38808E-03 1.19539E+00-2.93407E-14-4.43126E-14
 -1      2300 2.12782E+01 2.11527E-01 1.58151E-04 1.29434E+00 1.64763E-14-6.53604E-14
 -1      2301 2.15023E+01 1.87136E-01 3.69270E-03 1.36585E+00 4.01497E-14-7.01690E-14
 -1      2302 2.08752E+01 2.83528E-01-2.03209E-03 1.38741E+00 1.09572E-14-1.20782E-13
 -1      2303 2.16485E+01 1.43294E-01 1.84336E-03 1.44762E+00-1.10968E-14-9.80520E-14
 -1      2304 2.18988E+01 7.28977E-02 6.82156E-04 1.48819E+00-5.49072E-14-1.38737E-13
 -1      2305 2.11296E+01 2.13826E-01-3.66104E-03 1.57252E+00 6.44004E-15-1.20945E-13
 -1      2306 2.21026E+01-2.44785E-02 5.05592E-03 1.53248E+00-3.63729E-14-1.49056E-13
 -1      2307 2.23763E+01-1.65736E-01-4.71421E-03 1.50642E+00-9.06831E-14-1.37117E-13
 -1      2308 2.14618E+01 2.82961E-02-6.97523E-03 1.71229E+00-7.51047E-14-1.19514E-13
 -1      2309 2.26747E+01-3.37927E-01 1.00476E-02 1.46980E+00-8.54080E-14-1.29957E-13
 -1      2310 2.29644E+01-5.66987E-01-1.28275E-02 1.32831E+00-3.61044E-14-9.23693E-14
 -1      2311 2.19249E+01-3.32298E-01-1.26618E-02 1.74107E+00-8.82743E-14-1.45541E-13
 -1      2312 2.33993E+01-8.15662E-01 1.62665E-02 1.14785E+00-1.51712E-14-1.06823E-13
 -1      2313 2.36840E+01-1.11166E+00-2.29279E-02 8.41472E-01 3.22659E-14-6.76030E-14
 -1      2314 2.25943E+01-9.04263E-01-1.98739E-02 1.55607E+00-2.14672E-14-1.23569E-13
 -1      2315 2.42737E+01-1.38116E+00 1.91073E-02 4.42920E-01 8.63953E-14-7.55212E-14
 -1      2316 2.45051E+01-1.62558E+00-3.09234E-02-4.54645E-02 1.25735E-13 1.44847E-14
 -1      2317 2.35415E+01-1.62647E+00-2.50135E-02 1.02057E+00 6.98645E-14-4.72922E-14
 -1      2318 2.51663E+01-1.73887E+00 7.24757E-03-6.93105E-01 1.43574E-13 4.78784E-14
 -1      2319 2.52688E+01-1.66326E+00-2.49995E-02-1.27341E+00 1.51072E-13-1.42657E-14
 -1      2320 2.47477E+01-2.19863E+00-2.31452E-02 1.45045E-03 1.36404E-13 5.72220E-15
 -1      2321 2.57425E+01-1.33589E+00-3.16790E-02-1.98829E+00 1.13229E-13 7.74467E-15
 -1      2322 2.56689E+01-6.81444E-01-6.08180E-03-2.37270E+00 6.25663E-14 7.53668E-14
 -1      2323 2.59378E+01-1.95059E+00-1.08132E-02-1.42188E+00 1.42550E-13-1.27398E-14
 -1      2324 2.56681E+01 2.34383E-01-9.36433E-02-2.67697E+00-1.44676E-14 4.12422E-14
 -1      2325 2.54350E+01 1.31486E+00-1.87106E-02-2.45095E+00-6.41362E-14 1.10309E-13
 -1      2326 2.66102E+01-3.04658E-01-1.63181E-02-2.63651E+00-2.07612E-14-5.06262E-14
 -1      2327 2.51935E+01 2.29900E+00-9.58613E-02-1.81878E+00-1.27162E-13-3.09414E-14
 -1      2328 2.50333E+01 2.97185E+00-3.89549E-02-9.34838E-01-1.03473E-13-1.63331E-13
 -1      2329 2.64846E+01 2.19168E+00-7.48540E-02-2.32958E+00-1.46202E-13-1.68351E-13
 -1      2330 2.49782E+01 3.12336E+00-5.75239E-02 3.63151E-01-2.00104E-13-3.19434E-13
 -1      2331 2.50530E+01 2.69977E+00-1.03297E-01 1.34565E+00-2.69715E-13-4.06012E-13
 -1      2332 2.62590E+01 3.94724E+00-1.00717E-01-3.34064E-01-2.25320E-13-4.91125E-13
 -1      2333 2.53561E+01 1.86247E+00-3.38067E-03 2.23888E+00-1.36717E-13-4.47396E-13
 -1      2334 2.56109E+01 7.59296E-01-8.62305E-02 2.65127E+00-1.02862E-13-3.93849E-13
 -1      2335 2.64493E+01 2.97656E+00-5.97327E-02 2.06435E+00-2.95486E-13-5.93733E-13
 -1      2336 2.56371E+01-2.46146E-01-2.10688E-02 2.52352E+00-6.70852E-14-3.24539E-13
 -1      2337 2.57939E+01-1.02108E+00-4.71215E-02 2.28966E+00 2.59931E-14-2.60387E-13
 -1      2338 2.66070E+01 2.73460E-01-8.62815E-02 2.74427E+00-6.33799E-14-4.70637E-13
 -1      2339 2.54424E+01-1.53361E+00-1.99962E-02 1.59939E+00 4.34427E-14-3.28473E-13
 -1      2340 2.53679E+01-1.73215E+00-1.63661E-03 1.03200E+00 7.49331E-14-3.04094E-13
 -1      2341 2.62087E+01-1.72038E+00-7.95303E-04 1.81889E+00-1.61520E-14-4.76855E-13
 -1      2342 2.47383E+01-1.68875E+00-2.81859E-02 3.57181E-01 1.36128E-13-2.61668E-13
 -1      2343 2.45302E+01-1.50274E+00 1.65324E-02-1.69391E-01 1.12718E-13-2.69645E-13
 -1      2344 2.50719E+01-2.21258E+00-1.80148E-02 3.53874E-01 1.11420E-13-3.52103E-13
 -1      2345 2.39114E+01-1.24900E+00-2.63943E-02-6.31543E-01 7.07923E-14-2.39298E-13
 -1      2346 2.36403E+01-9.47332E-01 1.76090E-02-9.81186E-01 7.22959E-14-1.47390E-13
 -1      2347 2.38487E+01-1.79706E+00-2.72769E-02-7.82460E-01 8.04285E-14-2.24215E-13
 -1      2348 2.31691E+01-6.82508E-01-1.52561E-02-1.20509E+00 5.93913E-14-1.17998E-13
 -1      2349 2.28850E+01-4.29926E-01 1.20667E-02-1.37912E+00 1.03152E-13 3.05029E-15
 -1      2350 2.28317E+01-1.06440E+00-2.17969E-02-1.42443E+00 1.22147E-13-3.76357E-14
 -1      2351 2.25607E+01-2.35577E-01-6.42085E-03-1.43910E+00 6.25702E-14 4.38254E-14
 -1      2352 2.22911E+01-7.12305E-02 6.58180E-03-1.48330E+00 5.63490E-14 1.48815E-13
 -1      2353 2.21064E+01-4.37296E-01-1.43993E-02-1.67181E+00 1.04594E-13 5.92274E-14
 -1      2354 2.20732E+01 4.47981E-02-4.24486E-04-1.44722E+00 5.00457E-14 2.05811E-13
 -1      2355 2.18282E+01 1.32493E-01 2.96812E-03-1.41236E+00 6.96358E-14 2.16478E-13
 -1      2356 2.16099E+01-2.04179E-02-8.26435E-03-1.67152E+00 7.17489E-14 1.66726E-13
 -1      2357 2.16770E+01 1.89193E-01 3.09894E-03-1.32849E+00-3.43444E-14 1.53954E-13
 -1      2358 2.14603E+01 2.24813E-01 1.00996E-03-1.25387E+00-1.29097E-13 6.89010E-16
 -1      2359 2.12637E+01 2.08003E-01-4.40928E-03-1.53569E+00-3.84919E-14 1.68409E-13
 -1      2360 2.13488E+01 2.44058E-01 4.81833E-03-1.15222E+00-2.03708E-13-1.89969E-14
 -1      2361 2.11613E+01 2.49229E-01 1.15655E-04-1.06354E+00-2.34592E-13 1.65188E-14
 -1      2362 2.10086E+01 3.05858E-01-2.39981E-03-1.33853E+00-1.43908E-13 2.01867E-14
 -1      2363 2.10743E+01 2.47771E-01 5.36310E-03-9.61216E-01-3.07072E-13 1.56338E-13
 -1      2364 2.09155E+01 2.37427E-01-2.01996E-04-8.73315E-01-1.92897E-13 1.51416E-13
 -1      2365 2.08091E+01 3.25817E-01-1.51159E-03-1.12481E+00-1.86078E-13 1.74151E-13
 -1      2366 2.08447E+01 2.26082E-01 5.21411E-03-7.79173E-01-3.13699E-14 8.06145E-14
 -1      2367 2.07130E+01 2.09289E-01-2.48398E-04-6.99500E-01 3.81493E-14 1.63382E-13
 -1      2368 2.06465E+01 3.05029E-01-1.18174E-03-9.19575E-01-1.10823E-13 2.65651E-13
 -1      2369 2.06546E+01 1.94331E-01 4.70494E-03-6.17389E-01 6.78387E-14 7.96670E-15
 -1      2370 2.05474E+01 1.76084E-01-1.90189E-04-5.48907E-01 7.37236E-14-3.41607E-14
 -1      2371 2.05115E+01 2.66463E-01-1.07570E-03-7.35301E-01-2.07773E-14 5.94632E-14
 -1      2372 2.04992E+01 1.60836E-01 4.04836E-03-4.79796E-01 1.09643E-13-1.43261E-13
 -1      2373 2.04135E+01 1.43626E-01-1.07984E-04-4.22961E-01 4.70500E-15-4.76540E-14
 -1      2374 2.03993E+01 2.23031E-01-1.02872E-03-5.76839E-01 6.21003E-14-1.30816E-13
 -1      2375 2.03742E+01 1.29667E-01 3.36940E-03-3.66276E-01-3.09875E-14 7.97148E-14
 -1      2376 2.03069E+01 1.14560E-01-3.47988E-05-3.20275E-01-1.55545E-13 2.90919E-13
 -1      2377 2.03069E+01 1.81332E-01-9.74629E-04-4.44659E-01 5.50885E-14-2.39662E-14
 -1      2378 2.02752E+01 1.02509E-01 2.73445E-03-2.74709E-01-1.43518E-13 4.66808E-13
 -1      2379 2.02233E+01 8.98141E-02 1.97890E-05-2.38186E-01 8.74806E-14 5.70882E-13
 -1      2380 2.02317E+01 1.44320E-01-8.96183E-04-3.36917E-01 7.36830E-14 3.04209E-13
 -1      2381 2.01982E+01 7.97961E-02 2.17338E-03-2.02157E-01 2.60462E-14 5.05589E-13
 -1      2382 2.01589E+01 6.94552E-02 5.62768E-05-1.73601E-01 5.74652E-14 3.84644E-13
 -1      2383 2.01717E+01 1.12971E-01-7.96548E-04-2.50711E-01 4.38211E-14 4.57377E-13
 -1      2384 2.01393E+01 6.13630E-02 1.69511E-03-1.45510E-01 1.62165E-13 3.42082E-13
 -1      2385 2.01101E+01 5.31540E-02 7.85278E-05-1.23459E-01 1.48086E-13 2.12488E-13
 -1      2386 2.01245E+01 8.72711E-02-6.84510E-04-1.82802E-01 3.82265E-14 1.19819E-13
 -1      2387 2.00950E+01 4.67811E-02 1.29772E-03-1.01814E-01 9.09054E-14 2.85964E-13
 -1      2388 2.00738E+01 4.04135E-02 8.77373E-05-8.49482E-02 1.18885E-13 3.68033E-13
 -1      2389 2.00880E+01 6.67524E-02-5.67452E-04-1.30020E-01 1.42265E-13 2.37462E-13
 -1      2390 2.00623E+01 3.54932E-02 9.71118E-04-6.84393E-02 1.30605E-14 3.16861E-13
 -1      2391 2.00473E+01 3.06616E-02 9.68544E-05-5.56580E-02-8.64765E-14 2.74437E-13
 -1      2392 2.00602E+01 5.07239E-02-4.53551E-04-8.94645E-02-7.16073E-14 4.15261E-13
 -1      2393 2.00385E+01 2.67787E-02 6.73450E-04-4.31596E-02-2.43638E-13 6.64241E-14
 -1      2394 2.00283E+01 2.32869E-02 1.81662E-04-3.36531E-02-3.29989E-13-5.26031E-15
 -1      2395 2.00392E+01 3.84630E-02-3.32893E-04-5.86564E-02-2.01025E-13 6.48874E-14
 -1      2396 1.06990E+01-4.07005E+00 7.75369E-02 6.71594E+00 7.06935E-14-3.51941E-14
 -1      2397 7.81759E+00-3.74280E+00 8.78276E-02 5.64337E+00 8.48766E-14-2.26208E-14
 -1      2398 1.97472E+01 1.05247E-01 3.39335E-03-1.73014E-01 5.42650E-14-2.68162E-14
 -1      2399 1.97470E+01 1.32452E-01 7.17666E-03-1.12810E-01 5.01407E-14 5.70952E-15
 -1      2400 1.97824E+01 7.27470E-02 2.96248E-03-2.76114E-01 7.53067E-14-5.31133E-14
 -1      2401 1.97429E+01 8.65804E-02 4.04932E-03-2.35475E-01 6.22221E-14-4.14998E-14
 -1      2402 1.98883E+01 1.38536E-01-3.85405E-03-2.11443E-01 7.25123E-14-6.73463E-14
 -1      2403 1.98706E+01 5.78603E-02 2.81382E-03-3.51558E-01 9.07373E-14-6.45791E-14
 -1      2404 1.98033E+01 6.36734E-02 2.28557E-03-3.20713E-01 8.42633E-14-7.18557E-14
 -1      2405 1.99059E+01 9.77998E-02-3.12079E-03-3.30926E-01 8.23238E-14-8.21207E-14
 -1      2406 2.00000E+01 5.34572E-02 2.78286E-03-4.14171E-01 5.50954E-14-5.64269E-14
 -1      2407 1.99113E+01 5.45132E-02 1.28830E-03-3.87313E-01 5.55083E-14-4.48434E-14
 -1      2408 1.99689E+01 7.97466E-02-2.50563E-03-4.21066E-01 5.17190E-14-8.84784E-14
 -1      2409 2.01636E+01 5.44686E-02 2.75679E-03-4.72679E-01-1.62121E-14 9.88478E-15
 -1      2410 2.00571E+01 5.32716E-02 7.39404E-04-4.46606E-01 3.41224E-14 1.71806E-14
 -1      2411 2.00683E+01 7.48845E-02-2.08687E-03-4.97520E-01 3.59882E-15-3.39153E-14
 -1      2412 2.03576E+01 5.62662E-02 2.61526E-03-5.30901E-01 4.82360E-14-3.36275E-14
 -1      2413 2.02353E+01 5.52349E-02 4.68251E-04-5.04598E-01 2.02085E-14-9.19482E-15
 -1      2414 2.01985E+01 7.61503E-02-1.84182E-03-5.69338E-01 1.73763E-14-1.52681E-14
 -1      2415 2.05799E+01 5.37349E-02 2.20652E-03-5.87872E-01 1.08262E-13-7.11827E-14
 -1      2416 2.04432E+01 5.56370E-02 3.76816E-04-5.62580E-01 7.43162E-14-7.12924E-14
 -1      2417 2.03568E+01 7.68616E-02-1.72961E-03-6.40010E-01 7.52103E-14-4.31285E-14
 -1      2418 2.08280E+01 4.06777E-02 1.34391E-03-6.37252E-01 1.66079E-13-6.85193E-14
 -1      2419 2.06795E+01 4.89034E-02 4.05428E-04-6.16839E-01 1.54037E-13-5.22388E-14
 -1      2420 2.05424E+01 6.95067E-02-1.71763E-03-7.07435E-01 1.22488E-13-4.61332E-14
 -1      2421 2.10982E+01 9.63793E-03-1.75753E-04-6.66374E-01 1.03845E-13-5.75328E-14
 -1      2422 2.09422E+01 2.82218E-02 5.18322E-04-6.57810E-01 1.23065E-13-4.09527E-14
 -1      2423 2.07555E+01 4.50434E-02-1.78347E-03-7.63225E-01 1.08181E-13-3.26610E-15
 -1      2424 2.13830E+01-4.74034E-02-2.51773E-03-6.55439E-01 2.85726E-14-3.17758E-15
 -1      2425 2.12274E+01-1.42994E-02 6.87047E-04-6.69070E-01 1.01383E-13 3.15342E-14
 -1      2426 2.09966E+01-7.06116E-03-1.89894E-03-7.91669E-01 7.37197E-14 4.39640E-14
 -1      2427 2.16699E+01-1.36607E-01-5.69476E-03-5.77931E-01-5.28813E-14 2.54621E-14
 -1      2428 2.15270E+01-8.62409E-02 8.61251E-04-6.26903E-01-1.60045E-14 3.92904E-14
 -1      2429 2.12654E+01-9.73128E-02-1.99617E-03-7.68983E-01-1.09656E-15 1.46131E-13
 -1      2430 2.19389E+01-2.56988E-01-9.36525E-03-4.04097E-01 1.02157E-13-6.52255E-14
 -1      2431 2.18259E+01-1.91229E-01 9.13546E-04-5.01899E-01 8.71265E-16-2.44907E-14
 -1      2432 2.15584E+01-2.31910E-01-1.89285E-03-6.64089E-01 3.50218E-14 8.48148E-14
 -1      2433 2.21603E+01-3.91625E-01-1.25548E-02-1.10268E-01 2.48941E-14 9.73960E-15
 -1      2434 2.20986E+01-3.21935E-01 5.59747E-04-2.65050E-01 1.02346E-13-4.77569E-15
 -1      2435 2.18656E+01-4.04211E-01-1.18587E-03-4.43111E-01 5.98133E-14 2.22345E-14
 -1      2436 2.22931E+01-4.97643E-01-1.34716E-02 3.03142E-01-1.49026E-14 1.79193E-14
 -1      2437 2.23051E+01-4.50029E-01-6.65897E-04 9.82953E-02 3.74362E-14 3.80147E-14
 -1      2438 2.21627E+01-5.81918E-01 7.67754E-04-8.11167E-02-9.35493E-15 8.55092E-14
 -1      2439 2.22897E+01-5.03919E-01-1.00212E-02 7.85628E-01-1.11793E-13 7.15552E-15
 -1      2440 2.23907E+01-5.18024E-01-3.23016E-03 5.64647E-01-7.50129E-14 1.10972E-14
 -1      2441 2.24038E+01-6.95310E-01 4.49264E-03 4.15178E-01-7.05221E-14 1.50685E-13
 -1      2442 2.21124E+01-3.33133E-01-1.13229E-03 1.21451E+00-5.03512E-14 5.85729E-15
 -1      2443 2.22980E+01-4.46708E-01-7.29059E-03 1.04415E+00-8.04851E-14 7.43980E-16
 -1      2444 2.25194E+01-6.41985E-01 9.15089E-03 9.74712E-01-5.26521E-14 5.32838E-14
 -1      2445 2.17669E+01 3.98363E-02 1.03634E-02 1.40288E+00 7.09728E-14-5.19008E-14
 -1      2446 2.20022E+01-1.72965E-01-1.06680E-02 1.37023E+00 2.34884E-14-3.67800E-14
 -1      2447 2.24392E+01-3.31304E-01 1.13876E-02 1.43617E+00-3.46034E-15-7.63816E-14
 -1      2448 2.13472E+01 5.15877E-01 1.75097E-02 1.17997E+00 4.51028E-16 5.11834E-14
 -1      2449 2.15641E+01 2.72822E-01-1.07967E-02 1.34494E+00 3.10941E-14 3.95569E-14
 -1      2450 2.21511E+01 2.27513E-01 6.56101E-03 1.56804E+00-1.11840E-14-5.43292E-14
 -1      2451 2.10342E+01 8.68980E-01 1.47658E-02 5.22904E-01-4.71819E-14 1.01608E-13
 -1      2452 2.11558E+01 7.23397E-01-2.42011E-03 8.62555E-01-2.90627E-14 1.18885E-13
 -1      2453 2.17707E+01 8.40358E-01-8.31184E-03 1.18448E+00-3.43918E-14 1.14876E-13
 -1      2454 2.10015E+01 9.01351E-01 5.02213E-03-3.46402E-01-7.12902E-14 2.90544E-14
 -1      2455 2.09773E+01 9.33282E-01 9.69079E-03 4.58798E-02-6.26261E-14 1.07715E-13
 -1      2456 2.15321E+01 1.22998E+00-1.06137E-02 3.31917E-01-7.06978E-14 1.54486E-13
 -1      2457 2.12803E+01 5.86519E-01-6.33144E-03-1.08099E+00 1.14966E-13 8.82541E-16
 -1      2458 2.11208E+01 7.81328E-01 1.84540E-02-7.91458E-01 3.59244E-14-4.60248E-14
 -1      2459 2.15833E+01 1.13832E+00-1.32083E-02-6.64537E-01 7.82248E-14 4.58954E-15
 -1      2460 2.17291E+01 1.15516E-01-1.04519E-02-1.41155E+00 2.05804E-13 5.59166E-14
 -1      2461 2.14948E+01 3.57549E-01 1.65372E-02-1.31416E+00 1.57287E-13 8.25945E-15
 -1      2462 2.19032E+01 6.50667E-01-7.04489E-04-1.38425E+00 9.07195E-14 1.94520E-14
 -1      2463 2.21397E+01-2.81547E-01-8.64960E-03-1.30427E+00 9.69975E-14 9.41161E-14
 -1      2464 2.19096E+01-1.01834E-01 6.26953E-03-1.38811E+00 1.89958E-13 1.36803E-13
 -1      2465 2.22766E+01 2.34462E-02 9.08610E-03-1.58606E+00 1.79614E-13-3.86149E-15
 -1      2466 2.23768E+01-4.82529E-01-4.36341E-03-9.10626E-01 4.62139E-14 1.82877E-13
 -1      2467 2.22100E+01-4.08271E-01-4.89261E-03-1.10000E+00 1.33487E-14 1.44672E-13
 -1      2468 2.25050E+01-4.61240E-01 1.06136E-02-1.32239E+00 6.41349E-14 1.73507E-14
 -1      2469 2.24139E+01-4.97212E-01-9.26065E-04-4.27241E-01-9.06840E-14 3.41192E-13
 -1      2470 2.23353E+01-5.10379E-01-1.16358E-02-6.40266E-01 4.69789E-14 2.97676E-13
 -1      2471 2.25207E+01-6.77545E-01 7.00052E-03-8.11065E-01-1.99218E-14 1.67618E-13
 -1      2472 2.22931E+01-3.99771E-01 8.77934E-04 2.85381E-03-8.94940E-14 2.46528E-13
 -1      2473 2.22987E+01-4.59180E-01-1.31218E-02-1.78913E-01-5.80499E-14 2.96654E-13
 -1      2474 2.23626E+01-6.60499E-01 2.34624E-03-2.67591E-01-7.75966E-14 2.49284E-13
 -1      2475 2.20747E+01-2.64627E-01 1.45108E-03 3.14403E-01-1.20865E-13 8.30671E-14
 -1      2476 2.21453E+01-3.35029E-01-1.11003E-02 1.86795E-01-7.58039E-14 1.84621E-13
 -1      2477 2.21069E+01-5.12256E-01-6.41976E-04 1.77247E-01 3.57071E-15 1.41240E-13
 -1      2478 2.18096E+01-1.38847E-01 1.43389E-03 4.99404E-01 1.23707E-14-1.01446E-14
 -1      2479 2.19218E+01-2.00110E-01-7.67881E-03 4.26576E-01-1.17375E-13-3.13745E-14
 -1      2480 2.18163E+01-3.27264E-01-1.95835E-03 4.77956E-01-2.44169E-14 1.37005E-14
 -1      2481 2.15333E+01-4.27188E-02 1.23343E-03 5.79207E-01-4.74523E-15 4.05163E-14
 -1      2482 2.16661E+01-8.74608E-02-4.24880E-03 5.50693E-01-2.86110E-14-6.07110E-15
 -1      2483 2.15290E+01-1.61963E-01-2.24092E-03 6.41475E-01-8.08413E-14-4.79825E-14
 -1      2484 2.12676E+01 2.08438E-02 1.03575E-03 5.84105E-01 1.55543E-13 2.79809E-13
 -1      2485 2.14051E+01-7.50741E-03-1.48427E-03 5.86465E-01 6.91908E-14 1.70125E-13
 -1      2486 2.12638E+01-3.87939E-02-2.10096E-03 6.97671E-01-4.75003E-14 1.30291E-13
 -1      2487 2.10252E+01 5.70270E-02 8.88343E-04 5.42374E-01 2.53898E-13 3.94403E-13
 -1      2488 2.11563E+01 4.17958E-02 4.43759E-04 5.63449E-01 2.89054E-13 4.52156E-13
 -1      2489 2.10280E+01 4.08363E-02-1.86226E-03 6.80606E-01 1.02548E-13 2.81510E-13
 -1      2490 2.08122E+01 7.32799E-02 7.83125E-04 4.76134E-01 4.23273E-16 3.94157E-13
 -1      2491 2.09304E+01 6.72839E-02 1.61392E-03 5.06596E-01 1.65942E-13 4.04976E-13
 -1      2492 2.08235E+01 8.48330E-02-1.64268E-03 6.19790E-01 2.30175E-13 5.20390E-13
 -1      2493 2.06305E+01 7.64953E-02 7.01343E-04 4.00826E-01-6.90252E-14 2.53393E-13
 -1      2494 2.07327E+01 7.63598E-02 2.19678E-03 4.34285E-01-7.58087E-14 3.59527E-13
 -1      2495 2.06495E+01 1.03330E-01-1.46138E-03 5.37468E-01 5.18943E-14 4.74502E-13
 -1      2496 2.04795E+01 7.20372E-02 6.28886E-04 3.26237E-01-1.99731E-13 1.52473E-13
 -1      2497 2.05649E+01 7.52236E-02 2.37148E-03 3.58734E-01-6.16382E-14 2.18335E-13
 -1      2498 2.05039E+01 1.05390E-01-1.30632E-03 4.48825E-01-1.10969E-13 2.94231E-13
 -1      2499 2.03569E+01 6.36782E-02 5.59533E-04 2.57919E-01-2.09061E-13 2.48200E-13
 -1      2500 2.04263E+01 6.84422E-02 2.28938E-03 2.87282E-01-3.29252E-13 1.28234E-13
 -1      2501 2.03842E+01 9.79542E-02-1.16260E-03 3.63294E-01-2.12875E-13 2.95567E-13
 -1      2502 2.02596E+01 5.38804E-02 4.92188E-04 1.98495E-01-3.59715E-14 6.33344E-13
 -1      2503 2.03144E+01 5.91068E-02 2.06426E-03 2.23770E-01-1.06469E-14 4.88332E-13
 -1      2504 2.02876E+01 8.58513E-02-1.02218E-03 2.86085E-01-2.88013E-13 3.78778E-13
 -1      2505 2.01839E+01 4.41414E-02 4.28119E-04 1.48703E-01 6.81859E-14 5.10463E-13
 -1      2506 2.02262E+01 4.91672E-02 1.77456E-03 1.69705E-01 7.36606E-14 5.99086E-13
 -1      2507 2.02108E+01 7.22043E-02-8.83580E-04 2.19512E-01 5.18156E-15 7.08690E-13
 -1      2508 2.01264E+01 3.53007E-02 3.68625E-04 1.08151E-01 6.14682E-14 4.95976E-13
 -1      2509 2.01582E+01 3.97660E-02 1.46996E-03 1.25144E-01 2.77900E-14 6.29702E-13
 -1      2510 2.01510E+01 5.88944E-02-7.48509E-04 1.64034E-01 2.56766E-15 5.61752E-13
 -1      2511 2.00837E+01 2.77703E-02 3.13358E-04 7.58321E-02-3.39515E-15 6.26438E-13
 -1      2512 2.01069E+01 3.15103E-02 1.17842E-03 8.93177E-02 4.97758E-14 5.87687E-13
 -1      2513 2.01052E+01 4.69565E-02-6.20496E-04 1.19017E-01-7.89181E-14 5.34352E-13
 -1      2514 2.00528E+01 2.16810E-02 2.73127E-04 5.04786E-02 1.35143E-13 4.82128E-13
 -1      2515 2.00692E+01 2.46662E-02 9.16581E-04 6.10456E-02 2.69959E-14 5.75412E-13
 -1      2516 2.00709E+01 3.68736E-02-4.99035E-04 8.32455E-02 5.60460E-14 6.64408E-13
 -1      2517 2.00310E+01 1.67782E-02 2.07311E-04 3.07817E-02 2.12817E-13 4.22561E-13
 -1      2518 2.00421E+01 1.91870E-02 6.79975E-04 3.89783E-02 1.60239E-13 3.84648E-13
 -1      2519 2.00454E+01 2.87375E-02-3.98482E-04 5.53340E-02 2.07826E-13 3.76173E-13
 -1      2520 2.00160E+01 1.26449E-02 1.42445E-04 1.59657E-02 5.82061E-14 4.97200E-13
 -1      2521 2.00233E+01 1.47272E-02 5.06421E-04 2.21301E-02 9.36352E-14 5.30057E-13
 -1      2522 2.00270E+01 2.17748E-02-3.92568E-04 3.37217E-02 7.89250E-14 3.05844E-13
 -1      2523 2.00103E+01 1.00422E-02 2.95464E-04 9.32326E-03 2.91666E-14 5.21981E-13
 -1      2524 1.99934E+01 7.22298E-02-3.89228E-04 3.18318E-02-8.67779E-14-4.14640E-13
 -1      2525 1.99973E+01 6.58061E-02 1.78535E-04 3.36898E-02 1.45365E-14-7.57386E-13
 -1      2526 1.99871E+01 8.50019E-02-3.99401E-04 2.34639E-02 8.51826E-15 1.21487E-13
 -1      2527 1.99901E+01 8.01263E-02 4.43353E-05 2.77623E-02-9.46675E-14-2.15373E-13
 -1      2528 1.99892E+01 8.64277E-02 2.78725E-04 3.58273E-02-1.17309E-14-2.40731E-13
 -1      2529 2.00082E+01 3.94409E-02-2.24706E-04 3.12962E-02 1.68496E-13 3.87225E-13
 -1      2530 2.00114E+01 3.26304E-02 2.92719E-04 2.81945E-02-8.65219E-15 5.52304E-13
 -1      2531 2.00010E+01 5.63363E-02-3.24184E-04 3.45747E-02-2.47184E-14-4.51280E-13
 -1      2532 2.00050E+01 4.93694E-02 2.77186E-04 3.37424E-02 2.26546E-14 5.02794E-15
 -1      2533 2.00088E+01 5.09238E-02 1.30714E-04 4.00845E-02-1.49309E-15 6.69303E-14
 -1      2534 1.99988E+01 6.96598E-02 1.60246E-04 4.13837E-02 8.19685E-14-5.79867E-13
 -1      2535 1.99832E+01 9.28822E-02-3.52886E-04 1.09419E-02-2.22767E-13-3.82920E-13
 -1      2536 1.99849E+01 9.02462E-02-1.06763E-04 1.69005E-02-4.58155E-14-1.16895E-13
 -1      2537 1.99817E+01 9.91026E-02 3.73369E-04 2.41896E-02-2.18325E-13 4.64062E-14
 -1      2538 1.99825E+01 9.48034E-02-2.54910E-04-3.54159E-03-5.38653E-13-2.31653E-13
 -1      2539 1.99825E+01 9.48020E-02-2.44482E-04 3.00562E-03-4.04175E-13-3.12545E-13
 -1      2540 1.99776E+01 1.06018E-01 4.27749E-04 8.41593E-03-3.29628E-13-4.29829E-13
 -1      2541 1.99849E+01 9.04760E-02-1.21272E-04-1.74459E-02-4.33186E-13-2.47941E-13
 -1      2542 1.99833E+01 9.31313E-02-3.45100E-04-1.14946E-02-5.76166E-13-1.51808E-13
 -1      2543 1.99776E+01 1.06273E-01 4.33153E-04-8.85244E-03-4.08251E-13-2.18862E-13
 -1      2544 1.99902E+01 8.06995E-02 3.47017E-05-2.81522E-02-2.75011E-13-2.46829E-13
 -1      2545 1.99872E+01 8.54970E-02-3.99724E-04-2.39343E-02-2.87526E-13-3.78613E-13
 -1      2546 1.99818E+01 9.98671E-02 3.96137E-04-2.45813E-02-3.10821E-13-1.97615E-13
 -1      2547 1.99976E+01 6.63925E-02 1.71319E-04-3.40552E-02-6.60547E-14 3.22967E-13
 -1      2548 1.99936E+01 7.28635E-02-3.97351E-04-3.22478E-02-1.36522E-13-1.97208E-13
 -1      2549 1.99894E+01 8.75374E-02 3.00308E-04-3.62204E-02-1.56527E-13-6.94161E-14
 -1      2550 2.00055E+01 4.94746E-02 2.33729E-04-3.38297E-02 4.27236E-14 4.32674E-13
 -1      2551 2.00015E+01 5.67823E-02-3.09259E-04-3.49106E-02-1.99049E-13 7.22231E-13
 -1      2552 1.99992E+01 7.06909E-02 1.74395E-04-4.17662E-02-1.73547E-13 3.04907E-13
 -1      2553 2.00120E+01 3.23262E-02 2.53395E-04-2.77385E-02-9.37915E-14-2.96826E-13
 -1      2554 2.00090E+01 3.94917E-02-1.78092E-04-3.13379E-02-8.87385E-14-2.07512E-14
 -1      2555 2.00090E+01 5.13070E-02-7.29825E-05-4.02180E-02-2.33266E-13 7.34994E-14
 -1      2556 2.00111E+01 1.65519E-02 2.97800E-04-1.43011E-02 2.62037E-14-1.71262E-14
 -1      2557 3.32442E+00-2.60079E+00 7.56606E-02-1.05968E+00-2.92127E-14 3.91021E-13
 -1      2558 4.57134E+00-3.16874E+00 8.76487E-02-3.34559E+00-8.49043E-14 2.60236E-13
 -1      2559 1.97838E+01 1.67692E-01 4.31566E-03-1.81349E-02 6.18837E-14 1.03908E-14
 -1      2560 1.98417E+01 2.18555E-01 1.25539E-02 7.84840E-02 9.42861E-14 3.02124E-14
 -1      2561 1.99297E+01 2.17851E-01-4.37212E-03-3.77367E-02 7.91861E-14-1.88228E-14
 -1      2562 1.73611E+01-5.16819E+00-9.69307E-03 6.91589E+00 3.14748E-14 4.23203E-14
 -1      2563 1.36635E+01-5.00974E+00 6.71450E-02 6.84609E+00 1.27953E-13 5.49838E-14
 -1      2564 1.35734E+01-3.96414E+00 1.32745E-01 6.53026E+00 3.66929E-14 5.76483E-14
 -1      2565 2.09326E+01-5.58577E+00 1.31011E-03-5.52363E+00 2.62596E-13 1.87933E-13
 -1      2566 2.48857E+01-4.95600E+00-7.01656E-02-4.46071E+00 1.77330E-13 5.89806E-14
 -1      2567 2.47323E+01-4.50539E+00-8.92418E-02 4.64929E+00-5.75096E-14 1.91458E-13
 -1      2568 2.16197E+01-5.16123E+00 4.15400E-02 5.56447E+00 4.09672E-14 1.70641E-13
 -1      2569 5.12954E+00-2.96213E+00 6.64623E-02 4.13398E+00-1.53766E-14 9.98646E-14
 -1      2570 3.70678E+00-2.38343E+00 1.26014E-01 1.60785E+00-1.06807E-13 3.94240E-13
 -1      2571 8.43942E+00-2.19522E+00 1.69784E-01 4.71294E+00 1.52239E-14 8.75966E-14
 -1      2572 1.24593E+01-4.91168E+00 4.93561E-02-6.82122E+00-2.78388E-14-1.89307E-13
 -1      2573 1.60997E+01-5.17923E+00 1.57507E-02-7.09872E+00 2.09277E-14-8.02448E-14
 -1      2574 1.95166E+01 3.64455E+00-1.01645E-02-2.33708E-01 1.22560E-14-2.51280E-13
 -1      2575 1.95347E+01 3.62217E+00-9.54512E-03-4.07734E-01-1.43637E-14-2.37156E-13
 -1      2576 1.97072E+01 3.23232E+00-1.61699E-04-4.48410E-01-2.24522E-14-2.20902E-13
 -1      2577 1.96683E+01 3.29758E+00-4.50579E-04-1.43617E-01 1.73911E-14-2.39743E-13
 -1      2578 3.23900E+01 7.36747E+00-1.39122E-01 3.55982E-01 2.18769E-13-2.79915E-14
 -1      2579 3.28011E+01 7.60197E+00-1.13524E-01-5.80731E-02 2.07168E-13-4.99878E-14
 -1      2580 5.63908E+00-3.58141E+00 4.72804E-02 4.48867E+00-6.93889E-15-3.88301E-13
 -1      2581 3.81091E+00-3.12645E+00 7.46829E-02 2.47130E+00-1.20459E-14-3.42670E-13
 -1      2582 3.27312E+01 7.11101E+00-7.06952E-02-5.11425E-01 3.11917E-13-7.88675E-14
 -1      2583 3.16580E+01 5.74099E+00-1.29873E-01-8.51218E-01 3.49998E-13-6.15896E-14
 -1      2584 3.15578E+01 4.45965E+00-1.03472E-01 9.70526E-01 2.42917E-13 1.00281E-13
 -1      2585 3.20879E+01 6.02764E+00-1.45548E-01 8.54234E-01 2.14939E-13 3.10030E-14
 -1      2586 3.03098E+01-9.16246E-02-4.17730E-02-9.75177E-01-8.36831E-15 1.18849E-13
 -1      2587 3.15428E+01 1.94306E+00-1.46752E-01 1.04002E-01 1.90237E-13 2.27623E-13
 -1      2588 2.63833E+01-3.62950E+00 3.35520E-03-3.38141E+00-4.15779E-14 1.81410E-13
 -1      2589 2.89048E+01-2.10272E+00-7.47755E-02-2.43398E+00-2.28983E-14 1.03695E-13
 -1      2590 1.94339E+01-5.37095E+00 1.67643E-02-6.21242E+00-4.05231E-15-3.74006E-14
 -1      2591 2.30514E+01-4.91508E+00-7.18706E-02-5.40677E+00-3.42504E-14 1.38597E-13
 -1      2592 1.91031E+01-5.20946E+00 9.60143E-02-6.28045E+00-7.87981E-14 2.35333E-14
 -1      2593 6.63118E+00-3.31946E+00 1.13505E-01-5.00024E+00-3.01426E-14-3.95961E-13
 -1      2594 9.13043E+00-3.97617E+00 7.81182E-02-6.38921E+00-2.33702E-14-3.77171E-13
 -1      2595 1.28576E+01-5.10510E+00 6.17149E-02-6.47036E+00-1.37668E-14 8.54317E-14
 -1      2596 1.70522E+01-5.49279E+00-2.30901E-02-6.70944E+00 2.07057E-13 7.09814E-14
 -1      2597 1.19828E+01-5.05465E+00 1.23058E-02 6.69591E+00 7.37188E-14-9.04693E-14
 -1      2598 8.80190E+00-4.47872E+00 5.22739E-02 5.82138E+00 8.15459E-14-2.04337E-13
 -1      2599 1.86143E+01-5.50523E+00-2.08739E-02 6.35833E+00 2.66454E-14 1.19516E-13
 -1      2600 1.49959E+01-5.63240E+00-1.64212E-02 6.53079E+00 5.25691E-14 9.17877E-14
 -1      2601 1.50640E+01-4.89533E+00 1.08889E-01 6.47499E+00 1.12549E-13 1.98730E-14
 -1      2602 3.14868E+01-6.66381E-01-8.21030E-02 6.97624E-01-1.10235E-13-9.93650E-15
 -1      2603 2.95059E+01-2.29701E+00-5.59819E-02 1.56462E+00 2.17049E-14-1.13909E-13
 -1      2604 3.28343E+01 3.67481E+00-1.00991E-01-1.19280E+00-2.70339E-13 1.60427E-14
 -1      2605 3.22324E+01 1.30907E+00-7.37222E-02-4.88141E-01-2.14148E-13 2.39253E-14
 -1      2606 3.28601E+01 6.41560E+00-1.88178E-01-8.12929E-01-5.06706E-13 8.71803E-14
 -1      2607 3.26869E+01 5.52152E+00-1.26589E-01-1.45702E+00-3.69205E-13 9.36196E-14
 -1      2608 3.28919E+01 6.82782E+00-1.30711E-01 6.97978E-01-5.09870E-13 8.81240E-14
 -1      2609 3.30229E+01 7.17013E+00-1.38966E-01-1.64406E-02-5.62106E-13 5.15109E-14
 -1      2610 3.23188E+01 3.86590E+00-1.23476E-01 1.55431E+00-3.63376E-13 7.56062E-14
 -1      2611 3.24031E+01 5.20906E+00-1.93179E-01 1.38667E+00-3.94074E-13 1.89848E-14
 -1      2612 3.06953E+01-5.91833E-01-9.02715E-02 3.94048E-01-3.86635E-14 1.65645E-13
 -1      2613 3.21524E+01 1.77855E+00-1.42952E-01 1.04323E+00-1.94539E-13 1.72196E-13
 -1      2614 3.04610E+01 2.16243E+00 3.13288E-03 2.29259E+00-2.04364E-13-9.72000E-14
 -1      2615 2.76225E+01-3.97718E+00-6.74323E-03-2.44946E+00 2.04836E-13 1.83797E-13
 -1      2616 2.94033E+01-2.84168E+00-1.43016E-01-1.29340E+00 1.23443E-13 3.81195E-13
 -1      2617 6.17665E+00-3.71339E+00 7.61247E-02-4.50123E+00-8.65974E-14 2.25098E-13
 -1      2618 8.49919E+00-4.02413E+00 2.37245E-02-5.84927E+00-5.63993E-14 1.49214E-13
 -1      2619 7.06553E+00-2.18683E+00 1.57874E-01-3.81614E+00-4.60326E-14 3.34122E-13
 -1      2620 2.05540E+01 1.96137E+00-1.36238E-02-1.86285E+00-1.82833E-13-5.78461E-14
 -1      2621 2.04261E+01 1.22745E+00-5.29441E-03-1.24466E+00-1.68608E-13-3.87288E-14
 -1      2622 2.03922E+01 1.38914E+00 2.54559E-03-1.17811E+00-1.51005E-13-8.99198E-14
 -1      2623 2.03003E+01 2.37523E+00-7.89827E-03-1.78534E+00-1.75666E-13-1.08972E-13
 -1      2624 2.04941E+01 8.79556E-01-6.79120E-03 1.19333E+00 2.02104E-13 1.32256E-13
 -1      2625 2.08359E+01 1.25879E+00-5.86298E-03 1.69602E+00 2.14741E-13 1.67245E-13
 -1      2626 2.06479E+01 1.71793E+00-1.57864E-02 1.88658E+00 2.27035E-13 9.53647E-14
 -1      2627 2.04620E+01 1.06708E+00-9.56240E-03 1.19830E+00 1.93881E-13 4.84126E-14
 -1      2628 2.98048E+01-1.09507E+00-1.25678E-01 1.27045E+00 1.92015E-13-7.10543E-15
 -1      2629 2.74968E+01-2.96955E+00-4.99217E-03 2.60612E+00-6.91391E-14 9.08162E-14
 -1      2630 3.01548E+01 7.05260E+00-6.92226E-02-5.33659E-01 3.03424E-13-1.38604E-13
 -1      2631 1.99235E+01 2.85910E+00 1.71948E-03-1.05181E+00-1.04602E-13-1.97199E-13
 -1      2632 1.97970E+01 3.19340E+00-1.48970E-02-1.24327E+00-1.17182E-13-2.16491E-13
 -1      2633 1.98953E+01 3.05152E+00-1.71168E-02-1.43120E+00-1.46625E-13-1.98210E-13
 -1      2634 2.00453E+01 3.66566E-01-3.98491E-03 2.29033E-01 1.30246E-13 2.48412E-15
 -1      2635 2.04317E+01 2.12158E+00-1.26622E-02 1.83607E+00 2.26446E-13 1.04743E-14
 -1      2636 2.96050E+01-3.41911E-01-1.17657E-02-2.60412E-01 2.03823E-13-7.12763E-14
 -1      2637 2.96602E+01-2.07577E+00-1.02143E-02 4.61794E-01 1.14086E-13 1.44579E-13
 -1      2638 3.05379E+01 5.59572E+00-5.39090E-02 1.54792E+00-3.86191E-13-2.46983E-13
 -1      2639 3.07212E+01 6.37344E+00-9.28259E-02-5.98334E-01-5.20917E-13 9.13540E-14
 -1      2640 2.62686E+01-4.85210E+00 3.73289E-02-2.91045E+00 2.41016E-13 1.72570E-13
 -1      2641 2.00137E+01 1.62272E-02 2.93244E-06 1.74355E-02-1.16121E-13 3.89915E-13
 -1      2642 2.64880E+01-4.05177E+00 3.45799E-02 2.78182E+00-3.77476E-14 1.37806E-13
 -1      2643 2.00142E+01 2.16702E-02 3.99619E-05 2.19967E-02-5.76538E-14 4.69419E-13
 -1      2644 3.10812E+01 4.16372E+00 4.52107E-02-1.93849E+00-3.38923E-13 9.69780E-14
 -1      2645 2.00173E+01 1.81176E-02 2.63872E-04-2.03681E-02-5.60822E-14 6.20245E-14
 -1      2646 2.00144E+01 2.47352E-02-2.30361E-04-2.45783E-02-9.34004E-14-2.12322E-13
 -1      2647 2.00181E+01 3.46751E-02 2.21919E-04-3.46129E-02-2.80950E-13-1.29586E-13
 -1      2648 2.00238E+01 2.10350E-02 5.42462E-04-2.69044E-02-1.96307E-13 8.46452E-14
 -1      2649 2.14497E+01-5.58753E+00 3.25771E-02 5.50357E+00 8.27116E-14 7.99361E-14
 -1      2650 2.03201E+01-5.44435E+00 1.04300E-01 5.66642E+00 1.55431E-13 1.57936E-13
 -1      2651 2.37645E+01-5.55818E+00-9.12757E-02 4.30236E+00 2.53908E-13-6.13398E-15
 -1      2652 2.89004E+01-3.23826E+00-1.30701E-01 5.87584E-01 1.05166E-13-8.80129E-14
 -1      2653 2.84657E+01-3.59900E+00-8.93137E-03 2.18334E+00 1.12771E-13-6.65579E-14
 -1      2654 2.68550E+01-4.51003E+00 4.39009E-02 2.68864E+00 2.11650E-13-9.42024E-14
 -1      2655 5.46088E+00-1.35729E+00 1.70009E-01 2.91416E-01-7.87287E-14 2.91850E-13
 -1      2656 2.04494E+01 1.82102E+00 1.24766E-02 1.51769E+00 2.04245E-13-1.11161E-14
 -1      2657 2.02191E+01-5.19272E+00 7.75384E-02 5.90548E+00 1.19266E-13 1.12670E-13
 -1      2658 1.24424E+01-3.95379E+00 1.35793E-01-6.06317E+00-7.26641E-14 9.00391E-14
 -1      2659 2.03285E+01-5.48355E+00 9.36384E-02-5.63150E+00 3.02064E-13 3.89133E-14
 -1      2660 1.26062E+01-3.95254E+00 1.06475E-01-6.51047E+00-1.40249E-13-2.10054E-13
 -1      2661 2.52212E+01-4.59172E+00 4.00780E-02-3.75002E+00-1.07053E-13 2.56711E-13
 -1      2662 2.91817E+01-1.56286E+00 1.25972E-04-5.91286E-01 5.06019E-15 5.56222E-14
 -1      2663 3.01876E+01 2.73590E+00-5.42663E-02 1.24471E+00 1.66284E-13 1.21930E-13
 -1      2664 4.19987E+00-2.29574E+00 1.19775E-01 1.11279E+00 7.86871E-15-3.65041E-13
 -1      2665 5.10275E+00-1.24477E+00 1.53517E-01-3.09631E-01 3.41125E-14-3.74201E-13
 -1      2666 6.10764E+00-1.41589E+00 1.33765E-01 2.14296E+00 3.17801E-14-3.68955E-13
 -1      2667 3.06643E+01 4.39373E+00-8.88747E-02-1.33404E+00 2.43444E-13 6.05072E-15
 -1      2668 2.91628E+01 3.01070E+00-7.91366E-02-1.69426E+00 2.66731E-13-1.50366E-13
 -1      2669 2.87347E+01 5.08067E+00-1.95528E-01-1.69322E+00 3.50719E-13-1.74694E-13
 -1      2670 8.85003E+00-3.26868E+00 1.14888E-01 5.21052E+00 8.52651E-14-2.25570E-13
 -1      2671 2.00035E+01 2.85963E+00-1.51933E-02-1.54183E+00-1.58689E-13-1.82786E-13
 -1      2672 2.01478E+01 2.62728E+00-2.22518E-02-1.70854E+00-1.67956E-13-1.55258E-13
 -1      2673 2.03030E+01 2.07154E+00 4.33094E-03-1.43794E+00-1.63614E-13-1.34787E-13
 -1      2674 2.01024E+01 2.52560E+00 4.31109E-03-1.29285E+00-1.48168E-13-1.70201E-13
 -1      2675 3.00411E+01 6.35975E+00-7.84920E-02 1.06978E+00 1.92568E-13-6.82787E-14
 -1      2676 6.16433E+00-2.53230E+00 1.39271E-01-4.03789E+00-1.47105E-15-2.75502E-13
 -1      2677 8.69460E+00-2.04814E+00 1.02083E-01-4.75549E+00-9.66033E-14-2.36006E-13
 -1      2678 6.08192E+00-1.42534E+00 1.83552E-01-2.83795E+00 1.99424E-14-2.56878E-13
 -1      2679 3.09472E+01-2.46397E-01-7.75940E-02-1.03318E+00-1.76914E-13-4.51861E-14
 -1      2680 2.00174E+01 3.04249E-02 1.96529E-04 3.15127E-02-4.42627E-14 6.04803E-13
 -1      2681 2.00255E+01 2.94891E-02-4.11383E-04-3.83405E-02-2.49419E-13-1.13348E-13
 -1      2682 1.98338E+01 2.84435E+00-6.22087E-03 4.82698E-01 7.90127E-14-2.16911E-13
 -1      2683 1.98050E+01 2.89774E+00-5.99398E-03 3.39714E-01 7.23329E-14-2.22823E-13
 -1      2684 1.97854E+01 2.93949E+00-5.64503E-03 2.14552E-01 5.42088E-14-2.23934E-13
 -1      2685 1.97753E+01 2.95780E+00-5.62105E-03 6.91187E-02 3.21758E-14-2.22506E-13
 -1      2686 1.99259E+01 2.60209E+00 4.14932E-03 2.41779E-01 5.88828E-14-2.12677E-13
 -1      2687 2.00543E+01 2.37387E+00-1.04236E-02 9.89806E-01 1.73428E-13-1.28629E-13
 -1      2688 1.99844E+01 2.52946E+00-6.73757E-03 8.57292E-01 1.53978E-13-1.35355E-13
 -1      2689 2.02346E+01 1.94127E+00-1.16897E-02 1.17024E+00 1.86901E-13-9.56865E-14
 -1      2690 2.01392E+01 2.18576E+00-5.17097E-03 1.07660E+00 1.76176E-13-1.17949E-13
 -1      2691 2.02009E+01 1.94103E+00 6.61751E-03 8.62261E-01 1.63189E-13-1.06573E-13
 -1      2692 2.02469E+01 7.55688E-01-2.75056E-03 5.76048E-01 1.58592E-13-1.47685E-14
 -1      2693 2.03787E+01 9.74505E-01 9.18720E-03 8.48386E-01 1.68596E-13-4.75396E-15
 -1      2694 2.22261E+01-5.22293E+00-7.47651E-02 4.91328E+00 3.92603E-14 2.13406E-14
 -1      2695 1.89225E+01-4.70237E+00 1.12329E-01 5.88390E+00 1.83048E-14 7.74242E-14
 -1      2696 2.79493E+01 4.23876E+00-1.42649E-01 1.72231E+00-2.91933E-13-4.47649E-13
 -1      2697 2.80923E+01 5.17911E+00-2.16512E-01 7.17252E-01-4.04066E-13-3.97389E-13
 -1      2698 2.01241E+01 4.57778E-01-5.32874E-04 1.97380E-01 1.24374E-13-3.29859E-14
 -1      2699 2.02109E+01 5.88408E-01 1.01884E-02 3.72317E-01 1.42672E-13-1.60474E-14
 -1      2700 2.02861E+01 8.63179E-01 5.83669E-04 5.37257E-01 1.47334E-13-5.87912E-14
 -1      2701 2.03570E+01 1.51818E+00-1.57845E-03 1.21698E+00 1.90766E-13-2.33715E-14
 -1      2702 2.83738E+01-3.02806E+00 4.23988E-02 3.83049E-01 2.41109E-13 4.52832E-14
 -1      2703 2.89006E+01-1.44643E+00-1.86695E-01 1.64217E+00 7.78336E-14-1.96482E-13
 -1      2704 2.03421E+01 1.60379E+00-8.73165E-03-1.18646E+00-1.49481E-13-1.25079E-13
 -1      2705 2.03310E+01 1.24368E+00 1.36485E-03-9.08783E-01-1.35687E-13-1.18112E-13
 -1      2706 2.02597E+01 1.87338E+00-9.30255E-04-1.16152E+00-1.42480E-13-1.43243E-13
 -1      2707 2.02550E+01 6.76449E-01 6.97544E-03-3.47221E-01-9.06109E-14-1.02505E-13
 -1      2708 2.01840E+01 5.38167E-01-2.18813E-03-1.71624E-01-7.93946E-14-1.04090E-13
 -1      2709 2.01631E+01 4.34607E-01 6.29096E-03-3.18934E-02-8.15382E-14-7.61168E-14
 -1      2710 2.01207E+01 3.52221E-01-6.06293E-04 8.69726E-02-7.40233E-14-8.81806E-14
 -1      2711 2.02347E+01 6.12291E-01-1.86885E-03-1.36037E-01-7.05204E-14-9.30116E-14
 -1      2712 2.00997E+01 2.94842E-01 3.95034E-03 1.87456E-01-4.82587E-14-7.19889E-14
 -1      2713 2.00857E+01 2.50896E-01 6.10910E-04 2.72177E-01-4.19638E-14-7.00010E-14
 -1      2714 2.01789E+01 4.10883E-01-2.34886E-03 1.15588E-01-5.33332E-14-7.37965E-14
 -1      2715 2.00709E+01 2.22469E-01 2.19213E-03 3.48625E-01-5.40858E-14-6.77192E-14
 -1      2716 2.00804E+01 2.04016E-01 1.48853E-03 4.14520E-01-5.60758E-14-8.91918E-14
 -1      2717 2.01369E+01 3.01496E-01-2.11471E-03 3.02910E-01-6.06842E-14-8.19626E-14
 -1      2718 2.00721E+01 1.95388E-01 8.19305E-04 4.78211E-01-5.61005E-14-1.03870E-13
 -1      2719 2.01008E+01 1.95035E-01 2.16784E-03 5.36378E-01-4.62617E-14-1.06922E-13
 -1      2720 2.01126E+01 2.53201E-01-1.68518E-03 4.51038E-01-7.04131E-14-1.18687E-13
 -1      2721 2.00977E+01 2.00620E-01-2.39589E-04 5.96359E-01-2.23196E-14-7.25080E-14
 -1      2722 2.01423E+01 2.13439E-01 2.73771E-03 6.54850E-01-3.54409E-14-7.60876E-14
 -1      2723 2.01036E+01 2.48374E-01-1.21036E-03 5.80896E-01-1.82034E-14-1.01109E-13
 -1      2724 2.01426E+01 2.29219E-01-1.06914E-03 7.18009E-01-5.66939E-14-5.26219E-14
 -1      2725 2.02009E+01 2.51249E-01 3.24211E-03 7.82555E-01-6.31465E-14-1.55629E-14
 -1      2726 2.01058E+01 2.74966E-01-7.44318E-04 7.08816E-01-1.92545E-14-1.83304E-14
 -1      2727 2.02029E+01 2.73488E-01-1.71449E-03 8.53933E-01-9.56498E-14 3.97487E-14
 -1      2728 2.02738E+01 3.00490E-01 3.69225E-03 9.28178E-01-6.13771E-14 3.31309E-15
 -1      2729 2.01151E+01 3.23243E-01-3.03743E-04 8.47005E-01-4.33904E-14 9.61022E-14
 -1      2730 2.02764E+01 3.24522E-01-2.16431E-03 1.01109E+00-5.67730E-14-6.68602E-15
 -1      2731 2.03600E+01 3.50598E-01 4.07913E-03 1.09638E+00-5.11473E-14-1.22697E-14
 -1      2732 2.01279E+01 3.82876E-01 7.19022E-05 1.00400E+00-9.96427E-14 8.31340E-14
 -1      2733 2.03637E+01 3.69326E-01-2.32077E-03 1.19228E+00-4.29946E-14-4.88330E-14
 -1      2734 2.04616E+01 3.85106E-01 4.38794E-03 1.28692E+00-2.20895E-14-2.82548E-14
 -1      2735 2.01426E+01 4.39775E-01 2.67140E-04 1.18481E+00-7.30982E-14 6.88360E-15
 -1      2736 2.04706E+01 3.86999E-01-1.95023E-03 1.39495E+00 1.40157E-14-3.39581E-14
 -1      2737 2.05875E+01 3.77273E-01 4.60838E-03 1.49290E+00 3.90235E-14-6.68049E-14
 -1      2738 2.01617E+01 4.72024E-01 1.94130E-05 1.39058E+00-6.08271E-16 5.28616E-15
 -1      2739 2.06130E+01 3.43923E-01-5.98507E-04 1.60895E+00-1.80877E-15-6.06286E-14
 -1      2740 2.07597E+01 2.84982E-01 4.72147E-03 1.69777E+00-3.91678E-14-1.19999E-13
 -1      2741 2.01971E+01 4.44621E-01-1.18396E-03 1.61778E+00 4.03928E-15-8.57527E-15
 -1      2742 2.08261E+01 1.88995E-01 2.54885E-03 1.81244E+00-7.26259E-14-9.18373E-14
 -1      2743 2.10223E+01 4.71792E-02 4.61257E-03 1.87016E+00-8.39179E-14-9.87418E-14
 -1      2744 2.02784E+01 3.03601E-01-4.19694E-03 1.85631E+00-5.75351E-14-6.11714E-14
 -1      2745 2.11762E+01-1.46817E-01 8.81868E-03 1.96413E+00-9.56909E-14-1.04916E-13
 -1      2746 2.14527E+01-4.11727E-01 3.13335E-03 1.95521E+00-1.15706E-13-1.21301E-13
 -1      2747 2.04667E+01-2.74798E-02-1.02204E-02 2.08452E+00-1.13524E-13-1.54479E-14
 -1      2748 2.17727E+01-7.35943E-01 1.91580E-02 1.98553E+00-6.94764E-14-5.62556E-14
 -1      2749 2.21643E+01-1.14327E+00-6.30409E-04 1.85483E+00 1.33504E-14-6.70462E-14
 -1      2750 2.08743E+01-6.41987E-01-2.13465E-02 2.25445E+00-7.79504E-14-4.12786E-14
 -1      2751 2.27525E+01-1.58981E+00 3.43968E-02 1.74399E+00 6.76958E-14-8.69999E-14
 -1      2752 2.32797E+01-2.09235E+00-7.86121E-03 1.42069E+00 1.05848E-13-8.92513E-14
 -1      2753 2.16733E+01-1.59244E+00-3.71280E-02 2.25929E+00 4.46921E-14-1.06911E-14
 -1      2754 2.42047E+01-2.53468E+00 4.32393E-02 1.03110E+00 1.63703E-13-7.53538E-14
 -1      2755 2.47997E+01-2.88584E+00-2.53306E-02 4.68219E-01 1.65741E-13-5.13348E-14
 -1      2756 2.30524E+01-2.75117E+00-5.05905E-02 1.88630E+00 1.78424E-13-1.40728E-13
 -1      2757 2.60201E+01-2.94128E+00 2.71619E-02-3.58621E-01 1.79396E-13 1.63758E-15
 -1      2758 2.64759E+01-2.56568E+00-2.21222E-02-1.06787E+00 1.84359E-13 2.51327E-14
 -1      2759 2.51407E+01-3.61102E+00-6.59077E-02 8.70965E-01 2.32291E-13-9.37115E-14
 -1      2760 2.82159E+01 2.95159E+00-1.76468E-01-2.36980E+00-2.88131E-13-2.75890E-14
 -1      2761 2.81557E+01 4.59737E+00-9.97687E-02-1.75339E+00-3.17468E-13-2.01665E-13
 -1      2762 2.80485E+01 2.56660E+00-2.29887E-01 2.51107E+00-2.28192E-13-5.08676E-13
 -1      2763 2.76001E+01-2.33870E-01-4.88832E-02 2.37115E+00-2.39392E-14-3.92686E-13
 -1      2764 2.73168E+01-1.62476E+00-3.35160E-02 2.01975E+00 6.73073E-14-3.35322E-13
 -1      2765 2.67737E+01-2.56089E+00-3.14901E-02 1.15453E+00 1.43913E-13-2.91005E-13
 -1      2766 2.52429E+01-2.93807E+00-4.24290E-03-9.32696E-02 1.00276E-13-2.14934E-13
 -1      2767 2.46703E+01-2.73930E+00 3.60304E-02-7.06914E-01 5.02133E-14-2.40026E-13
 -1      2768 2.36425E+01-2.32375E+00-1.41359E-02-1.21426E+00 6.30598E-14-1.92170E-13
 -1      2769 2.30840E+01-1.82213E+00 3.50785E-02-1.59160E+00 8.33708E-14-1.24324E-13
 -1      2770 2.35403E+01-3.05571E+00-6.26665E-02-1.69369E+00 4.13246E-14-1.61983E-13
 -1      2771 2.24245E+01-1.35004E+00-4.82721E-04-1.74780E+00 1.93489E-13 3.48687E-14
 -1      2772 2.19987E+01-9.06895E-01 2.33012E-02-1.91462E+00 2.26430E-13 8.87473E-14
 -1      2773 2.19609E+01-1.84104E+00-3.90860E-02-2.17264E+00 2.38508E-13-1.86916E-14
 -1      2774 2.16233E+01-5.46043E-01 2.62965E-03-1.90488E+00 1.20683E-13 1.23104E-13
 -1      2775 2.13259E+01-2.42740E-01 1.12800E-02-1.93205E+00 1.43842E-13 1.57396E-13
 -1      2776 2.10450E+01-8.20899E-01-2.36253E-02-2.23003E+00 2.15650E-13 2.93294E-14
 -1      2777 2.11403E+01-1.55777E-02 4.28641E-03-1.84145E+00 1.19899E-13 2.08419E-13
 -1      2778 2.09334E+01 1.56322E-01 4.06334E-03-1.78880E+00 9.24641E-14 2.39368E-13
 -1      2779 2.05591E+01-1.17973E-01-1.24357E-02-2.07503E+00 2.08533E-13 8.70363E-14
 -1      2780 2.08518E+01 2.76113E-01 4.55813E-03-1.66836E+00-3.97807E-14 2.26170E-13
 -1      2781 2.07023E+01 3.55251E-01 3.16885E-04-1.57586E+00-1.22263E-13 1.56589E-13
 -1      2782 2.03318E+01 2.82072E-01-5.40193E-03-1.83925E+00-2.97772E-14 2.30087E-13
 -1      2783 2.06708E+01 4.03872E-01 4.46371E-03-1.44921E+00-1.90302E-13 1.58200E-13
 -1      2784 2.05560E+01 4.25934E-01-1.38942E-03-1.34199E+00-9.83807E-14 5.98296E-14
 -1      2785 2.02343E+01 4.69397E-01-1.67903E-03-1.58201E+00-1.16432E-13 1.60009E-13
 -1      2786 2.05452E+01 4.32834E-01 4.23762E-03-1.22074E+00-8.39711E-14 8.39713E-14
 -1      2787 2.04523E+01 4.23616E-01-1.98990E-03-1.11370E+00-1.82453E-13 1.90384E-13
 -1      2788 2.01942E+01 5.25064E-01-5.00137E-05-1.33011E+00-1.14006E-13 1.93401E-13
 -1      2789 2.04482E+01 4.08845E-01 3.92651E-03-1.00358E+00-1.74288E-13 2.08191E-13
 -1      2790 2.03708E+01 3.84815E-01-2.03033E-03-9.04803E-01-9.87859E-14 1.95391E-13
 -1      2791 2.01747E+01 5.07634E-01 4.62747E-04-1.09682E+00-1.85184E-13 1.16123E-13
 -1      2792 2.03672E+01 3.60663E-01 3.54818E-03-8.08317E-01-8.60264E-14 2.41653E-13
 -1      2793 2.03023E+01 3.31462E-01-1.81857E-03-7.21574E-01-1.22598E-13 1.65936E-13
 -1      2794 2.01597E+01 4.54778E-01 4.69769E-04-8.88652E-01-9.72582E-14 1.58154E-13
 -1      2795 2.02975E+01 3.04868E-01 3.12573E-03-6.39315E-01-8.83609E-14-2.78861E-14
 -1      2796 2.02433E+01 2.75700E-01-1.52066E-03-5.65714E-01-1.01372E-14-2.86455E-14
 -1      2797 2.01437E+01 3.88834E-01 2.98115E-04-7.08166E-01-1.72811E-13 2.13524E-13
 -1      2798 2.02374E+01 2.50258E-01 2.68765E-03-4.97128E-01 9.45000E-14 3.77741E-14
 -1      2799 2.01926E+01 2.23653E-01-1.21859E-03-4.36265E-01 1.30691E-13 6.55075E-14
 -1      2800 2.01258E+01 3.22078E-01 1.03392E-04-5.55349E-01-1.57014E-14 8.35657E-14
 -1      2801 2.01860E+01 2.01002E-01 2.25990E-03-3.80155E-01 1.23490E-13 5.64966E-14
 -1      2802 2.01498E+01 1.77976E-01-9.48239E-04-3.30846E-01 7.78797E-14 1.42536E-13
 -1      2803 2.01069E+01 2.60638E-01-5.23183E-05-4.28568E-01 2.34973E-14 1.03451E-13
 -1      2804 2.01430E+01 1.58680E-01 1.86119E-03-2.85707E-01 2.36665E-14 1.09337E-13
 -1      2805 2.01141E+01 1.39439E-01-7.21663E-04-2.46435E-01 1.37786E-14 5.80356E-15
 -1      2806 2.00884E+01 2.07093E-01-1.53929E-04-3.25264E-01 4.76518E-14-1.23396E-13
 -1      2807 2.01078E+01 1.23507E-01 1.50245E-03-2.10669E-01-2.19177E-14 6.58165E-14
 -1      2808 2.00851E+01 1.07858E-01-5.39314E-04-1.79850E-01 1.30739E-13 4.12681E-14
 -1      2809 2.00712E+01 1.62092E-01-2.06239E-04-2.42450E-01-2.69922E-14 2.05749E-15
 -1      2810 2.00793E+01 9.50312E-02 1.18936E-03-1.51907E-01 2.90397E-13-5.48430E-15
 -1      2811 2.00619E+01 8.25960E-02-3.96191E-04-1.28034E-01 1.84595E-13 1.25105E-13
 -1      2812 2.00558E+01 1.25300E-01-2.19734E-04-1.77053E-01 1.86669E-13-1.82135E-13
 -1      2813 2.00567E+01 7.25247E-02 9.34382E-04-1.06484E-01 5.59626E-14 2.01257E-13
 -1      2814 2.00434E+01 6.27965E-02-2.71018E-04-8.81810E-02-1.50244E-13 8.11471E-14
 -1      2815 2.00424E+01 9.59160E-02-1.99506E-04-1.26133E-01 1.24105E-13-1.43773E-13
 -1      2816 2.00388E+01 5.48610E-02 6.72110E-04-7.18676E-02-4.32741E-13-3.85984E-15
 -1      2817 2.00290E+01 4.76966E-02-6.41285E-05-5.81055E-02-3.34208E-13-1.41320E-13
 -1      2818 2.00308E+01 7.25737E-02-2.71962E-04-8.69620E-02-2.41435E-13-8.31219E-14
 -1      2819 1.64696E+01-4.28313E+00 4.66758E-02 6.44628E+00 2.86993E-14 5.01751E-14
 -1      2820 1.37733E+01-3.23800E+00 1.21046E-01 6.13693E+00 3.66651E-14 6.32550E-14
 -1      2821 1.90647E+01-4.18426E+00 1.07838E-01 5.46768E+00-6.84036E-14 4.69277E-14
 -1      2822 2.00062E+01 1.93358E-01 1.05857E-03-2.37426E-01 9.54508E-14-9.77907E-14
 -1      2823 2.00171E+01 2.35537E-01 4.76839E-03-1.60178E-01 8.29953E-14-6.52661E-14
 -1      2824 2.01286E+01 1.14879E-01 2.22855E-03-5.50944E-01-3.57202E-14-1.90459E-14
 -1      2825 2.00715E+01 1.16090E-01 6.58310E-04-5.11175E-01-1.40811E-14-5.87580E-14
 -1      2826 2.02275E+01 1.16223E-01 2.32837E-03-6.33443E-01 3.23708E-14-2.44662E-14
 -1      2827 2.01550E+01 1.14710E-01 1.52440E-04-5.95140E-01-1.61066E-14-2.44090E-14
 -1      2828 2.01399E+01 1.48204E-01-1.66045E-03-6.12508E-01-1.63715E-14-8.04190E-14
 -1      2829 2.03514E+01 1.15563E-01 2.23067E-03-7.14820E-01 8.36870E-14-3.95039E-14
 -1      2830 2.02651E+01 1.16220E-01-2.54011E-05-6.77383E-01 8.50531E-14-3.20448E-14
 -1      2831 2.02063E+01 1.48667E-01-1.55078E-03-7.06036E-01 6.17595E-14-7.06710E-14
 -1      2832 2.05014E+01 1.02343E-01 1.84491E-03-7.92482E-01 1.05245E-13-1.31177E-14
 -1      2833 2.04019E+01 1.10878E-01 1.23458E-04-7.58274E-01 9.15484E-14-3.73381E-14
 -1      2834 2.02960E+01 1.43835E-01-1.63024E-03-7.98546E-01 9.92612E-14-6.90472E-14
 -1      2835 2.06801E+01 6.38760E-02 1.04446E-03-8.57338E-01 7.39007E-14 3.58652E-14
 -1      2836 2.05680E+01 8.71659E-02 6.41125E-04-8.32109E-01 9.04128E-14 3.36148E-14
 -1      2837 2.04128E+01 1.19838E-01-1.95207E-03-8.86874E-01 7.24222E-14 1.27332E-14
 -1      2838 2.08925E+01-1.44904E-02-3.21833E-04-8.92679E-01-1.03863E-14 1.36264E-13
 -1      2839 2.07684E+01 3.13541E-02 1.59859E-03-8.86059E-01 3.67476E-14 9.22887E-14
 -1      2840 2.05640E+01 6.01851E-02-2.59027E-03-9.61052E-01 1.98440E-14 1.19288E-13
 -1      2841 2.11447E+01-1.47183E-01-2.40601E-03-8.73272E-01 7.98488E-15 1.53750E-13
 -1      2842 2.10103E+01-7.15195E-02 3.04412E-03-8.98918E-01 2.20348E-14 1.66670E-13
 -1      2843 2.07611E+01-5.35296E-02-3.60040E-03-1.00295E+00-8.81840E-15 1.30649E-13
 -1      2844 2.14422E+01-3.42453E-01-5.28588E-03-7.65749E-01 1.17222E-13 5.96184E-14
 -1      2845 2.13015E+01-2.33894E-01 4.90949E-03-8.40413E-01 5.83189E-14 1.45623E-13
 -1      2846 2.10196E+01-2.38060E-01-4.95206E-03-9.84926E-01 3.11157E-14 1.04753E-13
 -1      2847 2.17847E+01-5.90402E-01-8.74751E-03-5.32364E-01 3.82244E-14 1.14308E-13
 -1      2848 2.16459E+01-4.57141E-01 6.83091E-03-6.72619E-01 5.65806E-14 7.45404E-14
 -1      2849 2.13566E+01-4.99620E-01-6.31706E-03-8.69358E-01 7.55174E-14 1.44538E-13
 -1      2850 2.21553E+01-8.44077E-01-1.18129E-02-1.42234E-01-6.68836E-14 1.99372E-13
 -1      2851 2.20342E+01-7.16156E-01 7.87302E-03-3.56829E-01 1.98637E-14 1.84751E-13
 -1      2852 2.17817E+01-8.16840E-01-6.76981E-03-6.11543E-01-5.02549E-15 2.18681E-13
 -1      2853 2.25069E+01-1.00017E+00-1.21629E-02 4.03942E-01-1.04048E-13 1.88800E-13
 -1      2854 2.24278E+01-9.38828E-01 6.35071E-03 1.27829E-01-1.13919E-13 1.68788E-13
 -1      2855 2.22795E+01-1.11566E+00-4.65905E-03-1.72080E-01-7.34472E-14 1.97967E-13
 -1      2856 2.27552E+01-9.03038E-01-6.91100E-03 1.03153E+00-4.33674E-14 1.38435E-13
 -1      2857 2.27446E+01-9.93043E-01 2.92209E-04 7.47294E-01-7.69369E-14 1.46049E-13
 -1      2858 2.27840E+01-1.24744E+00 1.89783E-03 4.49739E-01-7.64037E-14 2.24013E-13
 -1      2859 2.27967E+01-4.06286E-01 4.97937E-03 1.55508E+00-9.43494E-15 1.85844E-13
 -1      2860 2.28681E+01-7.16254E-01-1.22842E-02 1.36546E+00 2.23213E-14 2.05369E-13
 -1      2861 2.31665E+01-1.01073E+00 1.11941E-02 1.16633E+00-4.68367E-14 3.30902E-13
 -1      2862 2.25890E+01 4.62589E-01 1.68240E-02 1.67827E+00-8.85359E-15 1.38345E-13
 -1      2863 2.27178E+01-1.53832E-02-2.39032E-02 1.71375E+00-1.68862E-14 1.34347E-13
 -1      2864 2.32636E+01-2.65392E-01 1.34761E-02 1.71930E+00 2.93479E-14 4.02086E-13
 -1      2865 2.22244E+01 1.40316E+00 1.34733E-02 1.16768E+00-3.37022E-14 1.78676E-13
 -1      2866 2.23583E+01 9.57108E-01-2.76949E-02 1.50668E+00-3.44880E-14 1.06184E-13
 -1      2867 2.30404E+01 8.87612E-01 7.12335E-03 1.76224E+00-2.11289E-15 1.14169E-13
 -1      2868 2.20361E+01 1.81788E+00 2.83554E-03 1.35138E-01-7.20082E-14 1.67650E-13
 -1      2869 2.20787E+01 1.67968E+00-1.06926E-02 6.30956E-01-7.07425E-14 1.93671E-13
 -1      2870 2.26756E+01 1.88519E+00-1.26033E-02 9.97092E-01-5.25639E-14 2.03984E-13
 -1      2871 2.21411E+01 1.50806E+00-1.90678E-02-1.00325E+00 1.03003E-13 3.75698E-14
 -1      2872 2.20571E+01 1.77633E+00 6.40018E-03-5.23555E-01 6.06390E-14 1.13791E-13
 -1      2873 2.25540E+01 2.22270E+00-1.67517E-02-2.03640E-01 5.73847E-15 1.30904E-13
 -1      2874 2.24981E+01 6.22891E-01-2.67470E-02-1.65822E+00 1.37197E-13 1.30950E-14
 -1      2875 2.23607E+01 1.10661E+00 1.92954E-02-1.42612E+00 1.60636E-13 6.67279E-14
 -1      2876 2.27977E+01 1.62446E+00-8.76800E-03-1.36391E+00 1.23269E-13 4.38160E-14
 -1      2877 2.28074E+01-2.87325E-01-2.07216E-02-1.66086E+00 1.61179E-13 6.73981E-14
 -1      2878 2.26883E+01 1.49347E-01 1.33133E-02-1.71246E+00 1.44609E-13-8.32429E-15
 -1      2879 2.31454E+01 4.74789E-01 6.78862E-03-1.83126E+00 1.43877E-13-8.57162E-14
 -1      2880 2.28670E+01-8.44888E-01-8.04171E-03-1.19195E+00 3.84354E-14 1.50884E-13
 -1      2881 2.28210E+01-6.12908E-01 1.69444E-04-1.42483E+00 1.20264E-13 1.75218E-13
 -1      2882 2.32757E+01-5.67111E-01 1.28214E-02-1.58694E+00 7.92961E-14 1.07433E-13
 -1      2883 2.26718E+01-9.92706E-01 2.02365E-03-5.56840E-01-4.98806E-14 2.08895E-13
 -1      2884 2.27078E+01-9.62853E-01-8.95159E-03-8.45472E-01-1.04034E-14 1.49390E-13
 -1      2885 2.30734E+01-1.13068E+00 8.50392E-03-9.48214E-01-1.62154E-14 2.48979E-13
 -1      2886 2.23243E+01-8.59320E-01 6.82869E-03 1.71391E-02-5.18047E-14 1.48069E-13
 -1      2887 2.24190E+01-9.52304E-01-1.19188E-02-2.37959E-01-3.57527E-15 2.13155E-13
 -1      2888 2.26372E+01-1.21473E+00 6.72353E-04-2.53806E-01 1.12488E-14 1.96405E-13
 -1      2889 2.19351E+01-6.08820E-01 7.51001E-03 4.33121E-01 4.19462E-14 1.29365E-13
 -1      2890 2.20605E+01-7.44492E-01-1.04066E-02 2.48607E-01-4.56391E-14 1.55206E-13
 -1      2891 2.21280E+01-9.99529E-01-4.08406E-03 2.99388E-01 8.82421E-15 1.41013E-13
 -1      2892 2.15704E+01-3.51986E-01 6.29730E-03 6.81284E-01 8.62374E-15-4.24513E-14
 -1      2893 2.17047E+01-4.80591E-01-7.32092E-03 5.71314E-01 1.31996E-13 1.29208E-13
 -1      2894 2.16563E+01-6.77501E-01-5.49648E-03 6.60935E-01 8.41612E-14 1.15022E-13
 -1      2895 2.12572E+01-1.43436E-01 4.53310E-03 7.91305E-01-1.45536E-13-3.03010E-14
 -1      2896 2.13874E+01-2.43197E-01-4.20933E-03 7.43199E-01-1.11562E-13-3.44759E-14
 -1      2897 2.12676E+01-3.69187E-01-4.99013E-03 8.49871E-01-2.17029E-14-8.03095E-14
 -1      2898 2.09987E+01 2.41274E-03 2.92582E-03 8.03092E-01-1.18142E-13 1.32228E-13
 -1      2899 2.11186E+01-6.47965E-02-1.74061E-03 7.99441E-01-1.42045E-13 2.54666E-15
 -1      2900 2.09665E+01-1.28176E-01-3.89663E-03 9.09629E-01-2.00494E-13-6.92883E-14
 -1      2901 2.07889E+01 9.15086E-02 1.71026E-03 7.52823E-01 2.94128E-14 2.67912E-13
 -1      2902 2.08958E+01 5.21716E-02-6.52219E-06 7.77381E-01-1.11927E-13 1.34739E-13
 -1      2903 2.07391E+01 3.55808E-02-2.84739E-03 8.83516E-01-1.81166E-13 1.10246E-13
 -1      2904 2.06192E+01 1.37030E-01 8.87530E-04 6.68626E-01 1.97571E-13 3.32690E-13
 -1      2905 2.07124E+01 1.18380E-01 1.09084E-03 7.08518E-01 2.13398E-13 3.27127E-13
 -1      2906 2.05681E+01 1.32558E-01-2.04663E-03 8.06510E-01 5.26743E-14 1.23476E-13
 -1      2907 2.04822E+01 1.52576E-01 3.77434E-04 5.70385E-01 5.83793E-14 2.07665E-13
 -1      2908 2.05617E+01 1.47775E-01 1.69604E-03 6.16431E-01 1.61318E-13 4.69554E-13
 -1      2909 2.04383E+01 1.79556E-01-1.49655E-03 7.04170E-01 1.37154E-13 2.71428E-13
 -1      2910 2.03717E+01 1.49406E-01 8.62444E-05 4.71069E-01-3.74792E-14 1.78318E-13
 -1      2911 2.04384E+01 1.53007E-01 1.94841E-03 5.17285E-01-1.06507E-14 2.75126E-13
 -1      2912 2.03384E+01 1.92785E-01-1.13794E-03 5.93868E-01 3.92277E-15 2.26488E-13
 -1      2913 2.02831E+01 1.35822E-01-6.23946E-05 3.78404E-01-2.19018E-13 2.92572E-13
 -1      2914 2.03380E+01 1.43903E-01 1.96537E-03 4.21258E-01-4.81457E-14 3.40519E-13
 -1      2915 2.02605E+01 1.85303E-01-9.02983E-04 4.86599E-01-4.85497E-14 2.53222E-13
 -1      2916 2.02125E+01 1.17486E-01-1.23922E-04 2.96397E-01-2.49419E-13 3.36392E-13
 -1      2917 2.02569E+01 1.27424E-01 1.83747E-03 3.34102E-01-3.77118E-13 2.16442E-13
 -1      2918 2.01993E+01 1.66592E-01-7.40094E-04 3.88685E-01-2.75118E-13 3.14921E-13
 -1      2919 2.01568E+01 9.80096E-02-1.36089E-04 2.26557E-01 7.46069E-15 4.45461E-13
 -1      2920 2.01921E+01 1.08163E-01 1.63131E-03 2.58492E-01-3.33207E-14 3.54100E-13
 -1      2921 2.01510E+01 1.43058E-01-6.17422E-04 3.03191E-01-1.76831E-13 2.13337E-13
 -1      2922 2.01135E+01 7.95284E-02-1.23096E-04 1.68828E-01-8.84836E-14 4.86010E-13
 -1      2923 2.01409E+01 8.89489E-02 1.39255E-03 1.95090E-01-6.65147E-15 4.64734E-13
 -1      2924 2.01130E+01 1.18741E-01-5.16883E-04 2.31014E-01-7.59633E-14 1.79869E-13
 -1      2925 2.00802E+01 6.31817E-02-1.04004E-04 1.22252E-01-4.14070E-14 3.86205E-13
 -1      2926 2.01012E+01 7.13865E-02 1.14824E-03 1.43345E-01-9.65054E-14 3.86136E-13
 -1      2927 2.00833E+01 9.60168E-02-4.25673E-04 1.71717E-01-3.65295E-14 3.39428E-13
 -1      2928 2.00549E+01 4.95057E-02-5.75940E-05 8.54393E-02 1.51382E-13 3.37360E-13
 -1      2929 2.00706E+01 5.62716E-02 9.14697E-04 1.02047E-01 2.75181E-14 4.14977E-13
 -1      2930 2.00600E+01 7.60946E-02-3.49446E-04 1.24099E-01 6.79103E-14 1.67589E-13
 -1      2931 2.00362E+01 3.85945E-02 1.45901E-04 5.69042E-02 1.98978E-13 3.79845E-13
 -1      2932 2.00474E+01 4.37612E-02 7.02066E-04 6.95827E-02 2.24758E-13 3.75265E-13
 -1      2933 2.00418E+01 5.95630E-02-2.68708E-04 8.66161E-02 1.41469E-13 1.80349E-13
 -1      2934 2.00223E+01 3.26693E-02 1.85114E-04 3.84771E-02-7.87658E-14 5.79986E-13
 -1      2935 2.00303E+01 3.70177E-02 5.26120E-04 4.84404E-02-1.41451E-14 4.90744E-13
 -1      2936 2.00274E+01 4.88989E-02-5.00706E-04 6.12869E-02-2.05155E-14 5.34919E-13
 -1      2937 2.00171E+01 4.31482E-02-4.39355E-04 4.47993E-02-1.09062E-13 5.31893E-13
 -1      2938 2.69177E+01-3.75368E+00-1.69711E-01 1.48793E+00-1.05891E-13 4.66571E-14
 -1      2939 2.51900E+01-4.56822E+00 9.25892E-02 3.03599E+00-3.83374E-14 5.49144E-14
 -1      2940 1.99669E+01 1.19926E-01-3.19061E-04 5.66534E-03-2.37119E-13-7.05442E-13
 -1      2941 1.99685E+01 1.18315E-01-1.35969E-04 1.48147E-02-1.06547E-13-4.15139E-13
 -1      2942 2.00266E+01 4.32457E-02 4.98561E-04-4.94671E-02-1.71504E-13-1.35552E-13
 -1      2943 2.00212E+01 3.89711E-02 5.40566E-05-4.20275E-02-1.93615E-13-1.23644E-13
 -1      2944 2.00224E+01 5.65851E-02-3.25850E-04-6.12021E-02-3.63761E-13-1.41961E-13
 -1      2945 1.99807E+01 1.00695E-01-4.94136E-04 4.07548E-02-5.43691E-14-2.09663E-13
 -1      2946 1.99870E+01 9.39651E-02 1.87541E-04 4.56072E-02 1.39985E-13-5.54516E-13
 -1      2947 1.99684E+01 1.18794E-01-1.64595E-04-1.49313E-02-1.95358E-13 6.09333E-14
 -1      2948 1.99669E+01 1.20227E-01-2.99769E-04-5.74801E-03-2.17282E-13-3.78948E-13
 -1      2949 1.99591E+01 1.36107E-01 5.36609E-04 1.28982E-04 2.60551E-14-5.66559E-13
 -1      2950 1.99713E+01 1.13618E-01-4.36386E-04 2.52686E-02-1.64760E-13-9.05808E-15
 -1      2951 1.99756E+01 1.09187E-01 3.92394E-05 3.28876E-02-1.60202E-13 1.62164E-13
 -1      2952 1.99728E+01 1.18771E-01 4.08404E-04 4.30906E-02-4.87382E-14-1.67736E-13
 -1      2953 1.99627E+01 1.31331E-01 4.97273E-04 2.34761E-02-5.57147E-14-2.14710E-13
 -1      2954 1.99754E+01 1.10514E-01 1.48035E-05-3.29137E-02-1.92601E-13-2.37840E-13
 -1      2955 1.99712E+01 1.14703E-01-4.29744E-04-2.53340E-02-2.62732E-13 4.08078E-14
 -1      2956 1.99626E+01 1.32524E-01 5.26526E-04-2.31763E-02-3.07360E-14 5.35383E-14
 -1      2957 1.99870E+01 9.56492E-02 1.58113E-04-4.59395E-02-8.22090E-14 7.09971E-15
 -1      2958 1.99806E+01 1.02353E-01-5.06986E-04-4.09964E-02-8.53203E-14-1.20098E-13
 -1      2959 1.99727E+01 1.20933E-01 4.43133E-04-4.30275E-02-1.11931E-13-5.76796E-14
 -1      2960 2.00008E+01 7.56702E-02 6.22117E-05-5.13280E-02-1.59019E-13 3.68471E-13
 -1      2961 1.99939E+01 8.44304E-02-4.69396E-04-5.02679E-02-6.91784E-14 1.18267E-13
 -1      2962 1.99877E+01 1.02549E-01 3.10205E-04-5.64212E-02-9.06206E-14 2.25007E-14
 -1      2963 2.00415E+01 2.88575E-01 4.37825E-04-6.05892E-02 7.74597E-14-4.10382E-14
 -1      2964 2.00877E+01 3.63710E-01 7.36362E-03 5.35809E-02 9.48587E-14-2.71670E-14
 -1      2965 2.01937E+01 5.36758E-01-1.76290E-03 1.71564E-01 1.17381E-13-5.62731E-14
 -1      2966 2.01237E+01 3.45211E-01-2.59011E-03-8.63229E-02 1.13592E-13-1.04951E-13
 -1      2967 1.81487E+01-4.64387E+00 1.10394E-01-6.09586E+00-9.85600E-14 6.80081E-14
 -1      2968 2.08025E+01-5.21240E+00-5.71818E-02-5.54578E+00-1.08843E-13 2.25431E-13
 -1      2969 1.16063E+01-2.68550E+00 1.51543E-01-5.41194E+00 2.96985E-14 4.62408E-14
 -1      2970 1.52257E+01-4.04225E+00 2.60446E-03-6.15548E+00 1.18072E-13-2.17062E-13
 -1      2971 7.58422E+00-1.12750E+00 1.43421E-01-2.95111E+00-2.76862E-14 3.13582E-13
 -1      2972 8.95540E+00-1.78185E+00 9.12648E-02-4.37201E+00-6.31578E-14 2.81997E-13
 -1      2973 6.79504E+00-5.42241E-01 8.95869E-02 1.44631E+00-1.13552E-13 2.39309E-13
 -1      2974 6.78958E+00-6.03155E-01 1.74007E-01-1.24522E+00-9.74359E-14 3.24046E-13
 -1      2975 2.78674E+01 5.24935E+00-1.51401E-01 1.47767E+00 2.19463E-13 5.93969E-14
 -1      2976 2.80826E+01 6.29602E+00-1.78394E-01 6.88929E-01 1.95427E-13 3.22242E-14
 -1      2977 1.07269E+01-1.87775E+00 8.06093E-02 5.22888E+00-1.80411E-14 3.05034E-14
 -1      2978 8.71368E+00-8.56527E-01 2.00455E-01 3.53987E+00-8.40647E-14 1.47604E-13
 -1      2979 2.00561E+01 1.20775E-01 1.98327E-03-4.64189E-01 1.85989E-14-5.64899E-14
 -1      2980 2.00170E+01 1.29430E-01 1.54746E-03-4.19562E-01 6.59872E-14-8.65952E-14
 -1      2981 2.00961E+01 1.54476E-01-1.93250E-03-5.15202E-01-9.71323E-16-3.28666E-14
 -1      2982 2.00135E+01 1.43169E-01 1.60020E-03-3.64525E-01 7.85439E-14-8.19905E-14
 -1      2983 1.99965E+01 1.64729E-01 2.90846E-03-3.08631E-01 8.03206E-14-6.47117E-14
 -1      2984 2.00765E+01 1.79208E-01-2.34159E-03-4.05751E-01 5.88846E-14-6.64906E-14
 -1      2985 2.03334E+01 1.02443E+00 2.84547E-03-7.27433E-01-1.19888E-13-1.04358E-13
 -1      2986 2.02559E+01 8.04675E-01-3.00935E-03-4.80045E-01-1.07158E-13-1.06792E-13
 -1      2987 2.02832E+01 8.81227E-01-4.12977E-03-4.28492E-01-8.86025E-14-1.23635E-13
 -1      2988 2.03092E+01 1.25806E+00 2.68248E-03-7.55090E-01-1.13660E-13-1.20585E-13
 -1      2989 2.88297E+01 4.04069E-01-1.63581E-01-1.24612E+00 2.51632E-13-2.31454E-13
 -1      2990 2.83481E+01-1.56031E+00 6.10074E-03-2.79190E-01 8.62296E-14-1.19918E-13
 -1      2991 1.99229E+01 2.66216E+00-7.70370E-03 7.46530E-01 1.32328E-13-1.58178E-13
 -1      2992 1.98733E+01 2.75992E+00-6.53002E-03 6.03459E-01 1.02212E-13-1.88819E-13
 -1      2993 1.99840E+01 2.47848E+00 4.82490E-03 4.73597E-01 9.05415E-14-1.86074E-13
 -1      2994 2.00783E+01 2.26411E+00 5.85627E-03 6.88081E-01 1.34997E-13-1.23174E-13
 -1      2995 1.98692E+01 2.76976E+00-6.52521E-03-5.93561E-01-5.14084E-14-2.09865E-13
 -1      2996 1.99177E+01 2.67484E+00-7.54988E-03-7.37014E-01-7.30506E-14-1.96114E-13
 -1      2997 1.14189E+01-3.07322E+00 8.68071E-02 5.77625E+00 9.08162E-14-9.74221E-14
 -1      2998 8.65212E+00-2.00192E+00 1.57325E-01 4.34112E+00 2.06363E-14-2.55546E-13
 -1      2999 2.90754E+01 1.02327E+00-6.28359E-02 1.44264E+00 5.88835E-14 1.78912E-13
 -1      3000 2.85969E+01 3.18105E+00-1.67484E-01 1.93225E+00 1.29841E-13 7.18037E-14
 -1      3001 2.79742E+01-2.55929E+00 1.44462E-02-5.42600E-01-4.05197E-14 6.09790E-14
 -1      3002 2.87129E+01-1.11071E+00-1.72354E-01 4.53106E-01-4.37844E-15 9.44800E-14
 -1      3003 1.22688E+01-2.86913E+00 1.32703E-01-5.89969E+00-1.45689E-13-2.34021E-13
 -1      3004 1.52265E+01-3.94901E+00 6.34061E-02-6.48769E+00-1.39014E-13-1.13784E-13
 -1      3005 2.97942E+01-1.10887E-01-3.10598E-01-1.95977E+00-1.99139E-13 3.45834E-14
 -1      3006 2.98108E+01-1.36813E+00-3.73718E-04-1.21024E+00-1.15331E-13 2.83107E-14
 -1      3007 1.73246E+01-4.70045E+00 6.00855E-02 6.16577E+00 1.47798E-13 2.25972E-13
 -1      3008 1.47215E+01-3.91504E+00 1.47139E-01 6.08095E+00 1.14020E-13 1.04555E-13
 -1      3009 2.00167E+01 4.65783E-02-1.74324E-05-4.48329E-02-2.48053E-13-1.51573E-13
 -1      3010 2.47961E+01-5.17756E+00 5.99141E-02-3.25891E+00 2.02602E-13 1.09052E-13
 -1      3011 2.66775E+01-4.61602E+00-1.12917E-01-1.71814E+00 2.76258E-13 2.62158E-13
 -1      3012 2.84177E+01 1.16211E+00-5.96640E-02 2.61130E+00-1.62467E-13-3.82541E-13
 -1      3013 1.91964E+01-4.84194E+00 1.22478E-01-5.54315E+00 1.69059E-13 4.67265E-14
 -1      3014 2.21904E+01-5.32239E+00-4.77589E-02-4.72506E+00 2.09388E-13 1.96967E-13
 -1      3015 2.36435E+01-4.74733E+00 1.00531E-01-3.39513E+00 1.06526E-13 2.28859E-13
 -1      3016 2.38509E+01-4.93945E+00 8.06941E-02-3.98429E+00-1.10301E-13 1.82722E-13
 -1      3017 2.62686E+01-4.29844E+00-1.28285E-01-2.36642E+00-6.68632E-14 1.42344E-13
 -1      3018 2.80394E+01 6.52096E+00-1.83104E-01-4.89004E-02 1.80689E-13 7.44092E-14
 -1      3019 2.79712E+01 6.12532E+00-1.72339E-01-9.49834E-01 2.95486E-13-1.22125E-15
 -1      3020 2.65056E+01 5.56553E+00-1.08223E-01 3.63381E-01 1.88641E-13 1.39401E-13
 -1      3021 1.99773E+01 2.54439E+00-6.98255E-03-8.49259E-01-8.69909E-14-1.80396E-13
 -1      3022 2.00477E+01 2.39158E+00-9.92103E-03-9.79792E-01-1.12019E-13-1.70029E-13
 -1      3023 2.00737E+01 2.27871E+00 6.11798E-03-6.81502E-01-7.60629E-14-1.61000E-13
 -1      3024 1.99059E+01 2.64390E+00 3.93988E-03 4.00266E-03 3.19005E-14-2.08076E-13
 -1      3025 1.97747E+01 2.95892E+00-5.66361E-03-5.67790E-02 3.03136E-14-2.25053E-13
 -1      3026 1.97837E+01 2.94313E+00-5.61316E-03-2.02229E-01 1.01516E-14-2.21930E-13
 -1      3027 2.03108E+01 1.61487E+00-1.54007E-03 1.10712E+00 1.85478E-13-6.94826E-14
 -1      3028 2.28600E+01-4.75592E+00 6.76119E-02-4.11334E+00-1.19113E-13 1.73722E-13
 -1      3029 2.67719E+01 4.62854E+00-9.14584E-02 1.53072E-01-3.16025E-13-5.86226E-13
 -1      3030 2.87568E+01 5.82751E+00-1.97647E-01-1.64922E-01-4.44395E-13-2.20377E-13
 -1      3031 2.69280E+01-3.77972E+00-1.91336E-02-4.47333E-01 2.77785E-13 5.34642E-14
 -1      3032 2.71909E+01-2.65605E+00-1.77884E-02 1.82853E-01-2.51500E-14-7.24421E-14
 -1      3033 2.84089E+01 1.49752E+00-8.91633E-02-1.87260E+00 2.81233E-13-1.52225E-13
 -1      3034 2.74635E+01 3.57903E-01 7.82441E-03-1.81601E+00 2.31495E-13-1.84172E-13
 -1      3035 2.71578E+01 2.48549E+00-1.65212E-01-2.17209E+00 2.36228E-13-1.45231E-13
 -1      3036 2.76402E+01-2.59348E+00-6.97660E-02-9.80176E-01 8.45990E-14-1.31492E-14
 -1      3037 2.76521E+01-1.56014E+00-9.10524E-02-2.05658E+00-3.31332E-14 1.15789E-13
 -1      3038 2.77633E+01 1.32996E-01-6.89125E-02-2.59951E+00-1.87808E-13-7.63278E-15
 -1      3039 2.62428E+01-3.29475E+00-4.23529E-02 5.01025E-02 1.85477E-13-1.02376E-13
 -1      3040 1.99875E+01 9.99930E-02 2.45015E-04 5.60033E-02 2.32035E-13-5.46259E-13
 -1      3041 1.99935E+01 8.28029E-02-4.71392E-04 4.96809E-02 1.75654E-13-6.11940E-13
 -1      3042 2.00006E+01 7.44713E-02 2.38200E-04 5.09639E-02 1.01198E-13-4.06494E-13
 -1      3043 1.96826E+01-4.93130E+00 3.51593E-02 5.29269E+00 2.10720E-13 2.53561E-13
 -1      3044 2.00846E+01 2.36013E-01-2.72602E-03-2.69762E-01 9.06018E-14-8.51349E-14
 -1      3045 2.00062E+01 6.33536E-02-4.16141E-04 5.04948E-02 7.14509E-15-1.04246E-13
 -1      3046 2.00126E+01 5.43772E-02 2.26494E-04 4.82772E-02 1.99249E-14 1.62327E-13
 -1      3047 2.00172E+01 5.79646E-02 3.96103E-04 5.62550E-02-1.45439E-13 1.75243E-13
 -1      3048 2.00034E+01 7.87752E-02 2.49803E-04 5.99985E-02 1.69211E-13-2.09943E-13
 -1      3049 8.83628E+00-2.45144E-01 1.85599E-01-1.79746E+00-1.18006E-13 2.86840E-13
 -1      3050 1.13080E+01-2.12433E+00 1.58022E-01-5.37864E+00-1.18017E-13-2.51188E-13
 -1      3051 1.37447E+01-2.25491E+00 8.89985E-02-5.33792E+00-1.38202E-13-1.25844E-13
 -1      3052 1.04476E+01-1.29360E+00 1.29612E-01-4.43774E+00-6.13606E-14-1.71807E-13
 -1      3053 2.67268E+01-3.47012E+00-4.29958E-04-1.03811E+00-9.19334E-14 1.03501E-13
 -1      3054 2.00119E+01 5.68308E-02 1.49943E-04-4.76977E-02-2.70986E-13 2.58865E-14
 -1      3055 2.80247E+01-2.72015E-01-6.84254E-02 1.34356E+00 1.11716E-14 1.66964E-13
 -1      3056 2.54993E+01-5.08887E+00 1.68761E-02 3.20485E+00 2.93224E-13-9.21208E-14
 -1      3057 2.39920E+01-5.16089E+00 4.68941E-02 3.75411E+00 2.77126E-13-8.24341E-15
 -1      3058 2.65325E+01-4.68485E+00-5.41249E-02 1.75898E+00 2.91253E-13-1.31242E-13
 -1      3059 1.20878E+01-1.76082E+00 1.70140E-01-4.67393E+00 1.11300E-13 7.26780E-14
 -1      3060 2.87269E+01-2.56701E+00-1.61140E-02-3.60566E-01 6.07882E-14-5.99659E-14
 -1      3061 1.36683E+01-2.18534E+00 1.14890E-01 5.24399E+00-2.67564E-14 1.23401E-13
 -1      3062 2.75424E+01 3.80039E+00-1.42195E-01 1.90410E+00 1.19904E-13 9.11909E-14
 -1      3063 2.60641E+01 4.31617E+00-8.02221E-02 1.63260E+00 1.28453E-13 1.35482E-13
 -1      3064 2.69044E+01 2.45552E+00-3.91548E-02 2.10797E+00 1.09635E-14 2.07286E-13
 -1      3065 9.40690E+00-1.73964E-01 1.62111E-01 2.16532E+00-1.25101E-13 2.85272E-13
 -1      3066 1.81908E+01-3.81284E+00 1.62871E-01-5.25843E+00 1.35836E-13-4.28199E-14
 -1      3067 8.13094E+00-1.22927E+00 1.75261E-01 3.30804E+00 2.22253E-14-3.40505E-13
 -1      3068 8.03604E+00-4.84467E-01 1.40771E-01 1.98627E+00 3.52079E-14-3.66346E-13
 -1      3069 1.04364E+01-1.16360E+00 1.23200E-01 3.87077E+00 4.64281E-14-1.81577E-13
 -1      3070 2.03016E+01 1.40603E+00 2.42349E-03 8.52353E-01 1.68623E-13-8.90126E-14
 -1      3071 2.72664E+01 5.03970E+00-1.24420E-01-1.30263E+00 2.34035E-13-1.61815E-14
 -1      3072 1.98022E+01 2.90396E+00-6.00598E-03-3.26783E-01-2.40838E-15-1.99574E-13
 -1      3073 1.98306E+01 2.85204E+00-6.12963E-03-4.72223E-01-3.20096E-14-2.05145E-13
 -1      3074 1.99803E+01 2.48802E+00 4.80401E-03-4.64780E-01-3.81869E-14-1.87865E-13
 -1      3075 1.99239E+01 2.60670E+00 4.12241E-03-2.33303E-01 5.44756E-15-2.02250E-13
 -1      3076 1.75367E+01-3.86463E+00 1.01513E-01-5.76345E+00-1.61149E-13 7.43294E-14
 -1      3077 1.40743E+01-2.92933E+00 1.22930E-01 5.52479E+00 9.56457E-14 7.46903E-14
 -1      3078 6.55164E+00-8.47400E-01 1.93116E-01-1.60585E+00 2.99032E-14-2.72754E-13
 -1      3079 8.28673E+00-5.86749E-01 1.05006E-01-2.59453E+00-2.30406E-14-2.00368E-13
 -1      3080 7.44629E+00-2.68630E-01 1.37003E-01-4.46053E-01-7.87218E-15-3.54355E-13
 -1      3081 2.37755E+01-4.63511E+00 5.17006E-02 3.48512E+00-5.70446E-14-9.25475E-14
 -1      3082 2.00148E+01 6.45865E-02-1.66434E-04-6.00148E-02-4.58329E-13-1.65376E-13
 -1      3083 2.00065E+01 6.95655E-02-1.71883E-04-5.46829E-02-3.27529E-13 6.97585E-14
 -1      3084 2.00038E+01 8.55052E-02 4.24376E-04-6.42916E-02-2.95101E-13 5.54065E-14
 -1      3085 2.00190E+01 7.18375E-02 5.78435E-04-6.95061E-02-4.34027E-13-1.79232E-13
 -1      3086 2.87791E+01 5.37999E+00-1.56675E-01-1.17211E+00-3.89550E-13-1.49256E-13
 -1      3087 2.16799E+01-4.34675E+00 9.53509E-02-4.26411E+00-1.00697E-13 1.74004E-13
 -1      3088 2.37893E+01-4.67555E+00-1.06471E-01-3.04588E+00-1.12257E-13 7.43138E-14
 -1      3089 2.02538E+01 1.54102E+00-5.93216E-03 7.28361E-01 1.53179E-13-9.74897E-14
 -1      3090 2.02071E+01 1.73837E+00-8.49472E-04 6.73259E-01 1.48517E-13-1.11141E-13
 -1      3091 2.51362E+01-4.27629E+00-1.66860E-02-1.68994E+00 1.35589E-13 1.77462E-14
 -1      3092 1.67894E+01-3.03287E+00 8.23641E-02-5.34200E+00-1.49318E-13 4.27436E-14
 -1      3093 1.91074E+01-3.98460E+00-2.17103E-02-5.18649E+00-1.35142E-13 1.46418E-13
 -1      3094 2.53036E+01 4.75225E+00-1.32119E-01 8.41415E-01 1.59026E-13 1.69448E-14
 -1      3095 2.52558E+01 4.93342E+00-1.43334E-01-1.34759E-01 1.38070E-13 5.97170E-14
 -1      3096 2.72575E+01-4.09390E+00-3.24905E-02 6.00355E-01 2.36297E-13-1.20001E-13
 -1      3097 2.02441E+01 5.47795E-01 3.42954E-03 3.84754E-02-6.50647E-14-8.32052E-14
 -1      3098 2.02125E+01 4.60307E-01-1.34209E-03 1.49667E-01-4.96671E-14-9.11172E-14
 -1      3099 2.01914E+01 3.97503E-01 2.20182E-03 2.40380E-01-6.24745E-14-1.04586E-13
 -1      3100 2.01707E+01 3.51133E-01-1.64684E-04 3.25348E-01-8.88180E-14-1.30108E-13
 -1      3101 2.02327E+01 5.14098E-01-5.53511E-04 1.74201E-01-7.59992E-14-1.30451E-13
 -1      3102 2.01433E+01 3.22106E-01 9.54761E-04 3.98202E-01-7.36033E-14-1.08053E-13
 -1      3103 2.01330E+01 3.05867E-01 7.21953E-04 4.68474E-01-5.58338E-14-1.15301E-13
 -1      3104 2.01786E+01 4.03995E-01-5.92645E-04 3.42995E-01-7.29303E-14-9.22086E-14
 -1      3105 2.01010E+01 3.01360E-01-1.53466E-04 5.32447E-01-6.77157E-15-1.05983E-13
 -1      3106 2.00990E+01 3.07336E-01 1.36749E-03 5.97216E-01 2.12556E-14-6.06780E-14
 -1      3107 2.01185E+01 3.62427E-01-3.11583E-04 4.83843E-01-1.19884E-14-7.42086E-14
 -1      3108 2.00620E+01 3.20845E-01-1.13885E-03 6.59602E-01 9.40579E-15-6.26509E-14
 -1      3109 2.00658E+01 3.43081E-01 1.84914E-03 7.25906E-01 3.57543E-15-1.65278E-14
 -1      3110 2.00524E+01 3.71485E-01 1.31498E-04 6.12696E-01 2.47706E-14-6.15661E-14
 -1      3111 2.00219E+01 3.69259E-01-2.01318E-03 7.92506E-01-2.25885E-14-9.40966E-16
 -1      3112 2.00293E+01 4.02325E-01 2.23530E-03 8.65460E-01-2.72519E-14 4.00695E-14
 -1      3113 1.99773E+01 4.17528E-01 6.78681E-04 7.42553E-01 1.48811E-14-6.86503E-14
 -1      3114 1.99762E+01 4.35636E-01-2.78793E-03 9.40761E-01-6.37733E-14 6.23921E-14
 -1      3115 1.99855E+01 4.73251E-01 2.60375E-03 1.02373E+00-1.07639E-13 3.32951E-14
 -1      3116 1.98883E+01 4.88131E-01 1.29201E-03 8.83585E-01-3.70731E-14-3.32622E-14
 -1      3117 1.99212E+01 5.06459E-01-3.44276E-03 1.11124E+00-1.13502E-13 8.28553E-14
 -1      3118 1.99324E+01 5.39780E-01 3.07698E-03 1.20590E+00-4.16627E-14 6.41156E-14
 -1      3119 1.97804E+01 5.69170E-01 1.89285E-03 1.04370E+00-6.49815E-14 6.04294E-14
 -1      3120 1.98561E+01 5.61997E-01-3.89252E-03 1.30858E+00-3.15220E-14 6.23222E-14
 -1      3121 1.98727E+01 5.77393E-01 3.87621E-03 1.41485E+00-1.46968E-14 6.55671E-14
 -1      3122 1.96497E+01 6.41311E-01 2.32444E-03 1.22950E+00-2.39782E-14 1.71186E-13
 -1      3123 1.97879E+01 5.71554E-01-3.92894E-03 1.53585E+00-2.72079E-14 4.06301E-14
 -1      3124 1.98201E+01 5.47734E-01 5.37680E-03 1.65168E+00-2.70914E-14 8.31575E-15
 -1      3125 1.94973E+01 6.75440E-01 2.26795E-03 1.44784E+00-4.70614E-14 1.27393E-13
 -1      3126 1.97386E+01 4.87533E-01-3.04804E-03 1.79506E+00-4.44310E-14-4.98945E-14
 -1      3127 1.98095E+01 3.92195E-01 8.14239E-03 1.91573E+00-8.87992E-14-5.97678E-14
 -1      3128 1.93351E+01 6.26676E-01 1.13158E-03 1.70808E+00-8.88822E-14 5.88289E-15
 -1      3129 1.97597E+01 2.39421E-01 2.62199E-05 2.08630E+00-1.02975E-13-1.96360E-14
 -1      3130 1.99138E+01 2.73354E-02 1.33523E-02 2.20151E+00-9.00254E-14-1.38757E-14
 -1      3131 1.91971E+01 4.26910E-01-1.96243E-03 2.02436E+00-6.42586E-14-3.72595E-14
 -1      3132 1.99538E+01-2.67175E-01 8.43694E-03 2.40314E+00-5.45978E-14 2.46090E-14
 -1      3133 2.02623E+01-6.60954E-01 1.77251E-02 2.49081E+00-3.55779E-14 9.01783E-14
 -1      3134 1.91566E+01-2.03836E-02-8.19129E-03 2.41386E+00-3.73077E-14 9.47354E-14
 -1      3135 2.05190E+01-1.12942E+00 3.04797E-02 2.69053E+00 1.17239E-14 1.07791E-13
 -1      3136 2.10873E+01-1.72926E+00 3.30206E-02 2.70625E+00 1.09027E-13 7.73142E-14
 -1      3137 1.93566E+01-8.66389E-01-2.81922E-02 2.88441E+00-1.43453E-14 1.77195E-13
 -1      3138 2.17412E+01-2.44541E+00 5.37182E-02 2.79578E+00 1.06963E-13 3.70624E-14
 -1      3139 2.26759E+01-3.12351E+00 4.62683E-02 2.54530E+00 1.78538E-13-4.14833E-14
 -1      3140 2.01324E+01-2.22746E+00-7.67310E-02 3.33887E+00 4.92419E-14 1.51710E-13
 -1      3141 2.98944E+01 2.27462E+00-1.14567E-01-2.19084E+00-2.89213E-13 1.21653E-13
 -1      3142 2.33231E+01-4.08581E+00 4.81187E-02-2.84902E+00-1.74080E-14 2.84902E-14
 -1      3143 2.67280E+01 4.24826E+00-1.45070E-01-1.21278E+00-2.65649E-13-4.15085E-13
 -1      3144 9.50868E+00 2.97233E-01 5.24744E-02-9.57691E-01 5.84142E-14 2.19311E-13
 -1      3145 1.03378E+01-1.70908E-01 8.05678E-02-2.67708E+00 7.77989E-14 2.70978E-13
 -1      3146 2.14585E+01-2.03211E+00 4.88324E-02-2.64652E+00 2.21156E-13 4.58691E-14
 -1      3147 2.07620E+01-1.42090E+00 3.15886E-02-2.71265E+00 2.91015E-13 1.17807E-13
 -1      3148 2.04179E+01-8.57756E-01 2.21230E-02-2.50808E+00 1.61298E-13 1.35458E-14
 -1      3149 2.00545E+01-4.16534E-01 1.10104E-02-2.43264E+00 1.35144E-13-1.95716E-14
 -1      3150 1.95043E+01-1.08861E+00-1.34413E-02-2.99461E+00 2.18207E-13 1.20112E-13
 -1      3151 1.99746E+01-7.18239E-02 1.46161E-02-2.21861E+00 2.18833E-13-1.04423E-13
 -1      3152 1.97908E+01 1.82411E-01 1.35104E-03-2.10013E+00 1.69118E-13-2.64090E-14
 -1      3153 1.91717E+01-1.41347E-01-9.57701E-03-2.47387E+00 1.42043E-13-4.35489E-14
 -1      3154 1.98227E+01 3.69890E-01 8.89876E-03-1.91424E+00 8.03023E-14-4.47980E-14
 -1      3155 1.97378E+01 4.93824E-01-2.43122E-03-1.78487E+00-7.49974E-14-5.78970E-14
 -1      3156 1.91629E+01 3.94942E-01-2.64964E-03-2.04743E+00 1.25512E-13-2.13896E-13
 -1      3157 1.98116E+01 5.76792E-01 5.68795E-03-1.62618E+00-1.19887E-13 1.61352E-14
 -1      3158 1.97742E+01 6.18621E-01-3.66256E-03-1.49882E+00-6.73087E-14 5.25540E-14
 -1      3159 1.92797E+01 6.54751E-01 1.09840E-03-1.69742E+00 2.74792E-14-7.48310E-14
 -1      3160 1.98551E+01 6.38212E-01 3.89332E-03-1.36288E+00-1.42342E-13 8.46114E-14
 -1      3161 1.98373E+01 6.33017E-01-3.83063E-03-1.24355E+00-1.57956E-13 3.64185E-14
 -1      3162 1.94328E+01 7.41196E-01 2.57257E-03-1.40620E+00-1.14416E-13-7.55700E-15
 -1      3163 1.99102E+01 6.17758E-01 2.93940E-03-1.12645E+00-1.87293E-13 8.25418E-14
 -1      3164 1.98987E+01 5.88475E-01-3.54779E-03-1.01838E+00-1.28892E-13 1.37716E-13
 -1      3165 1.95793E+01 7.28171E-01 2.82056E-03-1.15895E+00-1.69196E-13-4.86843E-14
 -1      3166 1.99583E+01 5.56506E-01 2.42166E-03-9.17642E-01-9.20055E-14 9.94435E-14
 -1      3167 1.99476E+01 5.17169E-01-3.08935E-03-8.22467E-01-8.79210E-14 3.25342E-16
 -1      3168 1.97025E+01 6.63650E-01 2.52011E-03-9.46590E-01-1.51390E-13 1.30061E-13
 -1      3169 1.99936E+01 4.79279E-01 2.09735E-03-7.36498E-01-1.18990E-13 1.26769E-14
 -1      3170 1.99823E+01 4.37949E-01-2.59211E-03-6.54678E-01-2.18419E-13 3.10012E-14
 -1      3171 1.97987E+01 5.77178E-01 2.03117E-03-7.64152E-01-1.74328E-13-7.48733E-14
 -1      3172 2.00164E+01 4.00127E-01 1.84491E-03-5.82207E-01-1.11821E-13 3.35400E-13
 -1      3173 2.00045E+01 3.61087E-01-2.11958E-03-5.13355E-01 3.43697E-14 2.58162E-13
 -1      3174 1.98700E+01 4.85979E-01 1.53070E-03-6.08659E-01-9.44518E-15 2.28315E-13
 -1      3175 2.00289E+01 3.26361E-01 1.61453E-03-4.53134E-01 1.07614E-13 2.64324E-13
 -1      3176 2.00172E+01 2.91620E-01-1.69928E-03-3.96291E-01 9.80371E-14 2.39906E-13
 -1      3177 1.99208E+01 3.99397E-01 1.09802E-03-4.77790E-01 1.13506E-13 3.45883E-13
 -1      3178 2.00341E+01 2.61289E-01 1.39143E-03-3.47003E-01-1.59066E-14 1.41294E-13
 -1      3179 2.00231E+01 2.31556E-01-1.34057E-03-3.00882E-01 4.63941E-14 8.38136E-14
 -1      3180 1.99556E+01 3.21947E-01 7.54956E-04-3.69263E-01 4.19281E-14 4.25506E-13
 -1      3181 2.00345E+01 2.05953E-01 1.17556E-03-2.61158E-01 4.13981E-14 1.64999E-13
 -1      3182 2.00245E+01 1.81229E-01-1.04380E-03-2.24330E-01 3.30735E-14 1.87407E-13
 -1      3183 1.99786E+01 2.55332E-01 4.99943E-04-2.80657E-01 1.34690E-13 2.25481E-13
 -1      3184 2.00319E+01 1.60180E-01 9.70397E-04-1.92795E-01-3.42584E-14 7.52214E-14
 -1      3185 2.00232E+01 1.40099E-01-8.06215E-04-1.63827E-01 5.88159E-14-8.86109E-14
 -1      3186 1.99931E+01 1.99670E-01 3.17365E-04-2.09441E-01-5.99465E-14 7.33068E-14
 -1      3187 2.00276E+01 1.23180E-01 7.82947E-04-1.39188E-01 2.12776E-13-1.97194E-13
 -1      3188 2.00204E+01 1.07250E-01-5.34637E-04-1.16742E-01 5.85852E-14-7.34784E-14
 -1      3189 2.00015E+01 1.54243E-01 1.97748E-04-1.53119E-01 4.18203E-14-1.88632E-13
 -1      3190 2.00239E+01 9.43599E-02 6.59893E-04-9.99697E-02-1.60957E-13-1.35578E-13
 -1      3191 2.00177E+01 8.19178E-02-3.07155E-04-8.25873E-02-2.96652E-13-6.96481E-14
 -1      3192 2.00092E+01 8.98307E-02-3.30492E-04-8.09975E-02-3.74926E-13-2.34490E-13
 -1      3193 2.00068E+01 1.17936E-01-8.62711E-05-1.11557E-01-2.53423E-14-1.83593E-13
 -1      3194 2.01862E+01-4.13976E+00-4.90636E-02 4.76935E+00-6.97706E-14-1.03459E-13
 -1      3195 1.83172E+01-3.40068E+00 8.87042E-02 5.13508E+00-8.29198E-14 2.07959E-14
 -1      3196 2.01430E+01 2.84774E-01 3.87532E-05-2.95580E-01 6.50445E-14-7.28101E-14
 -1      3197 2.01584E+01 3.34800E-01 2.58668E-03-2.13425E-01 9.32247E-14-9.21565E-14
 -1      3198 2.01454E+01 1.94986E-01 1.79948E-03-6.46050E-01 2.37329E-14-6.56292E-14
 -1      3199 2.01180E+01 1.95461E-01 9.57595E-05-5.96574E-01-8.42913E-16-3.03797E-14
 -1      3200 2.03227E+01 1.58012E-01 2.03541E-03-9.48911E-01-3.21472E-14 3.60961E-14
 -1      3201 2.02558E+01 1.77785E-01 4.92979E-05-9.04705E-01 1.78294E-14-4.02849E-14
 -1      3202 2.04454E+01 8.09236E-02 1.70787E-03-1.03714E+00-6.21923E-15 1.33449E-13
 -1      3203 2.03596E+01 1.26520E-01 9.61913E-04-1.00275E+00 7.96875E-15 9.59207E-14
 -1      3204 2.01861E+01 1.75984E-01-2.39869E-03-1.02444E+00-3.98118E-14 5.58787E-14
 -1      3205 2.06241E+01-6.42867E-02 1.00028E-03-1.09662E+00-2.49212E-14 1.38428E-13
 -1      3206 2.05133E+01 1.90326E-02 2.58715E-03-1.08253E+00 6.12641E-15 1.49360E-13
 -1      3207 2.02837E+01 6.98400E-02-3.85027E-03-1.13141E+00 5.23025E-15 1.11418E-13
 -1      3208 2.08828E+01-2.98783E-01-3.60808E-04-1.10015E+00 4.82893E-14 9.23646E-14
 -1      3209 2.07396E+01-1.67356E-01 5.07660E-03-1.12168E+00 8.63552E-15 1.11935E-13
 -1      3210 2.04522E+01-1.21744E-01-6.07625E-03-1.21395E+00 1.06758E-14 1.44009E-13
 -1      3211 2.12484E+01-6.31929E-01-2.79317E-03-1.00860E+00 1.40001E-14 1.71893E-13
 -1      3212 2.10671E+01-4.49668E-01 8.46587E-03-1.08594E+00 4.62674E-14 1.45344E-13
 -1      3213 2.07269E+01-4.22665E-01-9.16339E-03-1.24365E+00 2.97733E-14 9.89384E-14
 -1      3214 2.17413E+01-1.04024E+00-6.60903E-03-7.70633E-01-1.80897E-14 1.92585E-13
 -1      3215 2.15236E+01-8.24524E-01 1.23665E-02-9.26760E-01 1.00850E-14 1.85544E-13
 -1      3216 2.11502E+01-8.39797E-01-1.26364E-02-1.17537E+00 4.47233E-15 1.54618E-13
 -1      3217 2.23514E+01-1.43355E+00-1.16382E-02-3.31882E-01-1.06261E-13 2.28127E-13
 -1      3218 2.21176E+01-1.24065E+00 1.53001E-02-5.84029E-01-6.30455E-14 2.11177E-13
 -1      3219 2.17583E+01-1.33454E+00-1.49157E-02-9.43037E-01-6.42551E-14 1.20027E-13
 -1      3220 2.30153E+01-1.60820E+00-1.03982E-02 3.36590E-01-1.23753E-13 2.41753E-13
 -1      3221 2.28021E+01-1.55991E+00 1.37749E-02-4.45719E-03-1.22389E-13 2.33350E-13
 -1      3222 2.25514E+01-1.77915E+00-1.30836E-02-4.65717E-01-1.35965E-13 1.58109E-13
 -1      3223 2.35758E+01-1.29814E+00-4.77815E-03 1.13494E+00-7.45396E-14 2.69838E-13
 -1      3224 2.34248E+01-1.54658E+00-3.66110E-03 7.71338E-01-9.94133E-14 2.67761E-13
 -1      3225 2.34010E+01-1.88582E+00-7.79318E-03 3.08506E-01-1.36933E-13 1.48248E-13
 -1      3226 2.37887E+01-2.16400E-01 9.13541E-03 1.79932E+00 1.10803E-13 1.81290E-13
 -1      3227 2.37789E+01-8.65331E-01-2.73501E-02 1.59800E+00 7.21914E-14 2.76200E-13
 -1      3228 2.41561E+01-1.38840E+00 2.06624E-03 1.24235E+00 1.15595E-14 9.77430E-14
 -1      3229 2.35820E+01 1.42112E+00 1.00730E-02 1.88033E+00-2.86784E-14 2.25554E-13
 -1      3230 2.36941E+01 4.96564E-01-6.25795E-02 1.95169E+00 5.07337E-14 2.25532E-13
 -1      3231 2.44165E+01 1.43556E-01 7.71403E-03 1.96143E+00 5.05047E-14 1.58875E-13
 -1      3232 2.33909E+01 3.23110E+00-1.26389E-02 4.23508E-01-3.65732E-14 1.36198E-13
 -1      3233 2.34765E+01 2.77917E+00-5.85302E-02 1.06928E+00-2.23085E-14 1.16099E-13
 -1      3234 2.33803E+01 3.20120E+00-3.92846E-02-3.58119E-01 5.61426E-14 1.17749E-13
 -1      3235 2.33659E+01 1.59562E+00-5.79399E-02-1.71303E+00 1.93813E-13-5.71962E-14
 -1      3236 2.32245E+01 2.36116E+00 2.14232E-03-1.32154E+00 1.78326E-13 4.44852E-14
 -1      3237 2.36878E+01 1.47578E-02-4.34765E-02-1.92667E+00 1.07117E-13-7.70113E-14
 -1      3238 2.36109E+01 8.46176E-01 1.57047E-02-1.91780E+00 1.22279E-13-7.55704E-14
 -1      3239 2.40847E+01 1.38602E+00-1.24337E-02-1.94082E+00 1.91274E-13-3.78551E-14
 -1      3240 2.36419E+01-1.11730E+00-1.77929E-02-1.37404E+00-5.22228E-14 8.15408E-14
 -1      3241 2.36956E+01-6.09044E-01 4.04933E-03-1.65305E+00 9.49674E-15-2.07263E-14
 -1      3242 2.42044E+01-4.16235E-01-3.73071E-04-1.79289E+00 3.07497E-14-1.56125E-17
 -1      3243 2.32136E+01-1.54003E+00 3.26809E-03-5.66473E-01-7.12855E-14 7.19509E-14
 -1      3244 2.33768E+01-1.40057E+00-7.92795E-03-9.33834E-01-5.14773E-14 2.75003E-14
 -1      3245 2.38399E+01-1.47338E+00 1.10740E-02-1.02001E+00-5.84584E-14-1.63996E-14
 -1      3246 2.25756E+01-1.41464E+00 1.41350E-02 1.48220E-01 6.24399E-14 1.94989E-13
 -1      3247 2.27952E+01-1.52871E+00-1.28374E-02-1.62675E-01 3.01937E-14 2.36277E-13
 -1      3248 2.31127E+01-1.78417E+00-3.81994E-03-1.40063E-01-8.45721E-14 9.96382E-14
 -1      3249 2.19362E+01-1.05031E+00 1.39920E-02 6.35307E-01 2.42982E-14 1.56006E-13
 -1      3250 2.21609E+01-1.25939E+00-1.08392E-02 4.21529E-01 9.91420E-14 2.04476E-13
 -1      3251 2.23015E+01-1.54883E+00-1.19552E-02 5.20978E-01 7.70119E-14 3.15968E-13
 -1      3252 2.14019E+01-6.44112E-01 1.08526E-02 9.04888E-01 1.14467E-13 3.45877E-15
 -1      3253 2.16007E+01-8.55244E-01-6.92471E-03 7.84555E-01 2.48450E-14-1.43220E-14
 -1      3254 2.16001E+01-1.09314E+00-1.25666E-02 9.12383E-01 9.66123E-14 1.14093E-13
 -1      3255 2.09988E+01-2.99776E-01 7.26138E-03 1.00904E+00-5.73726E-14-1.18786E-14
 -1      3256 2.11600E+01-4.69504E-01-3.46050E-03 9.61138E-01 1.44052E-14 1.12931E-14
 -1      3257 2.10687E+01-6.31408E-01-9.98411E-03 1.08872E+00 3.30159E-14-3.49211E-14
 -1      3258 2.07114E+01-4.97405E-02 4.29578E-03 1.00362E+00-2.20712E-13 1.04082E-13
 -1      3259 2.08367E+01-1.68371E-01-1.17464E-03 1.00547E+00-7.89676E-14 1.18104E-14
 -1      3260 2.06990E+01-2.59339E-01-7.00651E-03 1.11986E+00-7.47268E-14 1.70197E-13
 -1      3261 2.05120E+01 1.10214E-01 2.17176E-03 9.32470E-01-1.07830E-13-2.70074E-14
 -1      3262 2.06082E+01 3.70990E-02 2.16011E-04 9.65145E-01-2.04438E-13-3.38883E-14
 -1      3263 2.04557E+01 1.35032E-03-4.52325E-03 1.06341E+00-1.10274E-13 1.53541E-13
 -1      3264 2.03744E+01 1.98343E-01 7.77029E-04 8.26771E-01 1.49921E-13 2.18717E-14
 -1      3265 2.04486E+01 1.60158E-01 1.01802E-03 8.76096E-01-2.44303E-14-1.11272E-13
 -1      3266 2.03011E+01 1.62555E-01-2.74247E-03 9.59371E-01 1.33239E-14-1.14105E-13
 -1      3267 2.02784E+01 2.35239E-01-6.44503E-05 7.07545E-01 6.49565E-14 6.14183E-14
 -1      3268 2.03365E+01 2.21304E-01 1.44285E-03 7.63603E-01 1.66960E-13 7.09159E-14
 -1      3269 2.02046E+01 2.47216E-01-1.57630E-03 8.33999E-01 7.80167E-14-1.40222E-13
 -1      3270 2.02101E+01 2.38777E-01-5.25535E-04 5.88254E-01-3.69496E-14 8.95772E-15
 -1      3271 2.02560E+01 2.40253E-01 1.62068E-03 6.44540E-01-3.20724E-14 8.96167E-14
 -1      3272 2.01445E+01 2.78538E-01-8.71545E-04 7.04005E-01 1.44933E-14-1.34526E-13
 -1      3273 2.01600E+01 2.22624E-01-7.35994E-04 4.76952E-01-2.70614E-13 3.49334E-13
 -1      3274 2.01968E+01 2.32930E-01 1.63812E-03 5.29520E-01-1.18136E-13 1.76076E-13
 -1      3275 2.01064E+01 2.75822E-01-4.74908E-04 5.79580E-01-1.73606E-13 1.47781E-13
 -1      3276 2.01225E+01 1.96431E-01-7.90077E-04 3.77936E-01-2.13278E-13 3.19437E-13
 -1      3277 2.01520E+01 2.11000E-01 1.55320E-03 4.24672E-01-2.38142E-13 4.19819E-13
 -1      3278 2.00813E+01 2.53498E-01-2.62574E-04 4.66518E-01-3.22095E-13 3.62939E-13
 -1      3279 2.00937E+01 1.66600E-01-7.52876E-04 2.92943E-01-1.73908E-13 1.74554E-13
 -1      3280 2.01173E+01 1.82448E-01 1.40603E-03 3.32996E-01-1.86902E-13 2.06372E-13
 -1      3281 2.00639E+01 2.21613E-01-1.57375E-04 3.67631E-01-1.36163E-13 3.74465E-13
 -1      3282 2.00713E+01 1.37087E-01-6.71231E-04 2.22030E-01-9.76794E-14 1.07581E-13
 -1      3283 2.00901E+01 1.52410E-01 1.22992E-03 2.55377E-01-7.90964E-14 1.10728E-13
 -1      3284 2.00510E+01 1.86764E-01-1.09122E-04 2.83718E-01-1.38471E-13 3.11195E-13
 -1      3285 2.00537E+01 1.10113E-01-5.70960E-04 1.64293E-01 3.07930E-14 1.44464E-13
 -1      3286 2.00686E+01 1.23910E-01 1.04680E-03 1.91368E-01-6.37412E-14 1.12570E-13
 -1      3287 2.00409E+01 1.52914E-01-1.04397E-04 2.14254E-01-7.91284E-14 1.62946E-13
 -1      3288 2.00395E+01 8.68316E-02-4.98250E-04 1.18284E-01 7.35833E-14 2.70548E-14
 -1      3289 2.00513E+01 9.86198E-02 8.55205E-04 1.39803E-01 6.28939E-14 5.49103E-14
 -1      3290 2.00325E+01 1.22307E-01-1.27295E-04 1.58129E-01 8.76797E-14 2.43437E-15
 -1      3291 2.00288E+01 6.79747E-02-1.07295E-04 8.24685E-02-3.67124E-14 1.52181E-13
 -1      3292 2.00375E+01 7.71311E-02 6.72595E-04 9.89959E-02 2.02449E-14 4.54240E-14
 -1      3293 2.00253E+01 9.64206E-02-5.88218E-05 1.13623E-01-1.58131E-14 1.77478E-13
 -1      3294 2.00197E+01 6.13025E-02 1.44675E-04 6.39521E-02-1.50164E-13 3.56937E-13
 -1      3295 2.00259E+01 6.49510E-02 4.14077E-04 7.34349E-02-9.02440E-14 2.58878E-13
 -1      3296 2.00182E+01 8.03298E-02-1.63244E-04 8.48476E-02-1.62582E-13 2.42496E-13
 -1      3297 2.00121E+01 7.11803E-02-4.43463E-04 6.72080E-02-3.31007E-14 1.73531E-13
 -1      3298 1.99520E+01 1.47403E-01-5.49833E-05-3.28054E-02 1.05307E-14 4.35985E-14
 -1      3299 1.99475E+01 1.50794E-01-4.27473E-04-2.10878E-02 1.69094E-13-6.61740E-15
 -1      3300 2.68762E+01-2.00999E+00-1.58705E-01-7.93283E-01 1.32585E-14-1.13784E-13
 -1      3301 2.62707E+01-3.19920E+00 7.68010E-02 4.84485E-01-1.60323E-13-8.55149E-14
 -1      3302 1.99872E+01 1.10235E-01 1.89379E-05-6.92124E-02-1.61867E-13 3.09590E-14
 -1      3303 1.99767E+01 1.20332E-01-5.97429E-04-6.44082E-02-2.01090E-14-9.08206E-14
 -1      3304 1.99454E+01 1.53069E-01-2.76912E-04-5.78260E-03 8.94033E-14-4.06559E-13
 -1      3305 1.99455E+01 1.52817E-01-2.33688E-04 7.00489E-03 1.38271E-13-5.93960E-13
 -1      3306 1.99359E+01 1.71876E-01 6.57004E-04-1.50439E-02 1.73016E-13-2.03389E-13
 -1      3307 2.01272E+01 1.99875E-01 1.41345E-03-5.42965E-01-2.44281E-14-2.23386E-14
 -1      3308 2.01125E+01 2.09018E-01 7.92647E-04-4.89485E-01-1.13486E-15-3.99620E-14
 -1      3309 2.01184E+01 2.42197E-01-1.15615E-03-5.74776E-01-3.15510E-16-3.22664E-14
 -1      3310 1.99668E+01 1.32796E-01 1.40425E-04-5.51881E-02-1.51283E-13 4.11387E-15
 -1      3311 1.99583E+01 1.39614E-01-5.83352E-04-4.59489E-02-1.72977E-13 9.11163E-14
 -1      3312 1.99463E+01 1.62413E-01 6.17080E-04-4.52611E-02 9.14136E-15-1.03840E-13
 -1      3313 1.99652E+01 1.43328E-01 3.73341E-04-6.90291E-02-2.40265E-13 3.66043E-14
 -1      3314 2.02385E+01 1.89774E-01 2.11934E-03-8.49190E-01 1.07782E-13-8.33017E-14
 -1      3315 2.01865E+01 1.94533E-01-3.25901E-04-8.01458E-01 1.07554E-13-7.37261E-14
 -1      3316 2.01340E+01 2.23597E-01-1.57441E-03-9.09856E-01 1.33703E-14-6.56274E-16
 -1      3317 2.01815E+01 1.96457E-01 2.03239E-03-7.47267E-01 6.44250E-14-1.06928E-13
 -1      3318 2.01421E+01 1.95250E-01-2.87037E-04-6.98782E-01 3.39498E-14-9.99349E-14
 -1      3319 2.01076E+01 2.37577E-01-1.08368E-03-6.85292E-01 6.77110E-14-4.56922E-14
 -1      3320 2.01111E+01 2.37237E-01-1.18957E-03-7.96054E-01 5.72729E-14-8.78929E-14
 -1      3321 2.27949E+01-3.36318E+00 5.64273E-02-2.66246E+00-1.63758E-15 3.91215E-14
 -1      3322 2.16925E+01-2.69174E+00 4.54992E-02-2.93024E+00 1.41722E-13 6.74014E-14
 -1      3323 2.00370E+01-2.48340E+00-4.62719E-02-3.62894E+00 1.67907E-13 2.08658E-13
 -1      3324 2.07151E+01-4.06063E+00-4.50541E-02-4.35853E+00 1.27121E-14 2.30361E-13
 -1      3325 1.17550E+01-8.09058E-01 1.20474E-01-3.76819E+00 9.15067E-14 1.14353E-13
 -1      3326 1.39245E+01-1.97781E+00-7.76009E-03-4.89173E+00 1.76428E-13-2.63845E-13
 -1      3327 1.24883E+01-1.39811E-01 1.20748E-01-2.94011E+00 1.34800E-13-1.21292E-14
 -1      3328 1.77391E+01-2.92851E+00 1.06764E-01-4.79532E+00 9.69919E-14 6.32203E-14
 -1      3329 2.23797E+01-4.97016E+00 8.47288E-02 4.45780E+00 1.78302E-13 7.78379E-14
 -1      3330 1.98170E+01-4.10573E+00 1.28579E-01 4.90782E+00 1.42858E-13 2.17878E-13
 -1      3331 2.01263E+01 2.24769E-01 8.42283E-04-4.30337E-01 2.06411E-14-5.21291E-14
 -1      3332 2.01259E+01 2.49835E-01 1.75284E-03-3.67028E-01 4.73638E-14-6.21682E-14
 -1      3333 2.01411E+01 2.67292E-01-1.32337E-03-4.57042E-01-6.31468E-15-3.76539E-14
 -1      3334 2.02983E+01 8.06380E-01 7.25185E-03-2.29869E-01-6.30875E-14-1.08831E-13
 -1      3335 2.02547E+01 6.58588E-01-2.63120E-03-7.86054E-02-5.15259E-14-1.00237E-13
 -1      3336 2.02746E+01 7.15687E-01-5.71896E-04-4.00917E-02-5.73776E-14-1.06135E-13
 -1      3337 2.01144E+01 2.24473E+00-5.13013E-03-1.04510E+00-1.23848E-13-1.58332E-13
 -1      3338 2.01901E+01 2.04827E+00-1.01510E-02-1.12661E+00-1.45691E-13-1.43976E-13
 -1      3339 2.02685E+01 1.66163E+00 3.43254E-03-9.07871E-01-1.37230E-13-1.30639E-13
 -1      3340 2.01834E+01 1.99608E+00 7.05183E-03-8.36924E-01-9.85442E-14-1.43493E-13
 -1      3341 2.03164E+01 1.03609E+00-8.04049E-04 6.10251E-01 1.57440E-13-7.44165E-14
 -1      3342 2.02864E+01 1.36046E+00 2.70293E-03 6.92980E-01 1.55818E-13-9.09961E-14
 -1      3343 2.02868E+01 1.19730E+00 4.22059E-04 5.03757E-01 1.53583E-13-9.13844E-14
 -1      3344 2.02648E+01 8.32805E-01-3.00001E-03 3.91969E-01 1.30842E-13-7.90967E-14
 -1      3345 1.10232E+01-2.17389E-02 4.85917E-02 2.74126E+00-2.33615E-14 2.38337E-13
 -1      3346 9.81370E+00 5.18547E-01 1.41821E-01 7.83776E-01-3.70992E-14 2.38864E-13
 -1      3347 2.45175E+01-4.45245E+00-1.27702E-01 2.30596E+00-1.87569E-13-5.73630E-14
 -1      3348 2.25651E+01-4.35302E+00 8.67108E-02 3.72912E+00-1.29181E-13-1.74299E-13
 -1      3349 2.17830E+01-3.75755E+00 6.58553E-02 3.56786E+00-2.03594E-13-1.98557E-13
 -1      3350 1.59812E+01-3.05246E+00 6.51433E-03 5.30170E+00 1.17004E-13 2.05558E-13
 -1      3351 1.33129E+01-1.92782E+00 1.25380E-01 4.88169E+00 1.53717E-13 2.93238E-14
 -1      3352 1.55882E+01-2.41650E+00 2.09014E-02 5.22710E+00-1.24969E-14 5.60454E-14
 -1      3353 1.31022E+01-9.66024E-01 7.78362E-02 4.22930E+00-7.94052E-14 2.13579E-13
 -1      3354 1.73801E+01-2.30567E+00 6.10730E-02 4.52666E+00-3.17801E-14-2.68813E-14
 -1      3355 2.56600E+01-3.74648E+00 6.84381E-02-1.28661E+00-1.17390E-13 1.63362E-13
 -1      3356 2.65676E+01-2.82507E+00-1.24080E-01 8.71974E-02-1.02722E-13 1.83579E-13
 -1      3357 2.72440E+01-1.20355E+00 2.89656E-03 1.21801E+00-3.16552E-14 2.55004E-13
 -1      3358 2.70216E+01 2.38547E-01-1.73280E-01 1.86581E+00 1.04777E-14 3.19259E-13
 -1      3359 2.57605E+01 4.85910E+00-9.94598E-02-1.12109E+00 1.89099E-13 2.75058E-14
 -1      3360 2.65939E+01 3.81187E+00-1.14545E-01-1.94865E+00 2.56087E-13-1.06186E-13
 -1      3361 2.00114E+01 2.27630E+00-4.26373E-03 2.59429E-01 6.56633E-14-2.01101E-13
 -1      3362 1.99936E+01 2.31883E+00-3.68289E-03 1.49287E-01 4.33894E-14-1.97042E-13
 -1      3363 2.62007E+01-4.14112E+00 1.02645E-01 1.27188E+00 2.36650E-13-1.62058E-13
 -1      3364 1.99844E+01 2.34061E+00-3.85002E-03 5.88985E-02 3.47098E-14-2.01096E-13
 -1      3365 1.99840E+01 2.34171E+00-3.85349E-03-5.27829E-02 2.83347E-14-2.12064E-13
 -1      3366 2.00894E+01 2.06301E+00 5.60566E-03 8.50463E-02 4.35551E-14-1.87556E-13
 -1      3367 2.02523E+01 1.55094E+00 7.46574E-03 5.07129E-01 1.37144E-13-1.06196E-13
 -1      3368 2.01556E+01 1.88302E+00-6.86734E-03 6.15916E-01 1.39586E-13-1.24614E-13
 -1      3369 2.01114E+01 2.02038E+00-3.31626E-03 5.27001E-01 1.17605E-13-1.14383E-13
 -1      3370 1.72465E+01-1.99841E+00 1.10206E-01-4.26435E+00 7.28098E-14 1.01984E-13
 -1      3371 1.57538E+01-2.47007E+00 8.43120E-02-5.26044E+00-1.26246E-13 2.05114E-14
 -1      3372 1.74756E+01-2.53299E+00 5.09221E-02-4.69076E+00-1.05183E-13 2.23675E-14
 -1      3373 1.45856E+01-1.76460E+00 5.46524E-02-4.78463E+00-1.02994E-13-4.46310E-14
 -1      3374 1.12284E+01 6.62703E-01 1.16126E-01-1.16006E-01 1.71853E-13 9.87405E-14
 -1      3375 2.02551E+01 6.67456E-01 2.62583E-03 2.32199E-01 1.14608E-13-8.48576E-14
 -1      3376 2.02805E+01 8.32596E-01 1.13597E-03 2.95396E-01 1.24934E-13-8.08273E-14
 -1      3377 2.02084E+01 5.37646E-01-1.85630E-03 7.60349E-02 1.03493E-13-9.47540E-14
 -1      3378 2.60659E+01 2.55530E+00-6.62645E-02-2.03046E+00 2.37498E-13-1.70350E-14
 -1      3379 2.48049E+01 4.20589E+00-4.81440E-02-7.02857E-01 1.52392E-13-2.15539E-15
 -1      3380 2.02477E+01 1.58595E+00-3.05470E-03-7.37120E-01-1.12077E-13-1.20861E-13
 -1      3381 2.02945E+01 1.40722E+00-1.40858E-03-7.52261E-01-1.17401E-13-1.24458E-13
 -1      3382 2.03009E+01 1.21285E+00 5.88231E-03-5.81436E-01-8.29375E-14-1.19001E-13
 -1      3383 2.33218E+01-3.75589E+00 7.31241E-02 2.65087E+00 1.88356E-13-9.36811E-14
 -1      3384 2.45523E+01-4.19048E+00 2.24408E-02 2.09284E+00 1.92998E-13-1.37893E-13
 -1      3385 1.99770E+01 1.17025E-01-5.60683E-04 6.40739E-02 1.48434E-13-6.62908E-13
 -1      3386 1.99875E+01 1.07239E-01 2.04292E-04 6.87402E-02 2.46210E-13-6.58627E-13
 -1      3387 2.62343E+01-1.97579E+00-2.15172E-03 8.46447E-01-1.12704E-13 3.12590E-13
 -1      3388 2.01747E+01 3.29733E-01-1.45240E-03-3.20105E-01 4.92231E-14-7.86419E-14
 -1      3389 2.43387E+01 2.78437E+00-4.45565E-02 1.48101E+00 4.48426E-14 2.09374E-13
 -1      3390 2.65490E+01-8.02808E-01-5.10021E-02-1.49180E+00 1.06866E-13 2.67009E-14
 -1      3391 1.99589E+01 1.36892E-01-5.79388E-04 4.64863E-02 8.84737E-14-1.39029E-13
 -1      3392 1.99674E+01 1.29805E-01 1.83193E-04 5.54097E-02 1.70218E-13-2.77233E-13
 -1      3393 1.99661E+01 1.38964E-01 3.66336E-04 6.91817E-02 2.38630E-13-5.12314E-13
 -1      3394 2.51064E+01-3.45682E+00 3.34269E-02 1.03914E+00-1.92648E-13-1.36977E-13
 -1      3395 1.99478E+01 1.49424E-01-4.53707E-04 2.20599E-02-1.13718E-13-2.39753E-13
 -1      3396 1.99525E+01 1.45504E-01-1.48551E-05 3.37941E-02-1.32578E-13-2.57148E-14
 -1      3397 1.99469E+01 1.59303E-01 5.57319E-04 4.64600E-02 3.70696E-14-2.66729E-13
 -1      3398 1.99362E+01 1.70720E-01 6.29883E-04 1.70578E-02-1.30926E-13-2.14176E-13
 -1      3399 1.01625E+01-6.12360E-01 1.69818E-01-3.54119E+00-3.38687E-14-1.30868E-13
 -1      3400 1.21275E+01-8.81144E-01 6.56021E-02-4.03718E+00-7.92422E-14-1.19987E-13
 -1      3401 1.01379E+01-8.95599E-02 9.09531E-02-2.49766E+00-4.39891E-14-1.56528E-13
 -1      3402 1.27494E+01-1.82943E-01 9.07294E-02 3.31852E+00-1.18142E-13 2.43632E-13
 -1      3403 1.26832E+01 4.61427E-01 1.90969E-02 2.12281E+00 3.31592E-14 1.52219E-13
 -1      3404 1.45111E+01-4.18490E-01 3.73319E-02 3.38330E+00-8.94168E-14 2.15623E-13
 -1      3405 2.01689E+01 3.79290E-01-7.91745E-04-1.35619E-01 1.13800E-13-1.06548E-13
 -1      3406 2.02007E+01 4.61606E-01 3.05897E-03-2.39994E-02 1.05091E-13-8.69916E-14
 -1      3407 2.02411E+01 5.72888E-01-1.05108E-03 2.57528E-02 1.14511E-13-9.49199E-14
 -1      3408 2.02093E+01 4.30919E-01-1.23743E-03-1.62328E-01 7.32985E-14-7.17394E-14
 -1      3409 2.62944E+01 1.15425E+00-7.42944E-02 2.06759E+00-4.62547E-14 3.12930E-13
 -1      3410 2.00362E+01 2.21355E+00-3.73974E-03 3.45664E-01 8.67192E-14-1.83874E-13
 -1      3411 2.01222E+01 1.97985E+00 6.66543E-03 2.47300E-01 7.16191E-14-1.74951E-13
 -1      3412 2.00691E+01 2.12585E+00-5.77848E-03 4.48215E-01 1.09141E-13-1.39571E-13
 -1      3413 1.23274E+01-1.24234E+00 1.11225E-01 4.32057E+00 1.20334E-13 2.73254E-14
 -1      3414 1.15125E+01-5.09915E-01 7.64085E-02 3.33875E+00 8.48453E-14-5.54140E-14
 -1      3415 1.43821E+01-1.30786E+00 9.39332E-02 4.16361E+00 1.94653E-13 1.13132E-13
 -1      3416 2.12253E+01-3.73447E+00-8.68167E-02 3.77181E+00 7.54258E-14 4.48461E-14
 -1      3417 2.01056E+01 2.03482E+00-3.48543E-03-5.20278E-01-6.01695E-14-1.44102E-13
 -1      3418 2.01513E+01 1.90037E+00-6.73795E-03-6.09105E-01-8.41102E-14-1.39261E-13
 -1      3419 2.02795E+01 1.02941E+00-4.52223E-03-4.34385E-01-8.08855E-14-1.13691E-13
 -1      3420 2.02866E+01 1.07805E+00-4.10191E-03-3.65374E-01-7.96558E-14-1.07196E-13
 -1      3421 8.49566E+00 3.15066E-02 1.86334E-01 7.82041E-01 1.85615E-16-4.38427E-13
 -1      3422 9.30960E+00 2.54956E-01 8.36097E-02-3.10361E-01-7.36407E-14-3.07560E-13
 -1      3423 9.92311E+00 5.79367E-02 9.62672E-02 1.77206E+00 4.73181E-14-2.88103E-13
 -1      3424 2.07933E+01-3.74692E+00 5.60192E-02-4.15007E+00-4.71845E-14 7.56990E-14
 -1      3425 2.45008E+01-3.83405E+00 1.20924E-02-1.73796E+00-1.45717E-13 1.17135E-13
 -1      3426 2.00012E+01 9.72619E-02-2.63891E-04-7.79683E-02-4.22646E-13-2.20593E-13
 -1      3427 1.99936E+01 1.03590E-01-3.32837E-04-7.39385E-02-2.04625E-13-4.95762E-14
 -1      3428 1.99849E+01 1.24988E-01 3.79858E-04-8.32293E-02-2.61312E-13-4.70234E-14
 -1      3429 2.00013E+01 1.11387E-01 5.11300E-04-9.17874E-02-2.55664E-13-2.91074E-13
 -1      3430 2.50976E+01 4.01151E+00-1.10119E-02 1.25556E+00 8.66945E-14 1.12972E-13
 -1      3431 2.00338E+01 2.22178E+00-3.67867E-03-3.39116E-01-1.48816E-14-1.73142E-13
 -1      3432 2.00668E+01 2.13749E+00-5.16102E-03-4.43228E-01-4.67231E-14-1.63678E-13
 -1      3433 2.01792E+01 1.82427E+00 8.33604E-03-3.90696E-01-5.44164E-14-1.32682E-13
 -1      3434 2.00301E+01 2.77811E-01 2.44687E-03-9.36745E-01-1.83073E-14 5.34767E-14
 -1      3435 2.00104E+01 2.87526E-01-8.10726E-04-8.77814E-01 1.62964E-14 1.96615E-14
 -1      3436 2.51438E+01-2.96210E+00-6.35362E-02 6.29901E-02-1.42927E-13-1.96874E-14
 -1      3437 2.41755E+01-3.51992E+00 5.66843E-02 1.48060E+00-2.51496E-13 1.99320E-15
 -1      3438 2.02101E+01 1.73334E+00-1.61423E-03-6.94134E-01-8.96524E-14-1.30587E-13
 -1      3439 2.02589E+01 1.54610E+00 8.20311E-03-5.28417E-01-8.31854E-14-1.19265E-13
 -1      3440 2.02055E+01 4.85409E-01 7.56392E-04 2.74067E-01-4.71246E-14-9.59588E-14
 -1      3441 2.01741E+01 4.43696E-01-5.69861E-04 3.50995E-01-3.91323E-14-7.65021E-14
 -1      3442 2.01291E+01 4.19835E-01-6.75602E-05 4.13552E-01-2.48863E-14-5.10453E-14
 -1      3443 2.00961E+01 4.10507E-01 1.13446E-04 4.80161E-01 2.46847E-14-4.61643E-14
 -1      3444 2.01502E+01 4.94420E-01 6.53865E-04 3.48588E-01-3.85954E-15-1.83984E-14
 -1      3445 2.00379E+01 4.13904E-01-9.68636E-04 5.37113E-01 1.41430E-14-2.05643E-14
 -1      3446 2.00023E+01 4.29076E-01 5.74876E-04 6.00385E-01 1.20760E-14-3.59344E-14
 -1      3447 2.00474E+01 4.69241E-01 9.79120E-04 4.68427E-01 9.58027E-15-2.16119E-14
 -1      3448 1.99298E+01 4.52659E-01-1.86345E-03 6.57171E-01 2.82523E-14-7.11079E-14
 -1      3449 1.98895E+01 4.85578E-01 8.73059E-04 7.22654E-01 4.81299E-15-5.39507E-14
 -1      3450 1.99204E+01 4.97759E-01 1.48213E-03 5.80879E-01 5.47519E-15-6.03472E-15
 -1      3451 1.98004E+01 5.22869E-01-2.75829E-03 7.83690E-01-1.36572E-14-1.14258E-14
 -1      3452 1.97526E+01 5.66899E-01 1.09272E-03 8.55618E-01-2.78481E-14 1.46353E-14
 -1      3453 1.97653E+01 5.65371E-01 2.18961E-03 6.95400E-01 1.03860E-14 2.79247E-15
 -1      3454 1.96432E+01 6.10840E-01-3.69626E-03 9.24711E-01-4.43037E-14 3.28762E-14
 -1      3455 1.95854E+01 6.58100E-01 1.36237E-03 1.00644E+00-2.52108E-14 9.55164E-14
 -1      3456 1.95757E+01 6.57749E-01 3.06395E-03 8.19700E-01-2.99276E-15 5.91404E-14
 -1      3457 1.94511E+01 6.99409E-01-4.73056E-03 1.08754E+00-1.01536E-15 8.84533E-14
 -1      3458 1.93828E+01 7.39047E-01 1.91589E-03 1.18218E+00 7.22144E-15 1.04838E-13
 -1      3459 1.93432E+01 7.58461E-01 4.06868E-03 9.61107E-01 1.00400E-14 6.06297E-14
 -1      3460 1.92192E+01 7.64241E-01-5.93124E-03 1.28061E+00-6.61775E-14 1.17654E-13
 -1      3461 1.91439E+01 7.80338E-01 3.17740E-03 1.39218E+00-7.39410E-14 8.85102E-14
 -1      3462 1.90587E+01 8.45728E-01 5.12801E-03 1.12858E+00-1.83765E-14 3.60293E-14
 -1      3463 1.89478E+01 7.69225E-01-7.33611E-03 1.51691E+00-7.60696E-14 6.93692E-14
 -1      3464 1.88778E+01 7.37932E-01 5.90415E-03 1.65197E+00-1.05089E-13 6.40780E-14
 -1      3465 1.87145E+01 8.88634E-01 6.07155E-03 1.33649E+00-7.10254E-14 3.82967E-14
 -1      3466 1.86504E+01 6.60129E-01-8.64398E-03 1.81909E+00-6.59745E-14 6.24312E-14
 -1      3467 1.86150E+01 5.45918E-01 1.16986E-02 1.98812E+00-2.92435E-14 5.95193E-14
 -1      3468 1.83079E+01 8.41778E-01 6.64057E-03 1.61108E+00-9.65688E-14 1.01747E-13
 -1      3469 1.83698E+01 3.54373E-01-8.33809E-03 2.22456E+00-4.75867E-14 1.01685E-13
 -1      3470 1.84181E+01 1.04195E-01 2.01064E-02 2.44031E+00-3.62746E-14 1.07973E-13
 -1      3471 1.78493E+01 6.36666E-01 6.88415E-03 1.99997E+00 9.42443E-16-6.70834E-15
 -1      3472 1.82101E+01-2.41781E-01 6.78721E-03 2.77735E+00-3.03455E-14 1.25860E-13
 -1      3473 1.85231E+01-7.45332E-01 2.84008E-02 3.02525E+00-1.61785E-14 1.31337E-13
 -1      3474 1.74226E+01 1.71094E-01 2.09253E-02 2.58859E+00-1.14986E-14-8.31496E-15
 -1      3475 1.78270E+01-1.65337E+00 5.08928E-02 3.92110E+00 4.90771E-14 1.31350E-13
 -1      3476 1.84190E+01-2.50097E+00 8.08721E-02 4.31058E+00 7.13596E-14 1.42303E-13
 -1      3477 1.94202E+01-3.32673E+00 1.21322E-01 4.55219E+00 8.41133E-14 2.02079E-13
 -1      3478 1.84988E+01-1.00179E+00 1.59089E-02-3.21458E+00 1.11537E-13 1.53458E-13
 -1      3479 1.81580E+01-4.39898E-01-7.96701E-03-2.89764E+00 1.72061E-13 4.29520E-14
 -1      3480 1.27195E+01 3.74279E-01 2.63829E-02-2.19140E+00 2.15041E-13 8.20177E-15
 -1      3481 1.39285E+01-2.69468E-01 1.22733E-02-3.25347E+00 1.71285E-13-1.16115E-13
 -1      3482 2.03017E+01 9.68059E-01 3.61149E-04 3.42835E-01 1.28294E-13-9.90914E-14
 -1      3483 2.02855E+01 1.14663E+00-1.88197E-03 3.83583E-01 1.36479E-13-1.08856E-13
 -1      3484 2.02790E+01 7.97538E-01-6.13749E-04 1.81769E-01 1.07617E-13-1.00380E-13
 -1      3485 2.55493E+01-2.25442E+00 5.62589E-02 6.29484E-01-1.07254E-13 1.79407E-13
 -1      3486 2.56656E+01-1.29096E+00-7.44836E-02 1.43356E+00-4.11650E-14 3.32515E-13
 -1      3487 1.83739E+01-1.91090E-02 1.96862E-02-2.52837E+00 1.21238E-13 8.75639E-14
 -1      3488 1.82878E+01 2.80109E-01-1.10487E-02-2.29686E+00 9.69112E-14 2.88354E-14
 -1      3489 1.72825E+01 5.62927E-02 2.10005E-02-2.69928E+00 1.15458E-13 4.79538E-14
 -1      3490 1.85308E+01 5.17139E-01 1.24503E-02-2.02610E+00 7.84838E-14-6.14459E-14
 -1      3491 1.85475E+01 6.62985E-01-1.02459E-02-1.84355E+00 6.07651E-14-1.24983E-13
 -1      3492 1.77022E+01 6.18785E-01 1.20346E-02-2.06067E+00 8.74864E-15 1.16478E-13
 -1      3493 1.87762E+01 7.71025E-01 6.40703E-03-1.65076E+00 1.27752E-13-1.00843E-13
 -1      3494 1.88376E+01 8.22565E-01-8.39417E-03-1.50278E+00 5.35336E-14-1.37154E-13
 -1      3495 1.81556E+01 8.85064E-01 1.03853E-02-1.62235E+00 5.66864E-14-9.86453E-14
 -1      3496 1.90342E+01 8.52447E-01 3.22440E-03-1.35879E+00-1.06182E-13-1.11214E-13
 -1      3497 1.91053E+01 8.48606E-01-6.68207E-03-1.23478E+00-1.74778E-13-1.46913E-13
 -1      3498 1.85614E+01 9.70379E-01 8.60308E-03-1.31093E+00-1.00477E-14-2.01223E-13
 -1      3499 1.92667E+01 8.33792E-01 1.69701E-03-1.12073E+00-2.02074E-13-1.04135E-13
 -1      3500 1.93314E+01 7.99862E-01-5.32734E-03-1.01424E+00-1.15152E-13 6.23259E-15
 -1      3501 1.89024E+01 9.50709E-01 6.97814E-03-1.07429E+00-1.85067E-13-1.09248E-13
 -1      3502 1.94601E+01 7.61940E-01 1.04379E-03-9.19988E-01-1.36554E-13 7.56844E-14
 -1      3503 1.95127E+01 7.14002E-01-4.26582E-03-8.27728E-01-2.19920E-13 6.38105E-14
 -1      3504 1.91784E+01 8.73554E-01 5.57317E-03-8.83054E-01-9.42931E-14 1.67704E-14
 -1      3505 1.96132E+01 6.66399E-01 8.03262E-04-7.48136E-01-2.15168E-13 1.46174E-13
 -1      3506 1.96530E+01 6.14271E-01-3.43151E-03-6.68494E-01-1.39033E-13 1.33956E-13
 -1      3507 1.93959E+01 7.69349E-01 4.39628E-03-7.22347E-01-1.33648E-13 1.16000E-13
 -1      3508 1.97301E+01 5.64955E-01 7.25928E-04-6.00935E-01 5.21190E-14 1.56470E-13
 -1      3509 1.97587E+01 5.14286E-01-2.76298E-03-5.32940E-01 1.48309E-13 3.13158E-13
 -1      3510 1.95637E+01 6.57048E-01 3.41596E-03-5.85062E-01-6.43707E-14 1.86645E-13
 -1      3511 1.98169E+01 4.67656E-01 6.97728E-04-4.75915E-01 1.20460E-13 3.44512E-13
 -1      3512 1.98366E+01 4.21418E-01-2.21461E-03-4.18718E-01 9.94524E-14 2.91626E-13
 -1      3513 1.96908E+01 5.47881E-01 2.62465E-03-4.67736E-01 1.79764E-13 7.22434E-14
 -1      3514 1.98798E+01 3.79660E-01 6.67247E-04-3.71152E-01 2.38516E-14 4.27026E-13
 -1      3515 1.98927E+01 3.39183E-01-1.76190E-03-3.23807E-01 1.08360E-13 3.88326E-13
 -1      3516 1.97856E+01 4.47909E-01 1.99107E-03-3.68407E-01 1.38534E-13 1.90688E-13
 -1      3517 1.99245E+01 3.03136E-01 6.21157E-04-2.84709E-01 1.51860E-13 2.64153E-13
 -1      3518 1.99324E+01 2.68759E-01-1.39039E-03-2.46165E-01 1.35444E-13 2.38669E-13
 -1      3519 1.98551E+01 3.59995E-01 1.49328E-03-2.85489E-01 9.04771E-14 2.36943E-13
 -1      3520 1.99553E+01 2.38519E-01 5.58876E-04-2.14558E-01-9.30504E-14 1.77324E-13
 -1      3521 1.99598E+01 2.10056E-01-1.07420E-03-1.83686E-01-1.73730E-13 1.56600E-13
 -1      3522 1.99051E+01 2.84961E-01 1.10636E-03-2.17413E-01-7.42862E-14 1.21136E-13
 -1      3523 1.99758E+01 1.85187E-01 4.52857E-04-1.58491E-01-3.54737E-14-3.17695E-14
 -1      3524 1.99787E+01 1.62302E-01-6.01623E-04-1.34252E-01 4.79826E-14-1.34658E-13
 -1      3525 1.99404E+01 2.22584E-01 8.03016E-04-1.62553E-01-1.23067E-13 1.80781E-13
 -1      3526 1.99960E+01 9.39096E-02-4.60932E-04 6.97768E-02 1.19651E-13-2.32929E-13
 -1      3527 2.00049E+01 8.39620E-02 1.05614E-04 6.95432E-02 5.36488E-14-1.22593E-13
 -1      3528 2.00068E+01 8.85759E-02 6.88965E-05 7.78436E-02-3.69159E-14-1.84762E-14
 -1      3529 1.99877E+01 1.13773E-01 1.16893E-04 7.91552E-02 1.15008E-13-3.56532E-13
 -1      3530 2.02970E+01 8.70791E-01-1.43666E-03-1.12436E-01-6.49657E-14-1.32085E-13
 -1      3531 2.02754E+01 7.38367E-01-2.73175E-03 1.12095E-02-6.58280E-14-1.40991E-13
 -1      3532 2.00500E+01 2.23632E-01 2.90403E-03-1.06612E+00-3.35667E-14 4.47553E-14
 -1      3533 2.00117E+01 2.56569E-01-3.75467E-04-1.00730E+00-1.65161E-14 4.06915E-14
 -1      3534 1.98786E+01 3.18880E-01-1.32343E-03-9.75981E-01 7.83259E-15 4.36519E-15
 -1      3535 2.05506E+01-4.71177E-01 3.41758E-03-1.38915E+00 1.43147E-14 4.33009E-14
 -1      3536 2.03790E+01-2.76695E-01 6.02104E-03-1.38010E+00 2.69039E-14 4.56827E-14
 -1      3537 2.10100E+01-9.65513E-01 1.52195E-03-1.38221E+00-5.97646E-14 1.25865E-13
 -1      3538 2.07586E+01-6.97158E-01 1.11830E-02-1.42867E+00-2.01219E-14 1.16750E-13
 -1      3539 2.03124E+01-6.05977E-01-1.37567E-02-1.59086E+00-5.35397E-14 4.01077E-14
 -1      3540 2.17029E+01-1.56863E+00-2.77850E-03-1.21472E+00-6.27697E-14 1.37796E-13
 -1      3541 2.13641E+01-1.25209E+00 1.83015E-02-1.35395E+00-3.97397E-14 1.22122E-13
 -1      3542 2.08239E+01-1.20253E+00-2.05374E-02-1.65192E+00-6.27049E-14 9.45841E-14
 -1      3543 2.26443E+01-2.14137E+00-1.03345E-02-7.81288E-01-3.99711E-14 3.48222E-14
 -1      3544 2.22390E+01-1.86381E+00 2.55255E-02-1.05728E+00-2.85379E-14 9.23784E-14
 -1      3545 2.16458E+01-1.91758E+00-2.61470E-02-1.53666E+00-5.39488E-15 1.33883E-13
 -1      3546 2.38136E+01-2.26772E+00 1.10376E-02 6.51862E-02-1.38510E-13-5.65294E-14
 -1      3547 2.33701E+01-2.32453E+00 2.69686E-02-4.06762E-01-1.56973E-13-3.05945E-14
 -1      3548 2.28294E+01-2.56781E+00-2.69123E-02-1.10230E+00-4.00194E-14-2.27768E-14
 -1      3549 2.47033E+01-1.19042E+00 4.33969E-03 1.42346E+00 4.37523E-14 1.02409E-13
 -1      3550 2.44229E+01-1.85637E+00-4.45137E-02 9.70648E-01-2.80505E-15 8.86587E-14
 -1      3551 2.58866E+01 1.36547E-01-9.89072E-02-2.01733E+00 2.17625E-13 5.19654E-14
 -1      3552 2.57429E+01-1.41417E+00 1.02141E-02-1.27237E+00 1.73472E-14 5.59362E-14
 -1      3553 2.40756E+01 3.47923E+00-4.18195E-02-8.33039E-01 1.49832E-13-1.29410E-15
 -1      3554 2.46065E+01-9.69016E-01-4.92133E-02-1.63023E+00 4.67820E-14-9.14889E-14
 -1      3555 2.47306E+01 5.14737E-03 6.71203E-03-1.94357E+00 7.00967E-14-6.31157E-14
 -1      3556 2.29661E+01-2.10702E+00 1.63254E-02 5.03159E-01-1.95589E-13 1.62026E-13
 -1      3557 2.33568E+01-2.21282E+00-1.26175E-02 1.19800E-01-2.13666E-13 3.14037E-14
 -1      3558 2.19788E+01-1.58076E+00 2.21608E-02 1.03088E+00 4.27154E-15 2.85896E-13
 -1      3559 2.23505E+01-1.86266E+00-4.67892E-03 8.05354E-01-2.42666E-14 2.63575E-13
 -1      3560 2.24813E+01-2.22788E+00-1.54180E-02 1.06097E+00-1.95824E-13 1.06854E-13
 -1      3561 2.12142E+01-9.97609E-01 1.53642E-02 1.26430E+00 2.31989E-13-5.43651E-14
 -1      3562 2.15134E+01-1.29598E+00-2.60245E-03 1.15480E+00 1.83922E-13 1.77674E-13
 -1      3563 2.14203E+01-1.61602E+00-2.85168E-02 1.43874E+00 1.24026E-13 1.50165E-13
 -1      3564 2.06894E+01-4.92969E-01 9.42464E-03 1.30233E+00 9.19295E-16-7.50166E-14
 -1      3565 2.09095E+01-7.34270E-01 1.54174E-03 1.27410E+00 5.89472E-14-3.59430E-14
 -1      3566 2.07121E+01-9.36749E-01-1.74885E-02 1.51524E+00 1.48723E-13-7.80159E-14
 -1      3567 2.03587E+01-1.21092E-01 5.09597E-03 1.23291E+00-1.32078E-13 1.95933E-13
 -1      3568 2.05092E+01-2.91873E-01 2.82063E-03 1.25447E+00-7.36327E-14 4.19510E-15
 -1      3569 2.02694E+01-3.99643E-01-1.13401E-02 1.43659E+00-2.71368E-14 1.21347E-14
 -1      3570 2.01650E+01 1.22489E-01 2.28536E-03 1.11040E+00-6.99209E-14 1.95890E-13
 -1      3571 2.02631E+01 1.47268E-02 2.89128E-03 1.15961E+00-1.25429E-13 2.12270E-13
 -1      3572 2.00208E+01-2.39227E-02-6.86433E-03 1.29076E+00-1.61880E-13 2.49372E-14
 -1      3573 2.00601E+01 2.62528E-01 5.67888E-04 9.66356E-01 4.25144E-14 6.88056E-14
 -1      3574 2.01225E+01 2.03677E-01 2.58278E-03 1.02881E+00 3.98344E-14 1.42036E-13
 -1      3575 1.98985E+01 2.11455E-01-3.81152E-03 1.12195E+00-3.24271E-14 1.73992E-13
 -1      3576 2.00092E+01 3.27286E-01-4.02006E-04 8.18989E-01 1.17058E-13 3.49130E-14
 -1      3577 2.00487E+01 3.03031E-01 2.21978E-03 8.85495E-01 5.58046E-14 1.19942E-13
 -1      3578 1.98525E+01 3.39264E-01-1.87691E-03 9.52263E-01 3.33819E-14 2.30980E-13
 -1      3579 1.99889E+01 3.41701E-01-9.03967E-04 6.78693E-01-1.56568E-13 8.58170E-14
 -1      3580 2.00143E+01 3.39999E-01 1.89409E-03 7.43555E-01 5.18930E-14 1.16804E-14
 -1      3581 1.98490E+01 3.91421E-01-7.26218E-04 7.92620E-01 4.69952E-14 3.28816E-13
 -1      3582 1.99846E+01 3.25208E-01-1.11170E-03 5.51087E-01-3.17272E-13 2.18083E-13
 -1      3583 2.00015E+01 3.36959E-01 1.62490E-03 6.10957E-01-2.51101E-13 5.04472E-14
 -1      3584 1.98665E+01 3.94254E-01-1.16500E-04 6.48191E-01-2.42128E-13 8.79094E-14
 -1      3585 1.99876E+01 2.91819E-01-1.13903E-03 4.38916E-01-2.98796E-13 1.86372E-13
 -1      3586 1.99996E+01 3.10566E-01 1.40353E-03 4.92003E-01-3.22651E-13 1.84940E-13
 -1      3587 1.98921E+01 3.67662E-01 1.87904E-04 5.21109E-01-2.62107E-13-3.52929E-14
 -1      3588 1.99932E+01 2.51140E-01-1.06590E-03 3.43009E-01-1.61184E-13 2.30266E-13
 -1      3589 2.00021E+01 2.72536E-01 1.20870E-03 3.88626E-01-1.77183E-13 2.19776E-13
 -1      3590 1.99187E+01 3.25680E-01 3.06132E-04 4.11913E-01-2.36507E-13-3.36574E-14
 -1      3591 1.99986E+01 2.09323E-01-9.50635E-04 2.62916E-01-1.27448E-13 2.19828E-13
 -1      3592 2.00057E+01 2.30648E-01 1.03401E-03 3.01112E-01-1.21903E-13 1.86634E-13
 -1      3593 1.99426E+01 2.77810E-01 3.14961E-04 3.20024E-01-1.56970E-13 5.53470E-14
 -1      3594 2.00030E+01 1.70078E-01-7.87985E-04 1.97325E-01 2.83971E-14 1.05767E-13
 -1      3595 2.00088E+01 1.89870E-01 9.24244E-04 2.28729E-01-8.31406E-14 1.54683E-13
 -1      3596 1.99622E+01 2.30002E-01 2.40247E-04 2.44242E-01-1.75588E-14-1.49660E-13
 -1      3597 2.00057E+01 1.35453E-01-5.98170E-04 1.44707E-01 6.10523E-14-2.62253E-14
 -1      3598 2.00108E+01 1.52658E-01 8.18853E-04 1.70025E-01 8.83188E-14 1.35675E-13
 -1      3599 1.99768E+01 1.85462E-01-1.35078E-04 1.82875E-01 2.42581E-14-2.41018E-14
 -1      3600 2.01035E+01 2.89698E-01 1.10804E-03-5.84349E-01 4.33195E-14-6.41944E-14
 -1      3601 2.01126E+01 2.96333E-01 2.54356E-05-5.26690E-01-5.45923E-15-4.73879E-14
 -1      3602 2.02722E+01-1.20373E-01 3.69472E-03-1.31188E+00 5.08747E-14 5.04013E-14
 -1      3603 2.01623E+01 5.04687E-03 2.67835E-03-1.27266E+00 3.69275E-14 9.05679E-14
 -1      3604 2.00298E+01-1.79630E-01-8.50596E-03-1.45244E+00 4.54544E-14 1.72522E-14
 -1      3605 1.21080E+01 8.30766E-01 1.49265E-02 5.26882E-01 7.48733E-14-2.60070E-14
 -1      3606 1.20798E+01 8.16046E-01 6.16364E-02-1.04655E+00 1.86452E-13 3.59712E-14
 -1      3607 1.36071E+01 7.50882E-01 5.15189E-02-1.45326E+00 1.99818E-13-4.30073E-14
 -1      3608 2.02634E+01 1.24972E+00-2.04208E-03-3.21773E-01-6.49678E-14-1.23636E-13
 -1      3609 2.01914E+01 3.69858E-01-2.34469E-04-3.37756E-01 2.39189E-14-5.61249E-14
 -1      3610 2.02132E+01 4.20686E-01 1.34945E-03-2.59823E-01 4.15119E-14-8.50878E-14
 -1      3611 1.99194E+01 1.91609E-01-1.86406E-04-2.54962E-02 1.87338E-13-1.48034E-13
 -1      3612 1.99162E+01 1.93437E-01-4.08731E-04-8.58056E-03 2.68739E-14-1.83510E-13
 -1      3613 2.01461E+01 3.10498E-01 4.87528E-04-4.68130E-01-2.26882E-14-4.16096E-14
 -1      3614 2.01620E+01 3.34375E-01 7.37526E-04-4.03824E-01-3.61359E-15-4.95229E-14
 -1      3615 2.01225E+01 3.56531E-01-3.24342E-04-4.77201E-01 1.57119E-14-7.98208E-14
 -1      3616 2.35027E+01-4.86399E+00-7.07497E-02 3.30587E+00 1.99604E-13-9.69381E-14
 -1      3617 1.99923E+01 2.32225E+00-3.70969E-03-1.42993E-01 1.82171E-14-1.89653E-13
 -1      3618 2.00088E+01 2.28251E+00-4.27586E-03-2.52853E-01-9.13500E-15-1.77826E-13
 -1      3619 2.01195E+01 1.98535E+00 6.01296E-03-2.42168E-01-1.96717E-14-1.65614E-13
 -1      3620 2.40215E+01-2.09815E+00-1.18004E-02-5.16774E-01-1.19456E-13-5.75512E-14
 -1      3621 2.43442E+01-1.70677E+00 1.52063E-03-1.00496E+00-3.87346E-14 4.09065E-14
 -1      3622 2.49640E+01-1.47462E+00 4.29950E-03-1.22938E+00-2.58786E-14-4.21642E-14
 -1      3623 2.38308E+01-2.48873E+00-3.25655E-03 1.77927E-01-2.04443E-13 3.71957E-14
 -1      3624 1.71285E+01-1.39565E+00 3.61616E-02-3.82571E+00 1.28945E-13 4.03358E-14
 -1      3625 1.88488E+01-2.60416E+00-4.00385E-02 4.09284E+00-1.48893E-13-1.34545E-13
 -1      3626 1.67850E+01-1.45611E+00 3.17950E-02 3.99860E+00-6.42802E-14-1.26406E-13
 -1      3627 2.01201E+01 1.01410E-01 3.35642E-03-1.19575E+00-2.38838E-14 8.32177E-14
 -1      3628 2.00533E+01 1.72454E-01 6.75321E-04-1.14201E+00-3.46543E-14 3.71168E-14
 -1      3629 1.98612E+01 2.47288E-01-2.63401E-03-1.12742E+00-1.33513E-14 2.10347E-14
 -1      3630 1.98986E+01 9.31428E-02-4.94594E-03-1.28982E+00-4.06083E-15-4.34999E-14
 -1      3631 2.25111E+01-3.83220E+00-8.60826E-02 2.78568E+00-2.17767E-13-1.64368E-13
 -1      3632 2.08714E+01-3.19437E+00 5.52801E-02 3.57077E+00-1.82857E-13-1.69861E-13
 -1      3633 2.02646E+01 6.30523E-01 1.61734E-03 1.04654E-01-6.69513E-14-1.32253E-13
 -1      3634 2.02359E+01 5.45447E-01-1.52564E-03 1.99926E-01-6.93943E-14-1.14012E-13
 -1      3635 2.02291E+01 5.90256E-01 5.90856E-04 2.10293E-01-4.10503E-14-9.20545E-14
 -1      3636 2.02260E+01 1.50473E+00-5.75290E-03-3.37101E-01-6.99255E-14-1.34566E-13
 -1      3637 2.02903E+01 1.11038E+00 4.95883E-03-2.01190E-01-6.19927E-14-1.29092E-13
 -1      3638 2.02768E+01 1.11590E+00-1.48415E-03-1.40556E-01-6.09233E-14-1.35077E-13
 -1      3639 2.01967E+01 1.61539E+00-3.00680E-03-2.75051E-01-4.87393E-14-1.34364E-13
 -1      3640 2.35598E+01-3.68735E+00 7.51764E-02-2.16787E+00-9.46396E-14 1.38584E-13
 -1      3641 2.46251E+01-3.49186E+00-1.08838E-01-7.91873E-01-1.50548E-13 1.85724E-13
 -1      3642 1.98796E+01-3.06316E+00 4.82549E-02-4.02954E+00-4.57169E-14 9.24035E-14
 -1      3643 2.17414E+01-3.74716E+00-5.47152E-02-3.35391E+00-4.05058E-14 7.68118E-14
 -1      3644 1.62858E+01-9.95513E-01 1.37510E-02 3.80091E+00 4.65721E-14 6.84418E-14
 -1      3645 2.02609E+01 1.29151E+00-2.43974E-03 3.52650E-01 1.24676E-13-9.74386E-14
 -1      3646 2.33147E+01-3.19841E+00 3.62441E-02 1.66864E+00-2.27599E-13-9.29933E-14
 -1      3647 1.39620E+01-1.11004E+00 1.03456E-01-4.33686E+00-1.27391E-13-7.26294E-14
 -1      3648 1.56344E+01-1.38788E+00 3.34364E-02-4.21210E+00-1.11171E-13-1.05506E-14
 -1      3649 1.32945E+01-5.35462E-01 3.34587E-02-3.59741E+00-1.43874E-13-7.54674E-14
 -1      3650 2.01381E+01 1.79875E+00-3.54714E-03 1.03329E-01 5.39624E-14-1.75217E-13
 -1      3651 2.01311E+01 1.82118E+00-3.08129E-03 2.84918E-02 4.24232E-14-1.89021E-13
 -1      3652 1.79806E+01-2.19361E+00 1.93678E-02-4.16298E+00-1.16945E-13-2.14793E-14
 -1      3653 1.90113E+01-2.74891E+00 1.98806E-02-4.22223E+00-8.88959E-14 6.46063E-14
 -1      3654 2.02140E+01-2.64896E+00 2.55755E-02-3.41379E+00-1.48115E-13 1.10608E-13
 -1      3655 2.02790E+01 7.80067E-01 1.44202E-03 4.20417E-02-6.27304E-14-1.57203E-13
 -1      3656 1.56835E+01-3.08901E-02 2.52838E-03-2.90980E+00 1.14903E-13-4.32883E-14
 -1      3657 1.56640E+01-6.64155E-01 3.81323E-02-3.56957E+00 1.18718E-13 7.01834E-14
 -1      3658 2.46839E+01-2.61988E+00 5.09739E-03 2.60126E-02-9.61605E-14 8.26960E-14
 -1      3659 2.49339E+01 1.86698E+00-1.47957E-01 2.13838E+00 4.00235E-14 2.54016E-13
 -1      3660 1.99802E+01 1.29775E-01-4.94843E-04 9.27641E-02 5.31795E-14-4.18581E-13
 -1      3661 1.99922E+01 1.17828E-01 1.57551E-04 9.42767E-02-3.21699E-14-4.54924E-14
 -1      3662 1.99910E+01 1.43683E-01 3.34632E-04-1.20653E-01 1.06690E-13-1.76906E-13
 -1      3663 1.99933E+01 1.26397E-01-2.98705E-04-1.03634E-01-4.78141E-15-1.62124E-13
 -1      3664 1.99848E+01 1.34253E-01-9.56157E-05-9.97055E-02-1.38544E-13-1.04074E-13
 -1      3665 1.99664E+01 1.72748E-01 3.28256E-04-1.25148E-01 7.65467E-14 1.38602E-13
 -1      3666 2.54099E+01 4.58378E-01 2.41240E-03 2.02306E+00-5.76067E-14 2.65999E-13
 -1      3667 1.99352E+01 1.79366E-01 2.10904E-04-5.96650E-02-1.16032E-13-2.65578E-13
 -1      3668 1.99255E+01 1.85426E-01-6.46009E-04-4.48979E-02 6.81856E-14-2.87318E-13
 -1      3669 1.99091E+01 2.12315E-01 8.21183E-04-3.97476E-02-2.90886E-14-2.44813E-13
 -1      3670 2.00667E+01 2.89445E-01 1.60137E-03-6.97089E-01 6.33170E-14-4.58327E-14
 -1      3671 2.00683E+01 2.87611E-01-5.25974E-04-6.41071E-01 6.83877E-14-2.72947E-14
 -1      3672 2.00545E+01 3.38309E-01-3.16043E-04-5.94879E-01 4.44361E-14-8.18982E-14
 -1      3673 2.53187E+01-8.38752E-01-5.73279E-02 1.70789E+00-1.13329E-14 2.05554E-13
 -1      3674 2.44692E+01 2.90708E+00-1.14239E-01-1.72623E+00 2.99614E-13-6.98712E-14
 -1      3675 2.47983E+01 8.25544E-01-7.48859E-02-2.13437E+00 1.59437E-13 2.62255E-14
 -1      3676 2.46882E+01 2.10662E+00-1.09604E-02-1.97341E+00 2.86896E-13 1.84661E-14
 -1      3677 2.00075E+01 1.23188E-01 5.87355E-04 1.22362E-01 7.75891E-14 8.20796E-14
 -1      3678 1.99833E+01 1.48948E-01-5.62808E-04 1.31960E-01 3.80203E-14 5.43213E-14
 -1      3679 2.01535E+01 1.75793E+00-2.67671E-03 1.55387E-01 5.87707E-14-1.66450E-13
 -1      3680 2.02116E+01 1.56436E+00 5.69580E-03 9.18519E-02 5.68728E-14-1.57986E-13
 -1      3681 2.01735E+01 1.68928E+00-5.03745E-03 2.28090E-01 9.22478E-14-1.50178E-13
 -1      3682 2.54429E+01 2.65252E+00-5.76159E-02-2.04668E+00 2.58030E-13 3.52635E-14
 -1      3683 1.99646E+01 1.47594E-01 3.79716E-04 8.52862E-02 1.74853E-13-6.72969E-13
 -1      3684 1.99690E+01 1.52957E-01 7.30151E-04 1.01509E-01 3.25419E-14-3.54747E-13
 -1      3685 1.99501E+01 1.58193E-01-8.00840E-04 7.54134E-02 2.12724E-13-4.55861E-13
 -1      3686 2.00040E+01 1.09094E-01-2.68663E-04 1.02595E-01-4.13336E-14 1.59229E-13
 -1      3687 2.00099E+01 9.32694E-02 1.37932E-04 8.76360E-02-8.26212E-14 1.41344E-13
 -1      3688 2.25258E+01-3.27795E+00 1.98297E-02-2.35848E+00-3.34264E-14 1.76646E-13
 -1      3689 1.02926E+01 4.26618E-01 1.50604E-01-1.42460E+00-9.11892E-14-1.91042E-13
 -1      3690 1.15640E+01 1.94610E-01 4.52997E-02-2.24357E+00-1.00345E-13-1.32269E-13
 -1      3691 1.08218E+01 5.66057E-01 6.00821E-02-3.47405E-01-8.89983E-14-2.66939E-13
 -1      3692 1.99166E+01 1.92496E-01-4.19644E-04 1.20058E-02-1.82829E-13-1.74342E-13
 -1      3693 1.99202E+01 1.89524E-01-1.65131E-04 2.85282E-02-2.51330E-13-1.03697E-13
 -1      3694 1.99019E+01 2.17117E-01 7.78957E-04 2.27880E-03-7.37900E-14 6.02799E-14
 -1      3695 2.01647E+01-2.46131E+00 4.36290E-02 3.30313E+00-1.81899E-13-1.63871E-13
 -1      3696 1.60213E+01-7.54073E-01 4.40627E-02 3.60592E+00-6.82436E-14 4.77153E-14
 -1      3697 1.53633E+01-9.07953E-02-7.63868E-03 2.85228E+00-1.71273E-13 1.68058E-13
 -1      3698 1.75523E+01-9.74240E-01 3.58320E-02 3.26268E+00-2.31690E-14-1.44929E-13
 -1      3699 1.30251E+01 8.71460E-01 7.12496E-02 1.23167E+00 6.66004E-15-1.91444E-14
 -1      3700 1.35739E+01 1.03234E+00 7.18198E-05 3.96537E-01-7.10413E-14-4.42528E-14
 -1      3701 1.40651E+01 6.47289E-01-1.70014E-03 1.77038E+00-9.18527E-14 9.76077E-14
 -1      3702 2.61165E+01 1.46263E+00-4.39425E-02-2.19837E+00 2.99066E-13 4.12032E-14
 -1      3703 2.02317E+01 4.69174E-01-8.85628E-04-1.91258E-01 5.38085E-14-8.37979E-14
 -1      3704 2.02508E+01 5.33098E-01 1.98600E-03-1.07676E-01 7.95081E-14-7.41727E-14
 -1      3705 2.02393E+01 5.12903E-01-6.47474E-05-2.11273E-01 3.80151E-14-7.67706E-14
 -1      3706 2.00887E+01 2.06545E+00 5.66268E-03-8.07391E-02 2.14841E-14-1.85328E-13
 -1      3707 2.01861E+01 1.80810E+00 8.44021E-03 3.95309E-01 1.12884E-13-1.15099E-13
 -1      3708 1.99255E+01 3.40694E-01-6.81754E-04-8.38304E-01-9.16322E-15 1.48221E-14
 -1      3709 2.00398E+01 2.92019E-01 2.02388E-03-8.13476E-01 4.42038E-14-3.04219E-14
 -1      3710 2.00324E+01 2.90828E-01-8.27143E-04-7.56284E-01 5.56597E-14-3.74944E-14
 -1      3711 2.01873E+01 4.13679E-01-3.01602E-04-3.49452E-01-3.43610E-15-7.80887E-14
 -1      3712 1.13677E+01 7.29529E-02 1.35767E-01 2.52681E+00 8.62279E-14-1.72501E-13
 -1      3713 1.13216E+01 4.46379E-01 4.85126E-02 1.48547E+00 2.28758E-14-2.54123E-13
 -1      3714 1.28837E+01-7.89424E-02 4.62506E-02 2.90717E+00 1.05687E-13-2.22600E-14
 -1      3715 1.99759E+01 1.40491E-01-4.20721E-04-9.43258E-02-1.66577E-13 1.01939E-13
 -1      3716 1.99624E+01 1.64619E-01 1.92544E-04-1.03097E-01-1.78740E-14 4.65782E-14
 -1      3717 1.99638E+01 1.53050E-01 2.87729E-04-8.58189E-02-1.44583E-13 1.61490E-13
 -1      3718 1.99493E+01 1.63443E-01-7.89143E-04-7.59359E-02-1.94439E-13 3.60075E-14
 -1      3719 1.99494E+01 1.83691E-01-6.35577E-04-1.15482E-01 5.72006E-14 5.07674E-14
 -1      3720 2.08181E+01-1.35742E+00 2.36210E-02 1.86700E+00 2.30137E-13 8.13457E-14
 -1      3721 2.12785E+01-1.77821E+00 1.22997E-02 1.81111E+00 7.28428E-14 6.42104E-14
 -1      3722 2.01657E+01 5.54986E-01-3.48921E-04 2.72300E-01 1.61711E-14-9.32110E-14
 -1      3723 2.01188E+01 5.23204E-01-7.50640E-04 3.35479E-01 2.05307E-14-7.26878E-14
 -1      3724 2.03010E+01 1.06576E+00 5.06823E-03 2.12286E-01 1.00123E-13-7.96062E-14
 -1      3725 2.02420E+01 1.40916E+00-4.59029E-03 3.16975E-01 1.05727E-13-9.60435E-14
 -1      3726 2.00535E+01 5.08286E-01-8.52390E-04 3.82207E-01 3.41074E-14-6.70457E-14
 -1      3727 1.99949E+01 5.09037E-01-4.89504E-04 4.38118E-01 3.91766E-14-3.99562E-14
 -1      3728 2.00743E+01 5.67561E-01 1.63775E-03 3.07374E-01 5.67876E-14-1.08019E-13
 -1      3729 1.99099E+01 5.22685E-01-1.53737E-03 4.81545E-01 1.69335E-14-1.08292E-14
 -1      3730 1.98389E+01 5.48220E-01-3.02682E-04 5.35340E-01 1.34363E-14 3.95762E-15
 -1      3731 1.99254E+01 5.64489E-01 2.05539E-03 3.94778E-01 4.38840E-14-6.07678E-14
 -1      3732 1.97324E+01 5.82349E-01-2.33626E-03 5.78640E-01 9.80070E-15-4.74684E-15
 -1      3733 1.96463E+01 6.25403E-01-2.79901E-04 6.34142E-01 9.48552E-15 5.76646E-15
 -1      3734 1.97380E+01 6.14089E-01 2.68041E-03 4.76775E-01 5.74868E-15-2.43195E-14
 -1      3735 1.95146E+01 6.72885E-01-3.25745E-03 6.80052E-01 1.14811E-14 7.83377E-15
 -1      3736 1.94095E+01 7.26136E-01-3.50224E-04 7.40517E-01 4.60645E-15 1.33611E-14
 -1      3737 1.95066E+01 7.01335E-01 3.58345E-03 5.58599E-01 7.12805E-15-6.11312E-14
 -1      3738 1.92467E+01 7.78993E-01-4.40107E-03 7.91845E-01-9.86510E-15-1.44325E-14
 -1      3739 1.91182E+01 8.33779E-01-3.88219E-04 8.60650E-01-3.00340E-15-3.94088E-14
 -1      3740 1.92216E+01 8.11213E-01 4.81009E-03 6.44965E-01-1.39035E-14-6.39454E-14
 -1      3741 1.89158E+01 8.81863E-01-5.98052E-03 9.21124E-01 9.14698E-15-5.46672E-14
 -1      3742 1.87600E+01 9.27018E-01-1.63819E-04 1.00309E+00-2.84155E-14-1.60084E-14
 -1      3743 1.88695E+01 9.26922E-01 6.48699E-03 7.41386E-01-1.41628E-14-1.01403E-13
 -1      3744 1.85058E+01 9.56708E-01-8.35172E-03 1.07923E+00-7.95147E-14-7.07794E-16
 -1      3745 1.83207E+01 9.77275E-01 7.29103E-04 1.18315E+00-7.74385E-14-1.20769E-15
 -1      3746 1.84311E+01 1.02777E+00 8.66888E-03 8.56717E-01-2.61531E-14-6.39808E-14
 -1      3747 1.79975E+01 9.69494E-01-1.20302E-02 1.28780E+00-8.74004E-14-4.87996E-14
 -1      3748 1.77859E+01 9.44406E-01 3.09686E-03 1.43033E+00-9.47773E-14-2.14169E-14
 -1      3749 1.78801E+01 1.08803E+00 1.16299E-02 1.00850E+00-8.46598E-14-1.27621E-13
 -1      3750 1.73682E+01 8.70797E-01-1.76290E-02 1.58781E+00-6.08464E-14-1.04805E-14
 -1      3751 1.71402E+01 7.66235E-01 6.91908E-03 1.80083E+00-1.84145E-14-6.12064E-14
 -1      3752 1.71794E+01 1.07361E+00 1.62113E-02 1.23155E+00-7.78708E-14-9.21990E-14
 -1      3753 1.65776E+01 5.88278E-01-2.83594E-02 2.04571E+00 1.33617E-14-4.86943E-14
 -1      3754 1.63875E+01 3.35376E-01 2.30056E-03 2.40863E+00 8.94250E-15 9.25041E-16
 -1      3755 1.62822E+01 9.33796E-01 2.70982E-02 1.58886E+00-2.46175E-14-8.05801E-14
 -1      3756 1.50435E+01 6.79710E-01 5.37211E-02-2.16225E+00 1.40738E-13-1.77594E-13
 -1      3757 1.62719E+01 2.82485E-01 8.37009E-03-2.45008E+00 9.98481E-14-5.94420E-14
 -1      3758 1.64545E+01 5.85641E-01-3.17015E-02-2.08018E+00 1.37701E-13-1.32662E-13
 -1      3759 1.70042E+01 7.73519E-01 2.09030E-04-1.81826E+00 1.26726E-13-1.19493E-13
 -1      3760 1.72352E+01 9.13433E-01-2.23341E-02-1.57793E+00 3.57323E-14-1.94502E-14
 -1      3761 1.62542E+01 1.03011E+00 3.98324E-02-1.53619E+00 1.38700E-13-2.41922E-13
 -1      3762 1.76489E+01 9.93552E-01-1.94926E-03-1.41367E+00 3.61356E-14-1.45328E-13
 -1      3763 1.78669E+01 1.04185E+00-1.48205E-02-1.25094E+00 3.58723E-14-2.31301E-13
 -1      3764 1.71322E+01 1.16956E+00 2.46459E-02-1.16117E+00 7.41781E-14-2.59873E-13
 -1      3765 1.81809E+01 1.05445E+00-2.90469E-03-1.13999E+00-3.00077E-14-2.17113E-13
 -1      3766 1.83698E+01 1.04953E+00-9.94231E-03-1.02139E+00-3.56751E-14-2.27654E-13
 -1      3767 1.78083E+01 1.18521E+00 1.64700E-02-9.31726E-01-2.12311E-14-3.88917E-13
 -1      3768 1.86110E+01 1.02240E+00-2.84066E-03-9.38179E-01-8.63256E-14-1.93607E-13
 -1      3769 1.87668E+01 9.86557E-01-6.93576E-03-8.44811E-01-1.38521E-13-9.32437E-14
 -1      3770 1.83313E+01 1.12858E+00 1.16623E-02-7.71503E-01-4.62625E-14-3.43452E-13
 -1      3771 1.89531E+01 9.37817E-01-2.45141E-03-7.77226E-01-1.39225E-13-5.33509E-14
 -1      3772 1.90774E+01 8.86152E-01-5.00902E-03-6.99338E-01-2.82822E-14-2.60346E-14
 -1      3773 1.87381E+01 1.02939E+00 8.68968E-03-6.46580E-01-3.34662E-14-2.38332E-13
 -1      3774 1.92215E+01 8.27680E-01-1.97541E-03-6.41724E-01 1.49290E-14-6.10291E-14
 -1      3775 1.93182E+01 7.70029E-01-3.77111E-03-5.74816E-01-5.07785E-14 7.75825E-14
 -1      3776 1.90543E+01 9.08565E-01 6.60205E-03-5.41151E-01-2.30465E-14-1.76730E-13
 -1      3777 1.94294E+01 7.09592E-01-1.53272E-03-5.24783E-01-6.35199E-14 1.28826E-13
 -1      3778 1.95030E+01 6.52146E-01-2.93444E-03-4.66848E-01 3.59554E-14 8.94155E-14
 -1      3779 1.92992E+01 7.81123E-01 5.03951E-03-4.48626E-01 2.19000E-14-6.61803E-14
 -1      3780 1.95884E+01 5.94338E-01-1.14519E-03-4.23435E-01 1.15276E-13 1.42549E-13
 -1      3781 1.96435E+01 5.40668E-01-2.31930E-03-3.73609E-01 2.03513E-13 8.57983E-14
 -1      3782 1.94875E+01 6.57020E-01 3.88364E-03-3.66602E-01 1.63409E-13 6.15833E-14
 -1      3783 1.97084E+01 4.88109E-01-8.35474E-04-3.36444E-01 1.95205E-13 1.29153E-13
 -1      3784 1.97490E+01 4.40143E-01-1.83824E-03-2.94176E-01 1.52698E-13 1.33461E-13
 -1      3785 1.96312E+01 5.42106E-01 2.99367E-03-2.94677E-01 2.14341E-13 1.20265E-13
 -1      3786 1.97979E+01 3.94051E-01-5.90754E-04-2.62870E-01 8.85084E-14 6.54675E-14
 -1      3787 1.98272E+01 3.52508E-01-1.45396E-03-2.27589E-01 1.26456E-14 6.61775E-14
 -1      3788 1.97395E+01 4.39743E-01 2.30963E-03-2.32676E-01 2.44763E-14 5.61825E-14
 -1      3789 1.98636E+01 3.13174E-01-4.02984E-04-2.01777E-01-1.57650E-14 1.27659E-13
 -1      3790 1.98843E+01 2.78180E-01-1.11904E-03-1.72903E-01-6.70547E-14 1.59913E-13
 -1      3791 1.98202E+01 3.51074E-01 1.76462E-03-1.80320E-01 4.86294E-15 3.27165E-14
 -1      3792 1.99110E+01 2.45300E-01-2.86216E-04-1.51873E-01-1.19931E-13 1.43315E-13
 -1      3793 1.99265E+01 2.16990E-01-4.09833E-04-1.28843E-01-4.67983E-14 1.55075E-13
 -1      3794 1.98791E+01 2.76044E-01 1.18716E-03-1.37182E-01-5.70152E-14 1.31329E-13
 -1      3795 1.97315E+01 3.83928E-01 3.07549E-03-9.77119E-01 4.01495E-14-3.86034E-14
 -1      3796 1.97453E+01 3.96822E-01-1.70055E-03-9.04455E-01 1.76446E-15-1.86623E-14
 -1      3797 2.05755E+01-1.27893E+00 8.89503E-03-1.94014E+00-7.80211E-14 1.15781E-14
 -1      3798 2.02424E+01-9.15124E-01 1.22778E-02-1.90887E+00-6.11627E-14 4.16947E-14
 -1      3799 2.00492E+01-6.09130E-01 9.53996E-03-1.76963E+00-5.00173E-14 6.23104E-14
 -1      3800 1.98473E+01-3.52782E-01 4.93986E-03-1.69462E+00-1.16050E-14 7.40027E-14
 -1      3801 1.96455E+01-7.15522E-01-1.60899E-02-2.03791E+00-2.28325E-14 2.47287E-14
 -1      3802 2.40290E+01-2.52493E+00 2.39421E-02-1.49081E-01-1.00121E-13-1.00503E-14
 -1      3803 2.52697E+01-2.53844E+00-3.96775E-02-5.07845E-01-7.38440E-14 1.99389E-14
 -1      3804 2.53961E+01 3.99869E-01-3.91733E-02-2.06802E+00 1.95854E-13 1.23096E-14
 -1      3805 1.99589E+01 1.71119E-01-1.28982E-04 1.22314E-01-9.88919E-14-4.24553E-13
 -1      3806 1.99583E+01 1.89024E-01 9.64212E-04 1.46300E-01-2.29101E-13-4.23061E-13
 -1      3807 1.99386E+01 1.87015E-01-9.25806E-04 1.13551E-01-1.03893E-13-5.41752E-13
 -1      3808 1.98359E+01-1.67751E-01 4.19601E-03 1.52156E+00-9.11989E-14 8.07660E-14
 -1      3809 2.00113E+01-3.95115E-01 8.26037E-03 1.59798E+00-4.91229E-14 7.97613E-14
 -1      3810 1.96788E+01 1.59859E-01 9.24450E-04 1.29942E+00-1.51118E-13 1.60508E-13
 -1      3811 1.97742E+01 1.65131E-02 6.36387E-03 1.38832E+00-8.74649E-14 1.78606E-13
 -1      3812 1.94373E+01-2.16631E-03-7.39607E-03 1.53865E+00-1.26602E-13 1.79799E-13
 -1      3813 1.96324E+01 3.50395E-01-7.63711E-04 1.08937E+00-1.03471E-13 2.53229E-13
 -1      3814 1.96771E+01 2.71048E-01 4.66851E-03 1.17846E+00-1.77263E-13 2.03894E-13
 -1      3815 1.93874E+01 2.94368E-01-3.66439E-03 1.26864E+00-2.13574E-13 1.85768E-13
 -1      3816 1.96468E+01 4.41802E-01-1.52237E-03 9.00161E-01 1.58209E-14 3.33214E-13
 -1      3817 1.96616E+01 4.07723E-01 3.37823E-03 9.83930E-01-5.13615E-14 2.96861E-13
 -1      3818 1.94192E+01 4.55893E-01-1.29076E-03 1.03580E+00-1.95512E-13 1.72708E-13
 -1      3819 1.96908E+01 4.66008E-01-1.83270E-03 7.34244E-01-1.19225E-14 3.86114E-13
 -1      3820 1.96896E+01 4.61790E-01 2.44558E-03 8.10067E-01 7.56116E-14 3.51355E-13
 -1      3821 1.94906E+01 5.22731E-01 1.58713E-05 8.38752E-01 4.33907E-14 1.71155E-13
 -1      3822 1.97454E+01 4.48288E-01-1.87726E-03 5.91042E-01-2.15495E-13 1.40709E-13
 -1      3823 1.97368E+01 4.62277E-01 1.79149E-03 6.58065E-01-5.10383E-14 2.98466E-13
 -1      3824 1.95761E+01 5.27494E-01 5.96646E-04 6.73599E-01 1.11251E-14 2.17626E-13
 -1      3825 1.98002E+01 4.06544E-01-1.76625E-03 4.69193E-01-2.50006E-13 4.37412E-14
 -1      3826 1.97891E+01 4.30511E-01 1.37597E-03 5.27148E-01-2.76620E-13 9.88421E-14
 -1      3827 1.96614E+01 4.94847E-01 8.87334E-04 5.35554E-01-1.57226E-13 2.07371E-13
 -1      3828 1.98497E+01 3.53535E-01-1.57697E-03 3.67097E-01-2.39004E-13-2.33175E-15
 -1      3829 1.98389E+01 3.81698E-01 1.08412E-03 4.16232E-01-2.36670E-13-2.16287E-15
 -1      3830 1.97391E+01 4.41603E-01 9.58387E-04 4.21036E-01-2.39766E-13 2.84311E-14
 -1      3831 1.98913E+01 2.97701E-01-1.36361E-03 2.82763E-01-2.06754E-14-2.44373E-13
 -1      3832 1.98821E+01 3.26349E-01 8.74311E-04 3.23688E-01-1.15230E-13-1.15243E-13
 -1      3833 1.98055E+01 3.79857E-01 9.09928E-04 3.26903E-01-1.09069E-13-2.03344E-13
 -1      3834 1.99251E+01 2.44432E-01-9.84674E-04 2.14305E-01 8.55311E-14-4.41099E-13
 -1      3835 1.99176E+01 2.71168E-01 7.59915E-04 2.47578E-01 2.52024E-14-3.00341E-13
 -1      3836 1.98597E+01 3.17160E-01 7.03517E-04 2.50271E-01 8.05669E-14-5.03240E-13
 -1      3837 1.99460E+01 2.04574E-01-4.14570E-04 1.65381E-01 2.64641E-14-4.06097E-13
 -1      3838 1.99400E+01 2.27769E-01 7.50784E-04 1.92074E-01 1.36931E-13-5.18402E-13
 -1      3839 1.98954E+01 2.66208E-01 1.96024E-04 1.94068E-01 1.52136E-13-6.88589E-13
 -1      3840 1.99183E+01 2.28565E-01 7.78001E-05 1.53602E-01-8.98134E-14-7.09547E-13
 -1      3841 2.00928E+01 3.96460E-01 3.21355E-04-4.70138E-01 4.62247E-14-1.02276E-13
 -1      3842 2.01271E+01 4.14635E-01-1.63346E-04-4.09358E-01 3.69468E-15-9.99813E-14
 -1      3843 2.01994E+01 1.60810E+00 6.29305E-03-1.22359E-03 2.28979E-14-1.66392E-13
 -1      3844 2.01302E+01 1.82328E+00-3.01633E-03-2.64698E-02 2.40674E-14-1.70475E-13
 -1      3845 2.01366E+01 1.80201E+00-3.85782E-03-1.00244E-01 3.35794E-15-1.68657E-13
 -1      3846 1.97802E+01-1.43762E-01 7.72035E-03-1.55415E+00-1.73085E-14 9.74538E-14
 -1      3847 1.96730E+01 1.96823E-02 1.01109E-03-1.46591E+00-4.22676E-15 1.74542E-14
 -1      3848 1.94205E+01-1.74766E-01-8.75102E-03-1.71864E+00-2.82818E-14 1.00120E-13
 -1      3849 2.01787E+01-6.69109E-01 1.04235E-02 1.73073E+00 2.50234E-14 7.27167E-14
 -1      3850 2.04707E+01-9.96360E-01 9.17424E-03 1.76885E+00 1.77006E-13 7.03745E-14
 -1      3851 1.96364E+01-4.83044E-01-1.38540E-02 1.83670E+00 3.88985E-14 2.37603E-14
 -1      3852 2.01729E+01 4.45083E-01-3.48684E-04-3.52249E-01-7.34100E-15-8.21385E-14
 -1      3853 2.02056E+01 4.90581E-01 3.84951E-04-2.83370E-01 1.60035E-14-7.91893E-14
 -1      3854 2.01416E+01 4.86610E-01 6.62408E-04-3.46120E-01 1.25495E-14-9.76981E-14
 -1      3855 2.10062E+01-2.38070E+00-3.21852E-02 2.53216E+00-9.20587E-14-2.26852E-13
 -1      3856 1.95216E+01-1.64759E+00 1.16057E-02 2.92031E+00-4.23923E-14-1.85899E-13
 -1      3857 2.02141E+01 1.52167E+00-2.40028E-03 2.62090E-01 9.49229E-14-1.14745E-13
 -1      3858 2.44133E+01-2.65715E+00-2.70589E-03 4.91970E-02-1.11710E-13 6.96982E-14
 -1      3859 2.14679E+01-2.12135E+00 3.84340E-03-1.95243E+00-2.45802E-14 8.55774E-14
 -1      3860 2.09822E+01-1.67850E+00 2.54673E-02-2.02488E+00-3.54829E-14 6.59502E-14
 -1      3861 2.01775E+01-1.50927E+00-2.71087E-02-2.34353E+00-7.72318E-14-1.54789E-14
 -1      3862 1.99268E+01 1.81892E-01-5.99095E-04 4.74309E-02-6.51355E-14-4.13701E-13
 -1      3863 1.99368E+01 1.74653E-01 1.94959E-04 6.16034E-02 1.16248E-13-6.40690E-13
 -1      3864 1.99103E+01 2.08678E-01 7.59079E-04 4.36446E-02-1.39126E-13-3.84976E-13
 -1      3865 2.02822E+01 7.39812E-01 2.06086E-03 1.05776E-01 1.04402E-13-7.90229E-14
 -1      3866 2.02903E+01 8.69136E-01-1.72854E-03 1.45229E-01 1.10865E-13-7.56840E-14
 -1      3867 2.02915E+01 9.83158E-01-9.10500E-04 1.29719E-01 9.24696E-14-5.63099E-14
 -1      3868 2.02635E+01 6.37935E-01-1.48878E-03-3.40959E-03 9.94723E-14-7.59915E-14
 -1      3869 2.02454E+01 6.80689E-01 1.15937E-04 1.42297E-01-2.62953E-14-9.73464E-14
 -1      3870 2.02110E+01 6.07076E-01-1.15306E-03 2.18282E-01-8.04725E-15-8.25483E-14
 -1      3871 2.01853E+01 6.41364E-01 1.55212E-03 2.07871E-01-2.43151E-15-1.08217E-13
 -1      3872 2.01504E+01 1.76510E+00-2.84767E-03-1.53908E-01-1.65112E-14-1.48298E-13
 -1      3873 2.01689E+01 1.70125E+00-4.68129E-03-2.23030E-01-3.14631E-14-1.45992E-13
 -1      3874 2.02145E+01 1.57196E+00 7.83839E-03-9.50855E-02-2.33222E-14-1.44894E-13
 -1      3875 2.02935E+01 9.10444E-01 4.22216E-03-1.76678E-02-5.87256E-14-1.22351E-13
 -1      3876 2.02675E+01 7.78761E-01-2.17106E-03 7.69312E-02-5.47221E-14-1.24018E-13
 -1      3877 2.02534E+01 8.03965E-01 1.10988E-03 8.89292E-02-2.36509E-14-6.32758E-14
 -1      3878 1.42795E+01 9.42595E-01-5.50860E-03-1.17296E+00 8.93643E-14-5.55632E-14
 -1      3879 1.72755E+01-1.69825E+00 4.98139E-02-4.07289E+00-1.19757E-13-2.43711E-14
 -1      3880 1.86227E+01-1.88541E+00 1.23867E-02-3.62235E+00-1.57683E-13-5.31827E-14
 -1      3881 1.64166E+01-1.16094E+00 5.27103E-03-3.73526E+00-1.37569E-13-5.03105E-14
 -1      3882 1.29176E+01 7.40373E-02 9.62598E-02-2.90886E+00-1.56748E-13-1.40887E-13
 -1      3883 1.43055E+01-2.67973E-01 2.00220E-02-3.16963E+00-1.92320E-13-1.05537E-13
 -1      3884 1.26695E+01 4.19707E-01 1.91517E-02-1.97709E+00-1.63369E-13-1.02848E-13
 -1      3885 1.43437E+01 6.44921E-01 5.27847E-02 1.98928E+00 1.58779E-14-1.05874E-13
 -1      3886 1.49895E+01 6.82206E-02 6.96006E-03 2.70797E+00 2.93272E-14-4.04052E-14
 -1      3887 2.02666E+01 1.10845E+00-2.90177E-03-9.25781E-02-6.68940E-14-1.12338E-13
 -1      3888 2.37012E+01-2.86581E+00-3.00011E-02 7.00971E-01-2.45063E-13 8.57630E-14
 -1      3889 1.99273E+01 2.08318E-01 5.97705E-04-1.05481E-01-6.54413E-14 3.66539E-14
 -1      3890 2.02471E+01 1.44482E+00 6.77762E-03-1.79539E-01-4.13600E-14-1.16319E-13
 -1      3891 1.99318E+01 1.91593E-01 3.59146E-04-7.75612E-02-4.54794E-14-1.30876E-13
 -1      3892 2.26286E+01-2.85712E+00 1.86160E-02 1.75050E+00-2.27798E-13-1.25326E-13
 -1      3893 2.00366E+01 3.87600E-01-7.59288E-04-5.24627E-01 5.26000E-14-9.56352E-14
 -1      3894 2.00393E+01 4.44301E-01 5.93725E-04-4.57939E-01 4.20864E-14-1.03247E-13
 -1      3895 2.00027E+01 3.86704E-01 9.51466E-04-5.82854E-01 4.18594E-14-7.36049E-14
 -1      3896 2.19431E+01-2.51555E+00 8.31634E-03 1.96448E+00-1.26376E-13-9.47298E-14
 -1      3897 1.99348E+01 1.85510E-01 7.52337E-04 7.84449E-02-1.50419E-14-4.95457E-13
 -1      3898 1.96691E+01 3.54791E-01-1.54365E-03-1.06613E+00 4.11188E-14-1.72015E-14
 -1      3899 1.95330E+01 4.37938E-01-3.47726E-04-9.92383E-01 2.81055E-14-4.37265E-14
 -1      3900 1.96770E+01 3.11191E-01 4.27500E-03-1.14682E+00 1.00395E-14-5.27433E-14
 -1      3901 1.99870E+01 3.39703E-01-3.98597E-04-7.12763E-01 5.09096E-14-1.79350E-14
 -1      3902 2.02564E+01 1.35669E+00 4.66942E-03 1.63910E-01 8.71266E-14-1.11788E-13
 -1      3903 2.00862E+01-1.19302E+00-2.56752E-02 2.12552E+00 1.72575E-13 9.10686E-14
 -1      3904 2.27745E+01-2.96967E+00-2.53512E-02-1.61730E+00-7.14342E-14 8.74179E-14
 -1      3905 2.21642E+01-2.55604E+00 3.41299E-02-1.87826E+00-4.02872E-14 1.56606E-13
 -1      3906 1.96477E+01-1.12722E+00 2.71921E-02 2.41904E+00 1.43966E-13-1.47686E-13
 -1      3907 1.85026E+01-1.22119E+00-9.34764E-03 3.07910E+00-6.81334E-15-2.53633E-13
 -1      3908 1.76693E+01-5.80570E-01-1.81472E-02 2.76724E+00 1.71052E-14-1.28550E-13
 -1      3909 1.92832E+01-7.35689E-01 7.70996E-03 2.27170E+00 1.32233E-13 8.95291E-15
 -1      3910 1.96785E+01 1.48579E-01 5.77361E-03-1.34108E+00-2.42622E-14-2.28182E-14
 -1      3911 1.96325E+01 2.41951E-01-8.92055E-04-1.25371E+00-1.52492E-14-1.91929E-14
 -1      3912 1.94274E+01 3.52650E-01-1.67018E-03-1.19150E+00 6.98566E-15 5.50095E-15
 -1      3913 1.93738E+01 1.63008E-01-4.46072E-03-1.43218E+00-5.05221E-14 5.32541E-14
 -1      3914 2.02293E+01 1.34205E+00-4.39104E-03 7.64067E-02 5.20132E-14-1.31009E-13
 -1      3915 2.02214E+01 1.38545E+00-2.48924E-03 3.90721E-02 3.17114E-14-1.43979E-13
 -1      3916 2.02159E+01 1.40400E+00-2.90775E-03 1.85360E-02 2.36012E-14-1.53695E-13
 -1      3917 2.02142E+01 1.40151E+00-4.34253E-03-2.36836E-02-9.79086E-15-1.48971E-13
 -1      3918 2.02536E+01 1.23057E+00 5.06440E-03 1.07289E-02 1.06845E-14-1.35549E-13
 -1      3919 1.98779E+01 2.42245E-01-3.40255E-04-7.70051E-03-8.54440E-14 6.62484E-14
 -1      3920 1.98782E+01 2.40747E-01-5.43706E-04 1.45193E-02-1.01959E-13 6.17128E-14
 -1      3921 1.15690E+01 7.65966E-01 1.04010E-01 5.18556E-01-3.12771E-14-2.88804E-13
 -1      3922 1.20487E+01 7.79471E-01 2.24661E-02-4.59697E-01-6.55394E-14-1.56659E-13
 -1      3923 1.25740E+01 6.80794E-01 4.32508E-02 1.16491E+00 2.13839E-14-2.10318E-13
 -1      3924 1.51465E+01 4.69555E-01 4.89248E-02 2.26098E+00-1.82340E-13 2.11888E-13
 -1      3925 1.50669E+01 7.61698E-01-1.78710E-02 1.53679E+00-1.30842E-13-3.72142E-14
 -1      3926 1.63230E+01 1.21672E-01 5.65614E-03 2.42863E+00-1.64079E-13 1.58251E-13
 -1      3927 2.02345E+01 5.38007E-01-7.42260E-04-2.29453E-01 4.74978E-14-7.71335E-14
 -1      3928 2.02597E+01 5.99421E-01 1.51887E-03-1.57738E-01 5.33821E-14-6.62082E-14
 -1      3929 2.02186E+01 5.72224E-01 5.14769E-04-2.35003E-01 3.41842E-14-5.36822E-14
 -1      3930 2.12209E+01-2.44790E+00-8.38312E-03-2.43917E+00-8.54748E-14 1.03684E-13
 -1      3931 1.98138E+01 4.02728E-01 2.19548E-03-8.29759E-01-3.07550E-14-2.79478E-15
 -1      3932 1.98393E+01 3.99928E-01-1.59169E-03-7.64261E-01-8.66188E-15-6.92727E-15
 -1      3933 1.96601E+01 4.60898E-01 1.32468E-04-8.28276E-01 9.86590E-15 3.50616E-15
 -1      3934 2.02762E+01 6.81212E-01-3.54812E-04-3.83582E-02 7.53157E-14-5.37546E-14
 -1      3935 1.42676E+01 1.19102E+00 5.21139E-02-4.42179E-01 5.23713E-15-1.17207E-14
 -1      3936 1.53943E+01 1.05505E+00-2.06102E-03-1.11594E+00 9.26121E-14-2.09771E-13
 -1      3937 1.59031E+01 1.13701E+00-2.28725E-02-9.31496E-01 9.33498E-14-2.87058E-13
 -1      3938 1.46744E+01 1.12208E+00-9.72787E-03 2.08420E-01-6.58488E-14-1.54873E-13
 -1      3939 1.98904E+01 2.34563E-01 7.37130E-06-5.59332E-02-1.57257E-13-4.26474E-13
 -1      3940 1.98815E+01 2.39302E-01-7.10206E-04-3.47114E-02-1.04679E-13-1.26703E-13
 -1      3941 1.98602E+01 2.69561E-01 7.56989E-04-2.34357E-02-1.39665E-13-9.18389E-14
 -1      3942 2.02504E+01 1.19265E+00-2.27694E-03-6.62533E-02-4.67441E-14-1.03732E-13
 -1      3943 2.00737E+01-2.09518E+00 2.26526E-02-3.01427E+00-1.30322E-13 3.95972E-14
 -1      3944 2.07757E+01-2.47027E+00-3.30293E-03-2.86649E+00-9.57335E-14 5.69154E-14
 -1      3945 1.99408E+01 5.80586E-01-1.32274E-03 2.96062E-01 6.35428E-14-1.41315E-13
 -1      3946 1.98556E+01 5.92412E-01-1.15322E-03 3.35266E-01 6.02219E-14-1.27626E-13
 -1      3947 1.97469E+01 6.16475E-01-1.78464E-03 3.59675E-01 4.69466E-14-1.18581E-13
 -1      3948 1.96412E+01 6.51150E-01-1.32086E-03 3.96466E-01 5.64308E-15-9.12191E-14
 -1      3949 1.97801E+01 6.38535E-01 2.80438E-03 2.58751E-01 5.53603E-14-1.69008E-13
 -1      3950 1.95061E+01 6.94170E-01-2.49003E-03 4.18713E-01-2.16943E-15-7.27082E-14
 -1      3951 1.93760E+01 7.44534E-01-1.71315E-03 4.54965E-01 2.22724E-14-8.29997E-14
 -1      3952 1.95405E+01 7.06073E-01 3.65835E-03 2.98204E-01 2.05955E-14-8.25410E-14
 -1      3953 1.92095E+01 7.99185E-01-3.37372E-03 4.76135E-01 5.04311E-15-9.51466E-14
 -1      3954 1.90492E+01 8.57439E-01-2.27232E-03 5.13708E-01-3.28367E-14-6.95790E-14
 -1      3955 1.92448E+01 8.05992E-01 4.65319E-03 3.30585E-01 6.96521E-15-7.40511E-14
 -1      3956 1.88434E+01 9.15075E-01-4.59166E-03 5.34358E-01-2.01650E-14-7.19017E-14
 -1      3957 1.86446E+01 9.72428E-01-2.97824E-03 5.75447E-01 3.17907E-14-4.37168E-14
 -1      3958 1.88819E+01 9.23137E-01 6.37074E-03 3.57184E-01 3.78739E-16-6.50082E-14
 -1      3959 1.83858E+01 1.02368E+00-6.63232E-03 5.96698E-01-3.16624E-14-7.46170E-14
 -1      3960 1.81373E+01 1.07023E+00-3.94233E-03 6.46086E-01-8.91065E-14-1.04924E-13
 -1      3961 1.84315E+01 1.04079E+00 8.80975E-03 3.77083E-01-1.87549E-14-8.51156E-14
 -1      3962 1.78042E+01 1.10416E+00-9.96619E-03 6.71909E-01-8.71125E-14-1.30517E-13
 -1      3963 1.74902E+01 1.12843E+00-5.02986E-03 7.39924E-01-9.61626E-14-1.49793E-13
 -1      3964 1.78610E+01 1.14276E+00 1.23274E-02 3.93788E-01-1.03115E-13-1.85809E-13
 -1      3965 1.70493E+01 1.12989E+00-1.54935E-02 7.79461E-01-7.33354E-14-1.84144E-13
 -1      3966 1.66473E+01 1.11654E+00-5.97142E-03 8.85760E-01-6.67463E-14-1.38541E-13
 -1      3967 1.71224E+01 1.21165E+00 1.82395E-02 4.14671E-01-9.97925E-14-1.95784E-13
 -1      3968 1.60371E+01 1.07122E+00-2.31176E-02 9.56491E-01-1.48137E-14-1.08033E-13
 -1      3969 1.55103E+01 9.78657E-01-9.57196E-03 1.14493E+00 3.19970E-15-9.75123E-14
 -1      3970 1.61364E+01 1.22760E+00 2.98093E-02 4.56113E-01-2.31835E-14-1.94349E-13
 -1      3971 1.96739E+01-1.48329E+00 1.33606E-02-2.68756E+00-6.98352E-14-2.27782E-14
 -1      3972 1.92973E+01-1.01033E+00 9.82871E-03-2.51278E+00-4.15252E-14-1.02391E-14
 -1      3973 1.65988E+01 1.19852E+00-4.57444E-03-8.29373E-01-1.10853E-14-4.12449E-13
 -1      3974 1.69830E+01 1.21204E+00-1.62972E-02-7.26844E-01-6.39590E-14-4.36111E-13
 -1      3975 1.74120E+01 1.21643E+00-5.14974E-03-6.81207E-01-6.47594E-14-5.14493E-13
 -1      3976 1.77131E+01 1.19732E+00-1.00526E-02-6.12509E-01-5.60734E-14-5.60569E-13
 -1      3977 1.70471E+01 1.30293E+00 1.98354E-02-3.69320E-01-1.20891E-13-6.17891E-13
 -1      3978 1.80291E+01 1.16777E+00-4.44066E-03-5.80576E-01-2.11342E-14-5.02119E-13
 -1      3979 1.82632E+01 1.12464E+00-6.89557E-03-5.27934E-01 1.32616E-14-4.25190E-13
 -1      3980 1.77534E+01 1.24249E+00 1.28126E-02-3.43939E-01-4.13588E-14-6.62164E-13
 -1      3981 1.85037E+01 1.07464E+00-3.43567E-03-5.01374E-01 5.70986E-14-4.20992E-13
 -1      3982 1.86855E+01 1.01779E+00-4.85816E-03-4.56793E-01 6.56327E-14-3.34021E-13
 -1      3983 1.82889E+01 1.14764E+00 9.52571E-03-3.20622E-01 5.86076E-14-5.03835E-13
 -1      3984 1.88706E+01 9.57643E-01-2.61351E-03-4.31383E-01-2.30260E-14-2.91412E-13
 -1      3985 1.90118E+01 8.94416E-01-3.63356E-03-3.91193E-01-3.14630E-15-2.78029E-13
 -1      3986 1.87003E+01 1.02915E+00 7.17724E-03-2.93823E-01 4.27141E-14-5.36407E-13
 -1      3987 1.91552E+01 8.30864E-01-2.01550E-03-3.66488E-01-3.69174E-15-2.31901E-13
 -1      3988 1.92641E+01 7.67161E-01-2.87207E-03-3.29592E-01 7.84637E-14-1.25533E-13
 -1      3989 1.90194E+01 8.99452E-01 5.28139E-03-2.62890E-01 5.77780E-14-4.01092E-13
 -1      3990 1.93757E+01 7.04832E-01-1.45654E-03-3.05750E-01 1.17417E-13-7.41571E-14
 -1      3991 1.94590E+01 6.44031E-01-2.31447E-03-2.72329E-01 1.66194E-13-5.28940E-14
 -1      3992 1.92679E+01 7.69302E-01 4.10139E-03-2.27912E-01 6.42405E-14-3.67638E-13
 -1      3993 1.95452E+01 5.86014E-01-1.03116E-03-2.50228E-01 2.91349E-13-9.84671E-14
 -1      3994 1.96082E+01 5.30611E-01-1.86141E-03-2.20592E-01 2.94585E-13-8.18095E-14
 -1      3995 1.94606E+01 6.44498E-01 3.13832E-03-1.92373E-01 2.29208E-13-3.58642E-13
 -1      3996 1.96743E+01 4.78631E-01-7.05598E-04-2.00725E-01 1.08733E-13-1.16366E-13
 -1      3997 1.97215E+01 4.29871E-01-1.44412E-03-1.75119E-01 2.43091E-14-7.19404E-14
 -1      3998 1.96088E+01 5.30196E-01 2.43228E-03-1.58402E-01 1.84161E-13-3.06882E-13
 -1      3999 1.97714E+01 3.84513E-01-5.18326E-04-1.57597E-01-2.35506E-14-2.75540E-14
 -1      4000 1.98065E+01 3.42531E-01-1.13094E-03-1.36096E-01-3.45541E-14 4.38701E-14
 -1      4001 1.97216E+01 4.29224E-01 1.95439E-03-1.27044E-01 5.69556E-15-1.87839E-14
 -1      4002 2.00909E+01 6.03062E-01-1.48772E-03 2.24339E-01 4.26379E-14-1.05159E-13
 -1      4003 2.00256E+01 5.84230E-01-1.08614E-03 2.68932E-01 5.92031E-14-1.09148E-13
 -1      4004 1.99715E+01 6.18750E-01 2.17036E-03 2.12829E-01 5.32920E-14-1.26633E-13
 -1      4005 2.37578E+01-3.07243E+00-4.04194E-03-9.63061E-01-1.11449E-13-5.22221E-14
 -1      4006 2.28503E+01-3.27090E+00-3.24439E-02-1.90202E+00-5.49862E-14 2.18871E-13
 -1      4007 1.89364E+01-1.65895E+00-5.20997E-03-3.23937E+00-1.46117E-13-4.85618E-14
 -1      4008 1.92098E+01 5.79579E-01-3.26750E-03 9.32715E-01-7.65118E-14 3.75687E-14
 -1      4009 1.91887E+01 5.40855E-01 4.44510E-03 1.03881E+00-2.31292E-13 9.37811E-14
 -1      4010 1.99158E+01 2.09189E-01-2.06884E-04 9.58543E-02-1.05525E-13-3.90854E-13
 -1      4011 1.99036E+01 2.32450E-01 2.04966E-04 1.17587E-01-1.07540E-13-4.19058E-13
 -1      4012 1.98983E+01 2.24159E-01-6.65709E-04 8.03194E-02-9.82945E-14-4.80705E-13
 -1      4013 1.90971E+01 4.73291E-01-3.44846E-03 1.17211E+00-3.05083E-13 1.96230E-13
 -1      4014 1.91073E+01 3.82561E-01 6.63922E-03 1.29914E+00-2.34402E-13 2.18775E-13
 -1      4015 1.88944E+01 6.12332E-01 7.38259E-04 1.06196E+00-2.10625E-13 2.23722E-13
 -1      4016 1.90337E+01 2.49850E-01-2.65030E-03 1.46993E+00-2.79231E-13 2.25364E-13
 -1      4017 1.91040E+01 8.38078E-02 1.03485E-02 1.61835E+00-1.62332E-13 8.50504E-14
 -1      4018 1.87317E+01 4.39461E-01-2.29672E-03 1.36817E+00-3.48089E-13 3.34899E-13
 -1      4019 1.93387E+01 6.05970E-01-3.10643E-03 7.39698E-01 6.22847E-16 9.85584E-14
 -1      4020 1.93029E+01 6.02631E-01 2.87965E-03 8.27553E-01-6.33794E-14 3.54131E-14
 -1      4021 1.90718E+01 6.78422E-01 1.70501E-03 8.26578E-01-9.08147E-14 9.25932E-14
 -1      4022 1.94649E+01 5.83297E-01-2.84672E-03 5.84045E-01-1.11272E-13 2.19741E-13
 -1      4023 1.94251E+01 6.00978E-01 1.75732E-03 6.57157E-01-7.76895E-15 2.15356E-13
 -1      4024 1.92439E+01 6.75224E-01 1.67765E-03 6.43973E-01-6.54198E-14 1.88240E-13
 -1      4025 1.95802E+01 5.31144E-01-2.46660E-03 4.57584E-01-9.17907E-14 3.16942E-14
 -1      4026 1.95419E+01 5.61112E-01 1.18922E-03 5.18078E-01-5.78219E-14 1.61828E-13
 -1      4027 1.94001E+01 6.32392E-01 1.92894E-03 5.00384E-01 1.62370E-15 1.51021E-13
 -1      4028 1.96797E+01 4.64650E-01-2.07449E-03 3.55334E-01-1.67055E-13-1.20279E-13
 -1      4029 1.96457E+01 4.99981E-01 8.13006E-04 4.05131E-01-8.71427E-14-6.49813E-14
 -1      4030 1.95358E+01 5.65144E-01 1.81113E-03 3.87004E-01-3.82088E-15-3.14178E-14
 -1      4031 1.97625E+01 3.94005E-01-1.70056E-03 2.73047E-01 2.52591E-14-4.12775E-13
 -1      4032 1.97339E+01 4.30125E-01 5.73440E-04 3.13657E-01-6.89691E-14-2.49007E-13
 -1      4033 1.96495E+01 4.87933E-01 1.60319E-03 2.97408E-01 2.06019E-14-1.59739E-13
 -1      4034 1.98289E+01 3.25952E-01-1.25713E-03 2.07106E-01 2.76827E-13-6.09683E-13
 -1      4035 1.98059E+01 3.60160E-01 4.98141E-04 2.39910E-01 1.87214E-13-4.68981E-13
 -1      4036 1.97417E+01 4.09542E-01 1.20192E-03 2.26607E-01 1.65162E-13-4.04485E-13
 -1      4037 2.02338E+01 1.29091E+00-5.03857E-03-7.29264E-02-3.64263E-14-1.02941E-13
 -1      4038 2.02736E+01 1.01835E+00 4.46777E-03 1.78265E-03-3.84520E-14-8.88742E-14
 -1      4039 2.02515E+01 8.75722E-01-2.10400E-03 4.42618E-02-3.01540E-14-7.94177E-14
 -1      4040 2.02275E+01 7.75710E-01-2.01625E-04 1.05599E-01-1.67243E-14-9.61027E-14
 -1      4041 2.02459E+01 9.77235E-01 1.74334E-03 2.19344E-02-1.99437E-14-8.94203E-14
 -1      4042 1.54998E+01-3.27481E-01 6.78907E-02 3.30261E+00 5.12871E-14 1.71963E-14
 -1      4043 1.90634E+01-8.30442E-02 1.30845E-02-1.79858E+00-1.85669E-14 2.10029E-14
 -1      4044 1.89802E+01 1.01487E-01-4.73402E-03-1.64164E+00-2.19658E-14 6.85732E-14
 -1      4045 1.90592E+01-1.32461E-01-2.58402E-04 1.83623E+00-6.54076E-14 1.39428E-14
 -1      4046 1.92311E+01-4.00907E-01 1.49529E-02 2.00216E+00 3.35300E-14 1.55140E-14
 -1      4047 1.85971E+01-3.96431E-01-6.47140E-03 2.28053E+00 1.92888E-14-1.00566E-13
 -1      4048 1.86114E+01 1.26244E-01-4.07992E-03 1.76347E+00-1.89459E-13 5.70366E-14
 -1      4049 1.99076E+01 3.95845E-01 1.54728E-03-7.00190E-01-7.32975E-16-4.74333E-14
 -1      4050 1.99389E+01 3.89479E-01-1.25753E-03-6.39913E-01 2.41986E-14-8.13957E-14
 -1      4051 1.99214E+01 4.40319E-01 5.51626E-04-5.69247E-01 2.43172E-14-8.47056E-14
 -1      4052 1.99061E+01 2.22352E-01-7.12399E-04-8.77424E-02-6.94926E-14-1.15536E-13
 -1      4053 1.98804E+01 2.39461E-01-4.61337E-04 3.78944E-02-9.20371E-14-1.11385E-13
 -1      4054 1.98887E+01 2.31895E-01-4.82761E-04 5.84201E-02-2.93476E-14-3.80712E-13
 -1      4055 1.98712E+01 2.61826E-01 1.08863E-03 7.57629E-02 1.46430E-14-3.84359E-13
 -1      4056 1.98588E+01 2.70504E-01 9.74836E-04 2.86648E-02-6.39110E-14-5.73285E-15
 -1      4057 2.02943E+01 8.24264E-01 1.65366E-03 2.59590E-02 9.42263E-14-5.41423E-14
 -1      4058 2.02871E+01 1.00378E+00 1.12878E-03 8.11068E-02 9.59052E-14-7.43293E-14
 -1      4059 2.02742E+01 6.96658E-01-2.16715E-03-8.07848E-02 6.28614E-14-5.29620E-14
 -1      4060 1.92220E+01-6.36641E-01 1.77987E-02-2.21846E+00-1.03171E-14 1.34740E-14
 -1      4061 1.90170E+01-3.36737E-01-2.23120E-03-2.04230E+00-8.17510E-15 1.17185E-14
 -1      4062 1.85519E+01-6.46290E-01-3.65444E-03-2.53081E+00-2.36837E-14-4.14985E-14
 -1      4063 2.02253E+01 1.33632E+00-2.59460E-03-3.60235E-02-1.29986E-14-1.32655E-13
 -1      4064 2.01912E+01 6.97821E-01-1.79237E-03 1.38815E-01-1.42262E-14-9.72383E-14
 -1      4065 2.01454E+01 6.42504E-01-6.52444E-04 1.90309E-01 1.02248E-14-9.37716E-14
 -1      4066 2.01080E+01 6.64324E-01 2.26188E-03 1.53112E-01 3.16499E-14-3.31849E-14
 -1      4067 2.01966E+01 7.76260E-01 2.08195E-03 8.75120E-02 2.09485E-15-8.01203E-14
 -1      4068 2.15479E+01-2.97404E+00 4.31964E-02-2.88787E+00-1.09577E-13 1.71758E-13
 -1      4069 2.01044E+01 5.09922E-01-4.20406E-04-3.29098E-01 2.76941E-14-8.94840E-14
 -1      4070 2.01516E+01 5.44930E-01-5.39432E-04-2.72110E-01 2.84838E-14-4.93456E-14
 -1      4071 2.02769E+01 1.09729E+00-3.20811E-03 9.40989E-02 7.83447E-14-7.59334E-14
 -1      4072 2.02496E+01 1.26868E+00 4.64996E-04 8.19662E-02 6.20167E-14-1.07830E-13
 -1      4073 2.02723E+01 1.12875E+00 5.49607E-03 2.38832E-02 4.29200E-14-8.66173E-14
 -1      4074 2.02856E+01 9.41495E-01 2.30882E-03 1.25297E-03 8.19506E-14-5.35867E-14
 -1      4075 1.98811E+01 2.55322E-01 2.93297E-04-8.56183E-02-1.09535E-13-1.63069E-13
 -1      4076 1.28429E+01 7.98305E-01 7.58343E-02-1.22143E+00-1.09486E-13-6.82128E-14
 -1      4077 1.37661E+01 5.74041E-01 1.28282E-02-1.81654E+00-1.39846E-13-5.59466E-14
 -1      4078 1.31446E+01 8.91286E-01 3.44902E-03-4.46442E-01-7.02823E-14-8.21496E-14
 -1      4079 1.47478E+01 9.15368E-01-3.23158E-03 1.25237E+00-9.25822E-15-1.37175E-13
 -1      4080 1.31429E+01 7.81511E-01 2.13366E-02 1.25161E+00 6.82614E-15-1.85005E-13
 -1      4081 1.47586E+01 1.17845E+00 5.01615E-02 5.04842E-01-1.74730E-15-1.45291E-13
 -1      4082 2.02551E+01 1.18470E+00 4.65668E-03-9.30238E-03-9.44452E-15-1.33097E-13
 -1      4083 1.98438E+01 3.04603E-01-2.20511E-04-1.21328E-01-3.30378E-14-2.10248E-13
 -1      4084 1.98691E+01 2.70301E-01-5.23764E-04-1.03720E-01-6.14346E-14-1.86356E-13
 -1      4085 1.51028E+01-1.39006E-01-3.69129E-03-2.87203E+00-1.71975E-13-1.10001E-13
 -1      4086 1.57762E+01-5.83387E-01 5.61334E-02-3.45439E+00-1.42199E-13-6.57356E-14
 -1      4087 1.71206E+01-9.30134E-01 9.87173E-03-3.32755E+00-1.29626E-13-1.03769E-13
 -1      4088 1.97928E+01 4.53529E-01 4.58872E-04-6.89881E-01-2.22004E-14-4.71354E-14
 -1      4089 2.02689E+01 7.19358E-01-1.95821E-03-1.00078E-01 8.13583E-14-6.33610E-14
 -1      4090 1.80446E+01-2.31321E-01 1.63072E-02 2.35261E+00-1.36206E-14 9.14525E-14
 -1      4091 1.71180E+01-7.78737E-02 1.52506E-02 2.51723E+00-1.17874E-13 1.74942E-13
 -1      4092 1.66566E+01 3.41674E-01-2.55451E-02 2.03812E+00-2.09233E-13 2.84675E-13
 -1      4093 1.79797E+01 3.38482E-02-1.45738E-02 2.05933E+00-5.72902E-14 7.27188E-14
 -1      4094 2.01676E+01 6.23717E-01 1.25235E-03-2.09299E-01 3.77952E-14-1.90873E-14
 -1      4095 2.01995E+01 5.97914E-01-8.75452E-04-2.23852E-01 3.56222E-14-4.72885E-14
 -1      4096 1.98916E+01 2.51122E-01 1.88366E-04 1.34967E-01-3.30977E-14-4.21457E-13
 -1      4097 1.98540E+01 3.04211E-01 5.85509E-04 1.85912E-01 1.74876E-13-6.31778E-13
 -1      4098 1.98043E+01 3.45425E-01 5.83217E-04 1.74811E-01 1.80699E-13-5.54567E-13
 -1      4099 1.98652E+01 2.81707E-01-8.90893E-04 1.63611E-01 9.38491E-14-5.38634E-13
 -1      4100 2.02465E+01 1.07184E+00-2.09625E-03-2.43849E-03-7.23140E-15-1.29465E-13
 -1      4101 2.02396E+01 1.08788E+00-3.43747E-03-9.10606E-03-1.01319E-15-1.56140E-13
 -1      4102 1.98507E+01 2.81833E-01-5.17238E-04-6.90882E-02-9.88458E-15-4.21587E-13
 -1      4103 1.85302E+01-3.77296E-02-4.23285E-04-1.96084E+00-1.47397E-15 4.04039E-14
 -1      4104 2.02309E+01 6.51235E-01-1.11534E-03-1.68613E-01 5.05478E-14-3.04998E-14
 -1      4105 1.90803E+01 2.53862E-01 8.73366E-03-1.45396E+00-4.38461E-14 8.23867E-14
 -1      4106 1.90648E+01 3.54249E-01-7.51100E-03-1.32448E+00-3.94136E-14 8.75658E-14
 -1      4107 1.86738E+01 3.21639E-01 3.42756E-03-1.52151E+00-2.61779E-14 6.03566E-14
 -1      4108 1.95135E+01 5.30474E-01 2.27391E-03-7.89500E-01 1.27246E-14-4.97201E-14
 -1      4109 1.95758E+01 5.22743E-01-2.71710E-03-7.16160E-01-1.93247E-14-4.29490E-14
 -1      4110 1.59965E+01 1.30373E+00 3.14314E-02-4.37116E-01-2.10489E-14-3.73683E-13
 -1      4111 1.58855E+01 8.83354E-01-2.78242E-03 1.27398E+00-1.27242E-13-4.83639E-14
 -1      4112 1.51670E+01 1.15232E+00 4.37543E-02 8.27452E-01-1.34129E-13-1.96582E-13
 -1      4113 1.54969E+01 1.18840E+00-1.56897E-02 1.20350E-01-4.94262E-14-2.19328E-13
 -1      4114 1.98276E+01 3.00993E-01 8.27283E-05 1.82806E-02-1.76392E-14-3.73692E-14
 -1      4115 1.98283E+01 2.98047E-01-7.85463E-04 4.26822E-02 6.78957E-15-1.29814E-13
 -1      4116 1.99833E+01 4.80615E-01 1.73892E-04-4.28702E-01 4.83119E-14-9.62829E-14
 -1      4117 2.00387E+01 4.89125E-01-9.80372E-04-3.74705E-01 3.27706E-14-9.41829E-14
 -1      4118 2.00534E+01 5.48480E-01 1.38839E-03-3.00969E-01 4.82157E-14-3.35690E-14
 -1      4119 1.98374E+01 2.94493E-01 1.72868E-04-4.12380E-02-1.18322E-13-2.29618E-13
 -1      4120 1.98309E+01 2.95297E-01-8.43376E-04-1.27316E-02-7.58832E-14-3.27432E-14
 -1      4121 1.98041E+01 3.29604E-01 5.69416E-04 5.02086E-04-6.59401E-14-1.49251E-13
 -1      4122 1.98233E+01 3.12981E-01 1.13949E-04-5.93611E-02 1.44291E-14-1.75515E-13
 -1      4123 1.93445E+01 5.15437E-01 3.66920E-03-9.60618E-01 8.32478E-15-5.52302E-14
 -1      4124 1.93992E+01 5.25845E-01-3.16166E-03-8.73143E-01 9.39266E-15-4.53958E-14
 -1      4125 1.93279E+01 6.01625E-01 2.22287E-03-7.57297E-01-1.03676E-14-8.58161E-14
 -1      4126 1.98057E+01 3.40939E-01 1.04791E-03-9.94056E-02-7.50321E-14-1.42088E-13
 -1      4127 2.02412E+01 1.07367E+00 3.92989E-04-2.05109E-03 7.14692E-15-1.59532E-13
 -1      4128 2.02401E+01 1.00634E+00-3.50277E-03 1.09863E-03 7.93819E-15-1.31166E-13
 -1      4129 2.02293E+01 8.86257E-01 2.16679E-04 3.34035E-02-4.77162E-15-8.59567E-14
 -1      4130 2.02447E+01 9.47253E-01 4.05504E-03-9.99737E-03-1.09989E-14-1.34374E-13
 -1      4131 1.91538E+01 7.26811E-01-4.85687E-03 5.18482E-01-2.15929E-14 9.22005E-14
 -1      4132 1.90763E+01 7.50571E-01 7.39649E-04 5.94095E-01-1.60452E-14 9.32478E-14
 -1      4133 1.95828E+01 6.82076E-01-1.67957E-03 1.71795E-01 4.90469E-14-1.02178E-13
 -1      4134 1.94450E+01 7.22202E-01-3.18012E-03 1.83733E-01 4.17458E-14-8.56406E-14
 -1      4135 1.92929E+01 7.71170E-01-2.32531E-03 1.81068E-01-5.55177E-15-6.74534E-14
 -1      4136 1.91248E+01 8.23004E-01-3.80543E-03 1.88214E-01-2.12124E-14-6.92665E-14
 -1      4137 1.93666E+01 7.65834E-01 7.03299E-03 5.35288E-02 3.77973E-14-1.23324E-13
 -1      4138 1.89395E+01 8.78301E-01-3.05744E-03 1.78318E-01-6.67364E-15-8.02999E-14
 -1      4139 1.87346E+01 9.33238E-01-4.27295E-03 1.79776E-01-1.25189E-14-7.85527E-14
 -1      4140 1.90323E+01 8.66082E-01 9.04100E-03 2.17230E-02-2.42119E-14-6.52251E-14
 -1      4141 1.85056E+01 9.86184E-01-4.10860E-03 1.57640E-01-4.84858E-14-1.47402E-13
 -1      4142 1.82470E+01 1.03554E+00-6.42977E-03 1.52441E-01-7.64945E-14-1.96800E-13
 -1      4143 1.86268E+01 9.66124E-01 1.00999E-02-3.32193E-02-6.39866E-14-8.90288E-14
 -1      4144 1.79625E+01 1.08053E+00-5.25369E-03 1.11756E-01-7.62770E-14-1.98053E-13
 -1      4145 1.76209E+01 1.11463E+00-1.17096E-02 9.90085E-02-8.67523E-14-1.63519E-13
 -1      4146 1.81302E+01 1.05232E+00 1.21637E-02-1.18494E-01-8.38068E-14-1.71525E-13
 -1      4147 1.72604E+01 1.14338E+00-8.02075E-03 4.75955E-02-7.81688E-14-1.43131E-13
 -1      4148 1.68133E+01 1.15175E+00-1.58714E-02 2.88229E-02-8.65764E-14-1.32752E-13
 -1      4149 1.74859E+01 1.13665E+00 2.12790E-02-2.48085E-01-6.71299E-14-1.59250E-13
 -1      4150 1.63267E+01 1.14582E+00-1.39358E-02-4.51012E-02-6.38552E-14-8.82220E-14
 -1      4151 1.57221E+01 1.11870E+00-1.97656E-02-6.68221E-02 3.90508E-15-9.05894E-14
 -1      4152 1.66571E+01 1.16489E+00 3.23860E-02-4.54483E-01-7.31385E-14-6.21322E-14
 -1      4153 1.98410E+01 4.88905E-01 7.78541E-04-5.32161E-01 3.67929E-15-6.22718E-14
 -1      4154 1.99021E+01 4.80716E-01-1.55921E-03-4.76229E-01 3.77224E-14-8.56592E-14
 -1      4155 1.99082E+01 5.29237E-01 1.37912E-03-3.91622E-01 3.20243E-14-7.04670E-14
 -1      4156 1.83120E+01-1.19164E+00 2.92612E-02-3.17134E+00-1.25157E-13-7.63909E-14
 -1      4157 2.00003E+01 6.28070E-01-1.90341E-03 1.25725E-01 2.90713E-14-6.27048E-14
 -1      4158 1.99163E+01 6.22211E-01-1.42980E-03 1.48623E-01 4.44741E-14-1.12043E-13
 -1      4159 1.75234E+01 1.21543E+00-8.45033E-03-7.21345E-02-1.03694E-13-3.03699E-13
 -1      4160 1.78372E+01 1.18781E+00-4.97974E-03-7.85299E-02 3.98664E-14-2.77635E-13
 -1      4161 1.81039E+01 1.14252E+00-6.84551E-03-1.11741E-01 4.14654E-14-2.94329E-13
 -1      4162 1.83440E+01 1.09406E+00-4.65972E-03-1.15440E-01 2.98123E-14-3.46548E-13
 -1      4163 1.79821E+01 1.16247E+00 9.67369E-03 1.35553E-01 9.95406E-15-1.66663E-13
 -1      4164 1.85541E+01 1.04178E+00-3.90469E-03-1.36862E-01 1.50665E-14-4.02754E-13
 -1      4165 1.87364E+01 9.82935E-01-3.45889E-03-1.33858E-01 2.45906E-14-3.61998E-13
 -1      4166 1.84532E+01 1.07351E+00 1.00395E-02 5.92065E-02-2.05239E-14-2.59963E-13
 -1      4167 1.88980E+01 9.22184E-01-4.16966E-03-1.40953E-01 8.17574E-14-5.01916E-13
 -1      4168 1.90435E+01 8.60714E-01-2.51750E-03-1.33006E-01 1.04431E-13-4.28305E-13
 -1      4169 1.88077E+01 9.69105E-01 8.57694E-03 9.43511E-03-5.90506E-14-3.53306E-13
 -1      4170 1.91706E+01 7.96859E-01-3.28762E-03-1.35237E-01 6.85189E-14-4.28493E-13
 -1      4171 1.92837E+01 7.35188E-01-2.16673E-03-1.24385E-01 1.88004E-13-4.26029E-13
 -1      4172 1.90996E+01 8.47316E-01 8.41402E-03-2.17651E-02 1.09733E-13-4.79973E-13
 -1      4173 1.93835E+01 6.74257E-01-2.37071E-03-1.22512E-01 2.57340E-13-4.61322E-13
 -1      4174 1.94704E+01 6.15677E-01-1.76217E-03-1.10122E-01 2.28397E-13-3.78560E-13
 -1      4175 1.93247E+01 7.23501E-01 6.72728E-03-3.69401E-02 1.97379E-13-5.16690E-13
 -1      4176 1.95484E+01 5.59413E-01-1.71797E-03-1.05558E-01 2.64798E-13-3.41813E-13
 -1      4177 1.96157E+01 5.06126E-01-1.13211E-03-9.25976E-02 2.41535E-13-3.30473E-13
 -1      4178 1.94988E+01 6.04527E-01 4.51555E-03-4.21780E-02 2.77406E-13-5.02190E-13
 -1      4179 1.96756E+01 4.55584E-01-1.12373E-03-8.90312E-02 7.77407E-14-1.82390E-13
 -1      4180 1.97265E+01 4.09562E-01-5.74370E-04-7.63952E-02-1.06769E-13-3.76696E-14
 -1      4181 1.96363E+01 4.90642E-01 1.70907E-03-3.88329E-02 1.97143E-13-2.38852E-13
 -1      4182 2.02663E+01 8.18620E-01-2.87232E-04-7.44644E-02 6.08727E-14-3.96344E-14
 -1      4183 1.98535E+01 2.85766E-01 8.71664E-05 1.25142E-01-1.78096E-14-3.70165E-13
 -1      4184 1.86997E+01 7.44981E-01-6.15649E-03 8.90271E-01-1.98016E-13 1.55169E-13
 -1      4185 1.86208E+01 7.10537E-01 3.74243E-03 1.01674E+00-2.21220E-13 1.83907E-13
 -1      4186 1.84384E+01 6.53551E-01-6.19507E-03 1.17147E+00-2.88967E-13 1.82825E-13
 -1      4187 1.83769E+01 5.61907E-01 6.97183E-03 1.34659E+00-3.13535E-13 1.88853E-13
 -1      4188 1.82797E+01 8.16024E-01 4.73189E-03 9.83053E-01-2.76853E-13-1.74145E-13
 -1      4189 1.93396E+01 6.59678E-01-4.04676E-03 3.95333E-01-2.17265E-14 9.69602E-14
 -1      4190 1.92715E+01 6.98330E-01 9.55608E-04 4.53518E-01-1.14899E-14 1.63413E-13
 -1      4191 1.91270E+01 7.82709E-01 7.56037E-03 4.05252E-01-6.68812E-15 4.48823E-14
 -1      4192 1.94948E+01 5.78336E-01-3.12969E-03 3.00969E-01 2.54779E-14 6.43930E-14
 -1      4193 1.94359E+01 6.22284E-01 4.59011E-04 3.46826E-01 5.40762E-15 1.41142E-13
 -1      4194 1.93275E+01 6.96989E-01 6.72988E-03 3.03869E-01 5.88777E-14 1.46363E-13
 -1      4195 1.96226E+01 4.92298E-01-2.07006E-03 2.27203E-01 1.31952E-13-1.44857E-13
 -1      4196 1.95724E+01 5.36985E-01 2.15702E-04 2.63763E-01 1.37398E-13-3.19260E-15
 -1      4197 1.94892E+01 6.01944E-01 5.17255E-03 2.27557E-01 1.36397E-13-9.31221E-16
 -1      4198 1.97238E+01 4.10373E-01-1.26587E-03 1.70929E-01 2.41514E-13-3.05242E-13
 -1      4199 1.96832E+01 4.51410E-01 5.03448E-05 2.00373E-01 1.92465E-13-2.77347E-13
 -1      4200 1.96185E+01 4.99222E-01 7.31494E-04 1.65277E-01 2.95042E-13-2.63636E-13
 -1      4201 2.02556E+01 1.04011E+00-1.09137E-03-1.04149E-02 1.41246E-14-8.84901E-14
 -1      4202 2.02553E+01 9.35531E-01 3.36550E-03-3.86348E-02 2.88945E-15-9.56999E-14
 -1      4203 2.01304E+01 6.23651E-01-9.33788E-04-1.87470E-01 3.04636E-14-7.40551E-15
 -1      4204 2.01796E+01 6.79554E-01-1.13025E-03-1.41389E-01 3.74912E-14-3.16626E-14
 -1      4205 1.75242E+01-7.79554E-01-1.41114E-02-2.99399E+00-1.12449E-13-7.37062E-14
 -1      4206 1.97857E+01 3.50725E-01-7.86428E-04-6.96592E-02-2.06901E-13-5.60209E-14
 -1      4207 1.67443E+01 1.24512E+00-1.29667E-02-1.21187E-03-1.09624E-13-2.91949E-13
 -1      4208 1.71690E+01 1.23313E+00-9.09368E-03-1.18234E-02-1.06069E-13-2.91373E-13
 -1      4209 1.73754E+01 1.20031E+00 5.68175E-03 2.75387E-01-4.05305E-14-1.21694E-13
 -1      4210 1.61832E+01 1.22465E+00-1.31609E-02 1.10644E-01-8.99625E-14-3.53819E-13
 -1      4211 1.95407E+01 5.79175E-01 1.71392E-03-6.08758E-01-3.11453E-14-1.27802E-13
 -1      4212 1.96826E+01 5.13108E-01 1.49645E-03-6.49353E-01-4.29684E-14-4.51726E-14
 -1      4213 1.97463E+01 4.99372E-01-2.11456E-03-5.86941E-01-3.35118E-14-6.04068E-14
 -1      4214 1.89434E+01 7.62651E-01-4.23430E-03 6.76949E-01-2.65169E-15 1.48981E-13
 -1      4215 1.88598E+01 7.66470E-01 3.28460E-03 7.75054E-01-9.72022E-14 2.07857E-13
 -1      4216 1.86057E+01 8.59466E-01 4.86352E-03 7.24033E-01-1.40764E-13-1.20270E-13
 -1      4217 1.88837E+01 8.29210E-01 5.79424E-04 5.44766E-01 4.93920E-14-1.69167E-13
 -1      4218 1.91920E+01 4.39106E-01 6.64943E-03-1.17542E+00-5.32210E-14 5.96107E-14
 -1      4219 1.92233E+01 4.82500E-01-4.35049E-03-1.06916E+00-1.70433E-14 6.71848E-15
 -1      4220 1.88693E+01 5.21874E-01 5.44766E-03-1.19385E+00-4.88724E-14 2.67139E-14
 -1      4221 1.77733E+01-3.82393E-01 1.57398E-02-2.55883E+00-6.88642E-15-6.99542E-14
 -1      4222 1.76739E+01-7.45717E-02-2.35534E-02-2.22878E+00 6.91842E-14-5.27756E-14
 -1      4223 1.67126E+01-9.49708E-02 2.14106E-02-2.63014E+00-4.44068E-14-4.35077E-14
 -1      4224 1.98312E+01 2.99169E-01-2.26524E-04 7.26670E-02 3.83671E-14-2.62953E-13
 -1      4225 1.98407E+01 2.91116E-01-6.58103E-04 9.59346E-02-3.82652E-15-3.51780E-13
 -1      4226 1.98151E+01 3.27166E-01 6.39996E-04 1.23966E-01-3.64771E-14-3.66549E-13
 -1      4227 1.98016E+01 3.34111E-01 8.38462E-04 6.30387E-02 9.20023E-14-2.62614E-13
 -1      4228 2.02648E+01 9.52802E-01-3.67755E-03-1.67405E-02 4.79864E-14-4.31984E-14
 -1      4229 1.79817E+01 1.71332E-01 1.28103E-02-1.89804E+00 3.27477E-14-3.77873E-14
 -1      4230 1.79962E+01 3.36031E-01-1.95915E-02-1.65393E+00 3.60579E-15-1.42851E-14
 -1      4231 1.72434E+01 4.19551E-01 2.20817E-02-1.86840E+00 7.55229E-14-8.06252E-14
 -1      4232 1.98158E+01 6.29640E-01-1.54969E-03 1.54202E-01 5.55043E-14-1.31202E-13
 -1      4233 1.97078E+01 6.51521E-01-1.46865E-03 1.72290E-01 3.86476E-14-1.26080E-13
 -1      4234 1.98636E+01 6.46802E-01 3.24492E-03 6.58370E-02 2.72664E-14-1.17467E-13
 -1      4235 2.02586E+01 7.61152E-01 1.83476E-03-1.11696E-01 4.59360E-14-2.89858E-14
 -1      4236 2.02365E+01 7.87152E-01 8.64820E-04-1.05602E-01 5.09882E-14-2.18656E-14
 -1      4237 2.02114E+01 7.43838E-01 1.17827E-03-1.13279E-01 3.83292E-14-3.77580E-14
 -1      4238 2.02314E+01 8.40617E-01-2.09679E-03-6.28552E-02 2.78826E-14-5.86208E-14
 -1      4239 2.02246E+01 8.72851E-01-1.63212E-03-4.24118E-02-1.92493E-16-1.06656E-13
 -1      4240 2.01777E+01 7.36475E-01-6.43818E-04-9.15459E-02 2.22678E-14-5.06172E-14
 -1      4241 1.96461E+01 6.80617E-01 4.51210E-03 6.54258E-02 7.12560E-14-1.24123E-13
 -1      4242 1.51029E+01 1.09932E+00-6.04470E-03-1.72258E-01 1.75250E-14-4.14412E-14
 -1      4243 1.42742E+01 1.01234E+00-9.27121E-03-2.41492E-01-1.79838E-14-2.00048E-14
 -1      4244 1.55770E+01 1.09408E+00 3.51991E-02-7.05184E-01 1.28547E-14-2.43165E-15
 -1      4245 1.47214E+01 4.44532E-01 4.31332E-02-2.23397E+00-1.06711E-13-4.67256E-14
 -1      4246 1.58886E+01 8.43603E-02 1.60263E-02-2.49324E+00-1.10717E-13-7.41022E-14
 -1      4247 1.61189E+01 3.53939E-01-2.00790E-02-2.05842E+00 2.46541E-14-6.01372E-14
 -1      4248 1.45737E+01 7.03527E-01-5.34059E-03-1.58931E+00-7.10248E-14-3.41532E-14
 -1      4249 2.02153E+01 8.68457E-01-1.88912E-04-1.85922E-02 1.73527E-15-1.48084E-13
 -1      4250 2.02091E+01 8.49088E-01-6.58836E-04 2.64218E-03 1.42484E-14-1.31398E-13
 -1      4251 2.02015E+01 7.95869E-01 2.99715E-03-3.69936E-02 1.94316E-14-1.27611E-13
 -1      4252 1.97362E+01 5.46760E-01 1.48133E-03-4.91094E-01-7.53545E-15-6.35600E-14
 -1      4253 1.65152E+01 1.22039E+00 2.41235E-02 4.91499E-01-5.26846E-14-1.99947E-13
 -1      4254 2.00695E+01 6.52057E-01-4.61812E-04 1.08994E-01 3.31568E-14-5.72665E-14
 -1      4255 2.00285E+01 6.62972E-01 2.79437E-03 4.79746E-02 1.62269E-14-1.08258E-13
 -1      4256 2.01219E+01 6.87569E-01-1.85783E-03 7.66339E-02 3.44295E-14-5.84281E-14
 -1      4257 2.02047E+01 8.14993E-01-1.31791E-03 2.74170E-02 8.85563E-15-9.92584E-14
 -1      4258 1.97545E+01 3.80933E-01 8.05620E-04-3.37166E-02-6.81106E-14-1.67789E-13
 -1      4259 2.00666E+01 5.86205E-01-8.66499E-04-2.17042E-01 6.10659E-14-2.40275E-14
 -1      4260 2.00880E+01 6.41493E-01 1.39143E-03-1.48719E-01 5.33804E-14-5.61725E-14
 -1      4261 1.99998E+01 5.65000E-01-6.48018E-04-2.60496E-01 6.86288E-14-4.90985E-14
 -1      4262 1.32936E+01 1.01506E+00 4.79912E-02 3.81711E-01-1.52109E-14-1.09336E-13
 -1      4263 1.97595E+01 3.82176E-01 2.13959E-04 1.52856E-01 1.56911E-13-3.26496E-13
 -1      4264 1.97109E+01 4.24037E-01 1.27583E-03 1.26110E-01 1.42118E-13-2.87508E-13
 -1      4265 1.97823E+01 3.53698E-01-1.06576E-03 1.32942E-01 4.49951E-15-3.23408E-13
 -1      4266 1.77634E+01 6.81039E-01 1.99242E-02-1.34689E+00-3.00880E-14-1.06634E-13
 -1      4267 1.82669E+01 4.80143E-01 7.35862E-03-1.42188E+00-3.32008E-14-3.03541E-14
 -1      4268 1.83343E+01 5.67801E-01-1.40238E-02-1.24127E+00-4.96580E-14-4.08226E-14
 -1      4269 2.01707E+01 7.45197E-01 3.34577E-05 5.68395E-02 4.57064E-14-7.32332E-14
 -1      4270 1.91047E+01 5.93518E-01 4.91976E-03-9.47633E-01-3.25409E-14-2.09749E-14
 -1      4271 1.91420E+01 6.72398E-01-1.83266E-03-6.81221E-01-4.31533E-14-1.21030E-13
 -1      4272 1.92553E+01 6.58897E-01-5.22151E-03-5.99827E-01-3.25233E-14-1.71553E-13
 -1      4273 1.81978E+01 4.23078E-01-9.59479E-03 1.54894E+00-3.54845E-13 2.42392E-13
 -1      4274 1.81673E+01 2.72161E-01 1.26831E-02 1.77173E+00-2.19469E-13 7.48288E-14
 -1      4275 1.75994E+01 3.95265E-01 8.53393E-03 1.82631E+00-1.61928E-13 2.32309E-13
 -1      4276 1.79229E+01 6.55758E-01-6.52899E-03 1.34364E+00-2.72680E-13 9.54945E-14
 -1      4277 1.44100E+01 9.60829E-01 4.02607E-02-1.03491E+00-5.91454E-14-2.53894E-14
 -1      4278 1.37184E+01 9.40148E-01-3.05395E-03-3.13042E-01-7.09623E-14-5.27130E-14
 -1      4279 1.94078E+01 6.39657E-01 9.14686E-04-5.34505E-01 9.24572E-15-1.80787E-13
 -1      4280 1.95090E+01 6.14049E-01-3.28154E-03-4.73575E-01 1.23314E-14-1.17053E-13
 -1      4281 1.92547E+01 7.21317E-01 7.16413E-03-4.56467E-01 1.85664E-15-1.53446E-13
 -1      4282 1.64720E+01 7.69996E-01 2.13769E-02 1.56298E+00-1.46681E-13 1.40524E-13
 -1      4283 1.63186E+01 9.97153E-01-2.51865E-02 9.61124E-01-9.62490E-14-5.00960E-14
 -1      4284 1.69197E+01 1.07509E+00 2.10392E-03 7.65853E-01-1.98149E-15 4.49349E-14
 -1      4285 1.71206E+01 5.69791E-01 7.36600E-03 1.66794E+00-1.23782E-13 2.83586E-13
 -1      4286 1.97444E+01 3.83688E-01-8.65075E-04 5.20324E-04-9.38977E-15-2.06819E-13
 -1      4287 1.96908E+01 4.38671E-01 5.85307E-04 4.02357E-03 1.66120E-13-2.92760E-13
 -1      4288 1.97472E+01 3.83074E-01 3.16806E-04 4.08748E-02 4.92373E-14-4.28799E-13
 -1      4289 1.97465E+01 3.82219E-01-6.74183E-04 7.35133E-02 1.35083E-13-4.22372E-13
 -1      4290 1.96261E+01 4.85903E-01-1.55369E-03 3.15842E-03 2.96350E-13-3.50669E-13
 -1      4291 1.98337E+01 5.61546E-01-2.71418E-04-3.37808E-01 1.91895E-14-4.43415E-14
 -1      4292 1.99131E+01 5.57238E-01-1.77184E-03-2.93118E-01 4.96540E-14-4.39410E-14
 -1      4293 1.99367E+01 6.03658E-01 2.65486E-03-2.07400E-01 6.56376E-14-2.62048E-14
 -1      4294 1.91190E+01 7.73697E-01-4.28732E-03-2.37834E-01 4.82150E-15-1.04355E-13
 -1      4295 1.89329E+01 8.18179E-01-6.33279E-03-2.70270E-01-3.54483E-14-9.84394E-14
 -1      4296 1.82976E+01 9.55906E-01-7.23337E-03-3.15441E-01-1.00699E-13-1.10220E-13
 -1      4297 1.80011E+01 9.88284E-01-1.21395E-02-3.75122E-01-8.80270E-14-1.30540E-13
 -1      4298 1.78337E+01 9.28341E-01-2.27065E-03-6.56212E-01-8.17190E-14-1.39067E-13
 -1      4299 1.74467E+01 9.06604E-01-2.16424E-02-7.72699E-01-6.66708E-14-1.11590E-13
 -1      4300 1.71844E+01 8.61925E-01-7.60272E-03-9.64024E-01-1.25853E-14-1.43561E-13
 -1      4301 1.66802E+01 8.10581E-01-2.67865E-02-1.13660E+00-1.97802E-14-8.52569E-14
 -1      4302 1.89370E+01 7.97676E-01 1.12349E-02-5.31000E-01-5.73980E-14-1.73378E-13
 -1      4303 1.87494E+01 8.64627E-01-6.31771E-03-2.72485E-01-4.03666E-14-7.02103E-14
 -1      4304 1.85294E+01 9.08327E-01-6.31368E-03-3.17755E-01-8.31418E-14-1.01660E-13
 -1      4305 1.89541E+01 7.05939E-01-6.01535E-03-7.04239E-01-4.65391E-14-1.13339E-13
 -1      4306 1.83656E+01 1.03820E+00-6.48497E-03 2.46793E-01 4.29528E-15-2.90931E-13
 -1      4307 1.85640E+01 9.91164E-01-5.64811E-03 2.10885E-01-1.65836E-13-3.34310E-13
 -1      4308 1.87888E+01 9.08570E-01-5.15365E-03 2.61210E-01-1.05251E-13-1.46306E-13
 -1      4309 1.89443E+01 8.58758E-01-3.65054E-03 2.28974E-01-2.37293E-14-1.35340E-13
 -1      4310 1.90570E+01 8.10426E-01-6.93855E-03 1.78585E-01 2.72261E-14-1.17923E-13
 -1      4311 1.91876E+01 7.56962E-01-3.97719E-03 1.59168E-01 8.54327E-14-9.69805E-14
 -1      4312 1.92822E+01 7.04874E-01-5.68186E-03 1.21363E-01 8.22346E-14-1.50471E-13
 -1      4313 1.93859E+01 6.50534E-01-3.26536E-03 1.10334E-01 1.91713E-13-1.96421E-13
 -1      4314 1.94636E+01 5.99081E-01-3.94030E-03 8.26744E-02 2.48990E-13-3.54229E-13
 -1      4315 1.95472E+01 5.48765E-01-1.09810E-03 7.49457E-02 2.72660E-13-2.78402E-13
 -1      4316 1.81425E+01 9.39794E-01-7.69592E-03 7.26207E-01-2.69852E-13-1.07136E-13
 -1      4317 1.79896E+01 9.22682E-01 4.14717E-03 8.59308E-01-2.04959E-13-7.00390E-14
 -1      4318 1.51187E+01 7.53956E-01-6.11372E-03-1.43807E+00 2.48087E-15-1.89952E-14
 -1      4319 1.84726E+01 7.01482E-01 2.86221E-03-9.74419E-01-6.41165E-14-7.97984E-14
 -1      4320 1.85952E+01 7.26709E-01-8.11082E-03-8.43714E-01-5.75022E-14-7.17964E-14
 -1      4321 1.96996E+01 6.47476E-01-2.95205E-03-3.95013E-02 6.18109E-14-1.35919E-13
 -1      4322 1.95723E+01 6.77116E-01-3.18815E-03-4.22086E-02 8.35023E-14-1.00008E-13
 -1      4323 2.01420E+01 7.31182E-01 1.38025E-03 1.37488E-02 4.08370E-14-1.52667E-13
 -1      4324 2.01636E+01 7.40127E-01-1.63042E-04-6.12412E-02 3.02198E-14-1.17939E-13
 -1      4325 2.01477E+01 7.29299E-01-2.74975E-03-2.63774E-02 4.20600E-14-1.57641E-13
 -1      4326 2.01028E+01 6.86557E-01 2.57420E-04-7.58324E-03 4.56112E-14-1.58353E-13
 -1      4327 2.01358E+01 6.87609E-01 1.70342E-03-8.68292E-02 3.87655E-14-8.50734E-14
 -1      4328 1.96364E+01 5.94108E-01 4.45610E-04-4.26079E-01 1.60862E-14-9.21381E-14
 -1      4329 1.97281E+01 5.74611E-01-1.88705E-03-3.74838E-01 1.88688E-14-8.21290E-14
 -1      4330 1.97477E+01 6.08239E-01 1.61294E-03-2.73497E-01 4.63632E-14-3.10967E-14
 -1      4331 1.95183E+01 6.50621E-01 9.17481E-04-3.49304E-01 4.46057E-14-8.01785E-14
 -1      4332 1.88268E+01 6.98256E-01-3.36917E-03-8.09389E-01-6.51496E-14-7.67912E-14
 -1      4333 1.74321E+01 1.12676E+00-9.25882E-03 4.80746E-01-3.71831E-14-1.08889E-13
 -1      4334 1.77809E+01 1.11621E+00-1.50654E-03 3.94100E-01-9.21775E-14-1.10172E-13
 -1      4335 1.80383E+01 1.09323E+00-7.47005E-04 3.28702E-01-5.76527E-14-2.25431E-13
 -1      4336 1.63909E+01 7.11933E-01 1.56380E-03-1.40111E+00 3.74607E-14-8.03749E-14
 -1      4337 1.98931E+01 6.17533E-01-1.81511E-03-8.22230E-02 2.26291E-14-9.57182E-14
 -1      4338 1.97933E+01 6.25684E-01-1.05866E-03-8.72340E-02 3.85947E-14-9.83247E-14
 -1      4339 1.94267E+01 7.00243E-01-2.19948E-03-1.65791E-01 6.70280E-14-1.12943E-13
 -1      4340 1.92677E+01 7.38592E-01-5.58639E-03-1.85931E-01 4.27141E-14-1.00488E-13
 -1      4341 1.57075E+01 8.82459E-01 5.29668E-03-1.22295E+00 5.58407E-15-3.32729E-14
 -1      4342 1.85267E+01 8.88986E-01 1.28271E-02-5.62526E-01-8.70892E-14-1.42923E-13
 -1      4343 1.81244E+01 8.52193E-01 1.02448E-02-8.52136E-01-7.21399E-14-1.16133E-13
 -1      4344 1.82371E+01 1.02392E+00 5.87417E-03 4.80412E-01-1.15523E-13-1.83358E-13
 -1      4345 1.87866E+01 8.99782E-01 5.51945E-03 4.29161E-01 4.60976E-14-2.63556E-13
 -1      4346 1.96223E+01 4.94320E-01 9.65721E-04 1.16237E-01 2.97954E-13-2.52530E-13
 -1      4347 1.74083E+01 9.98915E-01 4.68751E-03 8.90680E-01-6.40123E-14 7.77757E-14
 -1      4348 1.75098E+01 8.25022E-01-4.93970E-03 1.17773E+00-1.50994E-13 1.02297E-13
 -1      4349 1.84823E+01 9.22422E-01-7.56184E-05 5.99941E-01-1.83739E-13-3.46813E-13
 -1      4350 2.00677E+01 6.47102E-01 2.33157E-04-1.10297E-01 5.58951E-14-9.46478E-14
 -1      4351 1.97738E+01 3.61015E-01 6.72689E-05 1.02366E-01 4.88280E-14-2.94437E-13
 -1      4352 1.99812E+01 6.26126E-01-1.04545E-03-5.78021E-02 3.30570E-14-1.09244E-13
 -1      4353 1.97542E+01 6.23307E-01 8.37876E-04-1.95793E-01 6.10679E-14-3.99808E-14
 -1      4354 1.95256E+01 6.69898E-01 2.47912E-03-2.66160E-01 5.99689E-14-5.89856E-14
 -1      4355 1.86427E+01 9.07221E-01-1.98944E-03 5.04832E-01-1.80594E-14-2.91152E-13
 -1      4356 1.96823E+01 4.45702E-01 5.07954E-04 9.49050E-02 2.12567E-13-4.00919E-13
 -1      4357 1.73091E+01 7.09651E-01-5.03055E-03 1.40028E+00-2.07850E-13 2.73166E-13
 -1      4358 1.97155E+01 4.13307E-01-1.42144E-04 8.02070E-02 8.24964E-14-4.41719E-13
 -1      4359 2.00492E+01 6.44446E-01-1.42781E-03-6.79325E-02 4.50916E-14-1.22276E-13
 -1      4360 1.96529E+01 6.35799E-01 1.05471E-03-2.26495E-01 7.88478E-14-4.75700E-14
 -3
    1PSTEP                         3           1           1          
  100CL  101 1.000000000        4360                     0    1           1
 -4  TOSTRAIN    6    1
 -5  EXX         1    4    1    1
 -5  EYY         1    4    2    2
 -5  EZZ         1    4    3    3
 -5  EXY         1    4    1    2
 -5  EYZ         1    4    2    3
 -5  EZX         1    4    3    1
 -1         1 5.60460E-06-2.28083E-05-1.44287E-07-1.36171E-05-7.82447E-18-4.32961E-18
 -1         2 3.64755E-05-1.10763E-04 1.98980E-05-4.51507E-07 2.82083E-18 6.20928E-19
 -1         3 9.52343E-05-2.85740E-05-2.85604E-05 7.58881E-10-4.13654E-18-4.19596E-18
 -1         4 9.52342E-05-2.85741E-05-2.85603E-05-5.45682E-10 1.43808E-18 7.79663E-19
 -1         5 1.42783E-04-2.13844E-05-4.23860E-05 3.83959E-05-1.27796E-19 9.12646E-18
 -1         6 1.44826E-04 2.56619E-10-4.40372E-05-5.33210E-05-5.19655E-19 8.46482E-18
 -1         7 9.04280E-05-5.14941E-07-3.89809E-05-2.91274E-05-8.52327E-20 1.66188E-18
 -1         8 8.50750E-05 8.19636E-08-3.63110E-05-2.01369E-05-1.00373E-19-4.59634E-19
 -1         9 8.28485E-05 7.28792E-08-3.53604E-05-1.54865E-05-8.97458E-20-1.63355E-18
 -1        10 8.18577E-05 3.56175E-08-3.49139E-05-1.19132E-05-5.36212E-20-2.20026E-18
 -1        11 8.13562E-05 1.73850E-08-3.46962E-05-8.85513E-06-6.44903E-20-2.44241E-18
 -1        12 8.10913E-05 7.90526E-09-3.45863E-05-6.15272E-06-2.79802E-20-2.56932E-18
 -1        13 8.09476E-05 3.91246E-09-3.45293E-05-3.59859E-06-2.50578E-20-2.52201E-18
 -1        14 8.08851E-05 2.39354E-09-3.45052E-05-1.15301E-06 8.42091E-21-2.51955E-18
 -1        15 8.08862E-05 2.40417E-09-3.45056E-05 1.25905E-06 2.08334E-20-2.47701E-18
 -1        16 8.09513E-05 3.89603E-09-3.45304E-05 3.70962E-06 2.54234E-20-2.41538E-18
 -1        17 8.10990E-05 7.16412E-09-3.45883E-05 6.27571E-06 4.71328E-20-2.30017E-18
 -1        18 8.13684E-05 1.61715E-08-3.46996E-05 8.99733E-06 6.59958E-20-2.07014E-18
 -1        19 8.18747E-05 3.52644E-08-3.49202E-05 1.20911E-05 8.65363E-20-1.68401E-18
 -1        20 8.28683E-05 7.75755E-08-3.53718E-05 1.57134E-05 1.11332E-19-9.63905E-19
 -1        21 8.50407E-05 1.64426E-07-3.63488E-05 2.03463E-05 1.28696E-19 4.08622E-19
 -1        22 9.14551E-05-1.03273E-07-3.86543E-05 2.78777E-05 2.53051E-20 3.12830E-18
 -1        23 1.12565E-04-3.79902E-05-3.52758E-05-4.37480E-06-3.15599E-19 6.66721E-18
 -1        24 9.25388E-05-2.76188E-05-2.89160E-05 3.90756E-07-7.96906E-20 5.07594E-18
 -1        25 8.89548E-05-2.68043E-05-2.68791E-05 3.73576E-07-2.70174E-20 3.56762E-18
 -1        26 8.79683E-05-2.64763E-05-2.63783E-05 2.01383E-07-2.58957E-20 2.44362E-18
 -1        27 8.81524E-05-2.65027E-05-2.64190E-05 1.37076E-07-5.95090E-20 1.67681E-18
 -1        28 8.89115E-05-2.67077E-05-2.66576E-05 9.86989E-08 2.19509E-20 1.43095E-18
 -1        29 8.99921E-05-2.70193E-05-2.69897E-05 7.44210E-08 1.74872E-20 1.04718E-18
 -1        30 9.12823E-05-2.74001E-05-2.73816E-05 5.85738E-08 7.83487E-20 7.15958E-19
 -1        31 9.27462E-05-2.78364E-05-2.78250E-05 4.88400E-08-6.53158E-20-1.07533E-19
 -1        32 9.43976E-05-2.83309E-05-2.83253E-05 4.45029E-08-1.56469E-19-1.11269E-18
 -1        33 9.62874E-05-2.88978E-05-2.88982E-05 4.57423E-08 2.89215E-19-9.80775E-19
 -1        34 9.84942E-05-2.95602E-05-2.95675E-05 5.33679E-08 3.12937E-20-1.38589E-19
 -1        35 1.01116E-04-3.03466E-05-3.03621E-05 6.86582E-08-1.76863E-19-1.08918E-18
 -1        36 1.04255E-04-3.12868E-05-3.13118E-05 9.30441E-08 6.50280E-20-1.10842E-18
 -1        37 1.07989E-04-3.24030E-05-3.24371E-05 1.27235E-07-1.58494E-19-3.62497E-19
 -1        38 1.12321E-04-3.36950E-05-3.37326E-05 1.69090E-07-4.35831E-20-9.44601E-19
 -1        39 1.17084E-04-3.51133E-05-3.51376E-05 2.09213E-07 4.91184E-20-9.75795E-19
 -1        40 1.21808E-04-3.65190E-05-3.64951E-05 2.23626E-07-2.34806E-19-1.35250E-18
 -1        41 1.25555E-04-3.76371E-05-3.75120E-05 1.66055E-07 8.35667E-20-2.75155E-18
 -1        42 1.26851E-04-3.80328E-05-3.77587E-05-2.93915E-08-1.11699E-19-2.38637E-18
 -1        43 1.23951E-04-3.71847E-05-3.67847E-05-4.07205E-07-3.43925E-19-1.71312E-18
 -1        44 1.15799E-04-3.47592E-05-3.44102E-05-8.89076E-07 3.21836E-19-1.19575E-18
 -1        45 1.03568E-04-3.10829E-05-3.10812E-05-1.19168E-06-8.20386E-20-4.86091E-19
 -1        46 9.15912E-05-2.74514E-05-2.79745E-05-9.50043E-07-2.78806E-19-1.76172E-18
 -1        47 8.57430E-05-2.56672E-05-2.65008E-05-1.25952E-07-1.70055E-19-1.00412E-18
 -1        48 8.93412E-05-2.67660E-05-2.74035E-05 7.85600E-07 2.39221E-20 5.21719E-20
 -1        49 1.00334E-04-3.01061E-05-3.02296E-05 1.19368E-06 1.90174E-19-1.33466E-18
 -1        50 1.13055E-04-3.39388E-05-3.36464E-05 9.97166E-07-3.28745E-19-3.77353E-18
 -1        51 1.22502E-04-3.67556E-05-3.63490E-05 5.24933E-07 6.92416E-20-2.62120E-18
 -1        52 1.26738E-04-3.80039E-05-3.76909E-05 1.08177E-07 1.07701E-19-5.94108E-19
 -1        53 1.26417E-04-3.78967E-05-3.77373E-05-1.31759E-07-8.58928E-20 5.76687E-19
 -1        54 1.23230E-04-3.69444E-05-3.69009E-05-2.17149E-07-4.07258E-19-5.40956E-19
 -1        55 1.18780E-04-3.56202E-05-3.56372E-05-2.14396E-07 1.04590E-19-4.30359E-19
 -1        56 1.14148E-04-3.42421E-05-3.42798E-05-1.76150E-07-3.54167E-19-8.78142E-19
 -1        57 1.09920E-04-3.29822E-05-3.30199E-05-1.31341E-07 3.91437E-19 3.05686E-19
 -1        58 1.06334E-04-3.19112E-05-3.19412E-05-9.20869E-08 4.88078E-20-2.14286E-19
 -1        59 1.03429E-04-3.10418E-05-3.10632E-05-6.16390E-08-2.49213E-19-1.29653E-18
 -1        60 1.01151E-04-3.03584E-05-3.03724E-05-3.95106E-08-6.28351E-20-4.16234E-19
 -1        61 9.94067E-05-2.98339E-05-2.98426E-05-2.40651E-08 3.08670E-19-1.07786E-18
 -1        62 9.80976E-05-2.94396E-05-2.94447E-05-1.35978E-08-5.56112E-19-1.84156E-18
 -1        63 9.71338E-05-2.91488E-05-2.91514E-05-6.69068E-09-2.52002E-19-4.15777E-18
 -1        64 9.64382E-05-2.89385E-05-2.89396E-05-2.26444E-09-6.24916E-19-4.55757E-18
 -1        65 9.59478E-05-2.87900E-05-2.87902E-05 4.73985E-10-2.51603E-19-3.11678E-18
 -1        66 9.56126E-05-2.86882E-05-2.86880E-05 2.10963E-09-5.23958E-19-4.18653E-18
 -1        67 9.53942E-05-2.86217E-05-2.86214E-05 3.09727E-09 1.93302E-19-4.43165E-18
 -1        68 9.52639E-05-2.85817E-05-2.85817E-05 3.84743E-09 1.75524E-19 2.08090E-18
 -1        69 9.52010E-05-2.85620E-05-2.85625E-05 4.78974E-09 3.91860E-20 1.12747E-18
 -1        70 9.51902E-05-2.85581E-05-2.85584E-05 6.42231E-09-1.08666E-19 1.16051E-18
 -1        71 9.52163E-05-2.85658E-05-2.85621E-05 7.64181E-09-7.00127E-19 1.58280E-19
 -1        72 1.01813E-04-3.04748E-05-3.40363E-05-1.92383E-06 8.74562E-20 8.42057E-18
 -1        73 9.23080E-05-2.74388E-05-2.88285E-05-3.31667E-07 1.07378E-19 6.34756E-18
 -1        74 8.89558E-05-2.66577E-05-2.69267E-05-1.22781E-07 5.67074E-20 4.94787E-18
 -1        75 8.80137E-05-2.64311E-05-2.64275E-05-9.09543E-08 2.47174E-20 4.19550E-18
 -1        76 8.82045E-05-2.64867E-05-2.64517E-05-7.08067E-08 3.29942E-20 3.42020E-18
 -1        77 8.89631E-05-2.67054E-05-2.66809E-05-5.59547E-08 1.40306E-20 3.21122E-18
 -1        78 9.00349E-05-2.70212E-05-2.70065E-05-4.48411E-08-9.15217E-20 3.50264E-18
 -1        79 9.13017E-05-2.73980E-05-2.73894E-05-3.63474E-08 9.87521E-20 2.99947E-18
 -1        80 9.27152E-05-2.78202E-05-2.78164E-05-3.02356E-08-5.68341E-20 1.99895E-18
 -1        81 9.42677E-05-2.82845E-05-2.82853E-05-2.68091E-08 2.48633E-19 1.55350E-18
 -1        82 9.59740E-05-2.87949E-05-2.88006E-05-2.66961E-08 8.13198E-20 9.98870E-19
 -1        83 9.78567E-05-2.93578E-05-2.93683E-05-3.06993E-08-6.11099E-20 7.21401E-19
 -1        84 9.99296E-05-2.99771E-05-2.99914E-05-3.96106E-08 1.27936E-19 4.82667E-19
 -1        85 1.02177E-04-3.06480E-05-3.06635E-05-5.38355E-08-1.25636E-20 1.83012E-19
 -1        86 1.04526E-04-3.13488E-05-3.13599E-05-7.26498E-08 9.77848E-20-8.57240E-19
 -1        87 1.06813E-04-3.20317E-05-3.20287E-05-9.29316E-08 7.38133E-20-1.97238E-18
 -1        88 1.08752E-04-3.26124E-05-3.25816E-05-1.07417E-07-2.97324E-19-6.26781E-19
 -1        89 1.09919E-04-3.29661E-05-3.28915E-05-1.03211E-07 2.73509E-19-4.88372E-19
 -1        90 1.09782E-04-3.29357E-05-3.28069E-05-6.26554E-08-5.41456E-20-4.60902E-19
 -1        91 1.07829E-04-3.23669E-05-3.21927E-05 2.99306E-08 3.54397E-20-4.28804E-19
 -1        92 1.03812E-04-3.11791E-05-3.10019E-05 1.73242E-07-1.84722E-19-1.87393E-19
 -1        93 9.80637E-05-2.94610E-05-2.93571E-05 3.30803E-07 5.14180E-20-8.12887E-20
 -1        94 9.17202E-05-2.75428E-05-2.75917E-05 4.29295E-07-8.52496E-20-1.73636E-18
 -1        95 8.65560E-05-2.59596E-05-2.61852E-05 3.92656E-07-3.40392E-19-2.02057E-19
 -1        96 8.43144E-05-2.52528E-05-2.55871E-05 2.07016E-07 3.76688E-19 1.24206E-18
 -1        97 8.58227E-05-2.56921E-05-2.59999E-05-5.60424E-08-2.51339E-19 2.80908E-18
 -1        98 9.05313E-05-2.71171E-05-2.72854E-05-2.78838E-07 4.69349E-19 1.65325E-18
 -1        99 9.68199E-05-2.90297E-05-2.90264E-05-3.79672E-07-1.19179E-19-2.33858E-18
 -1       100 1.02854E-04-3.08626E-05-3.07356E-05-3.55218E-07-3.04630E-20-3.86500E-18
 -1       101 1.07340E-04-3.22195E-05-3.20461E-05-2.56336E-07 1.83763E-19-3.45492E-18
 -1       102 1.09792E-04-3.29556E-05-3.27979E-05-1.41076E-07-1.50737E-19-4.16910E-18
 -1       103 1.10373E-04-3.31249E-05-3.30126E-05-4.60105E-08-3.54068E-19-1.87025E-18
 -1       104 1.09572E-04-3.28792E-05-3.28153E-05 1.66788E-08 2.26710E-19 2.10353E-18
 -1       105 1.07940E-04-3.23854E-05-3.23598E-05 4.98199E-08 4.87686E-19 6.03987E-19
 -1       106 1.05938E-04-3.17825E-05-3.17817E-05 6.17894E-08-2.27093E-19-1.06321E-18
 -1       107 1.03891E-04-3.11673E-05-3.11799E-05 6.09830E-08-3.39199E-19-2.14569E-18
 -1       108 1.01994E-04-3.05981E-05-3.06163E-05 5.37246E-08 5.57711E-20-4.14398E-18
 -1       109 1.00347E-04-3.01041E-05-3.01230E-05 4.40761E-08 1.85084E-20-3.18481E-18
 -1       110 9.89811E-05-2.96946E-05-2.97119E-05 3.43379E-08 4.42882E-20-3.42801E-18
 -1       111 9.78900E-05-2.93675E-05-2.93821E-05 2.56396E-08 3.38607E-19-5.04882E-18
 -1       112 9.70455E-05-2.91143E-05-2.91260E-05 1.84111E-08-2.62725E-19-6.37631E-18
 -1       113 9.64113E-05-2.89241E-05-2.89332E-05 1.26995E-08 3.74864E-19-5.96766E-18
 -1       114 9.59494E-05-2.87856E-05-2.87923E-05 8.36334E-09-6.14183E-19-2.16169E-18
 -1       115 9.56251E-05-2.86882E-05-2.86932E-05 5.17597E-09-1.01672E-20-9.48200E-19
 -1       116 9.54086E-05-2.86232E-05-2.86270E-05 2.85805E-09 4.25792E-19 4.89180E-20
 -1       117 9.52761E-05-2.85832E-05-2.85864E-05 1.07625E-09 6.54378E-19-3.87858E-18
 -1       118 9.52097E-05-2.85630E-05-2.85659E-05-6.06869E-10-4.51169E-19-6.32763E-18
 -1       119 9.51955E-05-2.85584E-05-2.85605E-05-3.22906E-09 3.43323E-19-6.84196E-18
 -1       120 9.52175E-05-2.85651E-05-2.85632E-05-6.89181E-09 1.45918E-18-8.68318E-18
 -1       121 9.52427E-05-2.85907E-05-2.85637E-05-8.51717E-09-6.58928E-18 1.97575E-18
 -1       122 9.52484E-05-2.86089E-05-2.85622E-05-4.14053E-09 5.30191E-19 7.16981E-19
 -1       123 9.52420E-05-2.85874E-05-2.85691E-05-2.83737E-10 4.49412E-18 2.19195E-18
 -1       124 9.52244E-05-2.85286E-05-2.85857E-05 2.27536E-09 5.01060E-18 1.21347E-19
 -1       125 9.52003E-05-2.84476E-05-2.86087E-05 3.39066E-09 7.67856E-18 7.43625E-21
 -1       126 9.51759E-05-2.83653E-05-2.86322E-05 3.33853E-09 5.53753E-19-8.51643E-19
 -1       127 9.51559E-05-2.82976E-05-2.86515E-05 2.35026E-09 1.28424E-18 1.04144E-18
 -1       128 9.51450E-05-2.82608E-05-2.86621E-05 7.68189E-10 4.34677E-19-1.82034E-18
 -1       129 9.51455E-05-2.82626E-05-2.86616E-05-1.01351E-09 1.82681E-19 1.82426E-18
 -1       130 9.51574E-05-2.83029E-05-2.86500E-05-2.57757E-09 1.79974E-18 5.65876E-19
 -1       131 9.51783E-05-2.83734E-05-2.86298E-05-3.53652E-09-1.64087E-18-1.01502E-18
 -1       132 9.52033E-05-2.84575E-05-2.86058E-05-3.47472E-09-4.60167E-18 8.17522E-19
 -1       133 9.52274E-05-2.85386E-05-2.85829E-05-2.16769E-09-3.03578E-18 1.15507E-19
 -1       134 9.52443E-05-2.85956E-05-2.85669E-05 3.29530E-10-6.52841E-18-4.40813E-19
 -1       135 9.52501E-05-2.86135E-05-2.85608E-05 6.25713E-09-1.55441E-18-2.32431E-19
 -1       136 9.52418E-05-2.85918E-05-2.85627E-05 1.28396E-08-7.76851E-19 3.45011E-20
 -1       137 2.51794E-05-8.50603E-05 1.49572E-05-2.31524E-05 4.77049E-18 8.95658E-19
 -1       138 7.37731E-06-3.14657E-05 2.60589E-06-1.70600E-05 8.28398E-19-7.12566E-19
 -1       139 1.08901E-05 1.59392E-05-1.50341E-05 2.36383E-05 1.32772E-18 2.68721E-18
 -1       140 5.83408E-05 2.74588E-05-3.53368E-05 7.84942E-05 6.56112E-18 7.27982E-18
 -1       141 1.48946E-04-4.51246E-06-5.55063E-05 1.12184E-04 4.23834E-18 6.35275E-18
 -1       142 2.44792E-04-5.67399E-05-7.03626E-05 9.39659E-05 4.92338E-19 1.78300E-18
 -1       143 3.02088E-04-9.18109E-05-7.79176E-05 2.72829E-05-1.11252E-19-1.12115E-18
 -1       144 2.89878E-04-8.42881E-05-7.63084E-05-5.40845E-05 9.56342E-19-3.99715E-18
 -1       145 2.16052E-04-3.99289E-05-6.62660E-05-1.06442E-04 3.91456E-18-1.00111E-17
 -1       146 1.16788E-04 9.92196E-06-4.93886E-05-1.06632E-04 6.67102E-18-1.04270E-17
 -1       147 3.94752E-05 2.93515E-05-2.95211E-05-6.37676E-05 8.05274E-18-8.05232E-18
 -1       148 6.64332E-06 6.35649E-06-1.02198E-05-1.08848E-05 8.36191E-18-5.29586E-18
 -1       149 1.10293E-05-4.60279E-05 6.42096E-06 2.22888E-05 7.04096E-18-2.65291E-18
 -1       150 2.94180E-05-9.53374E-05 1.71660E-05 1.79687E-05 2.51166E-18-7.69966E-19
 -1       151 3.49037E-05-1.08754E-04 1.98626E-05-7.67631E-06 3.88788E-19 1.86877E-20
 -1       152 2.10546E-05-7.65410E-05 1.32849E-05-2.69793E-05-4.65953E-18-1.48506E-18
 -1       153 1.75142E-05 1.76988E-05-1.82773E-05 3.16370E-05-6.22442E-18-4.07253E-18
 -1       154 7.59325E-05 2.15503E-05-3.96652E-05 8.70110E-05-4.76202E-18-6.67801E-18
 -1       155 1.65726E-04-1.29215E-05-5.83187E-05 1.12982E-04-4.51511E-18-9.68455E-18
 -1       156 2.60387E-04-6.40681E-05-7.28810E-05 9.09589E-05-3.03952E-18-7.10618E-18
 -1       157 3.12582E-04-9.58121E-05-7.96176E-05 2.37480E-05-2.16258E-19-1.80100E-18
 -1       158 2.96663E-04-8.60557E-05-7.75836E-05-5.69171E-05-2.53588E-19 3.30999E-18
 -1       159 2.21124E-04-4.17391E-05-6.72610E-05-1.07740E-04-2.59436E-18 7.21418E-18
 -1       160 1.24567E-04 5.82519E-06-5.07955E-05-1.07414E-04-5.14551E-18 7.24086E-18
 -1       161 4.56810E-05 2.72541E-05-3.12722E-05-6.70654E-05-7.51488E-18 7.51318E-18
 -1       162 8.20711E-06 5.92650E-06-1.10538E-05-1.23980E-05-5.46972E-18 4.88018E-18
 -1       163 1.00906E-05-4.54396E-05 6.23670E-06 2.35819E-05-1.21888E-18 2.33040E-19
 -1       164 2.82131E-05-9.32618E-05 1.66456E-05 2.34528E-05-2.91803E-19 6.27943E-19
 -1       165 9.47766E-05-1.23600E-05-3.55229E-05-2.21833E-05-1.22919E-18 5.12799E-19
 -1       166 8.92604E-05-8.47046E-06-3.47854E-05-1.72039E-05-1.17583E-18-7.74718E-19
 -1       167 8.66231E-05-6.51318E-06-3.44427E-05-1.34009E-05-9.34519E-19-1.51473E-18
 -1       168 8.52708E-05-5.48945E-06-3.42742E-05-1.01787E-05-6.92870E-19-1.94069E-18
 -1       169 8.45161E-05-4.88862E-06-3.41942E-05-7.38182E-06-4.81173E-19-2.04586E-18
 -1       170 8.40699E-05-4.51583E-06-3.41552E-05-4.78102E-06-2.65252E-19-2.06894E-18
 -1       171 8.38351E-05-4.31287E-06-3.41379E-05-2.32988E-06 6.26589E-21-2.08021E-18
 -1       172 8.37638E-05-4.25054E-06-3.41330E-05 5.12722E-08 1.65927E-19-2.11831E-18
 -1       173 8.38431E-05-4.32126E-06-3.41379E-05 2.43452E-06 3.38650E-19-2.04988E-18
 -1       174 8.40882E-05-4.53495E-06-3.41552E-05 4.89222E-06 5.51902E-19-1.98228E-18
 -1       175 8.45388E-05-4.91485E-06-3.41932E-05 7.45929E-06 7.00768E-19-1.79912E-18
 -1       176 8.53250E-05-5.54818E-06-3.42741E-05 1.03239E-05 1.03092E-18-1.49366E-18
 -1       177 8.67098E-05-6.61023E-06-3.44437E-05 1.35894E-05 1.21447E-18-9.94853E-19
 -1       178 8.94056E-05-8.61786E-06-3.47890E-05 1.74396E-05 1.40240E-18-6.75244E-20
 -1       179 9.56819E-05-1.36193E-05-3.53797E-05 2.17314E-05 1.32791E-18 1.52829E-18
 -1       180 1.05369E-04-2.60476E-05-3.51809E-05 1.85424E-05 9.22750E-19 3.66940E-18
 -1       181 1.03217E-04-2.72583E-05-3.25511E-05-1.20124E-05-1.02369E-18 1.99550E-18
 -1       182 9.70129E-05-2.82595E-05-2.95002E-05-4.61916E-06-8.82225E-19 1.48847E-18
 -1       183 9.35190E-05-2.76325E-05-2.81883E-05-1.63639E-06-6.07534E-19 1.10307E-18
 -1       184 9.21222E-05-2.74364E-05-2.76862E-05-2.42441E-07-5.21648E-19 6.77388E-19
 -1       185 9.17356E-05-2.74101E-05-2.75485E-05 4.95276E-07-3.05485E-19 4.25316E-19
 -1       186 9.19564E-05-2.75184E-05-2.76059E-05 9.27938E-07-3.49726E-19 2.84209E-19
 -1       187 9.25631E-05-2.77184E-05-2.77843E-05 1.21365E-06-1.51448E-19 7.75643E-20
 -1       188 9.34433E-05-2.79851E-05-2.80488E-05 1.44091E-06-3.96344E-19-1.33653E-19
 -1       189 9.45498E-05-2.83086E-05-2.83848E-05 1.66684E-06-3.64236E-19 7.97796E-20
 -1       190 9.58777E-05-2.86898E-05-2.87904E-05 1.93207E-06-7.98779E-20 3.64330E-19
 -1       191 9.74509E-05-2.91381E-05-2.92722E-05 2.26626E-06-9.01255E-21-4.77259E-19
 -1       192 9.93121E-05-2.96690E-05-2.98421E-05 2.68823E-06-4.03248E-19-8.66742E-19
 -1       193 1.01511E-04-3.03027E-05-3.05133E-05 3.20096E-06-2.82095E-19-5.49318E-19
 -1       194 1.04091E-04-3.10614E-05-3.12949E-05 3.77964E-06 2.04215E-19-1.14934E-18
 -1       195 1.07062E-04-3.19661E-05-3.21834E-05 4.35014E-06-2.22683E-19-7.62705E-19
 -1       196 1.10366E-04-3.30292E-05-3.31491E-05 4.75607E-06 1.18190E-19-5.59808E-19
 -1       197 1.13827E-04-3.42399E-05-3.41202E-05 4.72039E-06-1.71681E-19-2.23072E-19
 -1       198 1.17080E-04-3.55310E-05-3.49673E-05 3.82963E-06-3.73872E-19-5.95497E-19
 -1       199 1.19520E-04-3.67201E-05-3.55054E-05 1.61157E-06-4.05166E-19-6.63303E-19
 -1       200 1.20310E-04-3.74214E-05-3.55380E-05-2.17438E-06 4.25998E-20-1.33667E-18
 -1       201 1.18585E-04-3.70141E-05-3.49611E-05-6.94998E-06 8.08953E-19-5.89849E-19
 -1       202 1.14039E-04-3.49447E-05-3.38979E-05-1.07510E-05-2.49024E-19-7.81083E-19
 -1       203 1.07823E-04-3.15064E-05-3.27252E-05-1.06984E-05 1.97795E-20-7.36945E-19
 -1       204 1.02855E-04-2.84709E-05-3.19190E-05-5.26869E-06 4.34448E-19-6.42534E-19
 -1       205 1.02210E-04-2.80573E-05-3.18185E-05 3.24823E-06 3.54549E-19-5.30835E-19
 -1       206 1.06338E-04-3.06094E-05-3.24770E-05 9.85644E-06-7.34318E-19-1.21743E-18
 -1       207 1.12603E-04-3.41825E-05-3.36111E-05 1.12422E-05-1.22376E-18-1.93173E-18
 -1       208 1.17781E-04-3.66832E-05-3.47594E-05 8.14591E-06 8.15848E-19-1.77894E-18
 -1       209 1.20272E-04-3.74829E-05-3.54915E-05 3.39589E-06 1.20721E-18-1.13912E-18
 -1       210 1.20103E-04-3.70157E-05-3.56280E-05-7.19975E-07 2.54606E-19-6.01147E-19
 -1       211 1.18069E-04-3.59238E-05-3.52236E-05-3.30427E-06-7.53312E-19-1.56926E-19
 -1       212 1.15054E-04-3.46619E-05-3.44663E-05-4.45103E-06 1.61085E-20 1.38746E-19
 -1       213 1.11733E-04-3.34581E-05-3.35522E-05-4.61267E-06-2.12098E-19 6.50098E-20
 -1       214 1.08534E-04-3.24028E-05-3.26275E-05-4.23117E-06 5.82068E-19 1.04704E-18
 -1       215 1.05679E-04-3.15189E-05-3.17795E-05-3.61849E-06-8.77881E-19-8.78710E-19
 -1       216 1.03257E-04-3.07997E-05-3.10480E-05-2.95844E-06-9.44670E-19-1.63453E-18
 -1       217 1.01274E-04-3.02269E-05-3.04429E-05-2.34394E-06-8.56158E-19-3.12868E-18
 -1       218 9.96917E-05-2.97788E-05-2.99573E-05-1.81316E-06 2.95480E-19-2.02986E-18
 -1       219 9.84574E-05-2.94339E-05-2.95768E-05-1.37471E-06-1.60753E-19-1.26448E-18
 -1       220 9.75124E-05-2.91727E-05-2.92845E-05-1.02304E-06-1.97077E-18-1.97045E-18
 -1       221 9.68021E-05-2.89781E-05-2.90642E-05-7.46851E-07-1.00182E-18-3.26798E-18
 -1       222 9.62782E-05-2.88359E-05-2.89013E-05-5.33375E-07 1.29045E-18-3.18470E-18
 -1       223 9.59001E-05-2.87342E-05-2.87834E-05-3.70354E-07-5.84281E-20-1.48616E-19
 -1       224 9.56346E-05-2.86634E-05-2.87004E-05-2.46819E-07 7.96336E-19 9.45800E-19
 -1       225 9.54551E-05-2.86161E-05-2.86442E-05-1.53330E-07 2.66214E-18 1.10989E-18
 -1       226 9.53409E-05-2.85864E-05-2.86083E-05-8.21015E-08 1.02166E-19-6.06850E-19
 -1       227 9.52753E-05-2.85704E-05-2.85873E-05-2.79190E-08-2.44121E-19-7.50786E-19
 -1       228 9.52437E-05-2.85658E-05-2.85758E-05 9.92612E-09-2.20538E-19-3.24753E-19
 -1       229 9.93405E-05-2.85093E-05-3.05367E-05 7.11553E-06 1.04736E-18 3.17277E-18
 -1       230 9.43530E-05-2.77693E-05-2.85060E-05 2.64538E-06 6.95811E-19 2.43301E-18
 -1       231 9.21511E-05-2.74104E-05-2.77006E-05 8.06436E-07 4.73194E-19 1.69611E-18
 -1       232 9.13591E-05-2.72900E-05-2.74306E-05-1.01137E-07 3.34482E-19 1.33298E-18
 -1       233 9.13614E-05-2.73419E-05-2.74227E-05-5.96911E-07 5.87025E-20 1.26159E-18
 -1       234 9.18380E-05-2.75097E-05-2.75617E-05-8.90785E-07-1.14051E-19 9.40061E-19
 -1       235 9.26179E-05-2.77547E-05-2.77939E-05-1.08550E-06 4.76762E-19 9.32683E-19
 -1       236 9.36131E-05-2.80560E-05-2.80929E-05-1.23798E-06 4.93914E-19 5.46711E-19
 -1       237 9.47833E-05-2.84048E-05-2.84458E-05-1.38149E-06 2.86451E-19 3.44008E-20
 -1       238 9.61150E-05-2.87998E-05-2.88480E-05-1.53361E-06 4.46485E-20 4.08484E-19
 -1       239 9.76066E-05-2.92435E-05-2.92978E-05-1.69790E-06 9.72305E-20 4.75855E-19
 -1       240 9.92535E-05-2.97383E-05-2.97924E-05-1.86235E-06 2.67451E-19 3.07240E-20
 -1       241 1.01033E-04-3.02826E-05-3.03228E-05-1.99558E-06 5.02066E-19-4.90338E-19
 -1       242 1.02886E-04-3.08648E-05-3.08685E-05-2.04207E-06 5.33774E-19-1.19578E-18
 -1       243 1.04696E-04-3.14572E-05-3.13913E-05-1.91917E-06 1.59941E-19-6.15935E-19
 -1       244 1.06272E-04-3.20075E-05-3.18309E-05-1.52132E-06-8.49017E-19-3.25649E-19
 -1       245 1.07341E-04-3.24315E-05-3.21059E-05-7.41234E-07 2.04429E-19-7.01098E-19
 -1       246 1.07569E-04-3.26101E-05-3.21238E-05 4.80248E-07 1.52893E-19-6.95320E-19
 -1       247 1.06633E-04-3.24031E-05-3.18076E-05 2.07055E-06-2.88365E-19-7.48795E-19
 -1       248 1.04364E-04-3.16933E-05-3.11367E-05 3.73231E-06-2.17074E-19 3.05726E-21
 -1       249 1.00930E-04-3.04730E-05-3.01907E-05 4.91523E-06-6.94832E-23-4.65345E-19
 -1       250 9.69943E-05-2.89480E-05-2.91659E-05 4.96840E-06 6.03124E-19 1.81285E-19
 -1       251 9.36505E-05-2.75659E-05-2.83350E-05 3.50614E-06-3.36676E-19-3.72102E-19
 -1       252 9.20465E-05-2.68646E-05-2.79523E-05 8.03743E-07-1.18198E-18-9.26835E-19
 -1       253 9.27906E-05-2.71502E-05-2.81419E-05-2.20320E-06-2.37037E-19 8.87727E-19
 -1       254 9.56121E-05-2.83053E-05-2.88444E-05-4.40154E-06 1.32110E-18-2.98490E-19
 -1       255 9.95051E-05-2.98528E-05-2.98405E-05-5.13995E-06 9.91534E-19-7.18969E-19
 -1       256 1.03289E-04-3.12700E-05-3.08531E-05-4.49426E-06 6.27630E-19-8.11593E-19
 -1       257 1.06110E-04-3.22327E-05-3.16537E-05-3.02652E-06-2.22065E-19-1.49745E-18
 -1       258 1.07622E-04-3.26652E-05-3.21227E-05-1.37100E-06-4.71807E-20-1.46611E-18
 -1       259 1.07897E-04-3.26541E-05-3.22500E-05 3.70043E-08-1.55700E-18-5.03742E-19
 -1       260 1.07228E-04-3.23438E-05-3.20982E-05 1.01526E-06-6.23379E-19-1.07146E-19
 -1       261 1.05962E-04-3.18707E-05-3.17586E-05 1.56364E-06 5.97437E-19 6.60361E-19
 -1       262 1.04409E-04-3.13380E-05-3.13197E-05 1.77072E-06 4.41948E-19 1.21154E-18
 -1       263 1.02795E-04-3.08130E-05-3.08517E-05 1.74625E-06 7.33755E-19-4.99239E-19
 -1       264 1.01271E-04-3.03344E-05-3.04019E-05 1.58654E-06 8.73716E-19-7.57311E-19
 -1       265 9.99165E-05-2.99206E-05-2.99979E-05 1.36300E-06-4.19615E-19-1.73166E-18
 -1       266 9.87678E-05-2.95765E-05-2.96524E-05 1.12277E-06 3.96104E-20-1.84643E-18
 -1       267 9.78277E-05-2.92995E-05-2.93679E-05 8.93771E-07 2.30214E-19 9.40813E-19
 -1       268 9.70816E-05-2.90826E-05-2.91411E-05 6.90354E-07 7.49205E-19 2.04961E-18
 -1       269 9.65058E-05-2.89172E-05-2.89652E-05 5.18044E-07 1.29035E-19 1.01821E-18
 -1       270 9.60736E-05-2.87944E-05-2.88327E-05 3.77024E-07-1.94414E-18 1.29494E-18
 -1       271 9.57587E-05-2.87059E-05-2.87359E-05 2.64485E-07 7.15060E-19 5.34830E-19
 -1       272 9.55377E-05-2.86443E-05-2.86677E-05 1.76112E-07-9.43728E-20-5.06221E-19
 -1       273 9.53905E-05-2.86038E-05-2.86223E-05 1.07091E-07 1.95321E-18 7.49826E-19
 -1       274 9.53007E-05-2.85795E-05-2.85944E-05 5.31060E-08 7.46526E-19 6.96269E-20
 -1       275 9.52541E-05-2.85677E-05-2.85795E-05 1.13101E-08 2.02700E-19-1.12130E-18
 -1       276 9.52384E-05-2.85694E-05-2.85715E-05-1.47210E-08-2.82817E-19-9.56504E-20
 -1       277 9.52439E-05-2.85644E-05-2.85766E-05-2.71038E-09-5.29086E-20 5.00522E-18
 -1       278 9.52383E-05-2.85359E-05-2.85867E-05 3.26925E-08 1.39233E-18 1.72974E-18
 -1       279 9.52199E-05-2.84849E-05-2.86007E-05 6.73406E-08 1.38397E-18 1.76460E-18
 -1       280 9.51948E-05-2.84188E-05-2.86183E-05 8.72850E-08 1.87290E-18 1.77803E-18
 -1       281 9.51685E-05-2.83496E-05-2.86368E-05 8.82561E-08 5.60869E-19-3.89569E-18
 -1       282 9.51451E-05-2.82876E-05-2.86534E-05 7.06678E-08 8.81917E-19-8.57247E-19
 -1       283 9.51292E-05-2.82454E-05-2.86648E-05 3.84788E-08 4.89077E-19-8.61315E-20
 -1       284 9.51238E-05-2.82310E-05-2.86686E-05-1.61188E-09 1.46656E-18 5.61046E-19
 -1       285 9.51298E-05-2.82471E-05-2.86643E-05-4.15771E-08-8.68486E-19-1.12056E-18
 -1       286 9.51463E-05-2.82908E-05-2.86526E-05-7.33218E-08-2.39748E-18-1.07221E-18
 -1       287 9.51698E-05-2.83529E-05-2.86359E-05-8.98512E-08-1.34193E-18-2.46720E-18
 -1       288 9.51970E-05-2.84240E-05-2.86170E-05-8.75109E-08-5.84076E-19 1.36961E-18
 -1       289 9.52221E-05-2.84902E-05-2.85994E-05-6.54377E-08 8.97461E-19-4.86902E-19
 -1       290 9.52389E-05-2.85382E-05-2.85857E-05-3.05717E-08-2.79083E-19 8.69116E-19
 -1       291 9.52490E-05-2.85545E-05-2.85831E-05-7.97181E-09-5.97412E-19 1.22902E-19
 -1       292 1.23279E-05-4.63699E-05 1.13361E-05 9.04205E-06 2.05935E-19 7.76729E-19
 -1       293 2.64221E-05-4.24926E-05 4.07711E-06 2.15845E-05 6.82285E-19-1.87176E-18
 -1       294 5.17908E-05-3.47738E-05-9.04555E-06 3.48973E-05 1.47490E-18 2.15215E-18
 -1       295 8.84002E-05-2.93206E-05-2.56558E-05 4.52403E-05-4.27540E-19 2.71961E-18
 -1       296 1.34926E-04-3.21352E-05-4.30828E-05 4.34537E-05 2.12351E-18 1.32857E-18
 -1       297 1.73226E-04-3.17853E-05-5.83830E-05 3.62569E-05 2.73183E-18-1.45690E-19
 -1       298 1.96362E-04-3.19264E-05-6.76743E-05 1.70743E-05 1.25456E-18-5.79688E-19
 -1       299 2.06982E-04-3.43329E-05-7.06818E-05-4.20508E-06 8.95737E-19-1.53488E-18
 -1       300 1.92928E-04-3.30283E-05-6.56174E-05-2.54450E-05 3.18209E-18-1.60005E-18
 -1       301 1.61797E-04-3.11690E-05-5.40136E-05-4.09202E-05 2.03420E-18-2.75773E-18
 -1       302 1.18889E-04-2.82306E-05-3.81342E-05-4.82833E-05 2.81702E-18-3.68989E-18
 -1       303 7.78515E-05-3.04827E-05-2.10248E-05-4.29641E-05 3.21131E-18-3.81038E-18
 -1       304 4.42840E-05-3.68481E-05-5.25863E-06-3.15732E-05 3.25007E-18-2.82861E-18
 -1       305 2.18507E-05-4.43495E-05 6.66694E-06-1.84775E-05 1.82896E-18-3.19676E-18
 -1       306 9.70268E-06-3.99595E-05 1.07242E-05-6.31167E-06 4.63989E-19-1.37156E-18
 -1       307 1.47181E-05-4.61469E-05 1.03702E-05 1.02366E-05-4.66609E-19-2.43734E-18
 -1       308 3.11042E-05-4.24156E-05 2.02515E-06 2.25703E-05-1.72138E-18-2.20067E-18
 -1       309 5.94126E-05-3.56375E-05-1.18281E-05 3.57285E-05-2.39562E-18-7.85200E-19
 -1       310 1.09444E-04-4.18262E-05-2.91158E-05 4.07986E-05-8.87267E-19-1.88931E-18
 -1       311 1.44998E-04-3.42318E-05-4.62991E-05 4.21580E-05-9.84252E-19-3.55966E-18
 -1       312 1.80559E-04-3.44884E-05-6.02785E-05 2.93972E-05-2.40610E-18-1.24747E-18
 -1       313 2.09328E-04-3.71038E-05-7.01704E-05 1.73061E-05-2.93645E-18-1.03783E-18
 -1       314 2.07604E-04-3.32964E-05-7.13862E-05-3.83718E-06-2.49451E-18 8.82052E-19
 -1       315 2.00334E-04-3.64903E-05-6.68900E-05-2.61435E-05-2.67964E-18 2.55147E-18
 -1       316 1.67455E-04-3.44993E-05-5.49470E-05-3.73461E-05-1.30065E-18 2.47630E-18
 -1       317 1.26558E-04-3.23050E-05-3.96370E-05-4.58964E-05-1.74828E-18 1.53165E-18
 -1       318 8.30542E-05-3.29112E-05-2.22945E-05-4.17991E-05-1.69597E-18 2.50065E-18
 -1       319 5.03403E-05-3.97874E-05-6.34818E-06-3.32670E-05 3.39872E-19 2.58954E-18
 -1       320 2.31759E-05-4.47478E-05 6.21307E-06-1.72959E-05-4.08693E-20 1.14005E-18
 -1       321 1.21378E-05-4.90288E-05 1.22573E-05-4.49081E-06-5.19496E-19 1.33852E-18
 -1       322 9.16843E-05-1.44355E-05-3.31841E-05-1.27490E-05-1.16280E-18-7.88131E-19
 -1       323 9.56987E-05-1.91137E-05-3.28840E-05-1.44369E-05-1.25543E-18-1.93229E-20
 -1       324 8.80432E-05-1.02689E-05-3.33865E-05-7.92682E-06-7.20404E-19-1.45875E-18
 -1       325 8.71921E-05-9.29349E-06-3.34329E-05-5.53412E-06-4.34934E-19-1.57263E-18
 -1       326 8.66982E-05-8.72185E-06-3.34626E-05-3.24782E-06-1.25822E-19-1.58823E-18
 -1       327 8.64726E-05-8.45927E-06-3.34768E-05-1.03197E-06 1.42559E-19-1.63425E-18
 -1       328 8.64806E-05-8.46932E-06-3.34760E-05 1.16071E-06 3.49502E-19-1.70055E-18
 -1       329 8.67236E-05-8.75369E-06-3.34600E-05 3.37916E-06 5.54038E-19-1.63387E-18
 -1       330 8.72281E-05-9.33926E-06-3.34290E-05 5.63105E-06 7.21090E-19-1.42662E-18
 -1       331 8.81028E-05-1.03442E-05-3.33800E-05 8.02762E-06 1.03296E-18-1.06822E-18
 -1       332 8.95396E-05-1.19810E-05-3.33057E-05 1.05197E-05 1.29877E-18-7.94156E-19
 -1       333 9.19500E-05-1.47110E-05-3.31830E-05 1.29335E-05 1.53681E-18-2.35250E-19
 -1       334 9.57883E-05-1.94558E-05-3.28210E-05 1.41771E-05 1.52664E-18 7.39347E-19
 -1       335 9.87105E-05-2.44272E-05-3.19230E-05 1.17416E-05 1.37247E-18 1.65862E-18
 -1       336 9.63817E-05-2.67987E-05-2.97913E-05 5.56668E-06 1.08357E-18 1.21753E-18
 -1       337 9.64751E-05-2.60136E-05-3.01529E-05-6.11556E-06-9.51853E-19 1.77235E-19
 -1       338 9.50503E-05-2.70149E-05-2.91321E-05-2.53337E-06-7.72653E-19 1.26663E-19
 -1       339 9.42049E-05-2.74224E-05-2.86056E-05-5.08904E-07-5.33111E-19 1.74131E-19
 -1       340 9.38641E-05-2.76529E-05-2.83685E-05 7.14966E-07-4.42204E-19-1.22983E-20
 -1       341 9.39134E-05-2.78353E-05-2.83149E-05 1.50515E-06-2.20642E-19-1.52467E-19
 -1       342 9.42533E-05-2.80084E-05-2.83876E-05 2.07348E-06-2.77183E-19-1.26112E-19
 -1       343 9.48192E-05-2.81861E-05-2.85542E-05 2.55322E-06-8.64832E-20-9.63690E-21
 -1       344 9.55774E-05-2.83766E-05-2.87973E-05 3.03448E-06-1.75572E-19-7.92826E-20
 -1       345 9.65181E-05-2.85890E-05-2.91089E-05 3.58099E-06-4.96596E-19-6.48149E-19
 -1       346 9.76491E-05-2.88378E-05-2.94863E-05 4.23571E-06-3.15303E-19-7.36852E-19
 -1       347 9.89910E-05-2.91456E-05-2.99290E-05 5.01875E-06-4.56070E-19-6.09350E-19
 -1       348 1.00574E-04-2.95499E-05-3.04340E-05 5.91715E-06-1.66019E-19-4.00422E-19
 -1       349 1.02435E-04-3.01111E-05-3.09921E-05 6.86437E-06 1.54295E-19-3.49941E-19
 -1       350 1.04620E-04-3.09250E-05-3.15826E-05 7.70696E-06 1.65815E-19-3.22147E-19
 -1       351 1.07182E-04-3.21297E-05-3.21702E-05 8.15943E-06-8.66431E-20-9.03867E-19
 -1       352 1.10173E-04-3.38848E-05-3.27084E-05 7.76055E-06-6.68850E-19-8.60064E-19
 -1       353 1.13577E-04-3.62687E-05-3.31561E-05 5.88040E-06-1.77672E-19-8.51995E-19
 -1       354 1.17163E-04-3.90306E-05-3.35171E-05 1.88221E-06 8.18743E-21-6.74858E-19
 -1       355 1.20164E-04-4.11562E-05-3.38943E-05-4.38170E-06 6.40532E-19 2.82755E-19
 -1       356 1.21095E-04-4.06747E-05-3.44957E-05-1.15398E-05 7.83175E-19 8.37429E-20
 -1       357 1.18602E-04-3.59187E-05-3.54956E-05-1.58758E-05 9.82194E-21 1.03702E-18
 -1       358 1.13617E-04-2.83283E-05-3.66564E-05-1.27208E-05-4.01891E-19 1.07744E-18
 -1       359 1.10466E-04-2.37486E-05-3.72637E-05-1.65666E-06-2.41748E-19-5.43977E-19
 -1       360 1.12435E-04-2.65795E-05-3.68912E-05 1.05676E-05-9.66557E-19-2.33357E-18
 -1       361 1.17558E-04-3.41879E-05-3.58017E-05 1.59827E-05-9.34248E-19-1.64506E-18
 -1       362 1.20849E-04-3.98915E-05-3.47452E-05 1.31766E-05 1.45866E-19-1.01788E-18
 -1       363 1.20757E-04-4.13733E-05-3.40487E-05 6.29622E-06 9.49554E-19-1.59753E-18
 -1       364 1.18155E-04-3.97070E-05-3.36553E-05-3.66271E-07 5.20445E-19-2.09990E-18
 -1       365 1.14665E-04-3.69789E-05-3.33206E-05-4.92228E-06-7.09671E-20-9.42312E-19
 -1       366 1.11240E-04-3.44620E-05-3.29206E-05-7.22872E-06 2.86257E-19 3.33746E-19
 -1       367 1.08222E-04-3.25632E-05-3.24314E-05-7.86654E-06 2.93186E-19 1.28346E-18
 -1       368 1.05659E-04-3.12558E-05-3.18870E-05-7.49369E-06 4.11994E-19 9.40877E-19
 -1       369 1.03513E-04-3.03866E-05-3.13360E-05-6.61824E-06-1.14086E-18-2.53380E-19
 -1       370 1.01729E-04-2.98095E-05-3.08174E-05-5.56776E-06-1.38181E-18 1.36334E-19
 -1       371 1.00261E-04-2.94199E-05-3.03550E-05-4.52755E-06-8.24095E-19-3.54397E-19
 -1       372 9.90676E-05-2.91508E-05-2.99592E-05-3.58851E-06 8.88805E-19 9.71532E-19
 -1       373 9.81103E-05-2.89612E-05-2.96309E-05-2.78535E-06 1.08801E-18 5.60958E-19
 -1       374 9.73539E-05-2.88263E-05-2.93653E-05-2.12214E-06-6.56585E-19 1.78534E-18
 -1       375 9.67655E-05-2.87301E-05-2.91551E-05-1.58800E-06-2.10702E-18 3.55720E-18
 -1       376 9.63153E-05-2.86622E-05-2.89919E-05-1.16586E-06 2.22803E-19 4.12706E-18
 -1       377 9.59768E-05-2.86149E-05-2.88676E-05-8.37226E-07 1.84194E-18 3.32109E-18
 -1       378 9.57272E-05-2.85828E-05-2.87748E-05-5.84391E-07 1.04342E-18 3.10632E-18
 -1       379 9.55471E-05-2.85616E-05-2.87071E-05-3.91543E-07 9.07266E-19 2.18173E-18
 -1       380 9.54203E-05-2.85482E-05-2.86587E-05-2.45420E-07-1.06914E-18 6.86509E-19
 -1       381 9.53337E-05-2.85410E-05-2.86248E-05-1.35262E-07-1.28660E-18-9.41215E-19
 -1       382 9.52816E-05-2.85438E-05-2.86016E-05-5.93932E-08-1.92822E-19-1.43778E-19
 -1       383 9.44620E-05-2.73422E-05-2.87270E-05 2.24747E-06 8.29775E-19 9.00310E-19
 -1       384 9.33910E-05-2.74863E-05-2.82223E-05 4.44255E-07 5.96114E-19 5.23765E-19
 -1       385 9.30205E-05-2.76008E-05-2.80261E-05-5.91214E-07 1.29713E-19 1.79663E-19
 -1       386 9.31262E-05-2.77470E-05-2.80141E-05-1.22213E-06 1.78943E-19-1.19846E-19
 -1       387 9.35586E-05-2.79320E-05-2.81224E-05-1.64131E-06 4.22929E-19-4.39845E-19
 -1       388 9.42267E-05-2.81530E-05-2.83149E-05-1.95799E-06 5.85086E-19-2.23115E-19
 -1       389 9.50800E-05-2.84093E-05-2.85711E-05-2.23647E-06 4.60154E-19-5.10343E-20
 -1       390 9.60944E-05-2.87046E-05-2.88794E-05-2.51182E-06-1.98873E-19 8.55859E-20
 -1       391 9.72598E-05-2.90470E-05-2.92324E-05-2.79457E-06 2.17418E-19-1.87839E-19
 -1       392 9.85702E-05-2.94476E-05-2.96228E-05-3.06965E-06 7.52956E-19-1.98589E-19
 -1       393 1.00013E-04-2.99191E-05-3.00403E-05-3.29186E-06 9.70275E-19-6.83375E-19
 -1       394 1.01558E-04-3.04719E-05-3.04671E-05-3.37984E-06 7.20231E-19-4.66617E-19
 -1       395 1.03141E-04-3.11083E-05-3.08756E-05-3.21244E-06-1.06123E-19-4.53791E-19
 -1       396 1.04654E-04-3.18091E-05-3.12270E-05-2.63508E-06-5.35813E-19-2.46180E-19
 -1       397 1.05926E-04-3.25139E-05-3.14734E-05-1.48873E-06 7.92020E-19-7.81798E-19
 -1       398 1.06720E-04-3.30930E-05-3.15673E-05 3.21700E-07 3.21714E-19-7.25145E-19
 -1       399 1.06746E-04-3.33289E-05-3.14769E-05 2.71056E-06-2.71735E-19-9.06011E-19
 -1       400 1.05742E-04-3.29454E-05-3.12071E-05 5.27158E-06-4.96869E-19-5.83093E-19
 -1       401 1.03627E-04-3.17372E-05-3.08117E-05 7.21397E-06-1.26637E-19 3.04882E-20
 -1       402 1.00735E-04-2.98120E-05-3.03907E-05 7.53793E-06 3.95039E-19 2.44496E-19
 -1       403 9.79230E-05-2.77692E-05-3.00545E-05 5.56707E-06 8.62088E-20 3.34793E-19
 -1       404 9.63359E-05-2.65570E-05-2.98906E-05 1.59159E-06-7.19399E-19 4.87640E-20
 -1       405 9.67023E-05-2.68012E-05-2.99387E-05-3.00610E-06-4.79361E-19-3.63294E-19
 -1       406 9.88727E-05-2.83914E-05-3.01901E-05-6.47305E-06 1.13054E-18-2.25208E-20
 -1       407 1.01879E-04-3.05000E-05-3.05821E-05-7.72058E-06 1.55889E-18 1.29420E-18
 -1       408 1.04618E-04-3.22512E-05-3.10161E-05-6.81078E-06 5.18835E-19 8.24932E-19
 -1       409 1.06404E-04-3.31991E-05-3.13837E-05-4.59425E-06 6.80128E-19 1.38586E-18
 -1       410 1.07074E-04-3.33630E-05-3.16046E-05-2.05016E-06-4.31131E-19 1.68179E-18
 -1       411 1.06805E-04-3.29970E-05-3.16460E-05 1.41805E-07-1.36775E-18 1.21027E-18
 -1       412 1.05894E-04-3.23722E-05-3.15202E-05 1.68804E-06-1.29303E-18-1.07556E-19
 -1       413 1.04623E-04-3.16815E-05-3.12678E-05 2.57419E-06-6.77337E-20 3.55734E-19
 -1       414 1.03213E-04-3.10315E-05-3.09384E-05 2.92579E-06 6.62371E-19 1.15036E-18
 -1       415 1.01814E-04-3.04680E-05-3.05776E-05 2.90634E-06 1.92938E-18 2.19551E-18
 -1       416 1.00519E-04-3.00022E-05-3.02203E-05 2.66351E-06 1.04865E-18 7.87640E-19
 -1       417 9.93766E-05-2.96288E-05-2.98897E-05 2.30977E-06-3.42102E-19 7.62107E-19
 -1       418 9.84056E-05-2.93360E-05-2.95986E-05 1.92149E-06-4.10141E-19 7.76925E-19
 -1       419 9.76053E-05-2.91109E-05-2.93521E-05 1.54545E-06-1.73429E-18 5.21034E-19
 -1       420 9.69632E-05-2.89408E-05-2.91500E-05 1.20690E-06 2.98723E-19 2.61619E-18
 -1       421 9.64606E-05-2.88147E-05-2.89890E-05 9.16649E-07 4.16245E-19 3.74118E-18
 -1       422 9.60765E-05-2.87231E-05-2.88640E-05 6.76481E-07-2.87855E-19 2.91820E-18
 -1       423 9.57905E-05-2.86581E-05-2.87696E-05 4.82964E-07 5.23617E-19 2.01696E-18
 -1       424 9.55833E-05-2.86132E-05-2.87003E-05 3.29962E-07-2.07750E-19 2.79589E-18
 -1       425 9.54384E-05-2.85833E-05-2.86513E-05 2.10322E-07 7.97553E-19 2.95860E-18
 -1       426 9.53417E-05-2.85649E-05-2.86180E-05 1.17692E-07 1.76476E-18 4.34551E-18
 -1       427 9.52814E-05-2.85565E-05-2.85960E-05 4.81053E-08 5.83766E-19 3.96792E-18
 -1       428 9.52582E-05-2.85563E-05-2.85864E-05 1.84490E-08-4.18687E-19 4.57883E-18
 -1       429 9.52058E-05-2.83964E-05-2.86324E-05 1.57515E-07 1.24372E-18 1.69390E-18
 -1       430 9.52450E-05-2.84722E-05-2.86167E-05 1.17057E-07-7.21438E-19 2.96958E-18
 -1       431 9.52597E-05-2.85231E-05-2.86011E-05 6.52560E-08-1.24788E-18 3.10650E-18
 -1       432 9.51610E-05-2.83172E-05-2.86473E-05 1.69607E-07-6.41318E-19-3.95172E-18
 -1       433 9.51181E-05-2.82432E-05-2.86608E-05 1.50004E-07-9.45257E-19-2.05641E-18
 -1       434 9.50850E-05-2.81867E-05-2.86709E-05 1.02077E-07 6.43200E-19 8.70316E-19
 -1       435 9.50670E-05-2.81561E-05-2.86764E-05 3.49391E-08-1.74890E-18-2.18004E-18
 -1       436 9.50671E-05-2.81560E-05-2.86765E-05-3.89622E-08-3.35218E-18-6.44791E-19
 -1       437 9.50854E-05-2.81867E-05-2.86711E-05-1.05930E-07-2.32438E-18-2.12119E-18
 -1       438 9.51185E-05-2.82425E-05-2.86612E-05-1.52669E-07-2.49190E-18-1.49194E-18
 -1       439 9.51622E-05-2.83172E-05-2.86479E-05-1.71459E-07-5.63519E-19 3.83925E-18
 -1       440 9.52083E-05-2.83985E-05-2.86326E-05-1.57190E-07 1.42056E-18 9.33427E-19
 -1       441 9.52484E-05-2.84761E-05-2.86165E-05-1.13306E-07 7.90887E-19-1.95440E-18
 -1       442 5.89779E-05-4.08488E-05-7.82732E-06 4.38633E-05 9.54077E-19 9.67312E-19
 -1       443 1.20197E-05-2.06971E-05 3.66286E-06 1.88035E-06-5.00771E-19 2.71887E-18
 -1       444 2.80918E-05-2.93713E-05 3.65950E-07 3.15156E-05 4.64280E-19-6.04252E-19
 -1       445 9.76312E-05-5.18870E-05-1.96387E-05 4.19233E-05-2.30711E-19 8.22707E-19
 -1       446 1.29506E-04-5.37063E-05-3.25402E-05 2.79836E-05-1.01459E-18 1.29956E-18
 -1       447 8.94260E-05-1.18459E-05-3.33144E-05-1.04037E-05-1.00679E-18-1.22000E-18
 -1       448 1.53225E-04-2.39529E-05-5.55163E-05-2.31986E-06 2.16375E-18 4.28069E-19
 -1       449 1.60215E-04-1.37015E-05-6.24831E-05-3.64807E-07 1.30655E-18-1.66045E-19
 -1       450 1.57100E-04-1.51662E-05-6.06894E-05 1.20343E-06 1.50253E-18 1.95612E-19
 -1       451 1.54649E-04-2.93702E-05-5.36620E-05-1.45159E-06 1.79031E-18 1.20056E-18
 -1       452 1.45268E-04-4.55183E-05-4.27003E-05-1.75749E-05 1.17817E-19 5.65924E-19
 -1       453 1.23312E-04-5.45826E-05-2.94643E-05-3.18008E-05 1.45372E-19 6.36016E-19
 -1       454 8.60247E-05-4.90068E-05-1.59906E-05-4.38505E-05 8.66515E-19-1.02944E-18
 -1       455 4.96739E-05-3.75482E-05-5.29084E-06-4.17571E-05 4.69997E-19-2.77546E-18
 -1       456 2.34192E-05-2.49852E-05 7.53384E-07-2.62312E-05 4.25105E-19-2.56873E-18
 -1       457 1.36681E-05-2.26272E-05 3.70045E-06 8.79158E-06-8.02034E-20-1.90540E-18
 -1       458 3.30348E-05-3.16278E-05-8.10717E-07 3.21616E-05-6.32098E-20-2.37529E-18
 -1       459 6.52819E-05-4.48081E-05-9.09398E-06 4.18090E-05-1.06514E-19-2.98606E-19
 -1       460 1.02079E-04-5.41045E-05-2.06972E-05 3.89778E-05-5.00279E-19 4.24046E-19
 -1       461 1.40917E-04-5.37671E-05-3.73781E-05 2.02833E-05 4.42575E-19-7.46765E-19
 -1       462 1.56918E-04-4.28988E-05-4.87374E-05 8.20937E-06-7.84088E-19 5.66030E-19
 -1       463 1.60032E-04-2.36663E-05-5.82107E-05-4.43591E-06-1.84124E-18 8.65244E-19
 -1       464 1.59846E-04-1.46935E-05-6.21308E-05-1.74001E-06-3.38877E-18 4.19811E-19
 -1       465 1.59588E-04-1.79640E-05-6.06167E-05 3.78944E-06-3.05091E-18 1.45229E-18
 -1       466 1.60756E-04-3.11109E-05-5.54148E-05 1.87995E-06-1.87480E-18 2.00990E-18
 -1       467 1.50384E-04-5.07288E-05-4.28517E-05-8.59664E-06-5.37886E-19 2.11239E-18
 -1       468 1.32950E-04-5.70389E-05-3.24840E-05-2.64128E-05 3.63165E-19 2.34205E-19
 -1       469 9.27894E-05-5.20504E-05-1.76190E-05-4.12081E-05 1.45647E-18 1.71807E-18
 -1       470 4.98829E-05-3.83558E-05-5.16854E-06-3.94702E-05 4.64809E-20 1.40046E-18
 -1       471 2.39445E-05-2.85867E-05 1.76740E-06-2.50173E-05-8.37927E-19 1.37738E-18
 -1       472 1.50056E-04-4.10782E-05-4.66900E-05 8.54834E-06 2.18024E-18-2.09005E-19
 -1       473 1.29089E-04-6.12305E-05-2.90995E-05 2.46785E-05 1.40772E-18-7.72600E-19
 -1       474 2.15011E-05-1.50539E-05-2.19827E-06-1.02942E-05 4.29750E-19-2.16237E-18
 -1       475 9.58982E-05-2.51153E-05-3.03212E-05 5.71672E-06 1.06303E-18 2.46060E-19
 -1       476 8.94416E-05-1.30953E-05-3.27387E-05-3.72283E-06-2.53747E-19-1.41631E-18
 -1       477 9.02048E-05-1.41263E-05-3.26262E-05-5.61215E-06-5.02522E-19-1.26573E-18
 -1       478 8.88846E-05-1.23513E-05-3.28174E-05 5.20560E-08 2.19960E-19-1.46972E-18
 -1       479 8.90354E-05-1.25533E-05-3.27958E-05 1.93536E-06 4.39996E-19-1.47975E-18
 -1       480 8.94710E-05-1.31383E-05-3.27329E-05 3.79502E-06 5.57820E-19-1.39888E-18
 -1       481 9.02540E-05-1.41969E-05-3.26168E-05 5.67879E-06 8.95788E-19-9.86463E-19
 -1       482 9.14605E-05-1.58570E-05-3.24244E-05 7.47106E-06 1.12090E-18-8.13095E-19
 -1       483 9.32845E-05-1.84019E-05-3.21126E-05 8.98645E-06 1.28022E-18-4.90351E-19
 -1       484 9.52699E-05-2.65304E-05-2.94415E-05 2.47500E-06 9.21760E-19 1.52367E-19
 -1       485 9.55596E-05-2.43606E-05-3.05033E-05-5.45587E-06-8.17003E-19-5.36677E-19
 -1       486 1.41121E-04-3.39441E-05-4.63677E-05-8.40045E-06 2.06141E-18-9.33324E-19
 -1       487 9.54234E-05-2.61152E-05-2.96950E-05-2.41010E-06-6.49942E-19-4.87583E-19
 -1       488 9.51637E-05-2.70193E-05-2.92010E-05-3.63203E-07-5.44646E-19-4.09659E-19
 -1       489 9.50088E-05-2.75062E-05-2.89276E-05 1.01412E-06-4.35674E-19-3.72524E-19
 -1       490 9.50106E-05-2.77805E-05-2.88116E-05 1.98565E-06-2.63122E-19-3.78254E-19
 -1       491 9.51596E-05-2.79321E-05-2.88107E-05 2.74172E-06-2.82914E-19-4.93713E-19
 -1       492 9.54345E-05-2.80060E-05-2.88968E-05 3.41581E-06-2.35385E-19-7.03738E-19
 -1       493 9.58186E-05-2.80295E-05-2.90511E-05 4.10465E-06-5.42870E-19-6.52679E-19
 -1       494 9.63032E-05-2.80257E-05-2.92601E-05 4.87726E-06-6.17372E-19-4.13399E-19
 -1       495 9.68905E-05-2.80237E-05-2.95123E-05 5.77772E-06-7.17857E-20-6.33123E-19
 -1       496 9.75974E-05-2.80704E-05-2.97951E-05 6.82175E-06-2.40664E-19-3.02692E-19
 -1       497 9.84660E-05-2.82471E-05-3.00917E-05 7.98605E-06-1.95342E-20-5.41211E-19
 -1       498 9.95834E-05-2.86939E-05-3.03797E-05 9.18871E-06 2.62955E-19-5.98903E-19
 -1       499 1.01114E-04-2.96377E-05-3.06328E-05 1.02579E-05-3.95741E-19-8.65987E-19
 -1       500 1.03338E-04-3.14077E-05-3.08306E-05 1.08847E-05-4.29972E-19-8.71672E-19
 -1       501 1.06665E-04-3.43837E-05-3.09859E-05 1.05557E-05-5.30823E-19-7.54108E-19
 -1       502 1.11497E-04-3.87400E-05-3.11937E-05 8.51423E-06 1.96145E-19-5.78521E-19
 -1       503 1.17884E-04-4.39290E-05-3.17115E-05 3.80767E-06 7.53336E-19-1.41673E-19
 -1       504 1.24527E-04-4.75273E-05-3.30328E-05-4.14744E-06 9.36188E-19 3.02020E-20
 -1       505 1.28195E-04-4.51657E-05-3.56662E-05-1.34054E-05 6.04397E-19 3.08141E-19
 -1       506 1.25190E-04-3.34033E-05-3.96106E-05-1.78820E-05-6.83688E-19-5.08011E-19
 -1       507 1.20093E-04-2.04729E-05-4.30601E-05-1.03398E-05-1.11260E-18-2.05580E-18
 -1       508 1.18660E-04-1.77056E-05-4.36901E-05 6.49285E-06-2.16004E-18-3.79243E-18
 -1       509 1.24462E-04-2.98575E-05-4.08788E-05 1.79802E-05-1.07972E-18-3.64838E-18
 -1       510 1.27842E-04-4.24581E-05-3.67118E-05 1.55722E-05-1.03987E-19-2.80614E-18
 -1       511 1.25886E-04-4.78218E-05-3.34933E-05 6.44100E-06 4.51601E-19-2.56827E-18
 -1       512 1.19712E-04-4.51115E-05-3.19983E-05-1.90363E-06 6.47060E-19-1.75820E-18
 -1       513 1.13086E-04-4.00114E-05-3.13328E-05-7.42529E-06 4.54757E-19-7.44208E-19
 -1       514 1.07850E-04-3.53177E-05-3.10939E-05-9.98296E-06 8.63948E-19 7.17838E-20
 -1       515 1.04219E-04-3.19867E-05-3.09605E-05-1.05814E-05 5.27270E-19 7.81864E-19
 -1       516 1.01810E-04-2.99438E-05-3.08003E-05-1.00430E-05 4.11648E-19 1.25340E-18
 -1       517 1.00197E-04-2.88258E-05-3.05861E-05-8.93930E-06-9.44821E-19 8.21603E-19
 -1       518 9.90661E-05-2.82831E-05-3.03332E-05-7.62525E-06-7.35655E-19 4.63658E-20
 -1       519 9.82266E-05-2.80652E-05-3.00665E-05-6.30615E-06-1.44507E-18 1.79938E-18
 -1       520 9.75732E-05-2.80162E-05-2.98077E-05-5.09055E-06-5.90395E-20 1.48611E-18
 -1       521 9.70501E-05-2.80468E-05-2.95707E-05-4.02701E-06 3.09502E-20-4.97264E-19
 -1       522 9.66271E-05-2.81094E-05-2.93629E-05-3.12874E-06 4.25813E-19-7.66331E-19
 -1       523 9.62861E-05-2.81801E-05-2.91869E-05-2.38944E-06 6.57779E-19 3.23510E-19
 -1       524 9.60139E-05-2.82476E-05-2.90416E-05-1.79322E-06 3.66469E-19 3.05342E-18
 -1       525 9.57998E-05-2.83074E-05-2.89244E-05-1.32039E-06-1.27565E-19 1.68366E-18
 -1       526 9.56339E-05-2.83579E-05-2.88319E-05-9.50768E-07 1.12663E-18 7.46435E-19
 -1       527 9.55070E-05-2.83990E-05-2.87601E-05-6.65369E-07 5.92530E-19 2.49230E-18
 -1       528 9.54113E-05-2.84315E-05-2.87052E-05-4.47495E-07-1.41177E-18 1.90461E-18
 -1       529 9.53398E-05-2.84572E-05-2.86636E-05-2.83212E-07-1.67508E-18-6.06250E-19
 -1       530 5.53444E-05-2.96349E-05-1.04780E-05 3.87891E-05 2.55486E-19-8.35916E-20
 -1       531 9.45583E-05-2.76230E-05-2.86822E-05-8.61464E-07 3.95736E-19-1.72609E-19
 -1       532 9.45812E-05-2.78741E-05-2.85865E-05-1.72940E-06 4.95060E-19-4.87089E-19
 -1       533 9.48119E-05-2.80627E-05-2.86053E-05-2.35316E-06 5.21486E-19-6.35222E-19
 -1       534 9.52123E-05-2.82270E-05-2.87068E-05-2.85330E-06 1.17638E-19-5.03704E-19
 -1       535 9.57585E-05-2.83932E-05-2.88697E-05-3.30422E-06-1.23549E-19 5.14360E-20
 -1       536 9.64401E-05-2.85869E-05-2.90789E-05-3.74420E-06 2.97661E-19-1.89331E-19
 -1       537 9.72585E-05-2.88385E-05-2.93220E-05-4.17805E-06 6.00589E-19-3.96430E-19
 -1       538 9.82241E-05-2.91868E-05-2.95870E-05-4.57451E-06 8.62395E-19-1.57911E-19
 -1       539 9.93532E-05-2.96798E-05-2.98604E-05-4.86035E-06 5.81243E-19-3.21457E-20
 -1       540 1.00663E-04-3.03713E-05-3.01269E-05-4.91368E-06 1.93432E-19 7.71711E-19
 -1       541 1.02161E-04-3.13066E-05-3.03702E-05-4.56204E-06-1.48511E-19 9.86463E-19
 -1       542 1.03824E-04-3.24902E-05-3.05781E-05-3.59502E-06 4.62705E-19-3.02924E-21
 -1       543 1.05555E-04-3.38261E-05-3.07495E-05-1.80931E-06 2.69218E-19 5.30825E-19
 -1       544 1.07121E-04-3.50365E-05-3.09031E-05 8.88060E-07-2.74375E-19 8.47254E-19
 -1       545 1.08115E-04-3.56077E-05-3.10822E-05 4.30032E-06-5.42066E-19 7.82913E-19
 -1       546 1.08010E-04-3.48841E-05-3.13438E-05 7.72325E-06-1.34342E-19 1.20586E-19
 -1       547 1.06446E-04-3.24367E-05-3.17162E-05 9.86021E-06 6.06762E-20-7.07800E-19
 -1       548 1.03766E-04-2.87367E-05-3.21569E-05 9.22689E-06-1.29210E-19 3.36612E-19
 -1       549 1.01258E-04-2.53979E-05-3.25088E-05 5.11084E-06-3.33764E-19 1.07596E-18
 -1       550 1.00488E-04-2.43814E-05-3.26102E-05-1.10259E-06-2.54087E-19 7.52543E-19
 -1       551 1.01996E-04-2.63540E-05-3.24147E-05-6.91934E-06 6.47436E-19 5.56804E-20
 -1       552 1.04761E-04-3.00348E-05-3.20212E-05-9.87673E-06 7.99624E-19-2.71525E-19
 -1       553 1.07182E-04-3.34382E-05-3.16056E-05-9.46957E-06 1.02247E-18 4.07783E-19
 -1       554 1.08276E-04-3.53005E-05-3.12809E-05-6.76486E-06-1.44996E-20 3.68854E-19
 -1       555 1.07990E-04-3.55226E-05-3.10671E-05-3.27116E-06-4.07756E-19 1.81516E-18
 -1       556 1.06789E-04-3.46663E-05-3.09197E-05-1.06704E-07-3.42062E-19 1.25565E-18
 -1       557 1.05184E-04-3.33711E-05-3.07852E-05 2.21713E-06 2.68528E-19 9.20576E-19
 -1       558 1.03525E-04-3.20709E-05-3.06287E-05 3.62421E-06-3.06402E-19-3.67948E-19
 -1       559 1.01993E-04-3.09755E-05-3.04391E-05 4.25997E-06-6.61580E-19-8.85010E-20
 -1       560 1.00657E-04-3.01405E-05-3.02223E-05 4.33901E-06-1.22051E-19 1.12551E-18
 -1       561 9.95267E-05-2.95442E-05-2.99919E-05 4.06453E-06 1.48950E-18 3.07563E-18
 -1       562 9.85873E-05-2.91378E-05-2.97627E-05 3.59774E-06 8.98911E-19 3.66868E-18
 -1       563 9.78174E-05-2.88714E-05-2.95466E-05 3.05319E-06-3.24184E-19 2.16219E-18
 -1       564 9.71944E-05-2.87030E-05-2.93517E-05 2.50510E-06-6.27421E-19 1.85848E-18
 -1       565 9.66968E-05-2.86010E-05-2.91823E-05 1.99692E-06-2.29266E-18 1.33697E-18
 -1       566 9.63050E-05-2.85427E-05-2.90396E-05 1.55038E-06-6.76183E-19 3.69783E-18
 -1       567 9.60011E-05-2.85123E-05-2.89226E-05 1.17293E-06 4.92885E-19 3.96222E-18
 -1       568 9.57692E-05-2.84990E-05-2.88291E-05 8.63212E-07-3.89458E-19 3.42994E-18
 -1       569 9.55952E-05-2.84956E-05-2.87562E-05 6.14967E-07-2.21926E-19 4.24018E-18
 -1       570 9.54668E-05-2.84972E-05-2.87006E-05 4.19677E-07 1.07939E-18 3.15062E-18
 -1       571 9.53736E-05-2.85013E-05-2.86590E-05 2.68533E-07 1.07280E-18 1.63022E-18
 -1       572 9.53073E-05-2.85084E-05-2.86277E-05 1.53220E-07-2.13248E-19 2.72129E-18
 -1       573 9.50954E-05-2.81898E-05-2.86739E-05 2.47576E-07 5.49868E-19-4.09437E-18
 -1       574 9.50306E-05-2.81056E-05-2.86822E-05 1.92470E-07-8.76825E-19 7.90206E-19
 -1       575 9.52426E-05-2.83947E-05-2.86491E-05 2.31965E-07 2.57222E-19 3.12170E-18
 -1       576 9.51705E-05-2.82904E-05-2.86629E-05 2.61011E-07-3.64326E-19-1.79951E-18
 -1       577 9.49870E-05-2.80495E-05-2.86876E-05 1.04625E-07-1.43220E-18-1.48875E-18
 -1       578 9.49715E-05-2.80291E-05-2.86897E-05-1.28720E-09-2.83961E-18-3.06104E-18
 -1       579 9.49866E-05-2.80474E-05-2.86884E-05-1.07479E-07-2.64078E-18 2.15117E-19
 -1       580 9.50294E-05-2.81009E-05-2.86837E-05-1.94532E-07-1.24564E-18-1.81887E-18
 -1       581 9.50951E-05-2.81850E-05-2.86758E-05-2.50186E-07-3.03665E-19 7.28159E-20
 -1       582 9.51717E-05-2.82872E-05-2.86648E-05-2.62911E-07-1.35062E-18 2.98995E-18
 -1       583 9.52449E-05-2.83930E-05-2.86507E-05-2.31609E-07-1.86435E-18-1.13108E-18
 -1       584 2.78787E-05-1.51124E-05-4.82494E-06-1.52735E-05-2.22399E-19 2.24834E-18
 -1       585 9.47868E-05-2.72349E-05-2.89415E-05 4.40288E-07 6.09354E-19-9.58169E-20
 -1       586 8.47222E-05-4.67958E-05-1.59162E-05 4.25264E-05 5.08590E-19 4.88367E-19
 -1       587 1.21003E-04-6.09922E-05-2.56570E-05-2.85151E-05 1.71487E-18 6.99186E-19
 -1       588 1.21482E-04-5.94148E-05-2.65403E-05 2.84172E-05 4.60415E-19 1.06345E-18
 -1       589 2.98313E-05-1.43601E-05-5.95094E-06 1.85070E-05-5.30746E-19 1.39422E-18
 -1       590 8.25600E-05-4.59151E-05-1.53419E-05-4.31645E-05-6.43057E-19-4.42284E-19
 -1       591 8.90155E-05-1.25254E-05-3.27992E-05-1.83077E-06 6.00161E-21-1.39806E-18
 -1       592 1.32513E-04-7.37943E-06-5.42607E-05 1.70907E-06 1.21899E-18-6.21094E-19
 -1       593 3.15932E-05-1.91761E-05-4.76917E-06 2.26869E-05 1.03020E-19-2.23744E-18
 -1       594 1.32514E-04-1.17246E-05-5.24114E-05-7.53139E-06 2.54682E-18-1.12211E-18
 -1       595 1.34020E-04-1.85659E-05-5.00630E-05 1.10529E-05 1.33011E-18-5.89217E-20
 -1       596 1.43017E-04-4.17179E-05-4.37943E-05 3.78048E-06 3.83177E-19 1.12661E-18
 -1       597 1.37880E-04-5.62123E-05-3.50986E-05-1.15987E-05-3.52035E-19 8.41580E-19
 -1       598 1.12852E-04-5.78316E-05-2.35039E-05-3.40345E-05-6.79638E-19 1.20944E-18
 -1       599 4.91008E-05-2.72155E-05-8.83441E-06-3.63013E-05-8.36498E-19-2.20033E-18
 -1       600 8.62192E-05-4.81211E-05-1.59752E-05-4.08873E-05 7.60265E-19-5.43689E-19
 -1       601 6.31622E-05-3.71945E-05-1.06872E-05 4.03211E-05 8.56668E-19-5.07690E-19
 -1       602 9.23619E-05-5.13130E-05-1.73408E-05 3.99866E-05 7.11243E-19 1.06729E-18
 -1       603 1.46512E-04-5.24552E-05-4.06321E-05-5.61756E-07-3.22759E-19-4.94932E-19
 -1       604 1.45568E-04-3.61487E-05-4.75280E-05-1.13964E-05-1.50613E-18-2.42940E-19
 -1       605 1.37069E-04-1.63808E-05-5.22026E-05-1.11936E-05-2.77912E-18 7.49359E-19
 -1       606 1.35801E-04-1.12449E-05-5.40490E-05 3.00193E-06-3.31825E-18-3.23222E-19
 -1       607 1.37509E-04-2.38594E-05-4.93302E-05 1.48113E-05-1.83340E-18-1.62818E-18
 -1       608 1.43952E-04-4.28673E-05-4.37035E-05 1.21791E-05-3.38443E-19-3.49560E-19
 -1       609 1.40866E-04-5.96864E-05-3.49623E-05-6.29782E-06 1.77635E-18 1.93817E-18
 -1       610 4.40810E-05-2.52221E-05-7.55472E-06-3.20266E-05-7.49148E-19 1.55219E-18
 -1       611 9.46569E-05-2.07249E-05-3.17037E-05-9.13531E-06-1.06863E-18-6.40955E-19
 -1       612 9.61873E-05-2.31749E-05-3.12944E-05 9.34470E-06 1.31168E-18 4.18889E-19
 -1       613 1.39624E-04-5.35133E-05-3.71084E-05 5.93364E-06-3.57888E-20 1.45637E-19
 -1       614 9.13857E-05-1.57525E-05-3.24372E-05-7.39551E-06-8.12318E-19-1.17146E-18
 -1       615 9.53025E-05-2.84739E-05-2.86405E-05-1.94134E-07-1.39656E-18-8.89697E-20
 -1       616 1.15630E-04-5.91554E-05-2.40343E-05 2.97257E-05 1.40983E-18 7.43391E-19
 -1       617 1.39428E-04-6.03407E-05-3.40682E-05 7.59047E-06 1.44591E-18-6.96049E-19
 -1       618 3.09616E-05-1.20753E-05-7.44275E-06 5.25183E-06 1.29887E-19-2.74709E-18
 -1       619 1.27710E-04-2.11101E-05-4.61990E-05-1.29977E-05 1.53324E-18-9.02964E-19
 -1       620 9.28339E-05-1.78578E-05-3.21529E-05-8.58043E-06-9.68205E-19-1.01102E-18
 -1       621 4.03255E-05-1.71663E-05-9.32170E-06-2.37163E-05-2.00138E-19-1.00749E-18
 -1       622 9.13160E-05-1.63629E-05-3.21283E-05 2.22918E-06 4.63721E-19-1.31667E-18
 -1       623 9.10126E-05-1.59123E-05-3.21911E-05 7.63632E-07 2.12799E-19-1.28665E-18
 -1       624 9.28249E-05-1.87027E-05-3.17723E-05 4.87507E-06 9.77004E-19-7.38222E-19
 -1       625 9.40025E-05-2.07433E-05-3.14046E-05 5.73763E-06 1.03284E-18-6.46064E-19
 -1       626 9.53525E-05-2.39741E-05-3.05804E-05 4.72394E-06 1.03509E-18-3.64728E-19
 -1       627 1.07557E-04-5.31289E-05-2.31719E-05 3.10132E-05-1.23932E-19-3.87670E-19
 -1       628 9.54568E-05-2.57652E-05-2.98639E-05 2.02719E-06 8.04497E-19-3.83395E-19
 -1       629 1.37187E-04-5.20091E-05-3.66964E-05 8.98867E-06 1.33656E-18-1.23603E-18
 -1       630 9.46352E-05-2.20530E-05-3.11062E-05-5.74666E-06-8.42936E-19-8.41819E-19
 -1       631 9.54980E-05-2.54497E-05-3.00232E-05-1.79457E-06-4.54004E-19-7.17202E-19
 -1       632 9.55616E-05-2.65553E-05-2.95731E-05 3.77069E-08-4.39781E-19-4.79150E-19
 -1       633 9.55211E-05-2.71765E-05-2.92902E-05 1.36044E-06-2.21780E-19-4.37959E-19
 -1       634 9.54631E-05-2.74804E-05-2.91351E-05 2.36920E-06-4.72778E-19-7.21127E-19
 -1       635 9.54140E-05-2.75685E-05-2.90763E-05 3.20578E-06-3.29120E-19-8.18842E-19
 -1       636 9.53770E-05-2.75018E-05-2.90890E-05 3.98549E-06-6.41389E-21-3.32009E-19
 -1       637 9.53462E-05-2.73227E-05-2.91525E-05 4.79588E-06-1.69582E-19 2.46865E-19
 -1       638 9.53155E-05-2.70697E-05-2.92476E-05 5.70079E-06-4.21769E-19 8.09352E-19
 -1       639 9.52872E-05-2.67927E-05-2.93540E-05 6.74221E-06-7.31919E-19 3.12595E-19
 -1       640 9.52852E-05-2.65714E-05-2.94479E-05 7.93986E-06-1.88033E-19-9.50612E-20
 -1       641 9.53790E-05-2.65422E-05-2.95006E-05 9.28792E-06 1.42255E-19 1.21304E-20
 -1       642 9.57236E-05-2.69356E-05-2.94798E-05 1.07479E-05-1.00872E-19-2.56682E-19
 -1       643 9.66221E-05-2.81187E-05-2.93577E-05 1.22315E-05-6.49269E-19-2.13170E-19
 -1       644 9.86090E-05-3.06269E-05-2.91334E-05 1.35552E-05-6.94321E-19-4.08667E-19
 -1       645 1.02534E-04-3.51161E-05-2.88916E-05 1.42648E-05-2.08505E-19 8.25187E-20
 -1       646 1.09345E-04-4.19175E-05-2.88856E-05 1.35157E-05 7.32451E-19-4.86887E-19
 -1       647 1.19571E-04-5.00855E-05-2.97567E-05 9.45321E-06 1.43026E-18-8.86321E-19
 -1       648 1.31782E-04-5.56293E-05-3.26161E-05 4.26918E-07 1.47900E-18-4.63731E-19
 -1       649 1.23066E-04-5.24466E-05-3.02608E-05-7.52324E-06 1.19356E-19-7.94976E-19
 -1       650 1.11624E-04-4.38603E-05-2.90412E-05-1.26899E-05 8.36740E-19-6.29226E-19
 -1       651 1.03953E-04-3.65005E-05-2.88979E-05-1.40131E-05 1.94355E-18 4.84120E-19
 -1       652 9.94016E-05-3.14216E-05-2.91318E-05-1.34893E-05 1.19483E-18 2.58841E-19
 -1       653 9.70244E-05-2.84496E-05-2.93883E-05-1.21686E-05 8.95023E-19 1.32430E-18
 -1       654 9.59193E-05-2.69624E-05-2.95520E-05-1.05946E-05-9.87111E-19 1.09814E-18
 -1       655 9.54776E-05-2.63863E-05-2.96096E-05-8.99551E-06-8.57399E-19 1.23031E-18
 -1       656 9.53448E-05-2.63156E-05-2.95829E-05-7.48213E-06-9.95148E-19 6.81013E-19
 -1       657 9.53335E-05-2.64946E-05-2.95015E-05-6.11046E-06-7.86912E-19 9.07370E-19
 -1       658 9.53553E-05-2.67747E-05-2.93909E-05-4.90624E-06-6.96777E-19 1.46972E-18
 -1       659 9.53744E-05-2.70758E-05-2.92702E-05-3.87592E-06-1.21080E-18 6.96812E-19
 -1       660 9.53805E-05-2.73586E-05-2.91517E-05-3.01338E-06 4.20927E-19 6.97819E-19
 -1       661 9.53742E-05-2.76068E-05-2.90428E-05-2.30491E-06 2.97200E-19-2.88383E-19
 -1       662 9.53592E-05-2.78155E-05-2.89470E-05-1.73282E-06-8.74951E-21-8.22168E-19
 -1       663 9.53394E-05-2.79861E-05-2.88655E-05-1.27799E-06 2.74014E-19 2.57001E-19
 -1       664 9.53175E-05-2.81220E-05-2.87979E-05-9.21592E-07 1.64347E-18-1.56617E-18
 -1       665 9.52955E-05-2.82282E-05-2.87430E-05-6.46077E-07-1.41944E-19-4.49785E-19
 -1       666 9.52737E-05-2.83099E-05-2.86987E-05-4.36654E-07-2.67849E-18-5.99703E-19
 -1       667 8.43002E-05-4.10495E-05-1.82196E-05 3.72991E-05-1.31105E-19 3.72999E-19
 -1       668 9.53426E-05-2.73913E-05-2.91208E-05-1.17968E-06 7.33166E-19-7.50923E-19
 -1       669 9.55850E-05-2.80241E-05-2.89543E-05-3.49917E-06-1.82834E-19-2.21908E-19
 -1       670 9.58442E-05-2.81033E-05-2.90314E-05-4.08266E-06 4.78370E-20-5.06172E-19
 -1       671 9.62104E-05-2.82095E-05-2.91428E-05-4.65854E-06 6.23549E-19-3.69590E-19
 -1       672 9.67116E-05-2.84057E-05-2.92736E-05-5.22634E-06 6.40267E-19-3.76863E-19
 -1       673 9.73951E-05-2.87714E-05-2.94100E-05-5.74689E-06 2.68009E-19 4.40594E-19
 -1       674 9.83316E-05-2.94046E-05-2.95404E-05-6.13511E-06-1.17942E-19 9.50866E-19
 -1       675 9.96146E-05-3.04152E-05-2.96578E-05-6.25079E-06 8.77875E-21 8.37882E-19
 -1       676 1.01347E-04-3.18968E-05-2.97662E-05-5.89123E-06 6.00354E-19 6.55756E-19
 -1       677 1.03599E-04-3.38625E-05-2.98900E-05-4.79379E-06 1.34979E-19 1.11783E-18
 -1       678 1.06314E-04-3.61242E-05-3.00853E-05-2.67220E-06-1.62638E-19 1.56863E-18
 -1       679 1.09158E-04-3.81242E-05-3.04469E-05 6.58693E-07-6.46078E-19 1.28290E-18
 -1       680 1.11405E-04-3.88523E-05-3.10947E-05 4.99058E-06-5.15676E-19 1.69571E-18
 -1       681 1.11935E-04-3.69963E-05-3.21256E-05 9.36398E-06 7.66728E-20 2.60039E-18
 -1       682 1.10094E-04-3.20523E-05-3.34566E-05 1.15897E-05 3.20788E-19 1.56449E-18
 -1       683 1.06405E-04-2.52505E-05-3.47885E-05 9.59701E-06-3.17260E-19 9.48412E-19
 -1       684 1.04218E-04-2.15063E-05-3.54886E-05 2.81440E-06-5.41373E-19 1.21027E-18
 -1       685 1.04480E-04-2.19356E-05-3.54033E-05-5.53809E-06 5.16770E-19 5.98806E-19
 -1       686 1.07827E-04-2.76331E-05-3.43915E-05-1.08684E-05 1.01117E-18-8.84041E-20
 -1       687 1.10996E-04-3.39996E-05-3.30131E-05-1.13282E-05 7.82125E-19-3.23169E-19
 -1       688 1.12026E-04-3.79249E-05-3.17633E-05-8.10476E-06 8.34361E-20 1.41745E-18
 -1       689 1.10812E-04-3.87764E-05-3.08759E-05-3.61828E-06-1.46279E-19 1.38307E-18
 -1       690 1.08267E-04-3.74583E-05-3.03495E-05 3.80924E-07 2.03601E-19 8.70988E-19
 -1       691 1.05427E-04-3.52651E-05-3.00722E-05 3.21786E-06-1.86061E-19 6.36950E-19
 -1       692 1.02874E-04-3.30481E-05-2.99274E-05 4.87278E-06 7.63893E-19 2.12369E-19
 -1       693 1.00830E-04-3.12234E-05-2.98326E-05 5.58296E-06-7.29568E-19-7.03024E-19
 -1       694 9.92939E-05-2.98955E-05-2.97426E-05 5.63565E-06-1.53913E-18 3.46767E-20
 -1       695 9.81762E-05-2.90159E-05-2.96400E-05 5.27747E-06-9.50305E-19 4.51281E-19
 -1       696 9.73731E-05-2.84840E-05-2.95235E-05 4.69503E-06 1.36328E-18 1.34868E-18
 -1       697 9.67958E-05-2.81977E-05-2.93986E-05 4.01900E-06 4.06634E-19 1.52310E-18
 -1       698 9.63777E-05-2.80728E-05-2.92729E-05 3.33481E-06-9.34867E-21 1.01969E-18
 -1       699 9.60716E-05-2.80468E-05-2.91529E-05 2.69401E-06-9.73411E-19 2.48725E-18
 -1       700 9.58454E-05-2.80764E-05-2.90433E-05 2.12406E-06-1.88298E-18 1.17198E-18
 -1       701 9.56769E-05-2.81333E-05-2.89468E-05 1.63597E-06-3.82247E-19 7.89833E-19
 -1       702 9.55508E-05-2.81997E-05-2.88644E-05 1.23025E-06-5.35830E-19 1.77495E-18
 -1       703 9.54560E-05-2.82650E-05-2.87959E-05 9.01239E-07 7.96047E-20 1.47609E-18
 -1       704 9.53842E-05-2.83232E-05-2.87402E-05 6.40138E-07 7.34766E-19 7.82337E-19
 -1       705 9.53292E-05-2.83719E-05-2.86957E-05 4.37062E-07 8.59270E-19 1.93285E-18
 -1       706 9.52793E-05-2.83811E-05-2.86705E-05 3.25115E-07-1.06480E-18 3.41614E-18
 -1       707 1.29977E-04-5.75495E-05-3.11013E-05 1.09307E-05-8.68268E-19-1.94685E-20
 -1       708 9.48488E-05-2.78718E-05-2.87045E-05 7.56335E-08 2.47685E-19-4.08856E-18
 -1       709 9.52596E-05-2.83552E-05-2.86733E-05-3.24683E-07-1.60207E-18-7.60810E-19
 -1       710 9.49811E-05-2.80186E-05-2.86983E-05 3.16771E-07 6.81069E-19-2.92845E-18
 -1       711 9.48477E-05-2.78690E-05-2.87052E-05-7.41100E-08 1.71287E-19-9.44044E-19
 -1       712 9.48958E-05-2.79240E-05-2.87022E-05 2.12888E-07-5.60386E-19 4.71242E-19
 -1       713 9.48920E-05-2.79153E-05-2.87043E-05-2.10896E-07-1.01878E-18 9.60023E-20
 -1       714 9.49771E-05-2.80071E-05-2.87015E-05-3.17845E-07-2.21840E-20-4.38512E-19
 -1       715 9.50902E-05-2.81332E-05-2.86959E-05-3.74489E-07-7.00666E-19 1.23058E-18
 -1       716 9.54039E-05-2.67962E-05-2.94008E-05 1.42458E-07 6.11446E-19-4.17288E-19
 -1       717 1.02399E-04-5.10909E-05-2.18109E-05-3.36176E-05-8.57515E-19 1.51657E-18
 -1       718 7.30784E-05-3.43618E-05-1.62411E-05-3.49487E-05 1.20395E-18-1.67347E-18
 -1       719 4.65182E-05-1.75629E-05-1.19121E-05-2.19431E-05-1.65926E-19 2.03717E-18
 -1       720 3.77067E-05-1.06380E-05-1.10901E-05-1.58282E-07-9.15632E-19 1.89735E-18
 -1       721 1.18035E-04-1.18315E-05-4.59824E-05 7.44260E-06 1.28744E-18 6.08898E-19
 -1       722 5.33086E-05-1.92262E-05-1.41519E-05 2.56935E-05-7.56242E-19 1.27444E-18
 -1       723 9.54188E-05-2.79180E-05-2.89285E-05-2.87361E-06 1.88334E-19-3.27501E-19
 -1       724 9.53407E-05-2.77315E-05-2.89749E-05-2.13653E-06 4.39490E-19-3.81430E-19
 -1       725 9.51968E-05-2.40419E-05-3.04936E-05-3.55940E-06-5.89445E-19-7.40238E-19
 -1       726 1.34421E-04-4.38782E-05-3.90581E-05-7.56672E-06 1.03338E-18-1.42937E-18
 -1       727 9.19166E-05-1.72729E-05-3.19960E-05 3.62703E-06 7.11684E-19-8.72222E-19
 -1       728 9.18803E-05-1.72111E-05-3.20068E-05-3.57791E-06-3.71469E-19-1.11966E-18
 -1       729 5.56939E-05-2.52665E-05-1.25720E-05 3.08308E-05 4.35825E-19-6.06370E-19
 -1       730 1.30567E-04-3.21187E-05-4.25846E-05 1.28719E-05 3.28358E-19 1.14686E-18
 -1       731 1.35740E-04-4.96007E-05-3.71278E-05 3.21229E-06-3.76658E-19 6.03511E-19
 -1       732 7.50689E-05-3.57130E-05-1.65159E-05-3.66465E-05-1.01972E-18-4.33125E-19
 -1       733 1.39981E-04-4.67404E-05-4.03690E-05-1.31460E-05-9.35760E-19 5.17908E-19
 -1       734 8.70478E-05-4.32694E-05-1.83894E-05 3.56474E-05 9.32213E-19 1.87741E-18
 -1       735 1.28944E-04-6.00086E-05-2.95248E-05-1.36359E-05 1.43571E-18 1.23564E-18
 -1       736 1.08630E-04-5.32820E-05-2.34750E-05-2.90448E-05 4.04776E-19 1.44088E-18
 -1       737 1.26912E-04-5.85110E-05-2.93368E-05-1.64141E-05-6.70294E-19 6.57152E-19
 -1       738 1.17231E-04-9.60637E-06-4.66422E-05-3.17658E-06 1.04392E-18 9.60880E-19
 -1       739 9.27823E-05-1.86192E-05-3.17880E-05-4.83243E-06-5.57132E-19-9.30170E-19
 -1       740 9.10048E-05-1.59005E-05-3.21928E-05-7.14118E-07 1.57664E-19-1.34031E-18
 -1       741 1.22639E-04-1.47447E-05-4.68287E-05-4.53058E-06-2.13553E-18-2.58876E-18
 -1       742 1.25818E-04-3.24643E-05-4.02554E-05-1.41750E-05 1.68030E-18-2.96872E-19
 -1       743 9.50913E-05-2.81432E-05-2.86921E-05 3.71496E-07 1.46129E-18-3.06219E-18
 -1       744 9.51909E-05-2.82638E-05-2.86830E-05 3.67509E-07 2.52999E-19-1.16679E-19
 -1       745 6.26696E-05-2.54654E-05-1.55674E-05-3.02626E-05-6.60275E-19-9.95555E-19
 -1       746 1.27621E-04-5.96301E-05-2.91081E-05 1.53576E-05 1.85243E-18-8.77010E-19
 -1       747 1.18822E-04-2.23203E-05-4.16347E-05 1.28537E-05 1.75296E-19 1.29533E-18
 -1       748 4.71796E-05-1.60597E-05-1.28623E-05 1.81684E-05 3.45391E-19-1.65428E-18
 -1       749 9.12904E-05-1.63228E-05-3.21344E-05-2.17218E-06-7.41885E-20-1.15904E-18
 -1       750 4.09030E-05-1.21866E-05-1.18177E-05-9.54921E-06-2.72470E-19-1.35893E-18
 -1       751 9.51740E-05-2.82123E-05-2.86979E-05-4.19707E-07-3.04164E-18-1.10185E-18
 -1       752 1.15173E-04-5.31541E-05-2.65366E-05-2.02306E-05-5.48136E-19 4.39699E-19
 -1       753 9.45636E-05-2.23732E-05-3.09368E-05 3.38015E-06 9.12328E-19-6.21354E-19
 -1       754 9.27579E-05-4.15717E-05-2.18016E-05-2.99307E-05-4.74147E-19 4.28513E-19
 -1       755 1.09472E-04-1.38778E-05-4.11852E-05 2.34403E-06 3.37437E-19 2.61775E-19
 -1       756 9.56402E-05-2.61340E-05-2.97883E-05 4.81721E-07-4.19869E-19-7.17828E-19
 -1       757 9.56143E-05-2.67740E-05-2.95029E-05 1.64795E-06-4.96395E-19-7.83004E-19
 -1       758 9.54368E-05-2.70287E-05-2.93177E-05 2.58398E-06-3.87188E-19-5.36160E-19
 -1       759 9.51505E-05-2.69995E-05-2.92075E-05 3.40020E-06 2.03171E-19-3.55831E-19
 -1       760 9.47683E-05-2.67549E-05-2.91485E-05 4.18614E-06 1.95544E-19-4.73061E-19
 -1       761 9.42879E-05-2.63478E-05-2.91170E-05 5.01315E-06-7.49869E-20-3.48617E-19
 -1       762 9.37023E-05-2.58302E-05-2.90879E-05 5.93616E-06-3.99873E-19-2.20036E-20
 -1       763 9.30109E-05-2.52699E-05-2.90316E-05 6.99862E-06-2.87589E-19 8.26911E-19
 -1       764 9.22374E-05-2.47725E-05-2.89132E-05 8.23975E-06-1.97896E-19 1.01086E-18
 -1       765 9.14586E-05-2.45128E-05-2.86906E-05 9.70642E-06-3.92825E-19 4.52912E-19
 -1       766 9.08548E-05-2.47777E-05-2.83177E-05 1.14698E-05-5.33455E-19-1.89681E-19
 -1       767 9.07940E-05-2.60258E-05-2.77535E-05 1.36332E-05-4.23672E-19 2.84228E-19
 -1       768 9.19036E-05-2.89119E-05-2.69859E-05 1.63538E-05-1.65049E-19 9.82557E-19
 -1       769 9.58692E-05-3.46755E-05-2.62363E-05 1.92727E-05 1.99890E-19 1.14381E-18
 -1       770 1.04116E-04-4.39259E-05-2.57503E-05 2.19402E-05 3.61346E-19 6.72460E-19
 -1       771 5.22608E-05-1.36903E-05-1.62634E-05-1.12581E-05 1.30250E-18 7.76451E-19
 -1       772 9.73331E-05-3.65908E-05-2.60285E-05-2.02380E-05 1.37647E-18 1.06771E-18
 -1       773 9.24391E-05-2.98345E-05-2.68187E-05-1.68197E-05 8.90948E-19 1.65603E-19
 -1       774 9.08164E-05-2.63263E-05-2.76340E-05-1.38894E-05 1.08908E-18-9.02327E-19
 -1       775 9.06190E-05-2.46876E-05-2.82547E-05-1.15059E-05 5.38261E-19-1.09464E-18
 -1       776 9.10904E-05-2.41804E-05-2.86748E-05-9.54233E-06-3.14895E-19-1.99928E-19
 -1       777 9.17970E-05-2.42968E-05-2.89281E-05-7.89039E-06-1.16414E-18-4.92252E-19
 -1       778 9.25208E-05-2.47194E-05-2.90573E-05-6.47606E-06-8.38127E-19 4.38187E-19
 -1       779 9.31650E-05-2.52605E-05-2.91016E-05-5.25869E-06-1.17469E-18 1.05311E-19
 -1       780 9.36974E-05-2.58155E-05-2.90920E-05-4.21591E-06-7.73334E-19-1.72402E-19
 -1       781 9.41176E-05-2.63310E-05-2.90512E-05-3.33245E-06 3.85957E-19 2.90800E-18
 -1       782 9.44391E-05-2.67839E-05-2.89949E-05-2.59451E-06 7.21525E-19 2.62926E-18
 -1       783 9.46792E-05-2.71674E-05-2.89335E-05-1.98756E-06 5.16948E-19 1.75575E-18
 -1       784 9.48547E-05-2.74835E-05-2.88733E-05-1.49619E-06 4.56014E-19 1.39177E-18
 -1       785 9.49802E-05-2.77385E-05-2.88178E-05-1.10456E-06-5.26975E-19 9.04974E-20
 -1       786 9.50685E-05-2.79410E-05-2.87689E-05-7.97974E-07 8.55084E-19-1.61259E-18
 -1       787 9.51358E-05-2.80956E-05-2.87315E-05-5.87372E-07-1.28217E-18-1.24068E-18
 -1       788 9.85229E-05-4.41211E-05-2.32152E-05 2.76382E-05-8.42824E-19-7.60311E-19
 -1       789 9.56524E-05-2.70664E-05-2.93939E-05-1.50331E-06 3.76315E-19-5.13371E-19
 -1       790 9.54378E-05-2.75997E-05-2.90733E-05-3.90336E-06 3.41341E-19-1.79200E-19
 -1       791 9.56755E-05-2.77810E-05-2.90975E-05-5.98943E-06-3.14225E-19 1.71973E-19
 -1       792 9.61184E-05-2.82143E-05-2.91017E-05-6.69064E-06-1.44664E-19 4.93230E-19
 -1       793 9.69379E-05-2.90682E-05-2.90870E-05-7.30520E-06 5.03432E-20 1.04788E-18
 -1       794 9.83193E-05-3.05160E-05-2.90588E-05-7.69824E-06 2.64406E-19 5.60061E-19
 -1       795 1.00483E-04-3.27104E-05-2.90462E-05-7.64947E-06 1.51705E-19 8.76825E-19
 -1       796 1.03623E-04-3.56834E-05-2.91185E-05-6.81565E-06-1.64256E-19 8.33159E-19
 -1       797 1.07754E-04-3.91418E-05-2.94064E-05-4.72262E-06-6.52760E-19 1.03765E-18
 -1       798 1.12421E-04-4.21407E-05-3.01173E-05-8.22207E-07-9.89739E-19 8.15352E-19
 -1       799 1.16337E-04-4.28271E-05-3.15130E-05 4.78727E-06-5.36968E-19 7.57823E-19
 -1       800 1.17343E-04-3.88682E-05-3.36405E-05 1.06089E-05 7.03783E-19 4.23811E-19
 -1       801 1.14154E-04-2.94746E-05-3.64629E-05 1.35561E-05 2.75815E-20 1.82790E-18
 -1       802 1.10154E-04-2.26806E-05-3.76435E-05-1.08049E-05 1.81745E-18-3.36600E-19
 -1       803 1.14792E-04-3.27751E-05-3.52102E-05-1.28138E-05 6.06783E-19-1.80626E-19
 -1       804 1.16462E-04-4.00006E-05-3.28003E-05-9.09524E-06-2.33291E-19 1.42941E-19
 -1       805 1.14667E-04-4.22780E-05-3.10360E-05-3.41059E-06-7.02043E-19-4.00930E-19
 -1       806 1.10715E-04-4.07625E-05-2.99796E-05 1.54400E-06 1.36599E-19 1.62029E-18
 -1       807 1.06396E-04-3.76538E-05-2.94631E-05 4.75449E-06 5.14676E-19 1.95509E-18
 -1       808 1.02712E-04-3.44225E-05-2.92682E-05 6.42742E-06 6.31264E-19-2.71407E-19
 -1       809 9.99560E-05-3.17579E-05-2.92284E-05 6.98290E-06-2.63292E-19 8.31478E-20
 -1       810 9.80626E-05-2.98358E-05-2.92403E-05 6.84144E-06-7.35287E-19 1.63633E-18
 -1       811 9.68406E-05-2.85875E-05-2.92513E-05 6.30254E-06-3.26921E-19 5.06145E-20
 -1       812 9.60924E-05-2.78629E-05-2.92410E-05 5.56529E-06 3.36886E-19-7.42133E-19
 -1       813 9.56568E-05-2.75079E-05-2.92064E-05 4.75798E-06 7.60472E-19-1.12576E-18
 -1       814 9.54171E-05-2.73941E-05-2.91524E-05 3.96057E-06-7.01176E-19-2.66012E-19
 -1       815 9.52944E-05-2.74254E-05-2.90864E-05 3.22025E-06-1.94724E-18 1.97310E-18
 -1       816 9.52383E-05-2.75352E-05-2.90154E-05 2.56216E-06-1.33587E-18 2.62120E-18
 -1       817 9.52178E-05-2.76794E-05-2.89449E-05 1.99639E-06-9.49563E-19 1.78534E-18
 -1       818 9.52144E-05-2.78303E-05-2.88787E-05 1.52305E-06-7.32364E-19 1.63819E-18
 -1       819 9.52183E-05-2.79729E-05-2.88193E-05 1.13621E-06 2.81003E-19 8.26212E-19
 -1       820 9.52220E-05-2.80971E-05-2.87677E-05 8.27405E-07 4.12585E-19-1.32273E-19
 -1       821 9.52240E-05-2.82007E-05-2.87242E-05 5.85339E-07-7.88266E-19 1.52109E-18
 -1       822 9.52025E-05-2.82314E-05-2.87021E-05 4.66897E-07-8.36881E-19 1.52046E-18
 -1       823 9.47016E-05-2.76815E-05-2.87229E-05-1.92254E-07 1.36861E-18-4.40430E-19
 -1       824 1.28445E-04-4.99264E-05-3.37612E-05-3.38045E-06-6.27455E-19-3.96550E-19
 -1       825 9.49418E-05-2.79173E-05-2.87248E-05-4.82845E-07-1.14076E-18 3.64965E-19
 -1       826 9.46709E-05-2.76542E-05-2.87215E-05 7.05855E-09 2.77219E-19-2.79484E-18
 -1       827 9.55071E-05-2.75721E-05-2.91149E-05-3.20939E-06-1.82510E-19-1.30274E-19
 -1       828 9.47958E-05-2.77723E-05-2.87244E-05-3.64217E-07-1.52981E-18-2.33385E-20
 -1       829 9.54714E-05-2.76132E-05-2.90819E-05-5.27612E-06 4.81573E-19-3.46193E-19
 -1       830 9.54124E-05-2.75858E-05-2.90684E-05-4.58159E-06 3.30267E-19-5.30860E-19
 -1       831 1.01847E-04-4.40729E-05-2.46088E-05-2.47894E-05 3.76559E-19 1.77149E-18
 -1       832 6.71713E-05-2.43186E-05-1.81363E-05-2.54688E-05 8.60440E-19-7.72176E-19
 -1       833 1.11531E-04-5.28280E-05-2.50837E-05 2.48397E-05 7.05327E-19-8.53187E-20
 -1       834 9.55899E-05-2.74249E-05-2.92135E-05-2.43913E-06 1.33032E-19-2.79062E-19
 -1       835 9.54831E-05-2.50065E-05-3.02026E-05-1.03431E-06-3.48861E-19-6.74763E-19
 -1       836 9.36691E-05-2.01620E-05-3.15029E-05-5.48886E-06-7.66017E-19-8.23461E-19
 -1       837 9.52407E-05-2.42213E-05-3.04371E-05 2.84954E-06 9.08776E-19-4.80961E-19
 -1       838 5.31895E-05-1.31099E-05-1.69213E-05 9.21751E-06 4.88702E-19 6.00030E-19
 -1       839 1.18506E-04-5.37818E-05-2.77317E-05 1.62103E-05-1.48282E-18-8.19306E-19
 -1       840 7.61354E-05-3.17000E-05-1.87969E-05 2.96249E-05 9.22842E-19 8.09446E-19
 -1       841 7.33601E-05-2.73387E-05-1.95755E-05 2.67975E-05-7.03335E-20 5.67380E-19
 -1       842 1.27205E-04-5.19935E-05-3.22862E-05-9.94896E-07-1.00908E-18 1.23744E-18
 -1       843 1.27151E-04-4.10766E-05-3.71167E-05 1.11430E-05-4.64247E-19 2.40384E-18
 -1       844 1.15171E-04-1.83182E-05-4.18089E-05-1.08920E-05 1.47292E-18-1.60996E-19
 -1       845 9.27807E-05-1.90579E-05-3.15965E-05 1.03692E-06 3.07159E-19-1.13253E-18
 -1       846 9.26389E-05-1.88258E-05-3.16352E-05 1.24652E-08 2.18773E-19-1.22365E-18
 -1       847 9.38390E-05-2.08721E-05-3.12707E-05 2.84914E-06 7.72656E-19-6.71574E-19
 -1       848 8.12251E-05-3.30485E-05-2.04770E-05-2.86497E-05-6.32760E-19 1.32369E-19
 -1       849 9.55407E-05-2.57962E-05-2.98895E-05 8.31367E-07 6.73074E-19-5.90244E-19
 -1       850 9.46751E-05-2.25480E-05-3.09107E-05-3.62640E-06-5.70197E-19-6.79557E-19
 -1       851 9.49510E-05-2.79395E-05-2.87191E-05 4.81162E-07 1.27472E-18-4.78435E-18
 -1       852 9.48056E-05-2.77917E-05-2.87202E-05 3.68437E-07 1.61180E-18-2.17582E-18
 -1       853 9.47077E-05-2.76928E-05-2.87207E-05 2.02787E-07-1.25080E-18-3.12278E-19
 -1       854 5.61132E-05-1.78824E-05-1.60889E-05-2.03225E-05-4.07092E-19-6.79837E-19
 -1       855 6.64407E-05-1.86989E-05-2.03710E-05 1.61941E-05-8.11799E-19 1.59515E-18
 -1       856 9.56417E-05-2.65849E-05-2.95961E-05-4.83892E-07 6.37778E-19-5.20221E-19
 -1       857 9.31960E-05-1.97419E-05-3.14803E-05 2.01593E-06 6.32118E-19-9.17202E-19
 -1       858 6.44213E-05-2.20644E-05-1.78613E-05 2.26193E-05 8.90205E-19 5.46442E-19
 -1       859 9.38037E-05-2.07964E-05-3.12885E-05-2.83842E-06-4.39730E-19-7.85746E-19
 -1       860 4.76658E-05-1.21973E-05-1.48542E-05 4.59825E-06-2.23293E-19-2.26682E-18
 -1       861 9.50323E-05-2.79980E-05-2.87284E-05-5.46190E-07-1.93577E-18-1.55586E-18
 -1       862 9.31563E-05-1.96801E-05-3.14905E-05-1.97847E-06-2.03177E-19-9.50906E-19
 -1       863 9.42724E-05-2.68124E-05-2.89113E-05-5.59797E-06-1.58090E-19 1.68795E-19
 -1       864 1.20655E-04-4.94489E-05-3.04985E-05 3.26883E-06-1.29305E-18 6.29214E-19
 -1       865 9.54250E-05-2.63634E-05-2.95980E-05 1.76122E-06-1.05247E-19-4.23736E-19
 -1       866 9.50667E-05-2.64997E-05-2.93859E-05 2.54515E-06 2.48847E-20-1.65537E-19
 -1       867 9.45079E-05-2.63110E-05-2.92272E-05 3.25053E-06 3.63518E-20 2.10272E-20
 -1       868 9.37601E-05-2.58667E-05-2.90972E-05 3.94230E-06 1.03072E-19-1.28959E-19
 -1       869 9.28183E-05-2.52260E-05-2.89681E-05 4.67216E-06 1.97997E-20 2.37259E-19
 -1       870 9.16665E-05-2.44476E-05-2.88081E-05 5.48474E-06-3.23291E-20 4.33495E-19
 -1       871 9.02878E-05-2.36055E-05-2.85781E-05 6.42702E-06 1.49743E-19 1.90990E-19
 -1       872 8.86766E-05-2.28072E-05-2.82298E-05 7.56486E-06-4.88743E-19 3.78342E-19
 -1       873 8.68569E-05-2.22177E-05-2.77026E-05 9.01403E-06-5.36427E-19 3.89834E-19
 -1       874 8.49175E-05-2.20980E-05-2.69218E-05 1.09888E-05-3.10183E-19 4.22269E-19
 -1       875 8.30924E-05-2.28909E-05-2.57967E-05 1.38827E-05-3.89139E-20-6.02394E-21
 -1       876 8.23492E-05-2.52752E-05-2.44044E-05 1.84294E-05-1.36495E-19 2.11065E-19
 -1       877 8.19534E-05-2.61207E-05-2.38690E-05-1.92614E-05 5.31369E-19 6.34689E-19
 -1       878 6.74807E-05-1.87837E-05-2.07848E-05-1.58522E-05 1.29074E-18-8.94771E-19
 -1       879 9.53488E-05-2.45821E-05-3.03303E-05 1.42258E-06 7.23664E-19-6.41603E-19
 -1       880 1.22024E-04-4.37673E-05-3.35530E-05 7.55450E-06-1.43565E-20 9.20331E-19
 -1       881 8.24418E-05-2.29927E-05-2.54811E-05-1.44714E-05 5.76896E-19 3.17758E-19
 -1       882 8.41256E-05-2.18136E-05-2.67069E-05-1.12158E-05-1.08058E-19 2.57248E-19
 -1       883 8.60048E-05-2.16957E-05-2.75623E-05-8.97100E-06 4.45402E-19-9.32946E-19
 -1       884 8.77835E-05-2.21353E-05-2.81358E-05-7.32054E-06-6.90571E-19-1.19247E-18
 -1       885 8.93492E-05-2.28444E-05-2.85027E-05-6.01943E-06-1.14256E-18-2.09320E-20
 -1       886 9.06692E-05-2.36506E-05-2.87226E-05-4.94069E-06-5.30071E-19 8.29089E-20
 -1       887 9.17492E-05-2.44528E-05-2.88415E-05-4.02288E-06-9.42052E-19 1.50608E-18
 -1       888 9.26131E-05-2.51957E-05-2.88934E-05-3.23679E-06 5.60981E-19 8.44516E-19
 -1       889 9.32919E-05-2.58531E-05-2.89025E-05-2.56749E-06 1.17390E-18 7.99636E-19
 -1       890 9.38169E-05-2.64165E-05-2.88860E-05-2.00482E-06 7.19571E-19 1.67634E-18
 -1       891 9.42171E-05-2.68875E-05-2.88556E-05-1.53909E-06 3.56479E-19 1.04394E-18
 -1       892 9.45176E-05-2.72731E-05-2.88191E-05-1.16048E-06-1.25406E-18 1.19528E-18
 -1       893 9.47409E-05-2.75841E-05-2.87815E-05-8.57861E-07 1.68566E-19 8.57483E-19
 -1       894 9.50846E-05-2.80887E-05-2.87123E-05 4.95484E-07-9.50281E-20-5.14720E-19
 -1       895 9.53694E-05-2.47242E-05-3.02767E-05-3.53743E-07-4.00424E-19-9.61921E-19
 -1       896 9.41617E-05-2.69466E-05-2.88064E-05-6.49294E-06 8.76395E-20 1.01419E-19
 -1       897 9.64491E-05-3.04106E-05-2.83021E-05-9.47559E-06 3.61163E-20 1.62931E-19
 -1       898 9.90422E-05-3.33749E-05-2.81430E-05-1.01867E-05-5.14215E-19 5.61662E-19
 -1       899 1.03188E-04-3.75246E-05-2.81401E-05-1.01756E-05-2.47181E-19 6.89218E-19
 -1       900 1.09073E-04-4.25075E-05-2.85285E-05-8.68368E-06 1.19924E-19 4.17907E-19
 -1       901 1.16372E-04-4.70364E-05-2.97384E-05-4.56957E-06-8.52274E-19-8.37873E-19
 -1       902 1.20936E-04-3.87454E-05-3.53352E-05-1.15126E-05 5.26401E-19-4.75396E-19
 -1       903 1.13755E-04-4.51990E-05-2.94240E-05 4.95319E-06-1.91897E-18 4.89787E-19
 -1       904 1.07307E-04-4.05919E-05-2.85962E-05 8.18461E-06-2.70429E-19 1.17701E-18
 -1       905 1.01982E-04-3.58987E-05-2.83211E-05 9.42421E-06 1.84804E-18-3.69091E-20
 -1       906 9.83512E-05-3.21611E-05-2.83664E-05 9.26492E-06-4.04898E-20-9.44090E-20
 -1       907 9.60845E-05-2.95398E-05-2.85188E-05 8.49215E-06-6.58788E-19 3.22655E-19
 -1       908 9.48032E-05-2.78816E-05-2.86805E-05 7.47911E-06-1.02067E-18 7.64473E-19
 -1       909 9.41774E-05-2.69538E-05-2.88100E-05 6.41210E-06 2.23894E-19 1.35407E-18
 -1       910 9.39581E-05-2.65358E-05-2.88952E-05 5.38321E-06 5.67358E-19 1.86411E-18
 -1       911 9.39718E-05-2.64486E-05-2.89385E-05 4.43791E-06-5.29251E-19 1.90358E-18
 -1       912 9.41048E-05-2.65591E-05-2.89481E-05 3.59601E-06-2.03590E-18 5.66765E-20
 -1       913 9.42869E-05-2.67752E-05-2.89335E-05 2.86486E-06-1.71395E-18-2.18532E-19
 -1       914 9.44767E-05-2.70348E-05-2.89036E-05 2.24378E-06-1.28295E-18 3.84782E-19
 -1       915 9.46517E-05-2.72991E-05-2.88654E-05 1.72652E-06-4.86544E-19-1.30602E-19
 -1       916 9.48023E-05-2.75456E-05-2.88242E-05 1.30505E-06 2.65963E-19-1.08591E-18
 -1       917 9.49240E-05-2.77617E-05-2.87836E-05 9.66139E-07-1.19320E-19 1.49893E-20
 -1       918 9.51826E-05-2.70785E-05-2.91874E-05-3.32388E-06 2.62145E-19-6.02238E-19
 -1       919 9.50067E-05-2.85173E-05-2.84954E-05-8.49858E-06 2.82053E-19-1.98398E-19
 -1       920 6.02388E-05-1.34746E-05-1.99481E-05-2.26573E-06 3.66674E-19 8.70393E-20
 -1       921 9.56370E-05-2.67134E-05-2.95385E-05-1.73548E-06 1.39636E-19-4.97388E-19
 -1       922 9.44568E-05-2.74001E-05-2.87386E-05-1.18876E-07 1.26974E-19-2.14683E-20
 -1       923 9.54584E-05-2.70180E-05-2.93316E-05-2.57877E-06-1.31707E-19-4.69226E-19
 -1       924 9.27674E-05-1.90342E-05-3.16011E-05-1.01015E-06 4.29903E-21-1.04139E-18
 -1       925 1.20267E-04-4.62898E-05-3.17213E-05-3.09092E-06-6.55540E-19 5.32373E-20
 -1       926 8.98680E-05-3.44216E-05-2.37400E-05 2.25187E-05-6.80829E-19-1.48521E-18
 -1       927 9.43383E-05-2.74436E-05-2.86691E-05-7.47211E-06-2.10747E-19-1.21392E-19
 -1       928 1.08732E-04-4.65194E-05-2.66314E-05 1.72638E-05-1.20250E-18-1.65230E-18
 -1       929 9.55494E-05-2.58121E-05-2.98876E-05 8.29887E-07-3.59901E-19-8.43322E-19
 -1       930 9.45460E-05-2.25438E-05-3.08611E-05-1.35384E-06-3.92399E-19-7.80666E-19
 -1       931 1.18883E-04-5.05050E-05-2.93465E-05-7.68945E-06-6.13621E-19 8.54889E-19
 -1       932 1.04347E-04-4.45376E-05-2.55753E-05-2.05055E-05-4.70490E-19 7.04794E-19
 -1       933 7.22161E-05-2.51620E-05-2.00290E-05-2.37265E-05-9.74816E-19-2.43138E-19
 -1       934 9.38880E-05-2.12789E-05-3.11184E-05 2.91257E-07 2.93152E-19-1.07404E-18
 -1       935 9.57137E-05-3.88231E-05-2.43358E-05-2.25681E-05-1.07088E-18 1.40293E-19
 -1       936 9.49773E-05-2.79094E-05-2.87435E-05 6.76939E-07 1.66014E-19-2.07918E-19
 -1       937 9.49122E-05-2.78160E-05-2.87554E-05-6.92558E-07 2.74279E-19 1.27670E-19
 -1       938 9.45411E-05-2.74737E-05-2.87432E-05-3.70391E-07-4.94480E-19-2.34434E-18
 -1       939 9.48583E-05-2.69976E-05-2.90831E-05-4.04144E-06 3.45371E-19-3.04278E-19
 -1       940 1.19384E-04-2.89949E-05-3.89024E-05-1.38379E-05 1.74538E-18 5.05096E-19
 -1       941 9.41190E-05-2.17038E-05-3.10374E-05 8.48800E-07 4.50013E-19-9.13558E-19
 -1       942 9.47598E-05-2.76989E-05-2.87405E-05 5.72944E-07 3.39417E-19-2.91020E-18
 -1       943 5.42728E-05-1.35675E-05-1.72291E-05-8.12476E-06-7.04434E-19-8.65165E-19
 -1       944 9.44640E-05-2.74111E-05-2.87371E-05 1.46646E-07-1.29570E-18-3.12065E-19
 -1       945 8.02486E-05-2.56674E-05-2.33497E-05 1.83238E-05-4.63909E-19 1.87586E-19
 -1       946 6.63725E-05-1.54714E-05-2.17788E-05 6.27839E-06-7.39906E-19-8.39487E-19
 -1       947 9.56792E-05-2.62437E-05-2.97582E-05-8.69260E-07 3.02936E-19-4.23762E-19
 -1       948 9.45342E-05-2.68728E-05-2.89977E-05-4.78727E-06 1.43498E-19 1.98474E-20
 -1       949 5.93228E-05-1.59758E-05-1.83959E-05 1.32961E-05 4.05108E-19-9.53852E-19
 -1       950 9.47421E-05-2.76619E-05-2.87487E-05-5.79620E-07-2.80159E-19 3.55019E-19
 -1       951 9.98348E-05-3.67568E-05-2.70241E-05 1.39402E-05 9.47623E-19-4.54636E-19
 -1       952 9.50522E-05-2.59831E-05-2.96011E-05 1.61466E-06 2.03264E-19-7.43104E-19
 -1       953 9.49265E-05-2.34066E-05-3.06510E-05 1.14051E-06 5.50510E-19-5.09954E-19
 -1       954 9.44783E-05-2.59626E-05-2.93640E-05 2.18394E-06 4.07802E-19-5.59601E-19
 -1       955 9.36357E-05-2.55951E-05-2.91603E-05 2.70075E-06 2.09205E-19-2.05951E-19
 -1       956 9.25337E-05-2.49564E-05-2.89618E-05 3.20174E-06-6.33689E-20-2.59755E-19
 -1       957 9.11569E-05-2.41051E-05-2.87366E-05 3.71608E-06 1.15349E-19-4.21597E-19
 -1       958 8.94717E-05-2.30982E-05-2.84460E-05 4.27365E-06-2.44006E-19-5.50384E-19
 -1       959 8.74268E-05-2.20007E-05-2.80402E-05 4.91378E-06 1.05678E-19-4.62951E-19
 -1       960 8.49467E-05-2.08888E-05-2.74542E-05 5.70935E-06-4.75188E-19-4.22709E-19
 -1       961 8.19216E-05-1.98562E-05-2.66009E-05 6.80997E-06-5.24177E-19-9.08010E-19
 -1       962 7.81893E-05-1.90336E-05-2.53541E-05 8.51068E-06-3.71400E-19-3.63351E-19
 -1       963 7.36756E-05-1.86828E-05-2.35582E-05 1.13515E-05 1.71276E-20-3.99616E-19
 -1       964 7.31705E-05-1.81390E-05-2.35522E-05-1.10763E-05 7.72251E-19-1.25652E-18
 -1       965 7.78115E-05-1.85514E-05-2.53895E-05-8.13181E-06 7.67561E-19-1.66614E-18
 -1       966 8.14590E-05-1.93376E-05-2.66223E-05-6.37905E-06 9.01863E-20-1.92399E-18
 -1       967 8.43690E-05-2.03054E-05-2.74557E-05-5.22631E-06-2.66425E-19-2.36317E-18
 -1       968 8.67111E-05-2.13538E-05-2.80103E-05-4.36718E-06-2.74073E-19-1.80857E-18
 -1       969 8.86000E-05-2.24038E-05-2.83696E-05-3.66381E-06-3.74772E-19-8.61314E-19
 -1       970 9.01196E-05-2.34019E-05-2.85931E-05-3.05367E-06 3.61099E-20-8.79978E-19
 -1       971 9.13337E-05-2.43126E-05-2.87233E-05-2.51317E-06 5.84008E-19 3.50294E-19
 -1       972 9.22966E-05-2.51194E-05-2.87902E-05-2.03573E-06 1.24768E-18 7.96877E-19
 -1       973 9.30518E-05-2.58153E-05-2.88157E-05-1.62076E-06 1.04523E-18 7.47479E-19
 -1       974 9.36374E-05-2.64023E-05-2.88150E-05-1.26658E-06-9.46218E-20-2.81368E-19
 -1       975 9.40865E-05-2.68888E-05-2.87990E-05-9.72001E-07-8.65759E-20 7.24259E-19
 -1       976 9.44225E-05-2.72809E-05-2.87748E-05-7.30880E-07-6.38444E-19 7.34608E-19
 -1       977 9.26433E-05-2.57997E-05-2.86470E-05-5.59695E-06 1.92794E-19-2.06080E-19
 -1       978 9.60919E-05-3.32646E-05-2.69235E-05-1.36458E-05-3.16299E-19 3.73964E-20
 -1       979 9.34339E-05-2.96698E-05-2.73261E-05-1.16055E-05-1.44133E-19 2.57773E-19
 -1       980 9.46036E-05-2.74717E-05-2.87705E-05 8.37562E-07-1.46105E-18-4.25693E-18
 -1       981 9.31902E-05-2.87473E-05-2.76170E-05 1.04257E-05-4.05117E-19 3.78576E-19
 -1       982 9.20977E-05-2.68088E-05-2.79805E-05 8.64383E-06-8.95446E-19 1.35722E-18
 -1       983 9.17727E-05-2.57795E-05-2.82828E-05 7.08465E-06-1.81352E-18 1.20154E-18
 -1       984 9.18877E-05-2.53648E-05-2.85096E-05 5.75812E-06-3.22169E-19 1.17453E-18
 -1       985 9.22344E-05-2.53478E-05-2.86657E-05 4.64324E-06 4.78223E-19 1.52785E-18
 -1       986 9.26765E-05-2.55632E-05-2.87629E-05 3.71011E-06-4.91306E-19 1.61531E-18
 -1       987 9.31366E-05-2.59030E-05-2.88145E-05 2.93262E-06-1.26906E-18 6.46276E-19
 -1       988 9.35685E-05-2.62917E-05-2.88330E-05 2.29064E-06-1.54819E-18-3.26875E-19
 -1       989 9.39484E-05-2.66805E-05-2.88292E-05 1.76555E-06 1.40274E-19-2.49846E-18
 -1       990 9.42681E-05-2.70418E-05-2.88113E-05 1.34250E-06 8.90476E-19-3.85086E-18
 -1       991 9.44446E-05-2.72652E-05-2.87913E-05 1.06829E-06 6.41119E-19-4.42623E-18
 -1       992 9.50407E-05-2.65490E-05-2.93536E-05-2.49572E-06 1.51735E-19-7.25786E-19
 -1       993 9.38844E-05-2.12687E-05-3.11205E-05-3.03871E-07-2.08940E-20-9.95110E-19
 -1       994 9.22189E-05-2.74800E-05-2.77447E-05-9.69718E-06-2.25627E-19 5.87527E-19
 -1       995 9.55260E-05-3.19442E-05-2.72464E-05 1.23265E-05 7.91964E-19 6.06191E-19
 -1       996 9.53898E-05-2.63632E-05-2.95830E-05-1.78287E-06 7.72685E-20-4.16846E-19
 -1       997 1.01052E-04-3.86688E-05-2.67196E-05-1.52261E-05-3.51911E-19 5.90260E-20
 -1       998 9.45612E-05-2.75041E-05-2.87388E-05 3.91378E-07-3.38269E-19-3.93181E-18
 -1       999 9.54980E-05-2.51787E-05-3.01379E-05 4.31892E-07 6.10101E-19-3.55817E-19
 -1      1000 9.53280E-05-2.55717E-05-2.98953E-05 9.50609E-07-6.77281E-20-5.13560E-19
 -1      1001 9.41150E-05-2.16821E-05-3.10425E-05-8.60442E-07-2.04465E-19-7.40290E-19
 -1      1002 9.52827E-05-2.46699E-05-3.02620E-05 1.32037E-07-3.34919E-19-5.50522E-19
 -1      1003 8.73469E-05-3.24266E-05-2.34575E-05-2.20332E-05-8.91700E-19-4.57368E-19
 -1      1004 6.55071E-05-1.85684E-05-2.00154E-05-1.58329E-05-1.23867E-18-6.96010E-19
 -1      1005 9.45349E-05-2.64762E-05-2.91680E-05-3.17331E-06 3.00821E-19-5.76844E-19
 -1      1006 9.21366E-05-2.58421E-05-2.84117E-05-6.70912E-06 2.15457E-19-2.57655E-19
 -1      1007 1.08768E-04-4.55590E-05-2.70844E-05-1.50195E-05-5.05930E-19 1.46820E-18
 -1      1008 8.99073E-05-3.00562E-05-2.56382E-05 1.59477E-05 5.82239E-19-1.11662E-18
 -1      1009 9.19145E-05-2.63175E-05-2.81131E-05-8.06809E-06-2.87429E-19 3.14790E-19
 -1      1010 9.47342E-05-2.32323E-05-3.06431E-05 1.48823E-07 1.11472E-19-7.12736E-19
 -1      1011 9.46319E-05-2.30392E-05-3.06841E-05-1.86499E-08 1.97473E-20-9.26762E-19
 -1      1012 9.41639E-05-2.70790E-05-2.87506E-05 2.85801E-08-5.90717E-19 6.21180E-19
 -1      1013 5.89723E-05-1.36821E-05-1.92552E-05 1.78700E-06-8.40912E-20-1.02384E-18
 -1      1014 7.53172E-05-2.00872E-05-2.36590E-05 1.19621E-05-1.19333E-18 8.57747E-19
 -1      1015 9.55529E-05-2.59823E-05-2.98165E-05-1.09458E-06 3.69989E-19-3.23936E-19
 -1      1016 9.32716E-05-2.59841E-05-2.88375E-05-4.67090E-06-1.47932E-19 4.05986E-20
 -1      1017 7.07763E-05-1.58514E-05-2.35217E-05-3.04560E-06 2.89664E-19-1.25631E-18
 -1      1018 9.42117E-05-2.71140E-05-2.87562E-05-3.18243E-07-1.00426E-18-2.25779E-18
 -1      1019 9.37992E-05-2.54868E-05-2.92771E-05 1.46916E-06 4.27041E-19-1.01817E-18
 -1      1020 9.26986E-05-2.49517E-05-2.90345E-05 1.73364E-06 2.05100E-19-8.75572E-19
 -1      1021 9.13001E-05-2.41603E-05-2.87746E-05 1.95284E-06 1.17980E-19-3.90993E-19
 -1      1022 8.95699E-05-2.31595E-05-2.84622E-05 2.13680E-06-3.20792E-20-5.35147E-19
 -1      1023 8.74635E-05-2.20114E-05-2.80513E-05 2.28139E-06 7.81852E-20-3.93329E-19
 -1      1024 8.48720E-05-2.07506E-05-2.74818E-05 2.38737E-06-5.69477E-19-1.01060E-18
 -1      1025 8.16389E-05-1.94113E-05-2.66707E-05 2.48559E-06-6.22489E-19-1.05758E-18
 -1      1026 7.74905E-05-1.79979E-05-2.54983E-05 2.65598E-06-5.26110E-19-1.26813E-18
 -1      1027 7.19021E-05-1.64316E-05-2.37620E-05 3.04165E-06 1.27344E-19-8.97291E-19
 -1      1028 9.02394E-05-3.14735E-05-2.51678E-05-1.76748E-05-5.24136E-19-3.91421E-19
 -1      1029 7.70679E-05-1.74881E-05-2.55334E-05-2.39547E-06-7.68480E-19-3.21051E-18
 -1      1030 8.10750E-05-1.88385E-05-2.66731E-05-2.19424E-06-7.66966E-19-3.89773E-18
 -1      1031 8.41262E-05-2.00755E-05-2.74510E-05-2.05528E-06 3.11184E-19-3.34009E-18
 -1      1032 8.65318E-05-2.12636E-05-2.79722E-05-1.91009E-06 5.25262E-19-3.32085E-18
 -1      1033 8.84525E-05-2.23827E-05-2.83158E-05-1.72852E-06 2.35406E-19-2.91981E-18
 -1      1034 8.99864E-05-2.34048E-05-2.85354E-05-1.52098E-06 1.71975E-19-2.26398E-18
 -1      1035 9.12200E-05-2.43289E-05-2.86680E-05-1.30013E-06 1.11297E-18-2.06682E-18
 -1      1036 9.22027E-05-2.51420E-05-2.87405E-05-1.08272E-06 1.70934E-18-1.81229E-18
 -1      1037 9.29768E-05-2.58395E-05-2.87732E-05-8.79546E-07 7.59077E-19-1.48587E-18
 -1      1038 9.35809E-05-2.64278E-05-2.87799E-05-6.94153E-07-9.87022E-19 2.82111E-19
 -1      1039 9.45890E-05-2.56772E-05-2.95340E-05 1.15829E-06 2.66511E-19-3.93707E-19
 -1      1040 8.94189E-05-2.39482E-05-2.80581E-05 5.77083E-06-9.30883E-19 1.01636E-18
 -1      1041 9.43023E-05-2.71963E-05-2.87600E-05 6.07793E-07-3.74025E-19-2.22213E-18
 -1      1042 8.87442E-05-2.42104E-05-2.76585E-05 7.41198E-06-1.62735E-18 2.01074E-18
 -1      1043 8.84172E-05-2.51245E-05-2.71268E-05 9.56416E-06-2.03408E-18 1.45464E-18
 -1      1044 9.02323E-05-2.40921E-05-2.83459E-05 4.49165E-06-3.84075E-19 9.60968E-19
 -1      1045 9.10596E-05-2.44606E-05-2.85430E-05 3.49914E-06-2.76125E-19 1.33338E-18
 -1      1046 9.18455E-05-2.49527E-05-2.86687E-05 2.71300E-06-5.80704E-20 4.57457E-19
 -1      1047 9.25499E-05-2.54875E-05-2.87413E-05 2.09182E-06 6.41633E-20-4.69259E-19
 -1      1048 9.31564E-05-2.60126E-05-2.87761E-05 1.60078E-06 3.53225E-19-2.06805E-18
 -1      1049 9.36581E-05-2.64929E-05-2.87853E-05 1.21267E-06 1.84583E-18-2.90294E-18
 -1      1050 9.48846E-05-2.36795E-05-3.05175E-05-7.48173E-08-1.16100E-19-6.50972E-19
 -1      1051 9.51191E-05-2.48638E-05-3.01086E-05 3.55689E-07-1.53492E-19-5.25554E-19
 -1      1052 8.81847E-05-2.56600E-05-2.67969E-05-1.06375E-05-7.71838E-20 2.41844E-19
 -1      1053 8.85528E-05-2.68685E-05-2.64362E-05 1.23487E-05-5.37417E-19-3.63395E-19
 -1      1054 9.39257E-05-2.62504E-05-2.90037E-05-3.87942E-06-7.52388E-20-4.93139E-19
 -1      1055 9.41896E-05-2.70997E-05-2.87527E-05 3.26848E-07 1.39562E-20-1.15222E-18
 -1      1056 9.54135E-05-2.49894E-05-3.01795E-05-1.18461E-07 5.87994E-19-3.90406E-19
 -1      1057 8.84631E-05-2.77354E-05-2.60277E-05-1.37616E-05 9.29834E-20 6.10914E-21
 -1      1058 9.49884E-05-2.54597E-05-2.97982E-05 7.43868E-07 1.30610E-19-2.52634E-19
 -1      1059 9.49797E-05-2.60296E-05-2.95503E-05-1.58465E-06 2.59039E-19-4.25606E-20
 -1      1060 9.50934E-05-2.40542E-05-3.04438E-05 1.24078E-07 3.68357E-19-3.07297E-19
 -1      1061 6.43887E-05-1.55407E-05-2.08753E-05-7.10652E-06-6.93042E-19-2.85113E-19
 -1      1062 6.42358E-05-1.46903E-05-2.11864E-05 3.16345E-06-1.38061E-19-8.10217E-19
 -1      1063 9.40423E-05-2.69116E-05-2.87707E-05-5.38708E-07 3.15537E-19-2.49856E-18
 -1      1064 7.88110E-05-2.55775E-05-2.27731E-05-1.91716E-05-9.02034E-19-5.98861E-19
 -1      1065 8.26740E-05-2.39685E-05-2.51603E-05 1.31169E-05-6.25807E-19 1.93116E-18
 -1      1066 9.52822E-05-2.56360E-05-2.98478E-05-9.93762E-07 3.45351E-19-1.65773E-19
 -1      1067 9.39545E-05-2.68028E-05-2.87794E-05 9.55884E-07 2.19067E-19-2.87914E-18
 -1      1068 9.50324E-05-2.43570E-05-3.02890E-05-1.46343E-07-1.11221E-19-8.47177E-19
 -1      1069 8.86280E-05-2.46465E-05-2.74213E-05-8.30547E-06-2.82758E-19 3.57798E-19
 -1      1070 9.16845E-05-2.49326E-05-2.86084E-05-4.18047E-06-1.05997E-19-8.75778E-19
 -1      1071 7.39606E-05-1.71097E-05-2.43603E-05 4.05136E-06-7.08298E-19-1.40143E-18
 -1      1072 9.38064E-05-2.67022E-05-2.87587E-05 2.04986E-07-1.23147E-22-1.29678E-18
 -1      1073 9.44168E-05-2.60463E-05-2.93017E-05-2.13936E-06 3.10457E-19-4.11280E-19
 -1      1074 9.38676E-05-2.67576E-05-2.87613E-05-1.89194E-07-6.89311E-19-8.76005E-19
 -1      1075 9.06052E-05-2.45631E-05-2.83043E-05-5.21849E-06-8.23768E-20-4.04865E-19
 -1      1076 9.50394E-05-2.45270E-05-3.02180E-05 4.44894E-08 6.17140E-20-8.15293E-19
 -1      1077 8.93010E-05-2.32700E-05-2.82989E-05 2.89771E-06 1.48318E-19-3.93748E-19
 -1      1078 9.18723E-05-2.44847E-05-2.88783E-05 3.86714E-07 4.83501E-19-7.50883E-19
 -1      1079 9.02529E-05-2.35929E-05-2.85684E-05 2.51243E-07-1.74024E-20-4.68138E-19
 -1      1080 8.83423E-05-2.25780E-05-2.81857E-05-9.71930E-09-1.97815E-19-3.04539E-19
 -1      1081 8.60627E-05-2.14794E-05-2.76812E-05-4.27561E-07-5.98137E-19-9.20635E-19
 -1      1082 8.31943E-05-2.02369E-05-2.69784E-05-1.06550E-06-4.96017E-19-1.10719E-18
 -1      1083 7.95908E-05-1.89597E-05-2.59843E-05-2.11245E-06-3.70437E-19-7.26255E-19
 -1      1084 7.48507E-05-1.75373E-05-2.45549E-05-3.57187E-06-1.94715E-19-1.66271E-19
 -1      1085 9.36469E-05-2.57965E-05-2.90790E-05-2.71396E-06 5.29623E-20-4.18259E-19
 -1      1086 9.41124E-05-2.54658E-05-2.94202E-05 3.94315E-07 6.04242E-20-6.64451E-19
 -1      1087 8.25792E-05-1.96478E-05-2.69683E-05 1.18667E-06-2.44862E-19-3.85255E-19
 -1      1088 8.51600E-05-2.07125E-05-2.76201E-05 5.55166E-07 3.15593E-19-1.44483E-18
 -1      1089 8.72589E-05-2.17851E-05-2.80585E-05 1.89818E-07-7.64214E-19-1.81928E-18
 -1      1090 8.89337E-05-2.27799E-05-2.83520E-05-5.45703E-08 2.71565E-19-2.73277E-18
 -1      1091 9.03407E-05-2.37380E-05-2.85445E-05-1.92982E-07 7.29577E-19-2.80982E-18
 -1      1092 9.14772E-05-2.46011E-05-2.86616E-05-2.50592E-07 1.62416E-18-3.33544E-18
 -1      1093 9.24103E-05-2.53746E-05-2.87279E-05-2.56953E-07 1.97915E-18-2.55733E-18
 -1      1094 9.31422E-05-2.60403E-05-2.87577E-05-2.30936E-07 2.41795E-19-9.33413E-19
 -1      1095 8.65836E-05-2.22821E-05-2.75568E-05 5.18489E-06-1.62472E-18-9.50124E-19
 -1      1096 8.50704E-05-2.21710E-05-2.69569E-05 7.03262E-06-1.53633E-18-4.27814E-19
 -1      1097 9.04612E-05-2.39541E-05-2.85030E-05 2.16223E-06 8.73409E-20 7.81723E-19
 -1      1098 9.14663E-05-2.46517E-05-2.86347E-05 1.62053E-06 3.52087E-19 8.65766E-19
 -1      1099 9.23142E-05-2.53207E-05-2.87122E-05 1.19653E-06 1.61238E-18-8.05427E-19
 -1      1100 9.30392E-05-2.59427E-05-2.87532E-05 8.84657E-07 1.63608E-18-1.97275E-18
 -1      1101 9.51981E-05-2.46982E-05-3.02162E-05-3.29868E-07 1.95565E-19-2.65325E-19
 -1      1102 9.49749E-05-2.55431E-05-2.97559E-05-7.43776E-07 2.07350E-19-2.25044E-19
 -1      1103 7.92017E-05-1.84722E-05-2.60262E-05 2.15801E-06-9.13770E-20-5.98599E-19
 -1      1104 9.27222E-05-2.53900E-05-2.88568E-05-3.37450E-06-1.97358E-19-5.09990E-19
 -1      1105 8.80718E-05-2.27335E-05-2.79987E-05 3.85329E-06-3.46411E-20-1.94465E-19
 -1      1106 8.95417E-05-2.44016E-05-2.79163E-05-6.55147E-06-3.52983E-19 1.37183E-19
 -1      1107 8.02584E-05-2.31547E-05-2.44604E-05-1.36028E-05 5.73087E-19-4.02880E-19
 -1      1108 9.38250E-05-2.67073E-05-2.87646E-05 5.83460E-07 4.57563E-19-1.89003E-18
 -1      1109 8.23209E-05-2.22457E-05-2.57472E-05-9.76701E-06 2.22480E-19-6.66857E-19
 -1      1110 9.31578E-05-2.51359E-05-2.91514E-05 4.17288E-07 2.83073E-19-8.81893E-19
 -1      1111 9.50955E-05-2.50790E-05-3.00071E-05-4.08548E-07 8.69721E-20-5.04167E-19
 -1      1112 6.94686E-05-1.65168E-05-2.26369E-05-5.55092E-06 7.61478E-20 1.70886E-19
 -1      1113 7.24638E-05-1.92992E-05-2.27991E-05-1.20253E-05-1.40031E-19-2.02534E-19
 -1      1114 9.50070E-05-2.51124E-05-2.99556E-05-3.02637E-08 2.03464E-19-9.36091E-19
 -1      1115 9.47045E-05-2.54638E-05-2.96729E-05 2.11113E-07 1.93058E-19-7.99304E-19
 -1      1116 9.44569E-05-2.57089E-05-2.94627E-05-1.09047E-06 4.48150E-19-3.73459E-19
 -1      1117 9.34522E-05-2.63392E-05-2.87621E-05 6.80285E-07 3.13446E-19-1.55169E-18
 -1      1118 8.44404E-05-2.21196E-05-2.67115E-05-7.06751E-06-4.62001E-19-6.59123E-19
 -1      1119 8.98399E-05-2.37336E-05-2.83309E-05-3.21696E-06-2.86886E-19-1.01568E-18
 -1      1120 8.37541E-05-2.27122E-05-2.61624E-05 9.60392E-06-2.02588E-18 1.44956E-18
 -1      1121 9.13237E-05-2.44417E-05-2.86636E-05-2.45880E-06 2.43120E-19-7.31660E-19
 -1      1122 7.90457E-05-1.98058E-05-2.53910E-05 7.55970E-06-4.36238E-19 1.28371E-18
 -1      1123 9.31377E-05-2.60547E-05-2.87511E-05 2.96620E-07 1.15443E-18-2.82784E-18
 -1      1124 9.36454E-05-2.55135E-05-2.91992E-05-1.47596E-06 2.71351E-19-1.41005E-19
 -1      1125 8.55955E-05-2.16858E-05-2.73940E-05-3.61549E-06-4.91738E-19-8.10035E-19
 -1      1126 8.79742E-05-2.27950E-05-2.79297E-05-3.39814E-06-4.42150E-19-9.46042E-19
 -1      1127 8.68812E-05-2.18293E-05-2.78856E-05 2.37086E-06-2.62582E-19-2.47162E-18
 -1      1128 8.36178E-05-2.04960E-05-2.70586E-05 3.66264E-06-9.24956E-19-2.90590E-19
 -1      1129 9.26689E-05-2.49886E-05-2.90120E-05-9.08731E-07 5.23906E-19-4.01144E-19
 -1      1130 9.48089E-05-2.54596E-05-2.97224E-05-3.16864E-07 2.94168E-19-8.83922E-19
 -1      1131 9.26324E-05-2.50864E-05-2.89448E-05-1.90627E-06 3.39936E-19-4.41873E-19
 -1      1132 1.16485E-04 2.56619E-10-4.17354E-05-4.13046E-05-1.49078E-19 4.97124E-18
 -1      1133 8.85280E-05 7.19689E-11-3.71963E-05-2.40400E-05-8.38563E-20 8.27339E-19
 -1      1134 8.40683E-05 4.15652E-11-3.57584E-05-1.77337E-05-5.72806E-20-9.97725E-19
 -1      1135 8.23926E-05 3.20782E-11-3.50940E-05-1.36767E-05-3.98105E-20-1.87743E-18
 -1      1136 8.16256E-05 2.72330E-11-3.47764E-05-1.03700E-05-2.92756E-20-2.27721E-18
 -1      1137 8.12345E-05 2.43395E-11-3.46190E-05-7.49446E-06-1.52267E-20-2.45765E-18
 -1      1138 8.10272E-05 2.25421E-11-3.45383E-05-4.86964E-06-1.04688E-20-2.51294E-18
 -1      1139 8.09228E-05 2.15514E-11-3.44992E-05-2.37289E-06-1.40952E-21-2.46148E-18
 -1      1140 8.08917E-05 2.12469E-11-3.44878E-05 5.29031E-08 1.72054E-22-2.44039E-18
 -1      1141 8.09253E-05 2.15951E-11-3.45000E-05 2.48116E-06 1.19693E-20-2.41298E-18
 -1      1142 8.10327E-05 2.26410E-11-3.45399E-05 4.98603E-06 1.40191E-20-2.30594E-18
 -1      1143 8.12458E-05 2.44970E-11-3.46215E-05 7.62673E-06 3.26902E-20-2.12933E-18
 -1      1144 8.16411E-05 2.75304E-11-3.47810E-05 1.05295E-05 3.27564E-20-1.82713E-18
 -1      1145 8.24124E-05 3.25360E-11-3.51024E-05 1.38797E-05 4.85985E-20-1.27203E-18
 -1      1146 8.40640E-05 4.20491E-11-3.57774E-05 1.79821E-05 6.49568E-20-2.32749E-19
 -1      1147 8.82288E-05 6.68149E-11-3.72663E-05 2.38828E-05 7.24213E-20 1.78862E-18
 -1      1148 1.06290E-04 1.63523E-10-4.05196E-05 3.60528E-05 1.40607E-19 5.90943E-18
 -1      1149 1.29716E-04-2.56618E-05-4.01367E-05-2.59960E-05-5.93558E-19 7.64447E-18
 -1      1150 9.71294E-05-2.87657E-05-3.14765E-05-6.73085E-07-1.81239E-19 6.22940E-18
 -1      1151 8.99389E-05-2.69624E-05-2.78251E-05 3.85784E-07-4.24443E-20 4.30688E-18
 -1      1152 8.81303E-05-2.65393E-05-2.66094E-05 2.48540E-07-7.62131E-20 3.01671E-18
 -1      1153 8.79027E-05-2.64528E-05-2.63947E-05 1.63370E-07-6.07200E-20 1.99381E-18
 -1      1154 8.84462E-05-2.65862E-05-2.65374E-05 1.15878E-07-2.98678E-20 1.64285E-18
 -1      1155 8.93997E-05-2.68526E-05-2.68232E-05 8.64331E-08 2.48584E-20 1.32067E-18
 -1      1156 9.05999E-05-2.72021E-05-2.71851E-05 6.73178E-08-2.56769E-20 8.03437E-19
 -1      1157 9.19805E-05-2.76116E-05-2.76024E-05 5.51007E-08 4.36011E-20 4.83768E-19
 -1      1158 9.35343E-05-2.80764E-05-2.80736E-05 4.84920E-08-6.57944E-20-7.33643E-19
 -1      1159 9.52955E-05-2.86054E-05-2.86092E-05 4.73275E-08-3.03952E-20-1.38299E-18
 -1      1160 9.73305E-05-2.92178E-05-2.92290E-05 5.21349E-08 2.31030E-19-3.04561E-19
 -1      1161 9.97297E-05-2.99397E-05-2.99595E-05 6.39329E-08-1.47039E-19-5.84373E-19
 -1      1162 1.02597E-04-3.08011E-05-3.08302E-05 8.39794E-08 8.82602E-22-1.56514E-18
 -1      1163 1.06028E-04-3.18296E-05-3.18668E-05 1.13154E-07 1.72666E-20-3.15745E-19
 -1      1164 1.10074E-04-3.30385E-05-3.30776E-05 1.50452E-07-1.56971E-19-7.70297E-19
 -1      1165 1.14671E-04-3.44062E-05-3.44313E-05 1.89784E-07 1.07369E-19-1.10188E-18
 -1      1166 1.19523E-04-3.58419E-05-3.58213E-05 2.14332E-07-7.63967E-20-1.00797E-18
 -1      1167 1.23943E-04-3.71390E-05-3.70248E-05 1.89476E-07-2.10822E-19-1.98862E-18
 -1      1168 1.26710E-04-3.79335E-05-3.76801E-05 6.05968E-08 1.59322E-19-2.66002E-18
 -1      1169 1.26125E-04-3.77243E-05-3.73386E-05-2.26329E-07-4.89492E-20-2.33305E-18
 -1      1170 1.20598E-04-3.60544E-05-3.56662E-05-6.55498E-07-2.24788E-19-1.42365E-18
 -1      1171 1.09992E-04-3.29194E-05-3.27762E-05-1.04957E-06 2.81040E-19-5.89006E-19
 -1      1172 9.71041E-05-2.91741E-05-2.94822E-05-1.08314E-06-2.43208E-19-1.05561E-18
 -1      1173 8.74814E-05-2.64174E-05-2.71230E-05-5.45642E-07-8.65959E-20-1.96411E-18
 -1      1174 8.62568E-05-2.60675E-05-2.68271E-05 3.34528E-07-1.58157E-19-2.51092E-19
 -1      1175 9.41515E-05-2.83269E-05-2.87506E-05 1.00219E-06 1.94454E-19-7.48565E-20
 -1      1176 1.06828E-04-3.19944E-05-3.19514E-05 1.10543E-06-1.28033E-19-2.97467E-18
 -1      1177 1.18439E-04-3.54133E-05-3.50615E-05 7.68527E-07 4.20406E-20-3.56188E-18
 -1      1178 1.25369E-04-3.74911E-05-3.70898E-05 3.24452E-07 2.30287E-20-1.78094E-18
 -1      1179 1.27144E-04-3.80558E-05-3.77647E-05-3.56423E-09-5.74460E-20 9.48148E-20
 -1      1180 1.25137E-04-3.74904E-05-3.73455E-05-1.68249E-07-1.14733E-19 5.25637E-19
 -1      1181 1.21114E-04-3.63148E-05-3.62769E-05-2.12690E-07-5.56238E-20-1.21803E-18
 -1      1182 1.16445E-04-3.49365E-05-3.49557E-05-1.95090E-07 1.69418E-19-6.00546E-19
 -1      1183 1.11952E-04-3.36021E-05-3.36424E-05-1.55439E-07-8.83015E-21-6.51871E-19
 -1      1184 1.08022E-04-3.24300E-05-3.24720E-05-1.14277E-07 2.90778E-19 6.60077E-19
 -1      1185 1.04777E-04-3.14583E-05-3.14942E-05-7.95952E-08-5.19395E-20-1.55313E-18
 -1      1186 1.02197E-04-3.06832E-05-3.07110E-05-5.30879E-08 5.81334E-20-7.18284E-19
 -1      1187 1.00201E-04-3.00816E-05-3.01020E-05-3.39177E-08-2.23441E-19-6.53605E-19
 -1      1188 9.86886E-05-2.96249E-05-2.96394E-05-2.05446E-08-1.07410E-19-1.03676E-18
 -1      1189 9.75655E-05-2.92847E-05-2.92948E-05-1.14723E-08-1.56484E-19-2.53448E-18
 -1      1190 9.67470E-05-2.90363E-05-2.90431E-05-5.47740E-09-3.95298E-19-4.94981E-18
 -1      1191 9.61631E-05-2.88586E-05-2.88631E-05-1.62795E-09-6.15749E-20-3.56445E-18
 -1      1192 9.57575E-05-2.87348E-05-2.87377E-05 7.70487E-10-6.37152E-19-2.85735E-18
 -1      1193 9.54863E-05-2.86517E-05-2.86537E-05 2.24593E-09-2.67226E-19-4.91476E-18
 -1      1194 9.53160E-05-2.85992E-05-2.86008E-05 3.23561E-09 3.44776E-19-8.37949E-19
 -1      1195 9.52225E-05-2.85700E-05-2.85715E-05 4.15819E-09-3.80534E-19 2.32579E-18
 -1      1196 9.51883E-05-2.85587E-05-2.85600E-05 5.39285E-09 3.45727E-19 1.66744E-18
 -1      1197 9.52004E-05-2.85628E-05-2.85599E-05 7.55414E-09-3.67153E-19-5.11207E-19
 -1      1198 9.52261E-05-2.85680E-05-2.85620E-05 3.40955E-09 3.05998E-19 2.54367E-19
 -1      1199 1.30551E-04-3.75849E-05-3.85314E-05 1.21334E-05-1.22687E-19 9.28263E-18
 -1      1200 9.62472E-05-2.80982E-05-3.12334E-05 7.98746E-07 5.12984E-20 7.51011E-18
 -1      1201 9.01661E-05-2.68693E-05-2.78104E-05 1.21871E-07 8.87863E-20 5.61899E-18
 -1      1202 8.82335E-05-2.64714E-05-2.66508E-05 1.31829E-08 5.19536E-20 4.60484E-18
 -1      1203 8.79630E-05-2.64208E-05-2.64277E-05-1.90853E-08 2.39982E-20 3.89016E-18
 -1      1204 8.84904E-05-2.65744E-05-2.65596E-05-2.63141E-08 1.75065E-20 3.27399E-18
 -1      1205 8.94336E-05-2.68501E-05-2.68391E-05-2.58884E-08-2.19195E-20 3.30236E-18
 -1      1206 9.06179E-05-2.72010E-05-2.71943E-05-2.28741E-08-4.15952E-20 3.41468E-18
 -1      1207 9.19650E-05-2.76028E-05-2.75996E-05-1.91263E-08-1.28329E-20 2.51565E-18
 -1      1208 9.34496E-05-2.80471E-05-2.80475E-05-1.58301E-08 1.10872E-19 1.79756E-18
 -1      1209 9.50771E-05-2.85345E-05-2.85392E-05-1.41015E-08 1.57209E-19 1.18013E-18
 -1      1210 9.68682E-05-2.90706E-05-2.90802E-05-1.51664E-08 1.06218E-20 8.88981E-19
 -1      1211 9.88435E-05-2.96608E-05-2.96750E-05-2.03899E-08 4.92685E-20 7.70846E-19
 -1      1212 1.01005E-04-3.03051E-05-3.03222E-05-3.11558E-08-7.95806E-20 2.93510E-19
 -1      1213 1.03314E-04-3.09906E-05-3.10067E-05-4.84557E-08-9.55270E-21-1.29570E-19
 -1      1214 1.05658E-04-3.16835E-05-3.16911E-05-7.19851E-08 1.92476E-19-1.60300E-18
 -1      1215 1.07817E-04-3.23187E-05-3.23059E-05-9.85656E-08-2.46649E-20-1.47717E-18
 -1      1216 1.09441E-04-3.27931E-05-3.27441E-05-1.20031E-07-1.38652E-20-5.01993E-19
 -1      1217 1.10047E-04-3.29670E-05-3.28663E-05-1.21667E-07 2.92293E-20-5.04822E-19
 -1      1218 1.09091E-04-3.26847E-05-3.25274E-05-8.39363E-08-1.79399E-20-2.42026E-19
 -1      1219 1.06154E-04-3.18255E-05-3.16320E-05 8.78670E-09 5.16061E-20-2.29281E-19
 -1      1220 1.01232E-04-3.03853E-05-3.02122E-05 1.51460E-07-2.44394E-19 1.38596E-19
 -1      1221 9.50329E-05-2.85611E-05-2.84926E-05 3.02658E-07 3.27929E-19-8.11352E-19
 -1      1222 8.90397E-05-2.67762E-05-2.68821E-05 3.90494E-07-3.85145E-19-1.34376E-18
 -1      1223 8.51058E-05-2.55760E-05-2.58552E-05 3.52194E-07 2.11411E-19 1.19802E-19
 -1      1224 8.46223E-05-2.53917E-05-2.57486E-05 1.86803E-07 2.65492E-20 1.93165E-18
 -1      1225 8.77750E-05-2.63057E-05-2.66002E-05-3.82514E-08-2.14696E-19 2.78356E-18
 -1      1226 9.34357E-05-2.79957E-05-2.81287E-05-2.25552E-07 3.54211E-19-7.97164E-19
 -1      1227 9.97848E-05-2.99120E-05-2.98726E-05-3.14036E-07 3.48715E-20-2.53782E-18
 -1      1228 1.05184E-04-3.15481E-05-3.13971E-05-3.02028E-07-1.60935E-19-4.35576E-18
 -1      1229 1.08718E-04-3.26193E-05-3.24357E-05-2.28017E-07 1.94179E-19-3.92192E-18
 -1      1230 1.10239E-04-3.30792E-05-3.29202E-05-1.36223E-07 4.03052E-20-3.70139E-18
 -1      1231 1.10100E-04-3.30365E-05-3.29265E-05-5.61882E-08-2.41965E-19 6.55481E-19
 -1      1232 1.08844E-04-3.26574E-05-3.25966E-05 3.32123E-10 5.22422E-20 1.58303E-18
 -1      1233 1.06991E-04-3.20993E-05-3.20763E-05 3.34580E-08 9.54120E-20 4.85985E-20
 -1      1234 1.04938E-04-3.14824E-05-3.14836E-05 4.85238E-08-1.73236E-20-1.36318E-18
 -1      1235 1.02946E-04-3.08846E-05-3.08990E-05 5.17289E-08 9.54786E-20-3.09693E-18
 -1      1236 1.01162E-04-3.03496E-05-3.03694E-05 4.81915E-08-5.54544E-20-4.22163E-18
 -1      1237 9.96493E-05-2.98960E-05-2.99166E-05 4.14867E-08-7.63333E-20-2.45170E-18
 -1      1238 9.84184E-05-2.95269E-05-2.95458E-05 3.38373E-08 5.10048E-20-4.87347E-18
 -1      1239 9.74505E-05-2.92367E-05-2.92528E-05 2.64836E-08 1.78020E-19-5.69459E-18
 -1      1240 9.67124E-05-2.90153E-05-2.90284E-05 2.00262E-08 3.34446E-19-6.02016E-18
 -1      1241 9.61662E-05-2.88514E-05-2.88617E-05 1.46807E-08-1.62777E-19-3.96051E-18
 -1      1242 9.57751E-05-2.87340E-05-2.87419E-05 1.04459E-08-3.64849E-20-1.41118E-18
 -1      1243 9.55066E-05-2.86533E-05-2.86593E-05 7.19524E-09-2.12880E-19-6.40892E-19
 -1      1244 9.53336E-05-2.86013E-05-2.86060E-05 4.70996E-09 6.41939E-20-1.42501E-18
 -1      1245 9.52351E-05-2.85715E-05-2.85755E-05 2.66117E-09 4.59245E-19-6.16614E-18
 -1      1246 9.51956E-05-2.85593E-05-2.85625E-05 3.69462E-10-7.56850E-21-5.77135E-18
 -1      1247 9.52019E-05-2.85604E-05-2.85613E-05-3.22669E-09 6.91258E-19-8.07269E-18
 -1      1248 9.52274E-05-2.85689E-05-2.85623E-05-3.18635E-09-3.77010E-19-6.94013E-18
 -1      1249 9.52394E-05-2.85813E-05-2.85627E-05-3.52582E-09-6.16643E-18-3.38201E-20
 -1      1250 9.52460E-05-2.86046E-05-2.85623E-05-5.98693E-09-4.14446E-18 2.61454E-19
 -1      1251 9.52459E-05-2.86041E-05-2.85651E-05-2.16123E-09 3.20909E-18 1.12283E-18
 -1      1252 9.52339E-05-2.85627E-05-2.85770E-05 9.48053E-10 5.39492E-18-1.85014E-20
 -1      1253 9.52127E-05-2.84899E-05-2.85970E-05 2.74153E-09 7.05264E-18-1.09149E-19
 -1      1254 9.51879E-05-2.84052E-05-2.86205E-05 3.26080E-09 3.23704E-18-9.71368E-19
 -1      1255 9.51653E-05-2.83275E-05-2.86421E-05 2.78162E-09 1.91845E-19 3.68382E-19
 -1      1256 9.51496E-05-2.82734E-05-2.86572E-05 1.52226E-09 2.27816E-18-6.73701E-19
 -1      1257 9.51443E-05-2.82552E-05-2.86623E-05-1.25176E-10-8.51209E-19 1.14263E-19
 -1      1258 9.51506E-05-2.82769E-05-2.86562E-05-1.76497E-09 1.74920E-18 8.16827E-19
 -1      1259 9.51673E-05-2.83343E-05-2.86402E-05-2.98459E-09 1.17548E-19-1.13876E-18
 -1      1260 9.51908E-05-2.84144E-05-2.86179E-05-3.42041E-09-4.16959E-18-4.38324E-19
 -1      1261 9.52157E-05-2.85002E-05-2.85941E-05-2.74007E-09-2.78637E-18 3.62829E-19
 -1      1262 9.52366E-05-2.85719E-05-2.85744E-05-7.83712E-10-5.91661E-18-5.31113E-19
 -1      1263 9.52486E-05-2.86112E-05-2.85633E-05 2.85615E-09-4.48810E-18-3.24522E-19
 -1      1264 9.52454E-05-2.86048E-05-2.85611E-05 9.72590E-09 5.41402E-20-7.15160E-19
 -1      1265 9.52400E-05-2.85828E-05-2.85624E-05 4.56456E-09 9.07696E-20 8.68238E-19
 -1      1266 3.36372E-05-1.05115E-04 1.77206E-05-1.35830E-05 5.06441E-18 9.82955E-19
 -1      1267 1.68973E-05-6.22875E-05 8.96682E-06-2.42043E-05 2.72999E-18 7.66141E-19
 -1      1268 7.12359E-06-7.50015E-06-6.09238E-06 8.66831E-08-2.37169E-19-6.26804E-20
 -1      1269 3.17572E-05 2.49736E-05-2.51307E-05 5.09800E-05 5.09575E-18 5.60566E-18
 -1      1270 1.03103E-04 1.48170E-05-4.55150E-05 9.89270E-05 5.72764E-18 7.73341E-18
 -1      1271 2.01861E-04-3.04764E-05-6.31282E-05 1.08864E-04 2.38906E-18 4.77388E-18
 -1      1272 2.82641E-04-7.70129E-05-7.44337E-05 6.41594E-05 1.93759E-20 6.26804E-19
 -1      1273 3.07146E-04-9.23887E-05-7.73997E-05-1.42660E-05 3.21078E-19-2.42018E-18
 -1      1274 2.60832E-04-6.40729E-05-7.15272E-05-8.47087E-05 2.51823E-18-7.42509E-18
 -1      1275 1.69195E-04-1.35888E-05-5.79916E-05-1.11633E-04 5.85469E-18-1.07539E-17
 -1      1276 7.65396E-05 2.30475E-05-3.94875E-05-8.77620E-05 7.32345E-18-9.30042E-18
 -1      1277 2.03526E-05 2.02955E-05-1.98247E-05-3.61592E-05 8.18742E-18-6.88384E-18
 -1      1278 7.31826E-06-2.05171E-05-1.75992E-06 9.28995E-06 8.09933E-18-4.40881E-18
 -1      1279 2.18732E-05-7.65565E-05 1.19610E-05 2.43305E-05 4.79505E-18-2.02822E-18
 -1      1280 3.49918E-05-1.09882E-04 1.88920E-05 6.05018E-06 1.51153E-18-2.00138E-19
 -1      1281 3.07964E-05-1.00420E-04 1.68015E-05-2.02689E-05-2.00620E-18-8.22151E-19
 -1      1282 1.32094E-05-5.28862E-05 6.74071E-06-2.44713E-05-6.81692E-18-3.17171E-18
 -1      1283 9.10274E-06-1.47065E-06-9.06272E-06 6.03851E-06-7.47591E-18-4.57567E-18
 -1      1284 4.38896E-05 2.30823E-05-2.89512E-05 5.96330E-05-5.12963E-18-5.10083E-18
 -1      1285 1.20989E-04 7.29164E-06-4.91025E-05 1.04411E-04-5.20756E-18-8.25349E-18
 -1      1286 2.17795E-04-3.80808E-05-6.58238E-05 1.07002E-04-3.95861E-18-9.42748E-18
 -1      1287 2.97088E-04-8.36926E-05-7.64772E-05 6.09995E-05-1.29644E-18-4.78404E-18
 -1      1288 3.14929E-04-9.43053E-05-7.89386E-05-1.74859E-05-1.36425E-19 7.46660E-19
 -1      1289 2.67344E-04-6.62371E-05-7.26340E-05-8.72821E-05-1.44356E-18 5.10676E-18
 -1      1290 1.75336E-04-1.63775E-05-5.91741E-05-1.12222E-04-3.82012E-18 7.55723E-18
 -1      1291 8.37946E-05 1.98269E-05-4.10754E-05-8.99367E-05-6.33496E-18 7.59280E-18
 -1      1292 2.38307E-05 1.91431E-05-2.11404E-05-3.84875E-05-7.27771E-18 6.27397E-18
 -1      1293 7.33018E-06-2.04524E-05-2.23372E-06 9.26707E-06-2.89008E-18 2.43691E-18
 -1      1294 2.03229E-05-7.43587E-05 1.16561E-05 2.74473E-05-1.11978E-18 2.82274E-19
 -1      1295 3.51163E-05-1.09243E-04 1.84683E-05 1.30617E-05 1.01686E-18 2.17396E-19
 -1      1296 1.04140E-04-2.19451E-05-3.77854E-05-1.71960E-05-2.19805E-19 4.11192E-18
 -1      1297 9.02460E-05-6.68912E-06-3.59794E-05-2.03281E-05-6.50574E-19-5.23043E-20
 -1      1298 9.25184E-05-6.74975E-06-3.71560E-05-2.56133E-05-8.14422E-19 8.95420E-19
 -1      1299 8.59248E-05-4.10662E-06-3.51329E-05-1.62672E-05-6.55868E-19-1.39464E-18
 -1      1300 8.71379E-05-4.10229E-06-3.55838E-05-1.86942E-05-7.29189E-19-8.10743E-19
 -1      1301 9.20932E-05-1.04752E-05-3.50697E-05-1.88632E-05-1.12412E-18-1.72583E-20
 -1      1302 8.41729E-05-3.19681E-06-3.47155E-05-1.26424E-05-4.98108E-19-2.03011E-18
 -1      1303 8.47587E-05-3.16644E-06-3.49285E-05-1.44611E-05-5.91097E-19-1.72411E-18
 -1      1304 8.79082E-05-7.40035E-06-3.45863E-05-1.52300E-05-1.03976E-18-1.12309E-18
 -1      1305 8.32749E-05-2.71722E-06-3.45128E-05-9.51414E-06-3.80238E-19-2.36159E-18
 -1      1306 8.35835E-05-2.70160E-06-3.46166E-05-1.10559E-05-4.27130E-19-2.21700E-18
 -1      1307 8.59416E-05-5.97250E-06-3.43401E-05-1.17653E-05-7.68186E-19-1.71487E-18
 -1      1308 8.27791E-05-2.43017E-06-3.44131E-05-6.76850E-06-2.37176E-19-2.48718E-18
 -1      1309 8.29490E-05-2.42241E-06-3.44652E-05-8.12456E-06-3.09650E-19-2.40695E-18
 -1      1310 8.48935E-05-5.17411E-06-3.42209E-05-8.76645E-06-5.64372E-19-1.96448E-18
 -1      1311 8.24934E-05-2.25044E-06-3.43623E-05-4.19157E-06-1.44371E-19-2.48668E-18
 -1      1312 8.25878E-05-2.24706E-06-3.43891E-05-5.46964E-06-1.77913E-19-2.50145E-18
 -1      1313 8.42929E-05-4.68997E-06-3.41637E-05-6.07280E-06-3.50328E-19-2.05281E-18
 -1      1314 8.23516E-05-2.15142E-06-3.43400E-05-1.74281E-06 2.97462E-20-2.49364E-18
 -1      1315 8.23934E-05-2.15016E-06-3.43513E-05-2.96516E-06-3.94466E-20-2.47455E-18
 -1      1316 8.39527E-05-4.40355E-06-3.41368E-05-3.55077E-06-1.39059E-19-2.03947E-18
 -1      1317 8.23221E-05-2.12059E-06-3.43370E-05 6.54753E-07 1.07400E-19-2.47154E-18
 -1      1318 8.23212E-05-2.12066E-06-3.43369E-05-5.50479E-07 7.67566E-20-2.50200E-18
 -1      1319 8.37996E-05-4.27147E-06-3.41261E-05-1.13787E-06 9.68740E-20-2.09782E-18
 -1      1320 8.23997E-05-2.15440E-06-3.43519E-05 3.07302E-06 2.11760E-19-2.41325E-18
 -1      1321 8.23559E-05-2.15576E-06-3.43403E-05 1.84809E-06 1.79966E-19-2.44287E-18
 -1      1322 8.38035E-05-4.27568E-06-3.41261E-05 1.24123E-06 2.32238E-19-2.05321E-18
 -1      1323 8.26013E-05-2.25730E-06-3.43902E-05 5.58657E-06 3.33228E-19-2.31476E-18
 -1      1324 8.25041E-05-2.26010E-06-3.43629E-05 4.30259E-06 2.88373E-19-2.37943E-18
 -1      1325 8.39655E-05-4.41703E-06-3.41367E-05 3.65840E-06 4.25464E-19-2.00350E-18
 -1      1326 8.29672E-05-2.43721E-06-3.44663E-05 8.23360E-06 4.35448E-19-2.11108E-18
 -1      1327 8.27944E-05-2.44519E-06-3.44137E-05 6.86880E-06 3.93232E-19-2.24654E-18
 -1      1328 8.43143E-05-4.71262E-06-3.41632E-05 6.16715E-06 5.97709E-19-1.88332E-18
 -1      1329 8.36204E-05-2.73089E-06-3.46199E-05 1.12173E-05 6.17805E-19-1.74728E-18
 -1      1330 8.33063E-05-2.74713E-06-3.45147E-05 9.65836E-06 5.53338E-19-1.94239E-18
 -1      1331 8.49310E-05-5.21439E-06-3.42201E-05 8.87687E-06 8.15709E-19-1.60579E-18
 -1      1332 8.48131E-05-3.20808E-06-3.49353E-05 1.46680E-05 7.52827E-19-1.13386E-18
 -1      1333 8.42209E-05-3.24387E-06-3.47194E-05 1.28253E-05 6.75641E-19-1.51629E-18
 -1      1334 8.60136E-05-6.04862E-06-3.43401E-05 1.19307E-05 1.07338E-18-1.23148E-18
 -1      1335 8.72378E-05-4.10438E-06-3.56045E-05 1.89309E-05 8.65403E-19 1.79200E-20
 -1      1336 8.59940E-05-4.16733E-06-3.51395E-05 1.65254E-05 7.88297E-19-6.68944E-19
 -1      1337 8.80284E-05-7.52496E-06-3.45870E-05 1.54615E-05 1.25390E-18-4.95355E-19
 -1      1338 9.33266E-05-6.79959E-06-3.70522E-05 2.49531E-05 7.51636E-19 2.14633E-18
 -1      1339 9.00623E-05-6.44693E-06-3.60019E-05 2.10021E-05 7.16378E-19 8.45657E-19
 -1      1340 9.23219E-05-1.07094E-05-3.50546E-05 1.95038E-05 1.28614E-18 7.65718E-19
 -1      1341 1.23234E-04-2.48458E-05-3.89026E-05 2.82399E-05 3.28014E-19 6.15073E-18
 -1      1342 9.98645E-05-1.43949E-05-3.72697E-05 2.39281E-05 3.54907E-19 3.36209E-18
 -1      1343 1.01510E-04-1.93188E-05-3.53395E-05 2.12514E-05 1.20898E-18 2.66477E-18
 -1      1344 1.02312E-04-2.77249E-05-3.46603E-05 7.27252E-06 5.77729E-19 5.94871E-18
 -1      1345 1.04869E-04-3.01509E-05-3.34373E-05-7.89140E-06-6.20028E-19 4.23453E-18
 -1      1346 9.80397E-05-2.77817E-05-3.06910E-05-4.93269E-06-6.14258E-19 3.49840E-18
 -1      1347 9.53230E-05-2.77956E-05-2.91990E-05-2.43450E-06-4.56763E-19 3.16612E-18
 -1      1348 9.31421E-05-2.75184E-05-2.81759E-05-1.98772E-06-4.47419E-19 2.51222E-18
 -1      1349 9.93467E-05-2.80141E-05-3.09391E-05-7.77530E-06-1.04106E-18 1.78433E-18
 -1      1350 9.15057E-05-2.71749E-05-2.75588E-05-7.74174E-07-3.18584E-19 2.28212E-18
 -1      1351 9.08487E-05-2.70958E-05-2.72749E-05-6.60977E-07-3.39945E-19 1.80140E-18
 -1      1352 9.46738E-05-2.77533E-05-2.88052E-05-2.99980E-06-7.24557E-19 1.32419E-18
 -1      1353 9.01680E-05-2.69322E-05-2.70535E-05-8.78671E-08-2.26968E-19 1.49014E-18
 -1      1354 9.01757E-05-2.69814E-05-2.70431E-05-2.45991E-08-2.40719E-19 1.10498E-18
 -1      1355 9.25940E-05-2.75129E-05-2.79236E-05-8.98788E-07-6.40099E-19 8.99337E-19
 -1      1356 9.00112E-05-2.69404E-05-2.69986E-05 2.75941E-07-1.58913E-19 1.02893E-18
 -1      1357 9.03399E-05-2.70628E-05-2.70947E-05 3.12700E-07-1.13668E-19 8.90179E-19
 -1      1358 9.17962E-05-2.74110E-05-2.76084E-05 1.44067E-07-3.91088E-19 5.44867E-19
 -1      1359 9.04758E-05-2.71030E-05-2.71424E-05 4.87924E-07-1.69632E-19 7.93246E-19
 -1      1360 9.09822E-05-2.72698E-05-2.72909E-05 5.11134E-07-1.77309E-19 6.41449E-19
 -1      1361 9.17651E-05-2.74581E-05-2.75714E-05 7.21126E-07-3.23274E-19 3.90151E-19
 -1      1362 9.13072E-05-2.73630E-05-2.73951E-05 6.26548E-07-5.65519E-20 5.66321E-19
 -1      1363 9.19284E-05-2.75590E-05-2.75772E-05 6.43931E-07-8.84248E-20 3.63364E-19
 -1      1364 9.22059E-05-2.76149E-05-2.76911E-05 1.07576E-06-2.04975E-19 2.34944E-19
 -1      1365 9.23875E-05-2.76900E-05-2.77219E-05 7.35983E-07-1.20761E-19 3.35432E-19
 -1      1366 9.31019E-05-2.79103E-05-2.79319E-05 7.52767E-07-2.62968E-19-1.17036E-19
 -1      1367 9.29624E-05-2.78496E-05-2.79135E-05 1.32937E-06-2.91699E-19 3.29946E-20
 -1      1368 9.36725E-05-2.80726E-05-2.81108E-05 8.45013E-07-2.56563E-19-1.13916E-19
 -1      1369 9.44846E-05-2.83196E-05-2.83504E-05 8.65127E-07-2.80149E-19-4.83375E-19
 -1      1370 9.39602E-05-2.81453E-05-2.82142E-05 1.55396E-06-4.16915E-19-1.60537E-19
 -1      1371 9.51658E-05-2.85131E-05-2.85636E-05 9.74352E-07-2.36130E-19-3.37218E-19
 -1      1372 9.60986E-05-2.87948E-05-2.88394E-05 1.00091E-06 1.10621E-19-4.24966E-19
 -1      1373 9.51761E-05-2.84980E-05-2.85850E-05 1.79809E-06-3.38357E-19 2.34371E-19
 -1      1374 9.69039E-05-2.90233E-05-2.90913E-05 1.13940E-06 2.31673E-19-6.00646E-19
 -1      1375 9.79945E-05-2.93519E-05-2.94142E-05 1.17486E-06 2.91010E-20-4.02764E-19
 -1      1376 9.66216E-05-2.89131E-05-2.90284E-05 2.09682E-06 1.34076E-19-4.34601E-20
 -1      1377 9.89467E-05-2.96223E-05-2.97119E-05 1.35043E-06-2.57367E-19-5.88996E-19
 -1      1378 1.00241E-04-3.00132E-05-3.00949E-05 1.39630E-06-3.64107E-19-8.99609E-19
 -1      1379 9.83318E-05-2.94031E-05-2.95539E-05 2.47452E-06-2.98218E-19-8.67850E-19
 -1      1380 1.01367E-04-3.03340E-05-3.04465E-05 1.61016E-06-2.19487E-19-7.82764E-19
 -1      1381 1.02913E-04-3.08038E-05-3.09030E-05 1.66631E-06-6.57311E-20-9.55321E-19
 -1      1382 1.00355E-04-2.99862E-05-3.01740E-05 2.94246E-06-3.50548E-19-6.27299E-19
 -1      1383 1.04234E-04-3.11832E-05-3.13146E-05 1.90795E-06 1.85791E-19-1.00708E-18
 -1      1384 1.06065E-04-3.17460E-05-3.18532E-05 1.97095E-06-2.31644E-20-8.19729E-19
 -1      1385 1.02742E-04-3.06836E-05-3.09003E-05 3.49045E-06 9.35376E-20-8.25422E-19
 -1      1386 1.07588E-04-3.21897E-05-3.23243E-05 2.20900E-06-2.25776E-19-8.05330E-19
 -1      1387 1.09700E-04-3.28497E-05-3.29414E-05 2.26916E-06-1.58599E-19-7.76610E-19
 -1      1388 1.05522E-04-3.15174E-05-3.17358E-05 4.07027E-06-1.64973E-19-1.12144E-18
 -1      1389 1.11393E-04-3.33559E-05-3.34576E-05 2.43726E-06 1.03271E-19-7.64712E-19
 -1      1390 1.13698E-04-3.40946E-05-3.41235E-05 2.47402E-06 6.47964E-20-8.43129E-19
 -1      1391 1.08681E-04-3.25043E-05-3.26643E-05 4.56845E-06-1.05250E-20-5.81356E-19
 -1      1392 1.15464E-04-3.46472E-05-3.46468E-05 2.45455E-06-8.80087E-20-7.04612E-19
 -1      1393 1.17727E-04-3.54016E-05-3.52875E-05 2.43084E-06-2.46814E-19-9.12440E-19
 -1      1394 1.12110E-04-3.36446E-05-3.36355E-05 4.77011E-06 2.66269E-21-3.17168E-19
 -1      1395 1.19369E-04-3.59582E-05-3.57463E-05 2.04849E-06-3.31117E-19-1.07294E-18
 -1      1396 1.21136E-04-3.65916E-05-3.62264E-05 1.90894E-06-2.41762E-19-1.52151E-18
 -1      1397 1.15545E-04-3.48974E-05-3.45493E-05 4.32974E-06-3.61339E-19-5.01854E-19
 -1      1398 1.22333E-04-3.70657E-05-3.65134E-05 9.64613E-07 1.16732E-20-1.68681E-18
 -1      1399 1.22910E-04-3.73448E-05-3.66382E-05 6.48834E-07-2.23723E-19-1.57444E-18
 -1      1400 1.18499E-04-3.61341E-05-3.52480E-05 2.79746E-06-3.70048E-19-5.62721E-19
 -1      1401 1.23225E-04-3.75858E-05-3.66315E-05-9.54473E-07-7.04493E-20-1.93624E-18
 -1      1402 1.21821E-04-3.72019E-05-3.62017E-05-1.46201E-06-1.07811E-19-1.76101E-18
 -1      1403 1.20227E-04-3.70648E-05-3.55394E-05-2.04981E-07-2.25205E-19-1.12979E-18
 -1      1404 1.20823E-04-3.69960E-05-3.58239E-05-3.46893E-06 6.07481E-20-1.18389E-18
 -1      1405 1.16992E-04-3.57077E-05-3.47669E-05-4.04264E-06 3.42850E-19-8.10611E-19
 -1      1406 1.19815E-04-3.71843E-05-3.52701E-05-4.54819E-06 5.17259E-19-1.33367E-18
 -1      1407 1.14565E-04-3.48895E-05-3.40707E-05-5.61731E-06 2.30049E-19-1.04376E-18
 -1      1408 1.08902E-04-3.28180E-05-3.25943E-05-5.93503E-06-9.87654E-20-8.75091E-19
 -1      1409 1.16587E-04-3.59194E-05-3.44451E-05-8.98229E-06 2.63970E-19-3.94585E-19
 -1      1410 1.05670E-04-3.15280E-05-3.18043E-05-5.87878E-06-1.00135E-19-8.45127E-19
 -1      1411 1.00178E-04-2.94053E-05-3.04331E-05-5.57241E-06-1.82589E-19-1.12031E-18
 -1      1412 1.10924E-04-3.31846E-05-3.33132E-05-1.10176E-05-2.03913E-19-8.64106E-19
 -1      1413 9.76337E-05-2.82941E-05-2.98749E-05-3.28060E-06 4.31457E-20-1.01316E-18
 -1      1414 9.49644E-05-2.72301E-05-2.92261E-05-2.34367E-06 1.07573E-19-9.01825E-19
 -1      1415 1.04969E-04-3.00307E-05-3.23058E-05-8.27391E-06 2.61627E-19-4.51799E-19
 -1      1416 9.46346E-05-2.70793E-05-2.91563E-05 1.21790E-06 8.52592E-20-6.62772E-19
 -1      1417 9.62768E-05-2.77351E-05-2.95538E-05 2.24783E-06-1.85288E-22-3.88894E-19
 -1      1418 1.01955E-04-2.83621E-05-3.18401E-05-1.05166E-06 4.85323E-19-9.89758E-19
 -1      1419 9.83887E-05-2.86694E-05-3.00101E-05 5.02372E-06-2.06160E-19-8.69479E-19
 -1      1420 1.03422E-04-3.06343E-05-3.12568E-05 5.51246E-06-1.40250E-19-1.24874E-18
 -1      1421 1.03824E-04-2.93972E-05-3.21266E-05 6.79999E-06-1.93997E-19-7.49704E-19
 -1      1422 1.06662E-04-3.19634E-05-3.20247E-05 6.12772E-06-6.51023E-19-1.89047E-18
 -1      1423 1.12537E-04-3.41462E-05-3.35389E-05 5.93901E-06-8.63252E-19-2.59467E-18
 -1      1424 1.09371E-04-3.23670E-05-3.30411E-05 1.08649E-05-1.16533E-18-1.58739E-18
 -1      1425 1.15279E-04-3.51195E-05-3.42928E-05 4.66529E-06 4.20261E-19-2.66932E-18
 -1      1426 1.19700E-04-3.66415E-05-3.54957E-05 4.11905E-06 6.18480E-19-2.15506E-18
 -1      1427 1.15414E-04-3.53766E-05-3.41987E-05 9.87007E-06-4.63817E-20-1.96146E-18
 -1      1428 1.21088E-04-3.69975E-05-3.59710E-05 2.12749E-06 2.56360E-19-1.70735E-18
 -1      1429 1.23119E-04-3.76036E-05-3.65673E-05 1.58703E-06 5.22487E-19-1.20480E-18
 -1      1430 1.19385E-04-3.70391E-05-3.51450E-05 5.78585E-06 7.30500E-19-1.24221E-18
 -1      1431 1.23130E-04-3.74638E-05-3.66730E-05-1.52913E-07 2.77509E-19-5.24790E-19
 -1      1432 1.23018E-04-3.73330E-05-3.66829E-05-5.17489E-07 7.97667E-20-2.71580E-20
 -1      1433 1.20520E-04-3.72381E-05-3.55786E-05 1.27018E-06 9.61515E-19-1.42765E-18
 -1      1434 1.22039E-04-3.69111E-05-3.64709E-05-1.61663E-06-2.78277E-19 4.26693E-19
 -1      1435 1.20548E-04-3.63560E-05-3.60754E-05-1.79256E-06-5.70874E-19 2.41603E-19
 -1      1436 1.19312E-04-3.64757E-05-3.54388E-05-2.09272E-06-2.83703E-19-3.21323E-19
 -1      1437 1.19034E-04-3.58241E-05-3.56646E-05-2.28379E-06-8.87747E-20-4.70739E-19
 -1      1438 1.16911E-04-3.51039E-05-3.50692E-05-2.32689E-06 2.57733E-19-1.68665E-19
 -1      1439 1.16674E-04-3.53047E-05-3.48516E-05-3.93898E-06-5.13355E-19-8.73304E-20
 -1      1440 1.15220E-04-3.45638E-05-3.45748E-05-2.40022E-06-5.16655E-20 1.32852E-19
 -1      1441 1.12987E-04-3.38398E-05-3.39329E-05-2.36955E-06-3.95555E-19-4.43554E-19
 -1      1442 1.13418E-04-3.40708E-05-3.40108E-05-4.56933E-06 1.98949E-19 3.39984E-19
 -1      1443 1.11348E-04-3.33439E-05-3.34368E-05-2.21225E-06-2.33407E-19 1.40184E-19
 -1      1444 1.09292E-04-3.26963E-05-3.28379E-05-2.14960E-06 5.84712E-19 5.33022E-19
 -1      1445 1.10104E-04-3.29379E-05-3.30881E-05-4.44106E-06-2.00480E-19 3.04058E-19
 -1      1446 1.07829E-04-3.22669E-05-3.23868E-05-1.89410E-06-1.48972E-19 1.93031E-19
 -1      1447 1.06073E-04-3.17247E-05-3.18714E-05-1.82368E-06-4.46669E-19-3.63112E-19
 -1      1448 1.07049E-04-3.19651E-05-3.22000E-05-3.93244E-06 2.43125E-19 2.69720E-19
 -1      1449 1.04832E-04-3.13670E-05-3.14855E-05-1.54795E-06-7.20752E-19-1.07501E-18
 -1      1450 1.03403E-04-3.09317E-05-3.10637E-05-1.48169E-06-6.78040E-19-1.48537E-18
 -1      1451 1.04401E-04-3.11613E-05-3.14095E-05-3.28975E-06-1.17987E-18-1.50417E-18
 -1      1452 1.02388E-04-3.06422E-05-3.07469E-05-1.22506E-06-2.38377E-19-2.10263E-18
 -1      1453 1.01263E-04-3.03028E-05-3.04134E-05-1.16780E-06-2.30046E-19-1.80621E-18
 -1      1454 1.02200E-04-3.05139E-05-3.07413E-05-2.64941E-06-6.53248E-19-2.70559E-18
 -1      1455 1.00455E-04-3.00736E-05-3.01609E-05-9.46328E-07-1.26145E-19-1.51232E-18
 -1      1456 9.95894E-05-2.98149E-05-2.99039E-05-8.99155E-07 1.42824E-19-1.88470E-18
 -1      1457 1.00423E-04-3.00027E-05-3.01963E-05-2.07557E-06-4.03651E-19-2.86305E-18
 -1      1458 9.89605E-05-2.96371E-05-2.97073E-05-7.16425E-07 2.94367E-19-1.49544E-18
 -1      1459 9.83088E-05-2.94436E-05-2.95133E-05-6.78738E-07-7.05315E-19-2.09460E-18
 -1      1460 9.90240E-05-2.96059E-05-2.97638E-05-1.59070E-06 4.20965E-19-1.42896E-18
 -1      1461 9.78285E-05-2.93080E-05-2.93632E-05-5.32358E-07-9.69831E-19-2.43840E-18
 -1      1462 9.73470E-05-2.91661E-05-2.92196E-05-5.02885E-07-1.02906E-18-3.67892E-18
 -1      1463 9.79431E-05-2.93027E-05-2.94279E-05-1.19583E-06-1.25069E-18-1.34649E-18
 -1      1464 9.69868E-05-2.90645E-05-2.91071E-05-3.88067E-07-4.98214E-19-3.94205E-18
 -1      1465 9.66381E-05-2.89624E-05-2.90029E-05-3.65388E-07-6.95388E-19-4.23749E-18
 -1      1466 9.71236E-05-2.90748E-05-2.91721E-05-8.82286E-07-1.57725E-18-2.66590E-18
 -1      1467 9.63731E-05-2.88877E-05-2.89202E-05-2.76751E-07 7.81545E-20-3.59198E-18
 -1      1468 9.61263E-05-2.88160E-05-2.88463E-05-2.59521E-07 5.94599E-19-3.72165E-18
 -1      1469 9.65135E-05-2.89065E-05-2.89810E-05-6.37884E-07-1.76783E-19-3.24964E-18
 -1      1470 9.59356E-05-2.87623E-05-2.87869E-05-1.91910E-07-1.54082E-19-2.02198E-18
 -1      1471 9.57661E-05-2.87134E-05-2.87359E-05-1.78937E-07-3.69797E-19-2.22200E-18
 -1      1472 9.60684E-05-2.87846E-05-2.88409E-05-4.50055E-07 1.14276E-18-2.27662E-18
 -1      1473 9.56327E-05-2.86758E-05-2.86944E-05-1.27749E-07-1.56945E-19-1.97547E-18
 -1      1474 9.55215E-05-2.86442E-05-2.86609E-05-1.18006E-07 3.21925E-19-1.91682E-18
 -1      1475 9.57514E-05-2.86984E-05-2.87408E-05-3.07160E-07-1.41072E-20 5.78864E-19
 -1      1476 9.54318E-05-2.86189E-05-2.86331E-05-7.92825E-08 1.76693E-18-1.34376E-18
 -1      1477 9.53646E-05-2.86001E-05-2.86128E-05-7.18930E-08 1.61790E-18 1.34508E-18
 -1      1478 9.55327E-05-2.86394E-05-2.86715E-05-1.98984E-07 2.02998E-18 8.68640E-19
 -1      1479 9.53081E-05-2.85841E-05-2.85954E-05-4.23703E-08-4.89945E-20 5.85154E-19
 -1      1480 9.52746E-05-2.85753E-05-2.85851E-05-3.66139E-08-5.38749E-19 3.69644E-19
 -1      1481 9.53888E-05-2.86010E-05-2.86256E-05-1.16904E-07 1.32837E-18 3.24306E-19
 -1      1482 9.52428E-05-2.85663E-05-2.85754E-05-1.41704E-08 4.14164E-19 2.17781E-19
 -1      1483 9.52349E-05-2.85654E-05-2.85724E-05-9.61249E-09-4.15165E-20 7.67371E-19
 -1      1484 9.53015E-05-2.85783E-05-2.85973E-05-5.43896E-08-2.61765E-19-3.20922E-19
 -1      1485 9.52199E-05-2.85610E-05-2.85677E-05 5.87045E-09-2.91163E-19 1.50809E-19
 -1      1486 9.52302E-05-2.85676E-05-2.85685E-05 9.44375E-09-5.29684E-19 7.03872E-19
 -1      1487 9.52554E-05-2.85682E-05-2.85812E-05-8.86486E-09-2.26355E-19-9.86698E-19
 -1      1488 9.52305E-05-2.85749E-05-2.85638E-05 8.78512E-09-8.50643E-19 5.85397E-19
 -1      1489 9.52405E-05-2.85771E-05-2.85695E-05 1.39961E-08-3.82517E-19-2.79108E-20
 -1      1490 9.63710E-05-2.83031E-05-2.97080E-05 2.94836E-06 6.24846E-19 4.72057E-18
 -1      1491 1.02272E-04-2.93208E-05-3.20747E-05 4.41125E-06 5.07479E-19 5.58417E-18
 -1      1492 1.02127E-04-2.66709E-05-3.26407E-05 1.26757E-05 9.91717E-19 3.64203E-18
 -1      1493 9.19243E-05-2.73962E-05-2.77298E-05 1.10274E-06 3.74058E-19 3.65373E-18
 -1      1494 9.38196E-05-2.75367E-05-2.86275E-05 1.42537E-06 3.76056E-19 4.25466E-18
 -1      1495 9.63744E-05-2.79977E-05-2.94995E-05 4.77218E-06 8.58733E-19 2.88424E-18
 -1      1496 9.02106E-05-2.70051E-05-2.70683E-05 2.69608E-07 2.16907E-19 2.93685E-18
 -1      1497 9.07651E-05-2.70043E-05-2.73219E-05 4.35619E-07 2.22346E-19 3.30486E-18
 -1      1498 9.30350E-05-2.75729E-05-2.80989E-05 1.74238E-06 5.98945E-19 2.13521E-18
 -1      1499 8.98519E-05-2.69325E-05-2.69414E-05-1.40861E-07 1.62058E-19 2.43985E-18
 -1      1500 8.98078E-05-2.68446E-05-2.69445E-05-4.59926E-08 1.66205E-19 2.73728E-18
 -1      1501 9.16167E-05-2.73380E-05-2.75580E-05 3.73681E-07 4.19268E-19 1.50339E-18
 -1      1502 9.02043E-05-2.70489E-05-2.70507E-05-3.63425E-07 7.37977E-20 2.20996E-18
 -1      1503 8.98609E-05-2.69048E-05-2.69505E-05-3.04390E-07 7.55034E-20 2.24497E-18
 -1      1504 9.12670E-05-2.73072E-05-2.74189E-05-3.32154E-07 1.91982E-19 1.33553E-18
 -1      1505 9.09640E-05-2.72809E-05-2.72825E-05-4.95066E-07-4.64263E-20 2.19161E-18
 -1      1506 9.04551E-05-2.71018E-05-2.71318E-05-4.54962E-07-6.03685E-20 2.08983E-18
 -1      1507 9.15340E-05-2.74202E-05-2.74858E-05-7.30469E-07-5.35087E-20 1.17285E-18
 -1      1508 9.19800E-05-2.75869E-05-2.75901E-05-5.83099E-07 2.87189E-19 2.02769E-18
 -1      1509 9.13676E-05-2.73843E-05-2.74085E-05-5.52607E-07 1.45885E-19 2.26074E-18
 -1      1510 9.21783E-05-2.76285E-05-2.76727E-05-9.76992E-07 1.64836E-19 9.56982E-19
 -1      1511 9.31812E-05-2.79465E-05-2.79531E-05-6.54110E-07 2.75216E-19 1.27323E-18
 -1      1512 9.24913E-05-2.77246E-05-2.77481E-05-6.27322E-07 3.38180E-19 1.68918E-18
 -1      1513 9.30745E-05-2.79027E-05-2.79392E-05-1.15177E-06 5.29288E-19 7.86010E-19
 -1      1514 9.45420E-05-2.83526E-05-2.83640E-05-7.23780E-07 2.54835E-19 8.46656E-19
 -1      1515 9.37798E-05-2.81107E-05-2.81371E-05-6.96818E-07 9.82467E-20 9.98635E-19
 -1      1516 9.41612E-05-2.82283E-05-2.82656E-05-1.30022E-06 3.46480E-19 3.07270E-19
 -1      1517 9.60617E-05-2.88062E-05-2.88226E-05-8.00260E-07 1.00224E-19 7.70122E-19
 -1      1518 9.52214E-05-2.85408E-05-2.85723E-05-7.70822E-07 1.66630E-19 9.76596E-19
 -1      1519 9.54133E-05-2.86003E-05-2.86434E-05-1.44811E-06 1.77989E-19 1.52210E-19
 -1      1520 9.77495E-05-2.93110E-05-2.93309E-05-8.84682E-07 5.72674E-20 4.94694E-19
 -1      1521 9.68218E-05-2.90182E-05-2.90549E-05-8.52115E-07 1.09159E-19 7.10049E-19
 -1      1522 9.68246E-05-2.90194E-05-2.90693E-05-1.60639E-06 1.02263E-19 5.05571E-19
 -1      1523 9.96089E-05-2.98697E-05-2.98891E-05-9.70084E-07 2.43907E-19 2.05544E-19
 -1      1524 9.85889E-05-2.95475E-05-2.95865E-05-9.35847E-07 4.25043E-20 2.45812E-19
 -1      1525 9.83938E-05-2.94884E-05-2.95415E-05-1.77136E-06 1.30805E-19 2.65722E-19
 -1      1526 1.01619E-04-3.04780E-05-3.04894E-05-1.03921E-06 2.21605E-19-1.74687E-19
 -1      1527 1.00517E-04-3.01299E-05-3.01641E-05-1.00768E-06 2.36205E-19-2.15861E-20
 -1      1528 1.00110E-04-3.00075E-05-3.00541E-05-1.92198E-06 4.30422E-19-1.20964E-19
 -1      1529 1.03710E-04-3.11181E-05-3.11092E-05-1.06181E-06 2.84612E-19-8.82152E-19
 -1      1530 1.02566E-04-3.07573E-05-3.07741E-05-1.04134E-06 3.38214E-19-4.42469E-19
 -1      1531 1.01934E-04-3.05703E-05-3.05927E-05-2.01566E-06 5.20111E-19-8.83892E-19
 -1      1532 1.05742E-04-3.17503E-05-3.17039E-05-9.92871E-07 7.01631E-20-1.34718E-18
 -1      1533 1.04638E-04-3.14048E-05-3.13846E-05-9.96705E-07 2.22298E-19-1.03212E-18
 -1      1534 1.03782E-04-3.11574E-05-3.11281E-05-1.98421E-06 4.04628E-19-1.00164E-18
 -1      1535 1.07473E-04-3.23040E-05-3.21996E-05-7.74885E-07-6.01071E-19-4.47789E-19
 -1      1536 1.06552E-04-3.20222E-05-3.19392E-05-8.21025E-07-3.86403E-19-1.08666E-18
 -1      1537 1.05504E-04-3.17293E-05-3.16116E-05-1.73405E-06-3.69650E-19-4.98939E-19
 -1      1538 1.08555E-04-3.26725E-05-3.24930E-05-3.49565E-07 2.53733E-19-3.86717E-19
 -1      1539 1.08024E-04-3.25250E-05-3.23519E-05-4.57856E-07-1.58316E-19-4.70394E-19
 -1      1540 1.06868E-04-3.22181E-05-3.19726E-05-1.15817E-06-3.59840E-19-5.25002E-19
 -1      1541 1.08563E-04-3.27180E-05-3.24632E-05 3.14379E-07-1.58157E-20-7.15577E-19
 -1      1542 1.08674E-04-3.27911E-05-3.25117E-05 1.30275E-07 1.79809E-19-7.02326E-19
 -1      1543 1.07569E-04-3.25233E-05-3.21237E-05-1.70538E-07 2.90003E-19-6.58351E-19
 -1      1544 1.07093E-04-3.22987E-05-3.20044E-05 1.17489E-06-8.21457E-20-6.75165E-19
 -1      1545 1.08080E-04-3.26722E-05-3.23033E-05 9.21837E-07-9.37163E-20-6.05854E-19
 -1      1546 1.07267E-04-3.25161E-05-3.19794E-05 1.22791E-06-6.96949E-20-5.47565E-19
 -1      1547 1.03955E-04-3.13294E-05-3.10824E-05 2.06562E-06-1.37702E-19-9.32795E-20
 -1      1548 1.05917E-04-3.20339E-05-3.16484E-05 1.78769E-06-7.08067E-21-2.30393E-19
 -1      1549 1.05695E-04-3.20676E-05-3.14891E-05 2.85968E-06-2.43224E-19-4.22828E-19
 -1      1550 9.94173E-05-2.98704E-05-2.97952E-05 2.68302E-06-1.26492E-20-2.27058E-19
 -1      1551 1.02170E-04-3.08330E-05-3.05650E-05 2.46736E-06-2.10235E-19-4.38392E-19
 -1      1552 1.02829E-04-3.11122E-05-3.06800E-05 4.30593E-06-2.87147E-19-1.65674E-19
 -1      1553 9.43772E-05-2.82039E-05-2.84036E-05 2.67443E-06 1.59669E-19-5.77279E-19
 -1      1554 9.73635E-05-2.92155E-05-2.92175E-05 2.62591E-06 4.12895E-19-2.91882E-19
 -1      1555 9.90692E-05-2.97424E-05-2.96890E-05 4.96009E-06 5.18644E-19-1.04767E-19
 -1      1556 9.02373E-05-2.68116E-05-2.72806E-05 1.84149E-06-3.67725E-19-2.93232E-19
 -1      1557 9.26162E-05-2.75654E-05-2.79161E-05 2.02369E-06-1.88657E-19-8.82211E-19
 -1      1558 9.53065E-05-2.82762E-05-2.87517E-05 4.28712E-06 1.55550E-19 2.82155E-19
 -1      1559 8.83908E-05-2.61922E-05-2.67788E-05 3.51290E-07-4.02539E-19 2.06391E-19
 -1      1560 8.93616E-05-2.64141E-05-2.70331E-05 7.24311E-07-8.04774E-19-5.07584E-19
 -1      1561 9.27077E-05-2.72081E-05-2.81355E-05 2.21040E-06-8.00036E-19-9.81367E-19
 -1      1562 8.95178E-05-2.65890E-05-2.70661E-05-1.27492E-06-2.23782E-19 1.91189E-18
 -1      1563 8.87241E-05-2.61892E-05-2.68534E-05-8.45856E-07-8.45180E-20 1.01618E-18
 -1      1564 9.22019E-05-2.69732E-05-2.80326E-05-6.62993E-07-6.51633E-19-1.05628E-19
 -1      1565 9.32112E-05-2.78469E-05-2.80489E-05-2.43476E-06 7.63759E-19 6.62406E-19
 -1      1566 9.09393E-05-2.69759E-05-2.74398E-05-2.10905E-06 2.57869E-19 1.08510E-18
 -1      1567 9.39856E-05-2.76830E-05-2.84775E-05-3.29563E-06 3.34393E-19 7.39063E-19
 -1      1568 9.81997E-05-2.95036E-05-2.94122E-05-2.79053E-06 3.59918E-19-1.65648E-18
 -1      1569 9.52188E-05-2.84636E-05-2.86020E-05-2.65723E-06 1.00000E-18 6.31040E-20
 -1      1570 9.74049E-05-2.90442E-05-2.93296E-05-4.78284E-06 1.58722E-18-5.82706E-19
 -1      1571 1.03022E-04-3.10551E-05-3.07738E-05-2.40361E-06 2.69811E-19-2.03873E-18
 -1      1572 1.00186E-04-3.01395E-05-2.99865E-05-2.45261E-06 6.79347E-20-1.64737E-18
 -1      1573 1.01328E-04-3.05467E-05-3.03387E-05-4.83268E-06 4.58486E-19-9.22313E-19
 -1      1574 1.06628E-04-3.21683E-05-3.18338E-05-1.59151E-06-6.38451E-20-2.11748E-18
 -1      1575 1.04534E-04-3.15502E-05-3.12362E-05-1.74980E-06-1.45058E-19-2.42217E-18
 -1      1576 1.04704E-04-3.17544E-05-3.12501E-05-3.77067E-06 1.60380E-19-9.59629E-19
 -1      1577 1.08602E-04-3.27377E-05-3.24501E-05-6.98911E-07-1.52426E-19-2.66317E-18
 -1      1578 1.07470E-04-3.24532E-05-3.21134E-05-8.86542E-07 3.40097E-19-2.28805E-18
 -1      1579 1.06916E-04-3.24616E-05-3.18885E-05-2.20314E-06 5.25028E-20-1.71677E-18
 -1      1580 1.09047E-04-3.28241E-05-3.26265E-05 4.56939E-08-1.01005E-18-1.27585E-18
 -1      1581 1.08798E-04-3.28181E-05-3.25392E-05-1.17541E-07-9.12506E-19-2.43378E-18
 -1      1582 1.07827E-04-3.26744E-05-3.21889E-05-6.68186E-07-6.03306E-19-1.45251E-18
 -1      1583 1.08339E-04-3.25633E-05-3.24560E-05 5.52929E-07-6.18400E-20 8.10306E-19
 -1      1584 1.08742E-04-3.27460E-05-3.25594E-05 4.36533E-07-7.23492E-19-6.84833E-19
 -1      1585 1.07627E-04-3.25116E-05-3.21775E-05 5.25785E-07-1.37172E-18 2.06537E-19
 -1      1586 1.06917E-04-3.20985E-05-3.20610E-05 8.29713E-07 6.70992E-19 2.89857E-19
 -1      1587 1.07713E-04-3.23830E-05-3.22836E-05 7.60956E-07 4.50575E-19 1.13068E-18
 -1      1588 1.06647E-04-3.21164E-05-3.19318E-05 1.28898E-06 6.15853E-20 5.89416E-20
 -1      1589 1.05160E-04-3.15460E-05-3.15539E-05 9.27437E-07-1.44308E-19 2.44038E-19
 -1      1590 1.06132E-04-3.18661E-05-3.18327E-05 8.96861E-07 2.74883E-19 5.04276E-19
 -1      1591 1.05221E-04-3.16099E-05-3.15420E-05 1.66655E-06 4.44052E-19 7.95172E-19
 -1      1592 1.03344E-04-3.09868E-05-3.10195E-05 9.06149E-07-3.68488E-21-1.07889E-18
 -1      1593 1.04337E-04-3.12993E-05-3.13084E-05 9.01871E-07 3.39459E-19-5.22083E-19
 -1      1594 1.03623E-04-3.10783E-05-3.10878E-05 1.75798E-06 9.40579E-19 1.07103E-18
 -1      1595 1.01642E-04-3.04697E-05-3.05127E-05 8.17031E-07 5.84928E-19-2.20114E-18
 -1      1596 1.02563E-04-3.07504E-05-3.07830E-05 8.28608E-07 2.76176E-19-1.88336E-18
 -1      1597 1.02042E-04-3.05746E-05-3.06282E-05 1.66623E-06 5.05437E-19-8.64864E-19
 -1      1598 1.00145E-04-3.00194E-05-3.00637E-05 6.97242E-07-1.25364E-19-2.37042E-18
 -1      1599 1.00946E-04-3.02577E-05-3.03004E-05 7.16891E-07-1.82538E-19-2.84627E-18
 -1      1600 1.00594E-04-3.01272E-05-3.02006E-05 1.47503E-06 4.96754E-19-8.95901E-19
 -1      1601 9.88894E-05-2.96441E-05-2.96849E-05 5.70824E-07-3.91968E-20-2.87797E-18
 -1      1602 9.95545E-05-2.98381E-05-2.98823E-05 5.93347E-07 3.68153E-20-2.91999E-18
 -1      1603 9.93369E-05-2.97476E-05-2.98254E-05 1.24353E-06 3.18977E-20-1.80752E-18
 -1      1604 9.78734E-05-2.93421E-05-2.93772E-05 4.51704E-07 3.34608E-19-2.11195E-18
 -1      1605 9.84056E-05-2.94948E-05-2.95358E-05 4.73943E-07 2.56818E-19-1.91457E-18
 -1      1606 9.82895E-05-2.94367E-05-2.95101E-05 1.00920E-06-1.05661E-19-1.01832E-18
 -1      1607 9.70767E-05-2.91064E-05-2.91352E-05 3.46805E-07-7.77682E-20-2.32672E-18
 -1      1608 9.74894E-05-2.92229E-05-2.92587E-05 3.67053E-07 5.74419E-19-1.55214E-18
 -1      1609 9.74452E-05-2.91897E-05-2.92542E-05 7.93158E-07 5.92413E-19 1.79301E-18
 -1      1610 9.64698E-05-2.89276E-05-2.89505E-05 2.58579E-07 6.83694E-20-2.30746E-18
 -1      1611 9.67805E-05-2.90138E-05-2.90436E-05 2.76085E-07-8.53522E-20-2.54237E-18
 -1      1612 9.67842E-05-2.89986E-05-2.90527E-05 6.05360E-07 6.30415E-19 1.19900E-18
 -1      1613 9.60208E-05-2.87958E-05-2.88135E-05 1.86815E-07-1.19125E-18-2.43319E-19
 -1      1614 9.62476E-05-2.88576E-05-2.88817E-05 2.01425E-07-9.79079E-19-2.06500E-18
 -1      1615 9.62807E-05-2.88546E-05-2.88985E-05 4.48687E-07-1.28474E-18 1.06581E-18
 -1      1616 9.56995E-05-2.87018E-05-2.87152E-05 1.29844E-07 2.64845E-19-4.08017E-20
 -1      1617 9.58591E-05-2.87443E-05-2.87634E-05 1.41762E-07-1.66640E-20-5.29959E-19
 -1      1618 9.59080E-05-2.87491E-05-2.87838E-05 3.21862E-07-2.82919E-19 9.39790E-19
 -1      1619 9.54793E-05-2.86376E-05-2.86478E-05 8.52750E-08 3.74742E-19-3.10343E-19
 -1      1620 9.55861E-05-2.86652E-05-2.86801E-05 9.49164E-08-1.71309E-19-7.20143E-19
 -1      1621 9.56411E-05-2.86743E-05-2.87013E-05 2.21350E-07 1.13979E-19 1.72264E-19
 -1      1622 9.53383E-05-2.85966E-05-2.86046E-05 5.05083E-08 9.24122E-19-9.25332E-19
 -1      1623 9.54040E-05-2.86127E-05-2.86245E-05 5.83904E-08 7.02417E-19 3.60269E-19
 -1      1624 9.54579E-05-2.86234E-05-2.86445E-05 1.42606E-07 7.87076E-19-5.64595E-19
 -1      1625 9.52593E-05-2.85739E-05-2.85802E-05 2.32179E-08 8.00742E-20-3.38536E-18
 -1      1626 9.52926E-05-2.85808E-05-2.85905E-05 2.98612E-08 1.27041E-18-1.86055E-18
 -1      1627 9.53403E-05-2.85912E-05-2.86079E-05 8.10523E-08 1.92902E-18 9.82185E-19
 -1      1628 9.52277E-05-2.85655E-05-2.85698E-05 1.83398E-09 4.26392E-19-3.53118E-18
 -1      1629 9.52360E-05-2.85651E-05-2.85730E-05 7.74999E-09-1.88312E-19-3.16153E-18
 -1      1630 9.52728E-05-2.85731E-05-2.85866E-05 3.32066E-08 8.34805E-20-1.20758E-18
 -1      1631 9.52291E-05-2.85689E-05-2.85672E-05-1.07812E-08-5.65827E-20-4.11564E-18
 -1      1632 9.52204E-05-2.85633E-05-2.85667E-05-6.89178E-09 2.64713E-19-3.89755E-18
 -1      1633 9.52425E-05-2.85680E-05-2.85753E-05-1.75754E-09 5.77690E-19-9.99566E-19
 -1      1634 9.52320E-05-2.85753E-05-2.85646E-05-7.68177E-09-2.46920E-18-2.90809E-18
 -1      1635 9.52457E-05-2.85838E-05-2.85698E-05-1.99159E-09 2.15373E-19 2.68883E-18
 -1      1636 9.52422E-05-2.85784E-05-2.85694E-05-5.06595E-09-2.95570E-18 2.82720E-18
 -1      1637 9.52389E-05-2.85585E-05-2.85780E-05 1.76262E-08 2.83208E-18 2.11909E-18
 -1      1638 9.52422E-05-2.85701E-05-2.85741E-05 1.32948E-08 1.28845E-18 1.36125E-18
 -1      1639 9.52414E-05-2.85529E-05-2.85815E-05 1.43239E-08 5.19932E-19 3.12538E-18
 -1      1640 9.52210E-05-2.85051E-05-2.85931E-05 3.54400E-08 3.41160E-18 2.22929E-19
 -1      1641 9.52306E-05-2.85337E-05-2.85849E-05 3.21790E-08 2.59987E-18 2.20287E-18
 -1      1642 9.52287E-05-2.85130E-05-2.85936E-05 5.05015E-08 1.38021E-18 2.05596E-18
 -1      1643 9.51967E-05-2.84331E-05-2.86132E-05 4.51642E-08 5.26957E-18 1.21035E-18
 -1      1644 9.52098E-05-2.84721E-05-2.86022E-05 4.39242E-08 3.01399E-18 1.91492E-18
 -1      1645 9.52073E-05-2.84534E-05-2.86094E-05 7.81922E-08 1.57571E-18 1.40708E-18
 -1      1646 9.51717E-05-2.83589E-05-2.86342E-05 4.48586E-08 9.14361E-19-2.59608E-18
 -1      1647 9.51849E-05-2.83983E-05-2.86230E-05 4.56815E-08 3.60569E-18-2.11719E-18
 -1      1648 9.51817E-05-2.83838E-05-2.86276E-05 8.87087E-08 1.29281E-18-1.89971E-18
 -1      1649 9.51504E-05-2.82951E-05-2.86523E-05 3.50062E-08 7.75739E-19 3.50215E-19
 -1      1650 9.51612E-05-2.83275E-05-2.86430E-05 3.76483E-08 7.49974E-19-2.26145E-19
 -1      1651 9.51569E-05-2.83163E-05-2.86453E-05 8.03209E-08 7.68603E-19-1.97137E-18
 -1      1652 9.51374E-05-2.82562E-05-2.86633E-05 1.78617E-08 6.61572E-19-1.31605E-18
 -1      1653 9.51433E-05-2.82738E-05-2.86583E-05 2.17058E-08 7.60615E-19 1.09062E-18
 -1      1654 9.51373E-05-2.82628E-05-2.86593E-05 5.51458E-08 5.79831E-19 1.65880E-19
 -1      1655 9.51352E-05-2.82497E-05-2.86652E-05-2.99050E-09 1.22008E-18 1.74799E-18
 -1      1656 9.51350E-05-2.82489E-05-2.86654E-05 1.27006E-09 7.73525E-19-8.36031E-19
 -1      1657 9.51267E-05-2.82336E-05-2.86670E-05 1.86301E-08 6.68603E-19-1.30869E-18
 -1      1658 9.51444E-05-2.82772E-05-2.86573E-05-2.33445E-08 1.01862E-19 4.56382E-19
 -1      1659 9.51379E-05-2.82579E-05-2.86628E-05-1.95269E-08-1.22075E-20 6.90095E-19
 -1      1660 9.51270E-05-2.82345E-05-2.86668E-05-2.18104E-08 8.56126E-19 4.09659E-19
 -1      1661 9.51630E-05-2.83331E-05-2.86414E-05-3.90157E-08-1.56246E-18-1.33897E-18
 -1      1662 9.51517E-05-2.82993E-05-2.86510E-05-3.64555E-08-5.78181E-19-2.58376E-19
 -1      1663 9.51382E-05-2.82652E-05-2.86587E-05-5.80491E-08-2.17994E-18-1.06688E-18
 -1      1664 9.51870E-05-2.84047E-05-2.86211E-05-4.64834E-08-2.80770E-18-7.79664E-19
 -1      1665 9.51735E-05-2.83645E-05-2.86326E-05-4.57774E-08-1.07915E-18-2.01204E-18
 -1      1666 9.51582E-05-2.83197E-05-2.86444E-05-8.24446E-08-1.78439E-18-2.40230E-18
 -1      1667 9.52123E-05-2.84795E-05-2.86001E-05-4.39125E-08-1.57922E-18 5.69740E-19
 -1      1668 9.51992E-05-2.84405E-05-2.86112E-05-4.53631E-08-2.37242E-18 1.72141E-18
 -1      1669 9.51834E-05-2.83882E-05-2.86265E-05-8.96891E-08-1.47869E-18 8.02643E-19
 -1      1670 9.52327E-05-2.85403E-05-2.85831E-05-3.10544E-08-3.12056E-18-3.55412E-19
 -1      1671 9.52235E-05-2.85124E-05-2.85910E-05-3.45604E-08-1.71230E-18-4.77072E-19
 -1      1672 9.52094E-05-2.84587E-05-2.86081E-05-7.74398E-08 8.26755E-20-7.00954E-19
 -1      1673 9.52446E-05-2.85745E-05-2.85731E-05-1.21203E-08-1.46619E-18 9.13525E-19
 -1      1674 9.52404E-05-2.85639E-05-2.85764E-05-1.68094E-08-3.04350E-18 7.69668E-20
 -1      1675 9.52297E-05-2.85168E-05-2.85924E-05-4.78754E-08 9.28894E-20-7.61174E-20
 -1      1676 9.52439E-05-2.85748E-05-2.85717E-05 3.42355E-09-5.92705E-19-4.22473E-19
 -1      1677 9.52470E-05-2.85797E-05-2.85724E-05-4.78785E-10-7.74193E-19-1.42204E-19
 -1      1678 9.52451E-05-2.85467E-05-2.85847E-05-1.94864E-08-3.64126E-19 1.10701E-18
 -1      1679 9.52472E-05-2.85587E-05-2.85798E-05 2.73956E-10-1.16802E-19-5.94893E-19
 -1      1680 2.01620E-05-6.46734E-05 1.32499E-05-4.97506E-06 2.56736E-18 5.49513E-19
 -1      1681 2.36463E-05-7.53826E-05 1.55974E-05 2.57191E-06 1.42174E-18 1.19220E-18
 -1      1682 1.91785E-05-3.73336E-05 3.52109E-06 2.88613E-06 9.42748E-19-1.06620E-18
 -1      1683 2.37625E-05-6.00520E-05 9.41818E-06-1.00466E-06 2.03796E-18-5.89535E-19
 -1      1684 3.30677E-05-1.00126E-05-1.18169E-05 2.79442E-05 8.70750E-19 2.16713E-18
 -1      1685 2.76675E-05-3.04746E-05-3.40465E-06 1.04651E-05 1.11131E-18 2.74439E-19
 -1      1686 7.24392E-05-2.71252E-07-3.02553E-05 5.93219E-05 3.04847E-18 4.51977E-18
 -1      1687 4.85896E-05-6.16038E-06-2.05573E-05 3.66211E-05 7.07273E-19 2.80368E-18
 -1      1688 1.38747E-04-1.68326E-05-4.90344E-05 7.51449E-05 3.31402E-18 3.29242E-18
 -1      1689 9.80304E-05-5.16425E-06-3.94916E-05 6.24718E-05 3.66426E-18 4.10642E-18
 -1      1690 2.03634E-04-4.16244E-05-6.42226E-05 6.49505E-05 1.70137E-18 8.53809E-19
 -1      1691 1.61470E-04-2.12301E-05-5.71530E-05 7.36080E-05 3.25239E-18 3.12725E-18
 -1      1692 2.44055E-04-6.02137E-05-7.27420E-05 2.38535E-05 6.25746E-19-9.30042E-19
 -1      1693 2.19369E-04-4.65828E-05-6.91641E-05 5.23100E-05 9.18184E-19 2.73592E-19
 -1      1694 2.45438E-04-5.98666E-05-7.35542E-05-2.60211E-05 7.28660E-19-2.54491E-18
 -1      1695 2.50706E-04-6.29252E-05-7.43174E-05 8.76776E-06 3.02814E-19-1.56865E-18
 -1      1696 2.04088E-04-3.92471E-05-6.61027E-05-6.36593E-05 3.45552E-18-5.57263E-18
 -1      1697 2.36211E-04-5.66339E-05-7.08746E-05-4.09529E-05 2.32913E-18-2.87864E-18
 -1      1698 1.40346E-04-1.38750E-05-5.19261E-05-7.38010E-05 4.16571E-18-6.53232E-18
 -1      1699 1.84096E-04-3.30928E-05-5.99466E-05-7.26087E-05 2.90236E-18-6.34682E-18
 -1      1700 7.92763E-05-7.61359E-07-3.40583E-05-5.77771E-05 5.37188E-18-5.93940E-18
 -1      1701 1.15353E-04-7.64402E-06-4.35432E-05-7.50743E-05 4.59600E-18-6.92111E-18
 -1      1702 4.12516E-05-1.11094E-05-1.58323E-05-2.92509E-05 5.63362E-18-4.44777E-18
 -1      1703 5.89796E-05-5.29382E-07-2.50315E-05-5.11574E-05 5.54129E-18-5.83013E-18
 -1      1704 2.56199E-05-3.83668E-05 4.05377E-07-5.82816E-06 5.14149E-18-2.67197E-18
 -1      1705 2.74867E-05-1.59617E-05-7.53213E-06-2.03452E-05 5.76321E-18-3.71127E-18
 -1      1706 2.37889E-05-6.56668E-05 1.18141E-05 5.10312E-07 2.25904E-18-1.93611E-18
 -1      1707 1.84531E-05-4.50378E-05 6.68863E-06 9.50396E-07 4.26650E-18-2.61108E-18
 -1      1708 2.16246E-05-7.08471E-05 1.53846E-05-4.84077E-06 3.67771E-19-5.26431E-19
 -1      1709 2.00542E-05-6.55691E-05 1.41219E-05 3.32491E-06 1.42640E-18-9.17337E-19
 -1      1710 1.93375E-05-6.02522E-05 1.19359E-05-6.35026E-06-2.34035E-18-2.07629E-18
 -1      1711 2.35564E-05-7.34195E-05 1.50605E-05-2.98003E-08-2.20017E-19-1.18225E-18
 -1      1712 2.06301E-05-3.30371E-05 1.11196E-06 4.69995E-06-4.75694E-18-2.94513E-18
 -1      1713 2.39690E-05-5.56072E-05 7.52091E-06-1.85766E-06-3.19416E-18-1.93981E-18
 -1      1714 3.93098E-05-9.36039E-06-1.48269E-05 3.19515E-05-4.36222E-18-2.28106E-18
 -1      1715 3.05670E-05-2.68507E-05-6.15283E-06 1.28117E-05-4.81454E-18-2.62919E-18
 -1      1716 9.25360E-05-1.09031E-05-3.40477E-05 6.03658E-05-2.65206E-18-4.17926E-18
 -1      1717 6.46947E-05-1.30079E-05-2.40281E-05 3.96005E-05-3.45251E-18-2.81384E-18
 -1      1718 1.51586E-04-2.14890E-05-5.21069E-05 7.52974E-05-2.90871E-18-6.22823E-18
 -1      1719 1.10900E-04-8.24826E-06-4.32250E-05 6.57389E-05-2.93751E-18-5.06187E-18
 -1      1720 2.14992E-04-4.67404E-05-6.64069E-05 5.94795E-05-3.09463E-18-4.28429E-18
 -1      1721 1.74044E-04-2.72542E-05-5.95264E-05 6.98989E-05-3.18251E-18-5.60482E-18
 -1      1722 2.56003E-04-6.50290E-05-7.48592E-05 2.26815E-05-1.60110E-18-1.60174E-18
 -1      1723 2.33174E-04-5.23774E-05-7.16435E-05 5.17471E-05-2.73020E-18-3.63208E-18
 -1      1724 2.49257E-04-6.04810E-05-7.45691E-05-2.69598E-05-1.28029E-18 2.12648E-18
 -1      1725 2.56024E-04-6.42351E-05-7.55299E-05 6.92516E-06-1.35356E-18 2.91168E-20
 -1      1726 2.09982E-04-4.14495E-05-6.72279E-05-6.52168E-05-2.75614E-18 5.16521E-18
 -1      1727 2.43043E-04-5.90965E-05-7.21523E-05-4.29295E-05-1.63329E-18 3.22127E-18
 -1      1728 1.47152E-04-1.77790E-05-5.31070E-05-7.21733E-05-2.98494E-18 4.75440E-18
 -1      1729 1.89841E-04-3.59593E-05-6.09094E-05-7.11924E-05-2.11165E-18 5.00766E-18
 -1      1730 8.60237E-05-3.73364E-06-3.56712E-05-5.83165E-05-4.27328E-18 4.66885E-18
 -1      1731 1.22811E-04-1.14948E-05-4.49812E-05-7.44307E-05-3.67273E-18 3.99037E-18
 -1      1732 4.45501E-05-1.21824E-05-1.68740E-05-2.95135E-05-3.68798E-18 3.65156E-18
 -1      1733 6.45050E-05-2.53712E-06-2.65337E-05-5.22247E-05-4.84079E-18 4.71797E-18
 -1      1734 2.87362E-05-3.96243E-05-2.71082E-07-7.10557E-06-5.85300E-19 1.67458E-18
 -1      1735 3.21487E-05-1.84385E-05-8.44402E-06-2.21956E-05-2.31325E-18 3.65834E-18
 -1      1736 2.37474E-05-6.53844E-05 1.13661E-05 3.41425E-06 8.08916E-20 4.07370E-19
 -1      1737 1.86562E-05-4.50528E-05 6.38806E-06 2.20509E-06-6.29345E-19 4.28069E-19
 -1      1738 2.37878E-05-7.68755E-05 1.60589E-05-6.41301E-07 9.58153E-19 8.48515E-19
 -1      1739 2.11849E-05-6.96473E-05 1.45046E-05 7.60631E-06-2.49451E-19 9.12254E-19
 -1      1740 1.13095E-04-3.01882E-05-3.44901E-05 4.58209E-05 8.49151E-19 2.59531E-18
 -1      1741 6.97783E-05-3.22709E-05-1.72706E-05 3.99263E-05 1.00797E-19 2.79013E-18
 -1      1742 9.52398E-05-2.85789E-05-2.85679E-05-1.26100E-08-3.03547E-18 1.26900E-18
 -1      1743 9.52404E-05-2.85661E-05-2.85741E-05-9.32782E-09-4.02009E-19 3.11659E-18
 -1      1744 1.89303E-05-4.74000E-05 7.94279E-06 1.45106E-05 4.05305E-19-7.94729E-19
 -1      1745 3.83909E-05-4.01304E-05-2.33544E-06 2.77157E-05 1.54329E-18 1.89947E-19
 -1      1746 1.18212E-05-5.08077E-05 1.19911E-05 2.21686E-06-2.64698E-21 1.81350E-18
 -1      1747 1.56228E-04-3.10244E-05-5.08073E-05 4.06477E-05 2.90236E-18 7.66565E-19
 -1      1748 1.88967E-04-3.11525E-05-6.32583E-05 2.75266E-05 1.94500E-18-3.62107E-19
 -1      1749 2.06498E-04-3.27323E-05-6.94146E-05 6.89145E-06 1.04185E-18-1.17272E-18
 -1      1750 2.04464E-04-3.30366E-05-6.83729E-05-1.54293E-05 2.23744E-18-1.69089E-18
 -1      1751 1.80718E-04-3.12461E-05-5.99808E-05-3.40788E-05 2.64920E-18-2.36661E-18
 -1      1752 1.42566E-04-2.90771E-05-4.62142E-05-4.61240E-05 2.48435E-18-3.35594E-18
 -1      1753 9.87227E-05-2.89948E-05-2.95720E-05-4.59187E-05 3.13614E-18-4.13776E-18
 -1      1754 6.06290E-05-3.42006E-05-1.30545E-05-3.69628E-05 3.35340E-18-3.19162E-18
 -1      1755 3.23782E-05-4.25294E-05 8.44551E-07-2.44107E-05 2.56482E-18-3.22174E-18
 -1      1756 1.53341E-05-4.58799E-05 9.05680E-06-1.20111E-05 1.28410E-18-2.42760E-18
 -1      1757 1.15545E-05-4.63240E-05 1.08726E-05 1.99398E-06-1.08420E-19-1.55981E-18
 -1      1758 2.23025E-05-4.69646E-05 6.39118E-06 1.58141E-05-9.53336E-19-2.78801E-18
 -1      1759 4.44903E-05-4.01843E-05-4.75632E-06 2.84464E-05-2.12944E-18-1.62821E-18
 -1      1760 8.45010E-05-3.77709E-05-2.06168E-05 4.02950E-05-1.96342E-18-1.14265E-18
 -1      1761 1.26963E-04-3.76033E-05-3.75883E-05 4.08441E-05-8.22045E-19-2.95360E-18
 -1      1762 1.65816E-04-3.39118E-05-5.34683E-05 3.72764E-05-1.66537E-18-2.67408E-18
 -1      1763 1.98328E-04-3.46796E-05-6.53537E-05 2.40749E-05-2.78928E-18-1.20660E-18
 -1      1764 2.13765E-04-3.47801E-05-7.10312E-05 6.74830E-06-2.82697E-18-6.33157E-20
 -1      1765 2.09153E-04-3.45201E-05-6.93975E-05-1.53776E-05-2.46741E-18 1.38702E-18
 -1      1766 1.87196E-04-3.46953E-05-6.10515E-05-3.27897E-05-2.22441E-18 3.00358E-18
 -1      1767 1.49272E-04-3.27182E-05-4.73993E-05-4.29498E-05-1.52932E-18 1.81943E-18
 -1      1768 1.05165E-04-3.21888E-05-3.09765E-05-4.42590E-05-1.84230E-18 2.34289E-18
 -1      1769 6.62573E-05-3.75492E-05-1.41203E-05-3.64757E-05-4.67562E-19 2.83163E-18
 -1      1770 3.58132E-05-4.33707E-05 1.73525E-08-2.52727E-05-2.10911E-19 2.16205E-18
 -1      1771 1.71082E-05-4.97968E-05 9.42190E-06-1.00816E-05-8.68209E-20 9.43383E-19
 -1      1772 1.05801E-04-2.31195E-05-3.55202E-05-1.67435E-05-7.66949E-19 3.33392E-18
 -1      1773 8.91862E-05-1.05572E-05-3.38218E-05-1.31287E-05-1.04785E-18-1.01520E-18
 -1      1774 9.04920E-05-1.16324E-05-3.39474E-05-1.49062E-05-1.20244E-18-6.22728E-19
 -1      1775 9.24947E-05-1.38849E-05-3.38492E-05-1.58138E-05-1.16306E-18-1.61254E-19
 -1      1776 9.41609E-05-1.58316E-05-3.40717E-05-1.74838E-05-1.24469E-18 4.02605E-19
 -1      1777 9.34672E-05-1.63621E-05-3.30547E-05-1.35349E-05-1.19209E-18-3.49983E-19
 -1      1778 8.62629E-05-7.59312E-06-3.37874E-05-7.67012E-06-6.24513E-19-1.59060E-18
 -1      1779 8.66729E-05-7.90659E-06-3.38166E-05-9.04598E-06-7.27704E-19-1.53854E-18
 -1      1780 8.56192E-05-6.91559E-06-3.37897E-05-5.16965E-06-3.51086E-19-1.65718E-18
 -1      1781 8.58654E-05-7.10780E-06-3.38029E-05-6.45142E-06-4.77636E-19-1.64875E-18
 -1      1782 8.76138E-05-9.73205E-06-3.34095E-05-6.72386E-06-5.85900E-19-1.52154E-18
 -1      1783 8.52598E-05-6.52679E-06-3.37949E-05-2.79843E-06-7.51316E-20-1.66955E-18
 -1      1784 8.53904E-05-6.63066E-06-3.38003E-05-4.00819E-06-1.84204E-19-1.67503E-18
 -1      1785 8.69436E-05-8.97215E-06-3.34474E-05-4.38657E-06-2.44462E-19-1.59954E-18
 -1      1786 8.51159E-05-6.36400E-06-3.37987E-05-4.98182E-07 1.74920E-19-1.70097E-18
 -1      1787 8.51556E-05-6.39577E-06-3.38002E-05-1.67398E-06 8.19051E-20-1.67411E-18
 -1      1788 8.65845E-05-8.56092E-06-3.34694E-05-2.13767E-06-1.44980E-20-1.60654E-18
 -1      1789 8.51641E-05-6.40496E-06-3.37997E-05 1.79101E-06 3.41923E-19-1.68583E-18
 -1      1790 8.51192E-05-6.36879E-06-3.37984E-05 6.14161E-07 2.63810E-19-1.72363E-18
 -1      1791 8.64758E-05-8.43629E-06-3.34761E-05 6.42721E-08 2.43010E-19-1.67537E-18
 -1      1792 8.54127E-05-6.65610E-06-3.37990E-05 4.12988E-06 5.74024E-19-1.63428E-18
 -1      1793 8.52756E-05-6.54622E-06-3.37938E-05 2.91695E-06 4.41993E-19-1.66842E-18
 -1      1794 8.66007E-05-8.58140E-06-3.34677E-05 2.26769E-06 4.26538E-19-1.65475E-18
 -1      1795 8.58950E-05-7.14339E-06-3.38005E-05 6.53897E-06 7.25505E-19-1.40998E-18
 -1      1796 8.56456E-05-6.94795E-06-3.37878E-05 5.27425E-06 6.25933E-19-1.51817E-18
 -1      1797 8.69749E-05-9.01104E-06-3.34441E-05 4.50058E-06 6.30278E-19-1.56013E-18
 -1      1798 8.67314E-05-7.97521E-06-3.38130E-05 9.16725E-06 1.05733E-18-1.15333E-18
 -1      1799 8.63024E-05-7.64343E-06-3.37839E-05 7.76017E-06 8.69966E-19-1.27134E-18
 -1      1800 8.76610E-05-9.79132E-06-3.34043E-05 6.82295E-06 8.79264E-19-1.22866E-18
 -1      1801 8.81489E-05-9.36344E-06-3.38531E-05 1.20350E-05 1.28054E-18-7.41498E-19
 -1      1802 8.74117E-05-8.79202E-06-3.37896E-05 1.04462E-05 1.15286E-18-9.94787E-19
 -1      1803 8.88112E-05-1.10802E-05-3.33433E-05 9.26737E-06 1.12045E-18-9.51774E-19
 -1      1804 9.06633E-05-1.18439E-05-3.39382E-05 1.50934E-05 1.49995E-18-2.74756E-20
 -1      1805 8.93050E-05-1.07367E-05-3.38125E-05 1.32992E-05 1.34988E-18-4.38287E-19
 -1      1806 9.07142E-05-1.31903E-05-3.32429E-05 1.17352E-05 1.39731E-18-4.58854E-19
 -1      1807 9.58196E-05-1.70355E-05-3.39670E-05 1.75112E-05 1.43501E-18 1.23264E-18
 -1      1808 9.28535E-05-1.43510E-05-3.38214E-05 1.60024E-05 1.42589E-18 4.69097E-19
 -1      1809 9.39849E-05-1.68810E-05-3.30333E-05 1.36775E-05 1.50816E-18 2.28302E-19
 -1      1810 1.01768E-04-2.50594E-05-3.33053E-05 1.42882E-05 1.20416E-18 2.77975E-18
 -1      1811 9.79809E-05-1.96083E-05-3.35879E-05 1.68049E-05 1.33287E-18 1.75473E-18
 -1      1812 9.72816E-05-2.18448E-05-3.24099E-05 1.30695E-05 1.45372E-18 1.20808E-18
 -1      1813 9.86335E-05-2.61049E-05-3.13029E-05 9.30693E-06 1.25221E-18 2.41721E-18
 -1      1814 1.00015E-04-1.95495E-05-3.41646E-05-1.87222E-05-1.03583E-18 1.46187E-18
 -1      1815 9.52759E-05-2.72675E-05-2.91767E-05 3.92886E-06 9.02408E-19 1.83087E-18
 -1      1816 9.76580E-05-2.73623E-05-3.01698E-05 6.26790E-06 9.93702E-19 2.18996E-18
 -1      1817 9.75270E-05-2.55988E-05-3.08190E-05 8.59607E-06 1.20697E-18 1.46390E-18
 -1      1818 9.97202E-05-2.25243E-05-3.28034E-05-1.43076E-05-1.11165E-18 9.61488E-19
 -1      1819 9.69323E-05-2.69579E-05-2.98735E-05-5.53585E-06-8.60533E-19 8.40504E-19
 -1      1820 9.51788E-05-2.70221E-05-2.91805E-05-3.71530E-06-7.25457E-19 6.02465E-19
 -1      1821 9.44064E-05-2.72290E-05-2.86926E-05-2.20794E-06-6.93429E-19 5.58956E-19
 -1      1822 9.37044E-05-2.73219E-05-2.84099E-05-1.32550E-06-6.84727E-19 4.20697E-19
 -1      1823 9.55840E-05-2.65314E-05-2.96164E-05-4.21118E-06-8.81980E-19 1.27068E-19
 -1      1824 9.32457E-05-2.73834E-05-2.81667E-05-4.49878E-07-5.37343E-19 4.81386E-19
 -1      1825 9.30390E-05-2.74650E-05-2.80745E-05 3.32267E-08-4.07982E-19 3.31737E-19
 -1      1826 9.44850E-05-2.72128E-05-2.88531E-05-1.47583E-06-6.69944E-19 1.96793E-19
 -1      1827 9.28530E-05-2.75078E-05-2.79727E-05 5.60446E-07-3.40674E-19 2.64607E-19
 -1      1828 9.29527E-05-2.76111E-05-2.79838E-05 8.48814E-07-3.08631E-19 1.95699E-19
 -1      1829 9.39350E-05-2.75329E-05-2.84769E-05 1.27353E-07-5.01680E-19 6.80141E-20
 -1      1830 9.29709E-05-2.76650E-05-2.79710E-05 1.18801E-06-3.09189E-19 9.61085E-20
 -1      1831 9.32669E-05-2.77897E-05-2.80461E-05 1.37991E-06-1.13474E-19-7.40558E-20
 -1      1832 9.38192E-05-2.77403E-05-2.83348E-05 1.12297E-06-3.96914E-19-6.38468E-20
 -1      1833 9.34348E-05-2.78590E-05-2.80945E-05 1.62385E-06-2.25109E-19-6.97537E-20
 -1      1834 9.38699E-05-2.80019E-05-2.82150E-05 1.77459E-06-2.74200E-19-6.63808E-20
 -1      1835 9.40327E-05-2.79193E-05-2.83463E-05 1.79537E-06-2.42799E-19-1.43915E-19
 -1      1836 9.41534E-05-2.80864E-05-2.83089E-05 1.98179E-06-2.32674E-19-5.92501E-20
 -1      1837 9.47031E-05-2.82474E-05-2.84665E-05 2.12686E-06-1.44444E-19 2.90622E-20
 -1      1838 9.44962E-05-2.80955E-05-2.84672E-05 2.31493E-06-1.78947E-19-3.06896E-20
 -1      1839 9.50845E-05-2.83471E-05-2.85982E-05 2.33701E-06-2.17431E-19 1.45036E-19
 -1      1840 9.57459E-05-2.85297E-05-2.87909E-05 2.50131E-06-1.15448E-19 2.72854E-19
 -1      1841 9.51634E-05-2.82802E-05-2.86726E-05 2.79226E-06-1.27476E-19-1.24912E-19
 -1      1842 9.62197E-05-2.86466E-05-2.89571E-05 2.74261E-06-2.12545E-19-1.08292E-19
 -1      1843 9.70041E-05-2.88579E-05-2.91873E-05 2.94397E-06-2.00897E-19-4.32795E-19
 -1      1844 9.60142E-05-2.84821E-05-2.89502E-05 3.30389E-06-3.77246E-19-3.52874E-19
 -1      1845 9.75738E-05-2.89965E-05-2.93877E-05 3.23558E-06-3.05666E-19-5.31562E-19
 -1      1846 9.85020E-05-2.92471E-05-2.96602E-05 3.48500E-06-3.16635E-19-7.07176E-19
 -1      1847 9.70491E-05-2.87131E-05-2.92948E-05 3.90310E-06-4.02836E-19-7.65439E-19
 -1      1848 9.91774E-05-2.94153E-05-2.98955E-05 3.83600E-06-2.98743E-19-5.86335E-19
 -1      1849 1.00274E-04-2.97195E-05-3.02155E-05 4.13490E-06-3.94774E-19-5.86907E-19
 -1      1850 9.82838E-05-2.89919E-05-2.97049E-05 4.62170E-06-2.60192E-19-6.49380E-19
 -1      1851 1.01069E-04-2.99303E-05-3.04857E-05 4.53957E-06-2.79071E-19-6.88395E-19
 -1      1852 1.02355E-04-3.03065E-05-3.08564E-05 4.87332E-06 7.02012E-20-7.85002E-19
 -1      1853 9.97448E-05-2.93484E-05-3.01790E-05 5.46393E-06-4.21659E-19-5.54284E-19
 -1      1854 1.03286E-04-3.05806E-05-3.11579E-05 5.30141E-06 1.19552E-19-7.69117E-19
 -1      1855 1.04768E-04-3.10513E-05-3.15760E-05 5.62775E-06-2.36640E-20-3.81061E-19
 -1      1856 1.01467E-04-2.98316E-05-3.07112E-05 6.39127E-06 8.14599E-20-4.64342E-19
 -1      1857 1.05855E-04-3.14215E-05-3.18994E-05 6.00871E-06-3.81628E-20-4.08452E-19
 -1      1858 1.07506E-04-3.20116E-05-3.23495E-05 6.24047E-06 1.27047E-19-4.25533E-19
 -1      1859 1.03494E-04-3.05194E-05-3.12867E-05 7.29559E-06 2.68867E-20-3.07241E-19
 -1      1860 1.08771E-04-3.25251E-05-3.26766E-05 6.44162E-06 1.48086E-20-5.79364E-19
 -1      1861 1.10504E-04-3.32532E-05-3.31243E-05 6.42736E-06-8.35519E-20-3.60876E-19
 -1      1862 1.05875E-04-3.15285E-05-3.18772E-05 7.95987E-06 8.84746E-20-5.16002E-19
 -1      1863 1.11968E-04-3.39661E-05-3.34284E-05 6.23252E-06-4.42231E-19-5.89839E-19
 -1      1864 1.13606E-04-3.48193E-05-3.38151E-05 5.74934E-06-4.42128E-19-6.31979E-19
 -1      1865 1.08663E-04-3.30076E-05-3.24415E-05 8.01289E-06-4.42323E-19-1.03207E-18
 -1      1866 1.15259E-04-3.57606E-05-3.40666E-05 4.86225E-06-2.24848E-19-9.15345E-19
 -1      1867 1.16500E-04-3.66394E-05-3.43137E-05 3.65858E-06-3.01272E-19-8.33057E-19
 -1      1868 1.11877E-04-3.50767E-05-3.29346E-05 6.90712E-06-3.79775E-19-7.09549E-19
 -1      1869 1.18233E-04-3.77229E-05-3.44977E-05 1.78186E-06-4.34541E-19-5.84870E-19
 -1      1870 1.18651E-04-3.83478E-05-3.45305E-05-2.74436E-07-1.50640E-19-6.52526E-19
 -1      1871 1.15398E-04-3.76520E-05-3.33360E-05 3.99834E-06-1.49912E-19-7.87244E-19
 -1      1872 1.20108E-04-3.92119E-05-3.46732E-05-3.19121E-06 1.74363E-19-2.39374E-19
 -1      1873 1.19251E-04-3.90564E-05-3.44690E-05-5.81198E-06 8.14647E-19-2.52217E-19
 -1      1874 1.18741E-04-4.01005E-05-3.36992E-05-1.14132E-06 2.81215E-19-2.34587E-19
 -1      1875 1.19739E-04-3.89815E-05-3.46497E-05-9.08806E-06 9.26171E-19-2.44845E-20
 -1      1876 1.17430E-04-3.74933E-05-3.42871E-05-1.12343E-05 9.31736E-20-4.06311E-20
 -1      1877 1.20774E-04-4.09154E-05-3.41847E-05-7.97239E-06 8.85222E-19 1.48304E-19
 -1      1878 1.16318E-04-3.58569E-05-3.45890E-05-1.31243E-05-3.35279E-19 3.08188E-19
 -1      1879 1.13137E-04-3.31504E-05-3.42284E-05-1.32085E-05-7.37713E-20 2.76914E-19
 -1      1880 1.20011E-04-3.82613E-05-3.49899E-05-1.39776E-05 2.95434E-19 4.70280E-19
 -1      1881 1.10873E-04-3.04685E-05-3.45925E-05-1.16631E-05-1.48654E-19 5.78762E-20
 -1      1882 1.08304E-04-2.79794E-05-3.43681E-05-8.74661E-06 3.71636E-20-6.33819E-20
 -1      1883 1.16196E-04-3.21382E-05-3.60917E-05-1.47996E-05-2.55116E-19 1.26861E-18
 -1      1884 1.06856E-04-2.63374E-05-3.45626E-05-3.65799E-06 1.62577E-19-8.65668E-19
 -1      1885 1.06526E-04-2.59943E-05-3.45365E-05 1.03585E-06 1.44922E-19-7.17106E-19
 -1      1886 1.11946E-04-2.60377E-05-3.69902E-05-7.51004E-06-2.70971E-19 1.75640E-19
 -1      1887 1.07437E-04-2.70116E-05-3.44175E-05 6.63157E-06-2.11599E-19-1.30774E-18
 -1      1888 1.09556E-04-2.91082E-05-3.45973E-05 1.02290E-05-8.93382E-19-1.71514E-18
 -1      1889 1.11343E-04-2.52121E-05-3.71113E-05 4.65769E-06-5.63647E-19-1.46149E-18
 -1      1890 1.11880E-04-3.17981E-05-3.42552E-05 1.28096E-05-1.07205E-18-1.45658E-18
 -1      1891 1.15109E-04-3.46495E-05-3.45982E-05 1.34430E-05-9.94258E-19-1.70869E-18
 -1      1892 1.14996E-04-3.03280E-05-3.63653E-05 1.38099E-05-1.06086E-18-2.35874E-18
 -1      1893 1.16605E-04-3.66515E-05-3.42781E-05 1.22561E-05-5.40331E-19-1.53965E-18
 -1      1894 1.19241E-04-3.85043E-05-3.46627E-05 1.04798E-05 2.73393E-19-1.39535E-18
 -1      1895 1.19362E-04-3.70591E-05-3.52746E-05 1.48868E-05-3.54186E-19-1.02998E-18
 -1      1896 1.19135E-04-3.89360E-05-3.44582E-05 7.35984E-06 7.97879E-19-1.58894E-18
 -1      1897 1.20383E-04-3.93882E-05-3.47193E-05 4.74579E-06 1.42880E-18-1.07911E-18
 -1      1898 1.20963E-04-4.06169E-05-3.43843E-05 9.80994E-06 3.74488E-19-1.76053E-18
 -1      1899 1.19121E-04-3.86934E-05-3.45843E-05 1.65238E-06 1.15751E-18-1.51646E-18
 -1      1900 1.19014E-04-3.82172E-05-3.46216E-05-5.87645E-07 5.83268E-19-1.37590E-18
 -1      1901 1.19545E-04-4.05443E-05-3.38448E-05 2.87532E-06 6.66006E-19-2.05415E-18
 -1      1902 1.17329E-04-3.71451E-05-3.44611E-05-2.72388E-06-9.71772E-20-5.12119E-19
 -1      1903 1.16289E-04-3.63032E-05-3.42734E-05-4.12411E-06-4.36341E-19-5.59287E-19
 -1      1904 1.16446E-04-3.83462E-05-3.34859E-05-2.76597E-06 4.57643E-19-1.77090E-18
 -1      1905 1.14630E-04-3.53160E-05-3.40502E-05-5.21225E-06-3.86932E-19-2.51728E-19
 -1      1906 1.13109E-04-3.44534E-05-3.37060E-05-5.83285E-06 1.30695E-20 3.42820E-19
 -1      1907 1.12957E-04-3.57205E-05-3.31222E-05-6.17175E-06-1.91509E-20-2.88506E-19
 -1      1908 1.11636E-04-3.36923E-05-3.34276E-05-6.14060E-06 2.94989E-20 7.93104E-19
 -1      1909 1.09971E-04-3.29460E-05-3.30083E-05-6.22268E-06 3.54142E-19 6.35000E-19
 -1      1910 1.09717E-04-3.35128E-05-3.26781E-05-7.60910E-06 3.34768E-19 8.92549E-19
 -1      1911 1.08709E-04-3.23997E-05-3.27028E-05-6.05970E-06-2.05542E-20 3.68459E-19
 -1      1912 1.07111E-04-3.17981E-05-3.22738E-05-5.84048E-06 5.10420E-19 8.85449E-19
 -1      1913 1.06913E-04-3.19104E-05-3.21601E-05-7.71307E-06 3.96727E-19 1.53427E-18
 -1      1914 1.06045E-04-3.14128E-05-3.19699E-05-5.44529E-06-2.45702E-19 4.62688E-19
 -1      1915 1.04621E-04-3.09429E-05-3.15723E-05-5.09475E-06-9.70630E-19-4.23804E-19
 -1      1916 1.04550E-04-3.08226E-05-3.16109E-05-7.06989E-06-1.97750E-19-2.64400E-20
 -1      1917 1.03730E-04-3.06681E-05-3.12908E-05-4.61985E-06-1.04392E-18-8.06060E-19
 -1      1918 1.02522E-04-3.03065E-05-3.09447E-05-4.24008E-06-8.48548E-19-4.06487E-19
 -1      1919 1.02581E-04-3.00994E-05-3.10748E-05-6.09581E-06-1.23997E-18 4.05567E-20
 -1      1920 1.01786E-04-3.01066E-05-3.06970E-05-3.77075E-06-8.84625E-19-1.03324E-18
 -1      1921 1.00796E-04-2.98308E-05-3.04084E-05-3.41470E-06-1.27316E-18-1.34145E-18
 -1      1922 1.00954E-04-2.96157E-05-3.05836E-05-5.04472E-06-1.24111E-18-7.67324E-20
 -1      1923 1.00196E-04-2.96826E-05-3.01987E-05-2.99218E-06 9.89639E-21-9.08525E-19
 -1      1924 9.94060E-05-2.94741E-05-2.99654E-05-2.68243E-06 6.82892E-19 2.00377E-20
 -1      1925 9.96248E-05-2.92860E-05-3.01543E-05-4.05262E-06 1.25709E-19 1.33753E-19
 -1      1926 9.89232E-05-2.93630E-05-2.97931E-05-2.32206E-06 1.01495E-18 4.32376E-20
 -1      1927 9.83066E-05-2.92069E-05-2.96091E-05-2.06445E-06 7.92259E-19 5.03120E-19
 -1      1928 9.85529E-05-2.90563E-05-2.97923E-05-3.18085E-06 6.93497E-19 9.76666E-19
 -1      1929 9.79246E-05-2.91234E-05-2.94709E-05-1.76768E-06-4.14188E-19 8.69992E-19
 -1      1930 9.74521E-05-2.90079E-05-2.93288E-05-1.55974E-06-1.37090E-18 1.27426E-18
 -1      1931 9.77006E-05-2.88938E-05-2.94956E-05-2.44791E-06 3.71708E-19 7.63069E-19
 -1      1932 9.71547E-05-2.89455E-05-2.92202E-05-1.32131E-06-2.05758E-18 1.28047E-18
 -1      1933 9.67992E-05-2.88613E-05-2.91124E-05-1.15702E-06-1.43203E-18 6.41313E-19
 -1      1934 9.70330E-05-2.87781E-05-2.92580E-05-1.84989E-06-1.57690E-18 2.98709E-18
 -1      1935 9.65715E-05-2.88152E-05-2.90287E-05-9.69036E-07-7.26785E-19 7.07000E-19
 -1      1936 9.63090E-05-2.87550E-05-2.89485E-05-8.41343E-07 5.31433E-19 1.12527E-18
 -1      1937 9.65183E-05-2.86960E-05-2.90717E-05-1.37253E-06-8.47406E-19 3.58241E-18
 -1      1938 9.61377E-05-2.87213E-05-2.88852E-05-6.95301E-07 2.20897E-18 3.22669E-19
 -1      1939 9.59481E-05-2.86793E-05-2.88268E-05-5.97292E-07 1.50549E-18 1.73379E-18
 -1      1940 9.61282E-05-2.86384E-05-2.89283E-05-9.97936E-07 9.84921E-19 3.38747E-18
 -1      1941 9.58217E-05-2.86553E-05-2.87799E-05-4.85141E-07 5.29501E-19 2.35764E-18
 -1      1942 9.56883E-05-2.86268E-05-2.87384E-05-4.10559E-07 1.14356E-18 3.00088E-18
 -1      1943 9.58378E-05-2.85987E-05-2.88200E-05-7.07924E-07 1.55681E-18 3.41076E-18
 -1      1944 9.55971E-05-2.86100E-05-2.87045E-05-3.25131E-07 9.42574E-19 2.43621E-18
 -1      1945 9.55067E-05-2.85917E-05-2.86761E-05-2.68574E-07 1.66598E-18 1.71826E-18
 -1      1946 9.56261E-05-2.85720E-05-2.87400E-05-4.85715E-07 5.83589E-19 3.09220E-18
 -1      1947 9.54424E-05-2.85802E-05-2.86522E-05-2.03828E-07 3.00474E-19 8.53504E-19
 -1      1948 9.53847E-05-2.85694E-05-2.86337E-05-1.60920E-07-3.48022E-19-4.52863E-19
 -1      1949 9.54752E-05-2.85548E-05-2.86822E-05-3.16709E-07 3.12154E-19 1.18832E-18
 -1      1950 9.53404E-05-2.85622E-05-2.86172E-05-1.11846E-07-2.26111E-19-1.35439E-18
 -1      1951 9.53072E-05-2.85575E-05-2.86059E-05-7.97529E-08-6.67103E-19-1.23599E-18
 -1      1952 9.53704E-05-2.85441E-05-2.86412E-05-1.89026E-07-1.51490E-18-4.34282E-19
 -1      1953 9.52801E-05-2.85550E-05-2.85950E-05-4.55413E-08-3.78578E-19-1.00782E-18
 -1      1954 9.52641E-05-2.85565E-05-2.85882E-05-2.43544E-08-1.01322E-19-3.69707E-19
 -1      1955 9.52643E-05-2.85511E-05-2.85923E-05-3.24562E-08-4.36397E-19 2.58727E-19
 -1      1956 9.53030E-05-2.85428E-05-2.86129E-05-9.58823E-08-4.26402E-19-1.07233E-18
 -1      1957 9.32851E-05-2.73666E-05-2.82215E-05 1.43103E-06 7.11607E-19 1.24002E-18
 -1      1958 9.44200E-05-2.74578E-05-2.86390E-05 2.51889E-06 7.81282E-19 1.64637E-18
 -1      1959 9.52664E-05-2.70403E-05-2.92460E-05 3.85780E-06 9.69826E-19 1.09711E-18
 -1      1960 9.23789E-05-2.73861E-05-2.78278E-05 1.11600E-07 5.08829E-19 8.38470E-19
 -1      1961 9.27943E-05-2.73985E-05-2.79753E-05 6.88645E-07 5.42366E-19 1.06840E-18
 -1      1962 9.37780E-05-2.73808E-05-2.84640E-05 1.32728E-06 7.03434E-19 7.64977E-19
 -1      1963 9.22023E-05-2.74713E-05-2.77239E-05-6.33747E-07 5.93221E-20 6.91710E-19
 -1      1964 9.22095E-05-2.74163E-05-2.77372E-05-2.98684E-07 2.22432E-19 7.00645E-19
 -1      1965 9.31040E-05-2.75265E-05-2.81161E-05-8.09173E-08 4.03658E-19 3.45166E-19
 -1      1966 9.24962E-05-2.76292E-05-2.77870E-05-1.08465E-06-1.54947E-20 3.27678E-19
 -1      1967 9.22610E-05-2.75274E-05-2.77252E-05-8.73559E-07 1.62558E-20 5.89034E-19
 -1      1968 9.30027E-05-2.76644E-05-2.80140E-05-9.08030E-07 1.24611E-19 5.31149E-20
 -1      1969 9.31035E-05-2.78447E-05-2.79573E-05-1.38518E-06 4.19659E-19 9.79886E-20
 -1      1970 9.27136E-05-2.77108E-05-2.78477E-05-1.23755E-06 8.44601E-20 1.78778E-19
 -1      1971 9.32913E-05-2.78340E-05-2.80637E-05-1.42987E-06 3.22236E-19-2.13246E-19
 -1      1972 9.39359E-05-2.81062E-05-2.82031E-05-1.61644E-06 4.77058E-19 1.56730E-19
 -1      1973 9.34364E-05-2.79479E-05-2.80595E-05-1.49765E-06 5.98046E-19 2.36417E-19
 -1      1974 9.38533E-05-2.80391E-05-2.82150E-05-1.79586E-06 5.81350E-19-4.17323E-19
 -1      1975 9.49484E-05-2.84092E-05-2.85078E-05-1.82609E-06 4.03143E-19-8.97652E-20
 -1      1976 9.43604E-05-2.82290E-05-2.83368E-05-1.71535E-06 3.77495E-19 1.25288E-19
 -1      1977 9.46208E-05-2.82791E-05-2.84400E-05-2.09221E-06 4.38299E-19-9.66668E-20
 -1      1978 9.61221E-05-2.87551E-05-2.88630E-05-2.03955E-06-1.82327E-19 6.39187E-20
 -1      1979 9.54529E-05-2.85520E-05-2.86675E-05-1.92554E-06 3.50377E-20-5.94089E-20
 -1      1980 9.55584E-05-2.85559E-05-2.87226E-05-2.36849E-06 1.25484E-19 1.89026E-19
 -1      1981 9.74506E-05-2.91492E-05-2.92643E-05-2.26306E-06 9.72003E-20 1.96275E-19
 -1      1982 9.67020E-05-2.89206E-05-2.90455E-05-2.14298E-06 5.75759E-20 1.38879E-19
 -1      1983 9.66506E-05-2.88755E-05-2.90534E-05-2.64762E-06 6.45184E-20 3.55667E-20
 -1      1984 9.89283E-05-2.95986E-05-2.97065E-05-2.48210E-06 5.10096E-19 1.38334E-19
 -1      1985 9.81032E-05-2.93417E-05-2.94663E-05-2.36274E-06 3.28920E-19 2.38030E-19
 -1      1986 9.78909E-05-2.92477E-05-2.94254E-05-2.92766E-06 4.05962E-19-2.84435E-19
 -1      1987 1.00536E-04-3.01085E-05-3.01798E-05-2.65717E-06 7.32596E-19-6.22500E-19
 -1      1988 9.96473E-05-2.98226E-05-2.99233E-05-2.55731E-06 6.32126E-19-3.57751E-19
 -1      1989 9.92715E-05-2.96845E-05-2.98297E-05-3.17900E-06 9.55323E-19-4.82418E-19
 -1      1990 1.02228E-04-3.06784E-05-3.06650E-05-2.71834E-06 4.88233E-19-9.66613E-19
 -1      1991 1.01306E-04-3.03678E-05-3.04029E-05-2.67175E-06 5.69173E-19-5.81028E-19
 -1      1992 1.00772E-04-3.01975E-05-3.02526E-05-3.33897E-06 7.39279E-19-5.33876E-19
 -1      1993 1.03914E-04-3.12947E-05-3.11294E-05-2.56206E-06-1.00861E-19-3.18794E-19
 -1      1994 1.03018E-04-3.09730E-05-3.08805E-05-2.61949E-06 1.07294E-19-8.22608E-19
 -1      1995 1.02348E-04-3.07928E-05-3.06716E-05-3.30685E-06 3.58418E-19-5.63700E-19
 -1      1996 1.05442E-04-3.19204E-05-3.15235E-05-2.05701E-06-8.06334E-19-2.59493E-19
 -1      1997 1.04668E-04-3.16158E-05-3.13169E-05-2.28382E-06-3.03297E-19-1.51601E-19
 -1      1998 1.03915E-04-3.14616E-05-3.10535E-05-2.94473E-06-3.32257E-19-3.16577E-19
 -1      1999 1.06592E-04-3.24811E-05-3.17833E-05-1.07021E-06 4.03059E-19-8.36133E-19
 -1      2000 1.06076E-04-3.22423E-05-3.16572E-05-1.53373E-06-1.22237E-19-4.95064E-19
 -1      2001 1.05332E-04-3.21637E-05-3.13548E-05-2.09430E-06 1.00274E-19-5.82608E-19
 -1      2002 1.07084E-04-3.28503E-05-3.18395E-05 4.72128E-07 2.70260E-19-7.64702E-19
 -1      2003 1.06988E-04-3.27496E-05-3.18355E-05-2.67208E-07 3.33089E-19-1.00074E-18
 -1      2004 1.06393E-04-3.28034E-05-3.15276E-05-6.24398E-07 5.22920E-19-6.60183E-19
 -1      2005 1.06621E-04-3.28479E-05-3.16388E-05 2.48257E-06-3.42899E-19-7.32313E-19
 -1      2006 1.07097E-04-3.29745E-05-3.17893E-05 1.50769E-06-2.30022E-20-8.38174E-19
 -1      2007 1.06829E-04-3.32065E-05-3.15314E-05 1.47715E-06 1.04827E-19-8.79229E-19
 -1      2008 1.04994E-04-3.22800E-05-3.11738E-05 4.59638E-06-2.15358E-19-4.30902E-19
 -1      2009 1.06120E-04-3.27105E-05-3.14831E-05 3.56312E-06-3.92864E-19-7.79320E-19
 -1      2010 1.06353E-04-3.31270E-05-3.13519E-05 3.97314E-06-4.84672E-19-7.81841E-19
 -1      2011 1.02250E-04-3.10484E-05-3.05106E-05 6.13019E-06-3.03311E-20-3.33334E-19
 -1      2012 1.03938E-04-3.17883E-05-3.09371E-05 5.37154E-06-2.65664E-19-7.50352E-20
 -1      2013 1.04782E-04-3.23279E-05-3.10176E-05 6.26827E-06-3.11225E-19-3.36712E-19
 -1      2014 9.88742E-05-2.93231E-05-2.97946E-05 6.25931E-06 4.45979E-19 1.82377E-19
 -1      2015 1.00804E-04-3.02363E-05-3.02468E-05 6.16970E-06 1.54021E-19-2.24470E-19
 -1      2016 1.02232E-04-3.07656E-05-3.06050E-05 7.45276E-06 2.15972E-19 1.85315E-19
 -1      2017 9.58199E-05-2.76342E-05-2.92140E-05 4.47369E-06-1.98437E-19 2.18442E-20
 -1      2018 9.74673E-05-2.84328E-05-2.95719E-05 5.28582E-06 4.40947E-19 1.53452E-19
 -1      2019 9.93103E-05-2.88000E-05-3.02209E-05 6.65564E-06 2.77244E-19 2.28222E-19
 -1      2020 9.42244E-05-2.67175E-05-2.89374E-05 1.09180E-06-1.10993E-18-5.74921E-19
 -1      2021 9.50323E-05-2.70707E-05-2.90941E-05 2.63244E-06-8.39198E-19-5.49096E-19
 -1      2022 9.70444E-05-2.71905E-05-2.99654E-05 3.64850E-06-3.93612E-19 1.55861E-19
 -1      2023 9.47647E-05-2.70184E-05-2.90480E-05-2.71133E-06-2.52733E-19 1.25632E-19
 -1      2024 9.44272E-05-2.67679E-05-2.89541E-05-9.90243E-07-8.35572E-19-6.96072E-19
 -1      2025 9.64041E-05-2.67091E-05-2.99047E-05-7.09595E-07-6.90749E-19 3.94648E-20
 -1      2026 9.72515E-05-2.84069E-05-2.95146E-05-5.51103E-06 1.26803E-18 1.85368E-19
 -1      2027 9.58834E-05-2.76643E-05-2.91985E-05-4.25150E-06 5.47382E-19 3.75169E-19
 -1      2028 9.76896E-05-2.76068E-05-3.00553E-05-4.81133E-06 4.39802E-19-5.37525E-19
 -1      2029 1.00707E-04-3.02290E-05-3.02003E-05-6.46102E-06 1.36926E-18 4.23834E-19
 -1      2030 9.87875E-05-2.93084E-05-2.97574E-05-6.01591E-06 1.72907E-18 5.20489E-19
 -1      2031 1.00322E-04-2.94309E-05-3.03802E-05-7.18495E-06 1.40474E-18 8.14680E-19
 -1      2032 1.03982E-04-3.17961E-05-3.09195E-05-5.64753E-06 8.02805E-19-3.75937E-20
 -1      2033 1.02092E-04-3.10042E-05-3.04703E-05-5.96363E-06 5.31123E-19 1.15474E-20
 -1      2034 1.03242E-04-3.13500E-05-3.07973E-05-7.32494E-06 8.29809E-19 8.67210E-19
 -1      2035 1.06293E-04-3.27338E-05-3.15038E-05-3.78333E-06 5.05474E-20-4.59979E-19
 -1      2036 1.04866E-04-3.22350E-05-3.11495E-05-4.54987E-06 5.97648E-19 3.84275E-19
 -1      2037 1.05536E-04-3.27040E-05-3.12013E-05-5.71919E-06 5.32929E-19 1.22134E-18
 -1      2038 1.07383E-04-3.30191E-05-3.18520E-05-1.67471E-06-4.64515E-19-8.40527E-20
 -1      2039 1.06601E-04-3.28286E-05-3.16467E-05-2.55094E-06-2.09310E-19-4.47175E-19
 -1      2040 1.06780E-04-3.32713E-05-3.14976E-05-3.30803E-06 3.35604E-19 1.44939E-18
 -1      2041 1.07376E-04-3.28230E-05-3.19406E-05 1.24252E-07-1.35185E-18 2.63763E-19
 -1      2042 1.07214E-04-3.28717E-05-3.18904E-05-6.29485E-07-1.00776E-18-1.14378E-19
 -1      2043 1.06983E-04-3.31803E-05-3.16294E-05-9.27294E-07-1.00954E-18 1.27854E-18
 -1      2044 1.06575E-04-3.23517E-05-3.18058E-05 1.37972E-06-7.57889E-19-8.63246E-21
 -1      2045 1.06890E-04-3.25501E-05-3.18834E-05 8.47599E-07-1.42926E-18-4.66199E-20
 -1      2046 1.06388E-04-3.26905E-05-3.15869E-05 9.41576E-07-1.33671E-18 4.27949E-19
 -1      2047 1.05297E-04-3.17684E-05-3.15128E-05 2.08813E-06 5.14490E-20 6.82259E-19
 -1      2048 1.05917E-04-3.20399E-05-3.16770E-05 1.78147E-06-3.14024E-19-3.99032E-21
 -1      2049 1.05287E-04-3.20344E-05-3.13970E-05 2.15163E-06-6.03198E-19-3.44951E-20
 -1      2050 1.03808E-04-3.11770E-05-3.11305E-05 2.35896E-06 6.05305E-19 1.02293E-18
 -1      2051 1.04579E-04-3.14679E-05-3.13410E-05 2.23431E-06 4.26417E-19 1.12369E-18
 -1      2052 1.03936E-04-3.13633E-05-3.11050E-05 2.76324E-06 2.21997E-19 8.85183E-19
 -1      2053 1.02298E-04-3.06334E-05-3.07170E-05 2.33012E-06 1.40382E-18 7.35354E-19
 -1      2054 1.03103E-04-3.09110E-05-3.09412E-05 2.33150E-06 1.15744E-18 1.58208E-18
 -1      2055 1.02521E-04-3.07549E-05-3.07589E-05 2.92322E-06 1.21211E-18 1.62359E-18
 -1      2056 1.00886E-04-3.01621E-05-3.03138E-05 2.12393E-06 4.84710E-19-2.43923E-19
 -1      2057 1.01650E-04-3.04093E-05-3.05294E-05 2.20113E-06 7.29708E-19-4.11914E-19
 -1      2058 1.01166E-04-3.02383E-05-3.03990E-05 2.78778E-06 1.76386E-18 1.64160E-18
 -1      2059 9.96379E-05-2.97695E-05-2.99464E-05 1.83220E-06-5.52024E-19-6.63982E-19
 -1      2060 1.00318E-04-2.99794E-05-3.01404E-05 1.94716E-06 4.68982E-19-2.06332E-19
 -1      2061 9.99411E-05-2.98171E-05-3.00545E-05 2.48682E-06 4.49659E-19 5.44843E-19
 -1      2062 9.85790E-05-2.94521E-05-2.96278E-05 1.51631E-06 2.19286E-20 3.52834E-19
 -1      2063 9.91573E-05-2.96240E-05-2.97941E-05 1.64332E-06-8.43779E-19-7.65285E-19
 -1      2064 9.88807E-05-2.94829E-05-2.97433E-05 2.11435E-06-7.79230E-19 5.40354E-19
 -1      2065 9.77102E-05-2.92019E-05-2.93619E-05 1.21321E-06-8.63809E-19 8.67774E-19
 -1      2066 9.81841E-05-2.93385E-05-2.94992E-05 1.33655E-06-8.92781E-19 9.93980E-20
 -1      2067 9.79934E-05-2.92232E-05-2.94743E-05 1.73156E-06-8.75823E-19 1.04605E-18
 -1      2068 9.70175E-05-2.90092E-05-2.91471E-05 9.42318E-07 6.27470E-19 2.90230E-18
 -1      2069 9.73941E-05-2.91148E-05-2.92568E-05 1.05354E-06 1.50246E-19 2.50880E-18
 -1      2070 9.72719E-05-2.90252E-05-2.92500E-05 1.37412E-06-9.69715E-19 1.41838E-18
 -1      2071 9.64796E-05-2.88641E-05-2.89783E-05 7.11527E-07 5.33846E-19 2.65445E-18
 -1      2072 9.67705E-05-2.89437E-05-2.90635E-05 8.07011E-07 9.44831E-19 2.90616E-18
 -1      2073 9.67001E-05-2.88769E-05-2.90685E-05 1.05986E-06 6.65793E-19 2.93380E-18
 -1      2074 9.60725E-05-2.87574E-05-2.88493E-05 5.21614E-07-1.31544E-18 1.81653E-18
 -1      2075 9.62911E-05-2.88159E-05-2.89137E-05 6.00766E-07-3.36137E-19 1.70372E-18
 -1      2076 9.62579E-05-2.87681E-05-2.89256E-05 7.94916E-07-5.51407E-20 3.11740E-18
 -1      2077 9.57729E-05-2.86810E-05-2.87534E-05 3.69315E-07 7.58236E-19 8.71666E-19
 -1      2078 9.59323E-05-2.87227E-05-2.88006E-05 4.33302E-07-6.13993E-19 1.51416E-18
 -1      2079 9.59242E-05-2.86898E-05-2.88160E-05 5.78397E-07-1.66387E-20 2.65770E-18
 -1      2080 9.55596E-05-2.86281E-05-2.86845E-05 2.49313E-07-2.98572E-19 9.16129E-19
 -1      2081 9.56716E-05-2.86566E-05-2.87179E-05 3.00246E-07 6.45310E-19 1.40687E-18
 -1      2082 9.56790E-05-2.86350E-05-2.87343E-05 4.05475E-07 4.54822E-19 2.33537E-18
 -1      2083 9.54142E-05-2.85932E-05-2.86371E-05 1.55573E-07 1.66460E-18 1.49869E-18
 -1      2084 9.54888E-05-2.86116E-05-2.86595E-05 1.95943E-07 2.29615E-19 1.18451E-18
 -1      2085 9.55044E-05-2.85977E-05-2.86753E-05 2.69468E-07-7.62057E-20 2.99486E-18
 -1      2086 9.53213E-05-2.85721E-05-2.86064E-05 8.28190E-08 9.71269E-19 2.56203E-18
 -1      2087 9.53671E-05-2.85827E-05-2.86203E-05 1.14811E-07 2.62644E-18 2.64418E-18
 -1      2088 9.53849E-05-2.85737E-05-2.86342E-05 1.63580E-07 1.74835E-18 3.27801E-18
 -1      2089 9.52685E-05-2.85625E-05-2.85878E-05 2.84607E-08-1.52360E-19 1.35620E-18
 -1      2090 9.52920E-05-2.85666E-05-2.85955E-05 5.25338E-08 1.38001E-19 1.76405E-18
 -1      2091 9.53075E-05-2.85602E-05-2.86066E-05 8.22886E-08 9.22498E-19 4.09980E-18
 -1      2092 9.52482E-05-2.85638E-05-2.85784E-05 1.16817E-09-2.99746E-19 2.51786E-18
 -1      2093 9.52567E-05-2.85606E-05-2.85834E-05 1.57234E-08 1.55721E-20 1.72520E-18
 -1      2094 9.52675E-05-2.85553E-05-2.85913E-05 3.30510E-08 8.66554E-20 3.91521E-18
 -1      2095 9.52513E-05-2.85609E-05-2.85814E-05 7.28653E-09-4.94405E-19 5.32099E-18
 -1      2096 9.51985E-05-2.84072E-05-2.86252E-05 1.22257E-07 1.55723E-18 1.28556E-18
 -1      2097 9.52144E-05-2.84402E-05-2.86167E-05 1.11394E-07 1.39753E-18 2.20051E-18
 -1      2098 9.52313E-05-2.84778E-05-2.86088E-05 9.28066E-08 3.41077E-19 2.24164E-18
 -1      2099 9.52424E-05-2.85036E-05-2.86016E-05 7.31545E-08 1.67667E-19 2.51647E-18
 -1      2100 9.52252E-05-2.84351E-05-2.86246E-05 1.38639E-07 4.43686E-19 2.35228E-18
 -1      2101 9.52488E-05-2.85289E-05-2.85940E-05 4.94415E-08-2.02020E-19 2.51921E-18
 -1      2102 9.52521E-05-2.85449E-05-2.85883E-05 2.96678E-08-8.76166E-19 4.30703E-18
 -1      2103 9.52603E-05-2.85410E-05-2.85937E-05 4.15693E-08-8.20591E-19 3.66520E-18
 -1      2104 9.52512E-05-2.84985E-05-2.86089E-05 9.02473E-08-1.15632E-18 3.17798E-18
 -1      2105 9.51629E-05-2.83338E-05-2.86418E-05 1.27966E-07-5.04395E-19-4.03205E-18
 -1      2106 9.51799E-05-2.83683E-05-2.86330E-05 1.28037E-07 4.45088E-19-9.06683E-19
 -1      2107 9.51833E-05-2.83564E-05-2.86399E-05 1.65072E-07 5.21122E-19-9.94661E-19
 -1      2108 9.51300E-05-2.82666E-05-2.86568E-05 1.08704E-07-2.17095E-20-2.11222E-18
 -1      2109 9.51451E-05-2.82975E-05-2.86489E-05 1.19573E-07-3.18202E-19-2.07049E-18
 -1      2110 9.51396E-05-2.82785E-05-2.86542E-05 1.61291E-07-1.03291E-18-2.96581E-18
 -1      2111 9.51061E-05-2.82179E-05-2.86675E-05 6.82403E-08 6.80605E-19 5.70337E-19
 -1      2112 9.51164E-05-2.82389E-05-2.86622E-05 8.75945E-08 4.09378E-19 2.09611E-19
 -1      2113 9.51017E-05-2.82120E-05-2.86660E-05 1.27191E-07-1.82824E-19-7.88360E-19
 -1      2114 9.50952E-05-2.81957E-05-2.86723E-05 1.45559E-08-7.42726E-19-1.27759E-18
 -1      2115 9.50987E-05-2.82029E-05-2.86705E-05 3.85248E-08-3.11570E-19-1.49999E-18
 -1      2116 9.50762E-05-2.81675E-05-2.86739E-05 6.91345E-08 6.31165E-22-1.54225E-18
 -1      2117 9.50991E-05-2.82037E-05-2.86703E-05-4.20918E-08-1.55723E-18-1.40191E-18
 -1      2118 9.50952E-05-2.81957E-05-2.86723E-05-1.81810E-08-6.93250E-19 5.95789E-19
 -1      2119 9.50673E-05-2.81518E-05-2.86767E-05-2.01681E-09-2.66442E-18-6.61865E-19
 -1      2120 9.51172E-05-2.82405E-05-2.86619E-05-9.08345E-08-2.47676E-18-1.14456E-18
 -1      2121 9.51066E-05-2.82187E-05-2.86674E-05-7.17173E-08-1.85576E-18-2.09010E-18
 -1      2122 9.50764E-05-2.81674E-05-2.86740E-05-7.30932E-08-2.98547E-18-2.04413E-18
 -1      2123 9.51460E-05-2.82988E-05-2.86488E-05-1.21675E-07-2.36295E-18-1.97160E-18
 -1      2124 9.51307E-05-2.82679E-05-2.86565E-05-1.11361E-07-3.09130E-18-4.07172E-19
 -1      2125 9.51021E-05-2.82116E-05-2.86664E-05-1.30450E-07-2.40654E-18-1.14903E-18
 -1      2126 9.51816E-05-2.83709E-05-2.86326E-05-1.29044E-07-5.74164E-19 3.02133E-18
 -1      2127 9.51640E-05-2.83354E-05-2.86416E-05-1.29667E-07-1.23969E-18 8.82778E-19
 -1      2128 9.51403E-05-2.82780E-05-2.86547E-05-1.63596E-07-1.26669E-18 2.44045E-19
 -1      2129 9.52169E-05-2.84440E-05-2.86161E-05-1.10351E-07 1.47519E-18 3.02055E-19
 -1      2130 9.52008E-05-2.84109E-05-2.86247E-05-1.22214E-07 9.88307E-19 1.06206E-18
 -1      2131 9.51851E-05-2.83574E-05-2.86403E-05-1.65827E-07 6.08605E-19 2.84584E-18
 -1      2132 9.52440E-05-2.85087E-05-2.86008E-05-6.93290E-08 4.14970E-19-1.02793E-18
 -1      2133 9.52341E-05-2.84819E-05-2.86081E-05-9.03394E-08 1.30326E-18-6.68534E-19
 -1      2134 9.52278E-05-2.84372E-05-2.86246E-05-1.36629E-07 7.87248E-19-7.52206E-19
 -1      2135 5.64104E-05-3.82308E-05-8.26098E-06 4.02571E-05 1.39845E-18 1.81998E-18
 -1      2136 4.22325E-05-4.03940E-05-2.17926E-06 3.28771E-05 9.35971E-19 5.33631E-20
 -1      2137 1.21766E-05-3.23346E-05 7.41509E-06 6.97474E-06-3.56813E-19 1.71778E-18
 -1      2138 1.22121E-05-3.37163E-05 7.82749E-06-2.86255E-06-5.02608E-19 1.77157E-18
 -1      2139 2.82211E-05-3.55971E-05 2.16800E-06 2.78890E-05 5.87417E-19-1.32836E-18
 -1      2140 1.93566E-05-3.61920E-05 5.73927E-06 1.94572E-05 2.35899E-19-5.88688E-19
 -1      2141 4.35550E-05-3.61166E-05-3.73868E-06 3.78357E-05 6.97955E-19 3.31190E-19
 -1      2142 9.35542E-05-4.12488E-05-2.24023E-05 4.34024E-05-1.98629E-19 1.75124E-18
 -1      2143 7.48711E-05-4.31933E-05-1.46617E-05 3.88043E-05 5.76829E-19 1.42026E-18
 -1      2144 1.30801E-04-4.25661E-05-3.74926E-05 3.55085E-05 6.40357E-19 1.49586E-18
 -1      2145 1.10015E-04-4.29238E-05-2.93440E-05 3.62532E-05-5.27278E-19 2.33951E-18
 -1      2146 8.73347E-05-8.69211E-06-3.37951E-05-1.03138E-05-8.45663E-19-1.43747E-18
 -1      2147 8.80460E-05-9.24117E-06-3.38584E-05-1.18894E-05-9.93848E-19-1.20400E-18
 -1      2148 9.05328E-05-1.29992E-05-3.32561E-05-1.15791E-05-1.08843E-18-1.01501E-18
 -1      2149 8.87246E-05-1.09777E-05-3.33520E-05-9.15803E-06-8.16161E-19-1.34959E-18
 -1      2150 1.72310E-04-2.70345E-05-6.13696E-05 8.71642E-06 1.85543E-18 1.91006E-19
 -1      2151 1.63222E-04-2.91347E-05-5.70556E-05 1.47752E-05 2.39223E-18 1.22820E-20
 -1      2152 1.82108E-04-2.38868E-05-6.64736E-05-3.51631E-07 1.10538E-18-7.67954E-19
 -1      2153 1.76887E-04-2.30241E-05-6.50530E-05 6.75054E-06 1.22862E-18-2.56016E-19
 -1      2154 1.73883E-04-2.46502E-05-6.31492E-05-9.84268E-06 2.05998E-18-4.78150E-19
 -1      2155 1.80016E-04-2.43379E-05-6.55177E-05-3.27342E-06 1.24895E-18-8.05846E-19
 -1      2156 1.58341E-04-3.16323E-05-5.39500E-05-1.91793E-05 1.80196E-18-7.05578E-19
 -1      2157 1.71189E-04-3.02943E-05-5.93387E-05-1.42012E-05 2.42527E-18-1.32984E-19
 -1      2158 1.32429E-04-3.80726E-05-4.05916E-05-3.20337E-05 1.37516E-18-1.14858E-18
 -1      2159 1.51608E-04-3.75712E-05-4.81016E-05-2.92367E-05 1.37166E-18-9.86370E-19
 -1      2160 1.01673E-04-4.36985E-05-2.55685E-05-3.74908E-05 1.57336E-18-1.83298E-18
 -1      2161 1.21078E-04-4.20040E-05-3.34639E-05-3.94047E-05 1.57209E-18-1.13968E-18
 -1      2162 6.47061E-05-4.22964E-05-1.08642E-05-3.77929E-05 2.04050E-18-1.97740E-18
 -1      2163 8.22119E-05-3.98606E-05-1.83151E-05-4.34776E-05 2.16036E-18-2.21901E-18
 -1      2164 3.53025E-05-3.94193E-05 3.92283E-07-3.01216E-05 9.94417E-19-3.29199E-18
 -1      2165 4.79537E-05-3.73630E-05-5.12247E-06-3.78069E-05 1.78936E-18-3.01067E-18
 -1      2166 1.59332E-05-3.08934E-05 5.62188E-06-1.57741E-05 5.97794E-19-2.21330E-18
 -1      2167 2.31556E-05-3.46546E-05 3.79508E-06-2.40814E-05 1.21803E-18-2.93137E-18
 -1      2168 3.59735E-05-3.24726E-05-2.04267E-06-3.39877E-05 4.59939E-19-2.72808E-18
 -1      2169 1.45337E-05-3.44515E-05 7.06567E-06 1.09283E-05-3.50460E-19-1.89778E-18
 -1      2170 1.13454E-05-3.05808E-05 7.16956E-06 6.11408E-07 1.58898E-19-1.40650E-18
 -1      2171 3.30948E-05-3.70628E-05 6.49076E-07 2.88342E-05-8.02987E-19-2.16523E-18
 -1      2172 2.34223E-05-3.73897E-05 4.53824E-06 2.06627E-05-2.69780E-19-2.39774E-18
 -1      2173 6.29680E-05-4.05356E-05-1.02889E-05 3.91164E-05-1.22312E-18-4.47657E-19
 -1      2174 4.75575E-05-4.25590E-05-3.76401E-06 3.20970E-05-7.85623E-19-1.23910E-18
 -1      2175 1.04028E-04-4.75160E-05-2.46449E-05 3.92132E-05-7.08543E-19-4.25634E-19
 -1      2176 8.13285E-05-4.54734E-05-1.65159E-05 3.71022E-05-1.50052E-18-1.16467E-19
 -1      2177 1.42702E-04-4.36596E-05-4.15839E-05 3.18058E-05-2.03923E-19-2.28741E-18
 -1      2178 1.25077E-04-4.71777E-05-3.35216E-05 3.09583E-05-9.31736E-20-1.80037E-18
 -1      2179 1.66672E-04-3.77274E-05-5.42753E-05 1.97053E-05-1.48866E-18-1.34678E-19
 -1      2180 1.51228E-04-3.96742E-05-4.76369E-05 2.43468E-05-6.84297E-19-1.53736E-18
 -1      2181 1.49859E-04-4.84685E-05-4.30508E-05 1.44428E-05 2.39287E-20-1.73642E-19
 -1      2182 1.82231E-04-2.98183E-05-6.39009E-05 7.38218E-06-2.34925E-18 1.25784E-19
 -1      2183 1.69795E-04-2.99034E-05-5.93813E-05 1.06232E-05-2.03733E-18 1.58819E-19
 -1      2184 1.81334E-04-2.35596E-05-6.66684E-05-9.93128E-07-3.02052E-18 4.68489E-19
 -1      2185 1.83099E-04-2.61984E-05-6.60413E-05 5.28215E-06-3.15520E-18-1.86135E-19
 -1      2186 1.61691E-04-1.85349E-05-6.01927E-05-3.22523E-06-2.46995E-18 7.08967E-19
 -1      2187 1.79045E-04-2.79778E-05-6.37129E-05-8.50619E-06-2.58345E-18 1.48400E-18
 -1      2188 1.81051E-04-2.50728E-05-6.58635E-05-1.56866E-06-2.87271E-18 8.35174E-19
 -1      2189 1.63679E-04-3.35755E-05-5.54172E-05-1.62180E-05-1.35536E-18 2.05871E-18
 -1      2190 1.78326E-04-3.31358E-05-6.09207E-05-1.27295E-05-2.11610E-18 1.97697E-18
 -1      2191 1.62122E-04-2.39027E-05-5.80804E-05 2.83944E-06-2.32616E-18 1.72159E-18
 -1      2192 1.39581E-04-4.35436E-05-4.14706E-05-2.60960E-05-1.01771E-18 1.67289E-18
 -1      2193 1.57100E-04-4.21509E-05-4.85482E-05-2.27219E-05-1.05350E-18 1.82917E-18
 -1      2194 1.09061E-04-4.59159E-05-2.78025E-05-3.44595E-05-6.11134E-19 1.21634E-18
 -1      2195 1.29598E-04-4.49836E-05-3.58338E-05-3.55953E-05-8.74138E-19 9.66041E-19
 -1      2196 1.43051E-04-5.38906E-05-3.77241E-05-1.77874E-05-7.19978E-21 1.60132E-18
 -1      2197 7.07400E-05-4.49778E-05-1.21946E-05-3.67675E-05 1.06514E-18 2.37392E-18
 -1      2198 8.85762E-05-4.28967E-05-1.98091E-05-4.16792E-05-9.74088E-20 2.52352E-18
 -1      2199 3.63102E-05-4.05152E-05 2.29363E-07-2.83184E-05 5.46336E-20 1.97803E-18
 -1      2200 5.04794E-05-3.89390E-05-5.60114E-06-3.70517E-05 1.05879E-19 1.91853E-18
 -1      2201 1.71291E-05-3.70952E-05 6.90546E-06-1.40463E-05-9.13525E-19 1.14688E-18
 -1      2202 2.43596E-05-3.61891E-05 3.94048E-06-2.24244E-05-6.64074E-19 1.62482E-18
 -1      2203 3.67992E-05-3.42779E-05-1.70750E-06-3.25152E-05 5.50571E-20 1.45351E-18
 -1      2204 1.59670E-04-3.58934E-05-5.22232E-05 2.22556E-05 2.62406E-18-4.29869E-19
 -1      2205 1.42600E-04-3.76346E-05-4.50914E-05 2.45847E-05 2.20747E-18 4.24364E-19
 -1      2206 1.41619E-04-4.77552E-05-3.97425E-05 1.86261E-05 6.31887E-19 4.65445E-19
 -1      2207 9.71339E-05-2.42975E-05-3.12869E-05-9.84245E-06-1.07097E-18 7.27217E-19
 -1      2208 1.53642E-04-3.22441E-05-5.12922E-05 3.28997E-06 2.29091E-18 1.18585E-20
 -1      2209 9.63517E-05-2.30988E-05-3.14616E-05-1.01715E-05-1.11530E-18 1.33884E-19
 -1      2210 1.92023E-05-2.63058E-05 2.43204E-06 1.68356E-05-3.74918E-19 1.10623E-18
 -1      2211 7.84250E-05-4.72489E-05-1.35973E-05 4.34646E-05 5.16690E-19 8.69995E-19
 -1      2212 9.52520E-05-2.85195E-05-2.85993E-05-6.03591E-08 2.94562E-20-2.93573E-19
 -1      2213 1.72132E-05-2.57748E-05 2.99673E-06-1.14843E-05-4.22564E-19 1.64579E-18
 -1      2214 1.14682E-04-5.32093E-05-2.61006E-05 3.52078E-05-7.47295E-19 1.43022E-18
 -1      2215 1.13804E-04-5.50281E-05-2.51511E-05-3.46180E-05 7.37766E-19 9.12678E-19
 -1      2216 1.57636E-04-4.10456E-05-4.92844E-05-3.39122E-06-1.20745E-18 2.04770E-18
 -1      2217 1.62705E-04-1.60905E-05-6.18099E-05 1.00027E-06-3.61344E-18 7.78794E-19
 -1      2218 1.61156E-04-3.33123E-05-5.38369E-05 2.28540E-06-1.56659E-18 9.44865E-19
 -1      2219 1.20687E-04-5.26601E-05-2.91022E-05 3.20853E-05 2.99850E-19-1.57040E-18
 -1      2220 1.16883E-04-5.73184E-05-2.50855E-05 3.26091E-05 5.08643E-19-2.60992E-19
 -1      2221 1.34184E-04-5.82910E-05-3.30718E-05 2.19697E-05 8.27128E-19-9.07384E-19
 -1      2222 8.40682E-05-4.97002E-05-1.48717E-05 4.08230E-05-5.35325E-19 1.01856E-19
 -1      2223 4.89976E-05-3.93485E-05-4.75503E-06 3.68515E-05-4.53163E-20-1.27923E-18
 -1      2224 1.60368E-05-2.62946E-05 3.87297E-06-8.57572E-06 5.47183E-19-1.99307E-18
 -1      2225 2.19169E-05-2.03362E-05-6.47078E-07-1.75828E-05 2.15040E-19-2.43861E-18
 -1      2226 1.72027E-05-1.86047E-05 7.74970E-07-1.48278E-06 3.93341E-19-2.01467E-18
 -1      2227 6.77662E-05-4.42744E-05-1.04280E-05-4.27671E-05 8.12305E-19-1.78602E-18
 -1      2228 1.05612E-04-5.22045E-05-2.28115E-05-3.87760E-05 4.09117E-19-7.61483E-19
 -1      2229 1.35150E-04-5.02096E-05-3.60030E-05-2.43439E-05 2.59616E-19 7.59789E-19
 -1      2230 1.52261E-04-3.75481E-05-4.84240E-05-1.00635E-05 8.28875E-19 3.62530E-19
 -1      2231 1.57739E-04-2.17461E-05-5.73331E-05 1.75899E-08 1.86326E-18 8.32210E-19
 -1      2232 1.58475E-04-1.82328E-05-5.92755E-05-1.32952E-06 1.90752E-18 5.92923E-21
 -1      2233 1.60901E-04-1.38694E-05-6.18221E-05 3.86080E-07 1.41200E-18-3.96994E-19
 -1      2234 2.26825E-05-2.82185E-05 1.72736E-06 2.05653E-05-1.99265E-19-2.43988E-18
 -1      2235 7.14064E-05-4.63047E-05-1.10920E-05-4.04499E-05 6.24263E-19 1.60772E-18
 -1      2236 9.52995E-05-2.63576E-05-2.95312E-05 3.93303E-06 9.15742E-19 6.02677E-19
 -1      2237 9.62245E-05-2.58402E-05-3.00909E-05 5.76578E-06 1.06817E-18 7.30599E-19
 -1      2238 8.80689E-05-1.09303E-05-3.30993E-05-3.50327E-06-1.70418E-19-1.49462E-18
 -1      2239 8.83227E-05-1.12211E-05-3.30800E-05-4.61022E-06-3.24618E-19-1.50511E-18
 -1      2240 8.86994E-05-1.17387E-05-3.30293E-05-5.59523E-06-4.42052E-19-1.40693E-18
 -1      2241 8.91273E-05-1.22362E-05-3.29979E-05-6.74273E-06-6.22037E-19-1.33954E-18
 -1      2242 8.98201E-05-1.35491E-05-3.26858E-05-4.66713E-06-3.43742E-19-1.34037E-18
 -1      2243 8.76851E-05-1.04292E-05-3.31436E-05 5.91917E-07 3.06003E-19-1.58065E-18
 -1      2244 8.76809E-05-1.04240E-05-3.31440E-05-4.75374E-07 1.72220E-19-1.55658E-18
 -1      2245 8.78840E-05-1.06749E-05-3.31236E-05 2.64214E-06 4.95729E-19-1.55158E-18
 -1      2246 8.77581E-05-1.05303E-05-3.31338E-05 1.56370E-06 3.88104E-19-1.61744E-18
 -1      2247 8.89584E-05-1.24078E-05-3.28089E-05 9.93266E-07 3.28743E-19-1.47356E-18
 -1      2248 8.83554E-05-1.12662E-05-3.30750E-05 4.69431E-06 6.57905E-19-1.45607E-18
 -1      2249 8.80969E-05-1.09690E-05-3.30950E-05 3.60447E-06 5.54462E-19-1.54988E-18
 -1      2250 8.92522E-05-1.27969E-05-3.27669E-05 2.86444E-06 4.76690E-19-1.44732E-18
 -1      2251 8.91822E-05-1.23108E-05-3.29897E-05 6.82616E-06 9.80894E-19-1.01440E-18
 -1      2252 8.87424E-05-1.17979E-05-3.30226E-05 5.67732E-06 7.78676E-19-1.22763E-18
 -1      2253 8.98588E-05-1.36047E-05-3.26783E-05 4.73700E-06 6.98378E-19-1.20667E-18
 -1      2254 9.04914E-05-1.39864E-05-3.28510E-05 8.94886E-06 1.22079E-18-8.18730E-19
 -1      2255 8.97956E-05-1.31491E-05-3.29031E-05 7.77968E-06 1.04868E-18-9.34807E-19
 -1      2256 9.08522E-05-1.49410E-05-3.25258E-05 6.58011E-06 1.01123E-18-8.99271E-19
 -1      2257 9.25017E-05-1.66156E-05-3.26221E-05 1.08379E-05 1.42535E-18-3.71450E-19
 -1      2258 9.14234E-05-1.52548E-05-3.27048E-05 9.75487E-06 1.29816E-18-6.18930E-19
 -1      2259 9.23218E-05-1.69724E-05-3.22715E-05 8.20928E-06 1.20896E-18-6.13146E-19
 -1      2260 9.44273E-05-2.71024E-05-2.88340E-05 1.41374E-06 7.27191E-19 3.81855E-19
 -1      2261 9.49605E-05-2.68725E-05-2.91089E-05 2.43106E-06 8.33808E-19 5.53688E-19
 -1      2262 9.54488E-05-2.58064E-05-2.98562E-05 4.01571E-06 1.01578E-18 2.21112E-19
 -1      2263 9.59762E-05-2.50594E-05-3.03483E-05-5.90549E-06-8.64960E-19-1.58301E-19
 -1      2264 9.53685E-05-2.58037E-05-2.98245E-05-3.95102E-06-7.81520E-19-1.85592E-19
 -1      2265 1.45904E-04-2.88677E-05-5.07512E-05-4.79148E-06 2.03563E-18-2.69356E-19
 -1      2266 1.45651E-04-3.71980E-05-4.66605E-05-8.78516E-07 2.06041E-18-1.43149E-19
 -1      2267 9.52781E-05-2.64824E-05-2.94288E-05-2.54733E-06-7.09645E-19-1.29353E-19
 -1      2268 9.48807E-05-2.68524E-05-2.91511E-05-1.42527E-06-5.93532E-19-1.60495E-19
 -1      2269 9.54509E-05-2.52741E-05-3.00821E-05-3.87007E-06-7.47627E-19-4.99793E-19
 -1      2270 9.47274E-05-2.71689E-05-2.89158E-05-4.91358E-07-5.66414E-19-1.19712E-19
 -1      2271 9.45584E-05-2.73813E-05-2.87835E-05 1.99987E-07-5.35789E-19-1.78432E-19
 -1      2272 9.52300E-05-2.65836E-05-2.94357E-05-1.34891E-06-6.31659E-19-4.72476E-19
 -1      2273 9.44712E-05-2.75497E-05-2.86581E-05 8.26830E-07-5.05679E-19-1.64309E-19
 -1      2274 9.44934E-05-2.76966E-05-2.86190E-05 1.27855E-06-3.40782E-19-2.38365E-19
 -1      2275 9.50237E-05-2.72615E-05-2.90559E-05 3.48226E-07-4.64293E-19-3.49733E-19
 -1      2276 9.44889E-05-2.77924E-05-2.85716E-05 1.71918E-06-2.34614E-19-3.06598E-19
 -1      2277 9.46557E-05-2.79075E-05-2.85969E-05 2.04525E-06-2.48893E-19-2.58971E-19
 -1      2278 9.49607E-05-2.76422E-05-2.88635E-05 1.51241E-06-3.83700E-19-4.17445E-19
 -1      2279 9.47276E-05-2.79643E-05-2.86064E-05 2.38893E-06-2.92740E-19-3.04838E-19
 -1      2280 9.50077E-05-2.80633E-05-2.86796E-05 2.66145E-06-1.85071E-19-2.68915E-19
 -1      2281 9.50468E-05-2.78551E-05-2.88066E-05 2.36960E-06-2.44159E-19-2.96758E-19
 -1      2282 9.51445E-05-2.80967E-05-2.87322E-05 2.97057E-06-1.77930E-19-3.92155E-19
 -1      2283 9.55212E-05-2.81893E-05-2.88439E-05 3.23855E-06-1.70742E-19-5.54879E-19
 -1      2284 9.52666E-05-2.79682E-05-2.88503E-05 3.07992E-06-2.71985E-19-6.74607E-19
 -1      2285 9.57137E-05-2.82083E-05-2.89308E-05 3.55839E-06-4.05191E-19-4.29673E-19
 -1      2286 9.61818E-05-2.83029E-05-2.90763E-05 3.85632E-06-5.93892E-19-6.09458E-19
 -1      2287 9.56014E-05-2.80172E-05-2.89712E-05 3.75794E-06-3.30572E-19-7.14055E-19
 -1      2288 9.64255E-05-2.83155E-05-2.91915E-05 4.21938E-06-5.58984E-19-5.55467E-19
 -1      2289 9.69888E-05-2.84229E-05-2.93687E-05 4.57027E-06-4.16139E-19-7.11629E-19
 -1      2290 9.60392E-05-2.80273E-05-2.91534E-05 4.48627E-06-6.11033E-19-5.00305E-19
 -1      2291 9.72842E-05-2.84397E-05-2.95072E-05 4.99746E-06-1.00546E-19-6.81640E-19
 -1      2292 9.79532E-05-2.85757E-05-2.97147E-05 5.41198E-06-1.44877E-19-6.46536E-19
 -1      2293 9.65776E-05-2.80246E-05-2.93846E-05 5.32150E-06-3.90410E-19-6.18815E-19
 -1      2294 9.83082E-05-2.86150E-05-2.98713E-05 5.91071E-06-4.05874E-19-4.29201E-19
 -1      2295 9.90983E-05-2.88046E-05-3.01066E-05 6.38231E-06-2.13889E-19-4.36843E-20
 -1      2296 9.72262E-05-2.80469E-05-2.96527E-05 6.29381E-06-8.62882E-20-5.31285E-19
 -1      2297 9.95334E-05-2.88992E-05-3.02738E-05 6.94079E-06-5.07310E-21-3.34051E-19
 -1      2298 1.00464E-04-2.91829E-05-3.05312E-05 7.43593E-06 1.52152E-19-5.23675E-19
 -1      2299 9.80141E-05-2.81582E-05-2.99432E-05 7.40006E-06-1.81633E-19-2.74316E-19
 -1      2300 1.01022E-04-2.93903E-05-3.06988E-05 8.01259E-06 1.01996E-19-4.04612E-19
 -1      2301 1.02119E-04-2.98318E-05-3.09674E-05 8.45525E-06 2.48546E-19-4.34380E-19
 -1      2302 9.90038E-05-2.84687E-05-3.02365E-05 8.58873E-06 6.78303E-20-7.47698E-19
 -1      2303 1.02881E-04-3.02467E-05-3.11224E-05 8.96145E-06-6.86945E-20-6.06989E-19
 -1      2304 1.04175E-04-3.09378E-05-3.13848E-05 9.21259E-06-3.39902E-19-8.58846E-19
 -1      2305 1.00317E-04-2.91617E-05-3.05080E-05 9.73462E-06 3.98672E-20-7.48708E-19
 -1      2306 1.05278E-04-3.16989E-05-3.15161E-05 9.48681E-06-2.25166E-19-9.22727E-19
 -1      2307 1.06797E-04-3.27487E-05-3.17519E-05 9.32543E-06-5.61371E-19-8.48821E-19
 -1      2308 1.02169E-04-3.05150E-05-3.07334E-05 1.05999E-05-4.64933E-19-7.39848E-19
 -1      2309 1.08443E-04-3.40160E-05-3.18618E-05 9.09876E-06-5.28717E-19-8.04494E-19
 -1      2310 1.10183E-04-3.54879E-05-3.20574E-05 8.22287E-06-2.23504E-19-5.71808E-19
 -1      2311 1.04897E-04-3.28856E-05-3.09069E-05 1.07781E-05-5.46459E-19-9.00967E-19
 -1      2312 1.12567E-04-3.73350E-05-3.21849E-05 7.10574E-06-9.39164E-20-6.61288E-19
 -1      2313 1.14402E-04-3.90952E-05-3.23554E-05 5.20911E-06 1.99741E-19-4.18495E-19
 -1      2314 1.08912E-04-3.65551E-05-3.10803E-05 9.63283E-06-1.32892E-19-7.64949E-19
 -1      2315 1.17535E-04-4.12809E-05-3.26126E-05 2.74189E-06 5.34830E-19-4.67516E-19
 -1      2316 1.19057E-04-4.27040E-05-3.28323E-05-2.81447E-07 7.78350E-19 8.96680E-20
 -1      2317 1.14462E-04-4.13401E-05-3.14264E-05 6.31780E-06 4.32495E-19-2.92759E-19
 -1      2318 1.22313E-04-4.42425E-05-3.34332E-05-4.29065E-06 8.88789E-19 2.96392E-19
 -1      2319 1.22739E-04-4.39828E-05-3.38412E-05-7.88299E-06 9.35204E-19-8.83048E-20
 -1      2320 1.21020E-04-4.57905E-05-3.23232E-05 8.97898E-09 8.44415E-19 3.54207E-20
 -1      2321 1.24537E-04-4.30912E-05-3.50175E-05-1.23085E-05 7.00940E-19 4.79368E-20
 -1      2322 1.23215E-04-3.99062E-05-3.57254E-05-1.46882E-05 3.87299E-19 4.66553E-19
 -1      2323 1.26315E-04-4.63270E-05-3.43189E-05-8.80213E-06 8.82456E-19-7.88733E-20
 -1      2324 1.22028E-04-3.54188E-05-3.74494E-05-1.65717E-05-8.95737E-20 2.55314E-19
 -1      2325 1.19267E-04-3.00478E-05-3.83032E-05-1.51725E-05-3.97153E-19 6.82852E-19
 -1      2326 1.27174E-04-3.94420E-05-3.76570E-05-1.63213E-05-1.28537E-19-3.13402E-19
 -1      2327 1.16822E-04-2.49061E-05-3.97314E-05-1.12591E-05-7.87211E-19-1.91568E-19
 -1      2328 1.15016E-04-2.15545E-05-4.01929E-05-5.78709E-06-6.40622E-19-1.01109E-18
 -1      2329 1.23093E-04-2.72916E-05-4.13225E-05-1.44212E-05-9.05161E-19-1.04212E-18
 -1      2330 1.14564E-04-2.07278E-05-4.04190E-05 2.24808E-06-1.23873E-18-1.97744E-18
 -1      2331 1.15591E-04-2.27863E-05-4.01386E-05 8.33020E-06-1.66971E-18-2.51343E-18
 -1      2332 1.19548E-04-1.85726E-05-4.36314E-05-2.06802E-06-1.39496E-18-3.04027E-18
 -1      2333 1.18088E-04-2.73493E-05-3.88998E-05 1.38597E-05-8.46292E-19-2.76961E-18
 -1      2334 1.20995E-04-3.28481E-05-3.80824E-05 1.64126E-05-6.36757E-19-2.43809E-18
 -1      2335 1.21782E-04-2.35253E-05-4.23214E-05 1.27793E-05-1.82933E-18-3.67554E-18
 -1      2336 1.22463E-04-3.77665E-05-3.63732E-05 1.56218E-05-4.15258E-19-2.00905E-18
 -1      2337 1.24354E-04-4.16434E-05-3.56141E-05 1.41741E-05 1.60910E-19-1.61193E-18
 -1      2338 1.26433E-04-3.65846E-05-3.88116E-05 1.69883E-05-3.92388E-19-2.91345E-18
 -1      2339 1.23374E-04-4.36207E-05-3.42507E-05 9.90097E-06 2.68933E-19-2.03340E-18
 -1      2340 1.23276E-04-4.44858E-05-3.37731E-05 6.38855E-06 4.63883E-19-1.88248E-18
 -1      2341 1.27262E-04-4.56322E-05-3.49872E-05 1.12598E-05-1.00003E-19-2.95196E-18
 -1      2342 1.20254E-04-4.33419E-05-3.30622E-05 2.21112E-06 8.42699E-19-1.61985E-18
 -1      2343 1.18934E-04-4.22227E-05-3.28177E-05-1.04861E-06 6.97773E-19-1.66923E-18
 -1      2344 1.22577E-04-4.63274E-05-3.27420E-05 2.19065E-06 6.89753E-19-2.17969E-18
 -1      2345 1.15686E-04-4.00690E-05-3.25005E-05-3.90955E-06 4.38234E-19-1.48137E-18
 -1      2346 1.13901E-04-3.83082E-05-3.23347E-05-6.07401E-06 4.47548E-19-9.12413E-19
 -1      2347 1.16171E-04-4.25880E-05-3.16322E-05-4.84380E-06 4.97890E-19-1.38800E-18
 -1      2348 1.11326E-04-3.63269E-05-3.21963E-05-7.46008E-06 3.67662E-19-7.30462E-19
 -1      2349 1.09573E-04-3.47574E-05-3.20213E-05-8.53739E-06 6.38559E-19 1.88812E-20
 -1      2350 1.10274E-04-3.76541E-05-3.11999E-05-8.81788E-06 7.56151E-19-2.32985E-19
 -1      2351 1.07778E-04-3.33422E-05-3.19236E-05-8.90873E-06 3.87341E-19 2.71298E-19
 -1      2352 1.06241E-04-3.21931E-05-3.17114E-05-9.18231E-06 3.48828E-19 9.21231E-19
 -1      2353 1.05914E-04-3.36423E-05-3.10244E-05-1.03493E-05 6.47486E-19 3.66645E-19
 -1      2354 1.05047E-04-3.13192E-05-3.15991E-05-8.95898E-06 3.09806E-19 1.27407E-18
 -1      2355 1.03751E-04-3.05565E-05-3.13584E-05-8.74315E-06 4.31079E-19 1.34010E-18
 -1      2356 1.02945E-04-3.09568E-05-3.08815E-05-1.03475E-05 4.44160E-19 1.03211E-18
 -1      2357 1.02949E-04-3.00706E-05-3.12227E-05-8.22398E-06-2.12608E-19 9.53046E-19
 -1      2358 1.01869E-04-2.95885E-05-3.09739E-05-7.76206E-06-7.99175E-19 4.26515E-21
 -1      2359 1.00965E-04-2.93800E-05-3.06949E-05-9.50668E-06-2.38283E-19 1.04253E-18
 -1      2360 1.01306E-04-2.93430E-05-3.08240E-05-7.13276E-06-1.26105E-18-1.17599E-19
 -1      2361 1.00412E-04-2.90439E-05-3.05860E-05-6.58384E-06-1.45223E-18 1.02259E-19
 -1      2362 9.96073E-05-2.85523E-05-3.04606E-05-8.28614E-06-8.90860E-19 1.24965E-19
 -1      2363 9.99920E-05-2.89339E-05-3.04345E-05-5.95038E-06-1.90092E-18 9.67805E-19
 -1      2364 9.92585E-05-2.87483E-05-3.02194E-05-5.40624E-06-1.19412E-18 9.37337E-19
 -1      2365 9.86275E-05-2.81736E-05-3.01999E-05-6.96312E-06-1.15191E-18 1.07808E-18
 -1      2366 9.89303E-05-2.87091E-05-3.00764E-05-4.82345E-06-1.94194E-19 4.99042E-19
 -1      2367 9.83345E-05-2.85930E-05-2.98901E-05-4.33024E-06 2.36163E-19 1.01141E-18
 -1      2368 9.78826E-05-2.80408E-05-2.99364E-05-5.69261E-06-6.86047E-19 1.64450E-18
 -1      2369 9.80710E-05-2.85879E-05-2.97618E-05-3.82193E-06 4.19954E-19 4.93179E-20
 -1      2370 9.75934E-05-2.85146E-05-2.96058E-05-3.39800E-06 4.56383E-19-2.11470E-19
 -1      2371 9.72949E-05-2.80318E-05-2.96880E-05-4.55187E-06-1.28622E-19 3.68105E-19
 -1      2372 9.73797E-05-2.85245E-05-2.94951E-05-2.97017E-06 6.78742E-19-8.86851E-19
 -1      2373 9.70023E-05-2.84781E-05-2.93679E-05-2.61833E-06 2.91254E-20-2.95001E-19
 -1      2374 9.68226E-05-2.80784E-05-2.94654E-05-3.57091E-06 3.84430E-19-8.09811E-19
 -1      2375 9.68298E-05-2.84933E-05-2.92751E-05-2.26742E-06-1.91827E-19 4.93473E-19
 -1      2376 9.65361E-05-2.84643E-05-2.91737E-05-1.98266E-06-9.62897E-19 1.80093E-18
 -1      2377 9.64417E-05-2.81449E-05-2.92735E-05-2.75265E-06 3.41024E-19-1.48363E-19
 -1      2378 9.63982E-05-2.84803E-05-2.90980E-05-1.70058E-06-8.88444E-19 2.88976E-18
 -1      2379 9.61733E-05-2.84628E-05-2.90187E-05-1.47448E-06 5.41547E-19 3.53403E-18
 -1      2380 9.61367E-05-2.82139E-05-2.91129E-05-2.08568E-06 4.56133E-19 1.88320E-18
 -1      2381 9.60647E-05-2.84777E-05-2.89582E-05-1.25145E-06 1.61239E-19 3.12984E-18
 -1      2382 9.58955E-05-2.84678E-05-2.88974E-05-1.07467E-06 3.55737E-19 2.38113E-18
 -1      2383 9.58953E-05-2.82776E-05-2.89818E-05-1.55202E-06 2.71273E-19 2.83138E-18
 -1      2384 9.58112E-05-2.84806E-05-2.88500E-05-9.00778E-07 1.00388E-18 2.11765E-18
 -1      2385 9.56863E-05-2.84757E-05-2.88043E-05-7.64269E-07 9.16721E-19 1.31540E-18
 -1      2386 9.57070E-05-2.83327E-05-2.88772E-05-1.13163E-06 2.36640E-19 7.41734E-19
 -1      2387 9.56218E-05-2.84862E-05-2.87678E-05-6.30279E-07 5.62748E-19 1.77025E-18
 -1      2388 9.55316E-05-2.84845E-05-2.87341E-05-5.25870E-07 7.35956E-19 2.27830E-18
 -1      2389 9.55624E-05-2.83784E-05-2.87952E-05-8.04888E-07 8.80686E-19 1.47000E-18
 -1      2390 9.54828E-05-2.84928E-05-2.87066E-05-4.23672E-07 8.08509E-20 1.96152E-18
 -1      2391 9.54192E-05-2.84931E-05-2.86823E-05-3.44549E-07-5.35331E-19 1.69890E-18
 -1      2392 9.54528E-05-2.84152E-05-2.87320E-05-5.53828E-07-4.43283E-19 2.57066E-18
 -1      2393 9.53824E-05-2.84999E-05-2.86615E-05-2.67178E-07-1.50823E-18 4.11197E-19
 -1      2394 9.53394E-05-2.85012E-05-2.86443E-05-2.08329E-07-2.04279E-18-3.25638E-20
 -1      2395 9.53701E-05-2.84437E-05-2.86839E-05-3.63111E-07-1.24444E-18 4.01684E-19
 -1      2396 5.66510E-05-3.47762E-05-9.10065E-06 4.15748E-05 4.37493E-19-2.17687E-19
 -1      2397 4.24480E-05-2.91163E-05-5.40290E-06 3.49352E-05 5.25372E-19-1.39972E-19
 -1      2398 9.38793E-05-2.77140E-05-2.83446E-05-1.07104E-06 3.35925E-19-1.66006E-19
 -1      2399 9.38340E-05-2.75896E-05-2.83651E-05-6.98347E-07 3.10397E-19 3.53446E-20
 -1      2400 9.40936E-05-2.79183E-05-2.83503E-05-1.70928E-06 4.66185E-19-3.28796E-19
 -1      2401 9.38844E-05-2.77976E-05-2.83086E-05-1.45770E-06 3.85184E-19-2.56903E-19
 -1      2402 9.45140E-05-2.77467E-05-2.86282E-05-1.30893E-06 4.48886E-19-4.16906E-19
 -1      2403 9.45352E-05-2.81151E-05-2.84558E-05-2.17631E-06 5.61707E-19-3.99775E-19
 -1      2404 9.42071E-05-2.79904E-05-2.83705E-05-1.98536E-06 5.21629E-19-4.44821E-19
 -1      2405 9.46545E-05-2.79668E-05-2.85915E-05-2.04859E-06 5.09623E-19-5.08366E-19
 -1      2406 9.51578E-05-2.83208E-05-2.86345E-05-2.56392E-06 3.41066E-19-3.49309E-19
 -1      2407 9.47362E-05-2.81870E-05-2.85165E-05-2.39765E-06 3.43622E-19-2.77602E-19
 -1      2408 9.49796E-05-2.81437E-05-2.86528E-05-2.60660E-06 3.20166E-19-5.47724E-19
 -1      2409 9.59354E-05-2.85497E-05-2.88698E-05-2.92611E-06-1.00360E-19 6.11914E-20
 -1      2410 9.54329E-05-2.84004E-05-2.87256E-05-2.76470E-06 2.11234E-19 1.06356E-19
 -1      2411 9.54591E-05-2.83094E-05-2.87858E-05-3.07988E-06 2.22785E-20-2.09951E-19
 -1      2412 9.68571E-05-2.88182E-05-2.91503E-05-3.28653E-06 2.98604E-19-2.08170E-19
 -1      2413 9.62788E-05-2.86452E-05-2.89842E-05-3.12370E-06 1.25100E-19-5.69204E-20
 -1      2414 9.60770E-05-2.84897E-05-2.89725E-05-3.52448E-06 1.07568E-19-9.45167E-20
 -1      2415 9.79195E-05-2.91471E-05-2.94661E-05-3.63921E-06 6.70195E-19-4.40654E-19
 -1      2416 9.72685E-05-2.89402E-05-2.92822E-05-3.48264E-06 4.60052E-19-4.41334E-19
 -1      2417 9.68297E-05-2.87126E-05-2.91991E-05-3.96196E-06 4.65587E-19-2.66986E-19
 -1      2418 9.91211E-05-2.95626E-05-2.98060E-05-3.94490E-06 1.02811E-18-4.24167E-19
 -1      2419 9.84031E-05-2.93098E-05-2.96100E-05-3.81852E-06 9.53560E-19-3.23383E-19
 -1      2420 9.77240E-05-2.90128E-05-2.94537E-05-4.37936E-06 7.58259E-19-2.85587E-19
 -1      2421 1.00454E-04-3.00941E-05-3.01548E-05-4.12517E-06 6.42848E-19-3.56155E-19
 -1      2422 9.96836E-05-2.97837E-05-2.99552E-05-4.07216E-06 7.61829E-19-2.53518E-19
 -1      2423 9.87740E-05-2.94337E-05-2.97236E-05-4.72473E-06 6.69695E-19-2.02188E-20
 -1      2424 1.01895E-04-3.07692E-05-3.04914E-05-4.05748E-06 1.76878E-19-1.96712E-20
 -1      2425 1.01102E-04-3.03939E-05-3.03011E-05-4.14186E-06 6.27611E-19 1.95212E-19
 -1      2426 9.99968E-05-3.00261E-05-2.99942E-05-4.90081E-06 4.56360E-19 2.72158E-19
 -1      2427 1.03393E-04-3.15994E-05-3.07890E-05-3.57767E-06-3.27358E-19 1.57623E-19
 -1      2428 1.02631E-04-3.11647E-05-3.06255E-05-3.88083E-06-9.90747E-20 2.43224E-19
 -1      2429 1.01406E-04-3.08397E-05-3.02496E-05-4.76037E-06-6.78826E-21 9.04620E-19
 -1      2430 1.04852E-04-3.25517E-05-3.10188E-05-2.50155E-06 6.32398E-19-4.03777E-19
 -1      2431 1.04205E-04-3.20918E-05-3.09023E-05-3.10699E-06 5.39156E-21-1.51608E-19
 -1      2432 1.02993E-04-3.18994E-05-3.04755E-05-4.11103E-06 2.16802E-19 5.25044E-19
 -1      2433 1.06102E-04-3.35044E-05-3.11578E-05-6.82611E-07 1.54110E-19 6.02936E-20
 -1      2434 1.05691E-04-3.31033E-05-3.11069E-05-1.64079E-06 6.33569E-19-2.95634E-20
 -1      2435 1.04701E-04-3.31597E-05-3.06647E-05-2.74307E-06 3.70273E-19 1.37642E-19
 -1      2436 1.06888E-04-3.41978E-05-3.12005E-05 1.87659E-06-9.22472E-20 1.10928E-19
 -1      2437 1.06859E-04-3.40065E-05-3.12247E-05 6.08495E-07 2.31750E-19 2.35330E-19
 -1      2438 1.06367E-04-3.44332E-05-3.08261E-05-5.02151E-07-5.79093E-20 5.29342E-19
 -1      2439 1.06875E-04-3.42277E-05-3.11702E-05 4.86341E-06-6.92049E-19 4.42939E-20
 -1      2440 1.07367E-04-3.44488E-05-3.12620E-05 3.49543E-06-4.64369E-19 6.86973E-20
 -1      2441 1.07672E-04-3.53229E-05-3.09908E-05 2.57015E-06-4.36569E-19 9.32811E-19
 -1      2442 1.05775E-04-3.31739E-05-3.11186E-05 7.51838E-06-3.11697E-19 3.62636E-20
 -1      2443 1.06830E-04-3.39711E-05-3.12509E-05 6.46378E-06-4.98244E-19 4.60409E-21
 -1      2444 1.08140E-04-3.52408E-05-3.12099E-05 6.03393E-06-3.25946E-19 3.29852E-19
 -1      2445 1.03580E-04-3.09206E-05-3.11031E-05 8.68451E-06 4.39357E-19-3.21287E-19
 -1      2446 1.05035E-04-3.22401E-05-3.12354E-05 8.48237E-06 1.45407E-19-2.27680E-19
 -1      2447 1.07310E-04-3.36498E-05-3.15284E-05 8.89057E-06-2.14215E-20-4.72838E-19
 -1      2448 1.00892E-04-2.80645E-05-3.11497E-05 7.30456E-06 2.77933E-21 3.16842E-19
 -1      2449 1.02312E-04-2.94913E-05-3.12471E-05 8.32579E-06 1.92487E-19 2.44879E-19
 -1      2450 1.05147E-04-3.05704E-05-3.19382E-05 9.70694E-06-6.92342E-20-3.36323E-19
 -1      2451 9.89004E-05-2.59320E-05-3.12200E-05 3.23702E-06-2.92068E-19 6.28998E-19
 -1      2452 9.97118E-05-2.67743E-05-3.12675E-05 5.33963E-06-1.79915E-19 7.35946E-19
 -1      2453 1.02481E-04-2.70874E-05-3.23411E-05 7.33249E-06-2.12893E-19 7.11135E-19
 -1      2454 9.87124E-05-2.57172E-05-3.12659E-05-2.14439E-06-4.41317E-19 1.79862E-19
 -1      2455 9.85450E-05-2.55373E-05-3.12547E-05 2.84018E-07-3.87690E-19 6.66805E-19
 -1      2456 1.00792E-04-2.48879E-05-3.25678E-05 2.05472E-06-4.37655E-19 9.56342E-19
 -1      2457 1.00506E-04-2.75985E-05-3.12685E-05-6.69185E-06 7.11696E-19 5.45939E-21
 -1      2458 9.94327E-05-2.64783E-05-3.12009E-05-4.89951E-06 2.22386E-19-2.84916E-19
 -1      2459 1.01170E-04-2.53939E-05-3.25224E-05-4.11380E-06 4.84251E-19 2.84128E-20
 -1      2460 1.03322E-04-3.04766E-05-3.12564E-05-8.73818E-06 1.27402E-18 3.46142E-19
 -1      2461 1.01822E-04-2.90278E-05-3.11389E-05-8.13528E-06 9.73681E-19 5.11264E-20
 -1      2462 1.03372E-04-2.81908E-05-3.22231E-05-8.56917E-06 5.61596E-19 1.20418E-19
 -1      2463 1.05842E-04-3.29565E-05-3.12672E-05-8.07402E-06 6.00460E-19 5.82621E-19
 -1      2464 1.04468E-04-3.17933E-05-3.11241E-05-8.59309E-06 1.17593E-18 8.46868E-19
 -1      2465 1.06033E-04-3.17251E-05-3.18140E-05-9.81846E-06 1.11190E-18-2.39055E-20
 -1      2466 1.07252E-04-3.42584E-05-3.12984E-05-5.63721E-06 2.86085E-19 1.13209E-18
 -1      2467 1.06352E-04-3.36657E-05-3.11686E-05-6.80955E-06 8.26370E-20 8.95580E-19
 -1      2468 1.07811E-04-3.43616E-05-3.14406E-05-8.18624E-06 3.97024E-19 1.07410E-19
 -1      2469 1.07445E-04-3.43862E-05-3.13140E-05-2.64483E-06-5.61371E-19 2.11214E-18
 -1      2470 1.07104E-04-3.43213E-05-3.12338E-05-3.96355E-06 2.90823E-19 1.84276E-18
 -1      2471 1.08199E-04-3.54088E-05-3.11711E-05-5.02088E-06-1.23323E-19 1.03764E-18
 -1      2472 1.06728E-04-3.37523E-05-3.12721E-05 1.76665E-08-5.54009E-19 1.52613E-18
 -1      2473 1.06859E-04-3.40232E-05-3.12619E-05-1.10756E-06-3.59360E-19 1.83643E-18
 -1      2474 1.07429E-04-3.50952E-05-3.09919E-05-1.65651E-06-4.80357E-19 1.54318E-18
 -1      2475 1.05494E-04-3.27975E-05-3.11504E-05 1.94630E-06-7.48210E-19 5.14226E-19
 -1      2476 1.05948E-04-3.32156E-05-3.12104E-05 1.15635E-06-4.69266E-19 1.14289E-18
 -1      2477 1.06004E-04-3.40196E-05-3.08525E-05 1.09724E-06 2.21039E-20 8.74345E-19
 -1      2478 1.04052E-04-3.18198E-05-3.09514E-05 3.09155E-06 7.65804E-20-6.27987E-20
 -1      2479 1.04686E-04-3.22588E-05-3.10675E-05 2.64071E-06-7.26612E-19-1.94224E-19
 -1      2480 1.04357E-04-3.27217E-05-3.07079E-05 2.95877E-06-1.51153E-19 8.48131E-20
 -1      2481 1.02599E-04-3.09670E-05-3.06949E-05 3.58557E-06-2.93753E-20 2.50816E-19
 -1      2482 1.03303E-04-3.13620E-05-3.08468E-05 3.40905E-06-1.77115E-19-3.75821E-20
 -1      2483 1.02754E-04-3.15238E-05-3.05350E-05 3.97103E-06-5.00447E-19-2.97034E-19
 -1      2484 1.01243E-04-3.02846E-05-3.04072E-05 3.61589E-06 9.62888E-19 1.73215E-18
 -1      2485 1.01942E-04-3.06123E-05-3.05750E-05 3.63050E-06 4.28324E-19 1.05315E-18
 -1      2486 1.01315E-04-3.05586E-05-3.03314E-05 4.31892E-06-2.94049E-19 8.06561E-19
 -1      2487 1.00037E-04-2.97658E-05-3.01133E-05 3.35756E-06 1.57175E-18 2.44154E-18
 -1      2488 1.00684E-04-3.00249E-05-3.02809E-05 3.48802E-06 1.78938E-18 2.79906E-18
 -1      2489 1.00078E-04-2.98429E-05-3.01072E-05 4.21327E-06 6.34818E-19 1.74268E-18
 -1      2490 9.90000E-05-2.93839E-05-2.98327E-05 2.94749E-06 2.62092E-21 2.44002E-18
 -1      2491 9.95702E-05-2.95825E-05-2.99890E-05 3.13607E-06 1.02726E-18 2.50700E-18
 -1      2492 9.90407E-05-2.93415E-05-2.98769E-05 3.83679E-06 1.42489E-18 3.22146E-18
 -1      2493 9.81303E-05-2.91089E-05-2.95781E-05 2.48130E-06-4.27298E-19 1.56862E-18
 -1      2494 9.86151E-05-2.92577E-05-2.97168E-05 2.68843E-06-4.69291E-19 2.22564E-18
 -1      2495 9.81852E-05-2.90051E-05-2.96538E-05 3.32719E-06 3.21250E-19 2.93739E-18
 -1      2496 9.74178E-05-2.89143E-05-2.93564E-05 2.01956E-06-1.23643E-18 9.43879E-19
 -1      2497 9.78175E-05-2.90237E-05-2.94747E-05 2.22073E-06-3.81570E-19 1.35160E-18
 -1      2498 9.74889E-05-2.87876E-05-2.94481E-05 2.77844E-06-6.86953E-19 1.82143E-18
 -1      2499 9.68461E-05-2.87789E-05-2.91697E-05 1.59664E-06-1.29419E-18 1.53648E-18
 -1      2500 9.71670E-05-2.88578E-05-2.92673E-05 1.77841E-06-2.03823E-18 7.93827E-19
 -1      2501 9.69295E-05-2.86522E-05-2.92658E-05 2.24896E-06-1.31780E-18 1.82970E-18
 -1      2502 9.63966E-05-2.86864E-05-2.90169E-05 1.22878E-06-2.22680E-19 3.92070E-18
 -1      2503 9.66479E-05-2.87421E-05-2.90952E-05 1.38525E-06-6.59098E-20 3.02301E-18
 -1      2504 9.64862E-05-2.85720E-05-2.91097E-05 1.77100E-06-1.78294E-18 2.34481E-18
 -1      2505 9.60502E-05-2.86246E-05-2.88952E-05 9.20542E-07 4.22103E-19 3.16001E-18
 -1      2506 9.62425E-05-2.86630E-05-2.89564E-05 1.05055E-06 4.55993E-19 3.70862E-18
 -1      2507 9.61401E-05-2.85275E-05-2.89800E-05 1.35888E-06 3.20764E-20 4.38713E-18
 -1      2508 9.57890E-05-2.85844E-05-2.88007E-05 6.69504E-07 3.80518E-19 3.07033E-18
 -1      2509 9.59324E-05-2.86101E-05-2.88472E-05 7.74701E-07 1.72034E-19 3.89815E-18
 -1      2510 9.58741E-05-2.85056E-05-2.88749E-05 1.01545E-06 1.58951E-20 3.47751E-18
 -1      2511 9.55964E-05-2.85592E-05-2.87291E-05 4.69437E-07-2.10178E-20 3.87795E-18
 -1      2512 9.57005E-05-2.85758E-05-2.87636E-05 5.52919E-07 3.08136E-19 3.63806E-18
 -1      2513 9.56730E-05-2.84973E-05-2.87918E-05 7.36771E-07-4.88541E-19 3.30790E-18
 -1      2514 9.54580E-05-2.85439E-05-2.86765E-05 3.12487E-07 8.36600E-19 2.98460E-18
 -1      2515 9.55309E-05-2.85541E-05-2.87011E-05 3.77901E-07 1.67117E-19 3.56207E-18
 -1      2516 9.55236E-05-2.84964E-05-2.87277E-05 5.15329E-07 3.46951E-19 4.11300E-18
 -1      2517 9.53612E-05-2.85361E-05-2.86386E-05 1.90553E-07 1.31744E-18 2.61586E-18
 -1      2518 9.54100E-05-2.85411E-05-2.86557E-05 2.41294E-07 9.91956E-19 2.38115E-18
 -1      2519 9.54138E-05-2.84989E-05-2.86792E-05 3.42544E-07 1.28654E-18 2.32869E-18
 -1      2520 9.52958E-05-2.85342E-05-2.86116E-05 9.88354E-08 3.60324E-19 3.07791E-18
 -1      2521 9.53271E-05-2.85353E-05-2.86233E-05 1.36996E-07 5.79646E-19 3.28131E-18
 -1      2522 9.53360E-05-2.85057E-05-2.86429E-05 2.08753E-07 4.88583E-19 1.89332E-18
 -1      2523 9.52724E-05-2.85388E-05-2.85991E-05 5.77154E-08 1.80555E-19 3.23131E-18
 -1      2524 9.51041E-05-2.82175E-05-2.86671E-05 1.97054E-07-5.37197E-19-2.56682E-18
 -1      2525 9.51310E-05-2.82545E-05-2.86607E-05 2.08556E-07 8.99876E-20-4.68858E-18
 -1      2526 9.50558E-05-2.81477E-05-2.86763E-05 1.45253E-07 5.27321E-20 7.52060E-19
 -1      2527 9.50766E-05-2.81759E-05-2.86716E-05 1.71862E-07-5.86037E-19-1.33326E-18
 -1      2528 9.50630E-05-2.81449E-05-2.86782E-05 2.21788E-07-7.26195E-20-1.49024E-18
 -1      2529 9.52212E-05-2.83950E-05-2.86406E-05 1.93738E-07 1.04307E-18 2.39711E-18
 -1      2530 9.52452E-05-2.84327E-05-2.86329E-05 1.74537E-07-5.35612E-20 3.41903E-18
 -1      2531 9.51628E-05-2.83041E-05-2.86549E-05 2.14034E-07-1.53019E-19-2.79364E-18
 -1      2532 9.51908E-05-2.83438E-05-2.86477E-05 2.08881E-07 1.40243E-19 3.11253E-20
 -1      2533 9.52070E-05-2.83417E-05-2.86561E-05 2.48142E-07-9.24297E-21 4.14330E-19
 -1      2534 9.51327E-05-2.82382E-05-2.86685E-05 2.56185E-07 5.07424E-19-3.58965E-18
 -1      2535 9.50261E-05-2.81047E-05-2.86818E-05 6.77358E-08-1.37904E-18-2.37046E-18
 -1      2536 9.50374E-05-2.81200E-05-2.86793E-05 1.04622E-07-2.83620E-19-7.23633E-19
 -1      2537 9.50089E-05-2.80739E-05-2.86851E-05 1.49745E-07-1.35154E-18 2.87276E-19
 -1      2538 9.50195E-05-2.80946E-05-2.86830E-05-2.19241E-08-3.33452E-18-1.43404E-18
 -1      2539 9.50195E-05-2.80946E-05-2.86830E-05 1.86062E-08-2.50204E-18-1.93480E-18
 -1      2540 9.49794E-05-2.80352E-05-2.86888E-05 5.20986E-08-2.04055E-18-2.66085E-18
 -1      2541 9.50373E-05-2.81189E-05-2.86798E-05-1.07998E-07-2.68163E-18-1.53488E-18
 -1      2542 9.50259E-05-2.81036E-05-2.86822E-05-7.11571E-08-3.56674E-18-9.39766E-19
 -1      2543 9.49791E-05-2.80340E-05-2.86892E-05-5.48008E-08-2.52727E-18-1.35486E-18
 -1      2544 9.50762E-05-2.81732E-05-2.86726E-05-1.74276E-07-1.70245E-18-1.52799E-18
 -1      2545 9.50555E-05-2.81454E-05-2.86771E-05-1.48165E-07-1.77992E-18-2.34379E-18
 -1      2546 9.50082E-05-2.80704E-05-2.86862E-05-1.52170E-07-1.92413E-18-1.22333E-18
 -1      2547 9.51314E-05-2.82520E-05-2.86620E-05-2.10818E-07-4.08910E-19 1.99932E-18
 -1      2548 9.51041E-05-2.82147E-05-2.86683E-05-1.99629E-07-8.45134E-19-1.22081E-18
 -1      2549 9.50622E-05-2.81399E-05-2.86799E-05-2.24222E-07-9.68975E-19-4.29719E-19
 -1      2550 9.51932E-05-2.83440E-05-2.86488E-05-2.09422E-07 2.64479E-19 2.67846E-18
 -1      2551 9.51646E-05-2.83027E-05-2.86562E-05-2.16113E-07-1.23221E-18 4.47095E-18
 -1      2552 9.51332E-05-2.82340E-05-2.86705E-05-2.58553E-07-1.07434E-18 1.88752E-18
 -1      2553 9.52485E-05-2.84349E-05-2.86335E-05-1.71714E-07-5.80614E-19-1.83750E-18
 -1      2554 9.52247E-05-2.83959E-05-2.86415E-05-1.93996E-07-5.49334E-19-1.28460E-19
 -1      2555 9.52079E-05-2.83399E-05-2.86580E-05-2.48969E-07-1.44403E-18 4.54996E-19
 -1      2556 9.52669E-05-2.85089E-05-2.86095E-05-8.85307E-08 1.62214E-19-1.06019E-19
 -1      2557 1.94379E-05-1.72420E-05-6.73468E-07-6.55990E-06-1.80868E-19 2.42082E-18
 -1      2558 2.61699E-05-2.17449E-05-1.58635E-06-2.07108E-05-5.25796E-19 1.61063E-18
 -1      2559 9.39630E-05-2.74702E-05-2.84816E-05-1.12264E-07 3.83087E-19 6.43240E-20
 -1      2560 9.41540E-05-2.73225E-05-2.85977E-05 4.85853E-07 5.83680E-19 1.87032E-19
 -1      2561 9.45982E-05-2.74273E-05-2.88030E-05-2.33608E-07 4.90200E-19-1.16522E-19
 -1      2562 9.00687E-05-4.93981E-05-1.74645E-05 4.28127E-05 1.94818E-19 2.61998E-19
 -1      2563 7.21250E-05-4.34711E-05-1.20428E-05 4.23805E-05 7.91764E-19 3.40401E-19
 -1      2564 7.01088E-05-3.84571E-05-1.30954E-05 4.04254E-05 2.27322E-19 3.56919E-19
 -1      2565 1.07657E-04-5.65045E-05-2.19178E-05-3.41939E-05 1.62588E-18 1.16351E-18
 -1      2566 1.25683E-04-5.90507E-05-2.88051E-05-2.76139E-05 1.09797E-18 3.65071E-19
 -1      2567 1.24337E-04-5.66586E-05-2.93206E-05 2.87813E-05-3.55754E-19 1.18500E-18
 -1      2568 1.10265E-04-5.55219E-05-2.33143E-05 3.44467E-05 2.53263E-19 1.05636E-18
 -1      2569 2.85631E-05-2.15282E-05-2.77982E-06 2.55913E-05-9.49736E-20 6.18546E-19
 -1      2570 2.08762E-05-1.68251E-05-1.29043E-06 9.95336E-06-6.61136E-19 2.44115E-18
 -1      2571 4.30812E-05-2.27523E-05-8.11179E-06 2.91754E-05 9.41265E-20 5.42736E-19
 -1      2572 6.62762E-05-4.12585E-05-1.05473E-05-4.22266E-05-1.72371E-19-1.17208E-18
 -1      2573 8.40417E-05-4.76851E-05-1.55257E-05-4.39445E-05 1.29173E-19-4.96785E-19
 -1      2574 8.77443E-05-1.05114E-05-3.31358E-05-1.44676E-06 7.58705E-20-1.55553E-18
 -1      2575 8.78616E-05-1.06447E-05-3.31267E-05-2.52406E-06-8.89180E-20-1.46811E-18
 -1      2576 8.92266E-05-1.27609E-05-3.27716E-05-2.77587E-06-1.38990E-19-1.36749E-18
 -1      2577 8.89486E-05-1.23942E-05-3.28106E-05-8.89060E-07 1.07659E-19-1.48412E-18
 -1      2578 1.43912E-04-1.09895E-05-5.74588E-05 2.20370E-06 1.35398E-18-1.73324E-19
 -1      2579 1.45498E-04-1.04966E-05-5.82592E-05-3.59500E-07 1.28241E-18-3.09432E-19
 -1      2580 3.19015E-05-2.51777E-05-2.71439E-06 2.77870E-05-4.27752E-20-2.40430E-18
 -1      2581 2.25069E-05-2.04387E-05-6.22165E-07 1.52985E-05-7.43271E-20-2.12097E-18
 -1      2582 1.45805E-04-1.27959E-05-5.72541E-05-3.16597E-06 1.93081E-18-4.88420E-19
 -1      2583 1.42736E-04-1.77021E-05-5.40456E-05-5.26944E-06 2.16608E-18-3.81377E-19
 -1      2584 1.44052E-04-2.36983E-05-5.19462E-05 6.00802E-06 1.50370E-18 6.20663E-19
 -1      2585 1.44397E-04-1.69289E-05-5.51439E-05 5.28812E-06 1.33090E-18 1.91959E-19
 -1      2586 1.44523E-04-4.36763E-05-4.33677E-05-6.03681E-06-5.17484E-20 7.35436E-19
 -1      2587 1.47638E-04-3.55988E-05-4.85358E-05 6.43822E-07 1.17791E-18 1.40883E-18
 -1      2588 1.30815E-04-5.49786E-05-3.24895E-05-2.09326E-05-2.57392E-19 1.12295E-18
 -1      2589 1.40752E-04-5.11986E-05-3.86447E-05-1.50675E-05-1.41772E-19 6.41839E-19
 -1      2590 1.00191E-04-5.33626E-05-2.00101E-05-3.84578E-05-2.49875E-20-2.31558E-19
 -1      2591 1.16893E-04-5.62330E-05-2.62512E-05-3.34705E-05-2.12182E-19 8.58044E-19
 -1      2592 9.82718E-05-5.22342E-05-1.93908E-05-3.88790E-05-4.87891E-19 1.45696E-19
 -1      2593 3.61570E-05-2.54422E-05-4.19053E-06-3.09539E-05-1.86559E-19-2.45110E-18
 -1      2594 4.90469E-05-3.20892E-05-6.99124E-06-3.95522E-05-1.44843E-19-2.33506E-18
 -1      2595 6.84314E-05-4.27661E-05-1.07811E-05-4.00546E-05-8.51268E-20 5.28866E-19
 -1      2596 8.90807E-05-5.04834E-05-1.66234E-05-4.15347E-05 1.28198E-18 4.39345E-19
 -1      2597 6.42644E-05-4.12057E-05-9.83879E-06 4.14509E-05 4.56339E-19-5.59889E-19
 -1      2598 4.82373E-05-3.39760E-05-5.92705E-06 3.60371E-05 5.05255E-19-1.26483E-18
 -1      2599 9.65342E-05-5.27775E-05-1.88267E-05 3.93611E-05 1.64960E-19 7.39830E-19
 -1      2600 7.94787E-05-4.82202E-05-1.34546E-05 4.04287E-05 3.25684E-19 5.68147E-19
 -1      2601 7.85711E-05-4.49866E-05-1.40081E-05 4.00833E-05 6.96261E-19 1.22926E-19
 -1      2602 1.51007E-04-4.80371E-05-4.44202E-05 4.31863E-06-6.82444E-19-6.14099E-20
 -1      2603 1.43866E-04-5.30094E-05-3.91364E-05 9.68572E-06 1.34414E-19-7.05790E-19
 -1      2604 1.51248E-04-2.92628E-05-5.26368E-05-7.38403E-06-1.67353E-18 9.93146E-20
 -1      2605 1.51723E-04-3.97073E-05-4.82674E-05-3.02183E-06-1.32592E-18 1.48231E-19
 -1      2606 1.47580E-04-1.61236E-05-5.70042E-05-5.03242E-06-3.13677E-18 5.39613E-19
 -1      2607 1.47945E-04-2.02217E-05-5.51862E-05-9.01967E-06-2.28572E-18 5.79371E-19
 -1      2608 1.47061E-04-1.42883E-05-5.73649E-05 4.32081E-06-3.15689E-18 5.45595E-19
 -1      2609 1.47207E-04-1.28335E-05-5.80803E-05-1.01775E-07-3.48003E-18 3.18828E-19
 -1      2610 1.48553E-04-2.75843E-05-5.22804E-05 9.62191E-06-2.24951E-18 4.68197E-19
 -1      2611 1.47135E-04-2.12091E-05-5.46515E-05 8.58412E-06-2.43988E-18 1.17738E-19
 -1      2612 1.47143E-04-4.65398E-05-4.34349E-05 2.43935E-06-2.39393E-19 1.02533E-18
 -1      2613 1.50770E-04-3.72586E-05-4.91536E-05 6.45806E-06-1.20427E-18 1.06599E-18
 -1      2614 1.41959E-04-3.32230E-05-4.65900E-05 1.41923E-05-1.26526E-18-6.01817E-19
 -1      2615 1.37227E-04-5.83900E-05-3.38111E-05-1.51634E-05 1.26833E-18 1.13799E-18
 -1      2616 1.44280E-04-5.53322E-05-3.86262E-05-8.00676E-06 7.64130E-19 2.35941E-18
 -1      2617 3.46087E-05-2.66154E-05-3.15643E-06-2.78647E-05-5.36172E-19 1.39358E-18
 -1      2618 4.61872E-05-3.13381E-05-6.27996E-06-3.62098E-05-3.49189E-19 9.23689E-19
 -1      2619 3.65439E-05-2.07326E-05-6.21779E-06-2.36237E-05-2.84815E-19 2.06824E-18
 -1      2620 9.50936E-05-2.00035E-05-3.22297E-05-1.15320E-05-1.13179E-18-3.58096E-19
 -1      2621 9.55211E-05-2.33276E-05-3.09588E-05-7.70504E-06-1.04377E-18-2.39751E-19
 -1      2622 9.51177E-05-2.25204E-05-3.11041E-05-7.29306E-06-9.34794E-19-5.56648E-19
 -1      2623 9.32861E-05-1.76785E-05-3.24312E-05-1.10521E-05-1.08745E-18-6.74596E-19
 -1      2624 9.63442E-05-2.50792E-05-3.05661E-05 7.38726E-06 1.25113E-18 8.18735E-19
 -1      2625 9.74288E-05-2.37630E-05-3.15918E-05 1.04992E-05 1.32937E-18 1.03533E-18
 -1      2626 9.58916E-05-2.12938E-05-3.20263E-05 1.16788E-05 1.40545E-18 5.90342E-19
 -1      2627 9.59275E-05-2.41365E-05-3.08014E-05 7.41806E-06 1.20021E-18 2.99697E-19
 -1      2628 1.43672E-04-4.76134E-05-4.16124E-05 7.86468E-06 1.18868E-18-4.44692E-20
 -1      2629 1.35187E-04-5.34148E-05-3.50627E-05 1.61331E-05-4.28122E-19 5.62218E-19
 -1      2630 1.33618E-04-9.39565E-06-5.34831E-05-3.30360E-06 1.87851E-18-8.58044E-19
 -1      2631 9.07867E-05-1.48498E-05-3.25383E-05-6.51120E-06-6.47538E-19-1.22075E-18
 -1      2632 8.97307E-05-1.30535E-05-3.29144E-05-7.69646E-06-7.25410E-19-1.34017E-18
 -1      2633 9.04046E-05-1.38663E-05-3.28627E-05-8.85980E-06-9.07678E-19-1.22701E-18
 -1      2634 9.49361E-05-2.68850E-05-2.91789E-05 1.41783E-06 8.06283E-19 1.53823E-20
 -1      2635 9.42811E-05-1.90673E-05-3.22793E-05 1.13661E-05 1.40180E-18 6.48377E-20
 -1      2636 1.41481E-04-4.39042E-05-4.18604E-05-1.61207E-06 1.26187E-18-4.41304E-19
 -1      2637 1.44219E-04-5.22418E-05-3.94550E-05 2.85872E-06 7.06134E-19 8.94890E-19
 -1      2638 1.37502E-04-1.69023E-05-5.18762E-05 9.58236E-06-2.39054E-18-1.52889E-18
 -1      2639 1.37319E-04-1.34051E-05-5.34344E-05-3.70397E-06-3.22465E-18 5.65553E-19
 -1      2640 1.31967E-04-6.06851E-05-3.04172E-05-1.80170E-05 1.49226E-18 1.06843E-18
 -1      2641 9.52802E-05-2.85137E-05-2.86142E-05 1.07934E-07-7.18842E-19 2.41376E-18
 -1      2642 1.31872E-04-5.71835E-05-3.18871E-05 1.72208E-05-2.33781E-19 8.53174E-19
 -1      2643 9.52745E-05-2.84885E-05-2.86224E-05 1.36170E-07-3.56905E-19 2.90593E-18
 -1      2644 1.41993E-04-2.46391E-05-5.01346E-05-1.20002E-05-2.09831E-18 6.00229E-19
 -1      2645 9.52944E-05-2.85103E-05-2.86208E-05-1.26088E-07-3.47175E-19 3.83961E-19
 -1      2646 9.52719E-05-2.84739E-05-2.86285E-05-1.52151E-07-5.78193E-19-1.31437E-18
 -1      2647 9.52746E-05-2.84325E-05-2.86458E-05-2.14271E-07-1.73921E-18-8.02199E-19
 -1      2648 9.53208E-05-2.85061E-05-2.86329E-05-1.66551E-07-1.21523E-18 5.23994E-19
 -1      2649 1.10077E-04-5.72962E-05-2.25051E-05 3.40697E-05 5.12031E-19 4.94773E-19
 -1      2650 1.04391E-04-5.51032E-05-2.07544E-05 3.50779E-05 9.62229E-19 9.77635E-19
 -1      2651 1.21235E-04-6.02864E-05-2.64437E-05 2.66337E-05 1.57188E-18-3.79047E-20
 -1      2652 1.42434E-04-5.65198E-05-3.72826E-05 3.63743E-06 6.51037E-19-5.45172E-19
 -1      2653 1.40705E-04-5.77907E-05-3.55664E-05 1.35159E-05 6.98167E-19-4.11658E-19
 -1      2654 1.34261E-04-5.99033E-05-3.17123E-05 1.66439E-05 1.31025E-18-5.83076E-19
 -1      2655 2.77003E-05-1.45074E-05-5.05271E-06 1.80400E-06-4.87309E-19 1.80714E-18
 -1      2656 9.47586E-05-2.05597E-05-3.17554E-05 9.39521E-06 1.26437E-18-6.88148E-20
 -1      2657 1.03589E-04-5.37224E-05-2.10970E-05 3.65577E-05 7.38189E-19 6.97545E-19
 -1      2658 6.47039E-05-3.67964E-05-1.14800E-05-3.75339E-05-4.49774E-19 5.57348E-19
 -1      2659 1.04502E-04-5.52865E-05-2.07611E-05-3.48617E-05 1.87004E-18 2.40875E-19
 -1      2660 6.55240E-05-3.69826E-05-1.18554E-05-4.03029E-05-8.67997E-19-1.30030E-18
 -1      2661 1.26603E-04-5.79529E-05-2.92799E-05-2.32144E-05-6.62803E-19 1.58914E-18
 -1      2662 1.41193E-04-4.91305E-05-3.94549E-05-3.66034E-06 3.13005E-20 3.43895E-19
 -1      2663 1.39920E-04-3.00195E-05-4.72920E-05 7.70537E-06 1.02957E-18 7.54706E-19
 -1      2664 2.31079E-05-1.71030E-05-2.14983E-06 6.88873E-06 4.87044E-20-2.25988E-18
 -1      2665 2.58578E-05-1.34364E-05-4.78037E-06-1.91676E-06 2.11173E-19-2.31642E-18
 -1      2666 3.09156E-05-1.56586E-05-6.06552E-06 1.32660E-05 1.96723E-19-2.28424E-18
 -1      2667 1.39871E-04-2.27567E-05-5.05062E-05-8.25834E-06 1.50687E-18 3.74812E-20
 -1      2668 1.34682E-04-2.72114E-05-4.63389E-05-1.04883E-05 1.65129E-18-9.30783E-19
 -1      2669 1.29853E-04-1.65765E-05-4.92387E-05-1.04819E-05 2.17137E-18-1.08145E-18
 -1      2670 4.66484E-05-2.83722E-05-7.42628E-06 3.22556E-05 5.27702E-19-1.39633E-18
 -1      2671 9.11915E-05-1.49375E-05-3.27340E-05-9.54464E-06-9.82357E-19-1.13153E-18
 -1      2672 9.22203E-05-1.62399E-05-3.26418E-05-1.05767E-05-1.03973E-18-9.61131E-19
 -1      2673 9.37153E-05-1.91460E-05-3.19430E-05-8.90155E-06-1.01285E-18-8.34394E-19
 -1      2674 9.21117E-05-1.66972E-05-3.23052E-05-8.00335E-06-9.17228E-19-1.05363E-18
 -1      2675 1.34080E-04-1.25193E-05-5.23750E-05 6.62245E-06 1.19241E-18-4.22669E-19
 -1      2676 3.27726E-05-2.10637E-05-4.52543E-06-2.49965E-05-8.89385E-21-1.70465E-18
 -1      2677 4.41829E-05-2.23197E-05-9.00882E-06-2.94387E-05-5.98058E-19-1.46092E-18
 -1      2678 3.07355E-05-1.57380E-05-5.77821E-06-1.75683E-05 1.23508E-19-1.59030E-18
 -1      2679 1.47830E-04-4.52727E-05-4.42277E-05-6.39589E-06-1.09516E-18-2.79944E-19
 -1      2680 9.52774E-05-2.84518E-05-2.86389E-05 1.95079E-07-2.74007E-19 3.74402E-18
 -1      2681 9.53180E-05-2.84668E-05-2.86519E-05-2.37346E-07-1.54403E-18-7.01677E-19
 -1      2682 9.03921E-05-1.47806E-05-3.24270E-05 2.98813E-06 4.89126E-19-1.34278E-18
 -1      2683 9.01787E-05-1.44856E-05-3.24611E-05 2.10299E-06 4.47776E-19-1.37938E-18
 -1      2684 9.00249E-05-1.42592E-05-3.24910E-05 1.32818E-06 3.35578E-19-1.38625E-18
 -1      2685 8.99508E-05-1.41576E-05-3.25026E-05 4.27877E-07 1.99184E-19-1.37742E-18
 -1      2686 9.11622E-05-1.60806E-05-3.21631E-05 1.49673E-06 3.64512E-19-1.31657E-18
 -1      2687 9.21203E-05-1.73300E-05-3.20899E-05 6.12737E-06 1.07360E-18-7.96279E-19
 -1      2688 9.15598E-05-1.64944E-05-3.21947E-05 5.30705E-06 9.53196E-19-8.37912E-19
 -1      2689 9.35988E-05-1.96458E-05-3.17355E-05 7.24434E-06 1.15701E-18-5.92344E-19
 -1      2690 9.27860E-05-1.83546E-05-3.19175E-05 6.66470E-06 1.09061E-18-7.30152E-19
 -1      2691 9.34126E-05-1.96249E-05-3.15999E-05 5.33780E-06 1.01022E-18-6.59735E-19
 -1      2692 9.53382E-05-2.53217E-05-3.00168E-05 3.56601E-06 9.81758E-19-9.14246E-20
 -1      2693 9.56361E-05-2.44850E-05-3.04608E-05 5.25191E-06 1.04369E-18-2.94307E-20
 -1      2694 1.13407E-04-5.65159E-05-2.46463E-05 3.04155E-05 2.42993E-19 1.32111E-19
 -1      2695 9.66641E-05-4.95848E-05-1.97795E-05 3.64242E-05 1.13291E-19 4.79315E-19
 -1      2696 1.27240E-04-1.95392E-05-4.66622E-05 1.06619E-05-1.80736E-18-2.77107E-18
 -1      2697 1.26683E-04-1.51601E-05-4.85615E-05 4.44013E-06-2.50086E-18-2.46004E-18
 -1      2698 9.51759E-05-2.65681E-05-2.94052E-05 1.22188E-06 7.69930E-19-2.04198E-19
 -1      2699 9.53874E-05-2.60854E-05-2.96648E-05 2.30482E-06 8.83208E-19-9.93411E-20
 -1      2700 9.53664E-05-2.48705E-05-3.02104E-05 3.32588E-06 9.12068E-19-3.63946E-19
 -1      2701 9.47716E-05-2.18498E-05-3.12578E-05 7.53369E-06 1.18093E-18-1.44684E-19
 -1      2702 1.39379E-04-5.50140E-05-3.60064E-05 2.37126E-06 1.49258E-18 2.80474E-19
 -1      2703 1.39955E-04-4.79076E-05-4.01093E-05 1.01658E-05 4.81909E-19-1.21634E-18
 -1      2704 9.45883E-05-2.14105E-05-3.13928E-05-7.34473E-06-9.25357E-19-7.74298E-19
 -1      2705 9.50357E-05-2.31240E-05-3.08145E-05-5.62580E-06-8.39968E-19-7.31169E-19
 -1      2706 9.37996E-05-2.00202E-05-3.16231E-05-7.19037E-06-8.82016E-19-8.86741E-19
 -1      2707 9.54758E-05-2.57244E-05-2.98688E-05-2.14947E-06-5.60925E-19-6.34556E-19
 -1      2708 9.53488E-05-2.62685E-05-2.96136E-05-1.06243E-06-4.91490E-19-6.44366E-19
 -1      2709 9.53851E-05-2.67439E-05-2.93954E-05-1.97435E-07-5.04760E-19-4.71200E-19
 -1      2710 9.53103E-05-2.70657E-05-2.92498E-05 5.38402E-07-4.58239E-19-5.45880E-19
 -1      2711 9.54835E-05-2.59883E-05-2.97903E-05-8.42132E-07-4.36554E-19-5.75787E-19
 -1      2712 9.52862E-05-2.73155E-05-2.91163E-05 1.16044E-06-2.98744E-19-4.45645E-19
 -1      2713 9.52868E-05-2.75000E-05-2.90493E-05 1.68491E-06-2.59776E-19-4.33339E-19
 -1      2714 9.55062E-05-2.68670E-05-2.94251E-05 7.15542E-07-3.30158E-19-4.56836E-19
 -1      2715 9.52546E-05-2.76164E-05-2.89800E-05 2.15815E-06-3.34817E-19-4.19214E-19
 -1      2716 9.53275E-05-2.77169E-05-2.89707E-05 2.56608E-06-3.47136E-19-5.52140E-19
 -1      2717 9.54623E-05-2.73283E-05-2.92078E-05 1.87516E-06-3.75665E-19-5.07388E-19
 -1      2718 9.53010E-05-2.77451E-05-2.89496E-05 2.96035E-06-3.47289E-19-6.43004E-19
 -1      2719 9.54365E-05-2.77898E-05-2.89838E-05 3.32044E-06-2.86382E-19-6.61900E-19
 -1      2720 9.54152E-05-2.75242E-05-2.91021E-05 2.79214E-06-4.35891E-19-7.34727E-19
 -1      2721 9.54171E-05-2.77553E-05-2.89987E-05 3.69174E-06-1.38169E-19-4.48859E-19
 -1      2722 9.56068E-05-2.77622E-05-2.90666E-05 4.05384E-06-2.19396E-19-4.71018E-19
 -1      2723 9.53783E-05-2.75350E-05-2.90800E-05 3.59602E-06-1.12688E-19-6.25910E-19
 -1      2724 9.55912E-05-2.76821E-05-2.91077E-05 4.44482E-06-3.50962E-19-3.25755E-19
 -1      2725 9.58311E-05-2.76666E-05-2.92019E-05 4.84439E-06-3.90907E-19-9.63420E-20
 -1      2726 9.53502E-05-2.74122E-05-2.91189E-05 4.38791E-06-1.19194E-19-1.13474E-19
 -1      2727 9.58161E-05-2.75565E-05-2.92602E-05 5.28625E-06-5.92118E-19 2.46063E-19
 -1      2728 9.61074E-05-2.75370E-05-2.93743E-05 5.74586E-06-3.79954E-19 2.05099E-20
 -1      2729 9.53249E-05-2.71962E-05-2.91991E-05 5.24337E-06-2.68607E-19 5.94918E-19
 -1      2730 9.60940E-05-2.74179E-05-2.94403E-05 6.25913E-06-3.51452E-19-4.13894E-20
 -1      2731 9.64456E-05-2.74220E-05-2.95671E-05 6.78709E-06-3.16627E-19-7.59553E-20
 -1      2732 9.53002E-05-2.69311E-05-2.93008E-05 6.21527E-06-6.16836E-19 5.14639E-19
 -1      2733 9.64458E-05-2.73290E-05-2.96297E-05 7.38077E-06-2.66157E-19-3.02299E-19
 -1      2734 9.68797E-05-2.74033E-05-2.97601E-05 7.96663E-06-1.36745E-19-1.74911E-19
 -1      2735 9.52885E-05-2.66814E-05-2.94021E-05 7.33455E-06-4.52513E-19 4.26128E-20
 -1      2736 9.69288E-05-2.73980E-05-2.98058E-05 8.63540E-06 8.67637E-20-2.10216E-19
 -1      2737 9.74904E-05-2.76208E-05-2.99278E-05 9.24179E-06 2.41574E-19-4.13554E-19
 -1      2738 9.53338E-05-2.65547E-05-2.94767E-05 8.60833E-06-3.76574E-21 3.27238E-20
 -1      2739 9.76667E-05-2.78086E-05-2.99413E-05 9.96019E-06-1.11972E-20-3.75319E-19
 -1      2740 9.84416E-05-2.83063E-05-3.00413E-05 1.05100E-05-2.42468E-19-7.42849E-19
 -1      2741 9.55432E-05-2.67341E-05-2.94938E-05 1.00148E-05 2.50055E-20-5.30849E-20
 -1      2742 9.88982E-05-2.88552E-05-3.00094E-05 1.12199E-05-4.49588E-19-5.68516E-19
 -1      2743 1.00032E-04-2.98138E-05-3.00773E-05 1.15772E-05-5.19492E-19-6.11259E-19
 -1      2744 9.61359E-05-2.75174E-05-2.94228E-05 1.14915E-05-3.56170E-19-3.78680E-19
 -1      2745 1.01036E-04-3.09634E-05-3.00000E-05 1.21589E-05-5.92371E-19-6.49482E-19
 -1      2746 1.02739E-04-3.26118E-05-3.00436E-05 1.21037E-05-7.16279E-19-7.50911E-19
 -1      2747 9.75144E-05-2.93544E-05-2.92476E-05 1.29042E-05-7.02770E-19-9.56304E-20
 -1      2748 1.04704E-04-3.46357E-05-2.99613E-05 1.22914E-05-4.30094E-19-3.48246E-19
 -1      2749 1.07179E-04-3.71066E-05-3.00331E-05 1.14823E-05 8.26486E-20-4.15049E-19
 -1      2750 1.00349E-04-3.28470E-05-2.90050E-05 1.39561E-05-4.82549E-19-2.55533E-19
 -1      2751 1.10567E-04-4.01233E-05-3.00686E-05 1.07961E-05 4.19075E-19-5.38572E-19
 -1      2752 1.13856E-04-4.32091E-05-3.03051E-05 8.79472E-06 6.55253E-19-5.52511E-19
 -1      2753 1.05534E-04-3.84918E-05-2.88637E-05 1.39861E-05 2.76670E-19-6.61811E-20
 -1      2754 1.18820E-04-4.67099E-05-3.07513E-05 6.38298E-06 1.01341E-18-4.66477E-19
 -1      2755 1.22253E-04-4.91341E-05-3.14262E-05 2.89850E-06 1.02602E-18-3.17796E-19
 -1      2756 1.13776E-04-4.59606E-05-2.92427E-05 1.16771E-05 1.10453E-18-8.71187E-19
 -1      2757 1.28068E-04-5.12165E-05-3.28404E-05-2.22004E-06 1.11055E-18 1.01379E-20
 -1      2758 1.29772E-04-5.00086E-05-3.42627E-05-6.61065E-06 1.14127E-18 1.55570E-19
 -1      2759 1.24970E-04-5.30165E-05-3.10706E-05 5.39169E-06 1.43799E-18-5.80125E-19
 -1      2760 1.30397E-04-2.60012E-05-4.53653E-05-1.46702E-05-1.78364E-18-1.70836E-19
 -1      2761 1.27650E-04-1.81877E-05-4.72652E-05-1.08543E-05-1.96501E-18-1.24842E-18
 -1      2762 1.30226E-04-2.75190E-05-4.48306E-05 1.55447E-05-1.41285E-18-3.14900E-18
 -1      2763 1.31833E-04-4.04725E-05-3.93274E-05 1.46785E-05-1.48231E-19-2.43098E-18
 -1      2764 1.32449E-04-4.67131E-05-3.68625E-05 1.25032E-05 4.16661E-19-2.07581E-18
 -1      2765 1.31197E-04-5.03979E-05-3.47397E-05 7.14712E-06 8.90880E-19-1.80148E-18
 -1      2766 1.24407E-04-5.00460E-05-3.18842E-05-5.77383E-07 6.20736E-19-1.33056E-18
 -1      2767 1.21339E-04-4.83390E-05-3.11584E-05-4.37613E-06 3.10841E-19-1.48588E-18
 -1      2768 1.15923E-04-4.48203E-05-3.05227E-05-7.51686E-06 3.90370E-19-1.18963E-18
 -1      2769 1.12477E-04-4.17041E-05-3.02071E-05-9.85276E-06 5.16104E-19-7.69622E-19
 -1      2770 1.16552E-04-4.80905E-05-2.95622E-05-1.04848E-05 2.55804E-19-1.00275E-18
 -1      2771 1.08712E-04-3.84630E-05-3.01086E-05-1.08197E-05 1.19780E-18 2.15855E-19
 -1      2772 1.06018E-04-3.57785E-05-3.00202E-05-1.18524E-05 1.40171E-18 5.49390E-19
 -1      2773 1.07262E-04-4.00838E-05-2.89288E-05-1.34497E-05 1.47648E-18-1.15706E-19
 -1      2774 1.03744E-04-3.34944E-05-3.00978E-05-1.17921E-05 7.47083E-19 7.62073E-19
 -1      2775 1.01882E-04-3.16375E-05-3.00650E-05-1.19603E-05 8.90453E-19 9.74352E-19
 -1      2776 1.01421E-04-3.39396E-05-2.90041E-05-1.38049E-05 1.33498E-18 1.81563E-19
 -1      2777 1.00684E-04-3.02808E-05-3.01578E-05-1.13995E-05 7.42228E-19 1.29021E-18
 -1      2778 9.94540E-05-2.91663E-05-3.01089E-05-1.10735E-05 5.72397E-19 1.48180E-18
 -1      2779 9.80868E-05-2.99142E-05-2.92608E-05-1.28454E-05 1.29092E-18 5.38797E-19
 -1      2780 9.88933E-05-2.84800E-05-3.01610E-05-1.03280E-05-2.46261E-19 1.40010E-18
 -1      2781 9.80744E-05-2.78835E-05-3.00807E-05-9.75532E-06-7.56867E-19 9.69358E-19
 -1      2782 9.64228E-05-2.76945E-05-2.94741E-05-1.13858E-05-1.84335E-19 1.42435E-18
 -1      2783 9.78490E-05-2.76129E-05-3.00854E-05-8.97128E-06-1.17806E-18 9.79334E-19
 -1      2784 9.72790E-05-2.73354E-05-2.99807E-05-8.30757E-06-6.09023E-19 3.70374E-19
 -1      2785 9.56858E-05-2.66686E-05-2.95847E-05-9.79338E-06-7.20773E-19 9.90531E-19
 -1      2786 9.72101E-05-2.72953E-05-2.99485E-05-7.55696E-06-5.19822E-19 5.19823E-19
 -1      2787 9.67897E-05-2.71976E-05-2.98323E-05-6.89432E-06-1.12947E-18 1.17856E-18
 -1      2788 9.54128E-05-2.63485E-05-2.95992E-05-8.23401E-06-7.05752E-19 1.19725E-18
 -1      2789 9.67825E-05-2.72704E-05-2.97770E-05-6.21261E-06-1.07892E-18 1.28880E-18
 -1      2790 9.64569E-05-2.72658E-05-2.96605E-05-5.60116E-06-6.11532E-19 1.20956E-18
 -1      2791 9.53441E-05-2.64044E-05-2.95440E-05-6.78981E-06-1.14638E-18 7.18857E-19
 -1      2792 9.64665E-05-2.73837E-05-2.95944E-05-5.00387E-06-5.32544E-19 1.49595E-18
 -1      2793 9.62065E-05-2.74223E-05-2.94854E-05-4.46689E-06-7.58940E-19 1.02722E-18
 -1      2794 9.53483E-05-2.66347E-05-2.94470E-05-5.50118E-06-6.02075E-19 9.79048E-19
 -1      2795 9.62150E-05-2.75492E-05-2.94171E-05-3.95767E-06-5.46996E-19-1.72628E-19
 -1      2796 9.60050E-05-2.76040E-05-2.93201E-05-3.50204E-06-6.27541E-20-1.77329E-19
 -1      2797 9.53663E-05-2.69255E-05-2.93307E-05-4.38389E-06-1.06978E-18 1.32181E-18
 -1      2798 9.60070E-05-2.77226E-05-2.92552E-05-3.07746E-06 5.85000E-19 2.33840E-19
 -1      2799 9.58377E-05-2.77799E-05-2.91719E-05-2.70069E-06 8.09039E-19 4.05523E-19
 -1      2800 9.53767E-05-2.72175E-05-2.92107E-05-3.43787E-06-9.71991E-20 5.17311E-19
 -1      2801 9.58335E-05-2.78832E-05-2.91136E-05-2.35334E-06 7.64464E-19 3.49741E-19
 -1      2802 9.56984E-05-2.79365E-05-2.90441E-05-2.04810E-06 4.82113E-19 8.82366E-19
 -1      2803 9.53750E-05-2.74830E-05-2.90968E-05-2.65304E-06 1.45460E-19 6.40412E-19
 -1      2804 9.56899E-05-2.80228E-05-2.89936E-05-1.76866E-06 1.46507E-19 6.76850E-19
 -1      2805 9.55835E-05-2.80695E-05-2.89371E-05-1.52555E-06 8.52956E-20 3.59268E-20
 -1      2806 9.53635E-05-2.77113E-05-2.89943E-05-2.01354E-06 2.94987E-19-7.63879E-19
 -1      2807 9.55727E-05-2.81394E-05-2.88947E-05-1.30414E-06-1.35681E-19 4.07436E-19
 -1      2808 9.54901E-05-2.81786E-05-2.88497E-05-1.11335E-06 8.09337E-19 2.55469E-19
 -1      2809 9.53457E-05-2.79009E-05-2.89056E-05-1.50088E-06-1.67095E-19 1.27369E-20
 -1      2810 9.54784E-05-2.82339E-05-2.88149E-05-9.40374E-07 1.79769E-18-3.39504E-20
 -1      2811 9.54152E-05-2.82659E-05-2.87797E-05-7.92594E-07 1.14273E-18 7.74463E-19
 -1      2812 9.53250E-05-2.80541E-05-2.88311E-05-1.09604E-06 1.15557E-18-1.12750E-18
 -1      2813 9.54032E-05-2.83084E-05-2.87516E-05-6.59184E-07 3.46435E-19 1.24587E-18
 -1      2814 9.53556E-05-2.83341E-05-2.87245E-05-5.45882E-07-9.30079E-19 5.02339E-19
 -1      2815 9.53031E-05-2.81749E-05-2.87699E-05-7.80826E-07 7.68268E-19-8.90024E-19
 -1      2816 9.53437E-05-2.83666E-05-2.87021E-05-4.44895E-07-2.67888E-18-2.38943E-20
 -1      2817 9.53083E-05-2.83857E-05-2.86813E-05-3.59701E-07-2.06891E-18-8.74836E-19
 -1      2818 9.52813E-05-2.82694E-05-2.87203E-05-5.38336E-07-1.49460E-18-5.14564E-19
 -1      2819 8.44787E-05-4.39905E-05-1.71870E-05 3.99055E-05 1.77559E-19 3.10596E-19
 -1      2820 7.00400E-05-3.52681E-05-1.44740E-05 3.79905E-05 2.27005E-19 3.91541E-19
 -1      2821 9.66078E-05-4.73144E-05-2.07443E-05 3.38475E-05-4.23569E-19 2.90506E-19
 -1      2822 9.49901E-05-2.76611E-05-2.88515E-05-1.46978E-06 5.90885E-19-6.05372E-19
 -1      2823 9.49764E-05-2.74811E-05-2.89097E-05-9.91575E-07 5.13780E-19-4.04028E-19
 -1      2824 9.56833E-05-2.82113E-05-2.89087E-05-3.41061E-06-2.21125E-19-1.17903E-19
 -1      2825 9.54119E-05-2.81217E-05-2.88363E-05-3.16441E-06-8.71684E-20-3.63740E-19
 -1      2826 9.61519E-05-2.83462E-05-2.90513E-05-3.92132E-06 2.00391E-19-1.51457E-19
 -1      2827 9.58123E-05-2.82469E-05-2.89561E-05-3.68420E-06-9.97073E-20-1.51103E-19
 -1      2828 9.56949E-05-2.80632E-05-2.89909E-05-3.79172E-06-1.01347E-19-4.97832E-19
 -1      2829 9.67433E-05-2.85263E-05-2.92279E-05-4.42507E-06 5.18063E-19-2.44548E-19
 -1      2830 9.63346E-05-2.83967E-05-2.91163E-05-4.19332E-06 5.26519E-19-1.98373E-19
 -1      2831 9.60102E-05-2.81559E-05-2.90859E-05-4.37070E-06 3.82321E-19-4.37487E-19
 -1      2832 9.74767E-05-2.88029E-05-2.94251E-05-4.90584E-06 6.51519E-19-8.12046E-20
 -1      2833 9.69934E-05-2.86178E-05-2.93034E-05-4.69408E-06 5.66728E-19-2.31140E-19
 -1      2834 9.64446E-05-2.83071E-05-2.92076E-05-4.94338E-06 6.14474E-19-4.27435E-19
 -1      2835 9.83840E-05-2.92403E-05-2.96293E-05-5.30733E-06 4.57480E-19 2.22022E-19
 -1      2836 9.78175E-05-2.89687E-05-2.95043E-05-5.15115E-06 5.59698E-19 2.08091E-19
 -1      2837 9.70356E-05-2.85878E-05-2.93417E-05-5.49017E-06 4.48328E-19 7.88246E-20
 -1      2838 9.95091E-05-2.99149E-05-2.98272E-05-5.52611E-06-6.42962E-20 8.43541E-19
 -1      2839 9.88503E-05-2.95222E-05-2.97064E-05-5.48513E-06 2.27485E-19 5.71311E-19
 -1      2840 9.78416E-05-2.90869E-05-2.94755E-05-5.94937E-06 1.22844E-19 7.38449E-19
 -1      2841 1.00903E-04-3.09041E-05-3.00079E-05-5.40597E-06 4.94307E-20 9.51789E-19
 -1      2842 1.00147E-04-3.03597E-05-2.98981E-05-5.56473E-06 1.36406E-19 1.03177E-18
 -1      2843 9.89439E-05-2.99084E-05-2.95994E-05-6.20875E-06-5.45902E-20 8.08781E-19
 -1      2844 1.02603E-04-3.22549E-05-3.01677E-05-4.74035E-06 7.25663E-19 3.69067E-19
 -1      2845 1.01763E-04-3.15515E-05-3.00732E-05-5.20256E-06 3.61021E-19 9.01475E-19
 -1      2846 1.00441E-04-3.11546E-05-2.97116E-05-6.09716E-06 1.92620E-19 6.48468E-19
 -1      2847 1.04593E-04-3.39199E-05-3.03192E-05-3.29559E-06 2.36629E-19 7.07622E-19
 -1      2848 1.03719E-04-3.31093E-05-3.02371E-05-4.16383E-06 3.50260E-19 4.61441E-19
 -1      2849 1.02421E-04-3.28796E-05-2.98258E-05-5.38174E-06 4.67488E-19 8.94758E-19
 -1      2850 1.06724E-04-3.56529E-05-3.05008E-05-8.80499E-07-4.14037E-19 1.23421E-18
 -1      2851 1.05937E-04-3.48989E-05-3.04169E-05-2.20894E-06 1.22967E-19 1.14370E-18
 -1      2852 1.04899E-04-3.49968E-05-2.99821E-05-3.78574E-06-3.11098E-20 1.35374E-18
 -1      2853 1.08622E-04-3.68980E-05-3.07818E-05 2.50059E-06-6.44109E-19 1.16876E-18
 -1      2854 1.08131E-04-3.65194E-05-3.06683E-05 7.91325E-07-7.05214E-19 1.04488E-18
 -1      2855 1.07693E-04-3.71339E-05-3.02563E-05-1.06526E-06-4.54673E-19 1.22551E-18
 -1      2856 1.09658E-04-3.67977E-05-3.12503E-05 6.38564E-06-2.68466E-19 8.56979E-19
 -1      2857 1.09726E-04-3.72215E-05-3.10723E-05 4.62610E-06-4.76277E-19 9.04115E-19
 -1      2858 1.10274E-04-3.84914E-05-3.07575E-05 2.78410E-06-4.72976E-19 1.38675E-18
 -1      2859 1.09129E-04-3.45085E-05-3.19626E-05 9.62671E-06-5.84047E-20 1.15046E-18
 -1      2860 1.09936E-04-3.60619E-05-3.17040E-05 8.45285E-06 1.38177E-19 1.27133E-18
 -1      2861 1.11745E-04-3.79240E-05-3.15978E-05 7.22015E-06-2.89940E-19 2.04844E-18
 -1      2862 1.06882E-04-3.00912E-05-3.28507E-05 1.03893E-05-5.48090E-20 8.56425E-19
 -1      2863 1.08236E-04-3.24931E-05-3.25458E-05 1.06089E-05-1.04536E-19 8.31671E-19
 -1      2864 1.11139E-04-3.45168E-05-3.27904E-05 1.06433E-05 1.81679E-19 2.48911E-18
 -1      2865 1.03807E-04-2.50867E-05-3.36895E-05 7.22847E-06-2.08648E-19 1.10609E-18
 -1      2866 1.05140E-04-2.73432E-05-3.34396E-05 9.32709E-06-2.13499E-19 6.57324E-19
 -1      2867 1.08438E-04-2.86983E-05-3.41489E-05 1.09091E-05-1.30827E-20 7.06763E-19
 -1      2868 1.02333E-04-2.28276E-05-3.40636E-05 8.36566E-07-4.45766E-19 1.03783E-18
 -1      2869 1.02753E-04-2.35273E-05-3.39915E-05 3.90592E-06-4.37926E-19 1.19892E-18
 -1      2870 1.05304E-04-2.33986E-05-3.51469E-05 6.17247E-06-3.25393E-19 1.26276E-18
 -1      2871 1.03307E-04-2.44217E-05-3.38754E-05-6.21057E-06 6.37637E-19 2.32573E-19
 -1      2872 1.02487E-04-2.30606E-05-3.40173E-05-3.24106E-06 3.75394E-19 7.04420E-19
 -1      2873 1.04249E-04-2.16118E-05-3.54751E-05-1.26063E-06 3.55340E-20 8.10359E-19
 -1      2874 1.06282E-04-2.91358E-05-3.31574E-05-1.02652E-05 8.49318E-19 8.10604E-20
 -1      2875 1.04871E-04-2.67018E-05-3.34328E-05-8.82838E-06 9.94410E-19 4.13081E-19
 -1      2876 1.06253E-04-2.48202E-05-3.49306E-05-8.44328E-06 7.63104E-19 2.71242E-19
 -1      2877 1.09047E-04-3.39207E-05-3.22703E-05-1.02815E-05 9.97773E-19 4.17224E-19
 -1      2878 1.07807E-04-3.17197E-05-3.25619E-05-1.06010E-05 8.95198E-19-5.15383E-20
 -1      2879 1.09528E-04-3.08137E-05-3.37108E-05-1.13363E-05 8.90668E-19-5.30626E-19
 -1      2880 1.10109E-04-3.66789E-05-3.14984E-05-7.37874E-06 2.37930E-19 9.34042E-19
 -1      2881 1.09547E-04-3.55203E-05-3.17251E-05-8.82037E-06 7.44490E-19 1.08468E-18
 -1      2882 1.11629E-04-3.59699E-05-3.23798E-05-9.82393E-06 4.90881E-19 6.65063E-19
 -1      2883 1.09376E-04-3.71184E-05-3.09605E-05-3.44710E-06-3.08784E-19 1.29316E-18
 -1      2884 1.09521E-04-3.70119E-05-3.11068E-05-5.23387E-06-6.43993E-20 9.24797E-19
 -1      2885 1.11476E-04-3.83583E-05-3.13062E-05-5.86990E-06-1.00380E-19 1.54130E-18
 -1      2886 1.07524E-04-3.59936E-05-3.06317E-05 1.06099E-07-3.20695E-19 9.16616E-19
 -1      2887 1.08134E-04-3.65448E-05-3.07234E-05-1.47308E-06-2.21304E-20 1.31953E-18
 -1      2888 1.09531E-04-3.81243E-05-3.06004E-05-1.57118E-06 6.96366E-20 1.21584E-18
 -1      2889 1.05312E-04-3.42458E-05-3.04304E-05 2.68122E-06 2.59667E-19 8.00834E-19
 -1      2890 1.06129E-04-3.50454E-05-3.05011E-05 1.53899E-06-2.82529E-19 9.60801E-19
 -1      2891 1.06805E-04-3.63653E-05-3.02030E-05 1.85336E-06 5.46249E-20 8.72938E-19
 -1      2892 1.03210E-04-3.25001E-05-3.02821E-05 4.21747E-06 5.33846E-20-2.62793E-19
 -1      2893 1.04053E-04-3.32848E-05-3.03550E-05 3.53671E-06 8.17120E-19 7.99858E-19
 -1      2894 1.04101E-04-3.41559E-05-2.99958E-05 4.09150E-06 5.20998E-19 7.12039E-19
 -1      2895 1.01423E-04-3.10569E-05-3.01409E-05 4.89855E-06-9.00936E-19-1.87579E-19
 -1      2896 1.02198E-04-3.17055E-05-3.02261E-05 4.60075E-06-6.90623E-19-2.13422E-19
 -1      2897 1.01809E-04-3.21332E-05-2.98786E-05 5.26110E-06-1.34351E-19-4.97154E-19
 -1      2898 9.99863E-05-2.99909E-05-2.99877E-05 4.97152E-06-7.31358E-19 8.18556E-19
 -1      2899 1.00660E-04-3.04755E-05-3.00852E-05 4.94892E-06-8.79327E-19 1.57644E-20
 -1      2900 1.00029E-04-3.05569E-05-2.97875E-05 5.63104E-06-1.24116E-18-4.28927E-19
 -1      2901 9.88614E-05-2.92651E-05-2.98210E-05 4.66033E-06 1.82079E-19 1.65851E-18
 -1      2902 9.94292E-05-2.96027E-05-2.99257E-05 4.81236E-06-6.92882E-19 8.34097E-19
 -1      2903 9.87110E-05-2.94538E-05-2.96917E-05 5.46939E-06-1.12150E-18 6.82477E-19
 -1      2904 9.79896E-05-2.88047E-05-2.96475E-05 4.13911E-06 1.22306E-18 2.05951E-18
 -1      2905 9.84596E-05-2.90269E-05-2.97530E-05 4.38607E-06 1.32104E-18 2.02507E-18
 -1      2906 9.77568E-05-2.87488E-05-2.95821E-05 4.99268E-06 3.26079E-19 7.64376E-19
 -1      2907 9.73156E-05-2.85342E-05-2.94764E-05 3.53095E-06 3.61395E-19 1.28555E-18
 -1      2908 9.76995E-05-2.86727E-05-2.95770E-05 3.81600E-06 9.98633E-19 2.90676E-18
 -1      2909 9.70707E-05-2.83404E-05-2.94612E-05 4.35914E-06 8.49048E-19 1.68027E-18
 -1      2910 9.67945E-05-2.83911E-05-2.93154E-05 2.91614E-06-2.32014E-19 1.10387E-18
 -1      2911 9.71045E-05-2.84719E-05-2.94070E-05 3.20224E-06-6.59327E-20 1.70316E-18
 -1      2912 9.65755E-05-2.81351E-05-2.93356E-05 3.67633E-06 2.42837E-20 1.40207E-18
 -1      2913 9.63920E-05-2.83289E-05-2.91701E-05 2.34250E-06-1.35582E-18 1.81116E-18
 -1      2914 9.66392E-05-2.83718E-05-2.92505E-05 2.60779E-06-2.98045E-19 2.10797E-18
 -1      2915 9.62151E-05-2.80599E-05-2.92126E-05 3.01228E-06-3.00545E-19 1.56757E-18
 -1      2916 9.60822E-05-2.83153E-05-2.90434E-05 1.83484E-06-1.54403E-18 2.08243E-18
 -1      2917 9.62766E-05-2.83342E-05-2.91117E-05 2.06825E-06-2.33454E-18 1.33988E-18
 -1      2918 9.59501E-05-2.80618E-05-2.90976E-05 2.40614E-06-1.70311E-18 1.94951E-18
 -1      2919 9.58452E-05-2.83286E-05-2.89362E-05 1.40249E-06 4.61851E-20 2.75762E-18
 -1      2920 9.59958E-05-2.83331E-05-2.89926E-05 1.60019E-06-2.06271E-19 2.19205E-18
 -1      2921 9.57538E-05-2.81051E-05-2.89945E-05 1.87690E-06-1.09467E-18 1.32066E-18
 -1      2922 9.56653E-05-2.83547E-05-2.88478E-05 1.04513E-06-5.47755E-19 3.00863E-18
 -1      2923 9.57802E-05-2.83512E-05-2.88932E-05 1.20770E-06-4.11760E-20 2.87692E-18
 -1      2924 9.56075E-05-2.81667E-05-2.89050E-05 1.43009E-06-4.70249E-19 1.11348E-18
 -1      2925 9.55300E-05-2.83850E-05-2.87768E-05 7.56797E-07-2.56329E-19 2.39079E-18
 -1      2926 9.56162E-05-2.83777E-05-2.88125E-05 8.87376E-07-5.97415E-19 2.39037E-18
 -1      2927 9.54980E-05-2.82325E-05-2.88296E-05 1.06301E-06-2.26135E-19 2.10122E-18
 -1      2928 9.54291E-05-2.84141E-05-2.87209E-05 5.28910E-07 9.37125E-19 2.08842E-18
 -1      2929 9.54927E-05-2.84057E-05-2.87483E-05 6.31719E-07 1.70350E-19 2.56891E-18
 -1      2930 9.54157E-05-2.82943E-05-2.87675E-05 7.68230E-07 4.20397E-19 1.03745E-18
 -1      2931 9.53553E-05-2.84396E-05-2.86776E-05 3.52264E-07 1.23177E-18 2.35142E-18
 -1      2932 9.54004E-05-2.84318E-05-2.86983E-05 4.30750E-07 1.39136E-18 2.32307E-18
 -1      2933 9.53524E-05-2.83471E-05-2.87175E-05 5.36195E-07 8.75759E-19 1.11645E-18
 -1      2934 9.52976E-05-2.84480E-05-2.86491E-05 2.38191E-07-4.87598E-19 3.59039E-18
 -1      2935 9.53289E-05-2.84393E-05-2.86652E-05 2.99869E-07-8.75649E-20 3.03794E-18
 -1      2936 9.52997E-05-2.83771E-05-2.86829E-05 3.79395E-07-1.27001E-19 3.31140E-18
 -1      2937 9.52585E-05-2.83898E-05-2.86596E-05 2.77329E-07-6.75148E-19 3.29267E-18
 -1      2938 1.33784E-04-5.60861E-05-3.38996E-05 9.21099E-06-6.55577E-19 2.88732E-19
 -1      2939 1.26346E-04-5.78714E-05-2.90188E-05 1.87942E-05-2.37328E-19 3.39925E-19
 -1      2940 9.49097E-05-2.79526E-05-2.86970E-05 3.50712E-08-1.46788E-18-4.36703E-18
 -1      2941 9.49191E-05-2.79628E-05-2.86960E-05 9.17103E-08-6.59576E-19-2.56991E-18
 -1      2942 9.53020E-05-2.84041E-05-2.86688E-05-3.06225E-07-1.06169E-18-8.39130E-19
 -1      2943 9.52831E-05-2.84162E-05-2.86571E-05-2.60170E-07-1.19857E-18-7.65418E-19
 -1      2944 9.52645E-05-2.83335E-05-2.86859E-05-3.78870E-07-2.25185E-18-8.78809E-19
 -1      2945 9.50029E-05-2.80636E-05-2.86900E-05 2.52292E-07-3.36571E-19-1.29791E-18
 -1      2946 9.50416E-05-2.81056E-05-2.86862E-05 2.82331E-07 8.66576E-19-3.43272E-18
 -1      2947 9.49182E-05-2.79604E-05-2.86968E-05-9.24322E-08-1.20936E-18 3.77206E-19
 -1      2948 9.49092E-05-2.79512E-05-2.86973E-05-3.55829E-08-1.34508E-18-2.34587E-18
 -1      2949 9.48483E-05-2.78657E-05-2.87049E-05 7.98458E-10 1.61293E-19-3.50727E-18
 -1      2950 9.49395E-05-2.79887E-05-2.86948E-05 1.56425E-07-1.01994E-18-5.60738E-20
 -1      2951 9.49657E-05-2.80166E-05-2.86923E-05 2.03590E-07-9.91728E-19 1.00388E-18
 -1      2952 9.49385E-05-2.79676E-05-2.87004E-05 2.66751E-07-3.01713E-19-1.03837E-18
 -1      2953 9.48724E-05-2.78935E-05-2.87035E-05 1.45328E-07-3.44900E-19-1.32916E-18
 -1      2954 9.49631E-05-2.80101E-05-2.86941E-05-2.03752E-07-1.19229E-18-1.47234E-18
 -1      2955 9.49375E-05-2.79834E-05-2.86961E-05-1.56829E-07-1.62644E-18 2.52620E-19
 -1      2956 9.48701E-05-2.78877E-05-2.87049E-05-1.43472E-07-1.90270E-19 3.31428E-19
 -1      2957 9.50394E-05-2.80976E-05-2.86888E-05-2.84388E-07-5.08913E-19 4.39506E-20
 -1      2958 9.50002E-05-2.80556E-05-2.86923E-05-2.53787E-07-5.28173E-19-7.43463E-19
 -1      2959 9.49346E-05-2.79571E-05-2.87030E-05-2.66361E-07-6.92909E-19-3.57064E-19
 -1      2960 9.51339E-05-2.82124E-05-2.86804E-05-3.17745E-07-9.84405E-19 2.28101E-18
 -1      2961 9.50893E-05-2.81601E-05-2.86856E-05-3.11182E-07-4.28247E-19 7.32131E-19
 -1      2962 9.50326E-05-2.80660E-05-2.86989E-05-3.49274E-07-5.60985E-19 1.39290E-19
 -1      2963 9.50230E-05-2.72572E-05-2.90409E-05-3.75076E-07 4.79512E-19-2.54046E-19
 -1      2964 9.51254E-05-2.69752E-05-2.91812E-05 3.31692E-07 5.87221E-19-1.68176E-19
 -1      2965 9.53961E-05-2.62896E-05-2.96233E-05 1.06206E-06 7.26646E-19-3.48357E-19
 -1      2966 9.53376E-05-2.71006E-05-2.92536E-05-5.34380E-07 7.03189E-19-6.49695E-19
 -1      2967 9.28988E-05-4.81981E-05-1.87669E-05-3.77363E-05-6.10075E-19 4.20975E-19
 -1      2968 1.06587E-04-5.44571E-05-2.25439E-05-3.43310E-05-6.73921E-19 1.39554E-18
 -1      2969 5.88879E-05-2.95850E-05-1.20223E-05-3.35025E-05 1.83912E-19 2.86191E-19
 -1      2970 7.82741E-05-4.10035E-05-1.59639E-05-3.81054E-05 7.30884E-19-1.34371E-18
 -1      2971 3.75212E-05-1.64085E-05-8.54092E-06-1.82688E-05-1.71471E-19 1.94119E-18
 -1      2972 4.50599E-05-2.14088E-05-9.81332E-06-2.70648E-05-3.91012E-19 1.74573E-18
 -1      2973 3.30040E-05-1.24173E-05-8.50597E-06 8.95335E-06-7.02931E-19 1.48146E-18
 -1      2974 3.29444E-05-1.28202E-05-8.00915E-06-7.70851E-06-6.03220E-19 2.00577E-18
 -1      2975 1.25419E-04-1.45974E-05-4.80306E-05 9.14747E-06 1.35906E-18 3.67824E-19
 -1      2976 1.24987E-04-9.88216E-06-4.99619E-05 4.26480E-06 1.20977E-18 1.99529E-19
 -1      2977 5.36480E-05-2.43810E-05-1.22578E-05 3.23692E-05-1.11597E-19 1.89100E-19
 -1      2978 4.24310E-05-1.68132E-05-1.02700E-05 2.19134E-05-5.20396E-19 9.13737E-19
 -1      2979 9.53301E-05-2.80794E-05-2.88147E-05-2.87355E-06 1.15137E-19-3.49700E-19
 -1      2980 9.51319E-05-2.79816E-05-2.87732E-05-2.59729E-06 4.08492E-19-5.36066E-19
 -1      2981 9.54779E-05-2.79704E-05-2.89386E-05-3.18935E-06-6.01262E-21-2.03460E-19
 -1      2982 9.50954E-05-2.79112E-05-2.87876E-05-2.25658E-06 4.86225E-19-5.07560E-19
 -1      2983 9.49819E-05-2.77861E-05-2.87879E-05-1.91057E-06 4.97222E-19-4.00596E-19
 -1      2984 9.53497E-05-2.78240E-05-2.89479E-05-2.51179E-06 3.64524E-19-4.11608E-19
 -1      2985 9.53583E-05-2.41736E-05-3.04977E-05-4.50316E-06-7.42161E-19-6.46024E-19
 -1      2986 9.53112E-05-2.51009E-05-3.01008E-05-2.97171E-06-6.63359E-19-6.61091E-19
 -1      2987 9.53338E-05-2.47738E-05-3.02546E-05-2.65257E-06-5.48493E-19-7.65363E-19
 -1      2988 9.49093E-05-2.30262E-05-3.07976E-05-4.67437E-06-7.03611E-19-7.46480E-19
 -1      2989 1.36941E-04-3.90275E-05-4.25415E-05-7.71407E-06 1.55780E-18-1.43276E-18
 -1      2990 1.37211E-04-4.79360E-05-3.82392E-05-1.72832E-06 5.33790E-19-7.42107E-19
 -1      2991 9.10787E-05-1.57733E-05-3.23010E-05 4.62137E-06 8.19171E-19-9.79198E-19
 -1      2992 9.07013E-05-1.52386E-05-3.23642E-05 3.73570E-06 6.32744E-19-1.16888E-18
 -1      2993 9.16143E-05-1.67532E-05-3.20663E-05 2.93179E-06 5.60495E-19-1.15189E-18
 -1      2994 9.23681E-05-1.79102E-05-3.18898E-05 4.25955E-06 8.35699E-19-7.62508E-19
 -1      2995 9.06675E-05-1.51859E-05-3.23724E-05-3.67443E-06-3.18242E-19-1.29916E-18
 -1      2996 9.10359E-05-1.57058E-05-3.23110E-05-4.56247E-06-4.52218E-19-1.21404E-18
 -1      2997 5.86422E-05-3.10712E-05-1.15091E-05 3.57577E-05 5.62324E-19-6.02876E-19
 -1      2998 4.38357E-05-2.21179E-05-8.75112E-06 2.68736E-05 1.27690E-19-1.58205E-18
 -1      2999 1.37082E-04-3.65739E-05-4.32974E-05 8.93061E-06 3.64542E-19 1.10750E-18
 -1      3000 1.31871E-04-2.54657E-05-4.61947E-05 1.19616E-05 8.03728E-19 4.44481E-19
 -1      3001 1.36846E-04-5.21709E-05-3.62382E-05-3.35895E-06-2.50814E-19 3.77459E-19
 -1      3002 1.38561E-04-4.60614E-05-4.02525E-05 2.80494E-06-2.71580E-20 5.84876E-19
 -1      3003 6.23322E-05-3.13790E-05-1.27962E-05-3.65219E-05-9.01878E-19-1.44864E-18
 -1      3004 7.80581E-05-4.06476E-05-1.58088E-05-4.01619E-05-8.60374E-19-7.04308E-19
 -1      3005 1.42479E-04-4.26475E-05-4.38838E-05-1.21319E-05-1.23280E-18 2.14193E-19
 -1      3006 1.43911E-04-4.91012E-05-4.06341E-05-7.49196E-06-7.13837E-19 1.75336E-19
 -1      3007 8.91274E-05-4.72184E-05-1.77484E-05 3.81690E-05 9.14901E-19 1.39877E-18
 -1      3008 7.54853E-05-3.98840E-05-1.47372E-05 3.76440E-05 7.05790E-19 6.47239E-19
 -1      3009 9.52510E-05-2.83734E-05-2.86619E-05-2.77537E-07-1.53556E-18-9.38307E-19
 -1      3010 1.25388E-04-6.01637E-05-2.77412E-05-2.01742E-05 1.25424E-18 6.75032E-19
 -1      3011 1.33791E-04-5.99305E-05-3.20541E-05-1.06361E-05 1.71016E-18 1.62297E-18
 -1      3012 1.33747E-04-3.49776E-05-4.25410E-05 1.61652E-05-1.00564E-18-2.36825E-18
 -1      3013 9.81534E-05-5.06552E-05-1.99231E-05-3.43148E-05 1.04640E-18 2.89262E-19
 -1      3014 1.13340E-04-5.69771E-05-2.43246E-05-2.92504E-05 1.29617E-18 1.21931E-18
 -1      3015 1.19226E-04-5.65264E-05-2.65158E-05-2.10175E-05 6.59362E-19 1.41669E-18
 -1      3016 1.20517E-04-5.77092E-05-2.66321E-05-2.46647E-05-6.82814E-19 1.13100E-18
 -1      3017 1.31412E-04-5.78120E-05-3.19968E-05-1.46493E-05-4.13934E-19 8.81232E-19
 -1      3018 1.24467E-04-8.74255E-06-5.02439E-05-3.02717E-07 1.11893E-18 4.60627E-19
 -1      3019 1.24692E-04-1.05445E-05-4.95300E-05-5.87992E-06 1.82959E-18-7.57036E-21
 -1      3020 1.18421E-04-1.12080E-05-4.63313E-05 2.24950E-06 1.16785E-18 8.62968E-19
 -1      3021 9.15053E-05-1.64129E-05-3.22071E-05-5.25732E-06-5.38516E-19-1.11674E-18
 -1      3022 9.20626E-05-1.72368E-05-3.21033E-05-6.06538E-06-6.93453E-19-1.05256E-18
 -1      3023 9.23252E-05-1.78345E-05-3.19029E-05-4.21882E-06-4.70866E-19-9.96664E-19
 -1      3024 9.10072E-05-1.58526E-05-3.21952E-05 2.47784E-08 1.97479E-19-1.28808E-18
 -1      3025 8.99462E-05-1.41514E-05-3.25036E-05-3.51489E-07 1.87656E-19-1.39319E-18
 -1      3026 9.00117E-05-1.42395E-05-3.24936E-05-1.25190E-06 6.28433E-20-1.37385E-18
 -1      3027 9.44132E-05-2.13233E-05-3.13297E-05 6.85362E-06 1.14819E-18-4.30127E-19
 -1      3028 1.15555E-04-5.54010E-05-2.55410E-05-2.54635E-05-7.37395E-19 1.07539E-18
 -1      3029 1.21003E-04-1.60742E-05-4.52932E-05 9.47587E-07-1.95622E-18-3.62903E-18
 -1      3030 1.28894E-04-1.30487E-05-5.03473E-05-1.02094E-06-2.75074E-18-1.36423E-18
 -1      3031 1.33655E-04-5.64399E-05-3.31600E-05-2.76920E-06 1.71958E-18 3.31031E-19
 -1      3032 1.33300E-04-5.14666E-05-3.51345E-05 1.13195E-06-1.55737E-19-4.48504E-19
 -1      3033 1.33269E-04-3.33258E-05-4.31481E-05-1.15923E-05 1.74097E-18-9.42430E-19
 -1      3034 1.30256E-04-3.75405E-05-3.97076E-05-1.12420E-05 1.43313E-18-1.14016E-18
 -1      3035 1.26008E-04-2.67252E-05-4.31343E-05-1.34463E-05 1.46240E-18-8.99073E-19
 -1      3036 1.35425E-04-5.17362E-05-3.61132E-05-6.06775E-06 5.23705E-19-8.14210E-20
 -1      3037 1.34036E-04-4.68022E-05-3.77079E-05-1.27312E-05-2.05114E-19 7.16855E-19
 -1      3038 1.32115E-04-3.89301E-05-4.01800E-05-1.60922E-05-1.16266E-18-4.71691E-20
 -1      3039 1.29733E-04-5.31185E-05-3.29846E-05 3.10158E-07 1.14818E-18-6.33766E-19
 -1      3040 9.50355E-05-2.80778E-05-2.86953E-05 3.46687E-07 1.43641E-18-3.38160E-18
 -1      3041 9.50897E-05-2.81672E-05-2.86827E-05 3.07549E-07 1.08738E-18-3.78820E-18
 -1      3042 9.51343E-05-2.82180E-05-2.86775E-05 3.15491E-07 6.26466E-19-2.51639E-18
 -1      3043 1.00721E-04-5.16506E-05-2.09058E-05 3.27643E-05 1.30454E-18 1.56963E-18
 -1      3044 9.53078E-05-2.75645E-05-2.90425E-05-1.66995E-06 5.60868E-19-5.27025E-19
 -1      3045 9.51775E-05-2.82780E-05-2.86727E-05 3.12587E-07 4.42315E-20-6.45335E-19
 -1      3046 9.52202E-05-2.83308E-05-2.86661E-05 2.98859E-07 1.23345E-19 1.00488E-18
 -1      3047 9.52365E-05-2.83205E-05-2.86769E-05 3.48245E-07-9.00338E-19 1.08484E-18
 -1      3048 9.51416E-05-2.82016E-05-2.86877E-05 3.71419E-07 1.04750E-18-1.29965E-18
 -1      3049 4.21626E-05-1.40557E-05-1.13892E-05-1.11271E-05-7.30513E-19 1.77570E-18
 -1      3050 5.66565E-05-2.64958E-05-1.23670E-05-3.32964E-05-7.30566E-19-1.55505E-18
 -1      3051 6.85453E-05-3.05002E-05-1.59903E-05-3.30443E-05-8.55609E-19-7.79059E-19
 -1      3052 5.14134E-05-2.12703E-05-1.24600E-05-2.74717E-05-3.79735E-19-1.06366E-18
 -1      3053 1.32229E-04-5.47050E-05-3.32259E-05-6.42639E-06-5.69100E-19 6.40675E-19
 -1      3054 9.52135E-05-2.83181E-05-2.86690E-05-2.95271E-07-1.67753E-18 1.60250E-19
 -1      3055 1.33937E-04-4.12328E-05-3.99725E-05 8.31730E-06 6.91920E-20 1.03349E-18
 -1      3056 1.28671E-04-6.06843E-05-2.90774E-05 1.98396E-05 1.81530E-18-5.70371E-19
 -1      3057 1.21553E-04-5.89169E-05-2.66782E-05 2.32397E-05 1.71545E-18-5.10205E-20
 -1      3058 1.33115E-04-6.01350E-05-3.14686E-05 1.08889E-05 1.80302E-18-8.12463E-19
 -1      3059 5.98332E-05-2.58962E-05-1.39426E-05-2.89339E-05 6.89061E-19 4.49986E-19
 -1      3060 1.40485E-04-5.32393E-05-3.74480E-05-2.23208E-06 3.76334E-19-3.71212E-19
 -1      3061 6.80448E-05-3.00966E-05-1.58571E-05 3.24628E-05-1.65701E-19 7.63865E-19
 -1      3062 1.25928E-04-2.10460E-05-4.54525E-05 1.17873E-05 7.42213E-19 5.64547E-19
 -1      3063 1.18064E-04-1.65667E-05-4.37824E-05 1.01065E-05 7.95152E-19 8.38695E-19
 -1      3064 1.24664E-04-2.66860E-05-4.21292E-05 1.30494E-05 6.78685E-20 1.28331E-18
 -1      3065 4.48117E-05-1.44984E-05-1.24180E-05 1.34043E-05-7.74426E-19 1.76606E-18
 -1      3066 9.18370E-05-4.43759E-05-1.97643E-05-3.25522E-05 8.40892E-19-2.65121E-19
 -1      3067 4.02245E-05-1.77197E-05-9.02496E-06 2.04784E-05 1.37537E-19-2.10784E-18
 -1      3068 3.87579E-05-1.39881E-05-1.01176E-05 1.22960E-05 2.17926E-19-2.26772E-18
 -1      3069 5.11835E-05-2.06262E-05-1.26602E-05 2.39619E-05 2.87409E-19-1.12401E-18
 -1      3070 9.46623E-05-2.23104E-05-3.09994E-05 5.27647E-06 1.04386E-18-5.51029E-19
 -1      3071 1.22818E-04-1.47756E-05-4.67440E-05-8.06388E-06 1.44906E-18-1.00162E-19
 -1      3072 9.01560E-05-1.44518E-05-3.24659E-05-2.02294E-06-1.49090E-20-1.23546E-18
 -1      3073 9.03660E-05-1.47396E-05-3.24330E-05-2.92329E-06-1.98155E-19-1.26995E-18
 -1      3074 9.15831E-05-1.67024E-05-3.20747E-05-2.87721E-06-2.36396E-19-1.16297E-18
 -1      3075 9.11462E-05-1.60558E-05-3.21670E-05-1.44426E-06 3.37231E-20-1.25203E-18
 -1      3076 8.88838E-05-4.36004E-05-1.90481E-05-3.56785E-05-9.97646E-19 4.60098E-19
 -1      3077 7.10297E-05-3.42310E-05-1.53360E-05 3.42011E-05 5.92076E-19 4.62268E-19
 -1      3078 3.21330E-05-1.36706E-05-7.22931E-06-9.94101E-06 1.85209E-19-1.68814E-18
 -1      3079 4.01488E-05-1.47822E-05-1.04999E-05-1.60614E-05-1.42566E-19-1.24059E-18
 -1      3080 3.56465E-05-1.21125E-05-9.60140E-06-2.76128E-06-4.87309E-20-2.19339E-18
 -1      3081 1.19764E-04-5.61108E-05-2.70972E-05 2.15745E-05-3.53107E-19-5.72912E-19
 -1      3082 9.52167E-05-2.82848E-05-2.86857E-05-3.71520E-07-2.83727E-18-1.02376E-18
 -1      3083 9.51701E-05-2.82493E-05-2.86810E-05-3.38513E-07-2.02756E-18 4.31839E-19
 -1      3084 9.51333E-05-2.81702E-05-2.86969E-05-3.97996E-07-1.82682E-18 3.42993E-19
 -1      3085 9.52251E-05-2.82573E-05-2.86984E-05-4.30276E-07-2.68684E-18-1.10953E-18
 -1      3086 1.29581E-04-1.52701E-05-4.95447E-05-7.25589E-06-2.41150E-18-9.23901E-19
 -1      3087 1.09311E-04-5.18064E-05-2.43076E-05-2.63969E-05-6.23363E-19 1.07716E-18
 -1      3088 1.20114E-04-5.60972E-05-2.78124E-05-1.88554E-05-6.94938E-19 4.60065E-19
 -1      3089 9.42536E-05-2.15873E-05-3.11637E-05 4.50890E-06 9.48252E-19-6.03508E-19
 -1      3090 9.37421E-05-2.05881E-05-3.13547E-05 4.16780E-06 9.19389E-19-6.88018E-19
 -1      3091 1.25829E-04-5.62483E-05-2.98794E-05-1.04615E-05 8.39330E-19 1.09889E-19
 -1      3092 8.41647E-05-3.85448E-05-1.92600E-05-3.30695E-05-9.24351E-19 2.64592E-19
 -1      3093 9.67109E-05-4.62396E-05-2.17074E-05-3.21068E-05-8.36551E-19 9.06431E-19
 -1      3094 1.13893E-04-1.33295E-05-4.35661E-05 5.20876E-06 9.84464E-19 1.04900E-19
 -1      3095 1.13423E-04-1.23825E-05-4.38100E-05-8.34223E-07 8.54762E-19 3.69677E-19
 -1      3096 1.35693E-04-5.83877E-05-3.32456E-05 3.71649E-06 1.46277E-18-7.42901E-19
 -1      3097 9.56131E-05-2.63165E-05-2.96864E-05 2.38181E-07-4.02781E-19-5.15080E-19
 -1      3098 9.55943E-05-2.66811E-05-2.95390E-05 9.26507E-07-3.07463E-19-5.64059E-19
 -1      3099 9.55786E-05-2.69551E-05-2.94022E-05 1.48807E-06-3.86747E-19-6.47440E-19
 -1      3100 9.55498E-05-2.71430E-05-2.93177E-05 2.01406E-06-5.49826E-19-8.05430E-19
 -1      3101 9.56125E-05-2.64550E-05-2.96409E-05 1.07839E-06-4.70471E-19-8.07551E-19
 -1      3102 9.54591E-05-2.72437E-05-2.92318E-05 2.46506E-06-4.55640E-19-6.68901E-19
 -1      3103 9.54335E-05-2.73060E-05-2.91950E-05 2.90007E-06-3.45638E-19-7.13770E-19
 -1      3104 9.55125E-05-2.69020E-05-2.94066E-05 2.12330E-06-4.51473E-19-5.70815E-19
 -1      3105 9.52889E-05-2.72805E-05-2.91470E-05 3.29610E-06-4.19191E-20-6.56083E-19
 -1      3106 9.52686E-05-2.72513E-05-2.91454E-05 3.69705E-06 1.31582E-19-3.75626E-19
 -1      3107 9.52850E-05-2.70144E-05-2.92599E-05 2.99522E-06-7.42140E-20-4.59387E-19
 -1      3108 9.50764E-05-2.71305E-05-2.91237E-05 4.08325E-06 5.82265E-20-3.87839E-19
 -1      3109 9.50586E-05-2.70343E-05-2.91467E-05 4.49370E-06 2.21337E-20-1.02315E-19
 -1      3110 9.49568E-05-2.68775E-05-2.91764E-05 3.79288E-06 1.53341E-19-3.81123E-19
 -1      3111 9.48177E-05-2.68414E-05-2.91398E-05 4.90599E-06-1.39833E-19-5.82511E-21
 -1      3112 9.47996E-05-2.67006E-05-2.91774E-05 5.35761E-06-1.68702E-19 2.48049E-19
 -1      3113 9.45324E-05-2.65517E-05-2.91322E-05 4.59676E-06 9.21212E-20-4.24978E-19
 -1      3114 9.45064E-05-2.64590E-05-2.91730E-05 5.82376E-06-3.94787E-19 3.86237E-19
 -1      3115 9.44894E-05-2.63009E-05-2.92144E-05 6.33738E-06-6.66338E-19 2.06113E-19
 -1      3116 9.40071E-05-2.60893E-05-2.91031E-05 5.46981E-06-2.29500E-19-2.05909E-19
 -1      3117 9.41440E-05-2.60422E-05-2.91987E-05 6.87908E-06-7.02632E-19 5.12914E-19
 -1      3118 9.41405E-05-2.59088E-05-2.92313E-05 7.46508E-06-2.57912E-19 3.96907E-19
 -1      3119 9.33764E-05-2.55500E-05-2.90617E-05 6.46098E-06-4.02266E-19 3.74087E-19
 -1      3120 9.37557E-05-2.56841E-05-2.91873E-05 8.10075E-06-1.95137E-19 3.85804E-19
 -1      3121 9.38013E-05-2.56455E-05-2.91959E-05 8.75860E-06-9.09801E-20 4.05891E-19
 -1      3122 9.26504E-05-2.50204E-05-2.89761E-05 7.61122E-06-1.48437E-19 1.05972E-18
 -1      3123 9.34171E-05-2.55411E-05-2.91036E-05 9.50762E-06-1.68430E-19 2.51519E-19
 -1      3124 9.35913E-05-2.57139E-05-2.90713E-05 1.02247E-05-1.67708E-19 5.14790E-20
 -1      3125 9.18761E-05-2.46401E-05-2.88074E-05 8.96284E-06-2.91332E-19 7.88624E-19
 -1      3126 9.33012E-05-2.58721E-05-2.89090E-05 1.11123E-05-2.75049E-19-3.08871E-19
 -1      3127 9.37591E-05-2.64433E-05-2.88208E-05 1.18593E-05-5.49709E-19-3.69991E-19
 -1      3128 9.11750E-05-2.46390E-05-2.85114E-05 1.05738E-05-5.50223E-19 3.64177E-20
 -1      3129 9.37517E-05-2.70881E-05-2.85700E-05 1.29152E-05-6.37463E-19-1.21556E-19
 -1      3130 9.47694E-05-2.83372E-05-2.84237E-05 1.36284E-05-5.57298E-19-8.58977E-20
 -1      3131 9.08078E-05-2.53888E-05-2.80437E-05 1.25318E-05-3.97791E-19-2.30656E-19
 -1      3132 9.53877E-05-2.97897E-05-2.80836E-05 1.48766E-05-3.37986E-19 1.52345E-19
 -1      3133 9.74060E-05-3.21189E-05-2.79175E-05 1.54193E-05-2.20248E-19 5.58246E-19
 -1      3134 9.12629E-05-2.74520E-05-2.73765E-05 1.49430E-05-2.30950E-19 5.86461E-19
 -1      3135 9.92795E-05-3.47346E-05-2.75543E-05 1.66557E-05 7.25768E-20 6.67279E-19
 -1      3136 1.02839E-04-3.84065E-05-2.74972E-05 1.67530E-05 6.74926E-19 4.78613E-19
 -1      3137 9.34525E-05-3.17377E-05-2.65489E-05 1.78558E-05-8.88111E-20 1.09692E-18
 -1      3138 1.06946E-04-4.27803E-05-2.73096E-05 1.73072E-05 6.62151E-19 2.29427E-19
 -1      3139 1.12376E-04-4.73341E-05-2.77116E-05 1.57566E-05 1.10522E-18-2.56810E-19
 -1      3140 9.91605E-05-3.92580E-05-2.59439E-05 2.06692E-05 3.04826E-19 9.39148E-19
 -1      3141 1.39268E-04-3.17110E-05-4.65013E-05-1.35623E-05-1.79063E-18 7.53118E-19
 -1      3142 1.16831E-04-5.28438E-05-2.72528E-05-1.76368E-05-1.07792E-19 1.76355E-19
 -1      3143 1.21414E-04-1.77457E-05-4.49426E-05-7.50768E-06-1.64441E-18-2.56958E-18
 -1      3144 4.47799E-05-1.22434E-05-1.37586E-05-5.92856E-06 3.61624E-19 1.35769E-18
 -1      3145 4.93565E-05-1.56972E-05-1.41404E-05-1.65724E-05 4.81644E-19 1.67734E-18
 -1      3146 1.05016E-04-4.04014E-05-2.75194E-05-1.63832E-05 1.36906E-18 2.83968E-19
 -1      3147 1.00851E-04-3.64713E-05-2.74797E-05-1.67926E-05 1.80153E-18 7.29282E-19
 -1      3148 9.84218E-05-3.32846E-05-2.78377E-05-1.55262E-05 9.98513E-19 8.38530E-20
 -1      3149 9.60770E-05-3.06485E-05-2.80018E-05-1.50592E-05 8.36606E-19-1.21159E-19
 -1      3150 9.44520E-05-3.30280E-05-2.63721E-05-1.85381E-05 1.35080E-18 7.43563E-19
 -1      3151 9.51989E-05-2.88980E-05-2.83629E-05-1.37342E-05 1.35468E-18-6.46431E-19
 -1      3152 9.39794E-05-2.74059E-05-2.85267E-05-1.30008E-05 1.04692E-18-1.63484E-19
 -1      3153 9.15092E-05-2.80475E-05-2.72318E-05-1.53145E-05 8.79314E-19-2.69588E-19
 -1      3154 9.38525E-05-2.65694E-05-2.88041E-05-1.18500E-05 4.97109E-19-2.77321E-19
 -1      3155 9.32877E-05-2.58419E-05-2.89139E-05-1.10492E-05-4.64270E-19-3.58409E-19
 -1      3156 9.06914E-05-2.54911E-05-2.79524E-05-1.26746E-05 7.76980E-19-1.32412E-18
 -1      3157 9.35089E-05-2.55638E-05-2.90992E-05-1.00668E-05-7.42160E-19 9.98852E-20
 -1      3158 9.32843E-05-2.52978E-05-2.91500E-05-9.27840E-06-4.16673E-19 3.25333E-19
 -1      3159 9.08713E-05-2.44262E-05-2.84726E-05-1.05079E-05 1.70110E-19-4.63240E-19
 -1      3160 9.36309E-05-2.53309E-05-2.92577E-05-8.43690E-06-8.81164E-19 5.23784E-19
 -1      3161 9.35647E-05-2.53192E-05-2.92616E-05-7.69817E-06-9.77823E-19 2.25448E-19
 -1      3162 9.14747E-05-2.42353E-05-2.88078E-05-8.70506E-06-7.08290E-19-4.67815E-20
 -1      3163 9.39238E-05-2.55056E-05-2.93117E-05-6.97326E-06-1.15943E-18 5.10973E-19
 -1      3164 9.39200E-05-2.56193E-05-2.92842E-05-6.30427E-06-7.97901E-19 8.52529E-19
 -1      3165 9.21907E-05-2.45070E-05-2.89973E-05-7.17447E-06-1.04740E-18-3.01378E-19
 -1      3166 9.42410E-05-2.58653E-05-2.92953E-05-5.68064E-06-5.69558E-19 6.15603E-19
 -1      3167 9.42543E-05-2.60295E-05-2.92501E-05-5.09146E-06-5.44273E-19 2.01356E-21
 -1      3168 9.28700E-05-2.49899E-05-2.90826E-05-5.85985E-06-9.37179E-19 8.05139E-19
 -1      3169 9.45201E-05-2.62830E-05-2.92370E-05-4.55927E-06-7.36602E-19 7.84755E-20
 -1      3170 9.45319E-05-2.64570E-05-2.91841E-05-4.05277E-06-1.35211E-18 1.91912E-19
 -1      3171 9.34521E-05-2.55383E-05-2.90987E-05-4.73046E-06-1.07917E-18-4.63501E-19
 -1      3172 9.47418E-05-2.66921E-05-2.91576E-05-3.60414E-06-6.92227E-19 2.07628E-18
 -1      3173 9.47468E-05-2.68554E-05-2.91038E-05-3.17791E-06 2.12765E-19 1.59814E-18
 -1      3174 9.39226E-05-2.60737E-05-2.90727E-05-3.76789E-06-5.84699E-20 1.41338E-18
 -1      3175 9.49073E-05-2.70610E-05-2.90713E-05-2.80511E-06 6.66184E-19 1.63629E-18
 -1      3176 9.49057E-05-2.72049E-05-2.90207E-05-2.45323E-06 6.06896E-19 1.48513E-18
 -1      3177 9.42886E-05-2.65579E-05-2.90236E-05-2.95775E-06 7.02659E-19 2.14118E-18
 -1      3178 9.50254E-05-2.73780E-05-2.89868E-05-2.14812E-06-9.84697E-20 8.74677E-19
 -1      3179 9.50192E-05-2.74998E-05-2.89416E-05-1.86260E-06 2.87202E-19 5.18846E-19
 -1      3180 9.45658E-05-2.69760E-05-2.89644E-05-2.28592E-06 2.59555E-19 2.63408E-18
 -1      3181 9.51066E-05-2.76417E-05-2.89094E-05-1.61669E-06 2.56274E-19 1.02142E-18
 -1      3182 9.50975E-05-2.77420E-05-2.88704E-05-1.38871E-06 2.04741E-19 1.16014E-18
 -1      3183 9.47709E-05-2.73258E-05-2.89033E-05-1.73740E-06 8.33797E-19 1.39583E-18
 -1      3184 9.51599E-05-2.78557E-05-2.88412E-05-1.19349E-06-2.12076E-19 4.65656E-19
 -1      3185 9.51496E-05-2.79363E-05-2.88085E-05-1.01417E-06 3.64098E-19-5.48544E-19
 -1      3186 9.49196E-05-2.76112E-05-2.88453E-05-1.29654E-06-3.71097E-19 4.53804E-19
 -1      3187 9.51927E-05-2.80255E-05-2.87832E-05-8.61641E-07 1.31719E-18-1.22072E-18
 -1      3188 9.51829E-05-2.80891E-05-2.87564E-05-7.22685E-07 3.62670E-19-4.54866E-19
 -1      3189 9.50247E-05-2.78394E-05-2.87930E-05-9.47881E-07 2.58888E-19-1.16772E-18
 -1      3190 9.52161E-05-2.81572E-05-2.87372E-05-6.18860E-07-9.96400E-19-8.39293E-19
 -1      3191 9.52058E-05-2.82062E-05-2.87152E-05-5.11255E-07-1.83642E-18-4.31155E-19
 -1      3192 9.51540E-05-2.81563E-05-2.87144E-05-5.01413E-07-2.32097E-18-1.45160E-18
 -1      3193 9.51020E-05-2.80194E-05-2.87500E-05-6.90591E-07-1.56881E-19-1.13653E-18
 -1      3194 1.02109E-04-4.84804E-05-2.31571E-05 2.95245E-05-4.31907E-19-6.40436E-19
 -1      3195 9.19564E-05-4.24879E-05-2.08870E-05 3.17886E-05-5.13275E-19 1.28696E-19
 -1      3196 9.55123E-05-2.74197E-05-2.91824E-05-1.82978E-06 4.02656E-19-4.50729E-19
 -1      3197 9.55102E-05-2.72071E-05-2.92636E-05-1.32120E-06 5.77105E-19-5.70492E-19
 -1      3198 9.56493E-05-2.78532E-05-2.90491E-05-3.99936E-06 1.46918E-19-4.06276E-19
 -1      3199 9.55205E-05-2.78093E-05-2.90187E-05-3.69308E-06-5.21811E-21-1.88064E-19
 -1      3200 9.65460E-05-2.82829E-05-2.92484E-05-5.87421E-06-1.99007E-19 2.23452E-19
 -1      3201 9.62022E-05-2.80904E-05-2.91906E-05-5.60055E-06 1.10373E-19-2.49383E-19
 -1      3202 9.72409E-05-2.88248E-05-2.93151E-05-6.42040E-06-3.85000E-20 8.26113E-19
 -1      3203 9.67683E-05-2.84840E-05-2.92613E-05-6.20748E-06 4.93304E-20 5.93795E-19
 -1      3204 9.58761E-05-2.79958E-05-2.91001E-05-6.34180E-06-2.46454E-19 3.45916E-19
 -1      3205 9.83005E-05-2.97706E-05-2.93664E-05-6.78857E-06-1.54274E-19 8.56937E-19
 -1      3206 9.76517E-05-2.92178E-05-2.93196E-05-6.70140E-06 3.79255E-20 9.24611E-19
 -1      3207 9.64946E-05-2.86386E-05-2.90948E-05-7.00395E-06 3.23776E-20 6.89732E-19
 -1      3208 9.98690E-05-3.12548E-05-2.94074E-05-6.81043E-06 2.98934E-19 5.71781E-19
 -1      3209 9.89920E-05-3.04323E-05-2.93648E-05-6.94376E-06 5.34578E-20 6.92928E-19
 -1      3210 9.75741E-05-2.97885E-05-2.90725E-05-7.51494E-06 6.60878E-20 8.91481E-19
 -1      3211 1.02090E-04-3.33601E-05-2.94654E-05-6.24374E-06 8.66674E-20 1.06410E-18
 -1      3212 1.00950E-04-3.22492E-05-2.94132E-05-6.72250E-06 2.86416E-19 8.99748E-19
 -1      3213 9.93165E-05-3.16095E-05-2.90497E-05-7.69881E-06 1.84312E-19 6.12476E-19
 -1      3214 1.05025E-04-3.60031E-05-2.96044E-05-4.77059E-06-1.11984E-19 1.19219E-18
 -1      3215 1.03654E-04-3.46920E-05-2.95112E-05-5.73708E-06 6.24306E-20 1.14861E-18
 -1      3216 1.01933E-04-3.41955E-05-2.90750E-05-7.27609E-06 2.76845E-20 9.57160E-19
 -1      3217 1.08500E-04-3.87404E-05-2.99381E-05-2.05451E-06-6.57807E-19 1.41221E-18
 -1      3218 1.07072E-04-3.75262E-05-2.97513E-05-3.61542E-06-3.90281E-19 1.30729E-18
 -1      3219 1.05539E-04-3.74169E-05-2.92478E-05-5.83785E-06-3.97770E-19 7.43027E-19
 -1      3220 1.11909E-04-4.05222E-05-3.06310E-05 2.08365E-06-7.66091E-19 1.49657E-18
 -1      3221 1.10790E-04-4.00223E-05-3.02804E-05-2.75921E-08-7.57645E-19 1.44455E-18
 -1      3222 1.09948E-04-4.06698E-05-2.97370E-05-2.88301E-06-8.41686E-19 9.78772E-19
 -1      3223 1.14127E-04-3.98545E-05-3.18480E-05 7.02580E-06-4.61436E-19 1.67042E-18
 -1      3224 1.13761E-04-4.08235E-05-3.12721E-05 4.77495E-06-6.15414E-19 1.65757E-18
 -1      3225 1.14139E-04-4.23990E-05-3.07731E-05 1.90980E-06-8.47678E-19 9.17724E-19
 -1      3226 1.13576E-04-3.50274E-05-3.36313E-05 1.11386E-05 6.85905E-19 1.12226E-18
 -1      3227 1.14508E-04-3.80514E-05-3.28639E-05 9.89237E-06 4.46896E-19 1.70981E-18
 -1      3228 1.17009E-04-4.11231E-05-3.25154E-05 7.69076E-06 7.15619E-20 6.05073E-19
 -1      3229 1.10251E-04-2.69357E-05-3.56708E-05 1.16401E-05-1.77533E-19 1.39628E-18
 -1      3230 1.12209E-04-3.13948E-05-3.48561E-05 1.20819E-05 3.14061E-19 1.39613E-18
 -1      3231 1.16053E-04-3.42082E-05-3.50491E-05 1.21422E-05 3.12635E-19 9.83511E-19
 -1      3232 1.06787E-04-1.80113E-05-3.80916E-05 2.62172E-06-2.26383E-19 8.43135E-19
 -1      3233 1.07906E-04-2.02201E-05-3.77868E-05 6.61936E-06-1.38093E-19 7.18707E-19
 -1      3234 1.06818E-04-1.81005E-05-3.81607E-05-2.21692E-06 3.47548E-19 7.28921E-19
 -1      3235 1.09069E-04-2.56989E-05-3.59352E-05-1.06044E-05 1.19980E-18-3.54071E-19
 -1      3236 1.07217E-04-2.19373E-05-3.65407E-05-8.18097E-06 1.10395E-18 2.75372E-19
 -1      3237 1.12840E-04-3.37073E-05-3.40678E-05-1.19270E-05 6.63108E-19-4.76737E-19
 -1      3238 1.11201E-04-2.97228E-05-3.48638E-05-1.18721E-05 7.56956E-19-4.67819E-19
 -1      3239 1.12727E-04-2.77889E-05-3.64460E-05-1.20146E-05 1.18407E-18-2.34377E-19
 -1      3240 1.14202E-04-3.90692E-05-3.22627E-05-8.50595E-06-3.23282E-19 5.04778E-19
 -1      3241 1.13700E-04-3.67568E-05-3.29615E-05-1.02332E-05 5.87894E-20-1.28301E-19
 -1      3242 1.15854E-04-3.65593E-05-3.39849E-05-1.10988E-05 1.90357E-19-9.26442E-23
 -1      3243 1.12736E-04-4.05004E-05-3.09467E-05-3.50674E-06-4.41290E-19 4.45412E-19
 -1      3244 1.13330E-04-4.00535E-05-3.14324E-05-5.78088E-06-3.18670E-19 1.70241E-19
 -1      3245 1.15612E-04-4.10889E-05-3.18995E-05-6.31437E-06-3.61885E-19-1.01520E-19
 -1      3246 1.09504E-04-3.90075E-05-3.01627E-05 9.17555E-07 3.86533E-19 1.20708E-18
 -1      3247 1.10751E-04-3.98258E-05-3.04418E-05-1.00703E-06 1.86916E-19 1.46267E-18
 -1      3248 1.12615E-04-4.15087E-05-3.04875E-05-8.67058E-07-5.23542E-19 6.16809E-19
 -1      3249 1.05938E-04-3.63589E-05-2.97703E-05 3.93285E-06 1.50417E-19 9.65752E-19
 -1      3250 1.07343E-04-3.76400E-05-2.99109E-05 2.60946E-06 6.13735E-19 1.26580E-18
 -1      3251 1.08427E-04-3.92176E-05-2.97036E-05 3.22510E-06 4.76734E-19 1.95599E-18
 -1      3252 1.02819E-04-3.36569E-05-2.96023E-05 5.60169E-06 7.08606E-19 2.14114E-20
 -1      3253 1.04092E-04-3.49208E-05-2.96693E-05 4.85677E-06 1.53803E-19-8.86593E-20
 -1      3254 1.04437E-04-3.60447E-05-2.93555E-05 5.64808E-06 5.98078E-19 7.06291E-19
 -1      3255 1.00412E-04-3.14361E-05-2.95354E-05 6.24643E-06-3.55163E-19-7.35347E-20
 -1      3256 1.01438E-04-3.24593E-05-2.95743E-05 5.94990E-06 8.91759E-20 6.99099E-20
 -1      3257 1.01243E-04-3.30906E-05-2.92436E-05 6.73969E-06 2.04384E-19-2.16180E-19
 -1      3258 9.86906E-05-2.98307E-05-2.94962E-05 6.21289E-06-1.36631E-18 6.44318E-19
 -1      3259 9.94647E-05-3.05668E-05-2.95318E-05 6.22433E-06-4.88847E-19 7.31117E-20
 -1      3260 9.89474E-05-3.07950E-05-2.92329E-05 6.93246E-06-4.62594E-19 1.05360E-18
 -1      3261 9.75155E-05-2.87811E-05-2.94499E-05 5.77243E-06-6.67521E-19-1.67189E-19
 -1      3262 9.80810E-05-2.92639E-05-2.94923E-05 5.97471E-06-1.26557E-18-2.09785E-19
 -1      3263 9.74128E-05-2.92096E-05-2.92460E-05 6.58302E-06-6.82650E-19 9.50493E-19
 -1      3264 9.67364E-05-2.81629E-05-2.93859E-05 5.11811E-06 9.28081E-19 1.35396E-19
 -1      3265 9.71442E-05-2.84511E-05-2.94363E-05 5.42345E-06-1.51235E-19-6.88826E-19
 -1      3266 9.64437E-05-2.82236E-05-2.92469E-05 5.93896E-06 8.24811E-20-7.06364E-19
 -1      3267 9.62280E-05-2.78489E-05-2.93056E-05 4.38004E-06 4.02112E-19 3.80209E-19
 -1      3268 9.65221E-05-2.80003E-05-2.93614E-05 4.72707E-06 1.03357E-18 4.39003E-19
 -1      3269 9.58617E-05-2.76843E-05-2.92244E-05 5.16285E-06 4.82961E-19-8.68039E-19
 -1      3270 9.58980E-05-2.77337E-05-2.92151E-05 3.64157E-06-2.28735E-19 5.54526E-20
 -1      3271 9.61118E-05-2.77955E-05-2.92727E-05 3.99001E-06-1.98544E-19 5.54770E-19
 -1      3272 9.55297E-05-2.74503E-05-2.91800E-05 4.35812E-06 8.97202E-20-8.32777E-19
 -1      3273 9.56832E-05-2.77389E-05-2.91216E-05 2.95256E-06-1.67523E-18 2.16254E-18
 -1      3274 9.58401E-05-2.77457E-05-2.91775E-05 3.27798E-06-7.31319E-19 1.08999E-18
 -1      3275 9.53514E-05-2.74093E-05-2.91197E-05 3.58787E-06-1.07470E-18 9.14837E-19
 -1      3276 9.55419E-05-2.78099E-05-2.90308E-05 2.33961E-06-1.32029E-18 1.97747E-18
 -1      3277 9.56582E-05-2.77860E-05-2.90826E-05 2.62892E-06-1.47421E-18 2.59888E-18
 -1      3278 9.52634E-05-2.74801E-05-2.90509E-05 2.88797E-06-1.99392E-18 2.24676E-18
 -1      3279 9.54475E-05-2.79109E-05-2.89469E-05 1.81346E-06-1.07658E-18 1.08057E-18
 -1      3280 9.55342E-05-2.78723E-05-2.89930E-05 2.06140E-06-1.15701E-18 1.27754E-18
 -1      3281 9.52258E-05-2.76071E-05-2.89800E-05 2.27581E-06-8.42912E-19 2.31812E-18
 -1      3282 9.53827E-05-2.80195E-05-2.88723E-05 1.37447E-06-6.04682E-19 6.65976E-19
 -1      3283 9.54478E-05-2.79762E-05-2.89121E-05 1.58091E-06-4.89645E-19 6.85459E-19
 -1      3284 9.52141E-05-2.77547E-05-2.89116E-05 1.75635E-06-8.57202E-19 1.92644E-18
 -1      3285 9.53371E-05-2.81229E-05-2.88081E-05 1.01705E-06 1.90623E-19 8.94298E-19
 -1      3286 9.53862E-05-2.80808E-05-2.88414E-05 1.18466E-06-3.94588E-19 6.96860E-19
 -1      3287 9.52143E-05-2.79015E-05-2.88487E-05 1.32634E-06-4.89842E-19 1.00871E-18
 -1      3288 9.53030E-05-2.82137E-05-2.87543E-05 7.32235E-07 4.55516E-19 1.67482E-19
 -1      3289 9.53405E-05-2.81764E-05-2.87816E-05 8.65445E-07 3.89343E-19 3.39921E-19
 -1      3290 9.52184E-05-2.80353E-05-2.87932E-05 9.78896E-07 5.42779E-19 1.50699E-20
 -1      3291 9.52781E-05-2.82887E-05-2.87101E-05 5.10519E-07-2.27267E-19 9.42070E-19
 -1      3292 9.53057E-05-2.82587E-05-2.87320E-05 6.12832E-07 1.25326E-19 2.81196E-19
 -1      3293 9.52211E-05-2.81484E-05-2.87456E-05 7.03379E-07-9.78905E-20 1.09867E-18
 -1      3294 9.52439E-05-2.83078E-05-2.86864E-05 3.95894E-07-9.29585E-19 2.20961E-18
 -1      3295 9.52678E-05-2.82997E-05-2.86992E-05 4.54597E-07-5.58653E-19 1.60258E-18
 -1      3296 9.52103E-05-2.82147E-05-2.87130E-05 5.25247E-07-1.00646E-18 1.50117E-18
 -1      3297 9.51945E-05-2.82491E-05-2.86924E-05 4.16050E-07-2.04909E-19 1.07424E-18
 -1      3298 9.47991E-05-2.78009E-05-2.87137E-05-2.03081E-07 6.51902E-20 2.69896E-19
 -1      3299 9.47734E-05-2.77778E-05-2.87139E-05-1.30543E-07 1.04677E-18-4.09649E-20
 -1      3300 1.31080E-04-4.77392E-05-3.62789E-05-4.91080E-06 8.20828E-20-7.04361E-19
 -1      3301 1.29559E-04-5.28736E-05-3.25936E-05 2.99919E-06-9.92498E-19-5.29343E-19
 -1      3302 9.50196E-05-2.80282E-05-2.87105E-05-4.28457E-07-1.00204E-18 1.91651E-19
 -1      3303 9.49560E-05-2.79643E-05-2.87129E-05-3.98717E-07-1.24484E-19-5.62223E-19
 -1      3304 9.47596E-05-2.77641E-05-2.87133E-05-3.57970E-08 5.53449E-19-2.51679E-18
 -1      3305 9.47605E-05-2.77655E-05-2.87130E-05 4.33636E-08 8.55963E-19-3.67689E-18
 -1      3306 9.46863E-05-2.76623E-05-2.87222E-05-9.31290E-08 1.07105E-18-1.25908E-18
 -1      3307 9.55561E-05-2.78033E-05-2.90319E-05-3.36121E-06-1.51222E-19-1.38287E-19
 -1      3308 9.54740E-05-2.77379E-05-2.90269E-05-3.03015E-06-7.02504E-21-2.47384E-19
 -1      3309 9.54575E-05-2.75856E-05-2.90921E-05-3.55814E-06-1.95328E-21-1.99744E-19
 -1      3310 9.48903E-05-2.78919E-05-2.87131E-05-3.41640E-07-9.36515E-19 2.54668E-20
 -1      3311 9.48411E-05-2.78463E-05-2.87141E-05-2.84446E-07-1.07081E-18 5.64053E-19
 -1      3312 9.47493E-05-2.77221E-05-2.87237E-05-2.80188E-07 5.65894E-20-6.42820E-19
 -1      3313 9.48672E-05-2.78398E-05-2.87247E-05-4.27323E-07-1.48736E-18 2.26598E-19
 -1      3314 9.60997E-05-2.80115E-05-2.91732E-05-5.25689E-06 6.67222E-19-5.15677E-19
 -1      3315 9.58485E-05-2.79110E-05-2.91172E-05-4.96141E-06 6.65812E-19-4.56400E-19
 -1      3316 9.55591E-05-2.76959E-05-2.90898E-05-5.63244E-06 8.27685E-20-4.06259E-21
 -1      3317 9.58190E-05-2.78982E-05-2.91017E-05-4.62594E-06 3.98822E-19-6.61938E-19
 -1      3318 9.56363E-05-2.78443E-05-2.90547E-05-4.32579E-06 2.10165E-19-6.18645E-19
 -1      3319 9.54125E-05-2.75922E-05-2.90697E-05-4.24229E-06 4.19163E-19-2.82856E-19
 -1      3320 9.54298E-05-2.75987E-05-2.90747E-05-4.92795E-06 3.54547E-19-5.44099E-19
 -1      3321 1.13271E-04-4.86599E-05-2.74909E-05-1.64819E-05-1.01115E-20 2.42159E-19
 -1      3322 1.07078E-04-4.38721E-05-2.69273E-05-1.81396E-05 8.77318E-19 4.17260E-19
 -1      3323 9.90279E-05-4.03838E-05-2.52969E-05-2.24648E-05 1.03944E-18 1.29170E-18
 -1      3324 1.04509E-04-4.88650E-05-2.40067E-05-2.69814E-05 7.87211E-20 1.42609E-18
 -1      3325 5.69597E-05-2.08176E-05-1.50633E-05-2.33269E-05 5.66480E-19 7.07908E-19
 -1      3326 6.91436E-05-2.92992E-05-1.71036E-05-3.02821E-05 1.09214E-18-1.63308E-18
 -1      3327 5.94955E-05-1.86787E-05-1.70657E-05-1.82007E-05 8.34486E-19-7.50154E-20
 -1      3328 8.85031E-05-3.94394E-05-2.06496E-05-2.96853E-05 6.00467E-19 3.91382E-19
 -1      3329 1.13549E-04-5.57595E-05-2.44674E-05 2.75959E-05 1.10368E-18 4.81849E-19
 -1      3330 1.00049E-04-4.80448E-05-2.18325E-05 3.03818E-05 8.84249E-19 1.34874E-18
 -1      3331 9.55171E-05-2.76827E-05-2.90689E-05-2.66399E-06 1.27779E-19-3.22704E-19
 -1      3332 9.54784E-05-2.75642E-05-2.90999E-05-2.27208E-06 2.93204E-19-3.84851E-19
 -1      3333 9.55302E-05-2.74983E-05-2.91612E-05-2.82930E-06-3.90905E-20-2.33095E-19
 -1      3334 9.54963E-05-2.51680E-05-3.01150E-05-1.42300E-06-3.90542E-19-6.73715E-19
 -1      3335 9.55140E-05-2.57954E-05-2.98887E-05-4.86605E-07-3.18969E-19-6.20513E-19
 -1      3336 9.55240E-05-2.55548E-05-2.99888E-05-2.48187E-07-3.55194E-19-6.57024E-19
 -1      3337 9.25834E-05-1.80383E-05-3.19660E-05-6.46964E-06-7.66678E-19-9.80153E-19
 -1      3338 9.32316E-05-1.90748E-05-3.18174E-05-6.97423E-06-9.01896E-19-8.91285E-19
 -1      3339 9.41381E-05-2.10474E-05-3.13124E-05-5.62016E-06-8.49518E-19-8.08718E-19
 -1      3340 9.32499E-05-1.93384E-05-3.16514E-05-5.18096E-06-6.10035E-19-8.88291E-19
 -1      3341 9.52659E-05-2.40886E-05-3.05074E-05 3.77774E-06 9.74631E-19-4.60674E-19
 -1      3342 9.46545E-05-2.25060E-05-3.09112E-05 4.28988E-06 9.64584E-19-5.63309E-19
 -1      3343 9.48929E-05-2.32804E-05-3.06896E-05 3.11850E-06 9.50752E-19-5.65714E-19
 -1      3344 9.53136E-05-2.49797E-05-3.01537E-05 2.42648E-06 8.09976E-19-4.89646E-19
 -1      3345 5.24531E-05-1.59204E-05-1.54850E-05 1.69697E-05-1.44578E-19 1.47537E-18
 -1      3346 4.57885E-05-1.17529E-05-1.40850E-05 4.85195E-06-2.29663E-19 1.47850E-18
 -1      3347 1.23293E-04-5.60446E-05-2.92724E-05 1.42750E-05-1.16115E-18-3.55112E-19
 -1      3348 1.13548E-04-5.30884E-05-2.56044E-05 2.30851E-05-7.99705E-19-1.07901E-18
 -1      3349 1.09002E-04-4.91057E-05-2.54370E-05 2.20867E-05-1.26032E-18-1.22918E-18
 -1      3350 8.04523E-05-3.73751E-05-1.84386E-05 3.28200E-05 7.24372E-19 1.27230E-18
 -1      3351 6.59698E-05-2.83777E-05-1.56674E-05 3.02200E-05 9.51747E-19 1.81583E-19
 -1      3352 7.76519E-05-3.38059E-05-1.87172E-05 3.23582E-05-7.73976E-20 3.46913E-19
 -1      3353 6.36601E-05-2.34287E-05-1.69667E-05 2.61814E-05-4.91557E-19 1.32211E-18
 -1      3354 8.59692E-05-3.58954E-05-2.12441E-05 2.80222E-05-1.96723E-19-1.66389E-19
 -1      3355 1.27445E-04-5.45953E-05-3.09791E-05-7.96473E-06-7.26708E-19 1.01128E-18
 -1      3356 1.30725E-04-5.12291E-05-3.45087E-05 5.39793E-07-6.35884E-19 1.13635E-18
 -1      3357 1.31449E-04-4.46553E-05-3.71868E-05 7.54003E-06-1.95982E-19 1.57866E-18
 -1      3358 1.28581E-04-3.72187E-05-3.97681E-05 1.15502E-05 6.48510E-20 1.97634E-18
 -1      3359 1.15870E-04-1.35200E-05-4.42159E-05-6.94010E-06 1.17060E-18 1.70267E-19
 -1      3360 1.21356E-04-1.96758E-05-4.39822E-05-1.20631E-05 1.58533E-18-6.57351E-19
 -1      3361 9.20464E-05-1.77420E-05-3.18598E-05 1.60599E-06 4.06487E-19-1.24491E-18
 -1      3362 9.19003E-05-1.75150E-05-3.18924E-05 9.24155E-07 2.68601E-19-1.21978E-18
 -1      3363 1.30535E-04-5.72959E-05-3.10249E-05 7.87353E-06 1.46498E-18-1.00320E-18
 -1      3364 9.18258E-05-1.73979E-05-3.19113E-05 3.64610E-07 2.14870E-19-1.24488E-18
 -1      3365 9.18220E-05-1.73920E-05-3.19122E-05-3.26751E-07 1.75405E-19-1.31278E-18
 -1      3366 9.27086E-05-1.88833E-05-3.16196E-05 5.26477E-07 2.69627E-19-1.16106E-18
 -1      3367 9.42134E-05-2.15571E-05-3.11120E-05 3.13937E-06 8.48984E-19-6.57407E-19
 -1      3368 9.32989E-05-1.98171E-05-3.15165E-05 3.81281E-06 8.64101E-19-7.71422E-19
 -1      3369 9.28873E-05-1.91051E-05-3.16327E-05 3.26239E-06 7.28033E-19-7.08088E-19
 -1      3370 8.48234E-05-3.43114E-05-2.12581E-05-2.63984E-05 4.50754E-19 6.31370E-19
 -1      3371 7.84263E-05-3.43881E-05-1.85753E-05-3.25646E-05-7.81441E-19 1.26949E-19
 -1      3372 8.67628E-05-3.70997E-05-2.11040E-05-2.90380E-05-6.51117E-19 1.38490E-19
 -1      3373 7.18979E-05-2.93175E-05-1.80554E-05-2.96191E-05-6.37604E-19-2.76292E-19
 -1      3374 5.23557E-05-1.30507E-05-1.64342E-05-7.18130E-07 1.06385E-18 6.11293E-19
 -1      3375 9.54955E-05-2.57612E-05-2.98768E-05 1.43743E-06 7.09478E-19-5.25310E-19
 -1      3376 9.53828E-05-2.50090E-05-3.01562E-05 1.82864E-06 7.73403E-19-5.00360E-19
 -1      3377 9.54648E-05-2.63062E-05-2.96460E-05 4.70692E-07 6.40673E-19-5.86572E-19
 -1      3378 1.20568E-04-2.49742E-05-4.12030E-05-1.25695E-05 1.47018E-18-1.05429E-19
 -1      3379 1.12179E-04-1.53388E-05-4.16733E-05-4.35102E-06 9.43436E-19-1.33275E-20
 -1      3380 9.41562E-05-2.13687E-05-3.12054E-05-4.56312E-06-6.93809E-19-7.48189E-19
 -1      3381 9.46324E-05-2.22892E-05-3.10092E-05-4.65686E-06-7.26768E-19-7.70457E-19
 -1      3382 9.49301E-05-2.32342E-05-3.07060E-05-3.59936E-06-5.13423E-19-7.36675E-19
 -1      3383 1.16317E-04-5.13065E-05-2.76031E-05 1.64101E-05 1.16599E-18-5.79933E-19
 -1      3384 1.22870E-04-5.50615E-05-2.89815E-05 1.29557E-05 1.19466E-18-8.53597E-19
 -1      3385 9.49622E-05-2.79805E-05-2.87084E-05 3.96648E-07 9.18876E-19-4.10372E-18
 -1      3386 9.50250E-05-2.80432E-05-2.87058E-05 4.25534E-07 1.52416E-18-4.07722E-18
 -1      3387 1.27751E-04-4.68830E-05-3.46653E-05 5.23991E-06-6.97684E-19 1.93507E-18
 -1      3388 9.56012E-05-2.72488E-05-2.92990E-05-1.98160E-06 3.04714E-19-4.86831E-19
 -1      3389 1.11985E-04-2.14471E-05-3.89595E-05 9.16815E-06 2.77615E-19 1.29612E-18
 -1      3390 1.27643E-04-4.16771E-05-3.70231E-05-9.23492E-06 6.61586E-19 1.65224E-19
 -1      3391 9.48477E-05-2.78600E-05-2.87110E-05 2.87772E-07 5.47694E-19-8.60654E-19
 -1      3392 9.48970E-05-2.79070E-05-2.87094E-05 3.43013E-07 1.05373E-18-1.71620E-18
 -1      3393 9.48776E-05-2.78618E-05-2.87198E-05 4.28268E-07 1.47723E-18-3.17147E-18
 -1      3394 1.24445E-04-5.23751E-05-3.07689E-05 6.43275E-06-1.19260E-18-8.47959E-19
 -1      3395 9.47767E-05-2.77847E-05-2.87125E-05 1.36561E-07-7.03971E-19-1.48419E-18
 -1      3396 9.48042E-05-2.78107E-05-2.87115E-05 2.09202E-07-8.20722E-19-1.59187E-19
 -1      3397 9.47570E-05-2.77378E-05-2.87205E-05 2.87609E-07 2.29478E-19-1.65118E-18
 -1      3398 9.46894E-05-2.76682E-05-2.87211E-05 1.05596E-07-8.10496E-19-1.32585E-18
 -1      3399 4.90248E-05-1.76764E-05-1.28343E-05-2.19216E-05-2.09588E-19-8.10293E-19
 -1      3400 5.89149E-05-2.16146E-05-1.57538E-05-2.49921E-05-4.90511E-19-7.42689E-19
 -1      3401 4.82736E-05-1.50391E-05-1.39216E-05-1.54617E-05-2.72321E-19-9.68900E-19
 -1      3402 6.08430E-05-1.92141E-05-1.75200E-05 2.05432E-05-7.31347E-19 1.50817E-18
 -1      3403 5.97095E-05-1.59488E-05-1.86870E-05 1.31412E-05 2.05260E-19 9.42245E-19
 -1      3404 6.96449E-05-2.27763E-05-1.99545E-05 2.09442E-05-5.53533E-19 1.33477E-18
 -1      3405 9.55015E-05-2.70054E-05-2.93583E-05-8.39544E-07 7.04475E-19-6.59585E-19
 -1      3406 9.55300E-05-2.66644E-05-2.95030E-05-1.48568E-07 6.50564E-19-5.38519E-19
 -1      3407 9.55693E-05-2.61863E-05-2.97393E-05 1.59422E-07 7.08879E-19-5.87600E-19
 -1      3408 9.56211E-05-2.68167E-05-2.94920E-05-1.00489E-06 4.53753E-19-4.44101E-19
 -1      3409 1.23669E-04-3.19608E-05-3.95661E-05 1.27994E-05-2.86324E-19 1.93716E-18
 -1      3410 9.22538E-05-1.80772E-05-3.18032E-05 2.13982E-06 5.36833E-19-1.13827E-18
 -1      3411 9.29819E-05-1.93276E-05-3.15425E-05 1.53091E-06 4.43357E-19-1.08303E-18
 -1      3412 9.25383E-05-1.85387E-05-3.17345E-05 2.77467E-06 6.75637E-19-8.64014E-19
 -1      3413 6.03177E-05-2.36853E-05-1.53061E-05 2.67464E-05 7.44965E-19 1.69195E-19
 -1      3414 5.54407E-05-1.89837E-05-1.53541E-05 2.06684E-05 5.25266E-19-3.43048E-19
 -1      3415 7.02201E-05-2.69079E-05-1.82301E-05 2.57747E-05 1.20501E-18 7.00284E-19
 -1      3416 1.06532E-04-4.79811E-05-2.54003E-05 2.33493E-05 4.66900E-19 2.77615E-19
 -1      3417 9.28390E-05-1.90277E-05-3.16458E-05-3.22077E-06-3.72479E-19-8.92060E-19
 -1      3418 9.32535E-05-1.97286E-05-3.15345E-05-3.77065E-06-5.20683E-19-8.62094E-19
 -1      3419 9.51048E-05-2.40623E-05-3.04628E-05-2.68905E-06-5.00721E-19-7.03800E-19
 -1      3420 9.50687E-05-2.38414E-05-3.05405E-05-2.26184E-06-4.93107E-19-6.63595E-19
 -1      3421 4.01443E-05-1.22528E-05-1.12944E-05 4.84120E-06 1.12497E-21-2.71411E-18
 -1      3422 4.38477E-05-1.22048E-05-1.32655E-05-1.92128E-06-4.55876E-19-1.90413E-18
 -1      3423 4.70326E-05-1.40375E-05-1.38002E-05 1.09699E-05 2.92921E-19-1.78353E-18
 -1      3424 1.04288E-04-4.76272E-05-2.40852E-05-2.56909E-05-2.92120E-19 4.68621E-19
 -1      3425 1.22131E-04-5.32759E-05-2.94664E-05-1.07588E-05-9.02050E-19 7.25140E-19
 -1      3426 9.51051E-05-2.81096E-05-2.87133E-05-4.82661E-07-2.61638E-18-1.36558E-18
 -1      3427 9.50603E-05-2.80686E-05-2.87119E-05-4.57715E-07-1.26673E-18-3.06900E-19
 -1      3428 9.49869E-05-2.79552E-05-2.87266E-05-5.15229E-07-1.61764E-18-2.91097E-19
 -1      3429 9.50846E-05-2.80436E-05-2.87300E-05-5.68208E-07-1.58268E-18-1.80189E-18
 -1      3430 1.13798E-04-1.67356E-05-4.16369E-05 7.77252E-06 5.36754E-19 6.99358E-19
 -1      3431 9.22302E-05-1.80345E-05-3.18112E-05-2.09929E-06-9.21242E-20-1.07183E-18
 -1      3432 9.25099E-05-1.84809E-05-3.17450E-05-2.74379E-06-2.89238E-19-1.01324E-18
 -1      3433 9.34736E-05-2.01524E-05-3.13939E-05-2.41860E-06-3.36864E-19-8.21364E-19
 -1      3434 9.49811E-05-2.72950E-05-2.89997E-05-5.79890E-06-1.13331E-19 3.31046E-19
 -1      3435 9.48778E-05-2.72159E-05-2.90008E-05-5.43409E-06 1.00882E-19 1.21714E-19
 -1      3436 1.24055E-04-4.99342E-05-3.19907E-05 3.89939E-07-8.84781E-19-1.21887E-19
 -1      3437 1.20069E-04-5.13789E-05-2.92380E-05 9.16565E-06-1.55688E-18 1.23283E-20
 -1      3438 9.37648E-05-2.06153E-05-3.13555E-05-4.29702E-06-5.54991E-19-8.08395E-19
 -1      3439 9.42504E-05-2.15906E-05-3.11109E-05-3.27115E-06-5.14957E-19-7.38306E-19
 -1      3440 9.55223E-05-2.65546E-05-2.95549E-05 1.69660E-06-2.91724E-19-5.94031E-19
 -1      3441 9.54340E-05-2.67064E-05-2.94567E-05 2.17283E-06-2.42247E-19-4.73585E-19
 -1      3442 9.52534E-05-2.67566E-05-2.93560E-05 2.56008E-06-1.54058E-19-3.15995E-19
 -1      3443 9.51093E-05-2.67541E-05-2.92947E-05 2.97243E-06 1.52810E-19-2.85779E-19
 -1      3444 9.52462E-05-2.64326E-05-2.94892E-05 2.15792E-06-2.38923E-20-1.13895E-19
 -1      3445 9.48285E-05-2.66532E-05-2.92214E-05 3.32499E-06 8.75520E-20-1.27303E-19
 -1      3446 9.46353E-05-2.65323E-05-2.91850E-05 3.71667E-06 7.47558E-20-2.22451E-19
 -1      3447 9.47923E-05-2.64061E-05-2.93049E-05 2.89979E-06 5.93065E-20-1.33788E-19
 -1      3448 9.42600E-05-2.63130E-05-2.91267E-05 4.06820E-06 1.74895E-19-4.40192E-19
 -1      3449 9.40171E-05-2.61026E-05-2.91031E-05 4.47357E-06 2.97949E-20-3.33981E-19
 -1      3450 9.41457E-05-2.60895E-05-2.91617E-05 3.59592E-06 3.38941E-20-3.73578E-20
 -1      3451 9.35448E-05-2.57926E-05-2.90464E-05 4.85141E-06-8.45445E-20-7.07313E-20
 -1      3452 9.32485E-05-2.55200E-05-2.90226E-05 5.29668E-06-1.72393E-19 9.05988E-20
 -1      3453 9.33098E-05-2.55471E-05-2.90334E-05 4.30486E-06 6.42945E-20 1.72868E-20
 -1      3454 9.26715E-05-2.51476E-05-2.89519E-05 5.72440E-06-2.74261E-19 2.03519E-19
 -1      3455 9.23216E-05-2.48472E-05-2.89128E-05 6.23033E-06-1.56067E-19 5.91292E-19
 -1      3456 9.22738E-05-2.48376E-05-2.88904E-05 5.07433E-06-1.85266E-20 3.66107E-19
 -1      3457 9.16320E-05-2.44500E-05-2.88090E-05 6.73236E-06-6.28595E-21 5.47569E-19
 -1      3458 9.12404E-05-2.41731E-05-2.87363E-05 7.31826E-06 4.47035E-20 6.48995E-19
 -1      3459 9.10213E-05-2.40273E-05-2.86973E-05 5.94971E-06 6.21529E-20 3.75327E-19
 -1      3460 9.04368E-05-2.38083E-05-2.85760E-05 7.92758E-06-4.09670E-19 7.28337E-19
 -1      3461 9.00419E-05-2.36370E-05-2.84480E-05 8.61824E-06-4.57729E-19 5.47920E-19
 -1      3462 8.95404E-05-2.32068E-05-2.84105E-05 6.98647E-06-1.13759E-19 2.23038E-19
 -1      3463 8.91392E-05-2.33948E-05-2.82021E-05 9.39037E-06-4.70908E-19 4.29428E-19
 -1      3464 8.88315E-05-2.34627E-05-2.79943E-05 1.02265E-05-6.50553E-19 3.96673E-19
 -1      3465 8.78387E-05-2.25121E-05-2.79756E-05 8.27353E-06-4.39681E-19 2.37074E-19
 -1      3466 8.78805E-05-2.34875E-05-2.76276E-05 1.12610E-05-4.08413E-19 3.86479E-19
 -1      3467 8.78461E-05-2.40099E-05-2.73170E-05 1.23074E-05-1.81031E-19 3.68454E-19
 -1      3468 8.59684E-05-2.21551E-05-2.73250E-05 9.97336E-06-5.97807E-19 6.29860E-19
 -1      3469 8.69811E-05-2.45432E-05-2.67886E-05 1.37711E-05-2.94585E-19 6.29476E-19
 -1      3470 8.75276E-05-2.58441E-05-2.63647E-05 1.51067E-05-2.24557E-19 6.68402E-19
 -1      3471 8.40771E-05-2.24770E-05-2.63757E-05 1.23808E-05 5.83410E-21-4.15276E-20
 -1      3472 8.70504E-05-2.71755E-05-2.56367E-05 1.71931E-05-1.87853E-19 7.79131E-19
 -1      3473 8.92296E-05-3.00514E-05-2.52616E-05 1.87278E-05-1.00143E-19 8.13039E-19
 -1      3474 8.26902E-05-2.41045E-05-2.50341E-05 1.60246E-05-7.11905E-20-5.14738E-20
 -1      3475 8.71795E-05-3.34130E-05-2.28628E-05 2.42734E-05 3.03810E-19 8.13125E-19
 -1      3476 9.11667E-05-3.83377E-05-2.23549E-05 2.66846E-05 4.41781E-19 8.80888E-19
 -1      3477 9.70562E-05-4.37580E-05-2.24129E-05 2.81802E-05 5.20793E-19 1.25099E-18
 -1      3478 8.94978E-05-3.12200E-05-2.49199E-05-1.98998E-05 6.90468E-19 9.49990E-19
 -1      3479 8.71066E-05-2.80234E-05-2.53495E-05-1.79378E-05 1.06514E-18 2.65899E-19
 -1      3480 5.99968E-05-1.64262E-05-1.85798E-05-1.35658E-05 1.33121E-18 5.07690E-20
 -1      3481 6.66935E-05-2.11985E-05-1.94544E-05-2.01405E-05 1.06035E-18-7.18813E-19
 -1      3482 9.52914E-05-2.43932E-05-3.03837E-05 2.12231E-06 7.94201E-19-6.13423E-19
 -1      3483 9.49624E-05-2.35165E-05-3.06263E-05 2.37456E-06 8.44871E-19-6.73869E-19
 -1      3484 9.54284E-05-2.51714E-05-3.01123E-05 1.12524E-06 6.66199E-19-6.21402E-19
 -1      3485 1.24803E-04-4.73147E-05-3.30105E-05 3.89681E-06-6.63968E-19 1.11066E-18
 -1      3486 1.24168E-04-4.27061E-05-3.51755E-05 8.87442E-06-2.54825E-19 2.05842E-18
 -1      3487 8.74941E-05-2.63676E-05-2.61274E-05-1.56518E-05 7.50518E-19 5.42060E-19
 -1      3488 8.67003E-05-2.47758E-05-2.65782E-05-1.42187E-05 5.99926E-19 1.78504E-19
 -1      3489 8.21872E-05-2.44512E-05-2.46697E-05-1.67098E-05 7.14739E-19 2.96855E-19
 -1      3490 8.74853E-05-2.40278E-05-2.71520E-05-1.25425E-05 4.85852E-19-3.80381E-19
 -1      3491 8.73887E-05-2.33247E-05-2.74923E-05-1.14124E-05 3.76164E-19-7.73705E-19
 -1      3492 8.33951E-05-2.23595E-05-2.61155E-05-1.27565E-05 5.41580E-20 7.21053E-19
 -1      3493 8.83000E-05-2.31608E-05-2.78941E-05-1.02190E-05 7.90843E-19-6.24267E-19
 -1      3494 8.85400E-05-2.29820E-05-2.81260E-05-9.30292E-06 3.31399E-19-8.49048E-19
 -1      3495 8.51761E-05-2.17368E-05-2.71515E-05-1.00431E-05 3.50915E-19-6.10661E-19
 -1      3496 8.94169E-05-2.31371E-05-2.83942E-05-8.41155E-06-6.57319E-19-6.88469E-19
 -1      3497 8.97748E-05-2.32428E-05-2.85374E-05-7.64388E-06-1.08196E-18-9.09461E-19
 -1      3498 8.69892E-05-2.19078E-05-2.78616E-05-8.11527E-06-6.21994E-20-1.24567E-18
 -1      3499 9.05528E-05-2.35559E-05-2.87070E-05-6.93782E-06-1.25093E-18-6.44646E-19
 -1      3500 9.09192E-05-2.37998E-05-2.87843E-05-6.27862E-06-7.12846E-19 3.85830E-20
 -1      3501 8.86434E-05-2.24863E-05-2.83284E-05-6.65038E-06-1.14565E-18-6.76300E-19
 -1      3502 9.15774E-05-2.41734E-05-2.88837E-05-5.69516E-06-8.45333E-19 4.68522E-19
 -1      3503 9.19038E-05-2.44692E-05-2.89156E-05-5.12403E-06-1.36141E-18 3.95017E-19
 -1      3504 9.00701E-05-2.32460E-05-2.86192E-05-5.46652E-06-5.83719E-19 1.03816E-19
 -1      3505 9.24431E-05-2.48467E-05-2.89670E-05-4.63132E-06-1.33199E-18 9.04885E-19
 -1      3506 9.27133E-05-2.51458E-05-2.89696E-05-4.13830E-06-8.60680E-19 8.29251E-19
 -1      3507 9.12563E-05-2.40512E-05-2.87866E-05-4.47167E-06-8.27347E-19 7.18094E-19
 -1      3508 9.31446E-05-2.54966E-05-2.89895E-05-3.72007E-06 3.22641E-19 9.68625E-19
 -1      3509 9.33584E-05-2.57738E-05-2.89746E-05-3.29915E-06 9.18105E-19 1.93860E-18
 -1      3510 9.22170E-05-2.48243E-05-2.88705E-05-3.62181E-06-3.98486E-19 1.15542E-18
 -1      3511 9.36971E-05-2.60839E-05-2.89746E-05-2.94614E-06 7.45708E-19 2.13269E-18
 -1      3512 9.38610E-05-2.63280E-05-2.89505E-05-2.59206E-06 6.15658E-19 1.80530E-18
 -1      3513 9.29794E-05-2.55246E-05-2.88999E-05-2.89551E-06 1.11283E-18 4.47221E-19
 -1      3514 9.41226E-05-2.65928E-05-2.89390E-05-2.29761E-06 1.47653E-19 2.64350E-18
 -1      3515 9.42454E-05-2.68005E-05-2.89112E-05-2.00452E-06 6.70801E-19 2.40393E-18
 -1      3516 9.35743E-05-2.61351E-05-2.88955E-05-2.28061E-06 8.57590E-19 1.18045E-18
 -1      3517 9.44444E-05-2.70209E-05-2.88936E-05-1.76248E-06 9.40085E-19 1.63523E-18
 -1      3518 9.45345E-05-2.71931E-05-2.88655E-05-1.52388E-06 8.38464E-19 1.47747E-18
 -1      3519 9.40315E-05-2.66522E-05-2.88715E-05-1.76731E-06 5.60097E-19 1.46679E-18
 -1      3520 9.46836E-05-2.73725E-05-2.88456E-05-1.32822E-06-5.76026E-19 1.09772E-18
 -1      3521 9.47482E-05-2.75122E-05-2.88192E-05-1.13710E-06-1.07547E-18 9.69429E-19
 -1      3522 9.43777E-05-2.70805E-05-2.88377E-05-1.34589E-06-4.59867E-19 7.49892E-19
 -1      3523 9.48578E-05-2.76557E-05-2.87993E-05-9.81133E-07-2.19599E-19-1.96668E-19
 -1      3524 9.49058E-05-2.77673E-05-2.87758E-05-8.31081E-07 2.97035E-19-8.33599E-19
 -1      3525 9.46351E-05-2.74275E-05-2.88004E-05-1.00628E-06-7.61844E-19 1.11912E-18
 -1      3526 9.50856E-05-2.81179E-05-2.87021E-05 4.31952E-07 7.40697E-19-1.44194E-18
 -1      3527 9.51412E-05-2.81787E-05-2.86978E-05 4.30505E-07 3.32112E-19-7.58908E-19
 -1      3528 9.51437E-05-2.81594E-05-2.87073E-05 4.81889E-07-2.28527E-19-1.14376E-19
 -1      3529 9.50167E-05-2.80122E-05-2.87158E-05 4.90008E-07 7.11957E-19-2.20710E-18
 -1      3530 9.54106E-05-2.48471E-05-3.02466E-05-6.96034E-07-4.02169E-19-8.17667E-19
 -1      3531 9.54984E-05-2.54449E-05-3.00326E-05 6.93922E-08-4.07506E-19-8.72802E-19
 -1      3532 9.51524E-05-2.75821E-05-2.89485E-05-6.59982E-06-2.07794E-19 2.77057E-19
 -1      3533 9.49279E-05-2.73659E-05-2.89565E-05-6.23567E-06-1.02242E-19 2.51900E-19
 -1      3534 9.42063E-05-2.68776E-05-2.88598E-05-6.04179E-06 4.84876E-20 2.70227E-20
 -1      3535 9.85282E-05-3.16066E-05-2.86686E-05-8.59947E-06 8.86142E-20 2.68053E-19
 -1      3536 9.74297E-05-3.04391E-05-2.86889E-05-8.54348E-06 1.66549E-19 2.82797E-19
 -1      3537 1.01425E-04-3.46141E-05-2.86277E-05-8.55653E-06-3.69971E-19 7.79168E-19
 -1      3538 9.98305E-05-3.29909E-05-2.86060E-05-8.84416E-06-1.24565E-19 7.22736E-19
 -1      3539 9.76112E-05-3.18837E-05-2.82176E-05-9.84820E-06-3.31434E-19 2.48286E-19
 -1      3540 1.05592E-04-3.84698E-05-2.87764E-05-7.51970E-06-3.88576E-19 8.53025E-19
 -1      3541 1.03496E-04-3.65086E-05-2.86443E-05-8.38161E-06-2.46007E-19 7.55993E-19
 -1      3542 1.00909E-04-3.54454E-05-2.81283E-05-1.02262E-05-3.88174E-19 5.85523E-19
 -1      3543 1.10904E-04-4.25313E-05-2.93391E-05-4.83654E-06-2.47441E-19 2.15573E-19
 -1      3544 1.08526E-04-4.06817E-05-2.89859E-05-6.54507E-06-1.76663E-19 5.71870E-19
 -1      3545 1.05852E-04-4.00165E-05-2.83077E-05-9.51264E-06-3.33991E-20 8.28802E-19
 -1      3546 1.16622E-04-4.48338E-05-3.07272E-05 4.03534E-07-8.57454E-19-3.49944E-19
 -1      3547 1.14568E-04-4.44936E-05-2.99367E-05-2.51805E-06-9.71736E-19-1.89398E-19
 -1      3548 1.12418E-04-4.48027E-05-2.90733E-05-6.82378E-06-2.47736E-19-1.40999E-19
 -1      3549 1.19329E-04-4.09653E-05-3.35691E-05 8.81187E-06 2.70845E-19 6.33961E-19
 -1      3550 1.19015E-04-4.36661E-05-3.24499E-05 6.00877E-06-1.73576E-20 5.48841E-19
 -1      3551 1.23216E-04-3.61894E-05-3.76470E-05-1.24882E-05 1.34721E-18 3.21687E-19
 -1      3552 1.24591E-04-4.35243E-05-3.47066E-05-7.87659E-06 1.07388E-19 3.46291E-19
 -1      3553 1.09735E-04-1.77662E-05-3.95632E-05-5.15691E-06 9.27528E-19-8.02034E-21
 -1      3554 1.18629E-04-3.96962E-05-3.40022E-05-1.00919E-05 2.89608E-19-5.66357E-19
 -1      3555 1.17748E-04-3.53145E-05-3.53048E-05-1.20316E-05 4.33932E-19-3.90724E-19
 -1      3556 1.12349E-04-4.28654E-05-2.97209E-05 3.11479E-06-1.21079E-18 1.00302E-18
 -1      3557 1.14402E-04-4.38861E-05-3.02658E-05 7.41617E-07-1.32269E-18 1.94406E-19
 -1      3558 1.06887E-04-3.89574E-05-2.90345E-05 6.38164E-06 2.64417E-20 1.76983E-18
 -1      3559 1.09098E-04-4.07923E-05-2.92906E-05 4.98553E-06-1.50224E-19 1.63165E-18
 -1      3560 1.10258E-04-4.27031E-05-2.90069E-05 6.56791E-06-1.21226E-18 6.61480E-19
 -1      3561 1.02423E-04-3.50785E-05-2.88077E-05 7.82663E-06 1.43612E-18-3.36545E-19
 -1      3562 1.04300E-04-3.69010E-05-2.88944E-05 7.14877E-06 1.13856E-18 1.09988E-18
 -1      3563 1.04351E-04-3.82550E-05-2.84276E-05 8.90650E-06 7.67782E-19 9.29594E-19
 -1      3564 9.92118E-05-3.19173E-05-2.88072E-05 8.06203E-06 5.69100E-21-4.64389E-19
 -1      3565 1.00616E-04-3.33695E-05-2.88145E-05 7.88728E-06 3.64910E-19-2.22504E-19
 -1      3566 9.99923E-05-3.40245E-05-2.83338E-05 9.38009E-06 9.20665E-19-4.82959E-19
 -1      3567 9.71121E-05-2.96678E-05-2.88867E-05 7.63233E-06-8.17626E-19 1.21292E-18
 -1      3568 9.80756E-05-3.06927E-05-2.88684E-05 7.76574E-06-4.55822E-19 2.59696E-20
 -1      3569 9.71082E-05-3.08432E-05-2.84394E-05 8.89321E-06-1.67990E-19 7.51196E-20
 -1      3570 9.58455E-05-2.82271E-05-2.89712E-05 6.87389E-06-4.32844E-19 1.21266E-18
 -1      3571 9.64658E-05-2.88813E-05-2.89546E-05 7.17857E-06-7.76465E-19 1.31405E-18
 -1      3572 9.53811E-05-2.87052E-05-2.85996E-05 7.99039E-06-1.00211E-18 1.54373E-19
 -1      3573 9.51484E-05-2.74079E-05-2.90296E-05 5.98220E-06 2.63184E-19 4.25939E-19
 -1      3574 9.55269E-05-2.77803E-05-2.90251E-05 6.36881E-06 2.46594E-19 8.79271E-19
 -1      3575 9.44581E-05-2.74140E-05-2.87466E-05 6.94538E-06-2.00739E-19 1.07709E-18
 -1      3576 9.48149E-05-2.70255E-05-2.90540E-05 5.06993E-06 7.24642E-19 2.16128E-19
 -1      3577 9.50339E-05-2.72011E-05-2.90633E-05 5.48164E-06 3.45457E-19 7.42496E-19
 -1      3578 9.40537E-05-2.67425E-05-2.88543E-05 5.89496E-06 2.06650E-19 1.42988E-18
 -1      3579 9.46984E-05-2.69271E-05-2.90480E-05 4.20143E-06-9.69228E-19 5.31248E-19
 -1      3580 9.48178E-05-2.69755E-05-2.90685E-05 4.60296E-06 3.21242E-19 7.23070E-20
 -1      3581 9.39610E-05-2.64908E-05-2.89184E-05 4.90670E-06 2.90923E-19 2.03553E-18
 -1      3582 9.47018E-05-2.69992E-05-2.90193E-05 3.41149E-06-1.96406E-18 1.35004E-18
 -1      3583 9.47617E-05-2.69714E-05-2.90473E-05 3.78211E-06-1.55444E-18 3.12292E-19
 -1      3584 9.40393E-05-2.65031E-05-2.89445E-05 4.01261E-06-1.49889E-18 5.44201E-19
 -1      3585 9.47640E-05-2.71625E-05-2.89761E-05 2.71710E-06-1.84969E-18 1.15373E-18
 -1      3586 9.47903E-05-2.70939E-05-2.90078E-05 3.04573E-06-1.99736E-18 1.14487E-18
 -1      3587 9.41989E-05-2.66668E-05-2.89417E-05 3.22592E-06-1.62257E-18-2.18480E-19
 -1      3588 9.48483E-05-2.73642E-05-2.89255E-05 2.12339E-06-9.97805E-19 1.42546E-18
 -1      3589 9.48568E-05-2.72783E-05-2.89579E-05 2.40578E-06-1.09685E-18 1.36052E-18
 -1      3590 9.43853E-05-2.69049E-05-2.89191E-05 2.54994E-06-1.46409E-18-2.08355E-19
 -1      3591 9.49340E-05-2.75714E-05-2.88731E-05 1.62758E-06-7.88966E-19 1.36084E-18
 -1      3592 9.49341E-05-2.74827E-05-2.89041E-05 1.86402E-06-7.54636E-19 1.15535E-18
 -1      3593 9.45673E-05-2.71669E-05-2.88848E-05 1.98110E-06-9.71717E-19 3.42624E-19
 -1      3594 9.50106E-05-2.77647E-05-2.88224E-05 1.22153E-06 1.75791E-19 6.54750E-19
 -1      3595 9.50073E-05-2.76811E-05-2.88508E-05 1.41594E-06-5.14680E-19 9.57561E-19
 -1      3596 9.47291E-05-2.74225E-05-2.88448E-05 1.51197E-06-1.08697E-19-9.26465E-19
 -1      3597 9.50727E-05-2.79338E-05-2.87760E-05 8.95804E-07 3.77943E-19-1.62347E-19
 -1      3598 9.50700E-05-2.78610E-05-2.88010E-05 1.05254E-06 5.46736E-19 8.39892E-19
 -1      3599 9.48627E-05-2.76549E-05-2.88038E-05 1.13208E-06 1.50169E-19-1.49201E-19
 -1      3600 9.53156E-05-2.73414E-05-2.91279E-05-3.61740E-06 2.68168E-19-3.97393E-19
 -1      3601 9.53507E-05-2.73211E-05-2.91554E-05-3.26046E-06-3.37954E-20-2.93354E-19
 -1      3602 9.67012E-05-2.95388E-05-2.87708E-05-8.12115E-06 3.14939E-19 3.12008E-19
 -1      3603 9.60000E-05-2.87831E-05-2.87978E-05-7.87840E-06 2.28599E-19 5.60658E-19
 -1      3604 9.56488E-05-2.94572E-05-2.83979E-05-8.99130E-06 2.81385E-19 1.06799E-19
 -1      3605 5.64491E-05-1.33625E-05-1.84129E-05 3.26165E-06 4.63499E-19-1.60910E-19
 -1      3606 5.62691E-05-1.34590E-05-1.81292E-05-6.47866E-06 1.15423E-18 2.22717E-19
 -1      3607 6.36494E-05-1.59367E-05-2.02661E-05-8.99639E-06 1.23697E-18-2.66260E-19
 -1      3608 9.47099E-05-2.29937E-05-3.07427E-05-1.99193E-06-4.02181E-19-7.65366E-19
 -1      3609 9.56215E-05-2.70833E-05-2.93743E-05-2.09087E-06 1.48069E-19-3.47440E-19
 -1      3610 9.56505E-05-2.68747E-05-2.94706E-05-1.60843E-06 2.56979E-19-5.26734E-19
 -1      3611 9.45808E-05-2.75436E-05-2.87309E-05-1.57833E-07 1.15971E-18-9.16400E-19
 -1      3612 9.45634E-05-2.75300E-05-2.87300E-05-5.31177E-08 1.66362E-19-1.13601E-18
 -1      3613 9.54895E-05-2.73023E-05-2.92214E-05-2.89795E-06-1.40450E-19-2.57583E-19
 -1      3614 9.55310E-05-2.72117E-05-2.92771E-05-2.49987E-06-2.23700E-20-3.06570E-19
 -1      3615 9.53128E-05-2.70483E-05-2.92574E-05-2.95410E-06 9.72640E-20-4.94129E-19
 -1      3616 1.18967E-04-5.66360E-05-2.69636E-05 2.04649E-05 1.23561E-18-6.00096E-19
 -1      3617 9.18892E-05-1.74968E-05-3.18956E-05-8.85196E-07 1.12772E-19-1.17404E-18
 -1      3618 9.20255E-05-1.77088E-05-3.18651E-05-1.56528E-06-5.65498E-20-1.10083E-18
 -1      3619 9.29622E-05-1.92967E-05-3.15497E-05-1.49913E-06-1.21777E-19-1.02523E-18
 -1      3620 1.17402E-04-4.42907E-05-3.13752E-05-3.19908E-06-7.39490E-19-3.56270E-19
 -1      3621 1.18361E-04-4.29070E-05-3.23319E-05-6.22119E-06-2.39786E-19 2.53230E-19
 -1      3622 1.20977E-04-4.26910E-05-3.35358E-05-7.61044E-06-1.60208E-19-2.61018E-19
 -1      3623 1.17040E-04-4.58904E-05-3.05041E-05 1.10145E-06-1.26560E-18 2.30261E-19
 -1      3624 8.35065E-05-3.11669E-05-2.23033E-05-2.36830E-05 7.98223E-19 2.49703E-19
 -1      3625 9.35336E-05-3.92704E-05-2.33973E-05 2.53366E-05-9.21731E-19-8.32858E-19
 -1      3626 8.19635E-05-3.09579E-05-2.17471E-05 2.47532E-05-3.97940E-19-7.82500E-19
 -1      3627 9.56603E-05-2.82649E-05-2.88719E-05-7.40229E-06-1.47852E-19 5.15157E-19
 -1      3628 9.52444E-05-2.78273E-05-2.88907E-05-7.06957E-06-2.14526E-19 2.29771E-19
 -1      3629 9.42279E-05-2.71919E-05-2.87390E-05-6.97928E-06-8.26509E-20 1.30215E-19
 -1      3630 9.46291E-05-2.79759E-05-2.85831E-05-7.98462E-06-2.51384E-20-2.69285E-19
 -1      3631 1.12793E-04-5.02843E-05-2.70940E-05 1.72447E-05-1.34807E-18-1.01751E-18
 -1      3632 1.03872E-04-4.51065E-05-2.49896E-05 2.21048E-05-1.13195E-18-1.05153E-18
 -1      3633 9.55950E-05-2.59492E-05-2.98425E-05 6.47857E-07-4.14460E-19-8.18712E-19
 -1      3634 9.55842E-05-2.63088E-05-2.96949E-05 1.23764E-06-4.29584E-19-7.05789E-19
 -1      3635 9.54847E-05-2.60887E-05-2.97391E-05 1.30181E-06-2.54121E-19-5.69861E-19
 -1      3636 9.41728E-05-2.17207E-05-3.10713E-05-2.08682E-06-4.32872E-19-8.33025E-19
 -1      3637 9.50273E-05-2.37058E-05-3.05488E-05-1.24546E-06-3.83764E-19-7.99138E-19
 -1      3638 9.49642E-05-2.36509E-05-3.05681E-05-8.70107E-07-3.77144E-19-8.36188E-19
 -1      3639 9.38712E-05-2.11558E-05-3.11744E-05-1.70269E-06-3.01720E-19-8.31780E-19
 -1      3640 1.17350E-04-5.13230E-05-2.80312E-05-1.34202E-05-5.85862E-19 8.57919E-19
 -1      3641 1.22406E-04-5.16512E-05-3.07087E-05-4.90207E-06-9.31961E-19 1.14972E-18
 -1      3642 9.89717E-05-4.30548E-05-2.37937E-05-2.49448E-05-2.83028E-19 5.72038E-19
 -1      3643 1.08962E-04-4.88245E-05-2.59666E-05-2.07623E-05-2.50735E-19 4.75530E-19
 -1      3644 7.89538E-05-2.80256E-05-2.17777E-05 2.35294E-05 2.88309E-19 4.23728E-19
 -1      3645 9.46390E-05-2.27906E-05-3.08008E-05 2.18307E-06 7.71803E-19-6.03191E-19
 -1      3646 1.15540E-04-4.85890E-05-2.85649E-05 1.03297E-05-1.40893E-18-5.75645E-19
 -1      3647 6.79236E-05-2.53794E-05-1.78673E-05-2.68472E-05-7.88641E-19-4.49563E-19
 -1      3648 7.63847E-05-2.89916E-05-2.01930E-05-2.60749E-05-6.88214E-19-6.53274E-20
 -1      3649 6.40241E-05-2.15897E-05-1.80678E-05-2.22697E-05-8.90655E-19-4.67192E-19
 -1      3650 9.33314E-05-2.01983E-05-3.13553E-05 6.39654E-07 3.34053E-19-1.08468E-18
 -1      3651 9.32653E-05-2.00821E-05-3.13751E-05 1.76378E-07 2.62620E-19-1.17013E-18
 -1      3652 8.87281E-05-3.61600E-05-2.24607E-05-2.57708E-05-7.23962E-19-1.32984E-19
 -1      3653 9.44284E-05-4.02774E-05-2.31373E-05-2.61376E-05-5.50307E-19 3.99932E-19
 -1      3654 1.00005E-04-4.15277E-05-2.49711E-05-2.11330E-05-9.16907E-19 6.84720E-19
 -1      3655 9.54503E-05-2.52575E-05-3.00776E-05 2.60258E-07-3.88331E-19-9.73158E-19
 -1      3656 7.47237E-05-2.25557E-05-2.23488E-05-1.80131E-05 7.11283E-19-2.67987E-19
 -1      3657 7.54848E-05-2.55943E-05-2.12468E-05-2.20973E-05 7.34907E-19 4.34448E-19
 -1      3658 1.21278E-04-4.77456E-05-3.14957E-05 1.61031E-07-5.95272E-19 5.11926E-19
 -1      3659 1.16277E-04-2.65182E-05-3.89916E-05 1.32376E-05 2.47850E-19 1.57248E-18
 -1      3660 9.49590E-05-2.79244E-05-2.87309E-05 5.74254E-07 3.29206E-19-2.59121E-18
 -1      3661 9.50323E-05-2.79994E-05-2.87278E-05 5.83618E-07-1.99147E-19-2.81620E-19
 -1      3662 9.49894E-05-2.78748E-05-2.87622E-05-7.46899E-07 6.60461E-19-1.09513E-18
 -1      3663 9.50261E-05-2.79596E-05-2.87439E-05-6.41547E-07-2.95992E-20-1.00363E-18
 -1      3664 9.49739E-05-2.79102E-05-2.87419E-05-6.17224E-07-8.57654E-19-6.44265E-19
 -1      3665 9.48307E-05-2.77012E-05-2.87686E-05-7.74723E-07 4.73860E-19 8.58010E-19
 -1      3666 1.20341E-04-3.41206E-05-3.69432E-05 1.25237E-05-3.56654E-19 1.64662E-18
 -1      3667 9.46730E-05-2.76250E-05-2.87341E-05-3.69354E-07-7.18295E-19-1.64406E-18
 -1      3668 9.46192E-05-2.75811E-05-2.87329E-05-2.77939E-07 4.22102E-19-1.77863E-18
 -1      3669 9.45007E-05-2.74317E-05-2.87409E-05-2.46056E-07-1.80072E-19-1.51551E-18
 -1      3670 9.51400E-05-2.72907E-05-2.90726E-05-4.31531E-06 3.91962E-19-2.83726E-19
 -1      3671 9.51530E-05-2.72986E-05-2.90823E-05-3.96853E-06 4.23352E-19-1.68967E-19
 -1      3672 9.50146E-05-2.70378E-05-2.91340E-05-3.68258E-06 2.75081E-19-5.06989E-19
 -1      3673 1.21845E-04-4.00818E-05-3.52444E-05 1.05727E-05-7.01582E-20 1.27248E-18
 -1      3674 1.12530E-04-2.09495E-05-3.96530E-05-1.06862E-05 1.85476E-18-4.32503E-19
 -1      3675 1.17015E-04-3.13880E-05-3.69621E-05-1.32128E-05 9.86992E-19 1.62326E-19
 -1      3676 1.14569E-04-2.52216E-05-3.83305E-05-1.22163E-05 1.77602E-18 1.14310E-19
 -1      3677 9.50968E-05-2.79963E-05-2.87553E-05 7.57478E-07 4.80313E-19 5.08112E-19
 -1      3678 9.49466E-05-2.78375E-05-2.87630E-05 8.16896E-07 2.35364E-19 3.36275E-19
 -1      3679 9.34613E-05-2.04157E-05-3.13147E-05 9.61917E-07 3.63819E-19-1.03041E-18
 -1      3680 9.40027E-05-2.14325E-05-3.10814E-05 5.68607E-07 3.52070E-19-9.78011E-19
 -1      3681 9.36581E-05-2.07679E-05-3.12565E-05 1.41198E-06 5.71058E-19-9.29673E-19
 -1      3682 1.17450E-04-2.36336E-05-4.04107E-05-1.26699E-05 1.59724E-18 2.18296E-19
 -1      3683 9.48582E-05-2.78186E-05-2.87299E-05 5.27962E-07 1.08242E-18-4.16600E-18
 -1      3684 9.48707E-05-2.77998E-05-2.87421E-05 6.28391E-07 2.01450E-19-2.19605E-18
 -1      3685 9.47758E-05-2.77457E-05-2.87300E-05 4.66845E-07 1.31687E-18-2.82200E-18
 -1      3686 9.51018E-05-2.80573E-05-2.87343E-05 6.35113E-07-2.55875E-19 9.85702E-19
 -1      3687 9.51520E-05-2.81417E-05-2.87182E-05 5.42508E-07-5.11464E-19 8.74986E-19
 -1      3688 1.11920E-04-4.78173E-05-2.74024E-05-1.46001E-05-2.06941E-19 1.09354E-18
 -1      3689 4.81880E-05-1.28874E-05-1.45961E-05-8.81896E-06-5.64495E-19-1.18256E-18
 -1      3690 5.47237E-05-1.56579E-05-1.65822E-05-1.38888E-05-6.21193E-19-8.18710E-19
 -1      3691 5.06380E-05-1.28501E-05-1.59823E-05-2.15060E-06-5.50955E-19-1.65256E-18
 -1      3692 9.45666E-05-2.75350E-05-2.87293E-05 7.43214E-08-1.13180E-18-1.07926E-18
 -1      3693 9.45876E-05-2.75547E-05-2.87290E-05 1.76603E-07-1.55585E-18-6.41935E-19
 -1      3694 9.44597E-05-2.73985E-05-2.87377E-05 1.41069E-08-4.56795E-19 3.73161E-19
 -1      3695 9.94760E-05-4.05895E-05-2.50827E-05 2.04479E-05-1.12604E-18-1.01444E-18
 -1      3696 7.73061E-05-2.65413E-05-2.16005E-05 2.23223E-05-4.22458E-19 2.95350E-19
 -1      3697 7.32991E-05-2.23690E-05-2.18542E-05 1.76570E-05-1.06025E-18 1.04036E-18
 -1      3698 8.49227E-05-2.97651E-05-2.35122E-05 2.01975E-05-1.43420E-19-8.97180E-19
 -1      3699 6.06777E-05-1.45593E-05-1.95130E-05 7.62465E-06 4.12300E-20-1.18532E-19
 -1      3700 6.31629E-05-1.44755E-05-2.08658E-05 2.45475E-06-4.39769E-19-2.73936E-19
 -1      3701 6.60543E-05-1.70082E-05-2.10258E-05 1.09595E-05-5.68620E-19 6.04212E-19
 -1      3702 1.22337E-04-3.02815E-05-3.96079E-05-1.36089E-05 1.85135E-18 2.55010E-19
 -1      3703 9.56722E-05-2.66669E-05-2.95768E-05-1.18398E-06 3.33100E-19-5.18748E-19
 -1      3704 9.56680E-05-2.63940E-05-2.96818E-05-6.66563E-07 4.92193E-19-4.59165E-19
 -1      3705 9.56448E-05-2.64707E-05-2.96463E-05-1.30788E-06 2.35332E-19-4.75247E-19
 -1      3706 9.27020E-05-1.88708E-05-3.16219E-05-4.99814E-07 1.32997E-19-1.14727E-18
 -1      3707 9.35294E-05-2.02394E-05-3.13802E-05 2.44715E-06 6.98809E-19-7.12516E-19
 -1      3708 9.43974E-05-2.68416E-05-2.89549E-05-5.18950E-06-5.67246E-20 9.17560E-20
 -1      3709 9.50077E-05-2.72407E-05-2.90359E-05-5.03580E-06 2.73643E-19-1.88326E-19
 -1      3710 9.49781E-05-2.72316E-05-2.90371E-05-4.68176E-06 3.44560E-19-2.32108E-19
 -1      3711 9.55396E-05-2.68687E-05-2.94315E-05-2.16327E-06-2.12711E-20-4.83406E-19
 -1      3712 5.38338E-05-1.60861E-05-1.56973E-05 1.56421E-05 5.33816E-19-1.06790E-18
 -1      3713 5.32056E-05-1.41175E-05-1.65804E-05 9.19575E-06 1.41620E-19-1.57315E-18
 -1      3714 6.13978E-05-1.88473E-05-1.80723E-05 1.79968E-05 6.54263E-19-1.37749E-19
 -1      3715 9.49231E-05-2.78674E-05-2.87397E-05-5.83922E-07-1.03119E-18 6.31053E-19
 -1      3716 9.48236E-05-2.77341E-05-2.87520E-05-6.38220E-07-1.10649E-19 2.88341E-19
 -1      3717 9.48466E-05-2.77913E-05-2.87370E-05-5.31260E-07-8.95039E-19 9.99702E-19
 -1      3718 9.47642E-05-2.77196E-05-2.87362E-05-4.70079E-07-1.20367E-18 2.22903E-19
 -1      3719 9.47357E-05-2.76235E-05-2.87646E-05-7.14887E-07 3.54099E-19 3.14275E-19
 -1      3720 1.01039E-04-3.62377E-05-2.76884E-05 1.15576E-05 1.42466E-18 5.03567E-19
 -1      3721 1.03849E-04-3.88830E-05-2.77989E-05 1.12116E-05 4.50936E-19 3.97487E-19
 -1      3722 9.52348E-05-2.61648E-05-2.96026E-05 1.68567E-06 1.00107E-19-5.77020E-19
 -1      3723 9.50573E-05-2.62486E-05-2.94921E-05 2.07677E-06 1.27095E-19-4.49972E-19
 -1      3724 9.51418E-05-2.39337E-05-3.04998E-05 1.31415E-06 6.19807E-19-4.92801E-19
 -1      3725 9.43841E-05-2.22003E-05-3.09521E-05 1.96222E-06 6.54501E-19-5.94554E-19
 -1      3726 9.47681E-05-2.62263E-05-2.93781E-05 2.36604E-06 2.11141E-19-4.15045E-19
 -1      3727 9.44874E-05-2.61395E-05-2.92937E-05 2.71216E-06 2.42522E-19-2.47348E-19
 -1      3728 9.47785E-05-2.59772E-05-2.94805E-05 1.90279E-06 3.51542E-19-6.68692E-19
 -1      3729 9.40643E-05-2.59515E-05-2.91967E-05 2.98099E-06 1.04827E-19-6.70379E-20
 -1      3730 9.36880E-05-2.57302E-05-2.91258E-05 3.31401E-06 8.31769E-20 2.44997E-20
 -1      3731 9.40735E-05-2.57798E-05-2.92615E-05 2.44386E-06 2.71663E-19-3.76181E-19
 -1      3732 9.31350E-05-2.54127E-05-2.90321E-05 3.58205E-06 6.06710E-20-2.93852E-20
 -1      3733 9.26608E-05-2.50876E-05-2.89609E-05 3.92564E-06 5.87199E-20 3.56973E-20
 -1      3734 9.31095E-05-2.52768E-05-2.90617E-05 2.95146E-06 3.55871E-20-1.50549E-19
 -1      3735 9.19700E-05-2.46691E-05-2.88547E-05 4.20984E-06 7.10734E-20 4.84946E-20
 -1      3736 9.13894E-05-2.42696E-05-2.87669E-05 4.58415E-06 2.85158E-20 8.27115E-20
 -1      3737 9.18815E-05-2.45320E-05-2.88514E-05 3.45799E-06 4.41259E-20-3.78431E-19
 -1      3738 9.05443E-05-2.37795E-05-2.86291E-05 4.90190E-06-6.10695E-20-8.93444E-20
 -1      3739 8.98486E-05-2.33408E-05-2.85047E-05 5.32783E-06-1.85923E-20-2.43959E-19
 -1      3740 9.03658E-05-2.36034E-05-2.85954E-05 3.99264E-06-8.60692E-20-3.95853E-19
 -1      3741 8.88239E-05-2.28147E-05-2.83108E-05 5.70220E-06 5.66236E-20-3.38416E-19
 -1      3742 8.80093E-05-2.23854E-05-2.81251E-05 6.20963E-06-1.75905E-19-9.91000E-20
 -1      3743 8.85213E-05-2.25518E-05-2.82497E-05 4.58953E-06-8.76743E-20-6.27733E-19
 -1      3744 8.67682E-05-2.18692E-05-2.78434E-05 6.68097E-06-4.92233E-19-4.38261E-21
 -1      3745 8.58443E-05-2.15198E-05-2.75651E-05 7.32429E-06-4.79381E-19-7.47709E-21
 -1      3746 8.62865E-05-2.14484E-05-2.77571E-05 5.30349E-06-1.61901E-19-3.96071E-19
 -1      3747 8.43346E-05-2.10769E-05-2.71530E-05 7.97210E-06-5.41048E-19-3.02094E-19
 -1      3748 8.33414E-05-2.09157E-05-2.67429E-05 8.85441E-06-5.86718E-19-1.32580E-19
 -1      3749 8.35724E-05-2.03785E-05-2.70420E-05 6.24308E-06-5.24084E-19-7.90032E-19
 -1      3750 8.14869E-05-2.06399E-05-2.61397E-05 9.82927E-06-3.76668E-19-6.48778E-20
 -1      3751 8.05157E-05-2.08472E-05-2.55477E-05 1.11480E-05-1.13995E-19-3.78898E-19
 -1      3752 8.02496E-05-1.94527E-05-2.59985E-05 7.62390E-06-4.82057E-19-5.70755E-19
 -1      3753 7.81411E-05-2.08405E-05-2.46577E-05 1.26639E-05 8.27148E-20-3.01444E-19
 -1      3754 7.75535E-05-2.18170E-05-2.38789E-05 1.49106E-05 5.53516E-20 5.72905E-21
 -1      3755 7.61614E-05-1.88523E-05-2.44652E-05 9.83583E-06-1.52395E-19-4.98830E-19
 -1      3756 7.05880E-05-1.83308E-05-2.22059E-05-1.33853E-05 8.71240E-19-1.09939E-18
 -1      3757 7.70697E-05-2.19124E-05-2.36093E-05-1.51672E-05 6.18107E-19-3.67983E-19
 -1      3758 7.75633E-05-2.06723E-05-2.44940E-05-1.28773E-05 8.52433E-19-8.21248E-19
 -1      3759 7.98668E-05-2.06085E-05-2.53957E-05-1.12559E-05 7.84496E-19-7.39719E-19
 -1      3760 8.07992E-05-2.02401E-05-2.60329E-05-9.76815E-06 2.21201E-19-1.20406E-19
 -1      3761 7.58723E-05-1.83718E-05-2.45022E-05-9.50977E-06 8.58619E-19-1.49761E-18
 -1      3762 8.26260E-05-2.04788E-05-2.66414E-05-8.75132E-06 2.23696E-19-8.99652E-19
 -1      3763 8.36132E-05-2.05417E-05-2.70831E-05-7.74391E-06 2.22067E-19-1.43187E-18
 -1      3764 7.98757E-05-1.89404E-05-2.60279E-05-7.18822E-06 4.59197E-19-1.60874E-18
 -1      3765 8.50734E-05-2.09474E-05-2.74929E-05-7.05711E-06-1.85760E-19-1.34403E-18
 -1      3766 8.59903E-05-2.12307E-05-2.77893E-05-6.32292E-06-2.20846E-19-1.40928E-18
 -1      3767 8.30848E-05-1.98201E-05-2.70552E-05-5.76783E-06-1.31430E-19-2.40758E-18
 -1      3768 8.71673E-05-2.17145E-05-2.80612E-05-5.80778E-06-5.34397E-19-1.19852E-18
 -1      3769 8.79661E-05-2.21019E-05-2.82521E-05-5.22978E-06-8.57511E-19-5.77224E-19
 -1      3770 8.56631E-05-2.08301E-05-2.77443E-05-4.77597E-06-2.86386E-19-2.12613E-18
 -1      3771 8.89165E-05-2.26065E-05-2.84272E-05-4.81140E-06-8.61869E-19-3.30268E-19
 -1      3772 8.95858E-05-2.30264E-05-2.85432E-05-4.32923E-06-1.75081E-19-1.61167E-19
 -1      3773 8.77462E-05-2.18793E-05-2.81979E-05-4.00264E-06-2.07171E-19-1.47539E-18
 -1      3774 9.03513E-05-2.35151E-05-2.86511E-05-3.97258E-06 9.24172E-20-3.77799E-19
 -1      3775 9.08967E-05-2.39252E-05-2.87154E-05-3.55839E-06-3.14343E-19 4.80273E-19
 -1      3776 8.94276E-05-2.29034E-05-2.84870E-05-3.34998E-06-1.42669E-19-1.09404E-18
 -1      3777 9.15092E-05-2.43750E-05-2.87772E-05-3.24866E-06-3.93219E-19 7.97493E-19
 -1      3778 9.19441E-05-2.47518E-05-2.88071E-05-2.89001E-06 2.22581E-19 5.53524E-19
 -1      3779 9.07777E-05-2.38578E-05-2.86621E-05-2.77721E-06 1.35571E-19-4.09688E-19
 -1      3780 9.24305E-05-2.51516E-05-2.88379E-05-2.62126E-06 7.13613E-19 8.82449E-19
 -1      3781 9.27714E-05-2.54842E-05-2.88456E-05-2.31282E-06 1.25984E-18 5.31133E-19
 -1      3782 9.18536E-05-2.47162E-05-2.87594E-05-2.26944E-06 1.01158E-18 3.81230E-19
 -1      3783 9.31536E-05-2.58294E-05-2.88562E-05-2.08275E-06 1.20841E-18 7.99521E-19
 -1      3784 9.34167E-05-2.61143E-05-2.88504E-05-1.82109E-06 9.45271E-19 8.26185E-19
 -1      3785 9.27032E-05-2.54674E-05-2.88047E-05-1.82419E-06 1.32688E-18 7.44500E-19
 -1      3786 9.37135E-05-2.64054E-05-2.88484E-05-1.62729E-06 5.47909E-19 4.05275E-19
 -1      3787 9.39137E-05-2.66439E-05-2.88351E-05-1.40888E-06 7.82823E-20 4.09670E-19
 -1      3788 9.33662E-05-2.61086E-05-2.88165E-05-1.44037E-06 1.51520E-19 3.47796E-19
 -1      3789 9.41415E-05-2.68846E-05-2.88258E-05-1.24909E-06-9.75930E-20 7.90270E-19
 -1      3790 9.42916E-05-2.70799E-05-2.88089E-05-1.07035E-06-4.15100E-19 9.89935E-19
 -1      3791 9.38779E-05-2.66453E-05-2.88077E-05-1.11627E-06 3.01042E-20 2.02530E-19
 -1      3792 9.44641E-05-2.72757E-05-2.87960E-05-9.40164E-07-7.42432E-19 8.87186E-19
 -1      3793 9.45785E-05-2.74325E-05-2.87783E-05-7.97603E-07-2.89704E-19 9.59990E-19
 -1      3794 9.42663E-05-2.70859E-05-2.87874E-05-8.49220E-07-3.52951E-19 8.12989E-19
 -1      3795 9.34065E-05-2.63640E-05-2.87216E-05-6.04883E-06 2.48545E-19-2.38974E-19
 -1      3796 9.34609E-05-2.63156E-05-2.87826E-05-5.59901E-06 1.09228E-20-1.15529E-19
 -1      3797 9.97930E-05-3.54964E-05-2.75242E-05-1.20104E-05-4.82987E-19 7.16764E-20
 -1      3798 9.76821E-05-3.32930E-05-2.75519E-05-1.18168E-05-3.78625E-19 2.58110E-19
 -1      3799 9.63290E-05-3.15560E-05-2.77261E-05-1.09548E-05-3.09629E-19 3.85731E-19
 -1      3800 9.50077E-05-3.00402E-05-2.78257E-05-1.04905E-05-7.18382E-20 4.58112E-19
 -1      3801 9.45950E-05-3.14492E-05-2.71194E-05-1.26156E-05-1.41344E-19 1.53083E-19
 -1      3802 1.17997E-04-4.63848E-05-3.06061E-05-9.22883E-07-6.19816E-19-6.22288E-20
 -1      3803 1.24015E-04-4.81307E-05-3.26622E-05-3.14380E-06-4.57134E-19 1.23429E-19
 -1      3804 1.20419E-04-3.43201E-05-3.70379E-05-1.28020E-05 1.21245E-18 7.61800E-20
 -1      3805 9.47979E-05-2.76976E-05-2.87577E-05 7.57179E-07-6.12188E-19-2.62818E-18
 -1      3806 9.47681E-05-2.76131E-05-2.87773E-05 9.05669E-07-1.41825E-18-2.61895E-18
 -1      3807 9.46798E-05-2.75918E-05-2.87553E-05 7.02933E-07-6.43144E-19-3.35370E-18
 -1      3808 9.46901E-05-2.91417E-05-2.80773E-05 9.41921E-06-5.64565E-19 4.99980E-19
 -1      3809 9.58447E-05-3.04809E-05-2.79838E-05 9.89225E-06-3.04095E-19 4.93759E-19
 -1      3810 9.34790E-05-2.73527E-05-2.83366E-05 8.04401E-06-9.35492E-19 9.93618E-19
 -1      3811 9.41303E-05-2.81793E-05-2.82422E-05 8.59435E-06-5.41449E-19 1.10565E-18
 -1      3812 9.25722E-05-2.77673E-05-2.77997E-05 9.52495E-06-7.83728E-19 1.11304E-18
 -1      3813 9.29880E-05-2.63766E-05-2.85504E-05 6.74374E-06-6.40537E-19 1.56761E-18
 -1      3814 9.33065E-05-2.68261E-05-2.84751E-05 7.29522E-06-1.09734E-18 1.26220E-18
 -1      3815 9.19058E-05-2.62893E-05-2.81343E-05 7.85346E-06-1.32212E-18 1.14999E-18
 -1      3816 9.29272E-05-2.59608E-05-2.87052E-05 5.57243E-06 9.79388E-20 2.06275E-18
 -1      3817 9.30393E-05-2.61513E-05-2.86544E-05 6.09100E-06-3.17952E-19 1.83771E-18
 -1      3818 9.18230E-05-2.55690E-05-2.83992E-05 6.41211E-06-1.21032E-18 1.06915E-18
 -1      3819 9.31027E-05-2.59080E-05-2.88042E-05 4.54532E-06-7.38060E-20 2.39023E-18
 -1      3820 9.30967E-05-2.59325E-05-2.87760E-05 5.01470E-06 4.68072E-19 2.17505E-18
 -1      3821 9.20656E-05-2.53545E-05-2.85904E-05 5.19228E-06 2.68609E-19 1.05953E-18
 -1      3822 9.33881E-05-2.60704E-05-2.88571E-05 3.65883E-06-1.33402E-18 8.71055E-19
 -1      3823 9.33216E-05-2.59966E-05-2.88472E-05 4.07374E-06-3.15951E-19 1.84765E-18
 -1      3824 9.24651E-05-2.54548E-05-2.87166E-05 4.16990E-06 6.88692E-20 1.34721E-18
 -1      3825 9.37085E-05-2.63476E-05-2.88752E-05 2.90453E-06-1.54766E-18 2.70779E-19
 -1      3826 9.36170E-05-2.62221E-05-2.88787E-05 3.26330E-06-1.71241E-18 6.11880E-19
 -1      3827 9.29176E-05-2.57326E-05-2.87904E-05 3.31534E-06-9.73304E-19 1.28373E-18
 -1      3828 9.40195E-05-2.66709E-05-2.88692E-05 2.27250E-06-1.47955E-18-1.44347E-20
 -1      3829 9.39239E-05-2.65252E-05-2.88813E-05 2.57667E-06-1.46510E-18-1.33893E-20
 -1      3830 9.33633E-05-2.60972E-05-2.88250E-05 2.60642E-06-1.48427E-18 1.76002E-19
 -1      3831 9.42974E-05-2.69966E-05-2.88480E-05 1.75044E-06-1.27990E-19-1.51278E-18
 -1      3832 9.42091E-05-2.68502E-05-2.88650E-05 2.00378E-06-7.13327E-19-7.13412E-19
 -1      3833 9.37680E-05-2.64860E-05-2.88319E-05 2.02369E-06-6.75188E-19-1.25880E-18
 -1      3834 9.45337E-05-2.72991E-05-2.88183E-05 1.32665E-06 5.29478E-19-2.73061E-18
 -1      3835 9.44572E-05-2.71635E-05-2.88375E-05 1.53263E-06 1.56015E-19-1.85925E-18
 -1      3836 9.41160E-05-2.68618E-05-2.88208E-05 1.54929E-06 4.98747E-19-3.11529E-18
 -1      3837 9.46895E-05-2.75196E-05-2.87886E-05 1.02379E-06 1.63826E-19-2.51393E-18
 -1      3838 9.46261E-05-2.74022E-05-2.88076E-05 1.18903E-06 8.47669E-19-3.20916E-18
 -1      3839 9.43595E-05-2.71547E-05-2.88014E-05 1.20137E-06 9.41796E-19-4.26269E-18
 -1      3840 9.45223E-05-2.73664E-05-2.87808E-05 9.50872E-07-5.55988E-19-4.39243E-18
 -1      3841 9.51130E-05-2.68165E-05-2.92688E-05-2.91038E-06 2.86153E-19-6.33135E-19
 -1      3842 9.52512E-05-2.67783E-05-2.93461E-05-2.53412E-06 2.28719E-20-6.18932E-19
 -1      3843 9.38814E-05-2.12076E-05-3.11236E-05-7.57464E-09 1.41749E-19-1.03005E-18
 -1      3844 9.32577E-05-2.00708E-05-3.13765E-05-1.63860E-07 1.48989E-19-1.05532E-18
 -1      3845 9.33197E-05-2.01800E-05-3.13592E-05-6.20561E-07 2.07870E-20-1.04407E-18
 -1      3846 9.43858E-05-2.89530E-05-2.80153E-05-9.62095E-06-1.07148E-19 6.03286E-19
 -1      3847 9.36513E-05-2.80120E-05-2.81275E-05-9.07465E-06-2.61663E-20 1.08050E-19
 -1      3848 9.27407E-05-2.85633E-05-2.75356E-05-1.06392E-05-1.75079E-19 6.19789E-19
 -1      3849 9.70302E-05-3.20279E-05-2.78213E-05 1.07141E-05 1.54907E-19 4.50149E-19
 -1      3850 9.88896E-05-3.40015E-05-2.77768E-05 1.09500E-05 1.09575E-18 4.35646E-19
 -1      3851 9.42164E-05-3.03324E-05-2.74279E-05 1.13701E-05 2.40800E-19 1.47089E-19
 -1      3852 9.54263E-05-2.66985E-05-2.94560E-05-2.18059E-06-4.54439E-20-5.08477E-19
 -1      3853 9.55159E-05-2.65296E-05-2.95642E-05-1.75420E-06 9.90693E-20-4.90219E-19
 -1      3854 9.52165E-05-2.64575E-05-2.94658E-05-2.14265E-06 7.76873E-20-6.04797E-19
 -1      3855 1.03476E-04-4.12995E-05-2.67611E-05 1.56753E-05-5.69886E-19-1.40432E-18
 -1      3856 9.52969E-05-3.57502E-05-2.54790E-05 1.80781E-05-2.62421E-19-1.15081E-18
 -1      3857 9.40873E-05-2.16278E-05-3.10625E-05 1.62246E-06 5.87619E-19-7.10323E-19
 -1      3858 1.20053E-04-4.75253E-05-3.10931E-05 3.04553E-07-6.91539E-19 4.31467E-19
 -1      3859 1.05253E-04-4.07756E-05-2.76196E-05-1.20864E-05-1.52162E-19 5.29763E-19
 -1      3860 1.02277E-04-3.80038E-05-2.74554E-05-1.25350E-05-2.19657E-19 4.08264E-19
 -1      3861 9.82780E-05-3.59732E-05-2.67980E-05-1.45076E-05-4.78100E-19-9.58239E-20
 -1      3862 9.46306E-05-2.75999E-05-2.87296E-05 2.93620E-07-4.03220E-19-2.56101E-18
 -1      3863 9.46873E-05-2.76497E-05-2.87297E-05 3.81354E-07 7.19633E-19-3.96618E-18
 -1      3864 9.45119E-05-2.74507E-05-2.87378E-05 2.70181E-07-8.61256E-19-2.38318E-18
 -1      3865 9.55220E-05-2.54546E-05-3.00216E-05 6.54801E-07 6.46296E-19-4.89190E-19
 -1      3866 9.53813E-05-2.48449E-05-3.02360E-05 8.99039E-07 6.86306E-19-4.68520E-19
 -1      3867 9.52229E-05-2.43048E-05-3.03967E-05 8.03024E-07 5.72431E-19-3.48585E-19
 -1      3868 9.55836E-05-2.59079E-05-2.98663E-05-2.11070E-08 6.15781E-19-4.70424E-19
 -1      3869 9.54343E-05-2.56809E-05-2.98939E-05 8.80889E-07-1.62780E-19-6.02620E-19
 -1      3870 9.53770E-05-2.59803E-05-2.97455E-05 1.35127E-06-4.98164E-20-5.11013E-19
 -1      3871 9.52021E-05-2.57843E-05-2.97450E-05 1.28682E-06-1.50522E-20-6.69912E-19
 -1      3872 9.34369E-05-2.03770E-05-3.13214E-05-9.52762E-07-1.02212E-19-9.18036E-19
 -1      3873 9.36189E-05-2.07049E-05-3.12654E-05-1.38066E-06-1.94771E-19-9.03762E-19
 -1      3874 9.40027E-05-2.14036E-05-3.10862E-05-5.88625E-07-1.44376E-19-8.96960E-19
 -1      3875 9.53289E-05-2.46612E-05-3.02712E-05-1.09372E-07-3.63539E-19-7.57411E-19
 -1      3876 9.54027E-05-2.52421E-05-3.00765E-05 4.76241E-07-3.38756E-19-7.67731E-19
 -1      3877 9.52946E-05-2.51066E-05-3.00766E-05 5.50514E-07-1.46411E-19-3.91707E-19
 -1      3878 6.66588E-05-1.59028E-05-2.17720E-05-7.26120E-06 5.53218E-19-3.43975E-19
 -1      3879 8.46193E-05-3.28374E-05-2.20160E-05-2.52131E-05-7.41366E-19-1.50865E-19
 -1      3880 9.13550E-05-3.55996E-05-2.38514E-05-2.24241E-05-9.76139E-19-3.29231E-19
 -1      3881 7.98253E-05-2.89881E-05-2.17687E-05-2.31230E-05-8.51625E-19-3.11430E-19
 -1      3882 6.12690E-05-1.82386E-05-1.81011E-05-1.80072E-05-9.70342E-19-8.72153E-19
 -1      3883 6.84755E-05-2.17410E-05-1.99582E-05-1.96215E-05-1.19055E-18-6.53301E-19
 -1      3884 5.97042E-05-1.61281E-05-1.86077E-05-1.22391E-05-1.01136E-18-6.36678E-19
 -1      3885 6.73064E-05-1.74953E-05-2.11609E-05 1.23146E-05 9.82724E-20-6.55372E-19
 -1      3886 7.12710E-05-2.10986E-05-2.14778E-05 1.67636E-05 1.81530E-19-2.50113E-19
 -1      3887 9.49280E-05-2.36697E-05-3.05495E-05-5.73102E-07-4.14106E-19-6.95427E-19
 -1      3888 1.17000E-04-4.74627E-05-2.99077E-05 4.33935E-06-1.51705E-18 5.30924E-19
 -1      3889 9.45933E-05-2.74764E-05-2.87623E-05-6.52975E-07-4.05113E-19 2.26905E-19
 -1      3890 9.43411E-05-2.20540E-05-3.09562E-05-1.11143E-06-2.56039E-19-7.20071E-19
 -1      3891 9.46391E-05-2.75622E-05-2.87460E-05-4.80141E-07-2.81539E-19-8.10182E-19
 -1      3892 1.11810E-04-4.59585E-05-2.81563E-05 1.08364E-05-1.41018E-18-7.75814E-19
 -1      3893 9.48598E-05-2.67769E-05-2.91811E-05-3.24769E-06 3.25619E-19-5.92027E-19
 -1      3894 9.47898E-05-2.65127E-05-2.92595E-05-2.83486E-06 2.60535E-19-6.39148E-19
 -1      3895 9.46972E-05-2.67352E-05-2.91232E-05-3.60814E-06 2.59130E-19-4.55649E-19
 -1      3896 1.08073E-04-4.33380E-05-2.77141E-05 1.21611E-05-7.82314E-19-5.86425E-19
 -1      3897 9.46616E-05-2.75960E-05-2.87397E-05 4.85611E-07-9.31166E-20-3.06711E-18
 -1      3898 9.31579E-05-2.64071E-05-2.86130E-05-6.59987E-06 2.54545E-19-1.06485E-19
 -1      3899 9.23894E-05-2.58184E-05-2.85316E-05-6.14332E-06 1.73986E-19-2.70688E-19
 -1      3900 9.32495E-05-2.66343E-05-2.85342E-05-7.09938E-06 6.21491E-20-3.26506E-19
 -1      3901 9.46914E-05-2.69346E-05-2.90400E-05-4.41234E-06 3.15155E-19-1.11026E-19
 -1      3902 9.45145E-05-2.24840E-05-3.08537E-05 1.01468E-06 5.39356E-19-6.92023E-19
 -1      3903 9.73897E-05-3.43390E-05-2.71126E-05 1.31580E-05 1.06832E-18 5.63763E-19
 -1      3904 1.12728E-04-4.66400E-05-2.84133E-05-1.00119E-05-4.42217E-19 5.41162E-19
 -1      3905 1.09147E-04-4.38836E-05-2.78492E-05-1.16273E-05-2.49398E-19 9.69467E-19
 -1      3906 9.51319E-05-3.34747E-05-2.63283E-05 1.49750E-05 8.91218E-19-9.14243E-19
 -1      3907 8.98655E-05-3.22341E-05-2.47322E-05 1.90611E-05-4.21829E-20-1.57011E-18
 -1      3908 8.49950E-05-2.79806E-05-2.44989E-05 1.71306E-05 1.05886E-19-7.95787E-19
 -1      3909 9.28649E-05-3.10618E-05-2.64598E-05 1.40629E-05 8.18590E-19 5.54236E-20
 -1      3910 9.34868E-05-2.74129E-05-2.82969E-05-8.30191E-06-1.50195E-19-1.41255E-19
 -1      3911 9.31438E-05-2.68930E-05-2.83963E-05-7.76106E-06-9.43996E-20-1.18813E-19
 -1      3912 9.20102E-05-2.60718E-05-2.82652E-05-7.37594E-06 4.32445E-20 3.40536E-20
 -1      3913 9.20297E-05-2.68943E-05-2.79310E-05-8.86586E-06-3.12756E-19 3.29668E-19
 -1      3914 9.44189E-05-2.25020E-05-3.08371E-05 4.72994E-07 3.21987E-19-8.11008E-19
 -1      3915 9.43167E-05-2.22868E-05-3.08788E-05 2.41875E-07 1.96309E-19-8.91300E-19
 -1      3916 9.42648E-05-2.21900E-05-3.08995E-05 1.14746E-07 1.46103E-19-9.51443E-19
 -1      3917 9.42624E-05-2.21974E-05-3.09003E-05-1.46612E-07-6.06103E-20-9.22200E-19
 -1      3918 9.46807E-05-2.30812E-05-3.06676E-05 6.64167E-08 6.61424E-20-8.39114E-19
 -1      3919 9.43112E-05-2.72430E-05-2.87447E-05-4.76698E-08-5.28939E-19 4.10109E-19
 -1      3920 9.43149E-05-2.72502E-05-2.87439E-05 8.98817E-08-6.31175E-19 3.82032E-19
 -1      3921 5.38475E-05-1.30282E-05-1.71261E-05 3.21011E-06-1.93613E-19-1.78787E-18
 -1      3922 5.62292E-05-1.35328E-05-1.82190E-05-2.84574E-06-4.05721E-19-9.69853E-19
 -1      3923 5.88417E-05-1.47827E-05-1.87294E-05 7.21135E-06 1.32389E-19-1.30200E-18
 -1      3924 7.13854E-05-1.94717E-05-2.20756E-05 1.39965E-05-1.12876E-18 1.31169E-18
 -1      3925 7.06844E-05-1.78714E-05-2.26973E-05 9.51344E-06-8.09975E-19-2.30373E-19
 -1      3926 7.75469E-05-2.27473E-05-2.34655E-05 1.50344E-05-1.01572E-18 9.79653E-19
 -1      3927 9.55870E-05-2.63434E-05-2.96785E-05-1.42043E-06 2.94034E-19-4.77493E-19
 -1      3928 9.56161E-05-2.60901E-05-2.97914E-05-9.76472E-07 3.30460E-19-4.09860E-19
 -1      3929 9.54608E-05-2.61596E-05-2.96987E-05-1.45478E-06 2.11616E-19-3.32318E-19
 -1      3930 1.04561E-04-4.19603E-05-2.68585E-05-1.50996E-05-5.29121E-19 6.41852E-19
 -1      3931 9.37730E-05-2.63908E-05-2.88703E-05-5.13660E-06-1.90388E-19-1.73009E-20
 -1      3932 9.39039E-05-2.64352E-05-2.89208E-05-4.73114E-06-5.36212E-20-4.28830E-20
 -1      3933 9.29610E-05-2.58913E-05-2.87437E-05-5.12742E-06 6.10744E-20 2.17047E-20
 -1      3934 9.55807E-05-2.57216E-05-2.99409E-05-2.37456E-07 4.66240E-19-3.32766E-19
 -1      3935 6.61651E-05-1.47852E-05-2.18356E-05-2.73730E-06 3.24238E-20-7.25537E-20
 -1      3936 7.18022E-05-1.69649E-05-2.35090E-05-6.90820E-06 5.73312E-19-1.29856E-18
 -1      3937 7.41375E-05-1.72718E-05-2.44519E-05-5.76640E-06 5.77882E-19-1.77702E-18
 -1      3938 6.82892E-05-1.56064E-05-2.26128E-05 1.29022E-06-4.07635E-19-9.58725E-19
 -1      3939 9.43811E-05-2.72979E-05-2.87499E-05-3.46253E-07-9.73495E-19-2.64008E-18
 -1      3940 9.43329E-05-2.72616E-05-2.87474E-05-2.14880E-07-6.48014E-19-7.84349E-19
 -1      3941 9.41861E-05-2.70891E-05-2.87532E-05-1.45078E-07-8.64593E-19-5.68527E-19
 -1      3942 9.47300E-05-2.32466E-05-3.06438E-05-4.10140E-07-2.89368E-19-6.42153E-19
 -1      3943 9.85496E-05-3.86861E-05-2.55757E-05-1.86598E-05-8.06759E-19 2.45133E-19
 -1      3944 1.02466E-04-4.14381E-05-2.61664E-05-1.77450E-05-5.92640E-19 3.52346E-19
 -1      3945 9.41287E-05-2.57203E-05-2.93226E-05 1.83277E-06 3.93360E-19-8.74806E-19
 -1      3946 9.37059E-05-2.55425E-05-2.92170E-05 2.07546E-06 3.72802E-19-7.90065E-19
 -1      3947 9.31546E-05-2.52717E-05-2.90990E-05 2.22656E-06 2.90621E-19-7.34071E-19
 -1      3948 9.26013E-05-2.49563E-05-2.89954E-05 2.45432E-06 3.49335E-20-5.64689E-19
 -1      3949 9.32747E-05-2.52206E-05-2.91561E-05 1.60179E-06 3.42707E-19-1.04624E-18
 -1      3950 9.18982E-05-2.45568E-05-2.88694E-05 2.59204E-06-1.34300E-20-4.50099E-19
 -1      3951 9.12056E-05-2.41322E-05-2.87518E-05 2.81645E-06 1.37876E-19-5.13808E-19
 -1      3952 9.20361E-05-2.45580E-05-2.89063E-05 1.84602E-06 1.27496E-19-5.10968E-19
 -1      3953 9.03371E-05-2.36317E-05-2.85999E-05 2.94750E-06 3.12190E-20-5.89003E-19
 -1      3954 8.94886E-05-2.31268E-05-2.84488E-05 3.18010E-06-2.03274E-19-4.30727E-19
 -1      3955 9.04839E-05-2.36612E-05-2.86218E-05 2.04648E-06 4.31176E-20-4.58411E-19
 -1      3956 8.84300E-05-2.25551E-05-2.82483E-05 3.30793E-06-1.24831E-19-4.45106E-19
 -1      3957 8.73991E-05-2.20003E-05-2.80386E-05 3.56229E-06 1.96800E-19-2.70627E-19
 -1      3958 8.85858E-05-2.25873E-05-2.82625E-05 2.21114E-06 2.34609E-21-4.02431E-19
 -1      3959 8.60985E-05-2.13813E-05-2.77594E-05 3.69384E-06-1.96006E-19-4.61914E-19
 -1      3960 8.48447E-05-2.08084E-05-2.74581E-05 3.99958E-06-5.51612E-19-6.49531E-19
 -1      3961 8.62696E-05-2.13872E-05-2.77756E-05 2.33433E-06-1.16101E-19-5.26907E-19
 -1      3962 8.32186E-05-2.01624E-05-2.70593E-05 4.15943E-06-5.39267E-19-8.07960E-19
 -1      3963 8.16816E-05-1.96053E-05-2.66219E-05 4.58048E-06-5.95291E-19-9.27290E-19
 -1      3964 8.34022E-05-2.00916E-05-2.70895E-05 2.43774E-06-6.38329E-19-1.15025E-18
 -1      3965 7.95951E-05-1.89536E-05-2.60441E-05 4.82524E-06-4.53981E-19-1.13994E-18
 -1      3966 7.76862E-05-1.84564E-05-2.54053E-05 5.48327E-06-4.13192E-19-8.57633E-19
 -1      3967 7.97780E-05-1.87168E-05-2.61046E-05 2.56701E-06-6.17762E-19-1.21200E-18
 -1      3968 7.48699E-05-1.77761E-05-2.45506E-05 5.92114E-06-9.17029E-20-6.68775E-19
 -1      3969 7.24741E-05-1.74836E-05-2.36012E-05 7.08766E-06 1.98114E-20-6.03647E-19
 -1      3970 7.50435E-05-1.72488E-05-2.46637E-05 2.82356E-06-1.43516E-19-1.20311E-18
 -1      3971 9.57850E-05-3.51879E-05-2.59229E-05-1.66373E-05-4.32311E-19-1.41009E-19
 -1      3972 9.33213E-05-3.23927E-05-2.60775E-05-1.55553E-05-2.57059E-19-6.33852E-20
 -1      3973 7.73361E-05-1.79987E-05-2.54465E-05-5.13421E-06-6.86229E-20-2.55325E-18
 -1      3974 7.91634E-05-1.84666E-05-2.60706E-05-4.49951E-06-3.95937E-19-2.69973E-18
 -1      3975 8.11839E-05-1.90744E-05-2.66366E-05-4.21700E-06-4.00892E-19-3.18496E-18
 -1      3976 8.26519E-05-1.95885E-05-2.70627E-05-3.79172E-06-3.47122E-19-3.47019E-18
 -1      3977 7.92871E-05-1.81769E-05-2.61199E-05-2.28627E-06-7.48369E-19-3.82504E-18
 -1      3978 8.41911E-05-2.01888E-05-2.74453E-05-3.59404E-06-1.30829E-19-3.10835E-18
 -1      3979 8.53707E-05-2.07250E-05-2.77297E-05-3.26816E-06 8.20952E-20-2.63213E-18
 -1      3980 8.27469E-05-1.94638E-05-2.70760E-05-2.12915E-06-2.56030E-19-4.09911E-18
 -1      3981 8.65824E-05-2.13116E-05-2.79854E-05-3.10375E-06 3.53468E-19-2.60614E-18
 -1      3982 8.75316E-05-2.18400E-05-2.81707E-05-2.82777E-06 4.06298E-19-2.06775E-18
 -1      3983 8.54368E-05-2.06756E-05-2.77211E-05-1.98481E-06 3.62809E-19-3.11898E-18
 -1      3984 8.84955E-05-2.23940E-05-2.83385E-05-2.67046E-06-1.42542E-19-1.80398E-18
 -1      3985 8.92598E-05-2.28954E-05-2.84547E-05-2.42167E-06-1.94770E-20-1.72113E-18
 -1      3986 8.75687E-05-2.18243E-05-2.81508E-05-1.81890E-06 2.64421E-19-3.32062E-18
 -1      3987 9.00311E-05-2.34052E-05-2.85611E-05-2.26874E-06-2.28533E-20-1.43558E-18
 -1      3988 9.06420E-05-2.38629E-05-2.86298E-05-2.04033E-06 4.85727E-19-7.77111E-19
 -1      3989 8.92760E-05-2.28950E-05-2.84303E-05-1.62741E-06 3.57674E-19-2.48295E-18
 -1      3990 9.12602E-05-2.43211E-05-2.86933E-05-1.89274E-06 7.26865E-19-4.59068E-19
 -1      3991 9.17449E-05-2.47284E-05-2.87296E-05-1.68585E-06 1.02882E-18-3.27439E-19
 -1      3992 9.06472E-05-2.38682E-05-2.86051E-05-1.41088E-06 3.97679E-19-2.27585E-18
 -1      3993 9.22366E-05-2.51297E-05-2.87638E-05-1.54903E-06 1.80359E-18-6.09558E-19
 -1      3994 9.26171E-05-2.54823E-05-2.87786E-05-1.36557E-06 1.82362E-18-5.06440E-19
 -1      3995 9.17442E-05-2.47363E-05-2.87066E-05-1.19088E-06 1.41891E-18-2.22016E-18
 -1      3996 9.30046E-05-2.58260E-05-2.87933E-05-1.24259E-06 6.73108E-19-7.20364E-19
 -1      3997 9.32999E-05-2.61245E-05-2.87946E-05-1.08407E-06 1.50485E-19-4.45345E-19
 -1      3998 9.26144E-05-2.54913E-05-2.87584E-05-9.80584E-07 1.14004E-18-1.89974E-18
 -1      3999 9.36011E-05-2.64132E-05-2.87967E-05-9.75600E-07-1.45789E-19-1.70573E-19
 -1      4000 9.38291E-05-2.66623E-05-2.87898E-05-8.42497E-07-2.13906E-19 2.71577E-19
 -1      4001 9.32964E-05-2.61326E-05-2.87776E-05-7.86464E-07 3.52582E-20-1.16281E-19
 -1      4002 9.48113E-05-2.58274E-05-2.95698E-05 1.38877E-06 2.63949E-19-6.50985E-19
 -1      4003 9.45268E-05-2.58243E-05-2.94477E-05 1.66482E-06 3.66495E-19-6.75677E-19
 -1      4004 9.42151E-05-2.55873E-05-2.94042E-05 1.31752E-06 3.29902E-19-7.83918E-19
 -1      4005 1.17528E-04-4.85646E-05-2.95698E-05-5.96181E-06-6.89927E-19-3.23275E-19
 -1      4006 1.13530E-04-4.81727E-05-2.81251E-05-1.17744E-05-3.40391E-19 1.35493E-18
 -1      4007 9.25505E-05-3.49442E-05-2.47068E-05-2.00532E-05-9.04532E-19-3.00631E-19
 -1      4008 9.06520E-05-2.46780E-05-2.82861E-05 5.77395E-06-4.73645E-19 2.32568E-19
 -1      4009 9.05956E-05-2.48432E-05-2.81638E-05 6.43073E-06-1.43181E-18 5.80550E-19
 -1      4010 9.45386E-05-2.74547E-05-2.87510E-05 5.93384E-07-6.53247E-19-2.41957E-18
 -1      4011 9.44465E-05-2.73270E-05-2.87647E-05 7.27921E-07-6.65725E-19-2.59417E-18
 -1      4012 9.44343E-05-2.73577E-05-2.87495E-05 4.97215E-07-6.08490E-19-2.97580E-18
 -1      4013 9.02675E-05-2.50229E-05-2.79742E-05 7.25590E-06-1.88861E-18 1.21476E-18
 -1      4014 9.04310E-05-2.54839E-05-2.78110E-05 8.04232E-06-1.45106E-18 1.35432E-18
 -1      4015 8.90975E-05-2.40772E-05-2.78632E-05 6.57402E-06-1.30387E-18 1.38495E-18
 -1      4016 9.02835E-05-2.59975E-05-2.75606E-05 9.09955E-06-1.72857E-18 1.39511E-18
 -1      4017 9.08370E-05-2.69072E-05-2.73619E-05 1.00184E-05-1.00491E-18 5.26502E-19
 -1      4018 8.85741E-05-2.46636E-05-2.73983E-05 8.46965E-06-2.15484E-18 2.07318E-18
 -1      4019 9.12280E-05-2.47368E-05-2.85072E-05 4.57908E-06 3.85570E-21 6.10123E-19
 -1      4020 9.10535E-05-2.47100E-05-2.84227E-05 5.12295E-06-3.92349E-19 2.19224E-19
 -1      4021 8.98467E-05-2.40174E-05-2.82066E-05 5.11691E-06-5.62186E-19 5.73196E-19
 -1      4022 9.18609E-05-2.50254E-05-2.86539E-05 3.61551E-06-6.88825E-19 1.36030E-18
 -1      4023 9.16395E-05-2.48909E-05-2.86003E-05 4.06811E-06-4.80934E-20 1.33316E-18
 -1      4024 9.06705E-05-2.42783E-05-2.84479E-05 3.98650E-06-4.04980E-19 1.16529E-18
 -1      4025 9.24838E-05-2.54389E-05-2.87422E-05 2.83266E-06-5.68228E-19 1.96202E-19
 -1      4026 9.22531E-05-2.52467E-05-2.87129E-05 3.20715E-06-3.57945E-19 1.00179E-18
 -1      4027 9.14752E-05-2.47058E-05-2.86087E-05 3.09762E-06 1.00515E-20 9.34895E-19
 -1      4028 9.30523E-05-2.58983E-05-2.87876E-05 2.19969E-06-1.03415E-18-7.44585E-19
 -1      4029 9.28355E-05-2.56856E-05-2.87757E-05 2.50795E-06-5.39455E-19-4.02265E-19
 -1      4030 9.22178E-05-2.52197E-05-2.87070E-05 2.39574E-06-2.36535E-20-1.94491E-19
 -1      4031 9.35465E-05-2.63534E-05-2.88030E-05 1.69029E-06 1.56366E-19-2.55527E-18
 -1      4032 9.33555E-05-2.61438E-05-2.88030E-05 1.94168E-06-4.26952E-19-1.54147E-18
 -1      4033 9.28697E-05-2.57495E-05-2.87601E-05 1.84110E-06 1.27536E-19-9.88858E-19
 -1      4034 9.39595E-05-2.67731E-05-2.87986E-05 1.28208E-06 1.71369E-18-3.77423E-18
 -1      4035 9.37984E-05-2.65798E-05-2.88062E-05 1.48515E-06 1.15895E-18-2.90322E-18
 -1      4036 9.34214E-05-2.62540E-05-2.87818E-05 1.40280E-06 1.02243E-18-2.50396E-18
 -1      4037 9.45145E-05-2.27510E-05-3.07736E-05-4.51449E-07-2.25496E-19-6.37257E-19
 -1      4038 9.50800E-05-2.41194E-05-3.03959E-05 1.10355E-08-2.38036E-19-5.50173E-19
 -1      4039 9.51876E-05-2.47576E-05-3.01917E-05 2.74002E-07-1.86668E-19-4.91633E-19
 -1      4040 9.52134E-05-2.52022E-05-3.00055E-05 6.53710E-07-1.03531E-19-5.94921E-19
 -1      4041 9.50107E-05-2.42718E-05-3.03105E-05 1.35785E-07-1.23460E-19-5.53554E-19
 -1      4042 7.41795E-05-2.37990E-05-2.13515E-05 2.04447E-05 3.17505E-19 1.06435E-19
 -1      4043 9.08783E-05-2.76476E-05-2.70526E-05-1.11340E-05-1.14937E-19 1.30018E-19
 -1      4044 9.02435E-05-2.66245E-05-2.72820E-05-1.01626E-05-1.35979E-19 4.24501E-19
 -1      4045 9.09478E-05-2.78579E-05-2.70395E-05 1.13671E-05-4.04904E-19 8.63138E-20
 -1      4046 9.21280E-05-2.94034E-05-2.68291E-05 1.23943E-05 2.07565E-19 9.60406E-20
 -1      4047 8.91332E-05-2.84458E-05-2.60318E-05 1.41176E-05 1.19405E-19-6.22552E-19
 -1      4048 8.84514E-05-2.59808E-05-2.67875E-05 1.09167E-05-1.17284E-18 3.53083E-19
 -1      4049 9.42302E-05-2.65566E-05-2.89975E-05-4.33451E-06-4.53740E-21-2.93635E-19
 -1      4050 9.43927E-05-2.66277E-05-2.90466E-05-3.96136E-06 1.49801E-19-5.03878E-19
 -1      4051 9.42339E-05-2.63632E-05-2.90855E-05-3.52391E-06 1.50535E-19-5.24368E-19
 -1      4052 9.44745E-05-2.73775E-05-2.87584E-05-5.43167E-07-4.30192E-19-7.15224E-19
 -1      4053 9.43273E-05-2.72597E-05-2.87449E-05 2.34584E-07-5.69754E-19-6.89529E-19
 -1      4054 9.43773E-05-2.73074E-05-2.87459E-05 3.61648E-07-1.81675E-19-2.35679E-18
 -1      4055 9.42491E-05-2.71422E-05-2.87563E-05 4.69008E-07 9.06471E-20-2.37936E-18
 -1      4056 9.41778E-05-2.70830E-05-2.87515E-05 1.77449E-07-3.95640E-19-3.54889E-20
 -1      4057 9.54594E-05-2.50691E-05-3.01614E-05 1.60699E-07 5.83306E-19-3.35166E-19
 -1      4058 9.51694E-05-2.42032E-05-3.04101E-05 5.02090E-07 5.93699E-19-4.60134E-19
 -1      4059 9.55517E-05-2.56426E-05-2.99687E-05-5.00096E-07 3.89142E-19-3.27860E-19
 -1      4060 9.24174E-05-3.05170E-05-2.64658E-05-1.37333E-05-6.38650E-20 8.34096E-20
 -1      4061 9.10412E-05-2.87674E-05-2.66967E-05-1.26428E-05-5.06082E-20 7.25421E-20
 -1      4062 8.92709E-05-2.95751E-05-2.55969E-05-1.56669E-05-1.46611E-19-2.56896E-19
 -1      4063 9.44056E-05-2.25261E-05-3.08147E-05-2.23003E-07-8.04675E-20-8.21198E-19
 -1      4064 9.51541E-05-2.55190E-05-2.98499E-05 8.59328E-07-8.80669E-20-6.01951E-19
 -1      4065 9.50137E-05-2.57187E-05-2.97002E-05 1.17810E-06 6.32964E-20-5.80491E-19
 -1      4066 9.48000E-05-2.55655E-05-2.96639E-05 9.47839E-07 1.95928E-19-2.05430E-19
 -1      4067 9.50622E-05-2.51587E-05-2.99513E-05 5.41741E-07 1.29684E-20-4.95983E-19
 -1      4068 1.06796E-04-4.50066E-05-2.63284E-05-1.78773E-05-6.78341E-19 1.06327E-18
 -1      4069 9.50074E-05-2.62918E-05-2.94510E-05-2.03727E-06 1.71440E-19-5.53949E-19
 -1      4070 9.51823E-05-2.61923E-05-2.95690E-05-1.68449E-06 1.76328E-19-3.05473E-19
 -1      4071 9.49937E-05-2.37372E-05-3.05498E-05 5.82517E-07 4.84991E-19-4.70064E-19
 -1      4072 9.46138E-05-2.28874E-05-3.07383E-05 5.07410E-07 3.83913E-19-6.67517E-19
 -1      4073 9.49142E-05-2.35932E-05-3.05467E-05 1.47849E-07 2.65695E-19-5.36202E-19
 -1      4074 9.52497E-05-2.44994E-05-3.03134E-05 7.75646E-09 5.07313E-19-3.31728E-19
 -1      4075 9.43070E-05-2.71862E-05-2.87650E-05-5.30018E-07-6.78076E-19-1.00947E-18
 -1      4076 5.99077E-05-1.46538E-05-1.91263E-05-7.56120E-06-6.77775E-19-4.22286E-19
 -1      4077 6.47147E-05-1.69507E-05-2.04249E-05-1.12452E-05-8.65714E-19-3.46331E-19
 -1      4078 6.13151E-05-1.45387E-05-2.00348E-05-2.76369E-06-4.35071E-19-5.08524E-19
 -1      4079 6.89248E-05-1.67048E-05-2.23914E-05 7.75275E-06-5.73071E-20-8.49160E-19
 -1      4080 6.14381E-05-1.50845E-05-1.97904E-05 7.74808E-06 4.22458E-20-1.14527E-18
 -1      4081 6.85241E-05-1.55438E-05-2.25284E-05 3.12521E-06-1.08096E-20-8.99422E-19
 -1      4082 9.47537E-05-2.33011E-05-3.06061E-05-5.75862E-08-5.84663E-20-8.23933E-19
 -1      4083 9.40594E-05-2.68975E-05-2.87845E-05-7.51076E-07-2.04519E-19-1.30153E-18
 -1      4084 9.42295E-05-2.70966E-05-2.87731E-05-6.42075E-07-3.80310E-19-1.15363E-18
 -1      4085 7.21217E-05-2.22320E-05-2.13944E-05-1.77792E-05-1.06461E-18-6.80962E-19
 -1      4086 7.58779E-05-2.53956E-05-2.14367E-05-2.13843E-05-8.80279E-19-4.06960E-19
 -1      4087 8.28411E-05-2.89012E-05-2.30822E-05-2.05991E-05-8.02448E-19-6.42385E-19
 -1      4088 9.36030E-05-2.61165E-05-2.89212E-05-4.27069E-06-1.37431E-19-2.91791E-19
 -1      4089 9.54936E-05-2.55272E-05-2.99925E-05-6.19533E-07 5.03647E-19-3.92235E-19
 -1      4090 8.62337E-05-2.69028E-05-2.53699E-05 1.45638E-05-8.43228E-20 5.66135E-19
 -1      4091 8.16036E-05-2.48468E-05-2.42704E-05 1.55829E-05-7.29701E-19 1.08298E-18
 -1      4092 7.88657E-05-2.21317E-05-2.44049E-05 1.26169E-05-1.29526E-18 1.76227E-18
 -1      4093 8.55900E-05-2.55033E-05-2.58030E-05 1.27482E-05-3.54654E-19 4.50164E-19
 -1      4094 9.51434E-05-2.58426E-05-2.96959E-05-1.29566E-06 2.33970E-19-1.18160E-19
 -1      4095 9.53351E-05-2.60079E-05-2.97147E-05-1.38575E-06 2.20519E-19-2.92738E-19
 -1      4096 9.43628E-05-2.72210E-05-2.87744E-05 8.35509E-07-2.04891E-19-2.60902E-18
 -1      4097 9.41076E-05-2.69151E-05-2.87947E-05 1.15089E-06 1.08257E-18-3.91101E-18
 -1      4098 9.38120E-05-2.66479E-05-2.87826E-05 1.08216E-06 1.11861E-18-3.43303E-18
 -1      4099 9.41948E-05-2.70361E-05-2.87855E-05 1.01283E-06 5.80970E-19-3.33440E-18
 -1      4100 9.48838E-05-2.38166E-05-3.04648E-05-1.50954E-08-4.47658E-20-8.01449E-19
 -1      4101 9.48299E-05-2.37284E-05-3.04842E-05-5.63708E-08-6.27210E-21-9.66581E-19
 -1      4102 9.41255E-05-2.70154E-05-2.87633E-05-4.27689E-07-6.11902E-20-2.60982E-18
 -1      4103 8.82934E-05-2.66507E-05-2.64198E-05-1.21385E-05-9.12318E-21 2.50119E-19
 -1      4104 9.54086E-05-2.57985E-05-2.98369E-05-1.04379E-06 3.12915E-19-1.88808E-19
 -1      4105 9.04836E-05-2.60612E-05-2.75787E-05-9.00071E-06-2.71429E-19 5.10013E-19
 -1      4106 9.02895E-05-2.55378E-05-2.77773E-05-8.19917E-06-2.43989E-19 5.42072E-19
 -1      4107 8.84586E-05-2.51502E-05-2.71201E-05-9.41890E-06-1.62054E-19 3.73637E-19
 -1      4108 9.21602E-05-2.53535E-05-2.86234E-05-4.88738E-06 7.87709E-20-3.07791E-19
 -1      4109 9.24751E-05-2.54723E-05-2.87251E-05-4.43337E-06-1.19629E-19-2.65874E-19
 -1      4110 7.42665E-05-1.66888E-05-2.45650E-05-2.70596E-06-1.30302E-19-2.31328E-18
 -1      4111 7.43874E-05-1.84832E-05-2.39688E-05 7.88655E-06-7.87693E-19-2.99394E-19
 -1      4112 7.05151E-05-1.62424E-05-2.31049E-05 5.12232E-06-8.30329E-19-1.21694E-18
 -1      4113 7.21194E-05-1.64569E-05-2.39109E-05 7.45025E-07-3.05974E-19-1.35774E-18
 -1      4114 9.39870E-05-2.68920E-05-2.87547E-05 1.13166E-07-1.09195E-19-2.31333E-19
 -1      4115 9.39959E-05-2.69058E-05-2.87557E-05 2.64223E-07 4.20306E-20-8.03611E-19
 -1      4116 9.44718E-05-2.62592E-05-2.92334E-05-2.65387E-06 2.99073E-19-5.96037E-19
 -1      4117 9.47253E-05-2.62962E-05-2.93302E-05-2.31960E-06 2.02866E-19-5.83037E-19
 -1      4118 9.47068E-05-2.60379E-05-2.94246E-05-1.86314E-06 2.98478E-19-2.07808E-19
 -1      4119 9.40427E-05-2.69370E-05-2.87590E-05-2.55283E-07-7.32467E-19-1.42144E-18
 -1      4120 9.40124E-05-2.69225E-05-2.87558E-05-7.88145E-08-4.69753E-19-2.02696E-19
 -1      4121 9.38335E-05-2.67228E-05-2.87597E-05 3.10815E-09-4.08200E-19-9.23934E-19
 -1      4122 9.39495E-05-2.68288E-05-2.87656E-05-3.67473E-07 8.93230E-20-1.08652E-18
 -1      4123 9.13752E-05-2.51858E-05-2.83539E-05-5.94668E-06 5.15341E-20-3.41901E-19
 -1      4124 9.16305E-05-2.52046E-05-2.84794E-05-5.40517E-06 5.81448E-20-2.81022E-19
 -1      4125 9.11748E-05-2.47495E-05-2.84601E-05-4.68803E-06-6.41801E-20-5.31243E-19
 -1      4126 9.38241E-05-2.66718E-05-2.87759E-05-6.15368E-07-4.64485E-19-8.79594E-19
 -1      4127 9.48522E-05-2.38038E-05-3.04479E-05-1.26972E-08 4.42429E-20-9.87580E-19
 -1      4128 9.49488E-05-2.41173E-05-3.03687E-05 6.80104E-09 4.91413E-20-8.11980E-19
 -1      4129 9.50635E-05-2.46790E-05-3.01640E-05 2.06783E-07-2.95386E-20-5.32113E-19
 -1      4130 9.50445E-05-2.44161E-05-3.02550E-05-6.18885E-08-6.80886E-20-8.31838E-19
 -1      4131 9.01771E-05-2.38946E-05-2.84240E-05 3.20965E-06-1.33670E-19 5.70765E-19
 -1      4132 8.97662E-05-2.36787E-05-2.83206E-05 3.67773E-06-9.93274E-20 5.77248E-19
 -1      4133 9.22794E-05-2.47250E-05-2.89578E-05 1.06349E-06 3.03623E-19-6.32531E-19
 -1      4134 9.15680E-05-2.43350E-05-2.88254E-05 1.13739E-06 2.58427E-19-5.30156E-19
 -1      4135 9.07724E-05-2.38857E-05-2.86740E-05 1.12090E-06-3.43683E-20-4.17569E-19
 -1      4136 8.99002E-05-2.33966E-05-2.85150E-05 1.16514E-06-1.31315E-19-4.28793E-19
 -1      4137 9.11179E-05-2.40298E-05-2.87271E-05 3.31369E-07 2.33982E-19-7.63431E-19
 -1      4138 8.89377E-05-2.28696E-05-2.83257E-05 1.10387E-06-4.13125E-20-4.97095E-19
 -1      4139 8.78851E-05-2.23136E-05-2.81172E-05 1.11290E-06-7.74981E-20-4.86278E-19
 -1      4140 8.93799E-05-2.30777E-05-2.83832E-05 1.34476E-07-1.49883E-19-4.03774E-19
 -1      4141 8.67187E-05-2.17345E-05-2.78649E-05 9.75867E-07-3.00150E-19-9.12489E-19
 -1      4142 8.54204E-05-2.11268E-05-2.75771E-05 9.43682E-07-4.73537E-19-1.21829E-18
 -1      4143 8.73044E-05-2.20235E-05-2.79418E-05-2.05643E-07-3.96107E-19-5.51131E-19
 -1      4144 8.39996E-05-2.05078E-05-2.72294E-05 6.91824E-07-4.72192E-19-1.22604E-18
 -1      4145 8.23334E-05-1.98482E-05-2.68208E-05 6.12910E-07-5.37037E-19-1.01226E-18
 -1      4146 8.48137E-05-2.09067E-05-2.73457E-05-7.33536E-07-5.18804E-19-1.06182E-18
 -1      4147 8.05706E-05-1.92017E-05-2.63294E-05 2.94639E-07-4.83901E-19-8.86049E-19
 -1      4148 7.84408E-05-1.85119E-05-2.57400E-05 1.78427E-07-5.35947E-19-8.21792E-19
 -1      4149 8.16118E-05-1.95976E-05-2.65022E-05-1.53577E-06-4.15565E-19-9.85831E-19
 -1      4150 7.61291E-05-1.78477E-05-2.50271E-05-2.79198E-07-3.95293E-19-5.46134E-19
 -1      4151 7.32972E-05-1.71047E-05-2.41524E-05-4.13660E-07 2.41744E-20-5.60792E-19
 -1      4152 7.76092E-05-1.82951E-05-2.53058E-05-2.81347E-06-4.52761E-19-3.84626E-19
 -1      4153 9.37815E-05-2.60173E-05-2.90390E-05-3.29433E-06 2.27766E-20-3.85492E-19
 -1      4154 9.40875E-05-2.61402E-05-2.91258E-05-2.94809E-06 2.33519E-19-5.30271E-19
 -1      4155 9.40431E-05-2.59221E-05-2.91898E-05-2.42433E-06 1.98245E-19-4.36224E-19
 -1      4156 8.88605E-05-3.18762E-05-2.43183E-05-1.96321E-05-7.74779E-19-4.72901E-19
 -1      4157 9.43448E-05-2.55783E-05-2.94781E-05 7.78295E-07 1.79965E-19-3.88172E-19
 -1      4158 9.39528E-05-2.54869E-05-2.93476E-05 9.20050E-07 2.75316E-19-6.93599E-19
 -1      4159 8.17206E-05-1.92336E-05-2.68100E-05-4.46547E-07-6.41911E-19-1.88004E-18
 -1      4160 8.32491E-05-1.98183E-05-2.72022E-05-4.86138E-07 2.46792E-19-1.71870E-18
 -1      4161 8.45868E-05-2.04124E-05-2.75275E-05-6.91728E-07 2.56691E-19-1.82204E-18
 -1      4162 8.57962E-05-2.09893E-05-2.77909E-05-7.14626E-07 1.84553E-19-2.14529E-18
 -1      4163 8.39544E-05-2.01669E-05-2.73033E-05 8.39140E-07 6.16185E-20-1.03172E-18
 -1      4164 8.68704E-05-2.15395E-05-2.80128E-05-8.47244E-07 9.32690E-20-2.49324E-18
 -1      4165 8.78219E-05-2.20808E-05-2.81870E-05-8.28646E-07 1.52228E-19-2.24094E-18
 -1      4166 8.63246E-05-2.12641E-05-2.78475E-05 3.66517E-07-1.27053E-19-1.60929E-18
 -1      4167 8.86792E-05-2.25999E-05-2.83344E-05-8.72564E-07 5.06117E-19-3.10710E-18
 -1      4168 8.94574E-05-2.31028E-05-2.84466E-05-8.23371E-07 6.46477E-19-2.65141E-18
 -1      4169 8.81636E-05-2.22656E-05-2.82117E-05 5.84078E-08-3.65551E-19-2.18713E-18
 -1      4170 9.01551E-05-2.35874E-05-2.85407E-05-8.37181E-07 4.24165E-19-2.65257E-18
 -1      4171 9.07799E-05-2.40441E-05-2.86087E-05-7.70002E-07 1.16384E-18-2.63732E-18
 -1      4172 8.97279E-05-2.32623E-05-2.84555E-05-1.34736E-07 6.79300E-19-2.97126E-18
 -1      4173 9.13426E-05-2.44766E-05-2.86652E-05-7.58406E-07 1.59306E-18-2.85580E-18
 -1      4174 9.18394E-05-2.48806E-05-2.87029E-05-6.81706E-07 1.41388E-18-2.34347E-18
 -1      4175 9.09791E-05-2.41711E-05-2.86082E-05-2.28677E-07 1.22187E-18-3.19856E-18
 -1      4176 9.22908E-05-2.52599E-05-2.87336E-05-6.53454E-07 1.63923E-18-2.11599E-18
 -1      4177 9.26868E-05-2.56107E-05-2.87509E-05-5.73223E-07 1.49522E-18-2.04579E-18
 -1      4178 9.19814E-05-2.49832E-05-2.86975E-05-2.61102E-07 1.71727E-18-3.10880E-18
 -1      4179 9.30442E-05-2.59370E-05-2.87642E-05-5.51145E-07 4.81252E-19-1.12908E-18
 -1      4180 9.33516E-05-2.62296E-05-2.87686E-05-4.72923E-07-6.60949E-19-2.33193E-19
 -1      4181 9.28029E-05-2.57179E-05-2.87446E-05-2.40394E-07 1.22041E-18-1.47861E-18
 -1      4182 9.53371E-05-2.50532E-05-3.01227E-05-4.60970E-07 3.76831E-19-2.45356E-19
 -1      4183 9.41320E-05-2.70014E-05-2.87699E-05 7.74688E-07-1.10250E-19-2.29150E-18
 -1      4184 8.79909E-05-2.31576E-05-2.78075E-05 5.51120E-06-1.22582E-18 9.60567E-19
 -1      4185 8.76499E-05-2.32229E-05-2.75983E-05 6.29412E-06-1.36946E-18 1.13847E-18
 -1      4186 8.68769E-05-2.32195E-05-2.73037E-05 7.25193E-06-1.78884E-18 1.13178E-18
 -1      4187 8.66965E-05-2.35870E-05-2.70223E-05 8.33605E-06-1.94093E-18 1.16909E-18
 -1      4188 8.58739E-05-2.22348E-05-2.72571E-05 6.08557E-06-1.71385E-18-1.07804E-18
 -1      4189 9.11567E-05-2.44809E-05-2.85897E-05 2.44730E-06-1.34497E-19 6.00229E-19
 -1      4190 9.07703E-05-2.42068E-05-2.85238E-05 2.80749E-06-7.11280E-20 1.01160E-18
 -1      4191 8.99520E-05-2.36079E-05-2.84064E-05 2.50870E-06-4.14029E-20 2.77843E-19
 -1      4192 9.20104E-05-2.50912E-05-2.86907E-05 1.86314E-06 1.57720E-19 3.98624E-19
 -1      4193 9.16624E-05-2.48030E-05-2.86524E-05 2.14702E-06 3.34758E-20 8.73738E-19
 -1      4194 9.10303E-05-2.43013E-05-2.85743E-05 1.88110E-06 3.64481E-19 9.06057E-19
 -1      4195 9.27407E-05-2.56851E-05-2.87454E-05 1.40649E-06 8.16846E-19-8.96735E-19
 -1      4196 9.24345E-05-2.54038E-05-2.87267E-05 1.63282E-06 8.50559E-19-1.97635E-20
 -1      4197 9.19385E-05-2.49827E-05-2.86770E-05 1.40868E-06 8.44360E-19-5.76462E-21
 -1      4198 9.33386E-05-2.62209E-05-2.87692E-05 1.05813E-06 1.49509E-18-1.88959E-18
 -1      4199 9.30844E-05-2.59693E-05-2.87634E-05 1.24040E-06 1.19145E-18-1.71691E-18
 -1      4200 9.27073E-05-2.56503E-05-2.87362E-05 1.02314E-06 1.82645E-18-1.63203E-18
 -1      4201 9.49707E-05-2.39820E-05-3.04276E-05-6.44734E-08 8.74381E-20-5.47796E-19
 -1      4202 9.51126E-05-2.44861E-05-3.02566E-05-2.39168E-07 1.78867E-20-5.92428E-19
 -1      4203 9.49694E-05-2.57866E-05-2.96531E-05-1.16053E-06 1.88584E-19-4.58435E-20
 -1      4204 9.51240E-05-2.55904E-05-2.98041E-05-8.75265E-07 2.32088E-19-1.96006E-19
 -1      4205 8.45825E-05-2.87266E-05-2.39882E-05-1.85342E-05-6.96115E-19-4.56276E-19
 -1      4206 9.37178E-05-2.65941E-05-2.87701E-05-4.31223E-07-1.28081E-18-3.46796E-19
 -1      4207 7.79744E-05-1.79727E-05-2.57609E-05-7.50207E-09-6.78626E-19-1.80730E-18
 -1      4208 8.00084E-05-1.86421E-05-2.63320E-05-7.31922E-08-6.56619E-19-1.80374E-18
 -1      4209 8.10170E-05-1.91143E-05-2.65096E-05 1.70478E-06-2.50902E-19-7.53342E-19
 -1      4210 7.53323E-05-1.72684E-05-2.49311E-05 6.84937E-07-5.56911E-19-2.19031E-18
 -1      4211 9.22210E-05-2.51597E-05-2.87345E-05-3.76850E-06-1.92804E-19-7.91158E-19
 -1      4212 9.29916E-05-2.56768E-05-2.88439E-05-4.01981E-06-2.65995E-19-2.79640E-19
 -1      4213 9.33195E-05-2.58280E-05-2.89324E-05-3.63344E-06-2.07454E-19-3.73947E-19
 -1      4214 8.91234E-05-2.34243E-05-2.81717E-05 4.19064E-06-1.64156E-20 9.22266E-19
 -1      4215 8.87088E-05-2.32974E-05-2.80218E-05 4.79796E-06-6.01728E-19 1.28673E-18
 -1      4216 8.73640E-05-2.24939E-05-2.77843E-05 4.48211E-06-8.71394E-19-7.44529E-19
 -1      4217 8.87369E-05-2.30289E-05-2.81585E-05 3.37236E-06 3.05760E-19-1.04723E-18
 -1      4218 9.07537E-05-2.53357E-05-2.80128E-05-7.27638E-06-3.29464E-19 3.69018E-19
 -1      4219 9.08566E-05-2.51581E-05-2.81719E-05-6.61859E-06-1.05506E-19 4.15903E-20
 -1      4220 8.91005E-05-2.44788E-05-2.76757E-05-7.39049E-06-3.02543E-19 1.65372E-19
 -1      4221 8.51585E-05-2.72338E-05-2.47692E-05-1.58404E-05-4.26292E-20-4.33052E-19
 -1      4222 8.43015E-05-2.55698E-05-2.52540E-05-1.37972E-05 4.28284E-19-3.26708E-19
 -1      4223 7.96888E-05-2.43579E-05-2.36375E-05-1.62818E-05-2.74899E-19-2.69335E-19
 -1      4224 9.40075E-05-2.69054E-05-2.87588E-05 4.49843E-07 2.37511E-19-1.62781E-18
 -1      4225 9.40644E-05-2.69566E-05-2.87628E-05 5.93881E-07-2.36879E-20-2.17769E-18
 -1      4226 9.38891E-05-2.67502E-05-2.87716E-05 7.67410E-07-2.25810E-19-2.26911E-18
 -1      4227 9.38148E-05-2.66982E-05-2.87613E-05 3.90239E-07 5.69538E-19-1.62571E-18
 -1      4228 9.51432E-05-2.44073E-05-3.03284E-05-1.03632E-07 2.97058E-19-2.67419E-19
 -1      4229 8.53642E-05-2.48906E-05-2.58719E-05-1.17497E-05 2.02725E-19-2.33919E-19
 -1      4230 8.52443E-05-2.40808E-05-2.62822E-05-1.02386E-05 2.23217E-20-8.84318E-20
 -1      4231 8.14806E-05-2.26671E-05-2.51277E-05-1.15663E-05 4.67522E-19-4.99101E-19
 -1      4232 9.34639E-05-2.53078E-05-2.92152E-05 9.54583E-07 3.43598E-19-8.12201E-19
 -1      4233 9.29179E-05-2.50494E-05-2.90917E-05 1.06656E-06 2.39247E-19-7.80497E-19
 -1      4234 9.36598E-05-2.53012E-05-2.92851E-05 4.07563E-07 1.68792E-19-7.27177E-19
 -1      4235 9.53793E-05-2.53189E-05-3.00194E-05-6.91449E-07 2.84366E-19-1.79436E-19
 -1      4236 9.52384E-05-2.51621E-05-3.00296E-05-6.53724E-07 3.15641E-19-1.35358E-19
 -1      4237 9.51804E-05-2.53330E-05-2.99304E-05-7.01250E-07 2.37276E-19-2.33740E-19
 -1      4238 9.51422E-05-2.48961E-05-3.01129E-05-3.89103E-07 1.72606E-19-3.62891E-19
 -1      4239 9.50631E-05-2.47335E-05-3.01470E-05-2.62549E-07-1.19166E-21-6.60250E-19
 -1      4240 9.50332E-05-2.53174E-05-2.98805E-05-5.66713E-07 1.37848E-19-3.13345E-19
 -1      4241 9.25743E-05-2.48313E-05-2.90167E-05 4.05017E-07 4.41109E-19-7.68377E-19
 -1      4242 7.03569E-05-1.63321E-05-2.31749E-05-1.06636E-06 1.08493E-19-2.56543E-19
 -1      4243 6.65395E-05-1.55578E-05-2.18821E-05-1.49495E-06-1.11329E-19-1.23839E-19
 -1      4244 7.25630E-05-1.70932E-05-2.36482E-05-4.36542E-06 7.95781E-20-1.50530E-20
 -1      4245 6.94054E-05-1.89754E-05-2.14603E-05-1.38294E-05-6.60593E-19-2.89249E-19
 -1      4246 7.55166E-05-2.23192E-05-2.27422E-05-1.54344E-05-6.85387E-19-4.58721E-19
 -1      4247 7.62799E-05-2.13130E-05-2.36283E-05-1.27426E-05 1.52620E-19-3.72278E-19
 -1      4248 6.84012E-05-1.74618E-05-2.18501E-05-9.83860E-06-4.39680E-19-2.11427E-19
 -1      4249 9.50231E-05-2.47433E-05-3.01206E-05-1.15094E-07 1.07421E-20-9.16709E-19
 -1      4250 9.50216E-05-2.48259E-05-3.00862E-05 1.63563E-08 8.82044E-20-8.13414E-19
 -1      4251 9.50564E-05-2.50737E-05-2.99820E-05-2.29008E-07 1.20291E-19-7.89971E-19
 -1      4252 9.31988E-05-2.55931E-05-2.89686E-05-3.04011E-06-4.66480E-20-3.93467E-19
 -1      4253 7.68659E-05-1.78162E-05-2.52217E-05 3.04261E-06-3.26143E-19-1.23776E-18
 -1      4254 9.46380E-05-2.55650E-05-2.96044E-05 6.74723E-07 2.05256E-19-3.54507E-19
 -1      4255 9.44228E-05-2.54591E-05-2.95460E-05 2.96986E-07 1.00452E-19-6.70169E-19
 -1      4256 9.48389E-05-2.54688E-05-2.97366E-05 4.74400E-07 2.13135E-19-3.61698E-19
 -1      4257 9.50507E-05-2.49811E-05-3.00345E-05 1.69724E-07 5.48210E-20-6.14457E-19
 -1      4258 9.35236E-05-2.64079E-05-2.87610E-05-2.08722E-07-4.21637E-19-1.03869E-18
 -1      4259 9.47188E-05-2.58738E-05-2.95081E-05-1.34359E-06 3.78027E-19-1.48742E-19
 -1      4260 9.47389E-05-2.56444E-05-2.96070E-05-9.20641E-07 3.30450E-19-3.47734E-19
 -1      4261 9.44308E-05-2.58797E-05-2.93813E-05-1.61259E-06 4.24845E-19-3.03943E-19
 -1      4262 6.17840E-05-1.42257E-05-2.02124E-05 2.36297E-06-9.41629E-20-6.76859E-19
 -1      4263 9.35464E-05-2.64082E-05-2.87728E-05 9.46250E-07 9.71356E-19-2.02117E-18
 -1      4264 9.32536E-05-2.61410E-05-2.87581E-05 7.80681E-07 8.79778E-19-1.77981E-18
 -1      4265 9.36974E-05-2.65746E-05-2.87707E-05 8.22973E-07 2.78540E-20-2.00205E-18
 -1      4266 8.35864E-05-2.21618E-05-2.62544E-05-8.33790E-06-1.86260E-19-6.60115E-19
 -1      4267 8.62888E-05-2.38197E-05-2.67464E-05-8.80211E-06-2.05529E-19-1.87907E-19
 -1      4268 8.65149E-05-2.34679E-05-2.70697E-05-7.68407E-06-3.07406E-19-2.52712E-19
 -1      4269 9.49864E-05-2.52668E-05-2.98797E-05 3.51864E-07 2.82944E-19-4.53349E-19
 -1      4270 9.01199E-05-2.44732E-05-2.81169E-05-5.86630E-06-2.01443E-19-1.29844E-19
 -1      4271 9.01943E-05-2.41412E-05-2.83150E-05-4.21708E-06-2.67138E-19-7.49232E-19
 -1      4272 9.07581E-05-2.43625E-05-2.84737E-05-3.71322E-06-2.01334E-19-1.06200E-18
 -1      4273 8.60654E-05-2.39685E-05-2.66469E-05 9.58870E-06-2.19666E-18 1.50052E-18
 -1      4274 8.61041E-05-2.46754E-05-2.62817E-05 1.09678E-05-1.35862E-18 4.63226E-19
 -1      4275 8.32297E-05-2.32719E-05-2.56660E-05 1.13057E-05-1.00241E-18 1.43811E-18
 -1      4276 8.44199E-05-2.24722E-05-2.65721E-05 8.31779E-06-1.68802E-18 5.91157E-19
 -1      4277 6.71890E-05-1.60679E-05-2.17666E-05-6.40657E-06-3.66137E-19-1.57181E-19
 -1      4278 6.39869E-05-1.51164E-05-2.09553E-05-1.93788E-06-4.39296E-19-3.26319E-19
 -1      4279 9.15029E-05-2.46807E-05-2.86348E-05-3.30884E-06 5.72355E-20-1.11916E-18
 -1      4280 9.20277E-05-2.49413E-05-2.87629E-05-2.93165E-06 7.63374E-20-7.24617E-19
 -1      4281 9.06484E-05-2.40821E-05-2.85031E-05-2.82575E-06 1.14937E-20-9.49903E-19
 -1      4282 7.73075E-05-1.98953E-05-2.45296E-05 9.67561E-06-9.08024E-19 8.69908E-19
 -1      4283 7.63189E-05-1.85279E-05-2.48567E-05 5.94981E-06-5.95828E-19-3.10118E-19
 -1      4284 7.90314E-05-1.90546E-05-2.56969E-05 4.74099E-06-1.22654E-20 2.78168E-19
 -1      4285 8.07024E-05-2.17553E-05-2.52370E-05 1.03253E-05-7.66270E-19 1.75553E-18
 -1      4286 9.34740E-05-2.63779E-05-2.87585E-05 3.22105E-09-5.81270E-20-1.28031E-18
 -1      4287 9.31382E-05-2.60416E-05-2.87536E-05 2.49078E-08 1.02836E-18-1.81232E-18
 -1      4288 9.34868E-05-2.63866E-05-2.87561E-05 2.53035E-07 3.04802E-19-2.65447E-18
 -1      4289 9.34860E-05-2.63883E-05-2.87585E-05 4.55082E-07 8.36229E-19-2.61468E-18
 -1      4290 9.27655E-05-2.57212E-05-2.87388E-05 1.95521E-08 1.83455E-18-2.17081E-18
 -1      4291 9.36446E-05-2.56595E-05-2.91374E-05-2.09119E-06 1.18792E-19-2.74495E-19
 -1      4292 9.40310E-05-2.57913E-05-2.92518E-05-1.81454E-06 3.07382E-19-2.72016E-19
 -1      4293 9.40704E-05-2.56102E-05-2.93307E-05-1.28390E-06 4.06328E-19-1.62220E-19
 -1      4294 8.99437E-05-2.36225E-05-2.84386E-05-1.47231E-06 2.98476E-20-6.46007E-19
 -1      4295 8.89968E-05-2.31418E-05-2.82460E-05-1.67310E-06-2.19442E-19-6.09387E-19
 -1      4296 8.57764E-05-2.15772E-05-2.75395E-05-1.95273E-06-6.23374E-19-6.82313E-19
 -1      4297 8.43248E-05-2.09923E-05-2.71854E-05-2.32218E-06-5.44929E-19-8.08103E-19
 -1      4298 8.35993E-05-2.10528E-05-2.68137E-05-4.06226E-06-5.05881E-19-8.60890E-19
 -1      4299 8.18152E-05-2.05758E-05-2.63220E-05-4.78338E-06-4.12724E-19-6.90795E-19
 -1      4300 8.06101E-05-2.04339E-05-2.58167E-05-5.96777E-06-7.79097E-20-8.88710E-19
 -1      4301 7.83100E-05-1.99307E-05-2.51144E-05-7.03607E-06-1.22449E-19-5.27779E-19
 -1      4302 8.90207E-05-2.32705E-05-2.81389E-05-3.28714E-06-3.55320E-19-1.07329E-18
 -1      4303 8.80566E-05-2.26585E-05-2.80501E-05-1.68681E-06-2.49888E-19-4.34635E-19
 -1      4304 8.69469E-05-2.21363E-05-2.77983E-05-1.96705E-06-5.14688E-19-6.29320E-19
 -1      4305 8.92576E-05-2.37070E-05-2.81144E-05-4.35958E-06-2.88098E-19-7.01621E-19
 -1      4306 8.59813E-05-2.12835E-05-2.77506E-05 1.52777E-06 2.65899E-20-1.80100E-18
 -1      4307 8.69920E-05-2.17921E-05-2.79628E-05 1.30548E-06-1.02660E-18-2.06953E-18
 -1      4308 8.81797E-05-2.25072E-05-2.81636E-05 1.61701E-06-6.51554E-19-9.05704E-19
 -1      4309 8.89892E-05-2.29687E-05-2.83074E-05 1.41746E-06-1.46895E-19-8.37822E-19
 -1      4310 8.95998E-05-2.33552E-05-2.84151E-05 1.10552E-06 1.68542E-19-7.30002E-19
 -1      4311 9.02937E-05-2.38005E-05-2.85111E-05 9.85327E-07 5.28869E-19-6.00356E-19
 -1      4312 9.08210E-05-2.41813E-05-2.85800E-05 7.51297E-07 5.09072E-19-9.31487E-19
 -1      4313 9.13894E-05-2.45918E-05-2.86391E-05 6.83021E-07 1.18680E-18-1.21594E-18
 -1      4314 9.18335E-05-2.49467E-05-2.86797E-05 5.11794E-07 1.54137E-18-2.19285E-18
 -1      4315 9.22995E-05-2.53098E-05-2.87138E-05 4.63950E-07 1.68789E-18-1.72344E-18
 -1      4316 8.50615E-05-2.14317E-05-2.72971E-05 4.49557E-06-1.67051E-18-6.63221E-19
 -1      4317 8.43407E-05-2.13116E-05-2.69978E-05 5.31953E-06-1.26879E-18-4.33577E-19
 -1      4318 7.09256E-05-1.79992E-05-2.27044E-05-8.90234E-06 1.53578E-20-1.17599E-19
 -1      4319 8.69588E-05-2.30532E-05-2.73780E-05-6.03212E-06-3.96911E-19-4.93992E-19
 -1      4320 8.75221E-05-2.30925E-05-2.76414E-05-5.22299E-06-3.55967E-19-4.44454E-19
 -1      4321 9.28869E-05-2.50549E-05-2.90813E-05-2.44532E-07 3.82639E-19-8.41404E-19
 -1      4322 9.22388E-05-2.47316E-05-2.89430E-05-2.61292E-07 5.16919E-19-6.19100E-19
 -1      4323 9.48676E-05-2.52944E-05-2.98122E-05 8.51117E-08 2.52800E-19-9.45084E-19
 -1      4324 9.49601E-05-2.52805E-05-2.98633E-05-3.79112E-07 1.87075E-19-7.30100E-19
 -1      4325 9.49035E-05-2.53056E-05-2.98374E-05-1.63289E-07 2.60371E-19-9.75872E-19
 -1      4326 9.47464E-05-2.54493E-05-2.96978E-05-4.69438E-08 2.82355E-19-9.80282E-19
 -1      4327 9.49001E-05-2.54936E-05-2.97397E-05-5.37514E-07 2.39977E-19-5.26645E-19
 -1      4328 9.26571E-05-2.52235E-05-2.88985E-05-2.63763E-06 9.95810E-20-5.70379E-19
 -1      4329 9.31253E-05-2.54441E-05-2.90129E-05-2.32043E-06 1.16807E-19-5.08418E-19
 -1      4330 9.31653E-05-2.53169E-05-2.90722E-05-1.69308E-06 2.87010E-19-1.92504E-19
 -1      4331 9.20135E-05-2.47864E-05-2.88084E-05-2.16236E-06 2.76130E-19-4.96344E-19
 -1      4332 8.86589E-05-2.35657E-05-2.79090E-05-5.01051E-06-4.03307E-19-4.75374E-19
 -1      4333 8.14134E-05-1.95242E-05-2.65567E-05 2.97605E-06-2.30182E-19-6.74078E-19
 -1      4334 8.30784E-05-2.00838E-05-2.70030E-05 2.43967E-06-5.70622E-19-6.82017E-19
 -1      4335 8.43359E-05-2.05621E-05-2.73343E-05 2.03482E-06-3.56899E-19-1.39553E-18
 -1      4336 7.70327E-05-2.00277E-05-2.44252E-05-8.67354E-06 2.31898E-19-4.97562E-19
 -1      4337 9.38495E-05-2.54755E-05-2.93096E-05-5.09000E-07 1.40084E-19-5.92541E-19
 -1      4338 9.33617E-05-2.52952E-05-2.91751E-05-5.40020E-07 2.38920E-19-6.08677E-19
 -1      4339 9.15109E-05-2.44148E-05-2.87633E-05-1.02632E-06 4.14934E-19-6.99173E-19
 -1      4340 9.07037E-05-2.40002E-05-2.86070E-05-1.15100E-06 2.64421E-19-6.22068E-19
 -1      4341 7.35293E-05-1.82446E-05-2.36747E-05-7.57063E-06 3.45695E-20-2.05981E-19
 -1      4342 8.69339E-05-2.22517E-05-2.76756E-05-3.48230E-06-5.39124E-19-8.84761E-19
 -1      4343 8.50748E-05-2.18486E-05-2.70607E-05-5.27513E-06-4.46581E-19-7.18919E-19
 -1      4344 8.53721E-05-2.11855E-05-2.74877E-05 2.97398E-06-7.15140E-19-1.13507E-18
 -1      4345 8.81668E-05-2.25612E-05-2.80971E-05 2.65671E-06 2.85366E-19-1.63154E-18
 -1      4346 9.27319E-05-2.56793E-05-2.87334E-05 7.19565E-07 1.84448E-18-1.56328E-18
 -1      4347 8.14630E-05-2.01190E-05-2.62737E-05 5.51373E-06-3.96267E-19 4.81466E-19
 -1      4348 8.22086E-05-2.10783E-05-2.62162E-05 7.29072E-06-9.34726E-19 6.33266E-19
 -1      4349 8.66933E-05-2.20107E-05-2.77214E-05 3.71392E-06-1.13743E-18-2.14694E-18
 -1      4350 9.46356E-05-2.55870E-05-2.95914E-05-6.82793E-07 3.46018E-19-5.85915E-19
 -1      4351 9.36452E-05-2.65293E-05-2.87637E-05 6.33694E-07 3.02268E-19-1.82271E-18
 -1      4352 9.42557E-05-2.55616E-05-2.94440E-05-3.57823E-07 2.04639E-19-6.76275E-19
 -1      4353 9.31762E-05-2.52534E-05-2.91068E-05-1.21205E-06 3.78041E-19-2.47500E-19
 -1      4354 9.20183E-05-2.47072E-05-2.88388E-05-1.64766E-06 3.71236E-19-3.65149E-19
 -1      4355 8.74817E-05-2.23095E-05-2.79380E-05 3.12515E-06-1.11796E-19-1.80237E-18
 -1      4356 9.30877E-05-2.59959E-05-2.87518E-05 5.87507E-07 1.31589E-18-2.48188E-18
 -1      4357 8.14178E-05-2.13408E-05-2.57651E-05 8.66841E-06-1.28670E-18 1.69103E-18
 -1      4358 9.32932E-05-2.61967E-05-2.87561E-05 4.96520E-07 5.10692E-19-2.73445E-18
 -1      4359 9.45538E-05-2.55709E-05-2.95692E-05-4.20535E-07 2.79139E-19-7.56949E-19
 -1      4360 9.26753E-05-2.50494E-05-2.89788E-05-1.40211E-06 4.88106E-19-2.94482E-19
 -3
    1PSTEP                         4           1           1          
  100CL  101 1.000000000        4360                     0    1           1
 -4  ERROR       1    1
 -5  STR(%)      1    1    0    0
 -1         1 4.53741E+01
 -1         2 2.45855E+01
 -1         3 4.47741E-03
 -1         4 5.35539E-03
 -1         5 1.40288E+01
 -1         6 1.31332E+01
 -1         7 1.31332E+01
 -1         8 3.62583E+00
 -1         9 1.79857E+00
 -1        10 1.27830E+00
 -1        11 1.03207E+00
 -1        12 8.86637E-01
 -1        13 7.93021E-01
 -1        14 7.36071E-01
 -1        15 7.37768E-01
 -1        16 7.97229E-01
 -1        17 8.87514E-01
 -1        18 1.04109E+00
 -1        19 1.29609E+00
 -1        20 1.80830E+00
 -1        21 3.46850E+00
 -1        22 8.60644E+00
 -1        23 1.31332E+01
 -1        24 4.34562E+00
 -1        25 3.36596E+00
 -1        26 2.13793E+00
 -1        27 1.41930E+00
 -1        28 1.09674E+00
 -1        29 8.76449E-01
 -1        30 7.17056E-01
 -1        31 5.97819E-01
 -1        32 5.06920E-01
 -1        33 5.38582E-01
 -1        34 6.23825E-01
 -1        35 7.21399E-01
 -1        36 8.20009E-01
 -1        37 1.02020E+00
 -1        38 1.28467E+00
 -1        39 1.62326E+00
 -1        40 1.89524E+00
 -1        41 1.94466E+00
 -1        42 1.94466E+00
 -1        43 1.94146E+00
 -1        44 2.38840E+00
 -1        45 4.25228E+00
 -1        46 5.53838E+00
 -1        47 5.53903E+00
 -1        48 5.53903E+00
 -1        49 4.74572E+00
 -1        50 2.53896E+00
 -1        51 1.94058E+00
 -1        52 1.94058E+00
 -1        53 1.92131E+00
 -1        54 1.92131E+00
 -1        55 1.68465E+00
 -1        56 1.35126E+00
 -1        57 1.07649E+00
 -1        58 8.27514E-01
 -1        59 6.65182E-01
 -1        60 5.44760E-01
 -1        61 4.32323E-01
 -1        62 3.34335E-01
 -1        63 2.52703E-01
 -1        64 1.86836E-01
 -1        65 1.34946E-01
 -1        66 1.07849E-01
 -1        67 8.76792E-02
 -1        68 6.90035E-02
 -1        69 5.11862E-02
 -1        70 3.28995E-02
 -1        71 1.79347E-02
 -1        72 1.40288E+01
 -1        73 3.42265E+00
 -1        74 2.44140E+00
 -1        75 1.69707E+00
 -1        76 1.19794E+00
 -1        77 1.00021E+00
 -1        78 8.48585E-01
 -1        79 7.31051E-01
 -1        80 6.38745E-01
 -1        81 5.65186E-01
 -1        82 5.03726E-01
 -1        83 4.78977E-01
 -1        84 5.00792E-01
 -1        85 5.05629E-01
 -1        86 5.05629E-01
 -1        87 6.15095E-01
 -1        88 7.31138E-01
 -1        89 7.75987E-01
 -1        90 1.01582E+00
 -1        91 1.09490E+00
 -1        92 1.26438E+00
 -1        93 1.45644E+00
 -1        94 2.05748E+00
 -1        95 2.56377E+00
 -1        96 2.83109E+00
 -1        97 2.92887E+00
 -1        98 2.92887E+00
 -1        99 2.34411E+00
 -1       100 1.47987E+00
 -1       101 1.00091E+00
 -1       102 7.56917E-01
 -1       103 8.50888E-01
 -1       104 8.83387E-01
 -1       105 8.83387E-01
 -1       106 8.15726E-01
 -1       107 6.97533E-01
 -1       108 5.85826E-01
 -1       109 4.72521E-01
 -1       110 3.64744E-01
 -1       111 2.71883E-01
 -1       112 2.16781E-01
 -1       113 1.67411E-01
 -1       114 1.25327E-01
 -1       115 9.07372E-02
 -1       116 6.30189E-02
 -1       117 4.58976E-02
 -1       118 3.71262E-02
 -1       119 2.60423E-02
 -1       120 1.57760E-02
 -1       121 4.78091E-03
 -1       122 5.66459E-03
 -1       123 5.66459E-03
 -1       124 4.45719E-03
 -1       125 1.93583E-03
 -1       126 3.65666E-03
 -1       127 5.15956E-03
 -1       128 5.65400E-03
 -1       129 5.65400E-03
 -1       130 5.12347E-03
 -1       131 3.57858E-03
 -1       132 2.22528E-03
 -1       133 4.81800E-03
 -1       134 5.65140E-03
 -1       135 5.65140E-03
 -1       136 5.90129E-03
 -1       137 2.45855E+01
 -1       138 4.74529E+01
 -1       139 4.74529E+01
 -1       140 2.03103E+01
 -1       141 1.22497E+01
 -1       142 1.27241E+01
 -1       143 1.27241E+01
 -1       144 1.23853E+01
 -1       145 1.23853E+01
 -1       146 1.23663E+01
 -1       147 2.55832E+01
 -1       148 3.03372E+01
 -1       149 3.03372E+01
 -1       150 2.65706E+01
 -1       151 2.65706E+01
 -1       152 2.53808E+01
 -1       153 4.53741E+01
 -1       154 1.77302E+01
 -1       155 1.25364E+01
 -1       156 1.25364E+01
 -1       157 1.24813E+01
 -1       158 1.24813E+01
 -1       159 1.22567E+01
 -1       160 1.19837E+01
 -1       161 2.53081E+01
 -1       162 3.00407E+01
 -1       163 3.00407E+01
 -1       164 2.45824E+01
 -1       165 6.02688E+00
 -1       166 2.27176E+00
 -1       167 1.49570E+00
 -1       168 1.14904E+00
 -1       169 9.61389E-01
 -1       170 8.51077E-01
 -1       171 7.79973E-01
 -1       172 7.37768E-01
 -1       173 7.83183E-01
 -1       174 8.53837E-01
 -1       175 9.70296E-01
 -1       176 1.16334E+00
 -1       177 1.51763E+00
 -1       178 2.24727E+00
 -1       179 3.90146E+00
 -1       180 1.40288E+01
 -1       181 4.34562E+00
 -1       182 3.36596E+00
 -1       183 2.13793E+00
 -1       184 1.46408E+00
 -1       185 1.09674E+00
 -1       186 8.76449E-01
 -1       187 7.17056E-01
 -1       188 5.97819E-01
 -1       189 5.06920E-01
 -1       190 4.69855E-01
 -1       191 5.38582E-01
 -1       192 6.23825E-01
 -1       193 7.29465E-01
 -1       194 9.41891E-01
 -1       195 1.14367E+00
 -1       196 1.34116E+00
 -1       197 1.62326E+00
 -1       198 1.89524E+00
 -1       199 1.94466E+00
 -1       200 1.94146E+00
 -1       201 1.68742E+00
 -1       202 2.44128E+00
 -1       203 4.25228E+00
 -1       204 5.53838E+00
 -1       205 5.53903E+00
 -1       206 4.74572E+00
 -1       207 2.80824E+00
 -1       208 1.83489E+00
 -1       209 1.94058E+00
 -1       210 1.88042E+00
 -1       211 1.92131E+00
 -1       212 1.68465E+00
 -1       213 1.39156E+00
 -1       214 1.19743E+00
 -1       215 1.01203E+00
 -1       216 8.11769E-01
 -1       217 6.24842E-01
 -1       218 4.64387E-01
 -1       219 3.34335E-01
 -1       220 2.59446E-01
 -1       221 1.97915E-01
 -1       222 1.47926E-01
 -1       223 1.08203E-01
 -1       224 8.76792E-02
 -1       225 6.90035E-02
 -1       226 5.11862E-02
 -1       227 3.32350E-02
 -1       228 1.92482E-02
 -1       229 3.42265E+00
 -1       230 2.44140E+00
 -1       231 1.69707E+00
 -1       232 1.19794E+00
 -1       233 1.00021E+00
 -1       234 8.48585E-01
 -1       235 7.31051E-01
 -1       236 6.38745E-01
 -1       237 5.65186E-01
 -1       238 5.03726E-01
 -1       239 4.47806E-01
 -1       240 4.78977E-01
 -1       241 5.00792E-01
 -1       242 5.05629E-01
 -1       243 5.05211E-01
 -1       244 6.15095E-01
 -1       245 7.31138E-01
 -1       246 7.75987E-01
 -1       247 1.01582E+00
 -1       248 1.09490E+00
 -1       249 1.26438E+00
 -1       250 1.49875E+00
 -1       251 2.05748E+00
 -1       252 2.56377E+00
 -1       253 2.83109E+00
 -1       254 2.92887E+00
 -1       255 2.34411E+00
 -1       256 1.47987E+00
 -1       257 1.00091E+00
 -1       258 6.95795E-01
 -1       259 7.56917E-01
 -1       260 8.50888E-01
 -1       261 8.83387E-01
 -1       262 8.15726E-01
 -1       263 6.97533E-01
 -1       264 5.85826E-01
 -1       265 4.83958E-01
 -1       266 3.85473E-01
 -1       267 2.94905E-01
 -1       268 2.16922E-01
 -1       269 1.67411E-01
 -1       270 1.25327E-01
 -1       271 9.17340E-02
 -1       272 6.59612E-02
 -1       273 4.58976E-02
 -1       274 3.71262E-02
 -1       275 2.60423E-02
 -1       276 1.57760E-02
 -1       277 8.70307E-03
 -1       278 1.02346E-02
 -1       279 1.02346E-02
 -1       280 6.89040E-03
 -1       281 7.40124E-03
 -1       282 1.05713E-02
 -1       283 1.19121E-02
 -1       284 1.19334E-02
 -1       285 1.19334E-02
 -1       286 1.05525E-02
 -1       287 7.45769E-03
 -1       288 7.35217E-03
 -1       289 1.09223E-02
 -1       290 1.09223E-02
 -1       291 1.06381E-02
 -1       292 3.11954E+01
 -1       293 2.94377E+01
 -1       294 4.74529E+01
 -1       295 2.16702E+01
 -1       296 1.13420E+01
 -1       297 1.22497E+01
 -1       298 1.27241E+01
 -1       299 1.20242E+01
 -1       300 1.23853E+01
 -1       301 1.18231E+01
 -1       302 1.23663E+01
 -1       303 2.76950E+01
 -1       304 3.32228E+01
 -1       305 3.32228E+01
 -1       306 3.17512E+01
 -1       307 2.81497E+01
 -1       308 3.84656E+01
 -1       309 4.53741E+01
 -1       310 2.03229E+01
 -1       311 1.06808E+01
 -1       312 1.25364E+01
 -1       313 1.22368E+01
 -1       314 1.24813E+01
 -1       315 1.22567E+01
 -1       316 1.16839E+01
 -1       317 1.19837E+01
 -1       318 2.62615E+01
 -1       319 3.16269E+01
 -1       320 3.16269E+01
 -1       321 3.11954E+01
 -1       322 1.04926E+00
 -1       323 2.44250E+00
 -1       324 7.80638E-01
 -1       325 6.85225E-01
 -1       326 6.19897E-01
 -1       327 5.73601E-01
 -1       328 5.76640E-01
 -1       329 6.22433E-01
 -1       330 6.91415E-01
 -1       331 7.88394E-01
 -1       332 9.24683E-01
 -1       333 1.13962E+00
 -1       334 1.30331E+00
 -1       335 2.18821E+00
 -1       336 1.89434E+00
 -1       337 1.74080E+00
 -1       338 1.27405E+00
 -1       339 9.07145E-01
 -1       340 7.01131E-01
 -1       341 6.00053E-01
 -1       342 5.07327E-01
 -1       343 4.21988E-01
 -1       344 3.54826E-01
 -1       345 4.14773E-01
 -1       346 4.83490E-01
 -1       347 6.32521E-01
 -1       348 8.29758E-01
 -1       349 1.02586E+00
 -1       350 1.19228E+00
 -1       351 1.32761E+00
 -1       352 1.48664E+00
 -1       353 1.51957E+00
 -1       354 1.46747E+00
 -1       355 1.61474E+00
 -1       356 1.72400E+00
 -1       357 2.32069E+00
 -1       358 3.08098E+00
 -1       359 3.40367E+00
 -1       360 3.38208E+00
 -1       361 2.51388E+00
 -1       362 1.82814E+00
 -1       363 1.63106E+00
 -1       364 1.41720E+00
 -1       365 1.53583E+00
 -1       366 1.50161E+00
 -1       367 1.37395E+00
 -1       368 1.24499E+00
 -1       369 1.10134E+00
 -1       370 9.21806E-01
 -1       371 7.39980E-01
 -1       372 5.74597E-01
 -1       373 4.33764E-01
 -1       374 3.19100E-01
 -1       375 2.28807E-01
 -1       376 1.59609E-01
 -1       377 1.08203E-01
 -1       378 7.71749E-02
 -1       379 5.59532E-02
 -1       380 3.98959E-02
 -1       381 2.83934E-02
 -1       382 1.85007E-02
 -1       383 1.14603E+00
 -1       384 8.85424E-01
 -1       385 6.86475E-01
 -1       386 5.54824E-01
 -1       387 5.11074E-01
 -1       388 4.66207E-01
 -1       389 4.22745E-01
 -1       390 3.80750E-01
 -1       391 3.75800E-01
 -1       392 4.04279E-01
 -1       393 4.67530E-01
 -1       394 5.51319E-01
 -1       395 5.97790E-01
 -1       396 5.97790E-01
 -1       397 5.77381E-01
 -1       398 4.57161E-01
 -1       399 4.77999E-01
 -1       400 7.35709E-01
 -1       401 1.19639E+00
 -1       402 1.53878E+00
 -1       403 1.59911E+00
 -1       404 1.59911E+00
 -1       405 1.60750E+00
 -1       406 1.81699E+00
 -1       407 1.62880E+00
 -1       408 1.15076E+00
 -1       409 7.13998E-01
 -1       410 4.72635E-01
 -1       411 5.08629E-01
 -1       412 5.99371E-01
 -1       413 6.42189E-01
 -1       414 6.38967E-01
 -1       415 5.81878E-01
 -1       416 5.20367E-01
 -1       417 4.45339E-01
 -1       418 3.63859E-01
 -1       419 2.85646E-01
 -1       420 2.16114E-01
 -1       421 1.61011E-01
 -1       422 1.23356E-01
 -1       423 9.17340E-02
 -1       424 6.59612E-02
 -1       425 4.53720E-02
 -1       426 2.96187E-02
 -1       427 1.89766E-02
 -1       428 1.01805E-02
 -1       429 1.24440E-02
 -1       430 1.62439E-02
 -1       431 1.62439E-02
 -1       432 1.05331E-02
 -1       433 1.55501E-02
 -1       434 1.80875E-02
 -1       435 1.80875E-02
 -1       436 1.81884E-02
 -1       437 1.81884E-02
 -1       438 1.58590E-02
 -1       439 1.07956E-02
 -1       440 1.32894E-02
 -1       441 1.65587E-02
 -1       442 2.94377E+01
 -1       443 3.16073E+01
 -1       444 3.10036E+01
 -1       445 1.67423E+01
 -1       446 9.16504E+00
 -1       447 9.05611E-01
 -1       448 9.80678E+00
 -1       449 1.01438E+01
 -1       450 1.04411E+01
 -1       451 9.24780E+00
 -1       452 7.01530E+00
 -1       453 1.10476E+01
 -1       454 1.92701E+01
 -1       455 3.32228E+01
 -1       456 2.71215E+01
 -1       457 3.17512E+01
 -1       458 2.43069E+01
 -1       459 2.66859E+01
 -1       460 1.51823E+01
 -1       461 8.39991E+00
 -1       462 7.04251E+00
 -1       463 1.02478E+01
 -1       464 1.08163E+01
 -1       465 1.03913E+01
 -1       466 9.11045E+00
 -1       467 6.31992E+00
 -1       468 1.11119E+01
 -1       469 1.85028E+01
 -1       470 3.16269E+01
 -1       471 3.16073E+01
 -1       472 7.29206E+00
 -1       473 8.68970E+00
 -1       474 3.17512E+01
 -1       475 1.05005E+00
 -1       476 4.77249E-01
 -1       477 5.04937E-01
 -1       478 4.16595E-01
 -1       479 4.45088E-01
 -1       480 4.77937E-01
 -1       481 5.05315E-01
 -1       482 5.05315E-01
 -1       483 5.94637E-01
 -1       484 8.85424E-01
 -1       485 7.78393E-01
 -1       486 4.59488E+00
 -1       487 6.89320E-01
 -1       488 5.60993E-01
 -1       489 4.27605E-01
 -1       490 3.80450E-01
 -1       491 3.17588E-01
 -1       492 2.43709E-01
 -1       493 2.68895E-01
 -1       494 3.49700E-01
 -1       495 5.13280E-01
 -1       496 6.97788E-01
 -1       497 8.99678E-01
 -1       498 1.10876E+00
 -1       499 1.30453E+00
 -1       500 1.45216E+00
 -1       501 1.75986E+00
 -1       502 2.10197E+00
 -1       503 2.36692E+00
 -1       504 2.95323E+00
 -1       505 3.05363E+00
 -1       506 3.90458E+00
 -1       507 4.58590E+00
 -1       508 5.83872E+00
 -1       509 4.34875E+00
 -1       510 1.92474E+00
 -1       511 3.60013E+00
 -1       512 2.37513E+00
 -1       513 2.21588E+00
 -1       514 1.87321E+00
 -1       515 1.54086E+00
 -1       516 1.37443E+00
 -1       517 1.19559E+00
 -1       518 9.98991E-01
 -1       519 8.09032E-01
 -1       520 6.38707E-01
 -1       521 4.93295E-01
 -1       522 3.73426E-01
 -1       523 2.77238E-01
 -1       524 2.01761E-01
 -1       525 1.43718E-01
 -1       526 9.99630E-02
 -1       527 6.76862E-02
 -1       528 4.44834E-02
 -1       529 2.82332E-02
 -1       530 1.82632E+01
 -1       531 5.30542E-01
 -1       532 4.64247E-01
 -1       533 3.90048E-01
 -1       534 3.12396E-01
 -1       535 2.65172E-01
 -1       536 2.96654E-01
 -1       537 3.23454E-01
 -1       538 4.06141E-01
 -1       539 4.85187E-01
 -1       540 5.51319E-01
 -1       541 5.97790E-01
 -1       542 5.97187E-01
 -1       543 5.57113E-01
 -1       544 6.56364E-01
 -1       545 7.10500E-01
 -1       546 9.93407E-01
 -1       547 1.31192E+00
 -1       548 1.53878E+00
 -1       549 1.64839E+00
 -1       550 1.52940E+00
 -1       551 1.60750E+00
 -1       552 1.45620E+00
 -1       553 1.23595E+00
 -1       554 9.03500E-01
 -1       555 6.60126E-01
 -1       556 6.13219E-01
 -1       557 5.90496E-01
 -1       558 6.27819E-01
 -1       559 6.06251E-01
 -1       560 5.66891E-01
 -1       561 5.11280E-01
 -1       562 4.50819E-01
 -1       563 3.79322E-01
 -1       564 3.06971E-01
 -1       565 2.40038E-01
 -1       566 1.81782E-01
 -1       567 1.33374E-01
 -1       568 9.46777E-02
 -1       569 6.48395E-02
 -1       570 4.33177E-02
 -1       571 3.09670E-02
 -1       572 2.19613E-02
 -1       573 2.05946E-02
 -1       574 2.48662E-02
 -1       575 1.63654E-02
 -1       576 1.70769E-02
 -1       577 2.54231E-02
 -1       578 2.55489E-02
 -1       579 2.55489E-02
 -1       580 2.54381E-02
 -1       581 2.14046E-02
 -1       582 2.09951E-02
 -1       583 2.09951E-02
 -1       584 3.16073E+01
 -1       585 6.86475E-01
 -1       586 1.23978E+01
 -1       587 9.12940E+00
 -1       588 9.66714E+00
 -1       589 3.10036E+01
 -1       590 1.42750E+01
 -1       591 4.45127E-01
 -1       592 8.28578E+00
 -1       593 2.43069E+01
 -1       594 7.54201E+00
 -1       595 7.06637E+00
 -1       596 4.16558E+00
 -1       597 6.81559E+00
 -1       598 8.76367E+00
 -1       599 2.11160E+01
 -1       600 1.51379E+01
 -1       601 1.86509E+01
 -1       602 1.17225E+01
 -1       603 3.16317E+00
 -1       604 5.25791E+00
 -1       605 7.39891E+00
 -1       606 7.90400E+00
 -1       607 6.89117E+00
 -1       608 4.89892E+00
 -1       609 6.10460E+00
 -1       610 2.02533E+01
 -1       611 8.62342E-01
 -1       612 1.31081E+00
 -1       613 5.69976E+00
 -1       614 5.04937E-01
 -1       615 1.85007E-02
 -1       616 7.82658E+00
 -1       617 4.32567E+00
 -1       618 2.20389E+01
 -1       619 6.06579E+00
 -1       620 4.61046E-01
 -1       621 2.02831E+01
 -1       622 3.49463E-01
 -1       623 3.28702E-01
 -1       624 3.59158E-01
 -1       625 3.41393E-01
 -1       626 5.21418E-01
 -1       627 7.57633E+00
 -1       628 4.91464E-01
 -1       629 4.02272E+00
 -1       630 3.38271E-01
 -1       631 3.66429E-01
 -1       632 3.33051E-01
 -1       633 2.64362E-01
 -1       634 2.09653E-01
 -1       635 1.53042E-01
 -1       636 1.36696E-01
 -1       637 2.42533E-01
 -1       638 3.76321E-01
 -1       639 5.35900E-01
 -1       640 7.26919E-01
 -1       641 9.58442E-01
 -1       642 1.23541E+00
 -1       643 1.56860E+00
 -1       644 1.94533E+00
 -1       645 2.38213E+00
 -1       646 3.12547E+00
 -1       647 4.04977E+00
 -1       648 5.63109E+00
 -1       649 5.06121E+00
 -1       650 3.31650E+00
 -1       651 2.60968E+00
 -1       652 2.06776E+00
 -1       653 1.69001E+00
 -1       654 1.35059E+00
 -1       655 1.07297E+00
 -1       656 8.43115E-01
 -1       657 6.55904E-01
 -1       658 5.07571E-01
 -1       659 3.88648E-01
 -1       660 2.93932E-01
 -1       661 2.19194E-01
 -1       662 1.60899E-01
 -1       663 1.16036E-01
 -1       664 8.20231E-02
 -1       665 5.67020E-02
 -1       666 3.44843E-02
 -1       667 1.00618E+01
 -1       668 3.32141E-01
 -1       669 1.64152E-01
 -1       670 1.87802E-01
 -1       671 2.56539E-01
 -1       672 3.53549E-01
 -1       673 4.45294E-01
 -1       674 5.21720E-01
 -1       675 6.07026E-01
 -1       676 7.09850E-01
 -1       677 7.82476E-01
 -1       678 8.59034E-01
 -1       679 1.10278E+00
 -1       680 1.11647E+00
 -1       681 1.36719E+00
 -1       682 1.48761E+00
 -1       683 2.24708E+00
 -1       684 1.84265E+00
 -1       685 2.28674E+00
 -1       686 1.60558E+00
 -1       687 1.35706E+00
 -1       688 1.15372E+00
 -1       689 1.09527E+00
 -1       690 9.78856E-01
 -1       691 7.57062E-01
 -1       692 7.00151E-01
 -1       693 6.30055E-01
 -1       694 6.06251E-01
 -1       695 5.53216E-01
 -1       696 4.80747E-01
 -1       697 3.99942E-01
 -1       698 3.21330E-01
 -1       699 2.52575E-01
 -1       700 1.93270E-01
 -1       701 1.44014E-01
 -1       702 1.04393E-01
 -1       703 7.43211E-02
 -1       704 5.22556E-02
 -1       705 3.52780E-02
 -1       706 2.34976E-02
 -1       707 5.95541E+00
 -1       708 3.53320E-02
 -1       709 2.09951E-02
 -1       710 3.26245E-02
 -1       711 3.57215E-02
 -1       712 3.53320E-02
 -1       713 3.57215E-02
 -1       714 3.38415E-02
 -1       715 2.57467E-02
 -1       716 4.22902E-01
 -1       717 7.33702E+00
 -1       718 1.30493E+01
 -1       719 1.30657E+01
 -1       720 1.26643E+01
 -1       721 5.40497E+00
 -1       722 1.35647E+01
 -1       723 2.29303E-01
 -1       724 2.82575E-01
 -1       725 3.72658E-01
 -1       726 3.38664E+00
 -1       727 3.59158E-01
 -1       728 3.57193E-01
 -1       729 1.54145E+01
 -1       730 3.31459E+00
 -1       731 3.83374E+00
 -1       732 1.13017E+01
 -1       733 3.90458E+00
 -1       734 1.02597E+01
 -1       735 5.44240E+00
 -1       736 9.21191E+00
 -1       737 6.17554E+00
 -1       738 5.90921E+00
 -1       739 3.57193E-01
 -1       740 3.28268E-01
 -1       741 5.40927E+00
 -1       742 4.05816E+00
 -1       743 2.47855E-02
 -1       744 2.13651E-02
 -1       745 1.17943E+01
 -1       746 5.63109E+00
 -1       747 4.11071E+00
 -1       748 1.33151E+01
 -1       749 3.49034E-01
 -1       750 1.43098E+01
 -1       751 2.46289E-02
 -1       752 5.24472E+00
 -1       753 2.45308E-01
 -1       754 6.26143E+00
 -1       755 3.82567E+00
 -1       756 1.88683E-01
 -1       757 1.51010E-01
 -1       758 1.14592E-01
 -1       759 1.36397E-01
 -1       760 2.14726E-01
 -1       761 3.22359E-01
 -1       762 4.77606E-01
 -1       763 6.64262E-01
 -1       764 8.84562E-01
 -1       765 1.13806E+00
 -1       766 1.48689E+00
 -1       767 2.00349E+00
 -1       768 2.89789E+00
 -1       769 4.80401E+00
 -1       770 7.86910E+00
 -1       771 9.48282E+00
 -1       772 7.14248E+00
 -1       773 3.48624E+00
 -1       774 2.25480E+00
 -1       775 1.62776E+00
 -1       776 1.25220E+00
 -1       777 9.98539E-01
 -1       778 7.83055E-01
 -1       779 6.03532E-01
 -1       780 4.57979E-01
 -1       781 3.42271E-01
 -1       782 2.51713E-01
 -1       783 1.81827E-01
 -1       784 1.28640E-01
 -1       785 9.02685E-02
 -1       786 6.20298E-02
 -1       787 4.09890E-02
 -1       788 6.45038E+00
 -1       789 1.99509E-01
 -1       790 1.21764E-01
 -1       791 4.00325E-01
 -1       792 5.14407E-01
 -1       793 6.28434E-01
 -1       794 7.50056E-01
 -1       795 9.41473E-01
 -1       796 1.13110E+00
 -1       797 1.26807E+00
 -1       798 1.68330E+00
 -1       799 1.66962E+00
 -1       800 2.03098E+00
 -1       801 2.53110E+00
 -1       802 2.28674E+00
 -1       803 1.56937E+00
 -1       804 1.45836E+00
 -1       805 1.62962E+00
 -1       806 1.49300E+00
 -1       807 1.18456E+00
 -1       808 1.05771E+00
 -1       809 8.92964E-01
 -1       810 7.32807E-01
 -1       811 6.32928E-01
 -1       812 5.38485E-01
 -1       813 4.46069E-01
 -1       814 3.59120E-01
 -1       815 2.84406E-01
 -1       816 2.20960E-01
 -1       817 1.68449E-01
 -1       818 1.25932E-01
 -1       819 9.22771E-02
 -1       820 6.57687E-02
 -1       821 5.39529E-02
 -1       822 3.09815E-02
 -1       823 4.97365E-02
 -1       824 3.67435E+00
 -1       825 3.56398E-02
 -1       826 4.75347E-02
 -1       827 9.49943E-02
 -1       828 4.97365E-02
 -1       829 2.93150E-01
 -1       830 1.96156E-01
 -1       831 9.15774E+00
 -1       832 9.28114E+00
 -1       833 7.04213E+00
 -1       834 1.43037E-01
 -1       835 1.96217E-01
 -1       836 3.03592E-01
 -1       837 2.65398E-01
 -1       838 9.48282E+00
 -1       839 4.74134E+00
 -1       840 8.35567E+00
 -1       841 8.88745E+00
 -1       842 3.95511E+00
 -1       843 2.53110E+00
 -1       844 3.95716E+00
 -1       845 2.73748E-01
 -1       846 2.60403E-01
 -1       847 2.76304E-01
 -1       848 6.52068E+00
 -1       849 2.14121E-01
 -1       850 2.55408E-01
 -1       851 3.68429E-02
 -1       852 4.79727E-02
 -1       853 4.79727E-02
 -1       854 9.24481E+00
 -1       855 5.83332E+00
 -1       856 2.24183E-01
 -1       857 2.76304E-01
 -1       858 8.20391E+00
 -1       859 2.74880E-01
 -1       860 1.02660E+01
 -1       861 3.77463E-02
 -1       862 2.74880E-01
 -1       863 3.69840E-01
 -1       864 3.30812E+00
 -1       865 1.24018E-01
 -1       866 1.57782E-01
 -1       867 2.00854E-01
 -1       868 2.96143E-01
 -1       869 4.33516E-01
 -1       870 6.06620E-01
 -1       871 8.26907E-01
 -1       872 1.11200E+00
 -1       873 1.48689E+00
 -1       874 1.97789E+00
 -1       875 2.86471E+00
 -1       876 7.82831E+00
 -1       877 6.05119E+00
 -1       878 6.46931E+00
 -1       879 1.80339E-01
 -1       880 2.35541E+00
 -1       881 2.92972E+00
 -1       882 2.14569E+00
 -1       883 1.62776E+00
 -1       884 1.23260E+00
 -1       885 9.36702E-01
 -1       886 7.12807E-01
 -1       887 5.41163E-01
 -1       888 4.08573E-01
 -1       889 3.05832E-01
 -1       890 2.26242E-01
 -1       891 1.64942E-01
 -1       892 1.18050E-01
 -1       893 8.26258E-02
 -1       894 4.21022E-02
 -1       895 1.00972E-01
 -1       896 4.78748E-01
 -1       897 1.02397E+00
 -1       898 1.28251E+00
 -1       899 1.68558E+00
 -1       900 2.07255E+00
 -1       901 2.51681E+00
 -1       902 1.68950E+00
 -1       903 2.23551E+00
 -1       904 1.88068E+00
 -1       905 1.53044E+00
 -1       906 1.17376E+00
 -1       907 9.58005E-01
 -1       908 7.77562E-01
 -1       909 6.19665E-01
 -1       910 4.92929E-01
 -1       911 3.91504E-01
 -1       912 3.16710E-01
 -1       913 2.52678E-01
 -1       914 1.95987E-01
 -1       915 1.48049E-01
 -1       916 1.08844E-01
 -1       917 9.53565E-02
 -1       918 1.35638E-01
 -1       919 8.12651E-01
 -1       920 6.46931E+00
 -1       921 1.11794E-01
 -1       922 6.78697E-02
 -1       923 1.15765E-01
 -1       924 2.73804E-01
 -1       925 2.18967E+00
 -1       926 5.35409E+00
 -1       927 6.19975E-01
 -1       928 4.06971E+00
 -1       929 1.06174E-01
 -1       930 2.00737E-01
 -1       931 3.47979E+00
 -1       932 4.05219E+00
 -1       933 6.31980E+00
 -1       934 1.96680E-01
 -1       935 4.00744E+00
 -1       936 7.28863E-02
 -1       937 5.56654E-02
 -1       938 6.78697E-02
 -1       939 1.94135E-01
 -1       940 2.15361E+00
 -1       941 2.26464E-01
 -1       942 8.91900E-02
 -1       943 7.06271E+00
 -1       944 7.29040E-02
 -1       945 4.57497E+00
 -1       946 5.25729E+00
 -1       947 1.25320E-01
 -1       948 2.72821E-01
 -1       949 7.82831E+00
 -1       950 5.78691E-02
 -1       951 3.36911E+00
 -1       952 1.63312E-01
 -1       953 2.26464E-01
 -1       954 1.99452E-01
 -1       955 2.47129E-01
 -1       956 3.52518E-01
 -1       957 4.90361E-01
 -1       958 6.70860E-01
 -1       959 9.17616E-01
 -1       960 1.27444E+00
 -1       961 1.82021E+00
 -1       962 2.64778E+00
 -1       963 6.00664E+00
 -1       964 4.95000E+00
 -1       965 2.70809E+00
 -1       966 1.64728E+00
 -1       967 1.15990E+00
 -1       968 8.49815E-01
 -1       969 6.37258E-01
 -1       970 4.84239E-01
 -1       971 3.69317E-01
 -1       972 2.80671E-01
 -1       973 2.11539E-01
 -1       974 1.57611E-01
 -1       975 1.15653E-01
 -1       976 8.15903E-02
 -1       977 4.78748E-01
 -1       978 1.98446E+00
 -1       979 1.48820E+00
 -1       980 9.53565E-02
 -1       981 1.37228E+00
 -1       982 9.83757E-01
 -1       983 7.47313E-01
 -1       984 5.89895E-01
 -1       985 4.82955E-01
 -1       986 3.91504E-01
 -1       987 3.11136E-01
 -1       988 2.42171E-01
 -1       989 1.84778E-01
 -1       990 1.38462E-01
 -1       991 1.05168E-01
 -1       992 1.57108E-01
 -1       993 1.95012E-01
 -1       994 1.07527E+00
 -1       995 1.82440E+00
 -1       996 1.23949E-01
 -1       997 2.54302E+00
 -1       998 8.91900E-02
 -1       999 1.43447E-01
 -1      1000 1.28193E-01
 -1      1001 2.00737E-01
 -1      1002 1.38418E-01
 -1      1003 4.49952E+00
 -1      1004 5.23872E+00
 -1      1005 1.96996E-01
 -1      1006 6.16729E-01
 -1      1007 2.51681E+00
 -1      1008 2.59987E+00
 -1      1009 8.40703E-01
 -1      1010 1.36188E-01
 -1      1011 1.31883E-01
 -1      1012 7.59840E-02
 -1      1013 5.41320E+00
 -1      1014 3.70878E+00
 -1      1015 9.30633E-02
 -1      1016 3.69840E-01
 -1      1017 4.05110E+00
 -1      1018 7.18283E-02
 -1      1019 2.48399E-01
 -1      1020 3.23090E-01
 -1      1021 4.12187E-01
 -1      1022 5.27895E-01
 -1      1023 6.88442E-01
 -1      1024 9.23025E-01
 -1      1025 1.27246E+00
 -1      1026 1.85150E+00
 -1      1027 2.92925E+00
 -1      1028 3.10623E+00
 -1      1029 2.12763E+00
 -1      1030 1.24758E+00
 -1      1031 8.88029E-01
 -1      1032 6.55107E-01
 -1      1033 4.88873E-01
 -1      1034 3.71777E-01
 -1      1035 2.84855E-01
 -1      1036 2.18513E-01
 -1      1037 1.65983E-01
 -1      1038 1.37970E-01
 -1      1039 2.02993E-01
 -1      1040 7.47313E-01
 -1      1041 9.63698E-02
 -1      1042 9.30839E-01
 -1      1043 1.21485E+00
 -1      1044 5.89895E-01
 -1      1045 4.61753E-01
 -1      1046 3.60433E-01
 -1      1047 2.76804E-01
 -1      1048 2.10458E-01
 -1      1049 1.57358E-01
 -1      1050 1.38418E-01
 -1      1051 1.02407E-01
 -1      1052 1.49737E+00
 -1      1053 1.70404E+00
 -1      1054 2.72821E-01
 -1      1055 9.63698E-02
 -1      1056 8.41807E-02
 -1      1057 2.41251E+00
 -1      1058 1.38130E-01
 -1      1059 1.59124E-01
 -1      1060 1.36188E-01
 -1      1061 4.42010E+00
 -1      1062 5.33767E+00
 -1      1063 9.16014E-02
 -1      1064 4.44674E+00
 -1      1065 2.26887E+00
 -1      1066 1.28321E-01
 -1      1067 1.21786E-01
 -1      1068 9.86704E-02
 -1      1069 1.07830E+00
 -1      1070 4.70265E-01
 -1      1071 2.73829E+00
 -1      1072 1.44417E-01
 -1      1073 2.01948E-01
 -1      1074 1.44417E-01
 -1      1075 7.11079E-01
 -1      1076 9.86704E-02
 -1      1077 6.41994E-01
 -1      1078 3.70454E-01
 -1      1079 4.77831E-01
 -1      1080 6.17898E-01
 -1      1081 7.88453E-01
 -1      1082 1.06810E+00
 -1      1083 1.72515E+00
 -1      1084 2.56612E+00
 -1      1085 2.54481E-01
 -1      1086 2.36818E-01
 -1      1087 1.26625E+00
 -1      1088 8.81111E-01
 -1      1089 6.41994E-01
 -1      1090 4.87919E-01
 -1      1091 3.63008E-01
 -1      1092 2.62730E-01
 -1      1093 1.93336E-01
 -1      1094 1.49058E-01
 -1      1095 9.30839E-01
 -1      1096 1.66630E+00
 -1      1097 4.87919E-01
 -1      1098 3.63008E-01
 -1      1099 2.62730E-01
 -1      1100 1.61910E-01
 -1      1101 7.88306E-02
 -1      1102 1.58645E-01
 -1      1103 1.69905E+00
 -1      1104 3.55613E-01
 -1      1105 6.85551E-01
 -1      1106 1.07830E+00
 -1      1107 2.64279E+00
 -1      1108 1.35294E-01
 -1      1109 2.56612E+00
 -1      1110 2.92850E-01
 -1      1111 1.34086E-01
 -1      1112 2.92925E+00
 -1      1113 3.62147E+00
 -1      1114 1.34086E-01
 -1      1115 1.68898E-01
 -1      1116 2.01948E-01
 -1      1117 1.35148E-01
 -1      1118 1.68374E+00
 -1      1119 5.36024E-01
 -1      1120 1.49943E+00
 -1      1121 4.08761E-01
 -1      1122 1.99762E+00
 -1      1123 1.67385E-01
 -1      1124 2.41407E-01
 -1      1125 1.07830E+00
 -1      1126 7.95659E-01
 -1      1127 8.81111E-01
 -1      1128 1.66630E+00
 -1      1129 3.20072E-01
 -1      1130 1.58645E-01
 -1      1131 3.20072E-01
 -1      1132 1.31332E+01
 -1      1133 8.37950E+00
 -1      1134 2.71220E+00
 -1      1135 1.53843E+00
 -1      1136 1.15519E+00
 -1      1137 9.59355E-01
 -1      1138 8.39829E-01
 -1      1139 7.64546E-01
 -1      1140 7.36920E-01
 -1      1141 7.67498E-01
 -1      1142 8.42371E-01
 -1      1143 9.64302E-01
 -1      1144 1.16859E+00
 -1      1145 1.55220E+00
 -1      1146 2.63840E+00
 -1      1147 6.03747E+00
 -1      1148 1.13176E+01
 -1      1149 1.31332E+01
 -1      1150 8.73940E+00
 -1      1151 3.85579E+00
 -1      1152 2.75194E+00
 -1      1153 1.77861E+00
 -1      1154 1.25802E+00
 -1      1155 9.86597E-01
 -1      1156 7.96752E-01
 -1      1157 6.57437E-01
 -1      1158 5.52370E-01
 -1      1159 5.22751E-01
 -1      1160 5.81204E-01
 -1      1161 6.72612E-01
 -1      1162 7.70704E-01
 -1      1163 9.20105E-01
 -1      1164 1.15244E+00
 -1      1165 1.45397E+00
 -1      1166 1.75925E+00
 -1      1167 1.91995E+00
 -1      1168 1.94466E+00
 -1      1169 1.94306E+00
 -1      1170 2.16493E+00
 -1      1171 3.32034E+00
 -1      1172 4.89533E+00
 -1      1173 5.53870E+00
 -1      1174 5.53903E+00
 -1      1175 5.14238E+00
 -1      1176 3.64234E+00
 -1      1177 2.23977E+00
 -1      1178 1.94058E+00
 -1      1179 1.93094E+00
 -1      1180 1.92131E+00
 -1      1181 1.80298E+00
 -1      1182 1.51796E+00
 -1      1183 1.21387E+00
 -1      1184 9.52001E-01
 -1      1185 7.46348E-01
 -1      1186 6.04971E-01
 -1      1187 4.88542E-01
 -1      1188 3.83329E-01
 -1      1189 2.93519E-01
 -1      1190 2.19769E-01
 -1      1191 1.60891E-01
 -1      1192 1.21398E-01
 -1      1193 9.77640E-02
 -1      1194 7.83414E-02
 -1      1195 6.00949E-02
 -1      1196 4.20429E-02
 -1      1197 2.54171E-02
 -1      1198 1.16450E-02
 -1      1199 1.40288E+01
 -1      1200 8.72571E+00
 -1      1201 2.93203E+00
 -1      1202 2.06923E+00
 -1      1203 1.44750E+00
 -1      1204 1.09907E+00
 -1      1205 9.24396E-01
 -1      1206 7.89818E-01
 -1      1207 6.84898E-01
 -1      1208 6.01965E-01
 -1      1209 5.34456E-01
 -1      1210 4.91351E-01
 -1      1211 4.89885E-01
 -1      1212 5.03210E-01
 -1      1213 5.05629E-01
 -1      1214 5.60362E-01
 -1      1215 6.73117E-01
 -1      1216 7.53563E-01
 -1      1217 8.95902E-01
 -1      1218 1.05536E+00
 -1      1219 1.17964E+00
 -1      1220 1.36041E+00
 -1      1221 1.75696E+00
 -1      1222 2.31062E+00
 -1      1223 2.69743E+00
 -1      1224 2.87998E+00
 -1      1225 2.92887E+00
 -1      1226 2.63649E+00
 -1      1227 1.91199E+00
 -1      1228 1.24039E+00
 -1      1229 8.78914E-01
 -1      1230 8.03903E-01
 -1      1231 8.67137E-01
 -1      1232 8.83387E-01
 -1      1233 8.49556E-01
 -1      1234 7.56629E-01
 -1      1235 6.41679E-01
 -1      1236 5.29173E-01
 -1      1237 4.18632E-01
 -1      1238 3.18313E-01
 -1      1239 2.44332E-01
 -1      1240 1.92096E-01
 -1      1241 1.46369E-01
 -1      1242 1.08032E-01
 -1      1243 7.68780E-02
 -1      1244 5.44582E-02
 -1      1245 4.15119E-02
 -1      1246 3.15843E-02
 -1      1247 2.09091E-02
 -1      1248 1.01267E-02
 -1      1249 4.62916E-03
 -1      1250 5.22275E-03
 -1      1251 5.66459E-03
 -1      1252 5.06089E-03
 -1      1253 3.19651E-03
 -1      1254 2.79624E-03
 -1      1255 4.40811E-03
 -1      1256 5.40678E-03
 -1      1257 5.65400E-03
 -1      1258 5.38874E-03
 -1      1259 4.35103E-03
 -1      1260 2.90193E-03
 -1      1261 3.52164E-03
 -1      1262 5.23470E-03
 -1      1263 5.65140E-03
 -1      1264 5.77634E-03
 -1      1265 5.62834E-03
 -1      1266 2.45855E+01
 -1      1267 3.60192E+01
 -1      1268 4.74529E+01
 -1      1269 3.38816E+01
 -1      1270 1.62800E+01
 -1      1271 1.24869E+01
 -1      1272 1.27241E+01
 -1      1273 1.25547E+01
 -1      1274 1.23853E+01
 -1      1275 1.23758E+01
 -1      1276 1.89747E+01
 -1      1277 2.79602E+01
 -1      1278 3.03372E+01
 -1      1279 2.84539E+01
 -1      1280 2.65706E+01
 -1      1281 2.59757E+01
 -1      1282 3.53775E+01
 -1      1283 4.53741E+01
 -1      1284 3.15521E+01
 -1      1285 1.51333E+01
 -1      1286 1.25364E+01
 -1      1287 1.25088E+01
 -1      1288 1.24813E+01
 -1      1289 1.23690E+01
 -1      1290 1.21202E+01
 -1      1291 1.86459E+01
 -1      1292 2.76744E+01
 -1      1293 3.00407E+01
 -1      1294 2.73116E+01
 -1      1295 2.45839E+01
 -1      1296 1.31332E+01
 -1      1297 4.82636E+00
 -1      1298 9.58002E+00
 -1      1299 2.03516E+00
 -1      1300 2.94879E+00
 -1      1301 4.14932E+00
 -1      1302 1.38700E+00
 -1      1303 1.64714E+00
 -1      1304 1.88373E+00
 -1      1305 1.09056E+00
 -1      1306 1.21367E+00
 -1      1307 1.32237E+00
 -1      1308 9.24013E-01
 -1      1309 9.96731E-01
 -1      1310 1.05521E+00
 -1      1311 8.22049E-01
 -1      1312 8.68857E-01
 -1      1313 9.06233E-01
 -1      1314 7.58022E-01
 -1      1315 7.86497E-01
 -1      1316 8.15525E-01
 -1      1317 7.37768E-01
 -1      1318 7.36920E-01
 -1      1319 7.58870E-01
 -1      1320 7.90206E-01
 -1      1321 7.60476E-01
 -1      1322 7.60476E-01
 -1      1323 8.70676E-01
 -1      1324 8.25533E-01
 -1      1325 8.18510E-01
 -1      1326 1.00569E+00
 -1      1327 9.28905E-01
 -1      1328 9.12066E-01
 -1      1329 1.22971E+00
 -1      1330 1.10221E+00
 -1      1331 1.06682E+00
 -1      1332 1.66297E+00
 -1      1333 1.40686E+00
 -1      1334 1.34049E+00
 -1      1335 2.85788E+00
 -1      1336 2.02779E+00
 -1      1337 1.88245E+00
 -1      1338 6.25395E+00
 -1      1339 3.68498E+00
 -1      1340 3.07437E+00
 -1      1341 1.40288E+01
 -1      1342 1.13176E+01
 -1      1343 8.96512E+00
 -1      1344 1.40288E+01
 -1      1345 8.73940E+00
 -1      1346 4.34562E+00
 -1      1347 3.85579E+00
 -1      1348 3.36596E+00
 -1      1349 3.85579E+00
 -1      1350 2.75194E+00
 -1      1351 2.13793E+00
 -1      1352 2.75194E+00
 -1      1353 1.80100E+00
 -1      1354 1.44169E+00
 -1      1355 1.80100E+00
 -1      1356 1.25802E+00
 -1      1357 1.09674E+00
 -1      1358 1.28041E+00
 -1      1359 9.86597E-01
 -1      1360 8.76449E-01
 -1      1361 9.86597E-01
 -1      1362 7.96752E-01
 -1      1363 7.17056E-01
 -1      1364 7.96752E-01
 -1      1365 6.57437E-01
 -1      1366 5.97819E-01
 -1      1367 6.57437E-01
 -1      1368 5.52370E-01
 -1      1369 5.06920E-01
 -1      1370 5.52370E-01
 -1      1371 4.88388E-01
 -1      1372 5.04219E-01
 -1      1373 4.88388E-01
 -1      1374 5.38582E-01
 -1      1375 5.81204E-01
 -1      1376 5.04219E-01
 -1      1377 6.23825E-01
 -1      1378 6.72612E-01
 -1      1379 5.81204E-01
 -1      1380 7.25432E-01
 -1      1381 7.74737E-01
 -1      1382 6.76645E-01
 -1      1383 8.80950E-01
 -1      1384 9.81046E-01
 -1      1385 8.35678E-01
 -1      1386 1.08194E+00
 -1      1387 1.21417E+00
 -1      1388 1.04278E+00
 -1      1389 1.31292E+00
 -1      1390 1.48221E+00
 -1      1391 1.24241E+00
 -1      1392 1.62326E+00
 -1      1393 1.75925E+00
 -1      1394 1.48221E+00
 -1      1395 1.89524E+00
 -1      1396 1.91995E+00
 -1      1397 1.75925E+00
 -1      1398 1.94466E+00
 -1      1399 1.94466E+00
 -1      1400 1.91995E+00
 -1      1401 1.94306E+00
 -1      1402 1.94146E+00
 -1      1403 1.94306E+00
 -1      1404 1.81444E+00
 -1      1405 2.03790E+00
 -1      1406 1.81444E+00
 -1      1407 2.41484E+00
 -1      1408 3.34678E+00
 -1      1409 2.06435E+00
 -1      1410 4.25228E+00
 -1      1411 4.89533E+00
 -1      1412 3.34678E+00
 -1      1413 5.53838E+00
 -1      1414 5.53870E+00
 -1      1415 4.89533E+00
 -1      1416 5.53903E+00
 -1      1417 5.53903E+00
 -1      1418 5.53870E+00
 -1      1419 5.14238E+00
 -1      1420 4.74572E+00
 -1      1421 5.14238E+00
 -1      1422 3.77698E+00
 -1      1423 2.67360E+00
 -1      1424 3.77698E+00
 -1      1425 2.18693E+00
 -1      1426 1.88774E+00
 -1      1427 2.32157E+00
 -1      1428 1.94058E+00
 -1      1429 1.94058E+00
 -1      1430 1.88774E+00
 -1      1431 1.91050E+00
 -1      1432 1.90087E+00
 -1      1433 1.91050E+00
 -1      1434 1.92131E+00
 -1      1435 1.92131E+00
 -1      1436 1.90087E+00
 -1      1437 1.80298E+00
 -1      1438 1.68465E+00
 -1      1439 1.80298E+00
 -1      1440 1.53811E+00
 -1      1441 1.37141E+00
 -1      1442 1.53811E+00
 -1      1443 1.27434E+00
 -1      1444 1.13696E+00
 -1      1445 1.29450E+00
 -1      1446 1.04426E+00
 -1      1447 9.19772E-01
 -1      1448 1.10473E+00
 -1      1449 8.19642E-01
 -1      1450 7.38476E-01
 -1      1451 9.11900E-01
 -1      1452 6.45012E-01
 -1      1453 5.84801E-01
 -1      1454 7.18306E-01
 -1      1455 5.04574E-01
 -1      1456 4.48355E-01
 -1      1457 5.44615E-01
 -1      1458 3.83329E-01
 -1      1459 3.34335E-01
 -1      1460 3.99361E-01
 -1      1461 2.96890E-01
 -1      1462 2.56075E-01
 -1      1463 2.96890E-01
 -1      1464 2.25309E-01
 -1      1465 1.92375E-01
 -1      1466 2.28681E-01
 -1      1467 1.67381E-01
 -1      1468 1.41436E-01
 -1      1469 1.72920E-01
 -1      1470 1.21575E-01
 -1      1471 1.08026E-01
 -1      1472 1.28064E-01
 -1      1473 9.77640E-02
 -1      1474 8.76792E-02
 -1      1475 9.79412E-02
 -1      1476 7.83414E-02
 -1      1477 6.90035E-02
 -1      1478 7.83414E-02
 -1      1479 6.00949E-02
 -1      1480 5.11862E-02
 -1      1481 6.00949E-02
 -1      1482 4.22106E-02
 -1      1483 3.30672E-02
 -1      1484 4.22106E-02
 -1      1485 2.60739E-02
 -1      1486 1.85915E-02
 -1      1487 2.62416E-02
 -1      1488 1.19180E-02
 -1      1489 1.25748E-02
 -1      1490 3.42265E+00
 -1      1491 8.72571E+00
 -1      1492 8.72571E+00
 -1      1493 2.44140E+00
 -1      1494 2.93203E+00
 -1      1495 2.93203E+00
 -1      1496 1.69707E+00
 -1      1497 2.06923E+00
 -1      1498 2.06923E+00
 -1      1499 1.19794E+00
 -1      1500 1.44750E+00
 -1      1501 1.44750E+00
 -1      1502 1.00021E+00
 -1      1503 1.09907E+00
 -1      1504 1.09907E+00
 -1      1505 8.48585E-01
 -1      1506 9.24396E-01
 -1      1507 9.24396E-01
 -1      1508 7.31051E-01
 -1      1509 7.89818E-01
 -1      1510 7.89818E-01
 -1      1511 6.38745E-01
 -1      1512 6.84898E-01
 -1      1513 6.84898E-01
 -1      1514 5.65186E-01
 -1      1515 6.01965E-01
 -1      1516 6.01965E-01
 -1      1517 5.03726E-01
 -1      1518 5.34456E-01
 -1      1519 5.34456E-01
 -1      1520 4.63392E-01
 -1      1521 4.75766E-01
 -1      1522 4.75766E-01
 -1      1523 4.89885E-01
 -1      1524 4.78977E-01
 -1      1525 4.63392E-01
 -1      1526 5.03210E-01
 -1      1527 5.00792E-01
 -1      1528 4.89885E-01
 -1      1529 5.05629E-01
 -1      1530 5.05629E-01
 -1      1531 5.03210E-01
 -1      1532 5.60153E-01
 -1      1533 5.05420E-01
 -1      1534 5.05420E-01
 -1      1535 6.73117E-01
 -1      1536 6.15095E-01
 -1      1537 5.60153E-01
 -1      1538 7.53563E-01
 -1      1539 7.31138E-01
 -1      1540 6.73117E-01
 -1      1541 8.95902E-01
 -1      1542 7.75987E-01
 -1      1543 7.53563E-01
 -1      1544 1.05536E+00
 -1      1545 1.01582E+00
 -1      1546 8.95902E-01
 -1      1547 1.17964E+00
 -1      1548 1.09490E+00
 -1      1549 1.05536E+00
 -1      1550 1.36041E+00
 -1      1551 1.26438E+00
 -1      1552 1.17964E+00
 -1      1553 1.77811E+00
 -1      1554 1.47759E+00
 -1      1555 1.38156E+00
 -1      1556 2.31062E+00
 -1      1557 2.05748E+00
 -1      1558 1.77811E+00
 -1      1559 2.69743E+00
 -1      1560 2.56377E+00
 -1      1561 2.31062E+00
 -1      1562 2.87998E+00
 -1      1563 2.83109E+00
 -1      1564 2.69743E+00
 -1      1565 2.92887E+00
 -1      1566 2.92887E+00
 -1      1567 2.87998E+00
 -1      1568 2.34411E+00
 -1      1569 2.63649E+00
 -1      1570 2.63649E+00
 -1      1571 1.47987E+00
 -1      1572 1.91199E+00
 -1      1573 1.91199E+00
 -1      1574 1.00091E+00
 -1      1575 1.24039E+00
 -1      1576 1.24039E+00
 -1      1577 7.26356E-01
 -1      1578 8.48353E-01
 -1      1579 8.48353E-01
 -1      1580 8.03903E-01
 -1      1581 7.56917E-01
 -1      1582 7.26356E-01
 -1      1583 8.67137E-01
 -1      1584 8.50888E-01
 -1      1585 8.03903E-01
 -1      1586 8.83387E-01
 -1      1587 8.83387E-01
 -1      1588 8.67137E-01
 -1      1589 8.15726E-01
 -1      1590 8.49556E-01
 -1      1591 8.49556E-01
 -1      1592 6.97533E-01
 -1      1593 7.56629E-01
 -1      1594 7.56629E-01
 -1      1595 5.85826E-01
 -1      1596 6.41679E-01
 -1      1597 6.41679E-01
 -1      1598 4.78239E-01
 -1      1599 5.34892E-01
 -1      1600 5.34892E-01
 -1      1601 3.75108E-01
 -1      1602 4.28997E-01
 -1      1603 4.34716E-01
 -1      1604 2.83394E-01
 -1      1605 3.29824E-01
 -1      1606 3.40189E-01
 -1      1607 2.16852E-01
 -1      1608 2.44403E-01
 -1      1609 2.55914E-01
 -1      1610 1.67411E-01
 -1      1611 1.92096E-01
 -1      1612 1.92167E-01
 -1      1613 1.25327E-01
 -1      1614 1.46369E-01
 -1      1615 1.46369E-01
 -1      1616 9.12356E-02
 -1      1617 1.08530E-01
 -1      1618 1.08530E-01
 -1      1619 6.44901E-02
 -1      1620 7.83492E-02
 -1      1621 7.88476E-02
 -1      1622 4.58976E-02
 -1      1623 5.44582E-02
 -1      1624 5.59294E-02
 -1      1625 3.71262E-02
 -1      1626 4.15119E-02
 -1      1627 4.15119E-02
 -1      1628 2.60423E-02
 -1      1629 3.15843E-02
 -1      1630 3.15843E-02
 -1      1631 1.57760E-02
 -1      1632 2.09091E-02
 -1      1633 2.09091E-02
 -1      1634 1.02784E-02
 -1      1635 7.18383E-03
 -1      1636 6.74199E-03
 -1      1637 7.94958E-03
 -1      1638 7.94958E-03
 -1      1639 9.46882E-03
 -1      1640 7.34588E-03
 -1      1641 7.94958E-03
 -1      1642 1.02346E-02
 -1      1643 4.41311E-03
 -1      1644 5.67379E-03
 -1      1645 8.56249E-03
 -1      1646 5.52895E-03
 -1      1647 4.66853E-03
 -1      1648 7.14582E-03
 -1      1649 7.86544E-03
 -1      1650 7.11399E-03
 -1      1651 8.98628E-03
 -1      1652 8.78307E-03
 -1      1653 8.53585E-03
 -1      1654 1.12417E-02
 -1      1655 8.79370E-03
 -1      1656 8.79370E-03
 -1      1657 1.19228E-02
 -1      1658 8.52844E-03
 -1      1659 8.79370E-03
 -1      1660 1.19334E-02
 -1      1661 7.06554E-03
 -1      1662 7.83799E-03
 -1      1663 1.12430E-02
 -1      1664 4.84148E-03
 -1      1665 5.51813E-03
 -1      1666 9.00510E-03
 -1      1667 6.08508E-03
 -1      1668 4.78873E-03
 -1      1669 7.40493E-03
 -1      1670 8.28687E-03
 -1      1671 7.87016E-03
 -1      1672 9.13725E-03
 -1      1673 8.28687E-03
 -1      1674 8.28687E-03
 -1      1675 1.09223E-02
 -1      1676 8.26969E-03
 -1      1677 8.14475E-03
 -1      1678 1.07802E-02
 -1      1679 1.49432E-02
 -1      1680 2.78904E+01
 -1      1681 2.78904E+01
 -1      1682 3.84453E+01
 -1      1683 2.70116E+01
 -1      1684 4.74529E+01
 -1      1685 4.74529E+01
 -1      1686 2.09902E+01
 -1      1687 3.45615E+01
 -1      1688 1.17959E+01
 -1      1689 1.58261E+01
 -1      1690 1.24869E+01
 -1      1691 1.22497E+01
 -1      1692 1.27241E+01
 -1      1693 1.27241E+01
 -1      1694 1.22047E+01
 -1      1695 1.23741E+01
 -1      1696 1.23853E+01
 -1      1697 1.23853E+01
 -1      1698 1.20947E+01
 -1      1699 1.21042E+01
 -1      1700 1.89747E+01
 -1      1701 1.23663E+01
 -1      1702 2.90161E+01
 -1      1703 2.66391E+01
 -1      1704 3.17800E+01
 -1      1705 3.17800E+01
 -1      1706 2.98967E+01
 -1      1707 3.17800E+01
 -1      1708 2.91609E+01
 -1      1709 2.91609E+01
 -1      1710 2.67652E+01
 -1      1711 2.73601E+01
 -1      1712 4.19198E+01
 -1      1713 3.19232E+01
 -1      1714 4.53741E+01
 -1      1715 4.53741E+01
 -1      1716 1.90265E+01
 -1      1717 3.28485E+01
 -1      1718 1.16086E+01
 -1      1719 1.42055E+01
 -1      1720 1.25364E+01
 -1      1721 1.25364E+01
 -1      1722 1.23591E+01
 -1      1723 1.23866E+01
 -1      1724 1.24813E+01
 -1      1725 1.24813E+01
 -1      1726 1.22567E+01
 -1      1727 1.23690E+01
 -1      1728 1.18338E+01
 -1      1729 1.19703E+01
 -1      1730 1.86459E+01
 -1      1731 1.19837E+01
 -1      1732 2.81511E+01
 -1      1733 2.57848E+01
 -1      1734 3.08338E+01
 -1      1735 3.08338E+01
 -1      1736 2.81046E+01
 -1      1737 3.08338E+01
 -1      1738 2.78904E+01
 -1      1739 2.78889E+01
 -1      1740 1.65061E+01
 -1      1741 3.45615E+01
 -1      1742 1.02784E-02
 -1      1743 1.22395E-02
 -1      1744 3.03166E+01
 -1      1745 3.84453E+01
 -1      1746 3.11954E+01
 -1      1747 1.17959E+01
 -1      1748 1.24869E+01
 -1      1749 1.23741E+01
 -1      1750 1.22047E+01
 -1      1751 1.21042E+01
 -1      1752 1.20947E+01
 -1      1753 2.00307E+01
 -1      1754 3.04589E+01
 -1      1755 3.32228E+01
 -1      1756 3.24870E+01
 -1      1757 2.99504E+01
 -1      1758 3.33076E+01
 -1      1759 4.19198E+01
 -1      1760 3.28485E+01
 -1      1761 1.55019E+01
 -1      1762 1.16086E+01
 -1      1763 1.23866E+01
 -1      1764 1.23591E+01
 -1      1765 1.23690E+01
 -1      1766 1.19703E+01
 -1      1767 1.18338E+01
 -1      1768 1.91226E+01
 -1      1769 2.89442E+01
 -1      1770 3.16269E+01
 -1      1771 3.14111E+01
 -1      1772 9.58002E+00
 -1      1773 1.27248E+00
 -1      1774 1.66051E+00
 -1      1775 2.35713E+00
 -1      1776 4.23469E+00
 -1      1777 1.74588E+00
 -1      1778 8.71013E-01
 -1      1779 9.64839E-01
 -1      1780 7.68151E-01
 -1      1781 8.23307E-01
 -1      1782 7.32931E-01
 -1      1783 6.99935E-01
 -1      1784 7.35487E-01
 -1      1785 6.52561E-01
 -1      1786 6.55684E-01
 -1      1787 6.76787E-01
 -1      1788 5.96749E-01
 -1      1789 6.79912E-01
 -1      1790 6.57204E-01
 -1      1791 5.75120E-01
 -1      1792 7.38135E-01
 -1      1793 7.02808E-01
 -1      1794 5.99536E-01
 -1      1795 8.30855E-01
 -1      1796 7.72626E-01
 -1      1797 6.56924E-01
 -1      1798 9.75865E-01
 -1      1799 8.79345E-01
 -1      1800 7.39905E-01
 -1      1801 1.22116E+00
 -1      1802 1.04401E+00
 -1      1803 8.56539E-01
 -1      1804 1.69345E+00
 -1      1805 1.32863E+00
 -1      1806 1.03215E+00
 -1      1807 2.60239E+00
 -1      1808 1.77529E+00
 -1      1809 1.22147E+00
 -1      1810 8.10849E+00
 -1      1811 3.04483E+00
 -1      1812 1.74576E+00
 -1      1813 2.80543E+00
 -1      1814 5.18625E+00
 -1      1815 2.16787E+00
 -1      1816 2.65849E+00
 -1      1817 2.04127E+00
 -1      1818 3.39406E+00
 -1      1819 2.55338E+00
 -1      1820 1.93936E+00
 -1      1821 1.70599E+00
 -1      1822 1.36906E+00
 -1      1823 1.50742E+00
 -1      1824 1.18561E+00
 -1      1825 1.00194E+00
 -1      1826 1.09060E+00
 -1      1827 8.98938E-01
 -1      1828 7.88790E-01
 -1      1829 8.04138E-01
 -1      1830 7.38251E-01
 -1      1831 6.58554E-01
 -1      1832 6.50592E-01
 -1      1833 6.12191E-01
 -1      1834 5.52573E-01
 -1      1835 5.53690E-01
 -1      1836 5.09903E-01
 -1      1837 4.64454E-01
 -1      1838 4.64657E-01
 -1      1839 4.30873E-01
 -1      1840 4.12341E-01
 -1      1841 3.88407E-01
 -1      1842 4.42314E-01
 -1      1843 4.76678E-01
 -1      1844 3.84800E-01
 -1      1845 5.11036E-01
 -1      1846 5.53658E-01
 -1      1847 4.49132E-01
 -1      1848 6.28173E-01
 -1      1849 6.80993E-01
 -1      1850 5.58005E-01
 -1      1851 7.79611E-01
 -1      1852 8.85824E-01
 -1      1853 7.31139E-01
 -1      1854 9.83876E-01
 -1      1855 1.08477E+00
 -1      1856 9.27810E-01
 -1      1857 1.16797E+00
 -1      1858 1.26672E+00
 -1      1859 1.10907E+00
 -1      1860 1.33438E+00
 -1      1861 1.47543E+00
 -1      1862 1.25994E+00
 -1      1863 1.55495E+00
 -1      1864 1.69094E+00
 -1      1865 1.40713E+00
 -1      1866 1.70741E+00
 -1      1867 1.73212E+00
 -1      1868 1.50311E+00
 -1      1869 1.70607E+00
 -1      1870 1.70447E+00
 -1      1871 1.49352E+00
 -1      1872 1.77810E+00
 -1      1873 1.65108E+00
 -1      1874 1.54111E+00
 -1      1875 1.70571E+00
 -1      1876 2.08264E+00
 -1      1877 1.66937E+00
 -1      1878 2.38098E+00
 -1      1879 3.28648E+00
 -1      1880 2.02234E+00
 -1      1881 3.66663E+00
 -1      1882 4.30968E+00
 -1      1883 2.70083E+00
 -1      1884 4.47102E+00
 -1      1885 4.47135E+00
 -1      1886 3.24233E+00
 -1      1887 4.46055E+00
 -1      1888 4.06390E+00
 -1      1889 3.39288E+00
 -1      1890 3.62980E+00
 -1      1891 2.66106E+00
 -1      1892 2.94798E+00
 -1      1893 2.31819E+00
 -1      1894 1.83152E+00
 -1      1895 2.17101E+00
 -1      1896 1.73298E+00
 -1      1897 1.78582E+00
 -1      1898 1.72960E+00
 -1      1899 1.67889E+00
 -1      1900 1.64881E+00
 -1      1901 1.52413E+00
 -1      1902 1.70813E+00
 -1      1903 1.72857E+00
 -1      1904 1.47652E+00
 -1      1905 1.71146E+00
 -1      1906 1.59313E+00
 -1      1907 1.51872E+00
 -1      1908 1.52930E+00
 -1      1909 1.38276E+00
 -1      1910 1.43778E+00
 -1      1911 1.31828E+00
 -1      1912 1.22121E+00
 -1      1913 1.30947E+00
 -1      1914 1.14939E+00
 -1      1915 1.05669E+00
 -1      1916 1.17316E+00
 -1      1917 9.66918E-01
 -1      1918 8.66787E-01
 -1      1919 1.01157E+00
 -1      1920 7.75875E-01
 -1      1921 6.82411E-01
 -1      1922 8.30893E-01
 -1      1923 5.99720E-01
 -1      1924 5.19492E-01
 -1      1925 6.57289E-01
 -1      1926 4.49075E-01
 -1      1927 3.84049E-01
 -1      1928 5.04181E-01
 -1      1929 3.26717E-01
 -1      1930 2.89273E-01
 -1      1931 3.76432E-01
 -1      1932 2.44127E-01
 -1      1933 2.13361E-01
 -1      1934 2.73954E-01
 -1      1935 1.78762E-01
 -1      1936 1.53767E-01
 -1      1937 1.94208E-01
 -1      1938 1.28064E-01
 -1      1939 1.08203E-01
 -1      1940 1.33906E-01
 -1      1941 9.26891E-02
 -1      1942 8.24271E-02
 -1      1943 9.26891E-02
 -1      1944 7.18162E-02
 -1      1945 6.24784E-02
 -1      1946 6.65641E-02
 -1      1947 5.44497E-02
 -1      1948 4.55411E-02
 -1      1949 4.79246E-02
 -1      1950 3.97898E-02
 -1      1951 3.08142E-02
 -1      1952 3.41447E-02
 -1      1953 2.58678E-02
 -1      1954 1.88745E-02
 -1      1955 1.45694E-02
 -1      1956 2.34471E-02
 -1      1957 1.42155E+00
 -1      1958 1.79371E+00
 -1      1959 1.52018E+00
 -1      1960 1.04168E+00
 -1      1961 1.29124E+00
 -1      1962 1.01573E+00
 -1      1963 8.43341E-01
 -1      1964 9.42207E-01
 -1      1965 7.85949E-01
 -1      1966 7.01704E-01
 -1      1967 7.77516E-01
 -1      1968 6.20649E-01
 -1      1969 6.21062E-01
 -1      1970 6.79829E-01
 -1      1971 5.32949E-01
 -1      1972 5.52476E-01
 -1      1973 5.98629E-01
 -1      1974 4.88640E-01
 -1      1975 4.93965E-01
 -1      1976 5.30745E-01
 -1      1977 4.44476E-01
 -1      1978 4.42238E-01
 -1      1979 4.72968E-01
 -1      1980 4.01748E-01
 -1      1981 4.11803E-01
 -1      1982 4.39763E-01
 -1      1983 3.78275E-01
 -1      1984 4.41628E-01
 -1      1985 4.26043E-01
 -1      1986 3.90040E-01
 -1      1987 4.84161E-01
 -1      1988 4.73254E-01
 -1      1989 4.35904E-01
 -1      1990 5.28474E-01
 -1      1991 5.26055E-01
 -1      1992 5.09424E-01
 -1      1993 5.51500E-01
 -1      1994 5.51709E-01
 -1      1995 5.74554E-01
 -1      1996 6.06443E-01
 -1      1997 5.51500E-01
 -1      1998 5.97790E-01
 -1      1999 6.54259E-01
 -1      2000 5.96238E-01
 -1      2001 5.87585E-01
 -1      2002 6.16574E-01
 -1      2003 5.94150E-01
 -1      2004 5.17271E-01
 -1      2005 7.46908E-01
 -1      2006 6.26993E-01
 -1      2007 4.67580E-01
 -1      2008 9.15305E-01
 -1      2009 8.75763E-01
 -1      2010 6.06854E-01
 -1      2011 1.23038E+00
 -1      2012 1.14564E+00
 -1      2013 9.66047E-01
 -1      2014 1.51876E+00
 -1      2015 1.40158E+00
 -1      2016 1.36758E+00
 -1      2017 1.82829E+00
 -1      2018 1.54893E+00
 -1      2019 1.56894E+00
 -1      2020 2.08144E+00
 -1      2021 1.82829E+00
 -1      2022 1.59911E+00
 -1      2023 2.21929E+00
 -1      2024 2.08563E+00
 -1      2025 1.60330E+00
 -1      2026 2.37293E+00
 -1      2027 2.32404E+00
 -1      2028 1.71225E+00
 -1      2029 1.98646E+00
 -1      2030 2.27884E+00
 -1      2031 1.72290E+00
 -1      2032 1.31532E+00
 -1      2033 1.74743E+00
 -1      2034 1.38978E+00
 -1      2035 8.57455E-01
 -1      2036 1.09694E+00
 -1      2037 9.32378E-01
 -1      2038 5.84215E-01
 -1      2039 7.36773E-01
 -1      2040 5.93316E-01
 -1      2041 6.32773E-01
 -1      2042 6.02212E-01
 -1      2043 4.90632E-01
 -1      2044 7.25130E-01
 -1      2045 6.78144E-01
 -1      2046 5.54000E-01
 -1      2047 7.62788E-01
 -1      2048 7.46538E-01
 -1      2049 6.20780E-01
 -1      2050 7.27346E-01
 -1      2051 7.61177E-01
 -1      2052 6.40578E-01
 -1      2053 6.39705E-01
 -1      2054 6.98802E-01
 -1      2055 6.10422E-01
 -1      2056 5.53096E-01
 -1      2057 6.08950E-01
 -1      2058 5.51122E-01
 -1      2059 4.64649E-01
 -1      2060 5.15583E-01
 -1      2061 4.82853E-01
 -1      2062 3.74666E-01
 -1      2063 4.23909E-01
 -1      2064 4.04599E-01
 -1      2065 2.90275E-01
 -1      2066 3.35560E-01
 -1      2067 3.24753E-01
 -1      2068 2.16518E-01
 -1      2069 2.55509E-01
 -1      2070 2.50880E-01
 -1      2071 1.64211E-01
 -1      2072 1.88967E-01
 -1      2073 1.88562E-01
 -1      2074 1.24341E-01
 -1      2075 1.45383E-01
 -1      2076 1.42183E-01
 -1      2077 9.17340E-02
 -1      2078 1.08530E-01
 -1      2079 1.07545E-01
 -1      2080 6.59612E-02
 -1      2081 7.88476E-02
 -1      2082 7.88476E-02
 -1      2083 4.56348E-02
 -1      2084 5.56666E-02
 -1      2085 5.56666E-02
 -1      2086 3.33724E-02
 -1      2087 3.77581E-02
 -1      2088 3.74953E-02
 -1      2089 2.25094E-02
 -1      2090 2.80514E-02
 -1      2091 2.42976E-02
 -1      2092 1.29783E-02
 -1      2093 1.81114E-02
 -1      2094 1.45786E-02
 -1      2095 9.44180E-03
 -1      2096 9.66721E-03
 -1      2097 1.13393E-02
 -1      2098 1.32392E-02
 -1      2099 1.32392E-02
 -1      2100 1.43440E-02
 -1      2101 1.32392E-02
 -1      2102 1.24735E-02
 -1      2103 1.32122E-02
 -1      2104 1.62439E-02
 -1      2105 8.96715E-03
 -1      2106 8.71173E-03
 -1      2107 1.14885E-02
 -1      2108 1.30607E-02
 -1      2109 1.14757E-02
 -1      2110 1.30416E-02
 -1      2111 1.49998E-02
 -1      2112 1.43294E-02
 -1      2113 1.68188E-02
 -1      2114 1.50105E-02
 -1      2115 1.49998E-02
 -1      2116 1.80875E-02
 -1      2117 1.50609E-02
 -1      2118 1.50609E-02
 -1      2119 1.81380E-02
 -1      2120 1.43704E-02
 -1      2121 1.50609E-02
 -1      2122 1.81884E-02
 -1      2123 1.16583E-02
 -1      2124 1.32057E-02
 -1      2125 1.70237E-02
 -1      2126 9.07390E-03
 -1      2127 9.12666E-03
 -1      2128 1.33273E-02
 -1      2129 1.21059E-02
 -1      2130 1.03208E-02
 -1      2131 1.20425E-02
 -1      2132 1.37405E-02
 -1      2133 1.37405E-02
 -1      2134 1.49241E-02
 -1      2135 3.84453E+01
 -1      2136 2.94377E+01
 -1      2137 3.14014E+01
 -1      2138 3.14014E+01
 -1      2139 3.02207E+01
 -1      2140 3.10995E+01
 -1      2141 3.02207E+01
 -1      2142 1.92062E+01
 -1      2143 3.20976E+01
 -1      2144 1.02535E+01
 -1      2145 1.54176E+01
 -1      2146 1.02733E+00
 -1      2147 1.20066E+00
 -1      2148 9.77434E-01
 -1      2149 8.43125E-01
 -1      2150 1.12654E+01
 -1      2151 1.10283E+01
 -1      2152 1.10840E+01
 -1      2153 1.14340E+01
 -1      2154 1.14132E+01
 -1      2155 1.12326E+01
 -1      2156 1.05354E+01
 -1      2157 1.08165E+01
 -1      2158 9.69081E+00
 -1      2159 9.41919E+00
 -1      2160 1.93713E+01
 -1      2161 1.17070E+01
 -1      2162 2.62464E+01
 -1      2163 2.34825E+01
 -1      2164 3.32228E+01
 -1      2165 3.32228E+01
 -1      2166 2.94363E+01
 -1      2167 3.01721E+01
 -1      2168 3.01721E+01
 -1      2169 2.99504E+01
 -1      2170 3.17512E+01
 -1      2171 3.13862E+01
 -1      2172 2.62283E+01
 -1      2173 3.60300E+01
 -1      2174 3.25757E+01
 -1      2175 1.77526E+01
 -1      2176 3.02782E+01
 -1      2177 9.54037E+00
 -1      2178 1.43614E+01
 -1      2179 9.78943E+00
 -1      2180 8.86166E+00
 -1      2181 7.72121E+00
 -1      2182 1.12423E+01
 -1      2183 1.13921E+01
 -1      2184 1.16488E+01
 -1      2185 1.15265E+01
 -1      2186 1.05320E+01
 -1      2187 1.13240E+01
 -1      2188 1.14363E+01
 -1      2189 1.03972E+01
 -1      2190 1.06836E+01
 -1      2191 9.75086E+00
 -1      2192 9.15179E+00
 -1      2193 9.00193E+00
 -1      2194 1.86867E+01
 -1      2195 1.15478E+01
 -1      2196 8.71591E+00
 -1      2197 2.50648E+01
 -1      2198 2.23821E+01
 -1      2199 3.16269E+01
 -1      2200 3.16269E+01
 -1      2201 3.14014E+01
 -1      2202 3.16171E+01
 -1      2203 3.16171E+01
 -1      2204 9.77090E+00
 -1      2205 9.31703E+00
 -1      2206 8.22855E+00
 -1      2207 2.90423E+00
 -1      2208 8.54942E+00
 -1      2209 2.09165E+00
 -1      2210 3.13055E+01
 -1      2211 2.30900E+01
 -1      2212 1.35984E-02
 -1      2213 3.16073E+01
 -1      2214 1.29537E+01
 -1      2215 1.48073E+01
 -1      2216 7.71519E+00
 -1      2217 1.06038E+01
 -1      2218 8.64514E+00
 -1      2219 1.45063E+01
 -1      2220 1.19360E+01
 -1      2221 8.54481E+00
 -1      2222 2.09341E+01
 -1      2223 2.54964E+01
 -1      2224 3.17512E+01
 -1      2225 2.94363E+01
 -1      2226 3.17512E+01
 -1      2227 2.62464E+01
 -1      2228 1.51589E+01
 -1      2229 9.03147E+00
 -1      2230 8.13155E+00
 -1      2231 9.84447E+00
 -1      2232 9.97530E+00
 -1      2233 1.02925E+01
 -1      2234 2.80291E+01
 -1      2235 2.50648E+01
 -1      2236 1.09804E+00
 -1      2237 1.47219E+00
 -1      2238 5.48573E-01
 -1      2239 5.81237E-01
 -1      2240 5.95081E-01
 -1      2241 6.42787E-01
 -1      2242 4.91093E-01
 -1      2243 4.96617E-01
 -1      2244 4.95098E-01
 -1      2245 5.33760E-01
 -1      2246 5.10864E-01
 -1      2247 4.30841E-01
 -1      2248 5.84676E-01
 -1      2249 5.50185E-01
 -1      2250 4.61512E-01
 -1      2251 6.46854E-01
 -1      2252 5.98365E-01
 -1      2253 4.91626E-01
 -1      2254 7.14999E-01
 -1      2255 6.46854E-01
 -1      2256 5.05315E-01
 -1      2257 8.67130E-01
 -1      2258 7.59660E-01
 -1      2259 5.49976E-01
 -1      2260 8.85424E-01
 -1      2261 1.01573E+00
 -1      2262 9.67737E-01
 -1      2263 1.25960E+00
 -1      2264 1.02622E+00
 -1      2265 7.20083E+00
 -1      2266 5.94347E+00
 -1      2267 9.81684E-01
 -1      2268 7.98233E-01
 -1      2269 7.33856E-01
 -1      2270 7.34069E-01
 -1      2271 6.31062E-01
 -1      2272 6.25157E-01
 -1      2273 5.64368E-01
 -1      2274 5.13829E-01
 -1      2275 4.94299E-01
 -1      2276 4.90251E-01
 -1      2277 4.43888E-01
 -1      2278 4.04027E-01
 -1      2279 4.12458E-01
 -1      2280 3.69788E-01
 -1      2281 3.49019E-01
 -1      2282 3.32848E-01
 -1      2283 2.99268E-01
 -1      2284 2.80649E-01
 -1      2285 3.11861E-01
 -1      2286 3.41834E-01
 -1      2287 2.56302E-01
 -1      2288 3.82237E-01
 -1      2289 4.16595E-01
 -1      2290 3.09298E-01
 -1      2291 4.98385E-01
 -1      2292 5.72900E-01
 -1      2293 4.31490E-01
 -1      2294 6.65154E-01
 -1      2295 7.63773E-01
 -1      2296 6.05534E-01
 -1      2297 8.64718E-01
 -1      2298 9.62770E-01
 -1      2299 7.98733E-01
 -1      2300 1.06731E+00
 -1      2301 1.15052E+00
 -1      2302 1.00422E+00
 -1      2303 1.24840E+00
 -1      2304 1.31607E+00
 -1      2305 1.20664E+00
 -1      2306 1.38988E+00
 -1      2307 1.46940E+00
 -1      2308 1.37834E+00
 -1      2309 1.62325E+00
 -1      2310 1.63972E+00
 -1      2311 1.60601E+00
 -1      2312 1.81077E+00
 -1      2313 1.78472E+00
 -1      2314 1.93092E+00
 -1      2315 1.91720E+00
 -1      2316 1.99083E+00
 -1      2317 2.23445E+00
 -1      2318 2.28398E+00
 -1      2319 2.33861E+00
 -1      2320 2.66007E+00
 -1      2321 2.38881E+00
 -1      2322 2.68716E+00
 -1      2323 3.00343E+00
 -1      2324 3.11263E+00
 -1      2325 3.49278E+00
 -1      2326 3.47910E+00
 -1      2327 3.83344E+00
 -1      2328 3.99478E+00
 -1      2329 4.24524E+00
 -1      2330 4.62120E+00
 -1      2331 4.61040E+00
 -1      2332 5.21231E+00
 -1      2333 3.86541E+00
 -1      2334 3.43131E+00
 -1      2335 5.09373E+00
 -1      2336 2.21931E+00
 -1      2337 1.87644E+00
 -1      2338 3.13674E+00
 -1      2339 2.71414E+00
 -1      2340 2.61560E+00
 -1      2341 2.76244E+00
 -1      2342 2.00309E+00
 -1      2343 1.89617E+00
 -1      2344 2.98763E+00
 -1      2345 1.81654E+00
 -1      2346 1.87586E+00
 -1      2347 2.29550E+00
 -1      2348 1.70452E+00
 -1      2349 1.68741E+00
 -1      2350 2.04455E+00
 -1      2351 1.52124E+00
 -1      2352 1.45741E+00
 -1      2353 1.70704E+00
 -1      2354 1.37419E+00
 -1      2355 1.30971E+00
 -1      2356 1.45765E+00
 -1      2357 1.22029E+00
 -1      2358 1.14847E+00
 -1      2359 1.28501E+00
 -1      2360 1.05017E+00
 -1      2361 9.60398E-01
 -1      2362 1.09729E+00
 -1      2363 8.65419E-01
 -1      2364 7.74506E-01
 -1      2365 9.04012E-01
 -1      2366 6.89343E-01
 -1      2367 6.06652E-01
 -1      2368 7.23870E-01
 -1      2369 5.33946E-01
 -1      2370 4.63530E-01
 -1      2371 5.66001E-01
 -1      2372 4.03595E-01
 -1      2373 3.46263E-01
 -1      2374 4.33361E-01
 -1      2375 2.98169E-01
 -1      2376 2.53023E-01
 -1      2377 3.25332E-01
 -1      2378 2.15284E-01
 -1      2379 1.80685E-01
 -1      2380 2.39500E-01
 -1      2381 1.51663E-01
 -1      2382 1.25960E-01
 -1      2383 1.72739E-01
 -1      2384 1.04083E-01
 -1      2385 8.85690E-02
 -1      2386 1.21840E-01
 -1      2387 7.24306E-02
 -1      2388 6.18197E-02
 -1      2389 8.38246E-02
 -1      2390 5.02183E-02
 -1      2391 4.21897E-02
 -1      2392 5.60848E-02
 -1      2393 3.40646E-02
 -1      2394 2.83133E-02
 -1      2395 3.63583E-02
 -1      2396 2.38504E+01
 -1      2397 2.46334E+01
 -1      2398 5.42683E-01
 -1      2399 6.08508E-01
 -1      2400 4.87661E-01
 -1      2401 5.09536E-01
 -1      2402 4.97395E-01
 -1      2403 4.28127E-01
 -1      2404 4.50561E-01
 -1      2405 4.27148E-01
 -1      2406 3.67571E-01
 -1      2407 3.89301E-01
 -1      2408 3.51222E-01
 -1      2409 3.22961E-01
 -1      2410 3.43959E-01
 -1      2411 2.88784E-01
 -1      2412 3.36227E-01
 -1      2413 3.38702E-01
 -1      2414 2.80913E-01
 -1      2415 3.63867E-01
 -1      2416 3.49627E-01
 -1      2417 3.10054E-01
 -1      2418 4.36836E-01
 -1      2419 4.05210E-01
 -1      2420 3.64798E-01
 -1      2421 5.18253E-01
 -1      2422 4.76358E-01
 -1      2423 4.45664E-01
 -1      2424 5.74554E-01
 -1      2425 5.51319E-01
 -1      2426 5.18253E-01
 -1      2427 5.97790E-01
 -1      2428 5.97790E-01
 -1      2429 5.74554E-01
 -1      2430 5.87284E-01
 -1      2431 5.97488E-01
 -1      2432 5.97488E-01
 -1      2433 5.07137E-01
 -1      2434 5.67247E-01
 -1      2435 5.77150E-01
 -1      2436 5.67182E-01
 -1      2437 5.56763E-01
 -1      2438 6.06738E-01
 -1      2439 7.23104E-01
 -1      2440 5.94249E-01
 -1      2441 6.83432E-01
 -1      2442 1.09490E+00
 -1      2443 8.64558E-01
 -1      2444 8.51953E-01
 -1      2445 1.42535E+00
 -1      2446 1.25415E+00
 -1      2447 1.15267E+00
 -1      2448 1.56894E+00
 -1      2449 1.53878E+00
 -1      2450 1.42535E+00
 -1      2451 1.62375E+00
 -1      2452 1.62375E+00
 -1      2453 1.59358E+00
 -1      2454 1.56845E+00
 -1      2455 1.56425E+00
 -1      2456 1.58889E+00
 -1      2457 1.71225E+00
 -1      2458 1.60750E+00
 -1      2459 1.56845E+00
 -1      2460 1.54250E+00
 -1      2461 1.63660E+00
 -1      2462 1.53185E+00
 -1      2463 1.19335E+00
 -1      2464 1.43237E+00
 -1      2465 1.34607E+00
 -1      2466 8.08749E-01
 -1      2467 1.02713E+00
 -1      2468 1.06972E+00
 -1      2469 5.66380E-01
 -1      2470 6.87062E-01
 -1      2471 7.81813E-01
 -1      2472 5.60924E-01
 -1      2473 5.42927E-01
 -1      2474 6.36672E-01
 -1      2475 5.94934E-01
 -1      2476 5.49562E-01
 -1      2477 6.01858E-01
 -1      2478 6.35004E-01
 -1      2479 6.13595E-01
 -1      2480 6.09157E-01
 -1      2481 6.22609E-01
 -1      2482 6.24220E-01
 -1      2483 6.17035E-01
 -1      2484 5.74384E-01
 -1      2485 6.02929E-01
 -1      2486 5.86571E-01
 -1      2487 5.15824E-01
 -1      2488 5.46579E-01
 -1      2489 5.39086E-01
 -1      2490 4.48079E-01
 -1      2491 4.85593E-01
 -1      2492 4.81050E-01
 -1      2493 3.71591E-01
 -1      2494 4.12331E-01
 -1      2495 4.15071E-01
 -1      2496 2.96308E-01
 -1      2497 3.35415E-01
 -1      2498 3.43146E-01
 -1      2499 2.28076E-01
 -1      2500 2.62842E-01
 -1      2501 2.73504E-01
 -1      2502 1.71396E-01
 -1      2503 1.98948E-01
 -1      2504 2.10910E-01
 -1      2505 1.28365E-01
 -1      2506 1.47192E-01
 -1      2507 1.57578E-01
 -1      2508 9.32059E-02
 -1      2509 1.09017E-01
 -1      2510 1.14026E-01
 -1      2511 6.54004E-02
 -1      2512 7.82868E-02
 -1      2513 7.97586E-02
 -1      2514 4.43448E-02
 -1      2515 5.46395E-02
 -1      2516 5.40786E-02
 -1      2517 3.02928E-02
 -1      2518 3.81695E-02
 -1      2519 3.71423E-02
 -1      2520 2.04689E-02
 -1      2521 2.57900E-02
 -1      2522 2.64641E-02
 -1      2523 1.76102E-02
 -1      2524 1.80724E-02
 -1      2525 1.55638E-02
 -1      2526 2.14769E-02
 -1      2527 2.02082E-02
 -1      2528 2.27304E-02
 -1      2529 1.44047E-02
 -1      2530 1.63047E-02
 -1      2531 1.38050E-02
 -1      2532 1.47605E-02
 -1      2533 1.67212E-02
 -1      2534 1.88358E-02
 -1      2535 2.17553E-02
 -1      2536 2.17553E-02
 -1      2537 2.51447E-02
 -1      2538 2.18686E-02
 -1      2539 2.18182E-02
 -1      2540 2.54860E-02
 -1      2541 2.18686E-02
 -1      2542 2.18686E-02
 -1      2543 2.55489E-02
 -1      2544 2.06485E-02
 -1      2545 2.18132E-02
 -1      2546 2.54935E-02
 -1      2547 1.61001E-02
 -1      2548 1.86318E-02
 -1      2549 2.34213E-02
 -1      2550 1.71422E-02
 -1      2551 1.58953E-02
 -1      2552 2.11998E-02
 -1      2553 1.87769E-02
 -1      2554 1.71422E-02
 -1      2555 2.09951E-02
 -1      2556 1.75297E-02
 -1      2557 3.16073E+01
 -1      2558 3.16073E+01
 -1      2559 6.86475E-01
 -1      2560 7.85949E-01
 -1      2561 6.08508E-01
 -1      2562 1.45700E+01
 -1      2563 2.09178E+01
 -1      2564 1.53305E+01
 -1      2565 1.38161E+01
 -1      2566 1.01206E+01
 -1      2567 9.41609E+00
 -1      2568 1.32047E+01
 -1      2569 3.10036E+01
 -1      2570 3.13055E+01
 -1      2571 2.46334E+01
 -1      2572 2.37489E+01
 -1      2573 1.67725E+01
 -1      2574 5.09364E-01
 -1      2575 5.32512E-01
 -1      2576 4.61188E-01
 -1      2577 4.30861E-01
 -1      2578 9.36346E+00
 -1      2579 9.21480E+00
 -1      2580 2.43069E+01
 -1      2581 2.80291E+01
 -1      2582 8.84291E+00
 -1      2583 8.67439E+00
 -1      2584 8.15708E+00
 -1      2585 8.75375E+00
 -1      2586 5.59044E+00
 -1      2587 6.70669E+00
 -1      2588 8.93161E+00
 -1      2589 6.91544E+00
 -1      2590 1.40169E+01
 -1      2591 9.90565E+00
 -1      2592 1.15193E+01
 -1      2593 2.41187E+01
 -1      2594 2.71694E+01
 -1      2595 2.33824E+01
 -1      2596 1.68203E+01
 -1      2597 2.26684E+01
 -1      2598 2.14789E+01
 -1      2599 1.34524E+01
 -1      2600 1.92042E+01
 -1      2601 1.51867E+01
 -1      2602 5.10284E+00
 -1      2603 5.78154E+00
 -1      2604 7.75285E+00
 -1      2605 6.15021E+00
 -1      2606 9.10759E+00
 -1      2607 8.82334E+00
 -1      2608 9.14763E+00
 -1      2609 9.36014E+00
 -1      2610 8.00081E+00
 -1      2611 8.64121E+00
 -1      2612 5.60942E+00
 -1      2613 7.00469E+00
 -1      2614 5.89505E+00
 -1      2615 8.60824E+00
 -1      2616 6.21226E+00
 -1      2617 2.59303E+01
 -1      2618 2.59401E+01
 -1      2619 2.59303E+01
 -1      2620 1.65242E+00
 -1      2621 1.30157E+00
 -1      2622 8.20367E-01
 -1      2623 9.55799E-01
 -1      2624 1.60257E+00
 -1      2625 1.74951E+00
 -1      2626 1.30706E+00
 -1      2627 1.18043E+00
 -1      2628 6.49591E+00
 -1      2629 7.43240E+00
 -1      2630 7.91389E+00
 -1      2631 5.04937E-01
 -1      2632 6.42787E-01
 -1      2633 7.05274E-01
 -1      2634 7.85949E-01
 -1      2635 1.22522E+00
 -1      2636 5.14732E+00
 -1      2637 5.50176E+00
 -1      2638 7.39759E+00
 -1      2639 7.65145E+00
 -1      2640 7.61700E+00
 -1      2641 1.91026E-02
 -1      2642 7.68345E+00
 -1      2643 1.91026E-02
 -1      2644 6.32841E+00
 -1      2645 1.85007E-02
 -1      2646 1.75297E-02
 -1      2647 1.97479E-02
 -1      2648 2.34471E-02
 -1      2649 1.15045E+01
 -1      2650 9.77456E+00
 -1      2651 8.25814E+00
 -1      2652 3.74442E+00
 -1      2653 6.36279E+00
 -1      2654 6.50769E+00
 -1      2655 3.13055E+01
 -1      2656 9.52724E-01
 -1      2657 1.10325E+01
 -1      2658 1.76956E+01
 -1      2659 1.21337E+01
 -1      2660 1.76955E+01
 -1      2661 7.78963E+00
 -1      2662 5.49058E+00
 -1      2663 5.61597E+00
 -1      2664 2.68950E+01
 -1      2665 2.68950E+01
 -1      2666 2.31729E+01
 -1      2667 7.93629E+00
 -1      2668 5.33034E+00
 -1      2669 6.80390E+00
 -1      2670 2.14789E+01
 -1      2671 6.83329E-01
 -1      2672 7.55151E-01
 -1      2673 6.61694E-01
 -1      2674 4.82992E-01
 -1      2675 7.67607E+00
 -1      2676 2.37023E+01
 -1      2677 2.06995E+01
 -1      2678 2.60171E+01
 -1      2679 4.21054E+00
 -1      2680 1.91634E-02
 -1      2681 2.33670E-02
 -1      2682 4.13700E-01
 -1      2683 3.97275E-01
 -1      2684 3.86895E-01
 -1      2685 3.72649E-01
 -1      2686 3.39083E-01
 -1      2687 4.32236E-01
 -1      2688 4.32236E-01
 -1      2689 4.68015E-01
 -1      2690 4.23354E-01
 -1      2691 3.50276E-01
 -1      2692 7.03421E-01
 -1      2693 7.85734E-01
 -1      2694 8.62173E+00
 -1      2695 9.98705E+00
 -1      2696 6.36494E+00
 -1      2697 6.87136E+00
 -1      2698 5.88970E-01
 -1      2699 6.88444E-01
 -1      2700 5.06441E-01
 -1      2701 8.22343E-01
 -1      2702 5.06366E+00
 -1      2703 4.46082E+00
 -1      2704 6.00307E-01
 -1      2705 5.58332E-01
 -1      2706 3.99659E-01
 -1      2707 5.27875E-01
 -1      2708 4.63711E-01
 -1      2709 4.47022E-01
 -1      2710 3.80328E-01
 -1      2711 3.49740E-01
 -1      2712 3.45983E-01
 -1      2713 3.22406E-01
 -1      2714 2.98706E-01
 -1      2715 2.95051E-01
 -1      2716 2.63621E-01
 -1      2717 2.37007E-01
 -1      2718 2.35315E-01
 -1      2719 1.98375E-01
 -1      2720 1.81347E-01
 -1      2721 1.90202E-01
 -1      2722 2.02796E-01
 -1      2723 1.44869E-01
 -1      2724 2.55714E-01
 -1      2725 2.96116E-01
 -1      2726 1.89614E-01
 -1      2727 3.63010E-01
 -1      2728 4.44801E-01
 -1      2729 3.09427E-01
 -1      2730 5.24590E-01
 -1      2731 6.16844E-01
 -1      2732 4.56110E-01
 -1      2733 7.12354E-01
 -1      2734 8.13299E-01
 -1      2735 6.31409E-01
 -1      2736 9.29060E-01
 -1      2737 1.03360E+00
 -1      2738 8.42681E-01
 -1      2739 1.17208E+00
 -1      2740 1.26997E+00
 -1      2741 1.09692E+00
 -1      2742 1.43656E+00
 -1      2743 1.51038E+00
 -1      2744 1.40200E+00
 -1      2745 1.69875E+00
 -1      2746 1.85259E+00
 -1      2747 1.75696E+00
 -1      2748 2.07099E+00
 -1      2749 2.24205E+00
 -1      2750 2.16373E+00
 -1      2751 2.61372E+00
 -1      2752 2.74619E+00
 -1      2753 2.75380E+00
 -1      2754 3.20834E+00
 -1      2755 3.50150E+00
 -1      2756 3.58762E+00
 -1      2757 4.29216E+00
 -1      2758 4.34236E+00
 -1      2759 4.84043E+00
 -1      2760 5.65174E+00
 -1      2761 5.99240E+00
 -1      2762 5.61996E+00
 -1      2763 4.18574E+00
 -1      2764 2.97373E+00
 -1      2765 3.81143E+00
 -1      2766 4.33067E+00
 -1      2767 3.71817E+00
 -1      2768 2.84581E+00
 -1      2769 2.76619E+00
 -1      2770 4.18885E+00
 -1      2771 2.41278E+00
 -1      2772 2.24144E+00
 -1      2773 2.96309E+00
 -1      2774 1.97049E+00
 -1      2775 1.80431E+00
 -1      2776 2.33872E+00
 -1      2777 1.61543E+00
 -1      2778 1.53222E+00
 -1      2779 1.87889E+00
 -1      2780 1.36251E+00
 -1      2781 1.27309E+00
 -1      2782 1.52030E+00
 -1      2783 1.13428E+00
 -1      2784 1.03598E+00
 -1      2785 1.21178E+00
 -1      2786 9.21053E-01
 -1      2787 8.26074E-01
 -1      2788 9.58040E-01
 -1      2789 7.32468E-01
 -1      2790 6.47305E-01
 -1      2791 7.49509E-01
 -1      2792 5.73139E-01
 -1      2793 5.00433E-01
 -1      2794 5.81737E-01
 -1      2795 4.40972E-01
 -1      2796 3.81037E-01
 -1      2797 4.48110E-01
 -1      2798 3.33679E-01
 -1      2799 2.85585E-01
 -1      2800 3.41290E-01
 -1      2801 2.48216E-01
 -1      2802 2.10478E-01
 -1      2803 2.56563E-01
 -1      2804 1.81330E-01
 -1      2805 1.52308E-01
 -1      2806 1.90047E-01
 -1      2807 1.29877E-01
 -1      2808 1.07999E-01
 -1      2809 1.38467E-01
 -1      2810 9.09931E-02
 -1      2811 7.48546E-02
 -1      2812 9.90293E-02
 -1      2813 6.21941E-02
 -1      2814 5.05927E-02
 -1      2815 6.93625E-02
 -1      2816 3.94839E-02
 -1      2817 3.13588E-02
 -1      2818 4.55931E-02
 -1      2819 1.12298E+01
 -1      2820 1.41625E+01
 -1      2821 8.81905E+00
 -1      2822 3.98194E-01
 -1      2823 4.31342E-01
 -1      2824 2.14662E-01
 -1      2825 2.38274E-01
 -1      2826 2.42228E-01
 -1      2827 2.26487E-01
 -1      2828 1.75977E-01
 -1      2829 2.89997E-01
 -1      2830 2.76597E-01
 -1      2831 2.22171E-01
 -1      2832 3.79845E-01
 -1      2833 3.38502E-01
 -1      2834 3.05044E-01
 -1      2835 4.65240E-01
 -1      2836 4.25718E-01
 -1      2837 3.99422E-01
 -1      2838 5.36519E-01
 -1      2839 5.03453E-01
 -1      2840 4.83507E-01
 -1      2841 6.02408E-01
 -1      2842 5.79172E-01
 -1      2843 5.64373E-01
 -1      2844 6.53519E-01
 -1      2845 6.53820E-01
 -1      2846 6.58438E-01
 -1      2847 6.69794E-01
 -1      2848 6.89831E-01
 -1      2849 7.46163E-01
 -1      2850 7.57699E-01
 -1      2851 7.08073E-01
 -1      2852 8.20755E-01
 -1      2853 9.06642E-01
 -1      2854 8.79574E-01
 -1      2855 9.80909E-01
 -1      2856 1.05494E+00
 -1      2857 9.13484E-01
 -1      2858 1.10963E+00
 -1      2859 1.33956E+00
 -1      2860 1.18030E+00
 -1      2861 1.24183E+00
 -1      2862 1.51319E+00
 -1      2863 1.39977E+00
 -1      2864 1.42740E+00
 -1      2865 1.94774E+00
 -1      2866 1.89293E+00
 -1      2867 1.86735E+00
 -1      2868 1.68602E+00
 -1      2869 1.74552E+00
 -1      2870 2.04486E+00
 -1      2871 1.94712E+00
 -1      2872 1.90807E+00
 -1      2873 2.06469E+00
 -1      2874 1.53089E+00
 -1      2875 1.60654E+00
 -1      2876 1.94616E+00
 -1      2877 1.29650E+00
 -1      2878 1.40663E+00
 -1      2879 1.48132E+00
 -1      2880 1.02861E+00
 -1      2881 1.19484E+00
 -1      2882 1.25539E+00
 -1      2883 8.77698E-01
 -1      2884 9.99385E-01
 -1      2885 1.12450E+00
 -1      2886 7.96037E-01
 -1      2887 8.19491E-01
 -1      2888 1.03706E+00
 -1      2889 6.73779E-01
 -1      2890 6.85140E-01
 -1      2891 8.67959E-01
 -1      2892 6.63985E-01
 -1      2893 6.45324E-01
 -1      2894 7.28606E-01
 -1      2895 6.18153E-01
 -1      2896 6.28937E-01
 -1      2897 6.65103E-01
 -1      2898 5.86571E-01
 -1      2899 6.06251E-01
 -1      2900 6.18153E-01
 -1      2901 5.32248E-01
 -1      2902 5.60053E-01
 -1      2903 5.79734E-01
 -1      2904 4.65783E-01
 -1      2905 4.96014E-01
 -1      2906 5.16981E-01
 -1      2907 3.89632E-01
 -1      2908 4.25380E-01
 -1      2909 4.40344E-01
 -1      2910 3.14150E-01
 -1      2911 3.50326E-01
 -1      2912 3.60636E-01
 -1      2913 2.46307E-01
 -1      2914 2.79773E-01
 -1      2915 2.86953E-01
 -1      2916 1.87526E-01
 -1      2917 2.16654E-01
 -1      2918 2.22922E-01
 -1      2919 1.38694E-01
 -1      2920 1.62898E-01
 -1      2921 1.68642E-01
 -1      2922 9.95352E-02
 -1      2923 1.18883E-01
 -1      2924 1.24203E-01
 -1      2925 6.95803E-02
 -1      2926 8.44994E-02
 -1      2927 8.93569E-02
 -1      2928 4.77867E-02
 -1      2929 5.85476E-02
 -1      2930 6.32884E-02
 -1      2931 3.31225E-02
 -1      2932 3.92979E-02
 -1      2933 4.37668E-02
 -1      2934 2.27294E-02
 -1      2935 2.72323E-02
 -1      2936 2.93878E-02
 -1      2937 1.99315E-02
 -1      2938 5.82758E+00
 -1      2939 7.81128E+00
 -1      2940 3.04404E-02
 -1      2941 3.03776E-02
 -1      2942 2.46142E-02
 -1      2943 1.97479E-02
 -1      2944 2.77397E-02
 -1      2945 2.87454E-02
 -1      2946 2.66096E-02
 -1      2947 3.06352E-02
 -1      2948 3.06352E-02
 -1      2949 3.55267E-02
 -1      2950 3.03776E-02
 -1      2951 3.00991E-02
 -1      2952 3.39783E-02
 -1      2953 3.53320E-02
 -1      2954 3.05798E-02
 -1      2955 3.06352E-02
 -1      2956 3.57215E-02
 -1      2957 2.76230E-02
 -1      2958 2.96398E-02
 -1      2959 3.47815E-02
 -1      2960 2.33709E-02
 -1      2961 2.35756E-02
 -1      2962 2.97941E-02
 -1      2963 4.76722E-01
 -1      2964 5.54688E-01
 -1      2965 4.57183E-01
 -1      2966 3.77522E-01
 -1      2967 1.08060E+01
 -1      2968 8.05035E+00
 -1      2969 1.66513E+01
 -1      2970 1.40936E+01
 -1      2971 2.23365E+01
 -1      2972 1.66595E+01
 -1      2973 2.18339E+01
 -1      2974 2.21358E+01
 -1      2975 6.23567E+00
 -1      2976 6.84538E+00
 -1      2977 1.59139E+01
 -1      2978 2.22842E+01
 -1      2979 2.70850E-01
 -1      2980 3.09676E-01
 -1      2981 1.96728E-01
 -1      2982 3.36312E-01
 -1      2983 3.73411E-01
 -1      2984 2.55939E-01
 -1      2985 5.75525E-01
 -1      2986 5.30989E-01
 -1      2987 3.69544E-01
 -1      2988 3.55465E-01
 -1      2989 3.99076E+00
 -1      2990 4.54320E+00
 -1      2991 4.32236E-01
 -1      2992 4.18548E-01
 -1      2993 3.54311E-01
 -1      2994 3.59158E-01
 -1      2995 4.17221E-01
 -1      2996 4.31065E-01
 -1      2997 1.70327E+01
 -1      2998 1.98607E+01
 -1      2999 3.74008E+00
 -1      3000 5.19048E+00
 -1      3001 5.32466E+00
 -1      3002 3.99966E+00
 -1      3003 1.62088E+01
 -1      3004 1.27883E+01
 -1      3005 4.58124E+00
 -1      3006 3.53387E+00
 -1      3007 1.09911E+01
 -1      3008 1.44553E+01
 -1      3009 2.09951E-02
 -1      3010 7.28590E+00
 -1      3011 5.77350E+00
 -1      3012 4.62384E+00
 -1      3013 1.21749E+01
 -1      3014 9.17066E+00
 -1      3015 7.32716E+00
 -1      3016 7.46961E+00
 -1      3017 6.49556E+00
 -1      3018 7.09750E+00
 -1      3019 6.72561E+00
 -1      3020 5.65709E+00
 -1      3021 4.31065E-01
 -1      3022 4.31065E-01
 -1      3023 3.57193E-01
 -1      3024 3.28485E-01
 -1      3025 3.72432E-01
 -1      3026 3.86698E-01
 -1      3027 5.58028E-01
 -1      3028 6.75628E+00
 -1      3029 5.62399E+00
 -1      3030 6.65663E+00
 -1      3031 4.73256E+00
 -1      3032 4.67103E+00
 -1      3033 4.32652E+00
 -1      3034 3.72240E+00
 -1      3035 5.06198E+00
 -1      3036 4.76783E+00
 -1      3037 3.47910E+00
 -1      3038 3.90458E+00
 -1      3039 4.54197E+00
 -1      3040 2.87050E-02
 -1      3041 2.26901E-02
 -1      3042 2.09312E-02
 -1      3043 9.04313E+00
 -1      3044 3.07358E-01
 -1      3045 1.92210E-02
 -1      3046 1.88653E-02
 -1      3047 2.24313E-02
 -1      3048 2.30753E-02
 -1      3049 1.28650E+01
 -1      3050 1.64551E+01
 -1      3051 1.15480E+01
 -1      3052 1.60387E+01
 -1      3053 5.00464E+00
 -1      3054 2.09951E-02
 -1      3055 3.57416E+00
 -1      3056 7.16040E+00
 -1      3057 6.72884E+00
 -1      3058 4.97838E+00
 -1      3059 1.30575E+01
 -1      3060 4.11512E+00
 -1      3061 1.18132E+01
 -1      3062 5.58854E+00
 -1      3063 4.75784E+00
 -1      3064 3.71265E+00
 -1      3065 1.31145E+01
 -1      3066 1.11306E+01
 -1      3067 1.88110E+01
 -1      3068 1.76770E+01
 -1      3069 1.43648E+01
 -1      3070 4.31406E-01
 -1      3071 5.98750E+00
 -1      3072 3.97081E-01
 -1      3073 4.13142E-01
 -1      3074 3.53114E-01
 -1      3075 3.38651E-01
 -1      3076 9.31934E+00
 -1      3077 1.28371E+01
 -1      3078 2.30305E+01
 -1      3079 1.72964E+01
 -1      3080 1.81743E+01
 -1      3081 6.76587E+00
 -1      3082 2.28120E-02
 -1      3083 2.28120E-02
 -1      3084 2.51878E-02
 -1      3085 2.95566E-02
 -1      3086 6.40409E+00
 -1      3087 6.29087E+00
 -1      3088 5.71013E+00
 -1      3089 2.93351E-01
 -1      3090 3.02233E-01
 -1      3091 5.25181E+00
 -1      3092 8.78155E+00
 -1      3093 6.79922E+00
 -1      3094 4.61532E+00
 -1      3095 4.86744E+00
 -1      3096 4.97838E+00
 -1      3097 2.60867E-01
 -1      3098 2.26522E-01
 -1      3099 2.07686E-01
 -1      3100 1.80331E-01
 -1      3101 1.69847E-01
 -1      3102 1.62122E-01
 -1      3103 1.33817E-01
 -1      3104 1.32801E-01
 -1      3105 1.44720E-01
 -1      3106 1.36547E-01
 -1      3107 1.25494E-01
 -1      3108 1.75711E-01
 -1      3109 2.28629E-01
 -1      3110 1.75561E-01
 -1      3111 2.82446E-01
 -1      3112 3.49340E-01
 -1      3113 2.68542E-01
 -1      3114 4.26964E-01
 -1      3115 5.06753E-01
 -1      3116 3.99982E-01
 -1      3117 6.00081E-01
 -1      3118 6.95590E-01
 -1      3119 5.70934E-01
 -1      3120 8.05740E-01
 -1      3121 9.21502E-01
 -1      3122 7.74412E-01
 -1      3123 1.04825E+00
 -1      3124 1.18673E+00
 -1      3125 1.01131E+00
 -1      3126 1.36115E+00
 -1      3127 1.52774E+00
 -1      3128 1.31247E+00
 -1      3129 1.78604E+00
 -1      3130 1.97441E+00
 -1      3131 1.74519E+00
 -1      3132 2.42161E+00
 -1      3133 2.64001E+00
 -1      3134 2.45069E+00
 -1      3135 3.59307E+00
 -1      3136 3.96474E+00
 -1      3137 3.85095E+00
 -1      3138 5.49729E+00
 -1      3139 5.95943E+00
 -1      3140 6.33656E+00
 -1      3141 5.65174E+00
 -1      3142 7.13656E+00
 -1      3143 4.99758E+00
 -1      3144 1.10735E+01
 -1      3145 1.12743E+01
 -1      3146 5.22949E+00
 -1      3147 4.87608E+00
 -1      3148 3.04796E+00
 -1      3149 2.77700E+00
 -1      3150 5.31436E+00
 -1      3151 2.16128E+00
 -1      3152 1.97241E+00
 -1      3153 2.87052E+00
 -1      3154 1.65888E+00
 -1      3155 1.48918E+00
 -1      3156 1.94128E+00
 -1      3157 1.30140E+00
 -1      3158 1.16258E+00
 -1      3159 1.43998E+00
 -1      3160 1.03575E+00
 -1      3161 9.20827E-01
 -1      3162 1.12537E+00
 -1      3163 8.13085E-01
 -1      3164 7.19479E-01
 -1      3165 8.90797E-01
 -1      3166 6.29718E-01
 -1      3167 5.55552E-01
 -1      3168 6.93294E-01
 -1      3169 4.82775E-01
 -1      3170 4.23314E-01
 -1      3171 5.30756E-01
 -1      3172 3.65460E-01
 -1      3173 3.18101E-01
 -1      3174 4.00125E-01
 -1      3175 2.72822E-01
 -1      3176 2.35453E-01
 -1      3177 2.96992E-01
 -1      3178 2.00511E-01
 -1      3179 1.71363E-01
 -1      3180 2.16770E-01
 -1      3181 1.44769E-01
 -1      3182 1.22338E-01
 -1      3183 1.55233E-01
 -1      3184 1.03152E-01
 -1      3185 8.61458E-02
 -1      3186 1.09454E-01
 -1      3187 7.20265E-02
 -1      3188 5.93659E-02
 -1      3189 7.61491E-02
 -1      3190 4.88455E-02
 -1      3191 3.77367E-02
 -1      3192 3.28090E-02
 -1      3193 5.15094E-02
 -1      3194 7.01335E+00
 -1      3195 8.25608E+00
 -1      3196 2.41042E-01
 -1      3197 2.65825E-01
 -1      3198 1.54783E-01
 -1      3199 1.42958E-01
 -1      3200 4.22810E-01
 -1      3201 3.76937E-01
 -1      3202 5.18064E-01
 -1      3203 4.79851E-01
 -1      3204 4.57366E-01
 -1      3205 6.17730E-01
 -1      3206 5.75077E-01
 -1      3207 5.71420E-01
 -1      3208 7.29953E-01
 -1      3209 6.78541E-01
 -1      3210 6.89245E-01
 -1      3211 8.61974E-01
 -1      3212 8.25661E-01
 -1      3213 8.45764E-01
 -1      3214 9.95069E-01
 -1      3215 9.56790E-01
 -1      3216 1.03629E+00
 -1      3217 1.18543E+00
 -1      3218 1.06355E+00
 -1      3219 1.19959E+00
 -1      3220 1.39988E+00
 -1      3221 1.39304E+00
 -1      3222 1.47568E+00
 -1      3223 1.51840E+00
 -1      3224 1.39304E+00
 -1      3225 1.67646E+00
 -1      3226 1.75929E+00
 -1      3227 1.69908E+00
 -1      3228 1.85030E+00
 -1      3229 2.38909E+00
 -1      3230 2.00935E+00
 -1      3231 2.28104E+00
 -1      3232 2.83416E+00
 -1      3233 3.03637E+00
 -1      3234 3.05620E+00
 -1      3235 1.94616E+00
 -1      3236 2.28674E+00
 -1      3237 1.46321E+00
 -1      3238 1.58747E+00
 -1      3239 1.92805E+00
 -1      3240 1.30604E+00
 -1      3241 1.40771E+00
 -1      3242 1.51386E+00
 -1      3243 1.36244E+00
 -1      3244 1.39167E+00
 -1      3245 1.54399E+00
 -1      3246 1.23593E+00
 -1      3247 1.29413E+00
 -1      3248 1.56131E+00
 -1      3249 9.70809E-01
 -1      3250 1.08171E+00
 -1      3251 1.33878E+00
 -1      3252 8.78930E-01
 -1      3253 9.07385E-01
 -1      3254 1.12113E+00
 -1      3255 7.61510E-01
 -1      3256 7.96558E-01
 -1      3257 9.75336E-01
 -1      3258 6.69529E-01
 -1      3259 6.81431E-01
 -1      3260 8.12886E-01
 -1      3261 5.93072E-01
 -1      3262 6.19590E-01
 -1      3263 6.82868E-01
 -1      3264 5.09616E-01
 -1      3265 5.45850E-01
 -1      3266 5.85707E-01
 -1      3267 4.23005E-01
 -1      3268 4.63408E-01
 -1      3269 4.92277E-01
 -1      3270 3.40225E-01
 -1      3271 3.79531E-01
 -1      3272 4.02595E-01
 -1      3273 2.68491E-01
 -1      3274 3.02868E-01
 -1      3275 3.21763E-01
 -1      3276 2.07115E-01
 -1      3277 2.36768E-01
 -1      3278 2.52683E-01
 -1      3279 1.56232E-01
 -1      3280 1.80860E-01
 -1      3281 1.94705E-01
 -1      3282 1.15163E-01
 -1      3283 1.34973E-01
 -1      3284 1.47191E-01
 -1      3285 8.32991E-02
 -1      3286 9.83349E-02
 -1      3287 1.09105E-01
 -1      3288 5.90121E-02
 -1      3289 7.00449E-02
 -1      3290 7.90229E-02
 -1      3291 4.46155E-02
 -1      3292 5.31042E-02
 -1      3293 5.98608E-02
 -1      3294 2.72395E-02
 -1      3295 3.31298E-02
 -1      3296 4.24672E-02
 -1      3297 2.61733E-02
 -1      3298 4.27290E-02
 -1      3299 4.27290E-02
 -1      3300 3.53050E+00
 -1      3301 4.81488E+00
 -1      3302 3.06932E-02
 -1      3303 3.47406E-02
 -1      3304 4.16281E-02
 -1      3305 4.14334E-02
 -1      3306 4.86356E-02
 -1      3307 1.29573E-01
 -1      3308 1.62149E-01
 -1      3309 1.08379E-01
 -1      3310 4.17890E-02
 -1      3311 4.27290E-02
 -1      3312 4.97365E-02
 -1      3313 4.26881E-02
 -1      3314 3.23350E-01
 -1      3315 2.74845E-01
 -1      3316 3.46738E-01
 -1      3317 2.26347E-01
 -1      3318 1.91979E-01
 -1      3319 1.58960E-01
 -1      3320 2.44653E-01
 -1      3321 7.10947E+00
 -1      3322 6.23712E+00
 -1      3323 8.15011E+00
 -1      3324 9.18483E+00
 -1      3325 1.11734E+01
 -1      3326 1.11652E+01
 -1      3327 9.38198E+00
 -1      3328 1.11035E+01
 -1      3329 7.43435E+00
 -1      3330 8.65091E+00
 -1      3331 1.86170E-01
 -1      3332 2.12806E-01
 -1      3333 1.19015E-01
 -1      3334 2.81323E-01
 -1      3335 2.64634E-01
 -1      3336 1.92450E-01
 -1      3337 4.04264E-01
 -1      3338 3.82319E-01
 -1      3339 3.20931E-01
 -1      3340 3.30393E-01
 -1      3341 3.93408E-01
 -1      3342 3.03396E-01
 -1      3343 2.55353E-01
 -1      3344 3.78431E-01
 -1      3345 1.15238E+01
 -1      3346 1.10735E+01
 -1      3347 5.34838E+00
 -1      3348 6.15883E+00
 -1      3349 5.59586E+00
 -1      3350 9.30768E+00
 -1      3351 1.18851E+01
 -1      3352 9.47461E+00
 -1      3353 1.12261E+01
 -1      3354 7.66891E+00
 -1      3355 5.06532E+00
 -1      3356 3.89442E+00
 -1      3357 3.18242E+00
 -1      3358 2.92284E+00
 -1      3359 4.93319E+00
 -1      3360 5.01148E+00
 -1      3361 3.11606E-01
 -1      3362 3.01225E-01
 -1      3363 5.63109E+00
 -1      3364 2.94552E-01
 -1      3365 2.94336E-01
 -1      3366 2.67076E-01
 -1      3367 2.60806E-01
 -1      3368 3.17731E-01
 -1      3369 3.17731E-01
 -1      3370 9.21944E+00
 -1      3371 8.91117E+00
 -1      3372 6.39105E+00
 -1      3373 9.15750E+00
 -1      3374 9.48282E+00
 -1      3375 3.52793E-01
 -1      3376 2.39760E-01
 -1      3377 3.18511E-01
 -1      3378 4.00766E+00
 -1      3379 3.89141E+00
 -1      3380 2.79500E-01
 -1      3381 2.96839E-01
 -1      3382 3.14033E-01
 -1      3383 5.54595E+00
 -1      3384 6.33661E+00
 -1      3385 3.47337E-02
 -1      3386 3.08142E-02
 -1      3387 3.24310E+00
 -1      3388 1.71273E-01
 -1      3389 3.17838E+00
 -1      3390 3.86625E+00
 -1      3391 4.16524E-02
 -1      3392 4.02986E-02
 -1      3393 4.24078E-02
 -1      3394 4.20785E+00
 -1      3395 4.16524E-02
 -1      3396 4.16524E-02
 -1      3397 4.79727E-02
 -1      3398 4.77537E-02
 -1      3399 1.47639E+01
 -1      3400 1.05196E+01
 -1      3401 1.17773E+01
 -1      3402 9.69901E+00
 -1      3403 7.65807E+00
 -1      3404 7.36039E+00
 -1      3405 2.78162E-01
 -1      3406 3.23542E-01
 -1      3407 2.19152E-01
 -1      3408 2.11846E-01
 -1      3409 3.32090E+00
 -1      3410 3.12884E-01
 -1      3411 2.75026E-01
 -1      3412 3.17731E-01
 -1      3413 1.18092E+01
 -1      3414 1.07595E+01
 -1      3415 8.27979E+00
 -1      3416 7.45562E+00
 -1      3417 3.16036E-01
 -1      3418 3.16036E-01
 -1      3419 3.10919E-01
 -1      3420 2.25812E-01
 -1      3421 1.61525E+01
 -1      3422 1.22879E+01
 -1      3423 1.17906E+01
 -1      3424 5.75307E+00
 -1      3425 4.59992E+00
 -1      3426 3.11876E-02
 -1      3427 3.17465E-02
 -1      3428 3.66931E-02
 -1      3429 3.93677E-02
 -1      3430 3.96819E+00
 -1      3431 3.11957E-01
 -1      3432 3.16036E-01
 -1      3433 2.74880E-01
 -1      3434 3.85083E-01
 -1      3435 3.31495E-01
 -1      3436 3.49123E+00
 -1      3437 4.02473E+00
 -1      3438 3.06300E-01
 -1      3439 2.65144E-01
 -1      3440 1.37514E-01
 -1      3441 1.19305E-01
 -1      3442 1.36187E-01
 -1      3443 1.47090E-01
 -1      3444 1.40900E-01
 -1      3445 1.68626E-01
 -1      3446 2.07790E-01
 -1      3447 1.79318E-01
 -1      3448 2.55434E-01
 -1      3449 3.09251E-01
 -1      3450 2.48499E-01
 -1      3451 3.77937E-01
 -1      3452 4.55561E-01
 -1      3453 3.64829E-01
 -1      3454 5.42113E-01
 -1      3455 6.35441E-01
 -1      3456 5.20068E-01
 -1      3457 7.45585E-01
 -1      3458 8.55734E-01
 -1      3459 7.16764E-01
 -1      3460 9.98283E-01
 -1      3461 1.12503E+00
 -1      3462 9.69456E-01
 -1      3463 1.31247E+00
 -1      3464 1.48689E+00
 -1      3465 1.29945E+00
 -1      3466 1.73239E+00
 -1      3467 1.99069E+00
 -1      3468 1.73239E+00
 -1      3469 2.43410E+00
 -1      3470 2.88130E+00
 -1      3471 2.42130E+00
 -1      3472 5.36310E+00
 -1      3473 6.31616E+00
 -1      3474 5.34651E+00
 -1      3475 6.57984E+00
 -1      3476 8.11239E+00
 -1      3477 9.06439E+00
 -1      3478 6.59683E+00
 -1      3479 4.76872E+00
 -1      3480 7.97606E+00
 -1      3481 7.87522E+00
 -1      3482 2.22869E-01
 -1      3483 2.12823E-01
 -1      3484 1.97230E-01
 -1      3485 3.15526E+00
 -1      3486 2.44326E+00
 -1      3487 3.20798E+00
 -1      3488 2.59226E+00
 -1      3489 4.49045E+00
 -1      3490 2.20025E+00
 -1      3491 1.88673E+00
 -1      3492 2.53770E+00
 -1      3493 1.62776E+00
 -1      3494 1.43998E+00
 -1      3495 1.88673E+00
 -1      3496 1.24240E+00
 -1      3497 1.11557E+00
 -1      3498 1.43018E+00
 -1      3499 9.67620E-01
 -1      3500 8.59878E-01
 -1      3501 1.08465E+00
 -1      3502 7.47931E-01
 -1      3503 6.58170E-01
 -1      3504 8.24754E-01
 -1      3505 5.72348E-01
 -1      3506 4.99571E-01
 -1      3507 6.26985E-01
 -1      3508 4.33276E-01
 -1      3509 3.75422E-01
 -1      3510 4.74868E-01
 -1      3511 3.24051E-01
 -1      3512 2.78772E-01
 -1      3513 3.57202E-01
 -1      3514 2.38977E-01
 -1      3515 2.04034E-01
 -1      3516 2.66037E-01
 -1      3517 1.73384E-01
 -1      3518 1.46791E-01
 -1      3519 1.95592E-01
 -1      3520 1.23345E-01
 -1      3521 1.04159E-01
 -1      3522 1.41496E-01
 -1      3523 8.64471E-02
 -1      3524 7.23278E-02
 -1      3525 1.00338E-01
 -1      3526 3.34438E-02
 -1      3527 3.17336E-02
 -1      3528 3.65418E-02
 -1      3529 3.94726E-02
 -1      3530 1.48594E-01
 -1      3531 1.44827E-01
 -1      3532 4.96578E-01
 -1      3533 4.39537E-01
 -1      3534 4.24294E-01
 -1      3535 9.82720E-01
 -1      3536 8.87011E-01
 -1      3537 1.20681E+00
 -1      3538 1.11199E+00
 -1      3539 1.15324E+00
 -1      3540 1.47683E+00
 -1      3541 1.40834E+00
 -1      3542 1.48405E+00
 -1      3543 1.87793E+00
 -1      3544 1.67031E+00
 -1      3545 1.87907E+00
 -1      3546 2.09322E+00
 -1      3547 2.10006E+00
 -1      3548 2.29468E+00
 -1      3549 2.19319E+00
 -1      3550 2.01252E+00
 -1      3551 2.87383E+00
 -1      3552 2.68192E+00
 -1      3553 3.05620E+00
 -1      3554 1.57393E+00
 -1      3555 1.62943E+00
 -1      3556 1.86425E+00
 -1      3557 1.93256E+00
 -1      3558 1.53262E+00
 -1      3559 1.68684E+00
 -1      3560 2.05810E+00
 -1      3561 1.29407E+00
 -1      3562 1.35750E+00
 -1      3563 1.70556E+00
 -1      3564 1.03336E+00
 -1      3565 1.11573E+00
 -1      3566 1.35210E+00
 -1      3567 8.45406E-01
 -1      3568 9.25485E-01
 -1      3569 1.06588E+00
 -1      3570 7.05245E-01
 -1      3571 7.55184E-01
 -1      3572 8.67783E-01
 -1      3573 5.79075E-01
 -1      3574 6.26297E-01
 -1      3575 6.98613E-01
 -1      3576 4.69499E-01
 -1      3577 5.15707E-01
 -1      3578 5.56297E-01
 -1      3579 3.75312E-01
 -1      3580 4.18787E-01
 -1      3581 4.42217E-01
 -1      3582 3.00558E-01
 -1      3583 3.37915E-01
 -1      3584 3.54107E-01
 -1      3585 2.36819E-01
 -1      3586 2.68542E-01
 -1      3587 2.84694E-01
 -1      3588 1.82218E-01
 -1      3589 2.08473E-01
 -1      3590 2.24332E-01
 -1      3591 1.36991E-01
 -1      3592 1.58249E-01
 -1      3593 1.72018E-01
 -1      3594 1.00561E-01
 -1      3595 1.17388E-01
 -1      3596 1.28447E-01
 -1      3597 8.05626E-02
 -1      3598 9.38168E-02
 -1      3599 1.02100E-01
 -1      3600 1.28701E-01
 -1      3601 1.15316E-01
 -1      3602 7.81353E-01
 -1      3603 7.20542E-01
 -1      3604 9.18309E-01
 -1      3605 7.97606E+00
 -1      3606 7.97606E+00
 -1      3607 6.46931E+00
 -1      3608 2.35548E-01
 -1      3609 1.27415E-01
 -1      3610 1.55651E-01
 -1      3611 5.88031E-02
 -1      3612 5.77022E-02
 -1      3613 1.05379E-01
 -1      3614 1.29401E-01
 -1      3615 1.25701E-01
 -1      3616 6.33661E+00
 -1      3617 3.01036E-01
 -1      3618 3.11419E-01
 -1      3619 2.74342E-01
 -1      3620 1.90964E+00
 -1      3621 1.82401E+00
 -1      3622 1.93958E+00
 -1      3623 2.21259E+00
 -1      3624 8.21181E+00
 -1      3625 5.90224E+00
 -1      3626 7.12077E+00
 -1      3627 6.24205E-01
 -1      3628 5.67191E-01
 -1      3629 5.49362E-01
 -1      3630 7.16313E-01
 -1      3631 4.40553E+00
 -1      3632 5.26005E+00
 -1      3633 1.47428E-01
 -1      3634 1.28592E-01
 -1      3635 1.15096E-01
 -1      3636 2.37808E-01
 -1      3637 1.98477E-01
 -1      3638 1.50854E-01
 -1      3639 2.37808E-01
 -1      3640 4.36226E+00
 -1      3641 3.71745E+00
 -1      3642 5.15681E+00
 -1      3643 4.64846E+00
 -1      3644 8.09199E+00
 -1      3645 2.28322E-01
 -1      3646 3.68892E+00
 -1      3647 9.05706E+00
 -1      3648 6.42024E+00
 -1      3649 7.78230E+00
 -1      3650 2.35214E-01
 -1      3651 2.28542E-01
 -1      3652 5.26406E+00
 -1      3653 5.13443E+00
 -1      3654 4.02981E+00
 -1      3655 1.03573E-01
 -1      3656 6.26025E+00
 -1      3657 7.66616E+00
 -1      3658 2.91760E+00
 -1      3659 3.32090E+00
 -1      3660 5.48646E-02
 -1      3661 5.74942E-02
 -1      3662 5.88476E-02
 -1      3663 4.83272E-02
 -1      3664 4.67059E-02
 -1      3665 6.91456E-02
 -1      3666 2.53110E+00
 -1      3667 5.88031E-02
 -1      3668 5.88031E-02
 -1      3669 6.78697E-02
 -1      3670 1.95145E-01
 -1      3671 1.57949E-01
 -1      3672 1.64887E-01
 -1      3673 2.28104E+00
 -1      3674 3.12195E+00
 -1      3675 1.86149E+00
 -1      3676 2.22017E+00
 -1      3677 6.93275E-02
 -1      3678 8.41214E-02
 -1      3679 2.50106E-01
 -1      3680 2.11572E-01
 -1      3681 2.51384E-01
 -1      3682 3.05539E+00
 -1      3683 6.30165E-02
 -1      3684 8.10382E-02
 -1      3685 6.85814E-02
 -1      3686 6.34196E-02
 -1      3687 4.80275E-02
 -1      3688 3.76599E+00
 -1      3689 1.06863E+01
 -1      3690 8.15376E+00
 -1      3691 8.66436E+00
 -1      3692 6.02194E-02
 -1      3693 6.04384E-02
 -1      3694 7.03869E-02
 -1      3695 4.71190E+00
 -1      3696 6.73121E+00
 -1      3697 5.20414E+00
 -1      3698 4.96453E+00
 -1      3699 7.37005E+00
 -1      3700 5.86330E+00
 -1      3701 5.54531E+00
 -1      3702 3.10588E+00
 -1      3703 1.62415E-01
 -1      3704 1.74752E-01
 -1      3705 1.18557E-01
 -1      3706 2.67104E-01
 -1      3707 2.76304E-01
 -1      3708 3.21331E-01
 -1      3709 2.82986E-01
 -1      3710 2.34488E-01
 -1      3711 1.13779E-01
 -1      3712 1.05717E+01
 -1      3713 9.04716E+00
 -1      3714 8.01611E+00
 -1      3715 4.56526E-02
 -1      3716 5.67673E-02
 -1      3717 4.67545E-02
 -1      3718 5.38028E-02
 -1      3719 7.02475E-02
 -1      3720 2.44978E+00
 -1      3721 2.62490E+00
 -1      3722 1.43665E-01
 -1      3723 1.60547E-01
 -1      3724 2.03402E-01
 -1      3725 2.51384E-01
 -1      3726 1.78617E-01
 -1      3727 2.00153E-01
 -1      3728 1.81382E-01
 -1      3729 2.23992E-01
 -1      3730 2.71636E-01
 -1      3731 2.23290E-01
 -1      3732 3.24331E-01
 -1      3733 3.93017E-01
 -1      3734 2.99824E-01
 -1      3735 4.61938E-01
 -1      3736 5.48491E-01
 -1      3737 4.21440E-01
 -1      3738 6.38740E-01
 -1      3739 7.48884E-01
 -1      3740 5.80611E-01
 -1      3741 8.72262E-01
 -1      3742 1.01481E+00
 -1      3743 7.94238E-01
 -1      3744 1.19322E+00
 -1      3745 1.38067E+00
 -1      3746 1.09603E+00
 -1      3747 1.65355E+00
 -1      3748 1.89905E+00
 -1      3749 1.54733E+00
 -1      3750 2.31284E+00
 -1      3751 2.75625E+00
 -1      3752 2.23399E+00
 -1      3753 4.43568E+00
 -1      3754 6.91748E+00
 -1      3755 4.32721E+00
 -1      3756 5.70965E+00
 -1      3757 5.50059E+00
 -1      3758 3.93986E+00
 -1      3759 2.81890E+00
 -1      3760 2.42689E+00
 -1      3761 3.82904E+00
 -1      3762 1.89649E+00
 -1      3763 1.63752E+00
 -1      3764 2.17768E+00
 -1      3765 1.39383E+00
 -1      3766 1.19625E+00
 -1      3767 1.40359E+00
 -1      3768 1.04121E+00
 -1      3769 8.93258E-01
 -1      3770 1.00486E+00
 -1      3771 7.86980E-01
 -1      3772 6.75033E-01
 -1      3773 7.43537E-01
 -1      3774 5.98523E-01
 -1      3775 5.12701E-01
 -1      3776 5.60749E-01
 -1      3777 4.55240E-01
 -1      3778 3.88945E-01
 -1      3779 4.26778E-01
 -1      3780 3.44622E-01
 -1      3781 2.93252E-01
 -1      3782 3.24994E-01
 -1      3783 2.58686E-01
 -1      3784 2.18891E-01
 -1      3785 2.46105E-01
 -1      3786 1.91926E-01
 -1      3787 1.61276E-01
 -1      3788 1.84575E-01
 -1      3789 1.40297E-01
 -1      3790 1.16851E-01
 -1      3791 1.36632E-01
 -1      3792 9.98203E-02
 -1      3793 8.21080E-02
 -1      3794 9.86215E-02
 -1      3795 4.78748E-01
 -1      3796 4.24294E-01
 -1      3797 1.83502E+00
 -1      3798 1.63348E+00
 -1      3799 1.38535E+00
 -1      3800 1.25608E+00
 -1      3801 1.73633E+00
 -1      3802 2.57471E+00
 -1      3803 2.93201E+00
 -1      3804 1.92155E+00
 -1      3805 8.41214E-02
 -1      3806 9.53565E-02
 -1      3807 9.22733E-02
 -1      3808 1.16514E+00
 -1      3809 1.27302E+00
 -1      3810 8.80659E-01
 -1      3811 9.70881E-01
 -1      3812 1.17802E+00
 -1      3813 6.83489E-01
 -1      3814 7.62437E-01
 -1      3815 8.65535E-01
 -1      3816 5.41412E-01
 -1      3817 6.04780E-01
 -1      3818 6.68604E-01
 -1      3819 4.37230E-01
 -1      3820 4.87942E-01
 -1      3821 5.36425E-01
 -1      3822 3.54107E-01
 -1      3823 3.91504E-01
 -1      3824 4.37230E-01
 -1      3825 2.81907E-01
 -1      3826 3.13923E-01
 -1      3827 3.51320E-01
 -1      3828 2.19079E-01
 -1      3829 2.47425E-01
 -1      3830 2.76654E-01
 -1      3831 1.66414E-01
 -1      3832 1.90382E-01
 -1      3833 2.13475E-01
 -1      3834 1.23653E-01
 -1      3835 1.43256E-01
 -1      3836 1.61620E-01
 -1      3837 1.00262E-01
 -1      3838 1.07006E-01
 -1      3839 1.21815E-01
 -1      3840 1.00262E-01
 -1      3841 1.46373E-01
 -1      3842 1.36436E-01
 -1      3843 1.95846E-01
 -1      3844 2.27707E-01
 -1      3845 2.34408E-01
 -1      3846 1.04962E+00
 -1      3847 9.43961E-01
 -1      3848 1.28173E+00
 -1      3849 1.49908E+00
 -1      3850 1.67742E+00
 -1      3851 1.59834E+00
 -1      3852 1.19857E-01
 -1      3853 1.17871E-01
 -1      3854 1.40528E-01
 -1      3855 3.71941E+00
 -1      3856 4.36160E+00
 -1      3857 2.51384E-01
 -1      3858 2.74889E+00
 -1      3859 2.30778E+00
 -1      3860 2.11430E+00
 -1      3861 2.26374E+00
 -1      3862 6.85814E-02
 -1      3863 6.85814E-02
 -1      3864 8.10470E-02
 -1      3865 1.78784E-01
 -1      3866 1.61893E-01
 -1      3867 1.84956E-01
 -1      3868 1.83815E-01
 -1      3869 1.17184E-01
 -1      3870 1.26106E-01
 -1      3871 1.45753E-01
 -1      3872 2.37271E-01
 -1      3873 2.37808E-01
 -1      3874 1.97874E-01
 -1      3875 1.19695E-01
 -1      3876 1.22296E-01
 -1      3877 1.33306E-01
 -1      3878 5.70965E+00
 -1      3879 5.51010E+00
 -1      3880 4.25348E+00
 -1      3881 5.40966E+00
 -1      3882 7.24176E+00
 -1      3883 5.77926E+00
 -1      3884 6.15072E+00
 -1      3885 6.91748E+00
 -1      3886 7.82831E+00
 -1      3887 1.69578E-01
 -1      3888 2.77181E+00
 -1      3889 6.97297E-02
 -1      3890 2.00737E-01
 -1      3891 6.28694E-02
 -1      3892 3.15261E+00
 -1      3893 1.66317E-01
 -1      3894 1.77052E-01
 -1      3895 1.95565E-01
 -1      3896 2.97520E+00
 -1      3897 8.91900E-02
 -1      3898 5.47739E-01
 -1      3899 5.47739E-01
 -1      3900 6.18352E-01
 -1      3901 2.33478E-01
 -1      3902 2.26464E-01
 -1      3903 2.59675E+00
 -1      3904 2.51681E+00
 -1      3905 2.29468E+00
 -1      3906 2.98449E+00
 -1      3907 3.97698E+00
 -1      3908 3.58742E+00
 -1      3909 2.21213E+00
 -1      3910 8.26677E-01
 -1      3911 7.30339E-01
 -1      3912 7.28716E-01
 -1      3913 9.57987E-01
 -1      3914 1.81326E-01
 -1      3915 1.66434E-01
 -1      3916 1.64282E-01
 -1      3917 1.63447E-01
 -1      3918 1.34035E-01
 -1      3919 7.19268E-02
 -1      3920 7.44440E-02
 -1      3921 7.83961E+00
 -1      3922 6.23796E+00
 -1      3923 6.62076E+00
 -1      3924 4.77105E+00
 -1      3925 4.48303E+00
 -1      3926 4.14187E+00
 -1      3927 1.02428E-01
 -1      3928 1.09192E-01
 -1      3929 1.08506E-01
 -1      3930 2.52991E+00
 -1      3931 3.69840E-01
 -1      3932 3.21331E-01
 -1      3933 4.24294E-01
 -1      3934 1.34383E-01
 -1      3935 5.26020E+00
 -1      3936 4.50055E+00
 -1      3937 3.37959E+00
 -1      3938 4.65419E+00
 -1      3939 6.98490E-02
 -1      3940 6.98490E-02
 -1      3941 7.39062E-02
 -1      3942 1.69578E-01
 -1      3943 3.27523E+00
 -1      3944 3.29760E+00
 -1      3945 2.23925E-01
 -1      3946 2.47764E-01
 -1      3947 2.85109E-01
 -1      3948 3.37804E-01
 -1      3949 2.85745E-01
 -1      3950 3.82353E-01
 -1      3951 4.51274E-01
 -1      3952 3.67638E-01
 -1      3953 5.09128E-01
 -1      3954 5.99378E-01
 -1      3955 4.70041E-01
 -1      3956 6.79651E-01
 -1      3957 8.03029E-01
 -1      3958 6.08169E-01
 -1      3959 9.20321E-01
 -1      3960 1.09873E+00
 -1      3961 8.05734E-01
 -1      3962 1.27345E+00
 -1      3963 1.54634E+00
 -1      3964 1.09774E+00
 -1      3965 1.83585E+00
 -1      3966 2.24964E+00
 -1      3967 1.56198E+00
 -1      3968 2.78851E+00
 -1      3969 4.46795E+00
 -1      3970 2.39037E+00
 -1      3971 2.82462E+00
 -1      3972 2.54534E+00
 -1      3973 2.41786E+00
 -1      3974 1.88746E+00
 -1      3975 1.44743E+00
 -1      3976 1.20374E+00
 -1      3977 1.68760E+00
 -1      3978 1.02397E+00
 -1      3979 8.68922E-01
 -1      3980 1.06780E+00
 -1      3981 7.52461E-01
 -1      3982 6.46183E-01
 -1      3983 7.71568E-01
 -1      3984 5.63066E-01
 -1      3985 4.86556E-01
 -1      3986 5.71990E-01
 -1      3987 4.28008E-01
 -1      3988 3.70547E-01
 -1      3989 4.30325E-01
 -1      3990 3.27086E-01
 -1      3991 2.82763E-01
 -1      3992 3.28316E-01
 -1      3993 2.49592E-01
 -1      3994 2.15026E-01
 -1      3995 2.51684E-01
 -1      3996 1.88761E-01
 -1      3997 1.61797E-01
 -1      3998 1.92248E-01
 -1      3999 1.47790E-01
 -1      4000 1.26811E-01
 -1      4001 1.51976E-01
 -1      4002 1.83153E-01
 -1      4003 2.01222E-01
 -1      4004 2.25696E-01
 -1      4005 2.99830E+00
 -1      4006 2.99830E+00
 -1      4007 3.55683E+00
 -1      4008 6.68604E-01
 -1      4009 7.47313E-01
 -1      4010 9.27799E-02
 -1      4011 9.58631E-02
 -1      4012 9.27799E-02
 -1      4013 8.39076E-01
 -1      4014 9.57298E-01
 -1      4015 8.39076E-01
 -1      4016 1.09930E+00
 -1      4017 1.29357E+00
 -1      4018 1.07284E+00
 -1      4019 5.36425E-01
 -1      4020 5.89895E-01
 -1      4021 6.68604E-01
 -1      4022 4.26629E-01
 -1      4023 4.72354E-01
 -1      4024 5.25824E-01
 -1      4025 3.35785E-01
 -1      4026 3.75969E-01
 -1      4027 4.11093E-01
 -1      4028 2.59488E-01
 -1      4029 2.93970E-01
 -1      4030 3.18619E-01
 -1      4031 1.97618E-01
 -1      4032 2.26315E-01
 -1      4033 2.43631E-01
 -1      4034 1.47910E-01
 -1      4035 1.71068E-01
 -1      4036 1.83908E-01
 -1      4037 1.69578E-01
 -1      4038 1.38418E-01
 -1      4039 1.20413E-01
 -1      4040 1.15300E-01
 -1      4041 1.20413E-01
 -1      4042 8.01611E+00
 -1      4043 1.49279E+00
 -1      4044 1.28632E+00
 -1      4045 1.53816E+00
 -1      4046 1.76422E+00
 -1      4047 2.15195E+00
 -1      4048 1.45944E+00
 -1      4049 2.72821E-01
 -1      4050 2.33478E-01
 -1      4051 2.34908E-01
 -1      4052 7.47300E-02
 -1      4053 8.46369E-02
 -1      4054 9.27799E-02
 -1      4055 9.63698E-02
 -1      4056 8.61769E-02
 -1      4057 1.13814E-01
 -1      4058 1.55323E-01
 -1      4059 1.04750E-01
 -1      4060 2.19848E+00
 -1      4061 1.95035E+00
 -1      4062 2.75937E+00
 -1      4063 1.66715E-01
 -1      4064 1.33162E-01
 -1      4065 1.50721E-01
 -1      4066 1.70561E-01
 -1      4067 1.20269E-01
 -1      4068 3.28450E+00
 -1      4069 1.58116E-01
 -1      4070 1.41537E-01
 -1      4071 1.81326E-01
 -1      4072 1.81326E-01
 -1      4073 1.36188E-01
 -1      4074 1.10184E-01
 -1      4075 7.67093E-02
 -1      4076 5.74141E+00
 -1      4077 4.82941E+00
 -1      4078 4.91665E+00
 -1      4079 5.67215E+00
 -1      4080 6.58299E+00
 -1      4081 4.13346E+00
 -1      4082 1.35151E-01
 -1      4083 1.03627E-01
 -1      4084 8.65958E-02
 -1      4085 4.84273E+00
 -1      4086 5.38327E+00
 -1      4087 4.47313E+00
 -1      4088 3.21331E-01
 -1      4089 8.86220E-02
 -1      4090 2.43437E+00
 -1      4091 3.42192E+00
 -1      4092 2.98883E+00
 -1      4093 1.98646E+00
 -1      4094 1.43723E-01
 -1      4095 1.26135E-01
 -1      4096 1.00769E-01
 -1      4097 1.30124E-01
 -1      4098 1.39572E-01
 -1      4099 1.13477E-01
 -1      4100 1.17429E-01
 -1      4101 1.15277E-01
 -1      4102 8.17149E-02
 -1      4103 1.95494E+00
 -1      4104 1.10692E-01
 -1      4105 1.07679E+00
 -1      4106 9.59501E-01
 -1      4107 1.28784E+00
 -1      4108 4.74506E-01
 -1      4109 4.20052E-01
 -1      4110 3.08937E+00
 -1      4111 3.22354E+00
 -1      4112 3.99779E+00
 -1      4113 3.39470E+00
 -1      4114 1.10200E-01
 -1      4115 1.20393E-01
 -1      4116 1.99472E-01
 -1      4117 1.79528E-01
 -1      4118 1.80536E-01
 -1      4119 1.08123E-01
 -1      4120 1.10200E-01
 -1      4121 1.44417E-01
 -1      4122 1.18009E-01
 -1      4123 6.63904E-01
 -1      4124 5.94913E-01
 -1      4125 5.90672E-01
 -1      4126 1.14786E-01
 -1      4127 1.15277E-01
 -1      4128 1.18544E-01
 -1      4129 1.00539E-01
 -1      4130 9.86704E-02
 -1      4131 5.51874E-01
 -1      4132 6.15945E-01
 -1      4133 3.46772E-01
 -1      4134 3.91320E-01
 -1      4135 4.45009E-01
 -1      4136 5.02863E-01
 -1      4137 4.24143E-01
 -1      4138 5.72896E-01
 -1      4139 6.53170E-01
 -1      4140 5.47864E-01
 -1      4141 7.38447E-01
 -1      4142 8.55739E-01
 -1      4143 7.03175E-01
 -1      4144 9.95564E-01
 -1      4145 1.17028E+00
 -1      4146 9.28277E-01
 -1      4147 1.49881E+00
 -1      4148 1.78832E+00
 -1      4149 1.39663E+00
 -1      4150 2.20881E+00
 -1      4151 2.74768E+00
 -1      4152 2.14564E+00
 -1      4153 2.63651E-01
 -1      4154 2.25739E-01
 -1      4155 2.28215E-01
 -1      4156 3.80287E+00
 -1      4157 2.19906E-01
 -1      4158 2.42609E-01
 -1      4159 1.25691E+00
 -1      4160 1.07714E+00
 -1      4161 8.84570E-01
 -1      4162 7.68109E-01
 -1      4163 1.07368E+00
 -1      4164 6.48551E-01
 -1      4165 5.65434E-01
 -1      4166 7.61552E-01
 -1      4167 4.88396E-01
 -1      4168 4.29848E-01
 -1      4169 5.64957E-01
 -1      4170 3.67393E-01
 -1      4171 3.23932E-01
 -1      4172 4.25464E-01
 -1      4173 2.73792E-01
 -1      4174 2.40621E-01
 -1      4175 3.12869E-01
 -1      4176 2.05925E-01
 -1      4177 1.79659E-01
 -1      4178 2.28033E-01
 -1      4179 1.57520E-01
 -1      4180 1.43514E-01
 -1      4181 1.71197E-01
 -1      4182 1.14625E-01
 -1      4183 1.09078E-01
 -1      4184 8.39076E-01
 -1      4185 9.30839E-01
 -1      4186 1.29857E+00
 -1      4187 1.44057E+00
 -1      4188 1.29857E+00
 -1      4189 4.24176E-01
 -1      4190 4.74836E-01
 -1      4191 5.64957E-01
 -1      4192 3.19906E-01
 -1      4193 3.61721E-01
 -1      4194 4.25464E-01
 -1      4195 2.36594E-01
 -1      4196 2.69767E-01
 -1      4197 3.12869E-01
 -1      4198 1.59634E-01
 -1      4199 1.86184E-01
 -1      4200 2.12320E-01
 -1      4201 1.07509E-01
 -1      4202 8.87505E-02
 -1      4203 1.58885E-01
 -1      4204 1.43483E-01
 -1      4205 3.77648E+00
 -1      4206 1.41193E-01
 -1      4207 1.91334E+00
 -1      4208 1.47332E+00
 -1      4209 1.48265E+00
 -1      4210 2.43296E+00
 -1      4211 4.12939E-01
 -1      4212 3.62727E-01
 -1      4213 3.14217E-01
 -1      4214 6.37723E-01
 -1      4215 7.16432E-01
 -1      4216 8.08195E-01
 -1      4217 6.63773E-01
 -1      4218 9.59501E-01
 -1      4219 8.47515E-01
 -1      4220 1.07830E+00
 -1      4221 2.87451E+00
 -1      4222 2.52765E+00
 -1      4223 3.54476E+00
 -1      4224 1.15832E-01
 -1      4225 1.15832E-01
 -1      4226 1.28540E-01
 -1      4227 1.39855E-01
 -1      4228 1.07509E-01
 -1      4229 2.48932E+00
 -1      4230 2.03175E+00
 -1      4231 2.60446E+00
 -1      4232 2.70625E-01
 -1      4233 3.07970E-01
 -1      4234 2.64834E-01
 -1      4235 8.59469E-02
 -1      4236 1.03576E-01
 -1      4237 1.31204E-01
 -1      4238 1.06458E-01
 -1      4239 1.16378E-01
 -1      4240 1.46366E-01
 -1      4241 3.31652E-01
 -1      4242 2.92925E+00
 -1      4243 4.13346E+00
 -1      4244 2.74768E+00
 -1      4245 4.43010E+00
 -1      4246 4.03411E+00
 -1      4247 3.13213E+00
 -1      4248 4.02079E+00
 -1      4249 1.16378E-01
 -1      4250 1.16378E-01
 -1      4251 1.34086E-01
 -1      4252 3.05047E-01
 -1      4253 2.21867E+00
 -1      4254 1.85946E-01
 -1      4255 2.02858E-01
 -1      4256 1.53514E-01
 -1      4257 1.18247E-01
 -1      4258 1.46738E-01
 -1      4259 1.80536E-01
 -1      4260 1.80297E-01
 -1      4261 2.01948E-01
 -1      4262 5.37543E+00
 -1      4263 1.46253E-01
 -1      4264 1.48529E-01
 -1      4265 1.28467E-01
 -1      4266 2.12493E+00
 -1      4267 1.59056E+00
 -1      4268 1.38102E+00
 -1      4269 1.36108E-01
 -1      4270 8.94689E-01
 -1      4271 6.23551E-01
 -1      4272 5.03144E-01
 -1      4273 1.35714E+00
 -1      4274 1.60174E+00
 -1      4275 1.88415E+00
 -1      4276 1.58287E+00
 -1      4277 3.67467E+00
 -1      4278 4.87888E+00
 -1      4279 4.39513E-01
 -1      4280 3.82187E-01
 -1      4281 4.72393E-01
 -1      4282 2.85320E+00
 -1      4283 2.36796E+00
 -1      4284 1.84834E+00
 -1      4285 2.13325E+00
 -1      4286 1.46738E-01
 -1      4287 1.58221E-01
 -1      4288 1.55901E-01
 -1      4289 1.51339E-01
 -1      4290 1.80360E-01
 -1      4291 2.47944E-01
 -1      4292 2.21678E-01
 -1      4293 2.21678E-01
 -1      4294 5.06927E-01
 -1      4295 5.76961E-01
 -1      4296 9.33376E-01
 -1      4297 1.07320E+00
 -1      4298 1.37592E+00
 -1      4299 1.70445E+00
 -1      4300 2.14564E+00
 -1      4301 2.56612E+00
 -1      4302 6.65842E-01
 -1      4303 7.06779E-01
 -1      4304 7.92056E-01
 -1      4305 7.53369E-01
 -1      4306 8.81111E-01
 -1      4307 7.61552E-01
 -1      4308 6.41994E-01
 -1      4309 5.64957E-01
 -1      4310 4.87919E-01
 -1      4311 4.25464E-01
 -1      4312 3.63008E-01
 -1      4313 3.12869E-01
 -1      4314 2.62730E-01
 -1      4315 2.28033E-01
 -1      4316 1.29857E+00
 -1      4317 1.66630E+00
 -1      4318 3.27536E+00
 -1      4319 1.07830E+00
 -1      4320 1.07830E+00
 -1      4321 3.06461E-01
 -1      4322 3.45263E-01
 -1      4323 1.51492E-01
 -1      4324 1.46366E-01
 -1      4325 1.46366E-01
 -1      4326 1.63772E-01
 -1      4327 1.58645E-01
 -1      4328 3.37843E-01
 -1      4329 2.87277E-01
 -1      4330 2.80740E-01
 -1      4331 3.64417E-01
 -1      4332 9.36980E-01
 -1      4333 1.68268E+00
 -1      4334 1.46628E+00
 -1      4335 1.27371E+00
 -1      4336 2.60446E+00
 -1      4337 2.39113E-01
 -1      4338 2.67129E-01
 -1      4339 3.89608E-01
 -1      4340 4.43296E-01
 -1      4341 3.09380E+00
 -1      4342 9.36980E-01
 -1      4343 1.38102E+00
 -1      4344 1.27371E+00
 -1      4345 7.61552E-01
 -1      4346 2.15057E-01
 -1      4347 1.83196E+00
 -1      4348 1.83196E+00
 -1      4349 9.05975E-01
 -1      4350 1.80297E-01
 -1      4351 1.35221E-01
 -1      4352 2.19383E-01
 -1      4353 2.80740E-01
 -1      4354 3.64417E-01
 -1      4355 7.83331E-01
 -1      4356 1.64647E-01
 -1      4357 1.74853E+00
 -1      4358 1.51266E-01
 -1      4359 1.85423E-01
 -1      4360 3.20072E-01
 -3
 9999
