    1C
    1UUSER                                                              
    1UDATE              27.october.2022                                 
    1UTIME              00:44:29                                        
    1UHOST                                                              
    1UPGM               CalculiX                                        
    1UVERSION           Version 2.17                             
    1UCOMPILETIME       Thu Jul 23 21:43:50 CEST 2020                    
    1UDIR                                                               
    1UDBN                                                               
    1UMAT    1SOLIDMATERIAL                                             
    2C                          4261                                     1
 -1         1 3.28029E+01 3.38948E+01 0.00000E+00
 -1         2 3.98186E+01 2.68949E+01 0.00000E+00
 -1         3 1.50000E+02 0.00000E+00 0.00000E+00
 -1         4 1.50000E+02 5.00000E+01 0.00000E+00
 -1         5 0.00000E+00 0.00000E+00 0.00000E+00
 -1         6 0.00000E+00 5.00000E+01 0.00000E+00
 -1         7 0.00000E+00 4.70500E+01 0.00000E+00
 -1         8 0.00000E+00 4.41000E+01 0.00000E+00
 -1         9 0.00000E+00 4.11500E+01 0.00000E+00
 -1        10 0.00000E+00 3.82000E+01 0.00000E+00
 -1        11 0.00000E+00 3.52500E+01 0.00000E+00
 -1        12 0.00000E+00 3.23500E+01 0.00000E+00
 -1        13 0.00000E+00 2.94000E+01 0.00000E+00
 -1        14 0.00000E+00 2.64500E+01 0.00000E+00
 -1        15 0.00000E+00 2.35000E+01 0.00000E+00
 -1        16 0.00000E+00 2.05500E+01 0.00000E+00
 -1        17 0.00000E+00 1.76000E+01 0.00000E+00
 -1        18 0.00000E+00 1.47000E+01 0.00000E+00
 -1        19 0.00000E+00 1.17500E+01 0.00000E+00
 -1        20 0.00000E+00 8.80000E+00 0.00000E+00
 -1        21 0.00000E+00 5.85000E+00 0.00000E+00
 -1        22 0.00000E+00 2.90000E+00 0.00000E+00
 -1        23 3.15000E+00 5.00000E+01 0.00000E+00
 -1        24 6.15000E+00 5.00000E+01 0.00000E+00
 -1        25 9.15000E+00 5.00000E+01 0.00000E+00
 -1        26 1.21500E+01 5.00000E+01 0.00000E+00
 -1        27 1.51500E+01 5.00000E+01 0.00000E+00
 -1        28 1.81500E+01 5.00000E+01 0.00000E+00
 -1        29 2.11500E+01 5.00000E+01 0.00000E+00
 -1        30 2.41500E+01 5.00000E+01 0.00000E+00
 -1        31 2.71500E+01 5.00000E+01 0.00000E+00
 -1        32 3.01500E+01 5.00000E+01 0.00000E+00
 -1        33 3.31500E+01 5.00000E+01 0.00000E+00
 -1        34 3.61500E+01 5.00000E+01 0.00000E+00
 -1        35 3.91500E+01 5.00000E+01 0.00000E+00
 -1        36 4.21500E+01 5.00000E+01 0.00000E+00
 -1        37 4.51500E+01 5.00000E+01 0.00000E+00
 -1        38 4.81500E+01 5.00000E+01 0.00000E+00
 -1        39 5.11500E+01 5.00000E+01 0.00000E+00
 -1        40 5.41500E+01 5.00000E+01 0.00000E+00
 -1        41 5.71500E+01 5.00000E+01 0.00000E+00
 -1        42 6.01500E+01 5.00000E+01 0.00000E+00
 -1        43 6.31500E+01 5.00000E+01 0.00000E+00
 -1        44 6.61500E+01 5.00000E+01 0.00000E+00
 -1        45 6.91500E+01 5.00000E+01 0.00000E+00
 -1        46 7.21500E+01 5.00000E+01 0.00000E+00
 -1        47 7.51500E+01 5.00000E+01 0.00000E+00
 -1        48 7.81500E+01 5.00000E+01 0.00000E+00
 -1        49 8.11500E+01 5.00000E+01 0.00000E+00
 -1        50 8.41500E+01 5.00000E+01 0.00000E+00
 -1        51 8.71500E+01 5.00000E+01 0.00000E+00
 -1        52 9.01500E+01 5.00000E+01 0.00000E+00
 -1        53 9.31500E+01 5.00000E+01 0.00000E+00
 -1        54 9.61500E+01 5.00000E+01 0.00000E+00
 -1        55 9.91500E+01 5.00000E+01 0.00000E+00
 -1        56 1.02150E+02 5.00000E+01 0.00000E+00
 -1        57 1.05150E+02 5.00000E+01 0.00000E+00
 -1        58 1.08150E+02 5.00000E+01 0.00000E+00
 -1        59 1.11150E+02 5.00000E+01 0.00000E+00
 -1        60 1.14150E+02 5.00000E+01 0.00000E+00
 -1        61 1.17150E+02 5.00000E+01 0.00000E+00
 -1        62 1.20150E+02 5.00000E+01 0.00000E+00
 -1        63 1.23150E+02 5.00000E+01 0.00000E+00
 -1        64 1.26150E+02 5.00000E+01 0.00000E+00
 -1        65 1.29150E+02 5.00000E+01 0.00000E+00
 -1        66 1.32150E+02 5.00000E+01 0.00000E+00
 -1        67 1.35150E+02 5.00000E+01 0.00000E+00
 -1        68 1.38150E+02 5.00000E+01 0.00000E+00
 -1        69 1.41150E+02 5.00000E+01 0.00000E+00
 -1        70 1.44150E+02 5.00000E+01 0.00000E+00
 -1        71 1.47150E+02 5.00000E+01 0.00000E+00
 -1        72 3.15000E+00 0.00000E+00 0.00000E+00
 -1        73 6.15000E+00 0.00000E+00 0.00000E+00
 -1        74 9.15000E+00 0.00000E+00 0.00000E+00
 -1        75 1.21500E+01 0.00000E+00 0.00000E+00
 -1        76 1.51500E+01 0.00000E+00 0.00000E+00
 -1        77 1.81500E+01 0.00000E+00 0.00000E+00
 -1        78 2.11500E+01 0.00000E+00 0.00000E+00
 -1        79 2.41500E+01 0.00000E+00 0.00000E+00
 -1        80 2.71500E+01 0.00000E+00 0.00000E+00
 -1        81 3.01500E+01 0.00000E+00 0.00000E+00
 -1        82 3.31500E+01 0.00000E+00 0.00000E+00
 -1        83 3.61500E+01 0.00000E+00 0.00000E+00
 -1        84 3.91500E+01 0.00000E+00 0.00000E+00
 -1        85 4.21500E+01 0.00000E+00 0.00000E+00
 -1        86 4.51500E+01 0.00000E+00 0.00000E+00
 -1        87 4.81500E+01 0.00000E+00 0.00000E+00
 -1        88 5.11500E+01 0.00000E+00 0.00000E+00
 -1        89 5.41500E+01 0.00000E+00 0.00000E+00
 -1        90 5.71500E+01 0.00000E+00 0.00000E+00
 -1        91 6.01500E+01 0.00000E+00 0.00000E+00
 -1        92 6.31500E+01 0.00000E+00 0.00000E+00
 -1        93 6.61500E+01 0.00000E+00 0.00000E+00
 -1        94 6.91500E+01 0.00000E+00 0.00000E+00
 -1        95 7.21500E+01 0.00000E+00 0.00000E+00
 -1        96 7.51500E+01 0.00000E+00 0.00000E+00
 -1        97 7.81500E+01 0.00000E+00 0.00000E+00
 -1        98 8.11500E+01 0.00000E+00 0.00000E+00
 -1        99 8.41500E+01 0.00000E+00 0.00000E+00
 -1       100 8.71500E+01 0.00000E+00 0.00000E+00
 -1       101 9.01500E+01 0.00000E+00 0.00000E+00
 -1       102 9.31500E+01 0.00000E+00 0.00000E+00
 -1       103 9.61500E+01 0.00000E+00 0.00000E+00
 -1       104 9.91500E+01 0.00000E+00 0.00000E+00
 -1       105 1.02150E+02 0.00000E+00 0.00000E+00
 -1       106 1.05150E+02 0.00000E+00 0.00000E+00
 -1       107 1.08150E+02 0.00000E+00 0.00000E+00
 -1       108 1.11150E+02 0.00000E+00 0.00000E+00
 -1       109 1.14150E+02 0.00000E+00 0.00000E+00
 -1       110 1.17150E+02 0.00000E+00 0.00000E+00
 -1       111 1.20150E+02 0.00000E+00 0.00000E+00
 -1       112 1.23150E+02 0.00000E+00 0.00000E+00
 -1       113 1.26150E+02 0.00000E+00 0.00000E+00
 -1       114 1.29150E+02 0.00000E+00 0.00000E+00
 -1       115 1.32150E+02 0.00000E+00 0.00000E+00
 -1       116 1.35150E+02 0.00000E+00 0.00000E+00
 -1       117 1.38150E+02 0.00000E+00 0.00000E+00
 -1       118 1.41150E+02 0.00000E+00 0.00000E+00
 -1       119 1.44150E+02 0.00000E+00 0.00000E+00
 -1       120 1.47150E+02 0.00000E+00 0.00000E+00
 -1       121 1.50000E+02 2.95000E+00 0.00000E+00
 -1       122 1.50000E+02 5.90000E+00 0.00000E+00
 -1       123 1.50000E+02 8.85000E+00 0.00000E+00
 -1       124 1.50000E+02 1.18000E+01 0.00000E+00
 -1       125 1.50000E+02 1.47500E+01 0.00000E+00
 -1       126 1.50000E+02 1.76500E+01 0.00000E+00
 -1       127 1.50000E+02 2.06000E+01 0.00000E+00
 -1       128 1.50000E+02 2.35500E+01 0.00000E+00
 -1       129 1.50000E+02 2.65000E+01 0.00000E+00
 -1       130 1.50000E+02 2.94500E+01 0.00000E+00
 -1       131 1.50000E+02 3.24000E+01 0.00000E+00
 -1       132 1.50000E+02 3.53000E+01 0.00000E+00
 -1       133 1.50000E+02 3.82500E+01 0.00000E+00
 -1       134 1.50000E+02 4.12000E+01 0.00000E+00
 -1       135 1.50000E+02 4.41500E+01 0.00000E+00
 -1       136 1.50000E+02 4.71000E+01 0.00000E+00
 -1       137 3.96563E+01 2.53958E+01 0.00000E+00
 -1       138 3.91867E+01 2.39882E+01 0.00000E+00
 -1       139 3.84281E+01 2.27075E+01 0.00000E+00
 -1       140 3.74688E+01 2.16627E+01 0.00000E+00
 -1       141 3.61649E+01 2.07465E+01 0.00000E+00
 -1       142 3.47867E+01 2.01772E+01 0.00000E+00
 -1       143 3.31996E+01 1.99052E+01 0.00000E+00
 -1       144 3.17681E+01 1.99742E+01 0.00000E+00
 -1       145 3.03117E+01 2.03592E+01 0.00000E+00
 -1       146 2.88689E+01 2.11156E+01 0.00000E+00
 -1       147 2.77219E+01 2.20967E+01 0.00000E+00
 -1       148 2.68306E+01 2.32695E+01 0.00000E+00
 -1       149 2.61723E+01 2.46981E+01 0.00000E+00
 -1       150 2.58640E+01 2.60997E+01 0.00000E+00
 -1       151 2.58465E+01 2.75183E+01 0.00000E+00
 -1       152 2.61537E+01 2.90346E+01 0.00000E+00
 -1       153 2.67373E+01 3.03614E+01 0.00000E+00
 -1       154 2.75473E+01 3.15006E+01 0.00000E+00
 -1       155 2.85866E+01 3.24707E+01 0.00000E+00
 -1       156 2.99661E+01 3.32873E+01 0.00000E+00
 -1       157 3.13438E+01 3.37377E+01 0.00000E+00
 -1       158 3.44049E+01 3.37128E+01 0.00000E+00
 -1       159 3.58702E+01 3.31947E+01 0.00000E+00
 -1       160 3.72112E+01 3.23451E+01 0.00000E+00
 -1       161 3.83404E+01 3.11973E+01 0.00000E+00
 -1       162 3.91636E+01 2.98515E+01 0.00000E+00
 -1       163 3.96431E+01 2.84527E+01 0.00000E+00
 -1       164 2.59800E+00 4.55750E+01 0.00000E+00
 -1       165 2.59800E+00 4.26250E+01 0.00000E+00
 -1       166 2.59800E+00 3.96750E+01 0.00000E+00
 -1       167 2.59800E+00 3.67250E+01 0.00000E+00
 -1       168 2.59800E+00 3.38250E+01 0.00000E+00
 -1       169 2.59800E+00 3.08750E+01 0.00000E+00
 -1       170 2.59800E+00 2.79250E+01 0.00000E+00
 -1       171 2.59800E+00 2.49750E+01 0.00000E+00
 -1       172 2.59800E+00 2.20250E+01 0.00000E+00
 -1       173 2.59800E+00 1.90750E+01 0.00000E+00
 -1       174 2.59800E+00 1.61750E+01 0.00000E+00
 -1       175 2.59800E+00 1.32250E+01 0.00000E+00
 -1       176 2.59800E+00 1.02750E+01 0.00000E+00
 -1       177 2.59800E+00 7.32500E+00 0.00000E+00
 -1       178 2.59800E+00 4.37500E+00 0.00000E+00
 -1       179 2.87400E+00 2.18750E+00 0.00000E+00
 -1       180 4.65000E+00 4.74020E+01 0.00000E+00
 -1       181 7.65000E+00 4.74020E+01 0.00000E+00
 -1       182 1.06500E+01 4.74020E+01 0.00000E+00
 -1       183 1.36500E+01 4.74020E+01 0.00000E+00
 -1       184 1.66500E+01 4.74020E+01 0.00000E+00
 -1       185 1.96500E+01 4.74020E+01 0.00000E+00
 -1       186 2.26500E+01 4.74020E+01 0.00000E+00
 -1       187 2.56500E+01 4.74020E+01 0.00000E+00
 -1       188 2.86500E+01 4.74020E+01 0.00000E+00
 -1       189 3.16500E+01 4.74020E+01 0.00000E+00
 -1       190 3.46500E+01 4.74020E+01 0.00000E+00
 -1       191 3.76500E+01 4.74020E+01 0.00000E+00
 -1       192 4.06500E+01 4.74020E+01 0.00000E+00
 -1       193 4.36500E+01 4.74020E+01 0.00000E+00
 -1       194 4.66500E+01 4.74020E+01 0.00000E+00
 -1       195 4.96500E+01 4.74020E+01 0.00000E+00
 -1       196 5.26500E+01 4.74020E+01 0.00000E+00
 -1       197 5.56500E+01 4.74020E+01 0.00000E+00
 -1       198 5.86500E+01 4.74020E+01 0.00000E+00
 -1       199 6.16500E+01 4.74020E+01 0.00000E+00
 -1       200 6.46500E+01 4.74020E+01 0.00000E+00
 -1       201 6.76500E+01 4.74020E+01 0.00000E+00
 -1       202 7.06500E+01 4.74020E+01 0.00000E+00
 -1       203 7.36500E+01 4.74020E+01 0.00000E+00
 -1       204 7.66500E+01 4.74020E+01 0.00000E+00
 -1       205 7.96500E+01 4.74020E+01 0.00000E+00
 -1       206 8.26500E+01 4.74020E+01 0.00000E+00
 -1       207 8.56500E+01 4.74020E+01 0.00000E+00
 -1       208 8.86500E+01 4.74020E+01 0.00000E+00
 -1       209 9.16500E+01 4.74020E+01 0.00000E+00
 -1       210 9.46500E+01 4.74020E+01 0.00000E+00
 -1       211 9.76500E+01 4.74020E+01 0.00000E+00
 -1       212 1.00650E+02 4.74020E+01 0.00000E+00
 -1       213 1.03650E+02 4.74020E+01 0.00000E+00
 -1       214 1.06650E+02 4.74020E+01 0.00000E+00
 -1       215 1.09650E+02 4.74020E+01 0.00000E+00
 -1       216 1.12650E+02 4.74020E+01 0.00000E+00
 -1       217 1.15650E+02 4.74020E+01 0.00000E+00
 -1       218 1.18650E+02 4.74020E+01 0.00000E+00
 -1       219 1.21650E+02 4.74020E+01 0.00000E+00
 -1       220 1.24650E+02 4.74020E+01 0.00000E+00
 -1       221 1.27650E+02 4.74020E+01 0.00000E+00
 -1       222 1.30650E+02 4.74020E+01 0.00000E+00
 -1       223 1.33650E+02 4.74020E+01 0.00000E+00
 -1       224 1.36650E+02 4.74020E+01 0.00000E+00
 -1       225 1.39650E+02 4.74020E+01 0.00000E+00
 -1       226 1.42650E+02 4.74020E+01 0.00000E+00
 -1       227 1.45650E+02 4.74020E+01 0.00000E+00
 -1       228 5.87400E+00 2.18750E+00 0.00000E+00
 -1       229 8.87400E+00 2.18750E+00 0.00000E+00
 -1       230 1.18740E+01 2.18750E+00 0.00000E+00
 -1       231 1.48740E+01 2.18750E+00 0.00000E+00
 -1       232 1.78740E+01 2.18750E+00 0.00000E+00
 -1       233 2.08740E+01 2.18750E+00 0.00000E+00
 -1       234 2.38740E+01 2.18750E+00 0.00000E+00
 -1       235 2.68740E+01 2.18750E+00 0.00000E+00
 -1       236 2.98740E+01 2.18750E+00 0.00000E+00
 -1       237 3.28740E+01 2.18750E+00 0.00000E+00
 -1       238 3.58740E+01 2.18750E+00 0.00000E+00
 -1       239 3.88740E+01 2.18750E+00 0.00000E+00
 -1       240 4.18740E+01 2.18750E+00 0.00000E+00
 -1       241 4.48740E+01 2.18750E+00 0.00000E+00
 -1       242 4.78740E+01 2.18750E+00 0.00000E+00
 -1       243 5.08740E+01 2.18750E+00 0.00000E+00
 -1       244 5.38740E+01 2.18750E+00 0.00000E+00
 -1       245 5.68740E+01 2.18750E+00 0.00000E+00
 -1       246 5.98740E+01 2.18750E+00 0.00000E+00
 -1       247 6.28740E+01 2.18750E+00 0.00000E+00
 -1       248 6.58740E+01 2.18750E+00 0.00000E+00
 -1       249 6.88740E+01 2.18750E+00 0.00000E+00
 -1       250 7.18740E+01 2.18750E+00 0.00000E+00
 -1       251 7.48740E+01 2.18750E+00 0.00000E+00
 -1       252 7.78740E+01 2.18750E+00 0.00000E+00
 -1       253 8.08740E+01 2.18750E+00 0.00000E+00
 -1       254 8.38740E+01 2.18750E+00 0.00000E+00
 -1       255 8.68740E+01 2.18750E+00 0.00000E+00
 -1       256 8.98740E+01 2.18750E+00 0.00000E+00
 -1       257 9.28740E+01 2.18750E+00 0.00000E+00
 -1       258 9.58740E+01 2.18750E+00 0.00000E+00
 -1       259 9.88740E+01 2.18750E+00 0.00000E+00
 -1       260 1.01874E+02 2.18750E+00 0.00000E+00
 -1       261 1.04874E+02 2.18750E+00 0.00000E+00
 -1       262 1.07874E+02 2.18750E+00 0.00000E+00
 -1       263 1.10874E+02 2.18750E+00 0.00000E+00
 -1       264 1.13874E+02 2.18750E+00 0.00000E+00
 -1       265 1.16874E+02 2.18750E+00 0.00000E+00
 -1       266 1.19874E+02 2.18750E+00 0.00000E+00
 -1       267 1.22874E+02 2.18750E+00 0.00000E+00
 -1       268 1.25874E+02 2.18750E+00 0.00000E+00
 -1       269 1.28874E+02 2.18750E+00 0.00000E+00
 -1       270 1.31874E+02 2.18750E+00 0.00000E+00
 -1       271 1.34874E+02 2.18750E+00 0.00000E+00
 -1       272 1.37874E+02 2.18750E+00 0.00000E+00
 -1       273 1.40874E+02 2.18750E+00 0.00000E+00
 -1       274 1.43874E+02 2.18750E+00 0.00000E+00
 -1       275 1.46874E+02 2.18750E+00 0.00000E+00
 -1       276 1.47402E+02 4.42500E+00 0.00000E+00
 -1       277 1.47402E+02 7.37500E+00 0.00000E+00
 -1       278 1.47402E+02 1.03250E+01 0.00000E+00
 -1       279 1.47402E+02 1.32750E+01 0.00000E+00
 -1       280 1.47402E+02 1.61750E+01 0.00000E+00
 -1       281 1.47402E+02 1.91250E+01 0.00000E+00
 -1       282 1.47402E+02 2.20750E+01 0.00000E+00
 -1       283 1.47402E+02 2.50250E+01 0.00000E+00
 -1       284 1.47402E+02 2.79750E+01 0.00000E+00
 -1       285 1.47402E+02 3.09250E+01 0.00000E+00
 -1       286 1.47402E+02 3.38250E+01 0.00000E+00
 -1       287 1.47402E+02 3.67750E+01 0.00000E+00
 -1       288 1.47402E+02 3.97250E+01 0.00000E+00
 -1       289 1.47402E+02 4.26750E+01 0.00000E+00
 -1       290 1.46526E+02 4.50385E+01 0.00000E+00
 -1       291 4.11094E+01 2.59967E+01 0.00000E+00
 -1       292 4.06510E+01 2.42818E+01 0.00000E+00
 -1       293 3.99226E+01 2.26873E+01 0.00000E+00
 -1       294 3.89033E+01 2.13085E+01 0.00000E+00
 -1       295 3.77066E+01 1.99384E+01 0.00000E+00
 -1       296 3.59387E+01 1.93413E+01 0.00000E+00
 -1       297 3.42404E+01 1.85985E+01 0.00000E+00
 -1       298 3.24256E+01 1.87287E+01 0.00000E+00
 -1       299 3.06872E+01 1.88325E+01 0.00000E+00
 -1       300 2.88717E+01 1.93668E+01 0.00000E+00
 -1       301 2.74529E+01 2.06211E+01 0.00000E+00
 -1       302 2.63109E+01 2.19495E+01 0.00000E+00
 -1       303 2.52481E+01 2.34063E+01 0.00000E+00
 -1       304 2.47522E+01 2.51204E+01 0.00000E+00
 -1       305 2.46429E+01 2.67941E+01 0.00000E+00
 -1       306 2.46476E+01 2.85505E+01 0.00000E+00
 -1       307 2.52590E+01 3.02198E+01 0.00000E+00
 -1       308 2.61542E+01 3.16336E+01 0.00000E+00
 -1       309 2.71825E+01 3.29332E+01 0.00000E+00
 -1       310 2.84880E+01 3.42107E+01 0.00000E+00
 -1       311 3.02781E+01 3.46649E+01 0.00000E+00
 -1       312 3.19346E+01 3.51050E+01 0.00000E+00
 -1       313 3.37692E+01 3.52582E+01 0.00000E+00
 -1       314 3.55417E+01 3.45968E+01 0.00000E+00
 -1       315 3.72793E+01 3.39356E+01 0.00000E+00
 -1       316 3.86401E+01 3.26214E+01 0.00000E+00
 -1       317 3.99292E+01 3.12445E+01 0.00000E+00
 -1       318 4.05502E+01 2.95452E+01 0.00000E+00
 -1       319 4.10189E+01 2.78189E+01 0.00000E+00
 -1       320 5.19600E+00 4.11500E+01 0.00000E+00
 -1       321 5.19600E+00 4.41000E+01 0.00000E+00
 -1       322 5.19600E+00 3.52750E+01 0.00000E+00
 -1       323 5.19600E+00 3.23250E+01 0.00000E+00
 -1       324 5.19600E+00 2.93750E+01 0.00000E+00
 -1       325 5.19600E+00 2.64250E+01 0.00000E+00
 -1       326 5.19600E+00 2.34750E+01 0.00000E+00
 -1       327 5.19600E+00 2.05250E+01 0.00000E+00
 -1       328 5.19600E+00 1.76250E+01 0.00000E+00
 -1       329 5.19600E+00 1.46750E+01 0.00000E+00
 -1       330 5.19600E+00 1.17250E+01 0.00000E+00
 -1       331 5.19600E+00 8.77500E+00 0.00000E+00
 -1       332 5.19600E+00 5.82500E+00 0.00000E+00
 -1       333 5.53500E+00 4.00625E+00 0.00000E+00
 -1       334 8.53500E+00 4.00625E+00 0.00000E+00
 -1       335 9.15000E+00 4.48040E+01 0.00000E+00
 -1       336 1.21500E+01 4.48040E+01 0.00000E+00
 -1       337 1.51500E+01 4.48040E+01 0.00000E+00
 -1       338 1.81500E+01 4.48040E+01 0.00000E+00
 -1       339 2.11500E+01 4.48040E+01 0.00000E+00
 -1       340 2.41500E+01 4.48040E+01 0.00000E+00
 -1       341 2.71500E+01 4.48040E+01 0.00000E+00
 -1       342 3.01500E+01 4.48040E+01 0.00000E+00
 -1       343 3.31500E+01 4.48040E+01 0.00000E+00
 -1       344 3.61500E+01 4.48040E+01 0.00000E+00
 -1       345 3.91500E+01 4.48040E+01 0.00000E+00
 -1       346 4.21500E+01 4.48040E+01 0.00000E+00
 -1       347 4.51500E+01 4.48040E+01 0.00000E+00
 -1       348 4.81500E+01 4.48040E+01 0.00000E+00
 -1       349 5.11500E+01 4.48040E+01 0.00000E+00
 -1       350 5.41500E+01 4.48040E+01 0.00000E+00
 -1       351 5.71500E+01 4.48040E+01 0.00000E+00
 -1       352 6.01500E+01 4.48040E+01 0.00000E+00
 -1       353 6.31500E+01 4.48040E+01 0.00000E+00
 -1       354 6.61500E+01 4.48040E+01 0.00000E+00
 -1       355 6.91500E+01 4.48040E+01 0.00000E+00
 -1       356 7.21500E+01 4.48040E+01 0.00000E+00
 -1       357 7.51500E+01 4.48040E+01 0.00000E+00
 -1       358 7.81500E+01 4.48040E+01 0.00000E+00
 -1       359 8.11500E+01 4.48040E+01 0.00000E+00
 -1       360 8.41500E+01 4.48040E+01 0.00000E+00
 -1       361 8.71500E+01 4.48040E+01 0.00000E+00
 -1       362 9.01500E+01 4.48040E+01 0.00000E+00
 -1       363 9.31500E+01 4.48040E+01 0.00000E+00
 -1       364 9.61500E+01 4.48040E+01 0.00000E+00
 -1       365 9.91500E+01 4.48040E+01 0.00000E+00
 -1       366 1.02150E+02 4.48040E+01 0.00000E+00
 -1       367 1.05150E+02 4.48040E+01 0.00000E+00
 -1       368 1.08150E+02 4.48040E+01 0.00000E+00
 -1       369 1.11150E+02 4.48040E+01 0.00000E+00
 -1       370 1.14150E+02 4.48040E+01 0.00000E+00
 -1       371 1.17150E+02 4.48040E+01 0.00000E+00
 -1       372 1.20150E+02 4.48040E+01 0.00000E+00
 -1       373 1.23150E+02 4.48040E+01 0.00000E+00
 -1       374 1.26150E+02 4.48040E+01 0.00000E+00
 -1       375 1.29150E+02 4.48040E+01 0.00000E+00
 -1       376 1.32150E+02 4.48040E+01 0.00000E+00
 -1       377 1.35150E+02 4.48040E+01 0.00000E+00
 -1       378 1.38150E+02 4.48040E+01 0.00000E+00
 -1       379 1.41150E+02 4.48040E+01 0.00000E+00
 -1       380 1.43838E+02 4.49212E+01 0.00000E+00
 -1       381 1.15350E+01 4.00625E+00 0.00000E+00
 -1       382 1.45350E+01 4.00625E+00 0.00000E+00
 -1       383 1.75350E+01 4.00625E+00 0.00000E+00
 -1       384 2.05350E+01 4.00625E+00 0.00000E+00
 -1       385 2.35350E+01 4.00625E+00 0.00000E+00
 -1       386 2.65350E+01 4.00625E+00 0.00000E+00
 -1       387 2.95350E+01 4.00625E+00 0.00000E+00
 -1       388 3.25350E+01 4.00625E+00 0.00000E+00
 -1       389 3.55350E+01 4.00625E+00 0.00000E+00
 -1       390 3.85350E+01 4.00625E+00 0.00000E+00
 -1       391 4.15350E+01 4.00625E+00 0.00000E+00
 -1       392 4.45350E+01 4.00625E+00 0.00000E+00
 -1       393 4.75350E+01 4.00625E+00 0.00000E+00
 -1       394 5.05350E+01 4.00625E+00 0.00000E+00
 -1       395 5.35350E+01 4.00625E+00 0.00000E+00
 -1       396 5.65350E+01 4.00625E+00 0.00000E+00
 -1       397 5.95350E+01 4.00625E+00 0.00000E+00
 -1       398 6.25350E+01 4.00625E+00 0.00000E+00
 -1       399 6.55350E+01 4.00625E+00 0.00000E+00
 -1       400 6.85350E+01 4.00625E+00 0.00000E+00
 -1       401 7.15350E+01 4.00625E+00 0.00000E+00
 -1       402 7.45350E+01 4.00625E+00 0.00000E+00
 -1       403 7.75350E+01 4.00625E+00 0.00000E+00
 -1       404 8.05350E+01 4.00625E+00 0.00000E+00
 -1       405 8.35350E+01 4.00625E+00 0.00000E+00
 -1       406 8.65350E+01 4.00625E+00 0.00000E+00
 -1       407 8.95350E+01 4.00625E+00 0.00000E+00
 -1       408 9.25350E+01 4.00625E+00 0.00000E+00
 -1       409 9.55350E+01 4.00625E+00 0.00000E+00
 -1       410 9.85350E+01 4.00625E+00 0.00000E+00
 -1       411 1.01535E+02 4.00625E+00 0.00000E+00
 -1       412 1.04535E+02 4.00625E+00 0.00000E+00
 -1       413 1.07535E+02 4.00625E+00 0.00000E+00
 -1       414 1.10535E+02 4.00625E+00 0.00000E+00
 -1       415 1.13535E+02 4.00625E+00 0.00000E+00
 -1       416 1.16535E+02 4.00625E+00 0.00000E+00
 -1       417 1.19535E+02 4.00625E+00 0.00000E+00
 -1       418 1.22535E+02 4.00625E+00 0.00000E+00
 -1       419 1.25535E+02 4.00625E+00 0.00000E+00
 -1       420 1.28535E+02 4.00625E+00 0.00000E+00
 -1       421 1.31535E+02 4.00625E+00 0.00000E+00
 -1       422 1.34535E+02 4.00625E+00 0.00000E+00
 -1       423 1.37535E+02 4.00625E+00 0.00000E+00
 -1       424 1.40535E+02 4.00625E+00 0.00000E+00
 -1       425 1.43535E+02 4.00625E+00 0.00000E+00
 -1       426 1.45469E+02 4.21562E+00 0.00000E+00
 -1       427 1.44804E+02 1.18000E+01 0.00000E+00
 -1       428 1.44804E+02 8.85000E+00 0.00000E+00
 -1       429 1.45136E+02 6.53281E+00 0.00000E+00
 -1       430 1.44804E+02 1.47000E+01 0.00000E+00
 -1       431 1.44804E+02 1.76500E+01 0.00000E+00
 -1       432 1.44804E+02 2.06000E+01 0.00000E+00
 -1       433 1.44804E+02 2.35500E+01 0.00000E+00
 -1       434 1.44804E+02 2.65000E+01 0.00000E+00
 -1       435 1.44804E+02 2.94500E+01 0.00000E+00
 -1       436 1.44804E+02 3.23500E+01 0.00000E+00
 -1       437 1.44804E+02 3.53000E+01 0.00000E+00
 -1       438 1.44804E+02 3.82500E+01 0.00000E+00
 -1       439 1.44804E+02 4.12000E+01 0.00000E+00
 -1       440 4.17707E+01 2.28067E+01 0.00000E+00
 -1       441 4.27772E+01 2.69929E+01 0.00000E+00
 -1       442 4.22134E+01 2.47829E+01 0.00000E+00
 -1       443 4.05226E+01 2.11776E+01 0.00000E+00
 -1       444 3.93443E+01 1.97156E+01 0.00000E+00
 -1       445 5.19600E+00 3.82125E+01 0.00000E+00
 -1       446 3.56425E+01 1.77056E+01 0.00000E+00
 -1       447 3.32223E+01 1.71200E+01 0.00000E+00
 -1       448 3.14839E+01 1.72239E+01 0.00000E+00
 -1       449 2.92952E+01 1.74543E+01 0.00000E+00
 -1       450 2.70818E+01 1.87718E+01 0.00000E+00
 -1       451 2.58355E+01 2.03857E+01 0.00000E+00
 -1       452 2.44617E+01 2.17164E+01 0.00000E+00
 -1       453 2.37551E+01 2.39031E+01 0.00000E+00
 -1       454 2.33205E+01 2.58673E+01 0.00000E+00
 -1       455 2.33252E+01 2.76237E+01 0.00000E+00
 -1       456 2.37362E+01 2.98309E+01 0.00000E+00
 -1       457 2.44699E+01 3.17098E+01 0.00000E+00
 -1       458 2.55862E+01 3.31396E+01 0.00000E+00
 -1       459 2.68701E+01 3.45582E+01 0.00000E+00
 -1       460 2.90437E+01 3.57754E+01 0.00000E+00
 -1       461 3.07001E+01 3.62155E+01 0.00000E+00
 -1       462 3.27371E+01 3.65568E+01 0.00000E+00
 -1       463 3.51965E+01 3.63774E+01 0.00000E+00
 -1       464 3.69340E+01 3.57162E+01 0.00000E+00
 -1       465 3.89183E+01 3.42712E+01 0.00000E+00
 -1       466 4.04144E+01 3.29906E+01 0.00000E+00
 -1       467 4.16932E+01 3.09261E+01 0.00000E+00
 -1       468 4.21619E+01 2.91998E+01 0.00000E+00
 -1       469 3.74104E+01 1.83027E+01 0.00000E+00
 -1       470 3.90481E+01 1.80799E+01 0.00000E+00
 -1       471 2.74258E+01 3.61229E+01 0.00000E+00
 -1       472 3.46244E+01 1.62271E+01 0.00000E+00
 -1       473 3.41644E+01 3.76760E+01 0.00000E+00
 -1       474 1.00350E+01 6.60425E+00 0.00000E+00
 -1       475 7.79400E+00 3.08500E+01 0.00000E+00
 -1       476 7.79400E+00 3.38000E+01 0.00000E+00
 -1       477 7.79400E+00 2.49500E+01 0.00000E+00
 -1       478 7.79400E+00 2.20000E+01 0.00000E+00
 -1       479 7.79400E+00 1.91000E+01 0.00000E+00
 -1       480 7.79400E+00 1.61500E+01 0.00000E+00
 -1       481 7.79400E+00 1.32000E+01 0.00000E+00
 -1       482 7.79400E+00 1.02500E+01 0.00000E+00
 -1       483 1.30350E+01 6.60425E+00 0.00000E+00
 -1       484 1.06500E+01 4.22060E+01 0.00000E+00
 -1       485 4.12688E+01 1.93703E+01 0.00000E+00
 -1       486 1.36500E+01 4.22060E+01 0.00000E+00
 -1       487 1.66500E+01 4.22060E+01 0.00000E+00
 -1       488 1.96500E+01 4.22060E+01 0.00000E+00
 -1       489 2.26500E+01 4.22060E+01 0.00000E+00
 -1       490 2.56500E+01 4.22060E+01 0.00000E+00
 -1       491 2.86500E+01 4.22060E+01 0.00000E+00
 -1       492 3.16500E+01 4.22060E+01 0.00000E+00
 -1       493 3.46500E+01 4.22060E+01 0.00000E+00
 -1       494 3.76500E+01 4.22060E+01 0.00000E+00
 -1       495 4.06500E+01 4.22060E+01 0.00000E+00
 -1       496 4.36500E+01 4.22060E+01 0.00000E+00
 -1       497 4.66500E+01 4.22060E+01 0.00000E+00
 -1       498 4.96500E+01 4.22060E+01 0.00000E+00
 -1       499 5.26500E+01 4.22060E+01 0.00000E+00
 -1       500 5.56500E+01 4.22060E+01 0.00000E+00
 -1       501 5.86500E+01 4.22060E+01 0.00000E+00
 -1       502 6.16500E+01 4.22060E+01 0.00000E+00
 -1       503 6.46500E+01 4.22060E+01 0.00000E+00
 -1       504 6.76500E+01 4.22060E+01 0.00000E+00
 -1       505 7.06500E+01 4.22060E+01 0.00000E+00
 -1       506 7.36500E+01 4.22060E+01 0.00000E+00
 -1       507 7.66500E+01 4.22060E+01 0.00000E+00
 -1       508 7.96500E+01 4.22060E+01 0.00000E+00
 -1       509 8.26500E+01 4.22060E+01 0.00000E+00
 -1       510 8.56500E+01 4.22060E+01 0.00000E+00
 -1       511 8.86500E+01 4.22060E+01 0.00000E+00
 -1       512 9.16500E+01 4.22060E+01 0.00000E+00
 -1       513 9.46500E+01 4.22060E+01 0.00000E+00
 -1       514 9.76500E+01 4.22060E+01 0.00000E+00
 -1       515 1.00650E+02 4.22060E+01 0.00000E+00
 -1       516 1.03650E+02 4.22060E+01 0.00000E+00
 -1       517 1.06650E+02 4.22060E+01 0.00000E+00
 -1       518 1.09650E+02 4.22060E+01 0.00000E+00
 -1       519 1.12650E+02 4.22060E+01 0.00000E+00
 -1       520 1.15650E+02 4.22060E+01 0.00000E+00
 -1       521 1.18650E+02 4.22060E+01 0.00000E+00
 -1       522 1.21650E+02 4.22060E+01 0.00000E+00
 -1       523 1.24650E+02 4.22060E+01 0.00000E+00
 -1       524 1.27650E+02 4.22060E+01 0.00000E+00
 -1       525 1.30650E+02 4.22060E+01 0.00000E+00
 -1       526 1.33650E+02 4.22060E+01 0.00000E+00
 -1       527 1.36650E+02 4.22060E+01 0.00000E+00
 -1       528 1.39650E+02 4.22060E+01 0.00000E+00
 -1       529 1.90350E+01 6.60425E+00 0.00000E+00
 -1       530 2.20350E+01 6.60425E+00 0.00000E+00
 -1       531 2.50350E+01 6.60425E+00 0.00000E+00
 -1       532 2.80350E+01 6.60425E+00 0.00000E+00
 -1       533 3.10350E+01 6.60425E+00 0.00000E+00
 -1       534 3.40350E+01 6.60425E+00 0.00000E+00
 -1       535 3.70350E+01 6.60425E+00 0.00000E+00
 -1       536 4.00350E+01 6.60425E+00 0.00000E+00
 -1       537 4.30350E+01 6.60425E+00 0.00000E+00
 -1       538 4.60350E+01 6.60425E+00 0.00000E+00
 -1       539 4.90350E+01 6.60425E+00 0.00000E+00
 -1       540 5.20350E+01 6.60425E+00 0.00000E+00
 -1       541 5.50350E+01 6.60425E+00 0.00000E+00
 -1       542 5.80350E+01 6.60425E+00 0.00000E+00
 -1       543 6.10350E+01 6.60425E+00 0.00000E+00
 -1       544 6.40350E+01 6.60425E+00 0.00000E+00
 -1       545 6.70350E+01 6.60425E+00 0.00000E+00
 -1       546 7.00350E+01 6.60425E+00 0.00000E+00
 -1       547 7.30350E+01 6.60425E+00 0.00000E+00
 -1       548 7.60350E+01 6.60425E+00 0.00000E+00
 -1       549 7.90350E+01 6.60425E+00 0.00000E+00
 -1       550 8.20350E+01 6.60425E+00 0.00000E+00
 -1       551 8.50350E+01 6.60425E+00 0.00000E+00
 -1       552 8.80350E+01 6.60425E+00 0.00000E+00
 -1       553 9.10350E+01 6.60425E+00 0.00000E+00
 -1       554 9.40350E+01 6.60425E+00 0.00000E+00
 -1       555 9.70350E+01 6.60425E+00 0.00000E+00
 -1       556 1.00035E+02 6.60425E+00 0.00000E+00
 -1       557 1.03035E+02 6.60425E+00 0.00000E+00
 -1       558 1.06035E+02 6.60425E+00 0.00000E+00
 -1       559 1.09035E+02 6.60425E+00 0.00000E+00
 -1       560 1.12035E+02 6.60425E+00 0.00000E+00
 -1       561 1.15035E+02 6.60425E+00 0.00000E+00
 -1       562 1.18035E+02 6.60425E+00 0.00000E+00
 -1       563 1.21035E+02 6.60425E+00 0.00000E+00
 -1       564 1.24035E+02 6.60425E+00 0.00000E+00
 -1       565 1.27035E+02 6.60425E+00 0.00000E+00
 -1       566 1.30035E+02 6.60425E+00 0.00000E+00
 -1       567 1.33035E+02 6.60425E+00 0.00000E+00
 -1       568 1.36035E+02 6.60425E+00 0.00000E+00
 -1       569 1.39035E+02 6.60425E+00 0.00000E+00
 -1       570 1.42035E+02 6.60425E+00 0.00000E+00
 -1       571 1.42206E+02 1.61750E+01 0.00000E+00
 -1       572 1.42206E+02 1.91250E+01 0.00000E+00
 -1       573 1.42206E+02 1.03250E+01 0.00000E+00
 -1       574 1.42206E+02 1.32500E+01 0.00000E+00
 -1       575 1.42206E+02 2.20750E+01 0.00000E+00
 -1       576 1.42206E+02 2.50250E+01 0.00000E+00
 -1       577 1.42206E+02 2.79750E+01 0.00000E+00
 -1       578 1.42206E+02 3.08750E+01 0.00000E+00
 -1       579 1.42206E+02 3.38250E+01 0.00000E+00
 -1       580 1.42206E+02 3.67750E+01 0.00000E+00
 -1       581 1.42206E+02 3.97250E+01 0.00000E+00
 -1       582 4.39136E+01 2.55261E+01 0.00000E+00
 -1       583 4.25168E+01 2.09995E+01 0.00000E+00
 -1       584 1.60350E+01 6.60425E+00 0.00000E+00
 -1       585 4.41216E+01 2.85569E+01 0.00000E+00
 -1       586 4.36657E+01 2.34199E+01 0.00000E+00
 -1       587 4.26543E+01 3.29498E+01 0.00000E+00
 -1       588 7.92300E+00 4.16780E+01 0.00000E+00
 -1       589 3.14629E+01 3.79124E+01 0.00000E+00
 -1       590 2.21904E+01 2.45871E+01 0.00000E+00
 -1       591 7.79400E+00 2.79000E+01 0.00000E+00
 -1       592 2.72256E+01 1.64952E+01 0.00000E+00
 -1       593 3.22658E+01 1.57108E+01 0.00000E+00
 -1       594 2.25835E+01 3.13638E+01 0.00000E+00
 -1       595 3.02099E+01 1.56334E+01 0.00000E+00
 -1       596 2.51012E+01 1.85305E+01 0.00000E+00
 -1       597 2.37274E+01 1.98611E+01 0.00000E+00
 -1       598 2.24763E+01 2.22824E+01 0.00000E+00
 -1       599 2.14402E+01 2.67506E+01 0.00000E+00
 -1       600 2.18512E+01 2.89577E+01 0.00000E+00
 -1       601 2.38082E+01 3.33770E+01 0.00000E+00
 -1       602 2.50921E+01 3.47956E+01 0.00000E+00
 -1       603 2.94745E+01 3.74911E+01 0.00000E+00
 -1       604 4.06182E+01 3.47429E+01 0.00000E+00
 -1       605 3.66454E+01 3.75715E+01 0.00000E+00
 -1       606 3.91331E+01 3.66510E+01 0.00000E+00
 -1       607 4.36530E+01 3.02832E+01 0.00000E+00
 -1       608 3.70217E+01 1.65379E+01 0.00000E+00
 -1       609 7.61550E+00 6.21462E+00 0.00000E+00
 -1       610 2.81403E+01 1.46743E+01 0.00000E+00
 -1       611 7.79400E+00 3.67375E+01 0.00000E+00
 -1       612 3.86593E+01 1.63152E+01 0.00000E+00
 -1       613 3.28902E+01 3.90316E+01 0.00000E+00
 -1       614 4.09727E+01 1.77346E+01 0.00000E+00
 -1       615 2.56478E+01 3.63603E+01 0.00000E+00
 -1       616 4.52581E+01 2.70901E+01 0.00000E+00
 -1       617 2.78566E+01 3.78386E+01 0.00000E+00
 -1       618 3.36679E+01 1.48179E+01 0.00000E+00
 -1       619 1.41678E+02 4.22645E+01 0.00000E+00
 -1       620 1.03920E+01 2.05500E+01 0.00000E+00
 -1       621 1.03920E+01 2.35000E+01 0.00000E+00
 -1       622 1.03920E+01 1.46750E+01 0.00000E+00
 -1       623 1.03920E+01 1.17250E+01 0.00000E+00
 -1       624 1.15350E+01 9.20225E+00 0.00000E+00
 -1       625 4.60276E+01 3.00012E+01 0.00000E+00
 -1       626 4.12292E+01 3.67504E+01 0.00000E+00
 -1       627 1.51500E+01 3.96080E+01 0.00000E+00
 -1       628 1.81500E+01 3.96080E+01 0.00000E+00
 -1       629 2.11500E+01 3.96080E+01 0.00000E+00
 -1       630 2.41500E+01 3.96080E+01 0.00000E+00
 -1       631 3.91500E+01 3.96080E+01 0.00000E+00
 -1       632 4.21500E+01 3.96080E+01 0.00000E+00
 -1       633 4.51500E+01 3.96080E+01 0.00000E+00
 -1       634 4.81500E+01 3.96080E+01 0.00000E+00
 -1       635 5.11500E+01 3.96080E+01 0.00000E+00
 -1       636 5.41500E+01 3.96080E+01 0.00000E+00
 -1       637 5.71500E+01 3.96080E+01 0.00000E+00
 -1       638 6.01500E+01 3.96080E+01 0.00000E+00
 -1       639 6.31500E+01 3.96080E+01 0.00000E+00
 -1       640 6.61500E+01 3.96080E+01 0.00000E+00
 -1       641 6.91500E+01 3.96080E+01 0.00000E+00
 -1       642 7.21500E+01 3.96080E+01 0.00000E+00
 -1       643 7.51500E+01 3.96080E+01 0.00000E+00
 -1       644 7.81500E+01 3.96080E+01 0.00000E+00
 -1       645 8.11500E+01 3.96080E+01 0.00000E+00
 -1       646 8.41500E+01 3.96080E+01 0.00000E+00
 -1       647 8.71500E+01 3.96080E+01 0.00000E+00
 -1       648 9.01500E+01 3.96080E+01 0.00000E+00
 -1       649 9.31500E+01 3.96080E+01 0.00000E+00
 -1       650 9.61500E+01 3.96080E+01 0.00000E+00
 -1       651 9.91500E+01 3.96080E+01 0.00000E+00
 -1       652 1.02150E+02 3.96080E+01 0.00000E+00
 -1       653 1.05150E+02 3.96080E+01 0.00000E+00
 -1       654 1.08150E+02 3.96080E+01 0.00000E+00
 -1       655 1.11150E+02 3.96080E+01 0.00000E+00
 -1       656 1.14150E+02 3.96080E+01 0.00000E+00
 -1       657 1.17150E+02 3.96080E+01 0.00000E+00
 -1       658 1.20150E+02 3.96080E+01 0.00000E+00
 -1       659 1.23150E+02 3.96080E+01 0.00000E+00
 -1       660 1.26150E+02 3.96080E+01 0.00000E+00
 -1       661 1.29150E+02 3.96080E+01 0.00000E+00
 -1       662 1.32150E+02 3.96080E+01 0.00000E+00
 -1       663 1.35150E+02 3.96080E+01 0.00000E+00
 -1       664 1.38150E+02 3.96080E+01 0.00000E+00
 -1       665 2.35350E+01 9.20225E+00 0.00000E+00
 -1       666 1.39206E+02 1.03250E+01 0.00000E+00
 -1       667 2.05350E+01 9.20225E+00 0.00000E+00
 -1       668 2.95350E+01 9.20225E+00 0.00000E+00
 -1       669 3.25350E+01 9.20225E+00 0.00000E+00
 -1       670 3.55350E+01 9.20225E+00 0.00000E+00
 -1       671 3.85350E+01 9.20225E+00 0.00000E+00
 -1       672 4.15350E+01 9.20225E+00 0.00000E+00
 -1       673 4.45350E+01 9.20225E+00 0.00000E+00
 -1       674 4.75350E+01 9.20225E+00 0.00000E+00
 -1       675 5.05350E+01 9.20225E+00 0.00000E+00
 -1       676 5.35350E+01 9.20225E+00 0.00000E+00
 -1       677 5.65350E+01 9.20225E+00 0.00000E+00
 -1       678 5.95350E+01 9.20225E+00 0.00000E+00
 -1       679 6.25350E+01 9.20225E+00 0.00000E+00
 -1       680 6.55350E+01 9.20225E+00 0.00000E+00
 -1       681 6.85350E+01 9.20225E+00 0.00000E+00
 -1       682 7.15350E+01 9.20225E+00 0.00000E+00
 -1       683 7.45350E+01 9.20225E+00 0.00000E+00
 -1       684 7.75350E+01 9.20225E+00 0.00000E+00
 -1       685 8.05350E+01 9.20225E+00 0.00000E+00
 -1       686 8.35350E+01 9.20225E+00 0.00000E+00
 -1       687 8.65350E+01 9.20225E+00 0.00000E+00
 -1       688 8.95350E+01 9.20225E+00 0.00000E+00
 -1       689 9.25350E+01 9.20225E+00 0.00000E+00
 -1       690 9.55350E+01 9.20225E+00 0.00000E+00
 -1       691 9.85350E+01 9.20225E+00 0.00000E+00
 -1       692 1.01535E+02 9.20225E+00 0.00000E+00
 -1       693 1.04535E+02 9.20225E+00 0.00000E+00
 -1       694 1.07535E+02 9.20225E+00 0.00000E+00
 -1       695 1.10535E+02 9.20225E+00 0.00000E+00
 -1       696 1.13535E+02 9.20225E+00 0.00000E+00
 -1       697 1.16535E+02 9.20225E+00 0.00000E+00
 -1       698 1.19535E+02 9.20225E+00 0.00000E+00
 -1       699 1.22535E+02 9.20225E+00 0.00000E+00
 -1       700 1.25535E+02 9.20225E+00 0.00000E+00
 -1       701 1.28535E+02 9.20225E+00 0.00000E+00
 -1       702 1.31535E+02 9.20225E+00 0.00000E+00
 -1       703 1.34535E+02 9.20225E+00 0.00000E+00
 -1       704 1.36870E+02 9.76363E+00 0.00000E+00
 -1       705 1.39608E+02 2.35500E+01 0.00000E+00
 -1       706 1.40178E+02 3.96665E+01 0.00000E+00
 -1       707 1.39608E+02 1.76500E+01 0.00000E+00
 -1       708 1.39608E+02 2.65000E+01 0.00000E+00
 -1       709 1.39608E+02 2.06000E+01 0.00000E+00
 -1       710 4.37864E+01 1.87343E+01 0.00000E+00
 -1       711 1.39608E+02 2.94000E+01 0.00000E+00
 -1       712 1.39608E+02 3.23500E+01 0.00000E+00
 -1       713 1.39608E+02 3.53000E+01 0.00000E+00
 -1       714 1.75350E+01 9.20225E+00 0.00000E+00
 -1       715 2.05765E+01 3.06602E+01 0.00000E+00
 -1       716 4.54930E+01 2.42725E+01 0.00000E+00
 -1       717 4.49353E+01 2.11547E+01 0.00000E+00
 -1       718 9.78035E+00 3.93914E+01 0.00000E+00
 -1       719 1.98782E+01 2.49971E+01 0.00000E+00
 -1       720 2.12804E+01 2.01306E+01 0.00000E+00
 -1       721 2.65350E+01 9.20225E+00 0.00000E+00
 -1       722 1.24652E+01 3.94997E+01 0.00000E+00
 -1       723 3.84844E+01 3.87198E+01 0.00000E+00
 -1       724 1.45350E+01 9.20225E+00 0.00000E+00
 -1       725 4.50290E+01 3.26677E+01 0.00000E+00
 -1       726 1.03920E+01 1.76125E+01 0.00000E+00
 -1       727 3.13213E+01 1.34559E+01 0.00000E+00
 -1       728 2.14443E+01 3.34359E+01 0.00000E+00
 -1       729 1.03920E+01 3.23250E+01 0.00000E+00
 -1       730 3.01479E+01 3.92157E+01 0.00000E+00
 -1       731 2.31044E+01 1.78435E+01 0.00000E+00
 -1       732 2.01642E+01 2.26924E+01 0.00000E+00
 -1       733 1.96301E+01 2.82294E+01 0.00000E+00
 -1       734 2.31786E+01 3.52372E+01 0.00000E+00
 -1       735 3.60328E+01 1.47647E+01 0.00000E+00
 -1       736 3.54841E+01 3.95047E+01 0.00000E+00
 -1       737 4.27698E+01 3.51335E+01 0.00000E+00
 -1       738 2.52288E+01 1.58083E+01 0.00000E+00
 -1       739 1.03920E+01 3.52625E+01 0.00000E+00
 -1       740 1.03920E+01 2.64500E+01 0.00000E+00
 -1       741 3.76705E+01 1.45420E+01 0.00000E+00
 -1       742 2.61436E+01 1.39873E+01 0.00000E+00
 -1       743 4.05839E+01 1.59699E+01 0.00000E+00
 -1       744 1.39608E+02 1.47250E+01 0.00000E+00
 -1       745 4.51444E+01 3.48514E+01 0.00000E+00
 -1       746 2.37342E+01 3.68019E+01 0.00000E+00
 -1       747 1.03920E+01 2.93875E+01 0.00000E+00
 -1       748 2.92517E+01 1.24968E+01 0.00000E+00
 -1       749 1.38879E+02 3.74540E+01 0.00000E+00
 -1       750 1.29900E+01 1.32000E+01 0.00000E+00
 -1       751 4.71345E+01 3.19360E+01 0.00000E+00
 -1       752 2.26324E+01 1.52244E+01 0.00000E+00
 -1       753 1.96500E+01 3.70100E+01 0.00000E+00
 -1       754 4.36500E+01 3.70550E+01 0.00000E+00
 -1       755 4.96500E+01 3.70100E+01 0.00000E+00
 -1       756 5.26500E+01 3.70100E+01 0.00000E+00
 -1       757 5.56500E+01 3.70100E+01 0.00000E+00
 -1       758 5.86500E+01 3.70100E+01 0.00000E+00
 -1       759 6.16500E+01 3.70100E+01 0.00000E+00
 -1       760 6.46500E+01 3.70100E+01 0.00000E+00
 -1       761 6.76500E+01 3.70100E+01 0.00000E+00
 -1       762 7.06500E+01 3.70100E+01 0.00000E+00
 -1       763 7.36500E+01 3.70100E+01 0.00000E+00
 -1       764 7.66500E+01 3.70100E+01 0.00000E+00
 -1       765 7.96500E+01 3.70100E+01 0.00000E+00
 -1       766 8.26500E+01 3.70100E+01 0.00000E+00
 -1       767 8.56500E+01 3.70100E+01 0.00000E+00
 -1       768 8.86500E+01 3.70100E+01 0.00000E+00
 -1       769 9.16500E+01 3.70100E+01 0.00000E+00
 -1       770 9.46500E+01 3.70100E+01 0.00000E+00
 -1       771 9.76500E+01 3.70100E+01 0.00000E+00
 -1       772 1.00650E+02 3.70100E+01 0.00000E+00
 -1       773 1.03650E+02 3.70100E+01 0.00000E+00
 -1       774 1.06650E+02 3.70100E+01 0.00000E+00
 -1       775 1.09650E+02 3.70100E+01 0.00000E+00
 -1       776 1.12650E+02 3.70100E+01 0.00000E+00
 -1       777 1.15650E+02 3.70100E+01 0.00000E+00
 -1       778 1.18650E+02 3.70100E+01 0.00000E+00
 -1       779 1.21650E+02 3.70100E+01 0.00000E+00
 -1       780 1.24650E+02 3.70100E+01 0.00000E+00
 -1       781 1.27650E+02 3.70100E+01 0.00000E+00
 -1       782 1.30650E+02 3.70100E+01 0.00000E+00
 -1       783 1.33650E+02 3.70100E+01 0.00000E+00
 -1       784 1.36264E+02 3.72320E+01 0.00000E+00
 -1       785 2.20350E+01 1.18003E+01 0.00000E+00
 -1       786 1.79865E+01 2.35923E+01 0.00000E+00
 -1       787 3.40350E+01 1.18003E+01 0.00000E+00
 -1       788 4.00350E+01 1.18003E+01 0.00000E+00
 -1       789 4.30350E+01 1.18003E+01 0.00000E+00
 -1       790 4.60350E+01 1.18003E+01 0.00000E+00
 -1       791 4.90350E+01 1.18003E+01 0.00000E+00
 -1       792 5.20350E+01 1.18003E+01 0.00000E+00
 -1       793 5.50350E+01 1.18003E+01 0.00000E+00
 -1       794 5.80350E+01 1.18003E+01 0.00000E+00
 -1       795 6.10350E+01 1.18003E+01 0.00000E+00
 -1       796 6.40350E+01 1.18003E+01 0.00000E+00
 -1       797 6.70350E+01 1.18003E+01 0.00000E+00
 -1       798 7.00350E+01 1.18003E+01 0.00000E+00
 -1       799 7.30350E+01 1.18003E+01 0.00000E+00
 -1       800 7.60350E+01 1.18003E+01 0.00000E+00
 -1       801 7.90350E+01 1.18003E+01 0.00000E+00
 -1       802 8.20350E+01 1.18003E+01 0.00000E+00
 -1       803 8.50350E+01 1.18003E+01 0.00000E+00
 -1       804 8.80350E+01 1.18003E+01 0.00000E+00
 -1       805 9.10350E+01 1.18003E+01 0.00000E+00
 -1       806 9.40350E+01 1.18003E+01 0.00000E+00
 -1       807 9.70350E+01 1.18003E+01 0.00000E+00
 -1       808 1.00035E+02 1.18003E+01 0.00000E+00
 -1       809 1.03035E+02 1.18003E+01 0.00000E+00
 -1       810 1.06035E+02 1.18003E+01 0.00000E+00
 -1       811 1.09035E+02 1.18003E+01 0.00000E+00
 -1       812 1.12035E+02 1.18003E+01 0.00000E+00
 -1       813 1.15035E+02 1.18003E+01 0.00000E+00
 -1       814 1.18035E+02 1.18003E+01 0.00000E+00
 -1       815 1.21035E+02 1.18003E+01 0.00000E+00
 -1       816 1.24035E+02 1.18003E+01 0.00000E+00
 -1       817 1.27035E+02 1.18003E+01 0.00000E+00
 -1       818 1.30035E+02 1.18003E+01 0.00000E+00
 -1       819 1.33035E+02 1.18003E+01 0.00000E+00
 -1       820 1.29900E+01 2.20250E+01 0.00000E+00
 -1       821 1.37010E+02 2.50250E+01 0.00000E+00
 -1       822 1.37010E+02 3.38250E+01 0.00000E+00
 -1       823 1.37010E+02 2.79250E+01 0.00000E+00
 -1       824 1.90350E+01 1.18003E+01 0.00000E+00
 -1       825 1.86891E+01 2.05256E+01 0.00000E+00
 -1       826 4.63644E+01 1.89935E+01 0.00000E+00
 -1       827 1.37010E+02 3.08750E+01 0.00000E+00
 -1       828 1.88936E+01 3.27098E+01 0.00000E+00
 -1       829 3.70350E+01 1.18003E+01 0.00000E+00
 -1       830 4.31220E+01 1.61446E+01 0.00000E+00
 -1       831 1.79471E+01 3.02790E+01 0.00000E+00
 -1       832 1.66500E+01 3.70100E+01 0.00000E+00
 -1       833 4.76250E+01 2.80216E+01 0.00000E+00
 -1       834 1.75428E+01 2.64435E+01 0.00000E+00
 -1       835 4.78599E+01 2.52040E+01 0.00000E+00
 -1       836 2.04585E+01 1.76042E+01 0.00000E+00
 -1       837 1.37625E+01 1.12011E+01 0.00000E+00
 -1       838 4.73022E+01 2.20862E+01 0.00000E+00
 -1       839 1.29900E+01 2.49750E+01 0.00000E+00
 -1       840 4.72499E+01 3.41197E+01 0.00000E+00
 -1       841 1.29900E+01 1.90875E+01 0.00000E+00
 -1       842 3.95950E+01 1.41967E+01 0.00000E+00
 -1       843 1.39652E+01 3.69017E+01 0.00000E+00
 -1       844 1.37010E+02 1.61875E+01 0.00000E+00
 -1       845 4.66500E+01 3.70100E+01 0.00000E+00
 -1       846 1.37010E+02 1.91375E+01 0.00000E+00
 -1       847 1.35370E+02 1.23616E+01 0.00000E+00
 -1       848 1.29900E+01 1.61375E+01 0.00000E+00
 -1       849 1.37010E+02 2.20812E+01 0.00000E+00
 -1       850 4.57000E+01 1.64038E+01 0.00000E+00
 -1       851 1.58599E+01 2.84931E+01 0.00000E+00
 -1       852 1.63988E+01 1.15007E+01 0.00000E+00
 -1       853 4.87318E+01 2.99564E+01 0.00000E+00
 -1       854 1.36940E+02 1.29756E+01 0.00000E+00
 -1       855 1.29900E+01 3.08563E+01 0.00000E+00
 -1       856 1.36637E+02 3.55285E+01 0.00000E+00
 -1       857 1.29900E+01 3.37938E+01 0.00000E+00
 -1       858 1.96605E+01 1.46925E+01 0.00000E+00
 -1       859 1.75334E+01 1.78291E+01 0.00000E+00
 -1       860 5.41500E+01 3.44120E+01 0.00000E+00
 -1       861 5.71500E+01 3.44120E+01 0.00000E+00
 -1       862 6.01500E+01 3.44120E+01 0.00000E+00
 -1       863 6.31500E+01 3.44120E+01 0.00000E+00
 -1       864 6.61500E+01 3.44120E+01 0.00000E+00
 -1       865 6.91500E+01 3.44120E+01 0.00000E+00
 -1       866 7.21500E+01 3.44120E+01 0.00000E+00
 -1       867 7.51500E+01 3.44120E+01 0.00000E+00
 -1       868 7.81500E+01 3.44120E+01 0.00000E+00
 -1       869 8.11500E+01 3.44120E+01 0.00000E+00
 -1       870 8.41500E+01 3.44120E+01 0.00000E+00
 -1       871 8.71500E+01 3.44120E+01 0.00000E+00
 -1       872 9.01500E+01 3.44120E+01 0.00000E+00
 -1       873 9.31500E+01 3.44120E+01 0.00000E+00
 -1       874 9.61500E+01 3.44120E+01 0.00000E+00
 -1       875 9.91500E+01 3.44120E+01 0.00000E+00
 -1       876 1.02150E+02 3.44120E+01 0.00000E+00
 -1       877 1.05150E+02 3.44120E+01 0.00000E+00
 -1       878 1.08150E+02 3.44120E+01 0.00000E+00
 -1       879 1.11150E+02 3.44120E+01 0.00000E+00
 -1       880 1.14150E+02 3.44120E+01 0.00000E+00
 -1       881 1.17150E+02 3.44120E+01 0.00000E+00
 -1       882 1.20150E+02 3.44120E+01 0.00000E+00
 -1       883 1.23150E+02 3.44120E+01 0.00000E+00
 -1       884 1.26150E+02 3.44120E+01 0.00000E+00
 -1       885 1.29150E+02 3.44120E+01 0.00000E+00
 -1       886 1.32150E+02 3.44120E+01 0.00000E+00
 -1       887 5.05350E+01 1.43982E+01 0.00000E+00
 -1       888 5.35350E+01 1.43982E+01 0.00000E+00
 -1       889 5.65350E+01 1.43982E+01 0.00000E+00
 -1       890 5.95350E+01 1.43982E+01 0.00000E+00
 -1       891 6.25350E+01 1.43982E+01 0.00000E+00
 -1       892 6.55350E+01 1.43982E+01 0.00000E+00
 -1       893 6.85350E+01 1.43982E+01 0.00000E+00
 -1       894 7.15350E+01 1.43982E+01 0.00000E+00
 -1       895 7.45350E+01 1.43982E+01 0.00000E+00
 -1       896 7.75350E+01 1.43982E+01 0.00000E+00
 -1       897 8.05350E+01 1.43982E+01 0.00000E+00
 -1       898 8.35350E+01 1.43982E+01 0.00000E+00
 -1       899 8.65350E+01 1.43982E+01 0.00000E+00
 -1       900 8.95350E+01 1.43982E+01 0.00000E+00
 -1       901 9.25350E+01 1.43982E+01 0.00000E+00
 -1       902 9.55350E+01 1.43982E+01 0.00000E+00
 -1       903 9.85350E+01 1.43982E+01 0.00000E+00
 -1       904 1.01535E+02 1.43982E+01 0.00000E+00
 -1       905 1.04535E+02 1.43982E+01 0.00000E+00
 -1       906 1.07535E+02 1.43982E+01 0.00000E+00
 -1       907 1.10535E+02 1.43982E+01 0.00000E+00
 -1       908 1.13535E+02 1.43982E+01 0.00000E+00
 -1       909 1.16535E+02 1.43982E+01 0.00000E+00
 -1       910 1.19535E+02 1.43982E+01 0.00000E+00
 -1       911 1.22535E+02 1.43982E+01 0.00000E+00
 -1       912 1.25535E+02 1.43982E+01 0.00000E+00
 -1       913 1.28535E+02 1.43982E+01 0.00000E+00
 -1       914 1.31535E+02 1.43982E+01 0.00000E+00
 -1       915 1.34412E+02 2.64750E+01 0.00000E+00
 -1       916 4.97642E+01 2.32546E+01 0.00000E+00
 -1       917 1.54077E+01 2.46511E+01 0.00000E+00
 -1       918 1.65098E+01 3.22383E+01 0.00000E+00
 -1       919 4.58675E+01 1.41020E+01 0.00000E+00
 -1       920 1.29900E+01 2.79188E+01 0.00000E+00
 -1       921 5.01196E+01 2.68110E+01 0.00000E+00
 -1       922 1.58054E+01 2.14788E+01 0.00000E+00
 -1       923 5.11500E+01 3.44120E+01 0.00000E+00
 -1       924 4.82013E+01 1.42501E+01 0.00000E+00
 -1       925 4.92764E+01 1.97991E+01 0.00000E+00
 -1       926 4.92396E+01 3.29195E+01 0.00000E+00
 -1       927 1.34394E+02 3.49702E+01 0.00000E+00
 -1       928 1.33870E+02 1.49596E+01 0.00000E+00
 -1       929 4.86120E+01 1.72094E+01 0.00000E+00
 -1       930 1.55880E+01 1.46687E+01 0.00000E+00
 -1       931 1.34412E+02 2.35313E+01 0.00000E+00
 -1       932 1.34412E+02 2.94250E+01 0.00000E+00
 -1       933 1.69661E+01 1.46649E+01 0.00000E+00
 -1       934 1.34412E+02 1.76625E+01 0.00000E+00
 -1       935 1.54685E+01 3.36581E+01 0.00000E+00
 -1       936 1.34580E+02 3.26435E+01 0.00000E+00
 -1       937 5.56500E+01 3.18140E+01 0.00000E+00
 -1       938 5.86500E+01 3.18140E+01 0.00000E+00
 -1       939 6.16500E+01 3.18140E+01 0.00000E+00
 -1       940 6.46500E+01 3.18140E+01 0.00000E+00
 -1       941 6.76500E+01 3.18140E+01 0.00000E+00
 -1       942 7.06500E+01 3.18140E+01 0.00000E+00
 -1       943 7.36500E+01 3.18140E+01 0.00000E+00
 -1       944 7.66500E+01 3.18140E+01 0.00000E+00
 -1       945 7.96500E+01 3.18140E+01 0.00000E+00
 -1       946 8.26500E+01 3.18140E+01 0.00000E+00
 -1       947 8.56500E+01 3.18140E+01 0.00000E+00
 -1       948 8.86500E+01 3.18140E+01 0.00000E+00
 -1       949 9.16500E+01 3.18140E+01 0.00000E+00
 -1       950 9.46500E+01 3.18140E+01 0.00000E+00
 -1       951 9.76500E+01 3.18140E+01 0.00000E+00
 -1       952 1.00650E+02 3.18140E+01 0.00000E+00
 -1       953 1.03650E+02 3.18140E+01 0.00000E+00
 -1       954 1.06650E+02 3.18140E+01 0.00000E+00
 -1       955 1.09650E+02 3.18140E+01 0.00000E+00
 -1       956 1.12650E+02 3.18140E+01 0.00000E+00
 -1       957 1.15650E+02 3.18140E+01 0.00000E+00
 -1       958 1.18650E+02 3.18140E+01 0.00000E+00
 -1       959 1.21650E+02 3.18140E+01 0.00000E+00
 -1       960 1.24650E+02 3.18140E+01 0.00000E+00
 -1       961 1.27650E+02 3.18140E+01 0.00000E+00
 -1       962 1.30650E+02 3.18140E+01 0.00000E+00
 -1       963 5.20350E+01 1.69963E+01 0.00000E+00
 -1       964 6.10350E+01 1.69963E+01 0.00000E+00
 -1       965 6.40350E+01 1.69963E+01 0.00000E+00
 -1       966 6.70350E+01 1.69963E+01 0.00000E+00
 -1       967 7.00350E+01 1.69963E+01 0.00000E+00
 -1       968 7.30350E+01 1.69963E+01 0.00000E+00
 -1       969 7.60350E+01 1.69963E+01 0.00000E+00
 -1       970 7.90350E+01 1.69963E+01 0.00000E+00
 -1       971 8.20350E+01 1.69963E+01 0.00000E+00
 -1       972 8.50350E+01 1.69963E+01 0.00000E+00
 -1       973 8.80350E+01 1.69963E+01 0.00000E+00
 -1       974 9.10350E+01 1.69963E+01 0.00000E+00
 -1       975 9.40350E+01 1.69963E+01 0.00000E+00
 -1       976 9.70350E+01 1.69963E+01 0.00000E+00
 -1       977 1.00035E+02 1.69963E+01 0.00000E+00
 -1       978 1.03035E+02 1.69963E+01 0.00000E+00
 -1       979 1.06035E+02 1.69963E+01 0.00000E+00
 -1       980 1.09035E+02 1.69963E+01 0.00000E+00
 -1       981 1.12035E+02 1.69963E+01 0.00000E+00
 -1       982 1.15035E+02 1.69963E+01 0.00000E+00
 -1       983 1.18035E+02 1.69963E+01 0.00000E+00
 -1       984 1.21035E+02 1.69963E+01 0.00000E+00
 -1       985 1.24035E+02 1.69963E+01 0.00000E+00
 -1       986 1.27035E+02 1.69963E+01 0.00000E+00
 -1       987 1.30035E+02 1.69963E+01 0.00000E+00
 -1       988 1.32223E+02 1.73294E+01 0.00000E+00
 -1       989 5.21488E+01 2.48122E+01 0.00000E+00
 -1       990 5.16633E+01 3.17860E+01 0.00000E+00
 -1       991 5.14548E+01 2.92790E+01 0.00000E+00
 -1       992 1.34412E+02 2.05969E+01 0.00000E+00
 -1       993 5.20928E+01 2.11637E+01 0.00000E+00
 -1       994 5.80350E+01 1.69963E+01 0.00000E+00
 -1       995 5.50350E+01 1.69963E+01 0.00000E+00
 -1       996 1.32223E+02 2.02638E+01 0.00000E+00
 -1       997 1.31814E+02 2.50031E+01 0.00000E+00
 -1       998 1.31814E+02 2.79531E+01 0.00000E+00
 -1       999 5.34840E+01 2.72802E+01 0.00000E+00
 -1      1000 6.85350E+01 1.95942E+01 0.00000E+00
 -1      1001 5.71500E+01 2.92160E+01 0.00000E+00
 -1      1002 6.01500E+01 2.92160E+01 0.00000E+00
 -1      1003 6.31500E+01 2.92160E+01 0.00000E+00
 -1      1004 6.61500E+01 2.92160E+01 0.00000E+00
 -1      1005 6.91500E+01 2.92160E+01 0.00000E+00
 -1      1006 7.21500E+01 2.92160E+01 0.00000E+00
 -1      1007 7.51500E+01 2.92160E+01 0.00000E+00
 -1      1008 7.81500E+01 2.92160E+01 0.00000E+00
 -1      1009 8.11500E+01 2.92160E+01 0.00000E+00
 -1      1010 8.41500E+01 2.92160E+01 0.00000E+00
 -1      1011 8.71500E+01 2.92160E+01 0.00000E+00
 -1      1012 9.01500E+01 2.92160E+01 0.00000E+00
 -1      1013 9.31500E+01 2.92160E+01 0.00000E+00
 -1      1014 9.61500E+01 2.92160E+01 0.00000E+00
 -1      1015 9.91500E+01 2.92160E+01 0.00000E+00
 -1      1016 1.02150E+02 2.92160E+01 0.00000E+00
 -1      1017 1.05150E+02 2.92160E+01 0.00000E+00
 -1      1018 1.08150E+02 2.92160E+01 0.00000E+00
 -1      1019 1.11150E+02 2.92160E+01 0.00000E+00
 -1      1020 1.14150E+02 2.92160E+01 0.00000E+00
 -1      1021 1.17150E+02 2.92160E+01 0.00000E+00
 -1      1022 1.20150E+02 2.92160E+01 0.00000E+00
 -1      1023 1.23150E+02 2.92160E+01 0.00000E+00
 -1      1024 1.26150E+02 2.92160E+01 0.00000E+00
 -1      1025 1.29150E+02 2.92160E+01 0.00000E+00
 -1      1026 6.25350E+01 1.95942E+01 0.00000E+00
 -1      1027 7.15350E+01 1.95942E+01 0.00000E+00
 -1      1028 7.45350E+01 1.95942E+01 0.00000E+00
 -1      1029 7.75350E+01 1.95942E+01 0.00000E+00
 -1      1030 8.05350E+01 1.95942E+01 0.00000E+00
 -1      1031 8.35350E+01 1.95942E+01 0.00000E+00
 -1      1032 8.65350E+01 1.95942E+01 0.00000E+00
 -1      1033 8.95350E+01 1.95942E+01 0.00000E+00
 -1      1034 9.25350E+01 1.95942E+01 0.00000E+00
 -1      1035 9.55350E+01 1.95942E+01 0.00000E+00
 -1      1036 9.85350E+01 1.95942E+01 0.00000E+00
 -1      1037 1.01535E+02 1.95942E+01 0.00000E+00
 -1      1038 1.04535E+02 1.95942E+01 0.00000E+00
 -1      1039 1.07535E+02 1.95942E+01 0.00000E+00
 -1      1040 1.10535E+02 1.95942E+01 0.00000E+00
 -1      1041 1.13535E+02 1.95942E+01 0.00000E+00
 -1      1042 1.16535E+02 1.95942E+01 0.00000E+00
 -1      1043 1.19535E+02 1.95942E+01 0.00000E+00
 -1      1044 1.22535E+02 1.95942E+01 0.00000E+00
 -1      1045 1.25535E+02 1.95942E+01 0.00000E+00
 -1      1046 1.28535E+02 1.95942E+01 0.00000E+00
 -1      1047 5.43024E+01 2.92475E+01 0.00000E+00
 -1      1048 1.32019E+02 2.26334E+01 0.00000E+00
 -1      1049 6.55350E+01 1.95942E+01 0.00000E+00
 -1      1050 5.95350E+01 1.95942E+01 0.00000E+00
 -1      1051 1.30379E+02 1.99290E+01 0.00000E+00
 -1      1052 5.65350E+01 1.95942E+01 0.00000E+00
 -1      1053 5.46735E+01 2.29488E+01 0.00000E+00
 -1      1054 5.60087E+01 2.54168E+01 0.00000E+00
 -1      1055 1.29150E+02 2.62660E+01 0.00000E+00
 -1      1056 1.29355E+02 2.38963E+01 0.00000E+00
 -1      1057 7.30350E+01 2.21922E+01 0.00000E+00
 -1      1058 5.78759E+01 2.25322E+01 0.00000E+00
 -1      1059 6.16500E+01 2.66180E+01 0.00000E+00
 -1      1060 6.46500E+01 2.66180E+01 0.00000E+00
 -1      1061 6.76500E+01 2.66180E+01 0.00000E+00
 -1      1062 7.06500E+01 2.66180E+01 0.00000E+00
 -1      1063 7.36500E+01 2.66180E+01 0.00000E+00
 -1      1064 7.66500E+01 2.66180E+01 0.00000E+00
 -1      1065 7.96500E+01 2.66180E+01 0.00000E+00
 -1      1066 8.26500E+01 2.66180E+01 0.00000E+00
 -1      1067 8.56500E+01 2.66180E+01 0.00000E+00
 -1      1068 8.86500E+01 2.66180E+01 0.00000E+00
 -1      1069 9.16500E+01 2.66180E+01 0.00000E+00
 -1      1070 9.46500E+01 2.66180E+01 0.00000E+00
 -1      1071 9.76500E+01 2.66180E+01 0.00000E+00
 -1      1072 1.00650E+02 2.66180E+01 0.00000E+00
 -1      1073 1.03650E+02 2.66180E+01 0.00000E+00
 -1      1074 1.06650E+02 2.66180E+01 0.00000E+00
 -1      1075 1.09650E+02 2.66180E+01 0.00000E+00
 -1      1076 1.12650E+02 2.66180E+01 0.00000E+00
 -1      1077 1.15650E+02 2.66180E+01 0.00000E+00
 -1      1078 1.18650E+02 2.66180E+01 0.00000E+00
 -1      1079 1.21650E+02 2.66180E+01 0.00000E+00
 -1      1080 1.24650E+02 2.66180E+01 0.00000E+00
 -1      1081 1.26900E+02 2.64420E+01 0.00000E+00
 -1      1082 7.60350E+01 2.21922E+01 0.00000E+00
 -1      1083 7.00350E+01 2.21922E+01 0.00000E+00
 -1      1084 7.90350E+01 2.21922E+01 0.00000E+00
 -1      1085 8.20350E+01 2.21922E+01 0.00000E+00
 -1      1086 8.50350E+01 2.21922E+01 0.00000E+00
 -1      1087 8.80350E+01 2.21922E+01 0.00000E+00
 -1      1088 9.10350E+01 2.21922E+01 0.00000E+00
 -1      1089 9.40350E+01 2.21922E+01 0.00000E+00
 -1      1090 9.70350E+01 2.21922E+01 0.00000E+00
 -1      1091 1.00035E+02 2.21922E+01 0.00000E+00
 -1      1092 1.03035E+02 2.21922E+01 0.00000E+00
 -1      1093 1.06035E+02 2.21922E+01 0.00000E+00
 -1      1094 1.09035E+02 2.21922E+01 0.00000E+00
 -1      1095 1.12035E+02 2.21922E+01 0.00000E+00
 -1      1096 1.15035E+02 2.21922E+01 0.00000E+00
 -1      1097 1.18035E+02 2.21922E+01 0.00000E+00
 -1      1098 1.21035E+02 2.21922E+01 0.00000E+00
 -1      1099 1.24035E+02 2.21922E+01 0.00000E+00
 -1      1100 1.27035E+02 2.21922E+01 0.00000E+00
 -1      1101 6.08759E+01 2.25322E+01 0.00000E+00
 -1      1102 1.29867E+02 2.19127E+01 0.00000E+00
 -1      1103 5.65793E+01 2.73164E+01 0.00000E+00
 -1      1104 5.91147E+01 2.69672E+01 0.00000E+00
 -1      1105 6.38759E+01 2.25322E+01 0.00000E+00
 -1      1106 6.69554E+01 2.23622E+01 0.00000E+00
 -1      1107 0.00000E+00 4.85250E+01 0.00000E+00
 -1      1108 0.00000E+00 4.55750E+01 0.00000E+00
 -1      1109 0.00000E+00 4.26250E+01 0.00000E+00
 -1      1110 0.00000E+00 3.96750E+01 0.00000E+00
 -1      1111 0.00000E+00 3.67250E+01 0.00000E+00
 -1      1112 0.00000E+00 3.38000E+01 0.00000E+00
 -1      1113 0.00000E+00 3.08750E+01 0.00000E+00
 -1      1114 0.00000E+00 2.79250E+01 0.00000E+00
 -1      1115 0.00000E+00 2.49750E+01 0.00000E+00
 -1      1116 0.00000E+00 2.20250E+01 0.00000E+00
 -1      1117 0.00000E+00 1.90750E+01 0.00000E+00
 -1      1118 0.00000E+00 1.61500E+01 0.00000E+00
 -1      1119 0.00000E+00 1.32250E+01 0.00000E+00
 -1      1120 0.00000E+00 1.02750E+01 0.00000E+00
 -1      1121 0.00000E+00 7.32500E+00 0.00000E+00
 -1      1122 0.00000E+00 4.37500E+00 0.00000E+00
 -1      1123 0.00000E+00 1.45000E+00 0.00000E+00
 -1      1124 1.57500E+00 5.00000E+01 0.00000E+00
 -1      1125 4.65000E+00 5.00000E+01 0.00000E+00
 -1      1126 7.65000E+00 5.00000E+01 0.00000E+00
 -1      1127 1.06500E+01 5.00000E+01 0.00000E+00
 -1      1128 1.36500E+01 5.00000E+01 0.00000E+00
 -1      1129 1.66500E+01 5.00000E+01 0.00000E+00
 -1      1130 1.96500E+01 5.00000E+01 0.00000E+00
 -1      1131 2.26500E+01 5.00000E+01 0.00000E+00
 -1      1132 2.56500E+01 5.00000E+01 0.00000E+00
 -1      1133 2.86500E+01 5.00000E+01 0.00000E+00
 -1      1134 3.16500E+01 5.00000E+01 0.00000E+00
 -1      1135 3.46500E+01 5.00000E+01 0.00000E+00
 -1      1136 3.76500E+01 5.00000E+01 0.00000E+00
 -1      1137 4.06500E+01 5.00000E+01 0.00000E+00
 -1      1138 4.36500E+01 5.00000E+01 0.00000E+00
 -1      1139 4.66500E+01 5.00000E+01 0.00000E+00
 -1      1140 4.96500E+01 5.00000E+01 0.00000E+00
 -1      1141 5.26500E+01 5.00000E+01 0.00000E+00
 -1      1142 5.56500E+01 5.00000E+01 0.00000E+00
 -1      1143 5.86500E+01 5.00000E+01 0.00000E+00
 -1      1144 6.16500E+01 5.00000E+01 0.00000E+00
 -1      1145 6.46500E+01 5.00000E+01 0.00000E+00
 -1      1146 6.76500E+01 5.00000E+01 0.00000E+00
 -1      1147 7.06500E+01 5.00000E+01 0.00000E+00
 -1      1148 7.36500E+01 5.00000E+01 0.00000E+00
 -1      1149 7.66500E+01 5.00000E+01 0.00000E+00
 -1      1150 7.96500E+01 5.00000E+01 0.00000E+00
 -1      1151 8.26500E+01 5.00000E+01 0.00000E+00
 -1      1152 8.56500E+01 5.00000E+01 0.00000E+00
 -1      1153 8.86500E+01 5.00000E+01 0.00000E+00
 -1      1154 9.16500E+01 5.00000E+01 0.00000E+00
 -1      1155 9.46500E+01 5.00000E+01 0.00000E+00
 -1      1156 9.76500E+01 5.00000E+01 0.00000E+00
 -1      1157 1.00650E+02 5.00000E+01 0.00000E+00
 -1      1158 1.03650E+02 5.00000E+01 0.00000E+00
 -1      1159 1.06650E+02 5.00000E+01 0.00000E+00
 -1      1160 1.09650E+02 5.00000E+01 0.00000E+00
 -1      1161 1.12650E+02 5.00000E+01 0.00000E+00
 -1      1162 1.15650E+02 5.00000E+01 0.00000E+00
 -1      1163 1.18650E+02 5.00000E+01 0.00000E+00
 -1      1164 1.21650E+02 5.00000E+01 0.00000E+00
 -1      1165 1.24650E+02 5.00000E+01 0.00000E+00
 -1      1166 1.27650E+02 5.00000E+01 0.00000E+00
 -1      1167 1.30650E+02 5.00000E+01 0.00000E+00
 -1      1168 1.33650E+02 5.00000E+01 0.00000E+00
 -1      1169 1.36650E+02 5.00000E+01 0.00000E+00
 -1      1170 1.39650E+02 5.00000E+01 0.00000E+00
 -1      1171 1.42650E+02 5.00000E+01 0.00000E+00
 -1      1172 1.45650E+02 5.00000E+01 0.00000E+00
 -1      1173 1.48575E+02 5.00000E+01 0.00000E+00
 -1      1174 1.57500E+00 0.00000E+00 0.00000E+00
 -1      1175 4.65000E+00 0.00000E+00 0.00000E+00
 -1      1176 7.65000E+00 0.00000E+00 0.00000E+00
 -1      1177 1.06500E+01 0.00000E+00 0.00000E+00
 -1      1178 1.36500E+01 0.00000E+00 0.00000E+00
 -1      1179 1.66500E+01 0.00000E+00 0.00000E+00
 -1      1180 1.96500E+01 0.00000E+00 0.00000E+00
 -1      1181 2.26500E+01 0.00000E+00 0.00000E+00
 -1      1182 2.56500E+01 0.00000E+00 0.00000E+00
 -1      1183 2.86500E+01 0.00000E+00 0.00000E+00
 -1      1184 3.16500E+01 0.00000E+00 0.00000E+00
 -1      1185 3.46500E+01 0.00000E+00 0.00000E+00
 -1      1186 3.76500E+01 0.00000E+00 0.00000E+00
 -1      1187 4.06500E+01 0.00000E+00 0.00000E+00
 -1      1188 4.36500E+01 0.00000E+00 0.00000E+00
 -1      1189 4.66500E+01 0.00000E+00 0.00000E+00
 -1      1190 4.96500E+01 0.00000E+00 0.00000E+00
 -1      1191 5.26500E+01 0.00000E+00 0.00000E+00
 -1      1192 5.56500E+01 0.00000E+00 0.00000E+00
 -1      1193 5.86500E+01 0.00000E+00 0.00000E+00
 -1      1194 6.16500E+01 0.00000E+00 0.00000E+00
 -1      1195 6.46500E+01 0.00000E+00 0.00000E+00
 -1      1196 6.76500E+01 0.00000E+00 0.00000E+00
 -1      1197 7.06500E+01 0.00000E+00 0.00000E+00
 -1      1198 7.36500E+01 0.00000E+00 0.00000E+00
 -1      1199 7.66500E+01 0.00000E+00 0.00000E+00
 -1      1200 7.96500E+01 0.00000E+00 0.00000E+00
 -1      1201 8.26500E+01 0.00000E+00 0.00000E+00
 -1      1202 8.56500E+01 0.00000E+00 0.00000E+00
 -1      1203 8.86500E+01 0.00000E+00 0.00000E+00
 -1      1204 9.16500E+01 0.00000E+00 0.00000E+00
 -1      1205 9.46500E+01 0.00000E+00 0.00000E+00
 -1      1206 9.76500E+01 0.00000E+00 0.00000E+00
 -1      1207 1.00650E+02 0.00000E+00 0.00000E+00
 -1      1208 1.03650E+02 0.00000E+00 0.00000E+00
 -1      1209 1.06650E+02 0.00000E+00 0.00000E+00
 -1      1210 1.09650E+02 0.00000E+00 0.00000E+00
 -1      1211 1.12650E+02 0.00000E+00 0.00000E+00
 -1      1212 1.15650E+02 0.00000E+00 0.00000E+00
 -1      1213 1.18650E+02 0.00000E+00 0.00000E+00
 -1      1214 1.21650E+02 0.00000E+00 0.00000E+00
 -1      1215 1.24650E+02 0.00000E+00 0.00000E+00
 -1      1216 1.27650E+02 0.00000E+00 0.00000E+00
 -1      1217 1.30650E+02 0.00000E+00 0.00000E+00
 -1      1218 1.33650E+02 0.00000E+00 0.00000E+00
 -1      1219 1.36650E+02 0.00000E+00 0.00000E+00
 -1      1220 1.39650E+02 0.00000E+00 0.00000E+00
 -1      1221 1.42650E+02 0.00000E+00 0.00000E+00
 -1      1222 1.45650E+02 0.00000E+00 0.00000E+00
 -1      1223 1.48575E+02 0.00000E+00 0.00000E+00
 -1      1224 1.50000E+02 1.47500E+00 0.00000E+00
 -1      1225 1.50000E+02 4.42500E+00 0.00000E+00
 -1      1226 1.50000E+02 7.37500E+00 0.00000E+00
 -1      1227 1.50000E+02 1.03250E+01 0.00000E+00
 -1      1228 1.50000E+02 1.32750E+01 0.00000E+00
 -1      1229 1.50000E+02 1.62000E+01 0.00000E+00
 -1      1230 1.50000E+02 1.91250E+01 0.00000E+00
 -1      1231 1.50000E+02 2.20750E+01 0.00000E+00
 -1      1232 1.50000E+02 2.50250E+01 0.00000E+00
 -1      1233 1.50000E+02 2.79750E+01 0.00000E+00
 -1      1234 1.50000E+02 3.09250E+01 0.00000E+00
 -1      1235 1.50000E+02 3.38500E+01 0.00000E+00
 -1      1236 1.50000E+02 3.67750E+01 0.00000E+00
 -1      1237 1.50000E+02 3.97250E+01 0.00000E+00
 -1      1238 1.50000E+02 4.26750E+01 0.00000E+00
 -1      1239 1.50000E+02 4.56250E+01 0.00000E+00
 -1      1240 1.50000E+02 4.85500E+01 0.00000E+00
 -1      1241 3.97779E+01 2.61410E+01 0.00000E+00
 -1      1242 3.94589E+01 2.46796E+01 0.00000E+00
 -1      1243 3.88415E+01 2.33277E+01 0.00000E+00
 -1      1244 3.79750E+01 2.21607E+01 0.00000E+00
 -1      1245 3.68430E+01 2.11674E+01 0.00000E+00
 -1      1246 3.54910E+01 2.04251E+01 0.00000E+00
 -1      1247 3.40010E+01 1.99954E+01 0.00000E+00
 -1      1248 3.24821E+01 1.99030E+01 0.00000E+00
 -1      1249 3.10295E+01 2.01274E+01 0.00000E+00
 -1      1250 2.95682E+01 2.06953E+01 0.00000E+00
 -1      1251 2.82689E+01 2.15752E+01 0.00000E+00
 -1      1252 2.72453E+01 2.26596E+01 0.00000E+00
 -1      1253 2.64612E+01 2.39652E+01 0.00000E+00
 -1      1254 2.59821E+01 2.53910E+01 0.00000E+00
 -1      1255 2.58192E+01 2.68086E+01 0.00000E+00
 -1      1256 2.59581E+01 2.82850E+01 0.00000E+00
 -1      1257 2.64110E+01 2.97131E+01 0.00000E+00
 -1      1258 2.71138E+01 3.09513E+01 0.00000E+00
 -1      1259 2.80422E+01 3.20121E+01 0.00000E+00
 -1      1260 2.92529E+01 3.29186E+01 0.00000E+00
 -1      1261 3.06432E+01 3.35483E+01 0.00000E+00
 -1      1262 3.20692E+01 3.38546E+01 0.00000E+00
 -1      1263 3.36092E+01 3.38501E+01 0.00000E+00
 -1      1264 3.51520E+01 3.34945E+01 0.00000E+00
 -1      1265 3.65649E+01 3.28080E+01 0.00000E+00
 -1      1266 3.78089E+01 3.18038E+01 0.00000E+00
 -1      1267 3.87900E+01 3.05476E+01 0.00000E+00
 -1      1268 3.94404E+01 2.91648E+01 0.00000E+00
 -1      1269 3.97746E+01 2.76787E+01 0.00000E+00
 -1      1270 1.57500E+00 4.85250E+01 0.00000E+00
 -1      1271 1.29900E+00 4.48375E+01 0.00000E+00
 -1      1272 1.29900E+00 4.63125E+01 0.00000E+00
 -1      1273 1.29900E+00 4.18875E+01 0.00000E+00
 -1      1274 1.29900E+00 4.33625E+01 0.00000E+00
 -1      1275 2.59800E+00 4.41000E+01 0.00000E+00
 -1      1276 1.29900E+00 3.89375E+01 0.00000E+00
 -1      1277 1.29900E+00 4.04125E+01 0.00000E+00
 -1      1278 2.59800E+00 4.11500E+01 0.00000E+00
 -1      1279 1.29900E+00 3.59875E+01 0.00000E+00
 -1      1280 1.29900E+00 3.74625E+01 0.00000E+00
 -1      1281 2.59800E+00 3.82000E+01 0.00000E+00
 -1      1282 1.29900E+00 3.30875E+01 0.00000E+00
 -1      1283 1.29900E+00 3.45375E+01 0.00000E+00
 -1      1284 2.59800E+00 3.52750E+01 0.00000E+00
 -1      1285 1.29900E+00 3.01375E+01 0.00000E+00
 -1      1286 1.29900E+00 3.16125E+01 0.00000E+00
 -1      1287 2.59800E+00 3.23500E+01 0.00000E+00
 -1      1288 1.29900E+00 2.71875E+01 0.00000E+00
 -1      1289 1.29900E+00 2.86625E+01 0.00000E+00
 -1      1290 2.59800E+00 2.94000E+01 0.00000E+00
 -1      1291 1.29900E+00 2.42375E+01 0.00000E+00
 -1      1292 1.29900E+00 2.57125E+01 0.00000E+00
 -1      1293 2.59800E+00 2.64500E+01 0.00000E+00
 -1      1294 1.29900E+00 2.12875E+01 0.00000E+00
 -1      1295 1.29900E+00 2.27625E+01 0.00000E+00
 -1      1296 2.59800E+00 2.35000E+01 0.00000E+00
 -1      1297 1.29900E+00 1.83375E+01 0.00000E+00
 -1      1298 1.29900E+00 1.98125E+01 0.00000E+00
 -1      1299 2.59800E+00 2.05500E+01 0.00000E+00
 -1      1300 1.29900E+00 1.54375E+01 0.00000E+00
 -1      1301 1.29900E+00 1.68875E+01 0.00000E+00
 -1      1302 2.59800E+00 1.76250E+01 0.00000E+00
 -1      1303 1.29900E+00 1.24875E+01 0.00000E+00
 -1      1304 1.29900E+00 1.39625E+01 0.00000E+00
 -1      1305 2.59800E+00 1.47000E+01 0.00000E+00
 -1      1306 1.29900E+00 9.53750E+00 0.00000E+00
 -1      1307 1.29900E+00 1.10125E+01 0.00000E+00
 -1      1308 2.59800E+00 1.17500E+01 0.00000E+00
 -1      1309 1.29900E+00 6.58750E+00 0.00000E+00
 -1      1310 1.29900E+00 8.06250E+00 0.00000E+00
 -1      1311 2.59800E+00 8.80000E+00 0.00000E+00
 -1      1312 1.29900E+00 3.63750E+00 0.00000E+00
 -1      1313 1.29900E+00 5.11250E+00 0.00000E+00
 -1      1314 2.59800E+00 5.85000E+00 0.00000E+00
 -1      1315 1.43700E+00 1.09375E+00 0.00000E+00
 -1      1316 1.43700E+00 2.54375E+00 0.00000E+00
 -1      1317 2.73600E+00 3.28125E+00 0.00000E+00
 -1      1318 3.01200E+00 1.09375E+00 0.00000E+00
 -1      1319 3.90000E+00 4.87010E+01 0.00000E+00
 -1      1320 5.40000E+00 4.87010E+01 0.00000E+00
 -1      1321 6.90000E+00 4.87010E+01 0.00000E+00
 -1      1322 8.40000E+00 4.87010E+01 0.00000E+00
 -1      1323 6.15000E+00 4.74020E+01 0.00000E+00
 -1      1324 9.90000E+00 4.87010E+01 0.00000E+00
 -1      1325 1.14000E+01 4.87010E+01 0.00000E+00
 -1      1326 9.15000E+00 4.74020E+01 0.00000E+00
 -1      1327 1.29000E+01 4.87010E+01 0.00000E+00
 -1      1328 1.44000E+01 4.87010E+01 0.00000E+00
 -1      1329 1.21500E+01 4.74020E+01 0.00000E+00
 -1      1330 1.59000E+01 4.87010E+01 0.00000E+00
 -1      1331 1.74000E+01 4.87010E+01 0.00000E+00
 -1      1332 1.51500E+01 4.74020E+01 0.00000E+00
 -1      1333 1.89000E+01 4.87010E+01 0.00000E+00
 -1      1334 2.04000E+01 4.87010E+01 0.00000E+00
 -1      1335 1.81500E+01 4.74020E+01 0.00000E+00
 -1      1336 2.19000E+01 4.87010E+01 0.00000E+00
 -1      1337 2.34000E+01 4.87010E+01 0.00000E+00
 -1      1338 2.11500E+01 4.74020E+01 0.00000E+00
 -1      1339 2.49000E+01 4.87010E+01 0.00000E+00
 -1      1340 2.64000E+01 4.87010E+01 0.00000E+00
 -1      1341 2.41500E+01 4.74020E+01 0.00000E+00
 -1      1342 2.79000E+01 4.87010E+01 0.00000E+00
 -1      1343 2.94000E+01 4.87010E+01 0.00000E+00
 -1      1344 2.71500E+01 4.74020E+01 0.00000E+00
 -1      1345 3.09000E+01 4.87010E+01 0.00000E+00
 -1      1346 3.24000E+01 4.87010E+01 0.00000E+00
 -1      1347 3.01500E+01 4.74020E+01 0.00000E+00
 -1      1348 3.39000E+01 4.87010E+01 0.00000E+00
 -1      1349 3.54000E+01 4.87010E+01 0.00000E+00
 -1      1350 3.31500E+01 4.74020E+01 0.00000E+00
 -1      1351 3.69000E+01 4.87010E+01 0.00000E+00
 -1      1352 3.84000E+01 4.87010E+01 0.00000E+00
 -1      1353 3.61500E+01 4.74020E+01 0.00000E+00
 -1      1354 3.99000E+01 4.87010E+01 0.00000E+00
 -1      1355 4.14000E+01 4.87010E+01 0.00000E+00
 -1      1356 3.91500E+01 4.74020E+01 0.00000E+00
 -1      1357 4.29000E+01 4.87010E+01 0.00000E+00
 -1      1358 4.44000E+01 4.87010E+01 0.00000E+00
 -1      1359 4.21500E+01 4.74020E+01 0.00000E+00
 -1      1360 4.59000E+01 4.87010E+01 0.00000E+00
 -1      1361 4.74000E+01 4.87010E+01 0.00000E+00
 -1      1362 4.51500E+01 4.74020E+01 0.00000E+00
 -1      1363 4.89000E+01 4.87010E+01 0.00000E+00
 -1      1364 5.04000E+01 4.87010E+01 0.00000E+00
 -1      1365 4.81500E+01 4.74020E+01 0.00000E+00
 -1      1366 5.19000E+01 4.87010E+01 0.00000E+00
 -1      1367 5.34000E+01 4.87010E+01 0.00000E+00
 -1      1368 5.11500E+01 4.74020E+01 0.00000E+00
 -1      1369 5.49000E+01 4.87010E+01 0.00000E+00
 -1      1370 5.64000E+01 4.87010E+01 0.00000E+00
 -1      1371 5.41500E+01 4.74020E+01 0.00000E+00
 -1      1372 5.79000E+01 4.87010E+01 0.00000E+00
 -1      1373 5.94000E+01 4.87010E+01 0.00000E+00
 -1      1374 5.71500E+01 4.74020E+01 0.00000E+00
 -1      1375 6.09000E+01 4.87010E+01 0.00000E+00
 -1      1376 6.24000E+01 4.87010E+01 0.00000E+00
 -1      1377 6.01500E+01 4.74020E+01 0.00000E+00
 -1      1378 6.39000E+01 4.87010E+01 0.00000E+00
 -1      1379 6.54000E+01 4.87010E+01 0.00000E+00
 -1      1380 6.31500E+01 4.74020E+01 0.00000E+00
 -1      1381 6.69000E+01 4.87010E+01 0.00000E+00
 -1      1382 6.84000E+01 4.87010E+01 0.00000E+00
 -1      1383 6.61500E+01 4.74020E+01 0.00000E+00
 -1      1384 6.99000E+01 4.87010E+01 0.00000E+00
 -1      1385 7.14000E+01 4.87010E+01 0.00000E+00
 -1      1386 6.91500E+01 4.74020E+01 0.00000E+00
 -1      1387 7.29000E+01 4.87010E+01 0.00000E+00
 -1      1388 7.44000E+01 4.87010E+01 0.00000E+00
 -1      1389 7.21500E+01 4.74020E+01 0.00000E+00
 -1      1390 7.59000E+01 4.87010E+01 0.00000E+00
 -1      1391 7.74000E+01 4.87010E+01 0.00000E+00
 -1      1392 7.51500E+01 4.74020E+01 0.00000E+00
 -1      1393 7.89000E+01 4.87010E+01 0.00000E+00
 -1      1394 8.04000E+01 4.87010E+01 0.00000E+00
 -1      1395 7.81500E+01 4.74020E+01 0.00000E+00
 -1      1396 8.19000E+01 4.87010E+01 0.00000E+00
 -1      1397 8.34000E+01 4.87010E+01 0.00000E+00
 -1      1398 8.11500E+01 4.74020E+01 0.00000E+00
 -1      1399 8.49000E+01 4.87010E+01 0.00000E+00
 -1      1400 8.64000E+01 4.87010E+01 0.00000E+00
 -1      1401 8.41500E+01 4.74020E+01 0.00000E+00
 -1      1402 8.79000E+01 4.87010E+01 0.00000E+00
 -1      1403 8.94000E+01 4.87010E+01 0.00000E+00
 -1      1404 8.71500E+01 4.74020E+01 0.00000E+00
 -1      1405 9.09000E+01 4.87010E+01 0.00000E+00
 -1      1406 9.24000E+01 4.87010E+01 0.00000E+00
 -1      1407 9.01500E+01 4.74020E+01 0.00000E+00
 -1      1408 9.39000E+01 4.87010E+01 0.00000E+00
 -1      1409 9.54000E+01 4.87010E+01 0.00000E+00
 -1      1410 9.31500E+01 4.74020E+01 0.00000E+00
 -1      1411 9.69000E+01 4.87010E+01 0.00000E+00
 -1      1412 9.84000E+01 4.87010E+01 0.00000E+00
 -1      1413 9.61500E+01 4.74020E+01 0.00000E+00
 -1      1414 9.99000E+01 4.87010E+01 0.00000E+00
 -1      1415 1.01400E+02 4.87010E+01 0.00000E+00
 -1      1416 9.91500E+01 4.74020E+01 0.00000E+00
 -1      1417 1.02900E+02 4.87010E+01 0.00000E+00
 -1      1418 1.04400E+02 4.87010E+01 0.00000E+00
 -1      1419 1.02150E+02 4.74020E+01 0.00000E+00
 -1      1420 1.05900E+02 4.87010E+01 0.00000E+00
 -1      1421 1.07400E+02 4.87010E+01 0.00000E+00
 -1      1422 1.05150E+02 4.74020E+01 0.00000E+00
 -1      1423 1.08900E+02 4.87010E+01 0.00000E+00
 -1      1424 1.10400E+02 4.87010E+01 0.00000E+00
 -1      1425 1.08150E+02 4.74020E+01 0.00000E+00
 -1      1426 1.11900E+02 4.87010E+01 0.00000E+00
 -1      1427 1.13400E+02 4.87010E+01 0.00000E+00
 -1      1428 1.11150E+02 4.74020E+01 0.00000E+00
 -1      1429 1.14900E+02 4.87010E+01 0.00000E+00
 -1      1430 1.16400E+02 4.87010E+01 0.00000E+00
 -1      1431 1.14150E+02 4.74020E+01 0.00000E+00
 -1      1432 1.17900E+02 4.87010E+01 0.00000E+00
 -1      1433 1.19400E+02 4.87010E+01 0.00000E+00
 -1      1434 1.17150E+02 4.74020E+01 0.00000E+00
 -1      1435 1.20900E+02 4.87010E+01 0.00000E+00
 -1      1436 1.22400E+02 4.87010E+01 0.00000E+00
 -1      1437 1.20150E+02 4.74020E+01 0.00000E+00
 -1      1438 1.23900E+02 4.87010E+01 0.00000E+00
 -1      1439 1.25400E+02 4.87010E+01 0.00000E+00
 -1      1440 1.23150E+02 4.74020E+01 0.00000E+00
 -1      1441 1.26900E+02 4.87010E+01 0.00000E+00
 -1      1442 1.28400E+02 4.87010E+01 0.00000E+00
 -1      1443 1.26150E+02 4.74020E+01 0.00000E+00
 -1      1444 1.29900E+02 4.87010E+01 0.00000E+00
 -1      1445 1.31400E+02 4.87010E+01 0.00000E+00
 -1      1446 1.29150E+02 4.74020E+01 0.00000E+00
 -1      1447 1.32900E+02 4.87010E+01 0.00000E+00
 -1      1448 1.34400E+02 4.87010E+01 0.00000E+00
 -1      1449 1.32150E+02 4.74020E+01 0.00000E+00
 -1      1450 1.35900E+02 4.87010E+01 0.00000E+00
 -1      1451 1.37400E+02 4.87010E+01 0.00000E+00
 -1      1452 1.35150E+02 4.74020E+01 0.00000E+00
 -1      1453 1.38900E+02 4.87010E+01 0.00000E+00
 -1      1454 1.40400E+02 4.87010E+01 0.00000E+00
 -1      1455 1.38150E+02 4.74020E+01 0.00000E+00
 -1      1456 1.41900E+02 4.87010E+01 0.00000E+00
 -1      1457 1.43400E+02 4.87010E+01 0.00000E+00
 -1      1458 1.41150E+02 4.74020E+01 0.00000E+00
 -1      1459 1.44900E+02 4.87010E+01 0.00000E+00
 -1      1460 1.46400E+02 4.87010E+01 0.00000E+00
 -1      1461 1.44150E+02 4.74020E+01 0.00000E+00
 -1      1462 1.48575E+02 4.85500E+01 0.00000E+00
 -1      1463 1.47825E+02 4.72510E+01 0.00000E+00
 -1      1464 6.01200E+00 1.09375E+00 0.00000E+00
 -1      1465 4.51200E+00 1.09375E+00 0.00000E+00
 -1      1466 4.37400E+00 2.18750E+00 0.00000E+00
 -1      1467 9.01200E+00 1.09375E+00 0.00000E+00
 -1      1468 7.51200E+00 1.09375E+00 0.00000E+00
 -1      1469 7.37400E+00 2.18750E+00 0.00000E+00
 -1      1470 1.20120E+01 1.09375E+00 0.00000E+00
 -1      1471 1.05120E+01 1.09375E+00 0.00000E+00
 -1      1472 1.03740E+01 2.18750E+00 0.00000E+00
 -1      1473 1.50120E+01 1.09375E+00 0.00000E+00
 -1      1474 1.35120E+01 1.09375E+00 0.00000E+00
 -1      1475 1.33740E+01 2.18750E+00 0.00000E+00
 -1      1476 1.80120E+01 1.09375E+00 0.00000E+00
 -1      1477 1.65120E+01 1.09375E+00 0.00000E+00
 -1      1478 1.63740E+01 2.18750E+00 0.00000E+00
 -1      1479 2.10120E+01 1.09375E+00 0.00000E+00
 -1      1480 1.95120E+01 1.09375E+00 0.00000E+00
 -1      1481 1.93740E+01 2.18750E+00 0.00000E+00
 -1      1482 2.40120E+01 1.09375E+00 0.00000E+00
 -1      1483 2.25120E+01 1.09375E+00 0.00000E+00
 -1      1484 2.23740E+01 2.18750E+00 0.00000E+00
 -1      1485 2.70120E+01 1.09375E+00 0.00000E+00
 -1      1486 2.55120E+01 1.09375E+00 0.00000E+00
 -1      1487 2.53740E+01 2.18750E+00 0.00000E+00
 -1      1488 3.00120E+01 1.09375E+00 0.00000E+00
 -1      1489 2.85120E+01 1.09375E+00 0.00000E+00
 -1      1490 2.83740E+01 2.18750E+00 0.00000E+00
 -1      1491 3.30120E+01 1.09375E+00 0.00000E+00
 -1      1492 3.15120E+01 1.09375E+00 0.00000E+00
 -1      1493 3.13740E+01 2.18750E+00 0.00000E+00
 -1      1494 3.60120E+01 1.09375E+00 0.00000E+00
 -1      1495 3.45120E+01 1.09375E+00 0.00000E+00
 -1      1496 3.43740E+01 2.18750E+00 0.00000E+00
 -1      1497 3.90120E+01 1.09375E+00 0.00000E+00
 -1      1498 3.75120E+01 1.09375E+00 0.00000E+00
 -1      1499 3.73740E+01 2.18750E+00 0.00000E+00
 -1      1500 4.20120E+01 1.09375E+00 0.00000E+00
 -1      1501 4.05120E+01 1.09375E+00 0.00000E+00
 -1      1502 4.03740E+01 2.18750E+00 0.00000E+00
 -1      1503 4.50120E+01 1.09375E+00 0.00000E+00
 -1      1504 4.35120E+01 1.09375E+00 0.00000E+00
 -1      1505 4.33740E+01 2.18750E+00 0.00000E+00
 -1      1506 4.80120E+01 1.09375E+00 0.00000E+00
 -1      1507 4.65120E+01 1.09375E+00 0.00000E+00
 -1      1508 4.63740E+01 2.18750E+00 0.00000E+00
 -1      1509 5.10120E+01 1.09375E+00 0.00000E+00
 -1      1510 4.95120E+01 1.09375E+00 0.00000E+00
 -1      1511 4.93740E+01 2.18750E+00 0.00000E+00
 -1      1512 5.40120E+01 1.09375E+00 0.00000E+00
 -1      1513 5.25120E+01 1.09375E+00 0.00000E+00
 -1      1514 5.23740E+01 2.18750E+00 0.00000E+00
 -1      1515 5.70120E+01 1.09375E+00 0.00000E+00
 -1      1516 5.55120E+01 1.09375E+00 0.00000E+00
 -1      1517 5.53740E+01 2.18750E+00 0.00000E+00
 -1      1518 6.00120E+01 1.09375E+00 0.00000E+00
 -1      1519 5.85120E+01 1.09375E+00 0.00000E+00
 -1      1520 5.83740E+01 2.18750E+00 0.00000E+00
 -1      1521 6.30120E+01 1.09375E+00 0.00000E+00
 -1      1522 6.15120E+01 1.09375E+00 0.00000E+00
 -1      1523 6.13740E+01 2.18750E+00 0.00000E+00
 -1      1524 6.60120E+01 1.09375E+00 0.00000E+00
 -1      1525 6.45120E+01 1.09375E+00 0.00000E+00
 -1      1526 6.43740E+01 2.18750E+00 0.00000E+00
 -1      1527 6.90120E+01 1.09375E+00 0.00000E+00
 -1      1528 6.75120E+01 1.09375E+00 0.00000E+00
 -1      1529 6.73740E+01 2.18750E+00 0.00000E+00
 -1      1530 7.20120E+01 1.09375E+00 0.00000E+00
 -1      1531 7.05120E+01 1.09375E+00 0.00000E+00
 -1      1532 7.03740E+01 2.18750E+00 0.00000E+00
 -1      1533 7.50120E+01 1.09375E+00 0.00000E+00
 -1      1534 7.35120E+01 1.09375E+00 0.00000E+00
 -1      1535 7.33740E+01 2.18750E+00 0.00000E+00
 -1      1536 7.80120E+01 1.09375E+00 0.00000E+00
 -1      1537 7.65120E+01 1.09375E+00 0.00000E+00
 -1      1538 7.63740E+01 2.18750E+00 0.00000E+00
 -1      1539 8.10120E+01 1.09375E+00 0.00000E+00
 -1      1540 7.95120E+01 1.09375E+00 0.00000E+00
 -1      1541 7.93740E+01 2.18750E+00 0.00000E+00
 -1      1542 8.40120E+01 1.09375E+00 0.00000E+00
 -1      1543 8.25120E+01 1.09375E+00 0.00000E+00
 -1      1544 8.23740E+01 2.18750E+00 0.00000E+00
 -1      1545 8.70120E+01 1.09375E+00 0.00000E+00
 -1      1546 8.55120E+01 1.09375E+00 0.00000E+00
 -1      1547 8.53740E+01 2.18750E+00 0.00000E+00
 -1      1548 9.00120E+01 1.09375E+00 0.00000E+00
 -1      1549 8.85120E+01 1.09375E+00 0.00000E+00
 -1      1550 8.83740E+01 2.18750E+00 0.00000E+00
 -1      1551 9.30120E+01 1.09375E+00 0.00000E+00
 -1      1552 9.15120E+01 1.09375E+00 0.00000E+00
 -1      1553 9.13740E+01 2.18750E+00 0.00000E+00
 -1      1554 9.60120E+01 1.09375E+00 0.00000E+00
 -1      1555 9.45120E+01 1.09375E+00 0.00000E+00
 -1      1556 9.43740E+01 2.18750E+00 0.00000E+00
 -1      1557 9.90120E+01 1.09375E+00 0.00000E+00
 -1      1558 9.75120E+01 1.09375E+00 0.00000E+00
 -1      1559 9.73740E+01 2.18750E+00 0.00000E+00
 -1      1560 1.02012E+02 1.09375E+00 0.00000E+00
 -1      1561 1.00512E+02 1.09375E+00 0.00000E+00
 -1      1562 1.00374E+02 2.18750E+00 0.00000E+00
 -1      1563 1.05012E+02 1.09375E+00 0.00000E+00
 -1      1564 1.03512E+02 1.09375E+00 0.00000E+00
 -1      1565 1.03374E+02 2.18750E+00 0.00000E+00
 -1      1566 1.08012E+02 1.09375E+00 0.00000E+00
 -1      1567 1.06512E+02 1.09375E+00 0.00000E+00
 -1      1568 1.06374E+02 2.18750E+00 0.00000E+00
 -1      1569 1.11012E+02 1.09375E+00 0.00000E+00
 -1      1570 1.09512E+02 1.09375E+00 0.00000E+00
 -1      1571 1.09374E+02 2.18750E+00 0.00000E+00
 -1      1572 1.14012E+02 1.09375E+00 0.00000E+00
 -1      1573 1.12512E+02 1.09375E+00 0.00000E+00
 -1      1574 1.12374E+02 2.18750E+00 0.00000E+00
 -1      1575 1.17012E+02 1.09375E+00 0.00000E+00
 -1      1576 1.15512E+02 1.09375E+00 0.00000E+00
 -1      1577 1.15374E+02 2.18750E+00 0.00000E+00
 -1      1578 1.20012E+02 1.09375E+00 0.00000E+00
 -1      1579 1.18512E+02 1.09375E+00 0.00000E+00
 -1      1580 1.18374E+02 2.18750E+00 0.00000E+00
 -1      1581 1.23012E+02 1.09375E+00 0.00000E+00
 -1      1582 1.21512E+02 1.09375E+00 0.00000E+00
 -1      1583 1.21374E+02 2.18750E+00 0.00000E+00
 -1      1584 1.26012E+02 1.09375E+00 0.00000E+00
 -1      1585 1.24512E+02 1.09375E+00 0.00000E+00
 -1      1586 1.24374E+02 2.18750E+00 0.00000E+00
 -1      1587 1.29012E+02 1.09375E+00 0.00000E+00
 -1      1588 1.27512E+02 1.09375E+00 0.00000E+00
 -1      1589 1.27374E+02 2.18750E+00 0.00000E+00
 -1      1590 1.32012E+02 1.09375E+00 0.00000E+00
 -1      1591 1.30512E+02 1.09375E+00 0.00000E+00
 -1      1592 1.30374E+02 2.18750E+00 0.00000E+00
 -1      1593 1.35012E+02 1.09375E+00 0.00000E+00
 -1      1594 1.33512E+02 1.09375E+00 0.00000E+00
 -1      1595 1.33374E+02 2.18750E+00 0.00000E+00
 -1      1596 1.38012E+02 1.09375E+00 0.00000E+00
 -1      1597 1.36512E+02 1.09375E+00 0.00000E+00
 -1      1598 1.36374E+02 2.18750E+00 0.00000E+00
 -1      1599 1.41012E+02 1.09375E+00 0.00000E+00
 -1      1600 1.39512E+02 1.09375E+00 0.00000E+00
 -1      1601 1.39374E+02 2.18750E+00 0.00000E+00
 -1      1602 1.44012E+02 1.09375E+00 0.00000E+00
 -1      1603 1.42512E+02 1.09375E+00 0.00000E+00
 -1      1604 1.42374E+02 2.18750E+00 0.00000E+00
 -1      1605 1.47012E+02 1.09375E+00 0.00000E+00
 -1      1606 1.45512E+02 1.09375E+00 0.00000E+00
 -1      1607 1.45374E+02 2.18750E+00 0.00000E+00
 -1      1608 1.48575E+02 1.47500E+00 0.00000E+00
 -1      1609 1.48701E+02 5.16250E+00 0.00000E+00
 -1      1610 1.48701E+02 3.68750E+00 0.00000E+00
 -1      1611 1.48701E+02 8.11250E+00 0.00000E+00
 -1      1612 1.48701E+02 6.63750E+00 0.00000E+00
 -1      1613 1.47402E+02 5.90000E+00 0.00000E+00
 -1      1614 1.48701E+02 1.10625E+01 0.00000E+00
 -1      1615 1.48701E+02 9.58750E+00 0.00000E+00
 -1      1616 1.47402E+02 8.85000E+00 0.00000E+00
 -1      1617 1.48701E+02 1.40125E+01 0.00000E+00
 -1      1618 1.48701E+02 1.25375E+01 0.00000E+00
 -1      1619 1.47402E+02 1.18000E+01 0.00000E+00
 -1      1620 1.48701E+02 1.69125E+01 0.00000E+00
 -1      1621 1.48701E+02 1.54625E+01 0.00000E+00
 -1      1622 1.47402E+02 1.47250E+01 0.00000E+00
 -1      1623 1.48701E+02 1.98625E+01 0.00000E+00
 -1      1624 1.48701E+02 1.83875E+01 0.00000E+00
 -1      1625 1.47402E+02 1.76500E+01 0.00000E+00
 -1      1626 1.48701E+02 2.28125E+01 0.00000E+00
 -1      1627 1.48701E+02 2.13375E+01 0.00000E+00
 -1      1628 1.47402E+02 2.06000E+01 0.00000E+00
 -1      1629 1.48701E+02 2.57625E+01 0.00000E+00
 -1      1630 1.48701E+02 2.42875E+01 0.00000E+00
 -1      1631 1.47402E+02 2.35500E+01 0.00000E+00
 -1      1632 1.48701E+02 2.87125E+01 0.00000E+00
 -1      1633 1.48701E+02 2.72375E+01 0.00000E+00
 -1      1634 1.47402E+02 2.65000E+01 0.00000E+00
 -1      1635 1.48701E+02 3.16625E+01 0.00000E+00
 -1      1636 1.48701E+02 3.01875E+01 0.00000E+00
 -1      1637 1.47402E+02 2.94500E+01 0.00000E+00
 -1      1638 1.48701E+02 3.45625E+01 0.00000E+00
 -1      1639 1.48701E+02 3.31125E+01 0.00000E+00
 -1      1640 1.47402E+02 3.23750E+01 0.00000E+00
 -1      1641 1.48701E+02 3.75125E+01 0.00000E+00
 -1      1642 1.48701E+02 3.60375E+01 0.00000E+00
 -1      1643 1.47402E+02 3.53000E+01 0.00000E+00
 -1      1644 1.48701E+02 4.04625E+01 0.00000E+00
 -1      1645 1.48701E+02 3.89875E+01 0.00000E+00
 -1      1646 1.47402E+02 3.82500E+01 0.00000E+00
 -1      1647 1.48701E+02 4.34125E+01 0.00000E+00
 -1      1648 1.48701E+02 4.19375E+01 0.00000E+00
 -1      1649 1.47402E+02 4.12000E+01 0.00000E+00
 -1      1650 1.48263E+02 4.60692E+01 0.00000E+00
 -1      1651 1.48263E+02 4.45942E+01 0.00000E+00
 -1      1652 1.46964E+02 4.38568E+01 0.00000E+00
 -1      1653 1.46088E+02 4.62202E+01 0.00000E+00
 -1      1654 4.03828E+01 2.56963E+01 0.00000E+00
 -1      1655 4.04640E+01 2.64458E+01 0.00000E+00
 -1      1656 3.99188E+01 2.41350E+01 0.00000E+00
 -1      1657 4.01536E+01 2.48388E+01 0.00000E+00
 -1      1658 3.91754E+01 2.26974E+01 0.00000E+00
 -1      1659 3.95546E+01 2.33378E+01 0.00000E+00
 -1      1660 3.81861E+01 2.14856E+01 0.00000E+00
 -1      1661 3.86657E+01 2.20080E+01 0.00000E+00
 -1      1662 3.69358E+01 2.03424E+01 0.00000E+00
 -1      1663 3.75877E+01 2.08005E+01 0.00000E+00
 -1      1664 3.53627E+01 1.97593E+01 0.00000E+00
 -1      1665 3.60518E+01 2.00439E+01 0.00000E+00
 -1      1666 3.37200E+01 1.92519E+01 0.00000E+00
 -1      1667 3.45135E+01 1.93879E+01 0.00000E+00
 -1      1668 3.20968E+01 1.93514E+01 0.00000E+00
 -1      1669 3.28126E+01 1.93170E+01 0.00000E+00
 -1      1670 3.04994E+01 1.95958E+01 0.00000E+00
 -1      1671 3.12276E+01 1.94033E+01 0.00000E+00
 -1      1672 2.88703E+01 2.02412E+01 0.00000E+00
 -1      1673 2.95917E+01 1.98630E+01 0.00000E+00
 -1      1674 2.75874E+01 2.13589E+01 0.00000E+00
 -1      1675 2.81609E+01 2.08684E+01 0.00000E+00
 -1      1676 2.65708E+01 2.26095E+01 0.00000E+00
 -1      1677 2.70164E+01 2.20231E+01 0.00000E+00
 -1      1678 2.57102E+01 2.40522E+01 0.00000E+00
 -1      1679 2.60394E+01 2.33379E+01 0.00000E+00
 -1      1680 2.53081E+01 2.56100E+01 0.00000E+00
 -1      1681 2.54622E+01 2.49093E+01 0.00000E+00
 -1      1682 2.52447E+01 2.71562E+01 0.00000E+00
 -1      1683 2.52534E+01 2.64469E+01 0.00000E+00
 -1      1684 2.54006E+01 2.87925E+01 0.00000E+00
 -1      1685 2.52470E+01 2.80344E+01 0.00000E+00
 -1      1686 2.59981E+01 3.02906E+01 0.00000E+00
 -1      1687 2.57063E+01 2.96272E+01 0.00000E+00
 -1      1688 2.68507E+01 3.15671E+01 0.00000E+00
 -1      1689 2.64457E+01 3.09975E+01 0.00000E+00
 -1      1690 2.78845E+01 3.27019E+01 0.00000E+00
 -1      1691 2.73649E+01 3.22169E+01 0.00000E+00
 -1      1692 2.92270E+01 3.37490E+01 0.00000E+00
 -1      1693 2.85373E+01 3.33407E+01 0.00000E+00
 -1      1694 3.08110E+01 3.42013E+01 0.00000E+00
 -1      1695 3.01221E+01 3.39761E+01 0.00000E+00
 -1      1696 3.23688E+01 3.44999E+01 0.00000E+00
 -1      1697 3.16392E+01 3.44214E+01 0.00000E+00
 -1      1698 3.40871E+01 3.44855E+01 0.00000E+00
 -1      1699 3.32861E+01 3.45765E+01 0.00000E+00
 -1      1700 3.57060E+01 3.38957E+01 0.00000E+00
 -1      1701 3.49733E+01 3.41548E+01 0.00000E+00
 -1      1702 3.72452E+01 3.31404E+01 0.00000E+00
 -1      1703 3.65748E+01 3.35652E+01 0.00000E+00
 -1      1704 3.84902E+01 3.19094E+01 0.00000E+00
 -1      1705 3.79257E+01 3.24833E+01 0.00000E+00
 -1      1706 3.95464E+01 3.05480E+01 0.00000E+00
 -1      1707 3.91348E+01 3.12209E+01 0.00000E+00
 -1      1708 4.00967E+01 2.89990E+01 0.00000E+00
 -1      1709 3.98569E+01 2.96984E+01 0.00000E+00
 -1      1710 4.04188E+01 2.73569E+01 0.00000E+00
 -1      1711 4.03310E+01 2.81358E+01 0.00000E+00
 -1      1712 3.83049E+01 2.06234E+01 0.00000E+00
 -1      1713 3.94130E+01 2.19979E+01 0.00000E+00
 -1      1714 1.48437E+02 2.56875E+00 0.00000E+00
 -1      1715 1.47138E+02 3.30625E+00 0.00000E+00
 -1      1716 4.08802E+01 2.51393E+01 0.00000E+00
 -1      1717 4.02868E+01 2.34846E+01 0.00000E+00
 -1      1718 4.10642E+01 2.69078E+01 0.00000E+00
 -1      1719 3.68226E+01 1.96398E+01 0.00000E+00
 -1      1720 3.50895E+01 1.89699E+01 0.00000E+00
 -1      1721 3.33330E+01 1.86636E+01 0.00000E+00
 -1      1722 3.15564E+01 1.87806E+01 0.00000E+00
 -1      1723 2.97794E+01 1.90997E+01 0.00000E+00
 -1      1724 2.81623E+01 1.99940E+01 0.00000E+00
 -1      1725 2.68819E+01 2.12853E+01 0.00000E+00
 -1      1726 2.57795E+01 2.26779E+01 0.00000E+00
 -1      1727 2.50002E+01 2.42633E+01 0.00000E+00
 -1      1728 2.46976E+01 2.59572E+01 0.00000E+00
 -1      1729 2.46453E+01 2.76723E+01 0.00000E+00
 -1      1730 2.49533E+01 2.93852E+01 0.00000E+00
 -1      1731 2.57066E+01 3.09267E+01 0.00000E+00
 -1      1732 2.66683E+01 3.22834E+01 0.00000E+00
 -1      1733 2.78352E+01 3.35719E+01 0.00000E+00
 -1      1734 2.93831E+01 3.44378E+01 0.00000E+00
 -1      1735 3.11064E+01 3.48849E+01 0.00000E+00
 -1      1736 3.28519E+01 3.51816E+01 0.00000E+00
 -1      1737 3.46555E+01 3.49275E+01 0.00000E+00
 -1      1738 3.64105E+01 3.42662E+01 0.00000E+00
 -1      1739 3.79597E+01 3.32785E+01 0.00000E+00
 -1      1740 3.92846E+01 3.19330E+01 0.00000E+00
 -1      1741 4.02397E+01 3.03949E+01 0.00000E+00
 -1      1742 4.07846E+01 2.86821E+01 0.00000E+00
 -1      1743 2.87400E+00 4.77875E+01 0.00000E+00
 -1      1744 3.89700E+00 4.04125E+01 0.00000E+00
 -1      1745 3.89700E+00 4.18875E+01 0.00000E+00
 -1      1746 3.89700E+00 4.33625E+01 0.00000E+00
 -1      1747 3.89700E+00 4.48375E+01 0.00000E+00
 -1      1748 5.19600E+00 4.26250E+01 0.00000E+00
 -1      1749 3.89700E+00 3.45500E+01 0.00000E+00
 -1      1750 3.89700E+00 3.60000E+01 0.00000E+00
 -1      1751 3.89700E+00 3.16000E+01 0.00000E+00
 -1      1752 3.89700E+00 3.30750E+01 0.00000E+00
 -1      1753 5.19600E+00 3.38000E+01 0.00000E+00
 -1      1754 3.89700E+00 2.86500E+01 0.00000E+00
 -1      1755 3.89700E+00 3.01250E+01 0.00000E+00
 -1      1756 5.19600E+00 3.08500E+01 0.00000E+00
 -1      1757 3.89700E+00 2.57000E+01 0.00000E+00
 -1      1758 3.89700E+00 2.71750E+01 0.00000E+00
 -1      1759 5.19600E+00 2.79000E+01 0.00000E+00
 -1      1760 3.89700E+00 2.27500E+01 0.00000E+00
 -1      1761 3.89700E+00 2.42250E+01 0.00000E+00
 -1      1762 5.19600E+00 2.49500E+01 0.00000E+00
 -1      1763 3.89700E+00 1.98000E+01 0.00000E+00
 -1      1764 3.89700E+00 2.12750E+01 0.00000E+00
 -1      1765 5.19600E+00 2.20000E+01 0.00000E+00
 -1      1766 3.89700E+00 1.69000E+01 0.00000E+00
 -1      1767 3.89700E+00 1.83500E+01 0.00000E+00
 -1      1768 5.19600E+00 1.90750E+01 0.00000E+00
 -1      1769 3.89700E+00 1.39500E+01 0.00000E+00
 -1      1770 3.89700E+00 1.54250E+01 0.00000E+00
 -1      1771 5.19600E+00 1.61500E+01 0.00000E+00
 -1      1772 3.89700E+00 1.10000E+01 0.00000E+00
 -1      1773 3.89700E+00 1.24750E+01 0.00000E+00
 -1      1774 5.19600E+00 1.32000E+01 0.00000E+00
 -1      1775 3.89700E+00 8.05000E+00 0.00000E+00
 -1      1776 3.89700E+00 9.52500E+00 0.00000E+00
 -1      1777 5.19600E+00 1.02500E+01 0.00000E+00
 -1      1778 3.89700E+00 5.10000E+00 0.00000E+00
 -1      1779 3.89700E+00 6.57500E+00 0.00000E+00
 -1      1780 5.19600E+00 7.30000E+00 0.00000E+00
 -1      1781 4.20450E+00 3.09687E+00 0.00000E+00
 -1      1782 4.06650E+00 4.19063E+00 0.00000E+00
 -1      1783 5.36550E+00 4.91563E+00 0.00000E+00
 -1      1784 5.70450E+00 3.09687E+00 0.00000E+00
 -1      1785 3.62400E+00 4.64885E+01 0.00000E+00
 -1      1786 8.70450E+00 3.09687E+00 0.00000E+00
 -1      1787 7.20450E+00 3.09687E+00 0.00000E+00
 -1      1788 7.03500E+00 4.00625E+00 0.00000E+00
 -1      1789 4.92300E+00 4.57510E+01 0.00000E+00
 -1      1790 8.40000E+00 4.61030E+01 0.00000E+00
 -1      1791 9.90000E+00 4.61030E+01 0.00000E+00
 -1      1792 1.14000E+01 4.61030E+01 0.00000E+00
 -1      1793 1.29000E+01 4.61030E+01 0.00000E+00
 -1      1794 1.06500E+01 4.48040E+01 0.00000E+00
 -1      1795 1.44000E+01 4.61030E+01 0.00000E+00
 -1      1796 1.59000E+01 4.61030E+01 0.00000E+00
 -1      1797 1.36500E+01 4.48040E+01 0.00000E+00
 -1      1798 1.74000E+01 4.61030E+01 0.00000E+00
 -1      1799 1.89000E+01 4.61030E+01 0.00000E+00
 -1      1800 1.66500E+01 4.48040E+01 0.00000E+00
 -1      1801 2.04000E+01 4.61030E+01 0.00000E+00
 -1      1802 2.19000E+01 4.61030E+01 0.00000E+00
 -1      1803 1.96500E+01 4.48040E+01 0.00000E+00
 -1      1804 2.34000E+01 4.61030E+01 0.00000E+00
 -1      1805 2.49000E+01 4.61030E+01 0.00000E+00
 -1      1806 2.26500E+01 4.48040E+01 0.00000E+00
 -1      1807 2.64000E+01 4.61030E+01 0.00000E+00
 -1      1808 2.79000E+01 4.61030E+01 0.00000E+00
 -1      1809 2.56500E+01 4.48040E+01 0.00000E+00
 -1      1810 2.94000E+01 4.61030E+01 0.00000E+00
 -1      1811 3.09000E+01 4.61030E+01 0.00000E+00
 -1      1812 2.86500E+01 4.48040E+01 0.00000E+00
 -1      1813 3.24000E+01 4.61030E+01 0.00000E+00
 -1      1814 3.39000E+01 4.61030E+01 0.00000E+00
 -1      1815 3.16500E+01 4.48040E+01 0.00000E+00
 -1      1816 3.54000E+01 4.61030E+01 0.00000E+00
 -1      1817 3.69000E+01 4.61030E+01 0.00000E+00
 -1      1818 3.46500E+01 4.48040E+01 0.00000E+00
 -1      1819 3.84000E+01 4.61030E+01 0.00000E+00
 -1      1820 3.99000E+01 4.61030E+01 0.00000E+00
 -1      1821 3.76500E+01 4.48040E+01 0.00000E+00
 -1      1822 4.14000E+01 4.61030E+01 0.00000E+00
 -1      1823 4.29000E+01 4.61030E+01 0.00000E+00
 -1      1824 4.06500E+01 4.48040E+01 0.00000E+00
 -1      1825 4.44000E+01 4.61030E+01 0.00000E+00
 -1      1826 4.59000E+01 4.61030E+01 0.00000E+00
 -1      1827 4.36500E+01 4.48040E+01 0.00000E+00
 -1      1828 4.74000E+01 4.61030E+01 0.00000E+00
 -1      1829 4.89000E+01 4.61030E+01 0.00000E+00
 -1      1830 4.66500E+01 4.48040E+01 0.00000E+00
 -1      1831 5.04000E+01 4.61030E+01 0.00000E+00
 -1      1832 5.19000E+01 4.61030E+01 0.00000E+00
 -1      1833 4.96500E+01 4.48040E+01 0.00000E+00
 -1      1834 5.34000E+01 4.61030E+01 0.00000E+00
 -1      1835 5.49000E+01 4.61030E+01 0.00000E+00
 -1      1836 5.26500E+01 4.48040E+01 0.00000E+00
 -1      1837 5.64000E+01 4.61030E+01 0.00000E+00
 -1      1838 5.79000E+01 4.61030E+01 0.00000E+00
 -1      1839 5.56500E+01 4.48040E+01 0.00000E+00
 -1      1840 5.94000E+01 4.61030E+01 0.00000E+00
 -1      1841 6.09000E+01 4.61030E+01 0.00000E+00
 -1      1842 5.86500E+01 4.48040E+01 0.00000E+00
 -1      1843 6.24000E+01 4.61030E+01 0.00000E+00
 -1      1844 6.39000E+01 4.61030E+01 0.00000E+00
 -1      1845 6.16500E+01 4.48040E+01 0.00000E+00
 -1      1846 6.54000E+01 4.61030E+01 0.00000E+00
 -1      1847 6.69000E+01 4.61030E+01 0.00000E+00
 -1      1848 6.46500E+01 4.48040E+01 0.00000E+00
 -1      1849 6.84000E+01 4.61030E+01 0.00000E+00
 -1      1850 6.99000E+01 4.61030E+01 0.00000E+00
 -1      1851 6.76500E+01 4.48040E+01 0.00000E+00
 -1      1852 7.14000E+01 4.61030E+01 0.00000E+00
 -1      1853 7.29000E+01 4.61030E+01 0.00000E+00
 -1      1854 7.06500E+01 4.48040E+01 0.00000E+00
 -1      1855 7.44000E+01 4.61030E+01 0.00000E+00
 -1      1856 7.59000E+01 4.61030E+01 0.00000E+00
 -1      1857 7.36500E+01 4.48040E+01 0.00000E+00
 -1      1858 7.74000E+01 4.61030E+01 0.00000E+00
 -1      1859 7.89000E+01 4.61030E+01 0.00000E+00
 -1      1860 7.66500E+01 4.48040E+01 0.00000E+00
 -1      1861 8.04000E+01 4.61030E+01 0.00000E+00
 -1      1862 8.19000E+01 4.61030E+01 0.00000E+00
 -1      1863 7.96500E+01 4.48040E+01 0.00000E+00
 -1      1864 8.34000E+01 4.61030E+01 0.00000E+00
 -1      1865 8.49000E+01 4.61030E+01 0.00000E+00
 -1      1866 8.26500E+01 4.48040E+01 0.00000E+00
 -1      1867 8.64000E+01 4.61030E+01 0.00000E+00
 -1      1868 8.79000E+01 4.61030E+01 0.00000E+00
 -1      1869 8.56500E+01 4.48040E+01 0.00000E+00
 -1      1870 8.94000E+01 4.61030E+01 0.00000E+00
 -1      1871 9.09000E+01 4.61030E+01 0.00000E+00
 -1      1872 8.86500E+01 4.48040E+01 0.00000E+00
 -1      1873 9.24000E+01 4.61030E+01 0.00000E+00
 -1      1874 9.39000E+01 4.61030E+01 0.00000E+00
 -1      1875 9.16500E+01 4.48040E+01 0.00000E+00
 -1      1876 9.54000E+01 4.61030E+01 0.00000E+00
 -1      1877 9.69000E+01 4.61030E+01 0.00000E+00
 -1      1878 9.46500E+01 4.48040E+01 0.00000E+00
 -1      1879 9.84000E+01 4.61030E+01 0.00000E+00
 -1      1880 9.99000E+01 4.61030E+01 0.00000E+00
 -1      1881 9.76500E+01 4.48040E+01 0.00000E+00
 -1      1882 1.01400E+02 4.61030E+01 0.00000E+00
 -1      1883 1.02900E+02 4.61030E+01 0.00000E+00
 -1      1884 1.00650E+02 4.48040E+01 0.00000E+00
 -1      1885 1.04400E+02 4.61030E+01 0.00000E+00
 -1      1886 1.05900E+02 4.61030E+01 0.00000E+00
 -1      1887 1.03650E+02 4.48040E+01 0.00000E+00
 -1      1888 1.07400E+02 4.61030E+01 0.00000E+00
 -1      1889 1.08900E+02 4.61030E+01 0.00000E+00
 -1      1890 1.06650E+02 4.48040E+01 0.00000E+00
 -1      1891 1.10400E+02 4.61030E+01 0.00000E+00
 -1      1892 1.11900E+02 4.61030E+01 0.00000E+00
 -1      1893 1.09650E+02 4.48040E+01 0.00000E+00
 -1      1894 1.13400E+02 4.61030E+01 0.00000E+00
 -1      1895 1.14900E+02 4.61030E+01 0.00000E+00
 -1      1896 1.12650E+02 4.48040E+01 0.00000E+00
 -1      1897 1.16400E+02 4.61030E+01 0.00000E+00
 -1      1898 1.17900E+02 4.61030E+01 0.00000E+00
 -1      1899 1.15650E+02 4.48040E+01 0.00000E+00
 -1      1900 1.19400E+02 4.61030E+01 0.00000E+00
 -1      1901 1.20900E+02 4.61030E+01 0.00000E+00
 -1      1902 1.18650E+02 4.48040E+01 0.00000E+00
 -1      1903 1.22400E+02 4.61030E+01 0.00000E+00
 -1      1904 1.23900E+02 4.61030E+01 0.00000E+00
 -1      1905 1.21650E+02 4.48040E+01 0.00000E+00
 -1      1906 1.25400E+02 4.61030E+01 0.00000E+00
 -1      1907 1.26900E+02 4.61030E+01 0.00000E+00
 -1      1908 1.24650E+02 4.48040E+01 0.00000E+00
 -1      1909 1.28400E+02 4.61030E+01 0.00000E+00
 -1      1910 1.29900E+02 4.61030E+01 0.00000E+00
 -1      1911 1.27650E+02 4.48040E+01 0.00000E+00
 -1      1912 1.31400E+02 4.61030E+01 0.00000E+00
 -1      1913 1.32900E+02 4.61030E+01 0.00000E+00
 -1      1914 1.30650E+02 4.48040E+01 0.00000E+00
 -1      1915 1.34400E+02 4.61030E+01 0.00000E+00
 -1      1916 1.35900E+02 4.61030E+01 0.00000E+00
 -1      1917 1.33650E+02 4.48040E+01 0.00000E+00
 -1      1918 1.37400E+02 4.61030E+01 0.00000E+00
 -1      1919 1.38900E+02 4.61030E+01 0.00000E+00
 -1      1920 1.36650E+02 4.48040E+01 0.00000E+00
 -1      1921 1.40400E+02 4.61030E+01 0.00000E+00
 -1      1922 1.41900E+02 4.61030E+01 0.00000E+00
 -1      1923 1.39650E+02 4.48040E+01 0.00000E+00
 -1      1924 1.43244E+02 4.61616E+01 0.00000E+00
 -1      1925 1.44744E+02 4.61616E+01 0.00000E+00
 -1      1926 1.45182E+02 4.49799E+01 0.00000E+00
 -1      1927 1.42494E+02 4.48626E+01 0.00000E+00
 -1      1928 1.17045E+01 3.09687E+00 0.00000E+00
 -1      1929 1.02045E+01 3.09687E+00 0.00000E+00
 -1      1930 1.00350E+01 4.00625E+00 0.00000E+00
 -1      1931 1.47045E+01 3.09687E+00 0.00000E+00
 -1      1932 1.32045E+01 3.09687E+00 0.00000E+00
 -1      1933 1.30350E+01 4.00625E+00 0.00000E+00
 -1      1934 1.77045E+01 3.09687E+00 0.00000E+00
 -1      1935 1.62045E+01 3.09687E+00 0.00000E+00
 -1      1936 1.60350E+01 4.00625E+00 0.00000E+00
 -1      1937 2.07045E+01 3.09687E+00 0.00000E+00
 -1      1938 1.92045E+01 3.09687E+00 0.00000E+00
 -1      1939 1.90350E+01 4.00625E+00 0.00000E+00
 -1      1940 2.37045E+01 3.09687E+00 0.00000E+00
 -1      1941 2.22045E+01 3.09687E+00 0.00000E+00
 -1      1942 2.20350E+01 4.00625E+00 0.00000E+00
 -1      1943 2.67045E+01 3.09687E+00 0.00000E+00
 -1      1944 2.52045E+01 3.09687E+00 0.00000E+00
 -1      1945 2.50350E+01 4.00625E+00 0.00000E+00
 -1      1946 2.97045E+01 3.09687E+00 0.00000E+00
 -1      1947 2.82045E+01 3.09687E+00 0.00000E+00
 -1      1948 2.80350E+01 4.00625E+00 0.00000E+00
 -1      1949 3.27045E+01 3.09687E+00 0.00000E+00
 -1      1950 3.12045E+01 3.09687E+00 0.00000E+00
 -1      1951 3.10350E+01 4.00625E+00 0.00000E+00
 -1      1952 3.57045E+01 3.09687E+00 0.00000E+00
 -1      1953 3.42045E+01 3.09687E+00 0.00000E+00
 -1      1954 3.40350E+01 4.00625E+00 0.00000E+00
 -1      1955 3.87045E+01 3.09687E+00 0.00000E+00
 -1      1956 3.72045E+01 3.09687E+00 0.00000E+00
 -1      1957 3.70350E+01 4.00625E+00 0.00000E+00
 -1      1958 4.17045E+01 3.09687E+00 0.00000E+00
 -1      1959 4.02045E+01 3.09687E+00 0.00000E+00
 -1      1960 4.00350E+01 4.00625E+00 0.00000E+00
 -1      1961 4.47045E+01 3.09687E+00 0.00000E+00
 -1      1962 4.32045E+01 3.09687E+00 0.00000E+00
 -1      1963 4.30350E+01 4.00625E+00 0.00000E+00
 -1      1964 4.77045E+01 3.09687E+00 0.00000E+00
 -1      1965 4.62045E+01 3.09687E+00 0.00000E+00
 -1      1966 4.60350E+01 4.00625E+00 0.00000E+00
 -1      1967 5.07045E+01 3.09687E+00 0.00000E+00
 -1      1968 4.92045E+01 3.09687E+00 0.00000E+00
 -1      1969 4.90350E+01 4.00625E+00 0.00000E+00
 -1      1970 5.37045E+01 3.09687E+00 0.00000E+00
 -1      1971 5.22045E+01 3.09687E+00 0.00000E+00
 -1      1972 5.20350E+01 4.00625E+00 0.00000E+00
 -1      1973 5.67045E+01 3.09687E+00 0.00000E+00
 -1      1974 5.52045E+01 3.09687E+00 0.00000E+00
 -1      1975 5.50350E+01 4.00625E+00 0.00000E+00
 -1      1976 5.97045E+01 3.09687E+00 0.00000E+00
 -1      1977 5.82045E+01 3.09687E+00 0.00000E+00
 -1      1978 5.80350E+01 4.00625E+00 0.00000E+00
 -1      1979 6.27045E+01 3.09687E+00 0.00000E+00
 -1      1980 6.12045E+01 3.09687E+00 0.00000E+00
 -1      1981 6.10350E+01 4.00625E+00 0.00000E+00
 -1      1982 6.57045E+01 3.09687E+00 0.00000E+00
 -1      1983 6.42045E+01 3.09687E+00 0.00000E+00
 -1      1984 6.40350E+01 4.00625E+00 0.00000E+00
 -1      1985 6.87045E+01 3.09687E+00 0.00000E+00
 -1      1986 6.72045E+01 3.09687E+00 0.00000E+00
 -1      1987 6.70350E+01 4.00625E+00 0.00000E+00
 -1      1988 7.17045E+01 3.09687E+00 0.00000E+00
 -1      1989 7.02045E+01 3.09687E+00 0.00000E+00
 -1      1990 7.00350E+01 4.00625E+00 0.00000E+00
 -1      1991 7.47045E+01 3.09687E+00 0.00000E+00
 -1      1992 7.32045E+01 3.09687E+00 0.00000E+00
 -1      1993 7.30350E+01 4.00625E+00 0.00000E+00
 -1      1994 7.77045E+01 3.09687E+00 0.00000E+00
 -1      1995 7.62045E+01 3.09687E+00 0.00000E+00
 -1      1996 7.60350E+01 4.00625E+00 0.00000E+00
 -1      1997 8.07045E+01 3.09687E+00 0.00000E+00
 -1      1998 7.92045E+01 3.09687E+00 0.00000E+00
 -1      1999 7.90350E+01 4.00625E+00 0.00000E+00
 -1      2000 8.37045E+01 3.09687E+00 0.00000E+00
 -1      2001 8.22045E+01 3.09687E+00 0.00000E+00
 -1      2002 8.20350E+01 4.00625E+00 0.00000E+00
 -1      2003 8.67045E+01 3.09687E+00 0.00000E+00
 -1      2004 8.52045E+01 3.09687E+00 0.00000E+00
 -1      2005 8.50350E+01 4.00625E+00 0.00000E+00
 -1      2006 8.97045E+01 3.09687E+00 0.00000E+00
 -1      2007 8.82045E+01 3.09687E+00 0.00000E+00
 -1      2008 8.80350E+01 4.00625E+00 0.00000E+00
 -1      2009 9.27045E+01 3.09687E+00 0.00000E+00
 -1      2010 9.12045E+01 3.09687E+00 0.00000E+00
 -1      2011 9.10350E+01 4.00625E+00 0.00000E+00
 -1      2012 9.57045E+01 3.09687E+00 0.00000E+00
 -1      2013 9.42045E+01 3.09687E+00 0.00000E+00
 -1      2014 9.40350E+01 4.00625E+00 0.00000E+00
 -1      2015 9.87045E+01 3.09687E+00 0.00000E+00
 -1      2016 9.72045E+01 3.09687E+00 0.00000E+00
 -1      2017 9.70350E+01 4.00625E+00 0.00000E+00
 -1      2018 1.01704E+02 3.09687E+00 0.00000E+00
 -1      2019 1.00204E+02 3.09687E+00 0.00000E+00
 -1      2020 1.00035E+02 4.00625E+00 0.00000E+00
 -1      2021 1.04704E+02 3.09687E+00 0.00000E+00
 -1      2022 1.03204E+02 3.09687E+00 0.00000E+00
 -1      2023 1.03035E+02 4.00625E+00 0.00000E+00
 -1      2024 1.07704E+02 3.09687E+00 0.00000E+00
 -1      2025 1.06204E+02 3.09687E+00 0.00000E+00
 -1      2026 1.06035E+02 4.00625E+00 0.00000E+00
 -1      2027 1.10704E+02 3.09687E+00 0.00000E+00
 -1      2028 1.09204E+02 3.09687E+00 0.00000E+00
 -1      2029 1.09035E+02 4.00625E+00 0.00000E+00
 -1      2030 1.13704E+02 3.09687E+00 0.00000E+00
 -1      2031 1.12204E+02 3.09687E+00 0.00000E+00
 -1      2032 1.12035E+02 4.00625E+00 0.00000E+00
 -1      2033 1.16704E+02 3.09687E+00 0.00000E+00
 -1      2034 1.15204E+02 3.09687E+00 0.00000E+00
 -1      2035 1.15035E+02 4.00625E+00 0.00000E+00
 -1      2036 1.19704E+02 3.09687E+00 0.00000E+00
 -1      2037 1.18204E+02 3.09687E+00 0.00000E+00
 -1      2038 1.18035E+02 4.00625E+00 0.00000E+00
 -1      2039 1.22704E+02 3.09687E+00 0.00000E+00
 -1      2040 1.21204E+02 3.09687E+00 0.00000E+00
 -1      2041 1.21035E+02 4.00625E+00 0.00000E+00
 -1      2042 1.25704E+02 3.09687E+00 0.00000E+00
 -1      2043 1.24204E+02 3.09687E+00 0.00000E+00
 -1      2044 1.24035E+02 4.00625E+00 0.00000E+00
 -1      2045 1.28704E+02 3.09687E+00 0.00000E+00
 -1      2046 1.27204E+02 3.09687E+00 0.00000E+00
 -1      2047 1.27035E+02 4.00625E+00 0.00000E+00
 -1      2048 1.31704E+02 3.09687E+00 0.00000E+00
 -1      2049 1.30204E+02 3.09687E+00 0.00000E+00
 -1      2050 1.30035E+02 4.00625E+00 0.00000E+00
 -1      2051 1.34704E+02 3.09687E+00 0.00000E+00
 -1      2052 1.33204E+02 3.09687E+00 0.00000E+00
 -1      2053 1.33035E+02 4.00625E+00 0.00000E+00
 -1      2054 1.37704E+02 3.09687E+00 0.00000E+00
 -1      2055 1.36204E+02 3.09687E+00 0.00000E+00
 -1      2056 1.36035E+02 4.00625E+00 0.00000E+00
 -1      2057 1.40704E+02 3.09687E+00 0.00000E+00
 -1      2058 1.39204E+02 3.09687E+00 0.00000E+00
 -1      2059 1.39035E+02 4.00625E+00 0.00000E+00
 -1      2060 1.43704E+02 3.09687E+00 0.00000E+00
 -1      2061 1.42204E+02 3.09687E+00 0.00000E+00
 -1      2062 1.42035E+02 4.00625E+00 0.00000E+00
 -1      2063 1.46171E+02 3.20156E+00 0.00000E+00
 -1      2064 1.44671E+02 3.20156E+00 0.00000E+00
 -1      2065 1.44502E+02 4.11094E+00 0.00000E+00
 -1      2066 1.46435E+02 4.32031E+00 0.00000E+00
 -1      2067 1.46103E+02 1.25375E+01 0.00000E+00
 -1      2068 1.46103E+02 1.10625E+01 0.00000E+00
 -1      2069 1.46103E+02 9.58750E+00 0.00000E+00
 -1      2070 1.46103E+02 8.11250E+00 0.00000E+00
 -1      2071 1.44804E+02 1.03250E+01 0.00000E+00
 -1      2072 1.46269E+02 6.95391E+00 0.00000E+00
 -1      2073 1.46269E+02 5.47891E+00 0.00000E+00
 -1      2074 1.45302E+02 5.37422E+00 0.00000E+00
 -1      2075 1.44970E+02 7.69141E+00 0.00000E+00
 -1      2076 1.46103E+02 1.54375E+01 0.00000E+00
 -1      2077 1.46103E+02 1.39875E+01 0.00000E+00
 -1      2078 1.44804E+02 1.32500E+01 0.00000E+00
 -1      2079 1.46103E+02 1.83875E+01 0.00000E+00
 -1      2080 1.46103E+02 1.69125E+01 0.00000E+00
 -1      2081 1.44804E+02 1.61750E+01 0.00000E+00
 -1      2082 1.46103E+02 2.13375E+01 0.00000E+00
 -1      2083 1.46103E+02 1.98625E+01 0.00000E+00
 -1      2084 1.44804E+02 1.91250E+01 0.00000E+00
 -1      2085 1.46103E+02 2.42875E+01 0.00000E+00
 -1      2086 1.46103E+02 2.28125E+01 0.00000E+00
 -1      2087 1.44804E+02 2.20750E+01 0.00000E+00
 -1      2088 1.46103E+02 2.72375E+01 0.00000E+00
 -1      2089 1.46103E+02 2.57625E+01 0.00000E+00
 -1      2090 1.44804E+02 2.50250E+01 0.00000E+00
 -1      2091 1.46103E+02 3.01875E+01 0.00000E+00
 -1      2092 1.46103E+02 2.87125E+01 0.00000E+00
 -1      2093 1.44804E+02 2.79750E+01 0.00000E+00
 -1      2094 1.46103E+02 3.30875E+01 0.00000E+00
 -1      2095 1.46103E+02 3.16375E+01 0.00000E+00
 -1      2096 1.44804E+02 3.09000E+01 0.00000E+00
 -1      2097 1.46103E+02 3.60375E+01 0.00000E+00
 -1      2098 1.46103E+02 3.45625E+01 0.00000E+00
 -1      2099 1.44804E+02 3.38250E+01 0.00000E+00
 -1      2100 1.46103E+02 3.89875E+01 0.00000E+00
 -1      2101 1.46103E+02 3.75125E+01 0.00000E+00
 -1      2102 1.44804E+02 3.67750E+01 0.00000E+00
 -1      2103 1.46103E+02 4.19375E+01 0.00000E+00
 -1      2104 1.46103E+02 4.04625E+01 0.00000E+00
 -1      2105 1.44804E+02 3.97250E+01 0.00000E+00
 -1      2106 4.08467E+01 2.27470E+01 0.00000E+00
 -1      2107 4.12108E+01 2.35443E+01 0.00000E+00
 -1      2108 4.19433E+01 2.64948E+01 0.00000E+00
 -1      2109 4.18980E+01 2.74059E+01 0.00000E+00
 -1      2110 4.14322E+01 2.45324E+01 0.00000E+00
 -1      2111 4.16614E+01 2.53898E+01 0.00000E+00
 -1      2112 3.97130E+01 2.12430E+01 0.00000E+00
 -1      2113 4.02226E+01 2.19325E+01 0.00000E+00
 -1      2114 3.85254E+01 1.98270E+01 0.00000E+00
 -1      2115 3.91238E+01 2.05121E+01 0.00000E+00
 -1      2116 3.89700E+00 3.74688E+01 0.00000E+00
 -1      2117 3.89700E+00 3.89437E+01 0.00000E+00
 -1      2118 5.19600E+00 3.96813E+01 0.00000E+00
 -1      2119 5.19600E+00 3.67438E+01 0.00000E+00
 -1      2120 3.49415E+01 1.81520E+01 0.00000E+00
 -1      2121 3.57906E+01 1.85234E+01 0.00000E+00
 -1      2122 3.28239E+01 1.79244E+01 0.00000E+00
 -1      2123 3.37313E+01 1.78593E+01 0.00000E+00
 -1      2124 3.10855E+01 1.80282E+01 0.00000E+00
 -1      2125 3.19547E+01 1.79763E+01 0.00000E+00
 -1      2126 3.23531E+01 1.71719E+01 0.00000E+00
 -1      2127 2.90835E+01 1.84106E+01 0.00000E+00
 -1      2128 2.99912E+01 1.81434E+01 0.00000E+00
 -1      2129 2.72674E+01 1.96964E+01 0.00000E+00
 -1      2130 2.79768E+01 1.90693E+01 0.00000E+00
 -1      2131 2.60732E+01 2.11676E+01 0.00000E+00
 -1      2132 2.66442E+01 2.05034E+01 0.00000E+00
 -1      2133 2.48549E+01 2.25613E+01 0.00000E+00
 -1      2134 2.53863E+01 2.18330E+01 0.00000E+00
 -1      2135 2.42536E+01 2.45118E+01 0.00000E+00
 -1      2136 2.45016E+01 2.36547E+01 0.00000E+00
 -1      2137 2.39817E+01 2.63307E+01 0.00000E+00
 -1      2138 2.40364E+01 2.54939E+01 0.00000E+00
 -1      2139 2.39864E+01 2.80871E+01 0.00000E+00
 -1      2140 2.39841E+01 2.72089E+01 0.00000E+00
 -1      2141 2.33229E+01 2.67455E+01 0.00000E+00
 -1      2142 2.44976E+01 3.00254E+01 0.00000E+00
 -1      2143 2.41919E+01 2.91907E+01 0.00000E+00
 -1      2144 2.53121E+01 3.16717E+01 0.00000E+00
 -1      2145 2.48645E+01 3.09648E+01 0.00000E+00
 -1      2146 2.63843E+01 3.30364E+01 0.00000E+00
 -1      2147 2.58702E+01 3.23866E+01 0.00000E+00
 -1      2148 2.76791E+01 3.43845E+01 0.00000E+00
 -1      2149 2.70263E+01 3.37457E+01 0.00000E+00
 -1      2150 2.96609E+01 3.52201E+01 0.00000E+00
 -1      2151 2.87658E+01 3.49930E+01 0.00000E+00
 -1      2152 3.13174E+01 3.56603E+01 0.00000E+00
 -1      2153 3.04891E+01 3.54402E+01 0.00000E+00
 -1      2154 2.98719E+01 3.59954E+01 0.00000E+00
 -1      2155 3.32532E+01 3.59075E+01 0.00000E+00
 -1      2156 3.23358E+01 3.58309E+01 0.00000E+00
 -1      2157 3.53691E+01 3.54871E+01 0.00000E+00
 -1      2158 3.44829E+01 3.58178E+01 0.00000E+00
 -1      2159 3.71066E+01 3.48259E+01 0.00000E+00
 -1      2160 3.62379E+01 3.51565E+01 0.00000E+00
 -1      2161 3.60653E+01 3.60468E+01 0.00000E+00
 -1      2162 3.87792E+01 3.34463E+01 0.00000E+00
 -1      2163 3.80988E+01 3.41034E+01 0.00000E+00
 -1      2164 4.01718E+01 3.21175E+01 0.00000E+00
 -1      2165 3.95272E+01 3.28060E+01 0.00000E+00
 -1      2166 4.11217E+01 3.02357E+01 0.00000E+00
 -1      2167 4.08112E+01 3.10853E+01 0.00000E+00
 -1      2168 4.15904E+01 2.85094E+01 0.00000E+00
 -1      2169 4.13561E+01 2.93725E+01 0.00000E+00
 -1      2170 4.19276E+01 3.00630E+01 0.00000E+00
 -1      2171 3.66746E+01 1.88220E+01 0.00000E+00
 -1      2172 3.75585E+01 1.91205E+01 0.00000E+00
 -1      2173 3.65265E+01 1.80041E+01 0.00000E+00
 -1      2174 3.99335E+01 2.04466E+01 0.00000E+00
 -1      2175 6.42300E+00 4.57510E+01 0.00000E+00
 -1      2176 3.83774E+01 1.90091E+01 0.00000E+00
 -1      2177 3.91962E+01 1.88978E+01 0.00000E+00
 -1      2178 3.82293E+01 1.81913E+01 0.00000E+00
 -1      2179 7.17300E+00 4.44520E+01 0.00000E+00
 -1      2180 4.19920E+01 2.37948E+01 0.00000E+00
 -1      2181 4.24953E+01 2.58879E+01 0.00000E+00
 -1      2182 1.45665E+02 4.31193E+01 0.00000E+00
 -1      2183 4.11466E+01 2.19922E+01 0.00000E+00
 -1      2184 4.24695E+01 2.80963E+01 0.00000E+00
 -1      2185 4.10538E+01 3.19583E+01 0.00000E+00
 -1      2186 3.79262E+01 3.49937E+01 0.00000E+00
 -1      2187 3.17186E+01 3.63862E+01 0.00000E+00
 -1      2188 2.79569E+01 3.51668E+01 0.00000E+00
 -1      2189 2.71479E+01 3.53406E+01 0.00000E+00
 -1      2190 2.82347E+01 3.59491E+01 0.00000E+00
 -1      2191 2.62281E+01 3.38489E+01 0.00000E+00
 -1      2192 2.50280E+01 3.24247E+01 0.00000E+00
 -1      2193 2.35307E+01 2.87273E+01 0.00000E+00
 -1      2194 2.35378E+01 2.48852E+01 0.00000E+00
 -1      2195 2.41084E+01 2.28098E+01 0.00000E+00
 -1      2196 2.51486E+01 2.10511E+01 0.00000E+00
 -1      2197 2.64586E+01 1.95788E+01 0.00000E+00
 -1      2198 3.03895E+01 1.73391E+01 0.00000E+00
 -1      2199 3.44324E+01 1.74128E+01 0.00000E+00
 -1      2200 3.51334E+01 1.69663E+01 0.00000E+00
 -1      2201 3.39233E+01 1.66736E+01 0.00000E+00
 -1      2202 2.81885E+01 1.81130E+01 0.00000E+00
 -1      2203 2.41031E+01 3.07704E+01 0.00000E+00
 -1      2204 3.39668E+01 3.64671E+01 0.00000E+00
 -1      2205 3.34507E+01 3.71164E+01 0.00000E+00
 -1      2206 3.46804E+01 3.70267E+01 0.00000E+00
 -1      2207 3.96663E+01 3.36309E+01 0.00000E+00
 -1      2208 1.07850E+01 5.30525E+00 0.00000E+00
 -1      2209 9.28500E+00 5.30525E+00 0.00000E+00
 -1      2210 6.49500E+00 3.01125E+01 0.00000E+00
 -1      2211 6.49500E+00 3.15875E+01 0.00000E+00
 -1      2212 6.49500E+00 3.30625E+01 0.00000E+00
 -1      2213 6.49500E+00 3.45375E+01 0.00000E+00
 -1      2214 7.79400E+00 3.23250E+01 0.00000E+00
 -1      2215 6.49500E+00 2.42125E+01 0.00000E+00
 -1      2216 6.49500E+00 2.56875E+01 0.00000E+00
 -1      2217 6.49500E+00 2.12625E+01 0.00000E+00
 -1      2218 6.49500E+00 2.27375E+01 0.00000E+00
 -1      2219 7.79400E+00 2.34750E+01 0.00000E+00
 -1      2220 6.49500E+00 1.83625E+01 0.00000E+00
 -1      2221 6.49500E+00 1.98125E+01 0.00000E+00
 -1      2222 7.79400E+00 2.05500E+01 0.00000E+00
 -1      2223 6.49500E+00 1.54125E+01 0.00000E+00
 -1      2224 6.49500E+00 1.68875E+01 0.00000E+00
 -1      2225 7.79400E+00 1.76250E+01 0.00000E+00
 -1      2226 6.49500E+00 1.24625E+01 0.00000E+00
 -1      2227 6.49500E+00 1.39375E+01 0.00000E+00
 -1      2228 7.79400E+00 1.46750E+01 0.00000E+00
 -1      2229 6.49500E+00 9.51250E+00 0.00000E+00
 -1      2230 6.49500E+00 1.09875E+01 0.00000E+00
 -1      2231 7.79400E+00 1.17250E+01 0.00000E+00
 -1      2232 1.37850E+01 5.30525E+00 0.00000E+00
 -1      2233 1.22850E+01 5.30525E+00 0.00000E+00
 -1      2234 1.15350E+01 6.60425E+00 0.00000E+00
 -1      2235 9.90000E+00 4.35050E+01 0.00000E+00
 -1      2236 1.14000E+01 4.35050E+01 0.00000E+00
 -1      2237 4.03065E+01 1.95430E+01 0.00000E+00
 -1      2238 4.08957E+01 2.02739E+01 0.00000E+00
 -1      2239 1.29000E+01 4.35050E+01 0.00000E+00
 -1      2240 1.44000E+01 4.35050E+01 0.00000E+00
 -1      2241 1.21500E+01 4.22060E+01 0.00000E+00
 -1      2242 1.59000E+01 4.35050E+01 0.00000E+00
 -1      2243 1.74000E+01 4.35050E+01 0.00000E+00
 -1      2244 1.51500E+01 4.22060E+01 0.00000E+00
 -1      2245 1.89000E+01 4.35050E+01 0.00000E+00
 -1      2246 2.04000E+01 4.35050E+01 0.00000E+00
 -1      2247 1.81500E+01 4.22060E+01 0.00000E+00
 -1      2248 2.19000E+01 4.35050E+01 0.00000E+00
 -1      2249 2.34000E+01 4.35050E+01 0.00000E+00
 -1      2250 2.11500E+01 4.22060E+01 0.00000E+00
 -1      2251 2.49000E+01 4.35050E+01 0.00000E+00
 -1      2252 2.64000E+01 4.35050E+01 0.00000E+00
 -1      2253 2.41500E+01 4.22060E+01 0.00000E+00
 -1      2254 2.79000E+01 4.35050E+01 0.00000E+00
 -1      2255 2.94000E+01 4.35050E+01 0.00000E+00
 -1      2256 2.71500E+01 4.22060E+01 0.00000E+00
 -1      2257 3.09000E+01 4.35050E+01 0.00000E+00
 -1      2258 3.24000E+01 4.35050E+01 0.00000E+00
 -1      2259 3.01500E+01 4.22060E+01 0.00000E+00
 -1      2260 3.39000E+01 4.35050E+01 0.00000E+00
 -1      2261 3.54000E+01 4.35050E+01 0.00000E+00
 -1      2262 3.31500E+01 4.22060E+01 0.00000E+00
 -1      2263 3.69000E+01 4.35050E+01 0.00000E+00
 -1      2264 3.84000E+01 4.35050E+01 0.00000E+00
 -1      2265 3.61500E+01 4.22060E+01 0.00000E+00
 -1      2266 3.99000E+01 4.35050E+01 0.00000E+00
 -1      2267 4.14000E+01 4.35050E+01 0.00000E+00
 -1      2268 3.91500E+01 4.22060E+01 0.00000E+00
 -1      2269 4.29000E+01 4.35050E+01 0.00000E+00
 -1      2270 4.44000E+01 4.35050E+01 0.00000E+00
 -1      2271 4.21500E+01 4.22060E+01 0.00000E+00
 -1      2272 4.59000E+01 4.35050E+01 0.00000E+00
 -1      2273 4.74000E+01 4.35050E+01 0.00000E+00
 -1      2274 4.51500E+01 4.22060E+01 0.00000E+00
 -1      2275 4.89000E+01 4.35050E+01 0.00000E+00
 -1      2276 5.04000E+01 4.35050E+01 0.00000E+00
 -1      2277 4.81500E+01 4.22060E+01 0.00000E+00
 -1      2278 5.19000E+01 4.35050E+01 0.00000E+00
 -1      2279 5.34000E+01 4.35050E+01 0.00000E+00
 -1      2280 5.11500E+01 4.22060E+01 0.00000E+00
 -1      2281 5.49000E+01 4.35050E+01 0.00000E+00
 -1      2282 5.64000E+01 4.35050E+01 0.00000E+00
 -1      2283 5.41500E+01 4.22060E+01 0.00000E+00
 -1      2284 5.79000E+01 4.35050E+01 0.00000E+00
 -1      2285 5.94000E+01 4.35050E+01 0.00000E+00
 -1      2286 5.71500E+01 4.22060E+01 0.00000E+00
 -1      2287 6.09000E+01 4.35050E+01 0.00000E+00
 -1      2288 6.24000E+01 4.35050E+01 0.00000E+00
 -1      2289 6.01500E+01 4.22060E+01 0.00000E+00
 -1      2290 6.39000E+01 4.35050E+01 0.00000E+00
 -1      2291 6.54000E+01 4.35050E+01 0.00000E+00
 -1      2292 6.31500E+01 4.22060E+01 0.00000E+00
 -1      2293 6.69000E+01 4.35050E+01 0.00000E+00
 -1      2294 6.84000E+01 4.35050E+01 0.00000E+00
 -1      2295 6.61500E+01 4.22060E+01 0.00000E+00
 -1      2296 6.99000E+01 4.35050E+01 0.00000E+00
 -1      2297 7.14000E+01 4.35050E+01 0.00000E+00
 -1      2298 6.91500E+01 4.22060E+01 0.00000E+00
 -1      2299 7.29000E+01 4.35050E+01 0.00000E+00
 -1      2300 7.44000E+01 4.35050E+01 0.00000E+00
 -1      2301 7.21500E+01 4.22060E+01 0.00000E+00
 -1      2302 7.59000E+01 4.35050E+01 0.00000E+00
 -1      2303 7.74000E+01 4.35050E+01 0.00000E+00
 -1      2304 7.51500E+01 4.22060E+01 0.00000E+00
 -1      2305 7.89000E+01 4.35050E+01 0.00000E+00
 -1      2306 8.04000E+01 4.35050E+01 0.00000E+00
 -1      2307 7.81500E+01 4.22060E+01 0.00000E+00
 -1      2308 8.19000E+01 4.35050E+01 0.00000E+00
 -1      2309 8.34000E+01 4.35050E+01 0.00000E+00
 -1      2310 8.11500E+01 4.22060E+01 0.00000E+00
 -1      2311 8.49000E+01 4.35050E+01 0.00000E+00
 -1      2312 8.64000E+01 4.35050E+01 0.00000E+00
 -1      2313 8.41500E+01 4.22060E+01 0.00000E+00
 -1      2314 8.79000E+01 4.35050E+01 0.00000E+00
 -1      2315 8.94000E+01 4.35050E+01 0.00000E+00
 -1      2316 8.71500E+01 4.22060E+01 0.00000E+00
 -1      2317 9.09000E+01 4.35050E+01 0.00000E+00
 -1      2318 9.24000E+01 4.35050E+01 0.00000E+00
 -1      2319 9.01500E+01 4.22060E+01 0.00000E+00
 -1      2320 9.39000E+01 4.35050E+01 0.00000E+00
 -1      2321 9.54000E+01 4.35050E+01 0.00000E+00
 -1      2322 9.31500E+01 4.22060E+01 0.00000E+00
 -1      2323 9.69000E+01 4.35050E+01 0.00000E+00
 -1      2324 9.84000E+01 4.35050E+01 0.00000E+00
 -1      2325 9.61500E+01 4.22060E+01 0.00000E+00
 -1      2326 9.99000E+01 4.35050E+01 0.00000E+00
 -1      2327 1.01400E+02 4.35050E+01 0.00000E+00
 -1      2328 9.91500E+01 4.22060E+01 0.00000E+00
 -1      2329 1.02900E+02 4.35050E+01 0.00000E+00
 -1      2330 1.04400E+02 4.35050E+01 0.00000E+00
 -1      2331 1.02150E+02 4.22060E+01 0.00000E+00
 -1      2332 1.05900E+02 4.35050E+01 0.00000E+00
 -1      2333 1.07400E+02 4.35050E+01 0.00000E+00
 -1      2334 1.05150E+02 4.22060E+01 0.00000E+00
 -1      2335 1.08900E+02 4.35050E+01 0.00000E+00
 -1      2336 1.10400E+02 4.35050E+01 0.00000E+00
 -1      2337 1.08150E+02 4.22060E+01 0.00000E+00
 -1      2338 1.11900E+02 4.35050E+01 0.00000E+00
 -1      2339 1.13400E+02 4.35050E+01 0.00000E+00
 -1      2340 1.11150E+02 4.22060E+01 0.00000E+00
 -1      2341 1.14900E+02 4.35050E+01 0.00000E+00
 -1      2342 1.16400E+02 4.35050E+01 0.00000E+00
 -1      2343 1.14150E+02 4.22060E+01 0.00000E+00
 -1      2344 1.17900E+02 4.35050E+01 0.00000E+00
 -1      2345 1.19400E+02 4.35050E+01 0.00000E+00
 -1      2346 1.17150E+02 4.22060E+01 0.00000E+00
 -1      2347 1.20900E+02 4.35050E+01 0.00000E+00
 -1      2348 1.22400E+02 4.35050E+01 0.00000E+00
 -1      2349 1.20150E+02 4.22060E+01 0.00000E+00
 -1      2350 1.23900E+02 4.35050E+01 0.00000E+00
 -1      2351 1.25400E+02 4.35050E+01 0.00000E+00
 -1      2352 1.23150E+02 4.22060E+01 0.00000E+00
 -1      2353 1.26900E+02 4.35050E+01 0.00000E+00
 -1      2354 1.28400E+02 4.35050E+01 0.00000E+00
 -1      2355 1.26150E+02 4.22060E+01 0.00000E+00
 -1      2356 1.29900E+02 4.35050E+01 0.00000E+00
 -1      2357 1.31400E+02 4.35050E+01 0.00000E+00
 -1      2358 1.29150E+02 4.22060E+01 0.00000E+00
 -1      2359 1.32900E+02 4.35050E+01 0.00000E+00
 -1      2360 1.34400E+02 4.35050E+01 0.00000E+00
 -1      2361 1.32150E+02 4.22060E+01 0.00000E+00
 -1      2362 1.35900E+02 4.35050E+01 0.00000E+00
 -1      2363 1.37400E+02 4.35050E+01 0.00000E+00
 -1      2364 1.35150E+02 4.22060E+01 0.00000E+00
 -1      2365 1.38900E+02 4.35050E+01 0.00000E+00
 -1      2366 1.40400E+02 4.35050E+01 0.00000E+00
 -1      2367 1.38150E+02 4.22060E+01 0.00000E+00
 -1      2368 1.97850E+01 5.30525E+00 0.00000E+00
 -1      2369 1.82850E+01 5.30525E+00 0.00000E+00
 -1      2370 2.27850E+01 5.30525E+00 0.00000E+00
 -1      2371 2.12850E+01 5.30525E+00 0.00000E+00
 -1      2372 2.05350E+01 6.60425E+00 0.00000E+00
 -1      2373 2.57850E+01 5.30525E+00 0.00000E+00
 -1      2374 2.42850E+01 5.30525E+00 0.00000E+00
 -1      2375 2.35350E+01 6.60425E+00 0.00000E+00
 -1      2376 2.87850E+01 5.30525E+00 0.00000E+00
 -1      2377 2.72850E+01 5.30525E+00 0.00000E+00
 -1      2378 2.65350E+01 6.60425E+00 0.00000E+00
 -1      2379 3.17850E+01 5.30525E+00 0.00000E+00
 -1      2380 3.02850E+01 5.30525E+00 0.00000E+00
 -1      2381 2.95350E+01 6.60425E+00 0.00000E+00
 -1      2382 3.47850E+01 5.30525E+00 0.00000E+00
 -1      2383 3.32850E+01 5.30525E+00 0.00000E+00
 -1      2384 3.25350E+01 6.60425E+00 0.00000E+00
 -1      2385 3.77850E+01 5.30525E+00 0.00000E+00
 -1      2386 3.62850E+01 5.30525E+00 0.00000E+00
 -1      2387 3.55350E+01 6.60425E+00 0.00000E+00
 -1      2388 4.07850E+01 5.30525E+00 0.00000E+00
 -1      2389 3.92850E+01 5.30525E+00 0.00000E+00
 -1      2390 3.85350E+01 6.60425E+00 0.00000E+00
 -1      2391 4.37850E+01 5.30525E+00 0.00000E+00
 -1      2392 4.22850E+01 5.30525E+00 0.00000E+00
 -1      2393 4.15350E+01 6.60425E+00 0.00000E+00
 -1      2394 4.67850E+01 5.30525E+00 0.00000E+00
 -1      2395 4.52850E+01 5.30525E+00 0.00000E+00
 -1      2396 4.45350E+01 6.60425E+00 0.00000E+00
 -1      2397 4.97850E+01 5.30525E+00 0.00000E+00
 -1      2398 4.82850E+01 5.30525E+00 0.00000E+00
 -1      2399 4.75350E+01 6.60425E+00 0.00000E+00
 -1      2400 5.27850E+01 5.30525E+00 0.00000E+00
 -1      2401 5.12850E+01 5.30525E+00 0.00000E+00
 -1      2402 5.05350E+01 6.60425E+00 0.00000E+00
 -1      2403 5.57850E+01 5.30525E+00 0.00000E+00
 -1      2404 5.42850E+01 5.30525E+00 0.00000E+00
 -1      2405 5.35350E+01 6.60425E+00 0.00000E+00
 -1      2406 5.87850E+01 5.30525E+00 0.00000E+00
 -1      2407 5.72850E+01 5.30525E+00 0.00000E+00
 -1      2408 5.65350E+01 6.60425E+00 0.00000E+00
 -1      2409 6.17850E+01 5.30525E+00 0.00000E+00
 -1      2410 6.02850E+01 5.30525E+00 0.00000E+00
 -1      2411 5.95350E+01 6.60425E+00 0.00000E+00
 -1      2412 6.47850E+01 5.30525E+00 0.00000E+00
 -1      2413 6.32850E+01 5.30525E+00 0.00000E+00
 -1      2414 6.25350E+01 6.60425E+00 0.00000E+00
 -1      2415 6.77850E+01 5.30525E+00 0.00000E+00
 -1      2416 6.62850E+01 5.30525E+00 0.00000E+00
 -1      2417 6.55350E+01 6.60425E+00 0.00000E+00
 -1      2418 7.07850E+01 5.30525E+00 0.00000E+00
 -1      2419 6.92850E+01 5.30525E+00 0.00000E+00
 -1      2420 6.85350E+01 6.60425E+00 0.00000E+00
 -1      2421 7.37850E+01 5.30525E+00 0.00000E+00
 -1      2422 7.22850E+01 5.30525E+00 0.00000E+00
 -1      2423 7.15350E+01 6.60425E+00 0.00000E+00
 -1      2424 7.67850E+01 5.30525E+00 0.00000E+00
 -1      2425 7.52850E+01 5.30525E+00 0.00000E+00
 -1      2426 7.45350E+01 6.60425E+00 0.00000E+00
 -1      2427 7.97850E+01 5.30525E+00 0.00000E+00
 -1      2428 7.82850E+01 5.30525E+00 0.00000E+00
 -1      2429 7.75350E+01 6.60425E+00 0.00000E+00
 -1      2430 8.27850E+01 5.30525E+00 0.00000E+00
 -1      2431 8.12850E+01 5.30525E+00 0.00000E+00
 -1      2432 8.05350E+01 6.60425E+00 0.00000E+00
 -1      2433 8.57850E+01 5.30525E+00 0.00000E+00
 -1      2434 8.42850E+01 5.30525E+00 0.00000E+00
 -1      2435 8.35350E+01 6.60425E+00 0.00000E+00
 -1      2436 8.87850E+01 5.30525E+00 0.00000E+00
 -1      2437 8.72850E+01 5.30525E+00 0.00000E+00
 -1      2438 8.65350E+01 6.60425E+00 0.00000E+00
 -1      2439 9.17850E+01 5.30525E+00 0.00000E+00
 -1      2440 9.02850E+01 5.30525E+00 0.00000E+00
 -1      2441 8.95350E+01 6.60425E+00 0.00000E+00
 -1      2442 9.47850E+01 5.30525E+00 0.00000E+00
 -1      2443 9.32850E+01 5.30525E+00 0.00000E+00
 -1      2444 9.25350E+01 6.60425E+00 0.00000E+00
 -1      2445 9.77850E+01 5.30525E+00 0.00000E+00
 -1      2446 9.62850E+01 5.30525E+00 0.00000E+00
 -1      2447 9.55350E+01 6.60425E+00 0.00000E+00
 -1      2448 1.00785E+02 5.30525E+00 0.00000E+00
 -1      2449 9.92850E+01 5.30525E+00 0.00000E+00
 -1      2450 9.85350E+01 6.60425E+00 0.00000E+00
 -1      2451 1.03785E+02 5.30525E+00 0.00000E+00
 -1      2452 1.02285E+02 5.30525E+00 0.00000E+00
 -1      2453 1.01535E+02 6.60425E+00 0.00000E+00
 -1      2454 1.06785E+02 5.30525E+00 0.00000E+00
 -1      2455 1.05285E+02 5.30525E+00 0.00000E+00
 -1      2456 1.04535E+02 6.60425E+00 0.00000E+00
 -1      2457 1.09785E+02 5.30525E+00 0.00000E+00
 -1      2458 1.08285E+02 5.30525E+00 0.00000E+00
 -1      2459 1.07535E+02 6.60425E+00 0.00000E+00
 -1      2460 1.12785E+02 5.30525E+00 0.00000E+00
 -1      2461 1.11285E+02 5.30525E+00 0.00000E+00
 -1      2462 1.10535E+02 6.60425E+00 0.00000E+00
 -1      2463 1.15785E+02 5.30525E+00 0.00000E+00
 -1      2464 1.14285E+02 5.30525E+00 0.00000E+00
 -1      2465 1.13535E+02 6.60425E+00 0.00000E+00
 -1      2466 1.18785E+02 5.30525E+00 0.00000E+00
 -1      2467 1.17285E+02 5.30525E+00 0.00000E+00
 -1      2468 1.16535E+02 6.60425E+00 0.00000E+00
 -1      2469 1.21785E+02 5.30525E+00 0.00000E+00
 -1      2470 1.20285E+02 5.30525E+00 0.00000E+00
 -1      2471 1.19535E+02 6.60425E+00 0.00000E+00
 -1      2472 1.24785E+02 5.30525E+00 0.00000E+00
 -1      2473 1.23285E+02 5.30525E+00 0.00000E+00
 -1      2474 1.22535E+02 6.60425E+00 0.00000E+00
 -1      2475 1.27785E+02 5.30525E+00 0.00000E+00
 -1      2476 1.26285E+02 5.30525E+00 0.00000E+00
 -1      2477 1.25535E+02 6.60425E+00 0.00000E+00
 -1      2478 1.30785E+02 5.30525E+00 0.00000E+00
 -1      2479 1.29285E+02 5.30525E+00 0.00000E+00
 -1      2480 1.28535E+02 6.60425E+00 0.00000E+00
 -1      2481 1.33785E+02 5.30525E+00 0.00000E+00
 -1      2482 1.32285E+02 5.30525E+00 0.00000E+00
 -1      2483 1.31535E+02 6.60425E+00 0.00000E+00
 -1      2484 1.36785E+02 5.30525E+00 0.00000E+00
 -1      2485 1.35285E+02 5.30525E+00 0.00000E+00
 -1      2486 1.34535E+02 6.60425E+00 0.00000E+00
 -1      2487 1.39785E+02 5.30525E+00 0.00000E+00
 -1      2488 1.38285E+02 5.30525E+00 0.00000E+00
 -1      2489 1.37535E+02 6.60425E+00 0.00000E+00
 -1      2490 1.42785E+02 5.30525E+00 0.00000E+00
 -1      2491 1.41285E+02 5.30525E+00 0.00000E+00
 -1      2492 1.40535E+02 6.60425E+00 0.00000E+00
 -1      2493 1.44336E+02 5.26953E+00 0.00000E+00
 -1      2494 1.43505E+02 1.69125E+01 0.00000E+00
 -1      2495 1.43505E+02 1.54375E+01 0.00000E+00
 -1      2496 1.43505E+02 1.98625E+01 0.00000E+00
 -1      2497 1.43505E+02 1.83875E+01 0.00000E+00
 -1      2498 1.42206E+02 1.76500E+01 0.00000E+00
 -1      2499 1.43505E+02 1.10625E+01 0.00000E+00
 -1      2500 1.43505E+02 9.58750E+00 0.00000E+00
 -1      2501 1.43505E+02 1.39750E+01 0.00000E+00
 -1      2502 1.43505E+02 1.25250E+01 0.00000E+00
 -1      2503 1.42206E+02 1.17875E+01 0.00000E+00
 -1      2504 1.42206E+02 1.47125E+01 0.00000E+00
 -1      2505 1.43505E+02 2.28125E+01 0.00000E+00
 -1      2506 1.43505E+02 2.13375E+01 0.00000E+00
 -1      2507 1.42206E+02 2.06000E+01 0.00000E+00
 -1      2508 1.43505E+02 2.57625E+01 0.00000E+00
 -1      2509 1.43505E+02 2.42875E+01 0.00000E+00
 -1      2510 1.42206E+02 2.35500E+01 0.00000E+00
 -1      2511 1.43505E+02 2.87125E+01 0.00000E+00
 -1      2512 1.43505E+02 2.72375E+01 0.00000E+00
 -1      2513 1.42206E+02 2.65000E+01 0.00000E+00
 -1      2514 1.43505E+02 3.16125E+01 0.00000E+00
 -1      2515 1.43505E+02 3.01625E+01 0.00000E+00
 -1      2516 1.42206E+02 2.94250E+01 0.00000E+00
 -1      2517 1.43505E+02 3.45625E+01 0.00000E+00
 -1      2518 1.43505E+02 3.30875E+01 0.00000E+00
 -1      2519 1.42206E+02 3.23500E+01 0.00000E+00
 -1      2520 1.43505E+02 3.75125E+01 0.00000E+00
 -1      2521 1.43505E+02 3.60375E+01 0.00000E+00
 -1      2522 1.42206E+02 3.53000E+01 0.00000E+00
 -1      2523 1.43505E+02 4.04625E+01 0.00000E+00
 -1      2524 1.43505E+02 3.89875E+01 0.00000E+00
 -1      2525 1.42206E+02 3.82500E+01 0.00000E+00
 -1      2526 4.30635E+01 2.51545E+01 0.00000E+00
 -1      2527 4.33454E+01 2.62595E+01 0.00000E+00
 -1      2528 4.15197E+01 2.10885E+01 0.00000E+00
 -1      2529 4.21438E+01 2.19031E+01 0.00000E+00
 -1      2530 4.18928E+01 2.01849E+01 0.00000E+00
 -1      2531 1.67850E+01 5.30525E+00 0.00000E+00
 -1      2532 1.52850E+01 5.30525E+00 0.00000E+00
 -1      2533 1.75350E+01 6.60425E+00 0.00000E+00
 -1      2534 1.44321E+02 4.30606E+01 0.00000E+00
 -1      2535 4.34494E+01 2.77749E+01 0.00000E+00
 -1      2536 4.31418E+01 2.88784E+01 0.00000E+00
 -1      2537 4.27182E+01 2.31133E+01 0.00000E+00
 -1      2538 4.29395E+01 2.41014E+01 0.00000E+00
 -1      2539 4.21737E+01 3.19379E+01 0.00000E+00
 -1      2540 4.15343E+01 3.29702E+01 0.00000E+00
 -1      2541 6.55950E+00 4.28890E+01 0.00000E+00
 -1      2542 8.53650E+00 4.32410E+01 0.00000E+00
 -1      2543 9.28650E+00 4.19420E+01 0.00000E+00
 -1      2544 6.55950E+00 4.14140E+01 0.00000E+00
 -1      2545 3.21000E+01 3.72346E+01 0.00000E+00
 -1      2546 3.10815E+01 3.70640E+01 0.00000E+00
 -1      2547 2.27555E+01 2.52272E+01 0.00000E+00
 -1      2548 2.29727E+01 2.42451E+01 0.00000E+00
 -1      2549 6.49500E+00 2.71625E+01 0.00000E+00
 -1      2550 6.49500E+00 2.86375E+01 0.00000E+00
 -1      2551 7.79400E+00 2.93750E+01 0.00000E+00
 -1      2552 7.79400E+00 2.64250E+01 0.00000E+00
 -1      2553 2.71537E+01 1.76335E+01 0.00000E+00
 -1      2554 2.82604E+01 1.69748E+01 0.00000E+00
 -1      2555 3.18748E+01 1.64673E+01 0.00000E+00
 -1      2556 3.27440E+01 1.64154E+01 0.00000E+00
 -1      2557 2.35267E+01 3.15368E+01 0.00000E+00
 -1      2558 2.31598E+01 3.05974E+01 0.00000E+00
 -1      2559 2.97526E+01 1.65439E+01 0.00000E+00
 -1      2560 3.08469E+01 1.64286E+01 0.00000E+00
 -1      2561 2.54683E+01 1.94581E+01 0.00000E+00
 -1      2562 2.60915E+01 1.86511E+01 0.00000E+00
 -1      2563 2.40945E+01 2.07888E+01 0.00000E+00
 -1      2564 2.47814E+01 2.01234E+01 0.00000E+00
 -1      2565 2.44143E+01 1.91958E+01 0.00000E+00
 -1      2566 2.31157E+01 2.30927E+01 0.00000E+00
 -1      2567 2.34690E+01 2.19994E+01 0.00000E+00
 -1      2568 2.23827E+01 2.71872E+01 0.00000E+00
 -1      2569 2.23804E+01 2.63089E+01 0.00000E+00
 -1      2570 2.27937E+01 2.93943E+01 0.00000E+00
 -1      2571 2.25882E+01 2.82907E+01 0.00000E+00
 -1      2572 2.16457E+01 2.78541E+01 0.00000E+00
 -1      2573 2.46972E+01 3.32583E+01 0.00000E+00
 -1      2574 2.41391E+01 3.25434E+01 0.00000E+00
 -1      2575 2.59811E+01 3.46769E+01 0.00000E+00
 -1      2576 2.53391E+01 3.39676E+01 0.00000E+00
 -1      2577 2.44502E+01 3.40863E+01 0.00000E+00
 -1      2578 3.00873E+01 3.68533E+01 0.00000E+00
 -1      2579 2.92591E+01 3.66332E+01 0.00000E+00
 -1      2580 4.05163E+01 3.38667E+01 0.00000E+00
 -1      2581 3.97682E+01 3.45070E+01 0.00000E+00
 -1      2582 3.67897E+01 3.66438E+01 0.00000E+00
 -1      2583 3.59210E+01 3.69744E+01 0.00000E+00
 -1      2584 3.90257E+01 3.54611E+01 0.00000E+00
 -1      2585 3.80336E+01 3.61836E+01 0.00000E+00
 -1      2586 4.29074E+01 2.97415E+01 0.00000E+00
 -1      2587 4.26731E+01 3.06047E+01 0.00000E+00
 -1      2588 4.38873E+01 2.94201E+01 0.00000E+00
 -1      2589 3.63321E+01 1.71218E+01 0.00000E+00
 -1      2590 3.72160E+01 1.74203E+01 0.00000E+00
 -1      2591 8.07525E+00 5.11044E+00 0.00000E+00
 -1      2592 6.57525E+00 5.11044E+00 0.00000E+00
 -1      2593 6.40575E+00 6.01981E+00 0.00000E+00
 -1      2594 8.82525E+00 6.40944E+00 0.00000E+00
 -1      2595 2.76830E+01 1.55848E+01 0.00000E+00
 -1      2596 2.87178E+01 1.60643E+01 0.00000E+00
 -1      2597 2.91751E+01 1.51539E+01 0.00000E+00
 -1      2598 7.79400E+00 3.52687E+01 0.00000E+00
 -1      2599 6.49500E+00 3.60062E+01 0.00000E+00
 -1      2600 6.49500E+00 3.74750E+01 0.00000E+00
 -1      2601 1.45350E+01 6.60425E+00 0.00000E+00
 -1      2602 6.40575E+00 7.49481E+00 0.00000E+00
 -1      2603 3.80349E+01 1.73089E+01 0.00000E+00
 -1      2604 3.88537E+01 1.71976E+01 0.00000E+00
 -1      2605 3.78405E+01 1.64266E+01 0.00000E+00
 -1      2606 3.98757E+01 3.56970E+01 0.00000E+00
 -1      2607 3.28136E+01 3.77942E+01 0.00000E+00
 -1      2608 3.21765E+01 3.84720E+01 0.00000E+00
 -1      2609 3.35273E+01 3.83538E+01 0.00000E+00
 -1      2610 7.70475E+00 8.23231E+00 0.00000E+00
 -1      2611 4.00104E+01 1.79072E+01 0.00000E+00
 -1      2612 4.01585E+01 1.87251E+01 0.00000E+00
 -1      2613 4.11207E+01 1.85524E+01 0.00000E+00
 -1      2614 3.78893E+01 3.71113E+01 0.00000E+00
 -1      2615 4.16362E+01 3.38463E+01 0.00000E+00
 -1      2616 1.43586E+02 6.56853E+00 0.00000E+00
 -1      2617 1.43419E+02 7.72713E+00 0.00000E+00
 -1      2618 2.62590E+01 3.54593E+01 0.00000E+00
 -1      2619 2.53700E+01 3.55779E+01 0.00000E+00
 -1      2620 2.65368E+01 3.62416E+01 0.00000E+00
 -1      2621 4.45858E+01 2.63081E+01 0.00000E+00
 -1      2622 4.40176E+01 2.70415E+01 0.00000E+00
 -1      2623 4.46898E+01 2.78235E+01 0.00000E+00
 -1      2624 4.37896E+01 2.44730E+01 0.00000E+00
 -1      2625 4.30912E+01 2.22097E+01 0.00000E+00
 -1      2626 2.22173E+01 3.01608E+01 0.00000E+00
 -1      2627 2.31958E+01 3.23704E+01 0.00000E+00
 -1      2628 2.31019E+01 2.10718E+01 0.00000E+00
 -1      2629 2.18153E+01 2.56688E+01 0.00000E+00
 -1      2630 2.23334E+01 2.34347E+01 0.00000E+00
 -1      2631 2.84501E+01 3.68070E+01 0.00000E+00
 -1      2632 2.76412E+01 3.69808E+01 0.00000E+00
 -1      2633 2.86655E+01 3.76649E+01 0.00000E+00
 -1      2634 6.55950E+00 3.99453E+01 0.00000E+00
 -1      2635 4.31536E+01 3.16165E+01 0.00000E+00
 -1      2636 3.34451E+01 1.59689E+01 0.00000E+00
 -1      2637 3.41461E+01 1.55225E+01 0.00000E+00
 -1      2638 3.29669E+01 1.52643E+01 0.00000E+00
 -1      2639 3.12379E+01 1.56721E+01 0.00000E+00
 -1      2640 3.04687E+01 3.77017E+01 0.00000E+00
 -1      2641 3.58230E+01 1.63825E+01 0.00000E+00
 -1      2642 2.61634E+01 1.75129E+01 0.00000E+00
 -1      2643 3.54049E+01 3.76237E+01 0.00000E+00
 -1      2644 1.42758E+02 4.35929E+01 0.00000E+00
 -1      2645 1.43241E+02 4.17323E+01 0.00000E+00
 -1      2646 1.41942E+02 4.09948E+01 0.00000E+00
 -1      2647 1.41414E+02 4.35342E+01 0.00000E+00
 -1      2648 1.42120E+02 8.46463E+00 0.00000E+00
 -1      2649 1.40664E+02 4.22352E+01 0.00000E+00
 -1      2650 9.09300E+00 1.98250E+01 0.00000E+00
 -1      2651 9.09300E+00 2.12750E+01 0.00000E+00
 -1      2652 9.09300E+00 2.27500E+01 0.00000E+00
 -1      2653 9.09300E+00 2.42250E+01 0.00000E+00
 -1      2654 1.03920E+01 2.20250E+01 0.00000E+00
 -1      2655 9.09300E+00 1.39375E+01 0.00000E+00
 -1      2656 9.09300E+00 1.54125E+01 0.00000E+00
 -1      2657 9.09300E+00 1.09875E+01 0.00000E+00
 -1      2658 9.09300E+00 1.24625E+01 0.00000E+00
 -1      2659 1.03920E+01 1.32000E+01 0.00000E+00
 -1      2660 1.22850E+01 7.90325E+00 0.00000E+00
 -1      2661 1.07850E+01 7.90325E+00 0.00000E+00
 -1      2662 4.50746E+01 2.92791E+01 0.00000E+00
 -1      2663 4.48403E+01 3.01422E+01 0.00000E+00
 -1      2664 4.09237E+01 3.57466E+01 0.00000E+00
 -1      2665 4.01811E+01 3.67007E+01 0.00000E+00
 -1      2666 1.44000E+01 4.09070E+01 0.00000E+00
 -1      2667 1.59000E+01 4.09070E+01 0.00000E+00
 -1      2668 1.74000E+01 4.09070E+01 0.00000E+00
 -1      2669 1.89000E+01 4.09070E+01 0.00000E+00
 -1      2670 1.66500E+01 3.96080E+01 0.00000E+00
 -1      2671 2.04000E+01 4.09070E+01 0.00000E+00
 -1      2672 2.19000E+01 4.09070E+01 0.00000E+00
 -1      2673 1.96500E+01 3.96080E+01 0.00000E+00
 -1      2674 2.34000E+01 4.09070E+01 0.00000E+00
 -1      2675 2.49000E+01 4.09070E+01 0.00000E+00
 -1      2676 2.26500E+01 3.96080E+01 0.00000E+00
 -1      2677 2.67533E+01 4.00223E+01 0.00000E+00
 -1      2678 2.82533E+01 4.00223E+01 0.00000E+00
 -1      2679 3.22701E+01 4.06188E+01 0.00000E+00
 -1      2680 3.37701E+01 4.06188E+01 0.00000E+00
 -1      2681 3.84000E+01 4.09070E+01 0.00000E+00
 -1      2682 3.99000E+01 4.09070E+01 0.00000E+00
 -1      2683 4.14000E+01 4.09070E+01 0.00000E+00
 -1      2684 4.29000E+01 4.09070E+01 0.00000E+00
 -1      2685 4.06500E+01 3.96080E+01 0.00000E+00
 -1      2686 4.44000E+01 4.09070E+01 0.00000E+00
 -1      2687 4.59000E+01 4.09070E+01 0.00000E+00
 -1      2688 4.36500E+01 3.96080E+01 0.00000E+00
 -1      2689 4.74000E+01 4.09070E+01 0.00000E+00
 -1      2690 4.89000E+01 4.09070E+01 0.00000E+00
 -1      2691 4.66500E+01 3.96080E+01 0.00000E+00
 -1      2692 5.04000E+01 4.09070E+01 0.00000E+00
 -1      2693 5.19000E+01 4.09070E+01 0.00000E+00
 -1      2694 4.96500E+01 3.96080E+01 0.00000E+00
 -1      2695 5.34000E+01 4.09070E+01 0.00000E+00
 -1      2696 5.49000E+01 4.09070E+01 0.00000E+00
 -1      2697 5.26500E+01 3.96080E+01 0.00000E+00
 -1      2698 5.64000E+01 4.09070E+01 0.00000E+00
 -1      2699 5.79000E+01 4.09070E+01 0.00000E+00
 -1      2700 5.56500E+01 3.96080E+01 0.00000E+00
 -1      2701 5.94000E+01 4.09070E+01 0.00000E+00
 -1      2702 6.09000E+01 4.09070E+01 0.00000E+00
 -1      2703 5.86500E+01 3.96080E+01 0.00000E+00
 -1      2704 6.24000E+01 4.09070E+01 0.00000E+00
 -1      2705 6.39000E+01 4.09070E+01 0.00000E+00
 -1      2706 6.16500E+01 3.96080E+01 0.00000E+00
 -1      2707 6.54000E+01 4.09070E+01 0.00000E+00
 -1      2708 6.69000E+01 4.09070E+01 0.00000E+00
 -1      2709 6.46500E+01 3.96080E+01 0.00000E+00
 -1      2710 6.84000E+01 4.09070E+01 0.00000E+00
 -1      2711 6.99000E+01 4.09070E+01 0.00000E+00
 -1      2712 6.76500E+01 3.96080E+01 0.00000E+00
 -1      2713 7.14000E+01 4.09070E+01 0.00000E+00
 -1      2714 7.29000E+01 4.09070E+01 0.00000E+00
 -1      2715 7.06500E+01 3.96080E+01 0.00000E+00
 -1      2716 7.44000E+01 4.09070E+01 0.00000E+00
 -1      2717 7.59000E+01 4.09070E+01 0.00000E+00
 -1      2718 7.36500E+01 3.96080E+01 0.00000E+00
 -1      2719 7.74000E+01 4.09070E+01 0.00000E+00
 -1      2720 7.89000E+01 4.09070E+01 0.00000E+00
 -1      2721 7.66500E+01 3.96080E+01 0.00000E+00
 -1      2722 8.04000E+01 4.09070E+01 0.00000E+00
 -1      2723 8.19000E+01 4.09070E+01 0.00000E+00
 -1      2724 7.96500E+01 3.96080E+01 0.00000E+00
 -1      2725 8.34000E+01 4.09070E+01 0.00000E+00
 -1      2726 8.49000E+01 4.09070E+01 0.00000E+00
 -1      2727 8.26500E+01 3.96080E+01 0.00000E+00
 -1      2728 8.64000E+01 4.09070E+01 0.00000E+00
 -1      2729 8.79000E+01 4.09070E+01 0.00000E+00
 -1      2730 8.56500E+01 3.96080E+01 0.00000E+00
 -1      2731 8.94000E+01 4.09070E+01 0.00000E+00
 -1      2732 9.09000E+01 4.09070E+01 0.00000E+00
 -1      2733 8.86500E+01 3.96080E+01 0.00000E+00
 -1      2734 9.24000E+01 4.09070E+01 0.00000E+00
 -1      2735 9.39000E+01 4.09070E+01 0.00000E+00
 -1      2736 9.16500E+01 3.96080E+01 0.00000E+00
 -1      2737 9.54000E+01 4.09070E+01 0.00000E+00
 -1      2738 9.69000E+01 4.09070E+01 0.00000E+00
 -1      2739 9.46500E+01 3.96080E+01 0.00000E+00
 -1      2740 9.84000E+01 4.09070E+01 0.00000E+00
 -1      2741 9.99000E+01 4.09070E+01 0.00000E+00
 -1      2742 9.76500E+01 3.96080E+01 0.00000E+00
 -1      2743 1.01400E+02 4.09070E+01 0.00000E+00
 -1      2744 1.02900E+02 4.09070E+01 0.00000E+00
 -1      2745 1.00650E+02 3.96080E+01 0.00000E+00
 -1      2746 1.04400E+02 4.09070E+01 0.00000E+00
 -1      2747 1.05900E+02 4.09070E+01 0.00000E+00
 -1      2748 1.03650E+02 3.96080E+01 0.00000E+00
 -1      2749 1.07400E+02 4.09070E+01 0.00000E+00
 -1      2750 1.08900E+02 4.09070E+01 0.00000E+00
 -1      2751 1.06650E+02 3.96080E+01 0.00000E+00
 -1      2752 1.10400E+02 4.09070E+01 0.00000E+00
 -1      2753 1.11900E+02 4.09070E+01 0.00000E+00
 -1      2754 1.09650E+02 3.96080E+01 0.00000E+00
 -1      2755 1.13400E+02 4.09070E+01 0.00000E+00
 -1      2756 1.14900E+02 4.09070E+01 0.00000E+00
 -1      2757 1.12650E+02 3.96080E+01 0.00000E+00
 -1      2758 1.16400E+02 4.09070E+01 0.00000E+00
 -1      2759 1.17900E+02 4.09070E+01 0.00000E+00
 -1      2760 1.15650E+02 3.96080E+01 0.00000E+00
 -1      2761 1.19400E+02 4.09070E+01 0.00000E+00
 -1      2762 1.20900E+02 4.09070E+01 0.00000E+00
 -1      2763 1.18650E+02 3.96080E+01 0.00000E+00
 -1      2764 1.22400E+02 4.09070E+01 0.00000E+00
 -1      2765 1.23900E+02 4.09070E+01 0.00000E+00
 -1      2766 1.21650E+02 3.96080E+01 0.00000E+00
 -1      2767 1.25400E+02 4.09070E+01 0.00000E+00
 -1      2768 1.26900E+02 4.09070E+01 0.00000E+00
 -1      2769 1.24650E+02 3.96080E+01 0.00000E+00
 -1      2770 1.28400E+02 4.09070E+01 0.00000E+00
 -1      2771 1.29900E+02 4.09070E+01 0.00000E+00
 -1      2772 1.27650E+02 3.96080E+01 0.00000E+00
 -1      2773 1.31400E+02 4.09070E+01 0.00000E+00
 -1      2774 1.32900E+02 4.09070E+01 0.00000E+00
 -1      2775 1.30650E+02 3.96080E+01 0.00000E+00
 -1      2776 1.34400E+02 4.09070E+01 0.00000E+00
 -1      2777 1.35900E+02 4.09070E+01 0.00000E+00
 -1      2778 1.33650E+02 3.96080E+01 0.00000E+00
 -1      2779 1.37400E+02 4.09070E+01 0.00000E+00
 -1      2780 1.38900E+02 4.09070E+01 0.00000E+00
 -1      2781 1.36650E+02 3.96080E+01 0.00000E+00
 -1      2782 2.42850E+01 7.90325E+00 0.00000E+00
 -1      2783 2.27850E+01 7.90325E+00 0.00000E+00
 -1      2784 1.40706E+02 1.03250E+01 0.00000E+00
 -1      2785 1.40620E+02 8.46463E+00 0.00000E+00
 -1      2786 1.39120E+02 8.46463E+00 0.00000E+00
 -1      2787 2.12850E+01 7.90325E+00 0.00000E+00
 -1      2788 1.97850E+01 7.90325E+00 0.00000E+00
 -1      2789 2.20350E+01 9.20225E+00 0.00000E+00
 -1      2790 3.02850E+01 7.90325E+00 0.00000E+00
 -1      2791 2.87850E+01 7.90325E+00 0.00000E+00
 -1      2792 3.32850E+01 7.90325E+00 0.00000E+00
 -1      2793 3.17850E+01 7.90325E+00 0.00000E+00
 -1      2794 3.10350E+01 9.20225E+00 0.00000E+00
 -1      2795 3.62850E+01 7.90325E+00 0.00000E+00
 -1      2796 3.47850E+01 7.90325E+00 0.00000E+00
 -1      2797 3.40350E+01 9.20225E+00 0.00000E+00
 -1      2798 3.92850E+01 7.90325E+00 0.00000E+00
 -1      2799 3.77850E+01 7.90325E+00 0.00000E+00
 -1      2800 3.70350E+01 9.20225E+00 0.00000E+00
 -1      2801 4.22850E+01 7.90325E+00 0.00000E+00
 -1      2802 4.07850E+01 7.90325E+00 0.00000E+00
 -1      2803 4.00350E+01 9.20225E+00 0.00000E+00
 -1      2804 4.52850E+01 7.90325E+00 0.00000E+00
 -1      2805 4.37850E+01 7.90325E+00 0.00000E+00
 -1      2806 4.30350E+01 9.20225E+00 0.00000E+00
 -1      2807 4.82850E+01 7.90325E+00 0.00000E+00
 -1      2808 4.67850E+01 7.90325E+00 0.00000E+00
 -1      2809 4.60350E+01 9.20225E+00 0.00000E+00
 -1      2810 5.12850E+01 7.90325E+00 0.00000E+00
 -1      2811 4.97850E+01 7.90325E+00 0.00000E+00
 -1      2812 4.90350E+01 9.20225E+00 0.00000E+00
 -1      2813 5.42850E+01 7.90325E+00 0.00000E+00
 -1      2814 5.27850E+01 7.90325E+00 0.00000E+00
 -1      2815 5.20350E+01 9.20225E+00 0.00000E+00
 -1      2816 5.72850E+01 7.90325E+00 0.00000E+00
 -1      2817 5.57850E+01 7.90325E+00 0.00000E+00
 -1      2818 5.50350E+01 9.20225E+00 0.00000E+00
 -1      2819 6.02850E+01 7.90325E+00 0.00000E+00
 -1      2820 5.87850E+01 7.90325E+00 0.00000E+00
 -1      2821 5.80350E+01 9.20225E+00 0.00000E+00
 -1      2822 6.32850E+01 7.90325E+00 0.00000E+00
 -1      2823 6.17850E+01 7.90325E+00 0.00000E+00
 -1      2824 6.10350E+01 9.20225E+00 0.00000E+00
 -1      2825 6.62850E+01 7.90325E+00 0.00000E+00
 -1      2826 6.47850E+01 7.90325E+00 0.00000E+00
 -1      2827 6.40350E+01 9.20225E+00 0.00000E+00
 -1      2828 6.92850E+01 7.90325E+00 0.00000E+00
 -1      2829 6.77850E+01 7.90325E+00 0.00000E+00
 -1      2830 6.70350E+01 9.20225E+00 0.00000E+00
 -1      2831 7.22850E+01 7.90325E+00 0.00000E+00
 -1      2832 7.07850E+01 7.90325E+00 0.00000E+00
 -1      2833 7.00350E+01 9.20225E+00 0.00000E+00
 -1      2834 7.52850E+01 7.90325E+00 0.00000E+00
 -1      2835 7.37850E+01 7.90325E+00 0.00000E+00
 -1      2836 7.30350E+01 9.20225E+00 0.00000E+00
 -1      2837 7.82850E+01 7.90325E+00 0.00000E+00
 -1      2838 7.67850E+01 7.90325E+00 0.00000E+00
 -1      2839 7.60350E+01 9.20225E+00 0.00000E+00
 -1      2840 8.12850E+01 7.90325E+00 0.00000E+00
 -1      2841 7.97850E+01 7.90325E+00 0.00000E+00
 -1      2842 7.90350E+01 9.20225E+00 0.00000E+00
 -1      2843 8.42850E+01 7.90325E+00 0.00000E+00
 -1      2844 8.27850E+01 7.90325E+00 0.00000E+00
 -1      2845 8.20350E+01 9.20225E+00 0.00000E+00
 -1      2846 8.72850E+01 7.90325E+00 0.00000E+00
 -1      2847 8.57850E+01 7.90325E+00 0.00000E+00
 -1      2848 8.50350E+01 9.20225E+00 0.00000E+00
 -1      2849 9.02850E+01 7.90325E+00 0.00000E+00
 -1      2850 8.87850E+01 7.90325E+00 0.00000E+00
 -1      2851 8.80350E+01 9.20225E+00 0.00000E+00
 -1      2852 9.32850E+01 7.90325E+00 0.00000E+00
 -1      2853 9.17850E+01 7.90325E+00 0.00000E+00
 -1      2854 9.10350E+01 9.20225E+00 0.00000E+00
 -1      2855 9.62850E+01 7.90325E+00 0.00000E+00
 -1      2856 9.47850E+01 7.90325E+00 0.00000E+00
 -1      2857 9.40350E+01 9.20225E+00 0.00000E+00
 -1      2858 9.92850E+01 7.90325E+00 0.00000E+00
 -1      2859 9.77850E+01 7.90325E+00 0.00000E+00
 -1      2860 9.70350E+01 9.20225E+00 0.00000E+00
 -1      2861 1.02285E+02 7.90325E+00 0.00000E+00
 -1      2862 1.00785E+02 7.90325E+00 0.00000E+00
 -1      2863 1.00035E+02 9.20225E+00 0.00000E+00
 -1      2864 1.05285E+02 7.90325E+00 0.00000E+00
 -1      2865 1.03785E+02 7.90325E+00 0.00000E+00
 -1      2866 1.03035E+02 9.20225E+00 0.00000E+00
 -1      2867 1.08285E+02 7.90325E+00 0.00000E+00
 -1      2868 1.06785E+02 7.90325E+00 0.00000E+00
 -1      2869 1.06035E+02 9.20225E+00 0.00000E+00
 -1      2870 1.11285E+02 7.90325E+00 0.00000E+00
 -1      2871 1.09785E+02 7.90325E+00 0.00000E+00
 -1      2872 1.09035E+02 9.20225E+00 0.00000E+00
 -1      2873 1.14285E+02 7.90325E+00 0.00000E+00
 -1      2874 1.12785E+02 7.90325E+00 0.00000E+00
 -1      2875 1.12035E+02 9.20225E+00 0.00000E+00
 -1      2876 1.17285E+02 7.90325E+00 0.00000E+00
 -1      2877 1.15785E+02 7.90325E+00 0.00000E+00
 -1      2878 1.15035E+02 9.20225E+00 0.00000E+00
 -1      2879 1.20285E+02 7.90325E+00 0.00000E+00
 -1      2880 1.18785E+02 7.90325E+00 0.00000E+00
 -1      2881 1.18035E+02 9.20225E+00 0.00000E+00
 -1      2882 1.23285E+02 7.90325E+00 0.00000E+00
 -1      2883 1.21785E+02 7.90325E+00 0.00000E+00
 -1      2884 1.21035E+02 9.20225E+00 0.00000E+00
 -1      2885 1.26285E+02 7.90325E+00 0.00000E+00
 -1      2886 1.24785E+02 7.90325E+00 0.00000E+00
 -1      2887 1.24035E+02 9.20225E+00 0.00000E+00
 -1      2888 1.29285E+02 7.90325E+00 0.00000E+00
 -1      2889 1.27785E+02 7.90325E+00 0.00000E+00
 -1      2890 1.27035E+02 9.20225E+00 0.00000E+00
 -1      2891 1.32285E+02 7.90325E+00 0.00000E+00
 -1      2892 1.30785E+02 7.90325E+00 0.00000E+00
 -1      2893 1.30035E+02 9.20225E+00 0.00000E+00
 -1      2894 1.35285E+02 7.90325E+00 0.00000E+00
 -1      2895 1.33785E+02 7.90325E+00 0.00000E+00
 -1      2896 1.33035E+02 9.20225E+00 0.00000E+00
 -1      2897 1.37953E+02 8.18394E+00 0.00000E+00
 -1      2898 1.36453E+02 8.18394E+00 0.00000E+00
 -1      2899 1.35703E+02 9.48294E+00 0.00000E+00
 -1      2900 1.38038E+02 1.00443E+01 0.00000E+00
 -1      2901 1.40907E+02 2.42875E+01 0.00000E+00
 -1      2902 1.40907E+02 2.28125E+01 0.00000E+00
 -1      2903 1.39914E+02 4.09362E+01 0.00000E+00
 -1      2904 1.40928E+02 4.09655E+01 0.00000E+00
 -1      2905 1.39164E+02 3.96372E+01 0.00000E+00
 -1      2906 1.40907E+02 1.83875E+01 0.00000E+00
 -1      2907 1.40907E+02 1.69125E+01 0.00000E+00
 -1      2908 1.40907E+02 2.72375E+01 0.00000E+00
 -1      2909 1.40907E+02 2.57625E+01 0.00000E+00
 -1      2910 1.39608E+02 2.50250E+01 0.00000E+00
 -1      2911 1.40907E+02 2.13375E+01 0.00000E+00
 -1      2912 1.40907E+02 1.98625E+01 0.00000E+00
 -1      2913 1.39608E+02 1.91250E+01 0.00000E+00
 -1      2914 1.39608E+02 2.20750E+01 0.00000E+00
 -1      2915 4.25276E+01 1.90523E+01 0.00000E+00
 -1      2916 4.31516E+01 1.98669E+01 0.00000E+00
 -1      2917 1.40907E+02 3.01375E+01 0.00000E+00
 -1      2918 1.40907E+02 2.86875E+01 0.00000E+00
 -1      2919 1.39608E+02 2.79500E+01 0.00000E+00
 -1      2920 1.40907E+02 3.30875E+01 0.00000E+00
 -1      2921 1.40907E+02 3.16125E+01 0.00000E+00
 -1      2922 1.39608E+02 3.08750E+01 0.00000E+00
 -1      2923 1.40907E+02 3.60375E+01 0.00000E+00
 -1      2924 1.40907E+02 3.45625E+01 0.00000E+00
 -1      2925 1.39608E+02 3.38250E+01 0.00000E+00
 -1      2926 1.82850E+01 7.90325E+00 0.00000E+00
 -1      2927 1.67850E+01 7.90325E+00 0.00000E+00
 -1      2928 1.90350E+01 9.20225E+00 0.00000E+00
 -1      2929 2.15800E+01 3.10120E+01 0.00000E+00
 -1      2930 2.12139E+01 2.98090E+01 0.00000E+00
 -1      2931 4.45793E+01 2.38462E+01 0.00000E+00
 -1      2932 4.47033E+01 2.48993E+01 0.00000E+00
 -1      2933 4.37260E+01 2.10771E+01 0.00000E+00
 -1      2934 4.43005E+01 2.22873E+01 0.00000E+00
 -1      2935 4.43608E+01 1.99445E+01 0.00000E+00
 -1      2936 8.85168E+00 4.05347E+01 0.00000E+00
 -1      2937 1.02152E+01 4.07987E+01 0.00000E+00
 -1      2938 2.06592E+01 2.58738E+01 0.00000E+00
 -1      2939 2.10343E+01 2.47921E+01 0.00000E+00
 -1      2940 2.18784E+01 2.12065E+01 0.00000E+00
 -1      2941 2.25039E+01 1.99959E+01 0.00000E+00
 -1      2942 2.72850E+01 7.90325E+00 0.00000E+00
 -1      2943 2.57850E+01 7.90325E+00 0.00000E+00
 -1      2944 2.50350E+01 9.20225E+00 0.00000E+00
 -1      2945 2.80350E+01 9.20225E+00 0.00000E+00
 -1      2946 1.15576E+01 4.08528E+01 0.00000E+00
 -1      2947 1.30576E+01 4.08528E+01 0.00000E+00
 -1      2948 1.38076E+01 3.95538E+01 0.00000E+00
 -1      2949 1.11228E+01 3.94455E+01 0.00000E+00
 -1      2950 3.88088E+01 3.76854E+01 0.00000E+00
 -1      2951 3.75649E+01 3.81456E+01 0.00000E+00
 -1      2952 1.52850E+01 7.90325E+00 0.00000E+00
 -1      2953 1.37850E+01 7.90325E+00 0.00000E+00
 -1      2954 1.30350E+01 9.20225E+00 0.00000E+00
 -1      2955 1.60350E+01 9.20225E+00 0.00000E+00
 -1      2956 4.43410E+01 3.14755E+01 0.00000E+00
 -1      2957 4.38416E+01 3.28087E+01 0.00000E+00
 -1      2958 4.55283E+01 3.13344E+01 0.00000E+00
 -1      2959 9.09300E+00 1.68813E+01 0.00000E+00
 -1      2960 9.09300E+00 1.83563E+01 0.00000E+00
 -1      2961 1.03920E+01 1.90812E+01 0.00000E+00
 -1      2962 1.03920E+01 1.61437E+01 0.00000E+00
 -1      2963 3.07656E+01 1.45446E+01 0.00000E+00
 -1      2964 3.17935E+01 1.45833E+01 0.00000E+00
 -1      2965 2.26262E+01 3.34065E+01 0.00000E+00
 -1      2966 2.20139E+01 3.23999E+01 0.00000E+00
 -1      2967 9.09300E+00 3.15875E+01 0.00000E+00
 -1      2968 9.09300E+00 3.30625E+01 0.00000E+00
 -1      2969 3.08054E+01 3.85640E+01 0.00000E+00
 -1      2970 2.98112E+01 3.83534E+01 0.00000E+00
 -1      2971 2.34159E+01 1.88523E+01 0.00000E+00
 -1      2972 2.41028E+01 1.81870E+01 0.00000E+00
 -1      2973 2.11773E+01 2.36398E+01 0.00000E+00
 -1      2974 2.13203E+01 2.24874E+01 0.00000E+00
 -1      2975 2.00212E+01 2.38448E+01 0.00000E+00
 -1      2976 2.07406E+01 2.85936E+01 0.00000E+00
 -1      2977 2.05351E+01 2.74900E+01 0.00000E+00
 -1      2978 8.91450E+00 8.42712E+00 0.00000E+00
 -1      2979 7.48818E+00 3.88019E+01 0.00000E+00
 -1      2980 2.41354E+01 3.50164E+01 0.00000E+00
 -1      2981 2.34934E+01 3.43071E+01 0.00000E+00
 -1      2982 3.53286E+01 1.54959E+01 0.00000E+00
 -1      2983 3.65272E+01 1.56513E+01 0.00000E+00
 -1      2984 3.60648E+01 3.85381E+01 0.00000E+00
 -1      2985 3.48243E+01 3.85904E+01 0.00000E+00
 -1      2986 1.41192E+02 3.96958E+01 0.00000E+00
 -1      2987 4.27120E+01 3.40416E+01 0.00000E+00
 -1      2988 4.16940E+01 3.49382E+01 0.00000E+00
 -1      2989 2.51650E+01 1.71694E+01 0.00000E+00
 -1      2990 2.62272E+01 1.61518E+01 0.00000E+00
 -1      2991 2.41666E+01 1.68259E+01 0.00000E+00
 -1      2992 9.09300E+00 3.45313E+01 0.00000E+00
 -1      2993 9.09300E+00 3.60000E+01 0.00000E+00
 -1      2994 1.03920E+01 3.37938E+01 0.00000E+00
 -1      2995 1.03920E+01 2.49750E+01 0.00000E+00
 -1      2996 9.09300E+00 2.57000E+01 0.00000E+00
 -1      2997 9.09300E+00 2.71750E+01 0.00000E+00
 -1      2998 4.23796E+01 1.82344E+01 0.00000E+00
 -1      2999 3.73461E+01 1.55400E+01 0.00000E+00
 -1      3000 3.81649E+01 1.54286E+01 0.00000E+00
 -1      3001 3.68516E+01 1.46534E+01 0.00000E+00
 -1      3002 2.66846E+01 1.52413E+01 0.00000E+00
 -1      3003 2.71419E+01 1.43308E+01 0.00000E+00
 -1      3004 2.56862E+01 1.48978E+01 0.00000E+00
 -1      3005 3.41872E+01 3.92682E+01 0.00000E+00
 -1      3006 3.98160E+01 1.70249E+01 0.00000E+00
 -1      3007 4.07783E+01 1.68522E+01 0.00000E+00
 -1      3008 3.96216E+01 1.61425E+01 0.00000E+00
 -1      3009 3.24946E+01 1.41369E+01 0.00000E+00
 -1      3010 3.69843E+01 3.91123E+01 0.00000E+00
 -1      3011 2.60033E+01 3.87233E+01 0.00000E+00
 -1      3012 3.50671E+01 4.08554E+01 0.00000E+00
 -1      3013 2.93989E+01 4.07108E+01 0.00000E+00
 -1      3014 3.08989E+01 4.07108E+01 0.00000E+00
 -1      3015 3.65671E+01 4.08554E+01 0.00000E+00
 -1      3016 1.39608E+02 1.61875E+01 0.00000E+00
 -1      3017 1.40907E+02 1.54500E+01 0.00000E+00
 -1      3018 1.40907E+02 1.39875E+01 0.00000E+00
 -1      3019 2.01033E+01 2.94448E+01 0.00000E+00
 -1      3020 2.21924E+01 1.89871E+01 0.00000E+00
 -1      3021 4.19995E+01 3.59419E+01 0.00000E+00
 -1      3022 1.40706E+02 1.17875E+01 0.00000E+00
 -1      3023 2.67522E+01 3.70995E+01 0.00000E+00
 -1      3024 4.53755E+01 2.56813E+01 0.00000E+00
 -1      3025 4.50867E+01 3.37595E+01 0.00000E+00
 -1      3026 4.38994E+01 3.39006E+01 0.00000E+00
 -1      3027 4.39571E+01 3.49924E+01 0.00000E+00
 -1      3028 1.41192E+02 3.82207E+01 0.00000E+00
 -1      3029 9.66450E+00 9.72612E+00 0.00000E+00
 -1      3030 1.09635E+01 1.04636E+01 0.00000E+00
 -1      3031 2.07223E+01 2.14115E+01 0.00000E+00
 -1      3032 1.97541E+01 2.66133E+01 0.00000E+00
 -1      3033 2.10104E+01 3.20481E+01 0.00000E+00
 -1      3034 2.23114E+01 3.43366E+01 0.00000E+00
 -1      3035 2.46910E+01 3.65811E+01 0.00000E+00
 -1      3036 2.44132E+01 3.57987E+01 0.00000E+00
 -1      3037 2.34564E+01 3.60195E+01 0.00000E+00
 -1      3038 8.78718E+00 3.80644E+01 0.00000E+00
 -1      3039 2.90022E+01 3.85272E+01 0.00000E+00
 -1      3040 4.56429E+01 2.85456E+01 0.00000E+00
 -1      3041 9.09300E+00 2.86437E+01 0.00000E+00
 -1      3042 9.09300E+00 3.01187E+01 0.00000E+00
 -1      3043 1.03920E+01 3.08563E+01 0.00000E+00
 -1      3044 1.03920E+01 2.79188E+01 0.00000E+00
 -1      3045 3.15190E+01 3.91236E+01 0.00000E+00
 -1      3046 2.97308E+01 1.40651E+01 0.00000E+00
 -1      3047 3.02865E+01 1.29763E+01 0.00000E+00
 -1      3048 2.86960E+01 1.35855E+01 0.00000E+00
 -1      3049 3.48503E+01 1.47913E+01 0.00000E+00
 -1      3050 1.39529E+02 3.85602E+01 0.00000E+00
 -1      3051 1.40542E+02 3.71145E+01 0.00000E+00
 -1      3052 1.39243E+02 3.63770E+01 0.00000E+00
 -1      3053 1.38514E+02 3.85310E+01 0.00000E+00
 -1      3054 1.16910E+01 1.24625E+01 0.00000E+00
 -1      3055 1.16910E+01 1.39375E+01 0.00000E+00
 -1      3056 4.65811E+01 3.09686E+01 0.00000E+00
 -1      3057 4.60817E+01 3.23018E+01 0.00000E+00
 -1      3058 3.98568E+01 3.77351E+01 0.00000E+00
 -1      3059 2.28684E+01 1.65339E+01 0.00000E+00
 -1      3060 2.39306E+01 1.55163E+01 0.00000E+00
 -1      3061 1.89000E+01 3.83090E+01 0.00000E+00
 -1      3062 2.04000E+01 3.83090E+01 0.00000E+00
 -1      3063 2.24421E+01 3.82049E+01 0.00000E+00
 -1      3064 2.39421E+01 3.82049E+01 0.00000E+00
 -1      3065 4.29000E+01 3.83315E+01 0.00000E+00
 -1      3066 4.44000E+01 3.83315E+01 0.00000E+00
 -1      3067 4.89000E+01 3.83090E+01 0.00000E+00
 -1      3068 5.04000E+01 3.83090E+01 0.00000E+00
 -1      3069 5.19000E+01 3.83090E+01 0.00000E+00
 -1      3070 5.34000E+01 3.83090E+01 0.00000E+00
 -1      3071 5.11500E+01 3.70100E+01 0.00000E+00
 -1      3072 5.49000E+01 3.83090E+01 0.00000E+00
 -1      3073 5.64000E+01 3.83090E+01 0.00000E+00
 -1      3074 5.41500E+01 3.70100E+01 0.00000E+00
 -1      3075 5.79000E+01 3.83090E+01 0.00000E+00
 -1      3076 5.94000E+01 3.83090E+01 0.00000E+00
 -1      3077 5.71500E+01 3.70100E+01 0.00000E+00
 -1      3078 6.09000E+01 3.83090E+01 0.00000E+00
 -1      3079 6.24000E+01 3.83090E+01 0.00000E+00
 -1      3080 6.01500E+01 3.70100E+01 0.00000E+00
 -1      3081 6.39000E+01 3.83090E+01 0.00000E+00
 -1      3082 6.54000E+01 3.83090E+01 0.00000E+00
 -1      3083 6.31500E+01 3.70100E+01 0.00000E+00
 -1      3084 6.69000E+01 3.83090E+01 0.00000E+00
 -1      3085 6.84000E+01 3.83090E+01 0.00000E+00
 -1      3086 6.61500E+01 3.70100E+01 0.00000E+00
 -1      3087 6.99000E+01 3.83090E+01 0.00000E+00
 -1      3088 7.14000E+01 3.83090E+01 0.00000E+00
 -1      3089 6.91500E+01 3.70100E+01 0.00000E+00
 -1      3090 7.29000E+01 3.83090E+01 0.00000E+00
 -1      3091 7.44000E+01 3.83090E+01 0.00000E+00
 -1      3092 7.21500E+01 3.70100E+01 0.00000E+00
 -1      3093 7.59000E+01 3.83090E+01 0.00000E+00
 -1      3094 7.74000E+01 3.83090E+01 0.00000E+00
 -1      3095 7.51500E+01 3.70100E+01 0.00000E+00
 -1      3096 7.89000E+01 3.83090E+01 0.00000E+00
 -1      3097 8.04000E+01 3.83090E+01 0.00000E+00
 -1      3098 7.81500E+01 3.70100E+01 0.00000E+00
 -1      3099 8.19000E+01 3.83090E+01 0.00000E+00
 -1      3100 8.34000E+01 3.83090E+01 0.00000E+00
 -1      3101 8.11500E+01 3.70100E+01 0.00000E+00
 -1      3102 8.49000E+01 3.83090E+01 0.00000E+00
 -1      3103 8.64000E+01 3.83090E+01 0.00000E+00
 -1      3104 8.41500E+01 3.70100E+01 0.00000E+00
 -1      3105 8.79000E+01 3.83090E+01 0.00000E+00
 -1      3106 8.94000E+01 3.83090E+01 0.00000E+00
 -1      3107 8.71500E+01 3.70100E+01 0.00000E+00
 -1      3108 9.09000E+01 3.83090E+01 0.00000E+00
 -1      3109 9.24000E+01 3.83090E+01 0.00000E+00
 -1      3110 9.01500E+01 3.70100E+01 0.00000E+00
 -1      3111 9.39000E+01 3.83090E+01 0.00000E+00
 -1      3112 9.54000E+01 3.83090E+01 0.00000E+00
 -1      3113 9.31500E+01 3.70100E+01 0.00000E+00
 -1      3114 9.69000E+01 3.83090E+01 0.00000E+00
 -1      3115 9.84000E+01 3.83090E+01 0.00000E+00
 -1      3116 9.61500E+01 3.70100E+01 0.00000E+00
 -1      3117 9.99000E+01 3.83090E+01 0.00000E+00
 -1      3118 1.01400E+02 3.83090E+01 0.00000E+00
 -1      3119 9.91500E+01 3.70100E+01 0.00000E+00
 -1      3120 1.02900E+02 3.83090E+01 0.00000E+00
 -1      3121 1.04400E+02 3.83090E+01 0.00000E+00
 -1      3122 1.02150E+02 3.70100E+01 0.00000E+00
 -1      3123 1.05900E+02 3.83090E+01 0.00000E+00
 -1      3124 1.07400E+02 3.83090E+01 0.00000E+00
 -1      3125 1.05150E+02 3.70100E+01 0.00000E+00
 -1      3126 1.08900E+02 3.83090E+01 0.00000E+00
 -1      3127 1.10400E+02 3.83090E+01 0.00000E+00
 -1      3128 1.08150E+02 3.70100E+01 0.00000E+00
 -1      3129 1.11900E+02 3.83090E+01 0.00000E+00
 -1      3130 1.13400E+02 3.83090E+01 0.00000E+00
 -1      3131 1.11150E+02 3.70100E+01 0.00000E+00
 -1      3132 1.14900E+02 3.83090E+01 0.00000E+00
 -1      3133 1.16400E+02 3.83090E+01 0.00000E+00
 -1      3134 1.14150E+02 3.70100E+01 0.00000E+00
 -1      3135 1.17900E+02 3.83090E+01 0.00000E+00
 -1      3136 1.19400E+02 3.83090E+01 0.00000E+00
 -1      3137 1.17150E+02 3.70100E+01 0.00000E+00
 -1      3138 1.20900E+02 3.83090E+01 0.00000E+00
 -1      3139 1.22400E+02 3.83090E+01 0.00000E+00
 -1      3140 1.20150E+02 3.70100E+01 0.00000E+00
 -1      3141 1.23900E+02 3.83090E+01 0.00000E+00
 -1      3142 1.25400E+02 3.83090E+01 0.00000E+00
 -1      3143 1.23150E+02 3.70100E+01 0.00000E+00
 -1      3144 1.26900E+02 3.83090E+01 0.00000E+00
 -1      3145 1.28400E+02 3.83090E+01 0.00000E+00
 -1      3146 1.26150E+02 3.70100E+01 0.00000E+00
 -1      3147 1.29900E+02 3.83090E+01 0.00000E+00
 -1      3148 1.31400E+02 3.83090E+01 0.00000E+00
 -1      3149 1.29150E+02 3.70100E+01 0.00000E+00
 -1      3150 1.32900E+02 3.83090E+01 0.00000E+00
 -1      3151 1.34400E+02 3.83090E+01 0.00000E+00
 -1      3152 1.32150E+02 3.70100E+01 0.00000E+00
 -1      3153 1.35707E+02 3.84200E+01 0.00000E+00
 -1      3154 1.37207E+02 3.84200E+01 0.00000E+00
 -1      3155 1.37572E+02 3.73430E+01 0.00000E+00
 -1      3156 1.34957E+02 3.71210E+01 0.00000E+00
 -1      3157 2.27850E+01 1.05013E+01 0.00000E+00
 -1      3158 2.12850E+01 1.05013E+01 0.00000E+00
 -1      3159 1.89324E+01 2.42947E+01 0.00000E+00
 -1      3160 1.90753E+01 2.31423E+01 0.00000E+00
 -1      3161 3.47850E+01 1.05013E+01 0.00000E+00
 -1      3162 3.32850E+01 1.05013E+01 0.00000E+00
 -1      3163 3.08933E+01 1.08495E+01 0.00000E+00
 -1      3164 2.93933E+01 1.08495E+01 0.00000E+00
 -1      3165 4.07850E+01 1.05013E+01 0.00000E+00
 -1      3166 3.92850E+01 1.05013E+01 0.00000E+00
 -1      3167 4.37850E+01 1.05013E+01 0.00000E+00
 -1      3168 4.22850E+01 1.05013E+01 0.00000E+00
 -1      3169 4.15350E+01 1.18003E+01 0.00000E+00
 -1      3170 4.67850E+01 1.05013E+01 0.00000E+00
 -1      3171 4.52850E+01 1.05013E+01 0.00000E+00
 -1      3172 4.45350E+01 1.18003E+01 0.00000E+00
 -1      3173 4.97850E+01 1.05013E+01 0.00000E+00
 -1      3174 4.82850E+01 1.05013E+01 0.00000E+00
 -1      3175 4.75350E+01 1.18003E+01 0.00000E+00
 -1      3176 5.27850E+01 1.05013E+01 0.00000E+00
 -1      3177 5.12850E+01 1.05013E+01 0.00000E+00
 -1      3178 5.05350E+01 1.18003E+01 0.00000E+00
 -1      3179 5.57850E+01 1.05013E+01 0.00000E+00
 -1      3180 5.42850E+01 1.05013E+01 0.00000E+00
 -1      3181 5.35350E+01 1.18003E+01 0.00000E+00
 -1      3182 5.87850E+01 1.05013E+01 0.00000E+00
 -1      3183 5.72850E+01 1.05013E+01 0.00000E+00
 -1      3184 5.65350E+01 1.18003E+01 0.00000E+00
 -1      3185 6.17850E+01 1.05013E+01 0.00000E+00
 -1      3186 6.02850E+01 1.05013E+01 0.00000E+00
 -1      3187 5.95350E+01 1.18003E+01 0.00000E+00
 -1      3188 6.47850E+01 1.05013E+01 0.00000E+00
 -1      3189 6.32850E+01 1.05013E+01 0.00000E+00
 -1      3190 6.25350E+01 1.18003E+01 0.00000E+00
 -1      3191 6.77850E+01 1.05013E+01 0.00000E+00
 -1      3192 6.62850E+01 1.05013E+01 0.00000E+00
 -1      3193 6.55350E+01 1.18003E+01 0.00000E+00
 -1      3194 7.07850E+01 1.05013E+01 0.00000E+00
 -1      3195 6.92850E+01 1.05013E+01 0.00000E+00
 -1      3196 6.85350E+01 1.18003E+01 0.00000E+00
 -1      3197 7.37850E+01 1.05013E+01 0.00000E+00
 -1      3198 7.22850E+01 1.05013E+01 0.00000E+00
 -1      3199 7.15350E+01 1.18003E+01 0.00000E+00
 -1      3200 7.67850E+01 1.05013E+01 0.00000E+00
 -1      3201 7.52850E+01 1.05013E+01 0.00000E+00
 -1      3202 7.45350E+01 1.18003E+01 0.00000E+00
 -1      3203 7.97850E+01 1.05013E+01 0.00000E+00
 -1      3204 7.82850E+01 1.05013E+01 0.00000E+00
 -1      3205 7.75350E+01 1.18003E+01 0.00000E+00
 -1      3206 8.27850E+01 1.05013E+01 0.00000E+00
 -1      3207 8.12850E+01 1.05013E+01 0.00000E+00
 -1      3208 8.05350E+01 1.18003E+01 0.00000E+00
 -1      3209 8.57850E+01 1.05013E+01 0.00000E+00
 -1      3210 8.42850E+01 1.05013E+01 0.00000E+00
 -1      3211 8.35350E+01 1.18003E+01 0.00000E+00
 -1      3212 8.87850E+01 1.05013E+01 0.00000E+00
 -1      3213 8.72850E+01 1.05013E+01 0.00000E+00
 -1      3214 8.65350E+01 1.18003E+01 0.00000E+00
 -1      3215 9.17850E+01 1.05013E+01 0.00000E+00
 -1      3216 9.02850E+01 1.05013E+01 0.00000E+00
 -1      3217 8.95350E+01 1.18003E+01 0.00000E+00
 -1      3218 9.47850E+01 1.05013E+01 0.00000E+00
 -1      3219 9.32850E+01 1.05013E+01 0.00000E+00
 -1      3220 9.25350E+01 1.18003E+01 0.00000E+00
 -1      3221 9.77850E+01 1.05013E+01 0.00000E+00
 -1      3222 9.62850E+01 1.05013E+01 0.00000E+00
 -1      3223 9.55350E+01 1.18003E+01 0.00000E+00
 -1      3224 1.00785E+02 1.05013E+01 0.00000E+00
 -1      3225 9.92850E+01 1.05013E+01 0.00000E+00
 -1      3226 9.85350E+01 1.18003E+01 0.00000E+00
 -1      3227 1.03785E+02 1.05013E+01 0.00000E+00
 -1      3228 1.02285E+02 1.05013E+01 0.00000E+00
 -1      3229 1.01535E+02 1.18003E+01 0.00000E+00
 -1      3230 1.06785E+02 1.05013E+01 0.00000E+00
 -1      3231 1.05285E+02 1.05013E+01 0.00000E+00
 -1      3232 1.04535E+02 1.18003E+01 0.00000E+00
 -1      3233 1.09785E+02 1.05013E+01 0.00000E+00
 -1      3234 1.08285E+02 1.05013E+01 0.00000E+00
 -1      3235 1.07535E+02 1.18003E+01 0.00000E+00
 -1      3236 1.12785E+02 1.05013E+01 0.00000E+00
 -1      3237 1.11285E+02 1.05013E+01 0.00000E+00
 -1      3238 1.10535E+02 1.18003E+01 0.00000E+00
 -1      3239 1.15785E+02 1.05013E+01 0.00000E+00
 -1      3240 1.14285E+02 1.05013E+01 0.00000E+00
 -1      3241 1.13535E+02 1.18003E+01 0.00000E+00
 -1      3242 1.18785E+02 1.05013E+01 0.00000E+00
 -1      3243 1.17285E+02 1.05013E+01 0.00000E+00
 -1      3244 1.16535E+02 1.18003E+01 0.00000E+00
 -1      3245 1.21785E+02 1.05013E+01 0.00000E+00
 -1      3246 1.20285E+02 1.05013E+01 0.00000E+00
 -1      3247 1.19535E+02 1.18003E+01 0.00000E+00
 -1      3248 1.24785E+02 1.05013E+01 0.00000E+00
 -1      3249 1.23285E+02 1.05013E+01 0.00000E+00
 -1      3250 1.22535E+02 1.18003E+01 0.00000E+00
 -1      3251 1.27785E+02 1.05013E+01 0.00000E+00
 -1      3252 1.26285E+02 1.05013E+01 0.00000E+00
 -1      3253 1.25535E+02 1.18003E+01 0.00000E+00
 -1      3254 1.30785E+02 1.05013E+01 0.00000E+00
 -1      3255 1.29285E+02 1.05013E+01 0.00000E+00
 -1      3256 1.28535E+02 1.18003E+01 0.00000E+00
 -1      3257 1.33785E+02 1.05013E+01 0.00000E+00
 -1      3258 1.32285E+02 1.05013E+01 0.00000E+00
 -1      3259 1.31535E+02 1.18003E+01 0.00000E+00
 -1      3260 1.16910E+01 2.12875E+01 0.00000E+00
 -1      3261 1.16910E+01 2.27625E+01 0.00000E+00
 -1      3262 1.38309E+02 2.57625E+01 0.00000E+00
 -1      3263 1.38309E+02 2.42875E+01 0.00000E+00
 -1      3264 1.38309E+02 3.45625E+01 0.00000E+00
 -1      3265 1.38309E+02 3.30875E+01 0.00000E+00
 -1      3266 1.38309E+02 2.86625E+01 0.00000E+00
 -1      3267 1.38309E+02 2.72125E+01 0.00000E+00
 -1      3268 1.37010E+02 2.64750E+01 0.00000E+00
 -1      3269 1.97850E+01 1.05013E+01 0.00000E+00
 -1      3270 1.82850E+01 1.05013E+01 0.00000E+00
 -1      3271 2.05350E+01 1.18003E+01 0.00000E+00
 -1      3272 1.94266E+01 2.16090E+01 0.00000E+00
 -1      3273 1.99847E+01 2.03281E+01 0.00000E+00
 -1      3274 4.50754E+01 1.88639E+01 0.00000E+00
 -1      3275 4.56498E+01 2.00741E+01 0.00000E+00
 -1      3276 4.52141E+01 2.27136E+01 0.00000E+00
 -1      3277 1.38309E+02 3.16125E+01 0.00000E+00
 -1      3278 1.38309E+02 3.01375E+01 0.00000E+00
 -1      3279 1.37010E+02 2.94000E+01 0.00000E+00
 -1      3280 1.37010E+02 3.23500E+01 0.00000E+00
 -1      3281 2.01689E+01 3.30729E+01 0.00000E+00
 -1      3282 1.97351E+01 3.16850E+01 0.00000E+00
 -1      3283 3.77850E+01 1.05013E+01 0.00000E+00
 -1      3284 3.62850E+01 1.05013E+01 0.00000E+00
 -1      3285 3.55350E+01 1.18003E+01 0.00000E+00
 -1      3286 3.85350E+01 1.18003E+01 0.00000E+00
 -1      3287 4.32099E+01 3.60942E+01 0.00000E+00
 -1      3288 4.24396E+01 3.69027E+01 0.00000E+00
 -1      3289 4.20473E+01 1.69396E+01 0.00000E+00
 -1      3290 4.34542E+01 1.74394E+01 0.00000E+00
 -1      3291 1.92618E+01 3.04696E+01 0.00000E+00
 -1      3292 1.87886E+01 2.92542E+01 0.00000E+00
 -1      3293 1.84204E+01 3.14944E+01 0.00000E+00
 -1      3294 1.59000E+01 3.83090E+01 0.00000E+00
 -1      3295 1.74000E+01 3.83090E+01 0.00000E+00
 -1      3296 1.81500E+01 3.70100E+01 0.00000E+00
 -1      3297 2.14143E+01 3.61236E+01 0.00000E+00
 -1      3298 2.05471E+01 3.52230E+01 0.00000E+00
 -1      3299 4.64415E+01 2.75559E+01 0.00000E+00
 -1      3300 4.68263E+01 2.90114E+01 0.00000E+00
 -1      3301 1.39407E+02 1.25250E+01 0.00000E+00
 -1      3302 1.85864E+01 2.73365E+01 0.00000E+00
 -1      3303 1.87105E+01 2.57203E+01 0.00000E+00
 -1      3304 4.66764E+01 2.47382E+01 0.00000E+00
 -1      3305 4.65590E+01 2.61471E+01 0.00000E+00
 -1      3306 4.77425E+01 2.66128E+01 0.00000E+00
 -1      3307 2.08694E+01 1.88674E+01 0.00000E+00
 -1      3308 2.17814E+01 1.77239E+01 0.00000E+00
 -1      3309 1.00862E+01 3.73269E+01 0.00000E+00
 -1      3310 1.26488E+01 1.02017E+01 0.00000E+00
 -1      3311 1.20772E+01 1.14631E+01 0.00000E+00
 -1      3312 1.33763E+01 1.22006E+01 0.00000E+00
 -1      3313 1.41488E+01 1.02017E+01 0.00000E+00
 -1      3314 3.38515E+01 1.33091E+01 0.00000E+00
 -1      3315 3.50339E+01 1.32825E+01 0.00000E+00
 -1      3316 3.26781E+01 1.26281E+01 0.00000E+00
 -1      3317 4.61187E+01 2.16204E+01 0.00000E+00
 -1      3318 4.63976E+01 2.31793E+01 0.00000E+00
 -1      3319 4.75811E+01 2.36451E+01 0.00000E+00
 -1      3320 1.16910E+01 2.42375E+01 0.00000E+00
 -1      3321 1.16910E+01 2.57125E+01 0.00000E+00
 -1      3322 1.29900E+01 2.35000E+01 0.00000E+00
 -1      3323 2.76976E+01 1.32421E+01 0.00000E+00
 -1      3324 4.71922E+01 3.30278E+01 0.00000E+00
 -1      3325 4.61395E+01 3.33937E+01 0.00000E+00
 -1      3326 4.61972E+01 3.44855E+01 0.00000E+00
 -1      3327 1.16910E+01 1.83500E+01 0.00000E+00
 -1      3328 1.16910E+01 1.98188E+01 0.00000E+00
 -1      3329 1.29900E+01 2.05562E+01 0.00000E+00
 -1      3330 3.65339E+01 1.32825E+01 0.00000E+00
 -1      3331 3.73527E+01 1.31711E+01 0.00000E+00
 -1      3332 2.15454E+01 1.64143E+01 0.00000E+00
 -1      3333 3.91272E+01 1.52559E+01 0.00000E+00
 -1      3334 4.00894E+01 1.50833E+01 0.00000E+00
 -1      3335 3.86327E+01 1.43693E+01 0.00000E+00
 -1      3336 4.16896E+01 3.81792E+01 0.00000E+00
 -1      3337 2.48989E+01 3.79841E+01 0.00000E+00
 -1      3338 1.77647E+01 2.50179E+01 0.00000E+00
 -1      3339 3.80672E+01 4.04629E+01 0.00000E+00
 -1      3340 1.32152E+01 3.82007E+01 0.00000E+00
 -1      3341 1.45576E+01 3.82548E+01 0.00000E+00
 -1      3342 1.53076E+01 3.69558E+01 0.00000E+00
 -1      3343 1.38309E+02 1.69188E+01 0.00000E+00
 -1      3344 1.38309E+02 1.54563E+01 0.00000E+00
 -1      3345 1.95738E+01 1.90649E+01 0.00000E+00
 -1      3346 4.59000E+01 3.83090E+01 0.00000E+00
 -1      3347 4.74000E+01 3.83090E+01 0.00000E+00
 -1      3348 1.38309E+02 1.83937E+01 0.00000E+00
 -1      3349 1.37010E+02 1.76625E+01 0.00000E+00
 -1      3350 1.38309E+02 1.98687E+01 0.00000E+00
 -1      3351 4.51500E+01 3.70325E+01 0.00000E+00
 -1      3352 1.14286E+01 3.73811E+01 0.00000E+00
 -1      3353 1.83378E+01 2.20589E+01 0.00000E+00
 -1      3354 3.19281E+01 1.13291E+01 0.00000E+00
 -1      3355 2.78933E+01 1.08495E+01 0.00000E+00
 -1      3356 1.34953E+02 1.07819E+01 0.00000E+00
 -1      3357 1.34203E+02 1.20809E+01 0.00000E+00
 -1      3358 1.36120E+02 1.10626E+01 0.00000E+00
 -1      3359 1.29900E+01 1.46687E+01 0.00000E+00
 -1      3360 1.16910E+01 1.54063E+01 0.00000E+00
 -1      3361 1.16910E+01 1.68750E+01 0.00000E+00
 -1      3362 1.38309E+02 2.28156E+01 0.00000E+00
 -1      3363 1.38309E+02 2.13406E+01 0.00000E+00
 -1      3364 1.37010E+02 2.06094E+01 0.00000E+00
 -1      3365 1.37010E+02 2.35531E+01 0.00000E+00
 -1      3366 4.68333E+01 2.05399E+01 0.00000E+00
 -1      3367 4.43972E+01 3.59532E+01 0.00000E+00
 -1      3368 4.18530E+01 1.60572E+01 0.00000E+00
 -1      3369 4.44110E+01 1.62742E+01 0.00000E+00
 -1      3370 4.47432E+01 1.75690E+01 0.00000E+00
 -1      3371 4.60322E+01 1.76987E+01 0.00000E+00
 -1      3372 2.63393E+01 1.15948E+01 0.00000E+00
 -1      3373 2.48393E+01 1.15948E+01 0.00000E+00
 -1      3374 1.69035E+01 2.93861E+01 0.00000E+00
 -1      3375 1.77450E+01 2.83613E+01 0.00000E+00
 -1      3376 1.67013E+01 2.74683E+01 0.00000E+00
 -1      3377 1.92718E+01 3.48599E+01 0.00000E+00
 -1      3378 1.69669E+01 1.03515E+01 0.00000E+00
 -1      3379 1.54669E+01 1.03515E+01 0.00000E+00
 -1      3380 1.50806E+01 1.13509E+01 0.00000E+00
 -1      3381 1.77169E+01 1.16505E+01 0.00000E+00
 -1      3382 4.81784E+01 2.89890E+01 0.00000E+00
 -1      3383 4.73797E+01 2.99788E+01 0.00000E+00
 -1      3384 4.79331E+01 3.09462E+01 0.00000E+00
 -1      3385 1.38274E+02 1.38503E+01 0.00000E+00
 -1      3386 1.38073E+02 1.16503E+01 0.00000E+00
 -1      3387 1.36905E+02 1.13696E+01 0.00000E+00
 -1      3388 1.36975E+02 1.45815E+01 0.00000E+00
 -1      3389 4.81500E+01 3.70100E+01 0.00000E+00
 -1      3390 2.40893E+01 1.28938E+01 0.00000E+00
 -1      3391 1.16910E+01 3.01219E+01 0.00000E+00
 -1      3392 1.16910E+01 3.15906E+01 0.00000E+00
 -1      3393 1.37758E+02 3.64912E+01 0.00000E+00
 -1      3394 1.38123E+02 3.54142E+01 0.00000E+00
 -1      3395 1.36824E+02 3.46768E+01 0.00000E+00
 -1      3396 1.36451E+02 3.63802E+01 0.00000E+00
 -1      3397 1.16910E+01 3.30594E+01 0.00000E+00
 -1      3398 1.16910E+01 3.45281E+01 0.00000E+00
 -1      3399 1.29900E+01 3.23250E+01 0.00000E+00
 -1      3400 4.03172E+01 3.91639E+01 0.00000E+00
 -1      3401 2.00595E+01 1.61484E+01 0.00000E+00
 -1      3402 2.11464E+01 1.49584E+01 0.00000E+00
 -1      3403 2.43880E+01 1.46059E+01 0.00000E+00
 -1      3404 2.16921E+01 3.69059E+01 0.00000E+00
 -1      3405 1.21786E+01 3.60821E+01 0.00000E+00
 -1      3406 1.81113E+01 1.91774E+01 0.00000E+00
 -1      3407 1.89959E+01 1.77167E+01 0.00000E+00
 -1      3408 5.34000E+01 3.57110E+01 0.00000E+00
 -1      3409 5.49000E+01 3.57110E+01 0.00000E+00
 -1      3410 5.64000E+01 3.57110E+01 0.00000E+00
 -1      3411 5.79000E+01 3.57110E+01 0.00000E+00
 -1      3412 5.56500E+01 3.44120E+01 0.00000E+00
 -1      3413 5.94000E+01 3.57110E+01 0.00000E+00
 -1      3414 6.09000E+01 3.57110E+01 0.00000E+00
 -1      3415 5.86500E+01 3.44120E+01 0.00000E+00
 -1      3416 6.24000E+01 3.57110E+01 0.00000E+00
 -1      3417 6.39000E+01 3.57110E+01 0.00000E+00
 -1      3418 6.16500E+01 3.44120E+01 0.00000E+00
 -1      3419 6.54000E+01 3.57110E+01 0.00000E+00
 -1      3420 6.69000E+01 3.57110E+01 0.00000E+00
 -1      3421 6.46500E+01 3.44120E+01 0.00000E+00
 -1      3422 6.84000E+01 3.57110E+01 0.00000E+00
 -1      3423 6.99000E+01 3.57110E+01 0.00000E+00
 -1      3424 6.76500E+01 3.44120E+01 0.00000E+00
 -1      3425 7.14000E+01 3.57110E+01 0.00000E+00
 -1      3426 7.29000E+01 3.57110E+01 0.00000E+00
 -1      3427 7.06500E+01 3.44120E+01 0.00000E+00
 -1      3428 7.44000E+01 3.57110E+01 0.00000E+00
 -1      3429 7.59000E+01 3.57110E+01 0.00000E+00
 -1      3430 7.36500E+01 3.44120E+01 0.00000E+00
 -1      3431 7.74000E+01 3.57110E+01 0.00000E+00
 -1      3432 7.89000E+01 3.57110E+01 0.00000E+00
 -1      3433 7.66500E+01 3.44120E+01 0.00000E+00
 -1      3434 8.04000E+01 3.57110E+01 0.00000E+00
 -1      3435 8.19000E+01 3.57110E+01 0.00000E+00
 -1      3436 7.96500E+01 3.44120E+01 0.00000E+00
 -1      3437 8.34000E+01 3.57110E+01 0.00000E+00
 -1      3438 8.49000E+01 3.57110E+01 0.00000E+00
 -1      3439 8.26500E+01 3.44120E+01 0.00000E+00
 -1      3440 8.64000E+01 3.57110E+01 0.00000E+00
 -1      3441 8.79000E+01 3.57110E+01 0.00000E+00
 -1      3442 8.56500E+01 3.44120E+01 0.00000E+00
 -1      3443 8.94000E+01 3.57110E+01 0.00000E+00
 -1      3444 9.09000E+01 3.57110E+01 0.00000E+00
 -1      3445 8.86500E+01 3.44120E+01 0.00000E+00
 -1      3446 9.24000E+01 3.57110E+01 0.00000E+00
 -1      3447 9.39000E+01 3.57110E+01 0.00000E+00
 -1      3448 9.16500E+01 3.44120E+01 0.00000E+00
 -1      3449 9.54000E+01 3.57110E+01 0.00000E+00
 -1      3450 9.69000E+01 3.57110E+01 0.00000E+00
 -1      3451 9.46500E+01 3.44120E+01 0.00000E+00
 -1      3452 9.84000E+01 3.57110E+01 0.00000E+00
 -1      3453 9.99000E+01 3.57110E+01 0.00000E+00
 -1      3454 9.76500E+01 3.44120E+01 0.00000E+00
 -1      3455 1.01400E+02 3.57110E+01 0.00000E+00
 -1      3456 1.02900E+02 3.57110E+01 0.00000E+00
 -1      3457 1.00650E+02 3.44120E+01 0.00000E+00
 -1      3458 1.04400E+02 3.57110E+01 0.00000E+00
 -1      3459 1.05900E+02 3.57110E+01 0.00000E+00
 -1      3460 1.03650E+02 3.44120E+01 0.00000E+00
 -1      3461 1.07400E+02 3.57110E+01 0.00000E+00
 -1      3462 1.08900E+02 3.57110E+01 0.00000E+00
 -1      3463 1.06650E+02 3.44120E+01 0.00000E+00
 -1      3464 1.10400E+02 3.57110E+01 0.00000E+00
 -1      3465 1.11900E+02 3.57110E+01 0.00000E+00
 -1      3466 1.09650E+02 3.44120E+01 0.00000E+00
 -1      3467 1.13400E+02 3.57110E+01 0.00000E+00
 -1      3468 1.14900E+02 3.57110E+01 0.00000E+00
 -1      3469 1.12650E+02 3.44120E+01 0.00000E+00
 -1      3470 1.16400E+02 3.57110E+01 0.00000E+00
 -1      3471 1.17900E+02 3.57110E+01 0.00000E+00
 -1      3472 1.15650E+02 3.44120E+01 0.00000E+00
 -1      3473 1.19400E+02 3.57110E+01 0.00000E+00
 -1      3474 1.20900E+02 3.57110E+01 0.00000E+00
 -1      3475 1.18650E+02 3.44120E+01 0.00000E+00
 -1      3476 1.22400E+02 3.57110E+01 0.00000E+00
 -1      3477 1.23900E+02 3.57110E+01 0.00000E+00
 -1      3478 1.21650E+02 3.44120E+01 0.00000E+00
 -1      3479 1.25400E+02 3.57110E+01 0.00000E+00
 -1      3480 1.26900E+02 3.57110E+01 0.00000E+00
 -1      3481 1.24650E+02 3.44120E+01 0.00000E+00
 -1      3482 1.28400E+02 3.57110E+01 0.00000E+00
 -1      3483 1.29900E+02 3.57110E+01 0.00000E+00
 -1      3484 1.27650E+02 3.44120E+01 0.00000E+00
 -1      3485 1.31400E+02 3.57110E+01 0.00000E+00
 -1      3486 1.32900E+02 3.57110E+01 0.00000E+00
 -1      3487 1.30650E+02 3.44120E+01 0.00000E+00
 -1      3488 4.30785E+01 1.39724E+01 0.00000E+00
 -1      3489 4.15785E+01 1.39724E+01 0.00000E+00
 -1      3490 5.12850E+01 1.30992E+01 0.00000E+00
 -1      3491 4.97850E+01 1.30992E+01 0.00000E+00
 -1      3492 5.42850E+01 1.30992E+01 0.00000E+00
 -1      3493 5.27850E+01 1.30992E+01 0.00000E+00
 -1      3494 5.20350E+01 1.43982E+01 0.00000E+00
 -1      3495 5.72850E+01 1.30992E+01 0.00000E+00
 -1      3496 5.57850E+01 1.30992E+01 0.00000E+00
 -1      3497 5.50350E+01 1.43982E+01 0.00000E+00
 -1      3498 6.02850E+01 1.30992E+01 0.00000E+00
 -1      3499 5.87850E+01 1.30992E+01 0.00000E+00
 -1      3500 5.80350E+01 1.43982E+01 0.00000E+00
 -1      3501 6.32850E+01 1.30992E+01 0.00000E+00
 -1      3502 6.17850E+01 1.30992E+01 0.00000E+00
 -1      3503 6.10350E+01 1.43982E+01 0.00000E+00
 -1      3504 6.62850E+01 1.30992E+01 0.00000E+00
 -1      3505 6.47850E+01 1.30992E+01 0.00000E+00
 -1      3506 6.40350E+01 1.43982E+01 0.00000E+00
 -1      3507 6.92850E+01 1.30992E+01 0.00000E+00
 -1      3508 6.77850E+01 1.30992E+01 0.00000E+00
 -1      3509 6.70350E+01 1.43982E+01 0.00000E+00
 -1      3510 7.22850E+01 1.30992E+01 0.00000E+00
 -1      3511 7.07850E+01 1.30992E+01 0.00000E+00
 -1      3512 7.00350E+01 1.43982E+01 0.00000E+00
 -1      3513 7.52850E+01 1.30992E+01 0.00000E+00
 -1      3514 7.37850E+01 1.30992E+01 0.00000E+00
 -1      3515 7.30350E+01 1.43982E+01 0.00000E+00
 -1      3516 7.82850E+01 1.30992E+01 0.00000E+00
 -1      3517 7.67850E+01 1.30992E+01 0.00000E+00
 -1      3518 7.60350E+01 1.43982E+01 0.00000E+00
 -1      3519 8.12850E+01 1.30992E+01 0.00000E+00
 -1      3520 7.97850E+01 1.30992E+01 0.00000E+00
 -1      3521 7.90350E+01 1.43982E+01 0.00000E+00
 -1      3522 8.42850E+01 1.30992E+01 0.00000E+00
 -1      3523 8.27850E+01 1.30992E+01 0.00000E+00
 -1      3524 8.20350E+01 1.43982E+01 0.00000E+00
 -1      3525 8.72850E+01 1.30992E+01 0.00000E+00
 -1      3526 8.57850E+01 1.30992E+01 0.00000E+00
 -1      3527 8.50350E+01 1.43982E+01 0.00000E+00
 -1      3528 9.02850E+01 1.30992E+01 0.00000E+00
 -1      3529 8.87850E+01 1.30992E+01 0.00000E+00
 -1      3530 8.80350E+01 1.43982E+01 0.00000E+00
 -1      3531 9.32850E+01 1.30992E+01 0.00000E+00
 -1      3532 9.17850E+01 1.30992E+01 0.00000E+00
 -1      3533 9.10350E+01 1.43982E+01 0.00000E+00
 -1      3534 9.62850E+01 1.30992E+01 0.00000E+00
 -1      3535 9.47850E+01 1.30992E+01 0.00000E+00
 -1      3536 9.40350E+01 1.43982E+01 0.00000E+00
 -1      3537 9.92850E+01 1.30992E+01 0.00000E+00
 -1      3538 9.77850E+01 1.30992E+01 0.00000E+00
 -1      3539 9.70350E+01 1.43982E+01 0.00000E+00
 -1      3540 1.02285E+02 1.30992E+01 0.00000E+00
 -1      3541 1.00785E+02 1.30992E+01 0.00000E+00
 -1      3542 1.00035E+02 1.43982E+01 0.00000E+00
 -1      3543 1.05285E+02 1.30992E+01 0.00000E+00
 -1      3544 1.03785E+02 1.30992E+01 0.00000E+00
 -1      3545 1.03035E+02 1.43982E+01 0.00000E+00
 -1      3546 1.08285E+02 1.30992E+01 0.00000E+00
 -1      3547 1.06785E+02 1.30992E+01 0.00000E+00
 -1      3548 1.06035E+02 1.43982E+01 0.00000E+00
 -1      3549 1.11285E+02 1.30992E+01 0.00000E+00
 -1      3550 1.09785E+02 1.30992E+01 0.00000E+00
 -1      3551 1.09035E+02 1.43982E+01 0.00000E+00
 -1      3552 1.14285E+02 1.30992E+01 0.00000E+00
 -1      3553 1.12785E+02 1.30992E+01 0.00000E+00
 -1      3554 1.12035E+02 1.43982E+01 0.00000E+00
 -1      3555 1.17285E+02 1.30992E+01 0.00000E+00
 -1      3556 1.15785E+02 1.30992E+01 0.00000E+00
 -1      3557 1.15035E+02 1.43982E+01 0.00000E+00
 -1      3558 1.20285E+02 1.30992E+01 0.00000E+00
 -1      3559 1.18785E+02 1.30992E+01 0.00000E+00
 -1      3560 1.18035E+02 1.43982E+01 0.00000E+00
 -1      3561 1.23285E+02 1.30992E+01 0.00000E+00
 -1      3562 1.21785E+02 1.30992E+01 0.00000E+00
 -1      3563 1.21035E+02 1.43982E+01 0.00000E+00
 -1      3564 1.26285E+02 1.30992E+01 0.00000E+00
 -1      3565 1.24785E+02 1.30992E+01 0.00000E+00
 -1      3566 1.24035E+02 1.43982E+01 0.00000E+00
 -1      3567 1.29285E+02 1.30992E+01 0.00000E+00
 -1      3568 1.27785E+02 1.30992E+01 0.00000E+00
 -1      3569 1.27035E+02 1.43982E+01 0.00000E+00
 -1      3570 1.32285E+02 1.30992E+01 0.00000E+00
 -1      3571 1.30785E+02 1.30992E+01 0.00000E+00
 -1      3572 1.30035E+02 1.43982E+01 0.00000E+00
 -1      3573 3.88527E+01 1.31711E+01 0.00000E+00
 -1      3574 4.58972E+01 3.59307E+01 0.00000E+00
 -1      3575 1.77718E+01 3.48599E+01 0.00000E+00
 -1      3576 1.35711E+02 2.72000E+01 0.00000E+00
 -1      3577 1.35711E+02 2.57500E+01 0.00000E+00
 -1      3578 2.08477E+01 1.32464E+01 0.00000E+00
 -1      3579 1.93477E+01 1.32464E+01 0.00000E+00
 -1      3580 4.85332E+01 2.26704E+01 0.00000E+00
 -1      3581 4.88121E+01 2.42293E+01 0.00000E+00
 -1      3582 4.69500E+01 3.55648E+01 0.00000E+00
 -1      3583 1.64752E+01 2.55473E+01 0.00000E+00
 -1      3584 1.66971E+01 2.41217E+01 0.00000E+00
 -1      3585 1.77017E+01 3.24740E+01 0.00000E+00
 -1      3586 1.72285E+01 3.12587E+01 0.00000E+00
 -1      3587 4.44513E+01 1.29511E+01 0.00000E+00
 -1      3588 4.44948E+01 1.51233E+01 0.00000E+00
 -1      3589 4.57838E+01 1.52529E+01 0.00000E+00
 -1      3590 4.59513E+01 1.29511E+01 0.00000E+00
 -1      3591 1.16910E+01 2.71844E+01 0.00000E+00
 -1      3592 1.16910E+01 2.86531E+01 0.00000E+00
 -1      3593 1.29900E+01 2.93875E+01 0.00000E+00
 -1      3594 4.84500E+01 3.55648E+01 0.00000E+00
 -1      3595 4.89898E+01 2.60075E+01 0.00000E+00
 -1      3596 4.88723E+01 2.74163E+01 0.00000E+00
 -1      3597 1.68960E+01 2.25356E+01 0.00000E+00
 -1      3598 1.72472E+01 2.10022E+01 0.00000E+00
 -1      3599 5.04000E+01 3.57110E+01 0.00000E+00
 -1      3600 5.19000E+01 3.57110E+01 0.00000E+00
 -1      3601 5.26500E+01 3.44120E+01 0.00000E+00
 -1      3602 4.86181E+01 1.30252E+01 0.00000E+00
 -1      3603 4.71181E+01 1.30252E+01 0.00000E+00
 -1      3604 4.70344E+01 1.41761E+01 0.00000E+00
 -1      3605 4.93681E+01 1.43242E+01 0.00000E+00
 -1      3606 4.78204E+01 1.93963E+01 0.00000E+00
 -1      3607 4.82893E+01 2.09426E+01 0.00000E+00
 -1      3608 4.81870E+01 3.24278E+01 0.00000E+00
 -1      3609 4.82448E+01 3.35196E+01 0.00000E+00
 -1      3610 1.29900E+01 1.76125E+01 0.00000E+00
 -1      3611 1.85970E+01 1.62608E+01 0.00000E+00
 -1      3612 2.23337E+01 1.35123E+01 0.00000E+00
 -1      3613 1.66694E+01 1.96540E+01 0.00000E+00
 -1      3614 1.34776E+01 3.53477E+01 0.00000E+00
 -1      3615 4.94448E+01 3.49648E+01 0.00000E+00
 -1      3616 5.01948E+01 3.36658E+01 0.00000E+00
 -1      3617 1.34022E+02 3.59901E+01 0.00000E+00
 -1      3618 1.35329E+02 3.61011E+01 0.00000E+00
 -1      3619 1.35515E+02 3.52494E+01 0.00000E+00
 -1      3620 1.33272E+02 3.46911E+01 0.00000E+00
 -1      3621 3.88172E+01 3.91639E+01 0.00000E+00
 -1      3622 1.36155E+02 1.26686E+01 0.00000E+00
 -1      3623 4.95203E+01 2.15268E+01 0.00000E+00
 -1      3624 1.33453E+02 1.33799E+01 0.00000E+00
 -1      3625 1.32703E+02 1.46789E+01 0.00000E+00
 -1      3626 1.34620E+02 1.36606E+01 0.00000E+00
 -1      3627 4.74882E+01 1.81014E+01 0.00000E+00
 -1      3628 4.89442E+01 1.85042E+01 0.00000E+00
 -1      3629 4.71560E+01 1.68066E+01 0.00000E+00
 -1      3630 1.42890E+01 1.39344E+01 0.00000E+00
 -1      3631 1.42890E+01 1.54031E+01 0.00000E+00
 -1      3632 1.35711E+02 2.42781E+01 0.00000E+00
 -1      3633 1.35711E+02 2.28062E+01 0.00000E+00
 -1      3634 1.34412E+02 2.50031E+01 0.00000E+00
 -1      3635 1.35711E+02 2.86750E+01 0.00000E+00
 -1      3636 1.34412E+02 2.79500E+01 0.00000E+00
 -1      3637 1.35711E+02 3.01500E+01 0.00000E+00
 -1      3638 1.83133E+01 1.46787E+01 0.00000E+00
 -1      3639 1.80005E+01 1.32326E+01 0.00000E+00
 -1      3640 1.66824E+01 1.30828E+01 0.00000E+00
 -1      3641 1.72498E+01 1.62470E+01 0.00000E+00
 -1      3642 4.99419E+01 2.50328E+01 0.00000E+00
 -1      3643 1.43977E+01 2.02832E+01 0.00000E+00
 -1      3644 1.43977E+01 2.17519E+01 0.00000E+00
 -1      3645 4.94257E+01 2.83837E+01 0.00000E+00
 -1      3646 1.41988E+01 2.33381E+01 0.00000E+00
 -1      3647 1.41988E+01 2.48131E+01 0.00000E+00
 -1      3648 1.29900E+01 2.64469E+01 0.00000E+00
 -1      3649 1.61849E+01 3.03657E+01 0.00000E+00
 -1      3650 1.56338E+01 2.65721E+01 0.00000E+00
 -1      3651 1.35711E+02 1.84000E+01 0.00000E+00
 -1      3652 1.35711E+02 1.69250E+01 0.00000E+00
 -1      3653 1.56065E+01 2.30650E+01 0.00000E+00
 -1      3654 1.34141E+02 1.63111E+01 0.00000E+00
 -1      3655 1.35440E+02 1.55736E+01 0.00000E+00
 -1      3656 4.89857E+01 3.14380E+01 0.00000E+00
 -1      3657 1.47499E+01 3.15473E+01 0.00000E+00
 -1      3658 1.47499E+01 3.30160E+01 0.00000E+00
 -1      3659 1.44249E+01 2.82059E+01 0.00000E+00
 -1      3660 1.44249E+01 2.96747E+01 0.00000E+00
 -1      3661 1.35702E+02 3.43976E+01 0.00000E+00
 -1      3662 1.60592E+01 3.53341E+01 0.00000E+00
 -1      3663 1.71810E+01 3.31840E+01 0.00000E+00
 -1      3664 1.34487E+02 3.38069E+01 0.00000E+00
 -1      3665 1.35795E+02 3.32342E+01 0.00000E+00
 -1      3666 1.35795E+02 3.17593E+01 0.00000E+00
 -1      3667 1.33365E+02 3.35277E+01 0.00000E+00
 -1      3668 1.47168E+01 3.52799E+01 0.00000E+00
 -1      3669 5.49000E+01 3.31130E+01 0.00000E+00
 -1      3670 5.64000E+01 3.31130E+01 0.00000E+00
 -1      3671 4.03094E+01 1.38851E+01 0.00000E+00
 -1      3672 5.79000E+01 3.31130E+01 0.00000E+00
 -1      3673 5.94000E+01 3.31130E+01 0.00000E+00
 -1      3674 5.71500E+01 3.18140E+01 0.00000E+00
 -1      3675 6.09000E+01 3.31130E+01 0.00000E+00
 -1      3676 6.24000E+01 3.31130E+01 0.00000E+00
 -1      3677 6.01500E+01 3.18140E+01 0.00000E+00
 -1      3678 6.39000E+01 3.31130E+01 0.00000E+00
 -1      3679 6.54000E+01 3.31130E+01 0.00000E+00
 -1      3680 6.31500E+01 3.18140E+01 0.00000E+00
 -1      3681 6.69000E+01 3.31130E+01 0.00000E+00
 -1      3682 6.84000E+01 3.31130E+01 0.00000E+00
 -1      3683 6.61500E+01 3.18140E+01 0.00000E+00
 -1      3684 6.99000E+01 3.31130E+01 0.00000E+00
 -1      3685 7.14000E+01 3.31130E+01 0.00000E+00
 -1      3686 6.91500E+01 3.18140E+01 0.00000E+00
 -1      3687 7.29000E+01 3.31130E+01 0.00000E+00
 -1      3688 7.44000E+01 3.31130E+01 0.00000E+00
 -1      3689 7.21500E+01 3.18140E+01 0.00000E+00
 -1      3690 7.59000E+01 3.31130E+01 0.00000E+00
 -1      3691 7.74000E+01 3.31130E+01 0.00000E+00
 -1      3692 7.51500E+01 3.18140E+01 0.00000E+00
 -1      3693 7.89000E+01 3.31130E+01 0.00000E+00
 -1      3694 8.04000E+01 3.31130E+01 0.00000E+00
 -1      3695 7.81500E+01 3.18140E+01 0.00000E+00
 -1      3696 8.19000E+01 3.31130E+01 0.00000E+00
 -1      3697 8.34000E+01 3.31130E+01 0.00000E+00
 -1      3698 8.11500E+01 3.18140E+01 0.00000E+00
 -1      3699 8.49000E+01 3.31130E+01 0.00000E+00
 -1      3700 8.64000E+01 3.31130E+01 0.00000E+00
 -1      3701 8.41500E+01 3.18140E+01 0.00000E+00
 -1      3702 8.79000E+01 3.31130E+01 0.00000E+00
 -1      3703 8.94000E+01 3.31130E+01 0.00000E+00
 -1      3704 8.71500E+01 3.18140E+01 0.00000E+00
 -1      3705 9.09000E+01 3.31130E+01 0.00000E+00
 -1      3706 9.24000E+01 3.31130E+01 0.00000E+00
 -1      3707 9.01500E+01 3.18140E+01 0.00000E+00
 -1      3708 9.39000E+01 3.31130E+01 0.00000E+00
 -1      3709 9.54000E+01 3.31130E+01 0.00000E+00
 -1      3710 9.31500E+01 3.18140E+01 0.00000E+00
 -1      3711 9.69000E+01 3.31130E+01 0.00000E+00
 -1      3712 9.84000E+01 3.31130E+01 0.00000E+00
 -1      3713 9.61500E+01 3.18140E+01 0.00000E+00
 -1      3714 9.99000E+01 3.31130E+01 0.00000E+00
 -1      3715 1.01400E+02 3.31130E+01 0.00000E+00
 -1      3716 9.91500E+01 3.18140E+01 0.00000E+00
 -1      3717 1.02900E+02 3.31130E+01 0.00000E+00
 -1      3718 1.04400E+02 3.31130E+01 0.00000E+00
 -1      3719 1.02150E+02 3.18140E+01 0.00000E+00
 -1      3720 1.05900E+02 3.31130E+01 0.00000E+00
 -1      3721 1.07400E+02 3.31130E+01 0.00000E+00
 -1      3722 1.05150E+02 3.18140E+01 0.00000E+00
 -1      3723 1.08900E+02 3.31130E+01 0.00000E+00
 -1      3724 1.10400E+02 3.31130E+01 0.00000E+00
 -1      3725 1.08150E+02 3.18140E+01 0.00000E+00
 -1      3726 1.11900E+02 3.31130E+01 0.00000E+00
 -1      3727 1.13400E+02 3.31130E+01 0.00000E+00
 -1      3728 1.11150E+02 3.18140E+01 0.00000E+00
 -1      3729 1.14900E+02 3.31130E+01 0.00000E+00
 -1      3730 1.16400E+02 3.31130E+01 0.00000E+00
 -1      3731 1.14150E+02 3.18140E+01 0.00000E+00
 -1      3732 1.17900E+02 3.31130E+01 0.00000E+00
 -1      3733 1.19400E+02 3.31130E+01 0.00000E+00
 -1      3734 1.17150E+02 3.18140E+01 0.00000E+00
 -1      3735 1.20900E+02 3.31130E+01 0.00000E+00
 -1      3736 1.22400E+02 3.31130E+01 0.00000E+00
 -1      3737 1.20150E+02 3.18140E+01 0.00000E+00
 -1      3738 1.23900E+02 3.31130E+01 0.00000E+00
 -1      3739 1.25400E+02 3.31130E+01 0.00000E+00
 -1      3740 1.23150E+02 3.18140E+01 0.00000E+00
 -1      3741 1.26900E+02 3.31130E+01 0.00000E+00
 -1      3742 1.28400E+02 3.31130E+01 0.00000E+00
 -1      3743 1.26150E+02 3.18140E+01 0.00000E+00
 -1      3744 1.29900E+02 3.31130E+01 0.00000E+00
 -1      3745 1.31400E+02 3.31130E+01 0.00000E+00
 -1      3746 1.29150E+02 3.18140E+01 0.00000E+00
 -1      3747 5.27850E+01 1.56973E+01 0.00000E+00
 -1      3748 5.12850E+01 1.56973E+01 0.00000E+00
 -1      3749 6.17850E+01 1.56973E+01 0.00000E+00
 -1      3750 6.02850E+01 1.56973E+01 0.00000E+00
 -1      3751 6.47850E+01 1.56973E+01 0.00000E+00
 -1      3752 6.32850E+01 1.56973E+01 0.00000E+00
 -1      3753 6.25350E+01 1.69963E+01 0.00000E+00
 -1      3754 6.77850E+01 1.56973E+01 0.00000E+00
 -1      3755 6.62850E+01 1.56973E+01 0.00000E+00
 -1      3756 6.55350E+01 1.69963E+01 0.00000E+00
 -1      3757 7.07850E+01 1.56973E+01 0.00000E+00
 -1      3758 6.92850E+01 1.56973E+01 0.00000E+00
 -1      3759 6.85350E+01 1.69963E+01 0.00000E+00
 -1      3760 7.37850E+01 1.56973E+01 0.00000E+00
 -1      3761 7.22850E+01 1.56973E+01 0.00000E+00
 -1      3762 7.15350E+01 1.69963E+01 0.00000E+00
 -1      3763 7.67850E+01 1.56973E+01 0.00000E+00
 -1      3764 7.52850E+01 1.56973E+01 0.00000E+00
 -1      3765 7.45350E+01 1.69963E+01 0.00000E+00
 -1      3766 7.97850E+01 1.56973E+01 0.00000E+00
 -1      3767 7.82850E+01 1.56973E+01 0.00000E+00
 -1      3768 7.75350E+01 1.69963E+01 0.00000E+00
 -1      3769 8.27850E+01 1.56973E+01 0.00000E+00
 -1      3770 8.12850E+01 1.56973E+01 0.00000E+00
 -1      3771 8.05350E+01 1.69963E+01 0.00000E+00
 -1      3772 8.57850E+01 1.56973E+01 0.00000E+00
 -1      3773 8.42850E+01 1.56973E+01 0.00000E+00
 -1      3774 8.35350E+01 1.69963E+01 0.00000E+00
 -1      3775 8.87850E+01 1.56973E+01 0.00000E+00
 -1      3776 8.72850E+01 1.56973E+01 0.00000E+00
 -1      3777 8.65350E+01 1.69963E+01 0.00000E+00
 -1      3778 9.17850E+01 1.56973E+01 0.00000E+00
 -1      3779 9.02850E+01 1.56973E+01 0.00000E+00
 -1      3780 8.95350E+01 1.69963E+01 0.00000E+00
 -1      3781 9.47850E+01 1.56973E+01 0.00000E+00
 -1      3782 9.32850E+01 1.56973E+01 0.00000E+00
 -1      3783 9.25350E+01 1.69963E+01 0.00000E+00
 -1      3784 9.77850E+01 1.56973E+01 0.00000E+00
 -1      3785 9.62850E+01 1.56973E+01 0.00000E+00
 -1      3786 9.55350E+01 1.69963E+01 0.00000E+00
 -1      3787 1.00785E+02 1.56973E+01 0.00000E+00
 -1      3788 9.92850E+01 1.56973E+01 0.00000E+00
 -1      3789 9.85350E+01 1.69963E+01 0.00000E+00
 -1      3790 1.03785E+02 1.56973E+01 0.00000E+00
 -1      3791 1.02285E+02 1.56973E+01 0.00000E+00
 -1      3792 1.01535E+02 1.69963E+01 0.00000E+00
 -1      3793 1.06785E+02 1.56973E+01 0.00000E+00
 -1      3794 1.05285E+02 1.56973E+01 0.00000E+00
 -1      3795 1.04535E+02 1.69963E+01 0.00000E+00
 -1      3796 1.09785E+02 1.56973E+01 0.00000E+00
 -1      3797 1.08285E+02 1.56973E+01 0.00000E+00
 -1      3798 1.07535E+02 1.69963E+01 0.00000E+00
 -1      3799 1.12785E+02 1.56973E+01 0.00000E+00
 -1      3800 1.11285E+02 1.56973E+01 0.00000E+00
 -1      3801 1.10535E+02 1.69963E+01 0.00000E+00
 -1      3802 1.15785E+02 1.56973E+01 0.00000E+00
 -1      3803 1.14285E+02 1.56973E+01 0.00000E+00
 -1      3804 1.13535E+02 1.69963E+01 0.00000E+00
 -1      3805 1.18785E+02 1.56973E+01 0.00000E+00
 -1      3806 1.17285E+02 1.56973E+01 0.00000E+00
 -1      3807 1.16535E+02 1.69963E+01 0.00000E+00
 -1      3808 1.21785E+02 1.56973E+01 0.00000E+00
 -1      3809 1.20285E+02 1.56973E+01 0.00000E+00
 -1      3810 1.19535E+02 1.69963E+01 0.00000E+00
 -1      3811 1.24785E+02 1.56973E+01 0.00000E+00
 -1      3812 1.23285E+02 1.56973E+01 0.00000E+00
 -1      3813 1.22535E+02 1.69963E+01 0.00000E+00
 -1      3814 1.27785E+02 1.56973E+01 0.00000E+00
 -1      3815 1.26285E+02 1.56973E+01 0.00000E+00
 -1      3816 1.25535E+02 1.69963E+01 0.00000E+00
 -1      3817 1.30785E+02 1.56973E+01 0.00000E+00
 -1      3818 1.29285E+02 1.56973E+01 0.00000E+00
 -1      3819 1.28535E+02 1.69963E+01 0.00000E+00
 -1      3820 1.46753E+01 1.29349E+01 0.00000E+00
 -1      3821 1.33047E+02 1.61445E+01 0.00000E+00
 -1      3822 1.31879E+02 1.58638E+01 0.00000E+00
 -1      3823 1.31129E+02 1.71628E+01 0.00000E+00
 -1      3824 1.33318E+02 1.74959E+01 0.00000E+00
 -1      3825 5.09565E+01 2.40334E+01 0.00000E+00
 -1      3826 5.11342E+01 2.58116E+01 0.00000E+00
 -1      3827 5.04515E+01 3.23528E+01 0.00000E+00
 -1      3828 5.14067E+01 3.30990E+01 0.00000E+00
 -1      3829 1.52617E+01 1.84583E+01 0.00000E+00
 -1      3830 5.07872E+01 2.80450E+01 0.00000E+00
 -1      3831 5.00933E+01 2.96177E+01 0.00000E+00
 -1      3832 5.01976E+01 3.08712E+01 0.00000E+00
 -1      3833 1.41988E+01 2.62849E+01 0.00000E+00
 -1      3834 4.69506E+01 1.53270E+01 0.00000E+00
 -1      3835 1.52617E+01 1.69833E+01 0.00000E+00
 -1      3836 1.35711E+02 2.13391E+01 0.00000E+00
 -1      3837 1.35711E+02 1.98672E+01 0.00000E+00
 -1      3838 1.34412E+02 1.91297E+01 0.00000E+00
 -1      3839 1.34412E+02 2.20641E+01 0.00000E+00
 -1      3840 1.35405E+02 1.39676E+01 0.00000E+00
 -1      3841 5.29067E+01 3.30990E+01 0.00000E+00
 -1      3842 5.06846E+01 2.04814E+01 0.00000E+00
 -1      3843 5.09285E+01 2.22091E+01 0.00000E+00
 -1      3844 5.87850E+01 1.56973E+01 0.00000E+00
 -1      3845 5.72850E+01 1.56973E+01 0.00000E+00
 -1      3846 5.95350E+01 1.69963E+01 0.00000E+00
 -1      3847 5.57850E+01 1.56973E+01 0.00000E+00
 -1      3848 5.42850E+01 1.56973E+01 0.00000E+00
 -1      3849 5.35350E+01 1.69963E+01 0.00000E+00
 -1      3850 1.33318E+02 2.04303E+01 0.00000E+00
 -1      3851 1.33318E+02 1.89631E+01 0.00000E+00
 -1      3852 1.32223E+02 1.87966E+01 0.00000E+00
 -1      3853 1.59891E+01 3.29482E+01 0.00000E+00
 -1      3854 1.33113E+02 2.57391E+01 0.00000E+00
 -1      3855 1.33113E+02 2.42672E+01 0.00000E+00
 -1      3856 1.59934E+01 1.30847E+01 0.00000E+00
 -1      3857 5.21208E+01 2.29880E+01 0.00000E+00
 -1      3858 4.84066E+01 1.57298E+01 0.00000E+00
 -1      3859 1.33113E+02 2.72141E+01 0.00000E+00
 -1      3860 1.31814E+02 2.64781E+01 0.00000E+00
 -1      3861 1.33113E+02 2.86891E+01 0.00000E+00
 -1      3862 5.18018E+01 2.70456E+01 0.00000E+00
 -1      3863 5.24694E+01 2.82796E+01 0.00000E+00
 -1      3864 5.28164E+01 2.60462E+01 0.00000E+00
 -1      3865 5.15591E+01 3.05325E+01 0.00000E+00
 -1      3866 5.03235E+01 1.71028E+01 0.00000E+00
 -1      3867 5.06557E+01 1.83977E+01 0.00000E+00
 -1      3868 1.34496E+02 3.10343E+01 0.00000E+00
 -1      3869 4.95735E+01 1.58038E+01 0.00000E+00
 -1      3870 1.32615E+02 3.22287E+01 0.00000E+00
 -1      3871 5.20639E+01 1.90800E+01 0.00000E+00
 -1      3872 5.36567E+01 3.18000E+01 0.00000E+00
 -1      3873 5.65350E+01 1.69963E+01 0.00000E+00
 -1      3874 3.98150E+01 1.29985E+01 0.00000E+00
 -1      3875 1.65607E+01 1.62489E+01 0.00000E+00
 -1      3876 6.92850E+01 1.82952E+01 0.00000E+00
 -1      3877 6.77850E+01 1.82952E+01 0.00000E+00
 -1      3878 5.64000E+01 3.05150E+01 0.00000E+00
 -1      3879 5.79000E+01 3.05150E+01 0.00000E+00
 -1      3880 5.94000E+01 3.05150E+01 0.00000E+00
 -1      3881 6.09000E+01 3.05150E+01 0.00000E+00
 -1      3882 5.86500E+01 2.92160E+01 0.00000E+00
 -1      3883 6.24000E+01 3.05150E+01 0.00000E+00
 -1      3884 6.39000E+01 3.05150E+01 0.00000E+00
 -1      3885 6.16500E+01 2.92160E+01 0.00000E+00
 -1      3886 6.54000E+01 3.05150E+01 0.00000E+00
 -1      3887 6.69000E+01 3.05150E+01 0.00000E+00
 -1      3888 6.46500E+01 2.92160E+01 0.00000E+00
 -1      3889 6.84000E+01 3.05150E+01 0.00000E+00
 -1      3890 6.99000E+01 3.05150E+01 0.00000E+00
 -1      3891 6.76500E+01 2.92160E+01 0.00000E+00
 -1      3892 7.14000E+01 3.05150E+01 0.00000E+00
 -1      3893 7.29000E+01 3.05150E+01 0.00000E+00
 -1      3894 7.06500E+01 2.92160E+01 0.00000E+00
 -1      3895 7.44000E+01 3.05150E+01 0.00000E+00
 -1      3896 7.59000E+01 3.05150E+01 0.00000E+00
 -1      3897 7.36500E+01 2.92160E+01 0.00000E+00
 -1      3898 7.74000E+01 3.05150E+01 0.00000E+00
 -1      3899 7.89000E+01 3.05150E+01 0.00000E+00
 -1      3900 7.66500E+01 2.92160E+01 0.00000E+00
 -1      3901 8.04000E+01 3.05150E+01 0.00000E+00
 -1      3902 8.19000E+01 3.05150E+01 0.00000E+00
 -1      3903 7.96500E+01 2.92160E+01 0.00000E+00
 -1      3904 8.34000E+01 3.05150E+01 0.00000E+00
 -1      3905 8.49000E+01 3.05150E+01 0.00000E+00
 -1      3906 8.26500E+01 2.92160E+01 0.00000E+00
 -1      3907 8.64000E+01 3.05150E+01 0.00000E+00
 -1      3908 8.79000E+01 3.05150E+01 0.00000E+00
 -1      3909 8.56500E+01 2.92160E+01 0.00000E+00
 -1      3910 8.94000E+01 3.05150E+01 0.00000E+00
 -1      3911 9.09000E+01 3.05150E+01 0.00000E+00
 -1      3912 8.86500E+01 2.92160E+01 0.00000E+00
 -1      3913 9.24000E+01 3.05150E+01 0.00000E+00
 -1      3914 9.39000E+01 3.05150E+01 0.00000E+00
 -1      3915 9.16500E+01 2.92160E+01 0.00000E+00
 -1      3916 9.54000E+01 3.05150E+01 0.00000E+00
 -1      3917 9.69000E+01 3.05150E+01 0.00000E+00
 -1      3918 9.46500E+01 2.92160E+01 0.00000E+00
 -1      3919 9.84000E+01 3.05150E+01 0.00000E+00
 -1      3920 9.99000E+01 3.05150E+01 0.00000E+00
 -1      3921 9.76500E+01 2.92160E+01 0.00000E+00
 -1      3922 1.01400E+02 3.05150E+01 0.00000E+00
 -1      3923 1.02900E+02 3.05150E+01 0.00000E+00
 -1      3924 1.00650E+02 2.92160E+01 0.00000E+00
 -1      3925 1.04400E+02 3.05150E+01 0.00000E+00
 -1      3926 1.05900E+02 3.05150E+01 0.00000E+00
 -1      3927 1.03650E+02 2.92160E+01 0.00000E+00
 -1      3928 1.07400E+02 3.05150E+01 0.00000E+00
 -1      3929 1.08900E+02 3.05150E+01 0.00000E+00
 -1      3930 1.06650E+02 2.92160E+01 0.00000E+00
 -1      3931 1.10400E+02 3.05150E+01 0.00000E+00
 -1      3932 1.11900E+02 3.05150E+01 0.00000E+00
 -1      3933 1.09650E+02 2.92160E+01 0.00000E+00
 -1      3934 1.13400E+02 3.05150E+01 0.00000E+00
 -1      3935 1.14900E+02 3.05150E+01 0.00000E+00
 -1      3936 1.12650E+02 2.92160E+01 0.00000E+00
 -1      3937 1.16400E+02 3.05150E+01 0.00000E+00
 -1      3938 1.17900E+02 3.05150E+01 0.00000E+00
 -1      3939 1.15650E+02 2.92160E+01 0.00000E+00
 -1      3940 1.19400E+02 3.05150E+01 0.00000E+00
 -1      3941 1.20900E+02 3.05150E+01 0.00000E+00
 -1      3942 1.18650E+02 2.92160E+01 0.00000E+00
 -1      3943 1.22400E+02 3.05150E+01 0.00000E+00
 -1      3944 1.23900E+02 3.05150E+01 0.00000E+00
 -1      3945 1.21650E+02 2.92160E+01 0.00000E+00
 -1      3946 1.25400E+02 3.05150E+01 0.00000E+00
 -1      3947 1.26900E+02 3.05150E+01 0.00000E+00
 -1      3948 1.24650E+02 2.92160E+01 0.00000E+00
 -1      3949 1.28400E+02 3.05150E+01 0.00000E+00
 -1      3950 1.29900E+02 3.05150E+01 0.00000E+00
 -1      3951 1.27650E+02 2.92160E+01 0.00000E+00
 -1      3952 5.35639E+01 1.90800E+01 0.00000E+00
 -1      3953 6.32850E+01 1.82952E+01 0.00000E+00
 -1      3954 6.17850E+01 1.82952E+01 0.00000E+00
 -1      3955 7.22850E+01 1.82952E+01 0.00000E+00
 -1      3956 7.07850E+01 1.82952E+01 0.00000E+00
 -1      3957 7.00350E+01 1.95942E+01 0.00000E+00
 -1      3958 7.52850E+01 1.82952E+01 0.00000E+00
 -1      3959 7.37850E+01 1.82952E+01 0.00000E+00
 -1      3960 7.30350E+01 1.95942E+01 0.00000E+00
 -1      3961 7.82850E+01 1.82952E+01 0.00000E+00
 -1      3962 7.67850E+01 1.82952E+01 0.00000E+00
 -1      3963 7.60350E+01 1.95942E+01 0.00000E+00
 -1      3964 8.12850E+01 1.82952E+01 0.00000E+00
 -1      3965 7.97850E+01 1.82952E+01 0.00000E+00
 -1      3966 7.90350E+01 1.95942E+01 0.00000E+00
 -1      3967 8.42850E+01 1.82952E+01 0.00000E+00
 -1      3968 8.27850E+01 1.82952E+01 0.00000E+00
 -1      3969 8.20350E+01 1.95942E+01 0.00000E+00
 -1      3970 8.72850E+01 1.82952E+01 0.00000E+00
 -1      3971 8.57850E+01 1.82952E+01 0.00000E+00
 -1      3972 8.50350E+01 1.95942E+01 0.00000E+00
 -1      3973 9.02850E+01 1.82952E+01 0.00000E+00
 -1      3974 8.87850E+01 1.82952E+01 0.00000E+00
 -1      3975 8.80350E+01 1.95942E+01 0.00000E+00
 -1      3976 9.32850E+01 1.82952E+01 0.00000E+00
 -1      3977 9.17850E+01 1.82952E+01 0.00000E+00
 -1      3978 9.10350E+01 1.95942E+01 0.00000E+00
 -1      3979 9.62850E+01 1.82952E+01 0.00000E+00
 -1      3980 9.47850E+01 1.82952E+01 0.00000E+00
 -1      3981 9.40350E+01 1.95942E+01 0.00000E+00
 -1      3982 9.92850E+01 1.82952E+01 0.00000E+00
 -1      3983 9.77850E+01 1.82952E+01 0.00000E+00
 -1      3984 9.70350E+01 1.95942E+01 0.00000E+00
 -1      3985 1.02285E+02 1.82952E+01 0.00000E+00
 -1      3986 1.00785E+02 1.82952E+01 0.00000E+00
 -1      3987 1.00035E+02 1.95942E+01 0.00000E+00
 -1      3988 1.05285E+02 1.82952E+01 0.00000E+00
 -1      3989 1.03785E+02 1.82952E+01 0.00000E+00
 -1      3990 1.03035E+02 1.95942E+01 0.00000E+00
 -1      3991 1.08285E+02 1.82952E+01 0.00000E+00
 -1      3992 1.06785E+02 1.82952E+01 0.00000E+00
 -1      3993 1.06035E+02 1.95942E+01 0.00000E+00
 -1      3994 1.11285E+02 1.82952E+01 0.00000E+00
 -1      3995 1.09785E+02 1.82952E+01 0.00000E+00
 -1      3996 1.09035E+02 1.95942E+01 0.00000E+00
 -1      3997 1.14285E+02 1.82952E+01 0.00000E+00
 -1      3998 1.12785E+02 1.82952E+01 0.00000E+00
 -1      3999 1.12035E+02 1.95942E+01 0.00000E+00
 -1      4000 1.17285E+02 1.82952E+01 0.00000E+00
 -1      4001 1.15785E+02 1.82952E+01 0.00000E+00
 -1      4002 1.15035E+02 1.95942E+01 0.00000E+00
 -1      4003 1.20285E+02 1.82952E+01 0.00000E+00
 -1      4004 1.18785E+02 1.82952E+01 0.00000E+00
 -1      4005 1.18035E+02 1.95942E+01 0.00000E+00
 -1      4006 1.23285E+02 1.82952E+01 0.00000E+00
 -1      4007 1.21785E+02 1.82952E+01 0.00000E+00
 -1      4008 1.21035E+02 1.95942E+01 0.00000E+00
 -1      4009 1.26285E+02 1.82952E+01 0.00000E+00
 -1      4010 1.24785E+02 1.82952E+01 0.00000E+00
 -1      4011 1.24035E+02 1.95942E+01 0.00000E+00
 -1      4012 1.29285E+02 1.82952E+01 0.00000E+00
 -1      4013 1.27785E+02 1.82952E+01 0.00000E+00
 -1      4014 1.27035E+02 1.95942E+01 0.00000E+00
 -1      4015 1.62770E+01 1.46668E+01 0.00000E+00
 -1      4016 5.29829E+01 3.05167E+01 0.00000E+00
 -1      4017 5.49762E+01 3.05307E+01 0.00000E+00
 -1      4018 5.57262E+01 2.92317E+01 0.00000E+00
 -1      4019 5.28786E+01 2.92632E+01 0.00000E+00
 -1      4020 1.33215E+02 2.30823E+01 0.00000E+00
 -1      4021 1.33215E+02 2.16152E+01 0.00000E+00
 -1      4022 1.32121E+02 2.14486E+01 0.00000E+00
 -1      4023 1.31916E+02 2.38183E+01 0.00000E+00
 -1      4024 1.32531E+02 3.06195E+01 0.00000E+00
 -1      4025 6.62850E+01 1.82952E+01 0.00000E+00
 -1      4026 6.47850E+01 1.82952E+01 0.00000E+00
 -1      4027 6.40350E+01 1.95942E+01 0.00000E+00
 -1      4028 6.70350E+01 1.95942E+01 0.00000E+00
 -1      4029 6.02850E+01 1.82952E+01 0.00000E+00
 -1      4030 5.87850E+01 1.82952E+01 0.00000E+00
 -1      4031 6.10350E+01 1.95942E+01 0.00000E+00
 -1      4032 1.31301E+02 1.86292E+01 0.00000E+00
 -1      4033 1.30207E+02 1.84626E+01 0.00000E+00
 -1      4034 1.29457E+02 1.97616E+01 0.00000E+00
 -1      4035 1.31301E+02 2.00964E+01 0.00000E+00
 -1      4036 5.72850E+01 1.82952E+01 0.00000E+00
 -1      4037 5.57850E+01 1.82952E+01 0.00000E+00
 -1      4038 5.80350E+01 1.95942E+01 0.00000E+00
 -1      4039 5.33831E+01 2.20563E+01 0.00000E+00
 -1      4040 5.34111E+01 2.38805E+01 0.00000E+00
 -1      4041 5.43139E+01 2.03790E+01 0.00000E+00
 -1      4042 1.42292E+01 3.37259E+01 0.00000E+00
 -1      4043 1.30482E+02 2.85846E+01 0.00000E+00
 -1      4044 1.31232E+02 2.98836E+01 0.00000E+00
 -1      4045 5.40787E+01 2.51145E+01 0.00000E+00
 -1      4046 5.47463E+01 2.63485E+01 0.00000E+00
 -1      4047 5.53411E+01 2.41828E+01 0.00000E+00
 -1      4048 5.38932E+01 2.82638E+01 0.00000E+00
 -1      4049 1.30482E+02 2.71096E+01 0.00000E+00
 -1      4050 1.30482E+02 2.56346E+01 0.00000E+00
 -1      4051 1.29150E+02 2.77410E+01 0.00000E+00
 -1      4052 5.56042E+01 2.12715E+01 0.00000E+00
 -1      4053 1.29252E+02 2.50812E+01 0.00000E+00
 -1      4054 1.30584E+02 2.44497E+01 0.00000E+00
 -1      4055 1.30687E+02 2.32649E+01 0.00000E+00
 -1      4056 7.37850E+01 2.08932E+01 0.00000E+00
 -1      4057 7.22850E+01 2.08932E+01 0.00000E+00
 -1      4058 5.72054E+01 2.10632E+01 0.00000E+00
 -1      4059 5.62747E+01 2.27405E+01 0.00000E+00
 -1      4060 6.09000E+01 2.79170E+01 0.00000E+00
 -1      4061 6.24000E+01 2.79170E+01 0.00000E+00
 -1      4062 6.39000E+01 2.79170E+01 0.00000E+00
 -1      4063 6.54000E+01 2.79170E+01 0.00000E+00
 -1      4064 6.31500E+01 2.66180E+01 0.00000E+00
 -1      4065 6.69000E+01 2.79170E+01 0.00000E+00
 -1      4066 6.84000E+01 2.79170E+01 0.00000E+00
 -1      4067 6.61500E+01 2.66180E+01 0.00000E+00
 -1      4068 6.99000E+01 2.79170E+01 0.00000E+00
 -1      4069 7.14000E+01 2.79170E+01 0.00000E+00
 -1      4070 6.91500E+01 2.66180E+01 0.00000E+00
 -1      4071 7.29000E+01 2.79170E+01 0.00000E+00
 -1      4072 7.44000E+01 2.79170E+01 0.00000E+00
 -1      4073 7.21500E+01 2.66180E+01 0.00000E+00
 -1      4074 7.59000E+01 2.79170E+01 0.00000E+00
 -1      4075 7.74000E+01 2.79170E+01 0.00000E+00
 -1      4076 7.51500E+01 2.66180E+01 0.00000E+00
 -1      4077 7.89000E+01 2.79170E+01 0.00000E+00
 -1      4078 8.04000E+01 2.79170E+01 0.00000E+00
 -1      4079 7.81500E+01 2.66180E+01 0.00000E+00
 -1      4080 8.19000E+01 2.79170E+01 0.00000E+00
 -1      4081 8.34000E+01 2.79170E+01 0.00000E+00
 -1      4082 8.11500E+01 2.66180E+01 0.00000E+00
 -1      4083 8.49000E+01 2.79170E+01 0.00000E+00
 -1      4084 8.64000E+01 2.79170E+01 0.00000E+00
 -1      4085 8.41500E+01 2.66180E+01 0.00000E+00
 -1      4086 8.79000E+01 2.79170E+01 0.00000E+00
 -1      4087 8.94000E+01 2.79170E+01 0.00000E+00
 -1      4088 8.71500E+01 2.66180E+01 0.00000E+00
 -1      4089 9.09000E+01 2.79170E+01 0.00000E+00
 -1      4090 9.24000E+01 2.79170E+01 0.00000E+00
 -1      4091 9.01500E+01 2.66180E+01 0.00000E+00
 -1      4092 9.39000E+01 2.79170E+01 0.00000E+00
 -1      4093 9.54000E+01 2.79170E+01 0.00000E+00
 -1      4094 9.31500E+01 2.66180E+01 0.00000E+00
 -1      4095 9.69000E+01 2.79170E+01 0.00000E+00
 -1      4096 9.84000E+01 2.79170E+01 0.00000E+00
 -1      4097 9.61500E+01 2.66180E+01 0.00000E+00
 -1      4098 9.99000E+01 2.79170E+01 0.00000E+00
 -1      4099 1.01400E+02 2.79170E+01 0.00000E+00
 -1      4100 9.91500E+01 2.66180E+01 0.00000E+00
 -1      4101 1.02900E+02 2.79170E+01 0.00000E+00
 -1      4102 1.04400E+02 2.79170E+01 0.00000E+00
 -1      4103 1.02150E+02 2.66180E+01 0.00000E+00
 -1      4104 1.05900E+02 2.79170E+01 0.00000E+00
 -1      4105 1.07400E+02 2.79170E+01 0.00000E+00
 -1      4106 1.05150E+02 2.66180E+01 0.00000E+00
 -1      4107 1.08900E+02 2.79170E+01 0.00000E+00
 -1      4108 1.10400E+02 2.79170E+01 0.00000E+00
 -1      4109 1.08150E+02 2.66180E+01 0.00000E+00
 -1      4110 1.11900E+02 2.79170E+01 0.00000E+00
 -1      4111 1.13400E+02 2.79170E+01 0.00000E+00
 -1      4112 1.11150E+02 2.66180E+01 0.00000E+00
 -1      4113 1.14900E+02 2.79170E+01 0.00000E+00
 -1      4114 1.16400E+02 2.79170E+01 0.00000E+00
 -1      4115 1.14150E+02 2.66180E+01 0.00000E+00
 -1      4116 1.17900E+02 2.79170E+01 0.00000E+00
 -1      4117 1.19400E+02 2.79170E+01 0.00000E+00
 -1      4118 1.17150E+02 2.66180E+01 0.00000E+00
 -1      4119 1.20900E+02 2.79170E+01 0.00000E+00
 -1      4120 1.22400E+02 2.79170E+01 0.00000E+00
 -1      4121 1.20150E+02 2.66180E+01 0.00000E+00
 -1      4122 1.23900E+02 2.79170E+01 0.00000E+00
 -1      4123 1.25400E+02 2.79170E+01 0.00000E+00
 -1      4124 1.23150E+02 2.66180E+01 0.00000E+00
 -1      4125 1.26525E+02 2.78290E+01 0.00000E+00
 -1      4126 1.28025E+02 2.78290E+01 0.00000E+00
 -1      4127 1.28025E+02 2.63540E+01 0.00000E+00
 -1      4128 1.25775E+02 2.65300E+01 0.00000E+00
 -1      4129 7.67850E+01 2.08932E+01 0.00000E+00
 -1      4130 7.52850E+01 2.08932E+01 0.00000E+00
 -1      4131 7.45350E+01 2.21922E+01 0.00000E+00
 -1      4132 7.07850E+01 2.08932E+01 0.00000E+00
 -1      4133 6.92850E+01 2.08932E+01 0.00000E+00
 -1      4134 7.15350E+01 2.21922E+01 0.00000E+00
 -1      4135 7.97850E+01 2.08932E+01 0.00000E+00
 -1      4136 7.82850E+01 2.08932E+01 0.00000E+00
 -1      4137 7.75350E+01 2.21922E+01 0.00000E+00
 -1      4138 8.27850E+01 2.08932E+01 0.00000E+00
 -1      4139 8.12850E+01 2.08932E+01 0.00000E+00
 -1      4140 8.05350E+01 2.21922E+01 0.00000E+00
 -1      4141 8.57850E+01 2.08932E+01 0.00000E+00
 -1      4142 8.42850E+01 2.08932E+01 0.00000E+00
 -1      4143 8.35350E+01 2.21922E+01 0.00000E+00
 -1      4144 8.87850E+01 2.08932E+01 0.00000E+00
 -1      4145 8.72850E+01 2.08932E+01 0.00000E+00
 -1      4146 8.65350E+01 2.21922E+01 0.00000E+00
 -1      4147 9.17850E+01 2.08932E+01 0.00000E+00
 -1      4148 9.02850E+01 2.08932E+01 0.00000E+00
 -1      4149 8.95350E+01 2.21922E+01 0.00000E+00
 -1      4150 9.47850E+01 2.08932E+01 0.00000E+00
 -1      4151 9.32850E+01 2.08932E+01 0.00000E+00
 -1      4152 9.25350E+01 2.21922E+01 0.00000E+00
 -1      4153 9.77850E+01 2.08932E+01 0.00000E+00
 -1      4154 9.62850E+01 2.08932E+01 0.00000E+00
 -1      4155 9.55350E+01 2.21922E+01 0.00000E+00
 -1      4156 1.00785E+02 2.08932E+01 0.00000E+00
 -1      4157 9.92850E+01 2.08932E+01 0.00000E+00
 -1      4158 9.85350E+01 2.21922E+01 0.00000E+00
 -1      4159 1.03785E+02 2.08932E+01 0.00000E+00
 -1      4160 1.02285E+02 2.08932E+01 0.00000E+00
 -1      4161 1.01535E+02 2.21922E+01 0.00000E+00
 -1      4162 1.06785E+02 2.08932E+01 0.00000E+00
 -1      4163 1.05285E+02 2.08932E+01 0.00000E+00
 -1      4164 1.04535E+02 2.21922E+01 0.00000E+00
 -1      4165 1.09785E+02 2.08932E+01 0.00000E+00
 -1      4166 1.08285E+02 2.08932E+01 0.00000E+00
 -1      4167 1.07535E+02 2.21922E+01 0.00000E+00
 -1      4168 1.12785E+02 2.08932E+01 0.00000E+00
 -1      4169 1.11285E+02 2.08932E+01 0.00000E+00
 -1      4170 1.10535E+02 2.21922E+01 0.00000E+00
 -1      4171 1.15785E+02 2.08932E+01 0.00000E+00
 -1      4172 1.14285E+02 2.08932E+01 0.00000E+00
 -1      4173 1.13535E+02 2.21922E+01 0.00000E+00
 -1      4174 1.18785E+02 2.08932E+01 0.00000E+00
 -1      4175 1.17285E+02 2.08932E+01 0.00000E+00
 -1      4176 1.16535E+02 2.21922E+01 0.00000E+00
 -1      4177 1.21785E+02 2.08932E+01 0.00000E+00
 -1      4178 1.20285E+02 2.08932E+01 0.00000E+00
 -1      4179 1.19535E+02 2.21922E+01 0.00000E+00
 -1      4180 1.24785E+02 2.08932E+01 0.00000E+00
 -1      4181 1.23285E+02 2.08932E+01 0.00000E+00
 -1      4182 1.22535E+02 2.21922E+01 0.00000E+00
 -1      4183 1.27785E+02 2.08932E+01 0.00000E+00
 -1      4184 1.26285E+02 2.08932E+01 0.00000E+00
 -1      4185 1.25535E+02 2.21922E+01 0.00000E+00
 -1      4186 5.87054E+01 2.10632E+01 0.00000E+00
 -1      4187 6.17054E+01 2.10632E+01 0.00000E+00
 -1      4188 6.02054E+01 2.10632E+01 0.00000E+00
 -1      4189 5.93759E+01 2.25322E+01 0.00000E+00
 -1      4190 1.30943E+02 2.22730E+01 0.00000E+00
 -1      4191 1.31045E+02 2.10882E+01 0.00000E+00
 -1      4192 1.30123E+02 2.09208E+01 0.00000E+00
 -1      4193 1.29611E+02 2.29045E+01 0.00000E+00
 -1      4194 5.50317E+01 2.72983E+01 0.00000E+00
 -1      4195 5.54409E+01 2.82819E+01 0.00000E+00
 -1      4196 5.68647E+01 2.82662E+01 0.00000E+00
 -1      4197 5.62940E+01 2.63666E+01 0.00000E+00
 -1      4198 5.81323E+01 2.80916E+01 0.00000E+00
 -1      4199 5.96323E+01 2.80916E+01 0.00000E+00
 -1      4200 6.03823E+01 2.67926E+01 0.00000E+00
 -1      4201 5.78470E+01 2.71418E+01 0.00000E+00
 -1      4202 5.69423E+01 2.39745E+01 0.00000E+00
 -1      4203 1.28127E+02 2.51692E+01 0.00000E+00
 -1      4204 6.32054E+01 2.10632E+01 0.00000E+00
 -1      4205 6.23759E+01 2.25322E+01 0.00000E+00
 -1      4206 6.47054E+01 2.10632E+01 0.00000E+00
 -1      4207 6.77452E+01 2.09782E+01 0.00000E+00
 -1      4208 6.62452E+01 2.09782E+01 0.00000E+00
 -1      4209 6.54157E+01 2.24472E+01 0.00000E+00
 -1      4210 6.84952E+01 2.22772E+01 0.00000E+00
 -1      4211 1.29201E+02 2.07535E+01 0.00000E+00
 -1      4212 1.28451E+02 2.20525E+01 0.00000E+00
 -1      4213 7.48425E+01 2.44051E+01 0.00000E+00
 -1      4214 7.33425E+01 2.44051E+01 0.00000E+00
 -1      4215 6.58027E+01 2.44901E+01 0.00000E+00
 -1      4216 6.73027E+01 2.44901E+01 0.00000E+00
 -1      4217 6.88425E+01 2.44051E+01 0.00000E+00
 -1      4218 7.03425E+01 2.44051E+01 0.00000E+00
 -1      4219 7.18425E+01 2.44051E+01 0.00000E+00
 -1      4220 7.63425E+01 2.44051E+01 0.00000E+00
 -1      4221 7.78425E+01 2.44051E+01 0.00000E+00
 -1      4222 7.93425E+01 2.44051E+01 0.00000E+00
 -1      4223 8.08425E+01 2.44051E+01 0.00000E+00
 -1      4224 8.23425E+01 2.44051E+01 0.00000E+00
 -1      4225 8.38425E+01 2.44051E+01 0.00000E+00
 -1      4226 8.53425E+01 2.44051E+01 0.00000E+00
 -1      4227 8.68425E+01 2.44051E+01 0.00000E+00
 -1      4228 8.83425E+01 2.44051E+01 0.00000E+00
 -1      4229 8.98425E+01 2.44051E+01 0.00000E+00
 -1      4230 9.13425E+01 2.44051E+01 0.00000E+00
 -1      4231 9.28425E+01 2.44051E+01 0.00000E+00
 -1      4232 9.43425E+01 2.44051E+01 0.00000E+00
 -1      4233 9.58425E+01 2.44051E+01 0.00000E+00
 -1      4234 9.73425E+01 2.44051E+01 0.00000E+00
 -1      4235 9.88425E+01 2.44051E+01 0.00000E+00
 -1      4236 1.00342E+02 2.44051E+01 0.00000E+00
 -1      4237 1.01842E+02 2.44051E+01 0.00000E+00
 -1      4238 1.03342E+02 2.44051E+01 0.00000E+00
 -1      4239 1.04842E+02 2.44051E+01 0.00000E+00
 -1      4240 1.06342E+02 2.44051E+01 0.00000E+00
 -1      4241 1.07842E+02 2.44051E+01 0.00000E+00
 -1      4242 1.09342E+02 2.44051E+01 0.00000E+00
 -1      4243 1.10842E+02 2.44051E+01 0.00000E+00
 -1      4244 1.12342E+02 2.44051E+01 0.00000E+00
 -1      4245 1.13842E+02 2.44051E+01 0.00000E+00
 -1      4246 1.15342E+02 2.44051E+01 0.00000E+00
 -1      4247 1.16842E+02 2.44051E+01 0.00000E+00
 -1      4248 1.18342E+02 2.44051E+01 0.00000E+00
 -1      4249 1.19842E+02 2.44051E+01 0.00000E+00
 -1      4250 1.21342E+02 2.44051E+01 0.00000E+00
 -1      4251 1.22842E+02 2.44051E+01 0.00000E+00
 -1      4252 1.24342E+02 2.44051E+01 0.00000E+00
 -1      4253 1.25842E+02 2.44051E+01 0.00000E+00
 -1      4254 1.28195E+02 2.30443E+01 0.00000E+00
 -1      4255 6.27629E+01 2.45751E+01 0.00000E+00
 -1      4256 6.42629E+01 2.45751E+01 0.00000E+00
 -1      4257 5.99953E+01 2.47497E+01 0.00000E+00
 -1      4258 5.84953E+01 2.47497E+01 0.00000E+00
 -1      4259 6.12629E+01 2.45751E+01 0.00000E+00
 -1      4260 1.27002E+02 2.52572E+01 0.00000E+00
 -1      4261 5.75617E+01 2.61920E+01 0.00000E+00
 -3
    3C                          2049                                     1
 -1       164    8    0    1
 -2         6         7        23      1107      1270      1124
 -1       165    8    0    1
 -2         7         8       164      1108      1271      1272
 -1       166    8    0    1
 -2         8         9       165      1109      1273      1274
 -1       167    8    0    1
 -2         8       165       164      1274      1275      1271
 -1       168    8    0    1
 -2         9        10       166      1110      1276      1277
 -1       169    8    0    1
 -2         9       166       165      1277      1278      1273
 -1       170    8    0    1
 -2        10        11       167      1111      1279      1280
 -1       171    8    0    1
 -2        10       167       166      1280      1281      1276
 -1       172    8    0    1
 -2        11        12       168      1112      1282      1283
 -1       173    8    0    1
 -2        11       168       167      1283      1284      1279
 -1       174    8    0    1
 -2        12        13       169      1113      1285      1286
 -1       175    8    0    1
 -2        12       169       168      1286      1287      1282
 -1       176    8    0    1
 -2        13        14       170      1114      1288      1289
 -1       177    8    0    1
 -2        13       170       169      1289      1290      1285
 -1       178    8    0    1
 -2        14        15       171      1115      1291      1292
 -1       179    8    0    1
 -2        14       171       170      1292      1293      1288
 -1       180    8    0    1
 -2        15        16       172      1116      1294      1295
 -1       181    8    0    1
 -2        15       172       171      1295      1296      1291
 -1       182    8    0    1
 -2        16        17       173      1117      1297      1298
 -1       183    8    0    1
 -2        16       173       172      1298      1299      1294
 -1       184    8    0    1
 -2        17        18       174      1118      1300      1301
 -1       185    8    0    1
 -2        17       174       173      1301      1302      1297
 -1       186    8    0    1
 -2        18        19       175      1119      1303      1304
 -1       187    8    0    1
 -2        18       175       174      1304      1305      1300
 -1       188    8    0    1
 -2        19        20       176      1120      1306      1307
 -1       189    8    0    1
 -2        19       176       175      1307      1308      1303
 -1       190    8    0    1
 -2        20        21       177      1121      1309      1310
 -1       191    8    0    1
 -2        20       177       176      1310      1311      1306
 -1       192    8    0    1
 -2        21        22       178      1122      1312      1313
 -1       193    8    0    1
 -2        21       178       177      1313      1314      1309
 -1       194    8    0    1
 -2        22         5       179      1123      1315      1316
 -1       195    8    0    1
 -2       178        22       179      1312      1316      1317
 -1       196    8    0    1
 -2         5        72       179      1174      1318      1315
 -1       197    8    0    1
 -2        24        23       180      1125      1319      1320
 -1       198    8    0    1
 -2        25        24       181      1126      1321      1322
 -1       199    8    0    1
 -2        24       180       181      1320      1323      1321
 -1       200    8    0    1
 -2        26        25       182      1127      1324      1325
 -1       201    8    0    1
 -2        25       181       182      1322      1326      1324
 -1       202    8    0    1
 -2        27        26       183      1128      1327      1328
 -1       203    8    0    1
 -2        26       182       183      1325      1329      1327
 -1       204    8    0    1
 -2        28        27       184      1129      1330      1331
 -1       205    8    0    1
 -2        27       183       184      1328      1332      1330
 -1       206    8    0    1
 -2        29        28       185      1130      1333      1334
 -1       207    8    0    1
 -2        28       184       185      1331      1335      1333
 -1       208    8    0    1
 -2        30        29       186      1131      1336      1337
 -1       209    8    0    1
 -2        29       185       186      1334      1338      1336
 -1       210    8    0    1
 -2        31        30       187      1132      1339      1340
 -1       211    8    0    1
 -2        30       186       187      1337      1341      1339
 -1       212    8    0    1
 -2        32        31       188      1133      1342      1343
 -1       213    8    0    1
 -2        31       187       188      1340      1344      1342
 -1       214    8    0    1
 -2        33        32       189      1134      1345      1346
 -1       215    8    0    1
 -2        32       188       189      1343      1347      1345
 -1       216    8    0    1
 -2        34        33       190      1135      1348      1349
 -1       217    8    0    1
 -2        33       189       190      1346      1350      1348
 -1       218    8    0    1
 -2        35        34       191      1136      1351      1352
 -1       219    8    0    1
 -2        34       190       191      1349      1353      1351
 -1       220    8    0    1
 -2        36        35       192      1137      1354      1355
 -1       221    8    0    1
 -2        35       191       192      1352      1356      1354
 -1       222    8    0    1
 -2        37        36       193      1138      1357      1358
 -1       223    8    0    1
 -2        36       192       193      1355      1359      1357
 -1       224    8    0    1
 -2        38        37       194      1139      1360      1361
 -1       225    8    0    1
 -2        37       193       194      1358      1362      1360
 -1       226    8    0    1
 -2        39        38       195      1140      1363      1364
 -1       227    8    0    1
 -2        38       194       195      1361      1365      1363
 -1       228    8    0    1
 -2        40        39       196      1141      1366      1367
 -1       229    8    0    1
 -2        39       195       196      1364      1368      1366
 -1       230    8    0    1
 -2        41        40       197      1142      1369      1370
 -1       231    8    0    1
 -2        40       196       197      1367      1371      1369
 -1       232    8    0    1
 -2        42        41       198      1143      1372      1373
 -1       233    8    0    1
 -2        41       197       198      1370      1374      1372
 -1       234    8    0    1
 -2        43        42       199      1144      1375      1376
 -1       235    8    0    1
 -2        42       198       199      1373      1377      1375
 -1       236    8    0    1
 -2        44        43       200      1145      1378      1379
 -1       237    8    0    1
 -2        43       199       200      1376      1380      1378
 -1       238    8    0    1
 -2        45        44       201      1146      1381      1382
 -1       239    8    0    1
 -2        44       200       201      1379      1383      1381
 -1       240    8    0    1
 -2        46        45       202      1147      1384      1385
 -1       241    8    0    1
 -2        45       201       202      1382      1386      1384
 -1       242    8    0    1
 -2        47        46       203      1148      1387      1388
 -1       243    8    0    1
 -2        46       202       203      1385      1389      1387
 -1       244    8    0    1
 -2        48        47       204      1149      1390      1391
 -1       245    8    0    1
 -2        47       203       204      1388      1392      1390
 -1       246    8    0    1
 -2        49        48       205      1150      1393      1394
 -1       247    8    0    1
 -2        48       204       205      1391      1395      1393
 -1       248    8    0    1
 -2        50        49       206      1151      1396      1397
 -1       249    8    0    1
 -2        49       205       206      1394      1398      1396
 -1       250    8    0    1
 -2        51        50       207      1152      1399      1400
 -1       251    8    0    1
 -2        50       206       207      1397      1401      1399
 -1       252    8    0    1
 -2        52        51       208      1153      1402      1403
 -1       253    8    0    1
 -2        51       207       208      1400      1404      1402
 -1       254    8    0    1
 -2        53        52       209      1154      1405      1406
 -1       255    8    0    1
 -2        52       208       209      1403      1407      1405
 -1       256    8    0    1
 -2        54        53       210      1155      1408      1409
 -1       257    8    0    1
 -2        53       209       210      1406      1410      1408
 -1       258    8    0    1
 -2        55        54       211      1156      1411      1412
 -1       259    8    0    1
 -2        54       210       211      1409      1413      1411
 -1       260    8    0    1
 -2        56        55       212      1157      1414      1415
 -1       261    8    0    1
 -2        55       211       212      1412      1416      1414
 -1       262    8    0    1
 -2        57        56       213      1158      1417      1418
 -1       263    8    0    1
 -2        56       212       213      1415      1419      1417
 -1       264    8    0    1
 -2        58        57       214      1159      1420      1421
 -1       265    8    0    1
 -2        57       213       214      1418      1422      1420
 -1       266    8    0    1
 -2        59        58       215      1160      1423      1424
 -1       267    8    0    1
 -2        58       214       215      1421      1425      1423
 -1       268    8    0    1
 -2        60        59       216      1161      1426      1427
 -1       269    8    0    1
 -2        59       215       216      1424      1428      1426
 -1       270    8    0    1
 -2        61        60       217      1162      1429      1430
 -1       271    8    0    1
 -2        60       216       217      1427      1431      1429
 -1       272    8    0    1
 -2        62        61       218      1163      1432      1433
 -1       273    8    0    1
 -2        61       217       218      1430      1434      1432
 -1       274    8    0    1
 -2        63        62       219      1164      1435      1436
 -1       275    8    0    1
 -2        62       218       219      1433      1437      1435
 -1       276    8    0    1
 -2        64        63       220      1165      1438      1439
 -1       277    8    0    1
 -2        63       219       220      1436      1440      1438
 -1       278    8    0    1
 -2        65        64       221      1166      1441      1442
 -1       279    8    0    1
 -2        64       220       221      1439      1443      1441
 -1       280    8    0    1
 -2        66        65       222      1167      1444      1445
 -1       281    8    0    1
 -2        65       221       222      1442      1446      1444
 -1       282    8    0    1
 -2        67        66       223      1168      1447      1448
 -1       283    8    0    1
 -2        66       222       223      1445      1449      1447
 -1       284    8    0    1
 -2        68        67       224      1169      1450      1451
 -1       285    8    0    1
 -2        67       223       224      1448      1452      1450
 -1       286    8    0    1
 -2        69        68       225      1170      1453      1454
 -1       287    8    0    1
 -2        68       224       225      1451      1455      1453
 -1       288    8    0    1
 -2        70        69       226      1171      1456      1457
 -1       289    8    0    1
 -2        69       225       226      1454      1458      1456
 -1       290    8    0    1
 -2        71        70       227      1172      1459      1460
 -1       291    8    0    1
 -2        70       226       227      1457      1461      1459
 -1       292    8    0    1
 -2         4        71       136      1173      1462      1240
 -1       293    8    0    1
 -2       136        71       227      1462      1460      1463
 -1       294    8    0    1
 -2        72        73       228      1175      1464      1465
 -1       295    8    0    1
 -2        72       228       179      1465      1466      1318
 -1       296    8    0    1
 -2        73        74       229      1176      1467      1468
 -1       297    8    0    1
 -2        73       229       228      1468      1469      1464
 -1       298    8    0    1
 -2        74        75       230      1177      1470      1471
 -1       299    8    0    1
 -2        74       230       229      1471      1472      1467
 -1       300    8    0    1
 -2        75        76       231      1178      1473      1474
 -1       301    8    0    1
 -2        75       231       230      1474      1475      1470
 -1       302    8    0    1
 -2        76        77       232      1179      1476      1477
 -1       303    8    0    1
 -2        76       232       231      1477      1478      1473
 -1       304    8    0    1
 -2        77        78       233      1180      1479      1480
 -1       305    8    0    1
 -2        77       233       232      1480      1481      1476
 -1       306    8    0    1
 -2        78        79       234      1181      1482      1483
 -1       307    8    0    1
 -2        78       234       233      1483      1484      1479
 -1       308    8    0    1
 -2        79        80       235      1182      1485      1486
 -1       309    8    0    1
 -2        79       235       234      1486      1487      1482
 -1       310    8    0    1
 -2        80        81       236      1183      1488      1489
 -1       311    8    0    1
 -2        80       236       235      1489      1490      1485
 -1       312    8    0    1
 -2        81        82       237      1184      1491      1492
 -1       313    8    0    1
 -2        81       237       236      1492      1493      1488
 -1       314    8    0    1
 -2        82        83       238      1185      1494      1495
 -1       315    8    0    1
 -2        82       238       237      1495      1496      1491
 -1       316    8    0    1
 -2        83        84       239      1186      1497      1498
 -1       317    8    0    1
 -2        83       239       238      1498      1499      1494
 -1       318    8    0    1
 -2        84        85       240      1187      1500      1501
 -1       319    8    0    1
 -2        84       240       239      1501      1502      1497
 -1       320    8    0    1
 -2        85        86       241      1188      1503      1504
 -1       321    8    0    1
 -2        85       241       240      1504      1505      1500
 -1       322    8    0    1
 -2        86        87       242      1189      1506      1507
 -1       323    8    0    1
 -2        86       242       241      1507      1508      1503
 -1       324    8    0    1
 -2        87        88       243      1190      1509      1510
 -1       325    8    0    1
 -2        87       243       242      1510      1511      1506
 -1       326    8    0    1
 -2        88        89       244      1191      1512      1513
 -1       327    8    0    1
 -2        88       244       243      1513      1514      1509
 -1       328    8    0    1
 -2        89        90       245      1192      1515      1516
 -1       329    8    0    1
 -2        89       245       244      1516      1517      1512
 -1       330    8    0    1
 -2        90        91       246      1193      1518      1519
 -1       331    8    0    1
 -2        90       246       245      1519      1520      1515
 -1       332    8    0    1
 -2        91        92       247      1194      1521      1522
 -1       333    8    0    1
 -2        91       247       246      1522      1523      1518
 -1       334    8    0    1
 -2        92        93       248      1195      1524      1525
 -1       335    8    0    1
 -2        92       248       247      1525      1526      1521
 -1       336    8    0    1
 -2        93        94       249      1196      1527      1528
 -1       337    8    0    1
 -2        93       249       248      1528      1529      1524
 -1       338    8    0    1
 -2        94        95       250      1197      1530      1531
 -1       339    8    0    1
 -2        94       250       249      1531      1532      1527
 -1       340    8    0    1
 -2        95        96       251      1198      1533      1534
 -1       341    8    0    1
 -2        95       251       250      1534      1535      1530
 -1       342    8    0    1
 -2        96        97       252      1199      1536      1537
 -1       343    8    0    1
 -2        96       252       251      1537      1538      1533
 -1       344    8    0    1
 -2        97        98       253      1200      1539      1540
 -1       345    8    0    1
 -2        97       253       252      1540      1541      1536
 -1       346    8    0    1
 -2        98        99       254      1201      1542      1543
 -1       347    8    0    1
 -2        98       254       253      1543      1544      1539
 -1       348    8    0    1
 -2        99       100       255      1202      1545      1546
 -1       349    8    0    1
 -2        99       255       254      1546      1547      1542
 -1       350    8    0    1
 -2       100       101       256      1203      1548      1549
 -1       351    8    0    1
 -2       100       256       255      1549      1550      1545
 -1       352    8    0    1
 -2       101       102       257      1204      1551      1552
 -1       353    8    0    1
 -2       101       257       256      1552      1553      1548
 -1       354    8    0    1
 -2       102       103       258      1205      1554      1555
 -1       355    8    0    1
 -2       102       258       257      1555      1556      1551
 -1       356    8    0    1
 -2       103       104       259      1206      1557      1558
 -1       357    8    0    1
 -2       103       259       258      1558      1559      1554
 -1       358    8    0    1
 -2       104       105       260      1207      1560      1561
 -1       359    8    0    1
 -2       104       260       259      1561      1562      1557
 -1       360    8    0    1
 -2       105       106       261      1208      1563      1564
 -1       361    8    0    1
 -2       105       261       260      1564      1565      1560
 -1       362    8    0    1
 -2       106       107       262      1209      1566      1567
 -1       363    8    0    1
 -2       106       262       261      1567      1568      1563
 -1       364    8    0    1
 -2       107       108       263      1210      1569      1570
 -1       365    8    0    1
 -2       107       263       262      1570      1571      1566
 -1       366    8    0    1
 -2       108       109       264      1211      1572      1573
 -1       367    8    0    1
 -2       108       264       263      1573      1574      1569
 -1       368    8    0    1
 -2       109       110       265      1212      1575      1576
 -1       369    8    0    1
 -2       109       265       264      1576      1577      1572
 -1       370    8    0    1
 -2       110       111       266      1213      1578      1579
 -1       371    8    0    1
 -2       110       266       265      1579      1580      1575
 -1       372    8    0    1
 -2       111       112       267      1214      1581      1582
 -1       373    8    0    1
 -2       111       267       266      1582      1583      1578
 -1       374    8    0    1
 -2       112       113       268      1215      1584      1585
 -1       375    8    0    1
 -2       112       268       267      1585      1586      1581
 -1       376    8    0    1
 -2       113       114       269      1216      1587      1588
 -1       377    8    0    1
 -2       113       269       268      1588      1589      1584
 -1       378    8    0    1
 -2       114       115       270      1217      1590      1591
 -1       379    8    0    1
 -2       114       270       269      1591      1592      1587
 -1       380    8    0    1
 -2       115       116       271      1218      1593      1594
 -1       381    8    0    1
 -2       115       271       270      1594      1595      1590
 -1       382    8    0    1
 -2       116       117       272      1219      1596      1597
 -1       383    8    0    1
 -2       116       272       271      1597      1598      1593
 -1       384    8    0    1
 -2       117       118       273      1220      1599      1600
 -1       385    8    0    1
 -2       117       273       272      1600      1601      1596
 -1       386    8    0    1
 -2       118       119       274      1221      1602      1603
 -1       387    8    0    1
 -2       118       274       273      1603      1604      1599
 -1       388    8    0    1
 -2       119       120       275      1222      1605      1606
 -1       389    8    0    1
 -2       119       275       274      1606      1607      1602
 -1       390    8    0    1
 -2       120         3       121      1223      1224      1608
 -1       391    8    0    1
 -2       121       122       276      1225      1609      1610
 -1       392    8    0    1
 -2       122       123       277      1226      1611      1612
 -1       393    8    0    1
 -2       122       277       276      1612      1613      1609
 -1       394    8    0    1
 -2       123       124       278      1227      1614      1615
 -1       395    8    0    1
 -2       123       278       277      1615      1616      1611
 -1       396    8    0    1
 -2       124       125       279      1228      1617      1618
 -1       397    8    0    1
 -2       124       279       278      1618      1619      1614
 -1       398    8    0    1
 -2       125       126       280      1229      1620      1621
 -1       399    8    0    1
 -2       125       280       279      1621      1622      1617
 -1       400    8    0    1
 -2       126       127       281      1230      1623      1624
 -1       401    8    0    1
 -2       126       281       280      1624      1625      1620
 -1       402    8    0    1
 -2       127       128       282      1231      1626      1627
 -1       403    8    0    1
 -2       127       282       281      1627      1628      1623
 -1       404    8    0    1
 -2       128       129       283      1232      1629      1630
 -1       405    8    0    1
 -2       128       283       282      1630      1631      1626
 -1       406    8    0    1
 -2       129       130       284      1233      1632      1633
 -1       407    8    0    1
 -2       129       284       283      1633      1634      1629
 -1       408    8    0    1
 -2       130       131       285      1234      1635      1636
 -1       409    8    0    1
 -2       130       285       284      1636      1637      1632
 -1       410    8    0    1
 -2       131       132       286      1235      1638      1639
 -1       411    8    0    1
 -2       131       286       285      1639      1640      1635
 -1       412    8    0    1
 -2       132       133       287      1236      1641      1642
 -1       413    8    0    1
 -2       132       287       286      1642      1643      1638
 -1       414    8    0    1
 -2       133       134       288      1237      1644      1645
 -1       415    8    0    1
 -2       133       288       287      1645      1646      1641
 -1       416    8    0    1
 -2       134       135       289      1238      1647      1648
 -1       417    8    0    1
 -2       134       289       288      1648      1649      1644
 -1       418    8    0    1
 -2       135       136       290      1239      1650      1651
 -1       419    8    0    1
 -2       289       135       290      1647      1651      1652
 -1       420    8    0    1
 -2       136       227       290      1463      1653      1650
 -1       421    8    0    1
 -2         2       137       291      1241      1654      1655
 -1       422    8    0    1
 -2       137       138       292      1242      1656      1657
 -1       423    8    0    1
 -2       138       139       293      1243      1658      1659
 -1       424    8    0    1
 -2       139       140       294      1244      1660      1661
 -1       425    8    0    1
 -2       140       141       295      1245      1662      1663
 -1       426    8    0    1
 -2       141       142       296      1246      1664      1665
 -1       427    8    0    1
 -2       142       143       297      1247      1666      1667
 -1       428    8    0    1
 -2       143       144       298      1248      1668      1669
 -1       429    8    0    1
 -2       144       145       299      1249      1670      1671
 -1       430    8    0    1
 -2       145       146       300      1250      1672      1673
 -1       431    8    0    1
 -2       146       147       301      1251      1674      1675
 -1       432    8    0    1
 -2       147       148       302      1252      1676      1677
 -1       433    8    0    1
 -2       148       149       303      1253      1678      1679
 -1       434    8    0    1
 -2       149       150       304      1254      1680      1681
 -1       435    8    0    1
 -2       150       151       305      1255      1682      1683
 -1       436    8    0    1
 -2       151       152       306      1256      1684      1685
 -1       437    8    0    1
 -2       152       153       307      1257      1686      1687
 -1       438    8    0    1
 -2       153       154       308      1258      1688      1689
 -1       439    8    0    1
 -2       154       155       309      1259      1690      1691
 -1       440    8    0    1
 -2       155       156       310      1260      1692      1693
 -1       441    8    0    1
 -2       156       157       311      1261      1694      1695
 -1       442    8    0    1
 -2       157         1       312      1262      1696      1697
 -1       443    8    0    1
 -2         1       158       313      1263      1698      1699
 -1       444    8    0    1
 -2       158       159       314      1264      1700      1701
 -1       445    8    0    1
 -2       159       160       315      1265      1702      1703
 -1       446    8    0    1
 -2       160       161       316      1266      1704      1705
 -1       447    8    0    1
 -2       161       162       317      1267      1706      1707
 -1       448    8    0    1
 -2       162       163       318      1268      1708      1709
 -1       449    8    0    1
 -2       163         2       319      1269      1710      1711
 -1       450    8    0    1
 -2       294       140       295      1660      1663      1712
 -1       451    8    0    1
 -2       293       139       294      1658      1661      1713
 -1       452    8    0    1
 -2       120       121       275      1608      1714      1605
 -1       453    8    0    1
 -2       121       276       275      1610      1715      1714
 -1       454    8    0    1
 -2       291       137       292      1654      1657      1716
 -1       455    8    0    1
 -2       292       138       293      1656      1659      1717
 -1       456    8    0    1
 -2         2       291       319      1655      1718      1710
 -1       457    8    0    1
 -2       141       296       295      1665      1719      1662
 -1       458    8    0    1
 -2       142       297       296      1667      1720      1664
 -1       459    8    0    1
 -2       143       298       297      1669      1721      1666
 -1       460    8    0    1
 -2       144       299       298      1671      1722      1668
 -1       461    8    0    1
 -2       145       300       299      1673      1723      1670
 -1       462    8    0    1
 -2       146       301       300      1675      1724      1672
 -1       463    8    0    1
 -2       147       302       301      1677      1725      1674
 -1       464    8    0    1
 -2       148       303       302      1679      1726      1676
 -1       465    8    0    1
 -2       149       304       303      1681      1727      1678
 -1       466    8    0    1
 -2       150       305       304      1683      1728      1680
 -1       467    8    0    1
 -2       151       306       305      1685      1729      1682
 -1       468    8    0    1
 -2       152       307       306      1687      1730      1684
 -1       469    8    0    1
 -2       153       308       307      1689      1731      1686
 -1       470    8    0    1
 -2       154       309       308      1691      1732      1688
 -1       471    8    0    1
 -2       155       310       309      1693      1733      1690
 -1       472    8    0    1
 -2       156       311       310      1695      1734      1692
 -1       473    8    0    1
 -2       157       312       311      1697      1735      1694
 -1       474    8    0    1
 -2         1       313       312      1699      1736      1696
 -1       475    8    0    1
 -2       158       314       313      1701      1737      1698
 -1       476    8    0    1
 -2       159       315       314      1703      1738      1700
 -1       477    8    0    1
 -2       160       316       315      1705      1739      1702
 -1       478    8    0    1
 -2       161       317       316      1707      1740      1704
 -1       479    8    0    1
 -2       162       318       317      1709      1741      1706
 -1       480    8    0    1
 -2       163       319       318      1711      1742      1708
 -1       481    8    0    1
 -2        23         7       164      1270      1272      1743
 -1       482    8    0    1
 -2       165       166       320      1278      1744      1745
 -1       483    8    0    1
 -2       164       165       321      1275      1746      1747
 -1       484    8    0    1
 -2       165       320       321      1745      1748      1746
 -1       485    8    0    1
 -2       167       168       322      1284      1749      1750
 -1       486    8    0    1
 -2       168       169       323      1287      1751      1752
 -1       487    8    0    1
 -2       168       323       322      1752      1753      1749
 -1       488    8    0    1
 -2       169       170       324      1290      1754      1755
 -1       489    8    0    1
 -2       169       324       323      1755      1756      1751
 -1       490    8    0    1
 -2       170       171       325      1293      1757      1758
 -1       491    8    0    1
 -2       170       325       324      1758      1759      1754
 -1       492    8    0    1
 -2       171       172       326      1296      1760      1761
 -1       493    8    0    1
 -2       171       326       325      1761      1762      1757
 -1       494    8    0    1
 -2       172       173       327      1299      1763      1764
 -1       495    8    0    1
 -2       172       327       326      1764      1765      1760
 -1       496    8    0    1
 -2       173       174       328      1302      1766      1767
 -1       497    8    0    1
 -2       173       328       327      1767      1768      1763
 -1       498    8    0    1
 -2       174       175       329      1305      1769      1770
 -1       499    8    0    1
 -2       174       329       328      1770      1771      1766
 -1       500    8    0    1
 -2       175       176       330      1308      1772      1773
 -1       501    8    0    1
 -2       175       330       329      1773      1774      1769
 -1       502    8    0    1
 -2       176       177       331      1311      1775      1776
 -1       503    8    0    1
 -2       176       331       330      1776      1777      1772
 -1       504    8    0    1
 -2       177       178       332      1314      1778      1779
 -1       505    8    0    1
 -2       177       332       331      1779      1780      1775
 -1       506    8    0    1
 -2       178       179       333      1317      1781      1782
 -1       507    8    0    1
 -2       332       178       333      1778      1782      1783
 -1       508    8    0    1
 -2       179       228       333      1466      1784      1781
 -1       509    8    0    1
 -2       180        23       164      1319      1743      1785
 -1       510    8    0    1
 -2       228       229       334      1469      1786      1787
 -1       511    8    0    1
 -2       228       334       333      1787      1788      1784
 -1       512    8    0    1
 -2       180       164       321      1785      1747      1789
 -1       513    8    0    1
 -2       182       181       335      1326      1790      1791
 -1       514    8    0    1
 -2       183       182       336      1329      1792      1793
 -1       515    8    0    1
 -2       182       335       336      1791      1794      1792
 -1       516    8    0    1
 -2       184       183       337      1332      1795      1796
 -1       517    8    0    1
 -2       183       336       337      1793      1797      1795
 -1       518    8    0    1
 -2       185       184       338      1335      1798      1799
 -1       519    8    0    1
 -2       184       337       338      1796      1800      1798
 -1       520    8    0    1
 -2       186       185       339      1338      1801      1802
 -1       521    8    0    1
 -2       185       338       339      1799      1803      1801
 -1       522    8    0    1
 -2       187       186       340      1341      1804      1805
 -1       523    8    0    1
 -2       186       339       340      1802      1806      1804
 -1       524    8    0    1
 -2       188       187       341      1344      1807      1808
 -1       525    8    0    1
 -2       187       340       341      1805      1809      1807
 -1       526    8    0    1
 -2       189       188       342      1347      1810      1811
 -1       527    8    0    1
 -2       188       341       342      1808      1812      1810
 -1       528    8    0    1
 -2       190       189       343      1350      1813      1814
 -1       529    8    0    1
 -2       189       342       343      1811      1815      1813
 -1       530    8    0    1
 -2       191       190       344      1353      1816      1817
 -1       531    8    0    1
 -2       190       343       344      1814      1818      1816
 -1       532    8    0    1
 -2       192       191       345      1356      1819      1820
 -1       533    8    0    1
 -2       191       344       345      1817      1821      1819
 -1       534    8    0    1
 -2       193       192       346      1359      1822      1823
 -1       535    8    0    1
 -2       192       345       346      1820      1824      1822
 -1       536    8    0    1
 -2       194       193       347      1362      1825      1826
 -1       537    8    0    1
 -2       193       346       347      1823      1827      1825
 -1       538    8    0    1
 -2       195       194       348      1365      1828      1829
 -1       539    8    0    1
 -2       194       347       348      1826      1830      1828
 -1       540    8    0    1
 -2       196       195       349      1368      1831      1832
 -1       541    8    0    1
 -2       195       348       349      1829      1833      1831
 -1       542    8    0    1
 -2       197       196       350      1371      1834      1835
 -1       543    8    0    1
 -2       196       349       350      1832      1836      1834
 -1       544    8    0    1
 -2       198       197       351      1374      1837      1838
 -1       545    8    0    1
 -2       197       350       351      1835      1839      1837
 -1       546    8    0    1
 -2       199       198       352      1377      1840      1841
 -1       547    8    0    1
 -2       198       351       352      1838      1842      1840
 -1       548    8    0    1
 -2       200       199       353      1380      1843      1844
 -1       549    8    0    1
 -2       199       352       353      1841      1845      1843
 -1       550    8    0    1
 -2       201       200       354      1383      1846      1847
 -1       551    8    0    1
 -2       200       353       354      1844      1848      1846
 -1       552    8    0    1
 -2       202       201       355      1386      1849      1850
 -1       553    8    0    1
 -2       201       354       355      1847      1851      1849
 -1       554    8    0    1
 -2       203       202       356      1389      1852      1853
 -1       555    8    0    1
 -2       202       355       356      1850      1854      1852
 -1       556    8    0    1
 -2       204       203       357      1392      1855      1856
 -1       557    8    0    1
 -2       203       356       357      1853      1857      1855
 -1       558    8    0    1
 -2       205       204       358      1395      1858      1859
 -1       559    8    0    1
 -2       204       357       358      1856      1860      1858
 -1       560    8    0    1
 -2       206       205       359      1398      1861      1862
 -1       561    8    0    1
 -2       205       358       359      1859      1863      1861
 -1       562    8    0    1
 -2       207       206       360      1401      1864      1865
 -1       563    8    0    1
 -2       206       359       360      1862      1866      1864
 -1       564    8    0    1
 -2       208       207       361      1404      1867      1868
 -1       565    8    0    1
 -2       207       360       361      1865      1869      1867
 -1       566    8    0    1
 -2       209       208       362      1407      1870      1871
 -1       567    8    0    1
 -2       208       361       362      1868      1872      1870
 -1       568    8    0    1
 -2       210       209       363      1410      1873      1874
 -1       569    8    0    1
 -2       209       362       363      1871      1875      1873
 -1       570    8    0    1
 -2       211       210       364      1413      1876      1877
 -1       571    8    0    1
 -2       210       363       364      1874      1878      1876
 -1       572    8    0    1
 -2       212       211       365      1416      1879      1880
 -1       573    8    0    1
 -2       211       364       365      1877      1881      1879
 -1       574    8    0    1
 -2       213       212       366      1419      1882      1883
 -1       575    8    0    1
 -2       212       365       366      1880      1884      1882
 -1       576    8    0    1
 -2       214       213       367      1422      1885      1886
 -1       577    8    0    1
 -2       213       366       367      1883      1887      1885
 -1       578    8    0    1
 -2       215       214       368      1425      1888      1889
 -1       579    8    0    1
 -2       214       367       368      1886      1890      1888
 -1       580    8    0    1
 -2       216       215       369      1428      1891      1892
 -1       581    8    0    1
 -2       215       368       369      1889      1893      1891
 -1       582    8    0    1
 -2       217       216       370      1431      1894      1895
 -1       583    8    0    1
 -2       216       369       370      1892      1896      1894
 -1       584    8    0    1
 -2       218       217       371      1434      1897      1898
 -1       585    8    0    1
 -2       217       370       371      1895      1899      1897
 -1       586    8    0    1
 -2       219       218       372      1437      1900      1901
 -1       587    8    0    1
 -2       218       371       372      1898      1902      1900
 -1       588    8    0    1
 -2       220       219       373      1440      1903      1904
 -1       589    8    0    1
 -2       219       372       373      1901      1905      1903
 -1       590    8    0    1
 -2       221       220       374      1443      1906      1907
 -1       591    8    0    1
 -2       220       373       374      1904      1908      1906
 -1       592    8    0    1
 -2       222       221       375      1446      1909      1910
 -1       593    8    0    1
 -2       221       374       375      1907      1911      1909
 -1       594    8    0    1
 -2       223       222       376      1449      1912      1913
 -1       595    8    0    1
 -2       222       375       376      1910      1914      1912
 -1       596    8    0    1
 -2       224       223       377      1452      1915      1916
 -1       597    8    0    1
 -2       223       376       377      1913      1917      1915
 -1       598    8    0    1
 -2       225       224       378      1455      1918      1919
 -1       599    8    0    1
 -2       224       377       378      1916      1920      1918
 -1       600    8    0    1
 -2       226       225       379      1458      1921      1922
 -1       601    8    0    1
 -2       225       378       379      1919      1923      1921
 -1       602    8    0    1
 -2       227       226       380      1461      1924      1925
 -1       603    8    0    1
 -2       290       227       380      1653      1925      1926
 -1       604    8    0    1
 -2       226       379       380      1922      1927      1924
 -1       605    8    0    1
 -2       229       230       381      1472      1928      1929
 -1       606    8    0    1
 -2       229       381       334      1929      1930      1786
 -1       607    8    0    1
 -2       230       231       382      1475      1931      1932
 -1       608    8    0    1
 -2       230       382       381      1932      1933      1928
 -1       609    8    0    1
 -2       231       232       383      1478      1934      1935
 -1       610    8    0    1
 -2       231       383       382      1935      1936      1931
 -1       611    8    0    1
 -2       232       233       384      1481      1937      1938
 -1       612    8    0    1
 -2       232       384       383      1938      1939      1934
 -1       613    8    0    1
 -2       233       234       385      1484      1940      1941
 -1       614    8    0    1
 -2       233       385       384      1941      1942      1937
 -1       615    8    0    1
 -2       234       235       386      1487      1943      1944
 -1       616    8    0    1
 -2       234       386       385      1944      1945      1940
 -1       617    8    0    1
 -2       235       236       387      1490      1946      1947
 -1       618    8    0    1
 -2       235       387       386      1947      1948      1943
 -1       619    8    0    1
 -2       236       237       388      1493      1949      1950
 -1       620    8    0    1
 -2       236       388       387      1950      1951      1946
 -1       621    8    0    1
 -2       237       238       389      1496      1952      1953
 -1       622    8    0    1
 -2       237       389       388      1953      1954      1949
 -1       623    8    0    1
 -2       238       239       390      1499      1955      1956
 -1       624    8    0    1
 -2       238       390       389      1956      1957      1952
 -1       625    8    0    1
 -2       239       240       391      1502      1958      1959
 -1       626    8    0    1
 -2       239       391       390      1959      1960      1955
 -1       627    8    0    1
 -2       240       241       392      1505      1961      1962
 -1       628    8    0    1
 -2       240       392       391      1962      1963      1958
 -1       629    8    0    1
 -2       241       242       393      1508      1964      1965
 -1       630    8    0    1
 -2       241       393       392      1965      1966      1961
 -1       631    8    0    1
 -2       242       243       394      1511      1967      1968
 -1       632    8    0    1
 -2       242       394       393      1968      1969      1964
 -1       633    8    0    1
 -2       243       244       395      1514      1970      1971
 -1       634    8    0    1
 -2       243       395       394      1971      1972      1967
 -1       635    8    0    1
 -2       244       245       396      1517      1973      1974
 -1       636    8    0    1
 -2       244       396       395      1974      1975      1970
 -1       637    8    0    1
 -2       245       246       397      1520      1976      1977
 -1       638    8    0    1
 -2       245       397       396      1977      1978      1973
 -1       639    8    0    1
 -2       246       247       398      1523      1979      1980
 -1       640    8    0    1
 -2       246       398       397      1980      1981      1976
 -1       641    8    0    1
 -2       247       248       399      1526      1982      1983
 -1       642    8    0    1
 -2       247       399       398      1983      1984      1979
 -1       643    8    0    1
 -2       248       249       400      1529      1985      1986
 -1       644    8    0    1
 -2       248       400       399      1986      1987      1982
 -1       645    8    0    1
 -2       249       250       401      1532      1988      1989
 -1       646    8    0    1
 -2       249       401       400      1989      1990      1985
 -1       647    8    0    1
 -2       250       251       402      1535      1991      1992
 -1       648    8    0    1
 -2       250       402       401      1992      1993      1988
 -1       649    8    0    1
 -2       251       252       403      1538      1994      1995
 -1       650    8    0    1
 -2       251       403       402      1995      1996      1991
 -1       651    8    0    1
 -2       252       253       404      1541      1997      1998
 -1       652    8    0    1
 -2       252       404       403      1998      1999      1994
 -1       653    8    0    1
 -2       253       254       405      1544      2000      2001
 -1       654    8    0    1
 -2       253       405       404      2001      2002      1997
 -1       655    8    0    1
 -2       254       255       406      1547      2003      2004
 -1       656    8    0    1
 -2       254       406       405      2004      2005      2000
 -1       657    8    0    1
 -2       255       256       407      1550      2006      2007
 -1       658    8    0    1
 -2       255       407       406      2007      2008      2003
 -1       659    8    0    1
 -2       256       257       408      1553      2009      2010
 -1       660    8    0    1
 -2       256       408       407      2010      2011      2006
 -1       661    8    0    1
 -2       257       258       409      1556      2012      2013
 -1       662    8    0    1
 -2       257       409       408      2013      2014      2009
 -1       663    8    0    1
 -2       258       259       410      1559      2015      2016
 -1       664    8    0    1
 -2       258       410       409      2016      2017      2012
 -1       665    8    0    1
 -2       259       260       411      1562      2018      2019
 -1       666    8    0    1
 -2       259       411       410      2019      2020      2015
 -1       667    8    0    1
 -2       260       261       412      1565      2021      2022
 -1       668    8    0    1
 -2       260       412       411      2022      2023      2018
 -1       669    8    0    1
 -2       261       262       413      1568      2024      2025
 -1       670    8    0    1
 -2       261       413       412      2025      2026      2021
 -1       671    8    0    1
 -2       262       263       414      1571      2027      2028
 -1       672    8    0    1
 -2       262       414       413      2028      2029      2024
 -1       673    8    0    1
 -2       263       264       415      1574      2030      2031
 -1       674    8    0    1
 -2       263       415       414      2031      2032      2027
 -1       675    8    0    1
 -2       264       265       416      1577      2033      2034
 -1       676    8    0    1
 -2       264       416       415      2034      2035      2030
 -1       677    8    0    1
 -2       265       266       417      1580      2036      2037
 -1       678    8    0    1
 -2       265       417       416      2037      2038      2033
 -1       679    8    0    1
 -2       266       267       418      1583      2039      2040
 -1       680    8    0    1
 -2       266       418       417      2040      2041      2036
 -1       681    8    0    1
 -2       267       268       419      1586      2042      2043
 -1       682    8    0    1
 -2       267       419       418      2043      2044      2039
 -1       683    8    0    1
 -2       268       269       420      1589      2045      2046
 -1       684    8    0    1
 -2       268       420       419      2046      2047      2042
 -1       685    8    0    1
 -2       269       270       421      1592      2048      2049
 -1       686    8    0    1
 -2       269       421       420      2049      2050      2045
 -1       687    8    0    1
 -2       270       271       422      1595      2051      2052
 -1       688    8    0    1
 -2       270       422       421      2052      2053      2048
 -1       689    8    0    1
 -2       271       272       423      1598      2054      2055
 -1       690    8    0    1
 -2       271       423       422      2055      2056      2051
 -1       691    8    0    1
 -2       272       273       424      1601      2057      2058
 -1       692    8    0    1
 -2       272       424       423      2058      2059      2054
 -1       693    8    0    1
 -2       273       274       425      1604      2060      2061
 -1       694    8    0    1
 -2       273       425       424      2061      2062      2057
 -1       695    8    0    1
 -2       274       275       426      1607      2063      2064
 -1       696    8    0    1
 -2       425       274       426      2060      2064      2065
 -1       697    8    0    1
 -2       275       276       426      1715      2066      2063
 -1       698    8    0    1
 -2       278       279       427      1619      2067      2068
 -1       699    8    0    1
 -2       277       278       428      1616      2069      2070
 -1       700    8    0    1
 -2       278       427       428      2068      2071      2069
 -1       701    8    0    1
 -2       276       277       429      1613      2072      2073
 -1       702    8    0    1
 -2       426       276       429      2066      2073      2074
 -1       703    8    0    1
 -2       277       428       429      2070      2075      2072
 -1       704    8    0    1
 -2       279       280       430      1622      2076      2077
 -1       705    8    0    1
 -2       279       430       427      2077      2078      2067
 -1       706    8    0    1
 -2       280       281       431      1625      2079      2080
 -1       707    8    0    1
 -2       280       431       430      2080      2081      2076
 -1       708    8    0    1
 -2       281       282       432      1628      2082      2083
 -1       709    8    0    1
 -2       281       432       431      2083      2084      2079
 -1       710    8    0    1
 -2       282       283       433      1631      2085      2086
 -1       711    8    0    1
 -2       282       433       432      2086      2087      2082
 -1       712    8    0    1
 -2       283       284       434      1634      2088      2089
 -1       713    8    0    1
 -2       283       434       433      2089      2090      2085
 -1       714    8    0    1
 -2       284       285       435      1637      2091      2092
 -1       715    8    0    1
 -2       284       435       434      2092      2093      2088
 -1       716    8    0    1
 -2       285       286       436      1640      2094      2095
 -1       717    8    0    1
 -2       285       436       435      2095      2096      2091
 -1       718    8    0    1
 -2       286       287       437      1643      2097      2098
 -1       719    8    0    1
 -2       286       437       436      2098      2099      2094
 -1       720    8    0    1
 -2       287       288       438      1646      2100      2101
 -1       721    8    0    1
 -2       287       438       437      2101      2102      2097
 -1       722    8    0    1
 -2       288       289       439      1649      2103      2104
 -1       723    8    0    1
 -2       288       439       438      2104      2105      2100
 -1       724    8    0    1
 -2       292       293       440      1717      2106      2107
 -1       725    8    0    1
 -2       319       291       441      1718      2108      2109
 -1       726    8    0    1
 -2       291       292       442      1716      2110      2111
 -1       727    8    0    1
 -2       293       294       443      1713      2112      2113
 -1       728    8    0    1
 -2       294       295       444      1712      2114      2115
 -1       729    8    0    1
 -2       166       167       445      1281      2116      2117
 -1       730    8    0    1
 -2       320       166       445      1744      2117      2118
 -1       731    8    0    1
 -2       167       322       445      1750      2119      2116
 -1       732    8    0    1
 -2       296       297       446      1720      2120      2121
 -1       733    8    0    1
 -2       297       298       447      1721      2122      2123
 -1       734    8    0    1
 -2       298       299       448      1722      2124      2125
 -1       735    8    0    1
 -2       298       448       447      2125      2126      2122
 -1       736    8    0    1
 -2       299       300       449      1723      2127      2128
 -1       737    8    0    1
 -2       300       301       450      1724      2129      2130
 -1       738    8    0    1
 -2       301       302       451      1725      2131      2132
 -1       739    8    0    1
 -2       302       303       452      1726      2133      2134
 -1       740    8    0    1
 -2       303       304       453      1727      2135      2136
 -1       741    8    0    1
 -2       304       305       454      1728      2137      2138
 -1       742    8    0    1
 -2       305       306       455      1729      2139      2140
 -1       743    8    0    1
 -2       305       455       454      2140      2141      2137
 -1       744    8    0    1
 -2       306       307       456      1730      2142      2143
 -1       745    8    0    1
 -2       307       308       457      1731      2144      2145
 -1       746    8    0    1
 -2       308       309       458      1732      2146      2147
 -1       747    8    0    1
 -2       309       310       459      1733      2148      2149
 -1       748    8    0    1
 -2       310       311       460      1734      2150      2151
 -1       749    8    0    1
 -2       311       312       461      1735      2152      2153
 -1       750    8    0    1
 -2       311       461       460      2153      2154      2150
 -1       751    8    0    1
 -2       312       313       462      1736      2155      2156
 -1       752    8    0    1
 -2       313       314       463      1737      2157      2158
 -1       753    8    0    1
 -2       314       315       464      1738      2159      2160
 -1       754    8    0    1
 -2       314       464       463      2160      2161      2157
 -1       755    8    0    1
 -2       315       316       465      1739      2162      2163
 -1       756    8    0    1
 -2       316       317       466      1740      2164      2165
 -1       757    8    0    1
 -2       317       318       467      1741      2166      2167
 -1       758    8    0    1
 -2       318       319       468      1742      2168      2169
 -1       759    8    0    1
 -2       318       468       467      2169      2170      2166
 -1       760    8    0    1
 -2       295       296       469      1719      2171      2172
 -1       761    8    0    1
 -2       296       446       469      2121      2173      2171
 -1       762    8    0    1
 -2       443       294       444      2112      2115      2174
 -1       763    8    0    1
 -2       180       321       181      1789      2175      1323
 -1       764    8    0    1
 -2       444       295       470      2114      2176      2177
 -1       765    8    0    1
 -2       295       469       470      2172      2178      2176
 -1       766    8    0    1
 -2       335       181       321      1790      2175      2179
 -1       767    8    0    1
 -2       442       292       440      2110      2107      2180
 -1       768    8    0    1
 -2       441       291       442      2108      2111      2181
 -1       769    8    0    1
 -2       439       289       290      2103      1652      2182
 -1       770    8    0    1
 -2       440       293       443      2106      2113      2183
 -1       771    8    0    1
 -2       319       441       468      2109      2184      2168
 -1       772    8    0    1
 -2       466       317       467      2164      2167      2185
 -1       773    8    0    1
 -2       464       315       465      2159      2163      2186
 -1       774    8    0    1
 -2       461       312       462      2152      2156      2187
 -1       775    8    0    1
 -2       459       310       471      2148      2188      2189
 -1       776    8    0    1
 -2       310       460       471      2151      2190      2188
 -1       777    8    0    1
 -2       458       309       459      2146      2149      2191
 -1       778    8    0    1
 -2       457       308       458      2144      2147      2192
 -1       779    8    0    1
 -2       455       306       456      2139      2143      2193
 -1       780    8    0    1
 -2       453       304       454      2135      2138      2194
 -1       781    8    0    1
 -2       452       303       453      2133      2136      2195
 -1       782    8    0    1
 -2       451       302       452      2131      2134      2196
 -1       783    8    0    1
 -2       450       301       451      2129      2132      2197
 -1       784    8    0    1
 -2       448       299       449      2124      2128      2198
 -1       785    8    0    1
 -2       446       297       472      2120      2199      2200
 -1       786    8    0    1
 -2       297       447       472      2123      2201      2199
 -1       787    8    0    1
 -2       449       300       450      2127      2130      2202
 -1       788    8    0    1
 -2       456       307       457      2142      2145      2203
 -1       789    8    0    1
 -2       462       313       473      2155      2204      2205
 -1       790    8    0    1
 -2       313       463       473      2158      2206      2204
 -1       791    8    0    1
 -2       465       316       466      2162      2165      2207
 -1       792    8    0    1
 -2       334       381       474      1930      2208      2209
 -1       793    8    0    1
 -2       323       324       475      1756      2210      2211
 -1       794    8    0    1
 -2       322       323       476      1753      2212      2213
 -1       795    8    0    1
 -2       323       475       476      2211      2214      2212
 -1       796    8    0    1
 -2       325       326       477      1762      2215      2216
 -1       797    8    0    1
 -2       326       327       478      1765      2217      2218
 -1       798    8    0    1
 -2       326       478       477      2218      2219      2215
 -1       799    8    0    1
 -2       327       328       479      1768      2220      2221
 -1       800    8    0    1
 -2       327       479       478      2221      2222      2217
 -1       801    8    0    1
 -2       328       329       480      1771      2223      2224
 -1       802    8    0    1
 -2       328       480       479      2224      2225      2220
 -1       803    8    0    1
 -2       329       330       481      1774      2226      2227
 -1       804    8    0    1
 -2       329       481       480      2227      2228      2223
 -1       805    8    0    1
 -2       330       331       482      1777      2229      2230
 -1       806    8    0    1
 -2       330       482       481      2230      2231      2226
 -1       807    8    0    1
 -2       381       382       483      1933      2232      2233
 -1       808    8    0    1
 -2       381       483       474      2233      2234      2208
 -1       809    8    0    1
 -2       336       335       484      1794      2235      2236
 -1       810    8    0    1
 -2       443       444       485      2174      2237      2238
 -1       811    8    0    1
 -2       337       336       486      1797      2239      2240
 -1       812    8    0    1
 -2       336       484       486      2236      2241      2239
 -1       813    8    0    1
 -2       338       337       487      1800      2242      2243
 -1       814    8    0    1
 -2       337       486       487      2240      2244      2242
 -1       815    8    0    1
 -2       339       338       488      1803      2245      2246
 -1       816    8    0    1
 -2       338       487       488      2243      2247      2245
 -1       817    8    0    1
 -2       340       339       489      1806      2248      2249
 -1       818    8    0    1
 -2       339       488       489      2246      2250      2248
 -1       819    8    0    1
 -2       341       340       490      1809      2251      2252
 -1       820    8    0    1
 -2       340       489       490      2249      2253      2251
 -1       821    8    0    1
 -2       342       341       491      1812      2254      2255
 -1       822    8    0    1
 -2       341       490       491      2252      2256      2254
 -1       823    8    0    1
 -2       343       342       492      1815      2257      2258
 -1       824    8    0    1
 -2       342       491       492      2255      2259      2257
 -1       825    8    0    1
 -2       344       343       493      1818      2260      2261
 -1       826    8    0    1
 -2       343       492       493      2258      2262      2260
 -1       827    8    0    1
 -2       345       344       494      1821      2263      2264
 -1       828    8    0    1
 -2       344       493       494      2261      2265      2263
 -1       829    8    0    1
 -2       346       345       495      1824      2266      2267
 -1       830    8    0    1
 -2       345       494       495      2264      2268      2266
 -1       831    8    0    1
 -2       347       346       496      1827      2269      2270
 -1       832    8    0    1
 -2       346       495       496      2267      2271      2269
 -1       833    8    0    1
 -2       348       347       497      1830      2272      2273
 -1       834    8    0    1
 -2       347       496       497      2270      2274      2272
 -1       835    8    0    1
 -2       349       348       498      1833      2275      2276
 -1       836    8    0    1
 -2       348       497       498      2273      2277      2275
 -1       837    8    0    1
 -2       350       349       499      1836      2278      2279
 -1       838    8    0    1
 -2       349       498       499      2276      2280      2278
 -1       839    8    0    1
 -2       351       350       500      1839      2281      2282
 -1       840    8    0    1
 -2       350       499       500      2279      2283      2281
 -1       841    8    0    1
 -2       352       351       501      1842      2284      2285
 -1       842    8    0    1
 -2       351       500       501      2282      2286      2284
 -1       843    8    0    1
 -2       353       352       502      1845      2287      2288
 -1       844    8    0    1
 -2       352       501       502      2285      2289      2287
 -1       845    8    0    1
 -2       354       353       503      1848      2290      2291
 -1       846    8    0    1
 -2       353       502       503      2288      2292      2290
 -1       847    8    0    1
 -2       355       354       504      1851      2293      2294
 -1       848    8    0    1
 -2       354       503       504      2291      2295      2293
 -1       849    8    0    1
 -2       356       355       505      1854      2296      2297
 -1       850    8    0    1
 -2       355       504       505      2294      2298      2296
 -1       851    8    0    1
 -2       357       356       506      1857      2299      2300
 -1       852    8    0    1
 -2       356       505       506      2297      2301      2299
 -1       853    8    0    1
 -2       358       357       507      1860      2302      2303
 -1       854    8    0    1
 -2       357       506       507      2300      2304      2302
 -1       855    8    0    1
 -2       359       358       508      1863      2305      2306
 -1       856    8    0    1
 -2       358       507       508      2303      2307      2305
 -1       857    8    0    1
 -2       360       359       509      1866      2308      2309
 -1       858    8    0    1
 -2       359       508       509      2306      2310      2308
 -1       859    8    0    1
 -2       361       360       510      1869      2311      2312
 -1       860    8    0    1
 -2       360       509       510      2309      2313      2311
 -1       861    8    0    1
 -2       362       361       511      1872      2314      2315
 -1       862    8    0    1
 -2       361       510       511      2312      2316      2314
 -1       863    8    0    1
 -2       363       362       512      1875      2317      2318
 -1       864    8    0    1
 -2       362       511       512      2315      2319      2317
 -1       865    8    0    1
 -2       364       363       513      1878      2320      2321
 -1       866    8    0    1
 -2       363       512       513      2318      2322      2320
 -1       867    8    0    1
 -2       365       364       514      1881      2323      2324
 -1       868    8    0    1
 -2       364       513       514      2321      2325      2323
 -1       869    8    0    1
 -2       366       365       515      1884      2326      2327
 -1       870    8    0    1
 -2       365       514       515      2324      2328      2326
 -1       871    8    0    1
 -2       367       366       516      1887      2329      2330
 -1       872    8    0    1
 -2       366       515       516      2327      2331      2329
 -1       873    8    0    1
 -2       368       367       517      1890      2332      2333
 -1       874    8    0    1
 -2       367       516       517      2330      2334      2332
 -1       875    8    0    1
 -2       369       368       518      1893      2335      2336
 -1       876    8    0    1
 -2       368       517       518      2333      2337      2335
 -1       877    8    0    1
 -2       370       369       519      1896      2338      2339
 -1       878    8    0    1
 -2       369       518       519      2336      2340      2338
 -1       879    8    0    1
 -2       371       370       520      1899      2341      2342
 -1       880    8    0    1
 -2       370       519       520      2339      2343      2341
 -1       881    8    0    1
 -2       372       371       521      1902      2344      2345
 -1       882    8    0    1
 -2       371       520       521      2342      2346      2344
 -1       883    8    0    1
 -2       373       372       522      1905      2347      2348
 -1       884    8    0    1
 -2       372       521       522      2345      2349      2347
 -1       885    8    0    1
 -2       374       373       523      1908      2350      2351
 -1       886    8    0    1
 -2       373       522       523      2348      2352      2350
 -1       887    8    0    1
 -2       375       374       524      1911      2353      2354
 -1       888    8    0    1
 -2       374       523       524      2351      2355      2353
 -1       889    8    0    1
 -2       376       375       525      1914      2356      2357
 -1       890    8    0    1
 -2       375       524       525      2354      2358      2356
 -1       891    8    0    1
 -2       377       376       526      1917      2359      2360
 -1       892    8    0    1
 -2       376       525       526      2357      2361      2359
 -1       893    8    0    1
 -2       378       377       527      1920      2362      2363
 -1       894    8    0    1
 -2       377       526       527      2360      2364      2362
 -1       895    8    0    1
 -2       379       378       528      1923      2365      2366
 -1       896    8    0    1
 -2       378       527       528      2363      2367      2365
 -1       897    8    0    1
 -2       383       384       529      1939      2368      2369
 -1       898    8    0    1
 -2       384       385       530      1942      2370      2371
 -1       899    8    0    1
 -2       384       530       529      2371      2372      2368
 -1       900    8    0    1
 -2       385       386       531      1945      2373      2374
 -1       901    8    0    1
 -2       385       531       530      2374      2375      2370
 -1       902    8    0    1
 -2       386       387       532      1948      2376      2377
 -1       903    8    0    1
 -2       386       532       531      2377      2378      2373
 -1       904    8    0    1
 -2       387       388       533      1951      2379      2380
 -1       905    8    0    1
 -2       387       533       532      2380      2381      2376
 -1       906    8    0    1
 -2       388       389       534      1954      2382      2383
 -1       907    8    0    1
 -2       388       534       533      2383      2384      2379
 -1       908    8    0    1
 -2       389       390       535      1957      2385      2386
 -1       909    8    0    1
 -2       389       535       534      2386      2387      2382
 -1       910    8    0    1
 -2       390       391       536      1960      2388      2389
 -1       911    8    0    1
 -2       390       536       535      2389      2390      2385
 -1       912    8    0    1
 -2       391       392       537      1963      2391      2392
 -1       913    8    0    1
 -2       391       537       536      2392      2393      2388
 -1       914    8    0    1
 -2       392       393       538      1966      2394      2395
 -1       915    8    0    1
 -2       392       538       537      2395      2396      2391
 -1       916    8    0    1
 -2       393       394       539      1969      2397      2398
 -1       917    8    0    1
 -2       393       539       538      2398      2399      2394
 -1       918    8    0    1
 -2       394       395       540      1972      2400      2401
 -1       919    8    0    1
 -2       394       540       539      2401      2402      2397
 -1       920    8    0    1
 -2       395       396       541      1975      2403      2404
 -1       921    8    0    1
 -2       395       541       540      2404      2405      2400
 -1       922    8    0    1
 -2       396       397       542      1978      2406      2407
 -1       923    8    0    1
 -2       396       542       541      2407      2408      2403
 -1       924    8    0    1
 -2       397       398       543      1981      2409      2410
 -1       925    8    0    1
 -2       397       543       542      2410      2411      2406
 -1       926    8    0    1
 -2       398       399       544      1984      2412      2413
 -1       927    8    0    1
 -2       398       544       543      2413      2414      2409
 -1       928    8    0    1
 -2       399       400       545      1987      2415      2416
 -1       929    8    0    1
 -2       399       545       544      2416      2417      2412
 -1       930    8    0    1
 -2       400       401       546      1990      2418      2419
 -1       931    8    0    1
 -2       400       546       545      2419      2420      2415
 -1       932    8    0    1
 -2       401       402       547      1993      2421      2422
 -1       933    8    0    1
 -2       401       547       546      2422      2423      2418
 -1       934    8    0    1
 -2       402       403       548      1996      2424      2425
 -1       935    8    0    1
 -2       402       548       547      2425      2426      2421
 -1       936    8    0    1
 -2       403       404       549      1999      2427      2428
 -1       937    8    0    1
 -2       403       549       548      2428      2429      2424
 -1       938    8    0    1
 -2       404       405       550      2002      2430      2431
 -1       939    8    0    1
 -2       404       550       549      2431      2432      2427
 -1       940    8    0    1
 -2       405       406       551      2005      2433      2434
 -1       941    8    0    1
 -2       405       551       550      2434      2435      2430
 -1       942    8    0    1
 -2       406       407       552      2008      2436      2437
 -1       943    8    0    1
 -2       406       552       551      2437      2438      2433
 -1       944    8    0    1
 -2       407       408       553      2011      2439      2440
 -1       945    8    0    1
 -2       407       553       552      2440      2441      2436
 -1       946    8    0    1
 -2       408       409       554      2014      2442      2443
 -1       947    8    0    1
 -2       408       554       553      2443      2444      2439
 -1       948    8    0    1
 -2       409       410       555      2017      2445      2446
 -1       949    8    0    1
 -2       409       555       554      2446      2447      2442
 -1       950    8    0    1
 -2       410       411       556      2020      2448      2449
 -1       951    8    0    1
 -2       410       556       555      2449      2450      2445
 -1       952    8    0    1
 -2       411       412       557      2023      2451      2452
 -1       953    8    0    1
 -2       411       557       556      2452      2453      2448
 -1       954    8    0    1
 -2       412       413       558      2026      2454      2455
 -1       955    8    0    1
 -2       412       558       557      2455      2456      2451
 -1       956    8    0    1
 -2       413       414       559      2029      2457      2458
 -1       957    8    0    1
 -2       413       559       558      2458      2459      2454
 -1       958    8    0    1
 -2       414       415       560      2032      2460      2461
 -1       959    8    0    1
 -2       414       560       559      2461      2462      2457
 -1       960    8    0    1
 -2       415       416       561      2035      2463      2464
 -1       961    8    0    1
 -2       415       561       560      2464      2465      2460
 -1       962    8    0    1
 -2       416       417       562      2038      2466      2467
 -1       963    8    0    1
 -2       416       562       561      2467      2468      2463
 -1       964    8    0    1
 -2       417       418       563      2041      2469      2470
 -1       965    8    0    1
 -2       417       563       562      2470      2471      2466
 -1       966    8    0    1
 -2       418       419       564      2044      2472      2473
 -1       967    8    0    1
 -2       418       564       563      2473      2474      2469
 -1       968    8    0    1
 -2       419       420       565      2047      2475      2476
 -1       969    8    0    1
 -2       419       565       564      2476      2477      2472
 -1       970    8    0    1
 -2       420       421       566      2050      2478      2479
 -1       971    8    0    1
 -2       420       566       565      2479      2480      2475
 -1       972    8    0    1
 -2       421       422       567      2053      2481      2482
 -1       973    8    0    1
 -2       421       567       566      2482      2483      2478
 -1       974    8    0    1
 -2       422       423       568      2056      2484      2485
 -1       975    8    0    1
 -2       422       568       567      2485      2486      2481
 -1       976    8    0    1
 -2       423       424       569      2059      2487      2488
 -1       977    8    0    1
 -2       423       569       568      2488      2489      2484
 -1       978    8    0    1
 -2       424       425       570      2062      2490      2491
 -1       979    8    0    1
 -2       424       570       569      2491      2492      2487
 -1       980    8    0    1
 -2       425       426       429      2065      2074      2493
 -1       981    8    0    1
 -2       430       431       571      2081      2494      2495
 -1       982    8    0    1
 -2       431       432       572      2084      2496      2497
 -1       983    8    0    1
 -2       431       572       571      2497      2498      2494
 -1       984    8    0    1
 -2       428       427       573      2071      2499      2500
 -1       985    8    0    1
 -2       427       430       574      2078      2501      2502
 -1       986    8    0    1
 -2       573       427       574      2499      2502      2503
 -1       987    8    0    1
 -2       430       571       574      2495      2504      2501
 -1       988    8    0    1
 -2       432       433       575      2087      2505      2506
 -1       989    8    0    1
 -2       432       575       572      2506      2507      2496
 -1       990    8    0    1
 -2       433       434       576      2090      2508      2509
 -1       991    8    0    1
 -2       433       576       575      2509      2510      2505
 -1       992    8    0    1
 -2       434       435       577      2093      2511      2512
 -1       993    8    0    1
 -2       434       577       576      2512      2513      2508
 -1       994    8    0    1
 -2       435       436       578      2096      2514      2515
 -1       995    8    0    1
 -2       435       578       577      2515      2516      2511
 -1       996    8    0    1
 -2       436       437       579      2099      2517      2518
 -1       997    8    0    1
 -2       436       579       578      2518      2519      2514
 -1       998    8    0    1
 -2       437       438       580      2102      2520      2521
 -1       999    8    0    1
 -2       437       580       579      2521      2522      2517
 -1      1000    8    0    1
 -2       438       439       581      2105      2523      2524
 -1      1001    8    0    1
 -2       438       581       580      2524      2525      2520
 -1      1002    8    0    1
 -2       441       442       582      2181      2526      2527
 -1      1003    8    0    1
 -2       440       443       583      2183      2528      2529
 -1      1004    8    0    1
 -2       443       485       583      2238      2530      2528
 -1      1005    8    0    1
 -2       382       383       584      1936      2531      2532
 -1      1006    8    0    1
 -2       383       529       584      2369      2533      2531
 -1      1007    8    0    1
 -2       439       290       380      2182      1926      2534
 -1      1008    8    0    1
 -2       468       441       585      2184      2535      2536
 -1      1009    8    0    1
 -2       442       440       586      2180      2537      2538
 -1      1010    8    0    1
 -2       466       467       587      2185      2539      2540
 -1      1011    8    0    1
 -2       335       321       588      2179      2541      2542
 -1      1012    8    0    1
 -2       484       335       588      2235      2542      2543
 -1      1013    8    0    1
 -2       321       320       588      1748      2544      2541
 -1      1014    8    0    1
 -2       461       462       589      2187      2545      2546
 -1      1015    8    0    1
 -2       453       454       590      2194      2547      2548
 -1      1016    8    0    1
 -2       324       325       591      1759      2549      2550
 -1      1017    8    0    1
 -2       475       324       591      2210      2550      2551
 -1      1018    8    0    1
 -2       325       477       591      2216      2552      2549
 -1      1019    8    0    1
 -2       449       450       592      2202      2553      2554
 -1      1020    8    0    1
 -2       447       448       593      2126      2555      2556
 -1      1021    8    0    1
 -2       456       457       594      2203      2557      2558
 -1      1022    8    0    1
 -2       448       449       595      2198      2559      2560
 -1      1023    8    0    1
 -2       450       451       596      2197      2561      2562
 -1      1024    8    0    1
 -2       451       452       597      2196      2563      2564
 -1      1025    8    0    1
 -2       451       597       596      2564      2565      2561
 -1      1026    8    0    1
 -2       452       453       598      2195      2566      2567
 -1      1027    8    0    1
 -2       454       455       599      2141      2568      2569
 -1      1028    8    0    1
 -2       455       456       600      2193      2570      2571
 -1      1029    8    0    1
 -2       455       600       599      2571      2572      2568
 -1      1030    8    0    1
 -2       457       458       601      2192      2573      2574
 -1      1031    8    0    1
 -2       458       459       602      2191      2575      2576
 -1      1032    8    0    1
 -2       458       602       601      2576      2577      2573
 -1      1033    8    0    1
 -2       460       461       603      2154      2578      2579
 -1      1034    8    0    1
 -2       465       466       604      2207      2580      2581
 -1      1035    8    0    1
 -2       463       464       605      2161      2582      2583
 -1      1036    8    0    1
 -2       464       465       606      2186      2584      2585
 -1      1037    8    0    1
 -2       467       468       607      2170      2586      2587
 -1      1038    8    0    1
 -2       468       585       607      2536      2588      2586
 -1      1039    8    0    1
 -2       469       446       608      2173      2589      2590
 -1      1040    8    0    1
 -2       333       334       609      1788      2591      2592
 -1      1041    8    0    1
 -2       332       333       609      1783      2592      2593
 -1      1042    8    0    1
 -2       334       474       609      2209      2594      2591
 -1      1043    8    0    1
 -2       449       592       610      2554      2595      2596
 -1      1044    8    0    1
 -2       449       610       595      2596      2597      2559
 -1      1045    8    0    1
 -2       322       476       611      2213      2598      2599
 -1      1046    8    0    1
 -2       322       611       445      2599      2600      2119
 -1      1047    8    0    1
 -2       483       382       584      2232      2532      2601
 -1      1048    8    0    1
 -2       331       332       609      1780      2593      2602
 -1      1049    8    0    1
 -2       470       469       612      2178      2603      2604
 -1      1050    8    0    1
 -2       469       608       612      2590      2605      2603
 -1      1051    8    0    1
 -2       606       465       604      2584      2581      2606
 -1      1052    8    0    1
 -2       589       462       613      2545      2607      2608
 -1      1053    8    0    1
 -2       462       473       613      2205      2609      2607
 -1      1054    8    0    1
 -2       331       609       482      2602      2610      2229
 -1      1055    8    0    1
 -2       444       470       614      2177      2611      2612
 -1      1056    8    0    1
 -2       444       614       485      2612      2613      2237
 -1      1057    8    0    1
 -2       605       464       606      2582      2585      2614
 -1      1058    8    0    1
 -2       604       466       587      2580      2540      2615
 -1      1059    8    0    1
 -2       425       429       570      2493      2616      2490
 -1      1060    8    0    1
 -2       429       428       570      2075      2617      2616
 -1      1061    8    0    1
 -2       602       459       615      2575      2618      2619
 -1      1062    8    0    1
 -2       459       471       615      2189      2620      2618
 -1      1063    8    0    1
 -2       441       582       616      2527      2621      2622
 -1      1064    8    0    1
 -2       441       616       585      2622      2623      2535
 -1      1065    8    0    1
 -2       582       442       586      2526      2538      2624
 -1      1066    8    0    1
 -2       440       583       586      2529      2625      2537
 -1      1067    8    0    1
 -2       600       456       594      2570      2558      2626
 -1      1068    8    0    1
 -2       457       601       594      2574      2627      2557
 -1      1069    8    0    1
 -2       597       452       598      2563      2567      2628
 -1      1070    8    0    1
 -2       590       454       599      2547      2569      2629
 -1      1071    8    0    1
 -2       453       590       598      2548      2630      2566
 -1      1072    8    0    1
 -2       471       460       617      2190      2631      2632
 -1      1073    8    0    1
 -2       460       603       617      2579      2633      2631
 -1      1074    8    0    1
 -2       588       320       445      2544      2118      2634
 -1      1075    8    0    1
 -2       587       467       607      2539      2587      2635
 -1      1076    8    0    1
 -2       472       447       618      2201      2636      2637
 -1      1077    8    0    1
 -2       447       593       618      2556      2638      2636
 -1      1078    8    0    1
 -2       593       448       595      2555      2560      2639
 -1      1079    8    0    1
 -2       461       589       603      2546      2640      2578
 -1      1080    8    0    1
 -2       446       472       608      2200      2641      2589
 -1      1081    8    0    1
 -2       450       596       592      2562      2642      2553
 -1      1082    8    0    1
 -2       473       463       605      2206      2583      2643
 -1      1083    8    0    1
 -2       439       380       619      2534      2644      2645
 -1      1084    8    0    1
 -2       581       439       619      2523      2645      2646
 -1      1085    8    0    1
 -2       380       379       619      1927      2647      2644
 -1      1086    8    0    1
 -2       570       428       573      2617      2500      2648
 -1      1087    8    0    1
 -2       619       379       528      2647      2366      2649
 -1      1088    8    0    1
 -2       478       479       620      2222      2650      2651
 -1      1089    8    0    1
 -2       477       478       621      2219      2652      2653
 -1      1090    8    0    1
 -2       478       620       621      2651      2654      2652
 -1      1091    8    0    1
 -2       480       481       622      2228      2655      2656
 -1      1092    8    0    1
 -2       481       482       623      2231      2657      2658
 -1      1093    8    0    1
 -2       481       623       622      2658      2659      2655
 -1      1094    8    0    1
 -2       474       483       624      2234      2660      2661
 -1      1095    8    0    1
 -2       607       585       625      2588      2662      2663
 -1      1096    8    0    1
 -2       606       604       626      2606      2664      2665
 -1      1097    8    0    1
 -2       487       486       627      2244      2666      2667
 -1      1098    8    0    1
 -2       488       487       628      2247      2668      2669
 -1      1099    8    0    1
 -2       487       627       628      2667      2670      2668
 -1      1100    8    0    1
 -2       489       488       629      2250      2671      2672
 -1      1101    8    0    1
 -2       488       628       629      2669      2673      2671
 -1      1102    8    0    1
 -2       490       489       630      2253      2674      2675
 -1      1103    8    0    1
 -2       489       629       630      2672      2676      2674
 -1      1104    8    0    1
 -2       491       490       617      2256      2677      2678
 -1      1105    8    0    1
 -2       493       492       613      2262      2679      2680
 -1      1106    8    0    1
 -2       495       494       631      2268      2681      2682
 -1      1107    8    0    1
 -2       496       495       632      2271      2683      2684
 -1      1108    8    0    1
 -2       495       631       632      2682      2685      2683
 -1      1109    8    0    1
 -2       497       496       633      2274      2686      2687
 -1      1110    8    0    1
 -2       496       632       633      2684      2688      2686
 -1      1111    8    0    1
 -2       498       497       634      2277      2689      2690
 -1      1112    8    0    1
 -2       497       633       634      2687      2691      2689
 -1      1113    8    0    1
 -2       499       498       635      2280      2692      2693
 -1      1114    8    0    1
 -2       498       634       635      2690      2694      2692
 -1      1115    8    0    1
 -2       500       499       636      2283      2695      2696
 -1      1116    8    0    1
 -2       499       635       636      2693      2697      2695
 -1      1117    8    0    1
 -2       501       500       637      2286      2698      2699
 -1      1118    8    0    1
 -2       500       636       637      2696      2700      2698
 -1      1119    8    0    1
 -2       502       501       638      2289      2701      2702
 -1      1120    8    0    1
 -2       501       637       638      2699      2703      2701
 -1      1121    8    0    1
 -2       503       502       639      2292      2704      2705
 -1      1122    8    0    1
 -2       502       638       639      2702      2706      2704
 -1      1123    8    0    1
 -2       504       503       640      2295      2707      2708
 -1      1124    8    0    1
 -2       503       639       640      2705      2709      2707
 -1      1125    8    0    1
 -2       505       504       641      2298      2710      2711
 -1      1126    8    0    1
 -2       504       640       641      2708      2712      2710
 -1      1127    8    0    1
 -2       506       505       642      2301      2713      2714
 -1      1128    8    0    1
 -2       505       641       642      2711      2715      2713
 -1      1129    8    0    1
 -2       507       506       643      2304      2716      2717
 -1      1130    8    0    1
 -2       506       642       643      2714      2718      2716
 -1      1131    8    0    1
 -2       508       507       644      2307      2719      2720
 -1      1132    8    0    1
 -2       507       643       644      2717      2721      2719
 -1      1133    8    0    1
 -2       509       508       645      2310      2722      2723
 -1      1134    8    0    1
 -2       508       644       645      2720      2724      2722
 -1      1135    8    0    1
 -2       510       509       646      2313      2725      2726
 -1      1136    8    0    1
 -2       509       645       646      2723      2727      2725
 -1      1137    8    0    1
 -2       511       510       647      2316      2728      2729
 -1      1138    8    0    1
 -2       510       646       647      2726      2730      2728
 -1      1139    8    0    1
 -2       512       511       648      2319      2731      2732
 -1      1140    8    0    1
 -2       511       647       648      2729      2733      2731
 -1      1141    8    0    1
 -2       513       512       649      2322      2734      2735
 -1      1142    8    0    1
 -2       512       648       649      2732      2736      2734
 -1      1143    8    0    1
 -2       514       513       650      2325      2737      2738
 -1      1144    8    0    1
 -2       513       649       650      2735      2739      2737
 -1      1145    8    0    1
 -2       515       514       651      2328      2740      2741
 -1      1146    8    0    1
 -2       514       650       651      2738      2742      2740
 -1      1147    8    0    1
 -2       516       515       652      2331      2743      2744
 -1      1148    8    0    1
 -2       515       651       652      2741      2745      2743
 -1      1149    8    0    1
 -2       517       516       653      2334      2746      2747
 -1      1150    8    0    1
 -2       516       652       653      2744      2748      2746
 -1      1151    8    0    1
 -2       518       517       654      2337      2749      2750
 -1      1152    8    0    1
 -2       517       653       654      2747      2751      2749
 -1      1153    8    0    1
 -2       519       518       655      2340      2752      2753
 -1      1154    8    0    1
 -2       518       654       655      2750      2754      2752
 -1      1155    8    0    1
 -2       520       519       656      2343      2755      2756
 -1      1156    8    0    1
 -2       519       655       656      2753      2757      2755
 -1      1157    8    0    1
 -2       521       520       657      2346      2758      2759
 -1      1158    8    0    1
 -2       520       656       657      2756      2760      2758
 -1      1159    8    0    1
 -2       522       521       658      2349      2761      2762
 -1      1160    8    0    1
 -2       521       657       658      2759      2763      2761
 -1      1161    8    0    1
 -2       523       522       659      2352      2764      2765
 -1      1162    8    0    1
 -2       522       658       659      2762      2766      2764
 -1      1163    8    0    1
 -2       524       523       660      2355      2767      2768
 -1      1164    8    0    1
 -2       523       659       660      2765      2769      2767
 -1      1165    8    0    1
 -2       525       524       661      2358      2770      2771
 -1      1166    8    0    1
 -2       524       660       661      2768      2772      2770
 -1      1167    8    0    1
 -2       526       525       662      2361      2773      2774
 -1      1168    8    0    1
 -2       525       661       662      2771      2775      2773
 -1      1169    8    0    1
 -2       527       526       663      2364      2776      2777
 -1      1170    8    0    1
 -2       526       662       663      2774      2778      2776
 -1      1171    8    0    1
 -2       528       527       664      2367      2779      2780
 -1      1172    8    0    1
 -2       527       663       664      2777      2781      2779
 -1      1173    8    0    1
 -2       530       531       665      2375      2782      2783
 -1      1174    8    0    1
 -2       570       573       666      2648      2784      2785
 -1      1175    8    0    1
 -2       570       666       569      2785      2786      2492
 -1      1176    8    0    1
 -2       529       530       667      2372      2787      2788
 -1      1177    8    0    1
 -2       530       665       667      2783      2789      2787
 -1      1178    8    0    1
 -2       532       533       668      2381      2790      2791
 -1      1179    8    0    1
 -2       533       534       669      2384      2792      2793
 -1      1180    8    0    1
 -2       533       669       668      2793      2794      2790
 -1      1181    8    0    1
 -2       534       535       670      2387      2795      2796
 -1      1182    8    0    1
 -2       534       670       669      2796      2797      2792
 -1      1183    8    0    1
 -2       535       536       671      2390      2798      2799
 -1      1184    8    0    1
 -2       535       671       670      2799      2800      2795
 -1      1185    8    0    1
 -2       536       537       672      2393      2801      2802
 -1      1186    8    0    1
 -2       536       672       671      2802      2803      2798
 -1      1187    8    0    1
 -2       537       538       673      2396      2804      2805
 -1      1188    8    0    1
 -2       537       673       672      2805      2806      2801
 -1      1189    8    0    1
 -2       538       539       674      2399      2807      2808
 -1      1190    8    0    1
 -2       538       674       673      2808      2809      2804
 -1      1191    8    0    1
 -2       539       540       675      2402      2810      2811
 -1      1192    8    0    1
 -2       539       675       674      2811      2812      2807
 -1      1193    8    0    1
 -2       540       541       676      2405      2813      2814
 -1      1194    8    0    1
 -2       540       676       675      2814      2815      2810
 -1      1195    8    0    1
 -2       541       542       677      2408      2816      2817
 -1      1196    8    0    1
 -2       541       677       676      2817      2818      2813
 -1      1197    8    0    1
 -2       542       543       678      2411      2819      2820
 -1      1198    8    0    1
 -2       542       678       677      2820      2821      2816
 -1      1199    8    0    1
 -2       543       544       679      2414      2822      2823
 -1      1200    8    0    1
 -2       543       679       678      2823      2824      2819
 -1      1201    8    0    1
 -2       544       545       680      2417      2825      2826
 -1      1202    8    0    1
 -2       544       680       679      2826      2827      2822
 -1      1203    8    0    1
 -2       545       546       681      2420      2828      2829
 -1      1204    8    0    1
 -2       545       681       680      2829      2830      2825
 -1      1205    8    0    1
 -2       546       547       682      2423      2831      2832
 -1      1206    8    0    1
 -2       546       682       681      2832      2833      2828
 -1      1207    8    0    1
 -2       547       548       683      2426      2834      2835
 -1      1208    8    0    1
 -2       547       683       682      2835      2836      2831
 -1      1209    8    0    1
 -2       548       549       684      2429      2837      2838
 -1      1210    8    0    1
 -2       548       684       683      2838      2839      2834
 -1      1211    8    0    1
 -2       549       550       685      2432      2840      2841
 -1      1212    8    0    1
 -2       549       685       684      2841      2842      2837
 -1      1213    8    0    1
 -2       550       551       686      2435      2843      2844
 -1      1214    8    0    1
 -2       550       686       685      2844      2845      2840
 -1      1215    8    0    1
 -2       551       552       687      2438      2846      2847
 -1      1216    8    0    1
 -2       551       687       686      2847      2848      2843
 -1      1217    8    0    1
 -2       552       553       688      2441      2849      2850
 -1      1218    8    0    1
 -2       552       688       687      2850      2851      2846
 -1      1219    8    0    1
 -2       553       554       689      2444      2852      2853
 -1      1220    8    0    1
 -2       553       689       688      2853      2854      2849
 -1      1221    8    0    1
 -2       554       555       690      2447      2855      2856
 -1      1222    8    0    1
 -2       554       690       689      2856      2857      2852
 -1      1223    8    0    1
 -2       555       556       691      2450      2858      2859
 -1      1224    8    0    1
 -2       555       691       690      2859      2860      2855
 -1      1225    8    0    1
 -2       556       557       692      2453      2861      2862
 -1      1226    8    0    1
 -2       556       692       691      2862      2863      2858
 -1      1227    8    0    1
 -2       557       558       693      2456      2864      2865
 -1      1228    8    0    1
 -2       557       693       692      2865      2866      2861
 -1      1229    8    0    1
 -2       558       559       694      2459      2867      2868
 -1      1230    8    0    1
 -2       558       694       693      2868      2869      2864
 -1      1231    8    0    1
 -2       559       560       695      2462      2870      2871
 -1      1232    8    0    1
 -2       559       695       694      2871      2872      2867
 -1      1233    8    0    1
 -2       560       561       696      2465      2873      2874
 -1      1234    8    0    1
 -2       560       696       695      2874      2875      2870
 -1      1235    8    0    1
 -2       561       562       697      2468      2876      2877
 -1      1236    8    0    1
 -2       561       697       696      2877      2878      2873
 -1      1237    8    0    1
 -2       562       563       698      2471      2879      2880
 -1      1238    8    0    1
 -2       562       698       697      2880      2881      2876
 -1      1239    8    0    1
 -2       563       564       699      2474      2882      2883
 -1      1240    8    0    1
 -2       563       699       698      2883      2884      2879
 -1      1241    8    0    1
 -2       564       565       700      2477      2885      2886
 -1      1242    8    0    1
 -2       564       700       699      2886      2887      2882
 -1      1243    8    0    1
 -2       565       566       701      2480      2888      2889
 -1      1244    8    0    1
 -2       565       701       700      2889      2890      2885
 -1      1245    8    0    1
 -2       566       567       702      2483      2891      2892
 -1      1246    8    0    1
 -2       566       702       701      2892      2893      2888
 -1      1247    8    0    1
 -2       567       568       703      2486      2894      2895
 -1      1248    8    0    1
 -2       567       703       702      2895      2896      2891
 -1      1249    8    0    1
 -2       568       569       704      2489      2897      2898
 -1      1250    8    0    1
 -2       703       568       704      2894      2898      2899
 -1      1251    8    0    1
 -2       569       666       704      2786      2900      2897
 -1      1252    8    0    1
 -2       575       576       705      2510      2901      2902
 -1      1253    8    0    1
 -2       619       528       706      2649      2903      2904
 -1      1254    8    0    1
 -2       528       664       706      2780      2905      2903
 -1      1255    8    0    1
 -2       571       572       707      2498      2906      2907
 -1      1256    8    0    1
 -2       576       577       708      2513      2908      2909
 -1      1257    8    0    1
 -2       576       708       705      2909      2910      2901
 -1      1258    8    0    1
 -2       572       575       709      2507      2911      2912
 -1      1259    8    0    1
 -2       707       572       709      2906      2912      2913
 -1      1260    8    0    1
 -2       575       705       709      2902      2914      2911
 -1      1261    8    0    1
 -2       583       485       710      2530      2915      2916
 -1      1262    8    0    1
 -2       577       578       711      2516      2917      2918
 -1      1263    8    0    1
 -2       577       711       708      2918      2919      2908
 -1      1264    8    0    1
 -2       578       579       712      2519      2920      2921
 -1      1265    8    0    1
 -2       578       712       711      2921      2922      2917
 -1      1266    8    0    1
 -2       579       580       713      2522      2923      2924
 -1      1267    8    0    1
 -2       579       713       712      2924      2925      2920
 -1      1268    8    0    1
 -2       584       529       714      2533      2926      2927
 -1      1269    8    0    1
 -2       529       667       714      2788      2928      2926
 -1      1270    8    0    1
 -2       600       594       715      2626      2929      2930
 -1      1271    8    0    1
 -2       582       586       716      2624      2931      2932
 -1      1272    8    0    1
 -2       586       583       717      2625      2933      2934
 -1      1273    8    0    1
 -2       583       710       717      2916      2935      2933
 -1      1274    8    0    1
 -2       484       588       718      2543      2936      2937
 -1      1275    8    0    1
 -2       590       599       719      2629      2938      2939
 -1      1276    8    0    1
 -2       597       598       720      2628      2940      2941
 -1      1277    8    0    1
 -2       531       532       721      2378      2942      2943
 -1      1278    8    0    1
 -2       665       531       721      2782      2943      2944
 -1      1279    8    0    1
 -2       532       668       721      2791      2945      2942
 -1      1280    8    0    1
 -2       486       484       722      2241      2946      2947
 -1      1281    8    0    1
 -2       627       486       722      2666      2947      2948
 -1      1282    8    0    1
 -2       484       718       722      2937      2949      2946
 -1      1283    8    0    1
 -2       605       606       723      2614      2950      2951
 -1      1284    8    0    1
 -2       483       584       724      2601      2952      2953
 -1      1285    8    0    1
 -2       624       483       724      2660      2953      2954
 -1      1286    8    0    1
 -2       584       714       724      2927      2955      2952
 -1      1287    8    0    1
 -2       587       607       725      2635      2956      2957
 -1      1288    8    0    1
 -2       607       625       725      2663      2958      2956
 -1      1289    8    0    1
 -2       479       480       726      2225      2959      2960
 -1      1290    8    0    1
 -2       620       479       726      2650      2960      2961
 -1      1291    8    0    1
 -2       480       622       726      2656      2962      2959
 -1      1292    8    0    1
 -2       593       595       727      2639      2963      2964
 -1      1293    8    0    1
 -2       594       601       728      2627      2965      2966
 -1      1294    8    0    1
 -2       476       475       729      2214      2967      2968
 -1      1295    8    0    1
 -2       603       589       730      2640      2969      2970
 -1      1296    8    0    1
 -2       596       597       731      2565      2971      2972
 -1      1297    8    0    1
 -2       598       590       732      2630      2973      2974
 -1      1298    8    0    1
 -2       590       719       732      2939      2975      2973
 -1      1299    8    0    1
 -2       599       600       733      2572      2976      2977
 -1      1300    8    0    1
 -2       482       609       474      2610      2594      2978
 -1      1301    8    0    1
 -2       588       445       718      2634      2979      2936
 -1      1302    8    0    1
 -2       601       602       734      2577      2980      2981
 -1      1303    8    0    1
 -2       608       472       735      2641      2982      2983
 -1      1304    8    0    1
 -2       473       605       736      2643      2984      2985
 -1      1305    8    0    1
 -2       581       619       706      2646      2904      2986
 -1      1306    8    0    1
 -2       604       587       737      2615      2987      2988
 -1      1307    8    0    1
 -2       592       596       738      2642      2989      2990
 -1      1308    8    0    1
 -2       596       731       738      2972      2991      2989
 -1      1309    8    0    1
 -2       611       476       739      2598      2992      2993
 -1      1310    8    0    1
 -2       476       729       739      2968      2994      2992
 -1      1311    8    0    1
 -2       477       621       740      2653      2995      2996
 -1      1312    8    0    1
 -2       477       740       591      2996      2997      2552
 -1      1313    8    0    1
 -2       485       614       710      2613      2998      2915
 -1      1314    8    0    1
 -2       612       608       741      2605      2999      3000
 -1      1315    8    0    1
 -2       608       735       741      2983      3001      2999
 -1      1316    8    0    1
 -2       610       592       742      2595      3002      3003
 -1      1317    8    0    1
 -2       592       738       742      2990      3004      3002
 -1      1318    8    0    1
 -2       613       473       736      2609      2985      3005
 -1      1319    8    0    1
 -2       614       470       743      2611      3006      3007
 -1      1320    8    0    1
 -2       470       612       743      2604      3008      3006
 -1      1321    8    0    1
 -2       593       727       618      2964      3009      2638
 -1      1322    8    0    1
 -2       736       605       723      2984      2951      3010
 -1      1323    8    0    1
 -2       490       630       617      2675      3011      2677
 -1      1324    8    0    1
 -2       493       613       736      2680      3005      3012
 -1      1325    8    0    1
 -2       492       491       730      2259      3013      3014
 -1      1326    8    0    1
 -2       494       493       736      2265      3012      3015
 -1      1327    8    0    1
 -2       571       707       744      2907      3016      3017
 -1      1328    8    0    1
 -2       571       744       574      3017      3018      2504
 -1      1329    8    0    1
 -2       600       715       733      2930      3019      2976
 -1      1330    8    0    1
 -2       731       597       720      2971      2941      3020
 -1      1331    8    0    1
 -2       604       737       626      2988      3021      2664
 -1      1332    8    0    1
 -2       573       574       666      2503      3022      2784
 -1      1333    8    0    1
 -2       615       471       617      2620      2632      3023
 -1      1334    8    0    1
 -2       616       582       716      2621      2932      3024
 -1      1335    8    0    1
 -2       587       725       745      2957      3025      3026
 -1      1336    8    0    1
 -2       587       745       737      3026      3027      2987
 -1      1337    8    0    1
 -2       580       581       706      2525      2986      3028
 -1      1338    8    0    1
 -2       623       482       624      2657      3029      3030
 -1      1339    8    0    1
 -2       720       598       732      2940      2974      3031
 -1      1340    8    0    1
 -2       719       599       733      2938      2977      3032
 -1      1341    8    0    1
 -2       715       594       728      2929      2966      3033
 -1      1342    8    0    1
 -2       601       734       728      2981      3034      2965
 -1      1343    8    0    1
 -2       602       615       746      2619      3035      3036
 -1      1344    8    0    1
 -2       602       746       734      3036      3037      2980
 -1      1345    8    0    1
 -2       445       611       718      2600      3038      2979
 -1      1346    8    0    1
 -2       617       603       730      2633      2970      3039
 -1      1347    8    0    1
 -2       585       616       625      2623      3040      2662
 -1      1348    8    0    1
 -2       475       591       747      2551      3041      3042
 -1      1349    8    0    1
 -2       729       475       747      2967      3042      3043
 -1      1350    8    0    1
 -2       591       740       747      2997      3044      3041
 -1      1351    8    0    1
 -2       730       589       613      2969      2608      3045
 -1      1352    8    0    1
 -2       613       492       730      2679      3014      3045
 -1      1353    8    0    1
 -2       482       474       624      2978      2661      3029
 -1      1354    8    0    1
 -2       727       595       748      2963      3046      3047
 -1      1355    8    0    1
 -2       595       610       748      2597      3048      3046
 -1      1356    8    0    1
 -2       735       472       618      2982      2637      3049
 -1      1357    8    0    1
 -2       580       706       749      3028      3050      3051
 -1      1358    8    0    1
 -2       713       580       749      2923      3051      3052
 -1      1359    8    0    1
 -2       706       664       749      2905      3053      3050
 -1      1360    8    0    1
 -2       622       623       750      2659      3054      3055
 -1      1361    8    0    1
 -2       725       625       751      2958      3056      3057
 -1      1362    8    0    1
 -2       606       626       723      2665      3058      2950
 -1      1363    8    0    1
 -2       738       731       752      2991      3059      3060
 -1      1364    8    0    1
 -2       491       617       730      2678      3039      3013
 -1      1365    8    0    1
 -2       629       628       753      2673      3061      3062
 -1      1366    8    0    1
 -2       630       629       746      2676      3063      3064
 -1      1367    8    0    1
 -2       633       632       754      2688      3065      3066
 -1      1368    8    0    1
 -2       635       634       755      2694      3067      3068
 -1      1369    8    0    1
 -2       636       635       756      2697      3069      3070
 -1      1370    8    0    1
 -2       635       755       756      3068      3071      3069
 -1      1371    8    0    1
 -2       637       636       757      2700      3072      3073
 -1      1372    8    0    1
 -2       636       756       757      3070      3074      3072
 -1      1373    8    0    1
 -2       638       637       758      2703      3075      3076
 -1      1374    8    0    1
 -2       637       757       758      3073      3077      3075
 -1      1375    8    0    1
 -2       639       638       759      2706      3078      3079
 -1      1376    8    0    1
 -2       638       758       759      3076      3080      3078
 -1      1377    8    0    1
 -2       640       639       760      2709      3081      3082
 -1      1378    8    0    1
 -2       639       759       760      3079      3083      3081
 -1      1379    8    0    1
 -2       641       640       761      2712      3084      3085
 -1      1380    8    0    1
 -2       640       760       761      3082      3086      3084
 -1      1381    8    0    1
 -2       642       641       762      2715      3087      3088
 -1      1382    8    0    1
 -2       641       761       762      3085      3089      3087
 -1      1383    8    0    1
 -2       643       642       763      2718      3090      3091
 -1      1384    8    0    1
 -2       642       762       763      3088      3092      3090
 -1      1385    8    0    1
 -2       644       643       764      2721      3093      3094
 -1      1386    8    0    1
 -2       643       763       764      3091      3095      3093
 -1      1387    8    0    1
 -2       645       644       765      2724      3096      3097
 -1      1388    8    0    1
 -2       644       764       765      3094      3098      3096
 -1      1389    8    0    1
 -2       646       645       766      2727      3099      3100
 -1      1390    8    0    1
 -2       645       765       766      3097      3101      3099
 -1      1391    8    0    1
 -2       647       646       767      2730      3102      3103
 -1      1392    8    0    1
 -2       646       766       767      3100      3104      3102
 -1      1393    8    0    1
 -2       648       647       768      2733      3105      3106
 -1      1394    8    0    1
 -2       647       767       768      3103      3107      3105
 -1      1395    8    0    1
 -2       649       648       769      2736      3108      3109
 -1      1396    8    0    1
 -2       648       768       769      3106      3110      3108
 -1      1397    8    0    1
 -2       650       649       770      2739      3111      3112
 -1      1398    8    0    1
 -2       649       769       770      3109      3113      3111
 -1      1399    8    0    1
 -2       651       650       771      2742      3114      3115
 -1      1400    8    0    1
 -2       650       770       771      3112      3116      3114
 -1      1401    8    0    1
 -2       652       651       772      2745      3117      3118
 -1      1402    8    0    1
 -2       651       771       772      3115      3119      3117
 -1      1403    8    0    1
 -2       653       652       773      2748      3120      3121
 -1      1404    8    0    1
 -2       652       772       773      3118      3122      3120
 -1      1405    8    0    1
 -2       654       653       774      2751      3123      3124
 -1      1406    8    0    1
 -2       653       773       774      3121      3125      3123
 -1      1407    8    0    1
 -2       655       654       775      2754      3126      3127
 -1      1408    8    0    1
 -2       654       774       775      3124      3128      3126
 -1      1409    8    0    1
 -2       656       655       776      2757      3129      3130
 -1      1410    8    0    1
 -2       655       775       776      3127      3131      3129
 -1      1411    8    0    1
 -2       657       656       777      2760      3132      3133
 -1      1412    8    0    1
 -2       656       776       777      3130      3134      3132
 -1      1413    8    0    1
 -2       658       657       778      2763      3135      3136
 -1      1414    8    0    1
 -2       657       777       778      3133      3137      3135
 -1      1415    8    0    1
 -2       659       658       779      2766      3138      3139
 -1      1416    8    0    1
 -2       658       778       779      3136      3140      3138
 -1      1417    8    0    1
 -2       660       659       780      2769      3141      3142
 -1      1418    8    0    1
 -2       659       779       780      3139      3143      3141
 -1      1419    8    0    1
 -2       661       660       781      2772      3144      3145
 -1      1420    8    0    1
 -2       660       780       781      3142      3146      3144
 -1      1421    8    0    1
 -2       662       661       782      2775      3147      3148
 -1      1422    8    0    1
 -2       661       781       782      3145      3149      3147
 -1      1423    8    0    1
 -2       663       662       783      2778      3150      3151
 -1      1424    8    0    1
 -2       662       782       783      3148      3152      3150
 -1      1425    8    0    1
 -2       664       663       784      2781      3153      3154
 -1      1426    8    0    1
 -2       749       664       784      3053      3154      3155
 -1      1427    8    0    1
 -2       663       783       784      3151      3156      3153
 -1      1428    8    0    1
 -2       667       665       785      2789      3157      3158
 -1      1429    8    0    1
 -2       732       719       786      2975      3159      3160
 -1      1430    8    0    1
 -2       669       670       787      2797      3161      3162
 -1      1431    8    0    1
 -2       668       669       748      2794      3163      3164
 -1      1432    8    0    1
 -2       671       672       788      2803      3165      3166
 -1      1433    8    0    1
 -2       672       673       789      2806      3167      3168
 -1      1434    8    0    1
 -2       672       789       788      3168      3169      3165
 -1      1435    8    0    1
 -2       673       674       790      2809      3170      3171
 -1      1436    8    0    1
 -2       673       790       789      3171      3172      3167
 -1      1437    8    0    1
 -2       674       675       791      2812      3173      3174
 -1      1438    8    0    1
 -2       674       791       790      3174      3175      3170
 -1      1439    8    0    1
 -2       675       676       792      2815      3176      3177
 -1      1440    8    0    1
 -2       675       792       791      3177      3178      3173
 -1      1441    8    0    1
 -2       676       677       793      2818      3179      3180
 -1      1442    8    0    1
 -2       676       793       792      3180      3181      3176
 -1      1443    8    0    1
 -2       677       678       794      2821      3182      3183
 -1      1444    8    0    1
 -2       677       794       793      3183      3184      3179
 -1      1445    8    0    1
 -2       678       679       795      2824      3185      3186
 -1      1446    8    0    1
 -2       678       795       794      3186      3187      3182
 -1      1447    8    0    1
 -2       679       680       796      2827      3188      3189
 -1      1448    8    0    1
 -2       679       796       795      3189      3190      3185
 -1      1449    8    0    1
 -2       680       681       797      2830      3191      3192
 -1      1450    8    0    1
 -2       680       797       796      3192      3193      3188
 -1      1451    8    0    1
 -2       681       682       798      2833      3194      3195
 -1      1452    8    0    1
 -2       681       798       797      3195      3196      3191
 -1      1453    8    0    1
 -2       682       683       799      2836      3197      3198
 -1      1454    8    0    1
 -2       682       799       798      3198      3199      3194
 -1      1455    8    0    1
 -2       683       684       800      2839      3200      3201
 -1      1456    8    0    1
 -2       683       800       799      3201      3202      3197
 -1      1457    8    0    1
 -2       684       685       801      2842      3203      3204
 -1      1458    8    0    1
 -2       684       801       800      3204      3205      3200
 -1      1459    8    0    1
 -2       685       686       802      2845      3206      3207
 -1      1460    8    0    1
 -2       685       802       801      3207      3208      3203
 -1      1461    8    0    1
 -2       686       687       803      2848      3209      3210
 -1      1462    8    0    1
 -2       686       803       802      3210      3211      3206
 -1      1463    8    0    1
 -2       687       688       804      2851      3212      3213
 -1      1464    8    0    1
 -2       687       804       803      3213      3214      3209
 -1      1465    8    0    1
 -2       688       689       805      2854      3215      3216
 -1      1466    8    0    1
 -2       688       805       804      3216      3217      3212
 -1      1467    8    0    1
 -2       689       690       806      2857      3218      3219
 -1      1468    8    0    1
 -2       689       806       805      3219      3220      3215
 -1      1469    8    0    1
 -2       690       691       807      2860      3221      3222
 -1      1470    8    0    1
 -2       690       807       806      3222      3223      3218
 -1      1471    8    0    1
 -2       691       692       808      2863      3224      3225
 -1      1472    8    0    1
 -2       691       808       807      3225      3226      3221
 -1      1473    8    0    1
 -2       692       693       809      2866      3227      3228
 -1      1474    8    0    1
 -2       692       809       808      3228      3229      3224
 -1      1475    8    0    1
 -2       693       694       810      2869      3230      3231
 -1      1476    8    0    1
 -2       693       810       809      3231      3232      3227
 -1      1477    8    0    1
 -2       694       695       811      2872      3233      3234
 -1      1478    8    0    1
 -2       694       811       810      3234      3235      3230
 -1      1479    8    0    1
 -2       695       696       812      2875      3236      3237
 -1      1480    8    0    1
 -2       695       812       811      3237      3238      3233
 -1      1481    8    0    1
 -2       696       697       813      2878      3239      3240
 -1      1482    8    0    1
 -2       696       813       812      3240      3241      3236
 -1      1483    8    0    1
 -2       697       698       814      2881      3242      3243
 -1      1484    8    0    1
 -2       697       814       813      3243      3244      3239
 -1      1485    8    0    1
 -2       698       699       815      2884      3245      3246
 -1      1486    8    0    1
 -2       698       815       814      3246      3247      3242
 -1      1487    8    0    1
 -2       699       700       816      2887      3248      3249
 -1      1488    8    0    1
 -2       699       816       815      3249      3250      3245
 -1      1489    8    0    1
 -2       700       701       817      2890      3251      3252
 -1      1490    8    0    1
 -2       700       817       816      3252      3253      3248
 -1      1491    8    0    1
 -2       701       702       818      2893      3254      3255
 -1      1492    8    0    1
 -2       701       818       817      3255      3256      3251
 -1      1493    8    0    1
 -2       702       703       819      2896      3257      3258
 -1      1494    8    0    1
 -2       702       819       818      3258      3259      3254
 -1      1495    8    0    1
 -2       621       620       820      2654      3260      3261
 -1      1496    8    0    1
 -2       705       708       821      2910      3262      3263
 -1      1497    8    0    1
 -2       712       713       822      2925      3264      3265
 -1      1498    8    0    1
 -2       708       711       823      2919      3266      3267
 -1      1499    8    0    1
 -2       708       823       821      3267      3268      3262
 -1      1500    8    0    1
 -2       714       667       824      2928      3269      3270
 -1      1501    8    0    1
 -2       667       785       824      3158      3271      3269
 -1      1502    8    0    1
 -2       720       732       825      3031      3272      3273
 -1      1503    8    0    1
 -2       717       710       826      2935      3274      3275
 -1      1504    8    0    1
 -2       716       586       717      2931      2934      3276
 -1      1505    8    0    1
 -2       711       712       827      2922      3277      3278
 -1      1506    8    0    1
 -2       823       711       827      3266      3278      3279
 -1      1507    8    0    1
 -2       712       822       827      3265      3280      3277
 -1      1508    8    0    1
 -2       715       728       828      3033      3281      3282
 -1      1509    8    0    1
 -2       670       671       829      2800      3283      3284
 -1      1510    8    0    1
 -2       787       670       829      3161      3284      3285
 -1      1511    8    0    1
 -2       671       788       829      3166      3286      3283
 -1      1512    8    0    1
 -2       626       737       754      3021      3287      3288
 -1      1513    8    0    1
 -2       710       614       830      2998      3289      3290
 -1      1514    8    0    1
 -2       733       715       831      3019      3291      3292
 -1      1515    8    0    1
 -2       715       828       831      3282      3293      3291
 -1      1516    8    0    1
 -2       628       627       832      2670      3294      3295
 -1      1517    8    0    1
 -2       628       832       753      3295      3296      3061
 -1      1518    8    0    1
 -2       728       734       753      3034      3297      3298
 -1      1519    8    0    1
 -2       625       616       833      3040      3299      3300
 -1      1520    8    0    1
 -2       666       574       744      3022      3018      3301
 -1      1521    8    0    1
 -2       719       733       834      3032      3302      3303
 -1      1522    8    0    1
 -2       616       716       835      3024      3304      3305
 -1      1523    8    0    1
 -2       616       835       833      3305      3306      3299
 -1      1524    8    0    1
 -2       731       720       836      3020      3307      3308
 -1      1525    8    0    1
 -2       718       611       739      3038      2993      3309
 -1      1526    8    0    1
 -2       623       624       837      3030      3310      3311
 -1      1527    8    0    1
 -2       750       623       837      3054      3311      3312
 -1      1528    8    0    1
 -2       624       724       837      2954      3313      3310
 -1      1529    8    0    1
 -2       735       618       787      3049      3314      3315
 -1      1530    8    0    1
 -2       618       727       787      3009      3316      3314
 -1      1531    8    0    1
 -2       716       717       838      3276      3317      3318
 -1      1532    8    0    1
 -2       716       838       835      3318      3319      3304
 -1      1533    8    0    1
 -2       740       621       839      2995      3320      3321
 -1      1534    8    0    1
 -2       621       820       839      3261      3322      3320
 -1      1535    8    0    1
 -2       748       610       742      3048      3003      3323
 -1      1536    8    0    1
 -2       725       751       840      3057      3324      3325
 -1      1537    8    0    1
 -2       725       840       745      3325      3326      3025
 -1      1538    8    0    1
 -2       620       726       841      2961      3327      3328
 -1      1539    8    0    1
 -2       620       841       820      3328      3329      3260
 -1      1540    8    0    1
 -2       741       735       829      3001      3330      3331
 -1      1541    8    0    1
 -2       752       731       836      3059      3308      3332
 -1      1542    8    0    1
 -2       743       612       842      3008      3333      3334
 -1      1543    8    0    1
 -2       612       741       842      3000      3335      3333
 -1      1544    8    0    1
 -2       754       632       626      3065      3336      3288
 -1      1545    8    0    1
 -2       630       746       615      3064      3035      3337
 -1      1546    8    0    1
 -2       719       834       786      3303      3338      3159
 -1      1547    8    0    1
 -2       494       736       723      3015      3010      3339
 -1      1548    8    0    1
 -2       627       722       843      2948      3340      3341
 -1      1549    8    0    1
 -2       627       843       832      3341      3342      3294
 -1      1550    8    0    1
 -2       744       707       844      3016      3343      3344
 -1      1551    8    0    1
 -2       720       825       836      3273      3345      3307
 -1      1552    8    0    1
 -2       634       633       845      2691      3346      3347
 -1      1553    8    0    1
 -2       630       615       617      3337      3023      3011
 -1      1554    8    0    1
 -2       829       735       787      3330      3315      3285
 -1      1555    8    0    1
 -2       844       707       846      3343      3348      3349
 -1      1556    8    0    1
 -2       707       709       846      2913      3350      3348
 -1      1557    8    0    1
 -2       845       633       754      3346      3066      3351
 -1      1558    8    0    1
 -2       722       718       739      2949      3309      3352
 -1      1559    8    0    1
 -2       732       786       825      3160      3353      3272
 -1      1560    8    0    1
 -2       669       787       727      3162      3316      3354
 -1      1561    8    0    1
 -2       668       748       721      3164      3355      2945
 -1      1562    8    0    1
 -2       819       703       847      3257      3356      3357
 -1      1563    8    0    1
 -2       703       704       847      2899      3358      3356
 -1      1564    8    0    1
 -2       622       750       848      3055      3359      3360
 -1      1565    8    0    1
 -2       622       848       726      3360      3361      2962
 -1      1566    8    0    1
 -2       709       705       849      2914      3362      3363
 -1      1567    8    0    1
 -2       846       709       849      3350      3363      3364
 -1      1568    8    0    1
 -2       705       821       849      3263      3365      3362
 -1      1569    8    0    1
 -2       669       727       748      3354      3047      3163
 -1      1570    8    0    1
 -2       717       826       838      3275      3366      3317
 -1      1571    8    0    1
 -2       737       745       754      3027      3367      3287
 -1      1572    8    0    1
 -2       830       614       743      3289      3007      3368
 -1      1573    8    0    1
 -2       710       830       850      3290      3369      3370
 -1      1574    8    0    1
 -2       710       850       826      3370      3371      3274
 -1      1575    8    0    1
 -2       665       721       742      2944      3372      3373
 -1      1576    8    0    1
 -2       733       831       851      3292      3374      3375
 -1      1577    8    0    1
 -2       733       851       834      3375      3376      3302
 -1      1578    8    0    1
 -2       828       728       753      3281      3298      3377
 -1      1579    8    0    1
 -2       724       714       852      2955      3378      3379
 -1      1580    8    0    1
 -2       837       724       852      3313      3379      3380
 -1      1581    8    0    1
 -2       714       824       852      3270      3381      3378
 -1      1582    8    0    1
 -2       625       833       853      3300      3382      3383
 -1      1583    8    0    1
 -2       625       853       751      3383      3384      3056
 -1      1584    8    0    1
 -2       666       744       854      3301      3385      3386
 -1      1585    8    0    1
 -2       704       666       854      2900      3386      3387
 -1      1586    8    0    1
 -2       744       844       854      3344      3388      3385
 -1      1587    8    0    1
 -2       634       845       755      3347      3389      3067
 -1      1588    8    0    1
 -2       785       665       742      3157      3373      3390
 -1      1589    8    0    1
 -2       729       747       855      3043      3391      3392
 -1      1590    8    0    1
 -2       713       749       856      3052      3393      3394
 -1      1591    8    0    1
 -2       822       713       856      3264      3394      3395
 -1      1592    8    0    1
 -2       749       784       856      3155      3396      3393
 -1      1593    8    0    1
 -2       739       729       857      2994      3397      3398
 -1      1594    8    0    1
 -2       729       855       857      3392      3399      3397
 -1      1595    8    0    1
 -2       723       626       632      3058      3336      3400
 -1      1596    8    0    1
 -2       752       836       858      3332      3401      3402
 -1      1597    8    0    1
 -2       742       738       752      3004      3060      3403
 -1      1598    8    0    1
 -2       746       629       753      3063      3062      3404
 -1      1599    8    0    1
 -2       722       739       843      3352      3405      3340
 -1      1600    8    0    1
 -2       836       825       859      3345      3406      3407
 -1      1601    8    0    1
 -2       757       756       860      3074      3408      3409
 -1      1602    8    0    1
 -2       758       757       861      3077      3410      3411
 -1      1603    8    0    1
 -2       757       860       861      3409      3412      3410
 -1      1604    8    0    1
 -2       759       758       862      3080      3413      3414
 -1      1605    8    0    1
 -2       758       861       862      3411      3415      3413
 -1      1606    8    0    1
 -2       760       759       863      3083      3416      3417
 -1      1607    8    0    1
 -2       759       862       863      3414      3418      3416
 -1      1608    8    0    1
 -2       761       760       864      3086      3419      3420
 -1      1609    8    0    1
 -2       760       863       864      3417      3421      3419
 -1      1610    8    0    1
 -2       762       761       865      3089      3422      3423
 -1      1611    8    0    1
 -2       761       864       865      3420      3424      3422
 -1      1612    8    0    1
 -2       763       762       866      3092      3425      3426
 -1      1613    8    0    1
 -2       762       865       866      3423      3427      3425
 -1      1614    8    0    1
 -2       764       763       867      3095      3428      3429
 -1      1615    8    0    1
 -2       763       866       867      3426      3430      3428
 -1      1616    8    0    1
 -2       765       764       868      3098      3431      3432
 -1      1617    8    0    1
 -2       764       867       868      3429      3433      3431
 -1      1618    8    0    1
 -2       766       765       869      3101      3434      3435
 -1      1619    8    0    1
 -2       765       868       869      3432      3436      3434
 -1      1620    8    0    1
 -2       767       766       870      3104      3437      3438
 -1      1621    8    0    1
 -2       766       869       870      3435      3439      3437
 -1      1622    8    0    1
 -2       768       767       871      3107      3440      3441
 -1      1623    8    0    1
 -2       767       870       871      3438      3442      3440
 -1      1624    8    0    1
 -2       769       768       872      3110      3443      3444
 -1      1625    8    0    1
 -2       768       871       872      3441      3445      3443
 -1      1626    8    0    1
 -2       770       769       873      3113      3446      3447
 -1      1627    8    0    1
 -2       769       872       873      3444      3448      3446
 -1      1628    8    0    1
 -2       771       770       874      3116      3449      3450
 -1      1629    8    0    1
 -2       770       873       874      3447      3451      3449
 -1      1630    8    0    1
 -2       772       771       875      3119      3452      3453
 -1      1631    8    0    1
 -2       771       874       875      3450      3454      3452
 -1      1632    8    0    1
 -2       773       772       876      3122      3455      3456
 -1      1633    8    0    1
 -2       772       875       876      3453      3457      3455
 -1      1634    8    0    1
 -2       774       773       877      3125      3458      3459
 -1      1635    8    0    1
 -2       773       876       877      3456      3460      3458
 -1      1636    8    0    1
 -2       775       774       878      3128      3461      3462
 -1      1637    8    0    1
 -2       774       877       878      3459      3463      3461
 -1      1638    8    0    1
 -2       776       775       879      3131      3464      3465
 -1      1639    8    0    1
 -2       775       878       879      3462      3466      3464
 -1      1640    8    0    1
 -2       777       776       880      3134      3467      3468
 -1      1641    8    0    1
 -2       776       879       880      3465      3469      3467
 -1      1642    8    0    1
 -2       778       777       881      3137      3470      3471
 -1      1643    8    0    1
 -2       777       880       881      3468      3472      3470
 -1      1644    8    0    1
 -2       779       778       882      3140      3473      3474
 -1      1645    8    0    1
 -2       778       881       882      3471      3475      3473
 -1      1646    8    0    1
 -2       780       779       883      3143      3476      3477
 -1      1647    8    0    1
 -2       779       882       883      3474      3478      3476
 -1      1648    8    0    1
 -2       781       780       884      3146      3479      3480
 -1      1649    8    0    1
 -2       780       883       884      3477      3481      3479
 -1      1650    8    0    1
 -2       782       781       885      3149      3482      3483
 -1      1651    8    0    1
 -2       781       884       885      3480      3484      3482
 -1      1652    8    0    1
 -2       783       782       886      3152      3485      3486
 -1      1653    8    0    1
 -2       782       885       886      3483      3487      3485
 -1      1654    8    0    1
 -2       788       789       830      3169      3488      3489
 -1      1655    8    0    1
 -2       791       792       887      3178      3490      3491
 -1      1656    8    0    1
 -2       792       793       888      3181      3492      3493
 -1      1657    8    0    1
 -2       792       888       887      3493      3494      3490
 -1      1658    8    0    1
 -2       793       794       889      3184      3495      3496
 -1      1659    8    0    1
 -2       793       889       888      3496      3497      3492
 -1      1660    8    0    1
 -2       794       795       890      3187      3498      3499
 -1      1661    8    0    1
 -2       794       890       889      3499      3500      3495
 -1      1662    8    0    1
 -2       795       796       891      3190      3501      3502
 -1      1663    8    0    1
 -2       795       891       890      3502      3503      3498
 -1      1664    8    0    1
 -2       796       797       892      3193      3504      3505
 -1      1665    8    0    1
 -2       796       892       891      3505      3506      3501
 -1      1666    8    0    1
 -2       797       798       893      3196      3507      3508
 -1      1667    8    0    1
 -2       797       893       892      3508      3509      3504
 -1      1668    8    0    1
 -2       798       799       894      3199      3510      3511
 -1      1669    8    0    1
 -2       798       894       893      3511      3512      3507
 -1      1670    8    0    1
 -2       799       800       895      3202      3513      3514
 -1      1671    8    0    1
 -2       799       895       894      3514      3515      3510
 -1      1672    8    0    1
 -2       800       801       896      3205      3516      3517
 -1      1673    8    0    1
 -2       800       896       895      3517      3518      3513
 -1      1674    8    0    1
 -2       801       802       897      3208      3519      3520
 -1      1675    8    0    1
 -2       801       897       896      3520      3521      3516
 -1      1676    8    0    1
 -2       802       803       898      3211      3522      3523
 -1      1677    8    0    1
 -2       802       898       897      3523      3524      3519
 -1      1678    8    0    1
 -2       803       804       899      3214      3525      3526
 -1      1679    8    0    1
 -2       803       899       898      3526      3527      3522
 -1      1680    8    0    1
 -2       804       805       900      3217      3528      3529
 -1      1681    8    0    1
 -2       804       900       899      3529      3530      3525
 -1      1682    8    0    1
 -2       805       806       901      3220      3531      3532
 -1      1683    8    0    1
 -2       805       901       900      3532      3533      3528
 -1      1684    8    0    1
 -2       806       807       902      3223      3534      3535
 -1      1685    8    0    1
 -2       806       902       901      3535      3536      3531
 -1      1686    8    0    1
 -2       807       808       903      3226      3537      3538
 -1      1687    8    0    1
 -2       807       903       902      3538      3539      3534
 -1      1688    8    0    1
 -2       808       809       904      3229      3540      3541
 -1      1689    8    0    1
 -2       808       904       903      3541      3542      3537
 -1      1690    8    0    1
 -2       809       810       905      3232      3543      3544
 -1      1691    8    0    1
 -2       809       905       904      3544      3545      3540
 -1      1692    8    0    1
 -2       810       811       906      3235      3546      3547
 -1      1693    8    0    1
 -2       810       906       905      3547      3548      3543
 -1      1694    8    0    1
 -2       811       812       907      3238      3549      3550
 -1      1695    8    0    1
 -2       811       907       906      3550      3551      3546
 -1      1696    8    0    1
 -2       812       813       908      3241      3552      3553
 -1      1697    8    0    1
 -2       812       908       907      3553      3554      3549
 -1      1698    8    0    1
 -2       813       814       909      3244      3555      3556
 -1      1699    8    0    1
 -2       813       909       908      3556      3557      3552
 -1      1700    8    0    1
 -2       814       815       910      3247      3558      3559
 -1      1701    8    0    1
 -2       814       910       909      3559      3560      3555
 -1      1702    8    0    1
 -2       815       816       911      3250      3561      3562
 -1      1703    8    0    1
 -2       815       911       910      3562      3563      3558
 -1      1704    8    0    1
 -2       816       817       912      3253      3564      3565
 -1      1705    8    0    1
 -2       816       912       911      3565      3566      3561
 -1      1706    8    0    1
 -2       817       818       913      3256      3567      3568
 -1      1707    8    0    1
 -2       817       913       912      3568      3569      3564
 -1      1708    8    0    1
 -2       818       819       914      3259      3570      3571
 -1      1709    8    0    1
 -2       818       914       913      3571      3572      3567
 -1      1710    8    0    1
 -2       748       742       721      3323      3372      3355
 -1      1711    8    0    1
 -2       741       829       788      3331      3286      3573
 -1      1712    8    0    1
 -2       845       754       745      3351      3367      3574
 -1      1713    8    0    1
 -2       753       832       828      3296      3575      3377
 -1      1714    8    0    1
 -2       821       823       915      3268      3576      3577
 -1      1715    8    0    1
 -2       824       785       858      3271      3578      3579
 -1      1716    8    0    1
 -2       835       838       916      3319      3580      3581
 -1      1717    8    0    1
 -2       845       745       840      3574      3326      3582
 -1      1718    8    0    1
 -2       786       834       917      3338      3583      3584
 -1      1719    8    0    1
 -2       831       828       918      3293      3585      3586
 -1      1720    8    0    1
 -2       830       789       919      3488      3587      3588
 -1      1721    8    0    1
 -2       850       830       919      3369      3588      3589
 -1      1722    8    0    1
 -2       789       790       919      3172      3590      3587
 -1      1723    8    0    1
 -2       747       740       920      3044      3591      3592
 -1      1724    8    0    1
 -2       747       920       855      3592      3593      3391
 -1      1725    8    0    1
 -2       755       845       840      3389      3582      3594
 -1      1726    8    0    1
 -2       833       835       921      3306      3595      3596
 -1      1727    8    0    1
 -2       825       786       922      3353      3597      3598
 -1      1728    8    0    1
 -2       756       755       923      3071      3599      3600
 -1      1729    8    0    1
 -2       756       923       860      3600      3601      3408
 -1      1730    8    0    1
 -2       790       791       924      3175      3602      3603
 -1      1731    8    0    1
 -2       919       790       924      3590      3603      3604
 -1      1732    8    0    1
 -2       791       887       924      3491      3605      3602
 -1      1733    8    0    1
 -2       838       826       925      3366      3606      3607
 -1      1734    8    0    1
 -2       840       751       926      3324      3608      3609
 -1      1735    8    0    1
 -2       841       726       848      3327      3361      3610
 -1      1736    8    0    1
 -2       858       836       859      3401      3407      3611
 -1      1737    8    0    1
 -2       742       752       785      3403      3612      3390
 -1      1738    8    0    1
 -2       859       825       922      3406      3598      3613
 -1      1739    8    0    1
 -2       843       739       857      3405      3398      3614
 -1      1740    8    0    1
 -2       785       752       858      3612      3402      3578
 -1      1741    8    0    1
 -2       923       755       926      3599      3615      3616
 -1      1742    8    0    1
 -2       784       783       927      3156      3617      3618
 -1      1743    8    0    1
 -2       856       784       927      3396      3618      3619
 -1      1744    8    0    1
 -2       783       886       927      3486      3620      3617
 -1      1745    8    0    1
 -2       494       723       631      3339      3621      2681
 -1      1746    8    0    1
 -2       847       704       854      3358      3387      3622
 -1      1747    8    0    1
 -2       838       925       916      3607      3623      3580
 -1      1748    8    0    1
 -2       914       819       928      3570      3624      3625
 -1      1749    8    0    1
 -2       819       847       928      3357      3626      3624
 -1      1750    8    0    1
 -2       925       826       929      3606      3627      3628
 -1      1751    8    0    1
 -2       826       850       929      3371      3629      3627
 -1      1752    8    0    1
 -2       848       750       930      3359      3630      3631
 -1      1753    8    0    1
 -2       849       821       931      3365      3632      3633
 -1      1754    8    0    1
 -2       821       915       931      3577      3634      3632
 -1      1755    8    0    1
 -2       926       755       840      3615      3594      3609
 -1      1756    8    0    1
 -2       915       823       932      3576      3635      3636
 -1      1757    8    0    1
 -2       823       827       932      3279      3637      3635
 -1      1758    8    0    1
 -2       824       858       933      3579      3638      3639
 -1      1759    8    0    1
 -2       852       824       933      3381      3639      3640
 -1      1760    8    0    1
 -2       858       859       933      3611      3641      3638
 -1      1761    8    0    1
 -2       835       916       921      3581      3642      3595
 -1      1762    8    0    1
 -2       820       841       922      3329      3643      3644
 -1      1763    8    0    1
 -2       833       921       853      3596      3645      3382
 -1      1764    8    0    1
 -2       839       820       917      3322      3646      3647
 -1      1765    8    0    1
 -2       740       839       920      3321      3648      3591
 -1      1766    8    0    1
 -2       851       831       918      3374      3586      3649
 -1      1767    8    0    1
 -2       917       834       851      3583      3376      3650
 -1      1768    8    0    1
 -2       844       846       934      3349      3651      3652
 -1      1769    8    0    1
 -2       922       786       917      3597      3584      3653
 -1      1770    8    0    1
 -2       844       934       928      3652      3654      3655
 -1      1771    8    0    1
 -2       820       922       917      3644      3653      3646
 -1      1772    8    0    1
 -2       751       853       926      3384      3656      3608
 -1      1773    8    0    1
 -2       857       855       918      3399      3657      3658
 -1      1774    8    0    1
 -2       855       920       851      3593      3659      3660
 -1      1775    8    0    1
 -2       753       734       746      3297      3037      3404
 -1      1776    8    0    1
 -2       822       856       927      3395      3619      3661
 -1      1777    8    0    1
 -2       828       832       935      3575      3662      3663
 -1      1778    8    0    1
 -2       918       855       851      3657      3660      3649
 -1      1779    8    0    1
 -2       822       927       936      3661      3664      3665
 -1      1780    8    0    1
 -2       827       822       936      3280      3665      3666
 -1      1781    8    0    1
 -2       927       886       936      3620      3667      3664
 -1      1782    8    0    1
 -2       935       832       843      3662      3342      3668
 -1      1783    8    0    1
 -2       861       860       937      3412      3669      3670
 -1      1784    8    0    1
 -2       631       723       632      3621      3400      2685
 -1      1785    8    0    1
 -2       788       830       743      3489      3368      3671
 -1      1786    8    0    1
 -2       862       861       938      3415      3672      3673
 -1      1787    8    0    1
 -2       861       937       938      3670      3674      3672
 -1      1788    8    0    1
 -2       863       862       939      3418      3675      3676
 -1      1789    8    0    1
 -2       862       938       939      3673      3677      3675
 -1      1790    8    0    1
 -2       864       863       940      3421      3678      3679
 -1      1791    8    0    1
 -2       863       939       940      3676      3680      3678
 -1      1792    8    0    1
 -2       865       864       941      3424      3681      3682
 -1      1793    8    0    1
 -2       864       940       941      3679      3683      3681
 -1      1794    8    0    1
 -2       866       865       942      3427      3684      3685
 -1      1795    8    0    1
 -2       865       941       942      3682      3686      3684
 -1      1796    8    0    1
 -2       867       866       943      3430      3687      3688
 -1      1797    8    0    1
 -2       866       942       943      3685      3689      3687
 -1      1798    8    0    1
 -2       868       867       944      3433      3690      3691
 -1      1799    8    0    1
 -2       867       943       944      3688      3692      3690
 -1      1800    8    0    1
 -2       869       868       945      3436      3693      3694
 -1      1801    8    0    1
 -2       868       944       945      3691      3695      3693
 -1      1802    8    0    1
 -2       870       869       946      3439      3696      3697
 -1      1803    8    0    1
 -2       869       945       946      3694      3698      3696
 -1      1804    8    0    1
 -2       871       870       947      3442      3699      3700
 -1      1805    8    0    1
 -2       870       946       947      3697      3701      3699
 -1      1806    8    0    1
 -2       872       871       948      3445      3702      3703
 -1      1807    8    0    1
 -2       871       947       948      3700      3704      3702
 -1      1808    8    0    1
 -2       873       872       949      3448      3705      3706
 -1      1809    8    0    1
 -2       872       948       949      3703      3707      3705
 -1      1810    8    0    1
 -2       874       873       950      3451      3708      3709
 -1      1811    8    0    1
 -2       873       949       950      3706      3710      3708
 -1      1812    8    0    1
 -2       875       874       951      3454      3711      3712
 -1      1813    8    0    1
 -2       874       950       951      3709      3713      3711
 -1      1814    8    0    1
 -2       876       875       952      3457      3714      3715
 -1      1815    8    0    1
 -2       875       951       952      3712      3716      3714
 -1      1816    8    0    1
 -2       877       876       953      3460      3717      3718
 -1      1817    8    0    1
 -2       876       952       953      3715      3719      3717
 -1      1818    8    0    1
 -2       878       877       954      3463      3720      3721
 -1      1819    8    0    1
 -2       877       953       954      3718      3722      3720
 -1      1820    8    0    1
 -2       879       878       955      3466      3723      3724
 -1      1821    8    0    1
 -2       878       954       955      3721      3725      3723
 -1      1822    8    0    1
 -2       880       879       956      3469      3726      3727
 -1      1823    8    0    1
 -2       879       955       956      3724      3728      3726
 -1      1824    8    0    1
 -2       881       880       957      3472      3729      3730
 -1      1825    8    0    1
 -2       880       956       957      3727      3731      3729
 -1      1826    8    0    1
 -2       882       881       958      3475      3732      3733
 -1      1827    8    0    1
 -2       881       957       958      3730      3734      3732
 -1      1828    8    0    1
 -2       883       882       959      3478      3735      3736
 -1      1829    8    0    1
 -2       882       958       959      3733      3737      3735
 -1      1830    8    0    1
 -2       884       883       960      3481      3738      3739
 -1      1831    8    0    1
 -2       883       959       960      3736      3740      3738
 -1      1832    8    0    1
 -2       885       884       961      3484      3741      3742
 -1      1833    8    0    1
 -2       884       960       961      3739      3743      3741
 -1      1834    8    0    1
 -2       886       885       962      3487      3744      3745
 -1      1835    8    0    1
 -2       885       961       962      3742      3746      3744
 -1      1836    8    0    1
 -2       887       888       963      3494      3747      3748
 -1      1837    8    0    1
 -2       890       891       964      3503      3749      3750
 -1      1838    8    0    1
 -2       891       892       965      3506      3751      3752
 -1      1839    8    0    1
 -2       891       965       964      3752      3753      3749
 -1      1840    8    0    1
 -2       892       893       966      3509      3754      3755
 -1      1841    8    0    1
 -2       892       966       965      3755      3756      3751
 -1      1842    8    0    1
 -2       893       894       967      3512      3757      3758
 -1      1843    8    0    1
 -2       893       967       966      3758      3759      3754
 -1      1844    8    0    1
 -2       894       895       968      3515      3760      3761
 -1      1845    8    0    1
 -2       894       968       967      3761      3762      3757
 -1      1846    8    0    1
 -2       895       896       969      3518      3763      3764
 -1      1847    8    0    1
 -2       895       969       968      3764      3765      3760
 -1      1848    8    0    1
 -2       896       897       970      3521      3766      3767
 -1      1849    8    0    1
 -2       896       970       969      3767      3768      3763
 -1      1850    8    0    1
 -2       897       898       971      3524      3769      3770
 -1      1851    8    0    1
 -2       897       971       970      3770      3771      3766
 -1      1852    8    0    1
 -2       898       899       972      3527      3772      3773
 -1      1853    8    0    1
 -2       898       972       971      3773      3774      3769
 -1      1854    8    0    1
 -2       899       900       973      3530      3775      3776
 -1      1855    8    0    1
 -2       899       973       972      3776      3777      3772
 -1      1856    8    0    1
 -2       900       901       974      3533      3778      3779
 -1      1857    8    0    1
 -2       900       974       973      3779      3780      3775
 -1      1858    8    0    1
 -2       901       902       975      3536      3781      3782
 -1      1859    8    0    1
 -2       901       975       974      3782      3783      3778
 -1      1860    8    0    1
 -2       902       903       976      3539      3784      3785
 -1      1861    8    0    1
 -2       902       976       975      3785      3786      3781
 -1      1862    8    0    1
 -2       903       904       977      3542      3787      3788
 -1      1863    8    0    1
 -2       903       977       976      3788      3789      3784
 -1      1864    8    0    1
 -2       904       905       978      3545      3790      3791
 -1      1865    8    0    1
 -2       904       978       977      3791      3792      3787
 -1      1866    8    0    1
 -2       905       906       979      3548      3793      3794
 -1      1867    8    0    1
 -2       905       979       978      3794      3795      3790
 -1      1868    8    0    1
 -2       906       907       980      3551      3796      3797
 -1      1869    8    0    1
 -2       906       980       979      3797      3798      3793
 -1      1870    8    0    1
 -2       907       908       981      3554      3799      3800
 -1      1871    8    0    1
 -2       907       981       980      3800      3801      3796
 -1      1872    8    0    1
 -2       908       909       982      3557      3802      3803
 -1      1873    8    0    1
 -2       908       982       981      3803      3804      3799
 -1      1874    8    0    1
 -2       909       910       983      3560      3805      3806
 -1      1875    8    0    1
 -2       909       983       982      3806      3807      3802
 -1      1876    8    0    1
 -2       910       911       984      3563      3808      3809
 -1      1877    8    0    1
 -2       910       984       983      3809      3810      3805
 -1      1878    8    0    1
 -2       911       912       985      3566      3811      3812
 -1      1879    8    0    1
 -2       911       985       984      3812      3813      3808
 -1      1880    8    0    1
 -2       912       913       986      3569      3814      3815
 -1      1881    8    0    1
 -2       912       986       985      3815      3816      3811
 -1      1882    8    0    1
 -2       913       914       987      3572      3817      3818
 -1      1883    8    0    1
 -2       913       987       986      3818      3819      3814
 -1      1884    8    0    1
 -2       930       750       837      3630      3312      3820
 -1      1885    8    0    1
 -2       914       928       988      3625      3821      3822
 -1      1886    8    0    1
 -2       987       914       988      3817      3822      3823
 -1      1887    8    0    1
 -2       928       934       988      3654      3824      3821
 -1      1888    8    0    1
 -2       921       916       989      3642      3825      3826
 -1      1889    8    0    1
 -2       923       926       990      3616      3827      3828
 -1      1890    8    0    1
 -2       922       841       859      3643      3829      3613
 -1      1891    8    0    1
 -2       853       921       991      3645      3830      3831
 -1      1892    8    0    1
 -2       926       853       990      3656      3832      3827
 -1      1893    8    0    1
 -2       920       839       917      3648      3647      3833
 -1      1894    8    0    1
 -2       917       851       920      3650      3659      3833
 -1      1895    8    0    1
 -2       850       919       924      3589      3604      3834
 -1      1896    8    0    1
 -2       859       841       848      3829      3610      3835
 -1      1897    8    0    1
 -2       846       849       992      3364      3836      3837
 -1      1898    8    0    1
 -2       934       846       992      3651      3837      3838
 -1      1899    8    0    1
 -2       849       931       992      3633      3839      3836
 -1      1900    8    0    1
 -2       854       844       928      3388      3655      3840
 -1      1901    8    0    1
 -2       860       923       990      3601      3828      3841
 -1      1902    8    0    1
 -2       916       925       993      3623      3842      3843
 -1      1903    8    0    1
 -2       889       890       994      3500      3844      3845
 -1      1904    8    0    1
 -2       890       964       994      3750      3846      3844
 -1      1905    8    0    1
 -2       888       889       995      3497      3847      3848
 -1      1906    8    0    1
 -2       888       995       963      3848      3849      3747
 -1      1907    8    0    1
 -2       934       992       996      3838      3850      3851
 -1      1908    8    0    1
 -2       934       996       988      3851      3852      3824
 -1      1909    8    0    1
 -2       828       935       918      3663      3853      3585
 -1      1910    8    0    1
 -2       931       915       997      3634      3854      3855
 -1      1911    8    0    1
 -2       928       847       854      3626      3622      3840
 -1      1912    8    0    1
 -2       930       837       852      3820      3380      3856
 -1      1913    8    0    1
 -2       989       916       993      3825      3843      3857
 -1      1914    8    0    1
 -2       929       850       924      3629      3834      3858
 -1      1915    8    0    1
 -2       997       915       998      3854      3859      3860
 -1      1916    8    0    1
 -2       915       932       998      3636      3861      3859
 -1      1917    8    0    1
 -2       991       921       999      3830      3862      3863
 -1      1918    8    0    1
 -2       921       989       999      3826      3864      3862
 -1      1919    8    0    1
 -2       990       853       991      3832      3831      3865
 -1      1920    8    0    1
 -2       925       929       963      3628      3866      3867
 -1      1921    8    0    1
 -2       827       936       932      3666      3868      3637
 -1      1922    8    0    1
 -2       887       963       929      3748      3866      3869
 -1      1923    8    0    1
 -2       936       886       962      3667      3745      3870
 -1      1924    8    0    1
 -2       993       925       963      3842      3867      3871
 -1      1925    8    0    1
 -2       924       887       929      3605      3869      3858
 -1      1926    8    0    1
 -2       860       990       937      3841      3872      3669
 -1      1927    8    0    1
 -2       889       994       995      3845      3873      3847
 -1      1928    8    0    1
 -2       741       788       842      3573      3874      3335
 -1      1929    8    0    1
 -2       859       848       930      3835      3631      3875
 -1      1930    8    0    1
 -2       966       967      1000      3759      3876      3877
 -1      1931    8    0    1
 -2       938       937      1001      3674      3878      3879
 -1      1932    8    0    1
 -2       939       938      1002      3677      3880      3881
 -1      1933    8    0    1
 -2       938      1001      1002      3879      3882      3880
 -1      1934    8    0    1
 -2       940       939      1003      3680      3883      3884
 -1      1935    8    0    1
 -2       939      1002      1003      3881      3885      3883
 -1      1936    8    0    1
 -2       941       940      1004      3683      3886      3887
 -1      1937    8    0    1
 -2       940      1003      1004      3884      3888      3886
 -1      1938    8    0    1
 -2       942       941      1005      3686      3889      3890
 -1      1939    8    0    1
 -2       941      1004      1005      3887      3891      3889
 -1      1940    8    0    1
 -2       943       942      1006      3689      3892      3893
 -1      1941    8    0    1
 -2       942      1005      1006      3890      3894      3892
 -1      1942    8    0    1
 -2       944       943      1007      3692      3895      3896
 -1      1943    8    0    1
 -2       943      1006      1007      3893      3897      3895
 -1      1944    8    0    1
 -2       945       944      1008      3695      3898      3899
 -1      1945    8    0    1
 -2       944      1007      1008      3896      3900      3898
 -1      1946    8    0    1
 -2       946       945      1009      3698      3901      3902
 -1      1947    8    0    1
 -2       945      1008      1009      3899      3903      3901
 -1      1948    8    0    1
 -2       947       946      1010      3701      3904      3905
 -1      1949    8    0    1
 -2       946      1009      1010      3902      3906      3904
 -1      1950    8    0    1
 -2       948       947      1011      3704      3907      3908
 -1      1951    8    0    1
 -2       947      1010      1011      3905      3909      3907
 -1      1952    8    0    1
 -2       949       948      1012      3707      3910      3911
 -1      1953    8    0    1
 -2       948      1011      1012      3908      3912      3910
 -1      1954    8    0    1
 -2       950       949      1013      3710      3913      3914
 -1      1955    8    0    1
 -2       949      1012      1013      3911      3915      3913
 -1      1956    8    0    1
 -2       951       950      1014      3713      3916      3917
 -1      1957    8    0    1
 -2       950      1013      1014      3914      3918      3916
 -1      1958    8    0    1
 -2       952       951      1015      3716      3919      3920
 -1      1959    8    0    1
 -2       951      1014      1015      3917      3921      3919
 -1      1960    8    0    1
 -2       953       952      1016      3719      3922      3923
 -1      1961    8    0    1
 -2       952      1015      1016      3920      3924      3922
 -1      1962    8    0    1
 -2       954       953      1017      3722      3925      3926
 -1      1963    8    0    1
 -2       953      1016      1017      3923      3927      3925
 -1      1964    8    0    1
 -2       955       954      1018      3725      3928      3929
 -1      1965    8    0    1
 -2       954      1017      1018      3926      3930      3928
 -1      1966    8    0    1
 -2       956       955      1019      3728      3931      3932
 -1      1967    8    0    1
 -2       955      1018      1019      3929      3933      3931
 -1      1968    8    0    1
 -2       957       956      1020      3731      3934      3935
 -1      1969    8    0    1
 -2       956      1019      1020      3932      3936      3934
 -1      1970    8    0    1
 -2       958       957      1021      3734      3937      3938
 -1      1971    8    0    1
 -2       957      1020      1021      3935      3939      3937
 -1      1972    8    0    1
 -2       959       958      1022      3737      3940      3941
 -1      1973    8    0    1
 -2       958      1021      1022      3938      3942      3940
 -1      1974    8    0    1
 -2       960       959      1023      3740      3943      3944
 -1      1975    8    0    1
 -2       959      1022      1023      3941      3945      3943
 -1      1976    8    0    1
 -2       961       960      1024      3743      3946      3947
 -1      1977    8    0    1
 -2       960      1023      1024      3944      3948      3946
 -1      1978    8    0    1
 -2       962       961      1025      3746      3949      3950
 -1      1979    8    0    1
 -2       961      1024      1025      3947      3951      3949
 -1      1980    8    0    1
 -2       963       995       993      3849      3952      3871
 -1      1981    8    0    1
 -2       964       965      1026      3753      3953      3954
 -1      1982    8    0    1
 -2       967       968      1027      3762      3955      3956
 -1      1983    8    0    1
 -2       967      1027      1000      3956      3957      3876
 -1      1984    8    0    1
 -2       968       969      1028      3765      3958      3959
 -1      1985    8    0    1
 -2       968      1028      1027      3959      3960      3955
 -1      1986    8    0    1
 -2       969       970      1029      3768      3961      3962
 -1      1987    8    0    1
 -2       969      1029      1028      3962      3963      3958
 -1      1988    8    0    1
 -2       970       971      1030      3771      3964      3965
 -1      1989    8    0    1
 -2       970      1030      1029      3965      3966      3961
 -1      1990    8    0    1
 -2       971       972      1031      3774      3967      3968
 -1      1991    8    0    1
 -2       971      1031      1030      3968      3969      3964
 -1      1992    8    0    1
 -2       972       973      1032      3777      3970      3971
 -1      1993    8    0    1
 -2       972      1032      1031      3971      3972      3967
 -1      1994    8    0    1
 -2       973       974      1033      3780      3973      3974
 -1      1995    8    0    1
 -2       973      1033      1032      3974      3975      3970
 -1      1996    8    0    1
 -2       974       975      1034      3783      3976      3977
 -1      1997    8    0    1
 -2       974      1034      1033      3977      3978      3973
 -1      1998    8    0    1
 -2       975       976      1035      3786      3979      3980
 -1      1999    8    0    1
 -2       975      1035      1034      3980      3981      3976
 -1      2000    8    0    1
 -2       976       977      1036      3789      3982      3983
 -1      2001    8    0    1
 -2       976      1036      1035      3983      3984      3979
 -1      2002    8    0    1
 -2       977       978      1037      3792      3985      3986
 -1      2003    8    0    1
 -2       977      1037      1036      3986      3987      3982
 -1      2004    8    0    1
 -2       978       979      1038      3795      3988      3989
 -1      2005    8    0    1
 -2       978      1038      1037      3989      3990      3985
 -1      2006    8    0    1
 -2       979       980      1039      3798      3991      3992
 -1      2007    8    0    1
 -2       979      1039      1038      3992      3993      3988
 -1      2008    8    0    1
 -2       980       981      1040      3801      3994      3995
 -1      2009    8    0    1
 -2       980      1040      1039      3995      3996      3991
 -1      2010    8    0    1
 -2       981       982      1041      3804      3997      3998
 -1      2011    8    0    1
 -2       981      1041      1040      3998      3999      3994
 -1      2012    8    0    1
 -2       982       983      1042      3807      4000      4001
 -1      2013    8    0    1
 -2       982      1042      1041      4001      4002      3997
 -1      2014    8    0    1
 -2       983       984      1043      3810      4003      4004
 -1      2015    8    0    1
 -2       983      1043      1042      4004      4005      4000
 -1      2016    8    0    1
 -2       984       985      1044      3813      4006      4007
 -1      2017    8    0    1
 -2       984      1044      1043      4007      4008      4003
 -1      2018    8    0    1
 -2       985       986      1045      3816      4009      4010
 -1      2019    8    0    1
 -2       985      1045      1044      4010      4011      4006
 -1      2020    8    0    1
 -2       986       987      1046      3819      4012      4013
 -1      2021    8    0    1
 -2       986      1046      1045      4013      4014      4009
 -1      2022    8    0    1
 -2       930       852       933      3856      3640      4015
 -1      2023    8    0    1
 -2       937       990      1047      3872      4016      4017
 -1      2024    8    0    1
 -2      1001       937      1047      3878      4017      4018
 -1      2025    8    0    1
 -2       990       991      1047      3865      4019      4016
 -1      2026    8    0    1
 -2       992       931      1048      3839      4020      4021
 -1      2027    8    0    1
 -2       996       992      1048      3850      4021      4022
 -1      2028    8    0    1
 -2       931       997      1048      3855      4023      4020
 -1      2029    8    0    1
 -2       936       962       932      3870      4024      3868
 -1      2030    8    0    1
 -2       965       966      1049      3756      4025      4026
 -1      2031    8    0    1
 -2      1026       965      1049      3953      4026      4027
 -1      2032    8    0    1
 -2       966      1000      1049      3877      4028      4025
 -1      2033    8    0    1
 -2       788       743       842      3671      3334      3874
 -1      2034    8    0    1
 -2       994       964      1050      3846      4029      4030
 -1      2035    8    0    1
 -2       964      1026      1050      3954      4031      4029
 -1      2036    8    0    1
 -2       987       988      1051      3823      4032      4033
 -1      2037    8    0    1
 -2      1046       987      1051      4012      4033      4034
 -1      2038    8    0    1
 -2       988       996      1051      3852      4035      4032
 -1      2039    8    0    1
 -2       995       994      1052      3873      4036      4037
 -1      2040    8    0    1
 -2       994      1050      1052      4030      4038      4036
 -1      2041    8    0    1
 -2       989       993      1053      3857      4039      4040
 -1      2042    8    0    1
 -2       859       930       933      3875      4015      3641
 -1      2043    8    0    1
 -2       993       995      1052      3952      4037      4041
 -1      2044    8    0    1
 -2       935       843       857      3668      3614      4042
 -1      2045    8    0    1
 -2       962      1025       998      3950      4043      4044
 -1      2046    8    0    1
 -2       935       857       918      4042      3658      3853
 -1      2047    8    0    1
 -2       999       989      1054      3864      4045      4046
 -1      2048    8    0    1
 -2       989      1053      1054      4040      4047      4045
 -1      2049    8    0    1
 -2       998       932       962      3861      4024      4044
 -1      2050    8    0    1
 -2      1047       991       999      4019      3863      4048
 -1      2051    8    0    1
 -2       997       998      1055      3860      4049      4050
 -1      2052    8    0    1
 -2       998      1025      1055      4043      4051      4049
 -1      2053    8    0    1
 -2       993      1052      1053      4041      4052      4039
 -1      2054    8    0    1
 -2       997      1055      1056      4050      4053      4054
 -1      2055    8    0    1
 -2       997      1056      1048      4054      4055      4023
 -1      2056    8    0    1
 -2      1027      1028      1057      3960      4056      4057
 -1      2057    8    0    1
 -2      1053      1052      1058      4052      4058      4059
 -1      2058    8    0    1
 -2      1003      1002      1059      3885      4060      4061
 -1      2059    8    0    1
 -2      1004      1003      1060      3888      4062      4063
 -1      2060    8    0    1
 -2      1003      1059      1060      4061      4064      4062
 -1      2061    8    0    1
 -2      1005      1004      1061      3891      4065      4066
 -1      2062    8    0    1
 -2      1004      1060      1061      4063      4067      4065
 -1      2063    8    0    1
 -2      1006      1005      1062      3894      4068      4069
 -1      2064    8    0    1
 -2      1005      1061      1062      4066      4070      4068
 -1      2065    8    0    1
 -2      1007      1006      1063      3897      4071      4072
 -1      2066    8    0    1
 -2      1006      1062      1063      4069      4073      4071
 -1      2067    8    0    1
 -2      1008      1007      1064      3900      4074      4075
 -1      2068    8    0    1
 -2      1007      1063      1064      4072      4076      4074
 -1      2069    8    0    1
 -2      1009      1008      1065      3903      4077      4078
 -1      2070    8    0    1
 -2      1008      1064      1065      4075      4079      4077
 -1      2071    8    0    1
 -2      1010      1009      1066      3906      4080      4081
 -1      2072    8    0    1
 -2      1009      1065      1066      4078      4082      4080
 -1      2073    8    0    1
 -2      1011      1010      1067      3909      4083      4084
 -1      2074    8    0    1
 -2      1010      1066      1067      4081      4085      4083
 -1      2075    8    0    1
 -2      1012      1011      1068      3912      4086      4087
 -1      2076    8    0    1
 -2      1011      1067      1068      4084      4088      4086
 -1      2077    8    0    1
 -2      1013      1012      1069      3915      4089      4090
 -1      2078    8    0    1
 -2      1012      1068      1069      4087      4091      4089
 -1      2079    8    0    1
 -2      1014      1013      1070      3918      4092      4093
 -1      2080    8    0    1
 -2      1013      1069      1070      4090      4094      4092
 -1      2081    8    0    1
 -2      1015      1014      1071      3921      4095      4096
 -1      2082    8    0    1
 -2      1014      1070      1071      4093      4097      4095
 -1      2083    8    0    1
 -2      1016      1015      1072      3924      4098      4099
 -1      2084    8    0    1
 -2      1015      1071      1072      4096      4100      4098
 -1      2085    8    0    1
 -2      1017      1016      1073      3927      4101      4102
 -1      2086    8    0    1
 -2      1016      1072      1073      4099      4103      4101
 -1      2087    8    0    1
 -2      1018      1017      1074      3930      4104      4105
 -1      2088    8    0    1
 -2      1017      1073      1074      4102      4106      4104
 -1      2089    8    0    1
 -2      1019      1018      1075      3933      4107      4108
 -1      2090    8    0    1
 -2      1018      1074      1075      4105      4109      4107
 -1      2091    8    0    1
 -2      1020      1019      1076      3936      4110      4111
 -1      2092    8    0    1
 -2      1019      1075      1076      4108      4112      4110
 -1      2093    8    0    1
 -2      1021      1020      1077      3939      4113      4114
 -1      2094    8    0    1
 -2      1020      1076      1077      4111      4115      4113
 -1      2095    8    0    1
 -2      1022      1021      1078      3942      4116      4117
 -1      2096    8    0    1
 -2      1021      1077      1078      4114      4118      4116
 -1      2097    8    0    1
 -2      1023      1022      1079      3945      4119      4120
 -1      2098    8    0    1
 -2      1022      1078      1079      4117      4121      4119
 -1      2099    8    0    1
 -2      1024      1023      1080      3948      4122      4123
 -1      2100    8    0    1
 -2      1023      1079      1080      4120      4124      4122
 -1      2101    8    0    1
 -2      1025      1024      1081      3951      4125      4126
 -1      2102    8    0    1
 -2      1055      1025      1081      4051      4126      4127
 -1      2103    8    0    1
 -2      1024      1080      1081      4123      4128      4125
 -1      2104    8    0    1
 -2      1028      1029      1082      3963      4129      4130
 -1      2105    8    0    1
 -2      1028      1082      1057      4130      4131      4056
 -1      2106    8    0    1
 -2      1000      1027      1083      3957      4132      4133
 -1      2107    8    0    1
 -2      1027      1057      1083      4057      4134      4132
 -1      2108    8    0    1
 -2      1029      1030      1084      3966      4135      4136
 -1      2109    8    0    1
 -2      1029      1084      1082      4136      4137      4129
 -1      2110    8    0    1
 -2      1030      1031      1085      3969      4138      4139
 -1      2111    8    0    1
 -2      1030      1085      1084      4139      4140      4135
 -1      2112    8    0    1
 -2      1031      1032      1086      3972      4141      4142
 -1      2113    8    0    1
 -2      1031      1086      1085      4142      4143      4138
 -1      2114    8    0    1
 -2      1032      1033      1087      3975      4144      4145
 -1      2115    8    0    1
 -2      1032      1087      1086      4145      4146      4141
 -1      2116    8    0    1
 -2      1033      1034      1088      3978      4147      4148
 -1      2117    8    0    1
 -2      1033      1088      1087      4148      4149      4144
 -1      2118    8    0    1
 -2      1034      1035      1089      3981      4150      4151
 -1      2119    8    0    1
 -2      1034      1089      1088      4151      4152      4147
 -1      2120    8    0    1
 -2      1035      1036      1090      3984      4153      4154
 -1      2121    8    0    1
 -2      1035      1090      1089      4154      4155      4150
 -1      2122    8    0    1
 -2      1036      1037      1091      3987      4156      4157
 -1      2123    8    0    1
 -2      1036      1091      1090      4157      4158      4153
 -1      2124    8    0    1
 -2      1037      1038      1092      3990      4159      4160
 -1      2125    8    0    1
 -2      1037      1092      1091      4160      4161      4156
 -1      2126    8    0    1
 -2      1038      1039      1093      3993      4162      4163
 -1      2127    8    0    1
 -2      1038      1093      1092      4163      4164      4159
 -1      2128    8    0    1
 -2      1039      1040      1094      3996      4165      4166
 -1      2129    8    0    1
 -2      1039      1094      1093      4166      4167      4162
 -1      2130    8    0    1
 -2      1040      1041      1095      3999      4168      4169
 -1      2131    8    0    1
 -2      1040      1095      1094      4169      4170      4165
 -1      2132    8    0    1
 -2      1041      1042      1096      4002      4171      4172
 -1      2133    8    0    1
 -2      1041      1096      1095      4172      4173      4168
 -1      2134    8    0    1
 -2      1042      1043      1097      4005      4174      4175
 -1      2135    8    0    1
 -2      1042      1097      1096      4175      4176      4171
 -1      2136    8    0    1
 -2      1043      1044      1098      4008      4177      4178
 -1      2137    8    0    1
 -2      1043      1098      1097      4178      4179      4174
 -1      2138    8    0    1
 -2      1044      1045      1099      4011      4180      4181
 -1      2139    8    0    1
 -2      1044      1099      1098      4181      4182      4177
 -1      2140    8    0    1
 -2      1045      1046      1100      4014      4183      4184
 -1      2141    8    0    1
 -2      1045      1100      1099      4184      4185      4180
 -1      2142    8    0    1
 -2      1052      1050      1058      4038      4186      4058
 -1      2143    8    0    1
 -2      1050      1026      1101      4031      4187      4188
 -1      2144    8    0    1
 -2      1050      1101      1058      4188      4189      4186
 -1      2145    8    0    1
 -2       996      1048      1102      4022      4190      4191
 -1      2146    8    0    1
 -2      1051       996      1102      4035      4191      4192
 -1      2147    8    0    1
 -2      1048      1056      1102      4055      4193      4190
 -1      2148    8    0    1
 -2      1047       999      1103      4048      4194      4195
 -1      2149    8    0    1
 -2      1001      1047      1103      4018      4195      4196
 -1      2150    8    0    1
 -2       999      1054      1103      4046      4197      4194
 -1      2151    8    0    1
 -2      1002      1001      1104      3882      4198      4199
 -1      2152    8    0    1
 -2      1059      1002      1104      4060      4199      4200
 -1      2153    8    0    1
 -2      1001      1103      1104      4196      4201      4198
 -1      2154    8    0    1
 -2      1053      1058      1054      4059      4202      4047
 -1      2155    8    0    1
 -2      1055      1081      1056      4127      4203      4053
 -1      2156    8    0    1
 -2      1101      1026      1105      4187      4204      4205
 -1      2157    8    0    1
 -2      1026      1049      1105      4027      4206      4204
 -1      2158    8    0    1
 -2      1049      1000      1106      4028      4207      4208
 -1      2159    8    0    1
 -2      1105      1049      1106      4206      4208      4209
 -1      2160    8    0    1
 -2      1000      1083      1106      4133      4210      4207
 -1      2161    8    0    1
 -2      1046      1051      1102      4034      4192      4211
 -1      2162    8    0    1
 -2      1046      1102      1100      4211      4212      4183
 -1      2163    8    0    1
 -2      1057      1082      1063      4131      4213      4214
 -1      2164    8    0    1
 -2      1061      1060      1106      4067      4215      4216
 -1      2165    8    0    1
 -2      1062      1061      1083      4070      4217      4218
 -1      2166    8    0    1
 -2      1063      1062      1057      4073      4219      4214
 -1      2167    8    0    1
 -2      1064      1063      1082      4076      4213      4220
 -1      2168    8    0    1
 -2      1065      1064      1084      4079      4221      4222
 -1      2169    8    0    1
 -2      1066      1065      1085      4082      4223      4224
 -1      2170    8    0    1
 -2      1067      1066      1086      4085      4225      4226
 -1      2171    8    0    1
 -2      1068      1067      1087      4088      4227      4228
 -1      2172    8    0    1
 -2      1069      1068      1088      4091      4229      4230
 -1      2173    8    0    1
 -2      1070      1069      1089      4094      4231      4232
 -1      2174    8    0    1
 -2      1071      1070      1090      4097      4233      4234
 -1      2175    8    0    1
 -2      1072      1071      1091      4100      4235      4236
 -1      2176    8    0    1
 -2      1073      1072      1092      4103      4237      4238
 -1      2177    8    0    1
 -2      1074      1073      1093      4106      4239      4240
 -1      2178    8    0    1
 -2      1075      1074      1094      4109      4241      4242
 -1      2179    8    0    1
 -2      1076      1075      1095      4112      4243      4244
 -1      2180    8    0    1
 -2      1077      1076      1096      4115      4245      4246
 -1      2181    8    0    1
 -2      1078      1077      1097      4118      4247      4248
 -1      2182    8    0    1
 -2      1079      1078      1098      4121      4249      4250
 -1      2183    8    0    1
 -2      1080      1079      1099      4124      4251      4252
 -1      2184    8    0    1
 -2      1093      1073      1092      4239      4238      4164
 -1      2185    8    0    1
 -2      1083      1057      1062      4134      4219      4218
 -1      2186    8    0    1
 -2      1096      1076      1095      4245      4244      4173
 -1      2187    8    0    1
 -2      1095      1075      1094      4243      4242      4170
 -1      2188    8    0    1
 -2      1085      1086      1066      4143      4225      4224
 -1      2189    8    0    1
 -2      1086      1087      1067      4146      4227      4226
 -1      2190    8    0    1
 -2      1087      1088      1068      4149      4229      4228
 -1      2191    8    0    1
 -2      1088      1089      1069      4152      4231      4230
 -1      2192    8    0    1
 -2      1089      1090      1070      4155      4233      4232
 -1      2193    8    0    1
 -2      1090      1091      1071      4158      4235      4234
 -1      2194    8    0    1
 -2      1091      1092      1072      4161      4237      4236
 -1      2195    8    0    1
 -2      1093      1094      1074      4167      4241      4240
 -1      2196    8    0    1
 -2      1096      1097      1077      4176      4247      4246
 -1      2197    8    0    1
 -2      1097      1098      1078      4179      4249      4248
 -1      2198    8    0    1
 -2      1098      1099      1079      4182      4251      4250
 -1      2199    8    0    1
 -2      1099      1100      1080      4185      4253      4252
 -1      2200    8    0    1
 -2      1100      1102      1056      4212      4193      4254
 -1      2201    8    0    1
 -2      1064      1082      1084      4220      4137      4221
 -1      2202    8    0    1
 -2      1060      1059      1105      4064      4255      4256
 -1      2203    8    0    1
 -2      1084      1085      1065      4140      4223      4222
 -1      2204    8    0    1
 -2      1058      1101      1104      4189      4257      4258
 -1      2205    8    0    1
 -2      1083      1061      1106      4217      4216      4210
 -1      2206    8    0    1
 -2      1104      1101      1059      4257      4259      4200
 -1      2207    8    0    1
 -2      1060      1105      1106      4256      4209      4215
 -1      2208    8    0    1
 -2      1080      1100      1056      4253      4254      4260
 -1      2209    8    0    1
 -2      1059      1101      1105      4259      4205      4255
 -1      2210    8    0    1
 -2      1103      1054      1104      4197      4261      4201
 -1      2211    8    0    1
 -2      1058      1104      1054      4258      4261      4202
 -1      2212    8    0    1
 -2      1081      1080      1056      4128      4260      4203
 -3
    1PSTEP                         1           1           1          
  100CL  101 1.000000000        4261                     0    1           1
 -4  DISP        4    1
 -5  D1          1    2    1    0
 -5  D2          1    2    2    0
 -5  D3          1    2    3    0
 -5  ALL         1    2    0    0    1ALL
 -1         1 3.59305E-03-1.00296E-03-5.99081E-15
 -1         2 5.76258E-03-1.74517E-04-8.98622E-15
 -1         3 1.49887E-02-3.29087E-04-1.15460E-13
 -1         4 1.54355E-02-1.75831E-03-1.18532E-13
 -1         5 0.00000E+00 0.00000E+00 0.00000E+00
 -1         6 0.00000E+00 0.00000E+00 0.00000E+00
 -1         7 0.00000E+00 0.00000E+00 0.00000E+00
 -1         8 0.00000E+00 0.00000E+00 0.00000E+00
 -1         9 0.00000E+00 0.00000E+00 0.00000E+00
 -1        10 0.00000E+00 0.00000E+00 0.00000E+00
 -1        11 0.00000E+00 0.00000E+00 0.00000E+00
 -1        12 0.00000E+00 0.00000E+00 0.00000E+00
 -1        13 0.00000E+00 0.00000E+00 0.00000E+00
 -1        14 0.00000E+00 0.00000E+00 0.00000E+00
 -1        15 0.00000E+00 0.00000E+00 0.00000E+00
 -1        16 0.00000E+00 0.00000E+00 0.00000E+00
 -1        17 0.00000E+00 0.00000E+00 0.00000E+00
 -1        18 0.00000E+00 0.00000E+00 0.00000E+00
 -1        19 0.00000E+00 0.00000E+00 0.00000E+00
 -1        20 0.00000E+00 0.00000E+00 0.00000E+00
 -1        21 0.00000E+00 0.00000E+00 0.00000E+00
 -1        22 0.00000E+00 0.00000E+00 0.00000E+00
 -1        23 4.55629E-04-2.53082E-04 3.62937E-17
 -1        24 8.06907E-04-3.82449E-04-3.89805E-17
 -1        25 1.15184E-03-4.84970E-04-2.24369E-16
 -1        26 1.50259E-03-5.81864E-04-5.20305E-16
 -1        27 1.85983E-03-6.87075E-04-9.28382E-16
 -1        28 2.21907E-03-8.08854E-04-1.44870E-15
 -1        29 2.57102E-03-9.49073E-04-2.08827E-15
 -1        30 2.90339E-03-1.09997E-03-2.84993E-15
 -1        31 3.20589E-03-1.24213E-03-3.73992E-15
 -1        32 3.47735E-03-1.34812E-03-4.76755E-15
 -1        33 3.73019E-03-1.39348E-03-5.93113E-15
 -1        34 3.98667E-03-1.37022E-03-7.22875E-15
 -1        35 4.26764E-03-1.29201E-03-8.65883E-15
 -1        36 4.58241E-03-1.18649E-03-1.02106E-14
 -1        37 4.92696E-03-1.08159E-03-1.18796E-14
 -1        38 5.28952E-03-9.96006E-04-1.36512E-14
 -1        39 5.65736E-03-9.37374E-04-1.55138E-14
 -1        40 6.02099E-03-9.05320E-04-1.74672E-14
 -1        41 6.37503E-03-8.95447E-04-1.95133E-14
 -1        42 6.71748E-03-9.02248E-04-2.16575E-14
 -1        43 7.04843E-03-9.20650E-04-2.39051E-14
 -1        44 7.36910E-03-9.46584E-04-2.62591E-14
 -1        45 7.68112E-03-9.77037E-04-2.87105E-14
 -1        46 7.98615E-03-1.00991E-03-3.12658E-14
 -1        47 8.28570E-03-1.04379E-03-3.39219E-14
 -1        48 8.58107E-03-1.07779E-03-3.66721E-14
 -1        49 8.87330E-03-1.11139E-03-3.95055E-14
 -1        50 9.16323E-03-1.14429E-03-4.24166E-14
 -1        51 9.45152E-03-1.17639E-03-4.54027E-14
 -1        52 9.73865E-03-1.20766E-03-4.84683E-14
 -1        53 1.00250E-02-1.23815E-03-5.16120E-14
 -1        54 1.03108E-02-1.26793E-03-5.48178E-14
 -1        55 1.05963E-02-1.29709E-03-5.80719E-14
 -1        56 1.08817E-02-1.32573E-03-6.13728E-14
 -1        57 1.11670E-02-1.35394E-03-6.47241E-14
 -1        58 1.14522E-02-1.38180E-03-6.81259E-14
 -1        59 1.17375E-02-1.40938E-03-7.15649E-14
 -1        60 1.20228E-02-1.43674E-03-7.50342E-14
 -1        61 1.23081E-02-1.46394E-03-7.85398E-14
 -1        62 1.25935E-02-1.49102E-03-8.20785E-14
 -1        63 1.28790E-02-1.51800E-03-8.56756E-14
 -1        64 1.31645E-02-1.54491E-03-8.93235E-14
 -1        65 1.34501E-02-1.57179E-03-9.29941E-14
 -1        66 1.37357E-02-1.59863E-03-9.66755E-14
 -1        67 1.40213E-02-1.62546E-03-1.00366E-13
 -1        68 1.43070E-02-1.65228E-03-1.04041E-13
 -1        69 1.45927E-02-1.67911E-03-1.07697E-13
 -1        70 1.48784E-02-1.70595E-03-1.11352E-13
 -1        71 1.51641E-02-1.73279E-03-1.15027E-13
 -1        72 4.52148E-04 2.59204E-04 5.92991E-17
 -1        73 7.90696E-04 3.95527E-04 2.32561E-17
 -1        74 1.12022E-03 4.98572E-04-1.09538E-16
 -1        75 1.44933E-03 5.91195E-04-3.44136E-16
 -1        76 1.77838E-03 6.83824E-04-6.84464E-16
 -1        77 2.10367E-03 7.81204E-04-1.13533E-15
 -1        78 2.41909E-03 8.82557E-04-1.70071E-15
 -1        79 2.71812E-03 9.80974E-04-2.38190E-15
 -1        80 2.99680E-03 1.06393E-03-3.17724E-15
 -1        81 3.25677E-03 1.11637E-03-4.09022E-15
 -1        82 3.50642E-03 1.12622E-03-5.12510E-15
 -1        83 3.75853E-03 1.08991E-03-6.27809E-15
 -1        84 4.02533E-03 1.01436E-03-7.55237E-15
 -1        85 4.31377E-03 9.14063E-04-8.94583E-15
 -1        86 4.62391E-03 8.05462E-04-1.04640E-14
 -1        87 4.95058E-03 7.01906E-04-1.21016E-14
 -1        88 5.28643E-03 6.11369E-04-1.38552E-14
 -1        89 5.62462E-03 5.36749E-04-1.57203E-14
 -1        90 5.96008E-03 4.77445E-04-1.76979E-14
 -1        91 6.28983E-03 4.31024E-04-1.97753E-14
 -1        92 6.61258E-03 3.94468E-04-2.19506E-14
 -1        93 6.92819E-03 3.64898E-04-2.42226E-14
 -1        94 7.23723E-03 3.39900E-04-2.66033E-14
 -1        95 7.54060E-03 3.17615E-04-2.90864E-14
 -1        96 7.83929E-03 2.96695E-04-3.16699E-14
 -1        97 8.13424E-03 2.76219E-04-3.43415E-14
 -1        98 8.42630E-03 2.55598E-04-3.70957E-14
 -1        99 8.71619E-03 2.34485E-04-3.99271E-14
 -1       100 9.00449E-03 2.12702E-04-4.28392E-14
 -1       101 9.29166E-03 1.90188E-04-4.58425E-14
 -1       102 9.57805E-03 1.66953E-04-4.89208E-14
 -1       103 9.86392E-03 1.43052E-04-5.20825E-14
 -1       104 1.01495E-02 1.18561E-04-5.53075E-14
 -1       105 1.04348E-02 9.35631E-05-5.85801E-14
 -1       106 1.07201E-02 6.81434E-05-6.19070E-14
 -1       107 1.10054E-02 4.23794E-05-6.52977E-14
 -1       108 1.12906E-02 1.63403E-05-6.87424E-14
 -1       109 1.15759E-02-9.91428E-06-7.22323E-14
 -1       110 1.18613E-02-3.63344E-05-7.57631E-14
 -1       111 1.21467E-02-6.28791E-05-7.93317E-14
 -1       112 1.24322E-02-8.95152E-05-8.29288E-14
 -1       113 1.27177E-02-1.16216E-04-8.65541E-14
 -1       114 1.30032E-02-1.42962E-04-9.02003E-14
 -1       115 1.32888E-02-1.69736E-04-9.38383E-14
 -1       116 1.35745E-02-1.96525E-04-9.74655E-14
 -1       117 1.38601E-02-2.23319E-04-1.01100E-13
 -1       118 1.41458E-02-2.50111E-04-1.04746E-13
 -1       119 1.44315E-02-2.76893E-04-1.08387E-13
 -1       120 1.47173E-02-3.03663E-04-1.12022E-13
 -1       121 1.50150E-02-4.13371E-04-1.15605E-13
 -1       122 1.50413E-02-4.97658E-04-1.15773E-13
 -1       123 1.50676E-02-5.81953E-04-1.15924E-13
 -1       124 1.50939E-02-6.66263E-04-1.16074E-13
 -1       125 1.51202E-02-7.50591E-04-1.16211E-13
 -1       126 1.51460E-02-8.33505E-04-1.16363E-13
 -1       127 1.51723E-02-9.17862E-04-1.16535E-13
 -1       128 1.51987E-02-1.00223E-03-1.16713E-13
 -1       129 1.52250E-02-1.08660E-03-1.16903E-13
 -1       130 1.52514E-02-1.17096E-03-1.17088E-13
 -1       131 1.52778E-02-1.25532E-03-1.17309E-13
 -1       132 1.53038E-02-1.33823E-03-1.17549E-13
 -1       133 1.53303E-02-1.42256E-03-1.17775E-13
 -1       134 1.53567E-02-1.50687E-03-1.17975E-13
 -1       135 1.53831E-02-1.59117E-03-1.18161E-13
 -1       136 1.54095E-02-1.67545E-03-1.18351E-13
 -1       137 5.70132E-03-1.33757E-06-8.90036E-15
 -1       138 5.54602E-03 1.64084E-04-8.66737E-15
 -1       139 5.30198E-03 3.17484E-04-8.29769E-15
 -1       140 4.99622E-03 4.45781E-04-7.84359E-15
 -1       141 4.58478E-03 5.62801E-04-7.25304E-15
 -1       142 4.14734E-03 6.37941E-04-6.66270E-15
 -1       143 3.64927E-03 6.77415E-04-6.02093E-15
 -1       144 3.19680E-03 6.72858E-04-5.47063E-15
 -1       145 2.74057E-03 6.28682E-04-4.93969E-15
 -1       146 2.29235E-03 5.39779E-04-4.44065E-15
 -1       147 1.93642E-03 4.26491E-04-4.06277E-15
 -1       148 1.66270E-03 2.92961E-04-3.78307E-15
 -1       149 1.46256E-03 1.34135E-04-3.58660E-15
 -1       150 1.37060E-03-2.10603E-05-3.50048E-15
 -1       151 1.36828E-03-1.80400E-04-3.50367E-15
 -1       152 1.46688E-03-3.53344E-04-3.60680E-15
 -1       153 1.65168E-03-5.12029E-04-3.79787E-15
 -1       154 1.90870E-03-6.55702E-04-4.06716E-15
 -1       155 2.24047E-03-7.84880E-04-4.42464E-15
 -1       156 2.68031E-03-9.02135E-04-4.91652E-15
 -1       157 3.12406E-03-9.72169E-04-5.42716E-15
 -1       158 4.10268E-03-9.86742E-04-6.63559E-15
 -1       159 4.56847E-03-9.24269E-04-7.25240E-15
 -1       160 4.98672E-03-8.19052E-04-7.83506E-15
 -1       161 5.33412E-03-6.78953E-04-8.33580E-15
 -1       162 5.58127E-03-5.19211E-04-8.70393E-15
 -1       163 5.71979E-03-3.55102E-04-8.91528E-15
 -1       164 2.72037E-04-1.00720E-04-1.53957E-17
 -1       165 2.45682E-04-6.14529E-05-3.12047E-17
 -1       166 2.26630E-04-3.59272E-05-4.01561E-17
 -1       167 2.10179E-04-1.93160E-05-4.52349E-17
 -1       168 1.96401E-04-9.92172E-06-4.80200E-17
 -1       169 1.85862E-04-6.01320E-06-4.93380E-17
 -1       170 1.80020E-04-5.84091E-06-4.98767E-17
 -1       171 1.79551E-04-6.81023E-06-4.95955E-17
 -1       172 1.84210E-04-6.18187E-06-4.83757E-17
 -1       173 1.92895E-04-1.74795E-06-4.61497E-17
 -1       174 2.03925E-04 7.55279E-06-4.27718E-17
 -1       175 2.16466E-04 2.24777E-05-3.78725E-17
 -1       176 2.29889E-04 4.31636E-05-3.05542E-17
 -1       177 2.45196E-04 7.08250E-05-1.89871E-17
 -1       178 2.67057E-04 1.10327E-04-2.03288E-20
 -1       179 3.33197E-04 1.74918E-04 2.09319E-17
 -1       180 5.38634E-04-2.33967E-04-4.57601E-17
 -1       181 8.92325E-04-3.46052E-04-1.97697E-16
 -1       182 1.23936E-03-4.42441E-04-4.53129E-16
 -1       183 1.58681E-03-5.40859E-04-8.15954E-16
 -1       184 1.93589E-03-6.52999E-04-1.28730E-15
 -1       185 2.28427E-03-7.85392E-04-1.87171E-15
 -1       186 2.62675E-03-9.36418E-04-2.57406E-15
 -1       187 2.95699E-03-1.09241E-03-3.39941E-15
 -1       188 3.27096E-03-1.22715E-03-4.35563E-15
 -1       189 3.57094E-03-1.30958E-03-5.44697E-15
 -1       190 3.86657E-03-1.31940E-03-6.67403E-15
 -1       191 4.17024E-03-1.26005E-03-8.03483E-15
 -1       192 4.49003E-03-1.15685E-03-9.52437E-15
 -1       193 4.82631E-03-1.04244E-03-1.11305E-14
 -1       194 5.17362E-03-9.42313E-04-1.28477E-14
 -1       195 5.52473E-03-8.69345E-04-1.46630E-14
 -1       196 5.87356E-03-8.25787E-04-1.65677E-14
 -1       197 6.21618E-03-8.07887E-04-1.85633E-14
 -1       198 6.55072E-03-8.09747E-04-2.06555E-14
 -1       199 6.87677E-03-8.25551E-04-2.28458E-14
 -1       200 7.19482E-03-8.50493E-04-2.51409E-14
 -1       201 7.50581E-03-8.80967E-04-2.75372E-14
 -1       202 7.81085E-03-9.14440E-04-3.00363E-14
 -1       203 8.11102E-03-9.49216E-04-3.26339E-14
 -1       204 8.40733E-03-9.84218E-04-3.53288E-14
 -1       205 8.70063E-03-1.01880E-03-3.81114E-14
 -1       206 8.99163E-03-1.05263E-03-4.09735E-14
 -1       207 9.28091E-03-1.08554E-03-4.39148E-14
 -1       208 9.56894E-03-1.11750E-03-4.69322E-14
 -1       209 9.85605E-03-1.14857E-03-5.00302E-14
 -1       210 1.01425E-02-1.17882E-03-5.31958E-14
 -1       211 1.04286E-02-1.20836E-03-5.64171E-14
 -1       212 1.07144E-02-1.23730E-03-5.96845E-14
 -1       213 1.10000E-02-1.26574E-03-6.30013E-14
 -1       214 1.12855E-02-1.29377E-03-6.63687E-14
 -1       215 1.15709E-02-1.32149E-03-6.97843E-14
 -1       216 1.18564E-02-1.34894E-03-7.32325E-14
 -1       217 1.21418E-02-1.37621E-03-7.67164E-14
 -1       218 1.24273E-02-1.40333E-03-8.02345E-14
 -1       219 1.27128E-02-1.43034E-03-8.37984E-14
 -1       220 1.29984E-02-1.45728E-03-8.74115E-14
 -1       221 1.32840E-02-1.48416E-03-9.10576E-14
 -1       222 1.35696E-02-1.51101E-03-9.47178E-14
 -1       223 1.38552E-02-1.53784E-03-9.83922E-14
 -1       224 1.41409E-02-1.56466E-03-1.02061E-13
 -1       225 1.44266E-02-1.59147E-03-1.05719E-13
 -1       226 1.47123E-02-1.61830E-03-1.09375E-13
 -1       227 1.49980E-02-1.64514E-03-1.13035E-13
 -1       228 6.83541E-04 3.11815E-04-3.31664E-17
 -1       229 1.02143E-03 4.17275E-04-1.77979E-16
 -1       230 1.35309E-03 5.10487E-04-4.20298E-16
 -1       231 1.68167E-03 6.03191E-04-7.65647E-16
 -1       232 2.00656E-03 7.01249E-04-1.21809E-15
 -1       233 2.32492E-03 8.04809E-04-1.78357E-15
 -1       234 2.63316E-03 9.07476E-04-2.46373E-15
 -1       235 2.92883E-03 9.96457E-04-3.25811E-15
 -1       236 3.21267E-03 1.05543E-03-4.16952E-15
 -1       237 3.48952E-03 1.07051E-03-5.20172E-15
 -1       238 3.76716E-03 1.03668E-03-6.35525E-15
 -1       239 4.05325E-03 9.60578E-04-7.62972E-15
 -1       240 4.35235E-03 8.57559E-04-9.02362E-15
 -1       241 4.66472E-03 7.45420E-04-1.05380E-14
 -1       242 4.98725E-03 6.38643E-04-1.21703E-14
 -1       243 5.31535E-03 5.45798E-04-1.39164E-14
 -1       244 5.64460E-03 4.69913E-04-1.57744E-14
 -1       245 5.97159E-03 4.10233E-04-1.77414E-14
 -1       246 6.29421E-03 3.64075E-04-1.98093E-14
 -1       247 6.61145E-03 3.28172E-04-2.19795E-14
 -1       248 6.92312E-03 2.99444E-04-2.42478E-14
 -1       249 7.22955E-03 2.75339E-04-2.66200E-14
 -1       250 7.53134E-03 2.53909E-04-2.90905E-14
 -1       251 7.82921E-03 2.33757E-04-3.16592E-14
 -1       252 8.12387E-03 2.13942E-04-3.43247E-14
 -1       253 8.41599E-03 1.93871E-04-3.70728E-14
 -1       254 8.70615E-03 1.73202E-04-3.98980E-14
 -1       255 8.99482E-03 1.51770E-04-4.28047E-14
 -1       256 9.28240E-03 1.29526E-04-4.57976E-14
 -1       257 9.56920E-03 1.06496E-04-4.88692E-14
 -1       258 9.85546E-03 8.27457E-05-5.20168E-14
 -1       259 1.01414E-02 5.83630E-05-5.52296E-14
 -1       260 1.04270E-02 3.34418E-05-5.84980E-14
 -1       261 1.07125E-02 8.07383E-06-6.18210E-14
 -1       262 1.09980E-02-1.76568E-05-6.52015E-14
 -1       263 1.12834E-02-4.36756E-05-6.86314E-14
 -1       264 1.15689E-02-6.99193E-05-7.21049E-14
 -1       265 1.18543E-02-9.63349E-05-7.56214E-14
 -1       266 1.21398E-02-1.22879E-04-7.91755E-14
 -1       267 1.24253E-02-1.49518E-04-8.27654E-14
 -1       268 1.27109E-02-1.76223E-04-8.63784E-14
 -1       269 1.29965E-02-2.02973E-04-9.00128E-14
 -1       270 1.32821E-02-2.29752E-04-9.36403E-14
 -1       271 1.35677E-02-2.56547E-04-9.72672E-14
 -1       272 1.38534E-02-2.83346E-04-1.00898E-13
 -1       273 1.41391E-02-3.10142E-04-1.04535E-13
 -1       274 1.44248E-02-3.36928E-04-1.08169E-13
 -1       275 1.47105E-02-3.63701E-04-1.11798E-13
 -1       276 1.47807E-02-4.32342E-04-1.12553E-13
 -1       277 1.48070E-02-5.16637E-04-1.12708E-13
 -1       278 1.48333E-02-6.00942E-04-1.12859E-13
 -1       279 1.48596E-02-6.85258E-04-1.13015E-13
 -1       280 1.48854E-02-7.68158E-04-1.13168E-13
 -1       281 1.49117E-02-8.52497E-04-1.13340E-13
 -1       282 1.49381E-02-9.36844E-04-1.13519E-13
 -1       283 1.49644E-02-1.02120E-03-1.13707E-13
 -1       284 1.49908E-02-1.10555E-03-1.13896E-13
 -1       285 1.50172E-02-1.18989E-03-1.14092E-13
 -1       286 1.50432E-02-1.27280E-03-1.14295E-13
 -1       287 1.50696E-02-1.35713E-03-1.14501E-13
 -1       288 1.50960E-02-1.44145E-03-1.14697E-13
 -1       289 1.51225E-02-1.52575E-03-1.14885E-13
 -1       290 1.50602E-02-1.58545E-03-1.13961E-13
 -1       291 5.76638E-03-1.39674E-04-9.70948E-15
 -1       292 5.61416E-03-3.43448E-05-9.44532E-15
 -1       293 5.34948E-03 9.74119E-05-9.05553E-15
 -1       294 5.01388E-03 2.56943E-04-8.53534E-15
 -1       295 4.60724E-03 4.30659E-04-7.95044E-15
 -1       296 4.22757E-03 6.09256E-04-7.14515E-15
 -1       297 3.81634E-03 7.30043E-04-6.42117E-15
 -1       298 3.43935E-03 7.52995E-04-5.70792E-15
 -1       299 3.07349E-03 7.02624E-04-5.07064E-15
 -1       300 2.68366E-03 5.65244E-04-4.45898E-15
 -1       301 2.26254E-03 3.94576E-04-4.01320E-15
 -1       302 1.89792E-03 2.35924E-04-3.67562E-15
 -1       303 1.60047E-03 8.42859E-05-3.38597E-15
 -1       304 1.39983E-03-1.85765E-05-3.25499E-15
 -1       305 1.33287E-03-1.00979E-04-3.22960E-15
 -1       306 1.39682E-03-1.84531E-04-3.24629E-15
 -1       307 1.59498E-03-2.99429E-04-3.42051E-15
 -1       308 1.87708E-03-4.46068E-04-3.68356E-15
 -1       309 2.22782E-03-6.08734E-04-4.00500E-15
 -1       310 2.64880E-03-7.95142E-04-4.43517E-15
 -1       311 3.02994E-03-9.67045E-04-5.05111E-15
 -1       312 3.41376E-03-1.06509E-03-5.66933E-15
 -1       313 3.80255E-03-1.07969E-03-6.40137E-15
 -1       314 4.21706E-03-9.83867E-04-7.14576E-15
 -1       315 4.61487E-03-8.24974E-04-7.92660E-15
 -1       316 5.03488E-03-6.43706E-04-8.55278E-15
 -1       317 5.38470E-03-4.60420E-04-9.17966E-15
 -1       318 5.64537E-03-3.36974E-04-9.46381E-15
 -1       319 5.77758E-03-2.29762E-04-9.68464E-15
 -1       320 4.85145E-04-1.07822E-04-1.40736E-16
 -1       321 5.31318E-04-1.65123E-04-1.14895E-16
 -1       322 4.11370E-04-3.97307E-05-1.66269E-16
 -1       323 3.83166E-04-2.37561E-05-1.71521E-16
 -1       324 3.64309E-04-1.65268E-05-1.73933E-16
 -1       325 3.57342E-04-1.38787E-05-1.74096E-16
 -1       326 3.62869E-04-1.07455E-05-1.71805E-16
 -1       327 3.79061E-04-2.43849E-06-1.67099E-16
 -1       328 4.02042E-04 1.38274E-05-1.59571E-16
 -1       329 4.29196E-04 3.99251E-05-1.48546E-16
 -1       330 4.58146E-04 7.59396E-05-1.33062E-16
 -1       331 4.89401E-04 1.22534E-04-1.10501E-16
 -1       332 5.27916E-04 1.82965E-04-7.74527E-17
 -1       333 5.98118E-04 2.42805E-04-6.09762E-17
 -1       334 9.32801E-04 3.47421E-04-2.12371E-16
 -1       335 9.84331E-04-3.09290E-04-3.75842E-16
 -1       336 1.32150E-03-4.01208E-04-6.97393E-16
 -1       337 1.66209E-03-5.01664E-04-1.12333E-15
 -1       338 2.00774E-03-6.20572E-04-1.65580E-15
 -1       339 2.35769E-03-7.62777E-04-2.30033E-15
 -1       340 2.70772E-03-9.23370E-04-3.06290E-15
 -1       341 3.05085E-03-1.08228E-03-3.94947E-15
 -1       342 3.38193E-03-1.20501E-03-4.96782E-15
 -1       343 3.70374E-03-1.25620E-03-6.12331E-15
 -1       344 4.02708E-03-1.22328E-03-7.41535E-15
 -1       345 4.36145E-03-1.12679E-03-8.84041E-15
 -1       346 4.70739E-03-1.00513E-03-1.03885E-14
 -1       347 5.05834E-03-8.92010E-04-1.20512E-14
 -1       348 5.40700E-03-8.05777E-04-1.38176E-14
 -1       349 5.74894E-03-7.51111E-04-1.56737E-14
 -1       350 6.08261E-03-7.24908E-04-1.76180E-14
 -1       351 6.40813E-03-7.21105E-04-1.96568E-14
 -1       352 6.72629E-03-7.33416E-04-2.17947E-14
 -1       353 7.03807E-03-7.56499E-04-2.40333E-14
 -1       354 7.34443E-03-7.86261E-04-2.63730E-14
 -1       355 7.64626E-03-8.19769E-04-2.88143E-14
 -1       356 7.94437E-03-8.55028E-04-3.13590E-14
 -1       357 8.23946E-03-8.90750E-04-3.39985E-14
 -1       358 8.53214E-03-9.26149E-04-3.67279E-14
 -1       359 8.82293E-03-9.60786E-04-3.95409E-14
 -1       360 9.11226E-03-9.94455E-04-4.24346E-14
 -1       361 9.40047E-03-1.02710E-03-4.54104E-14
 -1       362 9.68786E-03-1.05875E-03-4.84589E-14
 -1       363 9.97465E-03-1.08950E-03-5.15816E-14
 -1       364 1.02610E-02-1.11944E-03-5.47662E-14
 -1       365 1.05470E-02-1.14871E-03-5.80032E-14
 -1       366 1.08329E-02-1.17740E-03-6.12894E-14
 -1       367 1.11186E-02-1.20564E-03-6.46248E-14
 -1       368 1.14042E-02-1.23350E-03-6.80101E-14
 -1       369 1.16898E-02-1.26108E-03-7.14377E-14
 -1       370 1.19754E-02-1.28843E-03-7.49034E-14
 -1       371 1.22610E-02-1.31561E-03-7.83968E-14
 -1       372 1.25466E-02-1.34266E-03-8.19335E-14
 -1       373 1.28322E-02-1.36962E-03-8.55158E-14
 -1       374 1.31178E-02-1.39652E-03-8.91378E-14
 -1       375 1.34034E-02-1.42338E-03-9.27795E-14
 -1       376 1.36891E-02-1.45021E-03-9.64333E-14
 -1       377 1.39748E-02-1.47703E-03-1.00092E-13
 -1       378 1.42604E-02-1.50384E-03-1.03744E-13
 -1       379 1.45461E-02-1.53066E-03-1.07394E-13
 -1       380 1.48032E-02-1.55805E-03-1.10674E-13
 -1       381 1.26395E-03 4.40190E-04-4.57974E-16
 -1       382 1.59288E-03 5.31981E-04-8.03502E-16
 -1       383 1.91994E-03 6.29368E-04-1.25416E-15
 -1       384 2.24362E-03 7.33636E-04-1.81525E-15
 -1       385 2.56109E-03 8.39457E-04-2.48985E-15
 -1       386 2.86963E-03 9.34362E-04-3.27880E-15
 -1       387 3.16856E-03 1.00097E-03-4.18390E-15
 -1       388 3.46092E-03 1.02304E-03-5.20998E-15
 -1       389 3.75298E-03 9.93448E-04-6.35874E-15
 -1       390 4.05124E-03 9.18112E-04-7.62851E-15
 -1       391 4.35934E-03 8.13322E-04-9.01795E-15
 -1       392 4.67689E-03 6.98404E-04-1.05267E-14
 -1       393 5.00074E-03 5.89007E-04-1.21520E-14
 -1       394 5.32700E-03 4.94217E-04-1.38891E-14
 -1       395 5.65233E-03 4.17139E-04-1.57366E-14
 -1       396 5.97450E-03 3.56902E-04-1.76918E-14
 -1       397 6.29225E-03 3.10652E-04-1.97504E-14
 -1       398 6.60514E-03 2.74966E-04-2.19101E-14
 -1       399 6.91324E-03 2.46639E-04-2.41710E-14
 -1       400 7.21693E-03 2.23025E-04-2.65311E-14
 -1       401 7.51673E-03 2.02110E-04-2.89909E-14
 -1       402 7.81325E-03 1.82457E-04-3.15494E-14
 -1       403 8.10706E-03 1.63098E-04-3.42035E-14
 -1       404 8.39870E-03 1.43426E-04-3.69423E-14
 -1       405 8.68864E-03 1.23096E-04-3.97602E-14
 -1       406 8.97727E-03 1.01945E-04-4.26579E-14
 -1       407 9.26492E-03 7.99293E-05-4.56420E-14
 -1       408 9.55186E-03 5.70793E-05-4.87033E-14
 -1       409 9.83828E-03 3.34690E-05-5.18401E-14
 -1       410 1.01243E-02 9.19290E-06-5.50422E-14
 -1       411 1.04102E-02-1.56488E-05-5.83031E-14
 -1       412 1.06959E-02-4.09588E-05-6.16183E-14
 -1       413 1.09814E-02-6.66481E-05-6.49883E-14
 -1       414 1.12670E-02-9.26385E-05-6.84092E-14
 -1       415 1.15525E-02-1.18863E-04-7.18725E-14
 -1       416 1.18380E-02-1.45267E-04-7.53713E-14
 -1       417 1.21236E-02-1.71805E-04-7.89153E-14
 -1       418 1.24092E-02-1.98440E-04-8.24940E-14
 -1       419 1.26947E-02-2.25144E-04-8.61013E-14
 -1       420 1.29804E-02-2.51896E-04-8.97258E-14
 -1       421 1.32660E-02-2.78677E-04-9.33463E-14
 -1       422 1.35516E-02-3.05474E-04-9.69677E-14
 -1       423 1.38373E-02-3.32277E-04-1.00597E-13
 -1       424 1.41230E-02-3.59076E-04-1.04227E-13
 -1       425 1.44087E-02-3.85866E-04-1.07855E-13
 -1       426 1.45947E-02-4.09107E-04-1.10204E-13
 -1       427 1.45990E-02-6.19912E-04-1.09805E-13
 -1       428 1.45727E-02-5.35603E-04-1.09647E-13
 -1       429 1.45837E-02-4.72353E-04-1.09927E-13
 -1       430 1.46248E-02-7.02802E-04-1.09964E-13
 -1       431 1.46511E-02-7.87131E-04-1.10133E-13
 -1       432 1.46775E-02-8.71467E-04-1.10308E-13
 -1       433 1.47038E-02-9.55808E-04-1.10492E-13
 -1       434 1.47301E-02-1.04015E-03-1.10683E-13
 -1       435 1.47565E-02-1.12449E-03-1.10873E-13
 -1       436 1.47825E-02-1.20740E-03-1.11064E-13
 -1       437 1.48089E-02-1.29173E-03-1.11253E-13
 -1       438 1.48354E-02-1.37605E-03-1.11437E-13
 -1       439 1.48618E-02-1.46035E-03-1.11622E-13
 -1       440 5.47454E-03-4.38175E-05-1.00317E-14
 -1       441 5.81354E-03-1.93667E-04-1.06593E-14
 -1       442 5.70750E-03-1.29660E-04-1.03047E-14
 -1       443 5.14162E-03 1.08066E-04-9.35033E-15
 -1       444 4.78508E-03 2.80353E-04-8.73533E-15
 -1       445 4.45816E-04-6.70129E-05-1.56610E-16
 -1       446 3.99815E-03 6.79818E-04-6.99567E-15
 -1       447 3.58287E-03 7.89168E-04-5.99535E-15
 -1       448 3.30596E-03 7.73536E-04-5.34267E-15
 -1       449 2.95288E-03 6.59710E-04-4.58979E-15
 -1       450 2.49886E-03 4.35839E-04-3.91055E-15
 -1       451 2.11944E-03 2.54981E-04-3.56002E-15
 -1       452 1.79261E-03 1.00057E-04-3.20204E-15
 -1       453 1.48166E-03-1.45961E-05-3.02783E-15
 -1       454 1.33409E-03-7.66518E-05-2.92841E-15
 -1       455 1.32841E-03-1.16648E-04-2.93593E-15
 -1       456 1.49045E-03-1.87844E-04-3.04826E-15
 -1       457 1.77145E-03-2.98312E-04-3.24791E-15
 -1       458 2.09437E-03-4.52091E-04-3.55764E-15
 -1       459 2.47068E-03-6.44770E-04-3.94062E-15
 -1       460 2.94753E-03-9.05569E-04-4.64005E-15
 -1       461 3.25113E-03-1.04095E-03-5.22243E-15
 -1       462 3.59932E-03-1.11659E-03-6.00088E-15
 -1       463 4.00596E-03-1.05711E-03-7.02701E-15
 -1       464 4.32784E-03-9.21782E-04-7.80516E-15
 -1       465 4.78882E-03-6.86329E-04-8.74165E-15
 -1       466 5.15012E-03-5.00202E-04-9.48817E-15
 -1       467 5.53265E-03-3.30645E-04-1.01350E-14
 -1       468 5.72258E-03-2.54839E-04-1.03574E-14
 -1       469 4.32750E-03 5.21656E-04-7.79156E-15
 -1       470 4.54250E-03 3.91492E-04-8.55927E-15
 -1       471 2.73360E-03-7.74670E-04-4.12356E-15
 -1       472 3.77391E-03 7.63691E-04-6.54208E-15
 -1       473 3.81324E-03-1.12036E-03-6.59710E-15
 -1       474 1.03385E-03 3.12613E-04-3.95398E-16
 -1       475 5.59650E-04-3.65255E-05-3.69930E-16
 -1       476 6.00037E-04-5.67011E-05-3.63174E-16
 -1       477 5.36940E-04-1.88693E-05-3.69632E-16
 -1       478 5.56906E-04-7.07753E-06-3.62943E-16
 -1       479 5.91235E-04 1.44559E-05-3.52017E-16
 -1       480 6.34299E-04 4.90880E-05-3.35456E-16
 -1       481 6.80339E-04 9.66444E-05-3.12389E-16
 -1       482 7.27656E-04 1.56302E-04-2.80551E-16
 -1       483 1.35939E-03 3.99067E-04-7.08391E-16
 -1       484 1.07035E-03-2.74107E-04-5.75244E-16
 -1       485 4.97722E-03 1.57066E-04-9.69843E-15
 -1       486 1.39510E-03-3.60007E-04-9.58228E-16
 -1       487 1.72985E-03-4.59986E-04-1.44246E-15
 -1       488 2.07764E-03-5.83337E-04-2.03272E-15
 -1       489 2.43861E-03-7.35428E-04-2.73359E-15
 -1       490 2.80616E-03-9.09486E-04-3.55185E-15
 -1       491 3.16810E-03-1.07515E-03-4.49638E-15
 -1       492 3.51725E-03-1.18212E-03-5.57588E-15
 -1       493 3.85973E-03-1.18831E-03-6.79787E-15
 -1       494 4.21160E-03-1.10031E-03-8.15855E-15
 -1       495 4.57556E-03-9.66918E-04-9.64938E-15
 -1       496 4.94209E-03-8.37996E-04-1.12577E-14
 -1       497 5.29914E-03-7.39212E-04-1.29735E-14
 -1       498 5.64146E-03-6.75911E-04-1.47824E-14
 -1       499 5.96958E-03-6.43735E-04-1.66786E-14
 -1       500 6.28647E-03-6.35662E-04-1.86665E-14
 -1       501 6.59523E-03-6.44937E-04-2.07510E-14
 -1       502 6.89826E-03-6.65983E-04-2.29360E-14
 -1       503 7.19718E-03-6.94532E-04-2.52220E-14
 -1       504 7.49308E-03-7.27473E-04-2.76072E-14
 -1       505 7.78667E-03-7.62639E-04-3.00936E-14
 -1       506 8.07845E-03-7.98583E-04-3.26797E-14
 -1       507 8.36880E-03-8.34396E-04-3.53570E-14
 -1       508 8.65801E-03-8.69541E-04-3.81191E-14
 -1       509 8.94631E-03-9.03747E-04-4.09672E-14
 -1       510 9.23391E-03-9.36911E-04-4.38950E-14
 -1       511 9.52096E-03-9.69039E-04-4.68979E-14
 -1       512 9.80759E-03-1.00020E-03-4.99770E-14
 -1       513 1.00939E-02-1.03051E-03-5.31223E-14
 -1       514 1.03800E-02-1.06008E-03-5.63267E-14
 -1       515 1.06660E-02-1.08902E-03-5.95838E-14
 -1       516 1.09518E-02-1.11745E-03-6.28863E-14
 -1       517 1.12375E-02-1.14547E-03-6.62416E-14
 -1       518 1.15232E-02-1.17316E-03-6.96473E-14
 -1       519 1.18089E-02-1.20060E-03-7.30922E-14
 -1       520 1.20946E-02-1.22785E-03-7.65683E-14
 -1       521 1.23802E-02-1.25495E-03-8.00773E-14
 -1       522 1.26659E-02-1.28194E-03-8.36295E-14
 -1       523 1.29516E-02-1.30887E-03-8.72244E-14
 -1       524 1.32372E-02-1.33574E-03-9.08480E-14
 -1       525 1.35229E-02-1.36257E-03-9.44855E-14
 -1       526 1.38086E-02-1.38939E-03-9.81316E-14
 -1       527 1.40943E-02-1.41620E-03-1.01776E-13
 -1       528 1.43800E-02-1.44302E-03-1.05414E-13
 -1       529 2.01921E-03 5.90064E-04-1.63941E-15
 -1       530 2.35099E-03 6.98519E-04-2.26750E-15
 -1       531 2.67925E-03 8.07043E-04-3.00749E-15
 -1       532 2.99974E-03 8.98694E-04-3.86269E-15
 -1       533 3.31118E-03 9.51418E-04-4.83824E-15
 -1       534 3.61813E-03 9.48276E-04-5.93682E-15
 -1       535 3.92828E-03 8.88307E-04-7.15926E-15
 -1       536 4.24697E-03 7.87019E-04-8.50286E-15
 -1       537 4.57392E-03 6.67717E-04-9.96526E-15
 -1       538 4.90467E-03 5.50778E-04-1.15437E-14
 -1       539 5.23428E-03 4.48239E-04-1.32339E-14
 -1       540 5.55948E-03 3.64524E-04-1.50328E-14
 -1       541 5.87891E-03 2.99137E-04-1.69375E-14
 -1       542 6.19251E-03 2.49184E-04-1.89467E-14
 -1       543 6.50083E-03 2.11044E-04-2.10575E-14
 -1       544 6.80462E-03 1.81273E-04-2.32710E-14
 -1       545 7.10462E-03 1.56984E-04-2.55836E-14
 -1       546 7.40149E-03 1.35945E-04-2.79963E-14
 -1       547 7.69582E-03 1.16531E-04-3.05071E-14
 -1       548 7.98809E-03 9.76319E-05-3.31151E-14
 -1       549 8.27871E-03 7.85304E-05-3.58104E-14
 -1       550 8.56803E-03 5.88047E-05-3.85915E-14
 -1       551 8.85634E-03 3.82406E-05-4.14482E-14
 -1       552 9.14387E-03 1.67640E-05-4.43920E-14
 -1       553 9.43082E-03-5.60959E-06-4.74157E-14
 -1       554 9.71734E-03-2.88121E-05-5.05111E-14
 -1       555 1.00035E-02-5.27483E-05-5.36785E-14
 -1       556 1.02895E-02-7.73129E-05-5.69087E-14
 -1       557 1.05754E-02-1.02402E-04-6.01951E-14
 -1       558 1.08611E-02-1.27917E-04-6.35364E-14
 -1       559 1.11468E-02-1.53775E-04-6.69251E-14
 -1       560 1.14324E-02-1.79899E-04-7.03626E-14
 -1       561 1.17181E-02-2.06229E-04-7.38361E-14
 -1       562 1.20037E-02-2.32713E-04-7.73493E-14
 -1       563 1.22893E-02-2.59311E-04-8.09022E-14
 -1       564 1.25750E-02-2.85991E-04-8.44848E-14
 -1       565 1.28606E-02-3.12727E-04-8.80890E-14
 -1       566 1.31463E-02-3.39500E-04-9.17027E-14
 -1       567 1.34319E-02-3.66295E-04-9.53167E-14
 -1       568 1.37176E-02-3.93100E-04-9.89382E-14
 -1       569 1.40033E-02-4.19906E-04-1.02560E-13
 -1       570 1.42890E-02-4.46705E-04-1.06183E-13
 -1       571 1.43905E-02-7.21760E-04-1.06924E-13
 -1       572 1.44168E-02-8.06089E-04-1.07093E-13
 -1       573 1.43384E-02-5.54557E-04-1.06592E-13
 -1       574 1.43645E-02-6.38154E-04-1.06757E-13
 -1       575 1.44432E-02-8.90424E-04-1.07274E-13
 -1       576 1.44695E-02-9.74762E-04-1.07459E-13
 -1       577 1.44959E-02-1.05910E-03-1.07648E-13
 -1       578 1.45218E-02-1.14201E-03-1.07832E-13
 -1       579 1.45483E-02-1.22633E-03-1.08012E-13
 -1       580 1.45747E-02-1.31066E-03-1.08191E-13
 -1       581 1.46012E-02-1.39497E-03-1.08369E-13
 -1       582 5.80099E-03-1.75050E-04-1.12686E-14
 -1       583 5.30453E-03 5.73456E-06-1.03941E-14
 -1       584 1.68798E-03 4.90060E-04-1.12150E-15
 -1       585 5.81672E-03-2.23763E-04-1.14530E-14
 -1       586 5.64673E-03-1.23088E-04-1.10805E-14
 -1       587 5.37680E-03-3.90498E-04-1.07039E-14
 -1       588 7.69610E-04-1.87603E-04-3.20317E-16
 -1       589 3.43164E-03-1.10706E-03-5.51847E-15
 -1       590 1.37001E-03-5.84285E-05-2.67217E-15
 -1       591 5.37468E-04-2.61831E-05-3.72030E-16
 -1       592 2.71200E-03 5.51328E-04-3.93386E-15
 -1       593 3.44011E-03 8.06538E-04-5.60832E-15
 -1       594 1.59601E-03-1.98484E-04-2.78929E-15
 -1       595 3.16266E-03 7.53318E-04-4.87289E-15
 -1       596 2.25650E-03 3.04490E-04-3.35729E-15
 -1       597 1.95090E-03 1.57475E-04-3.01471E-15
 -1       598 1.57706E-03 8.21446E-06-2.72974E-15
 -1       599 1.28159E-03-8.87029E-05-2.51445E-15
 -1       600 1.35530E-03-1.20739E-04-2.61234E-15
 -1       601 1.93943E-03-3.40758E-04-3.09578E-15
 -1       602 2.26434E-03-5.04290E-04-3.43865E-15
 -1       603 3.13343E-03-9.92620E-04-4.79951E-15
 -1       604 4.95458E-03-5.86608E-04-9.62841E-15
 -1       605 4.17060E-03-1.00652E-03-7.69562E-15
 -1       606 4.57972E-03-7.95736E-04-8.88899E-15
 -1       607 5.70039E-03-2.65527E-04-1.12193E-14
 -1       608 4.12867E-03 6.16997E-04-7.58050E-15
 -1       609 7.80983E-04 2.52134E-04-2.04762E-16
 -1       610 2.91315E-03 6.73830E-04-4.18165E-15
 -1       611 6.52555E-04-9.08313E-05-3.50645E-16
 -1       612 4.34560E-03 5.05958E-04-8.33005E-15
 -1       613 3.63830E-03-1.14908E-03-6.07922E-15
 -1       614 4.77082E-03 2.70631E-04-9.50292E-15
 -1       615 2.50169E-03-6.36749E-04-3.59890E-15
 -1       616 5.87757E-03-2.05635E-04-1.20730E-14
 -1       617 2.92222E-03-8.84836E-04-4.26526E-15
 -1       618 3.62084E-03 8.08015E-04-6.12714E-15
 -1       619 1.45737E-02-1.46282E-03-1.07881E-13
 -1       620 7.69341E-04 7.41391E-06-6.18710E-16
 -1       621 7.25071E-04-1.81307E-05-6.32039E-16
 -1       622 8.94379E-04 1.05855E-04-5.69328E-16
 -1       623 9.58998E-04 1.76717E-04-5.29917E-16
 -1       624 1.13367E-03 2.74326E-04-6.04460E-16
 -1       625 5.84090E-03-2.54346E-04-1.25807E-14
 -1       626 4.86153E-03-6.69524E-04-9.97227E-15
 -1       627 1.45409E-03-3.15072E-04-1.23481E-15
 -1       628 1.78328E-03-4.10670E-04-1.77385E-15
 -1       629 2.13597E-03-5.36486E-04-2.41674E-15
 -1       630 2.51362E-03-7.02991E-04-3.16828E-15
 -1       631 4.44547E-03-9.33791E-04-8.90886E-15
 -1       632 4.83587E-03-7.78513E-04-1.04642E-14
 -1       633 5.20769E-03-6.64163E-04-1.21315E-14
 -1       634 5.55363E-03-5.94873E-04-1.38962E-14
 -1       635 5.87690E-03-5.60796E-04-1.57463E-14
 -1       636 6.18430E-03-5.51708E-04-1.76834E-14
 -1       637 6.48191E-03-5.59842E-04-1.97155E-14
 -1       638 6.77400E-03-5.79591E-04-2.18475E-14
 -1       639 7.06317E-03-6.06908E-04-2.40808E-14
 -1       640 7.35087E-03-6.38859E-04-2.64124E-14
 -1       641 7.63786E-03-6.73342E-04-2.88418E-14
 -1       642 7.92451E-03-7.08901E-04-3.13715E-14
 -1       643 8.21096E-03-7.44571E-04-3.39956E-14
 -1       644 8.49729E-03-7.79752E-04-3.67079E-14
 -1       645 8.78352E-03-8.14110E-04-3.95067E-14
 -1       646 9.06966E-03-8.47491E-04-4.23891E-14
 -1       647 9.35573E-03-8.79865E-04-4.53477E-14
 -1       648 9.64171E-03-9.11277E-04-4.83799E-14
 -1       649 9.92764E-03-9.41815E-04-5.14872E-14
 -1       650 1.02135E-02-9.71589E-04-5.46551E-14
 -1       651 1.04993E-02-1.00071E-03-5.78801E-14
 -1       652 1.07851E-02-1.02930E-03-6.11563E-14
 -1       653 1.10709E-02-1.05744E-03-6.44830E-14
 -1       654 1.13567E-02-1.08523E-03-6.78606E-14
 -1       655 1.16424E-02-1.11275E-03-7.12849E-14
 -1       656 1.19281E-02-1.14006E-03-7.47419E-14
 -1       657 1.22138E-02-1.16721E-03-7.82299E-14
 -1       658 1.24996E-02-1.19424E-03-8.17562E-14
 -1       659 1.27853E-02-1.22119E-03-8.53217E-14
 -1       660 1.30710E-02-1.24808E-03-8.89253E-14
 -1       661 1.33567E-02-1.27492E-03-9.25469E-14
 -1       662 1.36424E-02-1.30175E-03-9.61785E-14
 -1       663 1.39281E-02-1.32856E-03-9.98157E-14
 -1       664 1.42138E-02-1.35537E-03-1.03445E-13
 -1       665 2.47082E-03 6.60730E-04-2.73287E-15
 -1       666 1.40527E-02-5.27755E-04-1.02978E-13
 -1       667 2.12613E-03 5.45495E-04-2.04144E-15
 -1       668 3.14646E-03 8.65801E-04-4.45810E-15
 -1       669 3.46857E-03 8.99501E-04-5.50456E-15
 -1       670 3.79026E-03 8.61583E-04-6.67700E-15
 -1       671 4.12038E-03 7.63479E-04-7.97544E-15
 -1       672 4.46071E-03 6.36020E-04-9.39407E-15
 -1       673 4.80461E-03 5.08702E-04-1.09295E-14
 -1       674 5.14382E-03 3.97970E-04-1.25745E-14
 -1       675 5.47379E-03 3.08857E-04-1.43264E-14
 -1       676 5.79357E-03 2.40110E-04-1.61851E-14
 -1       677 6.10437E-03 1.88014E-04-1.81455E-14
 -1       678 6.40819E-03 1.48450E-04-2.02088E-14
 -1       679 6.70688E-03 1.17741E-04-2.23725E-14
 -1       680 7.00194E-03 9.28918E-05-2.46373E-14
 -1       681 7.29444E-03 7.15987E-05-2.70055E-14
 -1       682 7.58512E-03 5.21751E-05-2.94695E-14
 -1       683 7.87449E-03 3.34438E-05-3.20277E-14
 -1       684 8.16290E-03 1.46284E-05-3.46805E-14
 -1       685 8.45059E-03-4.74482E-06-3.74191E-14
 -1       686 8.73776E-03-2.49312E-05-4.02423E-14
 -1       687 9.02452E-03-4.60344E-05-4.31424E-14
 -1       688 9.31097E-03-6.80588E-05-4.61298E-14
 -1       689 9.59720E-03-9.09477E-05-4.91905E-14
 -1       690 9.88327E-03-1.14611E-04-5.23188E-14
 -1       691 1.01692E-02-1.38945E-04-5.55157E-14
 -1       692 1.04551E-02-1.63842E-04-5.87732E-14
 -1       693 1.07408E-02-1.89203E-04-6.20858E-14
 -1       694 1.10266E-02-2.14937E-04-6.54506E-14
 -1       695 1.13123E-02-2.40965E-04-6.88599E-14
 -1       696 1.15980E-02-2.67221E-04-7.23093E-14
 -1       697 1.18837E-02-2.93650E-04-7.57981E-14
 -1       698 1.21694E-02-3.20208E-04-7.93257E-14
 -1       699 1.24551E-02-3.46859E-04-8.28824E-14
 -1       700 1.27408E-02-3.73576E-04-8.64648E-14
 -1       701 1.30265E-02-4.00337E-04-9.00648E-14
 -1       702 1.33122E-02-4.27126E-04-9.36721E-14
 -1       703 1.35979E-02-4.53930E-04-9.72810E-14
 -1       704 1.38253E-02-4.90843E-04-1.00134E-13
 -1       705 1.42089E-02-9.09377E-04-1.04248E-13
 -1       706 1.44075E-02-1.37517E-03-1.05904E-13
 -1       707 1.41562E-02-7.40711E-04-1.03891E-13
 -1       708 1.42352E-02-9.93714E-04-1.04429E-13
 -1       709 1.41825E-02-8.25041E-04-1.04068E-13
 -1       710 5.20168E-03 7.61885E-05-1.10109E-14
 -1       711 1.42612E-02-1.07662E-03-1.04606E-13
 -1       712 1.42876E-02-1.16095E-03-1.04783E-13
 -1       713 1.43141E-02-1.24527E-03-1.04957E-13
 -1       714 1.78635E-03 4.42691E-04-1.45924E-15
 -1       715 1.41016E-03-1.36712E-04-2.33876E-15
 -1       716 5.79923E-03-1.64465E-04-1.21357E-14
 -1       717 5.52981E-03-6.70954E-05-1.17249E-14
 -1       718 8.98939E-04-1.78046E-04-5.19509E-16
 -1       719 1.26256E-03-6.52370E-05-2.17785E-15
 -1       720 1.67684E-03 7.12874E-05-2.44464E-15
 -1       721 2.81302E-03 7.75946E-04-3.53571E-15
 -1       722 1.17074E-03-2.42243E-04-8.38536E-16
 -1       723 4.38372E-03-9.35458E-04-8.57943E-15
 -1       724 1.45541E-03 3.53720E-04-9.81755E-16
 -1       725 5.61009E-03-3.35324E-04-1.20404E-14
 -1       726 8.29308E-04 4.86887E-05-5.98202E-16
 -1       727 3.33071E-03 8.19638E-04-5.21505E-15
 -1       728 1.71470E-03-2.46598E-04-2.53048E-15
 -1       729 7.73861E-04-6.84688E-05-6.34163E-16
 -1       730 3.28709E-03-1.07421E-03-5.03899E-15
 -1       731 2.06622E-03 2.40376E-04-2.84249E-15
 -1       732 1.39346E-03-2.57167E-05-2.22477E-15
 -1       733 1.24390E-03-9.13371E-05-2.13688E-15
 -1       734 2.07374E-03-4.09130E-04-2.94158E-15
 -1       735 3.92289E-03 7.25239E-04-7.10052E-15
 -1       736 3.96962E-03-1.11215E-03-7.17764E-15
 -1       737 5.18096E-03-5.04682E-04-1.07927E-14
 -1       738 2.47801E-03 4.57516E-04-3.35701E-15
 -1       739 8.43770E-04-1.07018E-04-6.20553E-16
 -1       740 7.08379E-04-3.27314E-05-6.39120E-16
 -1       741 4.12876E-03 6.39694E-04-7.81950E-15
 -1       742 2.67577E-03 5.90681E-04-3.57410E-15
 -1       743 4.58490E-03 3.91532E-04-9.25205E-15
 -1       744 1.41302E-02-6.57101E-04-1.03715E-13
 -1       745 5.46319E-03-4.28710E-04-1.21272E-14
 -1       746 2.28139E-03-5.28898E-04-3.07933E-15
 -1       747 7.25627E-04-4.60389E-05-6.39933E-16
 -1       748 3.09225E-03 7.81658E-04-4.48214E-15
 -1       749 1.42639E-02-1.30032E-03-1.04204E-13
 -1       750 1.18384E-03 1.86275E-04-8.58658E-16
 -1       751 5.81877E-03-3.04994E-04-1.32608E-14
 -1       752 2.17405E-03 3.58565E-04-2.68476E-15
 -1       753 1.80713E-03-3.50513E-04-2.11487E-15
 -1       754 5.14999E-03-5.80848E-04-1.12904E-14
 -1       755 5.80972E-03-4.73906E-04-1.48195E-14
 -1       756 6.10276E-03-4.68077E-04-1.67085E-14
 -1       757 6.38537E-03-4.77869E-04-1.86894E-14
 -1       758 6.66362E-03-4.97683E-04-2.07680E-14
 -1       759 6.94071E-03-5.24154E-04-2.29472E-14
 -1       760 7.21828E-03-5.54903E-04-2.52261E-14
 -1       761 7.49699E-03-5.88187E-04-2.76019E-14
 -1       762 7.77702E-03-6.22726E-04-3.00765E-14
 -1       763 8.05831E-03-6.57614E-04-3.26456E-14
 -1       764 8.34067E-03-6.92244E-04-3.53072E-14
 -1       765 8.62392E-03-7.26246E-04-3.80571E-14
 -1       766 8.90785E-03-7.59422E-04-4.08915E-14
 -1       767 9.19232E-03-7.91700E-04-4.38058E-14
 -1       768 9.47718E-03-8.23089E-04-4.67948E-14
 -1       769 9.76233E-03-8.53651E-04-4.98602E-14
 -1       770 1.00477E-02-8.83474E-04-5.29918E-14
 -1       771 1.03332E-02-9.12659E-04-5.61824E-14
 -1       772 1.06188E-02-9.41307E-04-5.94299E-14
 -1       773 1.09045E-02-9.69513E-04-6.27295E-14
 -1       774 1.11902E-02-9.97364E-04-6.60783E-14
 -1       775 1.14759E-02-1.02493E-03-6.94783E-14
 -1       776 1.17617E-02-1.05228E-03-7.29180E-14
 -1       777 1.20474E-02-1.07947E-03-7.63865E-14
 -1       778 1.23332E-02-1.10653E-03-7.98936E-14
 -1       779 1.26190E-02-1.13350E-03-8.34347E-14
 -1       780 1.29047E-02-1.16040E-03-8.70115E-14
 -1       781 1.31905E-02-1.18726E-03-9.06154E-14
 -1       782 1.34762E-02-1.21409E-03-9.42342E-14
 -1       783 1.37619E-02-1.24091E-03-9.78604E-14
 -1       784 1.40129E-02-1.27062E-03-1.01034E-13
 -1       785 2.23258E-03 4.95118E-04-2.45942E-15
 -1       786 1.21674E-03-4.06711E-05-1.79594E-15
 -1       787 3.64224E-03 8.41400E-04-6.18342E-15
 -1       788 4.34410E-03 6.08520E-04-8.80995E-15
 -1       789 4.70719E-03 4.63200E-04-1.03044E-14
 -1       790 5.06040E-03 3.40861E-04-1.19083E-14
 -1       791 5.39829E-03 2.46795E-04-1.36182E-14
 -1       792 5.71980E-03 1.77024E-04-1.54318E-14
 -1       793 6.02799E-03 1.25284E-04-1.73464E-14
 -1       794 6.32674E-03 8.62220E-05-1.93625E-14
 -1       795 6.61937E-03 5.57903E-05-2.14778E-14
 -1       796 6.90829E-03 3.09838E-05-2.36955E-14
 -1       797 7.19514E-03 9.60256E-06-2.60152E-14
 -1       798 7.48091E-03-9.93949E-06-2.84339E-14
 -1       799 7.76620E-03-2.87565E-05-3.09477E-14
 -1       800 8.05135E-03-4.75982E-05-3.35530E-14
 -1       801 8.33651E-03-6.69366E-05-3.62497E-14
 -1       802 8.62175E-03-8.70377E-05-3.90336E-14
 -1       803 8.90710E-03-1.08021E-04-4.18977E-14
 -1       804 9.19255E-03-1.29907E-04-4.48442E-14
 -1       805 9.47809E-03-1.52651E-04-4.78709E-14
 -1       806 9.76370E-03-1.76173E-04-5.09662E-14
 -1       807 1.00494E-02-2.00375E-04-5.41286E-14
 -1       808 1.03351E-02-2.25155E-04-5.73577E-14
 -1       809 1.06208E-02-2.50414E-04-6.06377E-14
 -1       810 1.09065E-02-2.76062E-04-6.39748E-14
 -1       811 1.11922E-02-3.02018E-04-6.73612E-14
 -1       812 1.14780E-02-3.28216E-04-7.07879E-14
 -1       813 1.17637E-02-3.54600E-04-7.42566E-14
 -1       814 1.20495E-02-3.81122E-04-7.77607E-14
 -1       815 1.23352E-02-4.07746E-04-8.12923E-14
 -1       816 1.26209E-02-4.34443E-04-8.48519E-14
 -1       817 1.29067E-02-4.61190E-04-8.84356E-14
 -1       818 1.31924E-02-4.87970E-04-9.20329E-14
 -1       819 1.34781E-02-5.14770E-04-9.56374E-14
 -1       820 9.31529E-04-8.60485E-06-9.58025E-16
 -1       821 1.39746E-02-9.28328E-04-1.01227E-13
 -1       822 1.40534E-02-1.17990E-03-1.01742E-13
 -1       823 1.40005E-02-1.01124E-03-1.01398E-13
 -1       824 1.88084E-03 3.87211E-04-1.81664E-15
 -1       825 1.42155E-03 2.75848E-05-1.90714E-15
 -1       826 5.48891E-03-3.10435E-06-1.24538E-14
 -1       827 1.40269E-02-1.09557E-03-1.01571E-13
 -1       828 1.43775E-03-1.66317E-04-1.98561E-15
 -1       829 3.98638E-03 7.50286E-04-7.43410E-15
 -1       830 4.92359E-03 2.43561E-04-1.05578E-14
 -1       831 1.23586E-03-1.03688E-04-1.80500E-15
 -1       832 1.48839E-03-2.63643E-04-1.52600E-15
 -1       833 5.97442E-03-2.29617E-04-1.34817E-14
 -1       834 1.13335E-03-6.67272E-05-1.72502E-15
 -1       835 5.95731E-03-1.92347E-04-1.35474E-14
 -1       836 1.77846E-03 1.67423E-04-2.23365E-15
 -1       837 1.31872E-03 2.65925E-04-9.23249E-16
 -1       838 5.77905E-03-1.25119E-04-1.31158E-14
 -1       839 8.83094E-04-3.53491E-05-9.71767E-16
 -1       840 5.71109E-03-3.76947E-04-1.33528E-14
 -1       841 1.01003E-03 3.77577E-05-9.35528E-16
 -1       842 4.36639E-03 5.36107E-04-8.70500E-15
 -1       843 1.22005E-03-2.01509E-04-1.08284E-15
 -1       844 1.38958E-02-6.75688E-04-1.00685E-13
 -1       845 5.49713E-03-5.04920E-04-1.30110E-14
 -1       846 1.39220E-02-7.60015E-04-1.00863E-13
 -1       847 1.37056E-02-5.51683E-04-9.84809E-14
 -1       848 1.09876E-03 1.04160E-04-9.02636E-16
 -1       849 1.39483E-02-8.44170E-04-1.01046E-13
 -1       850 5.24473E-03 1.34021E-04-1.19675E-14
 -1       851 1.06111E-03-7.17077E-05-1.42790E-15
 -1       852 1.59428E-03 3.21622E-04-1.33001E-15
 -1       853 6.00206E-03-2.66090E-04-1.41864E-14
 -1       854 1.38605E-02-5.83259E-04-1.00408E-13
 -1       855 9.29895E-04-7.50106E-05-9.74874E-16
 -1       856 1.40332E-02-1.22526E-03-1.01389E-13
 -1       857 1.01661E-03-1.15720E-04-9.63337E-16
 -1       858 1.84390E-03 2.80253E-04-2.01247E-15
 -1       859 1.46470E-03 1.06393E-04-1.65346E-15
 -1       860 6.30477E-03-4.00012E-04-1.76728E-14
 -1       861 6.56489E-03-4.21003E-04-1.96980E-14
 -1       862 6.82730E-03-4.46985E-04-2.18240E-14
 -1       863 7.09300E-03-4.76356E-04-2.40482E-14
 -1       864 7.36217E-03-5.07955E-04-2.63724E-14
 -1       865 7.63458E-03-5.40843E-04-2.87939E-14
 -1       866 7.90983E-03-5.74280E-04-3.13099E-14
 -1       867 8.18747E-03-6.07717E-04-3.39171E-14
 -1       868 8.46707E-03-6.40781E-04-3.66174E-14
 -1       869 8.74823E-03-6.73247E-04-3.94042E-14
 -1       870 9.03062E-03-7.05003E-04-4.22727E-14
 -1       871 9.31396E-03-7.36020E-04-4.52197E-14
 -1       872 9.59801E-03-7.66323E-04-4.82452E-14
 -1       873 9.88260E-03-7.95973E-04-5.13387E-14
 -1       874 1.01676E-02-8.25047E-04-5.44953E-14
 -1       875 1.04528E-02-8.53628E-04-5.77126E-14
 -1       876 1.07383E-02-8.81798E-04-6.09823E-14
 -1       877 1.10239E-02-9.09633E-04-6.43054E-14
 -1       878 1.13096E-02-9.37199E-04-6.76756E-14
 -1       879 1.15953E-02-9.64555E-04-7.10969E-14
 -1       880 1.18811E-02-9.91749E-04-7.45473E-14
 -1       881 1.21669E-02-1.01882E-03-7.80354E-14
 -1       882 1.24526E-02-1.04580E-03-8.15594E-14
 -1       883 1.27384E-02-1.07272E-03-8.51135E-14
 -1       884 1.30242E-02-1.09959E-03-8.86966E-14
 -1       885 1.33100E-02-1.12642E-03-9.22988E-14
 -1       886 1.35957E-02-1.15324E-03-9.59137E-14
 -1       887 5.66281E-03 1.07873E-04-1.46770E-14
 -1       888 5.96588E-03 5.96597E-05-1.65477E-14
 -1       889 6.25724E-03 2.36610E-05-1.85191E-14
 -1       890 6.54184E-03-4.78740E-06-2.05898E-14
 -1       891 6.82301E-03-2.85837E-05-2.27586E-14
 -1       892 7.10284E-03-4.96439E-05-2.50310E-14
 -1       893 7.38253E-03-6.92693E-05-2.74030E-14
 -1       894 7.66273E-03-8.83624E-05-2.98713E-14
 -1       895 7.94372E-03-1.07538E-04-3.24312E-14
 -1       896 8.22557E-03-1.27193E-04-3.50838E-14
 -1       897 8.50823E-03-1.47559E-04-3.78261E-14
 -1       898 8.79162E-03-1.68745E-04-4.06527E-14
 -1       899 9.07561E-03-1.90773E-04-4.35599E-14
 -1       900 9.36009E-03-2.13608E-04-4.65499E-14
 -1       901 9.64495E-03-2.37182E-04-4.96129E-14
 -1       902 9.93009E-03-2.61406E-04-5.27451E-14
 -1       903 1.02155E-02-2.86188E-04-5.59412E-14
 -1       904 1.05010E-02-3.11435E-04-5.91962E-14
 -1       905 1.07866E-02-3.37063E-04-6.25027E-14
 -1       906 1.10723E-02-3.62997E-04-6.58640E-14
 -1       907 1.13580E-02-3.89171E-04-6.92698E-14
 -1       908 1.16438E-02-4.15531E-04-7.27167E-14
 -1       909 1.19295E-02-4.42032E-04-7.61988E-14
 -1       910 1.22153E-02-4.68638E-04-7.97093E-14
 -1       911 1.25011E-02-4.95320E-04-8.32513E-14
 -1       912 1.27868E-02-5.22055E-04-8.68162E-14
 -1       913 1.30726E-02-5.48826E-04-9.04032E-14
 -1       914 1.33584E-02-5.75620E-04-9.40024E-14
 -1       915 1.37401E-02-9.46566E-04-9.81973E-14
 -1       916 6.00672E-03-1.65979E-04-1.46307E-14
 -1       917 1.03669E-03-4.27730E-05-1.34296E-15
 -1       918 1.22945E-03-1.25484E-04-1.53496E-15
 -1       919 5.13819E-03 2.40139E-04-1.19469E-14
 -1       920 8.81580E-04-5.19933E-05-9.77422E-16
 -1       921 6.11236E-03-2.26007E-04-1.49636E-14
 -1       922 1.15178E-03-2.09254E-06-1.38937E-15
 -1       923 6.04403E-03-3.86174E-04-1.57413E-14
 -1       924 5.40793E-03 1.64785E-04-1.32809E-14
 -1       925 5.80492E-03-7.22567E-05-1.41957E-14
 -1       926 5.93733E-03-3.37705E-04-1.45416E-14
 -1       927 1.38144E-02-1.18925E-03-9.86532E-14
 -1       928 1.35858E-02-6.12533E-04-9.68385E-14
 -1       929 5.60075E-03 3.12230E-05-1.36785E-14
 -1       930 1.40239E-03 1.87437E-04-1.26545E-15
 -1       931 1.37138E-02-8.62407E-04-9.80206E-14
 -1       932 1.37665E-02-1.03090E-03-9.83686E-14
 -1       933 1.54705E-03 2.14462E-04-1.49782E-15
 -1       934 1.36614E-02-6.94633E-04-9.76561E-14
 -1       935 1.21410E-03-1.43628E-04-1.34840E-15
 -1       936 1.38113E-02-1.12441E-03-9.87507E-14
 -1       937 6.47371E-03-3.51045E-04-1.86390E-14
 -1       938 6.71893E-03-3.76268E-04-2.07089E-14
 -1       939 6.97157E-03-4.03793E-04-2.28816E-14
 -1       940 7.23056E-03-4.33134E-04-2.51514E-14
 -1       941 7.49495E-03-4.63732E-04-2.75199E-14
 -1       942 7.76384E-03-4.95056E-04-2.99851E-14
 -1       943 8.03645E-03-5.26653E-04-3.25420E-14
 -1       944 8.31211E-03-5.58179E-04-3.51904E-14
 -1       945 8.59021E-03-5.89395E-04-3.79286E-14
 -1       946 8.87025E-03-6.20159E-04-4.07476E-14
 -1       947 9.15181E-03-6.50404E-04-4.36510E-14
 -1       948 9.43454E-03-6.80117E-04-4.66351E-14
 -1       949 9.71817E-03-7.09323E-04-4.96930E-14
 -1       950 1.00025E-02-7.38069E-04-5.28166E-14
 -1       951 1.02873E-02-7.66413E-04-5.59991E-14
 -1       952 1.05724E-02-7.94414E-04-5.92431E-14
 -1       953 1.08578E-02-8.22132E-04-6.25384E-14
 -1       954 1.11433E-02-8.49621E-04-6.58832E-14
 -1       955 1.14290E-02-8.76927E-04-6.92779E-14
 -1       956 1.17148E-02-9.04090E-04-7.27129E-14
 -1       957 1.20005E-02-9.31146E-04-7.61798E-14
 -1       958 1.22863E-02-9.58120E-04-7.96864E-14
 -1       959 1.25721E-02-9.85034E-04-8.32224E-14
 -1       960 1.28580E-02-1.01191E-03-8.67847E-14
 -1       961 1.31437E-02-1.03875E-03-9.03721E-14
 -1       962 1.34295E-02-1.06557E-03-9.39741E-14
 -1       963 5.92239E-03-8.70303E-06-1.57501E-14
 -1       964 6.74530E-03-8.54262E-05-2.18263E-14
 -1       965 7.01647E-03-1.05709E-04-2.40517E-14
 -1       966 7.28892E-03-1.25338E-04-2.63787E-14
 -1       967 7.56314E-03-1.44870E-04-2.87992E-14
 -1       968 7.83926E-03-1.64681E-04-3.13154E-14
 -1       969 8.11721E-03-1.85022E-04-3.39247E-14
 -1       970 8.39680E-03-2.06037E-04-3.66262E-14
 -1       971 8.67781E-03-2.27794E-04-3.94128E-14
 -1       972 8.95998E-03-2.50298E-04-4.22808E-14
 -1       973 9.24311E-03-2.73516E-04-4.52307E-14
 -1       974 9.52698E-03-2.97386E-04-4.82604E-14
 -1       975 9.81142E-03-3.21834E-04-5.13593E-14
 -1       976 1.00963E-02-3.46778E-04-5.45277E-14
 -1       977 1.03815E-02-3.72139E-04-5.77521E-14
 -1       978 1.06669E-02-3.97845E-04-6.10319E-14
 -1       979 1.09525E-02-4.23828E-04-6.43649E-14
 -1       980 1.12381E-02-4.50032E-04-6.77496E-14
 -1       981 1.15239E-02-4.76407E-04-7.11778E-14
 -1       982 1.18096E-02-5.02914E-04-7.46408E-14
 -1       983 1.20954E-02-5.29519E-04-7.81316E-14
 -1       984 1.23812E-02-5.56197E-04-8.16527E-14
 -1       985 1.26670E-02-5.82926E-04-8.52040E-14
 -1       986 1.29528E-02-6.09691E-04-8.87778E-14
 -1       987 1.32386E-02-6.36480E-04-9.23681E-14
 -1       988 1.34500E-02-6.65554E-04-9.50127E-14
 -1       989 6.21348E-03-2.05164E-04-1.61709E-14
 -1       990 6.16180E-03-3.21759E-04-1.60361E-14
 -1       991 6.19107E-03-2.71774E-04-1.58573E-14
 -1       992 1.36876E-02-7.78518E-04-9.78372E-14
 -1       993 6.09949E-03-1.30434E-04-1.59926E-14
 -1       994 6.47432E-03-6.36524E-05-1.97025E-14
 -1       995 6.20147E-03-3.89012E-05-1.76774E-14
 -1       996 1.34761E-02-7.49438E-04-9.51940E-14
 -1       997 1.34794E-02-8.81269E-04-9.49956E-14
 -1       998 1.35058E-02-9.65606E-04-9.51668E-14
 -1       999 6.33492E-03-2.52881E-04-1.71050E-14
 -1      1000 7.46597E-03-1.97857E-04-2.77330E-14
 -1      1001 6.60903E-03-3.12760E-04-1.96061E-14
 -1      1002 6.84885E-03-3.37440E-04-2.17228E-14
 -1      1003 7.09816E-03-3.63789E-04-2.39403E-14
 -1      1004 7.35504E-03-3.91454E-04-2.62550E-14
 -1      1005 7.61799E-03-4.20060E-04-2.86665E-14
 -1      1006 7.88585E-03-4.49236E-04-3.11734E-14
 -1      1007 8.15772E-03-4.78667E-04-3.37728E-14
 -1      1008 8.43282E-03-5.08117E-04-3.64626E-14
 -1      1009 8.71051E-03-5.37421E-04-3.92362E-14
 -1      1010 8.99026E-03-5.66483E-04-4.20947E-14
 -1      1011 9.27161E-03-5.95252E-04-4.50344E-14
 -1      1012 9.55421E-03-6.23717E-04-4.80535E-14
 -1      1013 9.83775E-03-6.51890E-04-5.11419E-14
 -1      1014 1.01220E-02-6.79798E-04-5.42931E-14
 -1      1015 1.04068E-02-7.07473E-04-5.75044E-14
 -1      1016 1.06919E-02-7.34951E-04-6.07722E-14
 -1      1017 1.09773E-02-7.62267E-04-6.40928E-14
 -1      1018 1.12629E-02-7.89452E-04-6.74634E-14
 -1      1019 1.15485E-02-8.16533E-04-7.08767E-14
 -1      1020 1.18343E-02-8.43534E-04-7.43259E-14
 -1      1021 1.21201E-02-8.70475E-04-7.78133E-14
 -1      1022 1.24059E-02-8.97370E-04-8.13300E-14
 -1      1023 1.26917E-02-9.24233E-04-8.48757E-14
 -1      1024 1.29775E-02-9.51072E-04-8.84477E-14
 -1      1025 1.32633E-02-9.77897E-04-9.20393E-14
 -1      1026 6.93433E-03-1.57981E-04-2.30771E-14
 -1      1027 7.73678E-03-2.18632E-04-3.02057E-14
 -1      1028 8.01049E-03-2.40044E-04-3.27715E-14
 -1      1029 8.28674E-03-2.62113E-04-3.54308E-14
 -1      1030 8.56514E-03-2.84836E-04-3.81784E-14
 -1      1031 8.84531E-03-3.08183E-04-4.10090E-14
 -1      1032 9.12691E-03-3.32110E-04-4.39196E-14
 -1      1033 9.40963E-03-3.56559E-04-4.69106E-14
 -1      1034 9.69324E-03-3.81466E-04-4.99798E-14
 -1      1035 9.97751E-03-4.06767E-04-5.31141E-14
 -1      1036 1.02623E-02-4.32399E-04-5.63114E-14
 -1      1037 1.05474E-02-4.58305E-04-5.95648E-14
 -1      1038 1.08328E-02-4.84433E-04-6.28711E-14
 -1      1039 1.11184E-02-5.10738E-04-6.62290E-14
 -1      1040 1.14040E-02-5.37182E-04-6.96367E-14
 -1      1041 1.16898E-02-5.63733E-04-7.30809E-14
 -1      1042 1.19756E-02-5.90365E-04-7.65542E-14
 -1      1043 1.22614E-02-6.17057E-04-8.00626E-14
 -1      1044 1.25472E-02-6.43793E-04-8.35958E-14
 -1      1045 1.28330E-02-6.70559E-04-8.71574E-14
 -1      1046 1.31188E-02-6.97346E-04-9.07365E-14
 -1      1047 6.39268E-03-2.91631E-04-1.76914E-14
 -1      1048 1.34778E-02-8.15353E-04-9.50975E-14
 -1      1049 7.19842E-03-1.77667E-04-2.53567E-14
 -1      1050 6.67371E-03-1.38670E-04-2.08977E-14
 -1      1051 1.32975E-02-7.23390E-04-9.29648E-14
 -1      1052 6.41594E-03-1.19483E-04-1.88183E-14
 -1      1053 6.35514E-03-1.83139E-04-1.77298E-14
 -1      1054 6.50146E-03-2.36966E-04-1.87135E-14
 -1      1055 1.32369E-02-8.93565E-04-9.18772E-14
 -1      1056 1.32353E-02-8.27651E-04-9.19839E-14
 -1      1057 7.90408E-03-2.92039E-04-3.16223E-14
 -1      1058 6.59911E-03-1.93023E-04-1.98752E-14
 -1      1059 6.95967E-03-2.99182E-04-2.27385E-14
 -1      1060 7.21095E-03-3.23431E-04-2.49999E-14
 -1      1061 7.46932E-03-3.48899E-04-2.73581E-14
 -1      1062 7.73344E-03-3.75237E-04-2.98121E-14
 -1      1063 8.00223E-03-4.02149E-04-3.23627E-14
 -1      1064 8.27483E-03-4.29411E-04-3.50067E-14
 -1      1065 8.55050E-03-4.56853E-04-3.77321E-14
 -1      1066 8.82864E-03-4.84357E-04-4.05429E-14
 -1      1067 9.10874E-03-5.11846E-04-4.34412E-14
 -1      1068 9.39038E-03-5.39276E-04-4.64182E-14
 -1      1069 9.67319E-03-5.66625E-04-4.94708E-14
 -1      1070 9.95690E-03-5.93887E-04-5.25875E-14
 -1      1071 1.02413E-02-6.21065E-04-5.57697E-14
 -1      1072 1.05261E-02-6.48167E-04-5.90085E-14
 -1      1073 1.08113E-02-6.75202E-04-6.23017E-14
 -1      1074 1.10968E-02-7.02182E-04-6.56468E-14
 -1      1075 1.13824E-02-7.29117E-04-6.90368E-14
 -1      1076 1.16681E-02-7.56017E-04-7.24694E-14
 -1      1077 1.19539E-02-7.82889E-04-7.59365E-14
 -1      1078 1.22397E-02-8.09741E-04-7.94381E-14
 -1      1079 1.25255E-02-8.36577E-04-8.29676E-14
 -1      1080 1.28114E-02-8.63403E-04-8.65225E-14
 -1      1081 1.30241E-02-8.78486E-04-8.91939E-14
 -1      1082 8.17702E-03-3.15572E-04-3.42402E-14
 -1      1083 7.63458E-03-2.69151E-04-2.90986E-14
 -1      1084 8.45283E-03-3.39659E-04-3.69463E-14
 -1      1085 8.73099E-03-3.64223E-04-3.97356E-14
 -1      1086 9.01106E-03-3.89199E-04-4.26110E-14
 -1      1087 9.29262E-03-4.14526E-04-4.55666E-14
 -1      1088 9.57536E-03-4.40151E-04-4.85990E-14
 -1      1089 9.85900E-03-4.66025E-04-5.17015E-14
 -1      1090 1.01433E-02-4.92105E-04-5.48678E-14
 -1      1091 1.04281E-02-5.18354E-04-5.80967E-14
 -1      1092 1.07133E-02-5.44739E-04-6.13777E-14
 -1      1093 1.09987E-02-5.71232E-04-6.47072E-14
 -1      1094 1.12843E-02-5.97811E-04-6.80906E-14
 -1      1095 1.15700E-02-6.24455E-04-7.15165E-14
 -1      1096 1.18558E-02-6.51150E-04-7.49753E-14
 -1      1097 1.21416E-02-6.77882E-04-7.84677E-14
 -1      1098 1.24274E-02-7.04641E-04-8.19896E-14
 -1      1099 1.27132E-02-7.31420E-04-8.55354E-14
 -1      1100 1.29991E-02-7.58213E-04-8.91078E-14
 -1      1101 6.84592E-03-2.11805E-04-2.20058E-14
 -1      1102 1.32664E-02-7.75520E-04-9.24759E-14
 -1      1103 6.56170E-03-2.74362E-04-1.91622E-14
 -1      1104 6.75695E-03-2.86393E-04-2.09140E-14
 -1      1105 7.09987E-03-2.32052E-04-2.42352E-14
 -1      1106 7.36443E-03-2.50242E-04-2.66167E-14
 -1      1107 0.00000E+00 0.00000E+00 0.00000E+00
 -1      1108 0.00000E+00 0.00000E+00 0.00000E+00
 -1      1109 0.00000E+00 0.00000E+00 0.00000E+00
 -1      1110 0.00000E+00 0.00000E+00 0.00000E+00
 -1      1111 0.00000E+00 0.00000E+00 0.00000E+00
 -1      1112 0.00000E+00 0.00000E+00 0.00000E+00
 -1      1113 0.00000E+00 0.00000E+00 0.00000E+00
 -1      1114 0.00000E+00 0.00000E+00 0.00000E+00
 -1      1115 0.00000E+00 0.00000E+00 0.00000E+00
 -1      1116 0.00000E+00 0.00000E+00 0.00000E+00
 -1      1117 0.00000E+00 0.00000E+00 0.00000E+00
 -1      1118 0.00000E+00 0.00000E+00 0.00000E+00
 -1      1119 0.00000E+00 0.00000E+00 0.00000E+00
 -1      1120 0.00000E+00 0.00000E+00 0.00000E+00
 -1      1121 0.00000E+00 0.00000E+00 0.00000E+00
 -1      1122 0.00000E+00 0.00000E+00 0.00000E+00
 -1      1123 0.00000E+00 0.00000E+00 0.00000E+00
 -1      1124 2.31611E-04-1.46398E-04 1.61004E-17
 -1      1125 6.25121E-04-3.19862E-04-1.60326E-17
 -1      1126 9.74886E-04-4.35623E-04-1.44863E-16
 -1      1127 1.32496E-03-5.32004E-04-3.86776E-16
 -1      1128 1.68000E-03-6.30267E-04-7.40266E-16
 -1      1129 2.03864E-03-7.42696E-04-1.20527E-15
 -1      1130 2.39455E-03-8.75369E-04-1.78626E-15
 -1      1131 2.73724E-03-1.02593E-03-2.48721E-15
 -1      1132 3.05528E-03-1.18019E-03-3.31278E-15
 -1      1133 3.34245E-03-1.31232E-03-4.27153E-15
 -1      1134 3.60412E-03-1.39283E-03-5.36786E-15
 -1      1135 3.85800E-03-1.40297E-03-6.59828E-15
 -1      1136 4.12635E-03-1.34592E-03-7.96107E-15
 -1      1137 4.42448E-03-1.24526E-03-9.45249E-15
 -1      1138 4.75465E-03-1.13216E-03-1.10632E-14
 -1      1139 5.10848E-03-1.03190E-03-1.27816E-14
 -1      1140 5.47358E-03-9.57814E-04-1.45965E-14
 -1      1141 5.83900E-03-9.12668E-04-1.65037E-14
 -1      1142 6.19750E-03-8.93034E-04-1.85033E-14
 -1      1143 6.54551E-03-8.93180E-04-2.05994E-14
 -1      1144 6.88210E-03-9.07376E-04-2.27968E-14
 -1      1145 7.20791E-03-9.30865E-04-2.50983E-14
 -1      1146 7.52432E-03-9.60070E-04-2.75000E-14
 -1      1147 7.83295E-03-9.92461E-04-3.00022E-14
 -1      1148 8.13535E-03-1.02634E-03-3.26095E-14
 -1      1149 8.43292E-03-1.06062E-03-3.53101E-14
 -1      1150 8.72682E-03-1.09462E-03-3.81005E-14
 -1      1151 9.01798E-03-1.12800E-03-4.09706E-14
 -1      1152 9.30716E-03-1.16056E-03-4.39220E-14
 -1      1153 9.59492E-03-1.19227E-03-4.69490E-14
 -1      1154 9.88170E-03-1.22315E-03-5.00497E-14
 -1      1155 1.01678E-02-1.25326E-03-5.32226E-14
 -1      1156 1.04535E-02-1.28271E-03-5.64486E-14
 -1      1157 1.07390E-02-1.31158E-03-5.97254E-14
 -1      1158 1.10243E-02-1.33998E-03-6.30543E-14
 -1      1159 1.13096E-02-1.36799E-03-6.64315E-14
 -1      1160 1.15948E-02-1.39568E-03-6.98519E-14
 -1      1161 1.18801E-02-1.42314E-03-7.33076E-14
 -1      1162 1.21654E-02-1.45040E-03-7.67964E-14
 -1      1163 1.24508E-02-1.47752E-03-8.03158E-14
 -1      1164 1.27363E-02-1.50454E-03-8.38796E-14
 -1      1165 1.30217E-02-1.53148E-03-8.75023E-14
 -1      1166 1.33073E-02-1.55837E-03-9.11632E-14
 -1      1167 1.35929E-02-1.58522E-03-9.48383E-14
 -1      1168 1.38785E-02-1.61205E-03-9.85233E-14
 -1      1169 1.41641E-02-1.63887E-03-1.02204E-13
 -1      1170 1.44498E-02-1.66570E-03-1.05868E-13
 -1      1171 1.47355E-02-1.69253E-03-1.09525E-13
 -1      1172 1.50212E-02-1.71937E-03-1.13189E-13
 -1      1173 1.52998E-02-1.74555E-03-1.16783E-13
 -1      1174 2.46952E-04 1.61557E-04 2.98833E-17
 -1      1175 6.16321E-04 3.33299E-04 3.04661E-17
 -1      1176 9.51314E-04 4.50748E-04-5.46302E-17
 -1      1177 1.28237E-03 5.46227E-04-2.40259E-16
 -1      1178 1.61243E-03 6.37078E-04-5.29511E-16
 -1      1179 1.94007E-03 7.31819E-04-9.25949E-16
 -1      1180 2.26073E-03 8.32808E-04-1.43482E-15
 -1      1181 2.56826E-03 9.36150E-04-2.05745E-15
 -1      1182 2.85741E-03 1.03145E-03-2.79644E-15
 -1      1183 3.12690E-03 1.10351E-03-3.65044E-15
 -1      1184 3.38169E-03 1.13709E-03-4.62522E-15
 -1      1185 3.63247E-03 1.12324E-03-5.71991E-15
 -1      1186 3.89190E-03 1.06376E-03-6.93338E-15
 -1      1187 4.16964E-03 9.70657E-04-8.26600E-15
 -1      1188 4.46910E-03 8.61085E-04-9.72132E-15
 -1      1189 4.78758E-03 7.51156E-04-1.13007E-14
 -1      1190 5.11877E-03 6.51943E-04-1.29961E-14
 -1      1191 5.45559E-03 5.68671E-04-1.48039E-14
 -1      1192 5.79219E-03 5.02003E-04-1.67255E-14
 -1      1193 6.12459E-03 4.49948E-04-1.87536E-14
 -1      1194 6.45071E-03 4.09432E-04-2.08792E-14
 -1      1195 6.76983E-03 3.77297E-04-2.31010E-14
 -1      1196 7.08215E-03 3.50800E-04-2.54248E-14
 -1      1197 7.38840E-03 3.27775E-04-2.78576E-14
 -1      1198 7.68948E-03 3.06626E-04-3.03943E-14
 -1      1199 7.98637E-03 2.86245E-04-3.30207E-14
 -1      1200 8.27995E-03 2.65906E-04-3.57296E-14
 -1      1201 8.57099E-03 2.45166E-04-3.85220E-14
 -1      1202 8.86014E-03 2.23787E-04-4.13953E-14
 -1      1203 9.14792E-03 2.01668E-04-4.43535E-14
 -1      1204 9.43474E-03 1.78797E-04-4.73925E-14
 -1      1205 9.72090E-03 1.55216E-04-5.05112E-14
 -1      1206 1.00066E-02 1.30998E-04-5.37049E-14
 -1      1207 1.02921E-02 1.06228E-04-5.69539E-14
 -1      1208 1.05774E-02 8.09933E-05-6.02499E-14
 -1      1209 1.08627E-02 5.53766E-05-6.36047E-14
 -1      1210 1.11480E-02 2.94526E-05-6.70231E-14
 -1      1211 1.14333E-02 3.28620E-06-7.04945E-14
 -1      1212 1.17186E-02-2.30678E-05-7.40069E-14
 -1      1213 1.20040E-02-4.95639E-05-7.75547E-14
 -1      1214 1.22894E-02-7.61655E-05-8.11357E-14
 -1      1215 1.25749E-02-1.02843E-04-8.47454E-14
 -1      1216 1.28605E-02-1.29574E-04-8.83794E-14
 -1      1217 1.31460E-02-1.56339E-04-9.20191E-14
 -1      1218 1.34317E-02-1.83125E-04-9.56493E-14
 -1      1219 1.37173E-02-2.09921E-04-9.92805E-14
 -1      1220 1.40030E-02-2.36716E-04-1.02922E-13
 -1      1221 1.42887E-02-2.63505E-04-1.06566E-13
 -1      1222 1.45744E-02-2.90281E-04-1.10203E-13
 -1      1223 1.48530E-02-3.16377E-04-1.13746E-13
 -1      1224 1.50018E-02-3.71231E-04-1.15531E-13
 -1      1225 1.50282E-02-4.55516E-04-1.15690E-13
 -1      1226 1.50545E-02-5.39806E-04-1.15850E-13
 -1      1227 1.50807E-02-6.24109E-04-1.16000E-13
 -1      1228 1.51070E-02-7.08428E-04-1.16148E-13
 -1      1229 1.51331E-02-7.92049E-04-1.16282E-13
 -1      1230 1.51592E-02-8.75684E-04-1.16447E-13
 -1      1231 1.51855E-02-9.60046E-04-1.16626E-13
 -1      1232 1.52119E-02-1.04441E-03-1.16811E-13
 -1      1233 1.52382E-02-1.12878E-03-1.16996E-13
 -1      1234 1.52646E-02-1.21314E-03-1.17190E-13
 -1      1235 1.52908E-02-1.29678E-03-1.17427E-13
 -1      1236 1.53170E-02-1.38040E-03-1.17669E-13
 -1      1237 1.53435E-02-1.46471E-03-1.17877E-13
 -1      1238 1.53699E-02-1.54902E-03-1.18065E-13
 -1      1239 1.53963E-02-1.63331E-03-1.18257E-13
 -1      1240 1.54225E-02-1.71688E-03-1.18450E-13
 -1      1241 5.78256E-03-1.01176E-04-8.96718E-15
 -1      1242 5.65781E-03 4.80541E-05-8.81681E-15
 -1      1243 5.43210E-03 2.00692E-04-8.52260E-15
 -1      1244 5.13100E-03 3.50635E-04-8.11187E-15
 -1      1245 4.75740E-03 4.95970E-04-7.59542E-15
 -1      1246 4.33181E-03 6.20321E-04-7.01034E-15
 -1      1247 3.87999E-03 6.98608E-04-6.39517E-15
 -1      1248 3.42807E-03 7.21154E-04-5.79614E-15
 -1      1249 2.99476E-03 6.83941E-04-5.24778E-15
 -1      1250 2.55037E-03 5.91825E-04-4.72078E-15
 -1      1251 2.14082E-03 4.63722E-04-4.27195E-15
 -1      1252 1.80483E-03 3.23083E-04-3.93351E-15
 -1      1253 1.53927E-03 1.75258E-04-3.68624E-15
 -1      1254 1.37245E-03 3.18948E-05-3.54211E-15
 -1      1255 1.31646E-03-1.02239E-04-3.49982E-15
 -1      1256 1.37042E-03-2.43861E-04-3.55384E-15
 -1      1257 1.53418E-03-3.93881E-04-3.70801E-15
 -1      1258 1.78152E-03-5.44337E-04-3.94757E-15
 -1      1259 2.09846E-03-6.95126E-04-4.27218E-15
 -1      1260 2.49496E-03-8.44672E-04-4.70696E-15
 -1      1261 2.93311E-03-9.65899E-04-5.21854E-15
 -1      1262 3.37010E-03-1.03300E-03-5.76034E-15
 -1      1263 3.83541E-03-1.04021E-03-6.36711E-15
 -1      1264 4.30465E-03-9.82299E-04-6.99882E-15
 -1      1265 4.74386E-03-8.68864E-04-7.59611E-15
 -1      1266 5.14259E-03-7.20829E-04-8.13130E-15
 -1      1267 5.46644E-03-5.58874E-04-8.55477E-15
 -1      1268 5.68532E-03-4.03207E-04-8.83193E-15
 -1      1269 5.79333E-03-2.51887E-04-8.97198E-15
 -1      1270 1.88513E-04-1.02763E-04 4.20128E-19
 -1      1271 1.26544E-04-4.04507E-05-1.90006E-17
 -1      1272 1.33807E-04-5.43464E-05-1.37423E-17
 -1      1273 1.16629E-04-2.22584E-05-2.75658E-17
 -1      1274 1.21435E-04-3.01266E-05-2.48824E-17
 -1      1275 2.52965E-04-7.44534E-05-5.90890E-17
 -1      1276 1.08646E-04-1.07635E-05-3.24312E-17
 -1      1277 1.12715E-04-1.58600E-05-3.09675E-17
 -1      1278 2.32963E-04-4.25948E-05-7.44711E-17
 -1      1279 1.01543E-04-3.87479E-06-3.52772E-17
 -1      1280 1.05098E-04-6.92858E-06-3.44776E-17
 -1      1281 2.16087E-04-2.19672E-05-8.36462E-17
 -1      1282 9.56812E-05-7.83169E-07-3.68900E-17
 -1      1283 9.85180E-05-2.13214E-06-3.65105E-17
 -1      1284 2.01355E-04-9.74043E-06-8.91214E-17
 -1      1285 9.14049E-05-6.00147E-07-3.77709E-17
 -1      1286 9.33381E-05-6.94254E-07-3.76083E-17
 -1      1287 1.89327E-04-4.25311E-06-9.21572E-17
 -1      1288 8.93422E-05-2.21337E-06-3.80284E-17
 -1      1289 9.00942E-05-1.64081E-06-3.79742E-17
 -1      1290 1.81181E-04-3.83313E-06-9.35395E-17
 -1      1291 8.97054E-05-4.08191E-06-3.77167E-17
 -1      1292 8.92234E-05-3.58614E-06-3.78793E-17
 -1      1293 1.78060E-04-6.08067E-06-9.37293E-17
 -1      1294 9.22871E-05-4.67027E-06-3.68222E-17
 -1      1295 9.07269E-05-4.94085E-06-3.71339E-17
 -1      1296 1.80211E-04-8.02877E-06-9.24824E-17
 -1      1297 9.65444E-05-2.83596E-06-3.51959E-17
 -1      1298 9.42084E-05-4.34103E-06-3.57651E-17
 -1      1299 1.86931E-04-6.92958E-06-8.98533E-17
 -1      1300 1.01723E-04 1.87445E-06-3.28649E-17
 -1      1301 9.89832E-05-9.94400E-07-3.37187E-17
 -1      1302 1.96768E-04-9.84342E-07-8.56249E-17
 -1      1303 1.07494E-04 9.73240E-06-2.95039E-17
 -1      1304 1.04467E-04 5.35686E-06-3.06965E-17
 -1      1305 2.08354E-04 1.06022E-05-7.95940E-17
 -1      1306 1.13606E-04 2.07641E-05-2.45572E-17
 -1      1307 1.10333E-04 1.48381E-05-2.64816E-17
 -1      1308 2.20858E-04 2.81798E-05-7.10966E-17
 -1      1309 1.20556E-04 3.57958E-05-1.68864E-17
 -1      1310 1.16612E-04 2.77315E-05-2.02475E-17
 -1      1311 2.34174E-04 5.21655E-05-5.86011E-17
 -1      1312 1.30726E-04 5.85838E-05-4.74338E-18
 -1      1313 1.24478E-04 4.58839E-05-1.06252E-17
 -1      1314 2.50224E-04 8.51751E-05-4.02239E-17
 -1      1315 1.74470E-04 1.07138E-04 1.39184E-17
 -1      1316 1.52177E-04 7.92004E-05 2.61564E-18
 -1      1317 2.88020E-04 1.35694E-04-1.80249E-17
 -1      1318 3.73631E-04 2.12498E-04 1.32815E-17
 -1      1319 4.82220E-04-2.40342E-04-3.05474E-17
 -1      1320 6.63915E-04-3.07899E-04-7.23705E-17
 -1      1321 8.42085E-04-3.64846E-04-1.43359E-16
 -1      1322 1.01858E-03-4.15094E-04-2.41587E-16
 -1      1323 7.10599E-04-2.91696E-04-1.37436E-16
 -1      1324 1.19422E-03-4.62844E-04-3.65972E-16
 -1      1325 1.36970E-03-5.09753E-04-5.17463E-16
 -1      1326 1.06320E-03-3.93706E-04-3.41510E-16
 -1      1327 1.54556E-03-5.58530E-04-6.96180E-16
 -1      1328 1.72177E-03-6.10078E-04-9.03384E-16
 -1      1329 1.41185E-03-4.88229E-04-6.50996E-16
 -1      1330 1.89823E-03-6.66174E-04-1.13809E-15
 -1      1331 2.07438E-03-7.27224E-04-1.40053E-15
 -1      1332 1.76047E-03-5.91542E-04-1.06902E-15
 -1      1333 2.24958E-03-7.94009E-04-1.69217E-15
 -1      1334 2.42284E-03-8.66081E-04-2.01320E-15
 -1      1335 2.10915E-03-7.13915E-04-1.59761E-15
 -1      1336 2.59326E-03-9.42713E-04-2.36428E-15
 -1      1337 2.75971E-03-1.02205E-03-2.74638E-15
 -1      1338 2.45466E-03-8.58827E-04-2.24152E-15
 -1      1339 2.92140E-03-1.10143E-03-3.15955E-15
 -1      1340 3.07771E-03-1.17748E-03-3.60485E-15
 -1      1341 2.79144E-03-1.01902E-03-3.00576E-15
 -1      1342 3.22853E-03-1.24604E-03-4.08395E-15
 -1      1343 3.37438E-03-1.30319E-03-4.59691E-15
 -1      1344 3.11409E-03-1.17321E-03-3.89669E-15
 -1      1345 3.51620E-03-1.34500E-03-5.14328E-15
 -1      1346 3.65578E-03-1.36897E-03-5.72413E-15
 -1      1347 3.42126E-03-1.28934E-03-4.92034E-15
 -1      1348 3.79487E-03-1.37375E-03-6.33848E-15
 -1      1349 3.93573E-03-1.35978E-03-6.98623E-15
 -1      1350 3.71878E-03-1.33786E-03-6.07919E-15
 -1      1351 4.07995E-03-1.32926E-03-7.66736E-15
 -1      1352 4.22910E-03-1.28534E-03-8.37974E-15
 -1      1353 4.01820E-03-1.30886E-03-7.37299E-15
 -1      1354 4.38386E-03-1.23236E-03-9.12404E-15
 -1      1355 4.54442E-03-1.17442E-03-9.89952E-15
 -1      1356 4.33020E-03-1.21891E-03-8.79804E-15
 -1      1357 4.71040E-03-1.11570E-03-1.07034E-14
 -1      1358 4.88099E-03-1.05944E-03-1.15354E-14
 -1      1359 4.65872E-03-1.10098E-03-1.03451E-14
 -1      1360 5.05521E-03-1.00811E-03-1.23932E-14
 -1      1361 5.23184E-03-9.63451E-04-1.32756E-14
 -1      1362 5.00072E-03-9.87113E-04-1.20062E-14
 -1      1363 5.40985E-03-9.26142E-04-1.41821E-14
 -1      1364 5.58815E-03-8.96612E-04-1.51122E-14
 -1      1365 5.34970E-03-8.97329E-04-1.37700E-14
 -1      1366 5.76594E-03-8.74391E-04-1.60650E-14
 -1      1367 5.94250E-03-8.59174E-04-1.70408E-14
 -1      1368 5.69917E-03-8.38511E-04-1.56281E-14
 -1      1369 6.11736E-03-8.50027E-04-1.80406E-14
 -1      1370 6.29014E-03-8.46351E-04-1.90641E-14
 -1      1371 6.04439E-03-8.08775E-04-1.75789E-14
 -1      1372 6.46063E-03-8.47200E-04-2.01111E-14
 -1      1373 6.62873E-03-8.51934E-04-2.11830E-14
 -1      1374 6.38262E-03-8.02367E-04-1.96232E-14
 -1      1375 6.79444E-03-8.59788E-04-2.22802E-14
 -1      1376 6.95780E-03-8.70198E-04-2.34042E-14
 -1      1377 6.71275E-03-8.12861E-04-2.17662E-14
 -1      1378 7.11891E-03-8.82616E-04-2.45538E-14
 -1      1379 7.27790E-03-8.96589E-04-2.57272E-14
 -1      1380 7.03478E-03-8.34679E-04-2.40095E-14
 -1      1381 7.43494E-03-9.11758E-04-2.69276E-14
 -1      1382 7.59018E-03-9.27780E-04-2.81524E-14
 -1      1383 7.34937E-03-8.63530E-04-2.63566E-14
 -1      1384 7.74378E-03-9.44436E-04-2.94020E-14
 -1      1385 7.89592E-03-9.61475E-04-3.06779E-14
 -1      1386 7.65751E-03-8.96353E-04-2.88037E-14
 -1      1387 8.04674E-03-9.78777E-04-3.19784E-14
 -1      1388 8.19639E-03-9.96165E-04-3.33044E-14
 -1      1389 7.96025E-03-9.31078E-04-3.13512E-14
 -1      1390 8.34501E-03-1.01358E-03-3.46528E-14
 -1      1391 8.49272E-03-1.03091E-03-3.60218E-14
 -1      1392 8.25862E-03-9.66376E-04-3.39959E-14
 -1      1393 8.63965E-03-1.04812E-03-3.74141E-14
 -1      1394 8.78588E-03-1.06515E-03-3.88285E-14
 -1      1395 8.55354E-03-1.00144E-03-3.67330E-14
 -1      1396 8.93153E-03-1.08199E-03-4.02612E-14
 -1      1397 9.07666E-03-1.09860E-03-4.17143E-14
 -1      1398 8.84579E-03-1.03580E-03-3.95541E-14
 -1      1399 9.22136E-03-1.11499E-03-4.31862E-14
 -1      1400 9.36568E-03-1.13114E-03-4.46795E-14
 -1      1401 9.13602E-03-1.06926E-03-4.24548E-14
 -1      1402 9.50969E-03-1.14707E-03-4.61922E-14
 -1      1403 9.65343E-03-1.16277E-03-4.77221E-14
 -1      1404 9.42474E-03-1.10174E-03-4.54352E-14
 -1      1405 9.79695E-03-1.17826E-03-4.92711E-14
 -1      1406 9.94029E-03-1.19354E-03-5.08371E-14
 -1      1407 9.71236E-03-1.13326E-03-4.84927E-14
 -1      1408 1.00835E-02-1.20864E-03-5.24214E-14
 -1      1409 1.02265E-02-1.22354E-03-5.40196E-14
 -1      1410 9.99920E-03-1.16391E-03-5.16219E-14
 -1      1411 1.03695E-02-1.23829E-03-5.56298E-14
 -1      1412 1.05124E-02-1.25288E-03-5.72526E-14
 -1      1413 1.02855E-02-1.19379E-03-5.48123E-14
 -1      1414 1.06552E-02-1.26733E-03-5.88908E-14
 -1      1415 1.07980E-02-1.28164E-03-6.05392E-14
 -1      1416 1.05714E-02-1.22301E-03-5.80560E-14
 -1      1417 1.09407E-02-1.29585E-03-6.22020E-14
 -1      1418 1.10835E-02-1.30995E-03-6.38767E-14
 -1      1419 1.08571E-02-1.25167E-03-6.13515E-14
 -1      1420 1.12262E-02-1.32395E-03-6.55613E-14
 -1      1421 1.13688E-02-1.33787E-03-6.72569E-14
 -1      1422 1.11427E-02-1.27988E-03-6.46932E-14
 -1      1423 1.15115E-02-1.35172E-03-6.89658E-14
 -1      1424 1.16542E-02-1.36550E-03-7.06830E-14
 -1      1425 1.14282E-02-1.30773E-03-6.80835E-14
 -1      1426 1.17969E-02-1.37923E-03-7.24102E-14
 -1      1427 1.19396E-02-1.39290E-03-7.41483E-14
 -1      1428 1.17137E-02-1.33530E-03-7.15159E-14
 -1      1429 1.20823E-02-1.40653E-03-7.58883E-14
 -1      1430 1.22250E-02-1.42012E-03-7.76370E-14
 -1      1431 1.19991E-02-1.36264E-03-7.49818E-14
 -1      1432 1.23677E-02-1.43368E-03-7.94000E-14
 -1      1433 1.25105E-02-1.44720E-03-8.11706E-14
 -1      1434 1.22846E-02-1.38982E-03-7.84832E-14
 -1      1435 1.26532E-02-1.46071E-03-8.29525E-14
 -1      1436 1.27959E-02-1.47419E-03-8.47469E-14
 -1      1437 1.25701E-02-1.41687E-03-8.20246E-14
 -1      1438 1.29387E-02-1.48766E-03-8.65545E-14
 -1      1439 1.30815E-02-1.50111E-03-8.83733E-14
 -1      1440 1.28556E-02-1.44384E-03-8.56106E-14
 -1      1441 1.32242E-02-1.51455E-03-9.01979E-14
 -1      1442 1.33670E-02-1.52798E-03-9.20291E-14
 -1      1443 1.31412E-02-1.47074E-03-8.92395E-14
 -1      1444 1.35098E-02-1.54141E-03-9.38631E-14
 -1      1445 1.36526E-02-1.55483E-03-9.56979E-14
 -1      1446 1.34268E-02-1.49760E-03-9.28908E-14
 -1      1447 1.37955E-02-1.56824E-03-9.75352E-14
 -1      1448 1.39383E-02-1.58165E-03-9.93752E-14
 -1      1449 1.37124E-02-1.52443E-03-9.65546E-14
 -1      1450 1.40811E-02-1.59506E-03-1.01213E-13
 -1      1451 1.42239E-02-1.60847E-03-1.03044E-13
 -1      1452 1.39981E-02-1.55125E-03-1.00223E-13
 -1      1453 1.43668E-02-1.62188E-03-1.04877E-13
 -1      1454 1.45096E-02-1.63529E-03-1.06707E-13
 -1      1455 1.42837E-02-1.57806E-03-1.03888E-13
 -1      1456 1.46525E-02-1.64870E-03-1.08536E-13
 -1      1457 1.47953E-02-1.66212E-03-1.10364E-13
 -1      1458 1.45694E-02-1.60489E-03-1.07546E-13
 -1      1459 1.49382E-02-1.67554E-03-1.12197E-13
 -1      1460 1.50810E-02-1.68897E-03-1.14034E-13
 -1      1461 1.48551E-02-1.63172E-03-1.11205E-13
 -1      1462 1.52868E-02-1.70412E-03-1.16694E-13
 -1      1463 1.52037E-02-1.66029E-03-1.15695E-13
 -1      1464 7.28300E-04 3.55058E-04-3.08998E-17
 -1      1465 5.53921E-04 2.89992E-04 3.07642E-18
 -1      1466 5.02193E-04 2.47475E-04-2.01662E-17
 -1      1467 1.06696E-03 4.59263E-04-1.71900E-16
 -1      1468 8.98826E-04 4.09701E-04-8.91756E-17
 -1      1469 8.48440E-04 3.68008E-04-1.18571E-16
 -1      1470 1.39916E-03 5.51075E-04-4.12796E-16
 -1      1471 1.23346E-03 5.05835E-04-2.79412E-16
 -1      1472 1.18510E-03 4.65082E-04-3.13578E-16
 -1      1473 1.72790E-03 6.43217E-04-7.57261E-16
 -1      1474 1.56388E-03 5.96779E-04-5.71700E-16
 -1      1475 1.51613E-03 5.56307E-04-6.08834E-16
 -1      1476 2.05198E-03 7.41513E-04-1.21020E-15
 -1      1477 1.89068E-03 6.91644E-04-9.69738E-16
 -1      1478 1.84311E-03 6.51304E-04-1.00846E-15
 -1      1479 2.36774E-03 8.45756E-04-1.77618E-15
 -1      1480 2.21119E-03 7.93318E-04-1.47889E-15
 -1      1481 2.16477E-03 7.53495E-04-1.51805E-15
 -1      1482 2.67090E-03 9.49036E-04-2.45592E-15
 -1      1483 2.52117E-03 8.98307E-04-2.10193E-15
 -1      1484 2.47815E-03 8.59842E-04-2.14074E-15
 -1      1485 2.95886E-03 1.03802E-03-3.25198E-15
 -1      1486 2.81685E-03 9.96313E-04-2.83927E-15
 -1      1487 2.78034E-03 9.60230E-04-2.87797E-15
 -1      1488 3.23291E-03 1.09600E-03-4.16479E-15
 -1      1489 3.09736E-03 1.07175E-03-3.69361E-15
 -1      1490 3.07041E-03 1.03880E-03-3.73071E-15
 -1      1491 3.49911E-03 1.10914E-03-5.19903E-15
 -1      1492 3.36643E-03 1.10854E-03-4.66685E-15
 -1      1493 3.35104E-03 1.07869E-03-4.70328E-15
 -1      1494 3.76672E-03 1.07281E-03-6.35294E-15
 -1      1495 3.63208E-03 1.09679E-03-5.76052E-15
 -1      1496 3.62856E-03 1.06913E-03-5.79627E-15
 -1      1497 4.04474E-03 9.94150E-04-7.62599E-15
 -1      1498 3.90393E-03 1.03780E-03-6.97466E-15
 -1      1499 3.91070E-03 1.01087E-03-7.00996E-15
 -1      1500 4.33855E-03 8.89036E-04-9.01990E-15
 -1      1501 4.18949E-03 9.43728E-04-8.30789E-15
 -1      1502 4.20355E-03 9.16176E-04-8.34409E-15
 -1      1503 4.64857E-03 7.75538E-04-1.05352E-14
 -1      1504 4.49166E-03 8.32346E-04-9.76189E-15
 -1      1505 4.50941E-03 8.03366E-04-9.79753E-15
 -1      1506 4.97131E-03 6.68155E-04-1.21704E-14
 -1      1507 4.80867E-03 7.20477E-04-1.13382E-14
 -1      1508 4.82678E-03 6.89890E-04-1.13715E-14
 -1      1509 5.30143E-03 5.75301E-04-1.39182E-14
 -1      1510 5.13581E-03 6.19686E-04-1.30307E-14
 -1      1511 5.15182E-03 5.87750E-04-1.30604E-14
 -1      1512 5.63366E-03 4.99751E-04-1.57801E-14
 -1      1513 5.46759E-03 5.35399E-04-1.48350E-14
 -1      1514 5.48012E-03 5.02557E-04-1.48620E-14
 -1      1515 5.96393E-03 4.40524E-04-1.77505E-14
 -1      1516 5.79926E-03 4.68269E-04-1.67519E-14
 -1      1517 5.80788E-03 4.34974E-04-1.67745E-14
 -1      1518 6.28965E-03 3.94782E-04-1.98234E-14
 -1      1519 6.12749E-03 4.16181E-04-1.87746E-14
 -1      1520 6.13243E-03 3.82804E-04-1.87922E-14
 -1      1521 6.60954E-03 3.59183E-04-2.19938E-14
 -1      1522 6.45037E-03 3.75918E-04-2.08959E-14
 -1      1523 6.45221E-03 3.42715E-04-2.09097E-14
 -1      1524 6.92332E-03 3.30627E-04-2.42645E-14
 -1      1525 6.76719E-03 3.44193E-04-2.31168E-14
 -1      1526 6.76661E-03 3.11318E-04-2.31277E-14
 -1      1527 7.23132E-03 3.06577E-04-2.66381E-14
 -1      1528 7.07801E-03 3.18168E-04-2.54384E-14
 -1      1529 7.07567E-03 2.85692E-04-2.54470E-14
 -1      1530 7.53422E-03 2.85112E-04-2.91177E-14
 -1      1531 7.38336E-03 2.95615E-04-2.78655E-14
 -1      1532 7.37984E-03 2.63552E-04-2.78691E-14
 -1      1533 7.83282E-03 2.64867E-04-3.16960E-14
 -1      1534 7.68400E-03 2.74901E-04-3.03944E-14
 -1      1535 7.67975E-03 2.43229E-04-3.03914E-14
 -1      1536 8.12793E-03 2.44927E-04-3.43566E-14
 -1      1537 7.98076E-03 2.54901E-04-3.30148E-14
 -1      1538 7.97611E-03 2.23578E-04-3.30073E-14
 -1      1539 8.42028E-03 2.24718E-04-3.71064E-14
 -1      1540 8.27440E-03 2.34881E-04-3.57223E-14
 -1      1541 8.26958E-03 2.03857E-04-3.57112E-14
 -1      1542 8.71052E-03 2.03911E-04-3.99362E-14
 -1      1543 8.56562E-03 2.14402E-04-3.85105E-14
 -1      1544 8.56080E-03 1.83626E-04-3.84974E-14
 -1      1545 8.99918E-03 1.82351E-04-4.28481E-14
 -1      1546 8.85501E-03 1.93230E-04-4.13818E-14
 -1      1547 8.85027E-03 1.62654E-04-4.13641E-14
 -1      1548 9.28669E-03 1.59993E-04-4.58423E-14
 -1      1549 9.14305E-03 1.71271E-04-4.43343E-14
 -1      1550 9.13845E-03 1.40853E-04-4.43136E-14
 -1      1551 9.57339E-03 1.36864E-04-4.89179E-14
 -1      1552 9.43012E-03 1.48522E-04-4.73713E-14
 -1      1553 9.42569E-03 1.18225E-04-4.73451E-14
 -1      1554 9.85953E-03 1.13032E-04-5.20680E-14
 -1      1555 9.71652E-03 1.25031E-04-5.04838E-14
 -1      1556 9.71225E-03 9.48260E-05-5.04535E-14
 -1      1557 1.01453E-02 8.85823E-05-5.52856E-14
 -1      1558 1.00025E-02 1.00879E-04-5.36684E-14
 -1      1559 9.99835E-03 7.07412E-05-5.36321E-14
 -1      1560 1.04309E-02 6.36076E-05-5.85552E-14
 -1      1561 1.02881E-02 7.61551E-05-5.69136E-14
 -1      1562 1.02841E-02 4.60660E-05-5.68715E-14
 -1      1563 1.07163E-02 3.81977E-05-6.18794E-14
 -1      1564 1.05736E-02 5.09519E-05-6.02108E-14
 -1      1565 1.05698E-02 2.08968E-05-6.01666E-14
 -1      1566 1.10017E-02 1.24349E-05-6.52593E-14
 -1      1567 1.08590E-02 2.53558E-05-6.35630E-14
 -1      1568 1.08553E-02-4.67632E-06-6.35170E-14
 -1      1569 1.12870E-02-1.36082E-05-6.87000E-14
 -1      1570 1.11444E-02-5.55570E-07-6.69718E-14
 -1      1571 1.11407E-02-3.05729E-05-6.69216E-14
 -1      1572 1.15724E-02-3.98697E-05-7.21805E-14
 -1      1573 1.14297E-02-2.67150E-05-7.04350E-14
 -1      1574 1.14261E-02-5.67234E-05-7.03748E-14
 -1      1575 1.18578E-02-6.62982E-05-7.57075E-14
 -1      1576 1.17151E-02-5.30659E-05-7.39390E-14
 -1      1577 1.17116E-02-8.30695E-05-7.38697E-14
 -1      1578 1.21433E-02-9.28515E-05-7.92626E-14
 -1      1579 1.20005E-02-7.95615E-05-7.74819E-14
 -1      1580 1.19971E-02-1.09563E-04-7.74059E-14
 -1      1581 1.24288E-02-1.19496E-04-8.28570E-14
 -1      1582 1.22860E-02-1.06164E-04-8.10558E-14
 -1      1583 1.22826E-02-1.36166E-04-8.09763E-14
 -1      1584 1.27143E-02-1.46205E-04-8.64720E-14
 -1      1585 1.25715E-02-1.32844E-04-8.46618E-14
 -1      1586 1.25681E-02-1.62847E-04-8.45758E-14
 -1      1587 1.29999E-02-1.72958E-04-9.01037E-14
 -1      1588 1.28571E-02-1.59577E-04-8.82861E-14
 -1      1589 1.28537E-02-1.89582E-04-8.81964E-14
 -1      1590 1.32855E-02-1.99738E-04-9.37373E-14
 -1      1591 1.31427E-02-1.86345E-04-9.19231E-14
 -1      1592 1.31393E-02-2.16353E-04-9.18252E-14
 -1      1593 1.35711E-02-2.26533E-04-9.73668E-14
 -1      1594 1.34283E-02-2.13134E-04-9.55521E-14
 -1      1595 1.34249E-02-2.43144E-04-9.54537E-14
 -1      1596 1.38568E-02-2.53332E-04-1.01000E-13
 -1      1597 1.37139E-02-2.39932E-04-9.91815E-14
 -1      1598 1.37106E-02-2.69944E-04-9.90821E-14
 -1      1599 1.41425E-02-2.80127E-04-1.04637E-13
 -1      1600 1.39996E-02-2.66731E-04-1.02818E-13
 -1      1601 1.39962E-02-2.96745E-04-1.02715E-13
 -1      1602 1.44282E-02-3.06912E-04-1.08274E-13
 -1      1603 1.42853E-02-2.93521E-04-1.06457E-13
 -1      1604 1.42819E-02-3.23538E-04-1.06349E-13
 -1      1605 1.47139E-02-3.33684E-04-1.11906E-13
 -1      1606 1.45710E-02-3.20300E-04-1.10090E-13
 -1      1607 1.45676E-02-3.50318E-04-1.09980E-13
 -1      1608 1.48661E-02-3.58520E-04-1.13814E-13
 -1      1609 1.49110E-02-4.65004E-04-1.14160E-13
 -1      1610 1.48979E-02-4.22859E-04-1.14080E-13
 -1      1611 1.49373E-02-5.49300E-04-1.14315E-13
 -1      1612 1.49242E-02-5.07151E-04-1.14239E-13
 -1      1613 1.47939E-02-4.74491E-04-1.12629E-13
 -1      1614 1.49636E-02-6.33608E-04-1.14469E-13
 -1      1615 1.49505E-02-5.91453E-04-1.14391E-13
 -1      1616 1.48202E-02-5.58790E-04-1.12783E-13
 -1      1617 1.49899E-02-7.17930E-04-1.14617E-13
 -1      1618 1.49767E-02-6.75767E-04-1.14546E-13
 -1      1619 1.48464E-02-6.43101E-04-1.12938E-13
 -1      1620 1.50157E-02-8.00835E-04-1.14767E-13
 -1      1621 1.50028E-02-7.59381E-04-1.14690E-13
 -1      1622 1.48725E-02-7.26709E-04-1.13092E-13
 -1      1623 1.50420E-02-8.85181E-04-1.14938E-13
 -1      1624 1.50289E-02-8.43007E-04-1.14850E-13
 -1      1625 1.48986E-02-8.10328E-04-1.13253E-13
 -1      1626 1.50684E-02-9.69536E-04-1.15115E-13
 -1      1627 1.50552E-02-9.27358E-04-1.15024E-13
 -1      1628 1.49249E-02-8.94671E-04-1.13424E-13
 -1      1629 1.50947E-02-1.05389E-03-1.15304E-13
 -1      1630 1.50815E-02-1.01171E-03-1.15210E-13
 -1      1631 1.49512E-02-9.79020E-04-1.13606E-13
 -1      1632 1.51211E-02-1.13825E-03-1.15491E-13
 -1      1633 1.51079E-02-1.09607E-03-1.15397E-13
 -1      1634 1.49776E-02-1.06337E-03-1.13795E-13
 -1      1635 1.51475E-02-1.22260E-03-1.15693E-13
 -1      1636 1.51343E-02-1.18043E-03-1.15590E-13
 -1      1637 1.50040E-02-1.14772E-03-1.13985E-13
 -1      1638 1.51735E-02-1.30551E-03-1.15915E-13
 -1      1639 1.51605E-02-1.26406E-03-1.15802E-13
 -1      1640 1.50302E-02-1.23135E-03-1.14186E-13
 -1      1641 1.51999E-02-1.38984E-03-1.16136E-13
 -1      1642 1.51867E-02-1.34768E-03-1.16030E-13
 -1      1643 1.50564E-02-1.31497E-03-1.14397E-13
 -1      1644 1.52264E-02-1.47415E-03-1.16333E-13
 -1      1645 1.52131E-02-1.43200E-03-1.16238E-13
 -1      1646 1.50828E-02-1.39929E-03-1.14602E-13
 -1      1647 1.52528E-02-1.55846E-03-1.16523E-13
 -1      1648 1.52396E-02-1.51631E-03-1.16429E-13
 -1      1649 1.51093E-02-1.48360E-03-1.14794E-13
 -1      1650 1.52349E-02-1.63045E-03-1.16158E-13
 -1      1651 1.52217E-02-1.58830E-03-1.16062E-13
 -1      1652 1.50913E-02-1.55560E-03-1.14427E-13
 -1      1653 1.50291E-02-1.61529E-03-1.13503E-13
 -1      1654 5.77333E-03-1.09777E-04-9.30960E-15
 -1      1655 5.81227E-03-1.53917E-04-9.35406E-15
 -1      1656 5.59356E-03 5.55543E-06-9.07106E-15
 -1      1657 5.69147E-03-4.92215E-05-9.18916E-15
 -1      1658 5.30690E-03 1.48576E-04-8.69927E-15
 -1      1659 5.45040E-03 7.88696E-05-8.88728E-15
 -1      1660 4.96178E-03 3.12922E-04-8.21688E-15
 -1      1661 5.12469E-03 2.35344E-04-8.44839E-15
 -1      1662 4.54121E-03 4.92554E-04-7.63892E-15
 -1      1663 4.73406E-03 4.03410E-04-7.93534E-15
 -1      1664 4.15404E-03 6.55263E-04-6.95250E-15
 -1      1665 4.33768E-03 5.89616E-04-7.24814E-15
 -1      1666 3.73415E-03 7.57165E-04-6.27187E-15
 -1      1667 3.92241E-03 7.20297E-04-6.59458E-15
 -1      1668 3.35348E-03 7.60601E-04-5.64181E-15
 -1      1669 3.52441E-03 7.67367E-04-5.91622E-15
 -1      1670 2.97316E-03 6.88998E-04-5.05368E-15
 -1      1671 3.15149E-03 7.33981E-04-5.31774E-15
 -1      1672 2.56347E-03 5.37080E-04-4.49155E-15
 -1      1673 2.75723E-03 6.15292E-04-4.73661E-15
 -1      1674 2.14834E-03 3.68083E-04-4.07062E-15
 -1      1675 2.32593E-03 4.47678E-04-4.25644E-15
 -1      1676 1.79491E-03 2.11892E-04-3.75278E-15
 -1      1677 1.94854E-03 2.83084E-04-3.89014E-15
 -1      1678 1.51115E-03 6.49018E-05-3.50323E-15
 -1      1679 1.63504E-03 1.25345E-04-3.59892E-15
 -1      1680 1.34165E-03-3.62287E-05-3.38938E-15
 -1      1681 1.40247E-03 7.33566E-06-3.43170E-15
 -1      1682 1.30297E-03-1.23372E-04-3.37705E-15
 -1      1683 1.30504E-03-8.33668E-05-3.37511E-15
 -1      1684 1.40094E-03-2.18471E-04-3.43918E-15
 -1      1685 1.33692E-03-1.71387E-04-3.38883E-15
 -1      1686 1.62155E-03-3.43582E-04-3.62651E-15
 -1      1687 1.50745E-03-2.84433E-04-3.53286E-15
 -1      1688 1.91999E-03-4.97816E-04-3.90025E-15
 -1      1689 1.77321E-03-4.25494E-04-3.76717E-15
 -1      1690 2.28223E-03-6.68204E-04-4.25007E-15
 -1      1691 2.11159E-03-5.84786E-04-4.07285E-15
 -1      1692 2.71626E-03-8.58082E-04-4.71904E-15
 -1      1693 2.51861E-03-7.65870E-04-4.47716E-15
 -1      1694 3.10206E-03-1.01031E-03-5.28988E-15
 -1      1695 2.92148E-03-9.50547E-04-5.03658E-15
 -1      1696 3.49200E-03-1.08817E-03-5.88407E-15
 -1      1697 3.31536E-03-1.06245E-03-5.60199E-15
 -1      1698 3.89933E-03-1.07722E-03-6.57208E-15
 -1      1699 3.70988E-03-1.09753E-03-6.24742E-15
 -1      1700 4.32433E-03-9.64981E-04-7.24976E-15
 -1      1701 4.13310E-03-1.02436E-03-6.93857E-15
 -1      1702 4.73347E-03-7.94059E-04-7.92465E-15
 -1      1703 4.54094E-03-8.78169E-04-7.62991E-15
 -1      1704 5.15033E-03-6.11978E-04-8.47696E-15
 -1      1705 4.96706E-03-6.98702E-04-8.22416E-15
 -1      1706 5.48479E-03-4.36090E-04-8.95913E-15
 -1      1707 5.33756E-03-5.08785E-04-8.77507E-15
 -1      1708 5.71713E-03-3.14775E-04-9.19544E-15
 -1      1709 5.62781E-03-3.69624E-04-9.08999E-15
 -1      1710 5.81839E-03-2.06780E-04-9.33685E-15
 -1      1711 5.78872E-03-2.53576E-04-9.30258E-15
 -1      1712 4.77630E-03 3.18243E-04-8.27348E-15
 -1      1713 5.17247E-03 1.34901E-04-8.81989E-15
 -1      1714 1.48627E-02-3.88539E-04-1.13703E-13
 -1      1715 1.47456E-02-3.98023E-04-1.12172E-13
 -1      1716 5.73366E-03-1.15052E-04-9.58603E-15
 -1      1717 5.50133E-03-1.17286E-05-9.26888E-15
 -1      1718 5.82562E-03-1.83459E-04-9.69901E-15
 -1      1719 4.38058E-03 5.24768E-04-7.58399E-15
 -1      1720 3.98518E-03 7.00494E-04-6.82741E-15
 -1      1721 3.62565E-03 7.88261E-04-6.10964E-15
 -1      1722 3.27193E-03 7.69571E-04-5.43296E-15
 -1      1723 2.91283E-03 6.54348E-04-4.80174E-15
 -1      1724 2.51417E-03 4.68883E-04-4.26811E-15
 -1      1725 2.10209E-03 2.80723E-04-3.86838E-15
 -1      1726 1.74317E-03 1.14142E-04-3.54687E-15
 -1      1727 1.46646E-03-3.57951E-06-3.33291E-15
 -1      1728 1.31650E-03-7.40528E-05-3.25243E-15
 -1      1729 1.31289E-03-1.32864E-04-3.24926E-15
 -1      1730 1.45958E-03-2.05314E-04-3.34787E-15
 -1      1731 1.72671E-03-3.26470E-04-3.57185E-15
 -1      1732 2.07035E-03-4.88447E-04-3.87278E-15
 -1      1733 2.47740E-03-6.84302E-04-4.25731E-15
 -1      1734 2.87414E-03-8.96399E-04-4.78461E-15
 -1      1735 3.24893E-03-1.05411E-03-5.40732E-15
 -1      1736 3.61110E-03-1.12120E-03-6.08129E-15
 -1      1737 3.97661E-03-1.06946E-03-6.81763E-15
 -1      1738 4.37813E-03-9.14921E-04-7.57478E-15
 -1      1739 4.78983E-03-7.12551E-04-8.27272E-15
 -1      1740 5.20076E-03-5.09363E-04-8.88568E-15
 -1      1741 5.53543E-03-3.55721E-04-9.33089E-15
 -1      1742 5.75620E-03-2.54854E-04-9.57562E-15
 -1      1743 3.27355E-04-1.56085E-04-3.01137E-17
 -1      1744 3.48521E-04-6.32071E-05-1.19398E-16
 -1      1745 3.63160E-04-8.21020E-05-1.10833E-16
 -1      1746 3.79234E-04-1.05180E-04-1.00573E-16
 -1      1747 3.97975E-04-1.32879E-04-8.63160E-17
 -1      1748 5.02648E-04-1.30253E-04-1.61438E-16
 -1      1749 2.98979E-04-1.82794E-05-1.38073E-16
 -1      1750 3.09854E-04-2.53843E-05-1.34997E-16
 -1      1751 2.80694E-04-1.02868E-05-1.41665E-16
 -1      1752 2.89055E-04-1.32626E-05-1.40052E-16
 -1      1753 3.93606E-04-2.67253E-05-2.05863E-16
 -1      1754 2.69418E-04-8.78949E-06-1.43155E-16
 -1      1755 2.74035E-04-8.93722E-06-1.42667E-16
 -1      1756 3.69796E-04-1.67153E-05-2.10064E-16
 -1      1757 2.66651E-04-1.00548E-05-1.42884E-16
 -1      1758 2.66934E-04-9.34650E-06-1.43277E-16
 -1      1759 3.56719E-04-1.38851E-05-2.11528E-16
 -1      1760 2.72389E-04-9.87327E-06-1.40445E-16
 -1      1761 2.68550E-04-1.04026E-05-1.41949E-16
 -1      1762 3.56136E-04-1.32362E-05-2.10322E-16
 -1      1763 2.85066E-04-4.61249E-06-1.36054E-16
 -1      1764 2.78047E-04-8.04964E-06-1.38588E-16
 -1      1765 3.67404E-04-9.43775E-06-2.06188E-16
 -1      1766 3.01913E-04 7.68386E-06-1.29305E-16
 -1      1767 2.93140E-04 5.93433E-07-1.33167E-16
 -1      1768 3.87484E-04 1.59520E-06-1.99385E-16
 -1      1769 3.21276E-04 2.82722E-05-1.19587E-16
 -1      1770 3.11446E-04 1.69827E-05-1.24968E-16
 -1      1771 4.12782E-04 2.21045E-05-1.89017E-16
 -1      1772 3.41736E-04 5.72735E-05-1.05832E-16
 -1      1773 3.31390E-04 4.17633E-05-1.13611E-16
 -1      1774 4.40627E-04 5.30242E-05-1.74394E-16
 -1      1775 3.64056E-04 9.58291E-05-8.55164E-17
 -1      1776 3.52495E-04 7.53275E-05-9.68193E-17
 -1      1777 4.69790E-04 9.44718E-05-1.53604E-16
 -1      1778 3.93014E-04 1.48469E-04-5.59990E-17
 -1      1779 3.77260E-04 1.20142E-04-7.25196E-17
 -1      1780 5.02581E-04 1.48217E-04-1.23789E-16
 -1      1781 4.59920E-04 2.11744E-04-3.39897E-17
 -1      1782 4.24528E-04 1.76413E-04-4.79759E-17
 -1      1783 5.55368E-04 2.09985E-04-9.64940E-17
 -1      1784 6.32146E-04 2.76112E-04-7.31836E-17
 -1      1785 3.90909E-04-1.59218E-04-5.91026E-17
 -1      1786 9.72489E-04 3.82449E-04-2.23020E-16
 -1      1787 8.02958E-04 3.31966E-04-1.36284E-16
 -1      1788 7.60733E-04 2.96818E-04-1.51138E-16
 -1      1789 5.25847E-04-1.93493E-04-1.11659E-16
 -1      1790 9.34897E-04-3.25955E-04-3.13836E-16
 -1      1791 1.10767E-03-3.72660E-04-4.45824E-16
 -1      1792 1.27974E-03-4.19276E-04-6.03535E-16
 -1      1793 1.45190E-03-4.66992E-04-7.87876E-16
 -1      1794 1.15049E-03-3.52251E-04-5.54420E-16
 -1      1795 1.62461E-03-5.18004E-04-9.98753E-16
 -1      1796 1.79745E-03-5.73191E-04-1.23706E-15
 -1      1797 1.49013E-03-4.46347E-04-9.28362E-16
 -1      1798 1.97135E-03-6.33866E-04-1.50277E-15
 -1      1799 2.14488E-03-7.00475E-04-1.79629E-15
 -1      1800 1.83380E-03-5.55020E-04-1.40776E-15
 -1      1801 2.31909E-03-7.73071E-04-2.11887E-15
 -1      1802 2.49185E-03-8.51012E-04-2.47059E-15
 -1      1803 2.18249E-03-6.86801E-04-1.99691E-15
 -1      1804 2.66394E-03-9.32590E-04-2.85282E-15
 -1      1805 2.83326E-03-1.01513E-03-3.26574E-15
 -1      1806 2.53406E-03-8.42895E-04-2.70095E-15
 -1      1807 2.99988E-03-1.09506E-03-3.71032E-15
 -1      1808 3.16322E-03-1.16777E-03-4.18787E-15
 -1      1809 2.88237E-03-1.01108E-03-3.52550E-15
 -1      1810 3.32248E-03-1.22884E-03-4.69907E-15
 -1      1811 3.47979E-03-1.27353E-03-5.24319E-15
 -1      1812 3.21985E-03-1.16175E-03-4.47839E-15
 -1      1813 3.63380E-03-1.29882E-03-5.82245E-15
 -1      1814 3.78905E-03-1.30312E-03-6.43501E-15
 -1      1815 3.54414E-03-1.25517E-03-5.56581E-15
 -1      1816 3.94396E-03-1.28692E-03-7.08080E-15
 -1      1817 4.10276E-03-1.25288E-03-7.76037E-15
 -1      1818 3.86341E-03-1.26315E-03-6.78927E-15
 -1      1819 4.26414E-03-1.20470E-03-8.47229E-15
 -1      1820 4.42955E-03-1.14748E-03-9.21554E-15
 -1      1821 4.19061E-03-1.19033E-03-8.14740E-15
 -1      1822 4.59833E-03-1.08591E-03-9.98814E-15
 -1      1823 4.76938E-03-1.02431E-03-1.07912E-14
 -1      1824 4.53150E-03-1.07090E-03-9.63316E-15
 -1      1825 4.94287E-03-9.66214E-04-1.16207E-14
 -1      1826 5.11651E-03-9.13942E-04-1.24773E-14
 -1      1827 4.88163E-03-9.45336E-04-1.12364E-14
 -1      1828 5.29103E-03-8.69164E-04-1.33588E-14
 -1      1829 5.46429E-03-8.32346E-04-1.42636E-14
 -1      1830 5.23265E-03-8.41194E-04-1.29486E-14
 -1      1831 5.63712E-03-8.03669E-04-1.51931E-14
 -1      1832 5.80804E-03-7.82672E-04-1.61441E-14
 -1      1833 5.57833E-03-7.69423E-04-1.47588E-14
 -1      1834 5.97769E-03-7.68701E-04-1.71181E-14
 -1      1835 6.14526E-03-7.61000E-04-1.81155E-14
 -1      1836 5.91598E-03-7.29542E-04-1.66590E-14
 -1      1837 6.31113E-03-7.58637E-04-1.91379E-14
 -1      1838 6.47501E-03-7.60881E-04-2.01832E-14
 -1      1839 6.24525E-03-7.15941E-04-1.86526E-14
 -1      1840 6.63706E-03-7.66843E-04-2.12531E-14
 -1      1841 6.79730E-03-7.75926E-04-2.23487E-14
 -1      1842 6.56680E-03-7.21800E-04-2.07425E-14
 -1      1843 6.95578E-03-7.87419E-04-2.34693E-14
 -1      1844 7.11267E-03-8.00868E-04-2.46153E-14
 -1      1845 6.88159E-03-7.40978E-04-2.29306E-14
 -1      1846 7.26797E-03-8.15762E-04-2.57874E-14
 -1      1847 7.42191E-03-8.31770E-04-2.69846E-14
 -1      1848 7.19060E-03-7.68626E-04-2.52214E-14
 -1      1849 7.57448E-03-8.48553E-04-2.82066E-14
 -1      1850 7.72593E-03-8.65877E-04-2.94536E-14
 -1      1851 7.49470E-03-8.01209E-04-2.76116E-14
 -1      1852 7.87622E-03-8.83531E-04-3.07251E-14
 -1      1853 8.02560E-03-9.01355E-04-3.20221E-14
 -1      1854 7.79473E-03-8.36291E-04-3.01031E-14
 -1      1855 8.17405E-03-9.19230E-04-3.33433E-14
 -1      1856 8.32177E-03-9.37047E-04-3.46867E-14
 -1      1857 8.09141E-03-8.72275E-04-3.26922E-14
 -1      1858 8.46875E-03-9.54749E-04-3.60536E-14
 -1      1859 8.61515E-03-9.72266E-04-3.74405E-14
 -1      1860 8.38538E-03-9.08171E-04-3.53764E-14
 -1      1861 8.76098E-03-9.89580E-04-3.88496E-14
 -1      1862 8.90636E-03-1.00665E-03-4.02776E-14
 -1      1863 8.67719E-03-9.43407E-04-3.81474E-14
 -1      1864 9.05130E-03-1.02347E-03-4.17255E-14
 -1      1865 9.19591E-03-1.04003E-03-4.31941E-14
 -1      1866 8.96732E-03-9.77694E-04-4.09991E-14
 -1      1867 9.34019E-03-1.05634E-03-4.46831E-14
 -1      1868 9.48422E-03-1.07239E-03-4.61920E-14
 -1      1869 9.25615E-03-1.01093E-03-4.39337E-14
 -1      1870 9.62802E-03-1.08820E-03-4.77187E-14
 -1      1871 9.77162E-03-1.10377E-03-4.92630E-14
 -1      1872 9.54401E-03-1.04311E-03-4.69451E-14
 -1      1873 9.91506E-03-1.11913E-03-5.08242E-14
 -1      1874 1.00584E-02-1.13428E-03-5.24024E-14
 -1      1875 9.83113E-03-1.07432E-03-5.00298E-14
 -1      1876 1.02016E-02-1.14924E-03-5.39978E-14
 -1      1877 1.03446E-02-1.16402E-03-5.56038E-14
 -1      1878 1.01177E-02-1.10465E-03-5.31828E-14
 -1      1879 1.04877E-02-1.17864E-03-5.72224E-14
 -1      1880 1.06306E-02-1.19311E-03-5.88558E-14
 -1      1881 1.04040E-02-1.13424E-03-5.63928E-14
 -1      1882 1.07735E-02-1.20745E-03-6.05008E-14
 -1      1883 1.09164E-02-1.22167E-03-6.21589E-14
 -1      1884 1.06899E-02-1.16320E-03-5.96535E-14
 -1      1885 1.10592E-02-1.23578E-03-6.38283E-14
 -1      1886 1.12020E-02-1.24979E-03-6.55090E-14
 -1      1887 1.09757E-02-1.19165E-03-6.29636E-14
 -1      1888 1.13448E-02-1.26372E-03-6.72044E-14
 -1      1889 1.14876E-02-1.27756E-03-6.89087E-14
 -1      1890 1.12614E-02-1.21968E-03-6.63258E-14
 -1      1891 1.16304E-02-1.29135E-03-7.06211E-14
 -1      1892 1.17731E-02-1.30507E-03-7.23466E-14
 -1      1893 1.15470E-02-1.24738E-03-6.97319E-14
 -1      1894 1.19159E-02-1.31874E-03-7.40788E-14
 -1      1895 1.20586E-02-1.33236E-03-7.58174E-14
 -1      1896 1.18326E-02-1.27482E-03-7.31755E-14
 -1      1897 1.22014E-02-1.34595E-03-7.75679E-14
 -1      1898 1.23442E-02-1.35950E-03-7.93283E-14
 -1      1899 1.21182E-02-1.30207E-03-7.66557E-14
 -1      1900 1.24870E-02-1.37303E-03-8.10990E-14
 -1      1901 1.26297E-02-1.38653E-03-8.28792E-14
 -1      1902 1.24038E-02-1.32917E-03-8.01723E-14
 -1      1903 1.27725E-02-1.40001E-03-8.46703E-14
 -1      1904 1.29153E-02-1.41347E-03-8.64726E-14
 -1      1905 1.26894E-02-1.35617E-03-8.37322E-14
 -1      1906 1.30581E-02-1.42692E-03-8.82830E-14
 -1      1907 1.32009E-02-1.44036E-03-9.01009E-14
 -1      1908 1.29750E-02-1.38310E-03-8.73308E-14
 -1      1909 1.33437E-02-1.45378E-03-9.19243E-14
 -1      1910 1.34865E-02-1.46720E-03-9.37503E-14
 -1      1911 1.32606E-02-1.40997E-03-9.09604E-14
 -1      1912 1.36293E-02-1.48062E-03-9.55806E-14
 -1      1913 1.37722E-02-1.49403E-03-9.74104E-14
 -1      1914 1.35463E-02-1.43680E-03-9.46069E-14
 -1      1915 1.39150E-02-1.50744E-03-9.92397E-14
 -1      1916 1.40578E-02-1.52084E-03-1.01071E-13
 -1      1917 1.38319E-02-1.46362E-03-9.82614E-14
 -1      1918 1.42007E-02-1.53425E-03-1.02900E-13
 -1      1919 1.43435E-02-1.54766E-03-1.04728E-13
 -1      1920 1.41176E-02-1.49044E-03-1.01914E-13
 -1      1921 1.44864E-02-1.56107E-03-1.06558E-13
 -1      1922 1.46292E-02-1.57448E-03-1.08387E-13
 -1      1923 1.44033E-02-1.51725E-03-1.05569E-13
 -1      1924 1.47577E-02-1.58817E-03-1.10025E-13
 -1      1925 1.49006E-02-1.60159E-03-1.11855E-13
 -1      1926 1.49317E-02-1.57175E-03-1.12318E-13
 -1      1927 1.46747E-02-1.54435E-03-1.09035E-13
 -1      1928 1.30608E-03 4.75136E-04-4.68877E-16
 -1      1929 1.13975E-03 4.29638E-04-3.33528E-16
 -1      1930 1.09564E-03 3.94206E-04-3.50387E-16
 -1      1931 1.63547E-03 5.67242E-04-8.15971E-16
 -1      1932 1.47118E-03 5.20847E-04-6.29406E-16
 -1      1933 1.42679E-03 4.85167E-04-6.46916E-16
 -1      1934 1.96129E-03 6.65630E-04-1.26910E-15
 -1      1935 1.79896E-03 6.15575E-04-1.02902E-15
 -1      1936 1.75534E-03 5.79438E-04-1.04608E-15
 -1      1937 2.28195E-03 7.71208E-04-1.83295E-15
 -1      1938 2.12255E-03 7.17817E-04-1.53686E-15
 -1      1939 2.08112E-03 6.81531E-04-1.55255E-15
 -1      1940 2.59472E-03 8.77928E-04-2.51001E-15
 -1      1941 2.43962E-03 8.25128E-04-2.15726E-15
 -1      1942 2.40220E-03 7.89673E-04-2.17036E-15
 -1      1943 2.89729E-03 9.72588E-04-3.30145E-15
 -1      1944 2.74740E-03 9.27768E-04-2.89120E-15
 -1      1945 2.71574E-03 8.94591E-04-2.90169E-15
 -1      1946 3.18974E-03 1.03746E-03-4.21096E-15
 -1      1947 3.04457E-03 1.00971E-03-3.74123E-15
 -1      1948 3.01973E-03 9.80129E-04-3.74809E-15
 -1      1949 3.47577E-03 1.05674E-03-5.24082E-15
 -1      1950 3.33299E-03 1.05328E-03-4.71066E-15
 -1      1951 3.31512E-03 1.02764E-03-4.71441E-15
 -1      1952 3.76200E-03 1.02403E-03-6.39164E-15
 -1      1953 3.61817E-03 1.04659E-03-5.80081E-15
 -1      1954 3.60677E-03 1.02397E-03-5.80186E-15
 -1      1955 4.05510E-03 9.45915E-04-7.66307E-15
 -1      1956 3.90717E-03 9.89705E-04-7.01216E-15
 -1      1957 3.90155E-03 9.68386E-04-7.01068E-15
 -1      1958 4.35887E-03 8.38982E-04-9.05493E-15
 -1      1959 4.20548E-03 8.94879E-04-8.34399E-15
 -1      1960 4.20481E-03 8.73252E-04-8.34036E-15
 -1      1961 4.67328E-03 7.22600E-04-1.05656E-14
 -1      1962 4.51489E-03 7.80997E-04-9.79531E-15
 -1      1963 4.51802E-03 7.58179E-04-9.78890E-15
 -1      1964 4.99545E-03 6.12369E-04-1.21935E-14
 -1      1965 4.83371E-03 6.66143E-04-1.13652E-14
 -1      1966 4.83907E-03 6.41979E-04-1.13563E-14
 -1      1967 5.32149E-03 5.17309E-04-1.39351E-14
 -1      1968 5.15833E-03 5.62753E-04-1.30508E-14
 -1      1969 5.16423E-03 5.37489E-04-1.30371E-14
 -1      1970 5.64779E-03 4.40369E-04-1.57874E-14
 -1      1971 5.48489E-03 4.76635E-04-1.48474E-14
 -1      1972 5.48990E-03 4.50630E-04-1.48304E-14
 -1      1973 5.97167E-03 3.80501E-04-1.77468E-14
 -1      1974 5.81023E-03 4.08484E-04-1.67540E-14
 -1      1975 5.81341E-03 3.82060E-04-1.67309E-14
 -1      1976 6.29147E-03 3.34698E-04-1.98107E-14
 -1      1977 6.13219E-03 3.56055E-04-1.87665E-14
 -1      1978 6.13313E-03 3.29464E-04-1.87378E-14
 -1      1979 6.60641E-03 2.99427E-04-2.19731E-14
 -1      1980 6.44959E-03 3.15941E-04-2.08794E-14
 -1      1981 6.44828E-03 2.89363E-04-2.08465E-14
 -1      1982 6.91636E-03 2.71427E-04-2.42380E-14
 -1      1983 6.76201E-03 2.84676E-04-2.30933E-14
 -1      1984 6.75868E-03 2.58229E-04-2.30562E-14
 -1      1985 7.22159E-03 2.48036E-04-2.66030E-14
 -1      1986 7.06954E-03 2.59273E-04-2.54082E-14
 -1      1987 7.06454E-03 2.33027E-04-2.53658E-14
 -1      1988 7.52262E-03 2.27245E-04-2.90702E-14
 -1      1989 7.37259E-03 2.37398E-04-2.78243E-14
 -1      1990 7.36631E-03 2.11386E-04-2.77775E-14
 -1      1991 7.82005E-03 2.07637E-04-3.16352E-14
 -1      1992 7.67173E-03 2.17348E-04-3.03392E-14
 -1      1993 7.66452E-03 1.91577E-04-3.02870E-14
 -1      1994 8.11452E-03 1.88266E-04-3.42876E-14
 -1      1995 7.96761E-03 1.97955E-04-3.29507E-14
 -1      1996 7.95975E-03 1.72414E-04-3.28913E-14
 -1      1997 8.40660E-03 1.68545E-04-3.70306E-14
 -1      1998 8.26081E-03 1.78468E-04-3.56494E-14
 -1      1999 8.25254E-03 1.53136E-04-3.55859E-14
 -1      2000 8.69682E-03 1.48145E-04-3.98526E-14
 -1      2001 8.55191E-03 1.58438E-04-3.84322E-14
 -1      2002 8.54340E-03 1.33289E-04-3.83645E-14
 -1      2003 8.98562E-03 1.26915E-04-4.27578E-14
 -1      2004 8.84137E-03 1.37635E-04-4.12944E-14
 -1      2005 8.83274E-03 1.12641E-04-4.12230E-14
 -1      2006 9.27335E-03 1.04819E-04-4.57419E-14
 -1      2007 9.12960E-03 1.15972E-04-4.42396E-14
 -1      2008 9.12093E-03 9.11053E-05-4.41632E-14
 -1      2009 9.56031E-03 8.18929E-05-4.88085E-14
 -1      2010 9.41691E-03 9.34546E-05-4.72655E-14
 -1      2011 9.40827E-03 6.86906E-05-4.71853E-14
 -1      2012 9.84672E-03 5.82148E-05-5.19466E-14
 -1      2013 9.70357E-03 7.01421E-05-5.03685E-14
 -1      2014 9.69498E-03 4.54596E-05-5.02812E-14
 -1      2015 1.01328E-02 3.38797E-05-5.51522E-14
 -1      2016 9.98977E-03 4.61233E-05-5.35421E-14
 -1      2017 9.98125E-03 2.15039E-05-5.34500E-14
 -1      2018 1.04185E-02 8.98829E-06-5.84150E-14
 -1      2019 1.02757E-02 2.14978E-05-5.67765E-14
 -1      2020 1.02672E-02-3.07378E-06-5.66802E-14
 -1      2021 1.07042E-02-1.63627E-05-6.17358E-14
 -1      2022 1.05614E-02-3.63496E-06-6.00692E-14
 -1      2023 1.05530E-02-2.81709E-05-5.99693E-14
 -1      2024 1.09897E-02-4.20850E-05-6.51074E-14
 -1      2025 1.08469E-02-2.91820E-05-6.34153E-14
 -1      2026 1.08386E-02-5.36920E-05-6.33119E-14
 -1      2027 1.12752E-02-6.81015E-05-6.85317E-14
 -1      2028 1.11325E-02-5.50603E-05-6.68122E-14
 -1      2029 1.11242E-02-7.95520E-05-6.67046E-14
 -1      2030 1.15607E-02-9.43465E-05-7.19989E-14
 -1      2031 1.14179E-02-8.11986E-05-7.02617E-14
 -1      2032 1.14097E-02-1.05678E-04-7.01466E-14
 -1      2033 1.18462E-02-1.20766E-04-7.55111E-14
 -1      2034 1.17034E-02-1.07537E-04-7.37498E-14
 -1      2035 1.16953E-02-1.32008E-04-7.36304E-14
 -1      2036 1.21317E-02-1.47315E-04-7.90571E-14
 -1      2037 1.19889E-02-1.34026E-04-7.72807E-14
 -1      2038 1.19808E-02-1.58492E-04-7.71543E-14
 -1      2039 1.24173E-02-1.73958E-04-8.26393E-14
 -1      2040 1.22745E-02-1.60626E-04-8.08440E-14
 -1      2041 1.22664E-02-1.85089E-04-8.07136E-14
 -1      2042 1.27028E-02-2.00669E-04-8.62463E-14
 -1      2043 1.25600E-02-1.87306E-04-8.44387E-14
 -1      2044 1.25520E-02-2.11768E-04-8.43030E-14
 -1      2045 1.29884E-02-2.27424E-04-8.98662E-14
 -1      2046 1.28456E-02-2.14042E-04-8.80557E-14
 -1      2047 1.28376E-02-2.38503E-04-8.79134E-14
 -1      2048 1.32740E-02-2.54208E-04-9.34931E-14
 -1      2049 1.31312E-02-2.40813E-04-9.16806E-14
 -1      2050 1.31232E-02-2.65275E-04-9.15367E-14
 -1      2051 1.35597E-02-2.81007E-04-9.71189E-14
 -1      2052 1.34169E-02-2.67606E-04-9.53054E-14
 -1      2053 1.34088E-02-2.92069E-04-9.51579E-14
 -1      2054 1.38454E-02-3.07810E-04-1.00746E-13
 -1      2055 1.37025E-02-2.94408E-04-9.89307E-14
 -1      2056 1.36945E-02-3.18873E-04-9.87811E-14
 -1      2057 1.41310E-02-3.34610E-04-1.04378E-13
 -1      2058 1.39882E-02-3.21211E-04-1.02564E-13
 -1      2059 1.39802E-02-3.45677E-04-1.02409E-13
 -1      2060 1.44167E-02-3.61399E-04-1.08009E-13
 -1      2061 1.42739E-02-3.48006E-04-1.06193E-13
 -1      2062 1.42659E-02-3.72474E-04-1.06039E-13
 -1      2063 1.46526E-02-3.86406E-04-1.10999E-13
 -1      2064 1.45097E-02-3.73019E-04-1.09185E-13
 -1      2065 1.45017E-02-3.97489E-04-1.09028E-13
 -1      2066 1.46877E-02-4.20727E-04-1.11378E-13
 -1      2067 1.47293E-02-6.52589E-04-1.11414E-13
 -1      2068 1.47162E-02-6.10431E-04-1.11334E-13
 -1      2069 1.47030E-02-5.68276E-04-1.11256E-13
 -1      2070 1.46899E-02-5.26124E-04-1.11179E-13
 -1      2071 1.45859E-02-5.77758E-04-1.09728E-13
 -1      2072 1.46954E-02-4.94498E-04-1.11316E-13
 -1      2073 1.46822E-02-4.52350E-04-1.11237E-13
 -1      2074 1.45892E-02-4.40731E-04-1.10064E-13
 -1      2075 1.45782E-02-5.03979E-04-1.09787E-13
 -1      2076 1.47551E-02-7.35483E-04-1.11569E-13
 -1      2077 1.47422E-02-6.94035E-04-1.11490E-13
 -1      2078 1.46119E-02-6.61357E-04-1.09887E-13
 -1      2079 1.47814E-02-8.19816E-04-1.11740E-13
 -1      2080 1.47683E-02-7.77648E-04-1.11653E-13
 -1      2081 1.46380E-02-7.44967E-04-1.10049E-13
 -1      2082 1.48078E-02-9.04156E-04-1.11913E-13
 -1      2083 1.47946E-02-8.61985E-04-1.11826E-13
 -1      2084 1.46643E-02-8.29299E-04-1.10221E-13
 -1      2085 1.48341E-02-9.88501E-04-1.12099E-13
 -1      2086 1.48209E-02-9.46328E-04-1.12004E-13
 -1      2087 1.46906E-02-9.13637E-04-1.10399E-13
 -1      2088 1.48605E-02-1.07285E-03-1.12286E-13
 -1      2089 1.48473E-02-1.03067E-03-1.12192E-13
 -1      2090 1.47170E-02-9.97979E-04-1.10584E-13
 -1      2091 1.48869E-02-1.15719E-03-1.12479E-13
 -1      2092 1.48737E-02-1.11502E-03-1.12382E-13
 -1      2093 1.47433E-02-1.08232E-03-1.10773E-13
 -1      2094 1.49128E-02-1.24010E-03-1.12674E-13
 -1      2095 1.48998E-02-1.19864E-03-1.12574E-13
 -1      2096 1.47695E-02-1.16594E-03-1.10964E-13
 -1      2097 1.49393E-02-1.32442E-03-1.12874E-13
 -1      2098 1.49260E-02-1.28226E-03-1.12774E-13
 -1      2099 1.47957E-02-1.24956E-03-1.11154E-13
 -1      2100 1.49657E-02-1.40874E-03-1.13066E-13
 -1      2101 1.49525E-02-1.36659E-03-1.12971E-13
 -1      2102 1.48222E-02-1.33389E-03-1.11344E-13
 -1      2103 1.49922E-02-1.49305E-03-1.13255E-13
 -1      2104 1.49789E-02-1.45090E-03-1.13160E-13
 -1      2105 1.48486E-02-1.41820E-03-1.11529E-13
 -1      2106 5.40995E-03-2.84028E-05-9.56305E-15
 -1      2107 5.55361E-03-8.06117E-05-9.76139E-15
 -1      2108 5.82793E-03-1.81644E-04-1.01913E-14
 -1      2109 5.83233E-03-1.95826E-04-1.01802E-14
 -1      2110 5.68451E-03-1.23773E-04-9.88909E-15
 -1      2111 5.76980E-03-1.51815E-04-1.00203E-14
 -1      2112 5.05170E-03 1.36037E-04-8.96775E-15
 -1      2113 5.22698E-03 5.54450E-05-9.23181E-15
 -1      2114 4.65774E-03 3.31885E-04-8.37300E-15
 -1      2115 4.85418E-03 2.31153E-04-8.66864E-15
 -1      2116 3.21891E-04-3.51642E-05-1.30985E-16
 -1      2117 3.34737E-04-4.76188E-05-1.25754E-16
 -1      2118 4.61331E-04-8.11628E-05-1.83555E-16
 -1      2119 4.24972E-04-4.74559E-05-1.97528E-16
 -1      2120 3.88701E-03 7.36073E-04-6.75412E-15
 -1      2121 4.05730E-03 6.61410E-04-7.11960E-15
 -1      2122 3.52418E-03 8.13694E-04-5.90069E-15
 -1      2123 3.67132E-03 7.98700E-04-6.25522E-15
 -1      2124 3.23118E-03 7.70553E-04-5.25361E-15
 -1      2125 3.37560E-03 8.04348E-04-5.57207E-15
 -1      2126 3.45032E-03 8.20795E-04-5.70941E-15
 -1      2127 2.87722E-03 6.19702E-04-4.56595E-15
 -1      2128 3.04419E-03 7.04375E-04-4.87029E-15
 -1      2129 2.43866E-03 3.89599E-04-3.99847E-15
 -1      2130 2.63134E-03 4.92159E-04-4.21603E-15
 -1      2131 2.04231E-03 2.01708E-04-3.64629E-15
 -1      2132 2.22589E-03 2.89590E-04-3.81229E-15
 -1      2133 1.70133E-03 4.57361E-05-3.31630E-15
 -1      2134 1.86310E-03 1.13746E-04-3.45802E-15
 -1      2135 1.41606E-03-4.66908E-05-3.15744E-15
 -1      2136 1.52674E-03-1.31359E-05-3.22164E-15
 -1      2137 1.29546E-03-9.18399E-05-3.09291E-15
 -1      2138 1.33291E-03-7.64737E-05-3.10494E-15
 -1      2139 1.32596E-03-1.25454E-04-3.10556E-15
 -1      2140 1.29219E-03-1.10356E-04-3.09724E-15
 -1      2141 1.28599E-03-9.84222E-05-2.94837E-15
 -1      2142 1.52685E-03-1.95870E-04-3.25209E-15
 -1      2143 1.41652E-03-1.58649E-04-3.16626E-15
 -1      2144 1.83610E-03-3.17902E-04-3.48869E-15
 -1      2145 1.68280E-03-2.53136E-04-3.35930E-15
 -1      2146 2.19307E-03-4.89566E-04-3.81138E-15
 -1      2147 2.01421E-03-4.02471E-04-3.65223E-15
 -1      2148 2.60002E-03-7.05415E-04-4.22507E-15
 -1      2149 2.40090E-03-5.95955E-04-4.01303E-15
 -1      2150 3.02622E-03-9.54272E-04-4.89195E-15
 -1      2151 2.85374E-03-8.52209E-04-4.58420E-15
 -1      2152 3.34408E-03-1.09077E-03-5.49414E-15
 -1      2153 3.18858E-03-1.03046E-03-5.18734E-15
 -1      2154 3.13062E-03-9.96702E-04-4.97269E-15
 -1      2155 3.68110E-03-1.14011E-03-6.25029E-15
 -1      2156 3.52733E-03-1.13222E-03-5.88543E-15
 -1      2157 4.05668E-03-1.04394E-03-7.13581E-15
 -1      2158 3.89083E-03-1.10517E-03-6.75878E-15
 -1      2159 4.40948E-03-8.68716E-04-7.90999E-15
 -1      2160 4.23186E-03-9.66854E-04-7.51696E-15
 -1      2161 4.13160E-03-1.01011E-03-7.45400E-15
 -1      2162 4.86209E-03-6.29845E-04-8.68347E-15
 -1      2163 4.66040E-03-7.36006E-04-8.36725E-15
 -1      2164 5.24601E-03-4.32964E-04-9.35846E-15
 -1      2165 5.06064E-03-5.24636E-04-9.04525E-15
 -1      2166 5.59922E-03-2.91547E-04-9.81269E-15
 -1      2167 5.45872E-03-3.40880E-04-9.67058E-15
 -1      2168 5.78441E-03-2.25080E-04-1.00278E-14
 -1      2169 5.70664E-03-2.52677E-04-9.91801E-15
 -1      2170 5.65346E-03-2.57926E-04-1.02588E-14
 -1      2171 4.23525E-03 5.72791E-04-7.51000E-15
 -1      2172 4.41149E-03 4.67338E-04-7.91133E-15
 -1      2173 4.12744E-03 6.15405E-04-7.43107E-15
 -1      2174 4.94133E-03 1.60359E-04-9.07041E-15
 -1      2175 6.98203E-04-2.48718E-04-1.86279E-16
 -1      2176 4.51722E-03 3.89845E-04-8.29131E-15
 -1      2177 4.62256E-03 3.17770E-04-8.68175E-15
 -1      2178 4.40158E-03 4.48633E-04-8.20851E-15
 -1      2179 7.51161E-04-2.35059E-04-2.56509E-16
 -1      2180 5.61903E-03-1.20837E-04-1.01880E-14
 -1      2181 5.81025E-03-1.77515E-04-1.04953E-14
 -1      2182 1.49610E-02-1.52290E-03-1.12793E-13
 -1      2183 5.31310E-03-1.14427E-05-9.71320E-15
 -1      2184 5.81776E-03-2.06254E-04-1.05193E-14
 -1      2185 5.34846E-03-3.70650E-04-9.82934E-15
 -1      2186 4.51796E-03-7.99068E-04-8.30373E-15
 -1      2187 3.44052E-03-1.12122E-03-5.65149E-15
 -1      2188 2.74920E-03-7.74626E-04-4.32355E-15
 -1      2189 2.64551E-03-6.99333E-04-4.07253E-15
 -1      2190 2.87302E-03-8.41851E-04-4.42062E-15
 -1      2191 2.31051E-03-5.19671E-04-3.78113E-15
 -1      2192 1.93863E-03-3.33447E-04-3.42909E-15
 -1      2193 1.36259E-03-1.28516E-04-3.00967E-15
 -1      2194 1.36711E-03-7.11948E-05-2.99402E-15
 -1      2195 1.61803E-03 2.07800E-06-3.13399E-15
 -1      2196 1.96539E-03 1.37317E-04-3.40309E-15
 -1      2197 2.34306E-03 3.22538E-04-3.76489E-15
 -1      2198 3.15223E-03 7.48484E-04-4.99934E-15
 -1      2199 3.76664E-03 7.79868E-04-6.53191E-15
 -1      2200 3.85179E-03 7.47714E-04-6.81367E-15
 -1      2201 3.67273E-03 8.08545E-04-6.31168E-15
 -1      2202 2.76461E-03 5.54651E-04-4.27886E-15
 -1      2203 1.61008E-03-2.02801E-04-3.17000E-15
 -1      2204 3.78820E-03-1.13705E-03-6.54977E-15
 -1      2205 3.70698E-03-1.15403E-03-6.34209E-15
 -1      2206 3.88146E-03-1.11779E-03-6.85663E-15
 -1      2207 4.94652E-03-5.60633E-04-9.14045E-15
 -1      2208 1.14456E-03 3.74465E-04-4.56801E-16
 -1      2209 9.79544E-04 3.29508E-04-3.28337E-16
 -1      2210 4.56918E-04-2.28912E-05-2.99687E-16
 -1      2211 4.69483E-04-2.74803E-05-2.97857E-16
 -1      2212 4.85564E-04-3.46000E-05-2.94984E-16
 -1      2213 5.04222E-04-4.47484E-05-2.91068E-16
 -1      2214 5.74175E-04-4.17279E-05-4.02727E-16
 -1      2215 4.47186E-04-1.52169E-05-2.97708E-16
 -1      2216 4.43284E-04-1.71996E-05-2.99660E-16
 -1      2217 4.66085E-04-6.49424E-06-2.91366E-16
 -1      2218 4.55048E-04-1.18742E-05-2.95025E-16
 -1      2219 5.40883E-04-1.54516E-05-4.02131E-16
 -1      2220 4.95083E-04 1.17328E-05-2.81378E-16
 -1      2221 4.79709E-04 1.27459E-06-2.87029E-16
 -1      2222 5.69269E-04-5.06194E-07-3.92996E-16
 -1      2223 5.30082E-04 4.20041E-05-2.66104E-16
 -1      2224 5.12256E-04 2.53976E-05-2.74344E-16
 -1      2225 6.09057E-04 2.67150E-05-3.78536E-16
 -1      2226 5.67137E-04 8.42503E-05-2.45165E-16
 -1      2227 5.48553E-04 6.17113E-05-2.56563E-16
 -1      2228 6.54211E-04 6.77806E-05-3.57733E-16
 -1      2229 6.05752E-04 1.38412E-04-2.15553E-16
 -1      2230 5.86235E-04 1.09860E-04-2.31748E-16
 -1      2231 7.00675E-04 1.21834E-04-3.29123E-16
 -1      2232 1.47387E-03 4.64140E-04-7.87131E-16
 -1      2233 1.30933E-03 4.19147E-04-6.09349E-16
 -1      2234 1.19394E-03 3.54409E-04-5.69044E-16
 -1      2235 1.02616E-03-2.88666E-04-5.04195E-16
 -1      2236 1.19160E-03-3.32128E-04-6.68072E-16
 -1      2237 4.85619E-03 1.86905E-04-9.24339E-15
 -1      2238 5.03059E-03 9.83249E-05-9.55592E-15
 -1      2239 1.35825E-03-3.77201E-04-8.57089E-16
 -1      2240 1.52637E-03-4.25174E-04-1.07214E-15
 -1      2241 1.22975E-03-3.11987E-04-7.85938E-16
 -1      2242 1.69671E-03-4.77437E-04-1.31335E-15
 -1      2243 1.86884E-03-5.35345E-04-1.58146E-15
 -1      2244 1.56024E-03-4.03224E-04-1.21981E-15
 -1      2245 2.04401E-03-5.99580E-04-1.87621E-15
 -1      2246 2.22071E-03-6.70953E-04-2.19922E-15
 -1      2247 1.90277E-03-5.14113E-04-1.75709E-15
 -1      2248 2.40007E-03-7.49038E-04-2.55053E-15
 -1      2249 2.57959E-03-8.32890E-04-2.93151E-15
 -1      2250 2.25965E-03-6.53553E-04-2.40267E-15
 -1      2251 2.75962E-03-9.20384E-04-3.34312E-15
 -1      2252 2.93729E-03-1.00680E-03-3.78542E-15
 -1      2253 2.62772E-03-8.23053E-04-3.16260E-15
 -1      2254 3.11201E-03-1.08812E-03-4.26045E-15
 -1      2255 3.28325E-03-1.15702E-03-4.76838E-15
 -1      2256 2.99548E-03-1.00479E-03-4.04513E-15
 -1      2257 3.44938E-03-1.20877E-03-5.31133E-15
 -1      2258 3.61453E-03-1.23702E-03-5.88857E-15
 -1      2259 3.34911E-03-1.15439E-03-5.05826E-15
 -1      2260 3.77649E-03-1.24029E-03-6.49836E-15
 -1      2261 3.94249E-03-1.21954E-03-7.14389E-15
 -1      2262 3.68750E-03-1.21594E-03-6.20913E-15
 -1      2263 4.11042E-03-1.17715E-03-7.82253E-15
 -1      2264 4.28329E-03-1.12090E-03-8.53462E-15
 -1      2265 4.02790E-03-1.16674E-03-7.49845E-15
 -1      2266 4.45959E-03-1.05549E-03-9.27840E-15
 -1      2267 4.63814E-03-9.88127E-04-1.00519E-14
 -1      2268 4.38499E-03-1.04220E-03-8.92332E-15
 -1      2269 4.81852E-03-9.22691E-04-1.08525E-14
 -1      2270 4.99741E-03-8.63117E-04-1.16824E-14
 -1      2271 4.75372E-03-8.99900E-04-1.04704E-14
 -1      2272 5.17554E-03-8.11510E-04-1.25395E-14
 -1      2273 5.35037E-03-7.68345E-04-1.34199E-14
 -1      2274 5.11910E-03-7.80333E-04-1.21296E-14
 -1      2275 5.52310E-03-7.34267E-04-1.43245E-14
 -1      2276 5.69230E-03-7.08359E-04-1.52514E-14
 -1      2277 5.47070E-03-6.97835E-04-1.38914E-14
 -1      2278 5.85910E-03-6.90377E-04-1.62018E-14
 -1      2279 6.02293E-03-6.79096E-04-1.71733E-14
 -1      2280 5.80645E-03-6.50758E-04-1.57446E-14
 -1      2281 6.18461E-03-6.73866E-04-1.81689E-14
 -1      2282 6.34401E-03-6.73643E-04-1.91889E-14
 -1      2283 6.12878E-03-6.32109E-04-1.76878E-14
 -1      2284 6.50161E-03-6.77677E-04-2.02336E-14
 -1      2285 6.65752E-03-6.85191E-04-2.13014E-14
 -1      2286 6.44122E-03-6.34338E-04-1.97250E-14
 -1      2287 6.81197E-03-6.95507E-04-2.23945E-14
 -1      2288 6.96514E-03-7.08078E-04-2.35134E-14
 -1      2289 6.74676E-03-6.50997E-04-2.18610E-14
 -1      2290 7.11712E-03-7.22367E-04-2.46565E-14
 -1      2291 7.26812E-03-7.38000E-04-2.58257E-14
 -1      2292 7.04749E-03-6.77054E-04-2.40956E-14
 -1      2293 7.41812E-03-7.54588E-04-2.70211E-14
 -1      2294 7.56736E-03-7.71879E-04-2.82399E-14
 -1      2295 7.34477E-03-7.08798E-04-2.64318E-14
 -1      2296 7.71579E-03-7.89611E-04-2.94838E-14
 -1      2297 7.86360E-03-8.07617E-04-3.07520E-14
 -1      2298 7.63946E-03-7.43610E-04-2.88672E-14
 -1      2299 8.01075E-03-8.25734E-04-3.20453E-14
 -1      2300 8.15740E-03-8.43854E-04-3.33630E-14
 -1      2301 7.93215E-03-7.79722E-04-3.14011E-14
 -1      2302 8.30351E-03-8.61885E-04-3.47028E-14
 -1      2303 8.44923E-03-8.79758E-04-3.60648E-14
 -1      2304 8.22325E-03-8.15994E-04-3.40321E-14
 -1      2305 8.59453E-03-8.97431E-04-3.74489E-14
 -1      2306 8.73951E-03-9.14864E-04-3.88531E-14
 -1      2307 8.51307E-03-8.51742E-04-3.67524E-14
 -1      2308 8.88415E-03-9.32044E-04-4.02769E-14
 -1      2309 9.02855E-03-9.48949E-04-4.17214E-14
 -1      2310 8.80188E-03-8.86593E-04-3.95570E-14
 -1      2311 9.17269E-03-9.65588E-04-4.31859E-14
 -1      2312 9.31664E-03-9.81952E-04-4.46716E-14
 -1      2313 9.08988E-03-9.20387E-04-4.24425E-14
 -1      2314 9.46040E-03-9.98058E-04-4.61753E-14
 -1      2315 9.60401E-03-1.01390E-03-4.76974E-14
 -1      2316 9.37725E-03-9.53094E-04-4.54073E-14
 -1      2317 9.74747E-03-1.02952E-03-4.92393E-14
 -1      2318 9.89083E-03-1.04490E-03-5.07957E-14
 -1      2319 9.66413E-03-9.84770E-04-4.84481E-14
 -1      2320 1.00341E-02-1.06007E-03-5.23694E-14
 -1      2321 1.01773E-02-1.07504E-03-5.39600E-14
 -1      2322 9.95064E-03-1.01551E-03-5.15606E-14
 -1      2323 1.03204E-02-1.08984E-03-5.55633E-14
 -1      2324 1.04634E-02-1.10446E-03-5.71787E-14
 -1      2325 1.02369E-02-1.04544E-03-5.47337E-14
 -1      2326 1.06064E-02-1.11894E-03-5.88072E-14
 -1      2327 1.07493E-02-1.13328E-03-6.04491E-14
 -1      2328 1.05229E-02-1.07468E-03-5.79631E-14
 -1      2329 1.08923E-02-1.14750E-03-6.21028E-14
 -1      2330 1.10351E-02-1.16161E-03-6.37689E-14
 -1      2331 1.08088E-02-1.10335E-03-6.12432E-14
 -1      2332 1.11780E-02-1.17562E-03-6.54487E-14
 -1      2333 1.13209E-02-1.18955E-03-6.71406E-14
 -1      2334 1.10946E-02-1.13156E-03-6.45741E-14
 -1      2335 1.14637E-02-1.20339E-03-6.88421E-14
 -1      2336 1.16065E-02-1.21717E-03-7.05544E-14
 -1      2337 1.13804E-02-1.15940E-03-6.79536E-14
 -1      2338 1.17494E-02-1.23089E-03-7.22739E-14
 -1      2339 1.18922E-02-1.24456E-03-7.40054E-14
 -1      2340 1.16661E-02-1.18695E-03-7.13753E-14
 -1      2341 1.20350E-02-1.25818E-03-7.57449E-14
 -1      2342 1.21778E-02-1.27176E-03-7.74922E-14
 -1      2343 1.19517E-02-1.21428E-03-7.48344E-14
 -1      2344 1.23206E-02-1.28531E-03-7.92495E-14
 -1      2345 1.24634E-02-1.29883E-03-8.10185E-14
 -1      2346 1.22374E-02-1.24144E-03-7.83290E-14
 -1      2347 1.26062E-02-1.31233E-03-8.27959E-14
 -1      2348 1.27491E-02-1.32581E-03-8.45836E-14
 -1      2349 1.25231E-02-1.26848E-03-8.18617E-14
 -1      2350 1.28919E-02-1.33927E-03-8.63807E-14
 -1      2351 1.30347E-02-1.35271E-03-8.81861E-14
 -1      2352 1.28087E-02-1.29543E-03-8.54314E-14
 -1      2353 1.31775E-02-1.36614E-03-8.99989E-14
 -1      2354 1.33203E-02-1.37957E-03-9.18158E-14
 -1      2355 1.30944E-02-1.32232E-03-8.90392E-14
 -1      2356 1.34632E-02-1.39299E-03-9.36368E-14
 -1      2357 1.36060E-02-1.40640E-03-9.54599E-14
 -1      2358 1.33801E-02-1.34917E-03-9.26677E-14
 -1      2359 1.37488E-02-1.41981E-03-9.72861E-14
 -1      2360 1.38917E-02-1.43321E-03-9.91086E-14
 -1      2361 1.36658E-02-1.37599E-03-9.63092E-14
 -1      2362 1.40345E-02-1.44662E-03-1.00932E-13
 -1      2363 1.41774E-02-1.46002E-03-1.02756E-13
 -1      2364 1.39514E-02-1.40280E-03-9.99540E-14
 -1      2365 1.43202E-02-1.47343E-03-1.04580E-13
 -1      2366 1.44631E-02-1.48684E-03-1.06407E-13
 -1      2367 1.42371E-02-1.42961E-03-1.03596E-13
 -1      2368 2.13159E-03 6.63506E-04-1.76013E-15
 -1      2369 1.96769E-03 6.10330E-04-1.47651E-15
 -1      2370 2.45725E-03 7.73685E-04-2.41152E-15
 -1      2371 2.29517E-03 7.18363E-04-2.07187E-15
 -1      2372 2.18567E-03 6.44735E-04-1.97166E-15
 -1      2373 2.77645E-03 8.78790E-04-3.17540E-15
 -1      2374 2.61792E-03 8.27923E-04-2.77916E-15
 -1      2375 2.51700E-03 7.57317E-04-2.65537E-15
 -1      2376 3.08654E-03 9.60420E-04-4.05696E-15
 -1      2377 2.93256E-03 9.23896E-04-3.60144E-15
 -1      2378 2.84221E-03 8.62914E-04-3.45302E-15
 -1      2379 3.38830E-03 9.98538E-04-5.05883E-15
 -1      2380 3.23784E-03 9.86064E-04-4.54224E-15
 -1      2381 3.15763E-03 9.40354E-04-4.36851E-15
 -1      2382 3.68761E-03 9.80860E-04-6.18245E-15
 -1      2383 3.53739E-03 9.96829E-04-5.60543E-15
 -1      2384 3.46481E-03 9.67445E-04-5.40571E-15
 -1      2385 3.99173E-03 9.10563E-04-7.42757E-15
 -1      2386 3.83840E-03 9.51436E-04-6.78953E-15
 -1      2387 3.77124E-03 9.33968E-04-6.56573E-15
 -1      2388 4.30500E-03 8.04462E-04-8.79428E-15
 -1      2389 4.14707E-03 8.60589E-04-8.09566E-15
 -1      2390 4.08474E-03 8.48089E-04-7.84813E-15
 -1      2391 4.62680E-03 6.84550E-04-1.02782E-14
 -1      2392 4.46511E-03 7.44928E-04-9.52110E-15
 -1      2393 4.40802E-03 7.31663E-04-9.25114E-15
 -1      2394 4.95333E-03 5.69172E-04-1.18792E-14
 -1      2395 4.78993E-03 6.25452E-04-1.10647E-14
 -1      2396 4.73801E-03 6.08560E-04-1.07713E-14
 -1      2397 5.28029E-03 4.69086E-04-1.35924E-14
 -1      2398 5.11715E-03 5.16875E-04-1.27218E-14
 -1      2399 5.06918E-03 4.95791E-04-1.24057E-14
 -1      2400 5.60465E-03 3.87975E-04-1.54150E-14
 -1      2401 5.44306E-03 4.26141E-04-1.44899E-14
 -1      2402 5.39709E-03 4.01379E-04-1.41496E-14
 -1      2403 5.92478E-03 3.25004E-04-1.73441E-14
 -1      2404 5.76539E-03 3.54374E-04-1.63670E-14
 -1      2405 5.71951E-03 3.26712E-04-1.60025E-14
 -1      2406 6.24009E-03 2.77113E-04-1.93774E-14
 -1      2407 6.08310E-03 2.99385E-04-1.83471E-14
 -1      2408 6.03591E-03 2.69581E-04-1.79591E-14
 -1      2409 6.55058E-03 2.40609E-04-2.15126E-14
 -1      2410 6.39594E-03 2.57646E-04-2.04335E-14
 -1      2411 6.34668E-03 2.26352E-04-2.00193E-14
 -1      2412 6.85661E-03 2.12038E-04-2.37494E-14
 -1      2413 6.70413E-03 2.25511E-04-2.26179E-14
 -1      2414 6.65257E-03 1.93261E-04-2.21809E-14
 -1      2415 7.15867E-03 1.88553E-04-2.60851E-14
 -1      2416 7.00810E-03 1.99801E-04-2.49045E-14
 -1      2417 6.95434E-03 1.67019E-04-2.44436E-14
 -1      2418 7.45729E-03 1.67985E-04-2.85227E-14
 -1      2419 7.30836E-03 1.78009E-04-2.72910E-14
 -1      2420 7.25272E-03 1.45013E-04-2.68067E-14
 -1      2421 7.75301E-03 1.48788E-04-3.10571E-14
 -1      2422 7.60547E-03 1.58289E-04-2.97773E-14
 -1      2423 7.54831E-03 1.25305E-04-2.92686E-14
 -1      2424 8.04633E-03 1.29918E-04-3.36812E-14
 -1      2425 7.89993E-03 1.39361E-04-3.23573E-14
 -1      2426 7.84162E-03 1.06536E-04-3.18251E-14
 -1      2427 8.33772E-03 1.10725E-04-3.63996E-14
 -1      2428 8.19223E-03 1.20393E-04-3.50308E-14
 -1      2429 8.13309E-03 8.78128E-05-3.44753E-14
 -1      2430 8.62758E-03 9.08335E-05-3.91979E-14
 -1      2431 8.48281E-03 1.00884E-04-3.77884E-14
 -1      2432 8.42311E-03 6.85877E-05-3.72137E-14
 -1      2433 8.91623E-03 7.00679E-05-4.20783E-14
 -1      2434 8.77203E-03 8.05689E-05-4.06284E-14
 -1      2435 8.71196E-03 4.85637E-05-4.00338E-14
 -1      2436 9.20398E-03 4.83798E-05-4.50394E-14
 -1      2437 9.06020E-03 5.93419E-05-4.35489E-14
 -1      2438 8.99993E-03 2.76146E-05-4.29336E-14
 -1      2439 9.49104E-03 2.58014E-05-4.80794E-14
 -1      2440 9.34758E-03 3.72008E-05-4.65493E-14
 -1      2441 9.28720E-03 5.72564E-06-4.59166E-14
 -1      2442 9.77760E-03 2.41126E-06-5.11936E-14
 -1      2443 9.63437E-03 1.42045E-05-4.96276E-14
 -1      2444 9.57397E-03-1.70500E-05-4.89746E-14
 -1      2445 1.00638E-02-2.16903E-05-5.43762E-14
 -1      2446 9.92074E-03-9.55504E-06-5.27768E-14
 -1      2447 9.86036E-03-4.06222E-05-5.21056E-14
 -1      2448 1.03498E-02-4.63963E-05-5.76214E-14
 -1      2449 1.02068E-02-3.39726E-05-5.59922E-14
 -1      2450 1.01465E-02-6.48844E-05-5.53033E-14
 -1      2451 1.06356E-02-7.16027E-05-6.09222E-14
 -1      2452 1.04927E-02-5.89417E-05-5.92640E-14
 -1      2453 1.04324E-02-8.97276E-05-5.85621E-14
 -1      2454 1.09213E-02-9.72146E-05-6.42751E-14
 -1      2455 1.07784E-02-8.43624E-05-6.25926E-14
 -1      2456 1.07182E-02-1.15048E-04-6.18733E-14
 -1      2457 1.12069E-02-1.23148E-04-6.76773E-14
 -1      2458 1.10641E-02-1.10145E-04-6.59698E-14
 -1      2459 1.10039E-02-1.40753E-04-6.52373E-14
 -1      2460 1.14925E-02-1.49333E-04-7.11272E-14
 -1      2461 1.13497E-02-1.36213E-04-6.93973E-14
 -1      2462 1.12896E-02-1.66761E-04-6.86504E-14
 -1      2463 1.17781E-02-1.75709E-04-7.46158E-14
 -1      2464 1.16353E-02-1.62500E-04-7.28663E-14
 -1      2465 1.15752E-02-1.93003E-04-7.21068E-14
 -1      2466 1.20637E-02-2.02228E-04-7.81444E-14
 -1      2467 1.19209E-02-1.88953E-04-7.63754E-14
 -1      2468 1.18609E-02-2.19423E-04-7.56000E-14
 -1      2469 1.23493E-02-2.28852E-04-8.17059E-14
 -1      2470 1.22065E-02-2.15528E-04-7.99204E-14
 -1      2471 1.21465E-02-2.45976E-04-7.91338E-14
 -1      2472 1.26349E-02-2.55550E-04-8.52980E-14
 -1      2473 1.24921E-02-2.42193E-04-8.34997E-14
 -1      2474 1.24321E-02-2.72624E-04-8.26980E-14
 -1      2475 1.29205E-02-2.82299E-04-8.89057E-14
 -1      2476 1.27777E-02-2.68919E-04-8.71000E-14
 -1      2477 1.27178E-02-2.99339E-04-8.62894E-14
 -1      2478 1.32061E-02-3.09080E-04-9.25232E-14
 -1      2479 1.30633E-02-2.95686E-04-9.07131E-14
 -1      2480 1.30034E-02-3.26100E-04-8.98951E-14
 -1      2481 1.34918E-02-3.35879E-04-9.61448E-14
 -1      2482 1.33490E-02-3.22478E-04-9.43350E-14
 -1      2483 1.32891E-02-3.52889E-04-9.35108E-14
 -1      2484 1.37775E-02-3.62686E-04-9.97649E-14
 -1      2485 1.36346E-02-3.49282E-04-9.79538E-14
 -1      2486 1.35748E-02-3.79693E-04-9.71280E-14
 -1      2487 1.40632E-02-3.89491E-04-1.03391E-13
 -1      2488 1.39203E-02-3.76089E-04-1.01578E-13
 -1      2489 1.38605E-02-4.06502E-04-1.00748E-13
 -1      2490 1.43489E-02-4.16286E-04-1.07017E-13
 -1      2491 1.42060E-02-4.02890E-04-1.05204E-13
 -1      2492 1.41462E-02-4.33306E-04-1.04370E-13
 -1      2493 1.44962E-02-4.29111E-04-1.08888E-13
 -1      2494 1.45208E-02-7.54447E-04-1.08529E-13
 -1      2495 1.45077E-02-7.12284E-04-1.08445E-13
 -1      2496 1.45471E-02-8.38779E-04-1.08705E-13
 -1      2497 1.45340E-02-7.96612E-04-1.08618E-13
 -1      2498 1.44037E-02-7.63924E-04-1.07014E-13
 -1      2499 1.44687E-02-5.87236E-04-1.08204E-13
 -1      2500 1.44556E-02-5.45082E-04-1.08122E-13
 -1      2501 1.44947E-02-6.70480E-04-1.08363E-13
 -1      2502 1.44818E-02-6.29035E-04-1.08282E-13
 -1      2503 1.43515E-02-5.96354E-04-1.06677E-13
 -1      2504 1.43775E-02-6.79956E-04-1.06841E-13
 -1      2505 1.45735E-02-9.23116E-04-1.08885E-13
 -1      2506 1.45603E-02-8.80947E-04-1.08794E-13
 -1      2507 1.44300E-02-8.48257E-04-1.07191E-13
 -1      2508 1.45998E-02-1.00746E-03-1.09070E-13
 -1      2509 1.45866E-02-9.65286E-04-1.08977E-13
 -1      2510 1.44563E-02-9.32593E-04-1.07372E-13
 -1      2511 1.46262E-02-1.09179E-03-1.09260E-13
 -1      2512 1.46130E-02-1.04962E-03-1.09163E-13
 -1      2513 1.44827E-02-1.01693E-03-1.07556E-13
 -1      2514 1.46522E-02-1.17470E-03-1.09443E-13
 -1      2515 1.46392E-02-1.13325E-03-1.09352E-13
 -1      2516 1.45089E-02-1.10055E-03-1.07739E-13
 -1      2517 1.46786E-02-1.25903E-03-1.09631E-13
 -1      2518 1.46654E-02-1.21686E-03-1.09538E-13
 -1      2519 1.45351E-02-1.18417E-03-1.07922E-13
 -1      2520 1.47050E-02-1.34335E-03-1.09816E-13
 -1      2521 1.46918E-02-1.30119E-03-1.09724E-13
 -1      2522 1.45615E-02-1.26850E-03-1.08106E-13
 -1      2523 1.47315E-02-1.42766E-03-1.09997E-13
 -1      2524 1.47183E-02-1.38550E-03-1.09905E-13
 -1      2525 1.45879E-02-1.35281E-03-1.08286E-13
 -1      2526 5.78028E-03-1.74903E-04-1.08022E-14
 -1      2527 5.83948E-03-1.87925E-04-1.09808E-14
 -1      2528 5.21264E-03 1.45513E-05-9.89567E-15
 -1      2529 5.38474E-03-5.48234E-05-1.02409E-14
 -1      2530 5.13351E-03 4.95364E-05-1.00726E-14
 -1      2531 1.80303E-03 5.59331E-04-1.22042E-15
 -1      2532 1.63861E-03 5.10765E-04-9.90473E-16
 -1      2533 1.85294E-03 5.38432E-04-1.39858E-15
 -1      2534 1.48325E-02-1.50920E-03-1.11148E-13
 -1      2535 5.84636E-03-2.03506E-04-1.10694E-14
 -1      2536 5.79412E-03-2.14418E-04-1.09165E-14
 -1      2537 5.57461E-03-1.21159E-04-1.05751E-14
 -1      2538 5.69245E-03-1.52099E-04-1.07142E-14
 -1      2539 5.44841E-03-3.23800E-04-1.04407E-14
 -1      2540 5.25490E-03-4.01936E-04-1.01142E-14
 -1      2541 6.49425E-04-1.75218E-04-2.37725E-16
 -1      2542 8.69955E-04-2.41700E-04-3.81748E-16
 -1      2543 9.15208E-04-2.26206E-04-4.70381E-16
 -1      2544 6.21409E-04-1.42581E-04-2.54029E-16
 -1      2545 3.51535E-03-1.14542E-03-5.80457E-15
 -1      2546 3.36916E-03-1.10324E-03-5.41705E-15
 -1      2547 1.32476E-03-8.27020E-05-2.81885E-15
 -1      2548 1.40285E-03-6.78136E-05-2.86707E-15
 -1      2549 4.43538E-04-1.85412E-05-3.00636E-16
 -1      2550 4.48101E-04-2.01808E-05-3.00609E-16
 -1      2551 5.42032E-04-2.86016E-05-4.07294E-16
 -1      2552 5.30492E-04-2.24532E-05-4.07023E-16
 -1      2553 2.65284E-03 4.88731E-04-3.96047E-15
 -1      2554 2.85939E-03 6.10663E-04-4.29217E-15
 -1      2555 3.38960E-03 8.20593E-04-5.51938E-15
 -1      2556 3.50597E-03 8.29680E-04-5.84455E-15
 -1      2557 1.67768E-03-2.06148E-04-3.04042E-15
 -1      2558 1.53353E-03-1.61099E-04-2.94313E-15
 -1      2559 3.09328E-03 7.27824E-04-4.77133E-15
 -1      2560 3.24745E-03 7.89081E-04-5.14809E-15
 -1      2561 2.22614E-03 2.51512E-04-3.49082E-15
 -1      2562 2.40528E-03 3.49081E-04-3.66098E-15
 -1      2563 1.88974E-03 9.35426E-05-3.13554E-15
 -1      2564 2.05598E-03 1.67783E-04-3.31037E-15
 -1      2565 2.11913E-03 2.04786E-04-3.21292E-15
 -1      2566 1.52280E-03-3.58288E-05-2.90010E-15
 -1      2567 1.67920E-03 1.22296E-05-2.98423E-15
 -1      2568 1.27560E-03-9.57895E-05-2.74246E-15
 -1      2569 1.27817E-03-9.34924E-05-2.73845E-15
 -1      2570 1.39661E-03-1.23106E-04-2.84843E-15
 -1      2571 1.31377E-03-1.07386E-04-2.79363E-15
 -1      2572 1.27738E-03-9.52841E-05-2.58531E-15
 -1      2573 2.03319E-03-3.56903E-04-3.35356E-15
 -1      2574 1.86836E-03-2.82401E-04-3.20169E-15
 -1      2575 2.39485E-03-5.48713E-04-3.72143E-15
 -1      2576 2.21150E-03-4.47282E-04-3.53321E-15
 -1      2577 2.11461E-03-3.92472E-04-3.29627E-15
 -1      2578 3.21464E-03-1.03801E-03-5.05531E-15
 -1      2579 3.08115E-03-9.63828E-04-4.76580E-15
 -1      2580 5.02278E-03-5.11735E-04-9.58870E-15
 -1      2581 4.84186E-03-6.08001E-04-9.21390E-15
 -1      2582 4.20572E-03-9.74664E-04-7.79357E-15
 -1      2583 4.06404E-03-1.04997E-03-7.40136E-15
 -1      2584 4.63240E-03-7.26038E-04-8.85433E-15
 -1      2585 4.42191E-03-8.53752E-04-8.37737E-15
 -1      2586 5.72649E-03-2.33698E-04-1.08017E-14
 -1      2587 5.63208E-03-2.59375E-04-1.06899E-14
 -1      2588 5.78653E-03-2.24063E-04-1.13531E-14
 -1      2589 4.03506E-03 6.61948E-04-7.32999E-15
 -1      2590 4.18386E-03 5.75996E-04-7.72811E-15
 -1      2591 8.50901E-04 2.97692E-04-2.37684E-16
 -1      2592 6.85023E-04 2.47794E-04-1.52236E-16
 -1      2593 6.49633E-04 2.17019E-04-1.60774E-16
 -1      2594 9.03904E-04 2.81593E-04-3.20260E-16
 -1      2595 2.84272E-03 6.21464E-04-4.09357E-15
 -1      2596 2.96746E-03 6.74992E-04-4.42498E-15
 -1      2597 3.05366E-03 7.28592E-04-4.55748E-15
 -1      2598 6.21559E-04-6.76801E-05-3.92657E-16
 -1      2599 5.25167E-04-5.82949E-05-2.85809E-16
 -1      2600 5.47572E-04-7.54604E-05-2.78667E-16
 -1      2601 1.52206E-03 4.42566E-04-9.32793E-16
 -1      2602 6.25859E-04 1.80413E-04-1.84341E-16
 -1      2603 4.29550E-03 5.09864E-04-8.09957E-15
 -1      2604 4.40690E-03 4.45166E-04-8.47998E-15
 -1      2605 4.21185E-03 5.65818E-04-7.98897E-15
 -1      2606 4.73538E-03-6.76761E-04-9.28847E-15
 -1      2607 3.62045E-03-1.16277E-03-6.08896E-15
 -1      2608 3.54464E-03-1.15851E-03-5.83940E-15
 -1      2609 3.71421E-03-1.16515E-03-6.38045E-15
 -1      2610 7.49030E-04 1.99420E-04-2.74954E-16
 -1      2611 4.63238E-03 3.12884E-04-9.05863E-15
 -1      2612 4.73663E-03 2.48823E-04-9.15155E-15
 -1      2613 4.84926E-03 1.93791E-04-9.63228E-15
 -1      2614 4.34607E-03-9.09505E-04-8.31797E-15
 -1      2615 5.16177E-03-4.52023E-04-1.01863E-14
 -1      2616 1.44364E-02-4.59532E-04-1.08053E-13
 -1      2617 1.44309E-02-4.91155E-04-1.07916E-13
 -1      2618 2.52725E-03-6.22318E-04-3.80815E-15
 -1      2619 2.41030E-03-5.54765E-04-3.55434E-15
 -1      2620 2.64373E-03-6.95904E-04-3.89485E-15
 -1      2621 5.86846E-03-1.96873E-04-1.16886E-14
 -1      2622 5.86594E-03-1.98705E-04-1.13774E-14
 -1      2623 5.87529E-03-2.06807E-04-1.17804E-14
 -1      2624 5.75477E-03-1.69528E-04-1.11972E-14
 -1      2625 5.49528E-03-9.43820E-05-1.07608E-14
 -1      2626 1.44222E-03-1.30359E-04-2.72408E-15
 -1      2627 1.75792E-03-2.32487E-04-2.96771E-15
 -1      2628 1.75703E-03 4.66758E-05-2.89618E-15
 -1      2629 1.28510E-03-8.73902E-05-2.61414E-15
 -1      2630 1.44778E-03-5.34215E-05-2.72357E-15
 -1      2631 2.97213E-03-9.00055E-04-4.49678E-15
 -1      2632 2.86384E-03-8.32914E-04-4.23645E-15
 -1      2633 3.05001E-03-9.50835E-04-4.57039E-15
 -1      2634 5.94944E-04-1.14667E-04-2.67039E-16
 -1      2635 5.55964E-03-2.92025E-04-1.09809E-14
 -1      2636 3.59777E-03 8.26914E-04-6.10818E-15
 -1      2637 3.68183E-03 8.12626E-04-6.37717E-15
 -1      2638 3.53291E-03 8.36230E-04-5.90687E-15
 -1      2639 3.31181E-03 8.11231E-04-5.27329E-15
 -1      2640 3.30194E-03-1.07952E-03-5.19558E-15
 -1      2641 3.92846E-03 7.17185E-04-7.09296E-15
 -1      2642 2.51690E-03 4.20574E-04-3.67217E-15
 -1      2643 3.97316E-03-1.09475E-03-7.17661E-15
 -1      2644 1.46884E-02-1.51043E-03-1.09280E-13
 -1      2645 1.47177E-02-1.46158E-03-1.09754E-13
 -1      2646 1.45874E-02-1.42889E-03-1.08130E-13
 -1      2647 1.45599E-02-1.49674E-03-1.07643E-13
 -1      2648 1.43137E-02-5.00629E-04-1.06390E-13
 -1      2649 1.44768E-02-1.45292E-03-1.06651E-13
 -1      2650 6.78179E-04 8.65461E-06-5.10171E-16
 -1      2651 6.56322E-04-4.29536E-06-5.17219E-16
 -1      2652 6.37841E-04-1.39551E-05-5.22911E-16
 -1      2653 6.24856E-04-2.07754E-05-5.27302E-16
 -1      2654 7.39676E-04-9.94380E-06-6.59737E-16
 -1      2655 7.85665E-04 9.90798E-05-4.63212E-16
 -1      2656 7.57853E-04 7.09797E-05-4.78011E-16
 -1      2657 8.41322E-04 1.64962E-04-4.26132E-16
 -1      2658 8.13595E-04 1.30582E-04-4.46352E-16
 -1      2659 9.24329E-04 1.36378E-04-5.82582E-16
 -1      2660 1.24339E-03 3.33418E-04-6.87344E-16
 -1      2661 1.08179E-03 2.92344E-04-5.26204E-16
 -1      2662 5.84395E-03-2.25998E-04-1.20316E-14
 -1      2663 5.78555E-03-2.38886E-04-1.19124E-14
 -1      2664 4.87754E-03-6.10247E-04-9.83337E-15
 -1      2665 4.70025E-03-7.19504E-04-9.45667E-15
 -1      2666 1.42562E-03-3.33252E-04-1.12659E-15
 -1      2667 1.59028E-03-3.79589E-04-1.37038E-15
 -1      2668 1.75947E-03-4.30973E-04-1.63976E-15
 -1      2669 1.93302E-03-4.89853E-04-1.93519E-15
 -1      2670 1.61590E-03-3.53667E-04-1.52417E-15
 -1      2671 2.11259E-03-5.56582E-04-2.25786E-15
 -1      2672 2.29621E-03-6.32912E-04-2.60742E-15
 -1      2673 1.95928E-03-4.62740E-04-2.11562E-15
 -1      2674 2.48605E-03-7.17617E-04-2.98559E-15
 -1      2675 2.67691E-03-8.11077E-04-3.39362E-15
 -1      2676 2.33026E-03-6.10026E-04-2.81307E-15
 -1      2677 2.88599E-03-8.97755E-04-3.95125E-15
 -1      2678 3.08007E-03-9.97958E-04-4.42752E-15
 -1      2679 3.57523E-03-1.18590E-03-5.87258E-15
 -1      2680 3.75146E-03-1.19002E-03-6.47854E-15
 -1      2681 4.30761E-03-1.03061E-03-8.56697E-15
 -1      2682 4.49757E-03-9.52581E-04-9.31300E-15
 -1      2683 4.69004E-03-8.74863E-04-1.00890E-14
 -1      2684 4.87929E-03-8.05241E-04-1.08914E-14
 -1      2685 4.62902E-03-8.51993E-04-9.70490E-15
 -1      2686 5.06637E-03-7.45992E-04-1.17217E-14
 -1      2687 5.24705E-03-6.96891E-04-1.25787E-14
 -1      2688 5.01737E-03-7.09356E-04-1.13148E-14
 -1      2689 5.42328E-03-6.58898E-04-1.34587E-14
 -1      2690 5.59337E-03-6.29904E-04-1.43623E-14
 -1      2691 5.38072E-03-6.17179E-04-1.30277E-14
 -1      2692 5.75907E-03-6.09940E-04-1.52877E-14
 -1      2693 5.92022E-03-5.96842E-04-1.62362E-14
 -1      2694 5.71690E-03-5.67356E-04-1.48337E-14
 -1      2695 6.07804E-03-5.90289E-04-1.72077E-14
 -1      2696 6.23289E-03-5.88726E-04-1.82008E-14
 -1      2697 6.03231E-03-5.47963E-04-1.67283E-14
 -1      2698 6.38551E-03-5.91671E-04-1.92195E-14
 -1      2699 6.53632E-03-5.98105E-04-2.02622E-14
 -1      2700 6.33436E-03-5.49422E-04-1.87157E-14
 -1      2701 6.68571E-03-6.07514E-04-2.13281E-14
 -1      2702 6.83403E-03-6.19254E-04-2.24203E-14
 -1      2703 6.62868E-03-5.64954E-04-2.07983E-14
 -1      2704 6.98144E-03-6.32855E-04-2.35367E-14
 -1      2705 7.12823E-03-6.47915E-04-2.46773E-14
 -1      2706 6.91888E-03-5.89766E-04-2.29792E-14
 -1      2707 7.27442E-03-6.64054E-04-2.58451E-14
 -1      2708 7.42023E-03-6.81015E-04-2.70376E-14
 -1      2709 7.20702E-03-6.20407E-04-2.52615E-14
 -1      2710 7.56560E-03-6.98514E-04-2.82548E-14
 -1      2711 7.71073E-03-7.16391E-04-2.94950E-14
 -1      2712 7.49419E-03-6.54401E-04-2.76427E-14
 -1      2713 7.85554E-03-7.34450E-04-3.07615E-14
 -1      2714 8.00017E-03-7.52590E-04-3.20509E-14
 -1      2715 7.78092E-03-6.90007E-04-3.01230E-14
 -1      2716 8.14455E-03-7.70686E-04-3.33639E-14
 -1      2717 8.28879E-03-7.88680E-04-3.46995E-14
 -1      2718 8.06743E-03-7.26049E-04-3.26992E-14
 -1      2719 8.43283E-03-8.06498E-04-3.60571E-14
 -1      2720 8.57676E-03-8.24107E-04-3.74370E-14
 -1      2721 8.35383E-03-7.61779E-04-3.53656E-14
 -1      2722 8.72053E-03-8.41474E-04-3.88392E-14
 -1      2723 8.86421E-03-8.58583E-04-4.02603E-14
 -1      2724 8.64013E-03-7.96756E-04-3.81212E-14
 -1      2725 9.00775E-03-8.75425E-04-4.17011E-14
 -1      2726 9.15123E-03-8.91995E-04-4.31616E-14
 -1      2727 8.92635E-03-8.30762E-04-4.09622E-14
 -1      2728 9.29460E-03-9.08300E-04-4.46430E-14
 -1      2729 9.43791E-03-9.24343E-04-4.61424E-14
 -1      2730 9.21249E-03-8.63725E-04-4.38808E-14
 -1      2731 9.58114E-03-9.40140E-04-4.76619E-14
 -1      2732 9.72433E-03-9.55697E-04-4.91991E-14
 -1      2733 9.49855E-03-8.95666E-04-4.68777E-14
 -1      2734 9.86745E-03-9.71034E-04-5.07517E-14
 -1      2735 1.00105E-02-9.86161E-04-5.23211E-14
 -1      2736 9.78454E-03-9.26664E-04-4.99463E-14
 -1      2737 1.01536E-02-1.00110E-03-5.39068E-14
 -1      2738 1.02966E-02-1.01586E-03-5.55057E-14
 -1      2739 1.00705E-02-9.56826E-04-5.30812E-14
 -1      2740 1.04396E-02-1.03045E-03-5.71193E-14
 -1      2741 1.05825E-02-1.04490E-03-5.87451E-14
 -1      2742 1.03563E-02-9.86270E-04-5.62767E-14
 -1      2743 1.07255E-02-1.05922E-03-6.03838E-14
 -1      2744 1.08684E-02-1.07341E-03-6.20353E-14
 -1      2745 1.06422E-02-1.01511E-03-5.95263E-14
 -1      2746 1.10113E-02-1.08750E-03-6.37006E-14
 -1      2747 1.11542E-02-1.10150E-03-6.53785E-14
 -1      2748 1.09280E-02-1.04346E-03-6.28278E-14
 -1      2749 1.12970E-02-1.11541E-03-6.70666E-14
 -1      2750 1.14399E-02-1.12924E-03-6.87671E-14
 -1      2751 1.12137E-02-1.07142E-03-6.61814E-14
 -1      2752 1.15828E-02-1.14300E-03-7.04781E-14
 -1      2753 1.17256E-02-1.15671E-03-7.21971E-14
 -1      2754 1.14995E-02-1.09906E-03-6.95802E-14
 -1      2755 1.18685E-02-1.17037E-03-7.39248E-14
 -1      2756 1.20113E-02-1.18398E-03-7.56620E-14
 -1      2757 1.17852E-02-1.12646E-03-7.30184E-14
 -1      2758 1.21542E-02-1.19756E-03-7.74091E-14
 -1      2759 1.22970E-02-1.21111E-03-7.91658E-14
 -1      2760 1.20710E-02-1.15368E-03-7.64906E-14
 -1      2761 1.24399E-02-1.22462E-03-8.09307E-14
 -1      2762 1.25827E-02-1.23811E-03-8.27037E-14
 -1      2763 1.23567E-02-1.18076E-03-8.00010E-14
 -1      2764 1.27256E-02-1.25159E-03-8.44885E-14
 -1      2765 1.28684E-02-1.26504E-03-8.62798E-14
 -1      2766 1.26424E-02-1.20774E-03-8.35451E-14
 -1      2767 1.30113E-02-1.27849E-03-8.80819E-14
 -1      2768 1.31541E-02-1.29192E-03-8.98898E-14
 -1      2769 1.29281E-02-1.23465E-03-8.71279E-14
 -1      2770 1.32970E-02-1.30534E-03-9.17009E-14
 -1      2771 1.34398E-02-1.31876E-03-9.35160E-14
 -1      2772 1.32138E-02-1.26151E-03-9.07376E-14
 -1      2773 1.35827E-02-1.33217E-03-9.53353E-14
 -1      2774 1.37255E-02-1.34558E-03-9.71548E-14
 -1      2775 1.34996E-02-1.28835E-03-9.43637E-14
 -1      2776 1.38684E-02-1.35898E-03-9.89746E-14
 -1      2777 1.40112E-02-1.37239E-03-1.00793E-13
 -1      2778 1.37853E-02-1.31516E-03-9.79966E-14
 -1      2779 1.41541E-02-1.38579E-03-1.02611E-13
 -1      2780 1.42969E-02-1.39919E-03-1.04430E-13
 -1      2781 1.40710E-02-1.34197E-03-1.01630E-13
 -1      2782 2.58054E-03 7.40365E-04-2.90282E-15
 -1      2783 2.41199E-03 6.82302E-04-2.53137E-15
 -1      2784 1.41956E-02-5.41157E-04-1.04789E-13
 -1      2785 1.41709E-02-4.87229E-04-1.04579E-13
 -1      2786 1.40280E-02-4.73827E-04-1.02771E-13
 -1      2787 2.24233E-03 6.24328E-04-2.18745E-15
 -1      2788 2.07310E-03 5.68546E-04-1.87113E-15
 -1      2789 2.30108E-03 6.03376E-04-2.40678E-15
 -1      2790 3.23288E-03 9.21448E-04-4.68283E-15
 -1      2791 3.07380E-03 8.90928E-04-4.19281E-15
 -1      2792 3.54469E-03 9.35853E-04-5.75588E-15
 -1      2793 3.38868E-03 9.37097E-04-5.20382E-15
 -1      2794 3.31011E-03 9.03333E-04-5.00000E-15
 -1      2795 3.85814E-03 8.83792E-04-6.95326E-15
 -1      2796 3.70008E-03 9.17504E-04-6.33945E-15
 -1      2797 3.62711E-03 9.01180E-04-6.10940E-15
 -1      2798 4.18153E-03 7.80596E-04-8.27405E-15
 -1      2799 4.01816E-03 8.36666E-04-7.59852E-15
 -1      2800 3.94959E-03 8.27334E-04-7.34542E-15
 -1      2801 4.51514E-03 6.54204E-04-9.71291E-15
 -1      2802 4.34743E-03 7.18341E-04-8.97836E-15
 -1      2803 4.28464E-03 7.06500E-04-8.70282E-15
 -1      2804 4.85283E-03 5.29676E-04-1.12680E-14
 -1      2805 4.68423E-03 5.90439E-04-1.04758E-14
 -1      2806 4.62884E-03 5.72218E-04-1.01786E-14
 -1      2807 5.18742E-03 4.21563E-04-1.29352E-14
 -1      2808 5.02106E-03 4.73177E-04-1.20883E-14
 -1      2809 4.97266E-03 4.49324E-04-1.17688E-14
 -1      2810 5.51500E-03 3.34294E-04-1.47101E-14
 -1      2811 5.35239E-03 3.75364E-04-1.38093E-14
 -1      2812 5.30872E-03 3.47969E-04-1.34677E-14
 -1      2813 5.83452E-03 2.66870E-04-1.65911E-14
 -1      2814 5.67587E-03 2.98338E-04-1.56371E-14
 -1      2815 5.63425E-03 2.68988E-04-1.52724E-14
 -1      2816 6.14663E-03 2.15861E-04-1.85747E-14
 -1      2817 5.99148E-03 2.39595E-04-1.75704E-14
 -1      2818 5.94964E-03 2.09182E-04-1.71815E-14
 -1      2819 6.45266E-03 1.77257E-04-2.06631E-14
 -1      2820 6.30034E-03 1.95262E-04-1.96067E-14
 -1      2821 6.25679E-03 1.64209E-04-1.91940E-14
 -1      2822 6.75394E-03 1.47386E-04-2.28503E-14
 -1      2823 6.60382E-03 1.61436E-04-2.17437E-14
 -1      2824 6.55781E-03 1.29951E-04-2.13075E-14
 -1      2825 7.05159E-03 1.23224E-04-2.51405E-14
 -1      2826 6.90316E-03 1.34748E-04-2.39830E-14
 -1      2827 6.85448E-03 1.02968E-04-2.35227E-14
 -1      2828 7.34644E-03 1.02447E-04-2.75291E-14
 -1      2829 7.19931E-03 1.12526E-04-2.63216E-14
 -1      2830 7.14811E-03 8.05695E-05-2.58383E-14
 -1      2831 7.63914E-03 8.33724E-05-3.00164E-14
 -1      2832 7.49301E-03 9.27759E-05-2.87610E-14
 -1      2833 7.43960E-03 6.07505E-05-2.82536E-14
 -1      2834 7.93016E-03 6.48425E-05-3.25951E-14
 -1      2835 7.78482E-03 7.40916E-05-3.12948E-14
 -1      2836 7.72957E-03 4.20874E-05-3.07641E-14
 -1      2837 8.21988E-03 4.61102E-05-3.52692E-14
 -1      2838 8.07515E-03 5.55341E-05-3.39205E-14
 -1      2839 8.01845E-03 2.36199E-05-3.33685E-14
 -1      2840 8.50856E-03 2.67329E-05-3.80288E-14
 -1      2841 8.36432E-03 3.65206E-05-3.66385E-14
 -1      2842 8.30651E-03 4.74231E-06-3.60626E-14
 -1      2843 8.79646E-03 6.48395E-06-4.08685E-14
 -1      2844 8.65259E-03 1.67260E-05-3.94377E-14
 -1      2845 8.59396E-03-1.48909E-05-3.88440E-14
 -1      2846 9.08374E-03-1.47170E-05-4.37921E-14
 -1      2847 8.94016E-03-3.99535E-06-4.23211E-14
 -1      2848 8.88095E-03-3.54421E-05-4.17058E-14
 -1      2849 9.37055E-03-3.68560E-05-4.67924E-14
 -1      2850 9.22719E-03-2.56711E-05-4.52819E-14
 -1      2851 9.16758E-03-5.69513E-05-4.46491E-14
 -1      2852 9.65702E-03-5.98635E-05-4.98696E-14
 -1      2853 9.51382E-03-4.82553E-05-4.83224E-14
 -1      2854 9.45396E-03-7.93806E-05-4.76710E-14
 -1      2855 9.94322E-03-8.36410E-05-5.30164E-14
 -1      2856 9.80015E-03-7.16613E-05-5.14350E-14
 -1      2857 9.74013E-03-1.02648E-04-5.07657E-14
 -1      2858 1.02292E-02-1.08079E-04-5.62299E-14
 -1      2859 1.00863E-02-9.57830E-05-5.46147E-14
 -1      2860 1.00262E-02-1.26649E-04-5.39290E-14
 -1      2861 1.05151E-02-1.33068E-04-5.94986E-14
 -1      2862 1.03722E-02-1.20510E-04-5.78571E-14
 -1      2863 1.03121E-02-1.51275E-04-5.71544E-14
 -1      2864 1.08009E-02-1.58508E-04-6.28246E-14
 -1      2865 1.06580E-02-1.45737E-04-6.11553E-14
 -1      2866 1.05979E-02-1.76418E-04-6.04372E-14
 -1      2867 1.10867E-02-1.84308E-04-6.61993E-14
 -1      2868 1.09438E-02-1.71367E-04-6.45060E-14
 -1      2869 1.08837E-02-2.01980E-04-6.37747E-14
 -1      2870 1.13724E-02-2.10390E-04-6.96198E-14
 -1      2871 1.12295E-02-1.97317E-04-6.79044E-14
 -1      2872 1.11694E-02-2.27876E-04-6.71604E-14
 -1      2873 1.16580E-02-2.36689E-04-7.30836E-14
 -1      2874 1.15152E-02-2.23515E-04-7.13473E-14
 -1      2875 1.14552E-02-2.54032E-04-7.05894E-14
 -1      2876 1.19437E-02-2.63152E-04-7.65830E-14
 -1      2877 1.18009E-02-2.49902E-04-7.48265E-14
 -1      2878 1.17409E-02-2.80387E-04-7.40584E-14
 -1      2879 1.22294E-02-2.89735E-04-8.01202E-14
 -1      2880 1.20865E-02-2.76430E-04-7.83497E-14
 -1      2881 1.20266E-02-3.06891E-04-7.75659E-14
 -1      2882 1.25150E-02-3.16406E-04-8.36896E-14
 -1      2883 1.23722E-02-3.03061E-04-8.19022E-14
 -1      2884 1.23123E-02-3.33505E-04-8.11083E-14
 -1      2885 1.28007E-02-3.43137E-04-8.72785E-14
 -1      2886 1.26579E-02-3.29765E-04-8.54821E-14
 -1      2887 1.25979E-02-3.60196E-04-8.46767E-14
 -1      2888 1.30864E-02-3.69908E-04-9.08833E-14
 -1      2889 1.29435E-02-3.56519E-04-8.90806E-14
 -1      2890 1.28836E-02-3.86941E-04-8.82666E-14
 -1      2891 1.33721E-02-3.96704E-04-9.44968E-14
 -1      2892 1.32292E-02-3.83304E-04-9.26880E-14
 -1      2893 1.31693E-02-4.13721E-04-9.18705E-14
 -1      2894 1.36578E-02-4.23511E-04-9.81112E-14
 -1      2895 1.35149E-02-4.10106E-04-9.63041E-14
 -1      2896 1.34550E-02-4.40522E-04-9.54792E-14
 -1      2897 1.39143E-02-4.55372E-04-1.01344E-13
 -1      2898 1.37715E-02-4.41967E-04-9.95344E-14
 -1      2899 1.37116E-02-4.72383E-04-9.87071E-14
 -1      2900 1.39390E-02-5.09297E-04-1.01557E-13
 -1      2901 1.43392E-02-9.42069E-04-1.05855E-13
 -1      2902 1.43260E-02-8.99901E-04-1.05765E-13
 -1      2903 1.43937E-02-1.40909E-03-1.05667E-13
 -1      2904 1.44906E-02-1.41899E-03-1.06899E-13
 -1      2905 1.43107E-02-1.36527E-03-1.04681E-13
 -1      2906 1.42865E-02-7.73400E-04-1.05496E-13
 -1      2907 1.42734E-02-7.31236E-04-1.05405E-13
 -1      2908 1.43656E-02-1.02641E-03-1.06040E-13
 -1      2909 1.43524E-02-9.84238E-04-1.05950E-13
 -1      2910 1.42220E-02-9.51545E-04-1.04344E-13
 -1      2911 1.43129E-02-8.57733E-04-1.05673E-13
 -1      2912 1.42997E-02-8.15566E-04-1.05584E-13
 -1      2913 1.41694E-02-7.82875E-04-1.03977E-13
 -1      2914 1.41957E-02-8.67209E-04-1.04160E-13
 -1      2915 5.07744E-03 8.78192E-05-1.03766E-14
 -1      2916 5.23635E-03 1.54651E-05-1.07327E-14
 -1      2917 1.43915E-02-1.10931E-03-1.06218E-13
 -1      2918 1.43785E-02-1.06786E-03-1.06130E-13
 -1      2919 1.42482E-02-1.03517E-03-1.04523E-13
 -1      2920 1.44179E-02-1.19364E-03-1.06399E-13
 -1      2921 1.44047E-02-1.15148E-03-1.06308E-13
 -1      2922 1.42744E-02-1.11879E-03-1.04699E-13
 -1      2923 1.44444E-02-1.27796E-03-1.06577E-13
 -1      2924 1.44312E-02-1.23580E-03-1.06487E-13
 -1      2925 1.43008E-02-1.20311E-03-1.04875E-13
 -1      2926 1.90420E-03 5.15669E-04-1.58185E-15
 -1      2927 1.73690E-03 4.66019E-04-1.31977E-15
 -1      2928 1.95649E-03 4.91380E-04-1.77003E-15
 -1      2929 1.48703E-03-1.39473E-04-2.58543E-15
 -1      2930 1.36596E-03-1.10972E-04-2.49966E-15
 -1      2931 5.74220E-03-1.64951E-04-1.16283E-14
 -1      2932 5.81783E-03-1.81929E-04-1.17239E-14
 -1      2933 5.42053E-03-6.15982E-05-1.10794E-14
 -1      2934 5.59196E-03-1.19139E-04-1.14302E-14
 -1      2935 5.36892E-03-2.05904E-05-1.13936E-14
 -1      2936 8.33367E-04-1.79417E-04-4.47586E-16
 -1      2937 9.79775E-04-2.19260E-04-5.81349E-16
 -1      2938 1.24619E-03-8.18684E-05-2.36788E-15
 -1      2939 1.29710E-03-7.83754E-05-2.44329E-15
 -1      2940 1.63196E-03 1.39873E-05-2.61351E-15
 -1      2941 1.81432E-03 8.32069E-05-2.74983E-15
 -1      2942 2.91247E-03 8.47687E-04-3.73336E-15
 -1      2943 2.74780E-03 7.96643E-04-3.30350E-15
 -1      2944 2.64699E-03 7.24155E-04-3.15386E-15
 -1      2945 2.98506E-03 8.34544E-04-4.01603E-15
 -1      2946 1.12079E-03-2.54368E-04-7.34764E-16
 -1      2947 1.27915E-03-2.93834E-04-9.30869E-16
 -1      2948 1.30888E-03-2.71763E-04-1.05895E-15
 -1      2949 1.03081E-03-2.04635E-04-7.01885E-16
 -1      2950 4.44899E-03-8.67872E-04-8.77061E-15
 -1      2951 4.25606E-03-9.77936E-04-8.17005E-15
 -1      2952 1.57077E-03 4.19508E-04-1.08378E-15
 -1      2953 1.40638E-03 3.75517E-04-8.73081E-16
 -1      2954 1.29197E-03 3.11146E-04-8.12013E-16
 -1      2955 1.61947E-03 3.94875E-04-1.23973E-15
 -1      2956 5.65845E-03-2.75976E-04-1.16497E-14
 -1      2957 5.49838E-03-3.31896E-04-1.13879E-14
 -1      2958 5.74847E-03-2.71589E-04-1.23313E-14
 -1      2959 7.30110E-04 4.63938E-05-4.90493E-16
 -1      2960 7.03349E-04 2.55862E-05-5.01335E-16
 -1      2961 7.94264E-04 2.22484E-05-6.42444E-16
 -1      2962 8.58643E-04 7.15592E-05-6.17196E-16
 -1      2963 3.26531E-03 8.09872E-04-5.08346E-15
 -1      2964 3.38832E-03 8.35335E-04-5.45226E-15
 -1      2965 1.82843E-03-2.61113E-04-2.83598E-15
 -1      2966 1.65766E-03-1.95588E-04-2.68854E-15
 -1      2967 6.59447E-04-4.75115E-05-5.28508E-16
 -1      2968 6.84731E-04-5.93588E-05-5.24144E-16
 -1      2969 3.36932E-03-1.11373E-03-5.32091E-15
 -1      2970 3.23426E-03-1.05304E-03-4.96329E-15
 -1      2971 2.02853E-03 1.77350E-04-2.95910E-15
 -1      2972 2.17850E-03 2.50619E-04-3.12561E-15
 -1      2973 1.37210E-03-6.17165E-05-2.46972E-15
 -1      2974 1.47300E-03-3.60315E-05-2.49646E-15
 -1      2975 1.30289E-03-6.17065E-05-2.22760E-15
 -1      2976 1.27766E-03-9.26775E-05-2.39414E-15
 -1      2977 1.23800E-03-8.83100E-05-2.34714E-15
 -1      2978 8.72016E-04 2.26837E-04-3.68764E-16
 -1      2979 6.62013E-04-1.13685E-04-3.45833E-16
 -1      2980 2.18418E-03-4.30996E-04-3.21908E-15
 -1      2981 2.02454E-03-3.49776E-04-3.05143E-15
 -1      2982 3.83427E-03 7.64510E-04-6.86221E-15
 -1      2983 3.99580E-03 6.88522E-04-7.38008E-15
 -1      2984 4.04275E-03-1.08063E-03-7.47648E-15
 -1      2985 3.88099E-03-1.13897E-03-6.92887E-15
 -1      2986 1.45043E-02-1.38507E-03-1.07144E-13
 -1      2987 5.26559E-03-4.22038E-04-1.07751E-14
 -1      2988 5.05255E-03-5.17339E-04-1.02342E-14
 -1      2989 2.40358E-03 3.71770E-04-3.39312E-15
 -1      2990 2.61602E-03 4.98641E-04-3.67429E-15
 -1      2991 2.29076E-03 3.36242E-04-3.12574E-15
 -1      2992 7.14287E-04-7.51488E-05-5.18289E-16
 -1      2993 7.46542E-04-9.52608E-05-5.10402E-16
 -1      2994 8.02398E-04-8.11252E-05-6.61987E-16
 -1      2995 7.07186E-04-2.73100E-05-6.70159E-16
 -1      2996 6.17938E-04-2.54175E-05-5.30243E-16
 -1      2997 6.18052E-04-2.93233E-05-5.32018E-16
 -1      2998 4.98043E-03 1.46083E-04-1.02738E-14
 -1      2999 4.10166E-03 6.36156E-04-7.74062E-15
 -1      3000 4.20862E-03 5.81201E-04-8.10902E-15
 -1      3001 4.00894E-03 6.96066E-04-7.49327E-15
 -1      3002 2.72055E-03 5.71392E-04-3.79051E-15
 -1      3003 2.80965E-03 6.37554E-04-3.90665E-15
 -1      3004 2.59840E-03 5.25338E-04-3.50017E-15
 -1      3005 3.79860E-03-1.16445E-03-6.65719E-15
 -1      3006 4.53019E-03 3.79032E-04-8.93969E-15
 -1      3007 4.65247E-03 3.21984E-04-9.40980E-15
 -1      3008 4.44502E-03 4.42709E-04-8.81927E-15
 -1      3009 3.47102E-03 8.44353E-04-5.70118E-15
 -1      3010 4.15571E-03-1.04622E-03-7.89923E-15
 -1      3011 2.73096E-03-7.86419E-04-3.73532E-15
 -1      3012 3.90153E-03-1.16957E-03-7.03003E-15
 -1      3013 3.23793E-03-1.08704E-03-4.80968E-15
 -1      3014 3.41838E-03-1.15167E-03-5.34884E-15
 -1      3015 4.08220E-03-1.11788E-03-7.70206E-15
 -1      3016 1.41432E-02-6.98904E-04-1.03802E-13
 -1      3017 1.42604E-02-6.89431E-04-1.05321E-13
 -1      3018 1.42473E-02-6.47628E-04-1.05236E-13
 -1      3019 1.29498E-03-9.74398E-05-2.26310E-15
 -1      3020 1.87240E-03 1.29172E-04-2.66866E-15
 -1      3021 5.00668E-03-5.67776E-04-1.04085E-14
 -1      3022 1.42086E-02-5.82954E-04-1.04870E-13
 -1      3023 2.74012E-03-7.62114E-04-3.96172E-15
 -1      3024 5.87548E-03-1.93305E-04-1.21282E-14
 -1      3025 5.53588E-03-3.61825E-04-1.21085E-14
 -1      3026 5.40618E-03-3.83722E-04-1.14345E-14
 -1      3027 5.32046E-03-4.42519E-04-1.14790E-14
 -1      3028 1.44911E-02-1.34291E-03-1.07056E-13
 -1      3029 9.24366E-04 2.10528E-04-4.57086E-16
 -1      3030 1.04270E-03 2.20682E-04-5.98900E-16
 -1      3031 1.51925E-03-3.72738E-06-2.36114E-15
 -1      3032 1.20939E-03-8.04971E-05-2.18387E-15
 -1      3033 1.54371E-03-1.63540E-04-2.46194E-15
 -1      3034 1.89247E-03-2.99666E-04-2.76232E-15
 -1      3035 2.40817E-03-5.67613E-04-3.36923E-15
 -1      3036 2.30060E-03-4.97399E-04-3.29381E-15
 -1      3037 2.19278E-03-4.52486E-04-3.04388E-15
 -1      3038 7.67218E-04-1.25489E-04-4.65977E-16
 -1      3039 3.12990E-03-1.00257E-03-4.68408E-15
 -1      3040 5.89250E-03-2.20774E-04-1.23468E-14
 -1      3041 6.25315E-04-3.33975E-05-5.32126E-16
 -1      3042 6.39258E-04-3.92133E-05-5.30974E-16
 -1      3043 7.41142E-04-5.24571E-05-6.71623E-16
 -1      3044 7.07137E-04-3.76789E-05-6.74062E-16
 -1      3045 3.46889E-03-1.14804E-03-5.58692E-15
 -1      3046 3.14360E-03 7.80310E-04-4.71915E-15
 -1      3047 3.21813E-03 8.19504E-04-4.87884E-15
 -1      3048 3.02261E-03 7.43051E-04-4.36851E-15
 -1      3049 3.76066E-03 7.95188E-04-6.64440E-15
 -1      3050 1.43357E-02-1.33775E-03-1.05061E-13
 -1      3051 1.44193E-02-1.30549E-03-1.06201E-13
 -1      3052 1.42890E-02-1.27280E-03-1.04586E-13
 -1      3053 1.42389E-02-1.32785E-03-1.03828E-13
 -1      3054 1.07015E-03 1.79278E-04-7.15723E-16
 -1      3055 1.03331E-03 1.39245E-04-7.38667E-16
 -1      3056 5.83948E-03-2.65694E-04-1.29408E-14
 -1      3057 5.72472E-03-3.00412E-04-1.26678E-14
 -1      3058 4.59645E-03-8.00569E-04-9.29645E-15
 -1      3059 2.14027E-03 2.89450E-04-2.79689E-15
 -1      3060 2.33754E-03 3.97730E-04-3.04414E-15
 -1      3061 1.80173E-03-3.73251E-04-1.97607E-15
 -1      3062 1.97673E-03-4.31553E-04-2.29703E-15
 -1      3063 2.22503E-03-5.22397E-04-2.77698E-15
 -1      3064 2.42106E-03-6.10433E-04-3.16057E-15
 -1      3065 4.97719E-03-6.70310E-04-1.09060E-14
 -1      3066 5.16585E-03-6.13965E-04-1.17389E-14
 -1      3067 5.68240E-03-5.22999E-04-1.43802E-14
 -1      3068 5.83988E-03-5.10726E-04-1.53046E-14
 -1      3069 5.99258E-03-5.05236E-04-1.62520E-14
 -1      3070 6.14166E-03-5.04299E-04-1.72214E-14
 -1      3071 5.95910E-03-4.61590E-04-1.57772E-14
 -1      3072 6.28794E-03-5.07718E-04-1.82142E-14
 -1      3073 6.43242E-03-5.14195E-04-1.92311E-14
 -1      3074 6.24631E-03-4.66274E-04-1.77146E-14
 -1      3075 6.57547E-03-5.23461E-04-2.02711E-14
 -1      3076 6.71777E-03-5.34821E-04-2.13355E-14
 -1      3077 6.52600E-03-4.82899E-04-1.97453E-14
 -1      3078 6.85946E-03-5.47945E-04-2.24262E-14
 -1      3079 7.00095E-03-5.62456E-04-2.35405E-14
 -1      3080 6.80305E-03-5.07361E-04-2.18740E-14
 -1      3081 7.14224E-03-5.78034E-04-2.46802E-14
 -1      3082 7.28359E-03-5.94457E-04-2.58456E-14
 -1      3083 7.07992E-03-5.36955E-04-2.41023E-14
 -1      3084 7.42495E-03-6.11455E-04-2.70355E-14
 -1      3085 7.56647E-03-6.28896E-04-2.82497E-14
 -1      3086 7.35774E-03-5.69724E-04-2.64303E-14
 -1      3087 7.70808E-03-6.46572E-04-2.94880E-14
 -1      3088 7.84987E-03-6.64406E-04-3.07508E-14
 -1      3089 7.63692E-03-6.04209E-04-2.88561E-14
 -1      3090 7.99176E-03-6.82248E-04-3.20372E-14
 -1      3091 8.13383E-03-7.00056E-04-3.33450E-14
 -1      3092 7.91747E-03-6.39352E-04-3.13769E-14
 -1      3093 8.27598E-03-7.17732E-04-3.46781E-14
 -1      3094 8.41828E-03-7.35255E-04-3.60320E-14
 -1      3095 8.19925E-03-6.74426E-04-3.39922E-14
 -1      3096 8.56064E-03-7.52566E-04-3.74065E-14
 -1      3097 8.70312E-03-7.69659E-04-3.88054E-14
 -1      3098 8.48204E-03-7.08967E-04-3.66969E-14
 -1      3099 8.84565E-03-7.86505E-04-4.02251E-14
 -1      3100 8.98826E-03-8.03107E-04-4.16625E-14
 -1      3101 8.76564E-03-7.42710E-04-3.94879E-14
 -1      3102 9.13091E-03-8.19454E-04-4.31193E-14
 -1      3103 9.27362E-03-8.35556E-04-4.45970E-14
 -1      3104 9.04987E-03-7.75538E-04-4.23613E-14
 -1      3105 9.41635E-03-8.51417E-04-4.60937E-14
 -1      3106 9.55912E-03-8.67046E-04-4.76100E-14
 -1      3107 9.33456E-03-8.07434E-04-4.53129E-14
 -1      3108 9.70191E-03-8.82456E-04-4.91425E-14
 -1      3109 9.84473E-03-8.97658E-04-5.06913E-14
 -1      3110 9.61959E-03-8.38445E-04-4.83398E-14
 -1      3111 9.98756E-03-9.12669E-04-5.22578E-14
 -1      3112 1.01304E-02-9.27499E-04-5.38391E-14
 -1      3113 9.90487E-03-8.68654E-04-5.14373E-14
 -1      3114 1.02733E-02-9.42166E-04-5.54361E-14
 -1      3115 1.04161E-02-9.56681E-04-5.70465E-14
 -1      3116 1.01903E-02-8.98162E-04-5.45966E-14
 -1      3117 1.05590E-02-9.71059E-04-5.86714E-14
 -1      3118 1.07019E-02-9.85313E-04-6.03081E-14
 -1      3119 1.04759E-02-9.27075E-04-5.78174E-14
 -1      3120 1.08447E-02-9.99456E-04-6.19568E-14
 -1      3121 1.09876E-02-1.01350E-03-6.36212E-14
 -1      3122 1.07616E-02-9.55494E-04-6.10892E-14
 -1      3123 1.11305E-02-1.02745E-03-6.52967E-14
 -1      3124 1.12734E-02-1.04132E-03-6.69832E-14
 -1      3125 1.10473E-02-9.83512E-04-6.44127E-14
 -1      3126 1.14162E-02-1.05513E-03-6.86825E-14
 -1      3127 1.15591E-02-1.06887E-03-7.03919E-14
 -1      3128 1.13330E-02-1.01121E-03-6.77854E-14
 -1      3129 1.17020E-02-1.08256E-03-7.21110E-14
 -1      3130 1.18449E-02-1.09620E-03-7.38368E-14
 -1      3131 1.16188E-02-1.03866E-03-7.12032E-14
 -1      3132 1.19878E-02-1.10980E-03-7.55742E-14
 -1      3133 1.21306E-02-1.12336E-03-7.73196E-14
 -1      3134 1.19045E-02-1.06592E-03-7.46576E-14
 -1      3135 1.22735E-02-1.13690E-03-7.90734E-14
 -1      3136 1.24164E-02-1.15040E-03-8.08360E-14
 -1      3137 1.21903E-02-1.09303E-03-7.81475E-14
 -1      3138 1.25592E-02-1.16389E-03-8.26087E-14
 -1      3139 1.27021E-02-1.17736E-03-8.43883E-14
 -1      3140 1.24761E-02-1.12004E-03-8.16732E-14
 -1      3141 1.28450E-02-1.19081E-03-8.61766E-14
 -1      3142 1.29878E-02-1.20425E-03-8.79738E-14
 -1      3143 1.27618E-02-1.14697E-03-8.52299E-14
 -1      3144 1.31307E-02-1.21768E-03-8.97755E-14
 -1      3145 1.32736E-02-1.23110E-03-9.15815E-14
 -1      3146 1.30476E-02-1.17384E-03-8.88172E-14
 -1      3147 1.34164E-02-1.24452E-03-9.33934E-14
 -1      3148 1.35593E-02-1.25793E-03-9.52074E-14
 -1      3149 1.33333E-02-1.20069E-03-9.24254E-14
 -1      3150 1.37022E-02-1.27133E-03-9.70210E-14
 -1      3151 1.38450E-02-1.28474E-03-9.88353E-14
 -1      3152 1.36191E-02-1.22751E-03-9.60475E-14
 -1      3153 1.39705E-02-1.29959E-03-1.00421E-13
 -1      3154 1.41134E-02-1.31300E-03-1.02236E-13
 -1      3155 1.41384E-02-1.28547E-03-1.02619E-13
 -1      3156 1.38874E-02-1.25577E-03-9.94441E-14
 -1      3157 2.36110E-03 5.80637E-04-2.62851E-15
 -1      3158 2.18409E-03 5.20177E-04-2.28161E-15
 -1      3159 1.22683E-03-6.20960E-05-2.01005E-15
 -1      3160 1.28907E-03-4.84012E-05-2.03225E-15
 -1      3161 3.71422E-03 8.64027E-04-6.46759E-15
 -1      3162 3.55146E-03 8.86330E-04-5.87826E-15
 -1      3163 3.29484E-03 8.68873E-04-5.01811E-15
 -1      3164 3.12790E-03 8.35114E-04-4.51138E-15
 -1      3165 4.39503E-03 6.24923E-04-9.13622E-15
 -1      3166 4.21948E-03 6.96121E-04-8.42356E-15
 -1      3167 4.74993E-03 4.85321E-04-1.06488E-14
 -1      3168 4.57333E-03 5.52836E-04-9.87838E-15
 -1      3169 4.51813E-03 5.34483E-04-9.57517E-15
 -1      3170 5.09786E-03 3.67520E-04-1.22729E-14
 -1      3171 4.92560E-03 4.23296E-04-1.14470E-14
 -1      3172 4.88015E-03 3.95804E-04-1.11233E-14
 -1      3173 5.43304E-03 2.75270E-04-1.40032E-14
 -1      3174 5.26745E-03 3.18407E-04-1.31248E-14
 -1      3175 5.22865E-03 2.86627E-04-1.27803E-14
 -1      3176 5.75453E-03 2.05719E-04-1.58373E-14
 -1      3177 5.59554E-03 2.38085E-04-1.49075E-14
 -1      3178 5.55979E-03 2.05356E-04-1.45418E-14
 -1      3179 6.06449E-03 1.53836E-04-1.77753E-14
 -1      3180 5.91082E-03 1.77982E-04-1.67939E-14
 -1      3181 5.87507E-03 1.45683E-04-1.64056E-14
 -1      3182 6.36602E-03 1.14741E-04-1.98150E-14
 -1      3183 6.21615E-03 1.33005E-04-1.87819E-14
 -1      3184 6.17843E-03 1.01424E-04-1.83718E-14
 -1      3185 6.66181E-03 8.44941E-05-2.19552E-14
 -1      3186 6.51449E-03 9.87425E-05-2.08734E-14
 -1      3187 6.47382E-03 6.76776E-05-2.04382E-14
 -1      3188 6.95390E-03 6.00326E-05-2.41981E-14
 -1      3189 6.80821E-03 7.17048E-05-2.30638E-14
 -1      3190 6.76429E-03 4.08980E-05-2.26065E-14
 -1      3191 7.24366E-03 3.90623E-05-2.65380E-14
 -1      3192 7.09899E-03 4.92264E-05-2.53549E-14
 -1      3193 7.05192E-03 1.84874E-05-2.48735E-14
 -1      3194 7.53199E-03 1.99176E-05-2.89802E-14
 -1      3195 7.38795E-03 2.93403E-05-2.77468E-14
 -1      3196 7.33805E-03-1.43100E-06-2.72413E-14
 -1      3197 7.81944E-03 1.43748E-06-3.15137E-14
 -1      3198 7.67579E-03 1.06460E-05-3.02358E-14
 -1      3199 7.62346E-03-2.01900E-05-2.97070E-14
 -1      3200 8.10634E-03-1.71465E-05-3.41414E-14
 -1      3201 7.96293E-03-7.80963E-06-3.28163E-14
 -1      3202 7.90861E-03-3.87032E-05-3.22654E-14
 -1      3203 8.39289E-03-3.63063E-05-3.68590E-14
 -1      3204 8.24964E-03-2.66366E-05-3.54893E-14
 -1      3205 8.19373E-03-5.75630E-05-3.49169E-14
 -1      3206 8.67921E-03-5.62983E-05-3.96592E-14
 -1      3207 8.53606E-03-4.61902E-05-3.82486E-14
 -1      3208 8.47893E-03-7.71212E-05-3.76550E-14
 -1      3209 8.96537E-03-7.72276E-05-4.25461E-14
 -1      3210 8.82230E-03-6.66440E-05-4.10917E-14
 -1      3211 8.76423E-03-9.75553E-05-4.04796E-14
 -1      3212 9.25141E-03-9.90995E-05-4.55085E-14
 -1      3213 9.10840E-03-8.80480E-05-4.40178E-14
 -1      3214 9.04965E-03-1.18921E-04-4.33841E-14
 -1      3215 9.53738E-03-1.21857E-04-4.85500E-14
 -1      3216 9.39440E-03-1.10372E-04-4.70196E-14
 -1      3217 9.33517E-03-1.41197E-04-4.63706E-14
 -1      3218 9.82328E-03-1.45411E-04-5.16613E-14
 -1      3219 9.68033E-03-1.33540E-04-5.00964E-14
 -1      3220 9.62077E-03-1.64311E-04-4.94288E-14
 -1      3221 1.01091E-02-1.69653E-04-5.48411E-14
 -1      3222 9.96620E-03-1.57452E-04-5.32423E-14
 -1      3223 9.90643E-03-1.88168E-04-5.25572E-14
 -1      3224 1.03949E-02-1.94477E-04-5.80796E-14
 -1      3225 1.02520E-02-1.81998E-04-5.64534E-14
 -1      3226 1.01921E-02-2.12663E-04-5.57531E-14
 -1      3227 1.06807E-02-2.19779E-04-6.13755E-14
 -1      3228 1.05378E-02-2.07074E-04-5.97198E-14
 -1      3229 1.04778E-02-2.37691E-04-5.90056E-14
 -1      3230 1.09665E-02-2.45467E-04-6.47243E-14
 -1      3231 1.08236E-02-2.32580E-04-6.30443E-14
 -1      3232 1.07636E-02-2.63156E-04-6.23133E-14
 -1      3233 1.12522E-02-2.71460E-04-6.81197E-14
 -1      3234 1.11094E-02-2.58430E-04-6.64166E-14
 -1      3235 1.10493E-02-2.88970E-04-6.56743E-14
 -1      3236 1.15380E-02-2.97690E-04-7.15592E-14
 -1      3237 1.13951E-02-2.84549E-04-6.98343E-14
 -1      3238 1.13351E-02-3.15059E-04-6.90794E-14
 -1      3239 1.18237E-02-3.24099E-04-7.50349E-14
 -1      3240 1.16808E-02-3.10874E-04-7.32921E-14
 -1      3241 1.16208E-02-3.41361E-04-7.25262E-14
 -1      3242 1.21094E-02-3.50643E-04-7.85473E-14
 -1      3243 1.19666E-02-3.37356E-04-7.67861E-14
 -1      3244 1.19066E-02-3.67823E-04-7.60091E-14
 -1      3245 1.23952E-02-3.77284E-04-8.20929E-14
 -1      3246 1.22523E-02-3.63953E-04-8.03166E-14
 -1      3247 1.21923E-02-3.94404E-04-7.95269E-14
 -1      3248 1.26809E-02-4.03995E-04-8.56617E-14
 -1      3249 1.25380E-02-3.90632E-04-8.38755E-14
 -1      3250 1.24781E-02-4.21072E-04-8.30753E-14
 -1      3251 1.29666E-02-4.30752E-04-8.92530E-14
 -1      3252 1.28237E-02-4.17369E-04-8.74557E-14
 -1      3253 1.27638E-02-4.47800E-04-8.66476E-14
 -1      3254 1.32523E-02-4.57540E-04-9.28542E-14
 -1      3255 1.31094E-02-4.44143E-04-9.10518E-14
 -1      3256 1.30495E-02-4.74568E-04-9.02370E-14
 -1      3257 1.35380E-02-4.84344E-04-9.64617E-14
 -1      3258 1.33952E-02-4.70940E-04-9.46564E-14
 -1      3259 1.33353E-02-5.01362E-04-9.38382E-14
 -1      3260 8.47575E-04-3.33861E-06-8.12135E-16
 -1      3261 8.19646E-04-1.77883E-05-8.20199E-16
 -1      3262 1.41049E-02-9.61021E-04-1.02829E-13
 -1      3263 1.40917E-02-9.18853E-04-1.02737E-13
 -1      3264 1.41837E-02-1.21259E-03-1.03349E-13
 -1      3265 1.41705E-02-1.17043E-03-1.03264E-13
 -1      3266 1.41308E-02-1.04393E-03-1.03003E-13
 -1      3267 1.41179E-02-1.00248E-03-1.02918E-13
 -1      3268 1.39875E-02-9.69783E-04-1.01312E-13
 -1      3269 2.00820E-03 4.64551E-04-1.96188E-15
 -1      3270 1.83613E-03 4.13740E-04-1.66832E-15
 -1      3271 2.05885E-03 4.35609E-04-2.15744E-15
 -1      3272 1.40425E-03-1.47893E-05-2.09200E-15
 -1      3273 1.54188E-03 2.84937E-05-2.19601E-15
 -1      3274 5.34674E-03 1.54572E-05-1.17515E-14
 -1      3275 5.50466E-03-5.20244E-05-1.21180E-14
 -1      3276 5.68923E-03-1.39690E-04-1.19572E-14
 -1      3277 1.41573E-02-1.12826E-03-1.03179E-13
 -1      3278 1.41441E-02-1.08610E-03-1.03091E-13
 -1      3279 1.40137E-02-1.05340E-03-1.01487E-13
 -1      3280 1.40401E-02-1.13774E-03-1.01657E-13
 -1      3281 1.56593E-03-1.83028E-04-2.27943E-15
 -1      3282 1.42016E-03-1.34498E-04-2.18874E-15
 -1      3283 4.04694E-03 7.63915E-04-7.74086E-15
 -1      3284 3.87789E-03 8.21090E-04-7.08796E-15
 -1      3285 3.80670E-03 8.18944E-04-6.82843E-15
 -1      3286 4.15452E-03 6.89701E-04-8.14096E-15
 -1      3287 5.14941E-03-5.26998E-04-1.10704E-14
 -1      3288 4.99554E-03-6.07316E-04-1.06526E-14
 -1      3289 4.82815E-03 2.41469E-04-1.00584E-14
 -1      3290 5.04722E-03 1.45314E-04-1.08154E-14
 -1      3291 1.30968E-03-1.04941E-04-2.09177E-15
 -1      3292 1.22366E-03-8.90262E-05-1.99640E-15
 -1      3293 1.31812E-03-1.18297E-04-1.92436E-15
 -1      3294 1.47385E-03-2.83211E-04-1.41098E-15
 -1      3295 1.63420E-03-3.25364E-04-1.68116E-15
 -1      3296 1.64439E-03-2.93531E-04-1.84047E-15
 -1      3297 1.95013E-03-3.59264E-04-2.54638E-15
 -1      3298 1.77754E-03-2.82536E-04-2.35410E-15
 -1      3299 5.94073E-03-2.14422E-04-1.27915E-14
 -1      3300 5.93263E-03-2.31452E-04-1.30495E-14
 -1      3301 1.40915E-02-5.92424E-04-1.03349E-13
 -1      3302 1.16702E-03-7.55898E-05-1.95355E-15
 -1      3303 1.17805E-03-7.18993E-05-1.97280E-15
 -1      3304 5.89488E-03-1.88177E-04-1.28584E-14
 -1      3305 5.93467E-03-2.01718E-04-1.28260E-14
 -1      3306 5.99367E-03-2.11703E-04-1.35382E-14
 -1      3307 1.73703E-03 1.02512E-04-2.36916E-15
 -1      3308 1.92640E-03 1.84238E-04-2.55887E-15
 -1      3309 8.68513E-04-1.34991E-04-6.05120E-16
 -1      3310 1.22552E-03 2.68665E-04-7.87144E-16
 -1      3311 1.13429E-03 2.16334E-04-7.43817E-16
 -1      3312 1.24966E-03 2.21501E-04-9.23076E-16
 -1      3313 1.38595E-03 3.06494E-04-9.84862E-16
 -1      3314 3.62620E-03 8.42423E-04-6.20031E-15
 -1      3315 3.76167E-03 8.09419E-04-6.67520E-15
 -1      3316 3.49201E-03 8.58884E-04-5.72627E-15
 -1      3317 5.66653E-03-1.15791E-04-1.24391E-14
 -1      3318 5.79707E-03-1.58892E-04-1.26506E-14
 -1      3319 5.89280E-03-1.72090E-04-1.33572E-14
 -1      3320 7.98842E-04-2.79010E-05-8.26365E-16
 -1      3321 7.87757E-04-3.54278E-05-8.30607E-16
 -1      3322 8.95320E-04-2.67269E-05-9.98238E-16
 -1      3323 2.90293E-03 7.04266E-04-4.04868E-15
 -1      3324 5.77080E-03-3.25992E-04-1.33309E-14
 -1      3325 5.65843E-03-3.39174E-04-1.27144E-14
 -1      3326 5.59236E-03-3.84481E-04-1.27593E-14
 -1      3327 9.18024E-04 3.99028E-05-7.90099E-16
 -1      3328 8.81305E-04 1.58307E-05-8.02404E-16
 -1      3329 9.63488E-04 7.24073E-06-9.80078E-16
 -1      3330 3.94016E-03 7.48120E-04-7.30915E-15
 -1      3331 4.03719E-03 7.08104E-04-7.66412E-15
 -1      3332 1.98255E-03 2.47181E-04-2.48500E-15
 -1      3333 4.33102E-03 5.20821E-04-8.55347E-15
 -1      3334 4.45431E-03 4.63906E-04-9.00973E-15
 -1      3335 4.23131E-03 5.92771E-04-8.29074E-15
 -1      3336 4.82434E-03-7.17350E-04-1.02529E-14
 -1      3337 2.53832E-03-6.63388E-04-3.42219E-15
 -1      3338 1.14846E-03-6.14324E-05-1.78971E-15
 -1      3339 4.27160E-03-1.03154E-03-8.40914E-15
 -1      3340 1.19566E-03-2.16643E-04-9.90554E-16
 -1      3341 1.33276E-03-2.48610E-04-1.19106E-15
 -1      3342 1.35000E-03-2.23653E-04-1.32702E-15
 -1      3343 1.40260E-02-7.08198E-04-1.02287E-13
 -1      3344 1.40130E-02-6.66393E-04-1.02200E-13
 -1      3345 1.59151E-03 7.49031E-05-2.09738E-15
 -1      3346 5.34758E-03-5.72124E-04-1.25968E-14
 -1      3347 5.51854E-03-5.42109E-04-1.34774E-14
 -1      3348 1.40391E-02-7.50362E-04-1.02375E-13
 -1      3349 1.39089E-02-7.17849E-04-1.00774E-13
 -1      3350 1.40523E-02-7.92528E-04-1.02467E-13
 -1      3351 5.32303E-03-5.24665E-04-1.21658E-14
 -1      3352 9.94842E-04-1.60296E-04-7.61408E-16
 -1      3353 1.29985E-03-2.42293E-05-1.88090E-15
 -1      3354 3.40768E-03 8.74764E-04-5.40425E-15
 -1      3355 2.95758E-03 7.84979E-04-4.03613E-15
 -1      3356 1.36517E-02-5.02801E-04-9.78832E-14
 -1      3357 1.35918E-02-5.33222E-04-9.70599E-14
 -1      3358 1.37654E-02-5.21259E-04-9.93040E-14
 -1      3359 1.13996E-03 1.39604E-04-9.13996E-16
 -1      3360 9.95273E-04 1.02266E-04-7.58454E-16
 -1      3361 9.56789E-04 6.91472E-05-7.75720E-16
 -1      3362 1.40786E-02-8.76773E-04-1.02648E-13
 -1      3363 1.40654E-02-8.34606E-04-1.02556E-13
 -1      3364 1.39352E-02-8.02092E-04-1.00953E-13
 -1      3365 1.39614E-02-8.86249E-04-1.01133E-13
 -1      3366 5.64511E-03-8.38996E-05-1.28119E-14
 -1      3367 5.30260E-03-4.85343E-04-1.17339E-14
 -1      3368 4.74141E-03 3.05816E-04-9.92656E-15
 -1      3369 5.08003E-03 1.74170E-04-1.12839E-14
 -1      3370 5.20958E-03 9.10275E-05-1.15182E-14
 -1      3371 5.36269E-03 5.09393E-05-1.22407E-14
 -1      3372 2.76616E-03 6.94349E-04-3.59913E-15
 -1      3373 2.58485E-03 6.26010E-04-3.18502E-15
 -1      3374 1.13014E-03-7.97716E-05-1.64120E-15
 -1      3375 1.14493E-03-7.66062E-05-1.79471E-15
 -1      3376 1.08064E-03-6.76050E-05-1.60334E-15
 -1      3377 1.61899E-03-2.35140E-04-2.08381E-15
 -1      3378 1.69145E-03 3.78975E-04-1.42758E-15
 -1      3379 1.52539E-03 3.36106E-04-1.18289E-15
 -1      3380 1.45485E-03 2.89780E-04-1.14875E-15
 -1      3381 1.73735E-03 3.49570E-04-1.59573E-15
 -1      3382 6.00359E-03-2.41026E-04-1.38549E-14
 -1      3383 5.93163E-03-2.49777E-04-1.33964E-14
 -1      3384 5.92756E-03-2.72443E-04-1.37448E-14
 -1      3385 1.39954E-02-6.20178E-04-1.02062E-13
 -1      3386 1.39566E-02-5.55505E-04-1.01694E-13
 -1      3387 1.38429E-02-5.37047E-04-1.00268E-13
 -1      3388 1.38781E-02-6.29470E-04-1.00545E-13
 -1      3389 5.65598E-03-4.76073E-04-1.39280E-14
 -1      3390 2.45979E-03 5.35949E-04-3.02568E-15
 -1      3391 8.18905E-04-5.59360E-05-8.32206E-16
 -1      3392 8.48564E-04-6.81861E-05-8.29035E-16
 -1      3393 1.41485E-02-1.26279E-03-1.02798E-13
 -1      3394 1.41736E-02-1.23527E-03-1.03174E-13
 -1      3395 1.40433E-02-1.20258E-03-1.01565E-13
 -1      3396 1.40230E-02-1.24794E-03-1.01209E-13
 -1      3397 8.85843E-04-8.50388E-05-8.23790E-16
 -1      3398 9.28203E-04-1.07101E-04-8.16160E-16
 -1      3399 9.63694E-04-8.76585E-05-1.00272E-15
 -1      3400 4.59916E-03-8.48647E-04-9.53512E-15
 -1      3401 1.82223E-03 2.15271E-04-2.15534E-15
 -1      3402 2.01240E-03 3.08320E-04-2.36848E-15
 -1      3403 2.43740E-03 4.69325E-04-3.14405E-15
 -1      3404 2.04332E-03-4.14674E-04-2.60665E-15
 -1      3405 1.02113E-03-1.44036E-04-8.69124E-16
 -1      3406 1.44509E-03 5.54212E-05-1.80987E-15
 -1      3407 1.61775E-03 1.21892E-04-1.96312E-15
 -1      3408 6.20969E-03-4.25775E-04-1.72174E-14
 -1      3409 6.34533E-03-4.33661E-04-1.82087E-14
 -1      3410 6.47996E-03-4.43681E-04-1.92231E-14
 -1      3411 6.61460E-03-4.55283E-04-2.02615E-14
 -1      3412 6.43724E-03-4.05683E-04-1.87021E-14
 -1      3413 6.74917E-03-4.68248E-04-2.13247E-14
 -1      3414 6.88420E-03-4.82352E-04-2.24137E-14
 -1      3415 6.69760E-03-4.30604E-04-2.07777E-14
 -1      3416 7.01960E-03-4.97339E-04-2.35260E-14
 -1      3417 7.15563E-03-5.13086E-04-2.46633E-14
 -1      3418 6.96102E-03-4.59202E-04-2.29525E-14
 -1      3419 7.29218E-03-5.29353E-04-2.58268E-14
 -1      3420 7.42939E-03-5.46076E-04-2.70154E-14
 -1      3421 7.22802E-03-4.90373E-04-2.52262E-14
 -1      3422 7.56713E-03-5.63050E-04-2.82262E-14
 -1      3423 7.70548E-03-5.80240E-04-2.94614E-14
 -1      3424 7.49851E-03-5.23138E-04-2.75987E-14
 -1      3425 7.84432E-03-5.97486E-04-3.07206E-14
 -1      3426 7.98368E-03-6.14770E-04-3.20025E-14
 -1      3427 7.77216E-03-5.56697E-04-3.00668E-14
 -1      3428 8.12346E-03-6.31976E-04-3.33093E-14
 -1      3429 8.26367E-03-6.49100E-04-3.46382E-14
 -1      3430 8.04850E-03-5.90433E-04-3.26292E-14
 -1      3431 8.40421E-03-6.66062E-04-3.59889E-14
 -1      3432 8.54510E-03-6.82868E-04-3.73614E-14
 -1      3433 8.32707E-03-6.23904E-04-3.52830E-14
 -1      3434 8.68625E-03-6.99467E-04-3.87551E-14
 -1      3435 8.82768E-03-7.15871E-04-4.01709E-14
 -1      3436 8.60743E-03-6.56826E-04-3.80257E-14
 -1      3437 8.96931E-03-7.32054E-04-4.16052E-14
 -1      3438 9.11115E-03-7.48028E-04-4.30590E-14
 -1      3439 8.88921E-03-6.89045E-04-4.08510E-14
 -1      3440 9.25314E-03-7.63783E-04-4.45349E-14
 -1      3441 9.39529E-03-7.79335E-04-4.60303E-14
 -1      3442 9.17209E-03-7.20502E-04-4.37591E-14
 -1      3443 9.53756E-03-7.94684E-04-4.75409E-14
 -1      3444 9.67994E-03-8.09845E-04-4.90711E-14
 -1      3445 9.45580E-03-7.51206E-04-4.67444E-14
 -1      3446 9.82240E-03-8.24824E-04-5.06192E-14
 -1      3447 9.96495E-03-8.39636E-04-5.21817E-14
 -1      3448 9.74015E-03-7.81207E-04-4.98021E-14
 -1      3449 1.01076E-02-8.54292E-04-5.37613E-14
 -1      3450 1.02502E-02-8.68805E-04-5.53561E-14
 -1      3451 1.00250E-02-8.10580E-04-5.29281E-14
 -1      3452 1.03929E-02-8.83185E-04-5.69654E-14
 -1      3453 1.05357E-02-8.97446E-04-5.85880E-14
 -1      3454 1.03101E-02-8.39409E-04-5.61155E-14
 -1      3455 1.06785E-02-9.11598E-04-6.02228E-14
 -1      3456 1.08213E-02-9.25651E-04-6.18711E-14
 -1      3457 1.05955E-02-8.67782E-04-5.93585E-14
 -1      3458 1.09641E-02-9.39617E-04-6.35324E-14
 -1      3459 1.11070E-02-9.53504E-04-6.52060E-14
 -1      3460 1.08810E-02-8.95777E-04-6.26545E-14
 -1      3461 1.12498E-02-9.67322E-04-6.68922E-14
 -1      3462 1.13927E-02-9.81078E-04-6.85902E-14
 -1      3463 1.11667E-02-9.23470E-04-6.59992E-14
 -1      3464 1.15356E-02-9.94780E-04-7.02975E-14
 -1      3465 1.16785E-02-1.00843E-03-7.20146E-14
 -1      3466 1.14524E-02-9.50923E-04-6.93941E-14
 -1      3467 1.18213E-02-1.02205E-03-7.37410E-14
 -1      3468 1.19642E-02-1.03562E-03-7.54780E-14
 -1      3469 1.17382E-02-9.78190E-04-7.28269E-14
 -1      3470 1.21071E-02-1.04917E-03-7.72221E-14
 -1      3471 1.22500E-02-1.06269E-03-7.89754E-14
 -1      3472 1.20239E-02-1.00531E-03-7.62967E-14
 -1      3473 1.23929E-02-1.07618E-03-8.07369E-14
 -1      3474 1.25358E-02-1.08966E-03-8.25086E-14
 -1      3475 1.23097E-02-1.03233E-03-7.98031E-14
 -1      3476 1.26787E-02-1.10312E-03-8.42862E-14
 -1      3477 1.28216E-02-1.11657E-03-8.60688E-14
 -1      3478 1.25955E-02-1.05928E-03-8.33419E-14
 -1      3479 1.29644E-02-1.13001E-03-8.78631E-14
 -1      3480 1.31073E-02-1.14343E-03-8.96595E-14
 -1      3481 1.28813E-02-1.08616E-03-8.69085E-14
 -1      3482 1.32502E-02-1.15685E-03-9.14590E-14
 -1      3483 1.33931E-02-1.17027E-03-9.32657E-14
 -1      3484 1.31671E-02-1.11302E-03-9.04989E-14
 -1      3485 1.35360E-02-1.18368E-03-9.50769E-14
 -1      3486 1.36788E-02-1.19708E-03-9.68865E-14
 -1      3487 1.34528E-02-1.13984E-03-9.41056E-14
 -1      3488 4.78827E-03 3.53926E-04-1.04697E-14
 -1      3489 4.59964E-03 4.31323E-04-9.70187E-15
 -1      3490 5.68824E-03 1.38773E-04-1.50833E-14
 -1      3491 5.52896E-03 1.70537E-04-1.41752E-14
 -1      3492 5.99513E-03 8.91725E-05-1.69766E-14
 -1      3493 5.84341E-03 1.12210E-04-1.60174E-14
 -1      3494 5.81620E-03 7.72071E-05-1.56289E-14
 -1      3495 6.29085E-03 5.20657E-05-1.89698E-14
 -1      3496 6.14407E-03 6.94726E-05-1.79607E-14
 -1      3497 6.11326E-03 3.68907E-05-1.75501E-14
 -1      3498 6.57978E-03 2.30434E-05-2.10634E-14
 -1      3499 6.43593E-03 3.67966E-05-2.00037E-14
 -1      3500 6.40086E-03 5.95232E-06-1.95709E-14
 -1      3501 6.86495E-03-8.61511E-07-2.32590E-14
 -1      3502 6.72267E-03 1.06120E-05-2.21489E-14
 -1      3503 6.68332E-03-1.92186E-05-2.16917E-14
 -1      3504 7.14834E-03-2.17098E-05-2.55528E-14
 -1      3505 7.00676E-03-1.15630E-05-2.43932E-14
 -1      3506 6.96346E-03-4.09431E-05-2.39134E-14
 -1      3507 7.43110E-03-4.09565E-05-2.79462E-14
 -1      3508 7.28973E-03-3.14652E-05-2.67373E-14
 -1      3509 7.24295E-03-6.07501E-05-2.62357E-14
 -1      3510 7.71388E-03-5.96164E-05-3.04358E-14
 -1      3511 7.57245E-03-5.03162E-05-2.91791E-14
 -1      3512 7.52270E-03-7.97016E-05-2.86532E-14
 -1      3513 7.99699E-03-7.83744E-05-3.30175E-14
 -1      3514 7.85537E-03-6.89567E-05-3.17149E-14
 -1      3515 7.80317E-03-9.85290E-05-3.11664E-14
 -1      3516 8.28054E-03-9.76643E-05-3.56929E-14
 -1      3517 8.13870E-03-8.79385E-05-3.43440E-14
 -1      3518 8.08451E-03-1.17718E-04-3.37724E-14
 -1      3519 8.56456E-03-1.17732E-04-3.84527E-14
 -1      3520 8.42249E-03-1.07595E-04-3.70630E-14
 -1      3521 8.36672E-03-1.37566E-04-3.64708E-14
 -1      3522 8.84899E-03-1.38686E-04-4.13010E-14
 -1      3523 8.70672E-03-1.28098E-04-3.98663E-14
 -1      3524 8.64974E-03-1.58229E-04-3.92552E-14
 -1      3525 9.13377E-03-1.60544E-04-4.42249E-14
 -1      3526 8.99133E-03-1.49505E-04-4.27521E-14
 -1      3527 8.93343E-03-1.79761E-04-4.21215E-14
 -1      3528 9.41883E-03-1.83260E-04-4.72296E-14
 -1      3529 9.27627E-03-1.71800E-04-4.57189E-14
 -1      3530 9.21768E-03-2.02147E-04-4.50669E-14
 -1      3531 9.70412E-03-2.06754E-04-5.03092E-14
 -1      3532 9.56145E-03-1.94916E-04-4.87606E-14
 -1      3533 9.50237E-03-2.25326E-04-4.80921E-14
 -1      3534 9.98956E-03-2.30930E-04-5.34554E-14
 -1      3535 9.84682E-03-2.18763E-04-5.18730E-14
 -1      3536 9.78740E-03-2.49214E-04-5.11893E-14
 -1      3537 1.02751E-02-2.55686E-04-5.66646E-14
 -1      3538 1.01323E-02-2.43241E-04-5.50524E-14
 -1      3539 1.00727E-02-2.73715E-04-5.43530E-14
 -1      3540 1.05608E-02-2.80922E-04-5.99313E-14
 -1      3541 1.04179E-02-2.68249E-04-5.82925E-14
 -1      3542 1.03581E-02-2.98733E-04-5.75772E-14
 -1      3543 1.08465E-02-3.06550E-04-6.32516E-14
 -1      3544 1.07036E-02-2.93692E-04-6.15842E-14
 -1      3545 1.06437E-02-3.24178E-04-6.08570E-14
 -1      3546 1.11322E-02-3.32491E-04-6.66222E-14
 -1      3547 1.09893E-02-3.19486E-04-6.49317E-14
 -1      3548 1.09294E-02-3.49968E-04-6.41893E-14
 -1      3549 1.14180E-02-3.58675E-04-7.00402E-14
 -1      3550 1.12751E-02-3.45556E-04-6.83259E-14
 -1      3551 1.12151E-02-3.76031E-04-6.75729E-14
 -1      3552 1.17037E-02-3.85046E-04-7.34930E-14
 -1      3553 1.15608E-02-3.71840E-04-7.17614E-14
 -1      3554 1.15009E-02-4.02308E-04-7.09977E-14
 -1      3555 1.19895E-02-4.11559E-04-7.69830E-14
 -1      3556 1.18466E-02-3.98287E-04-7.52352E-14
 -1      3557 1.17866E-02-4.28747E-04-7.44601E-14
 -1      3558 1.22752E-02-4.38176E-04-8.05081E-14
 -1      3559 1.21324E-02-4.24856E-04-7.87412E-14
 -1      3560 1.20724E-02-4.55307E-04-7.79568E-14
 -1      3561 1.25610E-02-4.64868E-04-8.40584E-14
 -1      3562 1.24181E-02-4.51514E-04-8.22801E-14
 -1      3563 1.23582E-02-4.81957E-04-8.14863E-14
 -1      3564 1.28468E-02-4.91611E-04-8.76310E-14
 -1      3565 1.27039E-02-4.78234E-04-8.58408E-14
 -1      3566 1.26440E-02-5.08671E-04-8.50381E-14
 -1      3567 1.31325E-02-5.18390E-04-9.12201E-14
 -1      3568 1.29896E-02-5.04997E-04-8.94241E-14
 -1      3569 1.29297E-02-5.35429E-04-8.86131E-14
 -1      3570 1.34182E-02-5.45188E-04-9.48188E-14
 -1      3571 1.32754E-02-5.31787E-04-9.30189E-14
 -1      3572 1.32155E-02-5.62215E-04-9.22029E-14
 -1      3573 4.22231E-03 6.25631E-04-8.34790E-15
 -1      3574 5.47247E-03-4.53867E-04-1.25933E-14
 -1      3575 1.47482E-03-2.03150E-04-1.78492E-15
 -1      3576 1.38703E-02-9.78901E-04-9.97985E-14
 -1      3577 1.38573E-02-9.37447E-04-9.97098E-14
 -1      3578 2.04714E-03 3.80910E-04-2.26350E-15
 -1      3579 1.86988E-03 3.30310E-04-1.94864E-15
 -1      3580 5.90542E-03-1.56131E-04-1.38905E-14
 -1      3581 5.99184E-03-1.85756E-04-1.41096E-14
 -1      3582 5.60446E-03-4.25533E-04-1.32086E-14
 -1      3583 1.07226E-03-5.68539E-05-1.55831E-15
 -1      3584 1.11306E-03-4.87848E-05-1.59113E-15
 -1      3585 1.32388E-03-1.32625E-04-1.78344E-15
 -1      3586 1.22432E-03-1.04988E-04-1.69808E-15
 -1      3587 4.91354E-03 3.45092E-04-1.11431E-14
 -1      3588 5.02149E-03 2.32369E-04-1.12767E-14
 -1      3589 5.18301E-03 1.79745E-04-1.19896E-14
 -1      3590 5.09172E-03 2.86929E-04-1.19597E-14
 -1      3591 7.87412E-04-4.10587E-05-8.32789E-16
 -1      3592 7.97881E-04-4.76350E-05-8.33264E-16
 -1      3593 8.92562E-04-5.91798E-05-1.00942E-15
 -1      3594 5.75384E-03-4.15567E-04-1.41048E-14
 -1      3595 6.04947E-03-2.11282E-04-1.42721E-14
 -1      3596 6.05594E-03-2.25587E-04-1.42384E-14
 -1      3597 1.17890E-03-2.97465E-05-1.61690E-15
 -1      3598 1.27473E-03-5.68321E-07-1.66813E-15
 -1      3599 5.93372E-03-4.18270E-04-1.53033E-14
 -1      3600 6.07306E-03-4.20243E-04-1.62493E-14
 -1      3601 6.17809E-03-3.85953E-04-1.67222E-14
 -1      3602 5.39847E-03 2.01951E-04-1.34813E-14
 -1      3603 5.23009E-03 2.45145E-04-1.26173E-14
 -1      3604 5.27154E-03 1.94380E-04-1.26354E-14
 -1      3605 5.53586E-03 1.29056E-04-1.40002E-14
 -1      3606 5.65463E-03-5.31516E-05-1.33406E-14
 -1      3607 5.79227E-03-1.09646E-04-1.36805E-14
 -1      3608 5.88126E-03-3.10094E-04-1.39193E-14
 -1      3609 5.83295E-03-3.43433E-04-1.39666E-14
 -1      3610 1.05083E-03 6.36740E-05-9.52607E-16
 -1      3611 1.65302E-03 1.77310E-04-1.86175E-15
 -1      3612 2.21935E-03 4.25448E-04-2.60780E-15
 -1      3613 1.29338E-03 3.38075E-05-1.55198E-15
 -1      3614 1.11009E-03-1.48079E-04-1.05613E-15
 -1      3615 5.87450E-03-3.92815E-04-1.47083E-14
 -1      3616 5.99225E-03-3.53650E-04-1.51619E-14
 -1      3617 1.37882E-02-1.21508E-03-9.82535E-14
 -1      3618 1.39137E-02-1.22994E-03-9.98366E-14
 -1      3619 1.39238E-02-1.20726E-03-1.00018E-13
 -1      3620 1.37051E-02-1.17125E-03-9.72805E-14
 -1      3621 4.39682E-03-9.38527E-04-8.77807E-15
 -1      3622 1.37830E-02-5.67468E-04-9.94430E-14
 -1      3623 5.91968E-03-1.31799E-04-1.44419E-14
 -1      3624 1.35320E-02-5.63646E-04-9.62416E-14
 -1      3625 1.34721E-02-5.94072E-04-9.54217E-14
 -1      3626 1.36457E-02-5.82104E-04-9.76600E-14
 -1      3627 5.54056E-03 3.44786E-06-1.30910E-14
 -1      3628 5.70641E-03-3.21131E-05-1.39656E-14
 -1      3629 5.42593E-03 6.79197E-05-1.28401E-14
 -1      3630 1.29273E-03 1.83354E-04-1.08394E-15
 -1      3631 1.24475E-03 1.37023E-04-1.10869E-15
 -1      3632 1.38442E-02-8.95367E-04-9.96215E-14
 -1      3633 1.38310E-02-8.53288E-04-9.95312E-14
 -1      3634 1.37269E-02-9.04486E-04-9.81092E-14
 -1      3635 1.38835E-02-1.02107E-03-9.98835E-14
 -1      3636 1.37533E-02-9.88735E-04-9.82815E-14
 -1      3637 1.38967E-02-1.06324E-03-9.99691E-14
 -1      3638 1.69483E-03 2.38581E-04-1.77752E-15
 -1      3639 1.71587E-03 2.92211E-04-1.68726E-15
 -1      3640 1.57477E-03 2.64402E-04-1.44780E-15
 -1      3641 1.51063E-03 1.52930E-04-1.60902E-15
 -1      3642 6.08306E-03-2.01545E-04-1.48242E-14
 -1      3643 1.08117E-03 1.28917E-05-1.18370E-15
 -1      3644 1.03352E-03-1.16439E-05-1.19552E-15
 -1      3645 6.08138E-03-2.41038E-04-1.45992E-14
 -1      3646 9.77839E-04-2.93466E-05-1.17476E-15
 -1      3647 9.51736E-04-4.11599E-05-1.18176E-15
 -1      3648 8.67252E-04-4.43325E-05-1.00783E-15
 -1      3649 1.12045E-03-8.64521E-05-1.51322E-15
 -1      3650 1.02180E-03-5.73807E-05-1.41742E-15
 -1      3651 1.37917E-02-7.27322E-04-9.92603E-14
 -1      3652 1.37786E-02-6.85158E-04-9.91699E-14
 -1      3653 1.07693E-03-3.19284E-05-1.39812E-15
 -1      3654 1.36236E-02-6.53579E-04-9.72502E-14
 -1      3655 1.37408E-02-6.44108E-04-9.87633E-14
 -1      3656 5.98167E-03-2.90536E-04-1.43893E-14
 -1      3657 1.06676E-03-9.07522E-05-1.27123E-15
 -1      3658 1.12223E-03-1.14553E-04-1.26548E-15
 -1      3659 9.62920E-04-5.96547E-05-1.22371E-15
 -1      3660 9.89322E-04-6.94976E-05-1.22350E-15
 -1      3661 1.39339E-02-1.18458E-03-1.00195E-13
 -1      3662 1.34248E-03-1.88583E-04-1.46931E-15
 -1      3663 1.32317E-03-1.43998E-04-1.68323E-15
 -1      3664 1.38129E-02-1.15684E-03-9.86971E-14
 -1      3665 1.39323E-02-1.15216E-03-1.00243E-13
 -1      3666 1.39191E-02-1.10999E-03-1.00161E-13
 -1      3667 1.37035E-02-1.13883E-03-9.73325E-14
 -1      3668 1.21734E-03-1.64972E-04-1.24594E-15
 -1      3669 6.39696E-03-3.69720E-04-1.81842E-14
 -1      3670 6.52172E-03-3.81899E-04-1.91966E-14
 -1      3671 4.43166E-03 5.06609E-04-9.07042E-15
 -1      3672 6.64753E-03-3.94761E-04-2.02337E-14
 -1      3673 6.77492E-03-4.08458E-04-2.12950E-14
 -1      3674 6.59850E-03-3.60789E-04-1.96913E-14
 -1      3675 6.90350E-03-4.22717E-04-2.23815E-14
 -1      3676 7.03351E-03-4.37607E-04-2.34918E-14
 -1      3677 6.84660E-03-3.87906E-04-2.18122E-14
 -1      3678 7.16469E-03-4.52884E-04-2.46281E-14
 -1      3679 7.29712E-03-4.68602E-04-2.57891E-14
 -1      3680 7.10184E-03-4.16904E-04-2.40332E-14
 -1      3681 7.43061E-03-4.84548E-04-2.69736E-14
 -1      3682 7.56517E-03-5.00758E-04-2.81822E-14
 -1      3683 7.36314E-03-4.47298E-04-2.63509E-14
 -1      3684 7.70063E-03-5.17057E-04-2.94165E-14
 -1      3685 7.83699E-03-5.33472E-04-3.06730E-14
 -1      3686 7.62952E-03-4.78587E-04-2.87671E-14
 -1      3687 7.97410E-03-5.49866E-04-3.19518E-14
 -1      3688 8.11195E-03-5.66261E-04-3.32554E-14
 -1      3689 7.90010E-03-5.10302E-04-3.12778E-14
 -1      3690 8.25042E-03-5.82558E-04-3.45810E-14
 -1      3691 8.38948E-03-5.98777E-04-3.59288E-14
 -1      3692 8.17414E-03-5.42056E-04-3.38817E-14
 -1      3693 8.52903E-03-6.14849E-04-3.72978E-14
 -1      3694 8.66906E-03-6.30795E-04-3.86883E-14
 -1      3695 8.45097E-03-5.73570E-04-3.65737E-14
 -1      3696 8.80947E-03-6.46570E-04-4.01021E-14
 -1      3697 8.95025E-03-6.62194E-04-4.15336E-14
 -1      3698 8.73002E-03-6.04661E-04-3.93531E-14
 -1      3699 9.09133E-03-6.77642E-04-4.29850E-14
 -1      3700 9.23270E-03-6.92933E-04-4.44580E-14
 -1      3701 9.01082E-03-6.35235E-04-4.22153E-14
 -1      3702 9.37429E-03-7.08055E-04-4.59499E-14
 -1      3703 9.51610E-03-7.23025E-04-4.74599E-14
 -1      3704 9.29299E-03-6.65260E-04-4.51562E-14
 -1      3705 9.65808E-03-7.37840E-04-4.89872E-14
 -1      3706 9.80023E-03-7.52515E-04-5.05330E-14
 -1      3707 9.57619E-03-6.94747E-04-4.81751E-14
 -1      3708 9.94250E-03-7.67055E-04-5.20956E-14
 -1      3709 1.00849E-02-7.81471E-04-5.36735E-14
 -1      3710 9.86017E-03-7.23739E-04-5.12646E-14
 -1      3711 1.02274E-02-7.95772E-04-5.52657E-14
 -1      3712 1.03699E-02-8.09967E-04-5.68732E-14
 -1      3713 1.01447E-02-7.52290E-04-5.44185E-14
 -1      3714 1.05126E-02-8.24065E-04-5.84939E-14
 -1      3715 1.06552E-02-8.38076E-04-6.01295E-14
 -1      3716 1.04297E-02-7.80463E-04-5.76304E-14
 -1      3717 1.07980E-02-8.52008E-04-6.17763E-14
 -1      3718 1.09408E-02-8.65868E-04-6.34353E-14
 -1      3719 1.07150E-02-8.08320E-04-6.08995E-14
 -1      3720 1.10836E-02-8.79666E-04-6.51089E-14
 -1      3721 1.12264E-02-8.93406E-04-6.67943E-14
 -1      3722 1.10005E-02-8.35918E-04-6.42189E-14
 -1      3723 1.13692E-02-9.07097E-04-6.84906E-14
 -1      3724 1.15121E-02-9.20744E-04-7.01968E-14
 -1      3725 1.12861E-02-8.63310E-04-6.75875E-14
 -1      3726 1.16550E-02-9.34352E-04-7.19132E-14
 -1      3727 1.17979E-02-9.47926E-04-7.36386E-14
 -1      3728 1.15719E-02-8.90539E-04-7.10011E-14
 -1      3729 1.19408E-02-9.61471E-04-7.53734E-14
 -1      3730 1.20837E-02-9.74991E-04-7.71178E-14
 -1      3731 1.18576E-02-9.17643E-04-7.44507E-14
 -1      3732 1.22266E-02-9.88489E-04-7.88687E-14
 -1      3733 1.23695E-02-1.00197E-03-8.06310E-14
 -1      3734 1.21434E-02-9.44653E-04-7.79360E-14
 -1      3735 1.25124E-02-1.01543E-03-8.23986E-14
 -1      3736 1.26553E-02-1.02888E-03-8.41720E-14
 -1      3737 1.24292E-02-9.71593E-04-8.14551E-14
 -1      3738 1.27982E-02-1.04232E-03-8.59566E-14
 -1      3739 1.29411E-02-1.05575E-03-8.77462E-14
 -1      3740 1.27150E-02-9.98482E-04-8.50042E-14
 -1      3741 1.30840E-02-1.06918E-03-8.95408E-14
 -1      3742 1.32268E-02-1.08259E-03-9.13365E-14
 -1      3743 1.30008E-02-1.02534E-03-8.85812E-14
 -1      3744 1.33697E-02-1.09601E-03-9.31358E-14
 -1      3745 1.35126E-02-1.10941E-03-9.49431E-14
 -1      3746 1.32866E-02-1.05217E-03-9.21731E-14
 -1      3747 5.94241E-03 2.10850E-05-1.61787E-14
 -1      3748 5.79486E-03 4.11660E-05-1.52405E-14
 -1      3749 6.78411E-03-5.92267E-05-2.23237E-14
 -1      3750 6.64616E-03-4.84135E-05-2.12365E-14
 -1      3751 7.05961E-03-7.94678E-05-2.45725E-14
 -1      3752 6.92182E-03-6.95218E-05-2.34354E-14
 -1      3753 6.88176E-03-9.73026E-05-2.29577E-14
 -1      3754 7.33562E-03-9.87397E-05-2.69189E-14
 -1      3755 7.19747E-03-8.91800E-05-2.57333E-14
 -1      3756 7.15320E-03-1.16739E-04-2.52329E-14
 -1      3757 7.61276E-03-1.17755E-04-2.93620E-14
 -1      3758 7.47401E-03-1.08253E-04-2.81283E-14
 -1      3759 7.42627E-03-1.35943E-04-2.76048E-14
 -1      3760 7.89126E-03-1.37000E-04-3.18997E-14
 -1      3761 7.75182E-03-1.27334E-04-3.06202E-14
 -1      3762 7.70125E-03-1.55336E-04-3.00743E-14
 -1      3763 8.17113E-03-1.56791E-04-3.45315E-14
 -1      3764 8.03102E-03-1.46820E-04-3.32037E-14
 -1      3765 7.97817E-03-1.75208E-04-3.26368E-14
 -1      3766 8.45226E-03-1.77313E-04-3.72514E-14
 -1      3767 8.31154E-03-1.66959E-04-3.58799E-14
 -1      3768 8.25687E-03-1.95738E-04-3.52916E-14
 -1      3769 8.73446E-03-1.98649E-04-4.00575E-14
 -1      3770 8.59323E-03-1.87882E-04-3.86432E-14
 -1      3771 8.53714E-03-2.17019E-04-3.80342E-14
 -1      3772 9.01756E-03-2.20808E-04-4.29447E-14
 -1      3773 8.87590E-03-2.09630E-04-4.14922E-14
 -1      3774 8.81872E-03-2.39078E-04-4.08621E-14
 -1      3775 9.30139E-03-2.43753E-04-4.59126E-14
 -1      3776 9.15939E-03-2.32189E-04-4.44195E-14
 -1      3777 9.10137E-03-2.61893E-04-4.37722E-14
 -1      3778 9.58578E-03-2.67412E-04-4.89572E-14
 -1      3779 9.44352E-03-2.55500E-04-4.74248E-14
 -1      3780 9.38488E-03-2.85410E-04-4.67603E-14
 -1      3781 9.87060E-03-2.91702E-04-5.20719E-14
 -1      3782 9.72814E-03-2.79485E-04-5.05054E-14
 -1      3783 9.66906E-03-3.09554E-04-4.98231E-14
 -1      3784 1.01557E-02-3.16532E-04-5.52497E-14
 -1      3785 1.00131E-02-3.04055E-04-5.36527E-14
 -1      3786 9.95373E-03-3.34244E-04-5.29535E-14
 -1      3787 1.04411E-02-3.41813E-04-5.84884E-14
 -1      3788 1.02984E-02-3.29121E-04-5.68615E-14
 -1      3789 1.02388E-02-3.59397E-04-5.61472E-14
 -1      3790 1.07267E-02-3.67464E-04-6.17820E-14
 -1      3791 1.05839E-02-3.54597E-04-6.01296E-14
 -1      3792 1.05241E-02-3.84935E-04-5.94012E-14
 -1      3793 1.10123E-02-3.93412E-04-6.51269E-14
 -1      3794 1.08695E-02-3.80405E-04-6.34480E-14
 -1      3795 1.08096E-02-4.10785E-04-6.27077E-14
 -1      3796 1.12980E-02-4.19595E-04-6.85227E-14
 -1      3797 1.11551E-02-4.06477E-04-6.68185E-14
 -1      3798 1.10952E-02-4.36886E-04-6.60650E-14
 -1      3799 1.15838E-02-4.45959E-04-7.19542E-14
 -1      3800 1.14409E-02-4.32757E-04-7.02335E-14
 -1      3801 1.13810E-02-4.63182E-04-6.94685E-14
 -1      3802 1.18696E-02-4.72462E-04-7.54242E-14
 -1      3803 1.17267E-02-4.59195E-04-7.36852E-14
 -1      3804 1.16667E-02-4.89630E-04-7.29109E-14
 -1      3805 1.21553E-02-4.99067E-04-7.89280E-14
 -1      3806 1.20124E-02-4.85753E-04-7.71729E-14
 -1      3807 1.19525E-02-5.16192E-04-7.63880E-14
 -1      3808 1.24411E-02-5.25748E-04-8.24607E-14
 -1      3809 1.22982E-02-5.12400E-04-8.06906E-14
 -1      3810 1.22383E-02-5.42838E-04-7.98965E-14
 -1      3811 1.27269E-02-5.52481E-04-8.60167E-14
 -1      3812 1.25840E-02-5.39109E-04-8.42360E-14
 -1      3813 1.25241E-02-5.69546E-04-8.34338E-14
 -1      3814 1.30127E-02-5.79251E-04-8.95926E-14
 -1      3815 1.28698E-02-5.65862E-04-8.78011E-14
 -1      3816 1.28099E-02-5.96298E-04-8.69930E-14
 -1      3817 1.32985E-02-6.06044E-04-9.31867E-14
 -1      3818 1.31556E-02-5.92645E-04-9.13902E-14
 -1      3819 1.30957E-02-6.23078E-04-9.05750E-14
 -1      3820 1.36414E-03 2.24365E-04-1.12222E-15
 -1      3821 1.35179E-02-6.39039E-04-9.59269E-14
 -1      3822 1.34042E-02-6.20581E-04-9.45069E-14
 -1      3823 1.33443E-02-6.51012E-04-9.36922E-14
 -1      3824 1.35557E-02-6.80090E-04-9.63337E-14
 -1      3825 6.12098E-03-1.89902E-04-1.54179E-14
 -1      3826 6.17254E-03-2.17322E-04-1.55874E-14
 -1      3827 6.05870E-03-3.20509E-04-1.53063E-14
 -1      3828 6.11148E-03-3.45027E-04-1.59144E-14
 -1      3829 1.22325E-03 5.78932E-05-1.30107E-15
 -1      3830 6.16538E-03-2.46303E-04-1.54332E-14
 -1      3831 6.10526E-03-2.63816E-04-1.50367E-14
 -1      3832 6.08461E-03-2.86699E-04-1.51248E-14
 -1      3833 9.40478E-04-4.97643E-05-1.18598E-15
 -1      3834 5.32000E-03 1.41849E-04-1.26491E-14
 -1      3835 1.28174E-03 1.00336E-04-1.28181E-15
 -1      3836 1.38179E-02-8.11343E-04-9.94401E-14
 -1      3837 1.38048E-02-7.69265E-04-9.93501E-14
 -1      3838 1.36745E-02-7.36572E-04-9.77469E-14
 -1      3839 1.37007E-02-8.20461E-04-9.79286E-14
 -1      3840 1.37232E-02-5.97892E-04-9.86210E-14
 -1      3841 6.23380E-03-3.54618E-04-1.68746E-14
 -1      3842 5.96142E-03-1.10708E-04-1.51101E-14
 -1      3843 6.05609E-03-1.54344E-04-1.53327E-14
 -1      3844 6.50788E-03-3.69730E-05-2.01748E-14
 -1      3845 6.36877E-03-2.45752E-05-1.91384E-14
 -1      3846 6.61116E-03-7.70059E-05-2.07820E-14
 -1      3847 6.22860E-03-1.11336E-05-1.81273E-14
 -1      3848 6.08661E-03 4.07696E-06-1.71408E-14
 -1      3849 6.06443E-03-2.92870E-05-1.67317E-14
 -1      3850 1.35819E-02-7.63975E-04-9.65145E-14
 -1      3851 1.35688E-02-7.22032E-04-9.64243E-14
 -1      3852 1.34631E-02-7.07492E-04-9.51020E-14
 -1      3853 1.21618E-03-1.26197E-04-1.47158E-15
 -1      3854 1.36097E-02-9.13918E-04-9.65940E-14
 -1      3855 1.35966E-02-8.71838E-04-9.65069E-14
 -1      3856 1.49970E-03 2.48245E-04-1.33209E-15
 -1      3857 6.17012E-03-1.74759E-04-1.61103E-14
 -1      3858 5.50077E-03 8.95549E-05-1.35110E-14
 -1      3859 1.36229E-02-9.56087E-04-9.66798E-14
 -1      3860 1.34926E-02-9.23439E-04-9.50778E-14
 -1      3861 1.36361E-02-9.98256E-04-9.67628E-14
 -1      3862 6.22831E-03-2.38426E-04-1.60448E-14
 -1      3863 6.27344E-03-2.60337E-04-1.65026E-14
 -1      3864 6.28559E-03-2.29648E-04-1.66613E-14
 -1      3865 6.18681E-03-2.90886E-04-1.59722E-14
 -1      3866 5.76456E-03 2.38752E-06-1.47287E-14
 -1      3867 5.85984E-03-4.68208E-05-1.49958E-14
 -1      3868 1.37889E-02-1.07766E-03-9.85558E-14
 -1      3869 5.62653E-03 6.37777E-05-1.42060E-14
 -1      3870 1.36204E-02-1.09500E-03-9.63579E-14
 -1      3871 6.01654E-03-7.93703E-05-1.59038E-14
 -1      3872 6.32039E-03-3.31475E-04-1.73444E-14
 -1      3873 6.33978E-03-5.49229E-05-1.87070E-14
 -1      3874 4.33808E-03 5.76259E-04-8.79338E-15
 -1      3875 1.43966E-03 1.41494E-04-1.48692E-15
 -1      3876 7.51489E-03-1.72502E-04-2.82941E-14
 -1      3877 7.37919E-03-1.62685E-04-2.70832E-14
 -1      3878 6.54904E-03-3.28942E-04-1.91519E-14
 -1      3879 6.66795E-03-3.41785E-04-2.01866E-14
 -1      3880 6.78926E-03-3.54862E-04-2.12456E-14
 -1      3881 6.91298E-03-3.68530E-04-2.23301E-14
 -1      3882 6.73080E-03-3.23579E-04-2.06808E-14
 -1      3883 7.03866E-03-3.82444E-04-2.34388E-14
 -1      3884 7.16626E-03-3.96813E-04-2.45731E-14
 -1      3885 6.97464E-03-3.49488E-04-2.28479E-14
 -1      3886 7.29548E-03-4.11379E-04-2.57311E-14
 -1      3887 7.42625E-03-4.26269E-04-2.69127E-14
 -1      3888 7.22725E-03-3.76770E-04-2.51122E-14
 -1      3889 7.55835E-03-4.41282E-04-2.81209E-14
 -1      3890 7.69170E-03-4.56493E-04-2.93517E-14
 -1      3891 7.48683E-03-4.05126E-04-2.74763E-14
 -1      3892 7.82615E-03-4.71747E-04-3.06060E-14
 -1      3893 7.96162E-03-4.87094E-04-3.18832E-14
 -1      3894 7.75201E-03-4.34196E-04-2.99357E-14
 -1      3895 8.09797E-03-5.02416E-04-3.31833E-14
 -1      3896 8.23515E-03-5.17751E-04-3.45070E-14
 -1      3897 8.02173E-03-4.63641E-04-3.24881E-14
 -1      3898 8.37305E-03-5.33013E-04-3.58516E-14
 -1      3899 8.51160E-03-5.48233E-04-3.72174E-14
 -1      3900 8.29513E-03-4.93190E-04-3.51311E-14
 -1      3901 8.65073E-03-5.63349E-04-3.86069E-14
 -1      3902 8.79037E-03-5.78389E-04-4.00168E-14
 -1      3903 8.57149E-03-5.22648E-04-3.78630E-14
 -1      3904 8.93047E-03-5.93312E-04-4.14461E-14
 -1      3905 9.07097E-03-6.08140E-04-4.28953E-14
 -1      3906 8.85019E-03-5.51889E-04-4.06781E-14
 -1      3907 9.21182E-03-6.22850E-04-4.43665E-14
 -1      3908 9.35298E-03-6.37460E-04-4.58567E-14
 -1      3909 9.13074E-03-5.80844E-04-4.35778E-14
 -1      3910 9.49441E-03-6.51957E-04-4.73645E-14
 -1      3911 9.63608E-03-6.66358E-04-4.88902E-14
 -1      3912 9.41273E-03-6.09487E-04-4.65561E-14
 -1      3913 9.77795E-03-6.80655E-04-5.04343E-14
 -1      3914 9.92000E-03-6.94865E-04-5.19954E-14
 -1      3915 9.69581E-03-6.37821E-04-4.96070E-14
 -1      3916 1.00622E-02-7.08984E-04-5.35711E-14
 -1      3917 1.02045E-02-7.23026E-04-5.51622E-14
 -1      3918 9.97973E-03-6.65870E-04-5.27255E-14
 -1      3919 1.03470E-02-7.36992E-04-5.67695E-14
 -1      3920 1.04895E-02-7.50891E-04-5.83889E-14
 -1      3921 1.02643E-02-6.93664E-04-5.59073E-14
 -1      3922 1.06321E-02-7.64727E-04-6.00232E-14
 -1      3923 1.07748E-02-7.78509E-04-6.16695E-14
 -1      3924 1.05492E-02-7.21241E-04-5.91473E-14
 -1      3925 1.09175E-02-7.92239E-04-6.33285E-14
 -1      3926 1.10602E-02-8.05925E-04-6.50022E-14
 -1      3927 1.08345E-02-7.48636E-04-6.24395E-14
 -1      3928 1.12031E-02-8.19570E-04-6.66854E-14
 -1      3929 1.13459E-02-8.33179E-04-6.83803E-14
 -1      3930 1.11200E-02-7.75884E-04-6.57827E-14
 -1      3931 1.14887E-02-8.46758E-04-7.00875E-14
 -1      3932 1.16316E-02-8.60308E-04-7.18023E-14
 -1      3933 1.14056E-02-8.03013E-04-6.91735E-14
 -1      3934 1.17745E-02-8.73835E-04-7.35282E-14
 -1      3935 1.19174E-02-8.87340E-04-7.52620E-14
 -1      3936 1.16914E-02-8.30051E-04-7.26049E-14
 -1      3937 1.20603E-02-9.00828E-04-7.70044E-14
 -1      3938 1.22032E-02-9.14300E-04-7.87544E-14
 -1      3939 1.19772E-02-8.57019E-04-7.60712E-14
 -1      3940 1.23461E-02-9.27759E-04-8.05135E-14
 -1      3941 1.24890E-02-9.41206E-04-8.22791E-14
 -1      3942 1.22630E-02-8.83933E-04-7.95715E-14
 -1      3943 1.26319E-02-9.54644E-04-8.40538E-14
 -1      3944 1.27748E-02-9.68074E-04-8.58354E-14
 -1      3945 1.25488E-02-9.10810E-04-8.31030E-14
 -1      3946 1.29177E-02-9.81497E-04-8.76210E-14
 -1      3947 1.30606E-02-9.94915E-04-8.94129E-14
 -1      3948 1.28346E-02-9.37659E-04-8.66614E-14
 -1      3949 1.32035E-02-1.00833E-03-9.12086E-14
 -1      3950 1.33464E-02-1.02174E-03-9.30048E-14
 -1      3951 1.31204E-02-9.64489E-04-9.02407E-14
 -1      3952 6.14697E-03-9.02131E-05-1.68584E-14
 -1      3953 6.97614E-03-1.33679E-04-2.35945E-14
 -1      3954 6.84297E-03-1.24077E-04-2.24796E-14
 -1      3955 7.78819E-03-1.92557E-04-3.07880E-14
 -1      3956 7.65121E-03-1.82470E-04-2.95292E-14
 -1      3957 7.60155E-03-2.08707E-04-2.89858E-14
 -1      3958 8.06390E-03-2.13238E-04-3.33763E-14
 -1      3959 7.92575E-03-2.02823E-04-3.20708E-14
 -1      3960 7.87365E-03-2.29637E-04-3.15055E-14
 -1      3961 8.34174E-03-2.34621E-04-3.60544E-14
 -1      3962 8.20257E-03-2.23848E-04-3.47043E-14
 -1      3963 8.14853E-03-2.51260E-04-3.41178E-14
 -1      3964 8.62139E-03-2.56732E-04-3.88185E-14
 -1      3965 8.48135E-03-2.45593E-04-3.74252E-14
 -1      3966 8.42580E-03-2.73573E-04-3.68186E-14
 -1      3967 8.90253E-03-2.79554E-04-4.16696E-14
 -1      3968 8.76178E-03-2.68061E-04-4.02344E-14
 -1      3969 8.70505E-03-2.96551E-04-3.96069E-14
 -1      3970 9.18488E-03-3.03043E-04-4.45998E-14
 -1      3971 9.04356E-03-2.91222E-04-4.31247E-14
 -1      3972 8.98593E-03-3.20150E-04-4.24789E-14
 -1      3973 9.46817E-03-3.27138E-04-4.76069E-14
 -1      3974 9.32642E-03-3.15022E-04-4.60937E-14
 -1      3975 9.26810E-03-3.44313E-04-4.54288E-14
 -1      3976 9.75221E-03-3.51766E-04-5.06895E-14
 -1      3977 9.61011E-03-3.39392E-04-4.91398E-14
 -1      3978 9.55128E-03-3.68978E-04-4.84571E-14
 -1      3979 1.00368E-02-3.76851E-04-5.38365E-14
 -1      3980 9.89444E-03-3.64257E-04-5.22558E-14
 -1      3981 9.83524E-03-3.94076E-04-5.15573E-14
 -1      3982 1.03218E-02-4.02320E-04-5.70454E-14
 -1      3983 1.01792E-02-3.89542E-04-5.54329E-14
 -1      3984 1.01198E-02-4.19541E-04-5.47204E-14
 -1      3985 1.06071E-02-4.28106E-04-6.03123E-14
 -1      3986 1.04644E-02-4.15177E-04-5.86712E-14
 -1      3987 1.04048E-02-4.45312E-04-5.79440E-14
 -1      3988 1.08926E-02-4.54147E-04-6.36303E-14
 -1      3989 1.07498E-02-4.41098E-04-6.19657E-14
 -1      3990 1.06900E-02-4.71332E-04-6.12227E-14
 -1      3991 1.11782E-02-4.80392E-04-6.70029E-14
 -1      3992 1.10354E-02-4.67247E-04-6.53114E-14
 -1      3993 1.09755E-02-4.97553E-04-6.45563E-14
 -1      3994 1.14639E-02-5.06795E-04-7.04149E-14
 -1      3995 1.13210E-02-4.93576E-04-6.87043E-14
 -1      3996 1.12612E-02-5.23932E-04-6.79388E-14
 -1      3997 1.17497E-02-5.33320E-04-7.38650E-14
 -1      3998 1.16068E-02-5.20044E-04-7.21355E-14
 -1      3999 1.15469E-02-5.50434E-04-7.13603E-14
 -1      4000 1.20355E-02-5.59937E-04-7.73497E-14
 -1      4001 1.18926E-02-5.46618E-04-7.56033E-14
 -1      4002 1.18327E-02-5.77030E-04-7.48190E-14
 -1      4003 1.23213E-02-5.86621E-04-8.08648E-14
 -1      4004 1.21784E-02-5.73271E-04-7.91038E-14
 -1      4005 1.21185E-02-6.03696E-04-7.83114E-14
 -1      4006 1.26071E-02-6.13353E-04-8.44054E-14
 -1      4007 1.24642E-02-5.99982E-04-8.26306E-14
 -1      4008 1.24043E-02-6.30413E-04-8.18303E-14
 -1      4009 1.28929E-02-6.40120E-04-8.79694E-14
 -1      4010 1.27500E-02-6.26733E-04-8.61855E-14
 -1      4011 1.26901E-02-6.57167E-04-8.53758E-14
 -1      4012 1.31787E-02-6.66908E-04-9.15544E-14
 -1      4013 1.30358E-02-6.53512E-04-8.97593E-14
 -1      4014 1.29759E-02-6.83946E-04-8.89467E-14
 -1      4015 1.47405E-03 1.94994E-04-1.41129E-15
 -1      4016 6.28959E-03-3.01094E-04-1.68825E-14
 -1      4017 6.43889E-03-3.17650E-04-1.81918E-14
 -1      4018 6.50392E-03-3.00138E-04-1.86652E-14
 -1      4019 6.29649E-03-2.78777E-04-1.67889E-14
 -1      4020 1.35958E-02-8.38879E-04-9.65573E-14
 -1      4021 1.35827E-02-7.96934E-04-9.64656E-14
 -1      4022 1.34769E-02-7.82393E-04-9.51444E-14
 -1      4023 1.34786E-02-8.48310E-04-9.50437E-14
 -1      4024 1.35980E-02-1.04824E-03-9.61716E-14
 -1      4025 7.24420E-03-1.52943E-04-2.58956E-14
 -1      4026 7.10982E-03-1.43301E-04-2.47332E-14
 -1      4027 7.06714E-03-1.68838E-04-2.42334E-14
 -1      4028 7.33262E-03-1.88452E-04-2.65618E-14
 -1      4029 6.71041E-03-1.14421E-04-2.13923E-14
 -1      4030 6.57808E-03-1.04639E-04-2.03290E-14
 -1      4031 6.80527E-03-1.49823E-04-2.20042E-14
 -1      4032 1.33737E-02-6.94468E-04-9.39888E-14
 -1      4033 1.32680E-02-6.79930E-04-9.26698E-14
 -1      4034 1.32081E-02-7.10364E-04-9.18525E-14
 -1      4035 1.33868E-02-7.36411E-04-9.40801E-14
 -1      4036 6.44614E-03-9.46662E-05-1.92895E-14
 -1      4037 6.31387E-03-8.43789E-05-1.82765E-14
 -1      4038 6.54677E-03-1.31305E-04-1.98762E-14
 -1      4039 6.23575E-03-1.61717E-04-1.68800E-14
 -1      4040 6.28799E-03-1.97136E-04-1.69705E-14
 -1      4041 6.25643E-03-1.28295E-04-1.74083E-14
 -1      4042 1.10966E-03-1.22796E-04-1.17994E-15
 -1      4043 1.33846E-02-9.71755E-04-9.35999E-14
 -1      4044 1.34677E-02-1.01559E-03-9.45700E-14
 -1      4045 6.36039E-03-2.21621E-04-1.74492E-14
 -1      4046 6.42388E-03-2.45213E-04-1.79299E-14
 -1      4047 6.43638E-03-2.12093E-04-1.82498E-14
 -1      4048 6.37176E-03-2.70375E-04-1.74233E-14
 -1      4049 1.33714E-02-9.29587E-04-9.35182E-14
 -1      4050 1.33582E-02-8.87418E-04-9.34337E-14
 -1      4051 1.32501E-02-9.35733E-04-9.19583E-14
 -1      4052 6.38886E-03-1.55491E-04-1.83033E-14
 -1      4053 1.32361E-02-8.60608E-04-9.19308E-14
 -1      4054 1.33573E-02-8.54459E-04-9.34887E-14
 -1      4055 1.33565E-02-8.21501E-04-9.35402E-14
 -1      4056 7.95771E-03-2.66691E-04-3.22251E-14
 -1      4057 7.82160E-03-2.55621E-04-3.09400E-14
 -1      4058 6.51433E-03-1.59750E-04-1.93773E-14
 -1      4059 6.47903E-03-1.89852E-04-1.88187E-14
 -1      4060 6.90868E-03-3.17841E-04-2.22592E-14
 -1      4061 7.03210E-03-3.30482E-04-2.33662E-14
 -1      4062 7.15767E-03-3.43315E-04-2.44982E-14
 -1      4063 7.28518E-03-3.56574E-04-2.56537E-14
 -1      4064 7.08626E-03-3.10940E-04-2.38853E-14
 -1      4065 7.41439E-03-3.70005E-04-2.68346E-14
 -1      4066 7.54514E-03-3.83733E-04-2.80393E-14
 -1      4067 7.34066E-03-3.35863E-04-2.61957E-14
 -1      4068 7.67726E-03-3.97570E-04-2.92678E-14
 -1      4069 7.81063E-03-4.11601E-04-3.05200E-14
 -1      4070 7.60163E-03-3.61831E-04-2.86020E-14
 -1      4071 7.94511E-03-4.25682E-04-3.17946E-14
 -1      4072 8.08060E-03-4.39875E-04-3.30933E-14
 -1      4073 7.86789E-03-3.88516E-04-3.11034E-14
 -1      4074 8.21699E-03-4.54075E-04-3.44143E-14
 -1      4075 8.35420E-03-4.68325E-04-3.57568E-14
 -1      4076 8.13846E-03-4.15655E-04-3.36991E-14
 -1      4077 8.49213E-03-4.82549E-04-3.71217E-14
 -1      4078 8.63071E-03-4.96782E-04-3.85076E-14
 -1      4079 8.41252E-03-4.43049E-04-3.63836E-14
 -1      4080 8.76986E-03-5.10968E-04-3.99140E-14
 -1      4081 8.90954E-03-5.25137E-04-4.13417E-14
 -1      4082 8.68940E-03-4.70554E-04-3.91510E-14
 -1      4083 9.04966E-03-5.39249E-04-4.27908E-14
 -1      4084 9.19019E-03-5.53327E-04-4.42611E-14
 -1      4085 8.96851E-03-4.98072E-04-4.20056E-14
 -1      4086 9.33107E-03-5.67347E-04-4.57496E-14
 -1      4087 9.47226E-03-5.81326E-04-4.72555E-14
 -1      4088 9.24938E-03-5.25547E-04-4.49433E-14
 -1      4089 9.61371E-03-5.95249E-04-4.87802E-14
 -1      4090 9.75541E-03-6.09129E-04-5.03224E-14
 -1      4091 9.53162E-03-5.52947E-04-4.79555E-14
 -1      4092 9.89730E-03-6.22958E-04-5.18829E-14
 -1      4093 1.00394E-02-6.36748E-04-5.34577E-14
 -1      4094 9.81489E-03-5.80260E-04-5.10392E-14
 -1      4095 1.01816E-02-6.50492E-04-5.50457E-14
 -1      4096 1.03239E-02-6.64200E-04-5.66519E-14
 -1      4097 1.00990E-02-6.07483E-04-5.41873E-14
 -1      4098 1.04664E-02-6.77871E-04-5.82726E-14
 -1      4099 1.06089E-02-6.91510E-04-5.99054E-14
 -1      4100 1.03836E-02-6.34624E-04-5.73961E-14
 -1      4101 1.07516E-02-7.05119E-04-6.15516E-14
 -1      4102 1.08942E-02-7.18701E-04-6.32115E-14
 -1      4103 1.06687E-02-6.61693E-04-6.06632E-14
 -1      4104 1.10370E-02-7.32258E-04-6.48825E-14
 -1      4105 1.11798E-02-7.45795E-04-6.65651E-14
 -1      4106 1.09540E-02-6.88700E-04-6.39813E-14
 -1      4107 1.13226E-02-7.59311E-04-6.82599E-14
 -1      4108 1.14654E-02-7.72811E-04-6.99655E-14
 -1      4109 1.12395E-02-7.15657E-04-6.73459E-14
 -1      4110 1.16083E-02-7.86296E-04-7.16803E-14
 -1      4111 1.17512E-02-7.99767E-04-7.34050E-14
 -1      4112 1.15252E-02-7.42573E-04-7.07562E-14
 -1      4113 1.18941E-02-8.13228E-04-7.51396E-14
 -1      4114 1.20370E-02-8.26678E-04-7.68808E-14
 -1      4115 1.18110E-02-7.69458E-04-7.42039E-14
 -1      4116 1.21799E-02-8.40119E-04-7.86303E-14
 -1      4117 1.23228E-02-8.53554E-04-8.03873E-14
 -1      4118 1.20968E-02-7.96319E-04-7.76885E-14
 -1      4119 1.24657E-02-8.66982E-04-8.21535E-14
 -1      4120 1.26086E-02-8.80405E-04-8.39265E-14
 -1      4121 1.23826E-02-8.23162E-04-8.12031E-14
 -1      4122 1.27515E-02-8.93824E-04-8.57044E-14
 -1      4123 1.28944E-02-9.07239E-04-8.74878E-14
 -1      4124 1.26684E-02-8.49993E-04-8.47466E-14
 -1      4125 1.30008E-02-9.14783E-04-8.88244E-14
 -1      4126 1.31437E-02-9.28193E-04-9.06170E-14
 -1      4127 1.31305E-02-8.86027E-04-9.05346E-14
 -1      4128 1.29177E-02-8.70946E-04-8.78601E-14
 -1      4129 8.23212E-03-2.89358E-04-3.48611E-14
 -1      4130 8.09456E-03-2.77950E-04-3.35316E-14
 -1      4131 8.04050E-03-3.03901E-04-3.29463E-14
 -1      4132 7.68634E-03-2.44708E-04-2.96800E-14
 -1      4133 7.55195E-03-2.34006E-04-2.84436E-14
 -1      4134 7.76942E-03-2.80757E-04-3.03769E-14
 -1      4135 8.50910E-03-3.12653E-04-3.75839E-14
 -1      4136 8.37031E-03-3.00937E-04-3.62127E-14
 -1      4137 8.31480E-03-3.27666E-04-3.56071E-14
 -1      4138 8.78818E-03-3.36520E-04-4.03974E-14
 -1      4139 8.64840E-03-3.24523E-04-3.89802E-14
 -1      4140 8.59174E-03-3.51962E-04-3.83544E-14
 -1      4141 9.06895E-03-3.60898E-04-4.32892E-14
 -1      4142 8.92837E-03-3.48652E-04-4.18327E-14
 -1      4143 8.87084E-03-3.76712E-04-4.11875E-14
 -1      4144 9.35107E-03-3.85726E-04-4.62608E-14
 -1      4145 9.20986E-03-3.73262E-04-4.47659E-14
 -1      4146 9.15165E-03-4.01852E-04-4.41018E-14
 -1      4147 9.63422E-03-4.10945E-04-4.93066E-14
 -1      4148 9.49253E-03-3.98292E-04-4.77734E-14
 -1      4149 9.43382E-03-4.27321E-04-4.70924E-14
 -1      4150 9.91818E-03-4.36495E-04-5.24261E-14
 -1      4151 9.77611E-03-4.23683E-04-5.08596E-14
 -1      4152 9.71703E-03-4.53066E-04-5.01599E-14
 -1      4153 1.02027E-02-4.62323E-04-5.56053E-14
 -1      4154 1.00604E-02-4.49378E-04-5.40081E-14
 -1      4155 1.00010E-02-4.79043E-04-5.32943E-14
 -1      4156 1.04877E-02-4.88378E-04-5.88428E-14
 -1      4157 1.03452E-02-4.75325E-04-5.72172E-14
 -1      4158 1.02856E-02-5.05208E-04-5.64900E-14
 -1      4159 1.07730E-02-5.14618E-04-6.21357E-14
 -1      4160 1.06303E-02-5.01478E-04-6.04822E-14
 -1      4161 1.05706E-02-5.31527E-04-5.97422E-14
 -1      4162 1.10585E-02-5.41006E-04-6.54820E-14
 -1      4163 1.09157E-02-5.27796E-04-6.38015E-14
 -1      4164 1.08559E-02-5.57968E-04-6.30486E-14
 -1      4165 1.13441E-02-5.67508E-04-6.88738E-14
 -1      4166 1.12013E-02-5.54244E-04-6.71737E-14
 -1      4167 1.11415E-02-5.84507E-04-6.64053E-14
 -1      4168 1.16299E-02-5.94100E-04-7.23034E-14
 -1      4169 1.14870E-02-5.80794E-04-7.05842E-14
 -1      4170 1.14271E-02-6.11121E-04-6.98081E-14
 -1      4171 1.19157E-02-6.20759E-04-7.57706E-14
 -1      4172 1.17728E-02-6.07422E-04-7.40325E-14
 -1      4173 1.17129E-02-6.37792E-04-7.32465E-14
 -1      4174 1.22015E-02-6.47469E-04-7.92701E-14
 -1      4175 1.20586E-02-6.34109E-04-7.75158E-14
 -1      4176 1.19987E-02-6.64507E-04-7.67206E-14
 -1      4177 1.24873E-02-6.74215E-04-8.27961E-14
 -1      4178 1.23444E-02-6.60838E-04-8.10320E-14
 -1      4179 1.22845E-02-6.91255E-04-8.02284E-14
 -1      4180 1.27731E-02-7.00987E-04-8.63502E-14
 -1      4181 1.26302E-02-6.87598E-04-8.45710E-14
 -1      4182 1.25703E-02-7.18026E-04-8.37644E-14
 -1      4183 1.30589E-02-7.27777E-04-8.99236E-14
 -1      4184 1.29160E-02-7.14380E-04-8.81336E-14
 -1      4185 1.28561E-02-7.44813E-04-8.73224E-14
 -1      4186 6.63895E-03-1.68424E-04-2.04176E-14
 -1      4187 6.89214E-03-1.86777E-04-2.25705E-14
 -1      4188 6.76476E-03-1.77474E-04-2.14815E-14
 -1      4189 6.72419E-03-2.03337E-04-2.09585E-14
 -1      4190 1.33721E-02-7.95435E-04-9.37845E-14
 -1      4191 1.33712E-02-7.62477E-04-9.38347E-14
 -1      4192 1.32819E-02-7.49453E-04-9.27220E-14
 -1      4193 1.32508E-02-8.01584E-04-9.22311E-14
 -1      4194 6.45143E-03-2.62619E-04-1.81493E-14
 -1      4195 6.48382E-03-2.81642E-04-1.84502E-14
 -1      4196 6.59080E-03-2.92253E-04-1.94152E-14
 -1      4197 6.53777E-03-2.55574E-04-1.89684E-14
 -1      4198 6.68831E-03-2.98802E-04-2.02877E-14
 -1      4199 6.80701E-03-3.10819E-04-2.13494E-14
 -1      4200 6.86014E-03-2.92485E-04-2.18479E-14
 -1      4201 6.66201E-03-2.79784E-04-2.00604E-14
 -1      4202 6.55531E-03-2.17029E-04-1.93225E-14
 -1      4203 1.31297E-02-8.53071E-04-9.05916E-14
 -1      4204 7.02072E-03-1.96438E-04-2.36849E-14
 -1      4205 6.97396E-03-2.22511E-04-2.31376E-14
 -1      4206 7.15065E-03-2.06302E-04-2.48240E-14
 -1      4207 7.41623E-03-2.25132E-04-2.72032E-14
 -1      4208 7.28392E-03-2.14818E-04-2.60144E-14
 -1      4209 7.23267E-03-2.41540E-04-2.54415E-14
 -1      4210 7.49973E-03-2.59974E-04-2.78738E-14
 -1      4211 1.31926E-02-7.36429E-04-9.16070E-14
 -1      4212 1.31327E-02-7.66864E-04-9.07909E-14
 -1      4213 8.09091E-03-3.59726E-04-3.33285E-14
 -1      4214 7.95526E-03-3.47142E-04-3.20258E-14
 -1      4215 7.29104E-03-2.88086E-04-2.58365E-14
 -1      4216 7.42072E-03-2.99844E-04-2.70209E-14
 -1      4217 7.55449E-03-3.10183E-04-2.82578E-14
 -1      4218 7.68694E-03-3.22354E-04-2.94903E-14
 -1      4219 7.82059E-03-3.34637E-04-3.07462E-14
 -1      4220 8.22741E-03-3.72475E-04-3.46545E-14
 -1      4221 8.36471E-03-3.85280E-04-3.60013E-14
 -1      4222 8.50269E-03-3.98205E-04-3.73690E-14
 -1      4223 8.64132E-03-4.11171E-04-3.87590E-14
 -1      4224 8.78051E-03-4.24225E-04-4.01694E-14
 -1      4225 8.92020E-03-4.37307E-04-4.16014E-14
 -1      4226 9.06034E-03-4.50454E-04-4.30546E-14
 -1      4227 9.20088E-03-4.63621E-04-4.45285E-14
 -1      4228 9.34177E-03-4.76836E-04-4.60206E-14
 -1      4229 9.48296E-03-4.90066E-04-4.75296E-14
 -1      4230 9.62442E-03-5.03330E-04-4.90573E-14
 -1      4231 9.76611E-03-5.16606E-04-5.06056E-14
 -1      4232 9.90801E-03-5.29906E-04-5.21686E-14
 -1      4233 1.00501E-02-5.43216E-04-5.37462E-14
 -1      4234 1.01923E-02-5.56544E-04-5.53392E-14
 -1      4235 1.03347E-02-5.69879E-04-5.69472E-14
 -1      4236 1.04771E-02-5.83227E-04-5.85716E-14
 -1      4237 1.06197E-02-5.96581E-04-6.02077E-14
 -1      4238 1.07623E-02-6.09944E-04-6.18572E-14
 -1      4239 1.09050E-02-6.23312E-04-6.35205E-14
 -1      4240 1.10477E-02-6.36687E-04-6.51934E-14
 -1      4241 1.11905E-02-6.50066E-04-6.68815E-14
 -1      4242 1.13333E-02-6.63449E-04-6.85792E-14
 -1      4243 1.14762E-02-6.76835E-04-7.02858E-14
 -1      4244 1.16190E-02-6.90225E-04-7.20028E-14
 -1      4245 1.17619E-02-7.03617E-04-7.37291E-14
 -1      4246 1.19048E-02-7.17011E-04-7.54667E-14
 -1      4247 1.20477E-02-7.30408E-04-7.72105E-14
 -1      4248 1.21906E-02-7.43805E-04-7.89607E-14
 -1      4249 1.23335E-02-7.57205E-04-8.07210E-14
 -1      4250 1.24764E-02-7.70605E-04-8.24869E-14
 -1      4251 1.26194E-02-7.84007E-04-8.42596E-14
 -1      4252 1.27623E-02-7.97409E-04-8.60371E-14
 -1      4253 1.29052E-02-8.10812E-04-8.78193E-14
 -1      4254 1.31171E-02-7.92929E-04-9.05469E-14
 -1      4255 7.03422E-03-2.67005E-04-2.35154E-14
 -1      4256 7.16046E-03-2.78195E-04-2.46503E-14
 -1      4257 6.80868E-03-2.50908E-04-2.14950E-14
 -1      4258 6.68861E-03-2.41129E-04-2.04301E-14
 -1      4259 6.90985E-03-2.56378E-04-2.24054E-14
 -1      4260 1.30233E-02-8.45532E-04-8.92527E-14
 -1      4261 6.63271E-03-2.61107E-04-1.98306E-14
 -3
    1PSTEP                         2           1           1          
  100CL  101 1.000000000        4261                     0    1           1
 -4  STRESS      6    1
 -5  SXX         1    4    1    1
 -5  SYY         1    4    2    2
 -5  SZZ         1    4    3    3
 -5  SXY         1    4    1    2
 -5  SYZ         1    4    2    3
 -5  SZX         1    4    3    1
 -1         1 6.72593E+01 9.92104E-01 3.69881E+00-8.68560E-02-9.77274E-14 4.94376E-13
 -1         2-7.74185E-01-2.42836E+01-3.36161E+00-1.32939E-02 1.48949E-12 2.16157E-13
 -1         3 1.99998E+01 3.80267E-05-9.02021E-05 3.78126E-05-4.92346E-13-4.90351E-13
 -1         4 1.99998E+01 3.41719E-05-9.37365E-05-3.46846E-05 1.48916E-13 2.13006E-13
 -1         5 3.51998E+01 6.64187E+00 2.73972E+00 6.37933E+00-3.45834E-14 2.49778E-12
 -1         6 3.81558E+01 1.29641E+01 5.05762E+00-8.74743E+00-1.28397E-13 2.24937E-12
 -1         7 2.37642E+01 6.90977E+00 3.13348E-02-4.12413E+00-1.98314E-14 5.34104E-13
 -1         8 2.18066E+01 6.55759E+00 1.23004E-01-2.15709E+00-2.44943E-14-8.45331E-15
 -1         9 2.02766E+01 6.10930E+00 7.68892E-02-1.15685E+00-2.16632E-14-3.12688E-13
 -1        10 1.89432E+01 5.70831E+00 4.32965E-02-5.29802E-01-1.50366E-14-4.73513E-13
 -1        11 1.77670E+01 5.35509E+00 9.73816E-03-1.70749E-01-1.18169E-14-5.52233E-13
 -1        12 1.68264E+01 5.07220E+00-2.06274E-02-3.46725E-02-3.50414E-15-5.95493E-13
 -1        13 1.61834E+01 4.87923E+00-4.18813E-02-6.37161E-02-2.32453E-15-6.11606E-13
 -1        14 1.59297E+01 4.80285E+00-4.78437E-02-1.80116E-01 1.52569E-15-6.17975E-13
 -1        15 1.60828E+01 4.84826E+00-3.67924E-02-2.85749E-01 6.54685E-15-6.02580E-13
 -1        16 1.65932E+01 5.00075E+00-1.25985E-02-2.89603E-01 6.30399E-15-5.72412E-13
 -1        17 1.73643E+01 5.23125E+00 1.72858E-02-1.29690E-01 1.43635E-14-5.18754E-13
 -1        18 1.82725E+01 5.50459E+00 4.52192E-02 2.10594E-01 1.36280E-14-4.28750E-13
 -1        19 1.92759E+01 5.80746E+00 6.76431E-02 7.46430E-01 2.19408E-14-3.02430E-13
 -1        20 2.03472E+01 6.13292E+00 8.39773E-02 1.48127E+00 2.88311E-14-9.61757E-14
 -1        21 2.15934E+01 6.51347E+00 1.05668E-01 2.48977E+00 3.20577E-14 2.79817E-13
 -1        22 2.36078E+01 7.05076E+00 2.19094E-01 4.12486E+00 2.59515E-15 9.99539E-13
 -1        23 2.66581E+01-1.58231E+00-1.03703E+00-5.06555E-01-8.55982E-14 1.79433E-12
 -1        24 2.41304E+01-9.63238E-02-2.92637E-01 1.12028E-01-2.36183E-14 1.39185E-12
 -1        25 2.43455E+01-4.46877E-02-4.51938E-02 8.89211E-02-1.87422E-14 1.01780E-12
 -1        26 2.48136E+01-2.63176E-03 2.58093E-02 5.42831E-02-2.00379E-14 7.46764E-13
 -1        27 2.51494E+01 1.84443E-02 5.64251E-02 2.81259E-02 2.88897E-15 5.86803E-13
 -1        28 2.50048E+01 3.29436E-02 8.24259E-02-1.26860E-02-6.70275E-15 5.36406E-13
 -1        29 2.40796E+01 3.45588E-02 8.93887E-02-7.09032E-02 2.23094E-14 4.33011E-13
 -1        30 2.22995E+01 1.65344E-02 5.17381E-02-1.29061E-01-2.05771E-14 3.25129E-13
 -1        31 2.00422E+01-1.88889E-02-3.52523E-02-1.48368E-01-3.08556E-14 1.00663E-13
 -1        32 1.81611E+01-5.45441E-02-1.31238E-01-9.52479E-02-5.15165E-14-2.25032E-13
 -1        33 1.75824E+01-6.72136E-02-1.67434E-01 1.63583E-02 6.33777E-14-3.96301E-13
 -1        34 1.86481E+01-4.73596E-02-1.13902E-01 1.19880E-01-2.44644E-14-4.04937E-13
 -1        35 2.08368E+01-8.70896E-03-1.37403E-02 1.57101E-01-1.42039E-14-5.59344E-13
 -1        36 2.31747E+01 2.52157E-02 6.50143E-02 1.26667E-01 1.73225E-14-6.08659E-13
 -1        37 2.48799E+01 4.05757E-02 9.16241E-02 6.75940E-02 4.82080E-15-4.55903E-13
 -1        38 2.56703E+01 3.83245E-02 7.71754E-02 1.56863E-02-2.42185E-14-3.12288E-13
 -1        39 2.56649E+01 2.70276E-02 4.76781E-02-1.51905E-02 1.27938E-14-3.20743E-13
 -1        40 2.51448E+01 1.43916E-02 2.08608E-02-2.73890E-02-4.80518E-16-2.96748E-13
 -1        41 2.43795E+01 4.42763E-03 3.02937E-03-2.82615E-02-5.37333E-15-4.44969E-13
 -1        42 2.35590E+01-1.94517E-03-6.38160E-03-2.40545E-02-1.08966E-14-5.26486E-13
 -1        43 2.27923E+01-5.29681E-03-1.00836E-02-1.84927E-02-4.18187E-14-5.17040E-13
 -1        44 2.21292E+01-6.58307E-03-1.05970E-02-1.33166E-02 2.10538E-14-4.43322E-13
 -1        45 2.15832E+01-6.64328E-03-9.61714E-03-9.12197E-03-9.66301E-15-5.61668E-13
 -1        46 2.11492E+01-6.06965E-03-8.10331E-03-5.96406E-03 1.77614E-14-6.40616E-13
 -1        47 2.08131E+01-5.23147E-03-6.53395E-03-3.69443E-03-4.16276E-14-3.72601E-13
 -1        48 2.05588E+01-4.33825E-03-5.11598E-03-2.11840E-03 4.17801E-14-4.47085E-13
 -1        49 2.03702E+01-3.49773E-03-3.91802E-03-1.05749E-03 2.51046E-14-5.10088E-13
 -1        50 2.02333E+01-2.75767E-03-2.94445E-03-3.67495E-04-3.00243E-14-6.27057E-13
 -1        51 2.01363E+01-2.13254E-03-2.17315E-03 6.13479E-05 3.00010E-14-6.02157E-13
 -1        52 2.00693E+01-1.61959E-03-1.57368E-03 3.09987E-04 3.43837E-14-4.08141E-13
 -1        53 2.00246E+01-1.20801E-03-1.11530E-03 4.37016E-04-1.39965E-14-5.10624E-13
 -1        54 1.99962E+01-8.83929E-04-7.70231E-04 4.84300E-04-1.52895E-14-6.58906E-13
 -1        55 1.99794E+01-6.33112E-04-5.14650E-04 4.81390E-04-3.97102E-14-8.81209E-13
 -1        56 1.99706E+01-4.42234E-04-3.28741E-04 4.48855E-04-4.03882E-14-1.13684E-12
 -1        57 1.99672E+01-2.99475E-04-1.96332E-04 4.00751E-04 7.11321E-15-1.26298E-12
 -1        58 1.99673E+01-1.94695E-04-1.04426E-04 3.46440E-04 1.01321E-13-9.93325E-13
 -1        59 1.99694E+01-1.19410E-04-4.27087E-05 2.91930E-04-2.55818E-14-6.38166E-13
 -1        60 1.99727E+01-6.66540E-05-3.10195E-06 2.40863E-04-5.22032E-14-4.41328E-13
 -1        61 1.99765E+01-3.08016E-05 2.06484E-05 1.95247E-04 1.28433E-13 3.12947E-14
 -1        62 1.99804E+01-7.37052E-06 3.33275E-05 1.55986E-04-6.45353E-14 4.71540E-14
 -1        63 1.99841E+01 7.17286E-06 3.85651E-05 1.23261E-04-1.47276E-13-4.16913E-13
 -1        64 1.99875E+01 1.55977E-05 3.91155E-05 9.67963E-05 4.56457E-14-8.51478E-13
 -1        65 1.99905E+01 2.00767E-05 3.71252E-05 7.60204E-05-2.94985E-14-4.18918E-13
 -1        66 1.99931E+01 2.23338E-05 3.44280E-05 6.01207E-05-5.09588E-14-4.69181E-13
 -1        67 1.99954E+01 2.37520E-05 3.28909E-05 4.79631E-05 1.54991E-14-2.53525E-13
 -1        68 1.99972E+01 2.53835E-05 3.46726E-05 3.77425E-05 8.51897E-14 2.92222E-13
 -1        69 1.99986E+01 2.74693E-05 4.12664E-05 2.60153E-05 2.83983E-14 2.24811E-13
 -1        70 1.99995E+01 2.51866E-05 4.55772E-05 3.35815E-06-2.23022E-14 2.25772E-13
 -1        71 1.99999E+01-4.73686E-06 7.77908E-06-2.90219E-05-5.65437E-14 1.87576E-13
 -1        72 2.40375E+01-4.33684E-01-1.04652E+00-4.19510E-01 2.92787E-14 2.35094E-12
 -1        73 2.31743E+01-5.83080E-02-2.72667E-01-8.78722E-02 2.06150E-14 1.88016E-12
 -1        74 2.30490E+01-8.37350E-03-3.57232E-02-4.39923E-02 4.17152E-15 1.48383E-12
 -1        75 2.30816E+01 5.84118E-03 2.56848E-02-3.41397E-02 1.62720E-15 1.29764E-12
 -1        76 2.29680E+01 1.25845E-02 4.50878E-02-2.16628E-02 2.86988E-16 1.15282E-12
 -1        77 2.24920E+01 1.28157E-02 5.14366E-02-4.86776E-04 2.00072E-14 1.00713E-12
 -1        78 2.15462E+01 5.49287E-03 4.21422E-02 3.00182E-02-6.71631E-15 9.30559E-13
 -1        79 2.02013E+01-8.01217E-03 1.13136E-02 6.21131E-02 7.92161E-15 7.70984E-13
 -1        80 1.87564E+01-2.20006E-02-3.57320E-02 7.97085E-02-1.98266E-14 6.85955E-13
 -1        81 1.76821E+01-2.90017E-02-7.82069E-02 6.72726E-02 2.37943E-14 6.11759E-13
 -1        82 1.74084E+01-2.52567E-02-9.09936E-02 2.50515E-02-3.40006E-15 4.90112E-13
 -1        83 1.80740E+01-1.30405E-02-6.66173E-02-2.73475E-02 5.42925E-15 4.30135E-13
 -1        84 1.94397E+01 1.23731E-03-1.99516E-02-6.51549E-02 3.35252E-14 4.88231E-13
 -1        85 2.10331E+01 1.18308E-02 2.38652E-02-7.54110E-02 2.06400E-15 3.37903E-13
 -1        86 2.24028E+01 1.63894E-02 4.77703E-02-6.25259E-02 3.41950E-14 6.50729E-14
 -1        87 2.32937E+01 1.57086E-02 5.01481E-02-3.95491E-02-2.58685E-14 1.75153E-13
 -1        88 2.36667E+01 1.20443E-02 3.94402E-02-1.75735E-02 6.27721E-15 2.03912E-13
 -1        89 2.36196E+01 7.53640E-03 2.47320E-02-1.73136E-03 3.58736E-14-8.62665E-14
 -1        90 2.32976E+01 3.53983E-03 1.17279E-02 7.40666E-03-3.53479E-14 1.33322E-14
 -1        91 2.28346E+01 5.99331E-04 2.55585E-03 1.13591E-02 1.18264E-14 9.61184E-14
 -1        92 2.23301E+01-1.26022E-03-2.86842E-03 1.20354E-02-2.91364E-14 2.68342E-13
 -1        93 2.18467E+01-2.24687E-03-5.47871E-03 1.09756E-02 2.07524E-14 2.73088E-13
 -1        94 2.14178E+01-2.62152E-03-6.28394E-03 9.19512E-03 1.13023E-14-1.85994E-13
 -1        95 2.10567E+01-2.61241E-03-6.07193E-03 7.27698E-03 2.44849E-14-4.77345E-13
 -1        96 2.07642E+01-2.38987E-03-5.36855E-03 5.51286E-03-1.67046E-14-1.77179E-13
 -1        97 2.05349E+01-2.06889E-03-4.48993E-03 4.02073E-03-7.12702E-15 5.08401E-14
 -1        98 2.03601E+01-1.72115E-03-3.60954E-03 2.82461E-03-4.49562E-14 1.01398E-13
 -1        99 2.02303E+01-1.38775E-03-2.81252E-03 1.90300E-03 3.30559E-14-1.12924E-14
 -1       100 2.01365E+01-1.08966E-03-2.13271E-03 1.21599E-03 1.93340E-14 3.34242E-14
 -1       101 2.00709E+01-8.35255E-04-1.57594E-03 7.19532E-04-4.42007E-14-8.81205E-14
 -1       102 2.00265E+01-6.25500E-04-1.13384E-03 3.72280E-04 3.62301E-14 1.79648E-14
 -1       103 1.99980E+01-4.57319E-04-7.91831E-04 1.38430E-04 3.87636E-15-4.38405E-13
 -1       104 1.99808E+01-3.25706E-04-5.33506E-04-1.15299E-05-2.41178E-14-1.21183E-13
 -1       105 1.99717E+01-2.25010E-04-3.42967E-04-1.01091E-04-1.24745E-14 1.50937E-13
 -1       106 1.99680E+01-1.49666E-04-2.05935E-04-1.48445E-04-7.06806E-14 1.10409E-13
 -1       107 1.99679E+01-9.45906E-05-1.10186E-04-1.67346E-04 3.20962E-14-5.02945E-13
 -1       108 1.99699E+01-5.53558E-05-4.56064E-05-1.67953E-04 1.28973E-14-8.65137E-13
 -1       109 1.99731E+01-2.82323E-05-4.04379E-06-1.57595E-04 1.01132E-14-5.88060E-13
 -1       110 1.99768E+01-1.01595E-05 2.09296E-05-1.41432E-04-7.73814E-14-3.30823E-13
 -1       111 1.99806E+01 1.32713E-06 3.42907E-05-1.22991E-04 1.92870E-14-3.99024E-13
 -1       112 1.99843E+01 8.18565E-06 3.98412E-05-1.04606E-04-9.23561E-14-5.35183E-13
 -1       113 1.99876E+01 1.19656E-05 4.04750E-05-8.77577E-05 2.55571E-14-5.48586E-13
 -1       114 1.99906E+01 1.39054E-05 3.84476E-05-7.33311E-05-9.35174E-14-6.22507E-13
 -1       115 1.99932E+01 1.49820E-05 3.56754E-05-6.17443E-05 7.99862E-15-5.75889E-13
 -1       116 1.99954E+01 1.59798E-05 3.40993E-05-5.29614E-05-5.63225E-14-5.21362E-13
 -1       117 1.99972E+01 1.75091E-05 3.61620E-05-4.64465E-05 7.18642E-14-1.45652E-12
 -1       118 1.99986E+01 1.93643E-05 4.33026E-05-3.99813E-05 2.73939E-14-1.34078E-12
 -1       119 1.99995E+01 1.79371E-05 4.77618E-05-2.47232E-05 7.51057E-14-1.62418E-12
 -1       120 1.99999E+01-1.75686E-05 2.46082E-06 1.70481E-05 8.55996E-14-1.46419E-12
 -1       121 1.99998E+01 4.76323E-05 5.29588E-06 3.04813E-05-1.05798E-12 1.42571E-13
 -1       122 1.99998E+01-3.03403E-04 4.41676E-05-1.30011E-05-4.02918E-13 1.03743E-13
 -1       123 1.99998E+01-1.18911E-03 2.84908E-05-3.64426E-05 3.15563E-13-2.21494E-13
 -1       124 1.99998E+01-2.35379E-03 6.47740E-06-4.39425E-05 3.24245E-13 1.64609E-13
 -1       125 1.99998E+01-3.57044E-03-1.17860E-05-4.14212E-05 1.18372E-12-1.26314E-13
 -1       126 1.99998E+01-4.63556E-03-2.50812E-05-3.35008E-05 8.49697E-14-3.01841E-13
 -1       127 1.99998E+01-5.43906E-03-3.35722E-05-2.14289E-05 1.99556E-13 1.84068E-13
 -1       128 1.99998E+01-5.86379E-03-3.77790E-05-7.28283E-06 2.73378E-13-7.73581E-14
 -1       129 1.99998E+01-5.86054E-03-3.77532E-05 7.51233E-06 3.77946E-13 2.20418E-13
 -1       130 1.99998E+01-5.42961E-03-3.35013E-05 2.16060E-05-8.38698E-15-4.29026E-13
 -1       131 1.99998E+01-4.62111E-03-2.47589E-05 3.39653E-05-1.35362E-12-1.80814E-13
 -1       132 1.99998E+01-3.55284E-03-1.17139E-05 4.15984E-05-2.08160E-12 4.58876E-13
 -1       133 1.99998E+01-2.33448E-03 6.60362E-06 4.38459E-05-1.13108E-12 3.30719E-14
 -1       134 1.99998E+01-1.16802E-03 3.07310E-05 3.94706E-05-2.20662E-13 1.47594E-13
 -1       135 1.99998E+01-3.06110E-04 3.87670E-05 1.80935E-05-1.25120E-13-2.45101E-13
 -1       136 1.99998E+01 3.58244E-05 3.51528E-06-5.63089E-05-4.42147E-13-3.96562E-14
 -1       137-1.39662E+00-1.93147E+01-3.03673E+00-3.62942E+00 3.04878E-12 6.67546E-13
 -1       138-1.41509E+00-7.87429E+00-2.22495E+00-2.72217E+00 2.99494E-12 1.36377E-12
 -1       139 3.45114E+00 3.96766E+00-1.01467E+00 3.95542E+00 2.45237E-12 1.74971E-12
 -1       140 1.56127E+01 1.03037E+01 3.67779E-01 1.25559E+01 1.85452E-12 2.14651E-12
 -1       141 3.53095E+01 1.00327E+01 1.83101E+00 1.82913E+01 1.19080E-12 2.10132E-12
 -1       142 5.47072E+01 4.93407E+00 2.95339E+00 1.50251E+01 4.59272E-13 1.44340E-12
 -1       143 6.56301E+01 1.09021E+00 3.49398E+00 3.73199E+00 9.51912E-14 4.69069E-15
 -1       144 6.25919E+01 2.19539E+00 3.34518E+00-9.27702E+00 2.73993E-13-1.55020E-12
 -1       145 4.74866E+01 7.18104E+00 2.54807E+00-1.72876E+01 1.10532E-12-2.63567E-12
 -1       146 2.62293E+01 1.09004E+01 1.19560E+00-1.64928E+01 2.09499E-12-3.11734E-12
 -1       147 9.12880E+00 8.51401E+00-3.00178E-01-8.87135E+00 2.70839E-12-2.54435E-12
 -1       148 4.00314E-01-9.06480E-01-1.63609E+00-4.50455E-01 2.49895E-12-1.55032E-12
 -1       149-1.72081E+00-1.35547E+01-2.66035E+00 3.81919E+00 1.73100E-12-6.07431E-13
 -1       150-8.74201E-01-2.20218E+01-3.19698E+00 2.30943E+00 5.73680E-13-9.29534E-14
 -1       151-8.75581E-01-2.27698E+01-3.27150E+00-1.98729E+00-7.15691E-13-9.94482E-14
 -1       152-1.74132E+00-1.49106E+01-2.81425E+00-4.02715E+00-1.80644E-12-6.17104E-13
 -1       153-4.32680E-01-3.13229E+00-1.91039E+00-8.38330E-01-2.48690E-12-1.43033E-12
 -1       154 6.64405E+00 6.71889E+00-6.74844E-01 6.81756E+00-2.55629E-12-2.31826E-12
 -1       155 2.16034E+01 1.07268E+01 7.81016E-01 1.49585E+01-2.01128E-12-2.61885E-12
 -1       156 4.29355E+01 8.48688E+00 2.29681E+00 1.83124E+01-9.95592E-13-2.06202E-12
 -1       157 6.04554E+01 3.31147E+00 3.33299E+00 1.23710E+01-2.63761E-13-9.75386E-13
 -1       158 5.94285E+01 3.68538E+00 3.28141E+00-1.29179E+01-4.48724E-13 1.92496E-12
 -1       159 3.99638E+01 9.14136E+00 2.14001E+00-1.85064E+01-1.33285E-12 2.59764E-12
 -1       160 1.87568E+01 1.08051E+01 6.21551E-01-1.40397E+01-2.31459E-12 2.87875E-12
 -1       161 3.76808E+00 4.28310E+00-1.03967E+00-4.35816E+00-2.84689E-12 2.27773E-12
 -1       162-1.61387E+00-8.09618E+00-2.29598E+00 2.99686E+00-2.33308E-12 1.15088E-12
 -1       163-1.44852E+00-1.96162E+01-3.09596E+00 3.93440E+00-7.92449E-13 2.27179E-13
 -1       164 2.39061E+01 3.74840E+00-4.98056E-02-2.66053E+00-2.91753E-13 2.49099E-13
 -1       165 2.18376E+01 4.31279E+00-4.32487E-02-1.64488E+00-2.66939E-13-9.62806E-14
 -1       166 2.01452E+01 4.57015E+00-3.15792E-02-9.20688E-01-2.06413E-13-2.93321E-13
 -1       167 1.86658E+01 4.69581E+00-2.29260E-02-4.33893E-01-1.46564E-13-4.16224E-13
 -1       168 1.74169E+01 4.78778E+00-1.68736E-02-1.70905E-01-9.77378E-14-4.69329E-13
 -1       169 1.64577E+01 4.85624E+00-1.34219E-02-9.51910E-02-4.70015E-14-4.98850E-13
 -1       170 1.59264E+01 4.88235E+00-1.16810E-02-1.52260E-01 8.45613E-15-5.08484E-13
 -1       171 1.58877E+01 4.85070E+00-1.13904E-02-2.48893E-01 4.40186E-14-5.09792E-13
 -1       172 1.63189E+01 4.76926E+00-1.24511E-02-2.83234E-01 8.36575E-14-4.92772E-13
 -1       173 1.71157E+01 4.66770E+00-1.47944E-02-1.76055E-01 1.22961E-13-4.48067E-13
 -1       174 1.81198E+01 4.57891E+00-1.86684E-02 1.03510E-01 1.70345E-13-3.76739E-13
 -1       175 1.92514E+01 4.50971E+00-2.46780E-02 5.66029E-01 2.37479E-13-2.79101E-13
 -1       176 2.04504E+01 4.42843E+00-3.45891E-02 1.19571E+00 2.89515E-13-1.23266E-13
 -1       177 2.17987E+01 4.22476E+00-4.76323E-02 1.98713E+00 3.22430E-13 1.34774E-13
 -1       178 2.36383E+01 3.51816E+00-5.68813E-02 2.89626E+00 2.96195E-13 5.78045E-13
 -1       179 2.53460E+01 1.07131E+00-3.46944E-01 2.55810E+00 2.13662E-13 1.14063E-12
 -1       180 2.55938E+01 7.90180E-01 7.27132E-04-1.24072E+00-2.60642E-13 6.45980E-13
 -1       181 2.45783E+01 1.32632E-01-9.75748E-03-1.09028E-01-2.21148E-13 5.23878E-13
 -1       182 2.43148E+01 2.83876E-02 1.05276E-02 2.24233E-01-1.58738E-13 4.56686E-13
 -1       183 2.43619E+01-8.26909E-02 4.90685E-03 1.97419E-01-9.46813E-14 3.71436E-13
 -1       184 2.43811E+01-1.86204E-01 1.92168E-04-1.05064E-01-6.59286E-14 3.21513E-13
 -1       185 2.41510E+01-2.56876E-01-4.72559E-04-6.27138E-01-6.34046E-14 3.05500E-13
 -1       186 2.35338E+01-2.27253E-01 1.32201E-03-1.20805E+00-8.33882E-14 2.74816E-13
 -1       187 2.25622E+01-4.03167E-02 2.17287E-03-1.53738E+00-1.45014E-13 2.27224E-13
 -1       188 2.15220E+01 2.56909E-01-2.46167E-04-1.28589E+00-2.02944E-13 1.41196E-13
 -1       189 2.08840E+01 4.81422E-01-4.18992E-03-3.95279E-01-1.28130E-13 5.36242E-14
 -1       190 2.10127E+01 4.48953E-01-4.25864E-03 7.32222E-01-8.01477E-14-2.47818E-13
 -1       191 2.18516E+01 1.87507E-01-6.81465E-04 1.49579E+00-1.32357E-13-3.63855E-13
 -1       192 2.29713E+01-1.01548E-01 1.01545E-03 1.58660E+00-2.26212E-14-3.61100E-13
 -1       193 2.39075E+01-2.57398E-01-4.42299E-04 1.14312E+00 2.32566E-14-3.44915E-13
 -1       194 2.44113E+01-2.65361E-01-3.43185E-03 5.08152E-01 6.77106E-14-3.14792E-13
 -1       195 2.44649E+01-1.92925E-01-4.95689E-03-4.61496E-02 6.00952E-15-1.81043E-13
 -1       196 2.41774E+01-1.06305E-01-4.66659E-03-4.08922E-01 5.53507E-14-2.49331E-13
 -1       197 2.36885E+01-3.83179E-02-3.22886E-03-5.85469E-01-6.09252E-14-2.59170E-13
 -1       198 2.31170E+01 4.18716E-03-1.54641E-03-6.27736E-01-1.61840E-13-3.04343E-13
 -1       199 2.25449E+01 2.59675E-02-1.67505E-04-5.90665E-01-1.68494E-14-4.08187E-13
 -1       200 2.20203E+01 3.41833E-02 7.30569E-04-5.15636E-01 4.54670E-14-3.63958E-13
 -1       201 2.15656E+01 3.47314E-02 1.19266E-03-4.28765E-01-9.52519E-14-2.24480E-13
 -1       202 2.11869E+01 3.15341E-02 1.34373E-03-3.44438E-01 2.38788E-14-1.32300E-13
 -1       203 2.08808E+01 2.68952E-02 1.30586E-03-2.69434E-01 1.36756E-13-1.28051E-14
 -1       204 2.06395E+01 2.20424E-02 1.17070E-03-2.06109E-01-3.69616E-14 8.97447E-14
 -1       205 2.04531E+01 1.75621E-02 9.97487E-04-1.54480E-01-1.12111E-13-9.58468E-14
 -1       206 2.03119E+01 1.36863E-02 8.20408E-04-1.13460E-01-1.20554E-13-2.80459E-13
 -1       207 2.02071E+01 1.04640E-02 6.57015E-04-8.15438E-02-3.30259E-15-4.13467E-13
 -1       208 2.01309E+01 7.85737E-03 5.14813E-04-5.71705E-02 3.85092E-14-3.91600E-13
 -1       209 2.00767E+01 5.79254E-03 3.95679E-04-3.88885E-02-1.71071E-14-3.83872E-13
 -1       210 2.00392E+01 4.18578E-03 2.98580E-04-2.54276E-02-2.05599E-13-3.60385E-13
 -1       211 2.00141E+01 2.95600E-03 2.21145E-04-1.57158E-02-1.62733E-13-5.02463E-13
 -1       212 1.99982E+01 2.03024E-03 1.60540E-04-8.87122E-03-1.25346E-13-5.22217E-13
 -1       213 1.99887E+01 1.34551E-03 1.13927E-04-4.18301E-03 4.49194E-14-4.43294E-13
 -1       214 1.99837E+01 8.48890E-04 7.86882E-05-1.08758E-03 1.37294E-13-2.97206E-13
 -1       215 1.99818E+01 4.96863E-04 5.25243E-05 8.54713E-04 5.32674E-14-5.41479E-13
 -1       216 1.99818E+01 2.54204E-04 3.34749E-05 1.98150E-03 2.00392E-13-4.45760E-13
 -1       217 1.99830E+01 9.28324E-05 1.99080E-05 2.54783E-03 1.89787E-13 2.56126E-14
 -1       218 1.99849E+01-9.34884E-06 1.04880E-05 2.74282E-03-1.41100E-13-3.08191E-13
 -1       219 1.99871E+01-6.95349E-05 4.13611E-06 2.70373E-03-3.06974E-14-1.37386E-13
 -1       220 1.99893E+01-1.01012E-04-1.09987E-08 2.52727E-03-7.01055E-14 5.43020E-14
 -1       221 1.99915E+01-1.14061E-04-2.63846E-06 2.27875E-03 1.74447E-13-3.16471E-14
 -1       222 1.99934E+01-1.16801E-04-4.27586E-06 1.99890E-03 1.02409E-14 1.42215E-13
 -1       223 1.99951E+01-1.15953E-04-5.27798E-06 1.70876E-03 2.48626E-13 2.80234E-13
 -1       224 1.99966E+01-1.17554E-04-5.76053E-06 1.41298E-03 1.99851E-13 1.65504E-13
 -1       225 1.99978E+01-1.27467E-04-5.50297E-06 1.10197E-03-3.89663E-14-1.04161E-13
 -1       226 1.99987E+01-1.50509E-04-4.95035E-06 7.56318E-04 6.57872E-14-1.59452E-13
 -1       227 1.99994E+01-1.80167E-04-3.41735E-06 3.66134E-04 7.60745E-14 2.65504E-14
 -1       228 2.42035E+01 2.28908E-01-4.82567E-02 7.60353E-01 2.33577E-13 1.00855E-12
 -1       229 2.34298E+01 7.36500E-02 9.79807E-03 1.73162E-01 1.72600E-13 8.42836E-13
 -1       230 2.31114E+01-1.27108E-02 1.28871E-02 6.21008E-02 1.21380E-13 7.03674E-13
 -1       231 2.28737E+01-6.72519E-02 8.21761E-03 1.68595E-01 8.00894E-14 6.19047E-13
 -1       232 2.25118E+01-9.86661E-02 5.78207E-03 4.04458E-01 7.70512E-14 5.85578E-13
 -1       233 2.19212E+01-9.47913E-02 4.66336E-03 6.81884E-01 3.23873E-14 4.99920E-13
 -1       234 2.11165E+01-4.12209E-02 2.58318E-03 8.74297E-01 8.49209E-14 4.77682E-13
 -1       235 2.02510E+01 5.69209E-02-1.24463E-03 8.42688E-01 5.70045E-14 3.99828E-13
 -1       236 1.95863E+01 1.59177E-01-5.16452E-03 5.15006E-01 8.93920E-14 1.87890E-13
 -1       237 1.93796E+01 2.05440E-01-5.92947E-03-2.90388E-02 3.59235E-14 1.87978E-13
 -1       238 1.97280E+01 1.67196E-01-2.96094E-03-5.77027E-01 7.87903E-14 1.66166E-13
 -1       239 2.05071E+01 6.85321E-02 1.52246E-03-9.14171E-01 6.87124E-15 1.18400E-13
 -1       240 2.14435E+01-3.41251E-02 4.35887E-03-9.50014E-01 1.05210E-13 6.86361E-14
 -1       241 2.22642E+01-9.71213E-02 4.20855E-03-7.43782E-01 9.95441E-14 4.62135E-14
 -1       242 2.28045E+01-1.11875E-01 2.09671E-03-4.28528E-01-6.53375E-14 5.10442E-16
 -1       243 2.30259E+01-9.41356E-02-8.02375E-05-1.22485E-01-2.05365E-14-4.75032E-14
 -1       244 2.29754E+01-6.38174E-02-1.40221E-03 1.10142E-01 6.65897E-14 7.70612E-14
 -1       245 2.27356E+01-3.44457E-02-1.77257E-03 2.53767E-01-1.88910E-14 4.86659E-14
 -1       246 2.23898E+01-1.19999E-02-1.50517E-03 3.20671E-01-9.11470E-14 5.50408E-14
 -1       247 2.20046E+01 2.57668E-03-9.79127E-04 3.32845E-01-7.73977E-14 9.74734E-14
 -1       248 2.16259E+01 1.06485E-02-4.50962E-04 3.11496E-01 6.80166E-14 3.79280E-14
 -1       249 2.12806E+01 1.41454E-02-3.90222E-05 2.72991E-01 1.86169E-13-3.68918E-14
 -1       250 2.09819E+01 1.47766E-02 2.30897E-04 2.28368E-01 1.36795E-13-1.11524E-13
 -1       251 2.07336E+01 1.38054E-02 3.77840E-04 1.84301E-01-2.22797E-13 1.05048E-14
 -1       252 2.05334E+01 1.20707E-02 4.34856E-04 1.44355E-01-1.36671E-13 1.33058E-13
 -1       253 2.03766E+01 1.00872E-02 4.33613E-04 1.10075E-01-3.69491E-14 1.76463E-13
 -1       254 2.02566E+01 8.14611E-03 3.98894E-04 8.17951E-02 1.03412E-14 2.05724E-13
 -1       255 2.01672E+01 6.39566E-03 3.48027E-04 5.91776E-02-1.58840E-14 2.05469E-13
 -1       256 2.01021E+01 4.89675E-03 2.92159E-04 4.15610E-02 4.85558E-14 5.15817E-14
 -1       257 2.00560E+01 3.65998E-03 2.37907E-04 2.81686E-02 1.08068E-13-1.29375E-13
 -1       258 2.00246E+01 2.66894E-03 1.88808E-04 1.82272E-02 1.11691E-14 2.11209E-14
 -1       259 2.00039E+01 1.89446E-03 1.46410E-04 1.10296E-02-1.51222E-13 1.73980E-13
 -1       260 1.99912E+01 1.30301E-03 1.11051E-04 5.96152E-03-2.11360E-14 1.49295E-13
 -1       261 1.99841E+01 8.61475E-04 8.23724E-05 2.50937E-03 7.63541E-14 1.83516E-13
 -1       262 1.99808E+01 5.39595E-04 5.96644E-05 2.55834E-04 3.32867E-13-1.25727E-13
 -1       263 1.99801E+01 3.11066E-04 4.20718E-05-1.12992E-03 2.66206E-14-1.97035E-13
 -1       264 1.99810E+01 1.53810E-04 2.87232E-05-1.90440E-03-2.10462E-13-1.86785E-13
 -1       265 1.99828E+01 4.97870E-05 1.88007E-05-2.26225E-03-7.45717E-14-8.86175E-14
 -1       266 1.99850E+01-1.54339E-05 1.15748E-05-2.34780E-03 5.48319E-14 2.02746E-13
 -1       267 1.99874E+01-5.32089E-05 6.41665E-06-2.26535E-03 7.81588E-14 1.65329E-13
 -1       268 1.99898E+01-7.23926E-05 2.79797E-06-2.08766E-03 4.30913E-14 1.14968E-13
 -1       269 1.99920E+01-7.99165E-05 2.91285E-07-1.86287E-03-8.78891E-14 1.03424E-13
 -1       270 1.99940E+01-8.14133E-05-1.42479E-06-1.61959E-03 2.01246E-13-3.91505E-14
 -1       271 1.99957E+01-8.15739E-05-2.41568E-06-1.37037E-03 1.02093E-13-3.51005E-13
 -1       272 1.99971E+01-8.46388E-05-2.35070E-06-1.11469E-03 3.74930E-13-9.21512E-14
 -1       273 1.99983E+01-9.53423E-05-8.00797E-07-8.39818E-04-8.31246E-14-2.61274E-13
 -1       274 1.99991E+01-1.19080E-04-6.98508E-07-5.24369E-04 2.36393E-14-2.71237E-13
 -1       275 1.99996E+01-1.21619E-04-4.85818E-06-1.76781E-04-2.51597E-13-1.90768E-13
 -1       276 1.99996E+01-4.21856E-04-3.44600E-06-3.80273E-04-8.36752E-14 4.71270E-13
 -1       277 1.99997E+01-1.01557E-03-1.29272E-06-7.10139E-04 1.46205E-13 2.41732E-13
 -1       278 1.99998E+01-1.78788E-03-5.57081E-07-9.04969E-04 3.18624E-13 8.84221E-14
 -1       279 1.99998E+01-2.63375E-03 5.30586E-07-9.39098E-04 2.19353E-13 2.20906E-13
 -1       280 1.99999E+01-3.42439E-03 2.24466E-06-8.35350E-04-1.59734E-13-6.78890E-13
 -1       281 1.99999E+01-4.08277E-03 3.74796E-06-6.19535E-04-8.56462E-15 9.18822E-15
 -1       282 1.99999E+01-4.51088E-03 4.78079E-06-3.27646E-04 4.95559E-14 1.87095E-13
 -1       283 1.99999E+01-4.65794E-03 5.13430E-06 2.47285E-06 2.75542E-13-1.54636E-13
 -1       284 1.99999E+01-4.50662E-03 4.77808E-06 3.32337E-04 1.60805E-13-3.91325E-13
 -1       285 1.99999E+01-4.07457E-03 3.74448E-06 6.23568E-04 7.62410E-14-7.57723E-13
 -1       286 1.99999E+01-3.42651E-03 2.15920E-06 8.35628E-04-1.84380E-13-5.71146E-13
 -1       287 1.99998E+01-2.62086E-03 5.41687E-07 9.40355E-04-3.62118E-13 4.52140E-13
 -1       288 1.99998E+01-1.77467E-03-6.90972E-07 9.03234E-04-2.24334E-13 7.25234E-13
 -1       289 1.99997E+01-1.01056E-03-3.38757E-06 7.01471E-04-3.29445E-14 1.51352E-13
 -1       290 1.99995E+01-5.59762E-04-4.09088E-06 6.05577E-04-4.09945E-14-5.18700E-13
 -1       291-6.13818E-01-9.60424E+00-7.97700E-01 1.51958E+00 7.70647E-13 8.05245E-13
 -1       292 2.96679E+00-8.06481E+00-7.28562E-01 3.73486E+00 1.00966E-12 4.28511E-13
 -1       293 9.82324E+00-4.77926E+00-4.59003E-01 5.82835E+00 1.05288E-12 5.28147E-13
 -1       294 1.89040E+01-1.11939E+00-9.08775E-02 7.22787E+00 8.67112E-13 6.68798E-13
 -1       295 2.95257E+01 1.19035E+00 2.10062E-01 6.14832E+00 6.20282E-13 4.68237E-13
 -1       296 3.87614E+01 5.11335E+00 7.14844E-01 6.32690E+00 6.76913E-13 5.49144E-13
 -1       297 4.30976E+01 6.79619E+00 7.26520E-01 2.21021E+00 7.28861E-13-1.16268E-13
 -1       298 4.67489E+01 6.67036E+00 1.00985E+00-9.06170E-01 7.46597E-13-3.73930E-13
 -1       299 4.19861E+01 6.05479E+00 7.16741E-01-3.68248E+00 8.87956E-13-7.20812E-13
 -1       300 3.45184E+01 3.36609E+00 3.74402E-01-5.32680E+00 8.95877E-13-7.38853E-13
 -1       301 2.46206E+01 1.02724E+00 1.17448E-01-7.56546E+00 1.00298E-12-1.20956E-12
 -1       302 1.40984E+01-2.18482E+00-3.07594E-01-6.67953E+00 9.95759E-13-1.20665E-12
 -1       303 6.41883E+00-5.89568E+00-5.56079E-01-5.11203E+00 6.92030E-13-9.18804E-13
 -1       304 7.83002E-01-8.65758E+00-8.11786E-01-2.59555E+00 4.20303E-13-7.57283E-13
 -1       305-1.19358E+00-1.03117E+01-9.85346E-01-2.77570E-01 1.75450E-14-6.39766E-13
 -1       306 4.57050E-01-8.61182E+00-7.83195E-01 2.25775E+00-3.20549E-13-6.68368E-13
 -1       307 5.34948E+00-6.59535E+00-6.65323E-01 4.42044E+00-6.77153E-13-8.35802E-13
 -1       308 1.25985E+01-3.20374E+00-4.05858E-01 6.20089E+00-9.31588E-13-1.00571E-12
 -1       309 2.25998E+01-1.17950E-01 7.97915E-03 7.30255E+00-9.00474E-13-8.82794E-13
 -1       310 3.29669E+01 2.13265E+00 2.98553E-01 5.41876E+00-8.55635E-13-4.24188E-13
 -1       311 4.20241E+01 5.50128E+00 8.44163E-01 5.22137E+00-7.88224E-13-3.20105E-13
 -1       312 4.61848E+01 6.75612E+00 9.84474E-01 1.78989E+00-6.68993E-13 7.65360E-14
 -1       313 4.43596E+01 7.05164E+00 7.83264E-01-1.38747E+00-7.60891E-13 2.92072E-13
 -1       314 4.12461E+01 5.32991E+00 8.28970E-01-5.55415E+00-7.71896E-13 8.32612E-13
 -1       315 3.15816E+01 2.34481E+00 3.52979E-01-6.60772E+00-9.20333E-13 8.31862E-13
 -1       316 1.99062E+01-5.29270E-01-7.45239E-02-7.25637E+00-1.05482E-12 1.05815E-12
 -1       317 1.05191E+01-5.03599E+00-4.43159E-01-5.87293E+00-6.40404E-13 1.00601E-12
 -1       318 2.71285E+00-8.50069E+00-8.19375E-01-3.24955E+00-3.82722E-13 9.87106E-13
 -1       319-8.29168E-01-1.02346E+01-9.11211E-01-1.10298E+00 3.19647E-13 1.05393E-12
 -1       320 2.14958E+01 2.98569E+00-2.14142E-02-8.35473E-01-2.61206E-13-9.20644E-14
 -1       321 2.33512E+01 2.12101E+00-1.93112E-02-1.25903E+00-3.05922E-13 1.38018E-13
 -1       322 1.82337E+01 3.96360E+00-1.19799E-02-6.22738E-02-1.32102E-13-3.14397E-13
 -1       323 1.69236E+01 4.32336E+00-6.94485E-03 5.15597E-02-7.85339E-14-3.69284E-13
 -1       324 1.60371E+01 4.55954E+00-4.08251E-03-3.63153E-02-1.43835E-14-3.86573E-13
 -1       325 1.57151E+01 4.61621E+00-3.05711E-03-2.36831E-01 4.22607E-14-4.07192E-13
 -1       326 1.59933E+01 4.47916E+00-4.03887E-03-4.12468E-01 7.39698E-14-3.95609E-13
 -1       327 1.67757E+01 4.19796E+00-6.63282E-03-4.35629E-01 1.21698E-13-3.63750E-13
 -1       328 1.78598E+01 3.86172E+00-1.03410E-02-2.48961E-01 1.64361E-13-3.08717E-13
 -1       329 1.91058E+01 3.52074E+00-1.49504E-02 1.40589E-01 2.35578E-13-2.06741E-13
 -1       330 2.03892E+01 3.17756E+00-2.05034E-02 6.66503E-01 2.94808E-13-8.84206E-14
 -1       331 2.17137E+01 2.73600E+00-2.54802E-02 1.22637E+00 3.43956E-13 6.97090E-14
 -1       332 2.30926E+01 1.97193E+00-3.43481E-02 1.60375E+00 3.53651E-13 3.71115E-13
 -1       333 2.39003E+01 1.07009E+00-2.60781E-02 1.33263E+00 3.13527E-13 6.23478E-13
 -1       334 2.34219E+01 3.25094E-01 5.72888E-03 4.91266E-01 2.53434E-13 5.21341E-13
 -1       335 2.37322E+01 4.92170E-01 9.76685E-03-5.74274E-02-2.28649E-13 2.09654E-13
 -1       336 2.37168E+01-3.07051E-03 2.25503E-03 2.95424E-01-1.38867E-13 1.97936E-13
 -1       337 2.38964E+01-4.19601E-01-2.95283E-03 1.79300E-01-8.57989E-14 2.02671E-13
 -1       338 2.41521E+01-7.72908E-01-5.92707E-03-3.48084E-01-5.45471E-14 1.93595E-13
 -1       339 2.43199E+01-9.04499E-01-6.65856E-03-1.17507E+00-5.98438E-14 2.61228E-13
 -1       340 2.42057E+01-5.63115E-01-5.73397E-03-1.97834E+00-1.35457E-13 2.75761E-13
 -1       341 2.37328E+01 3.27527E-01-6.26706E-03-2.19664E+00-2.22124E-13 2.12352E-13
 -1       342 2.31268E+01 1.37844E+00-9.82980E-03-1.38256E+00-3.02888E-13 1.09741E-13
 -1       343 2.29000E+01 1.77108E+00-1.40250E-02 2.67077E-01-3.07341E-13-1.38735E-13
 -1       344 2.32694E+01 1.16181E+00-1.07305E-02 1.79115E+00-1.89733E-13-2.02690E-13
 -1       345 2.38950E+01 7.34439E-02-7.39811E-03 2.34603E+00-1.14196E-13-2.49307E-13
 -1       346 2.42873E+01-7.34689E-01-5.47685E-03 1.89680E+00 2.71584E-14-2.15285E-13
 -1       347 2.42721E+01-9.84426E-01-7.56707E-03 9.66476E-01 6.11364E-14-2.48592E-13
 -1       348 2.39505E+01-8.28469E-01-7.78148E-03 5.80938E-02 9.76151E-14-2.97657E-13
 -1       349 2.34835E+01-5.27209E-01-6.31356E-03-5.88001E-01-1.92056E-15-2.51146E-13
 -1       350 2.29810E+01-2.48043E-01-3.97419E-03-9.41595E-01-3.64734E-14-2.87760E-13
 -1       351 2.24970E+01-5.12587E-02-1.78465E-03-1.06636E+00-8.20879E-14-2.68617E-13
 -1       352 2.20540E+01 6.35961E-02-1.91861E-04-1.04382E+00-1.22837E-13-2.04255E-13
 -1       353 2.16611E+01 1.18014E-01 7.56552E-04-9.41453E-01 6.32187E-14-1.62064E-13
 -1       354 2.13209E+01 1.34532E-01 1.19972E-03-8.05546E-01 1.45738E-13-9.13666E-14
 -1       355 2.10328E+01 1.30145E-01 1.31833E-03-6.64139E-01-1.93272E-14 6.33484E-14
 -1       356 2.07937E+01 1.15841E-01 1.25452E-03-5.32313E-01 5.00000E-14-8.05846E-14
 -1       357 2.05992E+01 9.80457E-02 1.10453E-03-4.16907E-01 1.44731E-13-2.17907E-13
 -1       358 2.04439E+01 8.02005E-02 9.26263E-04-3.19939E-01-7.59512E-14-1.59243E-13
 -1       359 2.03220E+01 6.39538E-02 7.50981E-04-2.40839E-01-1.68780E-13-1.17182E-13
 -1       360 2.02281E+01 4.99482E-02 5.93486E-04-1.77793E-01-6.25110E-14-1.75296E-13
 -1       361 2.01569E+01 3.82940E-02 4.59190E-04-1.28525E-01 6.99565E-14-8.22737E-14
 -1       362 2.01041E+01 2.88408E-02 3.48562E-04-9.07123E-02 7.56827E-16-1.63305E-13
 -1       363 2.00656E+01 2.13276E-02 2.59703E-04-6.22004E-02-1.43984E-13-2.37777E-13
 -1       364 2.00382E+01 1.54613E-02 1.89767E-04-4.10912E-02-1.78493E-13-1.21533E-13
 -1       365 2.00193E+01 1.09567E-02 1.35704E-04-2.57710E-02-6.93284E-14 1.34494E-14
 -1       366 2.00067E+01 7.55532E-03 9.46217E-05-1.49025E-02-1.06908E-13-2.06910E-14
 -1       367 1.99987E+01 5.03217E-03 6.39453E-05-7.39976E-03 7.15191E-14-1.54149E-13
 -1       368 1.99939E+01 3.19693E-03 4.14667E-05-2.39626E-03-1.05980E-13-2.54070E-13
 -1       369 1.99915E+01 1.89202E-03 2.53421E-05 7.87754E-04 1.69148E-13-6.13700E-14
 -1       370 1.99906E+01 9.89260E-04 1.40616E-05 2.67698E-03 4.89814E-13-1.19805E-13
 -1       371 1.99907E+01 3.85954E-04 6.40847E-06 3.66955E-03 8.29072E-14-5.69579E-14
 -1       372 1.99914E+01 8.86476E-07 1.41461E-06 4.06186E-03 1.78258E-14 3.77757E-13
 -1       373 1.99924E+01-2.29499E-04-1.68327E-06 4.06955E-03-1.07111E-13 2.54464E-13
 -1       374 1.99935E+01-3.54660E-04-3.48512E-06 3.84486E-03-2.53537E-14 9.28635E-14
 -1       375 1.99947E+01-4.13223E-04-4.46223E-06 3.49045E-03 2.45131E-13 2.02633E-13
 -1       376 1.99959E+01-4.35913E-04-4.97942E-06 3.07008E-03 2.25457E-13 3.81124E-13
 -1       377 1.99969E+01-4.47879E-04-5.27810E-06 2.61686E-03 1.73811E-13 2.15882E-13
 -1       378 1.99978E+01-4.69846E-04-5.46668E-06 2.14031E-03-1.80772E-13 2.02915E-13
 -1       379 1.99985E+01-5.18174E-04-6.64786E-06 1.63417E-03-1.04295E-13 8.67603E-14
 -1       380 1.99991E+01-5.45997E-04-5.61048E-06 1.12746E-03-3.83481E-14-1.26036E-13
 -1       381 2.31163E+01 2.70700E-03 6.98417E-03 2.12121E-01 1.78121E-13 4.56340E-13
 -1       382 2.29223E+01-1.86473E-01 1.52580E-03 2.89815E-01 1.42300E-13 3.94714E-13
 -1       383 2.27179E+01-2.97477E-01-1.53812E-03 5.93869E-01 7.38127E-14 3.33013E-13
 -1       384 2.23910E+01-2.95809E-01-1.67432E-03 9.92302E-01 7.20108E-14 3.00637E-13
 -1       385 2.18975E+01-1.38039E-01-1.51989E-05 1.29595E+00 7.03159E-14 2.91404E-13
 -1       386 2.12986E+01 1.63863E-01 2.00608E-03 1.28885E+00 1.52743E-13 2.94040E-13
 -1       387 2.07736E+01 4.92083E-01 3.56745E-03 8.36673E-01 1.69800E-13 1.47630E-13
 -1       388 2.05550E+01 6.53540E-01 5.08534E-03 3.00178E-02 3.57344E-14 1.50686E-13
 -1       389 2.07552E+01 5.46963E-01 5.63111E-03-8.11836E-01 9.45823E-14 9.56726E-14
 -1       390 2.12846E+01 2.37350E-01 4.57848E-03-1.34808E+00 7.70608E-14 9.01406E-15
 -1       391 2.19119E+01-9.61744E-02 1.92282E-03-1.42312E+00 1.41277E-13-8.75706E-14
 -1       392 2.24191E+01-3.08299E-01-1.49920E-03-1.11981E+00 7.90160E-14 4.22707E-14
 -1       393 2.26979E+01-3.64562E-01-4.16252E-03-6.42097E-01 1.87211E-14-4.82016E-14
 -1       394 2.27460E+01-3.12406E-01-4.89954E-03-1.72214E-01-1.28758E-14-8.61164E-14
 -1       395 2.26137E+01-2.15635E-01-4.29034E-03 1.89811E-01-2.72703E-14-3.25092E-14
 -1       396 2.23647E+01-1.19127E-01-3.03379E-03 4.17434E-01 4.09457E-14 4.10861E-14
 -1       397 2.20558E+01-4.37607E-02-1.68329E-03 5.26887E-01-8.42264E-14-1.97984E-14
 -1       398 2.17295E+01 6.24555E-03-5.75803E-04 5.50191E-01-7.15731E-15-5.34728E-14
 -1       399 2.14147E+01 3.46810E-02 1.85903E-04 5.19247E-01 4.37524E-14-2.12274E-13
 -1       400 2.11285E+01 4.75873E-02 6.29536E-04 4.59354E-01 1.86969E-13-1.21516E-13
 -1       401 2.08793E+01 5.05405E-02 8.32542E-04 3.88084E-01 1.12421E-13-1.19685E-14
 -1       402 2.06698E+01 4.77748E-02 8.75683E-04 3.16419E-01-2.85127E-13 6.11681E-14
 -1       403 2.04985E+01 4.21702E-02 8.24770E-04 2.50491E-01-2.18072E-13 3.14775E-14
 -1       404 2.03619E+01 3.55335E-02 7.26560E-04 1.93175E-01 2.61404E-15-1.20607E-13
 -1       405 2.02555E+01 2.89150E-02 6.11203E-04 1.45320E-01 1.45572E-14 5.15876E-14
 -1       406 2.01744E+01 2.28681E-02 4.96502E-04 1.06606E-01 7.52329E-14-1.77664E-14
 -1       407 2.01140E+01 1.76372E-02 3.91910E-04 7.61074E-02 9.16789E-14 8.00734E-14
 -1       408 2.00701E+01 1.32836E-02 3.01593E-04 5.26511E-02 4.29302E-14 2.24102E-13
 -1       409 2.00390E+01 9.76786E-03 2.26567E-04 3.50226E-02 5.42977E-15 2.84255E-13
 -1       410 2.00177E+01 7.00004E-03 1.66104E-04 2.20830E-02-1.02198E-13 5.87741E-14
 -1       411 2.00036E+01 4.87084E-03 1.18612E-04 1.28252E-02-5.02637E-14 3.90231E-15
 -1       412 1.99949E+01 3.26921E-03 8.21704E-05 6.39411E-03 5.55829E-14-4.96183E-14
 -1       413 1.99900E+01 2.09190E-03 5.48361E-05 2.08586E-03 3.24519E-13 9.28843E-14
 -1       414 1.99877E+01 1.24802E-03 3.48078E-05-6.64317E-04 1.07211E-13 1.99958E-13
 -1       415 1.99871E+01 6.60503E-04 2.05030E-05-2.29933E-03-2.15739E-13 1.91058E-13
 -1       416 1.99876E+01 2.65842E-04 1.05813E-05-3.15912E-03-1.28131E-13 3.04060E-14
 -1       417 1.99888E+01 1.28602E-05 3.93710E-06-3.49883E-03-1.92868E-13 5.59493E-14
 -1       418 1.99902E+01-1.38988E-04-3.24483E-07-3.50531E-03 1.31858E-13 2.04492E-13
 -1       419 1.99918E+01-2.21482E-04-2.91892E-06-3.31116E-03 1.36628E-14 2.72719E-13
 -1       420 1.99934E+01-2.59514E-04-4.41574E-06-3.00628E-03 5.89398E-14 2.20534E-13
 -1       421 1.99949E+01-2.72962E-04-5.26520E-06-2.64696E-03 2.11007E-13 2.81162E-13
 -1       422 1.99962E+01-2.78408E-04-5.77254E-06-2.26238E-03 5.97601E-14 3.59742E-13
 -1       423 1.99973E+01-2.88246E-04-5.70992E-06-1.86020E-03 7.26606E-14 5.73861E-13
 -1       424 1.99982E+01-3.15461E-04-5.26670E-06-1.43252E-03 2.24246E-13 7.71606E-13
 -1       425 1.99990E+01-3.61195E-04-4.66020E-06-9.65313E-04-8.77078E-14 4.98986E-13
 -1       426 1.99993E+01-4.11646E-04-3.60750E-06-6.79496E-04-8.59356E-14 5.64051E-13
 -1       427 1.99998E+01-2.02925E-03-6.12626E-07-1.60529E-03 5.41319E-14-2.11250E-14
 -1       428 1.99995E+01-1.35363E-03-3.72730E-06-1.45531E-03 1.64749E-13 2.16888E-13
 -1       429 1.99994E+01-8.55457E-04-5.22000E-06-1.11250E-03-2.98563E-14 5.40965E-13
 -1       430 2.00000E+01-2.66849E-03 1.38250E-06-1.52516E-03-1.37334E-13-6.34962E-13
 -1       431 2.00001E+01-3.22860E-03 3.17093E-06-1.24229E-03-1.07553E-14-4.04108E-13
 -1       432 2.00003E+01-3.63750E-03 4.43216E-06-8.06590E-04 1.62679E-13 2.84400E-13
 -1       433 2.00003E+01-3.85249E-03 5.08178E-06-2.76753E-04-2.66107E-13-2.67670E-13
 -1       434 2.00003E+01-3.85112E-03 5.07864E-06 2.84648E-04-1.50778E-13-2.37735E-13
 -1       435 2.00003E+01-3.63338E-03 4.41197E-06 8.13824E-04 2.83093E-14-6.93916E-13
 -1       436 2.00001E+01-3.23053E-03 3.12899E-06 1.24185E-03 6.95415E-15-8.81491E-13
 -1       437 2.00000E+01-2.67073E-03 1.43818E-06 1.52561E-03 1.55958E-13 2.79740E-13
 -1       438 1.99998E+01-2.01892E-03-6.85455E-07 1.60688E-03 1.71319E-13 3.91468E-13
 -1       439 1.99995E+01-1.34270E-03-3.71341E-06 1.46022E-03-1.64218E-13 6.17867E-13
 -1       440 1.10782E+01-5.22446E+00 2.90423E-03 7.08803E+00 8.60978E-14 1.28356E-13
 -1       441 1.94951E+00-3.25645E+00 6.30280E-02-3.19214E-02 9.03696E-14 1.22825E-12
 -1       442 4.03709E+00-4.62510E+00-3.83998E-02 4.64730E+00 1.67838E-13 2.07931E-13
 -1       443 1.88760E+01-5.21581E+00-2.42016E-02 6.74531E+00 3.08864E-13 8.02414E-14
 -1       444 2.61213E+01-3.48740E+00-3.73568E-03 4.58212E+00 2.99094E-13 7.48429E-14
 -1       445 1.97973E+01 3.52966E+00-1.62692E-02-3.91707E-01-2.03414E-13-2.40114E-13
 -1       446 3.47260E+01 5.10549E+00 1.89339E-02 1.47831E-01 6.48800E-13-2.70631E-13
 -1       447 3.48855E+01 8.03992E+00-2.49578E-02-6.93672E-02 8.02608E-13-2.32040E-13
 -1       448 3.50603E+01 7.41859E+00 1.51964E-02 3.59546E-01 8.54955E-13-1.79370E-13
 -1       449 3.30559E+01 3.60404E+00-5.46334E-02 4.81994E-01 6.41424E-13-6.98053E-14
 -1       450 2.96414E+01-1.54696E+00-2.59607E-02-2.50329E+00 3.36207E-13-7.80903E-14
 -1       451 2.30880E+01-3.97896E+00-2.37011E-02-5.81173E+00 1.97495E-13-4.88096E-13
 -1       452 1.59754E+01-4.94909E+00 1.34721E-02-7.17575E+00 4.98213E-15-6.34514E-13
 -1       453 6.53986E+00-4.51879E+00-7.14920E-02-5.95854E+00 9.45494E-14-7.77503E-13
 -1       454 1.83650E+00-3.82387E+00-7.94647E-02-2.49037E+00 6.08125E-14-8.04939E-13
 -1       455 1.37062E+00-3.89674E+00-9.49272E-02 1.42456E+00 6.85042E-14-7.27224E-13
 -1       456 6.15096E+00-4.61638E+00-7.27620E-02 5.55535E+00 8.21565E-15-6.93237E-13
 -1       457 1.41823E+01-5.19047E+00-3.28255E-02 6.97947E+00-3.16969E-14-5.23607E-13
 -1       458 2.17421E+01-4.67163E+00-3.26895E-02 6.00153E+00-1.79357E-13-3.80446E-13
 -1       459 2.87525E+01-2.51308E+00-6.85166E-03 3.36291E+00-4.07223E-13-1.99840E-14
 -1       460 3.40273E+01 2.78588E+00 3.40269E-02 4.19162E-01-7.36612E-13 1.69170E-13
 -1       461 3.61379E+01 6.23101E+00 9.41194E-02-1.99982E-01-8.39231E-13 1.60094E-13
 -1       462 3.59979E+01 7.97066E+00 2.53853E-02-8.38610E-02-6.64302E-13 2.05952E-13
 -1       463 3.49057E+01 5.68115E+00-2.64842E-02 6.07916E-01-6.60333E-13 5.19584E-14
 -1       464 3.35373E+01 1.87248E+00 4.77867E-02-4.91210E-01-5.59844E-13 1.36974E-14
 -1       465 2.77743E+01-3.03008E+00-1.88144E-02-3.94456E+00-3.10446E-13 2.03060E-13
 -1       466 2.06444E+01-5.40730E+00 3.51845E-03-6.25605E+00 3.87745E-14 3.12320E-13
 -1       467 1.06126E+01-5.44608E+00-3.72859E-02-6.80502E+00 2.36977E-13 7.33434E-13
 -1       468 4.38797E+00-4.71905E+00-2.82891E-02-4.63590E+00 1.93040E-13 1.03872E-12
 -1       469 3.19866E+01 1.10825E+00-6.63106E-03 1.27470E+00 4.49963E-13-1.25872E-13
 -1       470 2.90611E+01-2.47875E+00-4.61803E-02 1.31086E+00 2.45954E-13-1.60656E-13
 -1       471 3.07543E+01-8.61911E-01-6.85182E-02-3.00890E-02-4.35513E-13 3.00038E-13
 -1       472 3.12944E+01 6.54568E+00-1.27383E-01-1.26635E+00 6.37934E-13-3.13048E-13
 -1       473 3.14894E+01 6.74015E+00-1.40070E-01 1.20756E+00-6.23904E-13 3.39832E-14
 -1       474 2.28668E+01 4.11707E-01 1.87486E-03 4.59543E-01 2.29247E-13 2.43229E-13
 -1       475 1.62648E+01 3.90187E+00-1.63050E-03 3.12717E-01-2.73872E-14-3.37074E-13
 -1       476 1.75981E+01 3.39589E+00-3.20943E-03 4.39010E-01-7.01720E-14-3.08724E-13
 -1       477 1.55370E+01 4.11357E+00-9.32444E-04-4.94180E-01 3.90756E-14-3.69889E-13
 -1       478 1.62613E+01 3.76074E+00-1.67672E-03-7.75543E-01 8.20605E-14-3.56474E-13
 -1       479 1.74403E+01 3.25337E+00-3.26876E-03-7.63361E-01 1.21675E-13-2.94618E-13
 -1       480 1.88318E+01 2.71553E+00-5.16296E-03-4.59318E-01 1.76147E-13-2.07737E-13
 -1       481 2.02094E+01 2.22655E+00-6.36291E-03 2.55122E-02 2.21341E-13-1.20789E-13
 -1       482 2.15019E+01 1.74307E+00-6.15187E-03 5.30315E-01 2.64555E-13 8.63177E-15
 -1       483 2.28740E+01-1.47767E-01 1.88650E-03 2.86116E-01 1.81763E-13 2.32575E-13
 -1       484 2.26510E+01 5.85094E-01 3.57021E-04 2.89702E-01-1.64188E-13 3.22402E-14
 -1       485 2.37907E+01-5.26891E+00 1.96611E-02 4.67353E+00 3.17524E-14-1.07065E-13
 -1       486 2.29986E+01-2.48212E-01-3.83790E-04 5.67315E-01-9.24183E-14 7.80341E-14
 -1       487 2.35865E+01-1.03838E+00-3.25974E-03 3.85417E-01-3.26689E-14 1.52917E-13
 -1       488 2.43990E+01-1.65779E+00-4.18286E-03-2.96313E-01-1.45184E-14 1.80039E-13
 -1       489 2.52076E+01-1.68001E+00-1.02063E-02-1.39330E+00-5.93873E-14 1.75900E-13
 -1       490 2.55993E+01-6.02441E-01-1.20827E-02-2.43626E+00-1.99679E-13 2.47221E-13
 -1       491 2.52046E+01 1.60318E+00-7.21898E-02-2.47643E+00-3.75236E-13 1.55819E-13
 -1       492 2.47893E+01 3.35692E+00-7.69758E-02-8.44022E-01-4.83089E-13 1.38223E-14
 -1       493 2.48595E+01 3.08068E+00-6.62674E-02 1.43767E+00-3.35704E-13-4.68320E-14
 -1       494 2.53813E+01 1.08981E+00-3.58309E-02 2.71297E+00-1.98782E-13-2.42669E-13
 -1       495 2.55062E+01-1.01242E+00-1.65650E-02 2.30715E+00 1.81593E-14-1.28026E-13
 -1       496 2.49329E+01-1.90186E+00-8.80556E-03 1.10773E+00 3.57055E-14-1.22497E-13
 -1       497 2.40054E+01-1.78872E+00-4.57562E-03-6.94871E-02 5.26542E-14-1.57109E-13
 -1       498 2.30844E+01-1.23671E+00-3.54458E-03-8.74380E-01 5.67740E-14-1.84008E-13
 -1       499 2.23434E+01-6.55499E-01-2.41626E-03-1.29664E+00-3.83831E-14-1.03041E-13
 -1       500 2.17982E+01-2.14359E-01-1.25844E-03-1.43905E+00-5.35045E-14-4.50894E-14
 -1       501 2.14044E+01 6.25988E-02-3.37808E-04-1.40680E+00-1.33683E-13-7.36197E-14
 -1       502 2.11130E+01 2.08630E-01 2.39438E-04-1.27924E+00 2.69294E-14 8.21671E-14
 -1       503 2.08881E+01 2.67045E-01 5.09926E-04-1.10920E+00 1.14748E-13-4.60143E-15
 -1       504 2.07081E+01 2.73528E-01 5.98612E-04-9.29207E-01 9.84756E-14-9.60455E-14
 -1       505 2.05606E+01 2.52714E-01 5.85561E-04-7.57820E-01 4.87096E-14-4.05340E-14
 -1       506 2.04389E+01 2.19951E-01 5.23129E-04-6.04409E-01-1.43291E-14-1.18543E-14
 -1       507 2.03388E+01 1.84059E-01 4.42633E-04-4.72649E-01-3.76661E-15-1.93664E-13
 -1       508 2.02574E+01 1.49694E-01 3.61068E-04-3.62859E-01-1.57714E-13-2.11047E-13
 -1       509 2.01920E+01 1.19030E-01 2.86671E-04-2.73546E-01-5.26015E-14-7.29267E-14
 -1       510 2.01404E+01 9.28344E-02 2.22673E-04-2.02350E-01 4.50405E-14-2.75726E-14
 -1       511 2.01002E+01 7.11220E-02 1.69645E-04-1.46626E-01 2.81692E-14-1.03324E-13
 -1       512 2.00696E+01 5.35369E-02 1.26867E-04-1.03763E-01-1.50346E-13-1.49708E-13
 -1       513 2.00467E+01 3.95670E-02 9.30770E-05-7.13613E-02-1.60985E-13-7.66415E-14
 -1       514 2.00299E+01 2.86603E-02 6.68689E-05-4.73102E-02-1.46343E-13 7.15595E-14
 -1       515 2.00178E+01 2.02865E-02 4.68867E-05-2.98088E-02-1.66094E-13-7.57709E-14
 -1       516 2.00094E+01 1.39654E-02 3.19121E-05-1.73585E-02-8.45989E-14 6.19202E-14
 -1       517 2.00037E+01 9.27942E-03 2.08951E-05-8.73716E-03-1.12920E-14-6.15570E-14
 -1       518 2.00000E+01 5.87439E-03 1.29552E-05-2.96634E-03 1.62436E-13 3.28467E-13
 -1       519 1.99978E+01 3.45671E-03 7.36965E-06 7.24233E-04 2.69050E-13 3.68987E-13
 -1       520 1.99967E+01 1.78710E-03 3.55476E-06 2.93063E-03 2.27440E-13 1.50744E-13
 -1       521 1.99962E+01 6.73572E-04 1.04604E-06 4.10597E-03 2.29007E-13 3.01006E-13
 -1       522 1.99962E+01-3.60141E-05-5.22901E-07 4.58793E-03 1.72868E-16 2.07542E-13
 -1       523 1.99964E+01-4.61009E-04-1.43897E-06 4.62220E-03-1.81328E-13 3.59338E-13
 -1       524 1.99968E+01-6.94617E-04-1.92943E-06 4.38199E-03-6.30595E-14 1.53245E-13
 -1       525 1.99973E+01-8.09887E-04-2.17430E-06 3.98378E-03 2.46033E-13 3.49836E-14
 -1       526 1.99978E+01-8.64853E-04-2.32703E-06 3.49999E-03 1.75354E-13 2.87568E-13
 -1       527 1.99983E+01-9.04960E-04-2.35366E-06 2.96889E-03 6.15975E-14 1.63258E-13
 -1       528 1.99987E+01-9.65610E-04-2.68354E-06 2.40425E-03-1.95441E-13 1.11708E-13
 -1       529 2.30497E+01-7.15041E-01-2.70170E-03 9.28322E-01 9.31548E-14 2.35095E-13
 -1       530 2.30094E+01-5.64853E-01-2.07893E-03 1.45429E+00 8.42260E-14 2.51503E-13
 -1       531 2.27585E+01-2.36173E-02-8.57369E-04 1.75985E+00 1.14135E-13 2.11741E-13
 -1       532 2.23254E+01 7.93781E-01-1.24616E-03 1.52982E+00 1.68778E-13 2.47258E-13
 -1       533 2.19576E+01 1.45460E+00 4.18143E-04 6.41156E-01 1.29501E-13 2.56353E-13
 -1       534 2.19193E+01 1.50981E+00-4.57608E-04-5.70461E-01 1.76252E-13 9.62279E-14
 -1       535 2.22390E+01 9.27168E-01-4.91584E-05-1.54395E+00 1.88592E-13-8.72673E-14
 -1       536 2.26642E+01 8.58503E-02 9.25949E-04-1.87391E+00 1.45185E-13-1.20487E-13
 -1       537 2.29268E+01-5.77026E-01-4.81592E-04-1.58083E+00-2.49126E-14-1.51870E-13
 -1       538 2.29193E+01-8.55240E-01-3.02555E-03-9.57679E-01 6.21724E-14-2.00610E-14
 -1       539 2.27047E+01-8.16076E-01-3.58142E-03-2.99560E-01-3.71389E-14 8.97503E-16
 -1       540 2.23841E+01-6.14101E-01-3.20022E-03 2.28342E-01-5.34478E-14-1.04796E-13
 -1       541 2.20358E+01-3.76841E-01-2.37804E-03 5.74721E-01-5.36355E-15-1.28101E-14
 -1       542 2.17031E+01-1.74140E-01-1.39274E-03 7.54751E-01-3.32943E-14-1.18009E-14
 -1       543 2.14035E+01-2.92330E-02-5.60208E-04 8.09308E-01-6.25989E-14 7.87876E-15
 -1       544 2.11414E+01 6.05132E-02 2.10511E-05 7.81208E-01 1.21707E-13 3.55218E-14
 -1       545 2.09159E+01 1.07425E-01 3.67012E-04 7.05695E-01 5.48576E-14-8.64384E-14
 -1       546 2.07247E+01 1.24995E-01 5.35200E-04 6.08311E-01-7.45668E-15 1.05727E-13
 -1       547 2.05647E+01 1.24422E-01 5.83518E-04 5.05884E-01-3.30513E-14 2.80576E-13
 -1       548 2.04328E+01 1.13833E-01 5.59811E-04 4.08514E-01-6.84398E-14-1.18564E-13
 -1       549 2.03259E+01 9.86377E-02 4.98589E-04 3.21543E-01 4.81809E-15-3.25893E-13
 -1       550 2.02405E+01 8.21868E-02 4.22424E-04 2.47172E-01-7.27083E-14-3.51448E-13
 -1       551 2.01736E+01 6.64010E-02 3.44837E-04 1.85662E-01 2.94361E-14-3.11615E-13
 -1       552 2.01220E+01 5.22635E-02 2.73165E-04 1.36165E-01 3.51184E-15-2.19834E-13
 -1       553 2.00831E+01 4.01723E-02 2.10786E-04 9.72821E-02-6.67775E-14-2.14392E-13
 -1       554 2.00542E+01 3.01792E-02 1.58699E-04 6.74131E-02 9.92490E-14-1.09210E-13
 -1       555 2.00332E+01 2.21458E-02 1.16569E-04 4.49670E-02 6.08636E-15-1.78886E-13
 -1       556 2.00184E+01 1.58413E-02 8.33864E-05 2.84787E-02-6.24385E-14 7.18118E-15
 -1       557 2.00083E+01 1.10028E-02 5.78692E-05 1.66639E-02 5.69301E-14 2.20845E-13
 -1       558 2.00017E+01 7.37007E-03 3.86930E-05 8.43739E-03 6.85989E-14 1.94875E-13
 -1       559 1.99975E+01 4.70422E-03 2.46183E-05 2.90734E-03 2.95832E-14 4.02679E-13
 -1       560 1.99952E+01 2.79642E-03 1.45495E-05-6.41053E-04 7.85995E-14 4.64244E-13
 -1       561 1.99941E+01 1.47029E-03 7.55588E-06-2.76840E-03-1.56580E-13 3.19713E-13
 -1       562 1.99939E+01 5.80725E-04 2.86916E-06-3.90502E-03-1.41887E-13 4.76290E-13
 -1       563 1.99942E+01 1.08236E-05-1.31356E-07-4.37394E-03-7.17114E-14 2.81436E-13
 -1       564 1.99947E+01-3.32178E-04-1.94050E-06-4.41151E-03 8.52920E-15 3.96394E-13
 -1       565 1.99955E+01-5.21237E-04-2.94711E-06-4.18510E-03 1.05513E-13 3.13002E-13
 -1       566 1.99962E+01-6.13762E-04-3.45056E-06-3.80766E-03 1.90070E-13 1.86590E-13
 -1       567 1.99970E+01-6.55127E-04-3.84397E-06-3.35009E-03-2.14357E-14 5.04253E-13
 -1       568 1.99977E+01-6.85406E-04-5.17798E-06-2.85389E-03-9.18011E-14 4.70775E-13
 -1       569 1.99983E+01-7.29827E-04-5.57869E-06-2.32575E-03-5.03626E-14 6.42517E-13
 -1       570 1.99989E+01-7.96992E-04-4.04786E-06-1.75772E-03 1.42755E-13 7.38404E-13
 -1       571 2.00004E+01-2.65919E-03 1.06434E-06-1.85515E-03 3.39865E-13-3.92596E-13
 -1       572 2.00007E+01-3.06098E-03 1.82172E-06-1.36439E-03 3.19316E-13-8.13801E-14
 -1       573 1.99995E+01-1.56304E-03-9.95916E-07-2.13733E-03 3.05162E-14-7.96797E-14
 -1       574 2.00000E+01-2.14290E-03-1.09577E-06-2.12051E-03-1.89404E-14-1.06172E-13
 -1       575 2.00008E+01-3.31596E-03 2.18843E-06-7.19287E-04-2.16550E-13-4.03426E-13
 -1       576 2.00009E+01-3.40277E-03 2.32310E-06 4.86520E-06-3.19741E-13-2.83569E-14
 -1       577 2.00008E+01-3.31444E-03 2.14035E-06 7.28717E-04-3.09545E-13-7.75592E-14
 -1       578 2.00007E+01-3.06385E-03 1.67521E-06 1.36315E-03-5.65203E-15-9.08082E-13
 -1       579 2.00004E+01-2.66143E-03 1.16611E-06 1.85519E-03 1.53736E-13-4.11922E-13
 -1       580 2.00000E+01-2.14128E-03 6.63463E-07 2.12750E-03 1.26665E-13 3.83941E-13
 -1       581 1.99995E+01-1.55280E-03-1.45941E-06 2.12208E-03-8.81610E-14 4.32814E-13
 -1       582 5.44065E+00-1.64461E+00 1.58718E-01 2.98008E+00-1.41619E-13 4.93397E-13
 -1       583 1.80056E+01-5.14137E+00 9.89902E-02 6.66664E+00-7.11237E-14 3.15581E-14
 -1       584 2.29639E+01-5.36751E-01-1.27277E-03 4.76877E-01 1.31911E-13 2.40158E-13
 -1       585 6.20872E+00-1.46783E+00 1.76904E-01-3.04089E+00 2.21566E-13 1.02486E-12
 -1       586 1.00009E+01-3.01696E+00 1.32684E-01 6.08912E+00-1.54821E-13-2.67009E-14
 -1       587 1.84636E+01-5.27094E+00 9.72255E-02-6.31537E+00 3.95441E-13 4.10847E-13
 -1       588 2.21608E+01 1.58379E+00-6.92502E-03-2.26491E-01-2.38109E-13-2.94607E-14
 -1       589 3.09695E+01 6.53590E+00-1.69949E-01-1.07366E+00-7.51177E-13 1.65382E-13
 -1       590 6.57787E+00-1.81629E+00 1.41780E-01-4.73933E+00-7.81389E-14-7.36605E-13
 -1       591 1.55244E+01 4.16992E+00-6.55207E-04-5.61947E-02 1.71341E-14-3.59862E-13
 -1       592 2.95043E+01-3.28117E-01-8.67928E-02 1.03834E+00 2.73271E-13 1.45432E-13
 -1       593 3.02256E+01 7.21513E+00-1.76334E-01 4.15975E-01 7.38770E-13-1.81084E-13
 -1       594 1.28495E+01-3.58437E+00 1.11277E-01 6.53746E+00 2.58467E-13-5.01363E-13
 -1       595 2.96116E+01 5.15617E+00-1.73569E-01 1.72325E+00 6.53866E-13 3.09926E-14
 -1       596 2.64997E+01-4.26177E+00-2.79560E-02-2.91980E+00-7.64076E-14 9.99201E-16
 -1       597 2.18918E+01-4.92071E+00 7.16738E-02-5.47269E+00-2.16598E-13-2.07476E-13
 -1       598 1.34662E+01-3.45750E+00 1.18020E-01-6.81965E+00-1.85359E-13-5.25323E-13
 -1       599 4.89486E+00-1.71239E-01 1.84595E-01-5.29609E-01 4.79046E-14-6.74044E-13
 -1       600 6.36820E+00-1.26989E+00 1.67827E-01 3.81986E+00 1.83964E-13-6.62276E-13
 -1       601 2.05142E+01-5.18992E+00 5.51240E-02 5.89274E+00 2.04434E-13-1.96120E-13
 -1       602 2.59511E+01-4.75904E+00 6.52337E-04 3.47903E+00 7.46625E-15 9.63535E-14
 -1       603 3.11105E+01 3.77013E+00-1.36087E-01-1.92099E+00-6.89296E-13 3.96981E-13
 -1       604 2.57241E+01-5.20692E+00 1.91854E-03-3.65341E+00 7.40796E-14-5.74124E-14
 -1       605 3.07466E+01 2.63862E+00-1.51571E-01 2.11390E+00-3.94573E-13-9.42302E-14
 -1       606 2.94269E+01-2.37246E+00-8.16419E-02 3.27199E-01-1.01976E-13-2.79506E-13
 -1       607 9.74232E+00-2.97800E+00 1.46056E-01-5.73881E+00 3.23075E-13 6.91905E-13
 -1       608 3.04842E+01 2.28190E+00-1.41168E-01-1.47622E+00 5.26357E-13-3.16483E-13
 -1       609 2.29891E+01 1.02387E+00-5.06400E-03 8.96477E-01 3.09430E-13 2.99493E-13
 -1       610 2.78084E+01 1.83143E+00-1.06826E-01 2.26997E+00 3.01328E-13 2.99358E-13
 -1       611 1.92546E+01 2.78096E+00-4.50851E-03 2.88367E-01-1.24607E-13-2.41057E-13
 -1       612 2.89386E+01-7.26954E-01-8.45784E-02-1.10497E+00 3.48440E-13-3.14734E-13
 -1       613 2.85113E+01 6.25356E+00-1.68104E-01 1.01311E-01-5.72181E-13 6.23555E-14
 -1       614 2.65146E+01-4.50445E+00-2.50034E-02 2.08888E+00 2.78909E-14-2.23061E-13
 -1       615 2.84147E+01-3.56536E+00-7.41413E-02 6.72081E-01-8.88421E-14 3.42469E-13
 -1       616 6.93605E+00-2.09854E-01 1.61290E-01-1.61027E-01-1.56881E-13 7.90465E-13
 -1       617 2.97197E+01 5.50529E-01-1.04760E-01-2.11571E+00-4.99750E-13 4.90205E-13
 -1       618 2.83089E+01 6.46049E+00-1.56530E-01-7.05066E-01 6.75210E-13-1.45189E-13
 -1       619 1.99990E+01-1.01652E-03-3.27522E-06 1.99335E-03-2.55263E-13 4.83248E-13
 -1       620 1.67905E+01 2.70633E+00 1.16145E-03-1.35496E+00 6.95258E-14-2.83505E-13
 -1       621 1.54554E+01 3.34863E+00 5.18318E-04-1.04460E+00 3.22615E-14-3.40658E-13
 -1       622 1.99988E+01 1.38689E+00-8.27517E-04-6.86577E-01 1.49558E-13-1.36780E-13
 -1       623 2.13081E+01 9.27047E-01-1.27078E-03-1.15417E-01 1.85657E-13-2.38609E-14
 -1       624 2.23270E+01 2.68875E-01 2.44041E-03 1.61118E-01 1.84828E-13 7.92937E-14
 -1       625 1.11091E+01-8.14463E-01 1.38618E-01-4.02413E+00 2.97998E-13 6.34479E-13
 -1       626 2.69258E+01-4.39640E+00-5.37759E-02-1.03430E+00 2.09215E-13-2.12844E-13
 -1       627 2.22008E+01-6.85147E-01 1.06091E-03 1.18473E+00-2.24365E-14-1.06404E-15
 -1       628 2.33164E+01-1.88007E+00-1.04242E-04 1.06439E+00 3.22416E-14 4.65314E-14
 -1       629 2.49149E+01-2.81036E+00-4.28356E-03 2.84490E-01 5.34074E-14 2.37241E-13
 -1       630 2.65425E+01-2.44304E+00-2.41733E-02-1.18123E+00-3.79401E-14 3.89897E-13
 -1       631 2.74252E+01-7.95467E-01-6.08681E-02 2.27461E+00 4.50109E-14-1.70777E-13
 -1       632 2.61270E+01-2.93549E+00-2.30365E-02 7.76458E-01 9.19273E-14-1.54714E-13
 -1       633 2.43559E+01-2.97532E+00 8.27739E-04-6.90030E-01 6.95332E-14-2.03071E-15
 -1       634 2.27647E+01-2.13450E+00 1.07716E-03-1.52576E+00 5.90296E-14 7.97914E-14
 -1       635 2.16569E+01-1.18544E+00 1.79388E-04-1.83997E+00 6.80213E-14 8.18402E-14
 -1       636 2.09827E+01-4.48794E-01-3.05472E-04-1.86015E+00-2.65320E-14 2.59995E-14
 -1       637 2.06048E+01 2.89374E-02-1.84932E-04-1.73283E+00-1.00690E-14 1.38291E-13
 -1       638 2.04042E+01 2.94506E-01 1.14830E-04-1.54141E+00-1.62730E-14 1.64640E-13
 -1       639 2.02980E+01 4.14084E-01 2.04652E-04-1.32850E+00-6.41307E-14 6.58229E-14
 -1       640 2.02383E+01 4.43409E-01 2.25304E-04-1.11700E+00 9.29530E-15-1.70829E-13
 -1       641 2.01995E+01 4.22202E-01 2.13028E-04-9.19593E-01 1.52956E-13-1.51389E-13
 -1       642 2.01696E+01 3.76279E-01 1.86531E-04-7.42886E-01 1.05246E-13-2.40671E-14
 -1       643 2.01436E+01 3.21262E-01 1.56077E-04-5.89629E-01-8.85865E-14 1.17463E-13
 -1       644 2.01198E+01 2.65978E-01 1.26588E-04-4.60081E-01-1.02588E-13 9.26550E-14
 -1       645 2.00982E+01 2.14988E-01 1.00272E-04-3.52952E-01-1.04593E-13 6.31841E-15
 -1       646 2.00789E+01 1.70305E-01 7.78728E-05-2.66073E-01-5.50718E-14-1.07569E-13
 -1       647 2.00622E+01 1.32483E-01 5.94009E-05-1.96873E-01 1.52227E-14-6.86253E-14
 -1       648 2.00480E+01 1.01286E-01 4.45205E-05-1.42692E-01-5.92758E-14-4.75009E-14
 -1       649 2.00363E+01 7.60890E-02 3.27605E-05-1.00985E-01-6.53775E-14 1.48192E-13
 -1       650 2.00268E+01 5.61090E-02 2.36236E-05-6.94308E-02-2.03593E-13 1.32727E-13
 -1       651 2.00194E+01 4.05340E-02 1.66402E-05-4.59917E-02-1.74892E-13 3.53197E-13
 -1       652 2.00136E+01 2.85949E-02 1.13912E-05-2.89269E-02-2.54816E-13 2.82914E-13
 -1       653 2.00093E+01 1.95994E-02 7.51587E-06-1.67840E-02-6.85566E-14 2.43702E-13
 -1       654 2.00060E+01 1.29459E-02 4.71163E-06-8.37591E-03 3.92938E-14 2.62739E-13
 -1       655 2.00037E+01 8.12482E-03 2.72953E-06-2.74980E-03 1.40098E-13 1.02300E-13
 -1       656 2.00020E+01 4.71362E-03 1.36808E-06 8.45367E-04 1.68606E-13 9.02513E-14
 -1       657 2.00009E+01 2.36798E-03 4.66338E-07 2.99128E-03 1.95537E-13-2.95549E-14
 -1       658 2.00001E+01 8.11547E-04-1.00348E-07 4.13019E-03 6.37456E-14 2.43005E-14
 -1       659 1.99997E+01-1.74754E-04-4.32181E-07 4.59141E-03 3.29012E-14 5.72153E-14
 -1       660 1.99994E+01-7.62933E-04-6.08989E-07 4.61410E-03-3.54033E-14 2.50272E-13
 -1       661 1.99993E+01-1.08745E-03-7.05187E-07 4.36642E-03 3.92334E-14 4.82401E-13
 -1       662 1.99993E+01-1.25369E-03-7.28393E-07 3.96119E-03 1.07500E-13 2.23903E-13
 -1       663 1.99993E+01-1.34422E-03-6.61426E-07 3.46862E-03-2.90566E-14 5.24986E-14
 -1       664 1.99994E+01-1.42266E-03-1.03199E-06 2.92411E-03-4.78307E-14 8.19120E-14
 -1       665 2.39863E+01-7.60631E-01 2.11054E-03 1.75714E+00 8.69532E-14 2.66512E-13
 -1       666 1.99994E+01-1.43782E-03-1.57007E-07-2.74301E-03 2.24233E-14-1.93385E-13
 -1       667 2.37131E+01-1.24145E+00-4.05568E-03 1.04648E+00 3.83664E-14 2.15952E-13
 -1       668 2.34620E+01 1.98342E+00-1.25120E-02 1.53625E+00 1.91286E-13 2.42030E-13
 -1       669 2.30652E+01 2.84723E+00-3.12014E-02 8.23229E-02 3.08407E-13 8.90331E-14
 -1       670 2.33070E+01 2.23275E+00-2.02490E-02-1.41626E+00 3.04942E-13-1.91310E-14
 -1       671 2.37204E+01 7.36613E-01-1.09333E-02-2.13073E+00 2.06865E-13-7.46631E-14
 -1       672 2.38885E+01-6.91600E-01-3.38357E-03-1.88959E+00 3.61499E-14 2.58924E-14
 -1       673 2.36052E+01-1.42171E+00-4.31088E-03-1.09511E+00-7.07186E-14 5.63677E-16
 -1       674 2.30359E+01-1.48883E+00-2.07719E-03-2.55951E-01-1.45711E-14-3.33090E-14
 -1       675 2.23964E+01-1.18914E+00-1.15920E-03 3.94646E-01-1.01694E-14-8.21389E-15
 -1       676 2.18231E+01-7.76404E-01-1.12864E-03 8.00519E-01-1.29224E-14-2.86851E-14
 -1       677 2.13691E+01-4.00278E-01-7.25605E-04 9.99018E-01-3.10672E-14 1.13950E-14
 -1       678 2.10311E+01-1.18621E-01-3.33533E-04 1.05033E+00-4.00229E-14-4.64704E-14
 -1       679 2.07844E+01 6.52148E-02-6.58704E-05 1.00804E+00 3.00800E-15-1.36121E-13
 -1       680 2.06035E+01 1.69126E-01 8.51227E-05 9.12572E-01 9.20566E-14-1.67352E-14
 -1       681 2.04681E+01 2.15787E-01 1.63723E-04 7.92257E-01-1.10409E-14 1.11930E-13
 -1       682 2.03644E+01 2.25255E-01 1.93943E-04 6.65721E-01-2.80308E-14 1.08949E-13
 -1       683 2.02832E+01 2.12794E-01 1.94111E-04 5.44417E-01 8.23372E-14 4.12139E-14
 -1       684 2.02189E+01 1.89019E-01 1.77623E-04 4.34728E-01 1.04529E-13-6.20959E-14
 -1       685 2.01675E+01 1.60826E-01 1.53530E-04 3.39586E-01 1.34682E-13-1.52411E-13
 -1       686 2.01267E+01 1.32398E-01 1.27378E-04 2.59685E-01 7.87187E-15-3.54452E-13
 -1       687 2.00943E+01 1.06069E-01 1.02344E-04 1.94355E-01-7.76513E-14-2.45007E-13
 -1       688 2.00690E+01 8.29627E-02 8.00265E-05 1.42176E-01-2.70916E-14-1.04293E-13
 -1       689 2.00494E+01 6.34509E-02 6.10484E-05 1.01388E-01-5.40955E-14-1.89748E-13
 -1       690 2.00344E+01 4.74630E-02 4.54638E-05 7.01583E-02 9.40897E-14-2.22637E-13
 -1       691 2.00232E+01 3.46898E-02 3.30222E-05 4.67421E-02-1.03092E-13-1.00714E-13
 -1       692 2.00150E+01 2.47139E-02 2.33315E-05 2.95668E-02-5.03133E-14-2.01335E-13
 -1       693 2.00090E+01 1.70887E-02 1.59553E-05 1.72719E-02 2.18878E-14-1.05153E-13
 -1       694 2.00049E+01 1.13847E-02 1.04681E-05 8.71612E-03-9.94169E-15-1.12226E-13
 -1       695 2.00020E+01 7.21391E-03 6.48387E-06 2.96630E-03-4.36378E-14-4.90289E-14
 -1       696 2.00002E+01 4.24027E-03 3.66830E-06-7.23262E-04-3.56927E-14 1.66972E-13
 -1       697 1.99991E+01 2.18168E-03 1.74145E-06-2.93605E-03-2.77246E-13 2.72898E-14
 -1       698 1.99985E+01 8.06940E-04 4.74010E-07-4.11909E-03-1.64090E-13 8.09281E-14
 -1       699 1.99982E+01-6.98670E-05-3.16740E-07-4.60729E-03-1.74989E-14 3.07113E-13
 -1       700 1.99981E+01-5.96200E-04-7.78272E-07-4.64504E-03 2.29668E-13 8.48688E-14
 -1       701 1.99983E+01-8.88095E-04-1.00806E-06-4.40484E-03 2.80828E-13 1.82201E-14
 -1       702 1.99984E+01-1.03716E-03-1.21284E-06-4.00327E-03-9.37939E-14 1.55449E-13
 -1       703 1.99987E+01-1.11628E-03-9.85325E-07-3.51520E-03-1.16824E-13 3.47223E-13
 -1       704 1.99991E+01-1.27106E-03-1.72003E-06-3.14315E-03 3.38038E-14 1.92734E-13
 -1       705 2.00016E+01-3.08540E-03 8.18278E-07-4.33153E-04 3.43846E-13-1.59331E-13
 -1       706 1.99994E+01-1.47957E-03-1.43667E-06 2.53289E-03 1.19861E-13 1.53240E-13
 -1       707 2.00010E+01-2.64775E-03 5.96085E-07-1.96730E-03 1.58287E-13-3.03789E-13
 -1       708 2.00016E+01-3.08529E-03 7.47209E-07 4.43500E-04 6.70386E-14-3.33539E-13
 -1       709 2.00014E+01-2.93690E-03 7.52506E-07-1.26546E-03 1.06754E-13-4.99021E-13
 -1       710 2.20023E+01-4.74932E+00 4.03840E-02 4.40293E+00-6.64711E-14-1.81399E-13
 -1       711 2.00014E+01-2.94021E-03 4.71800E-07 1.26203E-03-2.05570E-13-3.18991E-13
 -1       712 2.00010E+01-2.65210E-03 4.59970E-07 1.96438E-03-5.46555E-14-6.38777E-13
 -1       713 2.00004E+01-2.23709E-03 5.57437E-07 2.45046E-03 2.81544E-13 3.27005E-13
 -1       714 2.32062E+01-1.06928E+00-2.62436E-03 4.20865E-01 9.91598E-14 1.76469E-13
 -1       715 1.16756E+01-1.10596E+00 1.26730E-01 4.92923E+00 2.75738E-13-4.97540E-13
 -1       716 9.79669E+00-9.62317E-01 1.46659E-01 4.17462E+00-3.16632E-13 1.20293E-13
 -1       717 1.63800E+01-3.31532E+00 1.02996E-01 5.87564E+00-2.18874E-13 5.72355E-14
 -1       718 2.10479E+01 1.41060E+00-5.01339E-03 4.43976E-01-1.36454E-13-8.29883E-14
 -1       719 8.88452E+00 6.20068E-01 1.50065E-01-3.03909E+00-6.58952E-14-6.12649E-13
 -1       720 1.88694E+01-3.45606E+00 6.43475E-02-5.44618E+00-2.66755E-13-2.40453E-13
 -1       721 2.37813E+01 5.16522E-01-1.71047E-02 2.08721E+00 1.40518E-13 3.10800E-13
 -1       722 2.15195E+01 3.74688E-01 1.50363E-03 9.41237E-01-6.72770E-14-4.39279E-14
 -1       723 2.85111E+01-2.99009E-01-9.21212E-02 2.37713E+00-9.79460E-14-1.64906E-13
 -1       724 2.27043E+01-5.04123E-01-5.89894E-04 1.06132E-01 1.40025E-13 1.14459E-13
 -1       725 1.64158E+01-3.16442E+00 9.31853E-02-5.50255E+00 4.03112E-13 3.41366E-13
 -1       726 1.84331E+01 1.98664E+00-1.32425E-03-1.18298E+00 1.09085E-13-2.19524E-13
 -1       727 2.62624E+01 5.19224E+00-1.43341E-01 1.14384E+00 4.86292E-13 2.08417E-13
 -1       728 1.86148E+01-3.56526E+00 7.25645E-02 5.36635E+00 3.56069E-13-1.85851E-13
 -1       729 1.66925E+01 2.91636E+00-1.26249E-04 9.51478E-01 5.22200E-15-2.89103E-13
 -1       730 2.83856E+01 4.18171E+00-1.66864E-01-2.09363E+00-5.72514E-13 2.99708E-13
 -1       731 2.45801E+01-4.38644E+00 1.14583E-02-3.02069E+00-2.11100E-13 2.50182E-14
 -1       732 1.28679E+01-1.03805E+00 1.10471E-01-5.25464E+00-1.97928E-13-4.78628E-13
 -1       733 8.63675E+00 1.00597E+00 1.52811E-01 1.74758E+00 1.16959E-13-5.39957E-13
 -1       734 2.39947E+01-4.80950E+00 3.40195E-02 3.64600E+00 2.13884E-13 1.11442E-13
 -1       735 2.80892E+01 3.99211E+00-1.47887E-01-2.10601E+00 5.72681E-13-1.61926E-13
 -1       736 2.78967E+01 4.00815E+00-1.48353E-01 2.28082E+00-4.79741E-13-7.06379E-14
 -1       737 2.32717E+01-5.10397E+00 2.11291E-02-3.90238E+00 3.92023E-13-1.15212E-13
 -1       738 2.74456E+01-2.37281E+00-5.06715E-02 3.21974E-01-3.70624E-15 2.25842E-13
 -1       739 1.85330E+01 2.15120E+00 4.98161E-04 1.02403E+00-5.19986E-14-2.27977E-13
 -1       740 1.48777E+01 3.66886E+00-1.41202E-03-3.34216E-01 1.08830E-14-3.57619E-13
 -1       741 2.76782E+01 1.40818E+00-1.01425E-01-2.23767E+00 3.19467E-13-2.29761E-13
 -1       742 2.69034E+01-6.40740E-01-5.27412E-02 1.93548E+00 9.61557E-14 4.07539E-13
 -1       743 2.71906E+01-2.78525E+00-2.55133E-02-2.21586E-01 7.63088E-14-4.45532E-13
 -1       744 2.00005E+01-2.23853E-03 5.70988E-07-2.46063E-03 1.04315E-13 9.90096E-15
 -1       745 2.06573E+01-3.90183E+00 3.28029E-02-4.25534E+00 3.60878E-13 7.00763E-14
 -1       746 2.61306E+01-4.14893E+00-1.44802E-02 1.40979E+00 1.30791E-13 3.04555E-13
 -1       747 1.53459E+01 3.49720E+00 1.75879E-03 4.45315E-01 1.34072E-15-3.14370E-13
 -1       748 2.56836E+01 2.93746E+00-6.37666E-02 2.09827E+00 3.03511E-13 3.57758E-13
 -1       749 2.00000E+01-1.84138E-03 8.44104E-09 2.76426E-03 3.23453E-14-1.42836E-13
 -1       750 2.12804E+01 8.71122E-02 3.75835E-04-7.36758E-01 1.06435E-13-6.87624E-14
 -1       751 1.49946E+01-1.39169E+00 6.09134E-02-4.31355E+00 2.88197E-13 4.11182E-13
 -1       752 2.53996E+01-3.26313E+00-2.49123E-02-6.01122E-01-1.63758E-13 1.93815E-13
 -1       753 2.27286E+01-2.87767E+00 3.16987E-02 2.47527E+00 1.95459E-13 1.01576E-13
 -1       754 2.44740E+01-4.27913E+00 1.27600E-02-2.08485E+00 2.26679E-13-8.30538E-14
 -1       755 2.06343E+01-1.71282E+00 4.28308E-03-2.71932E+00 5.59984E-14 1.93944E-13
 -1       756 1.98616E+01-6.45381E-01-2.31123E-04-2.39439E+00 2.26569E-14 1.93022E-13
 -1       757 1.95792E+01 2.24818E-02-1.75718E-04-2.04476E+00-1.56427E-15 2.18829E-13
 -1       758 1.95200E+01 3.97575E-01 1.81130E-04-1.73000E+00-1.34527E-14 1.33111E-13
 -1       759 1.95643E+01 5.75463E-01 1.35310E-04-1.45245E+00-5.18689E-14 7.52401E-14
 -1       760 1.96467E+01 6.29136E-01 1.06857E-04-1.20925E+00-8.02049E-14 8.72884E-14
 -1       761 1.97337E+01 6.10402E-01 8.31472E-05-9.96257E-01 1.73599E-13 2.12453E-13
 -1       762 1.98105E+01 5.53685E-01 6.29122E-05-8.10679E-01 1.54913E-13 2.64968E-13
 -1       763 1.98722E+01 4.80653E-01 4.74362E-05-6.50665E-01 3.66085E-14 1.88206E-13
 -1       764 1.99188E+01 4.04235E-01 3.57641E-05-5.14623E-01-1.62584E-13 2.00693E-13
 -1       765 1.99524E+01 3.31649E-01 2.69681E-05-4.00793E-01-1.45331E-13 6.20138E-14
 -1       766 1.99757E+01 2.66514E-01 2.02621E-05-3.07118E-01-1.61723E-13 1.44004E-13
 -1       767 1.99910E+01 2.10256E-01 1.51077E-05-2.31308E-01-6.81025E-14 1.81791E-13
 -1       768 2.00007E+01 1.63021E-01 1.11364E-05-1.70970E-01 4.21020E-14 1.68081E-13
 -1       769 2.00063E+01 1.24252E-01 8.08562E-06-1.23738E-01-4.06896E-14 1.84423E-13
 -1       770 2.00091E+01 9.30459E-02 5.75882E-06-8.73868E-02-2.48885E-13 7.58767E-14
 -1       771 2.00102E+01 6.83678E-02 4.00319E-06-5.98956E-02-1.89138E-13-5.14259E-14
 -1       772 2.00101E+01 4.91803E-02 2.69674E-06-3.94904E-02-1.75135E-13-1.05402E-13
 -1       773 2.00094E+01 3.45125E-02 1.74091E-06-2.46533E-02-3.90964E-14 2.42748E-13
 -1       774 2.00083E+01 2.34957E-02 1.05584E-06-1.41157E-02-8.72107E-14 2.12069E-13
 -1       775 2.00071E+01 1.53768E-02 5.77062E-07-6.83883E-03-5.09925E-14 1.21326E-13
 -1       776 2.00059E+01 9.51975E-03 2.52924E-07-1.98856E-03 2.62115E-14-1.03467E-13
 -1       777 2.00048E+01 5.39746E-03 4.22176E-08 1.09282E-03 2.89219E-13-1.67782E-14
 -1       778 2.00038E+01 2.58112E-03-8.82651E-08 2.91441E-03 2.18013E-13 8.20384E-14
 -1       779 2.00029E+01 7.26894E-04-1.53011E-07 3.86274E-03 3.61420E-13 3.46360E-13
 -1       780 2.00021E+01-4.37624E-04-1.78388E-07 4.22491E-03 3.44840E-14 4.42946E-13
 -1       781 2.00015E+01-1.12612E-03-1.94356E-07 4.20877E-03 9.28604E-14 2.44630E-13
 -1       782 2.00010E+01-1.50546E-03-1.90520E-07 3.95977E-03 4.41898E-14 1.56185E-13
 -1       783 2.00006E+01-1.70539E-03 1.68335E-07 3.57553E-03-2.24226E-14 4.49952E-14
 -1       784 2.00002E+01-1.78110E-03-6.83907E-07 3.19303E-03-1.88961E-13-1.18288E-13
 -1       785 2.46633E+01-1.86381E+00 9.93878E-04 8.88883E-01-1.75944E-15 2.37272E-13
 -1       786 1.24711E+01 8.74976E-01 6.49809E-02-3.43395E+00-1.18665E-13-4.64901E-13
 -1       787 2.46585E+01 4.19895E+00-1.07087E-01-9.52457E-01 5.11782E-13 5.43099E-14
 -1       788 2.53144E+01-5.14704E-01-5.02300E-02-2.20764E+00-3.47600E-14-1.05999E-13
 -1       789 2.46922E+01-1.98014E+00-1.70560E-02-1.07230E+00 4.76078E-14-1.25970E-13
 -1       790 2.36380E+01-2.29387E+00 5.90903E-03 6.71343E-02 6.00427E-14-1.30822E-13
 -1       791 2.25329E+01-1.90023E+00 3.13938E-03 8.26014E-01-4.58226E-14-1.55835E-13
 -1       792 2.16339E+01-1.27478E+00-4.03466E-04 1.21221E+00-4.53227E-14-1.06533E-14
 -1       793 2.10005E+01-6.87183E-01-3.78159E-04 1.34575E+00-4.79108E-14-5.55628E-14
 -1       794 2.05929E+01-2.41963E-01-1.27439E-04 1.32729E+00-6.72681E-14-6.66059E-14
 -1       795 2.03457E+01 5.59430E-02 2.41887E-05 1.22810E+00-1.30809E-14 1.05201E-13
 -1       796 2.02035E+01 2.31338E-01 5.36724E-05 1.08979E+00-9.90551E-15 1.13121E-13
 -1       797 2.01252E+01 3.17192E-01 6.40245E-05 9.37742E-01-1.01892E-13 1.93062E-13
 -1       798 2.00833E+01 3.43160E-01 6.56182E-05 7.86882E-01 1.79816E-14 1.95621E-13
 -1       799 2.00612E+01 3.32301E-01 6.16108E-05 6.45928E-01 8.61940E-14 1.02221E-13
 -1       800 2.00490E+01 3.01109E-01 5.44744E-05 5.19615E-01 1.72509E-13 6.36852E-16
 -1       801 2.00416E+01 2.60676E-01 4.62925E-05 4.10031E-01 1.04861E-13 9.88705E-14
 -1       802 2.00363E+01 2.18032E-01 3.80676E-05 3.17485E-01 1.39557E-13 1.92591E-13
 -1       803 2.00317E+01 1.77332E-01 3.04547E-05 2.41141E-01-4.09781E-14 1.44568E-13
 -1       804 2.00276E+01 1.40779E-01 2.37799E-05 1.79486E-01-1.37198E-13 1.81856E-13
 -1       805 2.00236E+01 1.09310E-01 1.81502E-05 1.30676E-01 1.12512E-13-2.10477E-14
 -1       806 2.00198E+01 8.30794E-02 1.35433E-05 9.27726E-02-1.13596E-13-9.43912E-14
 -1       807 2.00164E+01 6.17878E-02 9.86795E-06 6.39008E-02-1.75071E-13 1.88249E-13
 -1       808 2.00133E+01 4.49016E-02 7.00203E-06 4.23438E-02 6.40749E-14 3.07254E-13
 -1       809 2.00106E+01 3.17937E-02 4.81556E-06 2.65907E-02 2.65562E-14 1.44054E-14
 -1       810 2.00083E+01 2.18291E-02 3.18382E-06 1.53534E-02 1.01293E-14-1.75000E-13
 -1       811 2.00063E+01 1.44139E-02 1.99428E-06 7.56191E-03-5.46093E-14-1.74947E-13
 -1       812 2.00047E+01 9.02080E-03 1.14962E-06 2.34736E-03-2.22756E-13-5.73058E-14
 -1       813 2.00035E+01 5.19777E-03 5.68408E-07-9.80878E-04-2.42198E-13 2.02985E-13
 -1       814 2.00025E+01 2.56825E-03 1.84234E-07-2.96090E-03-1.48034E-13-7.05456E-14
 -1       815 2.00017E+01 8.25224E-04-5.86469E-08-4.00337E-03-1.93184E-13-4.00345E-13
 -1       816 2.00011E+01-2.77400E-04-1.98490E-07-4.41472E-03 1.43035E-13-5.32125E-13
 -1       817 2.00006E+01-9.34378E-04-2.77695E-07-4.41758E-03-3.02305E-14-1.45916E-13
 -1       818 2.00003E+01-1.29878E-03-3.19733E-07-4.16857E-03-6.64144E-14 2.76363E-13
 -1       819 2.00000E+01-1.49097E-03-2.43447E-07-3.77488E-03-1.83287E-13 1.83885E-13
 -1       820 1.56979E+01 2.22810E+00 4.60628E-03-1.96143E+00-1.28943E-14-2.97923E-13
 -1       821 2.00025E+01-2.88400E-03 3.19332E-07 4.72780E-06 2.06331E-13-5.89618E-13
 -1       822 2.00012E+01-2.30859E-03 5.99058E-07 2.58236E-03-2.83848E-14 6.45840E-14
 -1       823 2.00023E+01-2.82192E-03 4.27144E-08 9.77702E-04 9.64327E-14-4.89287E-13
 -1       824 2.36439E+01-1.77758E+00 3.30769E-03 3.19016E-02 2.86229E-16 1.60275E-13
 -1       825 1.69942E+01-1.27870E+00 4.25702E-02-4.52635E+00-2.16048E-13-2.45762E-13
 -1       826 1.96062E+01-3.20373E+00 3.80453E-02 4.35691E+00-2.04043E-13-4.91031E-14
 -1       827 2.00019E+01-2.62855E-03 1.12091E-07 1.87368E-03-1.52629E-13-5.45888E-13
 -1       828 1.64337E+01-1.18954E+00 5.84839E-02 4.33856E+00 2.74336E-13-2.67043E-13
 -1       829 2.51123E+01 2.08162E+00-6.60119E-02-2.26759E+00 3.10264E-13-1.29357E-13
 -1       830 2.51183E+01-4.15341E+00-1.43321E-02 1.45393E+00-9.09273E-14-3.87369E-13
 -1       831 1.26641E+01 8.68624E-01 6.00954E-02 3.05121E+00 1.74338E-13-3.89817E-13
 -1       832 2.10481E+01-1.18289E+00-4.42337E-03 2.24203E+00 9.84041E-14-3.85423E-14
 -1       833 1.05985E+01 5.30391E-01 7.91418E-02-1.15176E+00-4.11689E-14 5.28747E-13
 -1       834 1.06103E+01 1.99650E+00 5.83706E-02-7.08331E-01 1.59256E-14-4.62887E-13
 -1       835 1.11718E+01 4.38481E-01 7.64295E-02 2.07696E+00-2.41433E-13 3.17742E-13
 -1       836 2.21618E+01-3.29207E+00 2.08834E-02-3.31283E+00-2.35821E-13-9.53903E-15
 -1       837 2.21542E+01-3.07681E-01-1.18188E-03-2.68358E-01 1.10959E-13 5.30656E-14
 -1       838 1.46253E+01-1.33000E+00 5.49429E-02 4.48932E+00-2.85116E-13 5.54608E-14
 -1       839 1.42566E+01 2.94045E+00 1.40362E-02-1.07987E+00-2.94383E-15-3.44994E-13
 -1       840 1.84543E+01-2.35468E+00 2.34963E-02-4.11308E+00 2.08998E-13 1.37251E-13
 -1       841 1.77802E+01 1.30326E+00 6.37379E-03-2.03631E+00 4.47212E-15-2.21661E-13
 -1       842 2.70920E+01-9.53982E-01-1.12045E-02-1.74345E+00 4.51809E-14-3.54272E-13
 -1       843 2.01148E+01 2.29382E-01 1.19009E-03 1.74159E+00 9.86456E-15-1.18545E-13
 -1       844 2.00012E+01-2.30641E-03-3.37540E-07-2.58956E-03-1.44640E-13-1.63736E-13
 -1       845 2.20558E+01-3.06052E+00 2.11070E-02-2.76063E+00 2.15930E-13 1.19443E-13
 -1       846 2.00019E+01-2.62367E-03 3.77194E-07-1.87510E-03 1.24464E-14-2.89006E-13
 -1       847 2.00002E+01-1.67083E-03 3.11495E-06-3.36635E-03-7.32890E-14-2.22245E-14
 -1       848 1.97832E+01 5.14695E-01-1.37615E-03-1.50220E+00 5.84931E-14-1.37187E-13
 -1       849 2.00023E+01-2.81788E-03 4.69852E-07-9.81630E-04 6.26593E-14-1.82885E-14
 -1       850 2.26813E+01-3.61668E+00 9.53850E-03 2.56260E+00-6.83663E-14-3.02018E-13
 -1       851 1.25997E+01 2.30848E+00 3.44701E-02 1.02415E+00 7.64605E-14-3.79208E-13
 -1       852 2.27950E+01-1.11829E+00 3.73484E-03-2.69772E-01 6.32620E-14 5.58611E-14
 -1       853 1.31408E+01 1.91568E-01 4.25893E-02-2.63474E+00 1.95861E-15 3.40403E-13
 -1       854 2.00002E+01-1.83197E-03 1.72024E-06-3.07127E-03 1.05251E-13-4.99038E-14
 -1       855 1.53430E+01 2.51616E+00 7.39810E-03 1.37434E+00 4.68112E-14-3.24099E-13
 -1       856 2.00008E+01-2.05337E-03-7.44470E-07 2.93047E-03-2.93084E-13 6.80181E-15
 -1       857 1.75584E+01 1.54939E+00-4.34460E-03 1.78687E+00 3.17678E-14-2.08911E-13
 -1       858 2.35140E+01-2.58758E+00 6.38517E-03-1.24199E+00-1.18848E-13 7.34089E-14
 -1       859 2.00635E+01-1.48304E+00 1.92872E-02-3.08707E+00-1.39319E-13-6.41965E-14
 -1       860 1.82030E+01 1.32534E-01-1.13185E-03-2.27452E+00 6.48082E-14 4.14105E-13
 -1       861 1.84182E+01 5.58663E-01 1.15395E-04-1.80128E+00-8.20538E-14 4.76316E-13
 -1       862 1.86911E+01 7.61850E-01 5.12065E-05-1.44930E+00-7.69341E-14 4.03739E-13
 -1       863 1.89566E+01 8.25113E-01 3.73201E-05-1.18137E+00-8.93036E-14 3.44181E-13
 -1       864 1.91913E+01 8.04573E-01 3.45047E-05-9.66951E-01 4.35590E-14 2.44465E-13
 -1       865 1.93879E+01 7.37558E-01 2.44827E-05-7.89152E-01 1.56268E-13 1.02664E-13
 -1       866 1.95466E+01 6.48503E-01 1.58105E-05-6.38925E-01 1.59712E-13 5.20250E-14
 -1       867 1.96712E+01 5.52803E-01 9.61331E-06-5.11458E-01-1.56485E-13-2.70019E-14
 -1       868 1.97670E+01 4.59715E-01 5.82469E-06-4.03925E-01-1.94896E-13 8.60292E-14
 -1       869 1.98392E+01 3.74381E-01 3.54407E-06-3.14246E-01-1.43872E-13 1.14416E-13
 -1       870 1.98925E+01 2.99250E-01 2.13759E-06-2.40530E-01-4.42668E-14-6.35397E-14
 -1       871 1.99312E+01 2.35065E-01 1.24880E-06-1.80887E-01-7.27951E-14-5.39986E-15
 -1       872 1.99586E+01 1.81542E-01 6.79773E-07-1.33421E-01 2.75045E-14 7.71409E-14
 -1       873 1.99776E+01 1.37822E-01 3.15423E-07-9.62776E-02-9.32294E-14-2.72650E-14
 -1       874 1.99904E+01 1.02766E-01 8.54780E-08-6.77134E-02-1.71596E-13 5.29337E-14
 -1       875 1.99986E+01 7.51399E-02-5.47357E-08-4.61413E-02-3.23779E-13 3.97963E-14
 -1       876 2.00036E+01 5.37369E-02-1.34625E-07-3.01629E-02 1.01039E-13 1.33923E-13
 -1       877 2.00063E+01 3.74383E-02-1.74148E-07-1.85782E-02-4.58484E-14 6.23033E-14
 -1       878 2.00075E+01 2.52497E-02-1.87195E-07-1.03827E-02 4.72480E-14 2.32451E-13
 -1       879 2.00077E+01 1.63125E-02-1.83699E-07-4.75318E-03-8.73027E-14 2.33536E-13
 -1       880 2.00073E+01 9.90329E-03-1.71333E-07-1.02857E-03 1.11528E-13 2.79688E-13
 -1       881 2.00066E+01 5.42466E-03-1.57523E-07 1.31180E-03 2.35792E-13-1.33224E-14
 -1       882 2.00057E+01 2.39152E-03-1.50932E-07 2.67028E-03 3.36122E-13 1.18455E-13
 -1       883 2.00047E+01 4.15701E-04-1.01587E-07 3.35154E-03 9.26790E-14-6.49153E-14
 -1       884 2.00038E+01-8.09928E-04-4.25886E-08 3.58077E-03 2.17588E-14-8.44035E-14
 -1       885 2.00029E+01-1.52485E-03-1.52676E-07 3.52049E-03 1.33459E-14-2.22108E-13
 -1       886 2.00021E+01-1.92426E-03-1.32157E-06 3.28164E-03 1.21116E-13-4.06582E-14
 -1       887 2.12726E+01-1.80842E+00-4.55992E-03 1.90001E+00-1.40015E-13-6.54021E-14
 -1       888 2.04587E+01-9.66290E-01-8.72554E-04 1.85381E+00-1.13544E-13-2.44820E-14
 -1       889 2.00098E+01-3.49955E-01-1.46386E-05 1.67195E+00 3.02657E-15 4.53279E-14
 -1       890 1.97865E+01 6.27802E-02 1.41461E-04 1.45689E+00-1.35932E-13-1.78317E-13
 -1       891 1.97041E+01 3.08067E-01 7.88786E-05 1.24137E+00-3.65406E-14-1.47814E-13
 -1       892 1.96982E+01 4.32604E-01 4.04100E-05 1.04151E+00-1.23494E-13 6.20648E-14
 -1       893 1.97300E+01 4.75597E-01 2.32085E-05 8.61669E-01-1.98747E-14-4.46903E-14
 -1       894 1.97768E+01 4.67147E-01 1.42777E-05 7.02977E-01 3.93126E-14-1.75376E-14
 -1       895 1.98256E+01 4.29042E-01 8.60862E-06 5.65276E-01 1.38264E-13-2.87362E-14
 -1       896 1.98702E+01 3.76294E-01 5.72478E-06 4.47752E-01 5.25849E-14-1.16449E-13
 -1       897 1.99079E+01 3.18757E-01 4.01242E-06 3.49126E-01-1.02645E-13-9.27054E-14
 -1       898 1.99379E+01 2.62525E-01 2.86440E-06 2.67753E-01-2.06963E-14 1.29053E-13
 -1       899 1.99609E+01 2.11048E-01 2.05137E-06 2.01746E-01-3.41547E-14 2.76881E-13
 -1       900 1.99778E+01 1.65993E-01 1.46311E-06 1.49104E-01 2.01513E-13-1.24629E-14
 -1       901 1.99897E+01 1.27871E-01 1.03403E-06 1.07833E-01 3.90141E-14 3.10391E-14
 -1       902 1.99977E+01 9.64915E-02 7.20425E-07 7.60342E-02-2.19466E-13 1.49455E-14
 -1       903 2.00027E+01 7.12655E-02 4.91795E-07 5.19724E-02-1.23898E-13-1.17079E-13
 -1       904 2.00056E+01 5.14178E-02 3.26283E-07 3.41133E-02 2.48570E-13 2.26477E-14
 -1       905 2.00070E+01 3.61183E-02 2.07885E-07 2.11363E-02 1.12967E-13 1.73741E-13
 -1       906 2.00074E+01 2.45634E-02 1.24664E-07 1.19331E-02-6.42261E-15 1.18092E-13
 -1       907 2.00072E+01 1.60206E-02 6.75956E-08 5.59295E-03-2.39143E-13 2.35671E-13
 -1       908 2.00065E+01 9.84949E-03 2.98694E-08 1.38296E-03-4.09080E-13 1.05921E-13
 -1       909 2.00057E+01 5.50786E-03 6.58360E-09-1.27561E-03-1.00749E-13-1.43195E-13
 -1       910 2.00048E+01 2.54741E-03-5.66805E-09-2.83095E-03 1.06093E-14-1.84072E-13
 -1       911 2.00039E+01 6.04837E-04-2.03059E-08-3.62328E-03-1.37129E-15-1.78896E-13
 -1       912 2.00030E+01-6.09881E-04-3.03308E-08-3.90504E-03-1.23512E-13-2.58770E-14
 -1       913 2.00023E+01-1.32562E-03-3.68105E-08-3.85846E-03-1.92566E-13-4.10018E-14
 -1       914 2.00016E+01-1.71912E-03 7.75277E-07-3.61126E-03-1.26475E-13-2.39575E-13
 -1       915 2.00033E+01-2.63772E-03 2.92980E-08 5.48821E-04-2.84521E-14-7.02535E-13
 -1       916 1.42076E+01 1.11048E-01 2.68126E-02 2.82035E+00-1.67152E-13 5.45536E-14
 -1       917 1.30791E+01 2.29808E+00 2.79935E-02-1.76191E+00-3.09535E-14-3.94307E-13
 -1       918 1.57002E+01 6.17657E-01 3.36153E-02 3.02623E+00 1.37265E-13-2.89361E-13
 -1       919 2.35622E+01-3.04913E+00 2.11272E-03 1.14295E+00-2.98251E-14-1.55894E-13
 -1       920 1.40323E+01 3.08410E+00 5.91568E-03 2.94128E-01 2.13544E-14-3.45420E-13
 -1       921 1.27505E+01 1.00271E+00 3.55608E-02 1.91413E-01-6.71287E-14 3.09803E-13
 -1       922 1.57131E+01 8.65127E-01 1.70380E-02-3.12062E+00-1.13072E-13-2.88390E-13
 -1       923 1.82065E+01-6.44822E-01 1.80819E-02-2.92127E+00 1.59272E-13 3.24743E-13
 -1       924 2.22815E+01-2.52413E+00-6.04550E-03 1.67929E+00-5.46173E-14-1.44903E-13
 -1       925 1.77274E+01-1.45823E+00 1.88700E-02 3.67207E+00-3.48138E-13 7.38875E-14
 -1       926 1.66851E+01-8.90171E-01 2.42641E-02-3.54876E+00 1.49524E-13 3.09749E-13
 -1       927 2.00014E+01-2.01644E-03-4.79165E-07 3.14165E-03 4.80714E-14 1.26923E-13
 -1       928 2.00014E+01-1.97026E-03-2.14158E-06-3.23557E-03-1.30872E-13-2.32280E-13
 -1       929 2.04057E+01-2.37993E+00 1.42540E-02 3.06818E+00-1.64175E-13-1.56109E-13
 -1       930 2.14483E+01-8.73007E-01-3.38871E-03-1.37376E+00 1.02180E-14-8.28937E-14
 -1       931 2.00033E+01-2.63346E-03-1.76772E-07-5.56714E-04-1.50236E-13 3.28911E-14
 -1       932 2.00030E+01-2.53640E-03-5.55601E-07 1.61154E-03-3.17435E-14-6.62208E-13
 -1       933 2.20016E+01-1.52180E+00-1.58936E-02-1.45624E+00-4.77734E-14-4.10384E-14
 -1       934 2.00023E+01-2.30091E-03-2.91490E-07-2.52388E-03-1.94298E-14 2.20332E-13
 -1       935 1.74927E+01 4.80545E-01 1.40383E-02 2.72427E+00 1.05083E-13-1.98329E-13
 -1       936 2.00021E+01-2.29063E-03 1.88817E-06 2.58478E-03-5.84948E-14-2.19270E-13
 -1       937 1.70892E+01 8.02093E-01-3.48124E-04-1.62897E+00 6.19433E-14 1.55404E-13
 -1       938 1.77037E+01 9.72731E-01-1.75075E-04-1.24912E+00-3.68683E-14 2.23552E-13
 -1       939 1.82058E+01 1.01971E+00-1.56075E-04-9.94148E-01-3.54195E-14 3.36734E-13
 -1       940 1.86117E+01 9.88421E-01-6.39427E-05-8.07471E-01-1.41604E-14 3.25913E-13
 -1       941 1.89376E+01 9.10509E-01-2.50972E-05-6.61429E-01 7.04939E-14 3.63125E-13
 -1       942 1.91968E+01 8.08493E-01-1.45767E-05-5.41158E-01-2.61676E-14 1.46276E-13
 -1       943 1.94012E+01 6.97445E-01-1.23984E-05-4.39312E-01-4.52270E-14-4.74681E-14
 -1       944 1.95606E+01 5.87358E-01-1.05059E-05-3.52445E-01-7.97672E-14 9.32526E-14
 -1       945 1.96834E+01 4.84434E-01-8.74365E-06-2.78741E-01 1.52604E-14 1.73541E-13
 -1       946 1.97767E+01 3.92096E-01-7.17733E-06-2.16959E-01-2.07017E-13 2.62433E-13
 -1       947 1.98467E+01 3.11826E-01-5.81473E-06-1.65974E-01-6.24491E-14 1.99824E-13
 -1       948 1.98983E+01 2.43812E-01-4.64060E-06-1.24615E-01 3.90942E-14 1.65243E-13
 -1       949 1.99356E+01 1.87431E-01-3.64115E-06-9.16547E-02 4.42837E-14 1.78485E-13
 -1       950 1.99621E+01 1.41597E-01-2.80524E-06-6.58589E-02-1.46632E-13 1.66566E-13
 -1       951 1.99804E+01 1.05004E-01-2.12012E-06-4.60399E-02-2.60147E-13 2.11436E-13
 -1       952 1.99926E+01 7.62926E-02-1.57011E-06-3.11025E-02-1.57793E-13 3.71519E-13
 -1       953 2.00004E+01 5.41489E-02-1.13754E-06-2.00730E-02-1.65674E-13 6.82801E-14
 -1       954 2.00050E+01 3.73701E-02-8.04229E-07-1.21112E-02 9.30576E-14 4.52037E-14
 -1       955 2.00074E+01 2.48926E-02-5.52867E-07-6.51171E-03 7.42465E-14 1.01333E-13
 -1       956 2.00083E+01 1.58027E-02-3.68317E-07-2.69589E-03 7.22909E-15 2.02779E-13
 -1       957 2.00083E+01 9.33376E-03-2.39916E-07-1.99339E-04 1.94637E-13 2.20431E-13
 -1       958 2.00077E+01 4.85487E-03-1.67531E-07 1.34307E-03 2.66557E-13 2.62767E-13
 -1       959 2.00068E+01 1.85571E-03-1.73108E-07 2.21273E-03 2.00936E-13 2.87975E-14
 -1       960 2.00058E+01-7.11199E-05-1.20003E-09 2.62230E-03 5.63163E-14-4.73483E-15
 -1       961 2.00047E+01-1.24826E-03-4.86596E-08 2.72653E-03-3.98281E-14-3.63416E-14
 -1       962 2.00036E+01-1.92751E-03 3.09367E-08 2.64183E-03 1.57208E-13-2.98076E-13
 -1       963 1.95436E+01-1.14268E+00 1.13666E-03 2.53493E+00-1.54668E-13 3.21332E-14
 -1       964 1.90771E+01 4.24738E-01 1.00396E-04 1.35077E+00-2.25957E-14-7.30778E-14
 -1       965 1.91819E+01 5.72628E-01-1.07465E-05 1.08987E+00-1.79427E-13-9.01197E-14
 -1       966 1.93109E+01 6.24242E-01-2.57994E-05 8.78083E-01-4.36048E-14-1.47526E-13
 -1       967 1.94410E+01 6.14153E-01-3.09739E-05 7.04582E-01-9.31314E-14-1.87464E-14
 -1       968 1.95606E+01 5.67456E-01-3.41713E-05 5.61448E-01 3.10719E-14-9.03512E-14
 -1       969 1.96642E+01 5.01761E-01-2.99496E-05 4.43202E-01 9.42675E-14 1.42000E-13
 -1       970 1.97505E+01 4.28987E-01-2.40969E-05 3.45892E-01-2.55648E-14 2.62417E-14
 -1       971 1.98199E+01 3.56817E-01-1.88828E-05 2.66423E-01-7.60275E-14-9.67885E-14
 -1       972 1.98742E+01 2.89831E-01-1.45216E-05 2.02201E-01-7.02309E-14-1.45859E-13
 -1       973 1.99156E+01 2.30431E-01-1.09625E-05 1.50941E-01 1.29402E-14 6.54912E-14
 -1       974 1.99463E+01 1.79543E-01-8.10535E-06 1.10584E-01 2.84111E-14 3.27435E-13
 -1       975 1.99685E+01 1.37148E-01-5.84998E-06 7.92795E-02-7.59148E-14 3.64889E-13
 -1       976 1.99840E+01 1.02665E-01-4.10229E-06 5.53785E-02 1.06738E-13 2.08499E-13
 -1       977 1.99944E+01 7.52132E-02-2.77516E-06 3.74402E-02 4.65368E-14-1.51873E-14
 -1       978 2.00011E+01 5.37960E-02-1.78949E-06 2.42280E-02-7.33818E-14 1.17790E-13
 -1       979 2.00050E+01 3.74142E-02-1.07533E-06 1.47012E-02-9.83162E-16 3.95237E-13
 -1       980 2.00071E+01 2.51347E-02-5.72495E-07 8.00021E-03-1.02426E-13 4.48051E-13
 -1       981 2.00078E+01 1.61260E-02-2.30442E-07 3.42745E-03-2.54059E-13 3.27403E-13
 -1       982 2.00077E+01 9.67245E-03-7.36575E-09 4.27087E-04 3.34504E-14 7.73109E-14
 -1       983 2.00071E+01 5.17459E-03 1.31159E-07-1.43600E-03 8.78542E-14-1.33977E-13
 -1       984 2.00063E+01 2.14129E-03 2.10571E-07-2.49630E-03 1.75505E-14-1.37103E-13
 -1       985 2.00053E+01 1.76987E-04 2.13484E-07-3.00619E-03-1.29327E-13 1.23668E-14
 -1       986 2.00043E+01-1.03325E-03 2.25842E-07-3.15040E-03-2.91846E-13 2.60137E-14
 -1       987 2.00033E+01-1.73026E-03 6.54016E-07-3.06354E-03 2.03150E-14 3.13559E-13
 -1       988 2.00028E+01-2.06356E-03-3.68027E-07-2.81362E-03 1.44775E-13 5.23942E-13
 -1       989 1.45806E+01 8.92745E-01 6.85435E-03 1.28982E+00-1.52569E-13 4.67243E-14
 -1       990 1.60549E+01 2.63271E-01 6.27916E-03-2.44743E+00 7.46983E-14 1.43363E-13
 -1       991 1.43911E+01 8.36741E-01 1.36830E-02-1.44012E+00 6.45022E-14 3.46533E-13
 -1       992 2.00030E+01-2.52182E-03-3.62755E-07-1.61114E-03 8.29318E-14-3.00539E-13
 -1       993 1.67011E+01-1.06825E-01 8.93379E-03 2.65983E+00-2.01100E-13-1.16627E-13
 -1       994 1.90342E+01 1.35458E-01 8.87430E-06 1.67651E+00 2.49949E-14-2.16308E-14
 -1       995 1.91518E+01-3.71739E-01-4.50483E-03 2.07530E+00-7.86085E-14 2.04470E-14
 -1       996 2.00037E+01-2.25007E-03 6.12552E-08-1.84517E-03-8.06088E-14-3.74903E-13
 -1       997 2.00044E+01-2.30199E-03-4.49990E-07-8.73497E-06-2.67908E-13-2.40005E-13
 -1       998 2.00042E+01-2.26884E-03-1.57348E-06 1.17221E-03-4.54698E-14-6.79808E-13
 -1       999 1.50093E+01 1.15519E+00 4.26098E-03-1.41613E-01 6.14869E-14 8.36646E-14
 -1      1000 1.90686E+01 7.69918E-01-8.30391E-05 6.36607E-01-5.14995E-14-4.80513E-14
 -1      1001 1.67067E+01 1.15990E+00-5.61265E-04-7.47696E-01-7.98220E-14 3.08190E-13
 -1      1002 1.74743E+01 1.17451E+00-1.30771E-03-5.96489E-01-3.76543E-14 2.05670E-13
 -1      1003 1.80578E+01 1.13381E+00-2.91441E-04-4.92512E-01-2.37239E-14 1.18710E-13
 -1      1004 1.85097E+01 1.04886E+00-1.73302E-04-4.14177E-01 8.98812E-14 7.45917E-14
 -1      1005 1.88627E+01 9.40721E-01-1.28466E-04-3.49164E-01-1.10698E-13-6.08617E-14
 -1      1006 1.91399E+01 8.21547E-01-1.02697E-04-2.91984E-01-1.04829E-13 5.63097E-14
 -1      1007 1.93574E+01 7.00819E-01-7.97545E-05-2.40942E-01-3.00194E-14-4.28216E-14
 -1      1008 1.95268E+01 5.85463E-01-6.44552E-05-1.95572E-01-6.29332E-14 2.57118E-14
 -1      1009 1.96577E+01 4.79814E-01-5.24981E-05-1.55888E-01-1.16448E-13-1.52742E-13
 -1      1010 1.97576E+01 3.86228E-01-4.27494E-05-1.21907E-01-6.61821E-14-1.18219E-13
 -1      1011 1.98328E+01 3.05574E-01-3.45722E-05-9.34536E-02 3.73713E-14 1.60279E-14
 -1      1012 1.98885E+01 2.37685E-01-2.76488E-05-7.01514E-02 1.39698E-13-4.62083E-14
 -1      1013 1.99290E+01 1.81720E-01-2.18124E-05-5.14741E-02 6.61499E-15-5.79650E-14
 -1      1014 1.99579E+01 1.36457E-01-1.69494E-05-3.68144E-02-1.34707E-13-1.26686E-14
 -1      1015 1.99779E+01 1.00503E-01-1.29577E-05-2.55451E-02-1.98402E-13-5.80280E-14
 -1      1016 1.99914E+01 7.24411E-02-9.73441E-06-1.70638E-02-3.26375E-13-3.24838E-15
 -1      1017 2.00000E+01 5.09206E-02-7.17510E-06-1.08219E-02-5.34911E-14 1.75629E-13
 -1      1018 2.00051E+01 3.47153E-02-5.17764E-06-6.33955E-03 4.98669E-14 7.53160E-14
 -1      1019 2.00078E+01 2.27490E-02-3.64607E-06-3.21059E-03 4.18721E-14-5.73777E-14
 -1      1020 2.00089E+01 1.41022E-02-2.49434E-06-1.10063E-03 1.73497E-13 6.64489E-15
 -1      1021 2.00090E+01 8.00771E-03-1.65355E-06 2.58958E-04 2.92635E-13 1.08582E-13
 -1      1022 2.00083E+01 3.83697E-03-1.07321E-06 1.07891E-03 2.77704E-13-7.26793E-14
 -1      1023 2.00073E+01 1.08487E-03-8.40377E-07 1.52052E-03 1.95313E-14-1.07946E-14
 -1      1024 2.00062E+01-6.51573E-04 5.32210E-07 1.70840E-03-2.01975E-13-2.90228E-14
 -1      1025 2.00050E+01-1.68934E-03 2.65950E-06 1.72957E-03-1.26013E-13-3.84070E-13
 -1      1026 1.85733E+01 7.47631E-01-1.92846E-04 1.05185E+00-1.58049E-13 3.63849E-14
 -1      1027 1.92694E+01 7.10466E-01-1.39516E-04 4.97276E-01 5.62721E-14-2.00244E-13
 -1      1028 1.94382E+01 6.30350E-01-1.06818E-04 3.87619E-01-1.16076E-13-1.62515E-13
 -1      1029 1.95767E+01 5.42102E-01-8.83590E-05 3.00391E-01-4.77284E-14 5.53387E-14
 -1      1030 1.96880E+01 4.54203E-01-7.22897E-05 2.30760E-01 6.05826E-14 1.03482E-13
 -1      1031 1.97756E+01 3.71966E-01-5.86493E-05 1.75306E-01-4.38516E-14-1.17829E-13
 -1      1032 1.98432E+01 2.98362E-01-4.70281E-05 1.31412E-01-1.77179E-13 4.06553E-14
 -1      1033 1.98943E+01 2.34690E-01-3.71682E-05 9.69768E-02-1.05014E-13 3.77291E-14
 -1      1034 1.99321E+01 1.81118E-01-2.89003E-05 7.02598E-02-7.36931E-14 1.35938E-13
 -1      1035 1.99593E+01 1.37108E-01-2.20761E-05 4.97949E-02 4.03390E-15 1.71682E-13
 -1      1036 1.99784E+01 1.01719E-01-1.65418E-05 3.43440E-02 7.93805E-14 3.39753E-13
 -1      1037 1.99913E+01 7.38215E-02-1.21351E-05 2.28668E-02 1.22161E-14 2.59004E-13
 -1      1038 1.99997E+01 5.22510E-02-8.69133E-06 1.44977E-02-1.15751E-13 9.30484E-14
 -1      1039 2.00047E+01 3.58928E-02-6.05103E-06 8.52443E-03-1.18184E-13 1.50864E-13
 -1      1040 2.00074E+01 2.37361E-02-4.06633E-06 4.36969E-03-3.66630E-14 1.66255E-13
 -1      1041 2.00085E+01 1.48982E-02-2.60406E-06 1.57178E-03 8.16829E-14-7.32218E-14
 -1      1042 2.00086E+01 8.63045E-03-1.54562E-06-2.32792E-04 1.30974E-13-2.31393E-13
 -1      1043 2.00080E+01 4.31249E-03-7.78051E-07-1.32550E-03-1.19210E-13 1.45360E-13
 -1      1044 2.00071E+01 1.44095E-03-2.31655E-07-1.92047E-03-2.02244E-13 2.93516E-13
 -1      1045 2.00060E+01-3.87623E-04 1.35102E-07-2.18066E-03-1.51351E-13 7.46313E-14
 -1      1046 2.00049E+01-1.48819E-03-1.13623E-07-2.21288E-03-1.72312E-13-2.27326E-13
 -1      1047 1.57253E+01 1.07594E+00 6.21410E-03-9.94102E-01 6.89894E-14 4.21033E-13
 -1      1048 2.00042E+01-2.30611E-03-3.02186E-07-9.52880E-04-1.34805E-13-2.29298E-13
 -1      1049 1.88356E+01 7.90606E-01-2.65412E-05 8.16081E-01-4.34218E-14 4.51203E-14
 -1      1050 1.82961E+01 6.03762E-01-5.42783E-04 1.37026E+00-1.50622E-14-1.68026E-15
 -1      1051 2.00043E+01-1.91775E-03-8.44685E-07-2.04758E-03-2.08303E-13-3.88926E-13
 -1      1052 1.80558E+01 3.15243E-01 1.10122E-03 1.81139E+00 3.06970E-15-6.52690E-17
 -1      1053 1.63347E+01 7.33211E-01 1.40606E-03 1.53525E+00-1.20755E-13-3.36922E-14
 -1      1054 1.61509E+01 1.14500E+00-1.41278E-03 5.51019E-01-1.06115E-13-1.48796E-13
 -1      1055 2.00054E+01-1.67981E-03 3.74795E-06 5.36951E-04-3.66433E-13-2.43591E-13
 -1      1056 2.00054E+01-1.78541E-03 5.23785E-06-4.63945E-04-1.75738E-13-4.02365E-13
 -1      1057 1.92066E+01 7.55857E-01 1.68383E-04 2.76857E-01-6.29936E-14 7.65535E-14
 -1      1058 1.72430E+01 8.95633E-01 1.74832E-03 1.15453E+00 3.90548E-14-1.44919E-14
 -1      1059 1.76202E+01 1.19671E+00 1.54060E-03-3.16227E-03-3.37760E-14 4.34215E-14
 -1      1060 1.81648E+01 1.12146E+00-3.67363E-04-4.00823E-02-6.41136E-14-1.44915E-14
 -1      1061 1.85872E+01 1.02306E+00-2.74008E-04-5.92964E-02-9.31871E-14-1.41781E-13
 -1      1062 1.89197E+01 9.08057E-01-1.75305E-04-6.75172E-02-9.34658E-14-2.28339E-13
 -1      1063 1.91820E+01 7.86626E-01-1.38983E-04-6.78434E-02-1.48704E-13-1.38112E-13
 -1      1064 1.93883E+01 6.66768E-01-9.48337E-05-6.28992E-02-3.31285E-14-2.46060E-13
 -1      1065 1.95497E+01 5.53887E-01-6.29825E-05-5.51631E-02-5.85563E-14-1.93493E-13
 -1      1066 1.96747E+01 4.51525E-01-4.02916E-05-4.63472E-02-6.85085E-14-1.84751E-13
 -1      1067 1.97703E+01 3.61539E-01-2.41871E-05-3.75739E-02 4.57954E-14-2.42816E-13
 -1      1068 1.98422E+01 2.84483E-01-1.29442E-05-2.95124E-02-3.50848E-14-2.37112E-13
 -1      1069 1.98956E+01 2.19996E-01-5.31863E-06-2.25018E-02 7.67729E-14-2.92157E-13
 -1      1070 1.99343E+01 1.67132E-01-3.60856E-07-1.66557E-02-1.54209E-13-4.08197E-13
 -1      1071 1.99618E+01 1.24615E-01 2.66585E-06-1.19462E-02-1.59671E-13-4.49078E-13
 -1      1072 1.99808E+01 9.10367E-02 4.32975E-06-8.26561E-03-1.44892E-13-1.84279E-13
 -1      1073 1.99935E+01 6.49891E-02 5.06253E-06-5.46893E-03-3.84742E-14 2.67957E-14
 -1      1074 2.00015E+01 4.51460E-02 5.18557E-06-3.40220E-03-9.68396E-15 1.38215E-13
 -1      1075 2.00061E+01 3.03138E-02 4.93306E-06-1.91889E-03-1.20409E-13 1.89036E-13
 -1      1076 2.00085E+01 1.94528E-02 4.47253E-06-8.88665E-04 1.18049E-13 9.35889E-14
 -1      1077 2.00094E+01 1.16809E-02 3.92498E-06-2.00963E-04 3.11969E-13 3.76523E-14
 -1      1078 2.00092E+01 6.26642E-03 3.38108E-06 2.34687E-04 1.34225E-13-1.12886E-13
 -1      1079 2.00084E+01 2.61297E-03 2.60520E-06 4.90958E-04 1.51610E-13-3.24657E-13
 -1      1080 2.00073E+01 2.21111E-04 1.05067E-06 6.36581E-04-1.01903E-13-5.41276E-13
 -1      1081 2.00064E+01-9.20810E-04-6.32142E-06 5.53425E-04-3.27448E-13-2.95974E-13
 -1      1082 1.93989E+01 6.52258E-01 1.34308E-04 2.09715E-01-1.20218E-13 5.76866E-14
 -1      1083 1.89686E+01 8.51729E-01 1.52446E-04 3.65604E-01-1.05958E-13 1.84515E-14
 -1      1084 1.95525E+01 5.49395E-01 1.01068E-04 1.58398E-01-1.14649E-13-4.58894E-14
 -1      1085 1.96735E+01 4.52850E-01 7.52582E-05 1.18950E-01 6.82195E-14-2.27477E-15
 -1      1086 1.97672E+01 3.65909E-01 5.59174E-05 8.85707E-02-5.51469E-14 2.95074E-14
 -1      1087 1.98387E+01 2.90137E-01 4.14144E-05 6.52166E-02-9.96605E-14-5.75884E-14
 -1      1088 1.98922E+01 2.25869E-01 3.04660E-05 4.73485E-02-1.01461E-13-2.13776E-13
 -1      1089 1.99314E+01 1.72625E-01 2.21684E-05 3.37785E-02-9.23272E-14-1.92404E-13
 -1      1090 1.99595E+01 1.29437E-01 1.58849E-05 2.35733E-02-9.55129E-14 7.68634E-14
 -1      1091 1.99790E+01 9.50864E-02 1.11521E-05 1.59910E-02 7.99089E-15 1.19376E-13
 -1      1092 1.99921E+01 6.82744E-02 7.62038E-06 1.04393E-02 4.32207E-14 6.61522E-14
 -1      1093 2.00005E+01 4.77355E-02 5.01825E-06 6.44501E-03-1.47540E-14-5.04366E-14
 -1      1094 2.00055E+01 3.23028E-02 3.13199E-06 3.63198E-03-4.22063E-14-2.52518E-14
 -1      1095 2.00081E+01 2.09433E-02 1.79341E-06 1.70294E-03 1.02420E-13 1.30194E-13
 -1      1096 2.00091E+01 1.27704E-02 8.74613E-07 4.25227E-04 1.93629E-13 1.10380E-14
 -1      1097 2.00091E+01 7.04210E-03 2.85859E-07-3.81335E-04-1.23289E-13-1.29634E-13
 -1      1098 2.00084E+01 3.14967E-03-7.19065E-08-8.54576E-04-1.18688E-13-5.01573E-13
 -1      1099 2.00074E+01 6.07088E-04 1.15226E-06-1.09465E-03-1.83996E-13-5.10034E-13
 -1      1100 2.00061E+01-1.00609E-03-6.23308E-06-1.19667E-03-1.52018E-13-3.08041E-13
 -1      1101 1.77983E+01 9.81095E-01-6.70752E-04 8.37259E-01-1.04356E-13-7.93384E-15
 -1      1102 2.00049E+01-1.85590E-03 2.24789E-06-1.28387E-03-7.75550E-14-2.89419E-13
 -1      1103 1.63125E+01 1.21788E+00 3.97070E-03-1.56732E-01-1.50862E-13 8.70761E-14
 -1      1104 1.70121E+01 1.24155E+00-1.09912E-04-5.69190E-02-4.39776E-14 8.84946E-14
 -1      1105 1.82606E+01 9.90839E-01 1.46379E-04 6.14084E-01-7.62994E-14-1.03517E-13
 -1      1106 1.86551E+01 9.37050E-01 2.15879E-04 4.70087E-01-3.63655E-14-1.06445E-13
 -1      1107 3.07134E+01 9.94202E+00 2.42644E+00-6.50972E+00-3.61933E-14 1.37007E-12
 -1      1108 2.30765E+01 7.02364E+00 3.35598E-01-3.01067E+00-1.90403E-14 3.17614E-13
 -1      1109 2.10848E+01 6.36657E+00 1.37123E-01-1.62951E+00-1.54321E-14-1.47233E-13
 -1      1110 1.96209E+01 5.90788E+00 7.20061E-02-8.27630E-01-1.06026E-14-3.80957E-13
 -1      1111 1.83543E+01 5.51465E+00 2.78133E-02-3.37053E-01-6.60583E-15-5.00011E-13
 -1      1112 1.72914E+01 5.18437E+00-1.01666E-02-9.17216E-02-5.17641E-15-5.59916E-13
 -1      1113 1.64986E+01 4.93793E+00-3.88437E-02-4.19004E-02-2.08167E-15-5.94521E-13
 -1      1114 1.60499E+01 4.79878E+00-5.39922E-02-1.19820E-01-7.63278E-16-6.02923E-13
 -1      1115 1.59993E+01 4.78439E+00-5.13665E-02-2.36410E-01 9.97466E-16-5.97653E-13
 -1      1116 1.63307E+01 4.88955E+00-3.22273E-02-2.95569E-01 3.26128E-15-5.77899E-13
 -1      1117 1.69719E+01 5.09091E+00-2.23043E-03-2.19996E-01 3.81639E-15-5.32272E-13
 -1      1118 1.78154E+01 5.35400E+00 3.12831E-02 3.03596E-02 7.11931E-15-4.65268E-13
 -1      1119 1.87759E+01 5.65131E+00 6.18091E-02 4.68668E-01 9.46465E-15-3.51800E-13
 -1      1120 1.98238E+01 5.97408E+00 8.97731E-02 1.10345E+00 1.22402E-14-1.84689E-13
 -1      1121 2.10088E+01 6.34112E+00 1.28207E-01 1.96867E+00 1.66811E-14 1.04602E-13
 -1      1122 2.26568E+01 6.87251E+00 2.51467E-01 3.25483E+00 1.69309E-14 6.44630E-13
 -1      1123 2.76998E+01 8.77238E+00 1.54136E+00 5.70638E+00 3.13083E-14 1.69678E-12
 -1      1124 3.17266E+01 3.63754E+00 1.10662E+00-4.11761E+00-1.47549E-13 2.03398E-12
 -1      1125 2.43665E+01-1.98229E-01-6.50708E-01 1.47460E-03-4.85029E-14 1.68345E-12
 -1      1126 2.40837E+01-8.60192E-02-2.07786E-01 9.95508E-02-2.21542E-14 1.20077E-12
 -1      1127 2.45510E+01-2.46470E-02-1.83051E-02 6.48902E-02-2.57691E-14 8.86874E-13
 -1      1128 2.50280E+01 1.73742E-02 5.26061E-02 3.93486E-02-1.51025E-14 6.46393E-13
 -1      1129 2.51870E+01 5.21931E-02 1.00900E-01 6.15513E-03 6.09061E-15 6.00063E-13
 -1      1130 2.46897E+01 7.41128E-02 1.30290E-01-4.30554E-02-5.97612E-15 4.76494E-13
 -1      1131 2.33130E+01 6.52169E-02 1.09617E-01-1.00999E-01-2.70704E-15 3.63376E-13
 -1      1132 2.11838E+01 1.05228E-02 1.45524E-02-1.39765E-01-2.35592E-14 2.43833E-13
 -1      1133 1.89503E+01-7.55086E-02-1.28489E-01-1.22928E-01-1.64972E-14-6.81399E-14
 -1      1134 1.76012E+01-1.40500E-01-2.33382E-01-3.98615E-02 6.27970E-16-3.76331E-13
 -1      1135 1.78618E+01-1.30977E-01-2.19108E-01 6.88505E-02 1.02904E-14-3.88627E-13
 -1      1136 1.96295E+01-5.47019E-02-9.67831E-02 1.39688E-01-1.33513E-14-4.99281E-13
 -1      1137 2.20548E+01 2.98756E-02 4.31828E-02 1.42953E-01-5.99130E-16-6.02990E-13
 -1      1138 2.41717E+01 7.69266E-02 1.23826E-01 9.81471E-02 1.23686E-14-5.72320E-13
 -1      1139 2.54319E+01 8.09030E-02 1.32044E-01 4.28246E-02-8.33882E-15-3.74159E-13
 -1      1140 2.57867E+01 6.06502E-02 9.78248E-02 1.43785E-03-8.34922E-15-3.26548E-13
 -1      1141 2.54737E+01 3.48246E-02 5.43681E-02-2.03771E-02 8.91691E-15-2.84568E-13
 -1      1142 2.47893E+01 1.35349E-02 1.96247E-02-2.73420E-02-1.59471E-14-4.05273E-13
 -1      1143 2.39691E+01-5.12120E-04-2.05974E-03-2.60674E-02 4.45877E-15-4.68466E-13
 -1      1144 2.31608E+01-8.21692E-03-1.29588E-02-2.14494E-02-4.48738E-14-5.48270E-13
 -1      1145 2.24398E+01-1.14986E-02-1.68628E-02-1.62168E-02 4.69546E-15-5.24424E-13
 -1      1146 2.18343E+01-1.21080E-02-1.69152E-02-1.15723E-02 8.91268E-15-4.28121E-13
 -1      1147 2.13460E+01-1.12982E-02-1.51685E-02-7.87997E-03-1.42000E-14-6.23864E-13
 -1      1148 2.09637E+01-9.85886E-03-1.27900E-02-5.12285E-03 1.85948E-14-5.84108E-13
 -1      1149 2.06715E+01-8.24228E-03-1.03745E-02-3.14796E-03-1.22631E-14-3.34825E-13
 -1      1150 2.04529E+01-6.68519E-03-8.18886E-03-1.77882E-03 5.16854E-14-4.60347E-13
 -1      1151 2.02927E+01-5.29650E-03-6.32692E-03-8.58749E-04-2.89081E-15-6.07305E-13
 -1      1152 2.01778E+01-4.11388E-03-4.79793E-03-2.62271E-04-3.93725E-14-6.31924E-13
 -1      1153 2.00975E+01-3.13780E-03-3.57374E-03 1.06082E-04 6.20420E-14-5.32030E-13
 -1      1154 2.00431E+01-2.35091E-03-2.61262E-03 3.16915E-04-1.72338E-14-4.53097E-13
 -1      1155 2.00076E+01-1.72871E-03-1.87073E-03 4.21526E-04 2.45426E-14-5.51898E-13
 -1      1156 1.99858E+01-1.24522E-03-1.30722E-03 4.56688E-04-4.89129E-14-7.56806E-13
 -1      1157 1.99736E+01-8.75739E-04-8.86220E-04 4.48418E-04 2.89367E-14-9.59692E-13
 -1      1158 1.99679E+01-5.98162E-04-5.77279E-04 4.14835E-04-2.75239E-14-1.21720E-12
 -1      1159 1.99666E+01-3.93411E-04-3.55162E-04 3.68310E-04 3.88841E-14-1.09497E-12
 -1      1160 1.99680E+01-2.45446E-04-1.99311E-04 3.17055E-04 3.56398E-14-7.86174E-13
 -1      1161 1.99709E+01-1.41048E-04-9.32351E-05 2.66307E-04-1.54609E-15-6.03001E-13
 -1      1162 1.99746E+01-6.95081E-05-2.38865E-05 2.19210E-04 2.90391E-14-2.66172E-13
 -1      1163 1.99785E+01-2.22736E-05 1.89312E-05 1.77458E-04 1.38923E-14 1.78325E-13
 -1      1164 1.99823E+01 7.40220E-06 4.31006E-05 1.41771E-04-8.69550E-14-1.03370E-13
 -1      1165 1.99859E+01 2.47965E-05 5.46778E-05 1.12230E-04-3.98113E-14-7.87189E-13
 -1      1166 1.99891E+01 3.40276E-05 5.83428E-05 8.84978E-05 5.81870E-14-6.20302E-13
 -1      1167 1.99919E+01 3.83345E-05 5.78392E-05 6.99377E-05-6.62564E-14-3.51791E-13
 -1      1168 1.99943E+01 4.03157E-05 5.64305E-05 5.56088E-05-3.80202E-14-4.10101E-13
 -1      1169 1.99963E+01 4.20794E-05 5.73055E-05 4.40667E-05 6.97874E-14-7.67772E-15
 -1      1170 1.99980E+01 4.51806E-05 6.32417E-05 3.27977E-05 9.18182E-15 3.39725E-13
 -1      1171 1.99991E+01 4.91686E-05 7.24436E-05 1.65927E-05 5.98590E-14 3.57938E-13
 -1      1172 1.99998E+01 5.62896E-05 6.21708E-05-1.48774E-05-4.69094E-14-5.37586E-14
 -1      1173 1.99999E+01-2.31651E-05-4.74950E-05-2.40603E-05 4.48903E-14 2.60419E-13
 -1      1174 3.03165E+01 5.52691E-01 2.36035E-01 1.99025E+00-2.94972E-14 2.53830E-12
 -1      1175 2.35277E+01-6.19662E-02-5.84867E-01 8.89989E-02 1.23374E-14 2.14903E-12
 -1      1176 2.30312E+01-2.44051E-02-1.62577E-01-9.40374E-03 1.62925E-14 1.69005E-12
 -1      1177 2.30471E+01 5.56660E-03-5.58776E-03-2.40006E-02-1.99710E-16 1.39133E-12
 -1      1178 2.30560E+01 2.49910E-02 4.71313E-02-2.65833E-02-1.85832E-16 1.24341E-12
 -1      1179 2.27989E+01 3.53454E-02 6.97670E-02-1.90901E-02 9.00321E-15 1.08906E-12
 -1      1180 2.21065E+01 3.18304E-02 7.17422E-02-3.02836E-05-1.36219E-15 9.77274E-13
 -1      1181 2.09474E+01 1.11879E-02 4.50555E-02 2.89644E-02-1.57860E-15 8.90746E-13
 -1      1182 1.95010E+01-2.16520E-02-1.09633E-02 5.84535E-02-2.26240E-15 7.09571E-13
 -1      1183 1.81672E+01-5.13439E-02-7.72326E-02 7.25901E-02-1.06404E-14 6.71567E-13
 -1      1184 1.74312E+01-6.11557E-02-1.19917E-01 5.94934E-02 1.87498E-14 5.33504E-13
 -1      1185 1.76091E+01-4.71626E-02-1.15240E-01 2.20973E-02 7.08374E-15 4.77771E-13
 -1      1186 1.86552E+01-1.94109E-02-6.81392E-02-2.20361E-02 8.47065E-15 4.35194E-13
 -1      1187 2.01911E+01 6.70770E-03-6.48684E-03-5.33047E-02 5.13782E-15 4.48280E-13
 -1      1188 2.17249E+01 2.19102E-02 4.06382E-02-6.25526E-02 2.72664E-14 1.98896E-13
 -1      1189 2.28860E+01 2.56885E-02 6.05137E-02-5.35104E-02-6.44797E-15 7.91311E-14
 -1      1190 2.35268E+01 2.22050E-02 5.74776E-02-3.58699E-02-2.19356E-15 1.86611E-13
 -1      1191 2.36845E+01 1.57823E-02 4.27271E-02-1.80784E-02 3.84142E-14 2.56050E-14
 -1      1192 2.34889E+01 9.30151E-03 2.57297E-02-4.43846E-03 7.97539E-15-3.74666E-14
 -1      1193 2.30849E+01 4.09662E-03 1.16310E-02 4.12760E-03 4.53099E-15 5.38319E-14
 -1      1194 2.25918E+01 4.77103E-04 1.96099E-03 8.45324E-03-3.63568E-15 1.68629E-13
 -1      1195 2.20913E+01-1.74080E-03-3.70500E-03 9.87371E-03-5.69849E-15 3.37931E-13
 -1      1196 2.16310E+01-2.90004E-03-6.44017E-03 9.58420E-03 2.21742E-14 6.51423E-14
 -1      1197 2.12337E+01-3.33815E-03-7.29754E-03 8.44489E-03 1.90605E-14-3.46200E-13
 -1      1198 2.09059E+01-3.32670E-03-7.07993E-03 6.99711E-03 1.73582E-14-4.57620E-13
 -1      1199 2.06448E+01-3.06197E-03-6.32476E-03 5.54557E-03 1.08030E-14 1.68732E-14
 -1      1200 2.04429E+01-2.67601E-03-5.36152E-03 4.24064E-03-3.42384E-14 3.59313E-14
 -1      1201 2.02911E+01-2.25230E-03-4.37741E-03 3.14078E-03 9.19740E-15-2.45782E-14
 -1      1202 2.01799E+01-1.84020E-03-3.46947E-03 2.25388E-03 9.22233E-15 1.08687E-13
 -1      1203 2.01008E+01-1.46621E-03-2.68055E-03 1.56272E-03 5.46785E-15-8.15117E-14
 -1      1204 2.00464E+01-1.14216E-03-2.02247E-03 1.03960E-03-2.01142E-14 2.99484E-14
 -1      1205 2.00104E+01-8.70840E-04-1.49026E-03 6.54407E-04 2.37329E-14-3.10456E-13
 -1      1206 1.99880E+01-6.49875E-04-1.07076E-03 3.78701E-04 5.88701E-15-3.90914E-13
 -1      1207 1.99752E+01-4.74153E-04-7.47663E-04 1.87533E-04-4.16032E-14 5.13682E-14
 -1      1208 1.99691E+01-3.37429E-04-5.04275E-04 6.00187E-05-1.22690E-14 1.76881E-13
 -1      1209 1.99674E+01-2.33275E-04-3.25075E-04-2.07419E-05-5.29376E-14-1.25496E-13
 -1      1210 1.99685E+01-1.55625E-04-1.96381E-04-6.80622E-05 2.76422E-14-8.83099E-13
 -1      1211 1.99712E+01-9.90576E-05-1.06596E-04-9.21898E-05 3.22846E-14-6.95340E-13
 -1      1212 1.99748E+01-5.88997E-05-4.61571E-05-1.00847E-04-4.35799E-14-4.70921E-13
 -1      1213 1.99786E+01-3.12274E-05-7.35531E-06-9.97359E-05-1.87591E-14-3.99801E-13
 -1      1214 1.99824E+01-1.28006E-05 1.59266E-05-9.29879E-05-1.39147E-14-4.55366E-13
 -1      1215 1.99859E+01-9.58637E-07 2.85060E-05-8.35413E-05-2.55782E-14-4.86973E-13
 -1      1216 1.99891E+01 6.51162E-06 3.42175E-05-7.34564E-05 1.55955E-14-6.89027E-13
 -1      1217 1.99919E+01 1.15173E-05 3.62699E-05-6.41468E-05-4.15100E-14-6.11457E-13
 -1      1218 1.99943E+01 1.57194E-05 3.76139E-05-5.64981E-05-1.10825E-13-4.28474E-13
 -1      1219 1.99963E+01 2.07146E-05 4.14577E-05-5.08995E-05 8.48778E-14-1.02447E-12
 -1      1220 1.99979E+01 2.79598E-05 5.09529E-05-4.68449E-05 1.94468E-14-1.41248E-12
 -1      1221 1.99991E+01 3.61315E-05 6.39578E-05-4.03479E-05 6.47903E-14-1.38655E-12
 -1      1222 1.99998E+01 3.09954E-05 5.39591E-05-1.86615E-05 9.87176E-14-1.64905E-12
 -1      1223 1.99999E+01-2.05586E-05-4.87010E-05 2.13202E-05-1.13139E-13-9.97721E-13
 -1      1224 1.99998E+01 6.11537E-05-4.53678E-05 2.00488E-05-8.48888E-13-1.24514E-14
 -1      1225 1.99998E+01-2.31167E-05 5.69344E-05 1.21632E-05-9.61210E-13-1.84824E-14
 -1      1226 1.99998E+01-6.76774E-04 5.70813E-05-2.51146E-05 6.13862E-14 8.97977E-16
 -1      1227 1.99998E+01-1.74171E-03 2.61503E-05-4.01514E-05 3.24465E-13-1.14544E-13
 -1      1228 1.99998E+01-2.97186E-03-6.08342E-06-4.25542E-05 9.40975E-13 1.19024E-13
 -1      1229 1.99998E+01-4.14465E-03-3.19631E-05-3.70362E-05 5.36485E-13-2.44283E-13
 -1      1230 1.99998E+01-5.10263E-03-5.00617E-05-2.74418E-05 1.35358E-13-1.14662E-13
 -1      1231 1.99998E+01-5.73146E-03-6.10862E-05-1.43363E-05 4.61064E-13-1.41467E-14
 -1      1232 1.99998E+01-5.94704E-03-6.47057E-05 1.14635E-07 1.64760E-13 3.47453E-14
 -1      1233 1.99998E+01-5.72498E-03-6.09857E-05 1.45649E-05 3.90451E-13-3.25365E-14
 -1      1234 1.99998E+01-5.09041E-03-4.97951E-05 2.76120E-05-7.47505E-13-2.99035E-13
 -1      1235 1.99998E+01-4.12758E-03-3.15211E-05 3.77208E-05-1.89141E-12 8.30963E-14
 -1      1236 1.99998E+01-2.95276E-03-5.80857E-06 4.26586E-05-1.56122E-12 1.04588E-13
 -1      1237 1.99998E+01-1.72168E-03 2.70270E-05 4.06933E-05-6.76998E-13 1.27467E-13
 -1      1238 1.99998E+01-6.44987E-04 6.22944E-05 3.00380E-05-1.14125E-13-2.29020E-14
 -1      1239 1.99999E+01-4.01792E-05 5.24651E-05-2.72186E-05-3.12648E-13-2.23056E-13
 -1      1240 1.99998E+01 6.83652E-05-4.64655E-05-2.25643E-05-1.48210E-13 1.87220E-13
 -1      1241-1.19602E+00-2.35605E+01-3.70548E+00-2.13227E+00 2.46880E-12 4.37220E-13
 -1      1242-1.72978E+00-1.47805E+01-3.04009E+00-3.88058E+00 3.18146E-12 1.06443E-12
 -1      1243 4.26718E-01-2.12115E+00-1.82111E+00 6.89979E-02 2.75824E-12 1.65057E-12
 -1      1244 9.14977E+00 7.77613E+00-2.32350E-01 8.25292E+00 2.15872E-12 1.96998E-12
 -1      1245 2.56135E+01 1.10495E+01 1.38612E+00 1.59363E+01 1.58240E-12 2.23954E-12
 -1      1246 4.65090E+01 8.02171E+00 2.96363E+00 1.77246E+01 8.26228E-13 1.84941E-12
 -1      1247 6.23050E+01 3.33965E+00 3.88770E+00 9.87501E+00 2.44686E-13 8.34333E-13
 -1      1248 6.68534E+01 1.66261E+00 4.19669E+00-2.96459E+00 1.56507E-13-8.73301E-13
 -1      1249 5.70904E+01 5.11205E+00 3.62881E+00-1.40731E+01 6.67327E-13-2.16582E-12
 -1      1250 3.77812E+01 9.93367E+00 2.37545E+00-1.77434E+01 1.64468E-12-3.02380E-12
 -1      1251 1.76207E+01 1.05978E+01 7.01889E-01-1.30801E+01 2.50422E-12-2.95275E-12
 -1      1252 4.16889E+00 4.03546E+00-1.06562E+00-4.33390E+00 2.68652E-12-2.12030E-12
 -1      1253-1.13874E+00-7.88636E+00-2.44445E+00 2.36586E+00 2.16716E-12-1.10856E-12
 -1      1254-1.47650E+00-1.92294E+01-3.36693E+00 3.56601E+00 1.18650E-12-3.61905E-13
 -1      1255-8.47158E-01-2.42386E+01-3.73178E+00 2.14687E-01-8.42937E-14-1.02619E-13
 -1      1256-1.47610E+00-2.03490E+01-3.48470E+00-3.48865E+00-1.30262E-12-3.73604E-13
 -1      1257-1.56614E+00-9.82448E+00-2.71533E+00-3.11918E+00-2.21601E-12-1.08125E-12
 -1      1258 2.51716E+00 1.85992E+00-1.43062E+00 2.58114E+00-2.59615E-12-1.89848E-12
 -1      1259 1.38947E+01 9.49741E+00 2.30833E-01 1.10817E+01-2.41185E-12-2.63323E-12
 -1      1260 3.27504E+01 1.04727E+01 1.90710E+00 1.73164E+01-1.52744E-12-2.45781E-12
 -1      1261 5.35170E+01 6.29270E+00 3.42866E+00 1.62847E+01-5.88418E-13-1.58917E-12
 -1      1262 6.64698E+01 2.36243E+00 4.30760E+00 6.52727E+00-1.72896E-13-2.50411E-13
 -1      1263 6.58329E+01 2.60241E+00 4.23525E+00-6.85736E+00-2.39066E-13 1.30623E-12
 -1      1264 5.14962E+01 6.81377E+00 3.32112E+00-1.67697E+01-8.53095E-13 2.37277E-12
 -1      1265 2.97370E+01 1.08204E+01 1.72106E+00-1.69253E+01-1.86295E-12 2.81375E-12
 -1      1266 1.07433E+01 8.19825E+00-1.62959E-01-9.25427E+00-2.70028E-12 2.70850E-12
 -1      1267 4.75086E-01-2.09100E+00-1.86769E+00-1.02009E-01-2.68296E-12 1.80878E-12
 -1      1268-1.80519E+00-1.50036E+01-3.07719E+00 4.19853E+00-1.69487E-12 7.08433E-13
 -1      1269-1.11323E+00-2.37965E+01-3.71877E+00 2.26709E+00 3.30957E-13 1.77115E-13
 -1      1270 2.54974E+01 2.01830E+00-7.34017E-01-2.39668E+00-5.55112E-14 1.14692E-12
 -1      1271 2.28310E+01 4.98137E+00-3.46149E-02-2.30511E+00-1.49616E-13 1.03487E-13
 -1      1272 2.37732E+01 5.17395E+00-5.70494E-02-3.34581E+00-1.95788E-13 3.46626E-13
 -1      1273 2.09993E+01 5.19275E+00-1.89779E-02-1.39447E+00-1.47826E-13-2.45928E-13
 -1      1274 2.18359E+01 5.43837E+00 3.68737E-02-1.89611E+00-1.70600E-13-9.43412E-14
 -1      1275 2.29041E+01 4.06828E+00-1.15152E-02-2.02762E+00-2.61319E-13 1.04167E-13
 -1      1276 1.95057E+01 5.13018E+00-1.66046E-02-7.22982E-01-1.15227E-13-4.29504E-13
 -1      1277 2.02407E+01 5.35583E+00 3.08160E-02-1.03999E+00-1.31117E-13-3.43454E-13
 -1      1278 2.09979E+01 4.47542E+00-2.04136E-02-1.26544E+00-2.24661E-13-1.88204E-13
 -1      1279 1.81873E+01 5.02418E+00-2.13375E-02-2.98491E-01-8.06299E-14-5.29160E-13
 -1      1280 1.88342E+01 5.22156E+00 2.08531E-02-4.87030E-01-9.36057E-14-4.84626E-13
 -1      1281 1.94053E+01 4.63524E+00-2.22245E-02-6.67288E-01-1.68532E-13-3.48777E-13
 -1      1282 1.71021E+01 4.93726E+00-2.66199E-02-9.74231E-02-4.86972E-14-5.79663E-13
 -1      1283 1.76214E+01 5.09556E+00 9.25763E-03-1.79091E-01-6.35741E-14-5.54674E-13
 -1      1284 1.80368E+01 4.73050E+00-2.01141E-02-2.92789E-01-1.15529E-13-4.38104E-13
 -1      1285 1.63125E+01 4.88318E+00-2.85292E-02-7.20968E-02-2.21767E-14-5.98503E-13
 -1      1286 1.66667E+01 4.99058E+00-4.19995E-03-7.43465E-02-3.13638E-14-5.89785E-13
 -1      1287 1.69306E+01 4.80426E+00-1.73145E-02-1.25362E-01-6.93681E-14-4.80799E-13
 -1      1288 1.59334E+01 4.86481E+00-2.39557E-02-1.57092E-01 8.83581E-15-6.11281E-13
 -1      1289 1.60701E+01 4.90630E+00-1.68211E-02-1.17238E-01-1.54737E-15-6.05874E-13
 -1      1290 1.61844E+01 4.84889E+00-1.53888E-02-1.19741E-01-1.77931E-14-4.97003E-13
 -1      1291 1.60025E+01 4.87473E+00-1.36083E-02-2.57198E-01 3.04791E-14-6.01101E-13
 -1      1292 1.59113E+01 4.84733E+00-2.50698E-02-2.22399E-01 1.96450E-14-6.09976E-13
 -1      1293 1.58991E+01 4.84522E+00-1.46716E-02-2.01358E-01 2.50060E-14-5.06743E-13
 -1      1294 1.64804E+01 4.90889E+00-5.01486E-04-2.76652E-01 5.28744E-14-5.76273E-13
 -1      1295 1.61911E+01 4.82155E+00-2.66098E-02-2.90612E-01 4.57898E-14-5.92440E-13
 -1      1296 1.60952E+01 4.78898E+00-1.53999E-02-2.71232E-01 5.94715E-14-4.96309E-13
 -1      1297 1.72654E+01 4.96840E+00 1.15350E-02-1.45268E-01 7.94156E-14-5.24617E-13
 -1      1298 1.68357E+01 4.83869E+00-2.17208E-02-2.37452E-01 6.52950E-14-5.53528E-13
 -1      1299 1.67096E+01 4.69962E+00-1.70155E-02-2.37498E-01 9.71220E-14-4.64994E-13
 -1      1300 1.82191E+01 5.05522E+00 2.04136E-02 1.61936E-01 1.04652E-13-4.42733E-13
 -1      1301 1.77188E+01 4.90215E+00-1.34779E-02-1.60344E-02 9.55763E-14-4.88869E-13
 -1      1302 1.76132E+01 4.60962E+00-1.85132E-02-4.42329E-02 1.38820E-13-4.08505E-13
 -1      1303 1.92834E+01 5.16908E+00 2.56684E-02 6.58092E-01 1.47632E-13-3.28466E-13
 -1      1304 1.87351E+01 4.99986E+00-6.35905E-03 3.85907E-01 1.29924E-13-3.94344E-13
 -1      1305 1.86835E+01 4.53875E+00-2.04370E-02 3.26947E-01 1.93588E-13-3.22038E-13
 -1      1306 2.04173E+01 5.29292E+00 2.76250E-02 1.33759E+00 1.82743E-13-1.45137E-13
 -1      1307 1.98305E+01 5.10847E+00-4.84450E-03 9.68686E-01 1.63008E-13-2.54231E-13
 -1      1308 1.98541E+01 4.47726E+00-2.23838E-02 8.73307E-01 2.49877E-13-1.96832E-13
 -1      1309 2.17148E+01 5.38624E+00 3.14713E-02 2.23618E+00 2.02283E-13 1.70738E-13
 -1      1310 2.10232E+01 5.16771E+00-1.33822E-02 1.72982E+00 1.82979E-13-1.71321E-14
 -1      1311 2.11333E+01 4.36285E+00-2.23824E-02 1.58083E+00 2.91590E-13 1.77774E-14
 -1      1312 2.35645E+01 5.22206E+00 3.63925E-02 3.52408E+00 1.67144E-13 7.44751E-13
 -1      1313 2.25321E+01 5.00700E+00-3.30200E-02 2.69949E+00 1.66034E-13 3.97585E-13
 -1      1314 2.27191E+01 3.99653E+00-1.15258E-02 2.42706E+00 2.95639E-13 3.62488E-13
 -1      1315 2.99229E+01 3.36614E+00 9.19541E-01 4.43048E+00 7.43433E-14 1.76004E-12
 -1      1316 2.46571E+01 3.73741E+00-1.77980E-01 3.48927E+00 8.01859E-14 1.05935E-12
 -1      1317 2.48504E+01 2.61216E+00-1.34382E-02 2.90134E+00 2.72702E-13 8.76132E-13
 -1      1318 2.43990E+01 3.23802E-01-7.91050E-01 8.68692E-01 1.40922E-13 1.72462E-12
 -1      1319 2.57148E+01 8.37977E-02-4.09280E-01-8.42570E-01-1.62440E-13 1.20104E-12
 -1      1320 2.48775E+01 2.68704E-01-1.50130E-01-4.20525E-01-1.51754E-13 1.00608E-12
 -1      1321 2.45294E+01 1.33719E-01-6.80757E-02-5.05402E-02-1.15130E-13 9.31998E-13
 -1      1322 2.44837E+01 6.44497E-02-8.84088E-03 3.92186E-03-1.15796E-13 7.61086E-13
 -1      1323 2.48431E+01 3.04728E-01-1.03771E-01-5.77018E-01-2.59848E-13 5.92092E-13
 -1      1324 2.43929E+01 3.57154E-02 6.21668E-03 1.37277E-01-9.08839E-14 7.26780E-13
 -1      1325 2.45521E+01 7.44912E-04 1.53506E-02 1.38126E-01-8.95308E-14 6.00284E-13
 -1      1326 2.43245E+01 7.65856E-02-3.09120E-02 8.14190E-02-1.90434E-13 5.00777E-13
 -1      1327 2.45917E+01-2.10495E-02 1.72821E-02 1.23320E-01-5.44625E-14 5.55597E-13
 -1      1328 2.47119E+01-4.95235E-02 1.47042E-02 1.01023E-01-5.01949E-14 4.58238E-13
 -1      1329 2.43181E+01-3.24863E-02 1.05907E-03 2.24322E-01-1.30953E-13 4.24862E-13
 -1      1330 2.47290E+01-7.30618E-02 1.90657E-02-2.89950E-02-2.17283E-14 4.52846E-13
 -1      1331 2.46311E+01-9.31172E-02 1.55678E-02-7.81965E-02-3.77606E-14 4.18264E-13
 -1      1332 2.44015E+01-1.19864E-01 1.48543E-02 5.83849E-02-7.66861E-14 3.51283E-13
 -1      1333 2.45087E+01-1.14268E-01 2.32135E-02-2.99276E-01-3.46580E-14 4.05516E-13
 -1      1334 2.40592E+01-1.13703E-01 1.80555E-02-3.69358E-01-2.19460E-14 3.65950E-13
 -1      1335 2.43319E+01-1.89700E-01 2.66438E-02-3.57973E-01-7.78457E-14 3.07851E-13
 -1      1336 2.37242E+01-1.16928E-01 2.42382E-02-6.12700E-01-1.56940E-14 3.44183E-13
 -1      1337 2.29029E+01-8.09770E-02 1.46547E-02-6.77629E-01-6.41345E-14 2.81837E-13
 -1      1338 2.39182E+01-2.01521E-01 3.24065E-02-9.21894E-01-5.78357E-14 2.93533E-13
 -1      1339 2.23734E+01-5.03207E-02 1.30110E-02-8.12774E-01-6.87408E-14 2.91753E-13
 -1      1340 2.13608E+01 2.01957E-02-9.61596E-04-8.27941E-01-1.03428E-13 1.65645E-13
 -1      1341 2.30909E+01-1.04902E-01 2.17059E-02-1.39701E+00-1.16527E-13 2.64636E-13
 -1      1342 2.07927E+01 7.86430E-02-1.14223E-02-7.19065E-01-1.17939E-13 1.17628E-13
 -1      1343 1.99644E+01 1.51855E-01-2.49529E-02-6.50608E-01-1.45956E-13-3.68941E-14
 -1      1344 2.20084E+01 9.82385E-02-1.08789E-02-1.45045E+00-1.79254E-13 1.82007E-13
 -1      1345 1.96155E+01 1.98964E-01-3.54257E-02-2.77088E-01-1.06665E-13-8.41202E-14
 -1      1346 1.93650E+01 2.25325E-01-4.03410E-02-1.43870E-01-3.57075E-14-1.86952E-13
 -1      1347 2.10845E+01 3.08494E-01-5.15461E-02-8.70322E-01-1.80418E-13 8.06473E-14
 -1      1348 1.94349E+01 2.18787E-01-3.93971E-02 3.27212E-01 3.30291E-15-3.11532E-13
 -1      1349 1.99047E+01 1.77364E-01-3.20807E-02 4.51066E-01-4.11372E-14-3.40145E-13
 -1      1350 2.07989E+01 3.84417E-01-6.78474E-02 1.72812E-01-9.20895E-14-1.17848E-13
 -1      1351 2.03627E+01 1.23856E-01-2.12503E-02 7.72329E-01-9.28198E-14-3.57603E-13
 -1      1352 2.13340E+01 4.54460E-02-6.69111E-03 8.21267E-01-7.87087E-14-4.36762E-13
 -1      1353 2.13319E+01 2.68407E-01-4.38024E-02 1.14856E+00-1.04071E-13-3.28114E-13
 -1      1354 2.19457E+01-9.44293E-03 1.80751E-03 8.63225E-01-7.34872E-15-4.32321E-13
 -1      1355 2.30011E+01-7.61382E-02 1.52329E-02 8.31584E-01 1.32806E-14-4.55150E-13
 -1      1356 2.24016E+01 4.47499E-02-1.99372E-03 1.57902E+00-7.32465E-14-3.92800E-13
 -1      1357 2.35133E+01-9.87803E-02 1.42109E-02 6.48529E-01 5.18856E-15-4.58647E-13
 -1      1358 2.43039E+01-1.28850E-01 2.23846E-02 5.76451E-01 1.86691E-14-4.03858E-13
 -1      1359 2.35019E+01-1.42511E-01 2.76450E-02 1.38526E+00-1.29766E-14-3.56742E-13
 -1      1360 2.45823E+01-1.20506E-01 1.41927E-02 3.10470E-01 2.78770E-14-3.72070E-13
 -1      1361 2.49663E+01-1.18886E-01 1.72569E-02 2.39411E-01 1.08420E-14-3.36450E-13
 -1      1362 2.42496E+01-2.16674E-01 3.47733E-02 8.27378E-01 6.60444E-14-3.35600E-13
 -1      1363 2.50025E+01-9.70951E-02 8.22590E-03 5.55571E-03-2.61917E-14-2.68913E-13
 -1      1364 2.50186E+01-8.01490E-02 8.56155E-03-4.39165E-02-5.89199E-15-2.63755E-13
 -1      1365 2.45193E+01-1.93170E-01 2.74576E-02 2.22807E-01 1.87298E-14-2.58600E-13
 -1      1366 2.48728E+01-5.94770E-02 2.46403E-03-1.97686E-01 5.08317E-14-2.82323E-13
 -1      1367 2.46410E+01-4.02517E-02 1.74543E-03-2.23507E-01 2.98685E-14-2.76440E-13
 -1      1368 2.43769E+01-1.27496E-01 1.60213E-02-2.37618E-01 4.70214E-14-2.02615E-13
 -1      1369 2.43887E+01-2.64044E-02-7.94052E-04-2.98736E-01-2.82426E-14-3.02850E-13
 -1      1370 2.40321E+01-1.09713E-02-1.77263E-03-3.06953E-01-4.93308E-14-3.37563E-13
 -1      1371 2.39620E+01-6.24269E-02 6.32885E-03-5.05283E-01-1.42100E-14-2.87162E-13
 -1      1372 2.37368E+01-3.94880E-03-1.76484E-03-3.25379E-01-5.89049E-14-3.83027E-13
 -1      1373 2.33463E+01 6.41501E-03-2.79356E-03-3.23097E-01-7.26333E-14-4.44030E-13
 -1      1374 2.34109E+01-1.57188E-02 2.37808E-05-6.11856E-01-1.06453E-13-2.70393E-13
 -1      1375 2.30514E+01 8.64964E-03-1.47506E-03-3.07934E-01-2.48122E-14-4.51424E-13
 -1      1376 2.26813E+01 1.47566E-02-2.51857E-03-3.00561E-01-3.81210E-14-4.74825E-13
 -1      1377 2.28257E+01 1.14230E-02-3.32843E-03-6.12105E-01-1.07098E-13-3.31384E-13
 -1      1378 2.24117E+01 1.42710E-02-7.76761E-04-2.69330E-01 8.64760E-16-4.16923E-13
 -1      1379 2.20883E+01 1.74102E-02-1.80733E-03-2.60239E-01 2.96282E-14-3.92139E-13
 -1      1380 2.22702E+01 2.40270E-02-4.69972E-03-5.54475E-01 1.68563E-14-4.28567E-13
 -1      1381 2.18553E+01 1.56744E-02-1.24973E-04-2.23993E-01-3.00161E-14-3.27575E-13
 -1      1382 2.15869E+01 1.69593E-02-1.09788E-03-2.15009E-01-6.91747E-14-4.06011E-13
 -1      1383 2.17777E+01 2.76764E-02-4.93382E-03-4.72590E-01 5.77793E-15-2.87217E-13
 -1      1384 2.13936E+01 1.48447E-02 3.25151E-04-1.79822E-01-2.13631E-15-3.98615E-13
 -1      1385 2.11788E+01 1.50648E-02-5.46702E-04-1.71793E-01 1.67915E-14-3.72986E-13
 -1      1386 2.13608E+01 2.65626E-02-4.59415E-03-3.86496E-01-7.91635E-14-1.85688E-13
 -1      1387 2.10231E+01 1.30183E-02 5.71661E-04-1.40517E-01 7.59588E-14-3.27504E-13
 -1      1388 2.08558E+01 1.26788E-02-1.72730E-04-1.33738E-01 4.52125E-14-2.24444E-13
 -1      1389 2.10196E+01 2.33216E-02-4.01197E-03-3.06601E-01 9.75001E-14-4.09095E-14
 -1      1390 2.07334E+01 1.08927E-02 6.65565E-04-1.07359E-01-1.88352E-14-1.46352E-13
 -1      1391 2.06061E+01 1.02970E-02 5.59788E-05-1.01842E-01-2.43338E-15-1.89567E-13
 -1      1392 2.07478E+01 1.94310E-02-3.36627E-03-2.37357E-01 7.56079E-14 2.79546E-14
 -1      1393 2.05119E+01 8.82606E-03 6.62674E-04-8.03587E-02-2.52692E-14-2.89993E-13
 -1      1394 2.04171E+01 8.14709E-03 1.80793E-04-7.59845E-02-1.09147E-14-3.54977E-13
 -1      1395 2.05359E+01 1.56365E-02-2.74643E-03-1.79880E-01-1.29096E-13 7.85043E-14
 -1      1396 2.03459E+01 6.98040E-03 6.06691E-04-5.89356E-02-4.89116E-14-4.27523E-13
 -1      1397 2.02768E+01 6.31165E-03 2.37174E-04-5.55399E-02-7.63609E-14-4.58636E-13
 -1      1398 2.03741E+01 1.22653E-02-2.19242E-03-1.33591E-01-8.58486E-14-2.20130E-13
 -1      1399 2.02241E+01 5.41092E-03 5.26972E-04-4.22909E-02-2.80138E-14-5.07600E-13
 -1      1400 2.01748E+01 4.79906E-03 2.51292E-04-3.97031E-02 3.57353E-15-4.83581E-13
 -1      1401 2.02529E+01 9.42257E-03-1.71794E-03-9.71728E-02-7.07732E-14-3.84482E-13
 -1      1402 2.01366E+01 4.11867E-03 4.41322E-04-2.95975E-02 2.55639E-14-4.83245E-13
 -1      1403 2.01023E+01 3.58352E-03 2.41026E-04-2.76600E-02 2.08725E-14-4.28586E-13
 -1      1404 2.01638E+01 7.10421E-03-1.32325E-03-6.90814E-02 2.05831E-14-3.89900E-13
 -1      1405 2.00753E+01 3.07961E-03 3.59567E-04-2.00894E-02-1.64376E-15-3.83916E-13
 -1      1406 2.00523E+01 2.62596E-03 2.18013E-04-1.86653E-02-2.57821E-14-4.35769E-13
 -1      1407 2.00998E+01 5.25834E-03-1.00217E-03-4.78040E-02 3.05277E-14-4.33837E-13
 -1      1408 2.00337E+01 2.26006E-03 2.86486E-04-1.30986E-02-8.80142E-14-3.83540E-13
 -1      1409 2.00188E+01 1.88462E-03 1.89545E-04-1.20727E-02-1.50891E-13-4.65923E-13
 -1      1410 2.00549E+01 3.81666E-03-7.45796E-04-3.19772E-02-8.34797E-14-3.37431E-13
 -1      1411 2.00065E+01 1.62465E-03 2.23856E-04-8.06241E-03-7.89929E-14-6.02560E-13
 -1      1412 1.99975E+01 1.32011E-03 1.60016E-04-7.34054E-03-8.90507E-14-7.32604E-13
 -1      1413 2.00245E+01 2.70972E-03-5.44519E-04-2.04291E-02-2.58922E-13-4.41049E-13
 -1      1414 1.99897E+01 1.14005E-03 1.71774E-04-4.51914E-03-8.59351E-14-7.17918E-13
 -1      1415 1.99849E+01 8.97413E-04 1.31933E-04-4.02556E-03-9.25825E-14-8.79059E-13
 -1      1416 2.00046E+01 1.87373E-03-3.89043E-04-1.21829E-02-1.23032E-13-5.00460E-13
 -1      1417 1.99803E+01 7.76673E-04 1.29467E-04-2.09714E-03-3.41364E-14-8.54516E-13
 -1      1418 1.99782E+01 5.86603E-04 1.06602E-04-1.77198E-03 2.03346E-14-8.95308E-13
 -1      1419 1.99923E+01 1.25313E-03-2.70906E-04-6.44278E-03-8.22149E-14-5.67296E-13
 -1      1420 1.99759E+01 5.09123E-04 9.57679E-05-5.02285E-04 5.60711E-14-7.55565E-13
 -1      1421 1.99756E+01 3.62695E-04 8.45740E-05-2.98917E-04 1.38260E-13-6.70407E-13
 -1      1422 1.99854E+01 8.01061E-04-1.82687E-04-2.57205E-03 8.47728E-14-3.24240E-13
 -1      1423 1.99748E+01 3.16143E-04 6.93924E-05 4.94561E-04 1.17493E-13-7.54096E-13
 -1      1424 1.99757E+01 2.05245E-04 6.59434E-05 6.11898E-04 3.00304E-14-5.65084E-13
 -1      1425 1.99822E+01 4.78855E-04-1.18057E-04-6.98749E-05 1.18024E-13-4.50575E-13
 -1      1426 1.99758E+01 1.80287E-04 4.90853E-05 1.06917E-03 9.39392E-14-5.49018E-13
 -1      1427 1.99773E+01 9.77896E-05 5.05349E-05 1.12746E-03 5.33903E-14-4.41551E-13
 -1      1428 1.99815E+01 2.55186E-04-7.17293E-05 1.45167E-03 1.12424E-13-5.68012E-13
 -1      1429 1.99780E+01 8.74664E-05 3.36973E-05 1.35415E-03 8.74018E-14-1.78641E-13
 -1      1430 1.99798E+01 2.72590E-05 3.80287E-05 1.37341E-03 1.82424E-13-8.78548E-14
 -1      1431 1.99822E+01 1.05040E-04-3.93691E-05 2.28827E-03 1.95764E-13-1.46188E-13
 -1      1432 1.99808E+01 2.64620E-05 2.22175E-05 1.44776E-03 1.83754E-15-1.45161E-13
 -1      1433 1.99826E+01-1.65890E-05 2.80380E-05 1.44253E-03-1.44039E-13-2.06020E-13
 -1      1434 1.99839E+01 8.71436E-06-1.74790E-05 2.66145E-03 6.34475E-14-1.83124E-13
 -1      1435 1.99838E+01-1.15513E-05 1.37818E-05 1.42123E-03-3.78913E-14-7.95683E-14
 -1      1436 1.99856E+01-4.16968E-05 2.01591E-05 1.40179E-03-1.27989E-13-2.78404E-13
 -1      1437 1.99860E+01-4.91325E-05-3.27612E-06 2.73390E-03-9.69039E-14-2.11174E-13
 -1      1438 1.99867E+01-3.34569E-05 7.66973E-06 1.32472E-03-1.75157E-13-2.49256E-13
 -1      1439 1.99884E+01-5.41849E-05 1.40036E-05 1.29808E-03-3.41457E-14-4.07864E-13
 -1      1440 1.99882E+01-8.03376E-05 5.42751E-06 2.62220E-03-9.68284E-14-7.37873E-14
 -1      1441 1.99895E+01-4.46159E-05 3.30096E-06 1.19212E-03 1.11512E-13-3.61344E-13
 -1      1442 1.99909E+01-5.87848E-05 9.23035E-06 1.16274E-03 1.07205E-13-2.91139E-13
 -1      1443 1.99904E+01-9.40167E-05 1.03397E-05 2.40705E-03 6.18724E-14 1.13025E-13
 -1      1444 1.99920E+01-4.92605E-05 2.47665E-07 1.04456E-03-6.46821E-14-1.27762E-13
 -1      1445 1.99932E+01-5.92305E-05 5.60108E-06 1.01494E-03-5.89759E-14-1.65123E-13
 -1      1446 1.99925E+01-9.72802E-05 1.27992E-05 2.14120E-03 1.14796E-13 5.60659E-14
 -1      1447 1.99941E+01-5.08574E-05-1.70456E-06 8.93068E-04 9.01250E-14-1.41283E-13
 -1      1448 1.99952E+01-5.86006E-05 3.09097E-06 8.64026E-04 1.26965E-13 1.36961E-14
 -1      1449 1.99943E+01-9.59006E-05 1.38931E-05 1.85538E-03 1.24468E-13 1.04800E-13
 -1      1450 1.99960E+01-5.24392E-05-2.42382E-06 7.40120E-04 1.36954E-13 1.91248E-14
 -1      1451 1.99968E+01-5.96108E-05 2.01360E-06 7.10948E-04 1.59701E-13 2.07467E-13
 -1      1452 1.99959E+01-9.49374E-05 1.45757E-05 1.56234E-03 2.37262E-13 2.55777E-13
 -1      1453 1.99975E+01-5.68232E-05-1.29477E-06 5.80665E-04-4.68629E-15 1.15793E-14
 -1      1454 1.99982E+01-6.44834E-05 2.88250E-06 5.49023E-04-8.01171E-14 2.27778E-14
 -1      1455 1.99973E+01-9.93657E-05 1.56848E-05 1.25958E-03 6.44217E-14-2.23295E-14
 -1      1456 1.99986E+01-6.59308E-05 2.22552E-06 4.04223E-04 1.10187E-13 1.28853E-14
 -1      1457 1.99991E+01-7.33756E-05 4.16334E-06 3.66023E-04 5.10677E-14 6.52520E-14
 -1      1458 1.99983E+01-1.13649E-04 1.72261E-05 9.32020E-04 9.01514E-15-9.81264E-14
 -1      1459 1.99994E+01-8.48668E-05 3.79803E-06 1.99320E-04-1.01356E-14 1.19446E-13
 -1      1460 1.99996E+01-7.49627E-05-2.78817E-06 1.53987E-04-4.71184E-15 2.00437E-13
 -1      1461 1.99991E+01-1.39228E-04 1.74474E-05 5.65484E-04 5.98642E-14-1.49367E-13
 -1      1462 1.99998E+01-1.65769E-05-1.02152E-05-1.77391E-05-1.90573E-13 1.97099E-13
 -1      1463 1.99997E+01-1.10105E-04 5.56072E-06 1.41963E-04-1.22689E-13-1.22248E-14
 -1      1464 2.38011E+01 5.61348E-02-1.39160E-01 2.65257E-01 1.36498E-13 1.42875E-12
 -1      1465 2.47250E+01 2.10336E-01-2.33162E-01 4.81005E-01 1.18197E-13 1.63347E-12
 -1      1466 2.47547E+01 8.29205E-01-1.00666E-01 1.63637E+00 2.19672E-13 1.13159E-12
 -1      1467 2.32786E+01 1.18517E-02-8.51101E-03 4.75619E-02 9.72833E-14 1.15329E-12
 -1      1468 2.34590E+01 9.00904E-02-5.57037E-02 8.08296E-02 9.97952E-14 1.32645E-12
 -1      1469 2.37015E+01 1.36994E-01-5.35041E-02 4.48452E-01 2.06703E-13 9.40666E-13
 -1      1470 2.30995E+01-1.19655E-02 1.81266E-02 1.48594E-02 7.11519E-14 9.86738E-13
 -1      1471 2.31305E+01 1.48896E-02 6.74369E-03 1.60774E-02 6.08905E-14 1.07666E-12
 -1      1472 2.32325E+01 1.80711E-02-3.88734E-03 1.16078E-01 1.40505E-13 7.92519E-13
 -1      1473 2.29043E+01-2.80903E-02 2.17776E-02 8.60125E-02 4.17544E-14 8.84664E-13
 -1      1474 2.29840E+01-2.68454E-02 1.57461E-02 6.31962E-02 3.29346E-14 9.48588E-13
 -1      1475 2.29948E+01-3.73044E-02 1.13642E-02 1.11149E-01 9.86713E-14 6.59965E-13
 -1      1476 2.24750E+01-3.58527E-02 2.15397E-02 2.20974E-01 5.62267E-14 7.90354E-13
 -1      1477 2.27152E+01-5.26979E-02 1.37024E-02 1.79721E-01 3.64006E-14 8.50580E-13
 -1      1478 2.27237E+01-7.10768E-02 1.78700E-02 2.79826E-01 7.00195E-14 6.08768E-13
 -1      1479 2.17081E+01-3.00865E-02 1.67666E-02 3.73820E-01 1.99194E-14 7.04284E-13
 -1      1480 2.21594E+01-6.01265E-02 1.06294E-02 3.25234E-01 2.57927E-14 7.43690E-13
 -1      1481 2.22631E+01-8.21229E-02 2.04934E-02 5.37091E-01 5.70637E-14 5.57355E-13
 -1      1482 2.06483E+01-6.83551E-03 3.78579E-03 4.75965E-01 4.95848E-14 6.16979E-13
 -1      1483 2.12760E+01-4.07436E-02 5.66666E-03 4.39387E-01 4.27896E-14 6.88179E-13
 -1      1484 2.15625E+01-5.79975E-02 1.65536E-02 7.76593E-01 5.91905E-14 5.02071E-13
 -1      1485 1.95184E+01 2.93401E-02-1.63988E-02 4.52583E-01 2.53365E-14 5.23963E-13
 -1      1486 2.01839E+01 6.51556E-03-2.80415E-03 4.50318E-01 3.30946E-14 5.63771E-13
 -1      1487 2.07033E+01 7.09361E-03 4.50687E-03 8.64117E-01 7.64952E-14 4.55799E-13
 -1      1488 1.86736E+01 6.16309E-02-3.51983E-02 2.67514E-01 5.73127E-14 4.03837E-13
 -1      1489 1.91637E+01 6.54278E-02-1.29266E-02 3.11049E-01 3.05424E-14 4.53110E-13
 -1      1490 1.99005E+01 9.59747E-02-1.18168E-02 6.89880E-01 6.13849E-14 2.94383E-13
 -1      1491 1.84445E+01 7.05310E-02-4.02388E-02-3.18488E-02 1.85112E-14 3.33756E-13
 -1      1492 1.85663E+01 1.05551E-01-1.89929E-02 4.54063E-02 4.04850E-14 3.78458E-13
 -1      1493 1.94309E+01 1.64905E-01-2.37742E-02 2.53504E-01 7.77312E-14 1.74100E-13
 -1      1494 1.89437E+01 5.05685E-02-2.75065E-02-3.27412E-01 5.21423E-14 2.83943E-13
 -1      1495 1.86359E+01 1.04250E-01-1.62203E-02-2.47614E-01 3.72688E-14 3.11438E-13
 -1      1496 1.94871E+01 1.69995E-01-2.55611E-02-2.97811E-01 5.00485E-14 1.79386E-13
 -1      1497 1.99948E+01 1.41072E-02-4.22408E-03-5.03399E-01 1.09721E-14 2.91170E-13
 -1      1498 1.93653E+01 6.42477E-02-5.81724E-03-4.51578E-01-2.27336E-15 2.46983E-13
 -1      1499 2.00591E+01 1.06480E-01-1.79614E-02-7.46283E-01 5.18934E-14 1.45160E-13
 -1      1500 2.12367E+01-1.90210E-02 1.67133E-02-5.14321E-01 4.18628E-14 2.01950E-13
 -1      1501 2.04990E+01 9.89162E-03 6.22401E-03-5.02728E-01 5.82934E-14 2.74773E-13
 -1      1502 2.09395E+01 1.07750E-02-6.96651E-03-9.35463E-01 5.62924E-14 1.12070E-13
 -1      1503 2.23161E+01-3.64265E-02 2.66818E-02-3.96311E-01 7.24377E-14 7.17065E-14
 -1      1504 2.16769E+01-3.27140E-02 1.37778E-02-4.16806E-01 5.20460E-14 1.73958E-13
 -1      1505 2.18428E+01-6.80406E-02 1.78623E-03-8.49743E-01 8.45834E-14 4.65600E-14
 -1      1506 2.30257E+01-3.79032E-02 2.55057E-02-2.23520E-01-7.23926E-14 6.57113E-14
 -1      1507 2.26051E+01-5.19822E-02 1.47512E-02-2.58827E-01-1.94341E-14 3.32720E-14
 -1      1508 2.25419E+01-1.03609E-01 6.13661E-03-5.87438E-01 4.03792E-14 4.45711E-14
 -1      1509 2.33245E+01-2.99053E-02 1.83337E-02-5.95796E-02-7.35609E-15 9.43533E-14
 -1      1510 2.31444E+01-5.11727E-02 1.11043E-02-9.48346E-02-9.42562E-15 8.61273E-14
 -1      1511 2.29327E+01-9.96972E-02 6.93966E-03-2.75728E-01-5.00815E-14-4.78771E-14
 -1      1512 2.32811E+01-1.90712E-02 1.00866E-02 6.25396E-02 4.27948E-14-4.42701E-15
 -1      1513 2.32994E+01-3.95118E-02 6.08003E-03 3.51982E-02 5.61721E-14 1.30996E-13
 -1      1514 2.30205E+01-7.46066E-02 5.83290E-03-6.05369E-03 2.89638E-14-7.70759E-15
 -1      1515 2.30063E+01-9.40013E-03 3.51001E-03 1.36185E-01-5.69820E-14 1.58953E-14
 -1      1516 2.31569E+01-2.50704E-02 1.84080E-03 1.18710E-01-1.30273E-14-2.23042E-14
 -1      1517 2.28730E+01-4.48955E-02 4.11096E-03 1.82029E-01 1.44277E-14 6.03710E-14
 -1      1518 2.26073E+01-2.39269E-03-6.51889E-04 1.69105E-01-2.98312E-14 6.88963E-14
 -1      1519 2.28273E+01-1.24518E-02-8.16637E-04 1.60195E-01-3.94914E-14 1.22125E-14
 -1      1520 2.25757E+01-1.98462E-02 2.51156E-03 2.87171E-01-4.50707E-14 2.72287E-14
 -1      1521 2.21663E+01 1.94218E-03-2.75708E-03 1.73600E-01-5.99238E-14 1.73639E-13
 -1      1522 2.24084E+01-3.29652E-03-2.02274E-03 1.70855E-01-3.22258E-14 1.10406E-13
 -1      1523 2.22055E+01-2.45208E-03 1.29532E-03 3.26650E-01-7.50965E-14 1.28664E-13
 -1      1524 2.17376E+01 4.19602E-03-3.47912E-03 1.61089E-01 3.55213E-14 1.69385E-13
 -1      1525 2.19714E+01 2.45737E-03-2.25942E-03 1.62203E-01 3.51151E-15 1.59724E-13
 -1      1526 2.18194E+01 7.82054E-03 4.68661E-04 3.22082E-01-2.98629E-14 4.90064E-14
 -1      1527 2.13519E+01 5.04615E-03-3.41803E-03 1.40165E-01 7.67212E-14-8.83339E-14
 -1      1528 2.15606E+01 5.54504E-03-1.99058E-03 1.43359E-01 9.26661E-14 1.00748E-13
 -1      1529 2.14544E+01 1.27728E-02-4.83529E-05 2.92222E-01 1.44777E-13 3.05630E-14
 -1      1530 2.10225E+01 5.05024E-03-2.98896E-03 1.16504E-01 7.57215E-14-2.32324E-13
 -1      1531 2.11992E+01 6.79953E-03-1.53639E-03 1.20570E-01 8.40124E-14-1.32998E-13
 -1      1532 2.11304E+01 1.42579E-02-3.45171E-04 2.50735E-01 1.44397E-13-8.12406E-14
 -1      1533 2.07522E+01 4.60296E-03-2.43874E-03 9.34604E-02-1.30639E-13-1.04363E-13
 -1      1534 2.08959E+01 6.91641E-03-1.07438E-03 9.76549E-02-7.24667E-14-2.23643E-13
 -1      1535 2.08557E+01 1.37338E-02-4.94385E-04 2.06456E-01-1.19666E-14-3.97733E-14
 -1      1536 2.05372E+01 3.95819E-03-1.89645E-03 7.27765E-02-5.52282E-14 8.58736E-14
 -1      1537 2.06504E+01 6.39977E-03-6.82823E-04 7.66857E-02-7.73319E-14 9.51106E-15
 -1      1538 2.06309E+01 1.22006E-02-5.48501E-04 1.64493E-01-2.13906E-13 6.27535E-14
 -1      1539 2.03710E+01 3.26701E-03-1.41976E-03 5.51648E-02-2.84826E-14 1.62219E-13
 -1      1540 2.04577E+01 5.58376E-03-3.83409E-04 5.85914E-02-3.07891E-14 9.58532E-14
 -1      1541 2.04523E+01 1.02832E-02-5.43774E-04 1.27403E-01-8.65211E-14 1.69570E-13
 -1      1542 2.02457E+01 2.61203E-03-1.02721E-03 4.07322E-02 4.17473E-14 6.39619E-14
 -1      1543 2.03104E+01 4.67473E-03-1.70757E-04 4.36111E-02-9.19338E-15 1.38797E-13
 -1      1544 2.03140E+01 8.34101E-03-5.04832E-04 9.61280E-02-1.98680E-15 1.75879E-13
 -1      1545 2.01537E+01 2.03294E-03-7.17803E-04 2.92593E-02 1.05818E-15 1.00853E-13
 -1      1546 2.02006E+01 3.79099E-03-2.94074E-05 3.16012E-02-1.18737E-14 1.18348E-13
 -1      1547 2.02095E+01 6.56097E-03-4.48215E-04 7.06710E-02-3.44438E-14 2.39672E-13
 -1      1548 2.00879E+01 1.54390E-03-4.82022E-04 2.03750E-02 1.35289E-14 1.44328E-14
 -1      1549 2.01210E+01 2.99364E-03 5.77661E-05 2.22299E-02 3.86560E-14 7.31706E-14
 -1      1550 2.01325E+01 5.02436E-03-3.84813E-04 5.05376E-02 4.03187E-14 1.56571E-13
 -1      1551 2.00424E+01 1.14466E-03-3.07535E-04 1.36606E-02 6.86838E-14-7.74573E-15
 -1      1552 2.00649E+01 2.30835E-03 1.06007E-04 1.50954E-02-6.54099E-16-7.33220E-14
 -1      1553 2.00773E+01 3.75157E-03-3.21539E-04 3.50125E-02 4.27366E-14-8.74007E-14
 -1      1554 2.00121E+01 8.27576E-04-1.82048E-04 8.70735E-03 1.17275E-14-1.85042E-13
 -1      1555 2.00268E+01 1.73989E-03 1.27589E-04 9.79241E-03 8.32573E-14-3.68629E-14
 -1      1556 2.00389E+01 2.73013E-03-2.62516E-04 2.33237E-02 1.35154E-13-8.72987E-14
 -1      1557 1.99930E+01 5.81742E-04-9.45471E-05 5.14589E-03-7.96191E-14 2.49377E-14
 -1      1558 2.00019E+01 1.28147E-03 1.31818E-04 5.94812E-03-7.74330E-14-7.57092E-14
 -1      1559 2.00131E+01 1.93186E-03-2.09933E-04 1.47328E-02-1.20814E-13 1.09670E-13
 -1      1560 1.99819E+01 3.95427E-04-3.57345E-05 2.65857E-03-4.80627E-16 1.16852E-13
 -1      1561 1.99868E+01 9.20675E-04 1.25464E-04 3.23754E-03-2.58016E-14 3.22746E-14
 -1      1562 1.99967E+01 1.32280E-03-1.64682E-04 8.58033E-03-8.11201E-14 1.52832E-13
 -1      1563 1.99764E+01 2.57408E-04 1.93839E-06 9.81626E-04 5.43094E-15 1.50307E-13
 -1      1564 1.99785E+01 6.42999E-04 1.13268E-04 1.38825E-03 1.69521E-14 1.28102E-13
 -1      1565 1.99870E+01 8.68854E-04-1.26818E-04 4.30290E-03 1.15919E-14 1.75981E-13
 -1      1566 1.99746E+01 1.57630E-04 2.44245E-05-9.78858E-05 1.54429E-13-2.50631E-13
 -1      1567 1.99749E+01 4.33920E-04 9.84363E-05 1.78543E-04 8.93887E-14-4.60542E-15
 -1      1568 1.99819E+01 5.38666E-04-9.58899E-05 1.43529E-03 2.08061E-13 6.82713E-14
 -1      1569 1.99751E+01 8.74684E-05 3.63060E-05-7.47819E-04 1.94054E-14-5.60774E-13
 -1      1570 1.99744E+01 2.80026E-04 8.30419E-05-5.67561E-04 3.43091E-14-3.96895E-13
 -1      1571 1.99801E+01 3.04911E-04-7.11753E-05-3.96608E-04 1.80820E-13-1.56713E-13
 -1      1572 1.99771E+01 3.97545E-05 4.10320E-05-1.09760E-03-5.74862E-14-3.82390E-13
 -1      1573 1.99757E+01 1.69535E-04 6.83459E-05-9.86661E-04-4.51032E-14-4.59389E-13
 -1      1574 1.99803E+01 1.44656E-04-5.18347E-05-1.48666E-03-4.83784E-14-1.71888E-13
 -1      1575 1.99798E+01 8.67756E-06 4.11430E-05-1.24488E-03-9.31569E-14-1.45254E-13
 -1      1576 1.99781E+01 9.24570E-05 5.50445E-05-1.18252E-03-6.28626E-14-2.88415E-13
 -1      1577 1.99817E+01 3.91914E-05-3.70129E-05-2.06070E-03-1.71503E-13-1.90776E-13
 -1      1578 1.99829E+01-1.03820E-05 3.84688E-05-1.26168E-03 1.98931E-14-1.35294E-13
 -1      1579 1.99811E+01 4.05427E-05 4.34515E-05-1.23219E-03 2.98075E-14-1.27785E-13
 -1      1580 1.99838E+01-2.64029E-05-2.58977E-05-2.28853E-03 3.36327E-14 9.54721E-15
 -1      1581 1.99859E+01-2.10446E-05 3.42977E-05-1.19964E-03-3.37365E-14-1.90677E-13
 -1      1582 1.99841E+01 7.11013E-06 3.36319E-05-1.19145E-03 5.78354E-14-2.00441E-13
 -1      1583 1.99862E+01-6.38019E-05-1.77493E-05-2.29476E-03 7.94046E-14 1.57716E-13
 -1      1584 1.99887E+01-2.61298E-05 2.95208E-05-1.09451E-03 1.73659E-14-2.15855E-13
 -1      1585 1.99871E+01-1.31915E-05 2.54977E-05-1.09935E-03-2.54017E-14-2.18146E-13
 -1      1586 1.99886E+01-8.20171E-05-1.19069E-05-2.16823E-03 2.80375E-14 1.85398E-13
 -1      1587 1.99913E+01-2.78536E-05 2.47630E-05-9.69623E-04-8.39947E-14-2.50645E-13
 -1      1588 1.99899E+01-2.46517E-05 1.88800E-05-9.81879E-04-2.85594E-14-2.44328E-13
 -1      1589 1.99909E+01-8.79672E-05-7.77448E-06-1.96968E-03-1.18556E-14 9.34542E-14
 -1      1590 1.99936E+01-2.80410E-05 2.05353E-05-8.38438E-04 1.13943E-13-2.85177E-13
 -1      1591 1.99923E+01-3.08082E-05 1.35957E-05-8.54746E-04 5.74383E-14-2.35089E-13
 -1      1592 1.99930E+01-8.70329E-05-4.77828E-06-1.73778E-03 9.47827E-14 7.44519E-14
 -1      1593 1.99955E+01-2.81935E-05 1.74595E-05-7.06291E-04 2.05404E-14-4.56373E-13
 -1      1594 1.99945E+01-3.46886E-05 9.57501E-06-7.25267E-04 1.23372E-14-4.55238E-13
 -1      1595 1.99948E+01-8.35909E-05-2.28274E-06-1.49344E-03 1.02479E-13-1.73029E-13
 -1      1596 1.99972E+01-2.97000E-05 1.64989E-05-5.71714E-04 2.86356E-13-7.52724E-13
 -1      1597 1.99963E+01-3.90562E-05 7.03168E-06-5.93821E-04 2.44952E-13-4.29733E-13
 -1      1598 1.99964E+01-8.13186E-05 5.68440E-07-1.24294E-03 2.63792E-13-3.26147E-13
 -1      1599 1.99984E+01-3.40564E-05 1.81359E-05-4.26544E-04-6.46631E-14-8.36564E-13
 -1      1600 1.99977E+01-4.68029E-05 6.46674E-06-4.54577E-04-3.76743E-14-8.41874E-13
 -1      1601 1.99977E+01-8.40460E-05 4.74547E-06-9.80092E-04 1.47419E-13-9.65068E-14
 -1      1602 1.99993E+01-4.18486E-05 1.84156E-05-2.57052E-04 2.13566E-14-8.95772E-13
 -1      1603 1.99988E+01-6.00814E-05 7.21561E-06-2.97180E-04 1.79923E-14-8.15915E-13
 -1      1604 1.99987E+01-9.62102E-05 9.69613E-06-6.88666E-04-6.45585E-14-3.52274E-13
 -1      1605 1.99997E+01-4.76144E-05-2.97046E-06-7.23975E-05-1.85101E-13-8.42767E-13
 -1      1606 1.99995E+01-6.89531E-05 4.14999E-06-1.19240E-04-5.58094E-14-9.51925E-13
 -1      1607 1.99994E+01-1.09752E-04 1.16015E-05-3.54679E-04 1.00790E-14-1.71696E-13
 -1      1608 1.99998E+01-1.93819E-05-1.19195E-05 8.78257E-06-4.79798E-13-5.38431E-13
 -1      1609 1.99997E+01-3.98156E-04 9.99342E-06-2.08631E-04-3.00425E-13 3.21590E-13
 -1      1610 1.99997E+01-2.00289E-04-3.89715E-06-1.60245E-04-5.49559E-13 2.04333E-13
 -1      1611 1.99998E+01-1.12242E-03 6.20712E-06-3.79839E-04 1.53204E-13-6.72067E-14
 -1      1612 1.99997E+01-7.01625E-04 6.64842E-06-3.50304E-04-2.70668E-14 1.75848E-13
 -1      1613 1.99997E+01-6.78035E-04 1.24246E-05-5.48484E-04 5.24792E-14 4.07256E-13
 -1      1614 1.99998E+01-2.06851E-03 1.75541E-06-4.73454E-04 2.26050E-13 5.12960E-15
 -1      1615 1.99998E+01-1.51956E-03 4.36778E-06-4.61709E-04 3.32923E-13-7.94647E-14
 -1      1616 1.99997E+01-1.37490E-03 9.96994E-06-8.15824E-04 2.48116E-13 1.41534E-13
 -1      1617 1.99998E+01-3.08196E-03-8.22751E-07-4.83969E-04 6.57231E-13 1.15288E-13
 -1      1618 1.99998E+01-2.50667E-03 1.48632E-06-4.88586E-04 3.36665E-13 2.83940E-13
 -1      1619 1.99998E+01-2.20690E-03 1.35088E-06-9.30009E-04 2.57817E-13 1.30881E-13
 -1      1620 1.99998E+01-3.99668E-03-1.66731E-06-4.23931E-04-5.25238E-14-4.90361E-13
 -1      1621 1.99998E+01-3.49147E-03 7.65338E-08-4.40899E-04 4.77387E-13-4.67396E-13
 -1      1622 1.99998E+01-3.04941E-03-6.57553E-06-8.93478E-04 3.64592E-14-3.27590E-13
 -1      1623 1.99999E+01-4.72038E-03-1.74199E-06-3.07376E-04 6.80323E-14 1.61078E-13
 -1      1624 1.99998E+01-4.33840E-03-6.66672E-07-3.34063E-04 7.14352E-14-1.20414E-13
 -1      1625 1.99999E+01-3.79423E-03-1.26201E-05-7.32419E-04-1.36465E-13-3.38096E-13
 -1      1626 1.99999E+01-5.14450E-03-1.46697E-06-1.53421E-04 1.85675E-13 1.79765E-14
 -1      1627 1.99999E+01-4.94233E-03-9.23539E-07-1.85701E-04 1.11457E-13 2.91172E-13
 -1      1628 1.99999E+01-4.35169E-03-1.67956E-05-4.76577E-04 5.41126E-14 2.78294E-13
 -1      1629 1.99999E+01-5.21918E-03-1.16533E-06 1.83524E-05 3.42339E-13 2.22524E-14
 -1      1630 1.99999E+01-5.22073E-03-1.17181E-06-1.57854E-05 1.93942E-13-8.79068E-14
 -1      1631 1.99999E+01-4.64663E-03-1.88798E-05-1.63580E-04 1.02887E-13-1.33974E-13
 -1      1632 1.99999E+01-4.93559E-03-8.87374E-07 1.88102E-04 3.27535E-14-4.24441E-13
 -1      1633 1.99999E+01-5.14076E-03-1.47757E-06 1.55887E-04 2.50334E-13-6.73456E-15
 -1      1634 1.99999E+01-4.64447E-03-1.88662E-05 1.68439E-04 2.72150E-13-1.71842E-13
 -1      1635 1.99998E+01-4.32721E-03-5.46772E-07 3.35997E-04-5.15123E-13-4.20135E-13
 -1      1636 1.99999E+01-4.71170E-03-1.82816E-06 3.09511E-04 8.70311E-15-5.70679E-13
 -1      1637 1.99999E+01-4.34544E-03-1.67192E-05 4.80986E-04 8.67001E-14-6.38748E-13
 -1      1638 1.99998E+01-3.48471E-03-2.58491E-08 4.41254E-04-1.05895E-12 1.37711E-14
 -1      1639 1.99998E+01-3.99114E-03-1.74530E-06 4.24476E-04-6.65799E-13-4.50911E-13
 -1      1640 1.99999E+01-3.79039E-03-1.26662E-05 7.34370E-04-1.16376E-13-7.72639E-13
 -1      1641 1.99998E+01-2.49072E-03 1.45055E-06 4.89018E-04-7.55471E-13 1.74956E-13
 -1      1642 1.99998E+01-3.06689E-03-8.54980E-07 4.84628E-04-1.15823E-12 4.70539E-13
 -1      1643 1.99998E+01-3.04386E-03-6.45486E-06 8.94612E-04-3.22001E-13 1.54638E-13
 -1      1644 1.99998E+01-1.50433E-03 4.58613E-06 4.61796E-04-2.95498E-13 3.98017E-13
 -1      1645 1.99998E+01-2.05280E-03 1.68653E-06 4.72850E-04-7.27335E-13 3.82598E-13
 -1      1646 1.99998E+01-2.19346E-03 1.50596E-06 9.29871E-04-3.44339E-13 4.89970E-13
 -1      1647 1.99997E+01-7.02157E-04 1.83923E-06 3.49416E-04-1.44257E-13 2.71086E-14
 -1      1648 1.99998E+01-1.11208E-03 6.16774E-06 3.79669E-04-1.53559E-13 1.83529E-13
 -1      1649 1.99997E+01-1.36400E-03 9.70025E-06 8.12798E-04-1.23441E-13 4.22166E-13
 -1      1650 1.99997E+01-2.80830E-04-8.56908E-06 2.45157E-04-3.42156E-13-3.58093E-13
 -1      1651 1.99997E+01-4.84085E-04 5.29522E-06 3.15026E-04-5.79104E-14-3.54529E-13
 -1      1652 1.99996E+01-7.57241E-04 1.01605E-05 6.54256E-04 3.04814E-14-1.57245E-13
 -1      1653 1.99995E+01-3.62918E-04-2.76530E-06 4.89041E-04-5.77719E-15-3.32518E-13
 -1      1654-4.63896E-01-1.38847E+01-1.56253E+00-7.14315E-01 1.83820E-12 6.60805E-13
 -1      1655-5.19279E-01-1.60241E+01-1.75835E+00 4.44530E-01 1.14206E-12 6.00020E-13
 -1      1656 1.43838E+00-7.73595E+00-1.16815E+00 6.38170E-01 2.02471E-12 8.35970E-13
 -1      1657 6.91154E-01-1.27941E+01-1.66544E+00 5.56742E-02 1.95299E-12 5.81139E-13
 -1      1658 7.08879E+00-3.79355E-01-5.44290E-01 4.67505E+00 1.76836E-12 1.10978E-12
 -1      1659 3.99795E+00-5.77217E+00-1.28081E+00 1.84200E+00 1.94178E-12 9.90208E-13
 -1      1660 1.70829E+01 4.57842E+00 1.36148E-01 9.44842E+00 1.36247E-12 1.37901E-12
 -1      1661 1.09850E+01 1.40382E+00-6.63251E-01 5.97003E+00 1.59872E-12 1.19393E-12
 -1      1662 3.17178E+01 5.67451E+00 8.87720E-01 1.16778E+01 9.35141E-13 1.26099E-12
 -1      1663 2.27463E+01 5.13264E+00 8.08178E-02 9.66239E+00 1.16507E-12 1.27809E-12
 -1      1664 4.55594E+01 5.17195E+00 1.55190E+00 1.06958E+01 5.92290E-13 9.89209E-13
 -1      1665 3.66660E+01 6.85311E+00 9.05972E-01 1.22670E+01 8.77298E-13 1.30251E-12
 -1      1666 5.31655E+01 3.80698E+00 1.70618E+00 3.33003E+00 4.42590E-13-1.27676E-14
 -1      1667 4.84171E+01 5.08000E+00 1.40871E+00 8.13660E+00 5.65076E-13 6.07181E-13
 -1      1668 5.37970E+01 3.88233E+00 1.73633E+00-4.65609E+00 4.98823E-13-9.23095E-13
 -1      1669 5.51342E+01 3.47091E+00 1.80944E+00 9.90483E-01 4.44034E-13-2.30531E-13
 -1      1670 4.42256E+01 5.68840E+00 1.15927E+00-1.01007E+01 9.42038E-13-1.60505E-12
 -1      1671 5.10851E+01 4.15288E+00 1.69595E+00-6.61442E+00 6.03295E-13-1.13587E-12
 -1      1672 3.03940E+01 6.16767E+00 4.35935E-01-1.08896E+01 1.39605E-12-1.87361E-12
 -1      1673 3.98437E+01 5.31490E+00 1.17973E+00-1.09663E+01 1.05671E-12-1.64813E-12
 -1      1674 1.66940E+01 4.44499E+00-2.90858E-01-8.56078E+00 1.79357E-12-1.88149E-12
 -1      1675 2.47980E+01 6.02488E+00 5.43930E-01-1.15810E+01 1.57252E-12-2.11076E-12
 -1      1676 6.98773E+00-1.19304E+00-9.89807E-01-3.88969E+00 1.71640E-12-1.39055E-12
 -1      1677 1.17702E+01 3.28600E+00-1.74524E-01-7.42656E+00 1.84941E-12-1.80678E-12
 -1      1678 2.23994E+00-8.95744E+00-1.44629E+00-8.87304E-01 1.19993E-12-7.73104E-13
 -1      1679 4.09627E+00-3.37565E+00-8.28027E-01-2.77428E+00 1.56686E-12-1.17739E-12
 -1      1680-6.28321E-02-1.44713E+01-1.76535E+00-3.56630E-02 5.01155E-13-4.31488E-13
 -1      1681 1.36718E-01-1.07443E+01-1.41830E+00 3.55153E-01 1.04938E-12-6.52915E-13
 -1      1682-7.40705E-01-1.58422E+01-1.82581E+00-8.25004E-01-3.28404E-13-3.56992E-13
 -1      1683-7.15411E-01-1.55155E+01-1.79174E+00 7.10642E-01 2.73087E-13-3.53162E-13
 -1      1684-2.67783E-02-1.13571E+01-1.46335E+00-5.63920E-01-1.02718E-12-6.10081E-13
 -1      1685-1.79968E-01-1.47585E+01-1.75250E+00 1.16591E-02-5.18141E-13-3.90882E-13
 -1      1686 3.11377E+00-4.71786E+00-1.00626E+00 1.82810E+00-1.56697E-12-1.08935E-12
 -1      1687 1.68980E+00-9.92490E+00-1.55903E+00 3.57097E-01-1.22280E-12-7.31110E-13
 -1      1688 9.89159E+00 1.83260E+00-3.90506E-01 6.22343E+00-1.74039E-12-1.59506E-12
 -1      1689 5.87032E+00-2.78123E+00-1.14669E+00 3.00758E+00-1.66578E-12-1.21614E-12
 -1      1690 2.17015E+01 5.28892E+00 3.27715E-01 1.06631E+01-1.48448E-12-1.68598E-12
 -1      1691 1.44765E+01 3.07727E+00-4.90981E-01 7.41654E+00-1.67077E-12-1.62159E-12
 -1      1692 3.70008E+01 5.39474E+00 1.09236E+00 1.13811E+01-9.76497E-13-1.20770E-12
 -1      1693 2.74588E+01 5.66278E+00 2.84466E-01 1.03456E+01-1.32838E-12-1.43752E-12
 -1      1694 5.00783E+01 4.52561E+00 1.79521E+00 8.91383E+00-5.36057E-13-6.70464E-13
 -1      1695 4.20593E+01 6.23141E+00 1.17751E+00 1.16098E+01-8.42215E-13-1.15241E-12
 -1      1696 5.54128E+01 3.53303E+00 1.85422E+00 1.26658E+00-3.86857E-13 2.14606E-13
 -1      1697 5.25166E+01 4.40401E+00 1.70964E+00 6.59043E+00-4.79006E-13-4.00791E-13
 -1      1698 5.12464E+01 4.65434E+00 1.57686E+00-6.57933E+00-6.00547E-13 1.03639E-12
 -1      1699 5.45937E+01 3.72845E+00 1.77479E+00-1.19515E+00-4.57301E-13 4.21718E-13
 -1      1700 4.02595E+01 6.44254E+00 1.10128E+00-1.19033E+01-9.88376E-13 1.71818E-12
 -1      1701 4.90696E+01 4.58055E+00 1.72187E+00-9.37573E+00-6.27380E-13 1.37568E-12
 -1      1702 2.52582E+01 5.81278E+00 2.23642E-01-1.05326E+01-1.52811E-12 1.80922E-12
 -1      1703 3.49719E+01 5.85936E+00 1.10095E+00-1.21379E+01-1.18233E-12 1.66356E-12
 -1      1704 1.15536E+01 1.95626E+00-6.67249E-01-6.18969E+00-1.87161E-12 1.67466E-12
 -1      1705 1.90763E+01 5.33547E+00 3.06249E-01-1.02284E+01-1.72018E-12 1.92446E-12
 -1      1706 4.32830E+00-6.02899E+00-1.29556E+00-1.83154E+00-1.43396E-12 1.10090E-12
 -1      1707 7.74587E+00-4.40756E-01-5.18126E-01-4.88543E+00-1.73705E-12 1.57041E-12
 -1      1708 4.58593E-01-1.32494E+01-1.78679E+00 4.11063E-01-5.88640E-13 6.57571E-13
 -1      1709 1.16003E+00-8.07197E+00-1.26936E+00-2.03446E-01-1.34615E-12 1.03273E-12
 -1      1710-5.89551E-01-1.64171E+01-1.82117E+00-2.37910E-01 8.38843E-13 6.02407E-13
 -1      1711-6.12557E-01-1.44342E+01-1.67676E+00 1.08401E+00-2.01839E-13 6.16146E-13
 -1      1712 2.47353E+01 4.05527E-01 2.83246E-01 7.06704E+00 7.42462E-13 5.99742E-13
 -1      1713 1.42573E+01-3.03181E+00-3.15850E-01 6.50967E+00 1.00853E-12 6.08236E-13
 -1      1714 1.99997E+01-6.49127E-05 3.53181E-06-6.70111E-05-6.48409E-13-5.95693E-14
 -1      1715 1.99996E+01-2.63019E-04 2.48348E-06-2.73754E-04-2.44944E-13 1.56394E-13
 -1      1716 7.06946E-01-9.74224E+00-1.12900E+00 2.52995E+00 9.22762E-13 5.56277E-13
 -1      1717 6.03367E+00-6.93833E+00-8.28217E-01 4.70837E+00 1.11389E-12 5.59185E-13
 -1      1718-1.25313E+00-1.08415E+01-1.24432E+00 2.14808E-01 6.18297E-13 1.05549E-12
 -1      1719 3.43736E+01 3.56219E+00 6.61967E-01 6.24195E+00 6.79762E-13 6.06293E-13
 -1      1720 4.23907E+01 6.47367E+00 1.22970E+00 4.51335E+00 6.98469E-13 2.01617E-13
 -1      1721 4.62908E+01 7.36851E+00 1.40619E+00 7.68142E-01 7.65166E-13-2.01533E-13
 -1      1722 4.57154E+01 7.08088E+00 1.43880E+00-2.44576E+00 8.00637E-13-6.18061E-13
 -1      1723 3.91551E+01 5.37725E+00 9.93094E-01-4.58968E+00 9.37916E-13-7.74492E-13
 -1      1724 3.04597E+01 2.62396E+00 5.97713E-01-6.72576E+00 9.70113E-13-1.03295E-12
 -1      1725 1.94821E+01-4.08249E-01-1.05354E-02-7.26738E+00 1.04350E-12-1.26366E-12
 -1      1726 9.98652E+00-4.50653E+00-6.11286E-01-5.73767E+00 8.62754E-13-1.10831E-12
 -1      1727 3.19256E+00-7.87194E+00-9.52760E-01-3.78736E+00 5.89973E-13-8.68389E-13
 -1      1728-6.94360E-01-1.02944E+01-1.25103E+00-1.39306E+00 2.25542E-13-7.09544E-13
 -1      1729-8.64300E-01-1.02802E+01-1.23736E+00 9.54512E-01-1.72473E-13-6.77680E-13
 -1      1730 2.49706E+00-8.35055E+00-1.02684E+00 3.23586E+00-5.14255E-13-7.82457E-13
 -1      1731 8.65992E+00-5.33880E+00-7.31801E-01 5.18799E+00-8.38440E-13-9.52682E-13
 -1      1732 1.76250E+01-1.57021E+00-1.61601E-01 6.84113E+00-9.53126E-13-1.03073E-12
 -1      1733 2.85080E+01 1.40091E+00 4.41304E-01 6.73766E+00-8.93230E-13-6.74794E-13
 -1      1734 3.78821E+01 4.31704E+00 8.31429E-01 5.36989E+00-8.68250E-13-4.49196E-13
 -1      1735 4.54712E+01 6.78049E+00 1.46771E+00 3.65332E+00-7.34413E-13-8.74301E-14
 -1      1736 4.67240E+01 7.54595E+00 1.44347E+00 1.38125E-01-7.09044E-13 2.03365E-13
 -1      1737 4.43887E+01 6.80961E+00 1.37885E+00-3.63596E+00-7.69995E-13 5.69489E-13
 -1      1738 3.70895E+01 4.37706E+00 9.44090E-01-6.15047E+00-8.74495E-13 9.21707E-13
 -1      1739 2.62872E+01 1.21552E+00 3.58279E-01-7.22032E+00-1.03439E-12 1.01819E-12
 -1      1740 1.50221E+01-3.06338E+00-3.58927E-01-6.41097E+00-8.82294E-13 1.08735E-12
 -1      1741 6.26597E+00-7.12675E+00-8.26754E-01-4.58001E+00-5.97522E-13 1.02256E-12
 -1      1742 4.40047E-01-1.03013E+01-1.24077E+00-2.04494E+00-2.25375E-14 1.04122E-12
 -1      1743 2.62059E+01 2.00301E+00-2.36987E-02-2.13496E+00-1.93890E-13 9.60509E-13
 -1      1744 2.08023E+01 3.74061E+00-4.30566E-02-8.86082E-01-2.28310E-13-1.55889E-13
 -1      1745 2.16713E+01 3.60576E+00-3.35070E-02-1.22862E+00-2.66273E-13-6.35603E-14
 -1      1746 2.25684E+01 3.17469E+00-5.28042E-02-1.46770E+00-2.78253E-13 6.41917E-14
 -1      1747 2.33571E+01 2.80000E+00-1.29212E-01-1.83201E+00-2.96402E-13 2.23800E-13
 -1      1748 2.24096E+01 2.63659E+00-5.46010E-03-1.03935E+00-2.83660E-13 2.43069E-14
 -1      1749 1.78000E+01 4.36805E+00-2.61815E-02-1.20234E-01-1.16731E-13-3.47538E-13
 -1      1750 1.84769E+01 4.34304E+00-3.56270E-03-2.58616E-01-1.42388E-13-3.26510E-13
 -1      1751 1.66717E+01 4.58582E+00-1.95755E-02-2.37536E-02-6.02660E-14-3.92159E-13
 -1      1752 1.71968E+01 4.57145E+00 7.41407E-04-7.01145E-02-9.13540E-14-3.73195E-13
 -1      1753 1.75763E+01 4.14004E+00-7.96378E-03 5.06629E-03-1.07905E-13-3.42585E-13
 -1      1754 1.59752E+01 4.72278E+00-1.20751E-02-9.34771E-02-3.25109E-15-4.01266E-13
 -1      1755 1.62650E+01 4.72087E+00-1.10576E-03-7.34430E-02-3.31332E-14-4.00614E-13
 -1      1756 1.64799E+01 4.43857E+00-2.21371E-03 1.55008E-02-4.41487E-14-3.77405E-13
 -1      1757 1.58104E+01 4.74280E+00-4.24512E-03-2.38140E-01 4.40162E-14-4.14380E-13
 -1      1758 1.58239E+01 4.75608E+00-6.67649E-03-1.98223E-01 2.41144E-14-4.13540E-13
 -1      1759 1.58775E+01 4.58665E+00 1.35519E-03-1.34390E-01 1.60344E-14-3.99451E-13
 -1      1760 1.61780E+01 4.64038E+00 1.53182E-03-3.39015E-01 8.00965E-14-4.00781E-13
 -1      1761 1.59291E+01 4.66599E+00-1.32039E-02-3.31079E-01 5.85580E-14-4.07415E-13
 -1      1762 1.58548E+01 4.54465E+00 4.25566E-04-3.29361E-01 5.44441E-14-4.00960E-13
 -1      1763 1.69730E+01 4.45177E+00 2.94222E-03-2.94761E-01 1.24470E-13-3.60443E-13
 -1      1764 1.65265E+01 4.48147E+00-1.83361E-02-3.58291E-01 1.02273E-13-3.87777E-13
 -1      1765 1.63813E+01 4.33059E+00-4.69376E-03-4.33499E-01 9.49605E-14-3.84103E-13
 -1      1766 1.80155E+01 4.23713E+00-3.67869E-04-6.21715E-02 1.69986E-13-3.02388E-13
 -1      1767 1.74654E+01 4.26107E+00-2.16921E-02-2.10131E-01 1.43456E-13-3.38445E-13
 -1      1768 1.73132E+01 4.01870E+00-1.05544E-02-3.52035E-01 1.40480E-13-3.35483E-13
 -1      1769 1.91979E+01 4.02404E+00-8.16991E-03 3.60906E-01 2.40447E-13-2.03974E-13
 -1      1770 1.85919E+01 4.04498E+00-2.51435E-02 1.24968E-01 2.02109E-13-2.54673E-13
 -1      1771 1.84775E+01 3.68340E+00-1.50655E-02-6.22929E-02 1.95904E-13-2.56245E-13
 -1      1772 2.04288E+01 3.79442E+00-2.18088E-02 9.32763E-01 2.94747E-13-7.27196E-14
 -1      1773 1.98027E+01 3.83314E+00-3.12355E-02 6.21607E-01 2.65177E-13-1.51518E-13
 -1      1774 1.97472E+01 3.35509E+00-1.58016E-02 3.99187E-01 2.63203E-13-1.48680E-13
 -1      1775 2.17361E+01 3.43038E+00-4.59795E-02 1.59121E+00 3.38434E-13 1.31103E-13
 -1      1776 2.10594E+01 3.55473E+00-4.41319E-02 1.22095E+00 3.10862E-13 8.62851E-15
 -1      1777 2.10561E+01 2.99298E+00-1.09421E-02 9.47795E-01 3.12656E-13-1.40860E-15
 -1      1778 2.33412E+01 2.62801E+00-5.92196E-02 2.17477E+00 3.22898E-13 4.92412E-13
 -1      1779 2.24759E+01 3.02899E+00-5.39869E-02 1.83500E+00 3.27919E-13 2.83058E-13
 -1      1780 2.24642E+01 2.43033E+00 3.59792E-03 1.43648E+00 3.42049E-13 2.22416E-13
 -1      1781 2.45832E+01 1.14439E+00-1.27697E-01 1.80757E+00 2.68764E-13 9.06372E-13
 -1      1782 2.39137E+01 2.22231E+00-1.74903E-03 2.13136E+00 2.95859E-13 6.36477E-13
 -1      1783 2.35164E+01 1.55271E+00-2.22374E-02 1.48311E+00 3.37969E-13 4.95704E-13
 -1      1784 2.39776E+01 6.96607E-01-5.93565E-02 1.01959E+00 2.75890E-13 8.28946E-13
 -1      1785 2.50125E+01 2.43767E+00 8.11032E-02-2.21343E+00-2.60125E-13 4.95839E-13
 -1      1786 2.33948E+01 1.84511E-01-1.00290E-02 3.06075E-01 2.14339E-13 6.85726E-13
 -1      1787 2.37896E+01 3.37640E-01-1.43386E-02 6.16037E-01 2.38705E-13 7.64687E-13
 -1      1788 2.36565E+01 7.05713E-01-8.75096E-04 9.00544E-01 2.87562E-13 5.83036E-13
 -1      1789 2.46113E+01 1.67957E+00 7.74922E-02-1.41435E+00-2.74315E-13 3.90771E-13
 -1      1790 2.42313E+01 3.91431E-01 3.38703E-02-1.12316E-01-2.15002E-13 3.69061E-13
 -1      1791 2.40434E+01 2.05761E-01 8.12990E-04 1.02277E-01-1.86830E-13 3.24046E-13
 -1      1792 2.40553E+01 6.73256E-02 2.68505E-02 2.41627E-01-1.49516E-13 3.24378E-13
 -1      1793 2.40397E+01-8.55904E-02-6.00686E-03 2.46252E-01-1.17875E-13 2.81199E-13
 -1      1794 2.36745E+01 2.22326E-01-1.11806E-02 1.43084E-01-1.84516E-13 2.07939E-13
 -1      1795 2.41464E+01-2.08150E-01 1.63082E-02 1.81248E-01-9.17617E-14 2.94389E-13
 -1      1796 2.41205E+01-3.45677E-01-1.79785E-02 2.73319E-02-7.15209E-14 2.73401E-13
 -1      1797 2.37775E+01-2.21141E-01-9.34275E-03 2.57363E-01-1.26012E-13 1.97292E-13
 -1      1798 2.42660E+01-4.50838E-01 8.12721E-03-2.23981E-01-6.32107E-14 2.70345E-13
 -1      1799 2.41238E+01-5.45468E-01-2.33705E-02-5.03937E-01-6.16295E-14 2.56672E-13
 -1      1800 2.40178E+01-5.97810E-01-4.89775E-03-6.59427E-02-7.15508E-14 1.93163E-13
 -1      1801 2.42191E+01-5.82920E-01-4.03940E-04-8.88125E-01-6.52985E-14 2.83275E-13
 -1      1802 2.39064E+01-5.56417E-01-1.57158E-02-1.20789E+00-6.76828E-14 2.63995E-13
 -1      1803 2.42532E+01-8.30039E-01 3.50976E-03-7.51192E-01-6.34649E-14 2.17598E-13
 -1      1804 2.38423E+01-4.46814E-01-1.14232E-02-1.57158E+00-1.08238E-13 2.80175E-13
 -1      1805 2.33904E+01-2.29651E-01 4.85020E-03-1.76143E+00-1.34156E-13 2.51302E-13
 -1      1806 2.42977E+01-7.14435E-01 1.17727E-02-1.58896E+00-9.71727E-14 2.76176E-13
 -1      1807 2.31229E+01 5.03591E-02-2.06642E-02-1.84980E+00-1.84595E-13 2.25642E-13
 -1      1808 2.26695E+01 4.04374E-01 2.42020E-02-1.72189E+00-2.04668E-13 1.95628E-13
 -1      1809 2.39960E+01-9.71470E-02 8.50401E-03-2.13319E+00-1.81523E-13 2.52531E-13
 -1      1810 2.23292E+01 7.31765E-01-1.70334E-02-1.34098E+00-2.33005E-13 1.49375E-13
 -1      1811 2.20625E+01 1.00237E+00 2.10958E-02-8.49408E-01-2.15630E-13 1.09377E-13
 -1      1812 2.34227E+01 8.48945E-01-1.37736E-02-1.85458E+00-2.52562E-13 1.82254E-13
 -1      1813 2.19331E+01 1.12569E+00 2.80441E-03-9.80814E-02-2.03313E-13-4.79308E-14
 -1      1814 2.19898E+01 1.08630E+00-2.45695E-03 5.29236E-01-1.99799E-13-1.52002E-13
 -1      1815 2.29662E+01 1.54434E+00-3.93593E-02-5.81705E-01-3.09541E-13-5.60611E-14
 -1      1816 2.21964E+01 8.95115E-01 2.20114E-02 1.22513E+00-1.59692E-13-2.02335E-13
 -1      1817 2.25560E+01 5.80172E-01-2.05140E-02 1.64214E+00-1.41529E-13-2.78551E-13
 -1      1818 2.30430E+01 1.43994E+00-3.66796E-02 1.06650E+00-2.45960E-13-1.62600E-13
 -1      1819 2.29062E+01 2.39488E-01 1.88212E-02 1.90669E+00-1.25973E-13-3.16800E-13
 -1      1820 2.34028E+01-1.05069E-01-2.13987E-02 1.94398E+00-6.57198E-14-3.02520E-13
 -1      1821 2.35874E+01 6.20005E-01-8.91902E-03 2.13188E+00-1.50878E-13-2.44427E-13
 -1      1822 2.36250E+01-3.59574E-01-2.16472E-03 1.75092E+00-2.66844E-14-3.31570E-13
 -1      1823 2.40652E+01-5.41013E-01-1.13254E-02 1.49699E+00 3.65229E-14-3.03218E-13
 -1      1824 2.41317E+01-3.05521E-01 1.35416E-02 2.16098E+00-4.72309E-14-2.27126E-13
 -1      1825 2.40605E+01-6.21410E-01-2.15192E-02 1.07463E+00 2.82760E-14-2.83803E-13
 -1      1826 2.43181E+01-6.25707E-01-3.63455E-03 7.21990E-01 8.66512E-14-2.68284E-13
 -1      1827 2.43235E+01-8.38960E-01 1.38828E-02 1.43943E+00 4.17088E-14-2.17074E-13
 -1      1828 2.41453E+01-5.79843E-01-2.80189E-02 3.02729E-01 8.93695E-14-2.82537E-13
 -1      1829 2.41940E+01-4.89469E-01-1.46235E-04-1.94445E-03 8.49425E-14-1.91102E-13
 -1      1830 2.41411E+01-8.93751E-01 5.72584E-03 5.01543E-01 9.12811E-14-3.24342E-13
 -1      1831 2.39450E+01-3.98358E-01-2.37289E-02-3.02448E-01 3.27316E-14-2.14862E-13
 -1      1832 2.38244E+01-2.91781E-01 4.45867E-04-5.01465E-01 3.36987E-14-2.29909E-13
 -1      1833 2.37328E+01-6.71650E-01-5.88957E-04-2.80147E-01 5.29958E-14-2.74537E-13
 -1      1834 2.35606E+01-2.07032E-01-1.51791E-02-6.66628E-01-1.77102E-14-2.64942E-13
 -1      1835 2.33338E+01-1.23015E-01 3.49302E-04-7.63526E-01-4.40277E-14-2.55823E-13
 -1      1836 2.32382E+01-3.85485E-01-3.24625E-03-7.77622E-01-4.15336E-14-2.83302E-13
 -1      1837 2.30842E+01-6.30892E-02-6.89935E-03-8.22428E-01-6.90429E-14-2.82552E-13
 -1      1838 2.28094E+01-9.99662E-03 4.19417E-04-8.45250E-01-1.32048E-13-2.89060E-13
 -1      1839 2.27384E+01-1.50321E-01-3.76065E-03-1.01267E+00-5.07509E-14-2.61039E-13
 -1      1840 2.25844E+01 2.52610E-02-7.92470E-04-8.35951E-01-1.57182E-13-2.16323E-13
 -1      1841 2.23039E+01 5.28002E-02 7.14123E-04-8.14467E-01-6.63951E-14-2.93618E-13
 -1      1842 2.22704E+01 3.57979E-03-3.52363E-03-1.06010E+00-1.10572E-13-2.34172E-13
 -1      1843 2.21066E+01 6.98886E-02 2.92524E-03-7.68436E-01 2.39288E-14-3.01656E-13
 -1      1844 2.18461E+01 8.03444E-02 1.05284E-03-7.25353E-01 8.24952E-14-2.87917E-13
 -1      1845 2.18495E+01 8.70389E-02-3.17555E-03-9.95035E-01-6.01895E-14-2.06440E-13
 -1      1846 2.16767E+01 8.60292E-02 4.74364E-03-6.64047E-01 8.24458E-14-1.84109E-13
 -1      1847 2.14489E+01 8.65833E-02 1.29955E-03-6.13932E-01 1.25204E-14-1.19656E-13
 -1      1848 2.14814E+01 1.21949E-01-2.88414E-03-8.74262E-01 1.32510E-13-1.10358E-13
 -1      1849 2.13062E+01 8.59410E-02 5.29453E-03-5.50229E-01-9.11222E-14-4.57495E-14
 -1      1850 2.11152E+01 8.15125E-02 1.41305E-03-5.01270E-01-1.80932E-14-4.25866E-14
 -1      1851 2.11667E+01 1.27932E-01-2.63330E-03-7.34690E-01 5.75285E-14-2.05500E-14
 -1      1852 2.09973E+01 7.78153E-02 5.10746E-03-4.42019E-01 6.83269E-14-8.73252E-14
 -1      1853 2.08422E+01 7.13862E-02 1.40667E-03-3.98188E-01 1.17611E-13-7.45086E-14
 -1      1854 2.09034E+01 1.18821E-01-2.38575E-03-5.97624E-01 7.68656E-15 2.22750E-14
 -1      1855 2.07464E+01 6.65486E-02 4.55258E-03-3.46446E-01 1.47653E-13-1.02870E-13
 -1      1856 2.06236E+01 5.97630E-02 1.31528E-03-3.09206E-01 6.74081E-14-3.72063E-14
 -1      1857 2.06875E+01 1.03190E-01-2.12530E-03-4.73837E-01 1.21513E-13-2.09235E-13
 -1      1858 2.05472E+01 5.48153E-02 3.86077E-03-2.65837E-01-6.69315E-14-3.63844E-14
 -1      1859 2.04520E+01 4.84910E-02 1.17449E-03-2.35293E-01-1.41173E-13-4.32132E-14
 -1      1860 2.05136E+01 8.58704E-02-1.85391E-03-3.67632E-01 5.46017E-14-2.22926E-13
 -1      1861 2.03922E+01 4.39350E-02 3.16243E-03-1.99997E-01-1.63850E-13-1.34117E-13
 -1      1862 2.03199E+01 3.84161E-02 1.01251E-03-1.75590E-01-1.42186E-13-1.79314E-13
 -1      1863 2.03762E+01 6.93394E-02-1.58218E-03-2.79657E-01-1.86604E-13-6.88465E-14
 -1      1864 2.02738E+01 3.44561E-02 2.52314E-03-1.47520E-01-1.44696E-13-2.39644E-13
 -1      1865 2.02199E+01 2.98325E-02 8.48684E-04-1.28425E-01-8.84430E-14-2.86113E-13
 -1      1866 2.02694E+01 5.47014E-02-1.32199E-03-2.08675E-01-1.01226E-13-1.40693E-13
 -1      1867 2.01851E+01 2.65150E-02 1.97001E-03-1.06536E-01 7.38125E-14-2.81531E-13
 -1      1868 2.01458E+01 2.27496E-02 6.94880E-04-9.18750E-02 9.95983E-14-2.17931E-13
 -1      1869 2.01880E+01 4.23104E-02-1.08277E-03-1.52619E-01 6.88241E-15-1.99156E-13
 -1      1870 2.01199E+01 2.00422E-02 1.50881E-03-7.51107E-02 3.45383E-14-2.75359E-13
 -1      1871 2.00918E+01 1.70420E-02 5.57412E-04-6.40528E-02 3.73756E-14-2.89281E-13
 -1      1872 2.01269E+01 3.21370E-02-8.70319E-04-1.09175E-01 1.41600E-14-7.50535E-14
 -1      1873 2.00730E+01 1.48777E-02 1.13448E-03-5.14388E-02-9.39062E-14-3.03636E-13
 -1      1874 2.00535E+01 1.25308E-02 4.38854E-04-4.32494E-02-1.42835E-13-3.26575E-13
 -1      1875 2.00820E+01 2.39740E-02-6.87104E-04-7.61001E-02-2.53282E-14-2.04785E-13
 -1      1876 2.00401E+01 1.08313E-02 8.37065E-04-3.39314E-02-1.83620E-13-3.01159E-13
 -1      1877 2.00270E+01 9.02635E-03 3.39412E-04-2.79849E-02-1.60551E-13-2.01153E-13
 -1      1878 2.00498E+01 1.75477E-02-5.33021E-04-5.13646E-02-1.96595E-13-2.73284E-13
 -1      1879 2.00178E+01 7.71392E-03 6.05096E-04-2.12389E-02-1.53089E-13-2.10226E-13
 -1      1880 2.00093E+01 6.34880E-03 2.57914E-04-1.70170E-02-6.78859E-14-1.75207E-13
 -1      1881 2.00272E+01 1.25746E-02-4.06259E-04-3.32129E-02-1.12366E-13-2.74092E-14
 -1      1882 2.00032E+01 5.35190E-03 4.27261E-04-1.22449E-02-1.06805E-13-1.85282E-13
 -1      1883 1.99981E+01 4.33740E-03 1.92465E-04-9.32683E-03-2.35012E-14-8.12096E-14
 -1      1884 2.00118E+01 8.78986E-03-3.04026E-04-2.01702E-02-8.40676E-14-4.76394E-14
 -1      1885 1.99942E+01 3.59318E-03 2.93243E-04-6.04392E-03 1.27873E-13-2.22172E-13
 -1      1886 1.99915E+01 2.85366E-03 1.40881E-04-4.09449E-03 1.57693E-13-2.16222E-13
 -1      1887 2.00018E+01 5.95846E-03-2.23085E-04-1.10262E-02-1.37651E-14-6.91422E-14
 -1      1888 1.99892E+01 2.30850E-03 1.94046E-04-1.91499E-03 1.53778E-14-3.09304E-13
 -1      1889 1.99880E+01 1.78126E-03 1.00955E-04-6.71207E-04-2.71702E-14-3.22110E-13
 -1      1890 1.99957E+01 3.87933E-03-1.60133E-04-4.80601E-03-2.84854E-14-2.29736E-13
 -1      1891 1.99869E+01 1.39046E-03 1.22060E-04 7.06936E-04 6.60171E-14-2.87879E-13
 -1      1892 1.99868E+01 1.02446E-03 7.06052E-05 1.44806E-03 1.80874E-13-2.60837E-13
 -1      1893 1.99923E+01 2.38441E-03-1.12034E-04-7.37920E-04 4.11266E-14-1.75162E-13
 -1      1894 1.99863E+01 7.51398E-04 7.09921E-05 2.25754E-03 4.38418E-13-2.14824E-13
 -1      1895 1.99869E+01 5.05755E-04 4.79594E-05 2.65011E-03 3.26635E-13 5.78538E-14
 -1      1896 1.99907E+01 1.33596E-03-7.59465E-05 1.77904E-03 3.67554E-13-1.16337E-13
 -1      1897 1.99869E+01 3.20899E-04 3.57357E-05 3.06714E-03 6.90536E-14 9.72413E-14
 -1      1898 1.99878E+01 1.63305E-04 3.13796E-05 3.22606E-03-4.45050E-14-5.16829E-14
 -1      1899 1.99904E+01 6.22883E-04-4.93897E-05 3.20514E-03 2.37152E-13-7.46673E-14
 -1      1900 1.99882E+01 4.31651E-05 1.22118E-05 3.38155E-03-4.44952E-14 1.32903E-13
 -1      1901 1.99892E+01-5.16155E-05 1.94619E-05 3.39067E-03 4.67428E-14 2.33798E-13
 -1      1902 1.99909E+01 1.56842E-04-3.02524E-05 3.88666E-03 5.88040E-14 7.49750E-14
 -1      1903 1.99898E+01-1.25535E-04-2.78862E-06 3.37966E-03-2.69453E-14 1.03563E-13
 -1      1904 1.99909E+01-1.77047E-04 1.10143E-05 3.29852E-03-1.00514E-15 1.35629E-13
 -1      1905 1.99918E+01-1.31598E-04-1.67792E-05 4.07882E-03-5.10873E-14 4.36764E-13
 -1      1906 1.99914E+01-2.19228E-04-1.17529E-05 3.18789E-03-4.27159E-14 8.39525E-14
 -1      1907 1.99925E+01-2.42591E-04 5.02577E-06 3.05705E-03 1.96845E-14 6.11382E-14
 -1      1908 1.99929E+01-2.96568E-04-7.54005E-06 3.96489E-03-2.71929E-14 8.33241E-14
 -1      1909 1.99931E+01-2.64418E-04-1.65738E-05 2.89172E-03 2.04648E-13 4.50459E-14
 -1      1910 1.99941E+01-2.71467E-04 6.37428E-07 2.73693E-03 2.01838E-13 2.23106E-13
 -1      1911 1.99941E+01-3.80224E-04-1.39561E-06 3.67180E-03 8.04600E-14 1.80423E-13
 -1      1912 1.99946E+01-2.82065E-04-1.86460E-05 2.54458E-03 1.30819E-13 2.95095E-13
 -1      1913 1.99955E+01-2.82331E-04-2.84710E-06 2.37977E-03 2.47366E-13 4.64688E-13
 -1      1914 1.99953E+01-4.15768E-04 2.53937E-06 3.28237E-03 2.52769E-13 2.90884E-13
 -1      1915 1.99960E+01-2.89254E-04-1.89018E-05 2.17441E-03 2.02127E-13 3.81696E-13
 -1      1916 1.99967E+01-2.90689E-04-5.88546E-06 2.00387E-03 1.76080E-13 2.39570E-13
 -1      1917 1.99964E+01-4.30013E-04 4.93945E-06 2.84473E-03 1.93456E-13 2.78885E-13
 -1      1918 1.99972E+01-3.00314E-04-1.78096E-05 1.78889E-03-5.00214E-14 1.36971E-13
 -1      1919 1.99978E+01-3.09430E-04-8.46358E-06 1.60903E-03-9.85579E-14 1.07419E-13
 -1      1920 1.99974E+01-4.45161E-04 6.25970E-06 2.37993E-03 2.07474E-14 2.02418E-13
 -1      1921 1.99981E+01-3.26712E-04-1.54203E-05 1.38084E-03 1.99299E-14 5.16729E-14
 -1      1922 1.99986E+01-3.45576E-04-1.02140E-05 1.18268E-03-3.05809E-14 5.01801E-14
 -1      1923 1.99982E+01-4.78510E-04 6.33784E-06 1.88917E-03-1.21111E-13 1.46043E-13
 -1      1924 1.99989E+01-3.57358E-04-1.24781E-05 9.49372E-04 9.28580E-15-9.45226E-14
 -1      1925 1.99992E+01-3.76799E-04-1.22481E-05 7.36080E-04 9.69855E-14-1.94633E-13
 -1      1926 1.99993E+01-5.26583E-04 6.15182E-06 8.67178E-04-2.81264E-14-3.49292E-13
 -1      1927 1.99988E+01-5.17391E-04 9.35447E-06 1.37889E-03-8.88499E-14-1.54839E-15
 -1      1928 2.30949E+01-1.24446E-02 2.19604E-03 1.30528E-01 1.53304E-13 5.86805E-13
 -1      1929 2.32798E+01 6.60086E-02 1.27291E-02 2.00506E-01 1.67045E-13 6.46620E-13
 -1      1930 2.32385E+01 1.57302E-01-2.91707E-03 3.38391E-01 2.12639E-13 4.91697E-13
 -1      1931 2.28795E+01-1.33001E-01-1.26484E-03 2.33791E-01 1.23521E-13 5.01916E-13
 -1      1932 2.30146E+01-8.68329E-02 8.13761E-03 1.75329E-01 1.21167E-13 5.48440E-13
 -1      1933 2.30031E+01-9.09575E-02 1.33050E-04 2.40608E-01 1.55863E-13 4.38108E-13
 -1      1934 2.25968E+01-1.99756E-01-2.94542E-03 5.11239E-01 6.62179E-14 4.57892E-13
 -1      1935 2.27833E+01-1.82030E-01 1.14623E-03 3.71420E-01 6.74703E-14 4.73629E-13
 -1      1936 2.28258E+01-2.34886E-01 3.15445E-03 4.32924E-01 1.10402E-13 3.64579E-13
 -1      1937 2.21446E+01-1.88684E-01-4.74014E-04 8.51349E-01 4.54003E-14 3.97220E-13
 -1      1938 2.24317E+01-2.10498E-01-2.53245E-03 6.82417E-01 7.83072E-14 4.52984E-13
 -1      1939 2.25739E+01-2.83840E-01 6.80249E-03 7.89323E-01 7.99812E-14 3.21095E-13
 -1      1940 2.15079E+01-7.38764E-02 3.85769E-03 1.09455E+00 6.89730E-14 4.03427E-13
 -1      1941 2.18888E+01-1.41284E-01-2.56515E-03 9.73143E-01 4.53556E-14 4.05374E-13
 -1      1942 2.21656E+01-2.03260E-01 8.48191E-03 1.14977E+00 6.35863E-14 3.06470E-13
 -1      1943 2.07875E+01 1.29593E-01 5.82265E-03 1.06371E+00 1.00540E-13 3.64958E-13
 -1      1944 2.11946E+01 3.36140E-02 4.54488E-04 1.07427E+00 1.09411E-13 3.93347E-13
 -1      1945 2.16072E+01 1.97110E-02 5.41088E-03 1.30877E+00 1.13189E-13 2.94324E-13
 -1      1946 2.01946E+01 3.36745E-01 2.38025E-03 6.61029E-01 1.17508E-13 1.49159E-13
 -1      1947 2.05146E+01 2.59493E-01 5.72586E-03 8.47011E-01 1.18013E-13 2.59948E-13
 -1      1948 2.10223E+01 3.19415E-01-3.17301E-03 1.08352E+00 1.70662E-13 2.33307E-13
 -1      1949 1.99736E+01 4.25434E-01-3.14464E-03-2.04034E-02 3.19397E-14 1.67091E-13
 -1      1950 2.00889E+01 4.17083E-01 1.13174E-02 2.91534E-01 7.62203E-14 1.49816E-13
 -1      1951 2.06294E+01 5.49912E-01-1.10534E-02 4.44623E-01 9.46309E-14 1.51307E-13
 -1      1952 2.02386E+01 3.40494E-01-5.56457E-03-7.13071E-01 8.41063E-14 1.52336E-13
 -1      1953 2.00952E+01 4.09026E-01 1.36388E-02-3.99613E-01 6.00769E-14 1.49381E-13
 -1      1954 2.06163E+01 5.76530E-01-1.10896E-02-3.95793E-01 5.40835E-14 1.23933E-13
 -1      1955 2.08911E+01 1.34415E-01-2.39176E-03-1.14215E+00 4.47012E-14 9.08752E-14
 -1      1956 2.05331E+01 2.41020E-01 1.06455E-02-9.48662E-01 6.72691E-14 1.23540E-13
 -1      1957 2.09941E+01 3.81040E-01-4.10065E-03-1.09686E+00 8.27628E-14 5.36099E-14
 -1      1958 2.16793E+01-7.65174E-02 3.51716E-03-1.18950E+00 1.51759E-13-5.36030E-16
 -1      1959 2.12274E+01 1.29029E-02 3.59705E-03-1.16307E+00 8.80083E-14 3.06716E-14
 -1      1960 2.15909E+01 7.36283E-02 2.99854E-03-1.40235E+00 1.19552E-13-3.97330E-14
 -1      1961 2.23511E+01-2.04714E-01 7.47282E-03-9.29003E-01 7.71432E-14 4.96695E-14
 -1      1962 2.19384E+01-1.63464E-01-3.88672E-03-1.03450E+00 8.59417E-14 4.00305E-14
 -1      1963 2.21717E+01-1.92075E-01 5.27534E-03-1.27995E+00 9.91997E-14-4.77500E-14
 -1      1964 2.27645E+01-2.34107E-01 7.62149E-03-5.29426E-01-2.86758E-14-2.82083E-14
 -1      1965 2.24801E+01-2.37889E-01-8.75164E-03-6.94465E-01 5.96424E-14 3.52843E-15
 -1      1966 2.25705E+01-3.26914E-01 3.08521E-03-8.80886E-01 7.61483E-14 8.52313E-15
 -1      1967 2.28981E+01-1.97113E-01 5.44152E-03-1.40666E-01-3.17472E-14-6.72127E-14
 -1      1968 2.27698E+01-2.25911E-01-1.00913E-02-3.02584E-01-4.52971E-14-4.69314E-14
 -1      1969 2.27349E+01-3.31902E-01 4.56418E-04-4.02495E-01-1.52456E-14-9.69233E-14
 -1      1970 2.28029E+01-1.34131E-01 2.67623E-03 1.55906E-01 1.79483E-14 1.44546E-14
 -1      1971 2.28130E+01-1.69012E-01-8.81463E-03 3.11760E-02-3.45600E-14-3.16904E-14
 -1      1972 2.26913E+01-2.60418E-01-9.94737E-04 1.44785E-02-6.28230E-15-2.89521E-14
 -1      1973 2.25543E+01-7.27533E-02 4.80588E-04 3.40012E-01 2.74464E-14 5.54205E-14
 -1      1974 2.26638E+01-1.02686E-01-6.31270E-03 2.61332E-01 5.85712E-14 8.39793E-14
 -1      1975 2.24981E+01-1.65878E-01-1.34879E-03 3.08381E-01 1.35946E-14-4.27046E-15
 -1      1976 2.22236E+01-2.54078E-02-7.92689E-04 4.26525E-01-1.16733E-13 1.29649E-14
 -1      1977 2.23908E+01-4.65143E-02-3.62738E-03 3.88188E-01-2.20885E-14 3.91397E-14
 -1      1978 2.22161E+01-8.12197E-02-1.11773E-03 4.75394E-01-8.12718E-16-3.00734E-14
 -1      1979 2.18658E+01 5.71551E-03-1.29661E-03 4.42811E-01-9.81647E-15 5.21957E-15
 -1      1980 2.20562E+01-6.88121E-03-1.35602E-03 4.33811E-01-7.73502E-14 4.94669E-14
 -1      1981 2.18955E+01-1.92993E-02-7.64088E-04 5.40378E-01-8.26300E-14-6.05028E-15
 -1      1982 2.15180E+01 2.32301E-02-1.31956E-03 4.15573E-01 6.19878E-14-1.18856E-13
 -1      1983 2.17075E+01 1.71772E-02 2.79531E-04 4.25018E-01-3.66111E-14-9.25033E-14
 -1      1984 2.15724E+01 1.94570E-02-5.11466E-04 5.35539E-01 3.04441E-14-1.77060E-13
 -1      1985 2.12019E+01 3.10233E-02-1.10940E-03 3.65652E-01 2.10899E-13-1.21134E-13
 -1      1986 2.13761E+01 2.93513E-02 1.29473E-03 3.84951E-01 1.47657E-13-6.80781E-14
 -1      1987 2.12700E+01 3.98608E-02-3.93084E-04 4.89473E-01 1.17341E-13-1.55161E-13
 -1      1988 2.09281E+01 3.26221E-02-8.26309E-04 3.07291E-01 1.20704E-13-1.38391E-13
 -1      1989 2.10796E+01 3.35559E-02 1.81083E-03 3.30508E-01 1.70366E-13-7.54735E-14
 -1      1990 2.10011E+01 4.76665E-02-3.67578E-04 4.23532E-01 1.58276E-13-5.01075E-14
 -1      1991 2.06995E+01 3.06837E-02-5.55307E-04 2.49240E-01-2.63344E-13 1.29245E-14
 -1      1992 2.08260E+01 3.29611E-02 1.97368E-03 2.72680E-01-8.52684E-14-7.57006E-14
 -1      1993 2.07711E+01 4.77441E-02-3.84114E-04 3.51897E-01-9.10364E-14-2.77285E-16
 -1      1994 2.05142E+01 2.70068E-02-3.31778E-04 1.96272E-01-1.93855E-13 8.39065E-14
 -1      1995 2.06165E+01 2.98118E-02 1.91281E-03 2.17877E-01-2.39645E-13 4.41089E-14
 -1      1996 2.05805E+01 4.36213E-02-4.06613E-04 2.83050E-01-2.51200E-13 1.06674E-13
 -1      1997 2.03679E+01 2.27164E-02-1.63724E-04 1.50539E-01-1.73854E-14 4.33617E-14
 -1      1998 2.04483E+01 2.55633E-02 1.72742E-03 1.69343E-01-4.54105E-14 2.56942E-14
 -1      1999 2.04266E+01 3.76150E-02-4.16597E-04 2.21442E-01-7.59900E-14-7.61303E-14
 -1      2000 2.02551E+01 1.84640E-02-4.63415E-05 1.12588E-01 3.46258E-14 2.12654E-13
 -1      2001 2.03167E+01 2.10908E-02 1.48621E-03 1.28302E-01-1.04459E-14 1.23201E-13
 -1      2002 2.03055E+01 3.11312E-02-4.08517E-04 1.68902E-01-1.88265E-14-8.08202E-14
 -1      2003 2.01701E+01 1.45915E-02 2.98010E-05 8.20587E-02 1.53117E-14 1.18185E-13
 -1      2004 2.02162E+01 1.68778E-02 1.23296E-03 9.47824E-02 1.74886E-14 1.18683E-13
 -1      2005 2.02121E+01 2.49537E-02-3.84076E-04 1.25674E-01 5.82762E-14 3.83433E-14
 -1      2006 2.01076E+01 1.12477E-02 7.47219E-05 5.81408E-02 8.29414E-14 5.63420E-14
 -1      2007 2.01412E+01 1.31583E-02 9.93157E-04 6.81735E-02 4.62690E-14 1.10580E-13
 -1      2008 2.01418E+01 1.94682E-02-3.47971E-04 9.11238E-02 4.95645E-14-1.47870E-14
 -1      2009 2.00628E+01 8.46802E-03 9.72922E-05 3.98474E-02 6.14864E-14-4.16400E-14
 -1      2010 2.00866E+01 1.00153E-02 7.79859E-04 4.75717E-02 1.99288E-14-6.83340E-15
 -1      2011 2.00901E+01 1.48189E-02-3.05369E-04 6.41980E-02 9.67675E-14 1.84010E-13
 -1      2012 2.00316E+01 6.22498E-03 1.04686E-04 2.61789E-02-4.41545E-14 1.30650E-13
 -1      2013 2.00480E+01 7.44561E-03 5.98179E-04 3.19914E-02 9.64213E-14 2.91263E-14
 -1      2014 2.00529E+01 1.10120E-02-2.60700E-04 4.36996E-02 5.57760E-14 2.47671E-13
 -1      2015 2.00107E+01 4.46006E-03 1.02377E-04 1.62100E-02-1.57632E-13 6.95185E-14
 -1      2016 2.00215E+01 5.40056E-03 4.48445E-04 2.04829E-02-1.38255E-13 8.10788E-14
 -1      2017 2.00270E+01 7.98052E-03-2.17243E-04 2.84517E-02-7.54454E-14 2.25802E-13
 -1      2018 1.99974E+01 3.10289E-03 9.43668E-05 9.12987E-03-4.04693E-14 9.32298E-14
 -1      2019 2.00041E+01 3.81132E-03 3.28336E-04 1.21928E-02-8.22990E-14 9.46851E-14
 -1      2020 2.00096E+01 5.62465E-03-1.77138E-04 1.73817E-02-5.29870E-14 4.20016E-14
 -1      2021 1.99895E+01 2.08232E-03 8.34588E-05 4.25537E-03 7.53556E-14 1.12809E-13
 -1      2022 1.99933E+01 2.60373E-03 2.34256E-04 6.38842E-03-2.39489E-14 8.52518E-14
 -1      2023 1.99985E+01 3.83520E-03-1.41576E-04 9.55951E-03-1.71375E-14-5.07874E-14
 -1      2024 1.99854E+01 1.33232E-03 7.15381E-05 1.02764E-03 3.56714E-13-3.21301E-14
 -1      2025 1.99872E+01 1.70658E-03 1.62184E-04 2.46156E-03 2.18649E-13 1.21555E-13
 -1      2026 1.99919E+01 2.50666E-03-1.11030E-04 4.20664E-03 1.91502E-13 4.62169E-14
 -1      2027 1.99839E+01 7.94876E-04 5.98040E-05-9.99078E-04 4.78198E-14 1.28277E-14
 -1      2028 1.99844E+01 1.05587E-03 1.08172E-04-7.89391E-05 2.16111E-13 2.49895E-14
 -1      2029 1.99884E+01 1.54397E-03-8.54846E-05 6.89801E-04 2.17330E-13 1.63284E-13
 -1      2030 1.99841E+01 4.20805E-04 4.89608E-05-2.17249E-03-2.73048E-13-3.11488E-14
 -1      2031 1.99837E+01 5.96489E-04 6.86103E-05-1.62060E-03-6.84456E-14-5.95278E-14
 -1      2032 1.99871E+01 8.65184E-04-6.46135E-05-1.49391E-03 1.13482E-14 1.65900E-13
 -1      2033 1.99852E+01 1.69602E-04 3.93640E-05-2.75799E-03-4.48989E-14-5.26276E-14
 -1      2034 1.99844E+01 2.82483E-04 4.03475E-05-2.46250E-03-2.59563E-13-3.13414E-14
 -1      2035 1.99871E+01 4.01988E-04-4.79170E-05-2.73511E-03-2.70663E-13 1.50246E-13
 -1      2036 1.99869E+01 8.62018E-06 3.11297E-05-2.95366E-03-9.88304E-14 1.88895E-13
 -1      2037 1.99858E+01 7.64586E-05 2.07249E-05-2.83050E-03-9.53296E-14-2.57922E-14
 -1      2038 1.99880E+01 9.88142E-05-3.48208E-05-3.33070E-03-6.73147E-14-2.88630E-14
 -1      2039 1.99889E+01-8.80234E-05 2.42114E-05-2.90362E-03 1.55479E-13 2.26927E-13
 -1      2040 1.99877E+01-5.14415E-05 7.55310E-06-2.89114E-03 8.29216E-14 3.10400E-13
 -1      2041 1.99894E+01-8.86390E-05-2.47399E-05-3.50116E-03-7.70308E-14 1.18258E-13
 -1      2042 1.99909E+01-1.40647E-04 1.84520E-05-2.70934E-03-2.61435E-14 2.30756E-13
 -1      2043 1.99897E+01-1.24741E-04-9.36258E-07-2.76378E-03-7.61570E-16 2.08395E-13
 -1      2044 1.99910E+01-1.95199E-04-1.71195E-05-3.40582E-03 7.87347E-14 1.76340E-13
 -1      2045 1.99927E+01-1.65227E-04 1.36191E-05-2.43878E-03-9.38782E-14 1.45249E-13
 -1      2046 1.99916E+01-1.61890E-04-6.15060E-06-2.53058E-03 1.57420E-15 1.78815E-13
 -1      2047 1.99926E+01-2.48074E-04-1.14564E-05-3.15566E-03 1.49139E-14 2.36423E-13
 -1      2048 1.99944E+01-1.74636E-04 9.42393E-06-2.13350E-03 1.91125E-13 6.28091E-14
 -1      2049 1.99934E+01-1.77526E-04-9.19108E-06-2.24449E-03 6.18787E-14 1.08617E-13
 -1      2050 1.99941E+01-2.68680E-04-7.30671E-06-2.82360E-03 1.54841E-13 2.80362E-13
 -1      2051 1.99960E+01-1.79563E-04 5.72941E-06-1.81350E-03 9.65040E-14 2.54076E-14
 -1      2052 1.99951E+01-1.83777E-04-1.09008E-05-1.93511E-03 1.35374E-13 6.47850E-14
 -1      2053 1.99955E+01-2.74481E-04-4.28151E-06-2.45235E-03 1.71041E-13 3.22347E-13
 -1      2054 1.99972E+01-1.88613E-04 2.68875E-06-1.48195E-03 1.36644E-13 2.59626E-13
 -1      2055 1.99965E+01-1.90214E-04-1.16426E-05-1.61312E-03 6.26515E-14 6.54744E-14
 -1      2056 1.99968E+01-2.78794E-04-1.58245E-06-2.05990E-03 1.73623E-14 4.64999E-13
 -1      2057 1.99983E+01-2.09981E-04 4.60268E-07-1.12813E-03 5.45042E-14 3.06636E-13
 -1      2058 1.99977E+01-2.05622E-04-1.13632E-05-1.27507E-03 2.40482E-13 3.74204E-13
 -1      2059 1.99978E+01-2.94547E-04 9.22070E-07-1.64675E-03 1.89828E-13 6.10769E-13
 -1      2060 1.99990E+01-2.46605E-04-3.70867E-06-7.35756E-04-4.40589E-14 6.25357E-14
 -1      2061 1.99986E+01-2.33377E-04-9.29458E-06-9.07936E-04-8.97429E-14 8.92542E-14
 -1      2062 1.99986E+01-3.30821E-04 2.42126E-06-1.20168E-03 1.79837E-14 6.52468E-13
 -1      2063 1.99995E+01-2.73891E-04-8.14715E-06-4.16830E-04-1.20399E-13 2.58786E-13
 -1      2064 1.99992E+01-2.71322E-04-6.88205E-06-6.04352E-04 2.15329E-15 1.12879E-13
 -1      2065 1.99992E+01-3.77976E-04 3.57796E-06-8.22045E-04-7.78549E-14 4.25228E-13
 -1      2066 1.99995E+01-4.10582E-04 6.06130E-07-5.27223E-04-1.04564E-13 6.05215E-13
 -1      2067 1.99998E+01-2.32275E-03 4.54887E-06-1.26803E-03 1.93371E-13 7.89884E-14
 -1      2068 1.99997E+01-1.91765E-03-5.69785E-06-1.25100E-03 2.37358E-13 1.07011E-13
 -1      2069 1.99997E+01-1.56804E-03 1.19827E-06-1.18294E-03 3.11052E-13 1.43165E-13
 -1      2070 1.99996E+01-1.19609E-03-8.30267E-06-1.07181E-03 1.19078E-13 2.77184E-13
 -1      2071 1.99996E+01-1.68692E-03 1.06508E-08-1.54491E-03 1.06144E-13 8.23591E-14
 -1      2072 1.99995E+01-9.41322E-04-1.53093E-06-9.11653E-04 5.58223E-14 4.15020E-13
 -1      2073 1.99995E+01-6.40393E-04-7.96488E-06-7.31157E-04-2.75176E-14 4.84238E-13
 -1      2074 1.99993E+01-6.31604E-04-5.68302E-06-8.92336E-04-5.31379E-14 5.95542E-13
 -1      2075 1.99995E+01-1.09945E-03 2.16647E-06-1.28440E-03 2.91659E-14 3.46783E-13
 -1      2076 1.99999E+01-3.02993E-03 8.18414E-06-1.17147E-03-2.01136E-13-7.04460E-13
 -1      2077 1.99999E+01-2.64957E-03 1.89959E-07-1.23272E-03-1.20721E-14-2.35006E-13
 -1      2078 1.99999E+01-2.35827E-03-3.08772E-06-1.57521E-03-4.14212E-14-2.77501E-13
 -1      2079 2.00000E+01-3.63316E-03 1.13880E-05-9.18820E-04-5.50231E-14-3.30724E-13
 -1      2080 2.00000E+01-3.31632E-03 5.59030E-06-1.04526E-03-1.64228E-13-4.17335E-13
 -1      2081 2.00000E+01-2.97224E-03-7.03296E-06-1.39219E-03-5.36114E-14-5.71179E-13
 -1      2082 2.00001E+01-4.04814E-03 1.33921E-05-5.53008E-04 1.29328E-13 2.76533E-13
 -1      2083 2.00001E+01-3.84155E-03 1.00354E-05-7.23619E-04 1.12822E-13 2.27332E-13
 -1      2084 2.00002E+01-3.46816E-03-9.83379E-06-1.03024E-03 1.07804E-13-1.62594E-14
 -1      2085 2.00001E+01-4.22861E-03 1.39394E-05-1.22592E-04-2.69835E-14-2.67211E-13
 -1      2086 2.00001E+01-4.15759E-03 1.28446E-05-3.15557E-04-5.46794E-14-1.15274E-13
 -1      2087 2.00003E+01-3.78736E-03-1.16284E-05-5.44615E-04-4.14830E-14-1.23338E-13
 -1      2088 2.00001E+01-4.15481E-03 1.28523E-05 3.21838E-04 5.74182E-14-3.20419E-13
 -1      2089 2.00001E+01-4.22794E-03 1.39267E-05 1.29015E-04 8.52039E-14-2.23805E-13
 -1      2090 2.00003E+01-3.89666E-03-1.22398E-05 3.97541E-06-2.42554E-13-2.61747E-13
 -1      2091 2.00001E+01-3.83543E-03 1.01252E-05 7.29119E-04 2.40321E-14-7.21849E-13
 -1      2092 2.00001E+01-4.04411E-03 1.32772E-05 5.59018E-04 1.31550E-13-5.71546E-13
 -1      2093 2.00003E+01-3.78470E-03-1.15939E-05 5.52250E-04-4.15597E-14-4.57143E-13
 -1      2094 2.00000E+01-3.31790E-03 5.67528E-06 1.04486E-03-1.49030E-13-7.86918E-13
 -1      2095 2.00000E+01-3.63023E-03 1.12918E-05 9.20848E-04-3.47299E-14-8.19588E-13
 -1      2096 2.00002E+01-3.46664E-03-9.94116E-06 1.03350E-03-3.42165E-15-8.45277E-13
 -1      2097 1.99999E+01-2.64498E-03 6.36131E-08 1.23389E-03-4.75329E-14 4.11405E-13
 -1      2098 1.99999E+01-3.03211E-03 8.22180E-06 1.17184E-03-4.12870E-15-1.19018E-13
 -1      2099 2.00000E+01-2.97451E-03-6.97319E-06 1.39210E-03 9.08370E-14-3.36584E-13
 -1      2100 1.99997E+01-1.90510E-03-5.73170E-06 1.25037E-03-2.71322E-15 5.56510E-13
 -1      2101 1.99998E+01-2.31112E-03 4.64616E-06 1.26930E-03-4.60740E-14 3.05459E-13
 -1      2102 1.99999E+01-2.35462E-03-3.30201E-06 1.57659E-03 2.00972E-13 3.55284E-13
 -1      2103 1.99996E+01-1.17126E-03-4.07487E-06 1.07430E-03-5.28410E-14 3.13167E-13
 -1      2104 1.99997E+01-1.55674E-03 1.90183E-06 1.18040E-03-1.58583E-13 7.43966E-13
 -1      2105 1.99996E+01-1.67861E-03-1.54609E-07 1.54152E-03-7.25989E-14 5.94060E-13
 -1      2106 1.07072E+01-4.99338E+00-1.11913E-01 6.61030E+00 5.64437E-13 2.77021E-13
 -1      2107 7.07096E+00-6.39300E+00-3.43506E-01 5.44097E+00 5.09814E-13 3.15040E-13
 -1      2108 7.62713E-01-6.06402E+00-2.40027E-01 9.71205E-01 4.10352E-13 9.88765E-13
 -1      2109 6.99769E-01-6.37466E+00-2.91593E-01-8.39983E-01 2.15244E-13 1.16879E-12
 -1      2110 3.69678E+00-6.18724E+00-2.76183E-01 4.39674E+00 5.62939E-13 2.67453E-13
 -1      2111 1.69093E+00-6.80020E+00-3.62376E-01 2.95174E+00 4.42951E-13 3.97682E-13
 -1      2112 1.88897E+01-3.15098E+00-3.49043E-03 6.98680E+00 5.99409E-13 3.37397E-13
 -1      2113 1.42855E+01-4.95598E+00-3.02634E-01 6.28926E+00 6.30163E-13 2.64372E-13
 -1      2114 2.72794E+01-1.20664E+00-1.65696E-02 5.28401E+00 4.65350E-13 2.47025E-13
 -1      2115 2.25722E+01-2.49270E+00-1.42990E-01 5.80791E+00 5.51448E-13 3.52107E-13
 -1      2116 1.92054E+01 4.09937E+00-3.25080E-02-4.13212E-01-1.73344E-13-2.87508E-13
 -1      2117 1.99889E+01 4.04692E+00-1.44806E-02-6.58269E-01-2.10288E-13-2.21538E-13
 -1      2118 2.06433E+01 3.26850E+00-1.77315E-02-6.09946E-01-2.25112E-13-1.66339E-13
 -1      2119 1.90123E+01 3.75279E+00-1.12636E-02-2.14865E-01-1.62006E-13-2.81653E-13
 -1      2120 3.83996E+01 5.97159E+00 2.69052E-01 1.32757E+00 6.77958E-13-1.79134E-13
 -1      2121 3.68556E+01 4.80699E+00 2.83683E-01 2.86420E+00 6.49092E-13 9.27036E-14
 -1      2122 4.05278E+01 7.33402E+00 4.10518E-01-1.24409E-01 7.77878E-13-2.62408E-13
 -1      2123 3.85961E+01 7.26968E+00 1.82288E-01 7.88754E-01 7.51454E-13-1.85352E-13
 -1      2124 3.80557E+01 6.45725E+00 1.29551E-01-1.37640E+00 8.58258E-13-4.28546E-13
 -1      2125 4.03549E+01 6.98282E+00 3.71229E-01-5.22967E-01 8.04468E-13-3.03091E-13
 -1      2126 3.56493E+01 8.16030E+00 2.83368E-01 1.24336E-01 8.41383E-13-1.93331E-13
 -1      2127 3.36507E+01 3.25050E+00-6.90370E-04-2.14246E+00 7.46167E-13-3.74700E-13
 -1      2128 3.70696E+01 4.84406E+00 2.56240E-01-1.75288E+00 8.02330E-13-3.63876E-13
 -1      2129 2.72905E+01-6.26139E-01-5.68410E-02-4.84478E+00 6.22336E-13-6.17173E-13
 -1      2130 3.15256E+01 8.14780E-01 5.44622E-02-3.96168E+00 6.30065E-13-3.72036E-13
 -1      2131 1.85608E+01-3.16747E+00-2.55898E-01-6.24674E+00 5.58165E-13-8.40217E-13
 -1      2132 2.36552E+01-1.49757E+00 3.58911E-02-6.63413E+00 6.12455E-13-8.11573E-13
 -1      2133 1.12701E+01-5.23818E+00-2.67665E-01-6.18626E+00 3.24629E-13-7.82215E-13
 -1      2134 1.53484E+01-3.69771E+00-4.94480E-02-7.01015E+00 4.88720E-13-8.90871E-13
 -1      2135 3.63695E+00-6.39425E+00-4.29922E-01-4.13497E+00 2.47635E-13-7.62140E-13
 -1      2136 6.57634E+00-5.07235E+00-2.29009E-01-5.65103E+00 4.05842E-13-8.14099E-13
 -1      2137 3.93633E-01-6.78494E+00-4.60622E-01-1.19159E+00 3.80668E-14-7.06157E-13
 -1      2138 1.45885E+00-6.03492E+00-3.37904E-01-2.72320E+00 2.35867E-13-7.53397E-13
 -1      2139 1.01956E+00-6.07291E+00-3.47388E-01 2.00215E+00-1.29452E-13-6.73017E-13
 -1      2140 1.97012E-01-6.87920E+00-4.70638E-01 3.52322E-01 5.44825E-14-6.75682E-13
 -1      2141 1.42067E+00-4.16781E+00-2.18942E-01-5.48258E-01 6.83689E-14-7.84817E-13
 -1      2142 5.96031E+00-5.52072E+00-2.74548E-01 5.14087E+00-3.36953E-13-7.32275E-13
 -1      2143 3.29435E+00-6.39486E+00-4.04620E-01 3.75759E+00-1.48659E-13-6.70908E-13
 -1      2144 1.36513E+01-4.23226E+00-1.16286E-01 6.66994E+00-4.85612E-13-7.14817E-13
 -1      2145 9.76069E+00-5.72672E+00-3.63061E-01 5.71965E+00-3.32845E-13-6.78560E-13
 -1      2146 2.20707E+01-2.41222E+00 9.42063E-03 6.62480E+00-5.53835E-13-6.09457E-13
 -1      2147 1.71619E+01-4.02943E+00-3.03941E-01 6.11067E+00-5.15810E-13-6.88394E-13
 -1      2148 3.02884E+01-2.48989E-01 2.14481E-02 4.37122E+00-6.33077E-13-2.17826E-13
 -1      2149 2.57665E+01-1.53804E+00-9.26105E-02 5.17934E+00-6.30496E-13-4.05009E-13
 -1      2150 3.78801E+01 4.25024E+00 4.73784E-01 2.96870E+00-7.80626E-13-8.55982E-14
 -1      2151 3.35415E+01 2.42467E+00 1.13313E-01 2.92539E+00-7.78828E-13-1.50768E-13
 -1      2152 4.06107E+01 6.40530E+00 3.84503E-01 1.03570E+00-7.47069E-13 1.13909E-13
 -1      2153 3.88609E+01 5.51023E+00 2.91785E-01 2.16350E+00-7.98417E-13-4.75175E-14
 -1      2154 3.55569E+01 4.76014E+00 2.56957E-01 1.26803E-01-8.04246E-13 1.45162E-13
 -1      2155 3.98364E+01 7.36264E+00 2.66773E-01-4.60330E-01-6.92058E-13 2.30260E-13
 -1      2156 4.10011E+01 7.31338E+00 4.59463E-01 4.47788E-01-6.58362E-13 1.51879E-13
 -1      2157 3.80312E+01 5.24096E+00 2.89072E-01-1.98603E+00-7.07878E-13 3.61933E-13
 -1      2158 3.90091E+01 6.36255E+00 2.37435E-01-5.61605E-01-6.96276E-13 1.99507E-13
 -1      2159 3.24639E+01 1.82878E+00 3.22633E-02-3.28930E+00-7.06907E-13 4.10116E-13
 -1      2160 3.68767E+01 3.51684E+00 3.31880E-01-3.03276E+00-7.02327E-13 3.96905E-13
 -1      2161 3.47737E+01 4.15656E+00 2.57367E-01 7.93935E-02-6.22169E-13 5.73985E-14
 -1      2162 2.39210E+01-2.01541E+00-1.41722E-01-5.56331E+00-6.45484E-13 6.21225E-13
 -1      2163 2.92751E+01-2.66760E-01 1.29461E-01-5.34234E+00-6.33604E-13 4.83280E-13
 -1      2164 1.55885E+01-5.13437E+00-2.63080E-01-6.06683E+00-2.46525E-13 6.60832E-13
 -1      2165 2.04611E+01-3.12611E+00 2.76519E-02-6.73535E+00-5.23692E-13 6.06237E-13
 -1      2166 6.69477E+00-6.72696E+00-4.12083E-01-5.04707E+00-5.84532E-14 8.02927E-13
 -1      2167 1.06672E+01-5.15135E+00-1.42059E-01-6.45570E+00-1.90292E-13 8.49029E-13
 -1      2168 1.71554E+00-7.06772E+00-3.95118E-01-2.77226E+00 2.40891E-13 1.01297E-12
 -1      2169 3.83596E+00-6.42985E+00-2.87288E-01-4.19337E+00-8.82627E-14 9.74110E-13
 -1      2170 7.35769E+00-5.32448E+00-1.40275E-01-5.77827E+00 1.86018E-13 8.78631E-13
 -1      2171 3.52107E+01 3.19451E+00 3.93640E-01 3.88765E+00 5.76582E-13 2.11942E-13
 -1      2172 3.07945E+01 1.11064E+00 5.26272E-02 3.72675E+00 5.37251E-13 2.13496E-13
 -1      2173 3.38126E+01 3.35032E+00 1.82236E-01 7.18622E-01 5.56055E-13-2.11497E-13
 -1      2174 2.27606E+01-4.25608E+00 7.98198E-02 5.74786E+00 3.54272E-13 1.15519E-13
 -1      2175 2.40851E+01 1.01234E+00-2.37599E-02-7.19383E-01-2.62214E-13 3.30500E-13
 -1      2176 2.94451E+01-8.13666E-01 1.03565E-01 3.50283E+00 4.19942E-13 1.16518E-13
 -1      2177 2.80502E+01-2.73371E+00 1.44919E-01 3.03458E+00 2.65649E-13-6.93334E-14
 -1      2178 3.02265E+01-9.62736E-01-1.65837E-01 1.21925E+00 3.39929E-13-1.19016E-13
 -1      2179 2.35337E+01 1.19191E+00-2.42916E-02-6.28463E-01-2.70728E-13 1.95600E-13
 -1      2180 7.43302E+00-5.13277E+00-1.04349E-01 5.97180E+00 1.65534E-13 2.59431E-13
 -1      2181 2.61881E+00-4.30527E+00-1.27207E-01 2.32439E+00 1.00184E-13 6.86451E-13
 -1      2182 1.99995E+01-9.46567E-04-5.74402E-06 1.03605E-03-4.54879E-14 4.56299E-15
 -1      2183 1.49509E+01-5.47116E+00-5.02441E-02 6.89047E+00 2.05502E-13 1.01207E-13
 -1      2184 2.75012E+00-4.37891E+00-1.43941E-01-2.33317E+00 2.10776E-13 1.18916E-12
 -1      2185 1.56761E+01-5.66640E+00-3.69917E-02-6.63849E+00 1.39555E-13 6.16708E-13
 -1      2186 3.12587E+01-4.75353E-01 1.69894E-01-2.30248E+00-4.53089E-13 1.28786E-13
 -1      2187 3.68313E+01 7.49878E+00 3.25040E-01-1.20482E-01-7.56895E-13 1.98203E-13
 -1      2188 3.19443E+01 4.51519E-01 1.21569E-01 2.42761E+00-6.21919E-13-5.44564E-14
 -1      2189 3.01631E+01-1.50057E+00 1.02936E-01 1.73022E+00-4.26686E-13 1.16684E-13
 -1      2190 3.21503E+01 7.24657E-01-1.23827E-01 8.79986E-02-5.72709E-13 2.35312E-13
 -1      2191 2.55711E+01-3.46337E+00 9.81542E-02 4.76880E+00-3.37230E-13-2.14162E-13
 -1      2192 1.79983E+01-5.05197E+00-4.15393E-02 6.47737E+00-9.88654E-14-4.69180E-13
 -1      2193 3.47101E+00-4.56480E+00-1.88968E-01 3.53922E+00 2.25930E-14-7.34468E-13
 -1      2194 3.96672E+00-4.45529E+00-1.72926E-01-4.22888E+00 7.72993E-14-8.20344E-13
 -1      2195 1.11908E+01-4.88434E+00-7.65726E-02-6.74246E+00 8.20455E-14-7.39561E-13
 -1      2196 1.95506E+01-4.64493E+00-2.13215E-02-6.40901E+00 9.97535E-14-5.81452E-13
 -1      2197 2.68068E+01-2.60425E+00 1.24756E-01-4.33008E+00 2.94931E-13-3.34288E-13
 -1      2198 3.45217E+01 5.83483E+00 1.67459E-01 4.26233E-01 7.56506E-13-1.43718E-13
 -1      2199 3.64901E+01 6.70358E+00 1.97013E-01 2.36052E-01 6.71296E-13-2.27873E-13
 -1      2200 3.31305E+01 5.96512E+00 6.01775E-03-6.16017E-01 6.43319E-13-2.77917E-13
 -1      2201 3.30713E+01 7.30713E+00-5.76009E-02-6.71416E-01 7.11042E-13-3.04617E-13
 -1      2202 3.20363E+01 1.20795E+00 1.51727E-01-1.03996E+00 5.04936E-13-7.87703E-14
 -1      2203 1.01031E+01-5.11741E+00-1.18203E-01 6.33873E+00-3.31957E-14-6.45650E-13
 -1      2204 3.70988E+01 6.94154E+00 1.99187E-01 7.19066E-02-6.74905E-13 1.69809E-13
 -1      2205 3.36177E+01 7.39790E+00-5.78000E-02 5.65967E-01-6.27276E-13 1.57749E-13
 -1      2206 3.33241E+01 6.37157E+00-3.77438E-03 9.40160E-01-6.35603E-13 4.08007E-14
 -1      2207 2.43616E+01-4.23696E+00 5.27456E-02-5.06503E+00-1.63758E-13 2.85605E-13
 -1      2208 2.29953E+01 1.70755E-01-5.31553E-03 3.33521E-01 2.04967E-13 3.50668E-13
 -1      2209 2.31751E+01 4.23092E-01 2.18169E-02 5.00885E-01 2.41093E-13 3.88759E-13
 -1      2210 1.61289E+01 4.21863E+00-1.50543E-02 1.32523E-01-1.86395E-14-3.62467E-13
 -1      2211 1.66223E+01 4.12272E+00 4.96599E-03 1.77194E-01-5.62577E-14-3.57437E-13
 -1      2212 1.72301E+01 3.84540E+00-1.97203E-02 2.40776E-01-7.18859E-14-3.39483E-13
 -1      2213 1.79459E+01 3.69040E+00 3.73148E-03 1.81472E-01-1.08227E-13-3.09923E-13
 -1      2214 1.69327E+01 3.65285E+00 2.62693E-03 3.90361E-01-4.57056E-14-3.23173E-13
 -1      2215 1.57854E+01 4.30273E+00 2.56158E-03-4.50960E-01 5.84627E-14-3.83672E-13
 -1      2216 1.56155E+01 4.35745E+00-9.53564E-03-3.60736E-01 3.88630E-14-3.90749E-13
 -1      2217 1.65512E+01 3.99415E+00 7.76790E-03-5.97784E-01 1.06001E-13-3.64495E-13
 -1      2218 1.61003E+01 4.10818E+00-1.58053E-02-5.89051E-01 7.74868E-14-3.82114E-13
 -1      2219 1.59042E+01 3.94472E+00 6.93343E-03-6.47080E-01 5.76625E-14-3.64778E-13
 -1      2220 1.76820E+01 3.57422E+00 6.73020E-03-4.96718E-01 1.42517E-13-3.07883E-13
 -1      2221 1.70782E+01 3.71508E+00-1.77619E-02-5.96531E-01 1.19776E-13-3.32419E-13
 -1      2222 1.68492E+01 3.50198E+00-1.49879E-03-7.84383E-01 1.04389E-13-3.25221E-13
 -1      2223 1.89892E+01 3.12800E+00-2.59767E-04-1.52844E-01 2.10020E-13-2.09580E-13
 -1      2224 1.83221E+01 3.28170E+00-1.70982E-02-3.53695E-01 1.67172E-13-2.64026E-13
 -1      2225 1.81282E+01 2.97354E+00-8.39470E-03-6.23304E-01 1.43860E-13-2.53655E-13
 -1      2226 2.03010E+01 2.69590E+00-1.19819E-02 3.45104E-01 2.62464E-13-1.08212E-13
 -1      2227 1.96470E+01 2.86628E+00-1.61457E-02 8.38488E-02 2.25111E-13-1.69312E-13
 -1      2228 1.95161E+01 2.46587E+00-8.92849E-03-2.21321E-01 1.96574E-13-1.63677E-13
 -1      2229 2.15657E+01 2.21540E+00-3.04020E-02 8.62505E-01 3.11863E-13 3.35756E-14
 -1      2230 2.09390E+01 2.45119E+00-1.67940E-02 5.98508E-01 2.75982E-13-3.55948E-14
 -1      2231 2.08499E+01 2.00314E+00-3.36558E-03 2.76419E-01 2.41333E-13-4.90875E-14
 -1      2232 2.28980E+01-2.01543E-01-9.32565E-03 2.91123E-01 1.71174E-13 3.05818E-13
 -1      2233 2.30223E+01-3.12397E-02 2.10856E-02 2.62819E-01 1.81199E-13 3.49885E-13
 -1      2234 2.28316E+01 1.24214E-01-6.70609E-03 3.51074E-01 2.05473E-13 2.49665E-13
 -1      2235 2.32137E+01 5.93699E-01 2.18196E-02 9.22947E-02-1.90706E-13 1.22810E-13
 -1      2236 2.31846E+01 2.39526E-01-1.26736E-02 3.01678E-01-1.46631E-13 1.22900E-13
 -1      2237 2.46992E+01-4.48493E+00-5.49011E-02 4.59731E+00 1.73472E-13-2.44249E-15
 -1      2238 2.14874E+01-5.24108E+00-1.39075E-02 5.58213E+00 1.55986E-13-7.96585E-15
 -1      2239 2.33964E+01-6.39213E-02 2.66643E-02 4.10990E-01-1.18419E-13 1.43510E-13
 -1      2240 2.34483E+01-3.86295E-01-1.63805E-02 3.77741E-01-8.92366E-14 1.34468E-13
 -1      2241 2.27807E+01 1.51015E-01-1.42556E-02 4.49283E-01-1.37598E-13 5.75344E-14
 -1      2242 2.37791E+01-6.67602E-01 2.44176E-02 2.62724E-01-5.98443E-14 1.81829E-13
 -1      2243 2.38640E+01-9.55241E-01-2.33172E-02 2.05636E-02-5.53984E-14 1.71469E-13
 -1      2244 2.32349E+01-6.67092E-01-2.11834E-02 4.98346E-01-5.84444E-14 1.10930E-13
 -1      2245 2.43002E+01-1.16776E+00 1.79696E-02-3.35869E-01-2.48144E-14 1.98445E-13
 -1      2246 2.43462E+01-1.30795E+00-2.55407E-02-7.37967E-01-3.21791E-14 2.15593E-13
 -1      2247 2.39401E+01-1.37340E+00-2.05069E-02 6.94924E-02-2.54727E-14 1.76682E-13
 -1      2248 2.47551E+01-1.29139E+00-2.75636E-03-1.27860E+00-5.38463E-14 2.25117E-13
 -1      2249 2.46962E+01-1.07822E+00-1.40555E-02-1.69041E+00-1.01452E-13 2.11167E-13
 -1      2250 2.47778E+01-1.68179E+00-9.62721E-03-8.27879E-01-4.89539E-14 1.77846E-13
 -1      2251 2.48433E+01-6.43474E-01-3.91445E-02-2.16117E+00-1.73605E-13 2.45885E-13
 -1      2252 2.46792E+01 2.86678E-02 1.30300E-02-2.29413E+00-2.23424E-13 2.19991E-13
 -1      2253 2.54041E+01-1.12458E+00-1.21179E-02-1.94183E+00-1.25835E-13 2.09579E-13
 -1      2254 2.44467E+01 7.81804E-01-7.72781E-02-2.26164E+00-2.64823E-13 1.73656E-13
 -1      2255 2.42608E+01 1.63166E+00 1.34095E-02-1.88170E+00-3.33698E-13 1.17753E-13
 -1      2256 2.54875E+01 5.16183E-01-1.09040E-02-2.56011E+00-2.76258E-13 2.31384E-13
 -1      2257 2.39546E+01 2.25959E+00-6.38224E-02-1.09518E+00-4.00582E-13 1.98275E-14
 -1      2258 2.38826E+01 2.58680E+00-2.87316E-02-2.75281E-01-4.00693E-13-4.87726E-14
 -1      2259 2.51684E+01 2.54308E+00-2.09505E-02-1.74139E+00-4.45061E-13 6.42264E-14
 -1      2260 2.39075E+01 2.49332E+00-2.19287E-02 8.41632E-01-3.28737E-13-1.03525E-13
 -1      2261 2.40582E+01 1.99557E+00-6.41094E-02 1.60289E+00-2.41657E-13-1.50446E-13
 -1      2262 2.48930E+01 3.28227E+00-5.35916E-02 2.95973E-01-4.21843E-13 2.85547E-14
 -1      2263 2.43547E+01 1.25895E+00 1.12518E-02 2.20869E+00-1.90205E-13-2.06368E-13
 -1      2264 2.45704E+01 4.02382E-01-6.82143E-02 2.46151E+00-1.26935E-13-2.39858E-13
 -1      2265 2.52114E+01 2.05095E+00-3.70238E-02 2.12761E+00-2.58384E-13-1.40794E-13
 -1      2266 2.47029E+01-3.47687E-01 4.03218E-03 2.32882E+00-6.15445E-14-1.90451E-13
 -1      2267 2.48523E+01-9.42591E-01-2.95662E-02 2.07154E+00 3.18083E-14-1.08288E-13
 -1      2268 2.54860E+01 3.12760E-02-1.29922E-02 2.57722E+00-8.16847E-14-2.27412E-13
 -1      2269 2.45957E+01-1.29170E+00-1.78566E-02 1.50953E+00 2.91154E-14-1.39426E-13
 -1      2270 2.45964E+01-1.43780E+00-8.43736E-04 1.03299E+00 5.38619E-14-1.71369E-13
 -1      2271 2.52401E+01-1.45427E+00 6.52477E-04 1.71748E+00 3.18755E-14-8.93547E-14
 -1      2272 2.41221E+01-1.41579E+00-2.65876E-02 4.52173E-01 4.54116E-14-2.10099E-13
 -1      2273 2.39938E+01-1.26859E+00 1.27298E-02 3.49875E-03 8.08329E-14-2.31028E-13
 -1      2274 2.44481E+01-1.85939E+00-1.00114E-02 5.01695E-01 2.14278E-14-1.59108E-13
 -1      2275 2.35067E+01-1.07525E+00-2.29474E-02-4.06749E-01 4.70700E-14-2.15136E-13
 -1      2276 2.33046E+01-8.38868E-01 1.35278E-02-7.20212E-01 1.65196E-14-1.90777E-13
 -1      2277 2.35061E+01-1.53192E+00-1.68611E-02-4.92797E-01 7.33120E-14-1.71446E-13
 -1      2278 2.29084E+01-6.26827E-01-1.49027E-02-9.41561E-01-4.74638E-14-1.80037E-13
 -1      2279 2.26791E+01-4.18522E-01 9.84332E-03-1.11070E+00-3.79772E-14-1.93808E-13
 -1      2280 2.26785E+01-9.60701E-01-1.59893E-02-1.10117E+00-1.59451E-14-1.85990E-13
 -1      2281 2.23882E+01-2.54654E-01-7.31484E-03-1.18991E+00-1.19035E-14-1.83450E-13
 -1      2282 2.21590E+01-1.11242E-01 5.89205E-03-1.24708E+00-4.38471E-14-1.39938E-13
 -1      2283 2.20459E+01-4.44155E-01-1.16021E-02-1.37786E+00-2.72407E-14-5.62609E-14
 -1      2284 2.19517E+01-7.16534E-03-1.76211E-03-1.23674E+00-9.19870E-14-1.58337E-13
 -1      2285 2.17364E+01 7.53263E-02 3.06161E-03-1.22160E+00-1.17811E-13-1.22144E-13
 -1      2286 2.15856E+01-8.13848E-02-7.28666E-03-1.42865E+00-9.71306E-14-9.07096E-14
 -1      2287 2.15862E+01 1.30905E-01 1.72200E-03-1.16239E+00-5.33301E-14-8.36941E-14
 -1      2288 2.13916E+01 1.69243E-01 1.38071E-03-1.10773E+00 2.93114E-14-5.17206E-14
 -1      2289 2.12489E+01 1.32125E-01-4.28119E-03-1.34586E+00-7.08461E-14 1.14384E-14
 -1      2290 2.12785E+01 1.92163E-01 3.58498E-03-1.02680E+00 8.02628E-14-3.56283E-14
 -1      2291 2.11077E+01 2.02877E-01 5.03266E-04-9.55334E-01 1.42589E-13-9.16510E-14
 -1      2292 2.09938E+01 2.35241E-01-2.58369E-03-1.19525E+00 8.64109E-14 7.02660E-14
 -1      2293 2.10190E+01 2.06405E-01 4.34288E-03-8.69264E-01 1.53107E-13-1.34592E-13
 -1      2294 2.08729E+01 2.01805E-01 1.13240E-04-7.94968E-01 8.79246E-14-5.12530E-14
 -1      2295 2.07926E+01 2.68053E-01-1.74611E-03-1.01916E+00 9.81244E-14-6.35617E-14
 -1      2296 2.08014E+01 1.95121E-01 4.41603E-03-7.13050E-01 2.09598E-14-9.99254E-15
 -1      2297 2.06793E+01 1.83204E-01-2.13417E-05-6.43589E-01 3.12467E-16-3.74517E-15
 -1      2298 2.06294E+01 2.61047E-01-1.36617E-03-8.42903E-01 1.05450E-13-7.35819E-14
 -1      2299 2.06209E+01 1.72010E-01 4.10461E-03-5.70430E-01 5.40984E-15-3.82337E-14
 -1      2300 2.05209E+01 1.57513E-01-3.96032E-05-5.09372E-01 9.42279E-14-1.05856E-13
 -1      2301 2.04951E+01 2.34381E-01-1.19118E-03-6.80245E-01-9.22851E-15-2.50262E-14
 -1      2302 2.04733E+01 1.45072E-01 3.60931E-03-4.46716E-01 5.62735E-14-1.87838E-13
 -1      2303 2.03930E+01 1.30577E-01-1.55199E-05-3.95187E-01 1.52561E-14-1.94748E-13
 -1      2304 2.03845E+01 2.00199E-01-1.08688E-03-5.37587E-01-4.33448E-15-8.76418E-14
 -1      2305 2.03544E+01 1.18603E-01 3.05475E-03-3.43134E-01-1.38331E-13-1.46341E-13
 -1      2306 2.02911E+01 1.05375E-01 1.60481E-05-3.00913E-01-1.74613E-13-1.05549E-13
 -1      2307 2.02942E+01 1.65249E-01-9.93838E-04-4.16846E-01-5.37254E-14-2.16579E-13
 -1      2308 2.02602E+01 9.46687E-02 2.51245E-03-2.58691E-01-9.52810E-14-1.09058E-13
 -1      2309 2.02112E+01 8.32184E-02 4.13493E-05-2.24893E-01-6.81735E-15-6.16250E-14
 -1      2310 2.02212E+01 1.32936E-01-8.92880E-04-3.17382E-01-1.30750E-13-1.55991E-13
 -1      2311 2.01869E+01 7.40634E-02 2.01940E-03-1.91330E-01 5.64205E-14-1.62326E-13
 -1      2312 2.01497E+01 6.44920E-02 5.69000E-05-1.64806E-01 3.16554E-14-6.32026E-14
 -1      2313 2.01632E+01 1.04715E-01-7.83142E-04-2.37237E-01-5.48568E-15-3.90255E-14
 -1      2314 2.01308E+01 5.69001E-02 1.59129E-03-1.38608E-01 4.30277E-14-7.86554E-14
 -1      2315 2.01030E+01 4.91011E-02 6.35762E-05-1.18165E-01 2.01832E-14-1.33270E-13
 -1      2316 2.01178E+01 8.09627E-02-6.70170E-04-1.73890E-01 3.93851E-14-3.81844E-14
 -1      2317 2.00886E+01 4.29503E-02 1.23142E-03-9.80677E-02-5.19163E-14-1.90415E-13
 -1      2318 2.00683E+01 3.67247E-02 6.36549E-05-8.25863E-02-8.38918E-14-2.03322E-13
 -1      2319 2.00828E+01 6.15002E-02-5.60296E-04-1.24703E-01-5.95823E-14-1.23729E-13
 -1      2320 2.00575E+01 3.18368E-02 9.36318E-04-6.74359E-02-1.78251E-13-1.92918E-13
 -1      2321 2.00430E+01 2.69557E-02 5.94846E-05-5.59220E-02-1.83631E-13-1.40097E-13
 -1      2322 2.00565E+01 4.58880E-02-4.58456E-04-8.71660E-02-1.83324E-13-1.53069E-13
 -1      2323 2.00351E+01 2.31380E-02 6.99257E-04-4.47085E-02-1.66761E-13-4.68670E-14
 -1      2324 2.00250E+01 1.93750E-02 5.29883E-05-3.63108E-02-6.61299E-14 4.05623E-14
 -1      2325 2.00369E+01 3.35917E-02-3.67692E-04-5.90226E-02-1.21644E-13 5.94395E-15
 -1      2326 2.00194E+01 1.64426E-02 5.12247E-04-2.81766E-02-8.69790E-14-6.41585E-14
 -1      2327 2.00126E+01 1.35898E-02 4.55579E-05-2.21853E-02-1.02967E-13-1.21188E-13
 -1      2328 2.00228E+01 2.40705E-02-2.89356E-04-3.83160E-02-1.84196E-13-7.29509E-14
 -1      2329 2.00086E+01 1.13751E-02 3.67214E-04-1.64197E-02-7.50660E-14-3.56097E-14
 -1      2330 2.00042E+01 9.25023E-03 3.81099E-05-1.22555E-02-1.50950E-14-1.09769E-13
 -1      2331 2.00128E+01 1.68205E-02-2.23546E-04-2.33975E-02-1.07000E-13 3.01660E-14
 -1      2332 2.00016E+01 7.60739E-03 2.56616E-04-8.28056E-03-4.58852E-14-1.63414E-13
 -1      2333 1.99990E+01 6.05498E-03 3.11892E-05-5.47915E-03-9.80892E-14-2.40378E-13
 -1      2334 2.00059E+01 1.13953E-02-1.69530E-04-1.29080E-02-5.02861E-14-2.17604E-14
 -1      2335 1.99973E+01 4.86034E-03 1.73733E-04-2.83348E-03 2.19501E-14-5.24596E-15
 -1      2336 1.99959E+01 3.75098E-03 2.50733E-05-1.02901E-03 1.58626E-13 8.91083E-14
 -1      2337 2.00014E+01 7.41139E-03-1.26105E-04-5.74867E-03 8.86226E-14 1.00066E-13
 -1      2338 1.99949E+01 2.90198E-03 1.12773E-04 6.49582E-04 2.31421E-13 1.42263E-13
 -1      2339 1.99943E+01 2.12986E-03 1.98574E-05 1.74063E-03 3.37114E-13 7.37918E-14
 -1      2340 1.99986E+01 4.54774E-03-9.18562E-05-1.04666E-03 2.24510E-13 3.13616E-13
 -1      2341 1.99938E+01 1.54289E-03 6.88712E-05 2.73172E-03 3.36661E-13-3.06200E-14
 -1      2342 1.99937E+01 1.02284E-03 1.55182E-05 3.32536E-03 2.13157E-13 1.71957E-14
 -1      2343 1.99970E+01 2.54035E-03-6.53307E-05 1.87982E-03 2.12839E-13 2.30416E-13
 -1      2344 1.99935E+01 6.30763E-04 3.80253E-05 3.84093E-03 2.27601E-13 1.52131E-16
 -1      2345 1.99938E+01 2.95219E-04 1.19571E-05 4.09864E-03 1.40573E-13 2.13512E-13
 -1      2346 1.99963E+01 1.17585E-03-4.51483E-05 3.55412E-03 2.06046E-13 2.57375E-13
 -1      2347 1.99938E+01 4.47962E-05 1.70038E-05 4.29625E-03 9.80485E-15 2.07730E-13
 -1      2348 1.99943E+01-1.59292E-04 9.02857E-06 4.33609E-03-7.95328E-14 2.22061E-13
 -1      2349 1.99961E+01 2.84117E-04-3.00632E-05 4.37057E-03 1.08371E-13 2.88776E-13
 -1      2350 1.99944E+01-3.09869E-04 3.24540E-06 4.33003E-03-1.99125E-13 2.99649E-13
 -1      2351 1.99950E+01-4.23839E-04 6.55697E-06 4.23582E-03-5.40952E-14 2.14142E-13
 -1      2352 1.99962E+01-2.68934E-04-1.89952E-05 4.61994E-03-1.02296E-13 3.29298E-13
 -1      2353 1.99952E+01-5.07289E-04-5.24164E-06 4.10633E-03-2.44498E-14 1.69947E-13
 -1      2354 1.99958E+01-5.63358E-04 4.34954E-06 3.93505E-03 6.67816E-14 1.77411E-13
 -1      2355 1.99966E+01-5.88219E-04-1.10427E-05 4.51094E-03-1.22135E-13 2.43079E-13
 -1      2356 1.99960E+01-6.05430E-04-9.96741E-06 3.73577E-03 2.35510E-13 9.36176E-14
 -1      2357 1.99966E+01-6.28985E-04 2.21307E-06 3.52341E-03 2.68661E-13 1.05782E-13
 -1      2358 1.99971E+01-7.55773E-04-5.48738E-06 4.18781E-03 8.06609E-14 9.96599E-14
 -1      2359 1.99968E+01-6.50312E-04-1.20501E-05 3.28722E-03 1.77524E-13 1.84614E-13
 -1      2360 1.99973E+01-6.61662E-04 1.30829E-08 3.05330E-03 1.84941E-13 1.91162E-13
 -1      2361 1.99976E+01-8.36279E-04-1.79356E-06 3.74455E-03 1.69259E-13 1.28513E-13
 -1      2362 1.99976E+01-6.78721E-04-1.22380E-05 2.79694E-03 1.72015E-13 1.59274E-13
 -1      2363 1.99980E+01-6.93696E-04-2.17088E-06 2.54858E-03 3.11449E-15 1.49515E-13
 -1      2364 1.99981E+01-8.81062E-04 4.54207E-07 3.23607E-03 1.48740E-13 3.06212E-13
 -1      2365 1.99982E+01-7.19627E-04-1.12310E-05 2.27745E-03-1.86347E-13 1.61894E-13
 -1      2366 1.99986E+01-7.48134E-04-5.49100E-06 2.01294E-03-2.54004E-13 7.36670E-14
 -1      2367 1.99985E+01-9.29133E-04 1.51866E-06 2.68835E-03-2.94560E-14 1.00747E-13
 -1      2368 2.27138E+01-5.02825E-01-9.71186E-03 9.71111E-01 8.13256E-14 2.62867E-13
 -1      2369 2.28828E+01-4.95719E-01 3.22606E-03 7.64125E-01 9.37557E-14 2.92497E-13
 -1      2370 2.24577E+01-3.16609E-01 5.34762E-04 1.38108E+00 6.89312E-14 2.51973E-13
 -1      2371 2.26896E+01-4.46890E-01-5.15175E-03 1.21954E+00 7.14017E-14 2.65660E-13
 -1      2372 2.30418E+01-6.32116E-01 5.64510E-03 1.19354E+00 8.53351E-14 2.39872E-13
 -1      2373 2.20509E+01 1.34196E-01 1.42551E-02 1.51904E+00 1.47151E-13 2.36896E-13
 -1      2374 2.23137E+01-1.24999E-01-1.17418E-02 1.51823E+00 1.02417E-13 2.33404E-13
 -1      2375 2.29014E+01-2.80258E-01 9.27175E-03 1.62500E+00 1.01141E-13 2.44073E-13
 -1      2376 2.15885E+01 7.02550E-01 2.11275E-02 1.16486E+00 1.83210E-13 1.99095E-13
 -1      2377 2.18105E+01 4.17368E-01-1.23448E-02 1.40071E+00 1.72040E-13 2.47198E-13
 -1      2378 2.25521E+01 3.88939E-01 2.63044E-03 1.68052E+00 1.44886E-13 2.17253E-13
 -1      2379 2.12908E+01 1.06917E+00 1.47231E-02 3.12028E-01 7.41907E-14 1.95382E-13
 -1      2380 2.13823E+01 9.33818E-01-2.04038E-03 7.40281E-01 1.29983E-13 1.94198E-13
 -1      2381 2.21285E+01 1.12092E+00-7.76323E-03 1.11599E+00 1.47974E-13 2.57999E-13
 -1      2382 2.13509E+01 9.88245E-01-5.63087E-04-7.02848E-01 1.25522E-13 8.77636E-14
 -1      2383 2.12737E+01 1.08931E+00 1.30512E-02-2.60686E-01 1.01611E-13 1.31501E-13
 -1      2384 2.19099E+01 1.46065E+00-1.78050E-02 3.83640E-02 1.56244E-13 1.92776E-13
 -1      2385 2.17489E+01 5.13693E-01-1.16967E-02-1.43967E+00 1.29563E-13-5.67307E-14
 -1      2386 2.15317E+01 7.88234E-01 2.14208E-02-1.16700E+00 1.58372E-13-1.88131E-15
 -1      2387 2.20621E+01 1.20633E+00-1.18667E-02-1.08516E+00 1.90631E-13 9.42681E-15
 -1      2388 2.22605E+01-6.43477E-02-1.26642E-02-1.63448E+00 1.49086E-13-8.91804E-14
 -1      2389 2.19894E+01 2.19837E-01 1.60407E-02-1.60618E+00 1.34670E-13-8.10966E-14
 -1      2390 2.24623E+01 5.13546E-01 4.46472E-03-1.74397E+00 1.49778E-13-1.15495E-13
 -1      2391 2.26445E+01-4.69813E-01-7.54051E-03-1.33912E+00 9.81810E-15-6.85073E-14
 -1      2392 2.24103E+01-2.98665E-01 2.32148E-03-1.50420E+00 5.62196E-14-1.01197E-13
 -1      2393 2.28235E+01-2.28977E-01 1.39461E-02-1.75150E+00 7.52319E-14-9.93981E-14
 -1      2394 2.27871E+01-6.08718E-01-2.54785E-03-7.94999E-01 8.44754E-14-2.82530E-14
 -1      2395 2.26457E+01-5.71445E-01-1.01530E-02-1.04373E+00 1.05814E-13 2.44678E-14
 -1      2396 2.29484E+01-7.04523E-01 1.03335E-02-1.27581E+00 1.62869E-15-1.17812E-13
 -1      2397 2.27124E+01-5.47864E-01 7.95135E-04-2.35431E-01-5.30821E-14-5.79815E-14
 -1      2398 2.26749E+01-5.98459E-01-1.53798E-02-4.76258E-01-1.71261E-14-1.89649E-14
 -1      2399 2.28271E+01-8.29106E-01 4.07147E-03-6.24583E-01 3.59023E-14-8.30851E-15
 -1      2400 2.24929E+01-3.94650E-01 1.99902E-03 2.07607E-01-4.90775E-14-4.81765E-14
 -1      2401 2.25430E+01-4.79053E-01-1.46616E-02 2.34117E-02-2.27257E-14-7.36308E-14
 -1      2402 2.25504E+01-7.12893E-01-5.15120E-04-2.74761E-02-5.68033E-14-6.93379E-14
 -1      2403 2.21992E+01-2.30337E-01 1.98705E-03 4.94241E-01-2.10379E-15 1.55756E-15
 -1      2404 2.23098E+01-3.12318E-01-1.10324E-02 3.78905E-01-1.72510E-14-6.21497E-15
 -1      2405 2.22104E+01-4.95679E-01-2.73304E-03 4.09718E-01-1.38366E-14-3.26715E-14
 -1      2406 2.18814E+01-9.60965E-02 1.62042E-03 6.39210E-01-5.78491E-14-3.30298E-14
 -1      2407 2.20259E+01-1.59481E-01-6.72663E-03 5.84110E-01 5.62311E-15 1.44342E-14
 -1      2408 2.18671E+01-2.76772E-01-3.18508E-03 6.71231E-01-1.54806E-14-2.05684E-14
 -1      2409 2.15703E+01-3.30154E-03 1.25975E-03 6.78414E-01-4.16087E-14-5.58798E-16
 -1      2410 2.17271E+01-4.52324E-02-2.99663E-03 6.67323E-01-7.69084E-14 1.80210E-14
 -1      2411 2.15496E+01-1.03472E-01-2.83607E-03 7.86503E-01-7.23248E-14-3.22931E-14
 -1      2412 2.12826E+01 5.21483E-02 1.00679E-03 6.49061E-01 7.48723E-14-7.11694E-14
 -1      2413 2.14367E+01 2.83246E-02-2.84132E-04 6.65868E-01 5.45568E-14-2.18555E-14
 -1      2414 2.12680E+01 1.35498E-02-2.35009E-03 7.97992E-01 3.67346E-14 3.78538E-15
 -1      2415 2.10270E+01 7.95503E-02 8.49589E-04 5.81438E-01 1.03607E-13-8.08654E-14
 -1      2416 2.11689E+01 6.88053E-02 1.43458E-03 6.13281E-01 6.93416E-14-1.21335E-13
 -1      2417 2.10237E+01 8.17061E-02-1.95347E-03 7.44881E-01 9.52843E-14-1.23841E-14
 -1      2418 2.08067E+01 8.82472E-02 7.50120E-04 4.97153E-01 6.20496E-14 8.61126E-14
 -1      2419 2.09313E+01 8.59566E-02 2.35710E-03 5.35013E-01 1.04632E-13-1.20428E-16
 -1      2420 2.08151E+01 1.13890E-01-1.67323E-03 6.57544E-01 2.71472E-14-2.34593E-14
 -1      2421 2.06215E+01 8.56937E-02 6.75652E-04 4.10149E-01-1.66340E-13 1.84848E-13
 -1      2422 2.07271E+01 8.83186E-02 2.71449E-03 4.48322E-01 6.90312E-15 1.76654E-13
 -1      2423 2.06394E+01 1.22437E-01-1.47255E-03 5.57083E-01-2.69327E-14 2.19975E-13
 -1      2424 2.04694E+01 7.71637E-02 6.07841E-04 3.28561E-01-1.94096E-13-1.07610E-13
 -1      2425 2.05563E+01 8.22660E-02 2.70860E-03 3.63812E-01-2.09386E-13 2.02743E-14
 -1      2426 2.04937E+01 1.16993E-01-1.31166E-03 4.56870E-01-5.28497E-14 1.14408E-13
 -1      2427 2.03471E+01 6.60930E-02 5.39569E-04 2.56498E-01 9.71754E-15-2.09206E-13
 -1      2428 2.04167E+01 7.21180E-02 2.49351E-03 2.87273E-01-6.69721E-14-1.96952E-13
 -1      2429 2.03747E+01 1.04301E-01-1.16525E-03 3.64548E-01-2.51162E-14-2.67723E-13
 -1      2430 2.02507E+01 5.45636E-02 4.70077E-04 1.95482E-01-4.77271E-14-1.97563E-13
 -1      2431 2.03052E+01 6.05905E-02 2.17661E-03 2.21290E-01-5.85322E-14-2.15780E-13
 -1      2432 2.02791E+01 8.87141E-02-1.02248E-03 2.83830E-01-4.07055E-14-3.21167E-13
 -1      2433 2.01761E+01 4.37359E-02 4.01283E-04 1.45473E-01 8.09323E-14-1.76707E-13
 -1      2434 2.02179E+01 4.92682E-02 1.82742E-03 1.66446E-01 2.13051E-14-1.48976E-13
 -1      2435 2.02035E+01 7.28434E-02-8.81856E-04 2.15903E-01-5.98821E-15-3.27518E-13
 -1      2436 2.01197E+01 3.41763E-02 3.35692E-04 1.05579E-01-1.90622E-14-7.86014E-14
 -1      2437 2.01510E+01 3.89872E-02 1.48760E-03 1.22178E-01 2.77493E-14-1.03720E-13
 -1      2438 2.01448E+01 5.81233E-02-7.46146E-04 1.60447E-01 2.79360E-14-3.03637E-13
 -1      2439 2.00779E+01 2.60868E-02 2.75395E-04 7.45067E-02 1.80147E-14 1.04488E-13
 -1      2440 2.01007E+01 3.01123E-02 1.17964E-03 8.73355E-02 7.88662E-15 3.47773E-14
 -1      2441 2.01001E+01 4.52324E-02-6.19151E-04 1.16319E-01-7.03751E-14-1.89750E-13
 -1      2442 2.00476E+01 1.94586E-02 2.21742E-04 5.08463E-02 5.38587E-14 9.09877E-14
 -1      2443 2.00638E+01 2.27271E-02 9.13541E-04 6.05385E-02 6.64727E-14 1.51344E-13
 -1      2444 2.00666E+01 3.43887E-02-5.04034E-04 8.20091E-02 2.68281E-14-1.63834E-13
 -1      2445 2.00262E+01 1.41700E-02 1.75348E-04 3.32306E-02-4.69686E-14-5.76206E-14
 -1      2446 2.00374E+01 1.67572E-02 6.91594E-04 4.03865E-02-1.03630E-14 9.21279E-14
 -1      2447 2.00421E+01 2.55462E-02-4.02729E-04 5.59145E-02 6.42397E-14-1.64491E-13
 -1      2448 2.00115E+01 1.00482E-02 1.36232E-04 2.04230E-02-8.61436E-14 2.82501E-14
 -1      2449 2.00190E+01 1.20497E-02 5.11662E-04 2.55775E-02-5.29781E-14-1.10646E-14
 -1      2450 2.00246E+01 1.85202E-02-3.15927E-04 3.65039E-02-3.51452E-14-1.43328E-13
 -1      2451 2.00020E+01 6.90623E-03 1.03993E-04 1.13543E-02 3.73614E-14 4.18103E-14
 -1      2452 2.00067E+01 8.42084E-03 3.69317E-04 1.49645E-02 2.42747E-15 3.79945E-14
 -1      2453 2.00124E+01 1.30656E-02-2.43312E-04 2.24011E-02 2.09842E-14 1.13544E-13
 -1      2454 1.99961E+01 4.56365E-03 7.79728E-05 5.13084E-03 1.51471E-13 1.78316E-13
 -1      2455 1.99988E+01 5.68428E-03 2.59199E-04 7.57496E-03 5.09343E-14 8.06780E-14
 -1      2456 2.00043E+01 8.92350E-03-1.83877E-04 1.24211E-02 2.15489E-14 2.36936E-13
 -1      2457 1.99928E+01 2.85755E-03 5.73824E-05 1.02556E-03 1.16025E-13 2.94499E-13
 -1      2458 1.99941E+01 3.66681E-03 1.75837E-04 2.60883E-03 2.09522E-13 3.16601E-13
 -1      2459 1.99991E+01 5.84759E-03-1.36203E-04 5.57582E-03 4.67401E-14 3.11279E-13
 -1      2460 1.99913E+01 1.64712E-03 4.13949E-05-1.53905E-03-7.11537E-14 3.96053E-13
 -1      2461 1.99917E+01 2.21561E-03 1.14108E-04-5.76082E-04 9.63754E-14 3.77423E-13
 -1      2462 1.99960E+01 3.61723E-03-9.86914E-05 1.06284E-03 7.84368E-14 4.36909E-13
 -1      2463 1.99909E+01 8.14497E-04 2.92046E-05-3.01193E-03-1.74967E-13 1.75754E-13
 -1      2464 1.99908E+01 1.20078E-03 6.94701E-05-2.48371E-03-1.89371E-13 3.13342E-13
 -1      2465 1.99944E+01 2.04286E-03-6.97218E-05-1.75463E-03-3.21378E-14 3.39601E-13
 -1      2466 1.99914E+01 2.63388E-04 2.00610E-05-3.73461E-03-1.60034E-13 3.40784E-13
 -1      2467 1.99908E+01 5.14967E-04 3.80446E-05-3.50112E-03-8.14454E-14 2.20330E-13
 -1      2468 1.99939E+01 9.66509E-04-4.77623E-05-3.37109E-03-1.12027E-13 3.73152E-13
 -1      2469 1.99922E+01-8.33545E-05 1.32821E-05-3.96090E-03 5.20605E-15 2.42512E-13
 -1      2470 1.99915E+01 7.13631E-05 1.66192E-05-3.91904E-03-1.92814E-13 2.08573E-13
 -1      2471 1.99939E+01 2.59571E-04-3.14298E-05-4.16233E-03-1.63412E-13 4.56733E-13
 -1      2472 1.99933E+01-2.86723E-04 8.25636E-06-3.87432E-03 4.09937E-14 3.63563E-13
 -1      2473 1.99925E+01-1.99073E-04 2.59616E-06-3.95042E-03 7.00043E-14 2.27503E-13
 -1      2474 1.99944E+01-1.80758E-04-1.95203E-05-4.40724E-03-1.31676E-14 2.01411E-13
 -1      2475 1.99944E+01-3.94652E-04 4.43506E-06-3.60265E-03 1.05742E-13 2.34622E-13
 -1      2476 1.99936E+01-3.50690E-04-6.07669E-06-3.74634E-03 9.69484E-14 3.12842E-13
 -1      2477 1.99951E+01-4.35659E-04-1.10195E-05-4.30702E-03 1.39462E-14 4.57123E-13
 -1      2478 1.99955E+01-4.44984E-04 1.36495E-06-3.22979E-03 2.49239E-13 3.36458E-13
 -1      2479 1.99948E+01-4.26242E-04-1.09875E-05-3.40911E-03 2.30379E-13 3.03558E-13
 -1      2480 1.99958E+01-5.68962E-04-5.09831E-06-4.00133E-03 1.35255E-13 2.33756E-13
 -1      2481 1.99966E+01-4.68400E-04-1.41757E-06-2.80508E-03 7.27512E-14 5.71789E-13
 -1      2482 1.99959E+01-4.59917E-04-1.33896E-05-3.00284E-03 9.54641E-14 4.86749E-13
 -1      2483 1.99966E+01-6.30920E-04-1.06669E-06-3.58145E-03 7.52191E-14 2.97999E-13
 -1      2484 1.99975E+01-4.89231E-04-3.24395E-06-2.34868E-03-7.63733E-15 5.41311E-13
 -1      2485 1.99969E+01-4.81310E-04-1.45390E-05-2.56107E-03-8.77834E-14 5.09319E-13
 -1      2486 1.99974E+01-6.60716E-04 2.41134E-06-3.10319E-03-2.74771E-14 5.81456E-13
 -1      2487 1.99983E+01-5.27061E-04-5.12105E-06-1.86461E-03 1.53004E-13 7.37280E-13
 -1      2488 1.99978E+01-5.09283E-04-1.46506E-05-2.09402E-03 1.14085E-13 6.57352E-13
 -1      2489 1.99980E+01-6.91027E-04 7.61477E-06-2.58936E-03-6.72990E-14 5.11274E-13
 -1      2490 1.99989E+01-5.88167E-04-7.95458E-06-1.35032E-03 1.06188E-14 7.08035E-13
 -1      2491 1.99985E+01-5.55437E-04-1.30473E-05-1.59700E-03 1.90981E-13 8.45631E-13
 -1      2492 1.99986E+01-7.45056E-04 9.87932E-06-2.03852E-03 5.16144E-14 7.49808E-13
 -1      2493 1.99992E+01-6.04973E-04-8.38444E-06-1.04351E-03-4.40584E-14 5.50709E-13
 -1      2494 2.00003E+01-2.92514E-03 1.18803E-05-1.53929E-03 1.72048E-13-3.49468E-13
 -1      2495 2.00001E+01-2.66438E-03-2.01333E-06-1.69105E-03 1.45892E-13-4.26410E-13
 -1      2496 2.00005E+01-3.32960E-03 1.21885E-05-1.07503E-03 2.01660E-13 1.16416E-13
 -1      2497 2.00004E+01-3.13787E-03 3.00624E-06-1.30725E-03 1.89755E-13-1.97527E-13
 -1      2498 2.00005E+01-2.88173E-03-7.42404E-06-1.61839E-03 3.53563E-13-3.01373E-13
 -1      2499 1.99997E+01-1.78677E-03 7.89203E-06-1.86330E-03 1.06875E-14-8.67860E-14
 -1      2500 1.99995E+01-1.46523E-03-1.09656E-05-1.79412E-03 8.70428E-14 1.51862E-13
 -1      2501 2.00000E+01-2.38926E-03 9.87562E-06-1.81535E-03-6.25157E-14-3.25167E-13
 -1      2502 1.99998E+01-2.09359E-03-7.28721E-06-1.85648E-03-6.69850E-14-8.70087E-14
 -1      2503 1.99998E+01-1.85901E-03 3.04760E-06-2.13200E-03-7.11754E-15-1.68325E-13
 -1      2504 2.00002E+01-2.41425E-03-6.02974E-06-2.00300E-03 2.18498E-13-2.20641E-13
 -1      2505 2.00006E+01-3.56512E-03 1.14957E-05-4.87760E-04-2.58200E-13-2.55057E-13
 -1      2506 2.00006E+01-3.46418E-03 6.85814E-06-7.69828E-04-6.29788E-14-1.87345E-13
 -1      2507 2.00007E+01-3.21538E-03-8.98321E-06-1.04721E-03-3.72414E-14-2.97054E-13
 -1      2508 2.00006E+01-3.61023E-03 9.74152E-06 1.53808E-04-3.07376E-13-1.19284E-13
 -1      2509 2.00006E+01-3.61092E-03 9.72993E-06-1.44997E-04-3.15810E-13-1.46021E-13
 -1      2510 2.00009E+01-3.38906E-03-9.80446E-06-3.58993E-04-2.28792E-13-2.04755E-13
 -1      2511 2.00005E+01-3.46128E-03 6.97065E-06 7.78077E-04-1.34009E-13-3.68530E-13
 -1      2512 2.00006E+01-3.56379E-03 1.13943E-05 4.96450E-04-2.66337E-13-1.87486E-13
 -1      2513 2.00009E+01-3.38841E-03-9.79890E-06 3.68659E-04-3.62875E-13-7.03361E-14
 -1      2514 2.00004E+01-3.14012E-03 3.00413E-06 1.30631E-03 5.62938E-14-8.64697E-13
 -1      2515 2.00005E+01-3.32898E-03 1.20437E-05 1.07816E-03-4.32797E-15-8.17750E-13
 -1      2516 2.00007E+01-3.21572E-03-9.15965E-06 1.05109E-03-1.44281E-13-5.70477E-13
 -1      2517 2.00001E+01-2.66556E-03-1.54560E-06 1.69050E-03 1.82121E-13-7.38095E-14
 -1      2518 2.00003E+01-2.92758E-03 1.17123E-05 1.53869E-03 1.39021E-13-6.61273E-13
 -1      2519 2.00005E+01-2.88444E-03-7.43244E-06 1.61792E-03 7.27661E-14-6.82024E-13
 -1      2520 1.99998E+01-2.08536E-03-5.96140E-06 1.86199E-03 1.81305E-13 4.68796E-13
 -1      2521 2.00000E+01-2.39191E-03 9.97495E-06 1.81775E-03 7.41456E-14 4.95293E-13
 -1      2522 2.00002E+01-2.41631E-03-4.07653E-06 2.00248E-03 1.31227E-13 7.43198E-14
 -1      2523 1.99995E+01-1.45449E-03-9.01000E-06 1.78043E-03-1.25699E-13 5.81511E-13
 -1      2524 1.99997E+01-1.77721E-03 6.36826E-06 1.86088E-03-1.75776E-14 4.08136E-13
 -1      2525 1.99997E+01-1.85284E-03 2.49716E-07 2.13451E-03 5.04666E-14 3.24900E-13
 -1      2526 4.71422E+00-3.15748E+00 4.74704E-02 3.86110E+00 3.47222E-14 3.33344E-13
 -1      2527 3.63946E+00-2.40730E+00 9.27780E-02 1.51556E+00-3.86635E-14 7.91145E-13
 -1      2528 1.83098E+01-5.30061E+00-5.81532E-03 6.76722E+00 1.09135E-13 3.92221E-14
 -1      2529 1.46685E+01-5.06899E+00 8.06154E-02 6.80236E+00-1.54321E-14 6.22419E-14
 -1      2530 2.10930E+01-5.29125E+00 8.94074E-02 5.64505E+00-2.07612E-14-4.91308E-14
 -1      2531 2.28334E+01-4.37836E-01-1.25691E-02 5.44013E-01 1.08817E-13 2.90260E-13
 -1      2532 2.29547E+01-3.32580E-01 1.19178E-02 3.91730E-01 1.28633E-13 3.09374E-13
 -1      2533 2.30031E+01-6.27479E-01-1.03433E-03 6.93615E-01 1.18134E-13 2.44082E-13
 -1      2534 1.99993E+01-9.38401E-04-6.91954E-06 1.30984E-03-1.31125E-13 2.49342E-13
 -1      2535 4.01698E+00-2.26603E+00 1.13473E-01-1.59618E+00 1.54619E-13 1.10939E-12
 -1      2536 5.31765E+00-3.07173E+00 8.70232E-02-3.89501E+00 2.02671E-13 1.02346E-12
 -1      2537 1.03216E+01-4.14732E+00 1.59441E-02 6.63477E+00-3.27793E-14 6.42264E-14
 -1      2538 7.20113E+00-3.68595E+00 8.18583E-02 5.30512E+00 2.61180E-14 1.38362E-13
 -1      2539 1.47639E+01-5.19232E+00 9.07317E-02-6.52210E+00 3.10169E-13 5.76775E-13
 -1      2540 1.92640E+01-5.49493E+00-2.39178E-02-6.40865E+00 2.08777E-13 3.79037E-13
 -1      2541 2.27455E+01 1.84656E+00-7.44543E-03-7.04365E-01-2.63742E-13 5.08343E-14
 -1      2542 2.29321E+01 1.01222E+00-1.31264E-02-1.41790E-01-2.38218E-13 8.57600E-14
 -1      2543 2.23935E+01 1.09012E+00-2.91652E-03 4.13012E-02-2.05395E-13 6.28772E-15
 -1      2544 2.18385E+01 2.29901E+00-4.37519E-03-5.45001E-01-2.47937E-13-5.28605E-14
 -1      2545 3.32732E+01 7.20006E+00-1.33460E-01-4.44988E-01-7.14206E-13 1.59567E-13
 -1      2546 3.35227E+01 6.38220E+00-5.17389E-02-8.11461E-01-7.87370E-13 1.77136E-13
 -1      2547 4.20142E+00-2.74129E+00 4.11314E-02-3.52964E+00-1.27676E-14-7.58671E-13
 -1      2548 6.43374E+00-3.17794E+00 9.53206E-03-5.40695E+00 1.01585E-14-7.38687E-13
 -1      2549 1.56175E+01 4.38850E+00-6.57420E-03-1.49917E-01 3.17448E-14-3.90562E-13
 -1      2550 1.57924E+01 4.36619E+00-9.87564E-04-4.62014E-02 2.64925E-15-3.77427E-13
 -1      2551 1.59024E+01 4.04904E+00 9.89802E-03 1.36822E-01-1.96208E-15-3.45404E-13
 -1      2552 1.55412E+01 4.15817E+00 1.22685E-02-2.77157E-01 2.55670E-14-3.71850E-13
 -1      2553 2.97963E+01-8.14818E-01-7.04359E-03-5.19177E-01 2.83946E-13 3.71092E-14
 -1      2554 3.08690E+01 1.44800E+00-1.83059E-01 6.87514E-01 4.47101E-13 3.06977E-14
 -1      2555 3.25301E+01 7.28580E+00-1.14485E-01 5.02476E-01 7.79543E-13-1.63480E-13
 -1      2556 3.24218E+01 7.54513E+00-1.53887E-01 3.26093E-02 7.59559E-13-2.05149E-13
 -1      2557 1.33384E+01-4.44424E+00-6.06355E-03 6.81784E+00 9.85323E-14-5.04000E-13
 -1      2558 9.66129E+00-3.95191E+00 5.76069E-02 5.99758E+00 1.56763E-13-6.03462E-13
 -1      2559 3.12806E+01 4.48141E+00-1.30901E-01 1.14662E+00 6.49453E-13-3.16136E-14
 -1      2560 3.23048E+01 6.18984E+00-9.20091E-02 8.90957E-01 7.65166E-13-5.84255E-14
 -1      2561 2.49680E+01-4.09405E+00 3.37559E-03-4.27509E+00 5.09870E-14-2.34257E-13
 -1      2562 2.76198E+01-3.09936E+00-1.59435E-01-2.81627E+00 1.45398E-13-3.51108E-14
 -1      2563 1.91192E+01-4.81739E+00 8.12287E-02-6.20478E+00-1.26343E-13-4.11157E-13
 -1      2564 2.23317E+01-4.61471E+00-2.51762E-02-5.69187E+00-5.99520E-15-3.38563E-13
 -1      2565 2.43187E+01-4.59764E+00 7.35261E-02-4.17253E+00-1.43996E-13-1.26149E-13
 -1      2566 1.02435E+01-3.85712E+00 7.83489E-02-6.33728E+00-5.68712E-14-6.39461E-13
 -1      2567 1.43847E+01-4.30245E+00-2.01731E-02-7.05104E+00-7.57172E-14-5.49005E-13
 -1      2568 3.21704E+00-1.85995E+00 7.72268E-02 5.12300E-01 5.48867E-14-6.95777E-13
 -1      2569 3.43314E+00-1.84077E+00 8.96468E-02-1.56853E+00 6.62040E-14-7.31970E-13
 -1      2570 6.13579E+00-2.91649E+00 3.63782E-02 4.77138E+00 9.49796E-14-6.61970E-13
 -1      2571 3.91863E+00-2.43047E+00 6.48390E-02 2.57457E+00 1.36252E-13-6.83287E-13
 -1      2572 5.62077E+00-8.14532E-01 1.70849E-01 1.59728E+00 1.26010E-13-6.87894E-13
 -1      2573 2.09767E+01-5.01214E+00-2.72401E-02 5.99966E+00 1.50990E-14-2.75502E-13
 -1      2574 1.74666E+01-5.09906E+00 2.66158E-02 6.34351E+00 1.04083E-13-3.54642E-13
 -1      2575 2.70097E+01-3.75169E+00-9.05964E-02 3.43494E+00-2.08250E-13 2.23155E-14
 -1      2576 2.39552E+01-4.68186E+00-1.49967E-02 4.64804E+00-8.03801E-14-1.31395E-13
 -1      2577 2.33979E+01-4.99619E+00 7.30781E-02 4.69146E+00 1.07414E-13-5.63855E-14
 -1      2578 3.34361E+01 4.86549E+00-6.86455E-02-9.42778E-01-7.67275E-13 2.79055E-13
 -1      2579 3.25518E+01 3.22438E+00-8.33819E-02-8.31409E-01-7.00856E-13 3.03813E-13
 -1      2580 2.32062E+01-5.15715E+00 1.57828E-02-4.80327E+00 7.01106E-14 9.54792E-14
 -1      2581 2.64804E+01-4.27712E+00-9.65664E-02-3.86984E+00-1.21791E-13 5.85920E-14
 -1      2582 3.20925E+01 2.31738E+00-4.67582E-02 1.00266E+00-4.54081E-13-6.17284E-14
 -1      2583 3.26526E+01 4.00722E+00-1.51718E-01 1.14119E+00-5.31075E-13-2.10387E-14
 -1      2584 2.88700E+01-2.66177E+00-1.99429E-02-1.62387E+00-1.76775E-13-9.61453E-14
 -1      2585 3.10439E+01-5.32667E-01-1.46807E-01-1.39666E-01-3.27814E-13-1.74749E-13
 -1      2586 7.22415E+00-3.74467E+00 8.63852E-02-5.05223E+00 2.82524E-13 8.20927E-13
 -1      2587 9.93877E+00-4.21800E+00 9.08957E-03-6.34120E+00 2.73337E-13 7.07323E-13
 -1      2588 8.05711E+00-2.32903E+00 1.67385E-01-4.35319E+00 2.88755E-13 8.69360E-13
 -1      2589 3.25643E+01 3.64152E+00-5.84504E-02-4.64681E-01 6.07570E-13-2.99483E-13
 -1      2590 3.13071E+01 1.69364E+00-7.89058E-02-1.78053E-01 5.12049E-13-2.57794E-13
 -1      2591 2.32051E+01 6.45470E-01-1.16859E-02 6.82987E-01 2.86663E-13 4.10998E-13
 -1      2592 2.34430E+01 1.07028E+00-8.03270E-03 1.11027E+00 3.08444E-13 4.51890E-13
 -1      2593 2.30092E+01 1.50066E+00-2.17421E-02 1.23427E+00 3.33637E-13 3.36019E-13
 -1      2594 2.28936E+01 6.98839E-01-1.59656E-02 6.56841E-01 2.77563E-13 2.83081E-13
 -1      2595 2.87123E+01 8.60963E-01-5.52491E-02 1.58463E+00 2.95805E-13 2.10609E-13
 -1      2596 3.02373E+01 2.59421E+00-8.89909E-02 1.49672E+00 4.49266E-13 1.00753E-13
 -1      2597 2.86482E+01 3.42562E+00-1.50925E-01 2.10062E+00 4.65017E-13 1.56111E-13
 -1      2598 1.84216E+01 3.08954E+00-3.21420E-03 3.76328E-01-9.90156E-14-2.73007E-13
 -1      2599 1.87181E+01 3.35547E+00-2.12902E-02 1.10569E-01-1.24894E-13-2.76368E-13
 -1      2600 1.95372E+01 3.14709E+00-6.21912E-03-5.51350E-02-1.67143E-13-2.45725E-13
 -1      2601 2.29005E+01-3.50406E-01-4.76117E-03 3.66891E-01 1.60467E-13 2.24857E-13
 -1      2602 2.24008E+01 1.86572E+00-1.18886E-02 1.09945E+00 3.21613E-13 1.82247E-13
 -1      2603 3.04968E+01 1.92723E-02-4.48572E-02-7.13733E-03 3.97384E-13-2.17909E-13
 -1      2604 2.91195E+01-1.42283E+00-3.90567E-03 1.98717E-01 3.25226E-13-2.27790E-13
 -1      2605 2.96560E+01 7.05434E-01-1.28886E-01-1.31052E+00 4.26950E-13-2.90740E-13
 -1      2606 2.79268E+01-3.78368E+00 1.04689E-02-1.73340E+00-4.41452E-14-1.46938E-13
 -1      2607 3.20461E+01 6.97621E+00-1.00148E-01 4.60435E-02-6.31384E-13 1.01042E-13
 -1      2608 2.98417E+01 6.53355E+00-1.08418E-01-5.19269E-01-6.70519E-13 9.67768E-14
 -1      2609 2.99169E+01 6.51786E+00-1.79332E-01 6.00908E-01-6.06876E-13 3.19328E-14
 -1      2610 2.22895E+01 1.44404E+00 1.33902E-02 7.57304E-01 2.81991E-13 1.45559E-13
 -1      2611 2.74067E+01-3.64763E+00-1.70806E-01 1.62716E+00 1.42487E-13-2.04239E-13
 -1      2612 2.65006E+01-4.06230E+00 1.03409E-02 3.24105E+00 1.44607E-13-9.13158E-14
 -1      2613 2.53236E+01-4.75648E+00 7.06228E-02 3.39088E+00 3.42226E-14-1.63307E-13
 -1      2614 3.03686E+01 1.22661E-01-3.49431E-02 1.29129E+00-2.64677E-13-1.75943E-13
 -1      2615 2.20734E+01-5.44612E+00 4.45553E-02-5.05055E+00 2.49717E-13 2.01089E-13
 -1      2616 1.99991E+01-8.24193E-04-2.83978E-06-1.43211E-03 4.67967E-14 5.83554E-13
 -1      2617 1.99992E+01-1.06586E-03 1.23167E-06-1.60546E-03 1.87558E-13 3.77803E-13
 -1      2618 2.87741E+01-3.03935E+00 2.47402E-02 1.98366E+00-2.45109E-13 1.26510E-13
 -1      2619 2.74277E+01-4.00068E+00 6.23582E-02 2.17852E+00-6.03823E-14 1.82576E-13
 -1      2620 2.92422E+01-2.38002E+00-2.07111E-01 3.83305E-01-2.80193E-13 3.08809E-13
 -1      2621 6.02318E+00-9.36948E-01 1.11986E-01 1.35222E+00-1.72107E-13 6.80928E-13
 -1      2622 4.89007E+00-1.61855E+00 1.83382E-01-1.20337E-01-4.05405E-14 1.01744E-12
 -1      2623 6.39834E+00-9.10441E-01 1.00075E-01-1.58435E+00 4.63622E-14 9.05886E-13
 -1      2624 7.77765E+00-2.37152E+00 1.70953E-01 4.59253E+00-9.83380E-14 2.49051E-13
 -1      2625 1.40384E+01-4.17649E+00 1.43274E-01 6.51063E+00-1.30562E-13 2.71172E-14
 -1      2626 9.51629E+00-2.47878E+00 1.45013E-01 5.29727E+00 2.15772E-13-6.06237E-13
 -1      2627 1.67851E+01-4.50403E+00 1.02454E-01 6.28688E+00 2.18020E-13-3.55715E-13
 -1      2628 1.77648E+01-4.32137E+00 1.04284E-01-6.31423E+00-2.09777E-13-3.85456E-13
 -1      2629 5.60560E+00-1.07539E+00 1.51093E-01-2.57008E+00-2.75335E-14-7.22367E-13
 -1      2630 1.00695E+01-2.63743E+00 1.57650E-01-5.89811E+00-1.12688E-13-6.62803E-13
 -1      2631 3.17532E+01 1.43073E+00-9.05564E-02-9.20972E-01-6.10373E-13 3.43281E-13
 -1      2632 3.04718E+01 2.96544E-02 2.95487E-03-1.00451E+00-4.69458E-13 4.17721E-13
 -1      2633 3.02346E+01 2.09665E+00-1.95321E-01-1.97169E+00-5.96967E-13 4.23078E-13
 -1      2634 2.09855E+01 2.57471E+00-1.04377E-02-3.29444E-01-2.19484E-13-1.35121E-13
 -1      2635 1.40862E+01-4.13441E+00 1.55209E-01-6.22736E+00 3.35842E-13 6.14980E-13
 -1      2636 3.14688E+01 7.11338E+00-1.05520E-01-4.30010E-01 7.10876E-13-2.28637E-13
 -1      2637 2.97085E+01 6.52458E+00-1.60707E-01-9.52298E-01 6.35686E-13-2.58960E-13
 -1      2638 2.93371E+01 6.95803E+00-1.10503E-01-1.52287E-01 7.03243E-13-1.70232E-13
 -1      2639 3.01773E+01 6.31749E+00-9.81066E-02 1.10319E+00 7.03493E-13-8.15042E-14
 -1      2640 3.13779E+01 5.24251E+00-5.91013E-02-1.55818E+00-7.29139E-13 2.86271E-13
 -1      2641 3.11576E+01 4.44449E+00-9.86939E-02-1.42960E+00 5.80064E-13-2.78916E-13
 -1      2642 2.84790E+01-2.23330E+00 4.18767E-02-9.10283E-01 1.12384E-13 6.85840E-14
 -1      2643 3.13396E+01 4.80413E+00-9.60213E-02 1.74274E+00-5.12868E-13-4.54359E-14
 -1      2644 1.99990E+01-7.90738E-04-1.03779E-05 1.55533E-03-1.88174E-13 2.07386E-13
 -1      2645 1.99993E+01-1.16985E-03 5.00247E-06 1.72744E-03-2.21555E-13 5.49304E-13
 -1      2646 1.99993E+01-1.28388E-03-3.62464E-06 2.06466E-03-1.55287E-13 4.96873E-13
 -1      2647 1.99987E+01-7.72295E-04-1.30305E-05 1.81547E-03-2.37439E-13 2.22815E-13
 -1      2648 1.99992E+01-1.18049E-03-6.41041E-06-1.96374E-03 7.51127E-14 3.17318E-13
 -1      2649 1.99989E+01-9.80122E-04 5.13166E-06 2.19445E-03-2.30866E-13 3.00204E-13
 -1      2650 1.71635E+01 3.00084E+00 1.61483E-02-1.04645E+00 1.00279E-13-2.92264E-13
 -1      2651 1.64782E+01 3.21292E+00-2.01528E-02-1.05746E+00 7.47603E-14-3.17732E-13
 -1      2652 1.58999E+01 3.56726E+00 1.14307E-02-9.05825E-01 5.73055E-14-3.47406E-13
 -1      2653 1.54612E+01 3.70933E+00-1.81779E-02-7.59873E-01 3.54272E-14-3.49843E-13
 -1      2654 1.61289E+01 3.03262E+00 8.52317E-03-1.22303E+00 5.18134E-14-3.17054E-13
 -1      2655 2.01112E+01 1.81117E+00 3.67732E-04-3.26868E-01 1.91478E-13-1.31147E-13
 -1      2656 1.93997E+01 2.04829E+00-7.44995E-03-5.74230E-01 1.60045E-13-1.73257E-13
 -1      2657 2.13940E+01 1.33620E+00-2.33549E-03 1.93545E-01 2.25007E-13-5.50992E-15
 -1      2658 2.07680E+01 1.57857E+00-8.54602E-04-3.80554E-02 2.03812E-13-6.73220E-14
 -1      2659 2.06549E+01 1.14518E+00-7.24207E-03-3.94133E-01 1.70349E-13-7.50309E-14
 -1      2660 2.26005E+01 1.88624E-02-1.24179E-02 2.20180E-01 1.77539E-13 1.58963E-13
 -1      2661 2.26248E+01 3.74252E-01 1.77505E-02 3.17197E-01 1.98743E-13 1.55958E-13
 -1      2662 8.88221E+00-1.04401E+00 2.20194E-01-3.51729E+00 2.68438E-13 8.54899E-13
 -1      2663 1.03349E+01-1.90868E+00 8.76741E-02-4.88228E+00 3.01412E-13 6.03573E-13
 -1      2664 2.65525E+01-4.59144E+00 6.70899E-02-2.20793E+00 1.30299E-13-1.91985E-13
 -1      2665 2.78706E+01-3.62761E+00-2.05792E-01-4.92673E-01 3.89255E-14-2.01214E-13
 -1      2666 2.26513E+01-4.02048E-01 3.07044E-02 8.47352E-01-5.05369E-14 4.64947E-14
 -1      2667 2.29077E+01-9.10202E-01-1.18094E-02 8.00800E-01-1.90065E-14 6.13017E-14
 -1      2668 2.35153E+01-1.37671E+00 3.76066E-02 6.89614E-01 7.86524E-15 1.01807E-13
 -1      2669 2.38723E+01-1.82754E+00-1.96719E-02 4.00984E-01 3.55271E-15 9.65482E-14
 -1      2670 2.26492E+01-1.32662E+00-3.67407E-02 1.14973E+00 2.68167E-15 1.33652E-14
 -1      2671 2.47070E+01-2.14038E+00 3.29963E-02-3.23299E-02 1.30399E-14 2.01243E-13
 -1      2672 2.50832E+01-2.25436E+00-1.98784E-02-5.43148E-01-2.03899E-14 2.17987E-13
 -1      2673 2.39859E+01-2.39210E+00-4.41851E-02 7.18837E-01 4.53656E-14 1.22649E-13
 -1      2674 2.59228E+01-2.07087E+00-1.07016E-02-1.25748E+00-3.39971E-14 2.77910E-13
 -1      2675 2.61157E+01-1.51299E+00-1.29985E-02-1.75999E+00-1.05468E-13 2.97593E-13
 -1      2676 2.56777E+01-2.64911E+00-2.98638E-02-4.49826E-01-1.04083E-15 3.40125E-13
 -1      2677 2.73726E+01-1.96147E-01-8.93361E-02-2.32534E+00-3.09662E-13 3.62155E-13
 -1      2678 2.73425E+01 1.38232E+00-8.09717E-02-2.40658E+00-4.52652E-13 3.40852E-13
 -1      2679 2.64549E+01 4.71158E+00-1.61317E-01-3.27173E-01-5.10397E-13 3.54300E-14
 -1      2680 2.65047E+01 4.59973E+00-1.37373E-01 7.94087E-01-4.33903E-13 4.96981E-14
 -1      2681 2.65089E+01 3.45202E-01-1.60351E-02 2.55148E+00-1.10523E-13-2.18128E-13
 -1      2682 2.64455E+01-1.00400E+00-5.63416E-02 2.29380E+00 5.08274E-14-1.92870E-13
 -1      2683 2.58382E+01-1.89657E+00-2.17905E-02 1.54515E+00 2.06900E-14-1.31440E-13
 -1      2684 2.55511E+01-2.36605E+00 2.50416E-03 9.57946E-01 5.35925E-14-1.26408E-13
 -1      2685 2.67628E+01-1.97096E+00-3.67171E-02 1.51215E+00 8.46259E-14-1.66755E-13
 -1      2686 2.46460E+01-2.47712E+00-2.64128E-02 1.97928E-01 3.80893E-14-8.76283E-14
 -1      2687 2.42281E+01-2.30804E+00 3.18460E-02-3.46674E-01 7.01138E-14-8.59833E-14
 -1      2688 2.51574E+01-2.99178E+00-3.76704E-02 2.35761E-02 6.67478E-14-6.58848E-14
 -1      2689 2.33989E+01-2.01199E+00-1.60078E-02-8.12590E-01 6.62829E-14-4.47047E-14
 -1      2690 2.29765E+01-1.62021E+00 2.99469E-02-1.17030E+00 8.00432E-14-4.94990E-14
 -1      2691 2.34458E+01-2.60679E+00-3.69446E-02-1.14052E+00 7.94148E-14 4.48174E-14
 -1      2692 2.23879E+01-1.24618E+00-6.50928E-03-1.36893E+00 5.22351E-14-7.61070E-14
 -1      2693 2.20388E+01-8.77333E-01 1.97661E-02-1.54889E+00 2.48975E-14-9.74383E-15
 -1      2694 2.21204E+01-1.69570E+00-3.14586E-02-1.70140E+00 3.26631E-14 7.29104E-14
 -1      2695 2.16769E+01-5.72034E-01-9.69146E-04-1.58518E+00-1.00896E-14-5.05390E-15
 -1      2696 2.14136E+01-3.06373E-01 1.06731E-02-1.63859E+00-6.04840E-14 5.48877E-15
 -1      2697 2.12631E+01-8.37830E-01-2.12666E-02-1.85858E+00 4.65247E-14 6.64785E-14
 -1      2698 2.12107E+01-1.02673E-01 1.74623E-03-1.58933E+00-5.63567E-14 3.45651E-14
 -1      2699 2.10169E+01 5.86206E-02 4.74687E-03-1.56436E+00-7.48233E-14 3.20202E-14
 -1      2700 2.07626E+01-2.19960E-01-1.24128E-02-1.80042E+00-3.71170E-14 4.39423E-14
 -1      2701 2.09100E+01 1.74591E-01 2.98255E-03-1.47567E+00-8.18992E-14 6.90279E-14
 -1      2702 2.07641E+01 2.56993E-01 1.37357E-03-1.40784E+00-5.72018E-15 1.55702E-13
 -1      2703 2.04899E+01 1.57415E-01-6.17433E-03-1.63869E+00 2.40883E-16 1.74973E-13
 -1      2704 2.07093E+01 3.11009E-01 3.44690E-03-1.30472E+00 8.34481E-15 1.08362E-13
 -1      2705 2.05951E+01 3.41738E-01-4.12535E-04-1.21781E+00 4.50541E-14 4.47446E-14
 -1      2706 2.03452E+01 3.52708E-01-2.65210E-03-1.43531E+00-3.48202E-14 1.26612E-13
 -1      2707 2.05662E+01 3.57039E-01 3.53540E-03-1.11382E+00 9.80155E-14-1.01832E-13
 -1      2708 2.04736E+01 3.57357E-01-1.20905E-03-1.02268E+00 5.60100E-14-1.22572E-13
 -1      2709 2.02663E+01 4.28322E-01-9.34779E-04-1.22240E+00-3.27604E-14-8.66136E-14
 -1      2710 2.04566E+01 3.50874E-01 3.41890E-03-9.25213E-01 1.24102E-13-1.14439E-13
 -1      2711 2.03798E+01 3.35252E-01-1.45078E-03-8.38503E-01 1.37103E-13-9.75456E-14
 -1      2712 2.02185E+01 4.32725E-01-2.23005E-04-1.01756E+00 7.31827E-14-1.93717E-13
 -1      2713 2.03678E+01 3.18048E-01 3.17071E-03-7.51285E-01 6.22497E-14-7.12516E-14
 -1      2714 2.03039E+01 2.95514E-01-1.40864E-03-6.73493E-01 3.42383E-14-1.48764E-14
 -1      2715 2.01844E+01 3.99155E-01-1.48775E-05-8.30305E-01 1.37474E-13-1.32004E-13
 -1      2716 2.02938E+01 2.74264E-01 2.84267E-03-5.98023E-01-7.09673E-14-6.33711E-15
 -1      2717 2.02409E+01 2.50058E-01-1.24050E-03-5.30976E-01-7.05916E-14-7.11235E-14
 -1      2718 2.01562E+01 3.48570E-01-2.24519E-05-6.65260E-01-1.13866E-14 9.67039E-14
 -1      2719 2.02318E+01 2.28506E-01 2.47634E-03-4.67376E-01-8.24645E-14-1.16478E-13
 -1      2720 2.01884E+01 2.05436E-01-1.03255E-03-4.11290E-01-1.15885E-13-1.07554E-13
 -1      2721 2.01310E+01 2.93304E-01-9.70664E-05-5.23881E-01-8.54130E-14 5.60235E-14
 -1      2722 2.01801E+01 1.85503E-01 2.10406E-03-3.58869E-01-1.25284E-13-1.47951E-13
 -1      2723 2.01451E+01 1.64903E-01-8.28135E-04-3.13060E-01-6.80852E-14-8.00583E-14
 -1      2724 2.01081E+01 2.40089E-01-1.71686E-04-4.05617E-01-1.13772E-13 6.38701E-14
 -1      2725 2.01375E+01 1.47431E-01 1.74881E-03-2.70687E-01-2.85182E-14-1.47262E-13
 -1      2726 2.01097E+01 1.29783E-01-6.46437E-04-2.34027E-01-6.90461E-15-9.15987E-14
 -1      2727 2.00876E+01 1.92219E-01-2.22423E-04-3.08714E-01-8.54145E-14-6.18142E-14
 -1      2728 2.01030E+01 1.15006E-01 1.42499E-03-2.00382E-01 2.97097E-14-3.46168E-14
 -1      2729 2.00813E+01 1.00325E-01-4.93736E-04-1.71578E-01 2.25108E-14-8.65017E-14
 -1      2730 2.00695E+01 1.50968E-01-2.45848E-04-2.30786E-01-1.37465E-14-9.77486E-14
 -1      2731 2.00756E+01 8.81507E-02 1.14004E-03-1.45317E-01-1.68120E-14-8.14119E-14
 -1      2732 2.00589E+01 7.62152E-02-3.69899E-04-1.23075E-01-1.32272E-13-7.41434E-14
 -1      2733 2.00541E+01 1.16486E-01-2.46739E-04-1.69206E-01 5.08599E-15-8.05142E-14
 -1      2734 2.00542E+01 6.63952E-02 8.96299E-04-1.02922E-01-1.53185E-13 6.73374E-15
 -1      2735 2.00416E+01 5.68770E-02-2.71968E-04-8.60420E-02-1.08484E-13 6.52211E-14
 -1      2736 2.00412E+01 8.83313E-02-2.32022E-04-1.21365E-01-8.72100E-14 1.39996E-14
 -1      2737 2.00377E+01 4.91001E-02 6.92706E-04-7.08422E-02-1.78523E-13 8.45724E-14
 -1      2738 2.00285E+01 4.16411E-02-1.96029E-04-5.82612E-02-1.62861E-13 1.64592E-13
 -1      2739 2.00308E+01 6.57915E-02-2.08114E-04-8.48258E-02-1.52072E-13 1.29266E-13
 -1      2740 2.00254E+01 3.55865E-02 5.26131E-04-4.70074E-02-2.01447E-13 1.88441E-13
 -1      2741 2.00187E+01 2.98384E-02-1.38129E-04-3.78113E-02-2.02549E-13 1.65962E-13
 -1      2742 2.00225E+01 4.80633E-02-1.80018E-04-5.74086E-02-1.79620E-13 1.87730E-13
 -1      2743 2.00163E+01 2.52029E-02 3.92373E-04-2.96473E-02-2.07309E-13 2.02644E-13
 -1      2744 2.00116E+01 2.08478E-02-9.46828E-05-2.30719E-02-1.58774E-13 2.04802E-13
 -1      2745 2.00160E+01 3.43528E-02-1.51222E-04-3.72237E-02-1.96628E-13 3.85553E-13
 -1      2746 2.00098E+01 1.73595E-02 2.86837E-04-1.72865E-02-1.00161E-13 1.79663E-13
 -1      2747 2.00066E+01 1.41184E-02-6.26105E-05-1.27054E-02-7.45253E-15 1.62989E-13
 -1      2748 2.00110E+01 2.39274E-02-1.23931E-04-2.26752E-02-1.44108E-13 2.04115E-13
 -1      2749 2.00052E+01 1.15414E-02 2.04980E-04-8.71931E-03 5.00518E-14 2.57271E-13
 -1      2750 2.00031E+01 9.17653E-03-3.93569E-05-5.62890E-03 1.22463E-13 3.66677E-13
 -1      2751 2.00073E+01 1.61391E-02-9.93742E-05-1.24445E-02-2.27712E-14 3.22884E-13
 -1      2752 2.00021E+01 7.31175E-03 1.42575E-04-2.97881E-03 1.68087E-13 2.80144E-13
 -1      2753 2.00008E+01 5.62460E-03-2.28487E-05-9.81116E-04 2.33086E-13 2.66070E-13
 -1      2754 2.00046E+01 1.04323E-02-7.80951E-05-5.46296E-03 8.78670E-14 1.18313E-13
 -1      2755 2.00001E+01 4.30715E-03 9.58487E-05 6.97104E-04 2.35942E-13 3.10980E-13
 -1      2756 1.99994E+01 3.13535E-03-1.14347E-05 1.91123E-03 1.77765E-13 1.88514E-13
 -1      2757 2.00026E+01 6.34119E-03-6.01879E-05-8.80130E-04 1.65615E-13 7.75027E-14
 -1      2758 1.99989E+01 2.23109E-03 6.15436E-05 2.89879E-03 2.20081E-13 7.13300E-14
 -1      2759 1.99986E+01 1.44380E-03-3.82215E-06 3.56524E-03 2.14872E-13 1.25333E-13
 -1      2760 2.00013E+01 3.48292E-03-4.54752E-05 1.96907E-03 1.83014E-13 6.54463E-14
 -1      2761 1.99982E+01 8.45177E-04 3.69208E-05 4.07528E-03 1.29477E-13 1.40437E-13
 -1      2762 1.99982E+01 3.38384E-04 9.83153E-07 4.37053E-03 1.55770E-14 1.17669E-13
 -1      2763 2.00004E+01 1.54780E-03-3.36335E-05 3.59543E-03 1.14551E-13-1.78659E-14
 -1      2764 1.99980E+01-3.97827E-05 1.97290E-05 4.56130E-03 9.57887E-15 1.37236E-13
 -1      2765 1.99981E+01-3.47877E-04 3.73137E-06 4.61431E-03-4.31213E-14 1.63914E-13
 -1      2766 1.99998E+01 2.88797E-04-2.42786E-05 4.38370E-03 4.93916E-14 5.86526E-14
 -1      2767 1.99979E+01-5.72473E-04 8.15914E-06 4.60029E-03-1.33358E-13 2.61517E-13
 -1      2768 1.99981E+01-7.45784E-04 4.97607E-06 4.50249E-03-9.23964E-14 1.85557E-13
 -1      2769 1.99995E+01-4.88984E-04-1.70263E-05 4.61721E-03 1.91762E-14 1.50651E-13
 -1      2770 1.99981E+01-8.69173E-04 7.86846E-07 4.36379E-03-1.82932E-14 3.07705E-13
 -1      2771 1.99983E+01-9.57648E-04 5.11618E-06 4.17719E-03 1.82769E-13 2.34475E-13
 -1      2772 1.99993E+01-9.38236E-04-1.15397E-05 4.49891E-03-4.95684E-14 4.15425E-13
 -1      2773 1.99983E+01-1.02101E-03-3.47509E-06 3.96714E-03 2.25311E-13 1.85893E-13
 -1      2774 1.99985E+01-1.06393E-03 4.47686E-06 3.73092E-03 1.29786E-13 3.18306E-13
 -1      2775 1.99992E+01-1.17838E-03-7.52804E-06 4.16872E-03 1.58863E-13 3.49144E-13
 -1      2776 1.99985E+01-1.10036E-03-5.66655E-06 3.48214E-03 9.75075E-14 1.90694E-13
 -1      2777 1.99988E+01-1.12797E-03 3.08444E-06 3.21745E-03-2.35807E-14 1.56812E-13
 -1      2778 1.99993E+01-1.30313E-03-4.81885E-06 3.71749E-03 4.55222E-15 4.96938E-14
 -1      2779 1.99988E+01-1.16225E-03-5.83627E-06 2.94777E-03-4.19395E-14 1.63365E-13
 -1      2780 1.99990E+01-1.19785E-03 4.72053E-07 2.66364E-03-9.51331E-14 4.29299E-14
 -1      2781 1.99993E+01-1.38402E-03-2.02087E-06 3.19804E-03-5.90029E-14 1.00457E-13
 -1      2782 2.33796E+01-3.13450E-01 8.69289E-03 1.74670E+00 9.43631E-14 2.63645E-13
 -1      2783 2.34683E+01-6.77248E-01-1.37665E-02 1.58327E+00 8.97511E-14 2.86287E-13
 -1      2784 1.99994E+01-1.49307E-03-1.61635E-07-2.43331E-03 4.03484E-14-2.81347E-13
 -1      2785 1.99991E+01-1.13318E-03-7.11953E-06-2.25600E-03 8.55341E-14 2.15142E-13
 -1      2786 1.99988E+01-1.09585E-03-1.40402E-05-2.55105E-03-7.03361E-14 2.56481E-13
 -1      2787 2.33512E+01-8.90621E-01-1.04824E-02 1.25332E+00 6.45389E-14 2.42026E-13
 -1      2788 2.33834E+01-9.62453E-01 4.88367E-03 9.87783E-01 6.97075E-14 2.35806E-13
 -1      2789 2.38417E+01-9.86315E-01-2.67574E-03 1.41100E+00 6.44622E-14 2.37478E-13
 -1      2790 2.27212E+01 1.81441E+00 1.89854E-02 1.08104E+00 1.73438E-13 2.66252E-13
 -1      2791 2.28550E+01 1.30238E+00-3.33146E-02 1.51209E+00 1.65717E-13 2.72919E-13
 -1      2792 2.25294E+01 2.12790E+00-1.43347E-02-2.53916E-01 2.40743E-13 9.28702E-14
 -1      2793 2.25170E+01 2.08741E+00-2.74309E-02 3.48912E-01 2.16008E-13 1.72203E-13
 -1      2794 2.32821E+01 2.53068E+00-8.90704E-03 8.53512E-01 2.52253E-13 1.26715E-13
 -1      2795 2.27423E+01 1.48720E+00-3.50185E-02-1.46605E+00 2.42732E-13-5.96094E-14
 -1      2796 2.26359E+01 1.92929E+00 1.07924E-02-9.78403E-01 2.58574E-13 1.25468E-14
 -1      2797 2.32462E+01 2.52654E+00-2.12385E-02-6.80730E-01 3.09364E-13 6.51447E-14
 -1      2798 2.31481E+01 3.18434E-01-3.35939E-02-1.97511E+00 1.48068E-13-8.80238E-14
 -1      2799 2.30024E+01 9.31446E-01 2.07036E-02-1.83040E+00 1.79715E-13-7.70660E-14
 -1      2800 2.35458E+01 1.50363E+00-6.51173E-03-1.83124E+00 2.46773E-13-6.27224E-14
 -1      2801 2.33782E+01-6.81743E-01-1.65102E-02-1.71361E+00 1.71668E-14-8.80370E-14
 -1      2802 2.32787E+01-2.26471E-01 1.01472E-02-1.88550E+00 1.02713E-13-8.24920E-14
 -1      2803 2.38447E+01 5.23410E-02 1.29059E-02-2.05132E+00 1.35390E-13-2.45724E-14
 -1      2804 2.32530E+01-1.13987E+00-2.14709E-03-1.01987E+00-5.38685E-14-3.98074E-14
 -1      2805 2.32553E+01-9.76537E-01-7.59321E-03-1.34185E+00-5.30803E-14-9.08565E-14
 -1      2806 2.37674E+01-1.05781E+00 5.40287E-03-1.49987E+00-1.55595E-14 1.49441E-14
 -1      2807 2.28778E+01-1.13118E+00 7.70115E-03-2.81226E-01-8.00510E-15 5.85621E-15
 -1      2808 2.29659E+01-1.18351E+00-1.47938E-02-6.09617E-01 4.42224E-15-1.89819E-14
 -1      2809 2.33161E+01-1.45828E+00-1.39110E-03-6.66889E-01-4.33574E-14-6.57113E-14
 -1      2810 2.24037E+01-8.73426E-01 1.04688E-02 3.04262E-01-3.67410E-14-7.51417E-14
 -1      2811 2.25420E+01-1.02645E+00-1.43046E-02 4.61254E-02-8.17488E-16-2.02013E-14
 -1      2812 2.26980E+01-1.34887E+00-6.85639E-03 8.14575E-02 1.69157E-15-2.81144E-14
 -1      2813 2.19428E+01-5.51468E-01 9.06244E-03 6.80714E-01-1.88885E-14-1.42663E-14
 -1      2814 2.20991E+01-7.18569E-01-1.06828E-02 5.13922E-01-3.33897E-14-5.96022E-14
 -1      2815 2.20866E+01-9.93329E-01-9.43278E-03 6.08372E-01-1.93656E-14-1.84611E-14
 -1      2816 2.15467E+01-2.68575E-01 6.53558E-03 8.71595E-01-1.60702E-14 1.64990E-14
 -1      2817 2.17008E+01-4.06511E-01-6.49958E-03 7.86800E-01 3.07588E-16-1.02278E-14
 -1      2818 2.15759E+01-5.96712E-01-8.70794E-03 9.07708E-01-1.57623E-14-2.75528E-15
 -1      2819 2.12248E+01-6.16627E-02 4.14936E-03 9.26109E-01-6.60881E-14-1.39525E-14
 -1      2820 2.13672E+01-1.58262E-01-3.00772E-03 9.02667E-01-4.12529E-14-1.74859E-14
 -1      2821 2.11853E+01-2.65205E-01-6.51655E-03 1.02983E+00-3.94096E-14-2.60957E-14
 -1      2822 2.09679E+01 7.00847E-02 2.33408E-03 8.92084E-01 5.77723E-14-7.45056E-14
 -1      2823 2.10952E+01 1.11808E-02-5.54352E-04 9.09069E-01-2.63443E-14-7.71790E-14
 -1      2824 2.08976E+01-3.05679E-02-4.46363E-03 1.03228E+00-2.11787E-14-9.01822E-14
 -1      2825 2.07629E+01 1.41922E-01 1.11620E-03 8.07364E-01 8.24783E-14-4.35470E-14
 -1      2826 2.08744E+01 1.11789E-01 1.01140E-03 8.47574E-01 1.30131E-13 1.30627E-14
 -1      2827 2.06871E+01 1.14545E-01-2.95418E-03 9.61920E-01 3.63703E-14-8.96085E-14
 -1      2828 2.05986E+01 1.71707E-01 3.81044E-04 6.98995E-01-4.54098E-14 8.30051E-14
 -1      2829 2.06945E+01 1.61149E-01 1.90026E-03 7.49915E-01 2.62650E-14-4.56524E-15
 -1      2830 2.05309E+01 1.90553E-01-1.97925E-03 8.53036E-01 7.84636E-14 3.53383E-14
 -1      2831 2.04661E+01 1.74747E-01-2.00597E-05 5.84814E-01-2.98390E-14 1.35075E-13
 -1      2832 2.05472E+01 1.76273E-01 2.30982E-03 6.38131E-01-5.01943E-14 1.15323E-13
 -1      2833 2.04125E+01 2.19020E-01-1.39271E-03 7.28981E-01-4.65591E-14 1.29084E-13
 -1      2834 2.03592E+01 1.62453E-01-2.10297E-04 4.75675E-01 5.84747E-14-7.47286E-15
 -1      2835 2.04267E+01 1.70644E-01 2.39766E-03 5.26351E-01 5.71023E-14 1.44295E-13
 -1      2836 2.03207E+01 2.17756E-01-1.05050E-03 6.04691E-01 1.10113E-14 6.20877E-14
 -1      2837 2.02733E+01 1.42616E-01-2.77117E-04 3.77487E-01 1.43551E-14-2.03866E-13
 -1      2838 2.03286E+01 1.53850E-01 2.28445E-03 4.22822E-01 6.44995E-14-3.64808E-14
 -1      2839 2.02484E+01 1.99794E-01-8.46051E-04 4.89003E-01 1.12459E-13-7.32865E-15
 -1      2840 2.02048E+01 1.20198E-01-2.77399E-04 2.92843E-01 4.61315E-14-3.05372E-13
 -1      2841 2.02492E+01 1.32215E-01 2.05836E-03 3.31701E-01 8.28008E-14-2.40759E-13
 -1      2842 2.01908E+01 1.73936E-01-7.12345E-04 3.86517E-01 9.83350E-14-1.04400E-13
 -1      2843 2.01508E+01 9.81435E-02-2.45942E-04 2.22230E-01 3.94124E-15-3.34878E-13
 -1      2844 2.01859E+01 1.09637E-01 1.78082E-03 2.54460E-01-2.90770E-14-3.75004E-13
 -1      2845 2.01450E+01 1.45742E-01-6.12327E-04 2.98999E-01 1.04101E-13-2.98827E-13
 -1      2846 2.01087E+01 7.80394E-02-2.02804E-04 1.64897E-01-1.82230E-14-2.46643E-13
 -1      2847 2.01359E+01 8.83324E-02 1.49229E-03 1.90911E-01-4.61506E-14-2.63560E-13
 -1      2848 2.01086E+01 1.18477E-01-5.27881E-04 2.26431E-01-5.23891E-14-3.18856E-13
 -1      2849 2.00765E+01 6.06015E-02-1.58778E-04 1.19435E-01-4.20135E-14-2.30018E-13
 -1      2850 2.00972E+01 6.94181E-02 1.21761E-03 1.39938E-01 4.17523E-14-1.62130E-13
 -1      2851 2.00801E+01 9.38706E-02-4.51527E-04 1.67746E-01-5.21140E-14-1.71808E-13
 -1      2852 2.00521E+01 4.60148E-02-1.19094E-04 8.41657E-02 1.58517E-15-1.76720E-13
 -1      2853 2.00676E+01 5.33181E-02 9.70416E-04 9.99716E-02-7.19751E-14-2.81710E-13
 -1      2854 2.00578E+01 7.26665E-02-3.81078E-04 1.21339E-01-5.12242E-14-1.36875E-13
 -1      2855 2.00341E+01 3.41594E-02-8.57913E-05 5.73783E-02 6.41301E-14-1.95514E-13
 -1      2856 2.00454E+01 4.00467E-02 7.56792E-04 6.93020E-02 9.02648E-14-1.66789E-13
 -1      2857 2.00408E+01 5.50129E-02-3.16551E-04 8.54071E-02 7.53333E-15-2.18016E-13
 -1      2858 2.00210E+01 2.47582E-02-5.91842E-05 3.74679E-02-7.77599E-14-1.19648E-13
 -1      2859 2.00291E+01 2.93925E-02 5.77903E-04 4.62646E-02-2.96058E-15-1.29046E-13
 -1      2860 2.00279E+01 4.07182E-02-2.58564E-04 5.81548E-02 3.24466E-14-1.52310E-13
 -1      2861 2.00118E+01 1.74681E-02-3.87300E-05 2.30072E-02 4.55604E-14-5.62724E-16
 -1      2862 2.00174E+01 2.10366E-02 4.31974E-04 2.93421E-02-4.70402E-15-6.58869E-14
 -1      2863 2.00184E+01 2.94181E-02-2.07620E-04 3.79211E-02-8.47156E-14-1.70797E-13
 -1      2864 2.00055E+01 1.19358E-02-2.35305E-05 1.27741E-02 5.69657E-14 2.76635E-14
 -1      2865 2.00092E+01 1.46247E-02 3.15637E-04 1.72118E-02 3.12009E-14 9.80095E-14
 -1      2866 2.00114E+01 2.06804E-02-1.63873E-04 2.32389E-02-3.46526E-14-1.44703E-13
 -1      2867 2.00013E+01 7.82851E-03-1.26063E-05 5.75290E-03-7.68009E-14 9.90496E-14
 -1      2868 2.00036E+01 9.80993E-03 2.24838E-04 8.75927E-03 6.59552E-14 1.85472E-14
 -1      2869 2.00065E+01 1.40679E-02-1.27109E-04 1.28573E-02 6.49937E-14-8.96345E-14
 -1      2870 1.99987E+01 4.85027E-03-5.03774E-06 1.12068E-03 7.16343E-15 1.98216E-13
 -1      2871 2.00001E+01 6.27508E-03 1.55408E-04 3.07052E-03-3.36909E-14 2.01986E-13
 -1      2872 2.00031E+01 9.17272E-03-9.68320E-05 5.73973E-03-3.92513E-14-7.12568E-14
 -1      2873 1.99972E+01 2.74732E-03-2.93714E-08-1.77489E-03-6.90003E-14 2.63386E-13
 -1      2874 1.99979E+01 3.74354E-03 1.03408E-04-5.86548E-04 8.06354E-14 2.90901E-13
 -1      2875 2.00009E+01 5.63411E-03-7.23661E-05 1.04792E-03-6.29008E-14 5.19461E-14
 -1      2876 1.99965E+01 1.30850E-03 3.06835E-06-3.43992E-03-1.82571E-13 1.99313E-13
 -1      2877 1.99967E+01 1.98184E-03 6.53123E-05-2.78576E-03-1.68480E-13 2.63266E-13
 -1      2878 1.99994E+01 3.14426E-03-5.29476E-05-1.88168E-03-1.31834E-13 1.16859E-13
 -1      2879 1.99963E+01 3.61980E-04 4.76007E-06-4.25876E-03-8.27507E-14 2.13730E-13
 -1      2880 1.99963E+01 7.97880E-04 3.80840E-05-3.96747E-03-1.96836E-13 3.16367E-13
 -1      2881 1.99986E+01 1.44777E-03-3.77994E-05-3.56326E-03-2.85897E-13 4.48656E-14
 -1      2882 1.99965E+01-2.29678E-04 5.41825E-06-4.51642E-03-1.86490E-14 3.31604E-13
 -1      2883 1.99962E+01 3.67688E-05 1.91926E-05-4.46210E-03-3.44737E-14 2.96789E-13
 -1      2884 1.99982E+01 3.37229E-04-2.61832E-05-4.38680E-03-6.23367E-14 2.00481E-13
 -1      2885 1.99968E+01-5.75098E-04 5.30569E-06-4.41830E-03 1.50202E-13 1.54170E-13
 -1      2886 1.99965E+01-4.24581E-04 6.58216E-06-4.51130E-03 9.91560E-14 3.16685E-13
 -1      2887 1.99981E+01-3.53038E-04-1.74314E-05-4.64109E-03 7.72723E-14 2.59625E-13
 -1      2888 1.99972E+01-7.59696E-04 4.61946E-06-4.10673E-03 1.65566E-13-1.80875E-14
 -1      2889 1.99969E+01-6.83127E-04-1.36801E-06-4.28605E-03 2.29014E-13 2.43541E-14
 -1      2890 1.99982E+01-7.53910E-04-1.09634E-05-4.53389E-03 2.88564E-13 1.28122E-14
 -1      2891 1.99977E+01-8.51320E-04 3.02501E-06-3.67474E-03-8.12369E-14 1.53755E-13
 -1      2892 1.99973E+01-8.15553E-04-6.00783E-06-3.90169E-03 5.33610E-14 6.02944E-14
 -1      2893 1.99983E+01-9.68177E-04-6.21754E-06-4.20899E-03 1.12902E-13 7.85433E-14
 -1      2894 1.99982E+01-9.03947E-04-1.70084E-06-3.17586E-03 3.80422E-14 3.31374E-13
 -1      2895 1.99978E+01-8.83330E-04-9.16001E-06-3.42778E-03-4.54690E-14 3.55490E-13
 -1      2896 1.99986E+01-1.07482E-03-5.53644E-07-3.76140E-03-1.68893E-13 2.89540E-13
 -1      2897 1.99987E+01-1.00472E-03-5.91392E-06-2.73421E-03-1.26017E-13 4.09789E-13
 -1      2898 1.99984E+01-9.81780E-04-1.30778E-05-3.00655E-03-4.10411E-14 3.94802E-13
 -1      2899 1.99989E+01-1.17901E-03 1.10298E-05-3.32583E-03 1.63873E-14 3.01746E-13
 -1      2900 1.99993E+01-1.33063E-03 1.97812E-05-2.93440E-03 3.52175E-14 6.51756E-14
 -1      2901 2.00013E+01-3.23150E-03 7.18839E-06-2.07630E-04 1.75516E-14-4.61397E-14
 -1      2902 2.00012E+01-3.19196E-03 4.19456E-06-5.80825E-04 9.49721E-14-2.68373E-13
 -1      2903 1.99991E+01-1.22860E-03-7.07004E-06 2.47134E-03 2.16257E-14 1.94120E-13
 -1      2904 1.99992E+01-1.25325E-03-1.70112E-06 2.26490E-03 6.17713E-15 3.93282E-13
 -1      2905 1.99994E+01-1.45042E-03 3.45328E-07 2.72704E-03 1.54734E-15 3.72106E-14
 -1      2906 2.00009E+01-2.83658E-03 1.15059E-05-1.65670E-03 2.67753E-13-3.11670E-13
 -1      2907 2.00007E+01-2.65414E-03-3.27100E-06-1.91101E-03 2.63084E-13-4.34184E-13
 -1      2908 2.00012E+01-3.19107E-03 4.26662E-06 5.90707E-04-1.80620E-13-9.68508E-14
 -1      2909 2.00013E+01-3.23155E-03 7.07643E-06 2.17678E-04-1.08518E-13-8.43612E-14
 -1      2910 2.00016E+01-3.10431E-03-7.88561E-06 5.20571E-06 1.81280E-13-3.05477E-13
 -1      2911 2.00011E+01-3.11092E-03 9.60738E-06-9.84472E-04-8.95377E-15-4.62420E-13
 -1      2912 2.00010E+01-2.99476E-03 7.69413E-07-1.31727E-03 2.51807E-13-2.84745E-13
 -1      2913 2.00012E+01-2.80875E-03-6.96514E-06-1.62375E-03 1.23063E-13-3.61126E-13
 -1      2914 2.00015E+01-3.02936E-03-7.61543E-06-8.53212E-04 2.08156E-13-3.43508E-13
 -1      2915 2.27673E+01-5.13098E+00-8.70475E-03 4.61717E+00-1.38500E-14-1.47340E-13
 -1      2916 2.02092E+01-4.79932E+00 1.13928E-01 5.41198E+00-5.31797E-14-7.33398E-14
 -1      2917 2.00010E+01-2.99786E-03 6.46732E-07 1.31486E-03-1.24356E-13-6.83496E-13
 -1      2918 2.00011E+01-3.11183E-03 9.37700E-06 9.87625E-04-2.47100E-13-1.37681E-13
 -1      2919 2.00015E+01-3.03068E-03-7.88350E-06 8.56547E-04-1.02692E-13-1.95720E-13
 -1      2920 2.00007E+01-2.65793E-03-2.95730E-06 1.90945E-03-1.62347E-14-5.45972E-13
 -1      2921 2.00009E+01-2.84093E-03 1.11311E-05 1.65503E-03 1.22168E-14-7.58097E-13
 -1      2922 2.00012E+01-2.81271E-03-7.16917E-06 1.62121E-03-1.01700E-13-5.33345E-13
 -1      2923 2.00002E+01-2.19319E-03-2.82478E-06 2.28233E-03 2.05287E-13 3.03147E-13
 -1      2924 2.00004E+01-2.43421E-03 1.05498E-05 2.14629E-03 2.42853E-13-8.18177E-16
 -1      2925 2.00007E+01-2.45890E-03-4.59340E-06 2.22172E-03 8.66354E-14-1.32623E-13
 -1      2926 2.31233E+01-9.19581E-01-1.70488E-02 6.73631E-01 8.62867E-14 1.98851E-13
 -1      2927 2.31065E+01-7.67292E-01 1.48905E-02 4.58240E-01 1.12579E-13 2.19588E-13
 -1      2928 2.34420E+01-1.17229E+00-8.10981E-03 7.18650E-01 7.03024E-14 1.96317E-13
 -1      2929 1.20356E+01-2.43530E+00 4.16741E-02 5.78086E+00 2.57655E-13-4.99878E-13
 -1      2930 9.07830E+00-1.14327E+00 1.52247E-01 4.33569E+00 2.29511E-13-5.66325E-13
 -1      2931 9.63868E+00-2.08268E+00 3.61603E-02 5.13709E+00-2.13621E-13 9.96425E-15
 -1      2932 7.81265E+00-1.23941E+00 2.09926E-01 3.51223E+00-2.54130E-13 3.40838E-13
 -1      2933 1.69181E+01-4.34209E+00 3.98648E-03 6.30559E+00-1.28439E-13 5.58720E-14
 -1      2934 1.34242E+01-3.06610E+00 1.75887E-01 5.96959E+00-2.16521E-13-1.14908E-14
 -1      2935 1.93308E+01-4.08635E+00 9.52890E-02 5.18869E+00-1.24942E-13-3.11452E-14
 -1      2936 2.16099E+01 1.50951E+00-2.15925E-03 1.02797E-01-1.84144E-13-6.04252E-14
 -1      2937 2.18534E+01 9.80345E-01-7.82859E-03 3.67785E-01-1.54128E-13-3.25171E-14
 -1      2938 6.78930E+00 2.13947E-01 1.28653E-01-1.81669E+00-1.27259E-14-6.27942E-13
 -1      2939 7.78958E+00-6.00845E-01 1.32614E-01-3.91992E+00-6.84452E-14-6.68493E-13
 -1      2940 1.63985E+01-3.33094E+00 1.48104E-01-6.05161E+00-2.47580E-13-3.75464E-13
 -1      2941 2.00299E+01-4.35783E+00-4.98191E-02-5.53418E+00-2.33660E-13-2.10561E-13
 -1      2942 2.31096E+01 7.45059E-01 1.79759E-02 1.77821E+00 1.58059E-13 2.95858E-13
 -1      2943 2.32530E+01 1.53401E-01-3.64268E-02 1.88305E+00 1.21791E-13 2.68322E-13
 -1      2944 2.39319E+01-1.06938E-01 9.79075E-03 1.98289E+00 1.06088E-13 2.98588E-13
 -1      2945 2.36822E+01 1.18506E+00-9.58060E-03 1.82405E+00 1.64866E-13 2.79518E-13
 -1      2946 2.21153E+01 5.29926E-01 1.99446E-02 5.85619E-01-1.05213E-13-7.49704E-15
 -1      2947 2.22642E+01 3.30543E-02-8.24887E-03 7.55077E-01-8.07004E-14 1.84076E-14
 -1      2948 2.17758E+01-1.84384E-01-2.93069E-02 1.07784E+00-5.32043E-14-1.19475E-14
 -1      2949 2.12588E+01 8.83691E-01-9.26093E-03 7.03165E-01-1.03596E-13-5.17509E-14
 -1      2950 2.91683E+01-1.04509E+00 2.93382E-02 1.44285E+00-1.01530E-13-2.09985E-13
 -1      2951 2.93907E+01 8.69201E-01-2.45082E-01 2.08594E+00-2.56281E-13-7.50788E-14
 -1      2952 2.28389E+01-5.61882E-01-1.47321E-02 2.91373E-01 1.47939E-13 1.75894E-13
 -1      2953 2.28173E+01-2.84511E-01 1.90082E-02 2.09760E-01 1.51420E-13 1.71608E-13
 -1      2954 2.24932E+01-1.19144E-01-2.65387E-03 1.19923E-01 1.66112E-13 9.46529E-14
 -1      2955 2.29331E+01-7.98948E-01-7.16248E-03 2.48802E-01 1.19398E-13 1.55735E-13
 -1      2956 1.32387E+01-3.01887E+00 1.40728E-01-5.65488E+00 3.53592E-13 5.22901E-13
 -1      2957 1.71666E+01-4.25487E+00 2.24076E-02-5.90939E+00 4.19526E-13 3.76879E-13
 -1      2958 1.37338E+01-2.03219E+00 1.28652E-01-4.83134E+00 3.74194E-13 4.69264E-13
 -1      2959 1.86631E+01 2.37025E+00 1.02368E-02-8.09929E-01 1.46266E-13-2.11125E-13
 -1      2960 1.78966E+01 2.61016E+00-1.57721E-02-9.71484E-01 1.13588E-13-2.53452E-13
 -1      2961 1.76037E+01 2.33280E+00-4.62801E-03-1.29142E+00 8.52016E-14-2.55655E-13
 -1      2962 1.92027E+01 1.66960E+00-1.03574E-02-9.42716E-01 1.28394E-13-1.76335E-13
 -1      2963 2.79057E+01 5.21591E+00-1.62851E-01 1.46396E+00 5.77455E-13 9.18293E-14
 -1      2964 2.82144E+01 6.07393E+00-1.82494E-01 7.41904E-01 6.20975E-13-1.85650E-14
 -1      2965 1.92826E+01-4.49698E+00-2.36467E-02 5.69108E+00 2.58821E-13-1.92568E-13
 -1      2966 1.59573E+01-3.44693E+00 1.49765E-01 5.90806E+00 3.04062E-13-3.31082E-13
 -1      2967 1.64340E+01 3.38681E+00-2.09603E-02 6.21721E-01-1.28197E-14-3.18693E-13
 -1      2968 1.71899E+01 3.17267E+00 1.32142E-02 6.86383E-01-3.11512E-14-3.03038E-13
 -1      2969 2.96185E+01 5.16979E+00-2.29140E-01-1.47193E+00-6.58279E-13 2.25708E-13
 -1      2970 2.99608E+01 4.01283E+00-9.43260E-02-2.12980E+00-6.40099E-13 3.49332E-13
 -1      2971 2.33687E+01-4.46706E+00 1.06148E-01-4.09604E+00-2.05821E-13-7.44231E-14
 -1      2972 2.52243E+01-4.50900E+00-1.27329E-01-3.07738E+00-1.44121E-13 3.30291E-15
 -1      2973 9.91417E+00-1.31532E+00 1.50041E-01-5.01859E+00-1.49478E-13-5.99881E-13
 -1      2974 1.29120E+01-2.29627E+00 2.75230E-02-6.05113E+00-1.88127E-13-4.89789E-13
 -1      2975 1.09951E+01-2.11829E-01 1.68894E-01-4.19108E+00-1.33824E-13-5.69003E-13
 -1      2976 7.50416E+00-1.11380E-01 1.45706E-01 2.80261E+00 1.39111E-13-5.98854E-13
 -1      2977 6.72540E+00 4.28196E-01 1.53612E-01 6.26951E-01 8.62626E-14-6.00020E-13
 -1      2978 2.22308E+01 1.04580E+00-5.42327E-03 5.19492E-01 2.43378E-13 1.19329E-13
 -1      2979 2.04245E+01 2.47303E+00-7.03166E-03 8.67508E-03-1.73481E-13-1.58821E-13
 -1      2980 2.47693E+01-4.85691E+00-4.07940E-02 3.57514E+00 1.05041E-13 1.17961E-13
 -1      2981 2.23256E+01-4.90766E+00 5.40560E-02 4.63254E+00 2.12164E-13-3.44065E-14
 -1      2982 2.96369E+01 5.11983E+00-1.82319E-01-1.53373E+00 6.09707E-13-2.11983E-13
 -1      2983 2.93558E+01 3.18438E+00-1.41841E-01-1.82463E+00 5.23442E-13-2.38948E-13
 -1      2984 2.93784E+01 3.62251E+00-7.83644E-02 2.27703E+00-4.50529E-13-7.83401E-14
 -1      2985 2.96422E+01 5.17321E+00-2.00284E-01 1.59480E+00-5.47340E-13-2.59792E-14
 -1      2986 1.99995E+01-1.51559E-03-2.23142E-06 2.32820E-03 6.48767E-14 3.28003E-13
 -1      2987 2.10199E+01-5.09858E+00 8.87726E-02-5.08398E+00 3.88564E-13 1.23856E-13
 -1      2988 2.43022E+01-5.29153E+00-4.06395E-02-3.87623E+00 2.38101E-13-5.24233E-14
 -1      2989 2.72596E+01-3.12745E+00 3.65608E-02-1.14673E+00-4.82357E-14 1.16296E-13
 -1      2990 2.82076E+01-1.48334E+00-1.55590E-01 6.46342E-01 1.45252E-13 1.86184E-13
 -1      2991 2.62968E+01-3.46227E+00 1.78955E-02-1.28122E+00-1.25872E-13 1.16906E-13
 -1      2992 1.80205E+01 2.76074E+00-1.88662E-02 7.18415E-01-5.94097E-14-2.64535E-13
 -1      2993 1.89202E+01 2.47544E+00 4.51240E-03 6.43921E-01-8.77031E-14-2.30942E-13
 -1      2994 1.76058E+01 2.53202E+00-9.31223E-04 9.99984E-01-1.83735E-14-2.53160E-13
 -1      2995 1.51746E+01 3.53261E+00 1.50938E-02-7.05672E-01 2.38641E-14-3.43171E-13
 -1      2996 1.52223E+01 3.88778E+00-1.29458E-03-4.20560E-01 2.70736E-14-3.62813E-13
 -1      2997 1.52033E+01 3.90779E+00-6.72854E-03-1.86239E-01 1.03040E-14-3.59852E-13
 -1      2998 2.41452E+01-4.80821E+00-2.14912E-02 3.26985E+00-2.43278E-14-1.89598E-13
 -1      2999 2.91169E+01 1.75945E+00-1.20730E-01-1.85247E+00 4.28019E-13-2.52770E-13
 -1      3000 2.84102E+01 4.24258E-01-7.98669E-02-1.65217E+00 3.52468E-13-2.50883E-13
 -1      3001 2.79778E+01 2.72152E+00-9.01890E-02-2.24899E+00 4.45449E-13-2.36991E-13
 -1      3002 2.81821E+01-4.85910E-01-5.54660E-02 1.50016E+00 1.78010E-13 3.01578E-13
 -1      3003 2.71861E+01 5.08983E-01-1.74621E-01 2.06444E+00 2.01193E-13 3.55126E-13
 -1      3004 2.73420E+01-1.33367E+00 4.05360E-02 1.12215E+00 6.40633E-14 3.33962E-13
 -1      3005 2.83066E+01 5.19203E+00-1.41719E-01 1.26655E+00-4.91857E-13 9.81160E-15
 -1      3006 2.80816E+01-2.69778E+00-3.95702E-02 5.74301E-01 1.76060E-13-2.51854E-13
 -1      3007 2.68619E+01-3.56881E+00-1.31080E-02 1.12261E+00 7.04445E-14-2.79346E-13
 -1      3008 2.78310E+01-1.90094E+00-1.35731E-01-7.02866E-01 2.19769E-13-3.96863E-13
 -1      3009 2.72970E+01 5.94688E+00-1.38120E-01 3.13115E-01 6.03517E-13 2.28463E-14
 -1      3010 2.83351E+01 1.93414E+00-9.95701E-02 2.44941E+00-3.26225E-13-9.66727E-14
 -1      3011 2.78794E+01-1.22899E+00-9.96478E-02-1.66069E+00-2.43486E-13 4.38899E-13
 -1      3012 2.62503E+01 3.65126E+00-9.27232E-02 1.85866E+00-3.98737E-13-7.02147E-14
 -1      3013 2.65174E+01 2.71881E+00-2.00390E-01-2.22634E+00-4.77146E-13 2.12668E-13
 -1      3014 2.63795E+01 3.93957E+00-1.23039E-01-1.46820E+00-5.21500E-13 1.53356E-13
 -1      3015 2.64273E+01 2.32331E+00-1.55908E-01 2.43931E+00-3.37341E-13-1.57593E-13
 -1      3016 2.00007E+01-2.45635E-03-6.09419E-06-2.21791E-03 8.29994E-14-1.86311E-13
 -1      3017 2.00005E+01-2.43030E-03 1.52639E-05-2.14351E-03 1.48306E-13-3.59429E-13
 -1      3018 2.00002E+01-2.20257E-03-1.10099E-05-2.29541E-03 1.25818E-13-7.92869E-14
 -1      3019 1.01008E+01-2.74157E-02 1.68242E-01 3.33309E+00 1.99493E-13-5.27814E-13
 -1      3020 2.18377E+01-3.99328E+00 7.28862E-02-4.32364E+00-2.35700E-13-1.12680E-13
 -1      3021 2.52497E+01-4.79624E+00 2.17637E-02-2.52568E+00 3.07546E-13-1.63619E-13
 -1      3022 1.99997E+01-1.76956E-03 9.48007E-06-2.42595E-03-3.86835E-14-2.00550E-13
 -1      3023 2.94217E+01-1.59319E+00-4.57681E-02-6.65188E-01-3.01215E-13 4.39176E-13
 -1      3024 8.25990E+00-5.32134E-01 1.88289E-01 2.09335E+00-2.57835E-13 5.00100E-13
 -1      3025 1.86383E+01-3.52582E+00 7.61017E-02-4.93629E+00 3.81709E-13 1.79287E-13
 -1      3026 1.97404E+01-4.49590E+00 8.85116E-02-5.14351E+00 4.08701E-13 1.83575E-13
 -1      3027 2.17602E+01-4.57667E+00-3.86084E-02-4.07758E+00 3.79266E-13-4.91378E-14
 -1      3028 1.99997E+01-1.80050E-03 9.60260E-07 2.33174E-03 1.37552E-13 1.50697E-13
 -1      3029 2.19124E+01 9.78414E-01-5.27030E-03 3.30447E-01 2.25344E-13 5.71982E-14
 -1      3030 2.18037E+01 5.81872E-01-9.55341E-03 2.34665E-02 1.90102E-13 2.76546E-14
 -1      3031 1.59734E+01-2.24261E+00 1.42548E-01-5.44089E+00-2.29664E-13-3.76317E-13
 -1      3032 8.46864E+00 9.04798E-01 1.66969E-01-6.51640E-01 2.81771E-14-5.87447E-13
 -1      3033 1.51840E+01-2.35086E+00 1.31901E-01 5.34944E+00 3.09294E-13-3.62918E-13
 -1      3034 2.14748E+01-4.27185E+00 9.11672E-02 4.44334E+00 2.97457E-13-4.51496E-14
 -1      3035 2.70406E+01-3.90231E+00-1.13404E-01 9.92584E-01 3.09648E-14 3.47222E-13
 -1      3036 2.61887E+01-4.42701E+00 2.01035E-02 2.35218E+00 8.01581E-14 2.12386E-13
 -1      3037 2.51112E+01-4.44250E+00 3.10739E-02 2.60858E+00 1.57305E-13 1.89283E-13
 -1      3038 2.01555E+01 2.10675E+00-5.65752E-04 3.57427E-01-1.28868E-13-1.69341E-13
 -1      3039 2.93494E+01 2.60365E+00-5.74651E-02-2.23976E+00-5.52794E-13 3.91090E-13
 -1      3040 8.88267E+00-5.21083E-01 1.43825E-01-2.24724E+00 5.37140E-14 7.54841E-13
 -1      3041 1.54129E+01 3.81388E+00-1.39169E-02 1.84471E-01 1.16842E-14-3.28770E-13
 -1      3042 1.58376E+01 3.70364E+00 7.15170E-03 3.78644E-01-1.09900E-14-3.21876E-13
 -1      3043 1.60307E+01 3.22138E+00 1.36043E-02 7.19599E-01 5.50775E-17-3.03827E-13
 -1      3044 1.51302E+01 3.60930E+00 1.94075E-02 6.26069E-02 4.27024E-15-3.41912E-13
 -1      3045 2.85744E+01 5.37827E+00-1.37654E-01-1.08903E+00-5.84421E-13 1.83922E-13
 -1      3046 2.75461E+01 3.81406E+00-1.48115E-01 1.93138E+00 4.57412E-13 2.04323E-13
 -1      3047 2.59766E+01 4.11488E+00-7.92301E-02 1.64811E+00 3.93005E-13 3.16948E-13
 -1      3048 2.69053E+01 2.51385E+00-2.69822E-02 2.20770E+00 3.02064E-13 3.37015E-13
 -1      3049 2.83805E+01 5.33844E+00-9.84699E-02-1.52809E+00 6.36241E-13-1.23887E-13
 -1      3050 1.99997E+01-1.66237E-03 1.82136E-06 2.64441E-03 2.41838E-14 2.31916E-14
 -1      3051 2.00000E+01-1.98601E-03 1.77817E-06 2.44492E-03 1.12421E-13 1.39474E-13
 -1      3052 2.00002E+01-2.03673E-03-2.76853E-06 2.60973E-03 1.24313E-13 1.90833E-13
 -1      3053 1.99997E+01-1.63195E-03-3.44858E-06 2.84011E-03 2.80635E-14-7.68286E-14
 -1      3054 2.12995E+01 5.24932E-01 7.94751E-03-4.28418E-01 1.38193E-13-5.05080E-14
 -1      3055 2.06435E+01 7.49714E-01 7.18034E-03-7.13186E-01 1.23708E-13-9.99335E-14
 -1      3056 1.30956E+01-1.15646E+00 8.56790E-02-4.16033E+00 3.28633E-13 5.03944E-13
 -1      3057 1.55513E+01-2.31452E+00 4.05827E-02-4.90198E+00 3.31617E-13 3.47999E-13
 -1      3058 2.80158E+01-2.43925E+00-4.22113E-02 6.97952E-01 3.21123E-14-1.91028E-13
 -1      3059 2.52091E+01-3.57846E+00 9.67834E-02-1.67445E+00-1.87904E-13 1.11557E-13
 -1      3060 2.61765E+01-3.07745E+00-1.54394E-01-2.34022E-01-9.20410E-14 2.09166E-13
 -1      3061 2.31126E+01-2.24143E+00 6.98765E-02 1.66758E+00 1.10013E-13 9.63043E-14
 -1      3062 2.38235E+01-2.91447E+00-1.89670E-03 1.40884E+00 1.22069E-13 1.50379E-13
 -1      3063 2.55957E+01-3.43209E+00 3.53511E-02 8.30504E-01 1.03896E-13 2.83698E-13
 -1      3064 2.65231E+01-3.22235E+00-1.87169E-03 1.22550E-01 1.83638E-14 3.54765E-13
 -1      3065 2.54550E+01-3.64370E+00-9.10858E-03-6.40598E-01 1.61584E-13-1.22992E-13
 -1      3066 2.45458E+01-3.51831E+00 6.45822E-02-1.32126E+00 1.48836E-13-5.13270E-14
 -1      3067 2.17240E+01-1.94279E+00 9.35811E-03-2.13487E+00 4.99661E-14 1.28954E-13
 -1      3068 2.11921E+01-1.38685E+00 3.14346E-02-2.23292E+00 8.81872E-14 1.36383E-13
 -1      3069 2.07978E+01-9.25471E-01 1.12805E-02-2.13105E+00 4.42999E-14 1.36961E-13
 -1      3070 2.04587E+01-5.27828E-01 1.18566E-02-2.11102E+00-2.50657E-14 7.74590E-14
 -1      3071 2.01557E+01-1.18642E+00-2.00685E-02-2.56021E+00 6.97775E-14 2.08388E-13
 -1      3072 2.03022E+01-2.11744E-01 9.67395E-03-1.96027E+00-2.96880E-14 9.82786E-14
 -1      3073 2.01072E+01 3.22366E-02 3.48749E-03-1.88303E+00-2.00060E-14 1.50778E-13
 -1      3074 1.96805E+01-3.23258E-01-1.58096E-02-2.21744E+00-3.46782E-15 1.84375E-13
 -1      3075 2.00730E+01 2.16135E-01 6.90296E-03-1.73439E+00-6.00003E-15 1.47760E-13
 -1      3076 1.99670E+01 3.46574E-01-2.48746E-04-1.63401E+00-2.50630E-14 1.06117E-13
 -1      3077 1.95346E+01 2.06461E-01-6.46583E-03-1.88568E+00 8.36565E-15 2.04860E-13
 -1      3078 1.99891E+01 4.37983E-01 4.93095E-03-1.49764E+00-3.01417E-14 1.28532E-13
 -1      3079 1.99312E+01 4.92623E-01-1.98966E-03-1.39075E+00-7.38625E-14 6.62981E-14
 -1      3080 1.95396E+01 4.86723E-01-1.66063E-03-1.58966E+00-3.02866E-14 7.87244E-14
 -1      3081 1.99744E+01 5.24553E-01 3.62460E-03-1.26870E+00-9.27781E-14 8.60197E-14
 -1      3082 1.99405E+01 5.32984E-01-2.62368E-03-1.16413E+00-5.83272E-14 6.28805E-15
 -1      3083 1.96085E+01 6.04036E-01 5.31215E-04-1.32955E+00-8.48090E-14 5.96987E-14
 -1      3084 1.99869E+01 5.29876E-01 2.85020E-03-1.05627E+00 6.33857E-14 6.59413E-14
 -1      3085 1.99639E+01 5.12619E-01-2.69873E-03-9.59068E-01 1.52930E-13 8.15717E-14
 -1      3086 1.96949E+01 6.21846E-01 1.35882E-03-1.10161E+00 4.07373E-14 1.22903E-13
 -1      3087 2.00056E+01 4.90974E-01 2.38197E-03-8.64892E-01 1.41795E-13 9.47508E-14
 -1      3088 1.99874E+01 4.61300E-01-2.50294E-03-7.77814E-01 1.68028E-13 9.20476E-14
 -1      3089 1.97767E+01 5.83936E-01 1.49753E-03-9.02401E-01 1.63407E-13 2.69951E-13
 -1      3090 2.00216E+01 4.31502E-01 2.06381E-03-6.96730E-01 6.17460E-14 1.14115E-13
 -1      3091 2.00056E+01 3.97495E-01-2.19125E-03-6.20985E-01-3.69903E-14 2.30267E-13
 -1      3092 1.98451E+01 5.18686E-01 1.32948E-03-7.29659E-01 1.10535E-13 2.13058E-13
 -1      3093 2.00320E+01 3.65693E-01 1.80875E-03-5.52263E-01-1.10711E-13 2.09359E-13
 -1      3094 2.00175E+01 3.31982E-01-1.84757E-03-4.87992E-01-9.94373E-14 2.45829E-13
 -1      3095 1.98984E+01 4.43564E-01 1.05929E-03-5.81688E-01-8.55100E-14 1.44159E-13
 -1      3096 2.00371E+01 3.01571E-01 1.57723E-03-4.30705E-01-1.38389E-13 1.59605E-13
 -1      3097 2.00239E+01 2.70587E-01-1.51569E-03-3.77339E-01-1.32370E-13 8.54456E-14
 -1      3098 1.99376E+01 3.68715E-01 7.85753E-04-4.56825E-01-1.50686E-13 1.54620E-13
 -1      3099 2.00379E+01 2.43250E-01 1.35674E-03-3.30378E-01-1.48812E-13 6.36413E-14
 -1      3100 2.00263E+01 2.16080E-01-1.21672E-03-2.86924E-01-1.36620E-13 9.56455E-14
 -1      3101 1.99654E+01 2.99579E-01 5.50084E-04-3.53161E-01-1.38472E-13 2.17685E-14
 -1      3102 2.00359E+01 1.92479E-01 1.14714E-03-2.49064E-01-5.72844E-14 1.01359E-13
 -1      3103 2.00259E+01 1.69426E-01-9.58785E-04-2.14314E-01-3.88881E-14 9.22639E-14
 -1      3104 1.99841E+01 2.38679E-01 3.64055E-04-2.68516E-01-9.87574E-14 2.06773E-13
 -1      3105 2.00323E+01 1.49637E-01 9.52330E-04-1.84290E-01-1.67857E-14 1.00794E-13
 -1      3106 2.00238E+01 1.30563E-01-7.42871E-04-1.56978E-01-2.71277E-14 6.03798E-14
 -1      3107 1.99963E+01 1.86790E-01 2.25605E-04-2.00541E-01-2.13996E-14 1.68012E-13
 -1      3108 2.00279E+01 1.14349E-01 7.76291E-04-1.33559E-01-8.15480E-14 1.30245E-13
 -1      3109 2.00209E+01 9.88922E-02-5.66236E-04-1.12453E-01-4.67754E-14 1.64861E-13
 -1      3110 2.00036E+01 1.43692E-01 1.27251E-04-1.46853E-01-1.15650E-14 1.59679E-13
 -1      3111 2.00234E+01 8.58642E-02 6.21554E-04-9.44917E-02-1.82363E-13 1.34431E-13
 -1      3112 2.00177E+01 7.35667E-02-4.24444E-04-7.84620E-02-2.58113E-13 1.00993E-13
 -1      3113 2.00077E+01 1.08644E-01 6.03189E-05-1.05150E-01-1.17819E-13 7.73127E-14
 -1      3114 2.00191E+01 6.32827E-02 4.88956E-04-6.49266E-02-2.04540E-13 6.24185E-14
 -1      3115 2.00146E+01 5.36649E-02-3.12508E-04-5.29709E-02-1.84928E-13 1.42521E-13
 -1      3116 2.00095E+01 8.06664E-02 1.68382E-05-7.33087E-02-2.21970E-13 4.51415E-14
 -1      3117 2.00152E+01 4.56831E-02 3.77909E-04-4.29618E-02-1.58452E-13 2.06410E-13
 -1      3118 2.00118E+01 3.82866E-02-2.25520E-04-3.42189E-02-2.51697E-13 1.01610E-13
 -1      3119 2.00100E+01 5.87157E-02-9.78936E-06-4.94295E-02-1.62026E-13-1.14877E-13
 -1      3120 2.00119E+01 3.21954E-02 2.86831E-04-2.69709E-02-1.87373E-13 2.01826E-13
 -1      3121 2.00093E+01 2.66044E-02-1.58961E-04-2.07183E-02-4.09552E-14 1.95961E-13
 -1      3122 2.00096E+01 4.17815E-02-2.47030E-05-3.18667E-02-1.58929E-13 4.18909E-14
 -1      3123 2.00091E+01 2.20373E-02 2.13561E-04-1.55948E-02-9.43862E-14 2.65727E-13
 -1      3124 2.00071E+01 1.78878E-02-1.08851E-04-1.12392E-02-2.99627E-14 2.01845E-13
 -1      3125 2.00087E+01 2.89397E-02-3.17463E-05-1.92276E-02-2.31310E-14 2.91654E-13
 -1      3126 2.00068E+01 1.45283E-02 1.55687E-04-7.72141E-03-4.78221E-14 1.21468E-13
 -1      3127 2.00054E+01 1.15105E-02-7.17778E-05-4.78449E-03-9.61304E-15 1.22544E-13
 -1      3128 2.00075E+01 1.93766E-02-3.37062E-05-1.03594E-02-6.30498E-14 1.61045E-13
 -1      3129 2.00050E+01 9.09169E-03 1.10784E-04-2.45721E-03 6.84822E-14 5.04043E-14
 -1      3130 2.00040E+01 6.94749E-03-4.48891E-05-5.60541E-04 9.37484E-14-7.73229E-14
 -1      3131 2.00063E+01 1.23955E-02-3.25515E-05-4.32695E-03-5.71061E-14 3.60911E-14
 -1      3132 2.00035E+01 5.24896E-03 7.65737E-05 9.02422E-04 1.72867E-13 6.70612E-15
 -1      3133 2.00028E+01 3.76705E-03-2.58418E-05 2.05305E-03 1.93642E-13-3.44105E-14
 -1      3134 2.00052E+01 7.41340E-03-2.96386E-05-3.85396E-04 2.20596E-13-8.89254E-14
 -1      3135 2.00024E+01 2.60985E-03 5.10068E-05 2.90336E-03 1.66550E-13 5.75369E-15
 -1      3136 2.00020E+01 1.62014E-03-1.27449E-05 3.53247E-03 1.48608E-13 1.36736E-14
 -1      3137 2.00042E+01 3.95171E-03-2.58783E-05 2.04749E-03 2.28667E-13 4.05356E-14
 -1      3138 2.00016E+01 8.60977E-04 3.23177E-05 3.96055E-03 1.98399E-13 1.88364E-13
 -1      3139 2.00013E+01 2.28228E-04-4.09801E-06 4.23597E-03 1.92000E-13 2.20494E-13
 -1      3140 2.00032E+01 1.62354E-03-2.18633E-05 3.41848E-03 2.71380E-13 1.59369E-13
 -1      3141 2.00010E+01-2.46279E-04 1.90132E-05 4.38275E-03 2.87810E-14 2.88232E-13
 -1      3142 2.00008E+01-6.28411E-04 1.27441E-06 4.42690E-03 6.09998E-14 2.89061E-13
 -1      3143 2.00024E+01 1.20526E-04-1.79634E-05 4.06351E-03 2.18153E-13 4.64236E-13
 -1      3144 2.00005E+01-9.07199E-04 9.86626E-06 4.39398E-03 1.83660E-14 2.37949E-13
 -1      3145 2.00004E+01-1.12186E-03 4.24952E-06 4.29346E-03-1.98398E-14 3.10334E-13
 -1      3146 2.00018E+01-8.00451E-04-1.44104E-05 4.22923E-03 6.53813E-14 3.06653E-13
 -1      3147 2.00002E+01-1.27450E-03 3.90186E-06 4.15151E-03 3.19427E-14 3.63045E-13
 -1      3148 2.00001E+01-1.38646E-03 5.65994E-06 3.96487E-03 4.74013E-14 2.47563E-13
 -1      3149 2.00012E+01-1.32998E-03-1.14208E-05 4.09173E-03 8.30135E-14 1.72722E-13
 -1      3150 1.99999E+01-1.46824E-03 2.18994E-07 3.76128E-03-2.77667E-14 1.03558E-13
 -1      3151 1.99999E+01-1.52754E-03 5.07941E-06 3.52473E-03-1.50895E-15 9.34200E-14
 -1      3152 2.00008E+01-1.61589E-03-8.96739E-06 3.77193E-03-5.81394E-14 6.67015E-14
 -1      3153 1.99998E+01-1.55728E-03-1.92180E-06 3.32649E-03-8.71085E-14 8.29716E-14
 -1      3154 1.99998E+01-1.60330E-03 2.99034E-06 3.05789E-03-1.21183E-13 4.20589E-14
 -1      3155 2.00001E+01-1.81281E-03-1.49252E-06 2.97804E-03-1.39495E-13-2.90783E-13
 -1      3156 2.00004E+01-1.75032E-03-6.70039E-06 3.38661E-03-1.35332E-14-2.66648E-14
 -1      3157 2.43162E+01-1.31698E+00-2.89765E-03 1.29186E+00 4.60344E-14 2.47646E-13
 -1      3158 2.42181E+01-1.51474E+00 1.50957E-02 9.75428E-01 1.16322E-14 2.16087E-13
 -1      3159 1.08031E+01 7.34189E-01 1.11672E-01-3.18745E+00-1.01438E-13-5.38930E-13
 -1      3160 1.24470E+01-1.76839E-01 2.36846E-03-4.33520E+00-1.50553E-13-4.71359E-13
 -1      3161 2.39625E+01 3.09655E+00-8.66601E-02-1.12814E+00 3.89425E-13 2.39956E-14
 -1      3162 2.38882E+01 3.56611E+00-3.06344E-02-3.97147E-01 4.02650E-13 8.77189E-14
 -1      3163 2.43096E+01 3.09586E+00-4.53911E-02 1.04795E+00 3.07560E-13 2.10946E-13
 -1      3164 2.44610E+01 2.48721E+00-4.84924E-02 1.76175E+00 2.47160E-13 2.81386E-13
 -1      3165 2.45923E+01-6.39620E-01-1.05441E-02-2.00237E+00-1.29662E-14 3.48467E-14
 -1      3166 2.45013E+01 2.72800E-01 1.01864E-02-2.12420E+00 1.19748E-13-6.94601E-14
 -1      3167 2.41203E+01-1.68812E+00-3.84564E-04-1.06160E+00-1.74843E-14 1.73134E-14
 -1      3168 2.42461E+01-1.31781E+00-1.94970E-02-1.42513E+00 5.78877E-15 3.09306E-14
 -1      3169 2.50095E+01-1.36506E+00-6.44764E-02-1.62263E+00 7.60850E-15-1.32323E-13
 -1      3170 2.33492E+01-1.84937E+00 1.84321E-02-1.13988E-01 1.09609E-14-6.66537E-14
 -1      3171 2.36050E+01-1.87681E+00-1.74621E-02-5.06568E-01 2.06879E-14-1.37356E-14
 -1      3172 2.40632E+01-2.22684E+00-4.25753E-02-4.65105E-01 6.63549E-14-1.23778E-13
 -1      3173 2.24929E+01-1.50193E+00 2.05042E-02 5.90462E-01-2.64822E-14-7.67775E-14
 -1      3174 2.27834E+01-1.72981E+00-1.38444E-02 2.89975E-01-1.77527E-14-8.04841E-14
 -1      3175 2.30201E+01-2.13937E+00-1.88088E-02 4.69211E-01 1.40087E-14-1.46629E-13
 -1      3176 2.17562E+01-9.90955E-01 1.59452E-02 9.91632E-01-3.76292E-14-2.70728E-14
 -1      3177 2.20223E+01-1.25820E+00-7.38233E-03 8.09747E-01-4.62766E-14 3.77393E-14
 -1      3178 2.20250E+01-1.61077E+00-1.87870E-02 1.03192E+00-5.68764E-14-8.64387E-14
 -1      3179 2.12051E+01-5.20669E-01 1.06515E-02 1.16233E+00-6.34825E-14-2.22229E-14
 -1      3180 2.14201E+01-7.49507E-01-3.03295E-03 1.07854E+00-1.19061E-14-3.48377E-14
 -1      3181 2.12727E+01-9.98589E-01-1.68305E-02 1.28794E+00-3.86510E-14-3.65114E-14
 -1      3182 2.08249E+01-1.66259E-01 6.29434E-03 1.18270E+00-4.26005E-14-9.10889E-14
 -1      3183 2.09880E+01-3.31212E-01-1.63893E-04 1.16661E+00-5.10993E-14-3.95811E-14
 -1      3184 2.07672E+01-4.75471E-01-1.16010E-02 1.34097E+00-5.29070E-14-7.53272E-14
 -1      3185 2.05725E+01 6.82648E-02 3.19964E-03 1.11459E+00 6.09978E-15-4.44425E-15
 -1      3186 2.06935E+01-3.66012E-02 1.20885E-03 1.14134E+00-4.52288E-15 2.88318E-14
 -1      3187 2.04514E+01-9.94605E-02-7.25754E-03 1.28008E+00-5.20141E-14 2.77080E-14
 -1      3188 2.04074E+01 2.03753E-01 1.17905E-03 9.99350E-01 7.03547E-15 3.55422E-14
 -1      3189 2.04977E+01 1.46237E-01 1.83569E-03 1.05018E+00-3.28645E-15-1.00669E-14
 -1      3190 2.02647E+01 1.40187E-01-4.18630E-03 1.15996E+00-1.15042E-14 1.10219E-13
 -1      3191 2.02984E+01 2.67420E-01-1.11548E-05 8.64105E-01-3.19599E-14 1.53831E-13
 -1      3192 2.03671E+01 2.43171E-01 2.06896E-03 9.26000E-01 1.49819E-14 9.41673E-14
 -1      3193 2.01593E+01 2.72530E-01-2.26760E-03 1.01399E+00-2.47381E-14 1.28631E-13
 -1      3194 2.02244E+01 2.83611E-01-6.41668E-04 7.25908E-01 2.82574E-15 1.60098E-13
 -1      3195 2.02779E+01 2.80761E-01 2.11209E-03 7.90245E-01 6.90268E-15 1.67210E-13
 -1      3196 2.01018E+01 3.29357E-01-1.14932E-03 8.62062E-01-4.66879E-14 2.16569E-13
 -1      3197 2.01722E+01 2.71128E-01-9.18715E-04 5.95025E-01 4.04455E-14 9.36141E-14
 -1      3198 2.02147E+01 2.80802E-01 2.04352E-03 6.56455E-01 3.53342E-14 1.40600E-13
 -1      3199 2.00711E+01 3.37353E-01-5.45359E-04 7.15881E-01 6.54198E-14 1.29860E-13
 -1      3200 2.01337E+01 2.43279E-01-9.84916E-04 4.77133E-01 1.42947E-13-2.89938E-14
 -1      3201 2.01679E+01 2.59329E-01 1.90265E-03 5.32645E-01 1.36017E-13 1.49817E-14
 -1      3202 2.00546E+01 3.16512E-01-2.47516E-04 5.82107E-01 1.25335E-13 5.72614E-14
 -1      3203 2.01042E+01 2.08885E-01-9.33965E-04 3.74809E-01 6.89272E-14 3.70770E-15
 -1      3204 2.01319E+01 2.27309E-01 1.71603E-03 4.23006E-01 1.13774E-13 9.08433E-15
 -1      3205 2.00450E+01 2.80756E-01-1.18281E-04 4.64109E-01 1.40318E-13 3.44156E-14
 -1      3206 2.00812E+01 1.73439E-01-8.25493E-04 2.88591E-01 7.65328E-14-5.93271E-14
 -1      3207 2.01034E+01 1.91796E-01 1.50505E-03 3.29143E-01 1.17070E-13 8.13589E-15
 -1      3208 2.00386E+01 2.39220E-01-7.43949E-05 3.63057E-01 1.14357E-13 1.07609E-13
 -1      3209 2.00628E+01 1.40105E-01-6.95814E-04 2.17747E-01-9.63290E-14-9.86602E-14
 -1      3210 2.00806E+01 1.57029E-01 1.28725E-03 2.50983E-01-5.70460E-14-5.59219E-14
 -1      3211 2.00337E+01 1.97534E-01-6.85094E-05 2.78662E-01 5.62504E-14 1.69543E-13
 -1      3212 2.00481E+01 1.10496E-01-5.65890E-04 1.60820E-01-1.21497E-13-7.14128E-15
 -1      3213 2.00622E+01 1.25328E-01 1.07606E-03 1.87438E-01-6.84772E-14-2.89499E-14
 -1      3214 2.00293E+01 1.58894E-01-7.55991E-05 2.09734E-01-7.68719E-14 1.29766E-13
 -1      3215 2.00363E+01 8.52320E-02-4.46846E-04 1.16013E-01 4.16565E-14-1.03374E-13
 -1      3216 2.00473E+01 9.77610E-02 8.80680E-04 1.36882E-01 1.68101E-14-5.23072E-15
 -1      3217 2.00251E+01 1.24878E-01-8.37652E-05 1.54582E-01-5.04815E-14 1.07924E-13
 -1      3218 2.00270E+01 6.43369E-02-3.43687E-04 8.14409E-02-2.27661E-14-1.45462E-13
 -1      3219 2.00355E+01 7.46160E-02 7.06541E-04 9.74710E-02-5.93782E-14-1.21352E-13
 -1      3220 2.00213E+01 9.60319E-02-8.83176E-05 1.11306E-01 4.67719E-15-9.59641E-14
 -1      3221 2.00198E+01 4.74962E-02-2.57775E-04 5.52943E-02-1.24160E-13 1.21969E-13
 -1      3222 2.00261E+01 5.57233E-02 5.56046E-04 6.73570E-02 8.62395E-15 3.56792E-15
 -1      3223 2.00177E+01 7.22807E-02-8.82185E-05 7.79946E-02-1.56773E-13-8.36830E-15
 -1      3224 2.00141E+01 3.42300E-02-1.88417E-04 3.59277E-02-5.26054E-14 3.26180E-14
 -1      3225 2.00188E+01 4.06697E-02 4.29364E-04 4.48114E-02-5.99927E-14 1.14209E-13
 -1      3226 2.00145E+01 5.32062E-02-8.40669E-05 5.28483E-02-2.37286E-14 2.50462E-13
 -1      3227 2.00098E+01 2.40010E-02-1.33884E-04 2.19051E-02 3.52682E-14-1.04976E-13
 -1      3228 2.00132E+01 2.89358E-02 3.25170E-04 2.82946E-02-5.53885E-16-9.97729E-14
 -1      3229 2.00116E+01 3.82261E-02-7.70237E-05 3.42521E-02 3.31469E-14 2.34239E-13
 -1      3230 2.00066E+01 1.62785E-02-9.20258E-05 1.20108E-02 1.68749E-14-1.52006E-13
 -1      3231 2.00090E+01 1.99808E-02 2.41258E-04 1.64829E-02 5.65167E-14-1.55748E-13
 -1      3232 2.00091E+01 2.67074E-02-6.82849E-05 2.08064E-02 4.39216E-14-1.26830E-13
 -1      3233 2.00042E+01 1.05744E-02-6.06411E-05 5.24306E-03-2.16673E-14-1.00868E-13
 -1      3234 2.00059E+01 1.32908E-02 1.75001E-04 8.27075E-03-4.99521E-14-5.91483E-14
 -1      3235 2.00071E+01 1.80347E-02-5.88558E-05 1.13326E-02-4.67692E-14-1.87794E-13
 -1      3236 2.00025E+01 6.46028E-03-3.76776E-05 7.94085E-04-1.50607E-13-3.01460E-14
 -1      3237 2.00036E+01 8.40479E-03 1.23678E-04 2.75686E-03-8.80709E-14-8.10920E-14
 -1      3238 2.00054E+01 1.16464E-02-4.94853E-05 4.86212E-03-1.05536E-13-1.09783E-13
 -1      3239 2.00013E+01 3.57220E-03-2.13297E-05-1.97338E-03-2.44519E-13 5.69648E-14
 -1      3240 2.00020E+01 4.92512E-03 8.46854E-05-7.77629E-04-1.52957E-13 1.29493E-13
 -1      3241 2.00040E+01 7.05248E-03-4.06754E-05 6.16355E-04-2.75385E-13 5.80905E-14
 -1      3242 2.00005E+01 1.60934E-03-1.00749E-05-3.55204E-03-2.17895E-13-1.44450E-13
 -1      3243 2.00009E+01 2.51874E-03 5.56595E-05-2.89429E-03-3.06110E-13-2.74460E-14
 -1      3244 2.00028E+01 3.83843E-03-3.27234E-05-2.01803E-03-1.83002E-13 1.92990E-13
 -1      3245 1.99999E+01 3.27878E-04-2.67062E-06-4.31476E-03-1.03409E-13-1.32079E-13
 -1      3246 2.00001E+01 9.13121E-04 3.45406E-05-4.02278E-03-1.48475E-13-2.51079E-13
 -1      3247 2.00020E+01 1.66249E-03-2.57745E-05-3.51437E-03-1.71417E-13-2.96716E-13
 -1      3248 1.99996E+01-4.66666E-04 1.86973E-06-4.53697E-03 1.81251E-13-2.15476E-13
 -1      3249 1.99997E+01-1.10771E-04 1.95960E-05-4.48454E-03 6.59358E-14-1.08745E-13
 -1      3250 2.00013E+01 2.48188E-04-1.98703E-05-4.23031E-03-2.71233E-14-4.59792E-13
 -1      3251 1.99994E+01-9.27769E-04 4.33232E-06-4.41624E-03 1.41668E-13 2.25464E-14
 -1      3252 1.99994E+01-7.26660E-04 9.39246E-06-4.51378E-03 1.57381E-13-1.46918E-13
 -1      3253 2.00008E+01-6.24686E-04-1.49762E-05-4.42959E-03 8.71361E-14-4.26535E-13
 -1      3254 1.99994E+01-1.17621E-03 5.07207E-06-4.08892E-03-9.33420E-14 2.43729E-13
 -1      3255 1.99993E+01-1.07145E-03 2.72015E-06-4.27551E-03 1.54283E-13 1.99747E-13
 -1      3256 2.00004E+01-1.12966E-03-1.09470E-05-4.30111E-03-8.85753E-15 1.12951E-13
 -1      3257 1.99994E+01-1.30932E-03 1.86125E-06-3.64460E-03-2.17762E-13 2.43963E-13
 -1      3258 1.99992E+01-1.25484E-03-2.86570E-06-3.87927E-03-1.73290E-13 2.72354E-13
 -1      3259 2.00001E+01-1.40016E-03-5.74539E-06-3.97604E-03-1.58927E-13 2.71348E-13
 -1      3260 1.63168E+01 2.49155E+00 2.62676E-02-1.64417E+00 3.12159E-14-2.89769E-13
 -1      3261 1.54981E+01 2.76891E+00-2.36267E-02-1.47901E+00 7.06640E-15-3.25617E-13
 -1      3262 2.00020E+01-2.97879E-03 3.36084E-06 2.27014E-04 2.04876E-13-5.98021E-13
 -1      3263 2.00020E+01-2.97899E-03 3.21911E-06-2.16972E-04 2.94661E-13-3.31159E-13
 -1      3264 2.00008E+01-2.27865E-03-2.84836E-06 2.51518E-03 1.48730E-13 1.88532E-13
 -1      3265 2.00011E+01-2.46569E-03 1.00805E-05 2.26934E-03-2.29693E-14-2.36066E-13
 -1      3266 2.00018E+01-2.87948E-03-4.37639E-07 1.12076E-03-5.44056E-14-3.13958E-13
 -1      3267 2.00020E+01-2.94352E-03 6.24517E-06 7.05969E-04 1.33678E-13-4.29406E-13
 -1      3268 2.00024E+01-2.86132E-03-5.53946E-06 4.92943E-04 2.26058E-13-6.77510E-13
 -1      3269 2.36619E+01-1.53741E+00-1.83327E-02 5.22447E-01 1.11798E-14 1.89791E-13
 -1      3270 2.34434E+01-1.36225E+00 2.40048E-02 2.50791E-01 5.57787E-14 1.57971E-13
 -1      3271 2.40619E+01-1.90115E+00-4.42939E-02 4.27973E-01 5.79398E-16 1.96588E-13
 -1      3272 1.51096E+01-1.09132E+00 1.26686E-01-4.84144E+00-1.96083E-13-3.62481E-13
 -1      3273 1.76366E+01-2.47455E+00-5.41256E-02-5.01249E+00-2.30461E-13-2.44423E-13
 -1      3274 2.05364E+01-4.02809E+00-3.97129E-02 4.40347E+00-1.39926E-13-1.28793E-13
 -1      3275 1.82446E+01-3.17100E+00 1.41359E-01 5.01265E+00-2.25028E-13 2.32973E-14
 -1      3276 1.30972E+01-2.11867E+00 1.60182E-01 5.17676E+00-2.45484E-13 6.67938E-14
 -1      3277 2.00014E+01-2.64440E-03-4.07556E-06 1.91800E-03-1.03304E-13-6.13223E-13
 -1      3278 2.00017E+01-2.77072E-03 9.13124E-06 1.56141E-03-1.89469E-13-4.40488E-13
 -1      3279 2.00021E+01-2.73338E-03-5.64490E-06 1.43257E-03-9.13731E-14-3.94711E-13
 -1      3280 2.00016E+01-2.47712E-03-3.23708E-06 2.24308E-03-4.10215E-14-2.79157E-13
 -1      3281 1.71909E+01-2.51927E+00-4.92026E-02 4.92329E+00 3.15158E-13-2.21920E-13
 -1      3282 1.41962E+01-1.06655E+00 1.34276E-01 4.60984E+00 2.82892E-13-3.77545E-13
 -1      3283 2.43681E+01 1.26605E+00-7.78208E-02-2.16527E+00 2.42688E-13-1.04642E-13
 -1      3284 2.42378E+01 2.31499E+00-4.71858E-03-1.84165E+00 3.13187E-13-8.11079E-14
 -1      3285 2.50092E+01 3.25064E+00-4.78476E-02-1.68084E+00 4.25958E-13-6.16070E-14
 -1      3286 2.52583E+01 7.78810E-01-2.50725E-02-2.24372E+00 1.33943E-13-1.19366E-13
 -1      3287 2.40550E+01-4.57707E+00 9.01259E-02-2.90125E+00 3.09645E-13-1.15017E-13
 -1      3288 2.54431E+01-4.41279E+00-8.43868E-02-1.63174E+00 2.21174E-13-1.43975E-13
 -1      3289 2.58168E+01-4.33467E+00 1.43947E-02 1.85895E+00-4.45199E-14-2.91444E-13
 -1      3290 2.36071E+01-4.38323E+00 3.97140E-02 2.98140E+00-8.44533E-14-2.70036E-13
 -1      3291 1.21125E+01-9.70536E-02 6.96837E-02 3.96227E+00 2.16889E-13-4.40106E-13
 -1      3292 1.06664E+01 9.07178E-01 7.78300E-02 2.48174E+00 1.38216E-13-4.51361E-13
 -1      3293 1.45958E+01-9.89413E-02 1.20808E-01 3.69773E+00 2.24893E-13-3.52621E-13
 -1      3294 2.16824E+01-8.48971E-01 4.10354E-02 1.67850E+00 3.21005E-14-1.42867E-14
 -1      3295 2.22308E+01-1.56390E+00 1.10550E-02 1.69642E+00 6.23841E-14-4.75038E-15
 -1      3296 2.16704E+01-2.14153E+00-7.90797E-02 2.38279E+00 1.37223E-13 2.35385E-14
 -1      3297 2.32473E+01-3.88195E+00 1.09112E-02 3.07828E+00 2.20983E-13 1.18038E-13
 -1      3298 2.10685E+01-3.10876E+00 1.27421E-01 3.80878E+00 2.89635E-13-3.39711E-14
 -1      3299 8.89908E+00 1.96533E-01 1.38518E-01-6.85712E-01-8.40070E-14 5.88307E-13
 -1      3300 1.06349E+01-1.49016E-01 6.40231E-02-2.53355E+00 8.04391E-14 5.83367E-13
 -1      3301 1.99999E+01-1.85238E-03-4.17688E-06-2.62971E-03 1.45322E-13 1.29029E-14
 -1      3302 9.56843E+00 1.51589E+00 8.79537E-02 4.21226E-01 7.23154E-14-4.94382E-13
 -1      3303 9.66271E+00 1.31366E+00 8.10681E-02-1.80862E+00-2.19547E-14-5.36321E-13
 -1      3304 1.03260E+01-3.19457E-01 3.44917E-02 3.10255E+00-2.80172E-13 2.61194E-13
 -1      3305 9.04919E+00 1.69939E-01 1.02923E-01 1.05443E+00-2.19502E-13 5.48062E-13
 -1      3306 1.09572E+01 5.27483E-01 1.28150E-01 4.47973E-01-1.34889E-13 4.34236E-13
 -1      3307 2.07189E+01-3.22638E+00 1.15348E-01-4.28487E+00-2.44828E-13-1.13954E-13
 -1      3308 2.30494E+01-4.00972E+00-1.01700E-01-3.25620E+00-2.13003E-13 1.69907E-14
 -1      3309 1.98259E+01 1.78120E+00 5.38081E-03 7.42667E-01-8.65998E-14-1.62332E-13
 -1      3310 2.22406E+01 1.09412E-02 1.14892E-02-5.58600E-02 1.49253E-13 6.14063E-14
 -1      3311 2.17171E+01 3.10204E-01 6.65074E-04-2.03734E-01 1.46563E-13 1.76187E-14
 -1      3312 2.17420E+01-1.20570E-01 1.22256E-03-4.91786E-01 1.06895E-13-7.60980E-15
 -1      3313 2.24104E+01-4.30411E-01-1.39755E-02-9.95889E-02 1.27742E-13 7.32892E-14
 -1      3314 2.63654E+01 5.14307E+00-1.89870E-01-8.01307E-01 6.21586E-13-9.99027E-15
 -1      3315 2.63193E+01 4.28680E+00-1.08534E-01-1.54317E+00 5.67740E-13-4.68792E-14
 -1      3316 2.55274E+01 4.75487E+00-1.05448E-01 2.45392E-02 4.90302E-13 1.45453E-13
 -1      3317 1.51724E+01-2.44330E+00-3.75821E-02 5.19406E+00-2.48940E-13 3.42226E-14
 -1      3318 1.23990E+01-1.09231E+00 1.36965E-01 4.31562E+00-2.85272E-13 3.79280E-14
 -1      3319 1.29490E+01-3.75061E-01 1.26385E-01 3.34115E+00-2.44547E-13 2.01783E-13
 -1      3320 1.49018E+01 3.14567E+00 1.36362E-02-1.05836E+00 1.36756E-14-3.38771E-13
 -1      3321 1.45097E+01 3.27231E+00-2.24726E-02-7.07944E-01 3.52019E-15-3.48216E-13
 -1      3322 1.49906E+01 2.61923E+00 2.89775E-02-1.52756E+00-9.40827E-15-3.22484E-13
 -1      3323 2.64817E+01 1.24422E+00-4.32655E-02 2.16089E+00 2.09201E-13 3.56083E-13
 -1      3324 1.67230E+01-1.90236E+00 3.17459E-02-4.29447E+00 2.49242E-13 2.61072E-13
 -1      3325 1.76063E+01-2.68293E+00 1.07687E-01-4.72922E+00 3.11886E-13 2.32116E-13
 -1      3326 1.93305E+01-3.18113E+00-3.94339E-02-4.17917E+00 2.88901E-13 1.09954E-13
 -1      3327 1.81690E+01 1.68081E+00 2.66414E-02-1.58801E+00 5.95589E-14-2.24799E-13
 -1      3328 1.72180E+01 1.97077E+00-2.39217E-02-1.68025E+00 3.65164E-14-2.49615E-13
 -1      3329 1.68073E+01 1.74021E+00 1.64724E-02-2.02852E+00 9.85323E-16-2.59544E-13
 -1      3330 2.64523E+01 2.87434E+00-1.53326E-01-2.14200E+00 4.55053E-13-1.38910E-13
 -1      3331 2.63013E+01 1.86595E+00-7.43155E-02-2.25154E+00 3.09683E-13-1.92780E-13
 -1      3332 2.39486E+01-3.30045E+00 3.71370E-02-1.98612E+00-1.98747E-13 8.24479E-14
 -1      3333 2.80503E+01-8.43407E-01-2.91360E-02-1.45569E+00 1.84811E-13-3.34316E-13
 -1      3334 2.73220E+01-1.71598E+00 5.31576E-02-1.05227E+00 6.51007E-14-4.41425E-13
 -1      3335 2.73431E+01 1.30880E-01-8.38596E-02-1.98546E+00 1.69323E-13-2.59015E-13
 -1      3336 2.66713E+01-3.51624E+00 2.76191E-02-7.25889E-03 1.70811E-13-1.66922E-13
 -1      3337 2.75038E+01-2.93760E+00-2.21993E-02-4.12999E-01-4.78020E-14 4.09645E-13
 -1      3338 1.16108E+01 1.50530E+00 1.26262E-01-2.08244E+00-4.82669E-14-4.80414E-13
 -1      3339 2.68768E+01 6.56241E-01-4.62497E-02 2.62592E+00-1.70544E-13-1.99854E-13
 -1      3340 2.08763E+01 3.38930E-01 2.70127E-02 1.32845E+00-3.08946E-14-9.31516E-14
 -1      3341 2.12137E+01-2.50194E-01 1.14120E-02 1.47391E+00-1.12406E-14-6.61218E-14
 -1      3342 2.04344E+01-5.24060E-01-4.76852E-02 1.98903E+00 4.74685E-14-7.25565E-14
 -1      3343 2.00012E+01-2.46053E-03 1.21134E-05-2.26975E-03 5.72284E-14-1.94038E-13
 -1      3344 2.00008E+01-2.27943E-03-1.10090E-05-2.51586E-03-3.83668E-14 1.83870E-14
 -1      3345 1.96923E+01-2.30429E+00 7.44961E-02-3.99262E+00-2.33924E-13-1.37911E-13
 -1      3346 2.32540E+01-3.09650E+00-7.26519E-04-1.75280E+00 1.34160E-13 4.11113E-14
 -1      3347 2.25055E+01-2.51408E+00 5.35424E-02-2.08224E+00 1.28192E-13 6.85793E-14
 -1      3348 2.00014E+01-2.63858E-03-3.44703E-06-1.91956E-03 4.19842E-14-1.89224E-13
 -1      3349 2.00016E+01-2.47267E-03-4.60896E-06-2.24087E-03 2.55162E-14-2.17865E-13
 -1      3350 2.00017E+01-2.76717E-03 9.27988E-06-1.56392E-03-2.29532E-14-4.10238E-13
 -1      3351 2.30359E+01-3.74510E+00-4.59619E-02-2.47270E+00 2.23257E-13 2.01731E-14
 -1      3352 2.00282E+01 1.24059E+00 1.69774E-03 1.01732E+00-6.01734E-14-1.49605E-13
 -1      3353 1.47780E+01-1.61751E-01 9.53081E-02-4.07114E+00-1.59414E-13-3.66318E-13
 -1      3354 2.45893E+01 3.89469E+00-1.05994E-01 5.93150E-01 3.81188E-13 1.98350E-13
 -1      3355 2.46072E+01 1.58855E+00-7.49056E-02 2.07860E+00 2.21295E-13 2.98341E-13
 -1      3356 1.99994E+01-1.39661E-03-8.42739E-06-3.45252E-03-1.70926E-13 1.54070E-13
 -1      3357 2.00001E+01-1.58163E-03 3.23596E-06-3.57130E-03-1.38694E-13 2.91248E-14
 -1      3358 1.99996E+01-1.47452E-03-4.13511E-06-3.25423E-03 2.90875E-14 1.85721E-14
 -1      3359 2.05248E+01 2.77444E-01-1.13171E-02-1.11447E+00 8.87025E-14-1.00024E-13
 -1      3360 1.99064E+01 9.72200E-01 8.89141E-03-1.08391E+00 1.03070E-13-1.40727E-13
 -1      3361 1.90693E+01 1.25007E+00-9.77541E-03-1.34577E+00 7.60871E-14-1.80291E-13
 -1      3362 2.00020E+01-2.94195E-03 6.47405E-06-7.02697E-04 2.58284E-13-3.24919E-14
 -1      3363 2.00018E+01-2.87582E-03 1.66235E-08-1.12430E-03 5.35036E-14-2.92427E-13
 -1      3364 2.00021E+01-2.72917E-03-4.87202E-06-1.43423E-03-3.10596E-14-2.36062E-13
 -1      3365 2.00024E+01-2.85969E-03-5.14456E-06-4.90473E-04 8.32113E-14-2.20045E-13
 -1      3366 1.72041E+01-2.31110E+00 7.12780E-02 4.52182E+00-2.50525E-13 2.53998E-14
 -1      3367 2.26312E+01-4.15361E+00 3.54552E-02-3.24992E+00 2.74836E-13 4.57102E-14
 -1      3368 2.60311E+01-3.68845E+00-1.05732E-01 6.53719E-01-7.76983E-15-4.19428E-13
 -1      3369 2.37286E+01-3.86405E+00-1.06221E-02 2.06218E+00-9.96998E-14-3.24221E-13
 -1      3370 2.24920E+01-4.07616E+00 6.83999E-02 3.37913E+00-8.25711E-14-2.62596E-13
 -1      3371 2.12009E+01-3.49335E+00 6.30139E-03 3.50089E+00-1.13689E-13-1.84931E-13
 -1      3372 2.52648E+01 1.92475E-01-1.43405E-02 2.07351E+00 1.24272E-13 3.40667E-13
 -1      3373 2.52677E+01-7.27056E-01-2.77235E-02 1.81938E+00 8.53284E-14 3.21066E-13
 -1      3374 1.25300E+01 1.56875E+00 1.11356E-02 1.99014E+00 1.29489E-13-3.74159E-13
 -1      3375 1.09774E+01 1.61181E+00 1.05867E-01 1.32334E+00 9.68930E-14-4.42146E-13
 -1      3376 1.15502E+01 2.10681E+00 6.93840E-03 1.92279E-01 4.21998E-14-4.11490E-13
 -1      3377 1.98518E+01-2.12555E+00 7.01857E-02 3.58215E+00 2.34396E-13-1.03599E-13
 -1      3378 2.29823E+01-1.13430E+00-1.72226E-02 6.01296E-02 9.03225E-14 1.13248E-13
 -1      3379 2.27594E+01-7.73300E-01 1.77636E-02-7.22069E-02 9.10906E-14 8.54711E-14
 -1      3380 2.24226E+01-7.26163E-01-1.43895E-02-2.76853E-01 8.31431E-14 5.28258E-14
 -1      3381 2.31298E+01-1.49928E+00-2.99182E-02-1.45292E-01 3.80889E-14 1.07618E-13
 -1      3382 1.17050E+01 3.20673E-01 3.40981E-03-1.90998E+00-1.97277E-14 4.63976E-13
 -1      3383 1.23044E+01-3.11006E-01 1.18617E-01-3.27222E+00 1.33681E-13 5.03590E-13
 -1      3384 1.40020E+01-6.02016E-01 4.61425E-02-3.45202E+00 1.31074E-13 4.01360E-13
 -1      3385 2.00004E+01-2.01231E-03 1.82782E-05-2.76357E-03 2.11548E-13 1.11282E-13
 -1      3386 1.99998E+01-1.65179E-03-1.08365E-05-2.90209E-03 1.32782E-13-2.97976E-14
 -1      3387 1.99996E+01-1.56926E-03-1.56085E-05-3.11883E-03 1.16303E-13-3.17479E-14
 -1      3388 2.00007E+01-2.07766E-03-4.04763E-06-2.84849E-03-6.82523E-14-1.41384E-13
 -1      3389 2.11575E+01-2.42786E+00-4.84282E-02-2.73665E+00 1.24193E-13 1.58467E-13
 -1      3390 2.56067E+01-1.44795E+00-5.50340E-02 1.32354E+00 3.60814E-14 3.31029E-13
 -1      3391 1.52836E+01 2.97684E+00-2.13523E-02 8.85343E-01 2.79971E-14-3.23406E-13
 -1      3392 1.60838E+01 2.73437E+00 2.30428E-02 1.15097E+00 2.67419E-14-3.01661E-13
 -1      3393 2.00004E+01-1.95024E-03 2.90815E-06 2.84729E-03-1.72335E-13-1.09403E-13
 -1      3394 2.00006E+01-2.14165E-03 3.63620E-06 2.69102E-03 1.80306E-14 2.44728E-13
 -1      3395 2.00010E+01-2.17869E-03-1.88069E-06 2.75879E-03-1.34957E-13 7.22070E-14
 -1      3396 2.00005E+01-1.91503E-03-4.67396E-07 3.05817E-03-2.94918E-13-1.53853E-13
 -1      3397 1.70380E+01 2.21178E+00-2.76056E-02 1.36596E+00 2.32531E-14-2.44708E-13
 -1      3398 1.81039E+01 1.89163E+00 2.76355E-02 1.38826E+00-1.47157E-14-2.26170E-13
 -1      3399 1.64538E+01 2.03864E+00 1.07278E-02 1.62542E+00 3.66070E-14-2.59764E-13
 -1      3400 2.71845E+01-1.91301E+00-9.92489E-02 1.50664E+00 4.22232E-14-2.00624E-13
 -1      3401 2.30034E+01-2.79070E+00 8.58858E-02-2.16906E+00-1.79873E-13 4.35390E-14
 -1      3402 2.42214E+01-3.03289E+00-9.14880E-02-1.00771E+00-1.19043E-13 1.37168E-13
 -1      3403 2.63115E+01-2.14682E+00-3.80811E-02 6.56729E-01-5.13912E-14 2.89428E-13
 -1      3404 2.41045E+01-3.63020E+00-3.49868E-02 1.98819E+00 1.75485E-13 2.01157E-13
 -1      3405 1.92268E+01 1.18207E+00-2.21932E-02 1.39317E+00-2.66709E-14-1.72171E-13
 -1      3406 1.86965E+01-1.29820E+00 8.89515E-02-3.75720E+00-1.87734E-13-1.45068E-13
 -1      3407 2.08496E+01-2.51208E+00-7.67019E-02-3.26524E+00-1.86400E-13-4.15258E-14
 -1      3408 1.90470E+01-2.38575E-01 1.53714E-02-2.34983E+00 5.45939E-14 3.22299E-13
 -1      3409 1.88968E+01 7.27784E-02-2.00883E-03-2.15747E+00 1.08260E-14 3.48908E-13
 -1      3410 1.90112E+01 3.03346E-01 1.11303E-02-1.92597E+00-3.93475E-14 3.50156E-13
 -1      3411 1.89685E+01 4.67878E-01-5.05063E-03-1.76669E+00-6.17720E-14 3.08904E-13
 -1      3412 1.83066E+01 3.47183E-01-1.68988E-03-2.03075E+00-2.28229E-14 4.57060E-13
 -1      3413 1.91096E+01 5.88486E-01 6.86437E-03-1.58937E+00-4.16803E-14 2.18714E-13
 -1      3414 1.91228E+01 6.59940E-01-5.21924E-03-1.45372E+00-3.65846E-14 2.01987E-13
 -1      3415 1.85642E+01 6.65168E-01 2.34031E-03-1.62041E+00-8.99539E-14 4.30222E-13
 -1      3416 1.92604E+01 7.05609E-01 3.93083E-03-1.31546E+00-7.71903E-14 2.36990E-13
 -1      3417 1.92957E+01 7.20076E-01-4.71568E-03-1.19833E+00-8.71439E-14 1.81184E-13
 -1      3418 1.88361E+01 7.98736E-01 3.58511E-03-1.31264E+00-6.87113E-14 3.93456E-13
 -1      3419 1.94174E+01 7.20294E-01 2.38147E-03-1.08639E+00-9.34693E-15 1.45578E-13
 -1      3420 1.94567E+01 7.01688E-01-4.09096E-03-9.84347E-01 1.10329E-13 1.68905E-13
 -1      3421 1.90859E+01 8.19695E-01 3.75773E-03-1.07243E+00-3.30570E-14 2.78370E-13
 -1      3422 1.95590E+01 6.76553E-01 1.60359E-03-8.91172E-01 1.63784E-13 1.30637E-13
 -1      3423 1.95941E+01 6.40728E-01-3.48854E-03-8.02232E-01 1.44723E-13 1.43707E-13
 -1      3424 1.93000E+01 7.75206E-01 3.43291E-03-8.76813E-01 1.07866E-13 1.64397E-13
 -1      3425 1.96770E+01 6.03320E-01 1.22834E-03-7.23607E-01 1.55673E-13 1.67848E-13
 -1      3426 1.97051E+01 5.60374E-01-2.93865E-03-6.46672E-01 1.18523E-13 1.35245E-13
 -1      3427 1.94758E+01 6.96385E-01 2.91246E-03-7.13051E-01 1.65896E-13 9.28692E-14
 -1      3428 1.97706E+01 5.18820E-01 1.04303E-03-5.80220E-01-6.58586E-14 6.42582E-14
 -1      3429 1.97916E+01 4.74886E-01-2.44625E-03-5.14519E-01-1.63529E-13 1.85822E-14
 -1      3430 1.96156E+01 6.03280E-01 2.36219E-03-5.74333E-01-1.68157E-14-2.38660E-15
 -1      3431 1.98423E+01 4.33980E-01 9.32249E-04-4.58738E-01-1.91850E-13 1.10505E-13
 -1      3432 1.98570E+01 3.92558E-01-2.01050E-03-4.03500E-01-1.62032E-13 1.47075E-14
 -1      3433 1.97243E+01 5.08259E-01 1.85550E-03-4.56918E-01-1.50454E-13 4.74189E-14
 -1      3434 1.98955E+01 3.54910E-01 8.42370E-04-3.57221E-01-1.37546E-13 1.12850E-15
 -1      3435 1.99053E+01 3.17790E-01-1.63032E-03-3.11547E-01-1.42904E-13 6.53255E-14
 -1      3436 1.98069E+01 4.18535E-01 1.42095E-03-3.58386E-01-1.85604E-13 9.11919E-14
 -1      3437 1.99341E+01 2.84627E-01 7.53100E-04-2.73696E-01-9.74098E-14 9.33106E-14
 -1      3438 1.99402E+01 2.52524E-01-1.30381E-03-2.36565E-01-5.68821E-14 7.29008E-14
 -1      3439 1.98686E+01 3.37896E-01 1.06474E-03-2.76763E-01-7.28645E-14 2.49838E-14
 -1      3440 1.99613E+01 2.24222E-01 6.60214E-04-2.06085E-01-8.98410E-14 1.01704E-13
 -1      3441 1.99647E+01 1.97203E-01-1.02794E-03-1.76402E-01-2.88296E-16 9.57626E-14
 -1      3442 1.99138E+01 2.67924E-01 7.81831E-04-2.10160E-01-5.20775E-14-6.79101E-14
 -1      3443 1.99799E+01 1.73643E-01 5.66061E-04-1.52253E-01 4.77256E-14 5.73048E-14
 -1      3444 1.99816E+01 1.51402E-01-7.98605E-04-1.28921E-01 1.29943E-14 6.56183E-14
 -1      3445 1.99463E+01 2.08835E-01 5.62494E-04-1.56684E-01-3.91986E-14 4.48764E-14
 -1      3446 1.99922E+01 1.32194E-01 4.74704E-04-1.10104E-01-9.19253E-14 4.27152E-14
 -1      3447 1.99927E+01 1.14239E-01-6.10973E-04-9.20735E-02-1.62560E-13-1.93260E-14
 -1      3448 1.99690E+01 1.60039E-01 3.95801E-04-1.14454E-01-9.72646E-15 3.55982E-14
 -1      3449 2.00001E+01 9.88674E-02 3.89747E-04-7.76634E-02-1.94458E-13 4.38502E-14
 -1      3450 1.99998E+01 8.46274E-02-4.59836E-04-6.39709E-02-1.91886E-13 1.54242E-14
 -1      3451 1.99846E+01 1.20524E-01 2.71363E-04-8.16707E-02-1.27800E-13-1.79941E-14
 -1      3452 2.00047E+01 7.25367E-02 3.13615E-04-5.31343E-02-2.25016E-13-5.74323E-14
 -1      3453 2.00040E+01 6.14338E-02-3.39956E-04-4.29271E-02-1.81250E-13-5.41146E-14
 -1      3454 1.99949E+01 8.90933E-02 1.80073E-04-5.66652E-02-2.87862E-13 1.25035E-14
 -1      3455 2.00071E+01 5.20837E-02 2.47509E-04-3.49361E-02-6.12752E-14-4.46976E-14
 -1      3456 2.00063E+01 4.35727E-02-2.46326E-04-2.74793E-02-1.60133E-14 1.54311E-13
 -1      3457 2.00013E+01 6.45166E-02 1.14318E-04-3.79444E-02-7.18886E-14 1.34817E-13
 -1      3458 2.00081E+01 3.64654E-02 1.91642E-04-2.17142E-02-1.35786E-14 1.67220E-13
 -1      3459 2.00072E+01 3.00552E-02-1.74349E-04-1.63897E-02-5.06315E-14 9.56131E-14
 -1      3460 2.00051E+01 4.56238E-02 6.79267E-05-2.42090E-02-1.35406E-14 9.36209E-14
 -1      3461 2.00081E+01 2.47496E-02 1.45533E-04-1.23345E-02-8.03503E-14 1.79538E-13
 -1      3462 2.00072E+01 2.00121E-02-1.19931E-04-8.63381E-03 1.01891E-14 1.57190E-13
 -1      3463 2.00070E+01 3.13529E-02 3.60022E-05-1.43571E-02 5.89399E-15 1.76819E-13
 -1      3464 2.00076E+01 1.61293E-02 1.08281E-04-5.86773E-03-5.91688E-14 1.24576E-13
 -1      3465 2.00068E+01 1.27009E-02-7.95251E-05-3.38068E-03-6.09263E-14 6.96088E-14
 -1      3466 2.00076E+01 2.07732E-02 1.47249E-05-7.47551E-03-2.30183E-14 1.96683E-13
 -1      3467 2.00067E+01 9.92216E-03 7.87769E-05-1.56744E-03 7.93545E-14 1.67040E-13
 -1      3468 2.00060E+01 7.50065E-03-5.01283E-05 3.08002E-05 2.21911E-13 7.02663E-14
 -1      3469 2.00075E+01 1.30906E-02 1.15385E-06-2.82304E-03 4.77672E-14 4.57393E-13
 -1      3470 2.00058E+01 5.56358E-03 5.58548E-05 1.15506E-03 2.33592E-13-4.83827E-14
 -1      3471 2.00052E+01 3.90208E-03-2.92457E-05 2.11687E-03 2.22440E-13 4.89254E-14
 -1      3472 2.00069E+01 7.64233E-03-6.94765E-06 1.90289E-04 1.41549E-13 5.36483E-14
 -1      3473 2.00048E+01 2.59407E-03 3.83927E-05 2.75520E-03 2.55006E-13 1.53089E-13
 -1      3474 2.00043E+01 1.49414E-03-1.48366E-05 3.27298E-03 3.36098E-13 2.39262E-13
 -1      3475 2.00061E+01 3.88536E-03-1.12629E-05 2.02506E-03 3.36209E-13 6.44445E-14
 -1      3476 2.00038E+01 6.45283E-04 2.54073E-05 3.57852E-03 2.68202E-13 1.89694E-13
 -1      3477 2.00034E+01-5.06740E-05-5.27168E-06 3.79578E-03 9.79924E-14 2.57673E-13
 -1      3478 2.00051E+01 1.38182E-03-1.30370E-05 3.03396E-03 1.86089E-13 2.95940E-14
 -1      3479 2.00030E+01-5.74619E-04 1.59909E-05 3.88124E-03 3.03330E-15 1.87996E-13
 -1      3480 2.00026E+01-9.90235E-04 7.85221E-07 3.90227E-03 1.31251E-13 1.75508E-13
 -1      3481 2.00042E+01-2.16836E-04-1.31617E-05 3.48127E-03 5.35599E-14-1.29658E-13
 -1      3482 2.00022E+01-1.29403E-03 9.38498E-06 3.84875E-03 4.63337E-14 1.23375E-13
 -1      3483 2.00020E+01-1.52626E-03 4.06146E-06 3.74739E-03 2.08172E-14-3.94074E-14
 -1      3484 2.00033E+01-1.18428E-03-1.23304E-05 3.55991E-03 2.19685E-14-1.21424E-13
 -1      3485 2.00016E+01-1.69282E-03 5.25661E-06 3.61020E-03 3.39849E-14-1.72588E-14
 -1      3486 2.00014E+01-1.81509E-03 4.80888E-06 3.43456E-03-2.42822E-14 6.21498E-14
 -1      3487 2.00025E+01-1.73839E-03-1.19503E-05 3.40865E-03 7.76921E-14-2.01514E-13
 -1      3488 2.51278E+01-2.90968E+00 2.90495E-02 1.67962E-02 6.25888E-15-3.21281E-13
 -1      3489 2.56420E+01-2.29475E+00-7.18751E-03-6.04798E-01-3.44546E-14-3.13249E-13
 -1      3490 2.14973E+01-1.49475E+00 2.18583E-02 1.53485E+00-9.57186E-14-5.79144E-14
 -1      3491 2.19349E+01-1.87224E+00 2.88886E-03 1.37686E+00-1.06964E-13-9.64710E-14
 -1      3492 2.07610E+01-8.01809E-01 1.32704E-02 1.58495E+00-7.18425E-14-2.07680E-14
 -1      3493 2.10695E+01-1.13569E+00 2.73481E-03 1.54588E+00-5.57065E-14-1.67964E-14
 -1      3494 2.07875E+01-1.41511E+00-2.90283E-02 1.88970E+00-1.45585E-13-5.47127E-14
 -1      3495 2.03186E+01-2.83092E-01 6.84436E-03 1.49167E+00-4.31592E-14-4.89978E-15
 -1      3496 2.05215E+01-5.22027E-01 5.07063E-03 1.51658E+00-2.06304E-14-1.60134E-14
 -1      3497 2.01898E+01-6.73943E-01-1.73424E-02 1.76420E+00-5.01124E-14-7.95718E-15
 -1      3498 2.00753E+01 6.45695E-02 2.86708E-03 1.33839E+00-1.17241E-13-2.75261E-14
 -1      3499 2.02006E+01-9.00125E-02 4.73616E-03 1.39656E+00-1.23484E-13-9.91048E-14
 -1      3500 1.98731E+01-1.51861E-01-9.70750E-03 1.56523E+00-4.62659E-14-6.01765E-14
 -1      3501 1.99577E+01 2.70934E-01 4.96365E-04 1.16393E+00-3.24990E-16 4.85217E-14
 -1      3502 2.00315E+01 1.83441E-01 3.96627E-03 1.23698E+00-1.91284E-14-8.23868E-15
 -1      3503 1.97335E+01 1.81752E-01-4.91918E-03 1.34853E+00-1.21449E-13-1.83492E-13
 -1      3504 1.99126E+01 3.74045E-01-7.66168E-04 9.89262E-01-1.39409E-13 1.25318E-13
 -1      3505 1.99546E+01 3.34003E-01 3.09453E-03 1.06669E+00-5.19759E-14 6.86546E-14
 -1      3506 1.96966E+01 3.69080E-01-2.18965E-03 1.14065E+00-6.56060E-14-3.64874E-14
 -1      3507 1.99061E+01 4.07449E-01-1.37045E-03 8.24545E-01-1.27547E-14 7.45187E-14
 -1      3508 1.99298E+01 3.98664E-01 2.44831E-03 9.00129E-01-8.09096E-14 6.90110E-14
 -1      3509 1.97135E+01 4.54126E-01-6.55365E-04 9.50733E-01-6.79540E-14 4.37334E-14
 -1      3510 1.99177E+01 3.97302E-01-1.59058E-03 6.74987E-01 7.59920E-14 1.97653E-15
 -1      3511 1.99313E+01 4.07523E-01 1.99535E-03 7.45097E-01 2.83844E-14 5.40829E-14
 -1      3512 1.97546E+01 4.71974E-01 1.38814E-04 7.81456E-01 5.12609E-15-6.44658E-14
 -1      3513 1.99358E+01 3.62512E-01-1.59088E-03 5.43045E-01 1.48326E-13-2.91513E-14
 -1      3514 1.99443E+01 3.83056E-01 1.67211E-03 6.05698E-01 1.27237E-13 2.55811E-14
 -1      3515 1.98030E+01 4.48883E-01 4.92700E-04 6.33278E-01 9.76721E-14 1.98202E-14
 -1      3516 1.99545E+01 3.15994E-01-1.47053E-03 4.29457E-01 1.22470E-13 4.19790E-18
 -1      3517 1.99604E+01 3.41025E-01 1.42545E-03 4.83791E-01 1.50398E-13-4.30540E-14
 -1      3518 1.98498E+01 4.03444E-01 6.00539E-04 5.05704E-01 9.24345E-14-1.19429E-13
 -1      3519 1.99708E+01 2.66102E-01-1.29201E-03 3.33792E-01 3.57722E-14 6.98741E-14
 -1      3520 1.99754E+01 2.91908E-01 1.22114E-03 3.79723E-01 2.84865E-14 6.44578E-14
 -1      3521 1.98907E+01 3.48195E-01 5.79781E-04 3.97687E-01-5.08982E-15-9.05421E-14
 -1      3522 1.99838E+01 2.17901E-01-1.09385E-03 2.54842E-01 3.96444E-14 2.02210E-13
 -1      3523 1.99878E+01 2.42284E-01 1.04144E-03 2.92799E-01 1.02719E-13 1.94484E-13
 -1      3524 1.99242E+01 2.91174E-01 5.00292E-04 3.07759E-01-7.22566E-14-6.59376E-14
 -1      3525 1.99934E+01 1.74175E-01-8.99057E-04 1.90924E-01-1.07082E-13 2.44942E-13
 -1      3526 1.99970E+01 1.95974E-01 8.79004E-04 2.21647E-01-8.41457E-15 2.62927E-13
 -1      3527 1.99504E+01 2.37185E-01 4.01851E-04 2.34149E-01-1.37150E-14 2.33559E-13
 -1      3528 2.00000E+01 1.36200E-01-7.20456E-04 1.40121E-01 1.54427E-13-4.39135E-14
 -1      3529 2.00033E+01 1.54933E-01 7.31798E-04 1.64507E-01 4.65888E-14 1.00848E-13
 -1      3530 1.99700E+01 1.88801E-01 3.05461E-04 1.74908E-01 8.34825E-14 1.24288E-13
 -1      3531 2.00043E+01 1.04291E-01-5.64216E-04 1.00470E-01-6.42737E-16 2.26917E-14
 -1      3532 2.00072E+01 1.19901E-01 5.99938E-04 1.19462E-01 9.40645E-14 2.52901E-14
 -1      3533 1.99842E+01 1.47117E-01 2.20941E-04 1.28034E-01 1.10853E-13-4.85544E-14
 -1      3534 2.00067E+01 7.81931E-02-4.32265E-04 7.00840E-02-2.76611E-13-3.99318E-16
 -1      3535 2.00092E+01 9.08713E-02 4.83942E-04 8.45972E-02-1.53072E-13-7.22254E-14
 -1      3536 1.99939E+01 1.12294E-01 1.51731E-04 9.15748E-02-5.80999E-14 4.18580E-14
 -1      3537 2.00077E+01 5.73421E-02-3.23959E-04 4.72358E-02 2.74464E-14 7.03281E-14
 -1      3538 2.00100E+01 6.74087E-02 3.83943E-04 5.81110E-02-1.45662E-13 6.07061E-14
 -1      3539 2.00003E+01 8.39372E-02 9.78583E-05 6.37129E-02-1.97728E-13-3.47073E-14
 -1      3540 2.00079E+01 4.10362E-02-2.37216E-04 3.04008E-02 9.14462E-14 1.43096E-13
 -1      3541 2.00098E+01 4.88628E-02 2.99468E-04 3.83806E-02 1.84506E-13 2.28314E-13
 -1      3542 2.00042E+01 6.13630E-02 5.76967E-05 4.28123E-02 7.05236E-14-1.12517E-13
 -1      3543 2.00075E+01 2.85448E-02-1.69278E-04 1.82729E-02 4.17149E-14 3.55759E-14
 -1      3544 2.00091E+01 3.45061E-02 2.29496E-04 2.39927E-02 7.06353E-14 5.01506E-14
 -1      3545 2.00063E+01 4.37649E-02 2.89860E-05 2.74450E-02 1.90727E-13 1.52979E-13
 -1      3546 2.00068E+01 1.91724E-02-1.17192E-04 9.76101E-03-3.89787E-14-7.56790E-14
 -1      3547 2.00081E+01 2.36187E-02 1.72618E-04 1.37505E-02-2.38774E-14-4.68771E-14
 -1      3548 2.00072E+01 3.03227E-02 9.38621E-06 1.63971E-02 3.03444E-14 1.31226E-13
 -1      3549 2.00059E+01 1.22928E-02-7.81093E-05 3.97405E-03-2.51994E-13 9.64952E-14
 -1      3550 2.00069E+01 1.55356E-02 1.27217E-04 6.66455E-03-1.48260E-13-4.65747E-14
 -1      3551 2.00072E+01 2.02658E-02-3.24371E-06 8.65969E-03-1.15899E-13 1.68777E-13
 -1      3552 2.00050E+01 7.36376E-03-4.94458E-05 1.98913E-04-3.62714E-13 4.96132E-14
 -1      3553 2.00058E+01 9.67019E-03 9.16215E-05 1.93455E-03-3.57363E-13 8.72854E-14
 -1      3554 2.00067E+01 1.29057E-02-1.07289E-05 3.41193E-03-3.40607E-13 2.58902E-13
 -1      3555 2.00041E+01 3.92939E-03-2.89559E-05-2.12381E-03-6.99668E-14 4.15143E-15
 -1      3556 2.00047E+01 5.52250E-03 6.42165E-05-1.07405E-03-1.93564E-13 7.85471E-14
 -1      3557 2.00060E+01 7.64931E-03-1.45521E-05-1.01307E-06-2.46362E-13-1.07381E-13
 -1      3558 2.00032E+01 1.61535E-03-1.47541E-05-3.42431E-03-1.16744E-13-1.95929E-13
 -1      3559 2.00037E+01 2.67724E-03 4.35205E-05-2.85442E-03-1.27754E-14-9.30354E-14
 -1      3560 2.00052E+01 4.00024E-03-1.58745E-05-2.09161E-03-4.34672E-14-1.33711E-13
 -1      3561 2.00025E+01 1.19738E-04-5.30255E-06-4.02653E-03 2.08796E-14-3.14370E-13
 -1      3562 2.00028E+01 7.96581E-04 2.82237E-05-3.78219E-03-1.17294E-13-3.19312E-13
 -1      3563 2.00043E+01 1.55181E-03-1.55877E-05-3.25317E-03-8.41494E-16-2.55801E-13
 -1      3564 2.00018E+01-7.97456E-04 6.28428E-07-4.16841E-03-1.47826E-13-1.06809E-13
 -1      3565 2.00021E+01-3.89891E-04 1.72195E-05-4.13702E-03 2.74398E-14-2.97636E-13
 -1      3566 2.00034E+01-2.33175E-05-1.43636E-05-3.78125E-03-3.54533E-14-2.75026E-14
 -1      3567 2.00013E+01-1.32504E-03 3.93815E-06-4.01963E-03-1.54816E-13 8.99308E-14
 -1      3568 2.00015E+01-1.09612E-03 9.47696E-06-4.12155E-03-1.67853E-13-3.80489E-14
 -1      3569 2.00026E+01-9.84646E-04-1.25772E-05-3.89252E-03-1.67747E-13-4.12595E-14
 -1      3570 2.00009E+01-1.61043E-03 4.32700E-06-3.69608E-03-1.54791E-13 1.75334E-14
 -1      3571 2.00010E+01-1.49238E-03 2.87673E-06-3.87666E-03-1.14817E-13 5.87931E-14
 -1      3572 2.00019E+01-1.53430E-03-9.16058E-06-3.74148E-03-1.33385E-13-1.57868E-13
 -1      3573 2.62394E+01 2.85871E-01-1.19440E-01-2.12669E+00 9.79529E-14-1.54994E-13
 -1      3574 2.15111E+01-3.34650E+00 1.03560E-01-3.46112E+00 2.91940E-13 1.21625E-13
 -1      3575 1.90616E+01-1.16225E+00 6.72981E-02 3.28920E+00 1.95146E-13-1.41675E-13
 -1      3576 2.00028E+01-2.73117E-03-5.04269E-07 7.62070E-04 2.40308E-14-7.14319E-13
 -1      3577 2.00029E+01-2.75775E-03 3.10388E-06 2.75649E-04 1.16137E-13-6.96777E-13
 -1      3578 2.42112E+01-2.27083E+00 4.85383E-03-1.41815E-01-6.15664E-14 1.42197E-13
 -1      3579 2.37049E+01-2.06905E+00 6.33997E-02-5.45454E-01-5.61131E-14 1.23564E-13
 -1      3580 1.42008E+01-6.89052E-01-4.23528E-02 3.63391E+00-2.30191E-13 1.00323E-13
 -1      3581 1.27879E+01 2.76876E-01 7.21722E-02 2.44350E+00-2.18942E-13 1.64056E-13
 -1      3582 2.03576E+01-2.75572E+00 3.39022E-02-3.48922E+00 2.11456E-13 1.67300E-13
 -1      3583 1.19268E+01 2.17995E+00 6.98907E-02-1.25856E+00-9.49761E-15-4.27568E-13
 -1      3584 1.26894E+01 1.53426E+00-2.62143E-03-2.57072E+00-7.44483E-14-4.20261E-13
 -1      3585 1.59263E+01-2.73911E-01 2.51885E-02 3.60586E+00 2.04009E-13-2.81941E-13
 -1      3586 1.42704E+01 7.47975E-01 7.69849E-02 3.07232E+00 1.64970E-13-3.51108E-13
 -1      3587 2.43149E+01-2.54769E+00 2.61036E-02-3.10689E-02 3.27622E-14-1.99150E-13
 -1      3588 2.41624E+01-3.62352E+00-4.11597E-02 1.34874E+00-6.25715E-14-2.58626E-13
 -1      3589 2.30410E+01-3.29044E+00-6.21772E-03 1.86361E+00-5.85500E-14-1.95153E-13
 -1      3590 2.37227E+01-2.61974E+00 4.68999E-02 5.65389E-01 7.97734E-15-1.79979E-13
 -1      3591 1.44707E+01 3.37783E+00 1.61647E-03-2.85906E-02 1.62214E-14-3.49683E-13
 -1      3592 1.47476E+01 3.27034E+00 6.61894E-03 3.63257E-01 3.49525E-15-3.35684E-13
 -1      3593 1.47676E+01 2.81664E+00 3.71415E-02 8.25293E-01 2.72412E-14-3.45580E-13
 -1      3594 1.97449E+01-1.96362E+00 6.96980E-02-3.35389E+00 1.02281E-13 1.93876E-13
 -1      3595 1.18414E+01 6.79181E-01 7.05348E-03 1.08630E+00-1.46328E-13 2.38989E-13
 -1      3596 1.17615E+01 7.91974E-01 8.18329E-02-4.70530E-01-3.92687E-14 4.56878E-13
 -1      3597 1.42331E+01 9.07886E-01 7.17700E-02-3.24383E+00-1.23799E-13-3.65943E-13
 -1      3598 1.61085E+01-3.03824E-01-6.15600E-02-3.83957E+00-1.60379E-13-2.60493E-13
 -1      3599 1.93624E+01-1.20273E+00-2.83706E-03-2.86499E+00 9.10825E-14 2.32802E-13
 -1      3600 1.90267E+01-6.43102E-01 2.70389E-03-2.63319E+00 9.81149E-14 2.92287E-13
 -1      3601 1.81543E+01-2.89005E-01-1.84480E-02-2.59787E+00 1.24925E-13 3.48332E-13
 -1      3602 2.24843E+01-2.15790E+00 3.40917E-02 1.23042E+00-4.75392E-14-1.59979E-13
 -1      3603 2.30256E+01-2.43816E+00 9.16737E-03 8.77981E-01-5.09575E-15-1.54610E-13
 -1      3604 2.28161E+01-2.81003E+00-3.49685E-02 1.42929E+00-3.78794E-14-1.18355E-13
 -1      3605 2.16896E+01-2.20163E+00-3.94936E-02 1.80831E+00-8.39073E-14-1.15600E-13
 -1      3606 1.84299E+01-2.39659E+00-4.33978E-02 4.01512E+00-2.59153E-13 7.80626E-16
 -1      3607 1.63798E+01-1.31273E+00 9.78557E-02 4.04957E+00-3.18715E-13 5.91558E-14
 -1      3608 1.60165E+01-1.04181E+00 1.15332E-01-3.90829E+00 2.22614E-13 3.66481E-13
 -1      3609 1.74067E+01-1.65065E+00-2.27640E-02-3.83497E+00 1.79350E-13 1.46216E-13
 -1      3610 1.87439E+01 8.88797E-01-1.19043E-02-1.80553E+00 2.89261E-14-1.74369E-13
 -1      3611 2.18808E+01-2.11626E+00 2.07652E-02-2.22306E+00-1.44777E-13-1.16920E-15
 -1      3612 2.51142E+01-2.38214E+00 5.27136E-02 2.55605E-01-7.55646E-14 2.35225E-13
 -1      3613 1.78612E+01-3.10736E-01 3.36835E-02-3.21985E+00-1.22281E-13-1.95604E-13
 -1      3614 1.88578E+01 8.90009E-01 1.05670E-02 1.79801E+00 1.83278E-14-1.70971E-13
 -1      3615 1.87715E+01-1.38349E+00 1.04181E-02-3.19236E+00 7.59358E-14 2.20515E-13
 -1      3616 1.75284E+01-7.41251E-01 4.52851E-02-3.21826E+00 1.61603E-13 3.70432E-13
 -1      3617 2.00010E+01-1.85180E-03 3.75260E-06 3.35040E-03 6.69894E-14 8.93795E-14
 -1      3618 2.00008E+01-1.90128E-03 4.26850E-06 3.17154E-03 1.55966E-14-3.49549E-14
 -1      3619 2.00011E+01-2.04066E-03-4.12162E-06 3.03212E-03-1.15068E-13-3.72248E-14
 -1      3620 2.00017E+01-1.97758E-03-9.74709E-06 3.20850E-03 6.54225E-14 1.26467E-13
 -1      3621 2.78627E+01-5.14172E-01-7.99285E-02 2.31831E+00-1.27259E-14-1.64438E-13
 -1      3622 2.00002E+01-1.73278E-03 1.72203E-05-3.20978E-03-5.04773E-15 5.60786E-15
 -1      3623 1.60206E+01-6.71123E-01 4.77348E-02 3.33616E+00-2.41951E-13 4.39978E-14
 -1      3624 2.00007E+01-1.72185E-03-2.72690E-06-3.51102E-03-1.24271E-13 3.41467E-14
 -1      3625 2.00015E+01-1.84534E-03-8.90649E-07-3.42130E-03-1.10799E-13-2.58890E-13
 -1      3626 2.00008E+01-1.83377E-03-5.59555E-06-3.30976E-03-1.03881E-13-2.17915E-14
 -1      3627 2.01330E+01-2.69815E+00 8.11374E-02 3.64833E+00-1.62565E-13-1.13836E-13
 -1      3628 1.91107E+01-1.97115E+00 1.64795E-02 3.40775E+00-2.30135E-13 4.41747E-15
 -1      3629 2.14167E+01-3.04390E+00-2.01776E-02 2.84800E+00-9.99652E-14-2.36980E-13
 -1      3630 2.13257E+01-3.80950E-01-4.93454E-03-1.05852E+00 6.52514E-14-8.14300E-14
 -1      3631 2.06324E+01-1.62000E-01 1.45672E-02-1.43578E+00 3.42525E-14-1.05763E-13
 -1      3632 2.00029E+01-2.75670E-03 2.94945E-06-2.75137E-04-2.96606E-14-1.77994E-13
 -1      3633 2.00028E+01-2.72542E-03 6.01688E-07-7.67584E-04-1.33988E-14-9.94747E-16
 -1      3634 2.00033E+01-2.63461E-03-2.14039E-06-4.65930E-06-6.47414E-14-3.19486E-13
 -1      3635 2.00027E+01-2.66709E-03 6.74907E-06 1.28939E-03 6.27227E-15-5.81925E-13
 -1      3636 2.00032E+01-2.57859E-03-1.62507E-06 1.08449E-03-1.92424E-14-7.26809E-13
 -1      3637 2.00024E+01-2.59062E-03-7.28166E-06 1.73839E-03-1.42547E-13-5.85545E-13
 -1      3638 2.25938E+01-2.13089E+00-6.13417E-02-1.39986E+00-8.54343E-14 2.12521E-14
 -1      3639 2.29275E+01-1.70462E+00 6.38420E-03-7.23632E-01-3.05355E-14 4.86931E-14
 -1      3640 2.25149E+01-1.27388E+00 3.29057E-02-8.33044E-01 3.21292E-15 3.28036E-15
 -1      3641 2.12058E+01-1.46089E+00 4.67013E-02-2.21960E+00-8.55657E-14-3.81670E-14
 -1      3642 1.34194E+01 6.28940E-01 6.01833E-02 1.53422E+00-1.38159E-13 1.31464E-13
 -1      3643 1.68620E+01 1.12475E+00 4.21972E-02-2.56015E+00-5.38545E-14-2.57158E-13
 -1      3644 1.56244E+01 1.51278E+00-2.75249E-02-2.51873E+00-6.24839E-14-2.84698E-13
 -1      3645 1.28156E+01 6.40841E-01 4.29866E-02-1.20348E+00 1.52395E-15 3.90413E-13
 -1      3646 1.44622E+01 2.23263E+00 1.24795E-02-1.91875E+00-3.22823E-14-3.42009E-13
 -1      3647 1.37423E+01 2.60186E+00 2.64230E-02-1.38580E+00-1.34619E-14-3.67617E-13
 -1      3648 1.40239E+01 3.04046E+00-2.10349E-03-4.01567E-01 1.44437E-14-3.49094E-13
 -1      3649 1.40354E+01 1.51614E+00 5.54727E-02 2.12881E+00 1.06090E-13-3.47715E-13
 -1      3650 1.26757E+01 2.38489E+00 4.66062E-02-4.01858E-01 3.01807E-14-3.98463E-13
 -1      3651 2.00021E+01-2.45586E-03 7.08566E-06-2.19502E-03 6.33153E-14-5.67829E-14
 -1      3652 2.00017E+01-2.30593E-03-3.57737E-06-2.54798E-03-1.00931E-13-1.05672E-14
 -1      3653 1.44670E+01 1.62075E+00 6.08170E-02-2.48258E+00-8.04704E-14-3.42746E-13
 -1      3654 2.00019E+01-2.13106E-03-3.37931E-06-2.87862E-03-1.05753E-13-4.54168E-14
 -1      3655 2.00014E+01-2.12861E-03 8.88729E-06-2.90610E-03-2.07852E-13-1.67275E-13
 -1      3656 1.49205E+01-3.97817E-01 2.76000E-02-3.17142E+00 5.41182E-14 3.35010E-13
 -1      3657 1.54043E+01 1.55593E+00-1.30087E-02 2.17993E+00 8.97173E-14-2.93748E-13
 -1      3658 1.67174E+01 1.09060E+00 1.60957E-02 2.33683E+00 8.57372E-14-2.33597E-13
 -1      3659 1.33597E+01 2.70117E+00 2.69099E-02 6.43500E-01 5.01266E-14-3.57427E-13
 -1      3660 1.39920E+01 2.41226E+00 1.65521E-02 1.25133E+00 5.75924E-14-3.58208E-13
 -1      3661 2.00013E+01-2.15602E-03 6.01547E-06 2.85555E-03-6.55511E-14 3.61159E-14
 -1      3662 1.93811E+01-3.36400E-01 4.18093E-02 2.50374E+00 1.11753E-13-1.36789E-13
 -1      3663 1.68788E+01-3.64742E-01-9.16927E-03 3.46311E+00 1.79568E-13-2.27061E-13
 -1      3664 2.00018E+01-2.15015E-03 3.25946E-07 2.87124E-03-4.87984E-14-6.62247E-14
 -1      3665 2.00017E+01-2.31177E-03-7.14730E-06 2.57961E-03-6.47173E-14-1.31281E-13
 -1      3666 2.00021E+01-2.44714E-03 1.07144E-05 2.22587E-03-6.79856E-14-4.27219E-13
 -1      3667 2.00021E+01-2.09736E-03 8.62490E-06 2.91805E-03 8.47253E-14-1.69505E-13
 -1      3668 1.88827E+01 3.62331E-01 2.55813E-02 2.21187E+00 6.78433E-14-1.53728E-13
 -1      3669 1.76638E+01 4.90267E-01 1.53484E-02-1.94531E+00 7.44719E-14 2.91260E-13
 -1      3670 1.77357E+01 6.53107E-01-1.38613E-02-1.72463E+00-2.05881E-14 3.21675E-13
 -1      3671 2.65330E+01-1.40399E+00 3.70467E-02-1.40436E+00 1.78330E-15-3.42261E-13
 -1      3672 1.80571E+01 7.80034E-01 6.75636E-03-1.52077E+00-4.99903E-14 3.67502E-13
 -1      3673 1.81821E+01 8.49983E-01-1.04129E-02-1.35699E+00-8.84929E-14 3.51633E-13
 -1      3674 1.74311E+01 9.00534E-01 1.13291E-02-1.43250E+00 2.52684E-15 2.03419E-13
 -1      3675 1.84427E+01 8.97729E-01 2.90759E-03-1.21769E+00-7.32990E-14 4.08608E-13
 -1      3676 1.85687E+01 9.10793E-01-7.65384E-03-1.09375E+00-4.75597E-14 3.78397E-13
 -1      3677 1.79833E+01 1.00696E+00 8.91076E-03-1.11824E+00-5.04429E-14 2.55041E-13
 -1      3678 1.87783E+01 9.10115E-01 1.18586E-03-9.90740E-01-5.34616E-14 3.31950E-13
 -1      3679 1.88916E+01 8.88318E-01-5.74060E-03-8.91949E-01-1.89676E-15 3.26906E-13
 -1      3680 1.84313E+01 1.01268E+00 7.23267E-03-8.98785E-01-3.12678E-14 3.04284E-13
 -1      3681 1.90593E+01 8.59246E-01 4.14058E-04-8.11076E-01 3.70506E-14 3.06435E-13
 -1      3682 1.91548E+01 8.17995E-01-4.44474E-03-7.29027E-01 9.68072E-14 2.21248E-13
 -1      3683 1.87923E+01 9.56227E-01 5.84129E-03-7.33203E-01 3.04737E-14 3.89156E-13
 -1      3684 1.92881E+01 7.74077E-01 1.28349E-04-6.62671E-01 1.06185E-13 1.42075E-13
 -1      3685 1.93654E+01 7.23771E-01-3.53472E-03-5.92976E-01 7.96094E-14 9.49091E-14
 -1      3686 1.90810E+01 8.64798E-01 4.66609E-03-6.00470E-01 3.74773E-14 2.66090E-13
 -1      3687 1.94706E+01 6.73872E-01 8.15606E-05-5.37215E-01 6.57764E-14-3.91073E-14
 -1      3688 1.95312E+01 6.21258E-01-2.85805E-03-4.77683E-01-7.02171E-14-1.10448E-14
 -1      3689 1.93097E+01 7.57108E-01 3.70507E-03-4.89590E-01-5.43248E-14 1.50364E-14
 -1      3690 1.96135E+01 5.71007E-01 1.23696E-04-4.30545E-01-7.39027E-14 3.95688E-14
 -1      3691 1.96599E+01 5.20301E-01-2.32395E-03-3.79973E-01-1.03248E-13 1.20939E-13
 -1      3692 1.94892E+01 6.45609E-01 2.92031E-03-3.95317E-01-3.87550E-14 1.07034E-14
 -1      3693 1.97235E+01 4.73059E-01 1.83125E-04-3.40329E-01-9.31177E-14 1.53275E-13
 -1      3694 1.97582E+01 4.26680E-01-1.88594E-03-2.97873E-01-6.21277E-14 2.68116E-13
 -1      3695 1.96283E+01 5.38354E-01 2.27954E-03-3.15082E-01-3.97465E-14 1.25045E-13
 -1      3696 1.98068E+01 3.84251E-01 2.29360E-04-2.64912E-01-2.01438E-13 2.70740E-13
 -1      3697 1.98322E+01 3.43383E-01-1.51968E-03-2.29798E-01-1.58847E-13 1.68481E-13
 -1      3698 1.97348E+01 4.40127E-01 1.76025E-03-2.47381E-01-1.03577E-13 2.16155E-13
 -1      3699 1.98688E+01 3.06530E-01 2.53227E-04-2.02796E-01-8.87555E-14 4.24144E-14
 -1      3700 1.98871E+01 2.71542E-01-1.21185E-03-1.74226E-01-6.38094E-14 3.19756E-14
 -1      3701 1.98152E+01 3.53353E-01 1.34304E-03-1.91042E-01-1.53173E-13 2.32204E-13
 -1      3702 1.99143E+01 2.40369E-01 2.56014E-04-1.52466E-01-1.53448E-14 2.49543E-14
 -1      3703 1.99271E+01 2.11117E-01-9.54256E-04-1.29610E-01 2.96850E-14 1.28634E-13
 -1      3704 1.98751E+01 2.78844E-01 1.01122E-03-1.44918E-01 9.96885E-15 1.70648E-13
 -1      3705 1.99469E+01 1.85326E-01 2.42916E-04-1.12373E-01 1.34543E-14 1.30966E-13
 -1      3706 1.99556E+01 1.61367E-01-7.40858E-04-9.44005E-02 6.52808E-16 9.39102E-14
 -1      3707 1.99188E+01 2.16363E-01 7.50248E-04-1.07810E-01 2.50028E-14 1.78325E-13
 -1      3708 1.99698E+01 1.40443E-01 2.19724E-04-8.09865E-02-9.26841E-14 8.67204E-14
 -1      3709 1.99755E+01 1.21181E-01-5.66360E-04-6.70986E-02-1.11972E-13 1.44736E-13
 -1      3710 1.99502E+01 1.65040E-01 5.47458E-04-7.84827E-02-5.24325E-14 1.58309E-13
 -1      3711 1.99854E+01 1.04507E-01 1.91405E-04-5.68491E-02-2.33739E-13 1.34556E-13
 -1      3712 1.99890E+01 8.92909E-02-4.25730E-04-4.63104E-02-3.66882E-13 1.42160E-13
 -1      3713 1.99722E+01 1.23665E-01 3.91873E-04-5.57233E-02-1.88704E-13 1.67199E-13
 -1      3714 1.99956E+01 7.62317E-02 1.61667E-04-3.86283E-02-2.37230E-13 2.04669E-13
 -1      3715 1.99977E+01 6.44151E-02-3.14120E-04-3.07831E-02 2.57765E-14 2.94623E-13
 -1      3716 1.99871E+01 9.08930E-02 2.74129E-04-3.83885E-02-1.88820E-13 2.87470E-13
 -1      3717 2.00021E+01 5.43605E-02 1.32996E-04-2.51439E-02-2.20515E-14 8.97906E-14
 -1      3718 2.00031E+01 4.53417E-02-2.26941E-04-1.94248E-02-1.12744E-13 5.47870E-14
 -1      3719 1.99969E+01 6.53781E-02 1.86349E-04-2.54430E-02-2.00871E-13 2.46096E-13
 -1      3720 2.00057E+01 3.77357E-02 1.06872E-04-1.53805E-02 4.71935E-14 4.25612E-14
 -1      3721 2.00061E+01 3.09760E-02-1.59965E-04-1.13092E-02 1.29926E-13 1.38286E-13
 -1      3722 2.00029E+01 4.58547E-02 1.22000E-04-1.59797E-02-2.34874E-14 4.11565E-14
 -1      3723 2.00076E+01 2.53291E-02 8.40275E-05-8.48645E-03 5.65164E-14 1.51929E-13
 -1      3724 2.00075E+01 2.03612E-02-1.09408E-04-5.66849E-03-3.91720E-14 1.95824E-13
 -1      3725 2.00063E+01 3.11833E-02 7.57363E-05-9.22579E-03 8.06304E-14 9.67111E-14
 -1      3726 2.00081E+01 1.62545E-02 6.46826E-05-3.76316E-03-3.36225E-15 2.35492E-13
 -1      3727 2.00078E+01 1.26829E-02-7.19672E-05-1.88033E-03 7.60117E-14 2.38850E-13
 -1      3728 2.00079E+01 2.03704E-02 4.32401E-05-4.53983E-03 4.57825E-14 1.71716E-13
 -1      3729 2.00079E+01 9.76581E-03 4.87300E-05-6.49602E-04 1.28100E-13 1.27575E-13
 -1      3730 2.00074E+01 7.26287E-03-4.48343E-05 5.49999E-04 2.19411E-13 1.45703E-13
 -1      3731 2.00083E+01 1.25722E-02 2.10653E-05-1.40087E-03 5.22165E-14 2.07155E-13
 -1      3732 2.00072E+01 5.24763E-03 3.58723E-05 1.29599E-03 2.93256E-13 1.56480E-13
 -1      3733 2.00067E+01 3.54662E-03-2.56661E-05 2.00786E-03 3.16597E-13 1.69479E-13
 -1      3734 2.00080E+01 7.08681E-03 6.49333E-06 6.05225E-04 3.00046E-13 2.57375E-13
 -1      3735 2.00063E+01 2.20078E-03 2.57213E-05 2.41474E-03 2.46679E-13-4.94645E-15
 -1      3736 2.00058E+01 1.08783E-03-1.25174E-05 2.78758E-03 1.27007E-13-3.60624E-14
 -1      3737 2.00072E+01 3.34160E-03-2.59478E-06 1.80105E-03 1.67994E-13 9.16281E-14
 -1      3738 2.00053E+01 2.26120E-04 1.80333E-05 2.96469E-03 6.80773E-14-7.27100E-14
 -1      3739 2.00048E+01-4.68568E-04-3.86598E-06 3.10907E-03 6.08572E-14-1.80729E-14
 -1      3740 2.00062E+01 8.75720E-04-7.83158E-06 2.43302E-03 1.62543E-13 5.44703E-14
 -1      3741 2.00042E+01-9.92522E-04 1.22330E-05 3.13566E-03-2.27405E-14-4.64062E-15
 -1      3742 2.00038E+01-1.40103E-03 1.46977E-06 3.13132E-03 2.56595E-14-1.22736E-13
 -1      3743 2.00052E+01-6.76614E-04-1.02497E-05 2.68461E-03 1.71084E-14 7.61694E-15
 -1      3744 2.00033E+01-1.69459E-03 9.11531E-06 3.06504E-03 1.06107E-13-2.40446E-13
 -1      3745 2.00029E+01-1.93215E-03 1.80867E-06 2.97676E-03 1.61224E-13-2.32428E-13
 -1      3746 2.00041E+01-1.59993E-03-1.09901E-05 2.68762E-03 3.77747E-14-7.85037E-14
 -1      3747 2.00316E+01-1.02804E+00 1.52950E-02 2.16272E+00-1.29825E-13-1.26260E-14
 -1      3748 2.04235E+01-1.47776E+00 8.43983E-03 2.23271E+00-1.50518E-13-9.87491E-16
 -1      3749 1.93922E+01 3.62491E-01-1.70444E-03 1.29561E+00-7.91725E-14-1.81760E-13
 -1      3750 1.94409E+01 2.51256E-01 6.98610E-03 1.40648E+00-7.86392E-14-1.18561E-13
 -1      3751 1.94388E+01 4.98258E-01-2.40932E-03 1.06645E+00-1.58989E-13-4.31548E-14
 -1      3752 1.94474E+01 4.45876E-01 4.54168E-03 1.16658E+00-1.24114E-13-1.37678E-13
 -1      3753 1.91290E+01 4.99155E-01-9.01623E-04 1.21795E+00-1.21279E-13-9.41463E-14
 -1      3754 1.95179E+01 5.45666E-01-2.56060E-03 8.71141E-01-4.20873E-14-5.86749E-14
 -1      3755 1.95063E+01 5.32546E-01 3.01981E-03 9.59831E-01-8.13879E-14-5.70924E-14
 -1      3756 1.92496E+01 6.00078E-01 5.64181E-04 9.82168E-01-1.05573E-13-1.62151E-13
 -1      3757 1.96059E+01 5.36708E-01-2.46377E-03 7.05172E-01-2.57766E-14 3.51680E-15
 -1      3758 1.95860E+01 5.48053E-01 2.06515E-03 7.82753E-01-2.41494E-14-3.49362E-14
 -1      3759 1.93805E+01 6.21173E-01 1.23220E-03 7.89944E-01-6.65438E-14-6.43886E-14
 -1      3760 1.96902E+01 4.94684E-01-2.25249E-03 5.64694E-01 8.57160E-14 1.06146E-14
 -1      3761 1.96686E+01 5.19894E-01 1.48187E-03 6.31724E-01 5.03118E-14 1.97545E-14
 -1      3762 1.95056E+01 5.92772E-01 1.45434E-03 6.31893E-01-2.42193E-14-1.33477E-14
 -1      3763 1.97646E+01 4.35855E-01-1.98651E-03 4.46659E-01 3.69720E-14 2.52453E-14
 -1      3764 1.97447E+01 4.67617E-01 1.12267E-03 5.03777E-01 1.27288E-13 8.24838E-14
 -1      3765 1.96169E+01 5.36415E-01 1.44575E-03 5.01390E-01 5.97983E-14-5.09942E-15
 -1      3766 1.98269E+01 3.71098E-01-1.70432E-03 3.48509E-01-7.60652E-14-8.32231E-14
 -1      3767 1.98101E+01 4.04585E-01 8.91251E-04 3.96450E-01-2.26902E-14-2.55416E-14
 -1      3768 1.97112E+01 4.66922E-01 1.31369E-03 3.93750E-01 3.20725E-14 1.26856E-13
 -1      3769 1.98770E+01 3.07289E-01-1.42845E-03 2.67904E-01-7.97310E-14-3.88911E-14
 -1      3770 1.98637E+01 3.39508E-01 7.30683E-04 3.07508E-01-9.44580E-14-9.40208E-14
 -1      3771 1.97884E+01 3.94172E-01 1.12750E-03 3.05474E-01-4.64076E-14-4.61655E-14
 -1      3772 1.99161E+01 2.48430E-01-1.17215E-03 2.02620E-01-4.11813E-14 4.42050E-14
 -1      3773 1.99060E+01 2.77694E-01 6.09089E-04 2.34808E-01-4.99353E-14 2.54290E-15
 -1      3774 1.98496E+01 3.24331E-01 9.28277E-04 2.33727E-01-8.05719E-14-1.56992E-13
 -1      3775 1.99455E+01 1.96547E-01-9.42883E-04 1.50522E-01 1.24225E-13 7.90835E-14
 -1      3776 1.99383E+01 2.22058E-01 5.09851E-04 1.76254E-01 1.07269E-14 1.61638E-13
 -1      3777 1.98969E+01 2.60905E-01 7.39003E-04 1.76075E-01-5.59221E-14-9.01374E-14
 -1      3778 1.99671E+01 1.52352E-01-7.44013E-04 1.09585E-01-1.07614E-14 1.49457E-13
 -1      3779 1.99621E+01 1.73896E-01 4.24993E-04 1.29816E-01 1.17488E-13 1.75705E-13
 -1      3780 1.99324E+01 2.05564E-01 5.71213E-04 1.30347E-01 7.48041E-14 1.72565E-13
 -1      3781 1.99824E+01 1.15737E-01-5.76009E-04 7.79327E-02-9.76650E-14 2.05474E-13
 -1      3782 1.99792E+01 1.33460E-01 3.50977E-04 9.35692E-02-3.47955E-14 2.26252E-13
 -1      3783 1.99585E+01 1.58763E-01 4.29363E-04 9.45892E-02-6.93677E-14 4.32004E-13
 -1      3784 1.99929E+01 8.61143E-02-4.37372E-04 5.38724E-02-6.04730E-14 1.41469E-14
 -1      3785 1.99910E+01 1.00363E-01 2.86324E-04 6.57456E-02-6.44739E-14 1.68561E-13
 -1      3786 1.99770E+01 1.20199E-01 3.13727E-04 6.70508E-02 2.46347E-14 2.19850E-13
 -1      3787 1.99997E+01 6.26587E-02-3.25393E-04 3.59129E-02 1.61032E-13-1.44484E-13
 -1      3788 1.99987E+01 7.38771E-02 2.30347E-04 4.47601E-02 4.41091E-15-1.19389E-13
 -1      3789 1.99897E+01 8.91353E-02 2.22283E-04 4.61870E-02 1.19849E-13 7.14683E-14
 -1      3790 2.00038E+01 4.44594E-02-2.36753E-04 2.27727E-02 2.62290E-14 1.45930E-13
 -1      3791 2.00035E+01 5.31161E-02 1.82552E-04 2.92304E-02 8.98726E-14 4.70596E-14
 -1      3792 1.99981E+01 6.46294E-02 1.51921E-04 3.06593E-02-4.82598E-14 9.53579E-15
 -1      3793 2.00061E+01 3.06189E-02-1.67947E-04 1.33742E-02 1.93243E-14 2.81295E-13
 -1      3794 2.00062E+01 3.71659E-02 1.42393E-04 1.79787E-02 7.51568E-14 2.79318E-13
 -1      3795 2.00032E+01 4.56784E-02 9.91932E-05 1.93295E-02-2.28105E-14 2.80162E-13
 -1      3796 2.00070E+01 2.03085E-02-1.15576E-04 6.82973E-03-1.63227E-13 3.42736E-13
 -1      3797 2.00074E+01 2.51572E-02 1.09208E-04 1.00230E-02-4.14969E-14 3.29449E-13
 -1      3798 2.00061E+01 3.13117E-02 6.07398E-05 1.12481E-02-5.29828E-14 4.11202E-13
 -1      3799 2.00071E+01 1.27967E-02-7.65252E-05 2.42182E-03-3.33849E-13 2.60536E-13
 -1      3800 2.00076E+01 1.63067E-02 8.22441E-05 4.56078E-03-2.36373E-13 3.32747E-13
 -1      3801 2.00075E+01 2.06434E-02 3.35257E-05 5.63728E-03-1.81669E-13 4.32362E-13
 -1      3802 2.00067E+01 7.45830E-03-4.80510E-05-4.18615E-04-5.57889E-14-8.70531E-14
 -1      3803 2.00072E+01 9.93431E-03 6.07022E-05 9.48874E-04-1.89460E-13 1.19002E-13
 -1      3804 2.00078E+01 1.28969E-02 1.49384E-05 1.87133E-03-1.29408E-13 1.58150E-13
 -1      3805 2.00060E+01 3.77320E-03-2.78095E-05-2.13470E-03 1.15438E-14-2.28774E-13
 -1      3806 2.00065E+01 5.46729E-03 4.37867E-05-1.31888E-03-2.89968E-14-1.97190E-13
 -1      3807 2.00074E+01 7.41212E-03 2.81035E-06-5.44406E-04 8.71994E-14-4.06064E-14
 -1      3808 2.00051E+01 1.31727E-03-1.38590E-05-3.06495E-03 3.39194E-14-2.21750E-13
 -1      3809 2.00056E+01 2.43386E-03 3.07439E-05-2.63332E-03 5.28101E-14-2.16943E-13
 -1      3810 2.00067E+01 3.64193E-03-4.60155E-06-1.99394E-03 5.25628E-14-1.01820E-13
 -1      3811 2.00042E+01-2.49761E-04-4.67619E-06-3.46268E-03-1.20495E-13-2.21783E-14
 -1      3812 2.00046E+01 4.52761E-04 2.08754E-05-3.29041E-03-8.93369E-15-7.23657E-14
 -1      3813 2.00057E+01 1.14158E-03-8.69324E-06-2.76992E-03-6.31857E-14-1.65658E-13
 -1      3814 2.00033E+01-1.19673E-03 1.24004E-06-3.51205E-03-2.03576E-13 2.81651E-14
 -1      3815 2.00037E+01-7.80093E-04 1.35532E-05-3.50879E-03-1.58686E-13 3.37731E-14
 -1      3816 2.00047E+01-4.45402E-04-1.05462E-05-3.09069E-03-2.41429E-13 6.28838E-14
 -1      3817 2.00025E+01-1.73235E-03 4.51816E-06-3.34332E-03-3.34961E-16 5.59548E-14
 -1      3818 2.00028E+01-1.50636E-03 6.75378E-06-3.44653E-03-4.50601E-14 1.33474E-13
 -1      3819 2.00037E+01-1.39732E-03-1.03758E-05-3.11503E-03-1.71517E-13 1.26343E-13
 -1      3820 2.18432E+01-5.56883E-01 1.26823E-02-7.91665E-01 6.14023E-14-2.44067E-14
 -1      3821 2.00021E+01-2.01986E-03 2.89147E-06-3.01961E-03-1.96898E-14-6.17573E-14
 -1      3822 2.00022E+01-1.88090E-03-3.07098E-07-3.20982E-03-1.41840E-14 3.24663E-14
 -1      3823 2.00030E+01-1.90784E-03-7.31066E-06-2.94230E-03 1.20886E-13 5.13450E-13
 -1      3824 2.00025E+01-2.18413E-03-1.88802E-06-2.67282E-03 5.90699E-14 4.34092E-13
 -1      3825 1.42688E+01 4.71829E-01-2.33973E-02 2.03289E+00-1.66427E-13 4.78402E-14
 -1      3826 1.36835E+01 9.26331E-01 1.61328E-02 7.75759E-01-1.30130E-13 1.42168E-13
 -1      3827 1.62255E+01-3.36629E-01-2.72952E-02-2.97937E+00 1.14767E-13 2.59810E-13
 -1      3828 1.71405E+01-1.96060E-01 2.26983E-02-2.73988E+00 1.49005E-13 2.48059E-13
 -1      3829 1.87000E+01-6.95240E-02-1.95554E-02-2.58436E+00-7.45701E-14-1.55686E-13
 -1      3830 1.34967E+01 8.79302E-01-4.07128E-03-6.85156E-01 6.81920E-15 3.36349E-13
 -1      3831 1.37752E+01 5.50333E-01 3.41974E-02-1.99752E+00 3.62418E-14 3.15480E-13
 -1      3832 1.47389E+01 2.47136E-01 4.36617E-02-2.53232E+00 1.42937E-14 1.95427E-13
 -1      3833 1.33973E+01 2.69117E+00-1.23706E-02-6.40957E-01 1.24570E-14-3.71158E-13
 -1      3834 2.25010E+01-3.00981E+00 2.48139E-02 2.09447E+00-5.60611E-14-2.15245E-13
 -1      3835 1.98834E+01-4.12663E-01 1.27012E-02-2.24167E+00-3.49706E-14-9.53495E-14
 -1      3836 2.00027E+01-2.66568E-03 5.20687E-06-1.29337E-03 4.59726E-14-1.39443E-13
 -1      3837 2.00024E+01-2.57403E-03-1.85442E-06-1.73889E-03 1.13813E-13-3.25510E-13
 -1      3838 2.00026E+01-2.41156E-03-1.69244E-06-2.07188E-03 9.65939E-14-9.70279E-14
 -1      3839 2.00032E+01-2.57742E-03-1.82227E-06-1.08616E-03-6.44289E-14-1.06854E-13
 -1      3840 2.00008E+01-1.90938E-03-4.16641E-06-3.15254E-03-1.02216E-13-1.19165E-13
 -1      3841 1.71619E+01 1.86093E-01-2.42434E-03-2.37076E+00 1.17401E-13 2.58978E-13
 -1      3842 1.70152E+01-8.42418E-01-5.00766E-02 3.16928E+00-3.07884E-13-4.27540E-14
 -1      3843 1.55877E+01 5.62108E-02 6.13050E-02 2.72739E+00-1.73289E-13-6.68562E-14
 -1      3844 1.94194E+01 9.66704E-02 2.13523E-04 1.56313E+00-1.48454E-14-7.81757E-14
 -1      3845 1.95409E+01-1.00103E-01 1.00193E-02 1.68070E+00 4.23806E-14 2.88539E-14
 -1      3846 1.90487E+01 2.77944E-01-3.65088E-03 1.50957E+00 1.62736E-14 8.37416E-15
 -1      3847 1.95948E+01-3.49643E-01 5.14455E-03 1.86499E+00-5.94473E-14 8.65481E-15
 -1      3848 1.98364E+01-6.56562E-01 1.53716E-02 1.97947E+00-1.22404E-13 7.13253E-15
 -1      3849 1.92833E+01-8.09398E-01-3.42616E-02 2.30920E+00-9.25872E-14 4.80306E-14
 -1      3850 2.00033E+01-2.38859E-03-1.49663E-06-1.73327E-03 2.15362E-14-3.29987E-13
 -1      3851 2.00030E+01-2.28287E-03 2.43760E-06-2.19093E-03 2.21596E-14-4.69127E-14
 -1      3852 2.00032E+01-2.14896E-03 1.23346E-06-2.32811E-03 6.34198E-14 8.40901E-14
 -1      3853 1.66257E+01 5.46153E-01 2.26063E-02 2.86214E+00 1.11194E-13-2.36141E-13
 -1      3854 2.00039E+01-2.47581E-03-1.04614E-06 2.66964E-04-1.47748E-13-4.25494E-13
 -1      3855 2.00039E+01-2.47102E-03 6.64319E-07-2.80636E-04-2.20342E-13-1.41502E-13
 -1      3856 2.22005E+01-1.00862E+00 1.32285E-02-8.22192E-01 3.34611E-14-2.52955E-14
 -1      3857 1.56098E+01 4.22018E-01 2.51920E-02 2.03053E+00-1.82936E-13-3.08390E-14
 -1      3858 2.13604E+01-2.47430E+00-2.29154E-03 2.38787E+00-1.17220E-13-1.54510E-13
 -1      3859 2.00038E+01-2.45568E-03 2.82074E-06 8.63456E-04-6.20199E-14-7.48146E-13
 -1      3860 2.00043E+01-2.27250E-03 2.32918E-06 5.82749E-04-1.55785E-13-5.44594E-13
 -1      3861 2.00036E+01-2.41206E-03-4.56070E-06 1.38628E-03-3.72054E-14-6.53097E-13
 -1      3862 1.40224E+01 1.08608E+00 3.95396E-02 2.37339E-02-2.48627E-14 2.22540E-13
 -1      3863 1.46310E+01 1.00661E+00-5.45236E-03-7.50923E-01 8.79217E-14 2.59560E-13
 -1      3864 1.48050E+01 1.03816E+00 1.53736E-02 5.10015E-01-5.84801E-14 3.67039E-14
 -1      3865 1.52287E+01 5.21791E-01 6.39548E-03-1.97631E+00 1.70072E-14 2.86683E-13
 -1      3866 1.98262E+01-1.78726E+00-4.05264E-02 2.79903E+00-1.87406E-13-8.87927E-14
 -1      3867 1.87854E+01-1.23677E+00 5.41559E-02 3.04528E+00-2.71462E-13 7.69153E-14
 -1      3868 2.00026E+01-2.41639E-03 3.29314E-07 2.11741E-03-5.02357E-14-3.96252E-13
 -1      3869 2.09048E+01-2.04593E+00 2.54934E-02 2.42937E+00-1.58693E-13-1.12699E-13
 -1      3870 2.00028E+01-2.13551E-03-8.84009E-06 2.61175E-03 6.81275E-14-2.26688E-13
 -1      3871 1.81745E+01-6.51344E-01 1.52224E-02 2.66810E+00-1.87429E-13 3.19482E-14
 -1      3872 1.66158E+01 5.56776E-01 1.30869E-02-2.01054E+00 1.02703E-13 1.47957E-13
 -1      3873 1.90591E+01-1.20299E-01-1.01989E-02 1.87187E+00-3.51351E-14-6.63063E-14
 -1      3874 2.59380E+01-7.67940E-01-1.11471E-01-1.92227E+00-8.43076E-16-2.39820E-13
 -1      3875 2.08148E+01-1.18279E+00-1.28679E-03-2.16157E+00-5.40097E-14-4.53864E-14
 -1      3876 1.92496E+01 6.85869E-01-3.68082E-03 6.72872E-01-1.13730E-13-6.03366E-14
 -1      3877 1.91888E+01 7.00931E-01 1.92048E-03 7.55820E-01-3.38256E-14-6.24868E-14
 -1      3878 1.68682E+01 9.94674E-01 9.02328E-04-1.18316E+00 1.51108E-14 2.20685E-13
 -1      3879 1.71731E+01 1.04525E+00-1.53992E-02-1.01516E+00-3.25479E-14 2.59003E-13
 -1      3880 1.75723E+01 1.07900E+00-1.14413E-03-9.16489E-01-3.44317E-14 1.94844E-13
 -1      3881 1.78183E+01 1.08429E+00-1.06527E-02-8.06219E-01-2.19252E-14 2.44811E-13
 -1      3882 1.71369E+01 1.18112E+00 1.30454E-02-6.67309E-01-6.92662E-14 2.76781E-13
 -1      3883 1.81190E+01 1.07742E+00-1.75123E-03-7.36843E-01-6.11325E-14 1.81726E-13
 -1      3884 1.83199E+01 1.05142E+00-7.22515E-03-6.57003E-01-4.62362E-14 1.97160E-13
 -1      3885 1.78000E+01 1.16861E+00 1.09443E-02-5.43430E-01-4.61160E-14 1.19152E-13
 -1      3886 1.85508E+01 1.01797E+00-1.76248E-03-6.05702E-01 3.24794E-14 2.33858E-13
 -1      3887 1.87127E+01 9.73145E-01-5.17604E-03-5.42939E-01 9.01393E-14 2.10157E-13
 -1      3888 1.83101E+01 1.10082E+00 8.54785E-03-4.52638E-01 3.91851E-14 1.67080E-13
 -1      3889 1.88926E+01 9.24603E-01-1.52306E-03-5.01360E-01-8.99552E-15 1.49352E-13
 -1      3890 1.90215E+01 8.69853E-01-3.89545E-03-4.49050E-01-9.56496E-14 5.50895E-14
 -1      3891 1.87056E+01 1.00206E+00 6.44503E-03-3.81331E-01-1.05442E-14-2.77235E-14
 -1      3892 1.91626E+01 8.14147E-01-1.21327E-03-4.13551E-01-7.70310E-14 7.92795E-14
 -1      3893 1.92642E+01 7.55777E-01-3.05064E-03-3.68652E-01-9.06932E-14 2.93134E-14
 -1      3894 1.90160E+01 8.86731E-01 4.95863E-03-3.20360E-01-9.55937E-14-2.08149E-14
 -1      3895 1.93749E+01 6.98570E-01-9.11190E-04-3.37829E-01-6.48230E-14 4.08220E-15
 -1      3896 1.94540E+01 6.41067E-01-2.44239E-03-2.99024E-01-8.28583E-14 1.29238E-14
 -1      3897 1.92599E+01 7.65504E-01 3.86821E-03-2.66255E-01-7.04407E-14 2.83616E-14
 -1      3898 1.95404E+01 5.86163E-01-6.48234E-04-2.72287E-01-9.63246E-14 1.00517E-13
 -1      3899 1.96012E+01 5.32435E-01-1.97470E-03-2.38965E-01-2.07552E-14 9.61982E-14
 -1      3900 1.94507E+01 6.46483E-01 3.02282E-03-2.18044E-01-4.69379E-14-3.68235E-14
 -1      3901 1.96681E+01 4.82137E-01-4.35466E-04-2.16044E-01-7.10137E-14-7.65772E-14
 -1      3902 1.97142E+01 4.33850E-01-1.59709E-03-1.87822E-01-1.22775E-13 4.00033E-14
 -1      3903 1.95989E+01 5.35212E-01 2.35614E-03-1.75507E-01-1.09824E-13-5.91455E-14
 -1      3904 1.97654E+01 3.89358E-01-2.74174E-04-1.68512E-01-9.17629E-14-3.27452E-15
 -1      3905 1.97998E+01 3.47272E-01-1.28360E-03-1.45012E-01-4.75813E-14 9.51501E-14
 -1      3906 1.97126E+01 4.34985E-01 1.82415E-03-1.38673E-01-6.70498E-14-1.49751E-13
 -1      3907 1.98385E+01 3.09007E-01-1.57916E-04-1.29059E-01 2.01624E-15 1.11031E-13
 -1      3908 1.98637E+01 2.73247E-01-1.02084E-03-1.09847E-01 5.41696E-14 1.39070E-13
 -1      3909 1.97989E+01 3.47383E-01 1.39839E-03-1.07466E-01-2.79912E-14-5.04651E-14
 -1      3910 1.98925E+01 2.41107E-01-7.79518E-05-9.69294E-02 8.06292E-14 1.00391E-13
 -1      3911 1.99107E+01 2.11384E-01-8.01218E-04-8.15106E-02 1.05867E-13 1.65938E-13
 -1      3912 1.98634E+01 2.72732E-01 1.05891E-03-8.16059E-02 8.49963E-14 1.18143E-14
 -1      3913 1.99317E+01 1.84943E-01-2.56378E-05-7.12592E-02 4.20622E-14 9.18586E-14
 -1      3914 1.99446E+01 1.60720E-01-6.19453E-04-5.91133E-02-9.18265E-14 7.95881E-14
 -1      3915 1.99108E+01 2.10509E-01 7.90342E-04-6.06394E-02 5.60997E-14-4.85863E-14
 -1      3916 1.99596E+01 1.39377E-01 6.53672E-06-5.11393E-02-1.84683E-13 8.47253E-14
 -1      3917 1.99684E+01 1.19994E-01-4.71049E-04-4.17495E-02-1.76590E-13 8.55578E-14
 -1      3918 1.99449E+01 1.59667E-01 5.80104E-04-4.39962E-02-7.24999E-14-1.07445E-14
 -1      3919 1.99789E+01 1.03069E-01 2.46198E-05-3.56720E-02-1.99601E-13 1.06972E-13
 -1      3920 1.99847E+01 8.78303E-02-3.51741E-04-2.85510E-02-1.83403E-13 1.45328E-13
 -1      3921 1.99689E+01 1.18885E-01 4.17563E-04-3.10568E-02-1.42804E-13-2.45725E-14
 -1      3922 1.99918E+01 7.46404E-02 3.32315E-05-2.40162E-02-3.05004E-13 1.61188E-13
 -1      3923 1.99955E+01 6.28657E-02-2.57387E-04-1.87240E-02-2.76882E-13 4.95529E-14
 -1      3924 1.99853E+01 8.67477E-02 2.93650E-04-2.12049E-02-2.88266E-13-3.74142E-14
 -1      3925 2.00001E+01 5.27648E-02 3.57593E-05-1.54166E-02-1.30240E-13 9.98137E-14
 -1      3926 2.00022E+01 4.38272E-02-1.84034E-04-1.15692E-02-3.46977E-14 1.15694E-13
 -1      3927 1.99961E+01 6.18610E-02 2.00650E-04-1.38641E-02-1.64015E-13 1.06211E-13
 -1      3928 2.00050E+01 3.62311E-02 3.46028E-05-9.21802E-03 8.35050E-14 7.59123E-14
 -1      3929 2.00061E+01 2.95734E-02-1.28018E-04-6.48991E-03 1.29165E-13 7.95899E-14
 -1      3930 2.00028E+01 4.29294E-02 1.32069E-04-8.51983E-03-8.06767E-15 1.49632E-13
 -1      3931 2.00076E+01 2.39715E-02 3.14071E-05-4.86821E-03 5.62541E-14-3.22816E-14
 -1      3932 2.00080E+01 1.91130E-02-8.60472E-05-2.99039E-03 8.79546E-15 7.96078E-14
 -1      3933 2.00066E+01 2.87952E-02 8.25041E-05-4.72897E-03 1.19470E-14 2.81114E-14
 -1      3934 2.00087E+01 1.50705E-02 2.72626E-05-1.91339E-03 9.65097E-14 1.00759E-13
 -1      3935 2.00086E+01 1.16065E-02-5.52515E-05-6.68503E-04 1.72166E-13 1.45492E-13
 -1      3936 2.00085E+01 1.84557E-02 4.75272E-05-2.12148E-03 1.30355E-13-7.20447E-14
 -1      3937 2.00087E+01 8.76133E-03 2.28607E-05 1.09183E-05 3.03012E-13 1.32738E-13
 -1      3938 2.00083E+01 6.35782E-03-3.32046E-05 7.94793E-04 3.28030E-13 1.55264E-13
 -1      3939 2.00090E+01 1.10635E-02 2.35545E-05-3.96170E-04 2.09647E-13 4.44614E-14
 -1      3940 2.00081E+01 4.41407E-03 1.86041E-05 1.19117E-03 2.11795E-13 1.02537E-13
 -1      3941 2.00076E+01 2.80044E-03-1.78936E-05 1.64726E-03 1.83196E-13 2.78192E-14
 -1      3942 2.00086E+01 5.91742E-03 7.71473E-06 6.86319E-04 2.84428E-13 5.70768E-14
 -1      3943 2.00071E+01 1.52054E-03 1.47438E-05 1.84802E-03 1.05882E-13 9.97408E-14
 -1      3944 2.00066E+01 4.80370E-04-7.67938E-06 2.07772E-03-3.71651E-16-3.98888E-14
 -1      3945 2.00078E+01 2.44823E-03-2.31922E-06 1.31158E-03 1.37805E-13-9.51892E-15
 -1      3946 2.00060E+01-3.25970E-04 1.20150E-05 2.14849E-03-8.02942E-14-1.54677E-13
 -1      3947 2.00054E+01-9.66600E-04-1.66283E-06 2.22607E-03-1.14512E-13-1.58685E-13
 -1      3948 2.00067E+01 1.95017E-04-9.65595E-06 1.62232E-03-7.95417E-14-3.53497E-14
 -1      3949 2.00049E+01-1.44533E-03 9.06339E-06 2.20818E-03-1.03612E-13-2.45035E-13
 -1      3950 2.00043E+01-1.81682E-03 1.34699E-06 2.18770E-03 1.52786E-14-3.26481E-13
 -1      3951 2.00055E+01-1.19382E-03-1.03098E-05 1.72748E-03-1.82369E-13-1.66500E-13
 -1      3952 1.80411E+01-2.52812E-01 1.00090E-02 2.37614E+00-8.92771E-14 1.21147E-14
 -1      3953 1.88718E+01 6.49980E-01-5.51580E-03 1.07292E+00-1.69676E-13-1.87601E-14
 -1      3954 1.88293E+01 5.95523E-01 5.77144E-03 1.20039E+00-7.74440E-14-2.97555E-14
 -1      3955 1.94103E+01 6.34088E-01-3.08772E-03 5.31546E-01 2.51729E-14-2.01635E-13
 -1      3956 1.93538E+01 6.65018E-01 1.12766E-03 5.99668E-01-1.65153E-14-1.52212E-13
 -1      3957 1.91783E+01 7.43801E-01 2.93165E-03 5.65425E-01 8.42043E-15-1.34920E-13
 -1      3958 1.95472E+01 5.62095E-01-2.56433E-03 4.17265E-01-4.02909E-14-7.57770E-14
 -1      3959 1.94979E+01 6.00921E-01 6.98177E-04 4.73401E-01-5.71796E-14-2.15478E-13
 -1      3960 1.93616E+01 6.73525E-01 2.51540E-03 4.41311E-01-3.09626E-14-1.92075E-13
 -1      3961 1.96602E+01 4.82291E-01-2.11927E-03 3.24672E-01-1.18959E-14 9.63670E-14
 -1      3962 1.96191E+01 5.23508E-01 4.52988E-04 3.70841E-01 2.74415E-14 8.79864E-14
 -1      3963 1.95139E+01 5.88802E-01 2.15389E-03 3.43135E-01-9.33464E-14-8.33252E-14
 -1      3964 1.97512E+01 4.02834E-01-1.73704E-03 2.49830E-01-3.28714E-14 1.32705E-15
 -1      3965 1.97181E+01 4.42895E-01 3.21553E-04 2.87560E-01 1.93630E-15 4.93895E-14
 -1      3966 1.96376E+01 5.00248E-01 1.79960E-03 2.64878E-01 2.23935E-14 1.23059E-13
 -1      3967 1.98227E+01 3.28708E-01-1.40812E-03 1.89736E-01-8.91008E-14-7.26855E-14
 -1      3968 1.97969E+01 3.65499E-01 2.48213E-04 2.20277E-01-8.02342E-14-1.35006E-13
 -1      3969 1.97360E+01 4.14754E-01 1.46893E-03 2.02465E-01-1.44046E-14-5.27569E-14
 -1      3970 1.98777E+01 2.62619E-01-1.12664E-03 1.41941E-01-1.23178E-13 7.72421E-14
 -1      3971 1.98581E+01 2.95051E-01 2.04435E-04 1.66374E-01-1.26707E-13-1.16528E-14
 -1      3972 1.98127E+01 3.36467E-01 1.17276E-03 1.52894E-01-1.01855E-13-4.16738E-14
 -1      3973 1.99190E+01 2.05689E-01-8.88421E-04 1.04364E-01-2.05891E-15 1.95491E-13
 -1      3974 1.99045E+01 2.33382E-01 1.74997E-04 1.23653E-01-3.84402E-14 9.36288E-14
 -1      3975 1.98712E+01 2.67521E-01 9.16404E-04 1.13814E-01-1.52938E-13 2.56018E-14
 -1      3976 1.99493E+01 1.58003E-01-6.89694E-04 7.52058E-02-1.19480E-13 2.79647E-13
 -1      3977 1.99389E+01 1.81032E-01 1.52169E-04 9.02167E-02-7.36862E-14 2.38708E-13
 -1      3978 1.99150E+01 2.08648E-01 7.00888E-04 8.33093E-02-9.95605E-14 9.58355E-14
 -1      3979 1.99709E+01 1.19004E-01-5.26532E-04 5.29056E-02 5.39401E-14 2.92556E-13
 -1      3980 1.99637E+01 1.37721E-01 1.32359E-04 6.44080E-02-4.38470E-14 2.42926E-13
 -1      3981 1.99470E+01 1.59656E-01 5.24313E-04 5.97787E-02 1.29050E-14 1.48356E-13
 -1      3982 1.99859E+01 8.77874E-02-3.94782E-04 3.61195E-02 4.22496E-14 2.46753E-13
 -1      3983 1.99811E+01 1.02684E-01 1.14141E-04 4.47878E-02 1.48487E-13 3.20356E-13
 -1      3984 1.99698E+01 1.19799E-01 3.83011E-04 4.18716E-02 3.03679E-14 2.12691E-13
 -1      3985 1.99958E+01 6.32957E-02-2.90187E-04 2.37049E-02-1.35280E-14 1.73569E-13
 -1      3986 1.99928E+01 7.49206E-02 9.71328E-05 3.01192E-02-1.47395E-16 2.15078E-13
 -1      3987 1.99855E+01 8.80356E-02 2.72433E-04 2.84501E-02 3.42424E-14 3.56072E-13
 -1      3988 2.00021E+01 4.44517E-02-2.08571E-04 1.47046E-02-8.57564E-14 2.68796E-13
 -1      3989 2.00004E+01 5.33485E-02 8.13862E-05 1.93549E-02-1.08089E-13 1.54143E-13
 -1      3990 1.99959E+01 6.32118E-02 1.87772E-04 1.85620E-02-4.73707E-14 1.09005E-13
 -1      3991 2.00057E+01 3.02365E-02-1.46009E-04 8.32912E-03-1.12569E-13 2.64048E-13
 -1      3992 2.00049E+01 3.69112E-02 6.70710E-05 1.16216E-02-8.45609E-14 2.10089E-13
 -1      3993 2.00024E+01 4.41817E-02 1.24389E-04 1.14194E-02-1.29129E-13 9.67532E-14
 -1      3994 2.00075E+01 1.97339E-02-9.89389E-05 3.93798E-03-1.94741E-13 2.57439E-13
 -1      3995 2.00073E+01 2.46365E-02 5.43336E-05 6.20334E-03-1.11065E-13 2.73984E-13
 -1      3996 2.00062E+01 2.98774E-02 7.80550E-05 6.37837E-03-4.88413E-14 1.88858E-13
 -1      3997 2.00081E+01 1.21490E-02-6.42351E-05 1.01987E-03 5.42094E-14 2.61819E-14
 -1      3998 2.00082E+01 1.56664E-02 4.32459E-05 2.52264E-03-8.69386E-14 1.10717E-13
 -1      3999 2.00080E+01 1.93478E-02 4.50802E-05 2.92019E-03 2.01267E-14 7.39788E-14
 -1      4000 2.00078E+01 6.81139E-03-3.92262E-05-8.26614E-04 1.27890E-13-1.08549E-13
 -1      4001 2.00082E+01 9.26768E-03 3.38015E-05 1.21467E-04 1.41126E-13-3.37619E-14
 -1      4002 2.00086E+01 1.17737E-02 2.23485E-05 6.33077E-04 1.24457E-13-1.86320E-13
 -1      4003 2.00071E+01 3.16870E-03-2.16640E-05-1.91110E-03-8.11633E-14 1.30813E-13
 -1      4004 2.00076E+01 4.82944E-03 2.59261E-05-1.35728E-03-4.45217E-14 4.49011E-14
 -1      4005 2.00083E+01 6.46748E-03 7.30503E-06-8.04766E-04-3.05036E-14-1.55018E-13
 -1      4006 2.00062E+01 7.74297E-04-9.69490E-06-2.46814E-03-1.25278E-13 1.74914E-13
 -1      4007 2.00067E+01 1.85315E-03 1.94847E-05-2.18709E-03-6.78240E-14 9.87656E-14
 -1      4008 2.00075E+01 2.86507E-03-2.06556E-06-1.64048E-03-1.57097E-13 2.84873E-13
 -1      4009 2.00051E+01-7.29810E-04-1.94366E-06-2.67239E-03-2.80065E-13 2.08087E-14
 -1      4010 2.00057E+01-6.17441E-05 1.42097E-05-2.57428E-03-1.96936E-13 1.45355E-13
 -1      4011 2.00065E+01 5.12042E-04-7.26923E-06-2.06168E-03-1.98927E-13 1.86600E-13
 -1      4012 2.00041E+01-1.61332E-03 4.28496E-06-2.64378E-03-1.23035E-13-1.37642E-13
 -1      4013 2.00046E+01-1.23510E-03 9.32208E-06-2.66659E-03-1.95602E-13-1.43474E-13
 -1      4014 2.00054E+01-9.53022E-04-8.47629E-06-2.20497E-03-1.25947E-13 2.67517E-15
 -1      4015 2.16619E+01-1.22121E+00-3.86904E-02-1.41611E+00-1.57686E-14-6.14786E-14
 -1      4016 1.58179E+01 6.94382E-01 5.36560E-03-1.69120E+00 7.20942E-14 2.88835E-13
 -1      4017 1.63515E+01 9.09251E-01-2.09374E-02-1.33645E+00 7.94260E-14 2.78441E-13
 -1      4018 1.62828E+01 1.13260E+00 2.13848E-02-8.61691E-01 3.96027E-15 3.70107E-13
 -1      4019 1.51496E+01 1.01207E+00 4.76097E-02-1.19751E+00 6.95850E-14 3.95035E-13
 -1      4020 2.00037E+01-2.47245E-03-7.31742E-07-7.59585E-04-1.73698E-13-1.04946E-13
 -1      4021 2.00036E+01-2.41810E-03 1.43527E-06-1.28391E-03-6.80319E-14-2.35835E-13
 -1      4022 2.00039E+01-2.26482E-03 1.91943E-06-1.39621E-03-1.28608E-13-2.96280E-13
 -1      4023 2.00043E+01-2.28837E-03 1.21589E-06-4.80658E-04-1.97941E-13-2.32939E-13
 -1      4024 2.00033E+01-2.23514E-03 5.24622E-06 2.12185E-03 1.20818E-13-5.05991E-13
 -1      4025 1.90675E+01 6.99543E-01-4.47243E-03 8.49295E-01-3.31618E-14-3.62486E-14
 -1      4026 1.90095E+01 6.87599E-01 3.39621E-03 9.51356E-01-1.07984E-13-9.41326E-15
 -1      4027 1.87162E+01 7.74216E-01 3.58844E-03 9.30919E-01-1.25299E-13 3.14279E-14
 -1      4028 1.89628E+01 7.84716E-01 3.42026E-03 7.24321E-01-2.59966E-14 1.10950E-14
 -1      4029 1.86811E+01 5.02039E-01-6.61085E-03 1.36133E+00-1.72715E-14 1.53748E-15
 -1      4030 1.86725E+01 3.83619E-01 8.45854E-03 1.52234E+00-2.26233E-14-3.49211E-14
 -1      4031 1.84455E+01 6.81576E-01 2.97440E-03 1.20666E+00-8.16789E-14 5.55980E-14
 -1      4032 2.00035E+01-1.99661E-03 4.39123E-06-2.43066E-03 1.95022E-14 7.72184E-14
 -1      4033 2.00038E+01-1.81083E-03 2.73630E-06-2.54781E-03-8.63042E-14-9.79534E-14
 -1      4034 2.00045E+01-1.70714E-03-8.27457E-06-2.12947E-03-2.13316E-13-3.57336E-13
 -1      4035 2.00040E+01-2.09500E-03-4.31145E-06-1.94915E-03-1.73000E-13-3.62246E-13
 -1      4036 1.85289E+01 2.09579E-01-7.55510E-03 1.73471E+00-3.94186E-15 1.98409E-16
 -1      4037 1.86185E+01-8.95988E-03 9.63674E-03 1.93166E+00-1.61199E-14 2.79785E-14
 -1      4038 1.81798E+01 4.64993E-01 4.52133E-03 1.58275E+00-1.21551E-14-4.95138E-14
 -1      4039 1.64189E+01 3.16284E-01-1.39202E-02 2.07052E+00-1.56686E-13-6.83221E-14
 -1      4040 1.55078E+01 8.23937E-01 1.55568E-02 1.43680E+00-1.47899E-13 2.14993E-14
 -1      4041 1.74537E+01 1.03006E-01 7.08055E-03 2.19503E+00-6.76048E-14-5.24806E-14
 -1      4042 1.74709E+01 9.73940E-01-2.71946E-02 2.22714E+00 7.36958E-14-1.91894E-13
 -1      4043 2.00046E+01-1.98797E-03-5.72857E-06 1.46084E-03-5.45315E-14-5.07777E-13
 -1      4044 2.00039E+01-2.07644E-03 3.12393E-06 1.91150E-03 6.51523E-14-4.86192E-13
 -1      4045 1.54211E+01 1.04236E+00 1.08979E-02 8.97440E-01-1.10665E-13-6.89713E-14
 -1      4046 1.55622E+01 1.12401E+00-1.31404E-02 2.27286E-01-3.84634E-14-1.03030E-13
 -1      4047 1.62536E+01 9.52819E-01 1.10434E-02 1.01349E+00-1.21165E-13-8.98170E-14
 -1      4048 1.53156E+01 1.07757E+00-1.69605E-02-5.95789E-01 5.41687E-14 2.83999E-13
 -1      4049 2.00048E+01-1.99556E-03-5.29004E-08 8.43163E-04-1.72585E-13-4.40621E-13
 -1      4050 2.00049E+01-2.00902E-03 2.24972E-06 2.70084E-04-3.08455E-13-2.50807E-13
 -1      4051 2.00052E+01-1.65781E-03 8.79222E-06 1.12453E-03-2.19585E-13-3.56131E-13
 -1      4052 1.71703E+01 5.00725E-01-1.62780E-02 1.71538E+00-3.94055E-14-2.76907E-14
 -1      4053 2.00054E+01-1.72120E-03 4.55614E-06 4.60738E-05-2.45404E-13-2.96205E-13
 -1      4054 2.00049E+01-2.06239E-03-1.08585E-05-2.56750E-04-2.36738E-13-1.74236E-13
 -1      4055 2.00048E+01-2.04294E-03-2.67711E-06-7.13239E-04-1.87882E-13-2.23356E-13
 -1      4056 1.93187E+01 6.86378E-01-3.62819E-03 3.33241E-01-6.97969E-14 5.81196E-14
 -1      4057 1.92384E+01 7.33388E-01 2.15644E-04 3.82850E-01 1.96489E-14 9.69721E-15
 -1      4058 1.76321E+01 6.16738E-01 5.47734E-03 1.49168E+00 7.52219E-15-1.99775E-14
 -1      4059 1.68522E+01 8.28379E-01 1.82017E-02 1.33972E+00-1.94329E-14-4.09406E-14
 -1      4060 1.75350E+01 1.17908E+00-4.88039E-03-2.91066E-01-3.89715E-14 1.39813E-13
 -1      4061 1.78273E+01 1.15395E+00-6.88394E-03-2.61326E-01-1.75541E-14 1.04080E-13
 -1      4062 1.80997E+01 1.11951E+00-5.86530E-03-2.60881E-01 2.62681E-15 1.11065E-13
 -1      4063 1.83293E+01 1.07787E+00-5.21106E-03-2.36804E-01 4.04435E-14 4.32019E-14
 -1      4064 1.79414E+01 1.17415E+00 1.60494E-02-2.29270E-02-5.92789E-14 1.27879E-14
 -1      4065 1.85405E+01 1.02957E+00-4.34854E-03-2.32995E-01 1.49855E-14-7.53273E-14
 -1      4066 1.87196E+01 9.76399E-01-3.85602E-03-2.11624E-01-8.25063E-14-1.22949E-13
 -1      4067 1.84118E+01 1.08536E+00 1.18693E-02-4.97751E-02-8.04041E-14-1.00230E-13
 -1      4068 1.88852E+01 9.19461E-01-3.33444E-03-2.05335E-01-1.16129E-13-1.33336E-13
 -1      4069 1.90261E+01 8.60612E-01-2.90291E-03-1.85128E-01-1.13649E-13-6.38828E-14
 -1      4070 1.87806E+01 9.75646E-01 9.10947E-03-6.35284E-02-9.62335E-14-1.93173E-13
 -1      4071 1.91565E+01 8.00235E-01-2.54621E-03-1.77564E-01-1.49510E-13-3.09106E-14
 -1      4072 1.92669E+01 7.40288E-01-2.30601E-03-1.58445E-01-1.03767E-13-5.35438E-14
 -1      4073 1.90723E+01 8.55139E-01 7.24100E-03-6.77798E-02-9.21205E-14-1.92684E-13
 -1      4074 1.93696E+01 6.80888E-01-1.90941E-03-1.50142E-01 1.47396E-14-1.64099E-13
 -1      4075 1.94554E+01 6.23241E-01-1.85274E-03-1.32334E-01 5.75184E-15-1.42557E-13
 -1      4076 1.93018E+01 7.32843E-01 5.72531E-03-6.54272E-02-1.15569E-13-2.11625E-13
 -1      4077 1.95358E+01 5.67524E-01-1.42738E-03-1.24043E-01-8.91468E-14-8.28915E-14
 -1      4078 1.96020E+01 5.14440E-01-1.49177E-03-1.07893E-01-1.18722E-13-1.27310E-13
 -1      4079 1.94820E+01 6.15093E-01 4.51739E-03-5.90749E-02-3.82049E-14-2.02381E-13
 -1      4080 1.96643E+01 4.64107E-01-1.05974E-03-1.00150E-01-1.08739E-13-1.38468E-13
 -1      4081 1.97148E+01 4.16872E-01-1.19396E-03-8.59237E-02-1.03861E-13-1.33039E-13
 -1      4082 1.96222E+01 5.06356E-01 3.54030E-03-5.07945E-02-6.70174E-14-2.04419E-13
 -1      4083 1.97625E+01 3.72771E-01-7.79315E-04-7.90507E-02-1.67421E-14-1.50793E-13
 -1      4084 1.98005E+01 3.31911E-01-9.44877E-04-6.68636E-02 6.39689E-14-1.19220E-13
 -1      4085 1.97301E+01 4.09285E-01 2.74563E-03-4.19994E-02-1.39149E-14-1.86739E-13
 -1      4086 1.98364E+01 2.94254E-01-5.66382E-04-6.10055E-02-2.08281E-14-1.07663E-13
 -1      4087 1.98646E+01 2.59756E-01-7.36865E-04-5.08323E-02 5.42116E-14-1.55821E-13
 -1      4088 1.98120E+01 3.25051E-01 2.10107E-03-3.35832E-02 9.14362E-16-2.36746E-13
 -1      4089 1.98912E+01 2.28315E-01-4.05866E-04-4.60081E-02 9.68475E-14-2.45145E-13
 -1      4090 1.99117E+01 1.99807E-01-5.64928E-04-3.77169E-02 3.04840E-14-1.99750E-13
 -1      4091 1.98732E+01 2.53719E-01 1.58261E-03-2.60485E-02 2.95047E-14-2.42695E-13
 -1      4092 1.99311E+01 1.74081E-01-2.85945E-04-3.38630E-02-7.73520E-14-2.47109E-13
 -1      4093 1.99456E+01 1.50978E-01-4.24926E-04-2.72556E-02-1.29818E-13-2.41855E-13
 -1      4094 1.99181E+01 1.94609E-01 1.17058E-03-1.96208E-02-3.93587E-14-2.98088E-13
 -1      4095 1.99594E+01 1.30319E-01-1.97285E-04-2.42620E-02-1.49578E-13-2.56740E-13
 -1      4096 1.99695E+01 1.11938E-01-3.12888E-04-1.91082E-02-1.87171E-13-2.84182E-13
 -1      4097 1.99503E+01 1.46589E-01 8.47812E-04-1.43426E-02-1.65498E-13-4.30207E-13
 -1      4098 1.99791E+01 9.56429E-02-1.32527E-04-1.68451E-02-2.05458E-13-1.48224E-13
 -1      4099 1.99858E+01 8.12771E-02-2.24881E-04-1.29092E-02-2.32121E-13-5.74892E-14
 -1      4100 1.99728E+01 1.08296E-01 5.99035E-04-1.01459E-02-1.32347E-13-3.53013E-13
 -1      4101 1.99922E+01 6.86486E-02-8.58951E-05-1.12450E-02-1.42769E-13 7.05407E-14
 -1      4102 1.99965E+01 5.76195E-02-1.57087E-04-8.30349E-03-1.88016E-14 1.38570E-13
 -1      4103 1.99882E+01 7.83045E-02 4.10650E-04-6.90456E-03-9.82859E-14-6.73618E-15
 -1      4104 2.00006E+01 4.80066E-02-5.28871E-05-7.11553E-03-1.15838E-14 1.91923E-13
 -1      4105 2.00032E+01 3.96938E-02-1.05928E-04-4.96692E-03-9.36813E-16 1.25717E-13
 -1      4106 1.99981E+01 5.52323E-02 2.70754E-04-4.46944E-03-3.68568E-14 4.64040E-14
 -1      4107 2.00055E+01 3.25129E-02-3.00143E-05-4.14740E-03-1.07547E-13 1.62079E-13
 -1      4108 2.00069E+01 2.63695E-02-6.81693E-05-2.61741E-03-6.16783E-14 6.29868E-14
 -1      4109 2.00042E+01 3.78075E-02 1.69119E-04-2.69053E-03-4.43750E-14 2.32230E-13
 -1      4110 2.00081E+01 2.11138E-02-1.45926E-05-2.07542E-03 7.49304E-14 4.62108E-14
 -1      4111 2.00087E+01 1.66715E-02-4.09838E-05-1.01797E-03 1.30509E-13 6.10321E-14
 -1      4112 2.00075E+01 2.49034E-02 9.71461E-05-1.42969E-03-3.06435E-14 1.14336E-13
 -1      4113 2.00091E+01 1.29121E-02-4.57145E-06-6.79424E-04 2.33983E-13 1.05396E-13
 -1      4114 2.00091E+01 9.77879E-03-2.19663E-05 2.46555E-05 2.57176E-13 1.24153E-13
 -1      4115 2.00090E+01 1.55512E-02 4.77548E-05-5.66674E-04 2.38022E-13 3.56334E-14
 -1      4116 2.00091E+01 7.16055E-03 1.60454E-06 2.18441E-04 1.63825E-13 6.61388E-14
 -1      4117 2.00088E+01 5.01469E-03-9.09294E-06 6.63951E-04 2.10810E-13-1.32593E-13
 -1      4118 2.00093E+01 8.93786E-03 1.52434E-05-1.13868E-06 2.20733E-13 1.34623E-14
 -1      4119 2.00084E+01 3.24835E-03 5.10196E-06 7.58373E-04 2.92311E-13-3.13606E-13
 -1      4120 2.00079E+01 1.83002E-03-1.26691E-06 1.01907E-03 1.44371E-13-2.16386E-13
 -1      4121 2.00088E+01 4.39470E-03-4.92680E-06 3.48130E-04 1.31566E-13-2.46633E-13
 -1      4122 2.00073E+01 6.95083E-04 1.00846E-05 1.04726E-03 1.58354E-14-2.84850E-13
 -1      4123 2.00068E+01-2.03318E-04 8.35322E-06 1.18333E-03-1.44030E-13-1.93414E-13
 -1      4124 2.00078E+01 1.37912E-03-1.70476E-05 5.43058E-04 1.86542E-14-3.80026E-13
 -1      4125 2.00063E+01-7.68672E-04 3.67949E-06 1.11386E-03-2.98125E-13-1.64367E-13
 -1      4126 2.00057E+01-1.31733E-03 2.15896E-06 1.15017E-03-2.46775E-13-3.47945E-13
 -1      4127 2.00059E+01-1.30453E-03-6.95711E-06 5.53695E-04-3.55528E-13-1.97049E-13
 -1      4128 2.00068E+01-4.05268E-04-2.14856E-05 5.97845E-04-1.87372E-13-4.51768E-13
 -1      4129 1.94848E+01 5.91868E-01-2.86951E-03 2.55889E-01-1.17119E-13-9.70328E-15
 -1      4130 1.94187E+01 6.41254E-01 4.92144E-05 2.95349E-01-1.06494E-13-2.28903E-14
 -1      4131 1.93194E+01 7.10586E-01 6.13747E-03 2.42789E-01-8.73615E-14 7.11255E-14
 -1      4132 1.91142E+01 7.72638E-01-4.67713E-03 4.32416E-01-6.03517E-15 4.80661E-15
 -1      4133 1.90183E+01 8.11513E-01 2.29822E-04 4.95825E-01-4.70694E-14-3.19422E-14
 -1      4134 1.91087E+01 8.12051E-01 7.65593E-03 3.20468E-01-5.94530E-14 7.75061E-14
 -1      4135 1.96178E+01 4.97578E-01-2.28201E-03 1.95235E-01-1.09743E-15 3.61410E-14
 -1      4136 1.95646E+01 5.45604E-01-3.73959E-05 2.26793E-01-1.17037E-13 2.33562E-14
 -1      4137 1.94889E+01 6.05966E-01 4.90632E-03 1.83641E-01-1.58606E-13-2.18595E-14
 -1      4138 1.97226E+01 4.09052E-01-1.81127E-03 1.47618E-01 6.07877E-14-6.25026E-14
 -1      4139 1.96807E+01 4.53384E-01-6.15182E-05 1.72837E-01 1.15640E-13 4.73551E-14
 -1      4140 1.96233E+01 5.05133E-01 3.88794E-03 1.38300E-01-3.21265E-15-2.97919E-14
 -1      4141 1.98036E+01 3.29479E-01-1.42824E-03 1.10339E-01-1.19239E-13 2.91719E-14
 -1      4142 1.97714E+01 3.68840E-01-5.42789E-05 1.30394E-01-1.84492E-14 3.11044E-14
 -1      4143 1.97283E+01 4.12468E-01 3.04553E-03 1.03414E-01 9.78379E-15 3.06675E-14
 -1      4144 1.98652E+01 2.60327E-01-1.11523E-03 8.13301E-02-1.33276E-13-1.29104E-14
 -1      4145 1.98409E+01 2.94208E-01-3.45547E-05 9.71517E-02-1.32705E-13 3.17512E-14
 -1      4146 1.98091E+01 3.30364E-01 2.35213E-03 7.65724E-02-1.01701E-13-5.37985E-14
 -1      4147 1.99111E+01 2.01873E-01-8.60275E-04 5.89492E-02-6.17217E-14-7.98485E-14
 -1      4148 1.98933E+01 2.30289E-01-1.26603E-05 7.13039E-02-9.99992E-14-9.08410E-14
 -1      4149 1.98700E+01 2.59744E-01 1.78699E-03 5.59880E-02-1.14618E-13-1.09530E-13
 -1      4150 1.99446E+01 1.53624E-01-6.54283E-04 4.18666E-02-2.77515E-14 3.32231E-14
 -1      4151 1.99318E+01 1.76922E-01 6.39118E-06 5.13986E-02-4.13867E-14-4.60242E-14
 -1      4152 1.99152E+01 2.00514E-01 1.33250E-03 4.02981E-02-9.09452E-14-2.80132E-13
 -1      4153 1.99683E+01 1.14639E-01-4.89707E-04 2.89926E-02-2.77861E-15 1.52198E-13
 -1      4154 1.99594E+01 1.33350E-01 2.06830E-05 3.62473E-02-3.63618E-15 1.20960E-13
 -1      4155 1.99478E+01 1.51930E-01 9.72704E-04 2.84415E-02-7.28405E-14 9.48158E-15
 -1      4156 1.99847E+01 8.37560E-02-3.59939E-04 1.94321E-02-3.34882E-15 2.40243E-13
 -1      4157 1.99787E+01 9.84955E-02 2.99885E-05 2.48699E-02 1.78491E-14 2.66138E-13
 -1      4158 1.99709E+01 1.12880E-01 6.92743E-04 1.95791E-02-6.55375E-14 7.40471E-14
 -1      4159 1.99956E+01 5.97538E-02-2.59092E-04 1.24524E-02-7.36515E-14 1.49053E-13
 -1      4160 1.99918E+01 7.11471E-02 3.49076E-05 1.64588E-02-1.12366E-14 1.93925E-13
 -1      4161 1.99867E+01 8.20882E-02 4.78914E-04 1.30426E-02 5.62516E-14 1.12087E-13
 -1      4162 2.00024E+01 4.14512E-02-1.81945E-04 7.45785E-03-6.04815E-14-4.89456E-15
 -1      4163 2.00001E+01 5.00912E-02 3.63601E-05 1.03520E-02-4.16582E-14 4.46144E-14
 -1      4164 1.99970E+01 5.82595E-02 3.18844E-04 8.29812E-03-4.54847E-15 5.42073E-14
 -1      4165 2.00063E+01 2.77674E-02-1.23930E-04 3.96911E-03 2.04512E-14 1.25265E-13
 -1      4166 2.00051E+01 3.41896E-02 3.53041E-05 6.01184E-03-3.33686E-14 1.08353E-13
 -1      4167 2.00034E+01 4.01646E-02 2.01645E-04 4.92041E-03-4.83667E-14-1.18715E-13
 -1      4168 2.00082E+01 1.77514E-02-8.11150E-05 1.60478E-03 1.17789E-13 3.58417E-14
 -1      4169 2.00078E+01 2.24224E-02 3.25978E-05 3.00614E-03 6.81205E-14 1.43364E-13
 -1      4170 2.00071E+01 2.66933E-02 1.17982E-04 2.57229E-03 2.52292E-14 6.53077E-14
 -1      4171 2.00088E+01 1.05916E-02-5.01741E-05 6.53205E-05 1.92249E-13-1.35392E-13
 -1      4172 2.00089E+01 1.39065E-02 2.89442E-05 9.92013E-04 1.79563E-13-4.77862E-14
 -1      4173 2.00087E+01 1.68774E-02 6.00478E-05 9.88687E-04 1.78848E-13 1.40121E-13
 -1      4174 2.00085E+01 5.61173E-03-2.83385E-05-8.81147E-04-8.54069E-14-2.11377E-16
 -1      4175 2.00089E+01 7.89747E-03 2.48878E-05-2.98949E-04-2.92261E-14-6.54169E-14
 -1      4176 2.00091E+01 9.89579E-03 2.14737E-05-3.67411E-05 1.28605E-14-7.22305E-14
 -1      4177 2.00077E+01 2.25950E-03-1.35128E-05-1.41118E-03-2.20803E-13-1.05674E-13
 -1      4178 2.00082E+01 3.78171E-03 2.08091E-05-1.07361E-03-1.17768E-13-3.81322E-14
 -1      4179 2.00087E+01 5.06803E-03-2.79919E-06-6.62718E-04-1.34745E-13-3.33837E-13
 -1      4180 2.00067E+01 9.66679E-05-2.58964E-06-1.65585E-03-1.05683E-13-2.18117E-13
 -1      4181 2.00073E+01 1.06415E-03 1.71389E-05-1.48736E-03-1.84641E-13-1.91497E-13
 -1      4182 2.00078E+01 1.84074E-03-1.64004E-05-1.00886E-03-1.37364E-13-6.12230E-13
 -1      4183 2.00055E+01-1.24245E-03 1.78781E-06-1.70626E-03-1.94663E-13-1.68439E-13
 -1      4184 2.00061E+01-6.64956E-04 9.34540E-06-1.66439E-03-1.17414E-13-1.53798E-13
 -1      4185 2.00067E+01-2.12543E-04-1.72684E-05-1.17232E-03-1.86320E-13-3.72563E-13
 -1      4186 1.77437E+01 7.20897E-01-1.73647E-02 1.27392E+00 2.05818E-14 6.32063E-15
 -1      4187 1.81776E+01 8.45492E-01-1.05241E-02 9.48013E-01-1.53178E-13 5.40052E-15
 -1      4188 1.80503E+01 8.03988E-01 4.80485E-03 1.09640E+00-6.67625E-14 2.67525E-14
 -1      4189 1.75633E+01 9.60234E-01 1.67908E-02 9.87979E-01-4.42545E-14-4.77483E-15
 -1      4190 2.00045E+01-2.09594E-03-3.42208E-06-1.12320E-03-1.03248E-13-2.62588E-13
 -1      4191 2.00043E+01-2.06474E-03 3.65314E-07-1.56087E-03-7.55647E-14-2.96861E-13
 -1      4192 2.00046E+01-1.87706E-03 4.81104E-06-1.66335E-03-1.54684E-13-2.61989E-13
 -1      4193 2.00051E+01-1.77995E-03 8.73914E-06-8.87083E-04-2.00134E-13-3.29928E-13
 -1      4194 1.57211E+01 1.19237E+00 1.85419E-02-1.34707E-01-5.13925E-14 4.52663E-14
 -1      4195 1.59939E+01 1.13174E+00-6.88935E-03-5.53375E-01-4.74280E-14 2.43383E-13
 -1      4196 1.64696E+01 1.17778E+00-1.07566E-02-4.60341E-01-1.19618E-13 2.03483E-13
 -1      4197 1.62454E+01 1.17350E+00 5.21467E-03 1.86812E-01-1.47661E-13-7.80842E-15
 -1      4198 1.68551E+01 1.18413E+00-6.90222E-03-3.89932E-01-7.93656E-14 1.83530E-13
 -1      4199 1.72269E+01 1.18409E+00-1.33875E-02-3.41263E-01-3.86666E-14 1.63383E-13
 -1      4200 1.73758E+01 1.24187E+00 2.24917E-02-2.42937E-02-3.99331E-14 9.02844E-14
 -1      4201 1.67009E+01 1.22769E+00 8.63168E-03-1.16468E-01-7.77822E-14 8.89683E-14
 -1      4202 1.66505E+01 9.94589E-01-1.72890E-02 8.64236E-01-1.98379E-14-9.29820E-14
 -1      4203 2.00059E+01-1.32242E-03 1.85299E-05 6.50623E-05-1.60590E-13-4.02533E-13
 -1      4204 1.84166E+01 8.73614E-01 2.19960E-03 8.27022E-01-1.23797E-13-3.17912E-14
 -1      4205 1.80771E+01 1.00261E+00 1.54878E-02 7.23408E-01-1.08606E-13-1.23801E-14
 -1      4206 1.85402E+01 8.76107E-01-7.71858E-03 7.18994E-01-6.86301E-14-6.54448E-14
 -1      4207 1.88555E+01 8.42848E-01-5.81633E-03 5.55692E-01-3.52385E-14-8.70380E-14
 -1      4208 1.87442E+01 8.65927E-01 8.24557E-04 6.37494E-01-2.17914E-14-7.11385E-14
 -1      4209 1.84936E+01 9.77349E-01 1.23633E-02 5.40587E-01-6.39306E-14-1.51798E-13
 -1      4210 1.88397E+01 9.04788E-01 9.74977E-03 4.17039E-01-6.82613E-14-6.97337E-14
 -1      4211 2.00049E+01-1.66136E-03 3.33336E-06-1.73554E-03-1.51394E-13-2.56424E-13
 -1      4212 2.00055E+01-1.43887E-03-6.84145E-06-1.23042E-03-1.32062E-13-3.07319E-13
 -1      4213 1.92734E+01 7.15104E-01-4.99269E-03 7.68011E-02-1.20626E-13-2.17711E-14
 -1      4214 1.91750E+01 7.72316E-01-3.24701E-03 1.03861E-01-1.05883E-13-1.04254E-13
 -1      4215 1.83750E+01 1.01904E+00-1.07007E-02 2.27405E-01-7.37853E-14-6.89557E-14
 -1      4216 1.85901E+01 9.81092E-01-5.23090E-03 2.04350E-01-7.14988E-14-6.38643E-14
 -1      4217 1.87507E+01 9.29973E-01-8.02995E-03 1.63422E-01-1.40182E-13-6.67335E-14
 -1      4218 1.89195E+01 8.81035E-01-4.01567E-03 1.48569E-01-9.78135E-14-1.19726E-13
 -1      4219 1.90414E+01 8.26259E-01-6.33972E-03 1.12210E-01-7.36935E-14-1.31697E-13
 -1      4220 1.93786E+01 6.60500E-01-2.60505E-03 7.28195E-02-1.26211E-13-4.98006E-14
 -1      4221 1.94572E+01 6.04741E-01-3.93179E-03 5.23885E-02-1.23440E-13-1.17494E-13
 -1      4222 1.95395E+01 5.52583E-01-2.06688E-03 5.11340E-02-2.66578E-14-1.25524E-13
 -1      4223 1.96014E+01 5.00789E-01-3.08732E-03 3.55812E-02-6.19986E-15-1.02526E-13
 -1      4224 1.96651E+01 4.53086E-01-1.61770E-03 3.59339E-02 2.62469E-15-1.32535E-13
 -1      4225 1.97132E+01 4.06728E-01-2.40724E-03 2.40391E-02-6.96051E-15-1.00413E-13
 -1      4226 1.97620E+01 3.64567E-01-1.24525E-03 2.52400E-02-5.97558E-15-1.60731E-13
 -1      4227 1.97986E+01 3.24311E-01-1.85747E-03 1.61314E-02-3.68438E-14-2.05428E-13
 -1      4228 1.98354E+01 2.88083E-01-9.40110E-04 1.76867E-02-4.07356E-14-1.73065E-13
 -1      4229 1.98629E+01 2.54013E-01-1.41451E-03 1.07248E-02-8.64689E-14-2.13472E-13
 -1      4230 1.98902E+01 2.23626E-01-6.94102E-04 1.23320E-02 5.02415E-15-2.40057E-13
 -1      4231 1.99104E+01 1.95434E-01-1.06057E-03 7.03585E-03-2.63096E-14-2.75469E-13
 -1      4232 1.99302E+01 1.70488E-01-4.99418E-04 8.52552E-03-1.20757E-13-3.01973E-13
 -1      4233 1.99447E+01 1.47630E-01-7.81038E-04 4.52579E-03-1.80807E-13-1.75655E-13
 -1      4234 1.99588E+01 1.27550E-01-3.48448E-04 5.81659E-03-1.53595E-13-1.83712E-13
 -1      4235 1.99689E+01 1.09369E-01-5.63322E-04 2.82517E-03-5.28830E-14-2.05118E-13
 -1      4236 1.99787E+01 9.35037E-02-2.33909E-04 3.89111E-03-2.35313E-14-1.24148E-13
 -1      4237 1.99855E+01 7.93077E-02-3.96375E-04 1.68091E-03-1.17046E-15-1.21418E-13
 -1      4238 1.99920E+01 6.69982E-02-1.49052E-04 2.52828E-03 4.60780E-14-6.34258E-14
 -1      4239 1.99964E+01 5.61157E-02-2.70546E-04 9.19429E-04-2.75827E-14-3.98968E-14
 -1      4240 2.00005E+01 4.67392E-02-8.78411E-05 1.57134E-03-1.88461E-14 1.82753E-14
 -1      4241 2.00031E+01 3.85538E-02-1.77506E-04 4.21280E-04-4.84569E-14 6.30583E-15
 -1      4242 2.00056E+01 3.15474E-02-4.50473E-05 9.07781E-04-3.96885E-14 4.97454E-14
 -1      4243 2.00070E+01 2.55141E-02-1.10189E-04 1.03876E-04 2.44637E-15 1.16376E-13
 -1      4244 2.00082E+01 2.03863E-02-1.62772E-05 4.56026E-04 9.41995E-14 8.54389E-14
 -1      4245 2.00088E+01 1.60380E-02-6.27133E-05-9.01586E-05 1.62855E-13 8.17958E-14
 -1      4246 2.00092E+01 1.23712E-02 2.06230E-06 1.56463E-04 2.15506E-13-3.95484E-14
 -1      4247 2.00093E+01 9.31696E-03-3.02758E-05-2.00865E-04 1.11400E-13-1.25975E-13
 -1      4248 2.00092E+01 6.76466E-03 1.28196E-05-3.47182E-05 4.78526E-14-2.15560E-13
 -1      4249 2.00089E+01 4.68373E-03-9.07915E-06-2.56325E-04 6.27510E-14-3.69335E-13
 -1      4250 2.00085E+01 2.96344E-03 1.80829E-05-1.50014E-04 1.82866E-14-3.88701E-13
 -1      4251 2.00080E+01 1.59859E-03 4.21193E-06-2.75002E-04-7.88810E-14-3.63247E-13
 -1      4252 2.00074E+01 4.71059E-04 1.42407E-05-2.06018E-04-1.78530E-13-4.31118E-13
 -1      4253 2.00068E+01-3.75463E-04 8.31066E-06-2.76985E-04-1.31316E-13-4.38547E-13
 -1      4254 2.00058E+01-1.42101E-03-4.49647E-06-8.32047E-04-1.62731E-13-3.77077E-13
 -1      4255 1.78933E+01 1.07876E+00-1.43873E-02 3.19845E-01-5.13730E-14-3.62693E-14
 -1      4256 1.81732E+01 1.05805E+00-6.62805E-03 2.84697E-01-7.18581E-14-6.25295E-14
 -1      4257 1.73424E+01 1.09677E+00-1.59690E-02 4.23195E-01-5.17485E-14 7.00980E-15
 -1      4258 1.70573E+01 1.08847E+00-2.36014E-03 5.47640E-01-1.72465E-14 9.50628E-15
 -1      4259 1.76523E+01 1.08801E+00-9.84630E-03 4.17179E-01-4.40594E-14 1.39461E-14
 -1      4260 2.00064E+01-8.61981E-04-4.30079E-06 9.64982E-05-1.34040E-13-6.06385E-13
 -1      4261 1.66089E+01 1.21016E+00 1.07739E-02 2.30119E-01-6.40926E-14-7.67333E-15
 -3
    1PSTEP                         3           1           1          
  100CL  101 1.000000000        4261                     0    1           1
 -4  TOSTRAIN    6    1
 -5  EXX         1    4    1    1
 -5  EYY         1    4    2    2
 -5  EZZ         1    4    3    3
 -5  EXY         1    4    1    2
 -5  EYZ         1    4    2    3
 -5  EZX         1    4    3    1
 -1         1 3.13581E-04-9.66444E-05-7.98886E-05-5.37680E-07-6.04967E-19 3.06021E-18
 -1         2 3.58065E-05-1.09728E-04 1.97891E-05-8.22958E-08 9.22049E-18 1.33805E-18
 -1         3 9.52374E-05-2.85709E-05-2.85717E-05 2.34078E-10-3.04785E-18-3.03550E-18
 -1         4 9.52374E-05-2.85709E-05-2.85717E-05-2.14714E-10 9.21860E-19 1.31861E-18
 -1         5 1.54216E-04-2.25713E-05-4.67275E-05 3.94911E-05-2.14617E-19 1.54621E-17
 -1         6 1.55949E-04 2.95831E-10-4.89444E-05-5.41507E-05-7.95364E-19 1.39240E-17
 -1         7 1.03247E-04-1.08992E-06-4.36707E-05-2.55303E-05-1.23137E-19 3.30647E-18
 -1         8 9.42975E-05-1.01437E-07-3.99346E-05-1.33534E-05-1.51725E-19-5.23738E-20
 -1         9 8.77180E-05 1.54512E-08-3.73281E-05-7.16143E-06-1.34043E-19-1.93569E-18
 -1        10 8.19891E-05 5.88846E-08-3.50103E-05-3.27973E-06-9.29619E-20-2.93127E-18
 -1        11 7.69407E-05 1.05097E-07-3.29852E-05-1.05702E-06-7.28978E-20-3.41858E-18
 -1        12 7.29094E-05 1.45048E-07-3.13820E-05-2.14639E-07-2.18640E-20-3.68639E-18
 -1        13 7.01535E-05 1.75080E-07-3.02889E-05-3.94433E-07-1.44790E-20-3.78613E-18
 -1        14 6.90629E-05 1.82323E-07-2.98458E-05-1.11501E-06 9.44144E-21-3.82556E-18
 -1        15 6.97111E-05 1.64132E-07-3.00767E-05-1.76892E-06 4.05120E-20-3.73026E-18
 -1        16 7.18891E-05 1.26610E-07-3.09084E-05-1.79278E-06 3.89635E-20-3.54351E-18
 -1        17 7.51892E-05 7.98948E-08-3.21970E-05-8.02840E-07 8.89385E-20-3.21134E-18
 -1        18 7.90838E-05 4.41189E-08-3.37520E-05 1.30368E-06 8.44651E-20-2.65418E-18
 -1        19 8.33972E-05 2.08992E-08-3.55113E-05 4.62075E-06 1.35737E-19-1.87218E-18
 -1        20 8.80100E-05 1.70213E-08-3.74288E-05 9.16974E-06 1.78565E-19-5.95365E-19
 -1        21 9.33696E-05 1.79111E-08-3.96494E-05 1.54128E-05 1.98417E-19 1.73222E-18
 -1        22 1.02033E-04-4.63428E-07-4.27547E-05 2.55349E-05 1.57760E-20 6.18758E-18
 -1        23 1.30685E-04-4.41364E-05-4.07608E-05-3.13582E-06-5.29951E-19 1.11074E-17
 -1        24 1.15462E-04-3.45127E-05-3.57279E-05 6.93506E-07-1.46173E-19 8.61625E-18
 -1        25 1.16059E-04-3.49275E-05-3.49307E-05 5.50464E-07-1.16031E-19 6.30060E-18
 -1        26 1.18127E-04-3.54975E-05-3.53214E-05 3.36038E-07-1.24042E-19 4.62283E-18
 -1        27 1.19652E-04-3.59205E-05-3.56854E-05 1.74113E-07 1.78853E-20 3.63261E-18
 -1        28 1.18906E-04-3.56820E-05-3.53757E-05-7.85325E-08-4.14980E-20 3.32060E-18
 -1        29 1.14488E-04-3.43626E-05-3.40232E-05-4.38925E-07 1.38104E-19 2.68059E-18
 -1        30 1.06090E-04-3.18516E-05-3.16336E-05-7.98949E-07-1.27379E-19 2.01279E-18
 -1        31 9.55162E-05-2.86712E-05-2.87725E-05-9.18470E-07-1.91013E-19 6.23019E-19
 -1        32 8.67471E-05-2.60167E-05-2.64915E-05-5.89630E-07-3.18928E-19-1.39303E-18
 -1        33 8.40611E-05-2.51986E-05-2.58191E-05 1.01265E-07 3.92348E-19-2.45331E-18
 -1        34 8.90308E-05-2.67029E-05-2.71149E-05 7.42113E-07-1.51450E-19-2.50685E-18
 -1        35 9.92551E-05-2.97888E-05-2.98199E-05 9.72530E-07-8.79283E-20-3.46251E-18
 -1        36 1.10227E-04-3.30795E-05-3.28331E-05 7.84126E-07 1.07241E-19-3.76784E-18
 -1        37 1.18287E-04-3.54805E-05-3.51644E-05 4.18439E-07 2.98381E-20-2.82221E-18
 -1        38 1.22074E-04-3.65996E-05-3.63591E-05 9.71057E-08-1.49920E-19-1.93317E-18
 -1        39 1.22107E-04-3.66035E-05-3.64757E-05-9.40366E-08 7.92108E-20-1.98555E-18
 -1        40 1.19687E-04-3.58824E-05-3.58424E-05-1.69551E-07-2.97785E-21-1.83700E-18
 -1        41 1.16082E-04-3.48111E-05-3.48198E-05-1.74952E-07-3.32626E-20-2.75455E-18
 -1        42 1.12198E-04-3.36559E-05-3.36834E-05-1.48909E-07-6.74548E-20-3.25922E-18
 -1        43 1.08557E-04-3.25713E-05-3.26009E-05-1.14479E-07-2.58877E-19-3.20071E-18
 -1        44 1.05402E-04-3.16293E-05-3.16542E-05-8.24363E-08 1.30334E-19-2.74438E-18
 -1        45 1.02801E-04-3.08511E-05-3.08695E-05-5.64693E-08-5.98215E-20-3.47700E-18
 -1        46 1.00731E-04-3.02304E-05-3.02430E-05-3.69204E-08 1.09951E-19-3.96572E-18
 -1        47 9.91269E-05-2.97486E-05-2.97567E-05-2.28703E-08-2.57694E-19-2.30658E-18
 -1        48 9.79123E-05-2.93830E-05-2.93878E-05-1.31139E-08 2.58638E-19-2.76767E-18
 -1        49 9.70115E-05-2.91113E-05-2.91139E-05-6.54636E-09 1.55410E-19-3.15769E-18
 -1        50 9.63573E-05-2.89137E-05-2.89148E-05-2.27497E-09-1.85865E-19-3.88178E-18
 -1        51 9.58931E-05-2.87731E-05-2.87734E-05 3.79773E-10 1.85720E-19-3.72764E-18
 -1        52 9.55726E-05-2.86759E-05-2.86756E-05 1.91897E-09 2.12851E-19-2.52658E-18
 -1        53 9.53587E-05-2.86108E-05-2.86102E-05 2.70534E-09-8.66449E-20-3.16100E-18
 -1        54 9.52225E-05-2.85691E-05-2.85684E-05 2.99805E-09-9.46490E-20-4.07894E-18
 -1        55 9.51416E-05-2.85443E-05-2.85435E-05 2.98003E-09-2.45825E-19-5.45510E-18
 -1        56 9.50991E-05-2.85310E-05-2.85303E-05 2.77863E-09-2.50022E-19-7.03758E-18
 -1        57 9.50825E-05-2.85257E-05-2.85251E-05 2.48084E-09 4.40341E-20-7.81843E-18
 -1        58 9.50826E-05-2.85254E-05-2.85249E-05 2.14463E-09 6.27228E-19-6.14915E-18
 -1        59 9.50927E-05-2.85283E-05-2.85278E-05 1.80718E-09-1.58364E-19-3.95055E-18
 -1        60 9.51084E-05-2.85328E-05-2.85324E-05 1.49105E-09-3.23162E-19-2.73203E-18
 -1        61 9.51264E-05-2.85381E-05-2.85378E-05 1.20867E-09 7.95063E-19 1.93729E-19
 -1        62 9.51449E-05-2.85436E-05-2.85433E-05 9.65625E-10-3.99504E-19 2.91905E-19
 -1        63 9.51625E-05-2.85488E-05-2.85486E-05 7.63043E-10-9.11706E-19-2.58089E-18
 -1        64 9.51786E-05-2.85536E-05-2.85534E-05 5.99215E-10 2.82569E-19-5.27105E-18
 -1        65 9.51929E-05-2.85579E-05-2.85578E-05 4.70602E-10-1.82610E-19-2.59330E-18
 -1        66 9.52053E-05-2.85616E-05-2.85615E-05 3.72175E-10-3.15459E-19-2.90445E-18
 -1        67 9.52159E-05-2.85647E-05-2.85647E-05 2.96914E-10 9.59466E-20-1.56944E-18
 -1        68 9.52245E-05-2.85673E-05-2.85673E-05 2.33644E-10 5.27365E-19 1.80899E-18
 -1        69 9.52312E-05-2.85693E-05-2.85692E-05 1.61047E-10 1.75799E-19 1.39168E-18
 -1        70 9.52357E-05-2.85707E-05-2.85706E-05 2.07885E-11-1.38061E-19 1.39764E-18
 -1        71 9.52375E-05-2.85713E-05-2.85712E-05-1.79659E-10-3.50032E-19 1.16118E-18
 -1        72 1.16579E-04-3.49094E-05-3.87032E-05-2.59696E-06 1.81239E-19 1.45533E-17
 -1        73 1.10827E-04-3.29943E-05-3.43213E-05-5.43971E-07 1.27614E-19 1.16391E-17
 -1        74 1.09820E-04-3.29161E-05-3.30854E-05-2.72333E-07 2.58271E-20 9.18565E-18
 -1        75 1.09867E-04-3.29826E-05-3.28597E-05-2.11341E-07 1.00722E-20 8.03306E-18
 -1        76 1.09289E-04-3.28160E-05-3.26148E-05-1.34103E-07 1.77678E-21 7.13647E-18
 -1        77 1.07013E-04-3.21438E-05-3.19048E-05-3.01338E-09 1.23854E-19 6.23463E-18
 -1        78 1.02533E-04-3.08144E-05-3.05875E-05 1.85827E-07-4.15766E-20 5.76066E-18
 -1        79 9.61917E-05-2.89132E-05-2.87936E-05 3.84509E-07 4.90379E-20 4.77271E-18
 -1        80 8.93988E-05-2.68486E-05-2.69336E-05 4.93434E-07-1.22732E-19 4.24636E-18
 -1        81 8.43534E-05-2.52865E-05-2.55911E-05 4.16450E-07 1.47309E-19 3.78714E-18
 -1        82 8.30632E-05-2.48594E-05-2.52664E-05 1.55081E-07-2.10435E-20 3.03403E-18
 -1        83 8.61803E-05-2.57869E-05-2.61186E-05-1.69294E-07 3.36083E-20 2.66275E-18
 -1        84 9.25965E-05-2.77365E-05-2.78677E-05-4.03340E-07 2.07539E-19 3.02240E-18
 -1        85 1.00106E-04-3.00250E-05-2.99505E-05-4.66830E-07 1.27766E-20 2.09185E-18
 -1        86 1.06588E-04-3.19942E-05-3.17999E-05-3.87065E-07 2.11682E-19 4.02870E-19
 -1        87 1.10828E-04-3.32735E-05-3.30603E-05-2.44828E-07-1.60134E-19 1.08428E-18
 -1        88 1.12625E-04-3.38085E-05-3.36389E-05-1.08788E-07 3.88609E-20 1.26232E-18
 -1        89 1.12428E-04-3.37417E-05-3.36353E-05-1.07179E-08 2.22071E-19-5.34028E-19
 -1        90 1.10919E-04-3.32821E-05-3.32314E-05 4.58508E-08-2.18820E-19 8.25228E-20
 -1        91 1.08732E-04-3.26216E-05-3.26095E-05 7.03184E-08 7.32102E-20 5.95014E-19
 -1        92 1.06340E-04-3.19020E-05-3.19120E-05 7.45048E-08-1.80368E-19 1.66119E-18
 -1        93 1.04043E-04-3.12124E-05-3.12325E-05 6.79441E-08 1.28468E-19 1.69054E-18
 -1        94 1.02002E-04-3.06004E-05-3.06230E-05 5.69222E-08 6.99680E-20-1.15140E-18
 -1        95 1.00282E-04-3.00847E-05-3.01061E-05 4.50480E-08 1.51574E-19-2.95498E-18
 -1        96 9.88884E-05-2.96669E-05-2.96853E-05 3.41273E-08-1.03409E-19-1.09683E-18
 -1        97 9.77947E-05-2.93390E-05-2.93540E-05 2.48902E-08-4.41195E-20 3.14723E-19
 -1        98 9.69603E-05-2.90888E-05-2.91005E-05 1.74857E-08-2.78300E-19 6.27701E-19
 -1        99 9.63406E-05-2.89030E-05-2.89118E-05 1.17805E-08 2.04632E-19-6.99044E-20
 -1       100 9.58928E-05-2.87686E-05-2.87751E-05 7.52755E-09 1.19687E-19 2.06911E-19
 -1       101 9.55790E-05-2.86744E-05-2.86790E-05 4.45425E-09-2.73623E-19-5.45508E-19
 -1       102 9.53669E-05-2.86107E-05-2.86138E-05 2.30459E-09 2.24282E-19 1.11210E-19
 -1       103 9.52302E-05-2.85696E-05-2.85717E-05 8.56945E-10 2.39965E-20-2.71394E-18
 -1       104 9.51481E-05-2.85449E-05-2.85461E-05-7.13753E-11-1.49300E-19-7.50179E-19
 -1       105 9.51043E-05-2.85316E-05-2.85323E-05-6.25799E-10-7.72228E-20 9.34375E-19
 -1       106 9.50864E-05-2.85262E-05-2.85265E-05-9.18946E-10-4.37547E-19 6.83482E-19
 -1       107 9.50855E-05-2.85259E-05-2.85260E-05-1.03595E-09 1.98691E-19-3.11347E-18
 -1       108 9.50949E-05-2.85286E-05-2.85286E-05-1.03971E-09 7.98401E-20-5.35561E-18
 -1       109 9.51100E-05-2.85331E-05-2.85330E-05-9.75590E-10 6.26057E-20-3.64037E-18
 -1       110 9.51276E-05-2.85384E-05-2.85382E-05-8.75533E-10-4.79028E-19-2.04795E-18
 -1       111 9.51457E-05-2.85438E-05-2.85436E-05-7.61374E-10 1.19396E-19-2.47015E-18
 -1       112 9.51631E-05-2.85490E-05-2.85488E-05-6.47560E-10-5.71728E-19-3.31304E-18
 -1       113 9.51791E-05-2.85538E-05-2.85536E-05-5.43262E-10 1.58211E-19-3.39601E-18
 -1       114 9.51933E-05-2.85580E-05-2.85579E-05-4.53955E-10-5.78917E-19-3.85361E-18
 -1       115 9.52057E-05-2.85617E-05-2.85616E-05-3.82226E-10 4.95152E-20-3.56502E-18
 -1       116 9.52161E-05-2.85648E-05-2.85647E-05-3.27856E-10-3.48663E-19-3.22748E-18
 -1       117 9.52248E-05-2.85674E-05-2.85673E-05-2.87526E-10 4.44874E-19-9.01654E-18
 -1       118 9.52314E-05-2.85694E-05-2.85693E-05-2.47503E-10 1.69581E-19-8.30007E-18
 -1       119 9.52358E-05-2.85708E-05-2.85706E-05-1.53048E-10 4.64940E-19-1.00545E-17
 -1       120 9.52375E-05-2.85713E-05-2.85712E-05 1.05536E-10 5.29903E-19-9.06402E-18
 -1       121 9.52371E-05-2.85709E-05-2.85712E-05 1.88694E-10-6.54939E-18 8.82583E-19
 -1       122 9.52376E-05-2.85727E-05-2.85705E-05-8.04829E-11-2.49425E-18 6.42217E-19
 -1       123 9.52389E-05-2.85769E-05-2.85693E-05-2.25597E-10 1.95349E-18-1.37115E-18
 -1       124 9.52405E-05-2.85824E-05-2.85678E-05-2.72025E-10 2.00723E-18 1.01901E-18
 -1       125 9.52422E-05-2.85881E-05-2.85661E-05-2.56417E-10 7.32778E-18-7.81944E-19
 -1       126 9.52437E-05-2.85932E-05-2.85646E-05-2.07386E-10 5.26003E-19-1.86854E-18
 -1       127 9.52449E-05-2.85970E-05-2.85635E-05-1.32655E-10 1.23535E-18 1.13947E-18
 -1       128 9.52455E-05-2.85990E-05-2.85629E-05-4.50842E-11 1.69234E-18-4.78883E-19
 -1       129 9.52454E-05-2.85990E-05-2.85629E-05 4.65049E-11 2.33967E-18 1.36450E-18
 -1       130 9.52448E-05-2.85969E-05-2.85635E-05 1.33751E-10-5.19195E-20-2.65588E-18
 -1       131 9.52437E-05-2.85931E-05-2.85646E-05 2.10262E-10-8.37954E-18-1.11933E-18
 -1       132 9.52422E-05-2.85880E-05-2.85661E-05 2.57514E-10-1.28861E-17 2.84066E-18
 -1       133 9.52405E-05-2.85823E-05-2.85678E-05 2.71427E-10-7.00195E-18 2.04731E-19
 -1       134 9.52389E-05-2.85768E-05-2.85694E-05 2.44342E-10-1.36600E-18 9.13678E-19
 -1       135 9.52376E-05-2.85727E-05-2.85705E-05 1.12008E-10-7.74549E-19-1.51729E-18
 -1       136 9.52372E-05-2.85710E-05-2.85712E-05-3.48579E-10-2.73710E-18-2.45491E-19
 -1       137 2.52800E-05-8.56412E-05 1.51269E-05-2.24679E-05 1.88742E-17 4.13262E-18
 -1       138 7.68895E-06-3.22965E-05 2.67555E-06-1.68515E-05 1.85399E-17 8.44238E-18
 -1       139 1.22155E-05 1.54129E-05-1.54300E-05 2.44859E-05 1.51822E-17 1.08310E-17
 -1       140 5.91012E-05 2.62358E-05-3.52720E-05 7.77269E-05 1.14803E-17 1.32899E-17
 -1       141 1.51192E-04-5.28298E-06-5.60556E-05 1.13232E-04 7.37279E-18 1.30087E-17
 -1       142 2.49242E-04-5.88766E-05-7.11380E-05 9.30127E-05 2.84317E-18 8.93408E-18
 -1       143 3.05975E-04-9.35572E-05-7.86766E-05 2.31028E-05 5.89032E-19 2.91697E-20
 -1       144 2.90141E-04-8.37415E-05-7.66238E-05-5.74291E-05 1.69612E-18-9.59688E-18
 -1       145 2.12228E-04-3.72827E-05-6.59630E-05-1.07019E-04 6.84254E-18-1.63147E-17
 -1       146 1.07622E-04 1.27280E-05-4.73491E-05-1.02099E-04 1.29685E-17-1.92963E-17
 -1       147 3.17364E-05 2.79306E-05-2.66334E-05-5.49179E-05 1.67679E-17-1.57510E-17
 -1       148 5.53850E-06-2.55118E-06-7.06780E-06-2.78853E-06 1.54698E-17-9.59667E-18
 -1       149 1.49700E-05-5.82874E-05 9.15383E-06 2.36426E-05 1.07154E-17-3.76061E-18
 -1       150 3.18640E-05-9.90498E-05 1.74849E-05 1.42965E-05 3.55119E-18-5.75374E-19
 -1       151 3.30324E-05-1.02503E-04 1.82005E-05-1.23022E-05-4.43051E-18-6.15700E-19
 -1       152 1.70292E-05-6.44949E-05 1.03872E-05-2.49299E-05-1.11838E-17-3.82001E-18
 -1       153 5.14344E-06-1.15684E-05-4.00430E-06-5.18966E-06-1.53944E-17-8.85361E-18
 -1       154 2.30040E-05 2.34673E-05-2.23035E-05 4.22040E-05-1.58234E-17-1.43530E-17
 -1       155 8.64334E-05 1.91025E-05-4.24669E-05 9.26005E-05-1.24497E-17-1.62148E-17
 -1       156 1.89050E-04-2.42039E-05-6.25234E-05 1.13362E-04-6.16301E-18-1.27656E-17
 -1       157 2.78391E-04-7.53574E-05-7.52242E-05 7.65821E-05-1.63297E-18-6.03871E-18
 -1       158 2.73040E-04-7.20361E-05-7.45369E-05-7.99677E-05-2.77774E-18 1.19167E-17
 -1       159 1.74188E-04-1.66181E-05-5.99598E-05-1.14563E-04-8.25095E-18 1.60805E-17
 -1       160 7.29943E-05 2.37694E-05-3.92715E-05-8.69124E-05-1.43284E-17 1.78199E-17
 -1       161 1.33098E-05 1.64980E-05-1.64525E-05-2.69791E-05-1.76263E-17 1.41010E-17
 -1       162 7.16085E-06-3.29678E-05 2.93829E-06 1.85520E-05-1.44428E-17 7.12503E-18
 -1       163 2.55482E-05-8.69182E-05 1.53497E-05 2.43558E-05-4.90517E-18 1.40666E-18
 -1       164 1.08555E-04-1.62309E-05-3.97436E-05-1.64700E-05-1.80609E-18 1.54189E-18
 -1       165 9.78893E-05-1.05977E-05-3.75637E-05-1.01826E-05-1.65246E-18-5.96020E-19
 -1       166 8.94459E-05-6.97115E-06-3.54580E-05-5.69950E-06-1.27774E-18-1.81581E-18
 -1       167 8.22092E-05-4.27169E-06-3.34829E-05-2.68600E-06-9.07344E-19-2.57661E-18
 -1       168 7.61222E-05-2.05826E-06-3.18014E-05-1.05799E-06-6.05059E-19-2.90536E-18
 -1       169 7.14518E-05-3.66904E-07-3.05124E-05-5.89278E-07-2.90956E-19-3.08812E-18
 -1       170 6.88819E-05 5.13997E-07-2.97824E-05-9.42559E-07 5.23481E-20-3.14775E-18
 -1       171 6.87425E-05 4.18075E-07-2.96806E-05-1.54077E-06 2.72493E-19-3.15587E-18
 -1       172 7.09134E-05-5.84103E-07-3.01852E-05-1.75335E-06 5.17888E-19-3.05051E-18
 -1       173 7.48566E-05-2.20278E-06-3.11897E-05-1.08986E-06 7.61158E-19-2.77375E-18
 -1       174 7.97703E-05-4.05450E-06-3.25157E-05 6.40779E-07 1.05452E-18-2.33218E-18
 -1       175 8.52660E-05-5.99187E-06-3.40619E-05 3.50399E-06 1.47011E-18-1.72779E-18
 -1       176 9.11060E-05-8.07769E-06-3.57059E-05 7.40200E-06 1.79224E-18-7.63071E-19
 -1       177 9.78362E-05-1.09551E-05-3.74032E-05 1.23013E-05 1.99597E-18 8.34394E-19
 -1       178 1.07619E-04-1.69346E-05-3.90658E-05 1.79292E-05 1.83352E-18 3.57842E-18
 -1       179 1.19660E-04-3.06115E-05-3.93911E-05 1.58358E-05 1.32268E-18 7.06113E-18
 -1       180 1.20746E-04-3.28009E-05-3.76880E-05-7.68068E-06-1.61349E-18 3.99895E-18
 -1       181 1.16864E-04-3.44663E-05-3.53477E-05-6.74935E-07-1.36904E-18 3.24304E-18
 -1       182 1.15729E-04-3.46152E-05-3.47258E-05 1.38811E-06-9.82654E-19 2.82710E-18
 -1       183 1.16120E-04-3.52035E-05-3.46612E-05 1.22212E-06-5.86122E-19 2.29938E-18
 -1       184 1.16366E-04-3.57171E-05-3.45632E-05-6.50394E-07-4.08128E-19 1.99031E-18
 -1       185 1.15372E-04-3.57240E-05-3.41367E-05-3.88229E-06-3.92507E-19 1.89119E-18
 -1       186 1.12388E-04-3.47038E-05-3.32888E-05-7.47838E-06-5.16214E-19 1.70125E-18
 -1       187 1.07493E-04-3.24268E-05-3.21637E-05-9.51713E-06-8.97708E-19 1.40663E-18
 -1       188 1.02119E-04-2.95221E-05-3.11140E-05-7.96029E-06-1.25633E-18 8.74065E-19
 -1       189 9.87659E-05-2.75358E-05-3.05420E-05-2.44696E-06-7.93174E-19 3.31966E-19
 -1       190 9.94253E-05-2.78742E-05-3.06798E-05 4.53280E-06-4.96123E-19-1.53412E-18
 -1       191 1.03789E-04-3.03228E-05-3.14877E-05 9.25966E-06-8.19336E-19-2.25245E-18
 -1       192 1.09531E-04-3.33011E-05-3.26662E-05 9.82181E-06-1.40033E-19-2.23539E-18
 -1       193 1.14214E-04-3.53787E-05-3.37880E-05 7.07643E-06 1.43963E-19-2.13518E-18
 -1       194 1.16628E-04-3.61320E-05-3.45106E-05 3.14570E-06 4.19162E-19-1.94871E-18
 -1       195 1.16782E-04-3.58615E-05-3.46979E-05-2.85688E-07 3.72198E-20-1.12074E-18
 -1       196 1.15289E-04-3.50387E-05-3.44095E-05-2.53142E-06 3.42645E-19-1.54348E-18
 -1       197 1.12862E-04-3.40186E-05-3.38014E-05-3.62433E-06-3.77158E-19-1.60439E-18
 -1       198 1.10077E-04-3.30021E-05-3.30376E-05-3.88599E-06-1.00187E-18-1.88403E-18
 -1       199 1.07320E-04-3.20831E-05-3.22449E-05-3.65649E-06-1.04305E-19-2.52687E-18
 -1       200 1.04809E-04-3.12958E-05-3.15029E-05-3.19203E-06 2.81462E-19-2.25307E-18
 -1       201 1.02642E-04-3.06443E-05-3.08519E-05-2.65426E-06-5.89655E-19-1.38964E-18
 -1       202 1.00843E-04-3.01187E-05-3.03056E-05-2.13224E-06 1.47819E-19-8.19000E-19
 -1       203 9.93923E-05-2.97036E-05-2.98620E-05-1.66792E-06 8.46585E-19-7.92700E-20
 -1       204 9.82500E-05-2.93817E-05-2.95109E-05-1.27592E-06-2.28811E-19 5.55563E-19
 -1       205 9.73691E-05-2.91365E-05-2.92390E-05-9.56308E-07-6.94022E-19-5.93337E-19
 -1       206 9.67028E-05-2.89531E-05-2.90327E-05-7.02369E-07-7.46286E-19-1.73617E-18
 -1       207 9.62086E-05-2.88185E-05-2.88792E-05-5.04795E-07-2.04436E-20-2.55956E-18
 -1       208 9.58495E-05-2.87217E-05-2.87672E-05-3.53913E-07 2.38390E-19-2.42419E-18
 -1       209 9.55945E-05-2.86540E-05-2.86874E-05-2.40738E-07-1.05901E-19-2.37635E-18
 -1       210 9.54183E-05-2.86079E-05-2.86320E-05-1.57409E-07-1.27275E-18-2.23096E-18
 -1       211 9.53009E-05-2.85779E-05-2.85948E-05-9.72881E-08-1.00740E-18-3.11049E-18
 -1       212 9.52262E-05-2.85594E-05-2.85709E-05-5.49171E-08-7.75951E-19-3.23277E-18
 -1       213 9.51821E-05-2.85490E-05-2.85566E-05-2.58948E-08 2.78073E-19-2.74420E-18
 -1       214 9.51592E-05-2.85442E-05-2.85490E-05-6.73265E-09 8.49916E-19-1.83985E-18
 -1       215 9.51505E-05-2.85431E-05-2.85459E-05 5.29108E-09 3.29751E-19-3.35201E-18
 -1       216 9.51511E-05-2.85443E-05-2.85456E-05 1.22664E-08 1.24052E-18-2.75947E-18
 -1       217 9.51572E-05-2.85468E-05-2.85472E-05 1.57723E-08 1.17487E-18 1.58554E-19
 -1       218 9.51663E-05-2.85500E-05-2.85498E-05 1.69794E-08-8.73474E-19-1.90785E-18
 -1       219 9.51768E-05-2.85533E-05-2.85529E-05 1.67373E-08-1.90032E-19-8.50486E-19
 -1       220 9.51874E-05-2.85567E-05-2.85560E-05 1.56450E-08-4.33987E-19 3.36156E-19
 -1       221 9.51976E-05-2.85598E-05-2.85591E-05 1.41066E-08 1.07991E-18-1.95911E-19
 -1       222 9.52069E-05-2.85626E-05-2.85619E-05 1.23741E-08 6.33963E-20 8.80379E-19
 -1       223 9.52151E-05-2.85650E-05-2.85643E-05 1.05780E-08 1.53911E-18 1.73478E-18
 -1       224 9.52222E-05-2.85671E-05-2.85665E-05 8.74704E-09 1.23717E-18 1.02455E-18
 -1       225 9.52279E-05-2.85689E-05-2.85682E-05 6.82169E-09-2.41220E-19-6.44804E-19
 -1       226 9.52323E-05-2.85703E-05-2.85694E-05 4.68197E-09 4.07254E-19-9.87082E-19
 -1       227 9.52355E-05-2.85714E-05-2.85703E-05 2.26654E-09 4.70937E-19 1.64359E-19
 -1       228 1.14997E-04-3.34175E-05-3.51333E-05 4.70695E-06 1.44591E-18 6.24337E-18
 -1       229 1.11451E-04-3.31344E-05-3.35296E-05 1.07195E-06 1.06849E-18 5.21754E-18
 -1       230 1.10054E-04-3.30952E-05-3.29367E-05 3.84433E-07 7.51396E-19 4.35610E-18
 -1       231 1.09007E-04-3.30088E-05-3.25416E-05 1.04368E-06 4.95787E-19 3.83220E-18
 -1       232 1.07332E-04-3.26378E-05-3.19912E-05 2.50379E-06 4.76977E-19 3.62501E-18
 -1       233 1.04516E-04-3.17741E-05-3.11584E-05 4.22118E-06 2.00499E-19 3.09475E-18
 -1       234 1.00610E-04-3.03664E-05-3.00953E-05 5.41232E-06 5.25700E-19 2.95708E-18
 -1       235 9.63539E-05-2.86572E-05-2.90173E-05 5.21664E-06 3.52887E-19 2.47513E-18
 -1       236 9.30483E-05-2.72151E-05-2.82325E-05 3.18813E-06 5.53367E-19 1.16313E-18
 -1       237 9.19986E-05-2.66983E-05-2.80068E-05-1.79764E-07 2.22376E-19 1.16367E-18
 -1       238 9.37083E-05-2.73825E-05-2.84358E-05-3.57207E-06 4.87735E-19 1.02861E-18
 -1       239 9.75530E-05-2.89718E-05-2.93866E-05-5.65915E-06 4.25336E-20 7.32961E-19
 -1       240 1.02155E-04-3.08024E-05-3.05641E-05-5.88104E-06 6.51301E-19 4.24906E-19
 -1       241 1.06153E-04-3.22745E-05-3.16472E-05-4.60437E-06 6.16231E-19 2.86075E-19
 -1       242 1.08749E-04-3.31135E-05-3.24080E-05-2.65279E-06-4.04471E-19 3.15900E-21
 -1       243 1.09782E-04-3.33423E-05-3.27600E-05-7.58243E-07-1.27131E-19-2.94066E-19
 -1       244 1.09500E-04-3.31239E-05-3.27375E-05 6.81834E-07 4.12224E-19 4.77050E-19
 -1       245 1.08316E-04-3.26409E-05-3.24387E-05 1.57094E-06-1.16942E-19 3.01266E-19
 -1       246 1.06637E-04-3.20404E-05-3.19755E-05 1.98511E-06-5.64243E-19 3.40731E-19
 -1       247 1.04782E-04-3.14215E-05-3.14436E-05 2.06047E-06-4.79129E-19 6.03410E-19
 -1       248 1.02966E-04-3.08428E-05-3.09115E-05 1.92831E-06 4.21055E-19 2.34789E-19
 -1       249 1.01316E-04-3.03335E-05-3.04213E-05 1.68995E-06 1.15248E-18-2.28376E-19
 -1       250 9.98926E-05-2.99042E-05-2.99942E-05 1.41371E-06 8.46826E-19-6.90387E-19
 -1       251 9.87110E-05-2.95542E-05-2.96373E-05 1.14091E-06-1.37922E-18 6.50289E-20
 -1       252 9.77605E-05-2.92766E-05-2.93487E-05 8.93623E-07-8.46060E-19 8.23691E-19
 -1       253 9.70163E-05-2.90620E-05-2.91217E-05 6.81417E-07-2.28732E-19 1.09239E-18
 -1       254 9.64480E-05-2.88998E-05-2.89478E-05 5.06351E-07 6.40163E-20 1.27353E-18
 -1       255 9.60245E-05-2.87803E-05-2.88177E-05 3.66337E-07-9.83296E-20 1.27195E-18
 -1       256 9.57167E-05-2.86943E-05-2.87228E-05 2.57282E-07 3.00584E-19 3.19315E-19
 -1       257 9.54994E-05-2.86344E-05-2.86556E-05 1.74377E-07 6.68994E-19-8.00895E-19
 -1       258 9.53510E-05-2.85941E-05-2.86094E-05 1.12835E-07 6.91420E-20 1.30748E-19
 -1       259 9.52539E-05-2.85682E-05-2.85791E-05 6.82785E-08-9.36134E-19 1.07702E-18
 -1       260 9.51942E-05-2.85528E-05-2.85602E-05 3.69046E-08-1.30842E-19 9.24204E-19
 -1       261 9.51610E-05-2.85447E-05-2.85495E-05 1.55342E-08 4.72668E-19 1.13605E-18
 -1       262 9.51459E-05-2.85415E-05-2.85445E-05 1.58374E-09 2.06060E-18-7.78309E-19
 -1       263 9.51429E-05-2.85416E-05-2.85433E-05-6.99473E-09 1.64794E-19-1.21974E-18
 -1       264 9.51473E-05-2.85436E-05-2.85443E-05-1.17892E-08-1.30286E-18-1.15629E-18
 -1       265 9.51560E-05-2.85466E-05-2.85468E-05-1.40044E-08-4.61634E-19-5.48585E-19
 -1       266 9.51669E-05-2.85502E-05-2.85500E-05-1.45340E-08 3.39436E-19 1.25509E-18
 -1       267 9.51784E-05-2.85538E-05-2.85534E-05-1.40236E-08 4.83840E-19 1.02347E-18
 -1       268 9.51897E-05-2.85572E-05-2.85568E-05-1.29236E-08 2.66756E-19 7.11704E-19
 -1       269 9.52002E-05-2.85604E-05-2.85599E-05-1.15321E-08-5.44076E-19 6.40244E-19
 -1       270 9.52095E-05-2.85632E-05-2.85627E-05-1.00260E-08 1.24581E-18-2.42360E-19
 -1       271 9.52177E-05-2.85657E-05-2.85652E-05-8.48326E-09 6.32006E-19-2.17289E-18
 -1       272 9.52245E-05-2.85677E-05-2.85672E-05-6.90048E-09 2.32099E-18-5.70460E-19
 -1       273 9.52300E-05-2.85694E-05-2.85688E-05-5.19887E-09-5.14581E-19-1.61741E-18
 -1       274 9.52339E-05-2.85707E-05-2.85700E-05-3.24609E-09 1.46338E-19-1.67909E-18
 -1       275 9.52363E-05-2.85714E-05-2.85707E-05-1.09436E-09-1.55751E-18-1.18095E-18
 -1       276 9.52369E-05-2.85729E-05-2.85703E-05-2.35407E-09-5.17989E-19 2.91738E-18
 -1       277 9.52380E-05-2.85758E-05-2.85695E-05-4.39610E-09 9.05076E-19 1.49644E-18
 -1       278 9.52395E-05-2.85796E-05-2.85685E-05-5.60219E-09 1.97243E-18 5.47375E-19
 -1       279 9.52410E-05-2.85837E-05-2.85674E-05-5.81347E-09 1.35790E-18 1.36751E-18
 -1       280 9.52424E-05-2.85875E-05-2.85663E-05-5.17121E-09-9.88830E-19-4.20265E-18
 -1       281 9.52435E-05-2.85907E-05-2.85654E-05-3.83522E-09-5.30191E-20 5.68795E-20
 -1       282 9.52442E-05-2.85928E-05-2.85649E-05-2.02828E-09 3.06775E-19 1.15821E-18
 -1       283 9.52444E-05-2.85935E-05-2.85647E-05 1.53081E-11 1.70574E-18-9.57273E-19
 -1       284 9.52442E-05-2.85928E-05-2.85649E-05 2.05733E-09 9.95462E-19-2.42249E-18
 -1       285 9.52435E-05-2.85907E-05-2.85655E-05 3.86018E-09 4.71968E-19-4.69066E-18
 -1       286 9.52424E-05-2.85876E-05-2.85663E-05 5.17294E-09-1.14140E-18-3.53567E-18
 -1       287 9.52410E-05-2.85836E-05-2.85674E-05 5.82124E-09-2.24168E-18 2.79896E-18
 -1       288 9.52394E-05-2.85795E-05-2.85685E-05 5.59145E-09-1.38873E-18 4.48955E-18
 -1       289 9.52380E-05-2.85758E-05-2.85695E-05 4.34244E-09-2.03942E-19 9.36941E-19
 -1       290 9.52367E-05-2.85734E-05-2.85700E-05 3.74881E-09-2.53775E-19-3.21100E-18
 -1       291 1.19370E-05-4.37180E-05 1.07987E-05 9.40691E-06 4.77065E-18 4.98489E-18
 -1       292 2.66895E-05-4.16013E-05 3.81354E-06 2.31206E-05 6.25110E-18 2.65280E-18
 -1       293 5.42605E-05-3.61358E-05-9.39141E-06 3.60803E-05 6.51771E-18 3.26944E-18
 -1       294 9.17482E-05-3.22064E-05-2.58394E-05 4.47440E-05 5.36807E-18 4.14072E-18
 -1       295 1.38598E-04-3.68113E-05-4.28798E-05 3.80610E-05 3.84013E-18 2.89791E-18
 -1       296 1.76252E-04-3.20453E-05-5.92742E-05 3.91665E-05 4.19048E-18 3.39914E-18
 -1       297 1.94480E-04-3.02432E-05-6.78173E-05 1.36823E-05 4.51204E-18-7.19766E-19
 -1       298 2.11642E-04-3.64631E-05-7.15044E-05-5.60962E-06 4.62173E-18-2.31489E-18
 -1       299 1.90260E-04-3.21717E-05-6.52167E-05-2.27963E-05 5.49682E-18-4.46196E-18
 -1       300 1.59030E-04-3.38179E-05-5.23379E-05-3.29755E-05 5.54603E-18-4.57419E-18
 -1       301 1.15606E-04-3.04484E-05-3.60805E-05-4.68338E-05 6.20896E-18-7.48777E-18
 -1       302 7.06958E-05-3.01050E-05-1.84841E-05-4.13494E-05 6.16428E-18-7.46945E-18
 -1       303 3.97826E-05-3.64500E-05-3.39534E-06-3.16459E-05 4.28345E-18-5.68771E-18
 -1       304 1.72562E-05-4.11854E-05 7.38374E-06-1.60677E-05 2.60230E-18-4.68780E-18
 -1       305 1.04550E-05-4.59908E-05 1.17441E-05-1.71829E-06 1.08592E-19-3.96062E-18
 -1       306 1.55979E-05-4.05428E-05 7.92017E-06 1.39766E-05-1.98449E-18-4.13723E-18
 -1       307 3.58461E-05-3.80981E-05-1.38838E-06 2.73646E-05-4.19218E-18-5.17399E-18
 -1       308 6.51492E-05-3.26739E-05-1.53537E-05 3.83865E-05-5.76660E-18-6.22612E-18
 -1       309 1.07775E-04-3.28585E-05-3.20789E-05 4.52063E-05-5.57390E-18-5.46506E-18
 -1       310 1.53512E-04-3.73666E-05-4.87206E-05 3.35447E-05-5.29703E-18-2.62538E-18
 -1       311 1.91050E-04-3.50438E-05-6.38736E-05 3.23228E-05-4.87960E-18-1.98057E-18
 -1       312 2.08870E-04-3.52127E-05-7.09419E-05 1.10803E-05-4.14072E-18 4.73809E-19
 -1       313 2.00043E-04-3.09106E-05-6.97148E-05-8.58911E-06-4.71056E-18 1.80815E-18
 -1       314 1.87612E-04-3.47268E-05-6.25897E-05-3.43829E-05-4.77840E-18 5.15398E-18
 -1       315 1.46535E-04-3.44551E-05-4.67854E-05-4.09049E-05-5.69714E-18 5.14848E-18
 -1       316 9.56540E-05-3.08513E-05-2.80362E-05-4.49204E-05-6.52999E-18 6.55011E-18
 -1       317 5.79182E-05-3.83751E-05-9.94326E-06-3.63562E-05-3.96454E-18 6.22781E-18
 -1       318 2.62327E-05-4.31844E-05 4.36655E-06-2.01163E-05-2.36873E-18 6.11060E-18
 -1       319 1.19742E-05-4.62500E-05 1.14663E-05-6.82798E-06 1.97877E-18 6.52427E-18
 -1       320 9.81260E-05-1.64600E-05-3.50755E-05-5.17198E-06-1.61699E-18-5.69921E-19
 -1       321 1.08194E-04-2.32312E-05-3.64808E-05-7.79400E-06-1.89380E-18 8.54392E-19
 -1       322 8.11817E-05-7.15665E-06-3.17674E-05-3.85505E-07-8.17774E-19-1.94627E-18
 -1       323 7.44222E-05-3.57918E-06-3.03859E-05 3.19179E-07-4.86160E-19-2.28605E-18
 -1       324 6.98595E-05-1.19227E-06-2.94432E-05-2.24809E-07-8.90406E-20-2.39307E-18
 -1       325 6.82435E-05-4.63809E-07-2.90593E-05-1.46610E-06 2.61613E-19-2.52071E-18
 -1       326 6.97658E-05-1.51254E-06-2.92657E-05-2.55337E-06 4.57908E-19-2.44901E-18
 -1       327 7.38966E-05-3.96548E-06-2.99939E-05-2.69675E-06 7.53365E-19-2.25179E-18
 -1       328 7.95447E-05-7.11010E-06-3.10800E-05-1.54119E-06 1.01748E-18-1.91111E-18
 -1       329 8.59717E-05-1.05072E-05-3.23948E-05 8.70314E-07 1.45835E-18-1.27983E-18
 -1       330 9.25811E-05-1.39668E-05-3.37644E-05 4.12597E-06 1.82500E-18-5.47362E-19
 -1       331 9.95266E-05-1.79547E-05-3.50495E-05 7.59180E-06 2.12926E-18 4.31517E-19
 -1       332 1.07197E-04-2.35502E-05-3.59700E-05 9.92799E-06 2.18927E-18 2.29739E-18
 -1       333 1.12320E-04-2.90104E-05-3.57962E-05 8.24961E-06 1.94086E-18 3.85963E-18
 -1       334 1.11060E-04-3.19200E-05-3.38970E-05 3.04117E-06 1.56885E-18 3.22734E-18
 -1       335 1.12294E-04-3.15735E-05-3.45598E-05-3.55503E-07-1.41544E-18 1.29786E-18
 -1       336 1.12938E-04-3.38990E-05-3.38660E-05 1.82881E-06-8.59655E-19 1.22531E-18
 -1       337 1.14396E-04-3.61316E-05-3.35524E-05 1.10995E-06-5.31134E-19 1.25463E-18
 -1       338 1.16122E-04-3.81750E-05-3.34270E-05-2.15481E-06-3.37680E-19 1.19845E-18
 -1       339 1.17111E-04-3.90404E-05-3.34823E-05-7.27425E-06-3.70463E-19 1.61713E-18
 -1       340 1.16078E-04-3.72528E-05-3.38024E-05-1.22469E-05-8.38548E-19 1.70710E-18
 -1       341 1.12554E-04-3.23354E-05-3.44017E-05-1.35983E-05-1.37505E-18 1.31456E-18
 -1       342 1.08173E-04-2.64603E-05-3.50543E-05-8.55873E-06-1.87501E-18 6.79354E-19
 -1       343 1.06538E-04-2.42606E-05-3.53112E-05 1.65334E-06-1.90256E-18-8.58837E-19
 -1       344 1.09162E-04-2.76943E-05-3.49528E-05 1.10881E-05-1.17453E-18-1.25475E-18
 -1       345 1.13691E-04-3.37754E-05-3.42758E-05 1.45231E-05-7.06928E-19-1.54333E-18
 -1       346 1.16711E-04-3.81868E-05-3.36726E-05 1.17421E-05 1.68128E-19-1.33272E-18
 -1       347 1.16999E-04-3.93514E-05-3.33042E-05 5.98295E-06 3.78465E-19-1.53890E-18
 -1       348 1.15244E-04-3.81489E-05-3.30685E-05 3.59628E-07 6.04289E-19-1.84264E-18
 -1       349 1.12588E-04-3.60494E-05-3.28248E-05-3.64001E-06-1.18899E-20-1.55471E-18
 -1       350 1.09794E-04-3.40055E-05-3.24946E-05-5.82892E-06-2.25787E-19-1.78137E-18
 -1       351 1.07204E-04-3.23801E-05-3.20738E-05-6.60125E-06-5.08164E-19-1.66287E-18
 -1       352 1.04929E-04-3.12026E-05-3.15975E-05-6.46176E-06-7.60417E-19-1.26443E-18
 -1       353 1.02978E-04-3.03835E-05-3.11094E-05-5.82804E-06 3.91355E-19-1.00325E-18
 -1       354 1.01334E-04-2.98195E-05-3.06449E-05-4.98671E-06 9.02186E-19-5.65602E-19
 -1       355 9.99682E-05-2.94289E-05-3.02264E-05-4.11134E-06-1.19645E-19 3.92157E-19
 -1       356 9.88503E-05-2.91555E-05-2.98648E-05-3.29527E-06 3.09524E-19-4.98857E-19
 -1       357 9.79498E-05-2.89621E-05-2.95622E-05-2.58085E-06 8.95955E-19-1.34895E-18
 -1       358 9.72358E-05-2.88249E-05-2.93157E-05-1.98058E-06-4.70175E-19-9.85788E-19
 -1       359 9.66790E-05-2.87280E-05-2.91192E-05-1.49091E-06-1.04483E-18-7.25411E-19
 -1       360 9.62519E-05-2.86602E-05-2.89658E-05-1.10062E-06-3.86973E-19-1.08516E-18
 -1       361 9.59300E-05-2.86139E-05-2.88481E-05-7.95628E-07 4.33064E-19-5.09314E-19
 -1       362 9.56920E-05-2.85833E-05-2.87597E-05-5.61552E-07 4.68541E-21-1.01093E-18
 -1       363 9.55197E-05-2.85640E-05-2.86944E-05-3.85050E-07-8.91332E-19-1.47195E-18
 -1       364 9.53979E-05-2.85527E-05-2.86473E-05-2.54374E-07-1.10495E-18-7.52350E-19
 -1       365 9.53143E-05-2.85471E-05-2.86140E-05-1.59535E-07-4.29176E-19 8.32580E-20
 -1       366 9.52591E-05-2.85452E-05-2.85913E-05-9.22538E-08-6.61812E-19-1.28087E-19
 -1       367 9.52245E-05-2.85457E-05-2.85764E-05-4.58080E-08 4.42737E-19-9.54254E-19
 -1       368 9.52045E-05-2.85476E-05-2.85671E-05-1.48340E-08-6.56066E-19-1.57281E-18
 -1       369 9.51948E-05-2.85503E-05-2.85618E-05 4.87657E-09 1.04711E-18-3.79909E-19
 -1       370 9.51918E-05-2.85533E-05-2.85593E-05 1.65718E-08 3.03218E-18-7.41650E-19
 -1       371 9.51930E-05-2.85563E-05-2.85586E-05 2.27163E-08 5.13235E-19-3.52597E-19
 -1       372 9.51969E-05-2.85591E-05-2.85591E-05 2.51448E-08 1.10350E-19 2.33849E-18
 -1       373 9.52021E-05-2.85616E-05-2.85602E-05 2.51924E-08-6.63065E-19 1.57525E-18
 -1       374 9.52079E-05-2.85639E-05-2.85617E-05 2.38015E-08-1.56951E-19 5.74869E-19
 -1       375 9.52136E-05-2.85659E-05-2.85633E-05 2.16076E-08 1.51748E-18 1.25440E-18
 -1       376 9.52190E-05-2.85676E-05-2.85649E-05 1.90053E-08 1.39569E-18 2.35934E-18
 -1       377 9.52239E-05-2.85691E-05-2.85664E-05 1.61996E-08 1.07597E-18 1.33641E-18
 -1       378 9.52281E-05-2.85705E-05-2.85676E-05 1.32496E-08-1.11907E-18 1.25614E-18
 -1       379 9.52318E-05-2.85718E-05-2.85686E-05 1.01163E-08-6.45635E-19 5.37088E-19
 -1       380 9.52344E-05-2.85727E-05-2.85693E-05 6.97954E-09-2.37393E-19-7.80224E-19
 -1       381 1.10064E-04-3.30204E-05-3.29939E-05 1.31313E-06 1.10265E-18 2.82496E-18
 -1       382 1.09418E-04-3.36363E-05-3.24725E-05 1.79409E-06 8.80902E-19 2.44347E-18
 -1       383 1.08608E-04-3.38686E-05-3.20366E-05 3.67633E-06 4.56940E-19 2.06151E-18
 -1       384 1.07049E-04-3.33934E-05-3.15726E-05 6.14282E-06 4.45779E-19 1.86108E-18
 -1       385 1.04471E-04-3.19395E-05-3.10851E-05 8.02253E-06 4.35288E-19 1.80393E-18
 -1       386 1.01185E-04-2.96492E-05-3.06511E-05 7.97860E-06 9.45553E-19 1.82025E-18
 -1       387 9.82138E-05-2.73384E-05-3.03626E-05 5.17940E-06 1.05115E-18 9.13902E-19
 -1       388 9.69400E-05-2.62594E-05-3.02737E-05 1.85825E-07 2.21211E-19 9.32818E-19
 -1       389 9.80449E-05-2.70537E-05-3.04048E-05-5.02565E-06 5.85512E-19 5.92260E-19
 -1       390 1.01010E-04-2.92829E-05-3.07238E-05-8.34524E-06 4.77045E-19 5.57950E-20
 -1       391 1.04477E-04-3.17634E-05-3.11562E-05-8.80980E-06 8.74570E-19-5.42113E-19
 -1       392 1.07200E-04-3.34932E-05-3.15940E-05-6.93219E-06 4.89143E-19 2.61675E-19
 -1       393 1.08612E-04-3.41557E-05-3.19246E-05-3.97489E-06 1.15890E-19-2.98390E-19
 -1       394 1.08768E-04-3.39749E-05-3.20713E-05-1.06609E-06-7.97055E-20-5.33102E-19
 -1       395 1.07998E-04-3.33260E-05-3.20176E-05 1.17502E-06-1.68808E-19-2.01249E-19
 -1       396 1.06673E-04-3.25125E-05-3.17939E-05 2.58411E-06 2.53474E-19 2.54342E-19
 -1       397 1.05092E-04-3.17142E-05-3.14538E-05 3.26168E-06-5.21400E-19-1.22562E-19
 -1       398 1.03466E-04-3.10116E-05-3.10539E-05 3.40595E-06-4.43073E-20-3.31021E-19
 -1       399 1.01925E-04-3.04276E-05-3.06411E-05 3.21438E-06 2.70848E-19-1.31408E-18
 -1       400 1.00543E-04-2.99578E-05-3.02485E-05 2.84362E-06 1.15743E-18-7.52242E-19
 -1       401 9.93520E-05-2.95881E-05-2.98959E-05 2.40243E-06 6.95941E-19-7.40905E-20
 -1       402 9.83580E-05-2.93020E-05-2.95923E-05 1.95879E-06-1.76507E-18 3.78660E-19
 -1       403 9.75503E-05-2.90839E-05-2.93398E-05 1.55066E-06-1.34997E-18 1.94861E-19
 -1       404 9.69097E-05-2.89203E-05-2.91357E-05 1.19584E-06 1.61828E-20-7.46616E-19
 -1       405 9.64126E-05-2.87996E-05-2.89748E-05 8.99601E-07 9.01160E-20 3.19352E-19
 -1       406 9.60354E-05-2.87124E-05-2.88509E-05 6.59940E-07 4.65728E-19-1.09982E-19
 -1       407 9.57554E-05-2.86509E-05-2.87577E-05 4.71141E-07 5.67536E-19 4.95693E-19
 -1       408 9.55525E-05-2.86087E-05-2.86891E-05 3.25935E-07 2.65759E-19 1.38730E-18
 -1       409 9.54095E-05-2.85809E-05-2.86400E-05 2.16806E-07 3.36130E-20 1.75967E-18
 -1       410 9.53119E-05-2.85636E-05-2.86059E-05 1.36704E-07-6.32652E-19 3.63839E-19
 -1       411 9.52482E-05-2.85536E-05-2.85830E-05 7.93940E-08-3.11157E-19 2.41571E-20
 -1       412 9.52091E-05-2.85487E-05-2.85684E-05 3.95826E-08 3.44085E-19-3.07161E-19
 -1       413 9.51873E-05-2.85472E-05-2.85598E-05 1.29125E-08 2.00893E-18 5.74998E-19
 -1       414 9.51775E-05-2.85479E-05-2.85554E-05-4.11244E-09 6.63684E-19 1.23784E-18
 -1       415 9.51756E-05-2.85499E-05-2.85538E-05-1.42340E-08-1.33553E-18 1.18274E-18
 -1       416 9.51786E-05-2.85525E-05-2.85540E-05-1.95564E-08-7.93189E-19 1.88228E-19
 -1       417 9.51845E-05-2.85553E-05-2.85554E-05-2.16594E-08-1.19395E-18 3.46353E-19
 -1       418 9.51918E-05-2.85581E-05-2.85573E-05-2.16995E-08 8.16266E-19 1.26590E-18
 -1       419 9.51995E-05-2.85608E-05-2.85594E-05-2.04976E-08 8.45790E-20 1.68826E-18
 -1       420 9.52070E-05-2.85632E-05-2.85616E-05-1.86103E-08 3.64866E-19 1.36521E-18
 -1       421 9.52140E-05-2.85654E-05-2.85637E-05-1.63859E-08 1.30623E-18 1.74053E-18
 -1       422 9.52203E-05-2.85673E-05-2.85656E-05-1.40052E-08 3.69943E-19 2.22697E-18
 -1       423 9.52257E-05-2.85689E-05-2.85672E-05-1.15155E-08 4.49804E-19 3.55247E-18
 -1       424 9.52302E-05-2.85704E-05-2.85685E-05-8.86797E-09 1.38819E-18 4.77661E-18
 -1       425 9.52337E-05-2.85717E-05-2.85695E-05-5.97575E-09-5.42953E-19 3.08896E-18
 -1       426 9.52355E-05-2.85724E-05-2.85699E-05-4.20641E-09-5.31982E-19 3.49175E-18
 -1       427 9.52398E-05-2.85807E-05-2.85682E-05-9.93750E-09 3.35102E-19-1.30774E-19
 -1       428 9.52377E-05-2.85772E-05-2.85688E-05-9.00903E-09 1.01988E-18 1.34264E-18
 -1       429 9.52364E-05-2.85746E-05-2.85693E-05-6.88693E-09-1.84825E-19 3.34883E-18
 -1       430 9.52418E-05-2.85841E-05-2.85676E-05-9.44149E-09-8.50165E-19-3.93072E-18
 -1       431 9.52434E-05-2.85870E-05-2.85670E-05-7.69039E-09-6.65806E-20-2.50162E-18
 -1       432 9.52445E-05-2.85891E-05-2.85666E-05-4.99318E-09 1.00706E-18 1.76057E-18
 -1       433 9.52451E-05-2.85902E-05-2.85664E-05-1.71323E-09-1.64733E-18-1.65701E-18
 -1       434 9.52451E-05-2.85902E-05-2.85664E-05 1.76211E-09-9.33388E-19-1.47169E-18
 -1       435 9.52445E-05-2.85891E-05-2.85666E-05 5.03796E-09 1.75248E-19-4.29567E-18
 -1       436 9.52434E-05-2.85870E-05-2.85670E-05 7.68763E-09 4.30495E-20-5.45685E-18
 -1       437 9.52418E-05-2.85841E-05-2.85676E-05 9.44422E-09 9.65456E-19 1.73172E-18
 -1       438 9.52398E-05-2.85807E-05-2.85682E-05 9.94736E-09 1.06055E-18 2.42337E-18
 -1       439 9.52377E-05-2.85771E-05-2.85688E-05 9.03944E-09-1.01659E-18 3.82489E-18
 -1       440 6.02129E-05-4.07086E-05-8.34869E-06 4.38783E-05 5.32890E-19 7.94782E-19
 -1       441 1.38454E-05-1.83819E-05 2.16719E-06-1.97609E-07 5.59392E-19 7.60350E-18
 -1       442 2.58864E-05-2.77367E-05 6.57155E-07 2.87690E-05 1.03915E-18 1.28749E-18
 -1       443 9.73714E-05-5.17683E-05-1.96298E-05 4.17567E-05 1.91186E-18 4.96626E-19
 -1       444 1.29374E-04-5.39174E-05-3.23519E-05 2.83655E-05 1.85130E-18 4.63221E-19
 -1       445 8.92537E-05-1.14507E-05-3.34017E-05-2.42485E-06-1.25923E-18-1.48642E-18
 -1       446 1.58041E-04-2.53238E-05-5.68120E-05 9.15145E-07 4.01631E-18-1.67533E-18
 -1       447 1.54671E-04-1.15154E-05-6.14409E-05-4.29416E-07 4.96859E-18-1.43644E-18
 -1       448 1.56334E-04-1.47812E-05-6.06118E-05 2.22576E-06 5.29269E-18-1.11041E-18
 -1       449 1.52338E-04-2.99825E-05-5.26314E-05 2.98377E-06 3.97078E-18-4.31669E-19
 -1       450 1.43397E-04-4.96743E-05-4.02586E-05-1.54965E-05 2.08124E-18-4.83656E-19
 -1       451 1.15661E-04-5.18965E-05-2.74115E-05-3.59774E-05 1.22259E-18-3.02184E-18
 -1       452 8.31242E-05-4.64083E-05-1.56877E-05-4.44213E-05 3.13402E-20-3.92790E-18
 -1       453 3.76997E-05-3.07586E-05-3.22768E-06-3.68862E-05 5.85617E-19-4.81300E-18
 -1       454 1.43214E-05-2.07190E-05 2.46070E-06-1.54166E-05 3.76559E-19-4.98299E-18
 -1       455 1.22291E-05-2.03783E-05 3.15670E-06 8.81868E-06 4.24072E-19-4.50166E-18
 -1       456 3.59891E-05-3.06659E-05-2.53875E-06 3.43903E-05 5.06102E-20-4.29139E-18
 -1       457 7.49968E-05-4.49301E-05-1.30018E-05 4.32062E-05-1.96829E-19-3.24133E-18
 -1       458 1.10254E-04-5.32593E-05-2.45420E-05 3.71523E-05-1.11035E-18-2.35518E-18
 -1       459 1.40517E-04-5.30323E-05-3.75175E-05 2.08180E-05-2.52066E-18-1.23455E-19
 -1       460 1.58006E-04-3.53929E-05-5.24282E-05 2.59481E-06-4.56000E-18 1.04789E-18
 -1       461 1.63049E-04-2.20885E-05-6.00788E-05-1.23798E-06-5.19549E-18 9.91452E-19
 -1       462 1.59996E-04-1.35063E-05-6.26914E-05-5.19140E-07-4.11245E-18 1.27490E-18
 -1       463 1.58140E-04-2.27744E-05-5.81073E-05 3.76329E-06-4.08778E-18 3.21767E-19
 -1       464 1.56958E-04-3.90621E-05-5.03578E-05-3.04082E-06-3.46564E-18 8.47033E-20
 -1       465 1.36614E-04-5.40796E-05-3.54385E-05-2.44187E-05-1.92192E-18 1.25668E-18
 -1       466 1.06027E-04-5.52461E-05-2.17506E-05-3.87279E-05 2.40134E-19 1.93351E-18
 -1       467 5.83695E-05-4.10413E-05-7.55829E-06-4.21263E-05 1.46685E-18 4.54036E-18
 -1       468 2.76770E-05-2.86998E-05 3.38255E-07-2.86985E-05 1.19516E-18 6.43025E-18
 -1       469 1.50743E-04-4.04082E-05-4.73099E-05 7.89099E-06 2.78551E-18-7.79270E-19
 -1       470 1.41993E-04-5.32535E-05-3.81947E-05 8.11488E-06 1.52258E-18-9.94681E-19
 -1       471 1.47778E-04-4.79412E-05-4.30298E-05-1.86265E-07-2.69603E-18 1.85728E-18
 -1       472 1.39852E-04-1.33544E-05-5.46638E-05-7.83931E-06 3.94876E-18-1.93791E-18
 -1       473 1.40521E-04-1.26888E-05-5.52806E-05 7.47538E-06-3.86162E-18 2.10249E-19
 -1       474 1.08299E-04-3.07091E-05-3.32461E-05 2.84479E-06 1.41915E-18 1.50570E-18
 -1       475 7.18795E-05-4.65275E-06-2.88172E-05 1.93587E-06-1.69540E-19-2.08665E-18
 -1       476 7.89536E-05-8.96462E-06-3.00066E-05 2.71768E-06-4.34397E-19-1.91115E-18
 -1       477 6.81108E-05-2.60605E-06-2.80767E-05-3.05921E-06 2.41896E-19-2.28979E-18
 -1       478 7.20648E-05-5.31979E-06-2.86109E-05-4.80098E-06 5.07993E-19-2.20674E-18
 -1       479 7.84059E-05-9.41777E-06-2.95779E-05-4.72557E-06 7.53228E-19-1.82383E-18
 -1       480 8.58030E-05-1.39640E-05-3.08064E-05-2.84340E-06 1.09043E-18-1.28599E-18
 -1       481 9.30634E-05-1.82588E-05-3.20816E-05 1.57933E-07 1.37021E-18-7.47736E-19
 -1       482 9.99086E-05-2.24079E-05-3.32364E-05 3.28290E-06 1.63772E-18 5.34293E-20
 -1       483 1.09132E-04-3.33835E-05-3.24571E-05 1.77119E-06 1.12520E-18 1.43975E-18
 -1       484 1.07025E-04-2.95729E-05-3.31927E-05 1.79339E-06-1.01640E-18 1.99582E-19
 -1       485 1.20788E-04-5.91049E-05-2.63661E-05 2.89314E-05 1.96618E-19-6.62790E-19
 -1       486 1.09872E-04-3.40365E-05-3.25023E-05 3.51195E-06-5.72115E-19 4.83068E-19
 -1       487 1.13805E-04-3.86350E-05-3.22272E-05 2.38591E-06-2.02238E-19 9.46632E-19
 -1       488 1.18560E-04-4.27440E-05-3.25074E-05-1.83432E-06-8.98732E-20 1.11453E-18
 -1       489 1.22451E-04-4.39964E-05-3.36595E-05-8.62517E-06-3.67637E-19 1.08891E-18
 -1       490 1.22779E-04-3.94220E-05-3.57674E-05-1.50816E-05-1.23610E-18 1.53040E-18
 -1       491 1.17835E-04-2.82692E-05-3.86405E-05-1.53303E-05-2.32286E-18 9.64598E-19
 -1       492 1.13358E-04-1.93179E-05-4.05754E-05-5.22490E-06-2.99053E-18 8.55586E-20
 -1       493 1.14072E-04-2.07491E-05-4.02302E-05 8.89987E-06-2.07817E-18-2.89910E-19
 -1       494 1.19358E-04-3.10183E-05-3.79865E-05 1.67946E-05-1.23053E-18-1.50223E-18
 -1       495 1.22928E-04-4.12348E-05-3.50700E-05 1.42823E-05 1.12416E-19-7.92548E-19
 -1       496 1.21458E-04-4.46623E-05-3.29434E-05 6.85737E-06 2.21037E-19-7.58316E-19
 -1       497 1.16873E-04-4.28045E-05-3.17598E-05-4.30158E-07 3.25957E-19-9.72581E-19
 -1       498 1.11698E-04-3.88618E-05-3.12279E-05-5.41283E-06 3.51459E-19-1.13910E-18
 -1       499 1.07337E-04-3.50372E-05-3.09943E-05-8.02681E-06-2.37608E-19-6.37871E-19
 -1       500 1.04109E-04-3.21592E-05-3.08400E-05-8.90841E-06-3.31218E-19-2.79125E-19
 -1       501 1.01837E-04-3.02791E-05-3.06687E-05-8.70877E-06-8.27562E-19-4.55741E-19
 -1       502 1.00240E-04-2.91683E-05-3.04583E-05-7.91912E-06 1.66705E-19 5.08654E-19
 -1       503 9.90851E-05-2.85693E-05-3.02193E-05-6.86645E-06 7.10343E-19-2.84848E-20
 -1       504 9.82183E-05-2.82813E-05-2.99709E-05-5.75223E-06 6.09611E-19-5.94567E-19
 -1       505 9.75457E-05-2.81697E-05-2.97305E-05-4.69126E-06 3.01535E-19-2.50925E-19
 -1       506 9.70130E-05-2.81518E-05-2.95101E-05-3.74158E-06-8.87039E-20-7.33841E-20
 -1       507 9.65879E-05-2.81796E-05-2.93163E-05-2.92592E-06-2.33172E-20-1.19887E-18
 -1       508 9.62493E-05-2.82268E-05-2.91512E-05-2.24627E-06-9.76324E-19-1.30648E-18
 -1       509 9.59820E-05-2.82793E-05-2.90144E-05-1.69338E-06-3.25628E-19-4.51451E-19
 -1       510 9.57736E-05-2.83302E-05-2.89035E-05-1.25265E-06 2.78822E-19-1.70687E-19
 -1       511 9.56136E-05-2.83762E-05-2.88154E-05-9.07683E-07 1.74381E-19-6.39624E-19
 -1       512 9.54930E-05-2.84161E-05-2.87468E-05-6.42340E-07-9.30711E-19-9.26764E-19
 -1       513 9.54038E-05-2.84498E-05-2.86942E-05-4.41760E-07-9.96573E-19-4.74447E-19
 -1       514 9.53392E-05-2.84777E-05-2.86547E-05-2.92873E-07-9.05933E-19 4.42987E-19
 -1       515 9.52938E-05-2.85003E-05-2.86256E-05-1.84531E-07-1.02820E-18-4.69058E-19
 -1       516 9.52627E-05-2.85184E-05-2.86046E-05-1.07457E-07-5.23707E-19 3.83315E-19
 -1       517 9.52424E-05-2.85326E-05-2.85899E-05-5.40872E-08-6.99026E-20-3.81067E-19
 -1       518 9.52299E-05-2.85435E-05-2.85798E-05-1.83631E-08 1.00556E-18 2.03337E-18
 -1       519 9.52229E-05-2.85519E-05-2.85733E-05 4.48335E-09 1.66555E-18 2.28421E-18
 -1       520 9.52197E-05-2.85582E-05-2.85692E-05 1.81420E-08 1.40796E-18 9.33175E-19
 -1       521 9.52190E-05-2.85628E-05-2.85669E-05 2.54179E-08 1.41766E-18 1.86337E-18
 -1       522 9.52199E-05-2.85661E-05-2.85659E-05 2.84015E-08 1.07014E-21 1.28478E-18
 -1       523 9.52217E-05-2.85685E-05-2.85657E-05 2.86136E-08-1.12251E-18 2.22447E-18
 -1       524 9.52240E-05-2.85702E-05-2.85659E-05 2.71266E-08-3.90368E-19 9.48657E-19
 -1       525 9.52265E-05-2.85714E-05-2.85664E-05 2.46615E-08 1.52306E-18 2.16565E-19
 -1       526 9.52289E-05-2.85724E-05-2.85671E-05 2.16666E-08 1.08553E-18 1.78018E-18
 -1       527 9.52313E-05-2.85733E-05-2.85677E-05 1.83788E-08 3.81318E-19 1.01064E-18
 -1       528 9.52335E-05-2.85742E-05-2.85683E-05 1.48835E-08-1.20987E-18 6.91527E-19
 -1       529 1.10786E-04-3.63292E-05-3.19195E-05 5.74676E-06 5.76672E-19 1.45535E-18
 -1       530 1.10379E-04-3.55574E-05-3.20736E-05 9.00274E-06 5.21400E-19 1.55692E-18
 -1       531 1.08409E-04-3.26234E-05-3.24825E-05 1.08943E-05 7.06549E-19 1.31077E-18
 -1       532 1.05179E-04-2.81117E-05-3.30333E-05 9.47030E-06 1.04482E-18 1.53064E-18
 -1       533 1.02481E-04-2.44419E-05-3.34440E-05 3.96906E-06 8.01675E-19 1.58695E-18
 -1       534 1.02221E-04-2.41231E-05-3.34723E-05-3.53142E-06 1.09107E-18 5.95698E-19
 -1       535 1.04575E-04-2.73548E-05-3.30947E-05-9.55778E-06 1.16747E-18-5.40228E-19
 -1       536 1.07801E-04-3.19700E-05-3.24957E-05-1.16004E-05 8.98763E-19-7.45873E-19
 -1       537 1.10000E-04-3.54996E-05-3.19305E-05-9.78612E-06-1.54220E-19-9.40145E-19
 -1       538 1.10366E-04-3.68102E-05-3.15346E-05-5.92849E-06 3.84879E-19-1.24187E-19
 -1       539 1.09289E-04-3.63163E-05-3.12865E-05-1.85442E-06-2.29907E-19 5.55700E-21
 -1       540 1.07473E-04-3.48969E-05-3.11152E-05 1.41355E-06-3.30866E-19-6.48739E-19
 -1       541 1.05474E-04-3.32707E-05-3.09526E-05 3.55779E-06-3.32014E-20-7.93010E-20
 -1       542 1.03599E-04-3.18317E-05-3.07623E-05 4.67227E-06-2.06107E-19-7.30532E-20
 -1       543 1.01964E-04-3.07149E-05-3.05374E-05 5.01000E-06-3.87517E-19 4.87735E-20
 -1       544 1.00587E-04-2.99139E-05-3.02883E-05 4.83605E-06 7.53427E-19 2.19897E-19
 -1       545 9.94457E-05-2.93689E-05-3.00316E-05 4.36859E-06 3.39595E-19-5.35094E-19
 -1       546 9.85095E-05-2.90122E-05-2.97827E-05 3.76573E-06-4.61608E-20 6.54501E-19
 -1       547 9.77484E-05-2.87864E-05-2.95531E-05 3.13167E-06-2.04604E-19 1.73690E-18
 -1       548 9.71357E-05-2.86485E-05-2.93497E-05 2.52890E-06-4.23675E-19-7.33970E-19
 -1       549 9.66482E-05-2.85680E-05-2.91755E-05 1.99051E-06 2.98264E-20-2.01743E-18
 -1       550 9.62655E-05-2.85243E-05-2.90304E-05 1.53012E-06-4.50099E-19-2.17563E-18
 -1       551 9.59695E-05-2.85037E-05-2.89127E-05 1.14934E-06 1.82223E-19-1.92905E-18
 -1       552 9.57442E-05-2.84973E-05-2.88191E-05 8.42926E-07 2.17400E-20-1.36087E-18
 -1       553 9.55759E-05-2.84991E-05-2.87465E-05 6.02223E-07-4.13385E-19-1.32719E-18
 -1       554 9.54527E-05-2.85053E-05-2.86912E-05 4.17319E-07 6.14398E-19-6.76060E-19
 -1       555 9.53645E-05-2.85136E-05-2.86500E-05 2.78367E-07 3.76774E-20-1.10739E-18
 -1       556 9.53031E-05-2.85224E-05-2.86200E-05 1.76297E-07-3.86524E-19 4.44549E-20
 -1       557 9.52618E-05-2.85310E-05-2.85987E-05 1.03158E-07 3.52424E-19 1.36713E-18
 -1       558 9.52354E-05-2.85388E-05-2.85841E-05 5.22314E-08 4.24660E-19 1.20637E-18
 -1       559 9.52196E-05-2.85456E-05-2.85745E-05 1.79978E-08 1.83134E-19 2.49277E-18
 -1       560 9.52113E-05-2.85513E-05-2.85685E-05-3.96843E-09 4.86568E-19 2.87389E-18
 -1       561 9.52081E-05-2.85561E-05-2.85651E-05-1.71377E-08-9.69306E-19 1.97918E-18
 -1       562 9.52082E-05-2.85599E-05-2.85635E-05-2.41739E-08-8.78350E-19 2.94846E-18
 -1       563 9.52103E-05-2.85630E-05-2.85631E-05-2.70768E-08-4.43928E-19 1.74222E-18
 -1       564 9.52135E-05-2.85655E-05-2.85634E-05-2.73094E-08 5.27998E-20 2.45387E-18
 -1       565 9.52172E-05-2.85674E-05-2.85642E-05-2.59078E-08 6.53179E-19 1.93763E-18
 -1       566 9.52210E-05-2.85690E-05-2.85652E-05-2.35712E-08 1.17663E-18 1.15508E-18
 -1       567 9.52247E-05-2.85703E-05-2.85662E-05-2.07387E-08-1.32697E-19 3.12157E-18
 -1       568 9.52281E-05-2.85714E-05-2.85672E-05-1.76670E-08-5.68292E-19 2.91432E-18
 -1       569 9.52312E-05-2.85725E-05-2.85680E-05-1.43975E-08-3.11768E-19 3.97748E-18
 -1       570 9.52339E-05-2.85736E-05-2.85687E-05-1.08811E-08 8.83720E-19 4.57107E-18
 -1       571 9.52436E-05-2.85846E-05-2.85681E-05-1.14842E-08 2.10393E-18-2.43036E-18
 -1       572 9.52456E-05-2.85870E-05-2.85680E-05-8.44619E-09 1.97672E-18-5.03781E-19
 -1       573 9.52380E-05-2.85782E-05-2.85685E-05-1.32311E-08 1.88910E-19-4.93255E-19
 -1       574 9.52410E-05-2.85816E-05-2.85683E-05-1.31270E-08-1.17250E-19-6.57256E-19
 -1       575 9.52468E-05-2.85884E-05-2.85679E-05-4.45273E-09-1.34055E-18-2.49740E-18
 -1       576 9.52473E-05-2.85889E-05-2.85679E-05 3.01179E-11-1.97935E-18-1.75543E-19
 -1       577 9.52468E-05-2.85884E-05-2.85679E-05 4.51111E-09-1.91623E-18-4.80128E-19
 -1       578 9.52456E-05-2.85870E-05-2.85680E-05 8.43854E-09-3.49888E-20-5.62146E-18
 -1       579 9.52436E-05-2.85846E-05-2.85681E-05 1.14845E-08 9.51697E-19-2.54999E-18
 -1       580 9.52410E-05-2.85816E-05-2.85683E-05 1.31702E-08 7.84114E-19 2.37677E-18
 -1       581 9.52379E-05-2.85781E-05-2.85685E-05 1.31367E-08-5.45758E-19 2.67932E-18
 -1       582 2.80306E-05-1.58306E-05-4.66712E-06 1.84481E-05-8.76732E-19 3.05419E-18
 -1       583 9.29442E-05-5.03464E-05-1.79060E-05 4.12696E-05-4.40245E-19 1.95387E-19
 -1       584 1.10120E-04-3.53597E-05-3.20448E-05 2.95210E-06 8.16595E-19 1.48669E-18
 -1       585 3.14095E-05-1.61120E-05-5.93030E-06-1.88246E-05 1.37164E-18 6.34417E-18
 -1       586 5.17436E-05-2.88430E-05-9.34519E-06 3.76945E-05-9.58312E-19-1.65277E-19
 -1       587 9.53128E-05-5.16152E-05-1.83836E-05-3.90951E-05 2.44793E-18 2.54331E-18
 -1       588 1.03275E-04-2.41066E-05-3.39539E-05-1.40209E-06-1.47400E-18-1.82375E-19
 -1       589 1.38380E-04-1.28761E-05-5.43885E-05-6.64647E-06-4.65000E-18 1.02377E-18
 -1       590 3.37153E-05-1.82485E-05-6.12711E-06-2.93387E-05-4.83815E-19-4.55979E-18
 -1       591 6.79695E-05-2.31997E-06-2.81378E-05-3.47872E-07 1.06068E-19-2.22771E-18
 -1       592 1.41089E-04-4.35874E-05-4.20935E-05 6.42781E-06 1.69176E-18 9.00237E-19
 -1       593 1.33876E-04-8.56970E-06-5.43264E-05 2.57509E-06 4.57313E-18-1.12099E-18
 -1       594 6.61496E-05-3.55838E-05-1.27060E-05 4.04700E-05 1.60005E-18-3.10358E-18
 -1       595 1.33890E-04-1.75011E-05-5.04948E-05 1.06677E-05 4.04765E-18 1.91747E-19
 -1       596 1.32317E-04-5.81109E-05-3.19016E-05-1.80749E-05-4.73068E-19 6.00864E-21
 -1       597 1.11174E-04-5.48083E-05-2.39031E-05-3.38786E-05-1.34091E-18-1.28434E-18
 -1       598 6.88953E-05-3.58703E-05-1.37361E-05-4.22169E-05-1.14741E-18-3.25197E-18
 -1       599 2.32898E-05-8.07179E-06-5.86900E-06-3.27853E-06 2.96534E-19-4.17280E-18
 -1       600 3.18992E-05-1.53843E-05-6.48412E-06 2.36467E-05 1.13876E-18-4.09985E-18
 -1       601 1.05022E-04-5.40986E-05-2.16293E-05 3.64789E-05 1.26584E-18-1.21410E-18
 -1       602 1.30374E-04-5.97360E-05-3.02712E-05 2.15369E-05 4.62692E-20 5.96629E-19
 -1       603 1.42954E-04-2.62961E-05-5.04775E-05-1.18918E-05-4.26735E-18 2.45740E-18
 -1       604 1.29931E-04-6.15462E-05-2.93011E-05-2.26163E-05 4.58721E-19-3.55410E-19
 -1       605 1.42859E-04-3.11423E-05-4.84149E-05 1.30861E-05-2.44247E-18-5.83500E-19
 -1       606 1.43634E-04-5.32192E-05-3.90380E-05 2.02552E-06-6.31265E-19-1.73012E-18
 -1       607 5.04376E-05-2.83072E-05-8.96781E-06-3.55260E-05 2.00006E-18 4.28323E-18
 -1       608 1.42105E-04-3.24809E-05-4.74809E-05-9.13853E-06 3.25838E-18-1.95929E-18
 -1       609 1.08017E-04-2.79588E-05-3.43284E-05 5.54962E-06 1.91551E-18 1.85401E-18
 -1       610 1.29957E-04-3.08526E-05-4.28513E-05 1.40522E-05 1.86543E-18 1.85312E-18
 -1       611 8.77220E-05-1.42574E-05-3.15008E-05 1.78513E-06-7.71380E-19-1.49226E-18
 -1       612 1.38962E-04-4.46817E-05-4.07051E-05-6.84030E-06 2.15697E-18-1.94841E-18
 -1       613 1.27074E-04-1.07114E-05-5.04645E-05 6.27163E-07-3.54213E-18 3.86039E-19
 -1       614 1.32731E-04-5.92920E-05-3.15621E-05 1.29312E-05 1.72623E-19-1.38077E-18
 -1       615 1.40508E-04-5.74644E-05-3.58522E-05 4.16050E-06-5.50002E-19 2.11996E-18
 -1       616 3.30982E-05-1.11384E-05-8.84081E-06-9.96837E-07-9.71183E-19 4.89336E-18
 -1       617 1.40885E-04-3.96854E-05-4.37420E-05-1.30973E-05-3.09376E-18 3.03471E-18
 -1       618 1.25798E-04-9.45338E-06-5.04159E-05-4.36470E-06 4.17990E-18-8.98795E-19
 -1       619 9.52349E-05-2.85749E-05-2.85686E-05 1.23398E-08-1.58020E-18 2.99154E-18
 -1       620 7.60869E-05-1.11008E-05-2.78471E-05-8.38784E-06 4.30399E-19-1.75503E-18
 -1       621 6.88126E-05-6.13400E-06-2.68604E-05-6.46656E-06 1.99712E-19-2.10884E-18
 -1       622 9.32524E-05-2.19643E-05-3.05549E-05-4.25024E-06 9.25834E-19-8.46733E-19
 -1       623 1.00144E-04-2.60238E-05-3.17705E-05-7.14489E-07 1.14931E-18-1.47710E-19
 -1       624 1.05932E-04-3.06189E-05-3.22683E-05 9.97397E-07 1.14418E-18 4.90864E-19
 -1       625 5.38658E-05-1.99465E-05-1.40465E-05-2.49113E-05 1.84473E-18 3.92777E-18
 -1       626 1.34576E-04-5.93239E-05-3.24410E-05-6.40278E-06 1.29516E-18-1.31772E-18
 -1       627 1.06695E-04-3.49796E-05-3.07316E-05 7.33404E-06-1.38896E-19-6.59035E-21
 -1       628 1.13717E-04-4.22617E-05-3.06238E-05 6.58909E-06 1.99593E-19 2.88051E-19
 -1       629 1.22663E-04-4.89692E-05-3.15983E-05 1.76113E-06 3.30614E-19 1.46863E-18
 -1       630 1.29917E-04-4.95168E-05-3.45429E-05-7.31239E-06-2.34827E-19 2.41364E-18
 -1       631 1.31820E-04-4.28798E-05-3.83323E-05 1.40809E-05 2.78654E-19-1.05718E-18
 -1       632 1.28641E-04-5.12699E-05-3.32404E-05 4.80665E-06 5.69087E-19-9.57753E-19
 -1       633 1.20230E-04-4.89634E-05-3.05397E-05-4.27161E-06 4.30447E-19-1.25731E-20
 -1       634 1.11451E-04-4.26869E-05-2.94666E-05-9.44520E-06 3.65430E-19 4.93942E-19
 -1       635 1.04821E-04-3.65837E-05-2.92441E-05-1.13903E-05 4.21087E-19 5.06631E-19
 -1       636 1.00559E-04-3.21120E-05-2.93356E-05-1.15152E-05-1.64246E-19 1.60949E-19
 -1       637 9.80771E-05-2.92974E-05-2.94777E-05-1.07270E-05-6.23312E-20 8.56089E-19
 -1       638 9.67418E-05-2.77466E-05-2.95690E-05-9.54209E-06-1.00738E-19 1.01920E-18
 -1       639 9.60654E-05-2.70256E-05-2.95877E-05-8.22405E-06-3.96999E-19 4.07475E-19
 -1       640 9.57391E-05-2.68007E-05-2.95442E-05-6.91477E-06 5.75423E-20-1.05751E-18
 -1       641 9.55847E-05-2.68463E-05-2.94586E-05-5.69272E-06 9.46870E-19-9.37170E-19
 -1       642 9.55079E-05-2.70222E-05-2.93504E-05-4.59882E-06 6.51521E-19-1.48986E-19
 -1       643 9.54625E-05-2.72469E-05-2.92347E-05-3.65008E-06-5.48392E-19 7.27151E-19
 -1       644 9.54285E-05-2.74762E-05-2.91220E-05-2.84812E-06-6.35068E-19 5.73578E-19
 -1       645 9.53985E-05-2.76881E-05-2.90184E-05-2.18494E-06-6.47482E-19 3.91139E-20
 -1       646 9.53705E-05-2.78733E-05-2.89271E-05-1.64712E-06-3.40921E-19-6.65901E-19
 -1       647 9.53448E-05-2.80295E-05-2.88492E-05-1.21874E-06 9.42361E-20-4.24823E-19
 -1       648 9.53219E-05-2.81577E-05-2.87845E-05-8.83334E-07-3.66945E-19-2.94053E-19
 -1       649 9.53021E-05-2.82610E-05-2.87318E-05-6.25145E-07-4.04718E-19 9.17379E-19
 -1       650 9.52857E-05-2.83426E-05-2.86898E-05-4.29810E-07-1.26034E-18 8.21643E-19
 -1       651 9.52725E-05-2.84061E-05-2.86570E-05-2.84710E-07-1.08266E-18 2.18645E-18
 -1       652 9.52621E-05-2.84547E-05-2.86317E-05-1.79071E-07-1.57743E-18 1.75137E-18
 -1       653 9.52542E-05-2.84913E-05-2.86126E-05-1.03901E-07-4.24398E-19 1.50863E-18
 -1       654 9.52483E-05-2.85184E-05-2.85985E-05-5.18509E-08 2.43247E-19 1.62648E-18
 -1       655 9.52440E-05-2.85380E-05-2.85883E-05-1.70225E-08 8.67270E-19 6.33284E-19
 -1       656 9.52410E-05-2.85519E-05-2.85810E-05 5.23322E-09 1.04375E-18 5.58698E-19
 -1       657 9.52389E-05-2.85614E-05-2.85761E-05 1.85174E-08 1.21047E-18-1.82959E-19
 -1       658 9.52376E-05-2.85678E-05-2.85728E-05 2.55678E-08 3.94615E-19 1.50431E-19
 -1       659 9.52368E-05-2.85718E-05-2.85707E-05 2.84230E-08 2.03674E-19 3.54190E-19
 -1       660 9.52364E-05-2.85742E-05-2.85695E-05 2.85635E-08-2.19163E-19 1.54931E-18
 -1       661 9.52362E-05-2.85756E-05-2.85689E-05 2.70302E-08 2.42873E-19 2.98629E-18
 -1       662 9.52363E-05-2.85763E-05-2.85686E-05 2.45217E-08 6.65477E-19 1.38606E-18
 -1       663 9.52366E-05-2.85768E-05-2.85685E-05 2.14724E-08-1.79874E-19 3.24991E-19
 -1       664 9.52370E-05-2.85773E-05-2.85685E-05 1.81016E-08-2.96095E-19 5.07074E-19
 -1       665 1.15304E-04-3.78912E-05-3.31695E-05 1.08775E-05 5.38289E-19 1.64984E-18
 -1       666 9.52371E-05-2.85774E-05-2.85685E-05-1.69805E-08 1.38811E-19-1.19715E-18
 -1       667 1.14699E-04-3.97817E-05-3.21217E-05 6.47819E-06 2.37505E-19 1.33685E-18
 -1       668 1.08908E-04-2.40544E-05-3.64102E-05 9.51013E-06 1.18416E-18 1.49829E-18
 -1       669 1.05811E-04-1.93474E-05-3.71663E-05 5.09618E-07 1.90919E-18 5.51149E-19
 -1       670 1.07825E-04-2.26346E-05-3.65818E-05-8.76731E-06 1.88774E-18-1.18437E-19
 -1       671 1.11918E-04-3.03630E-05-3.49907E-05-1.31903E-05 1.28059E-18-4.62198E-19
 -1       672 1.14748E-04-3.74149E-05-3.31546E-05-1.16975E-05 2.23795E-19 1.60283E-19
 -1       673 1.14443E-04-4.04857E-05-3.17113E-05-6.77928E-06-4.37780E-19 3.48946E-21
 -1       674 1.11824E-04-3.99951E-05-3.07914E-05-1.58446E-06-9.02022E-20-2.06196E-19
 -1       675 1.08350E-04-3.76558E-05-3.03016E-05 2.44304E-06-6.29542E-20-5.08508E-20
 -1       676 1.05030E-04-3.48714E-05-3.00721E-05 4.95559E-06-7.99955E-20-1.77574E-19
 -1       677 1.02331E-04-3.24324E-05-2.99590E-05 6.18440E-06-1.92320E-19 7.05417E-20
 -1       678 1.00318E-04-3.06089E-05-2.98766E-05 6.50202E-06-2.47761E-19-2.87674E-19
 -1       679 9.88804E-05-2.93814E-05-2.97855E-05 6.24024E-06 1.86211E-20-8.42655E-19
 -1       680 9.78701E-05-2.86283E-05-2.96747E-05 5.64925E-06 5.69874E-19-1.03599E-19
 -1       681 9.71587E-05-2.82128E-05-2.95477E-05 4.90445E-06-6.83485E-20 6.92900E-19
 -1       682 9.66512E-05-2.80196E-05-2.94129E-05 4.12113E-06-1.73524E-19 6.74449E-19
 -1       683 9.62825E-05-2.79630E-05-2.92791E-05 3.37020E-06 5.09707E-19 2.55134E-19
 -1       684 9.60100E-05-2.79843E-05-2.91533E-05 2.69117E-06 6.47087E-19-3.84403E-19
 -1       685 9.58060E-05-2.80452E-05-2.90398E-05 2.10220E-06 8.33747E-19-9.43498E-19
 -1       686 9.56520E-05-2.81221E-05-2.89409E-05 1.60757E-06 4.87306E-20-2.19423E-18
 -1       687 9.55356E-05-2.82012E-05-2.88572E-05 1.20315E-06-4.80699E-19-1.51671E-18
 -1       688 9.54480E-05-2.82750E-05-2.87881E-05 8.80137E-07-1.67710E-19-6.45625E-19
 -1       689 9.53825E-05-2.83399E-05-2.87323E-05 6.27638E-07-3.34877E-19-1.17463E-18
 -1       690 9.53342E-05-2.83947E-05-2.86882E-05 4.34313E-07 5.82460E-19-1.37823E-18
 -1       691 9.52991E-05-2.84395E-05-2.86540E-05 2.89356E-07-6.38188E-19-6.23469E-19
 -1       692 9.52740E-05-2.84752E-05-2.86280E-05 1.83033E-07-3.11463E-19-1.24636E-18
 -1       693 9.52566E-05-2.85030E-05-2.86087E-05 1.06921E-07 1.35496E-19-6.50945E-19
 -1       694 9.52449E-05-2.85242E-05-2.85946E-05 5.39569E-08-6.15438E-20-6.94735E-19
 -1       695 9.52374E-05-2.85400E-05-2.85846E-05 1.83628E-08-2.70139E-19-3.03512E-19
 -1       696 9.52329E-05-2.85515E-05-2.85777E-05-4.47733E-09-2.20955E-19 1.03364E-18
 -1       697 9.52305E-05-2.85597E-05-2.85732E-05-1.81755E-08-1.71628E-18 1.68937E-19
 -1       698 9.52296E-05-2.85654E-05-2.85704E-05-2.54992E-08-1.01580E-18 5.00983E-19
 -1       699 9.52295E-05-2.85692E-05-2.85687E-05-2.85213E-08-1.08327E-19 1.90117E-18
 -1       700 9.52301E-05-2.85716E-05-2.85679E-05-2.87550E-08 1.42175E-18 5.25378E-19
 -1       701 9.52310E-05-2.85732E-05-2.85677E-05-2.72680E-08 1.73846E-18 1.12791E-19
 -1       702 9.52321E-05-2.85741E-05-2.85677E-05-2.47821E-08-5.80629E-19 9.62304E-19
 -1       703 9.52334E-05-2.85748E-05-2.85679E-05-2.17608E-08-7.23197E-19 2.14948E-18
 -1       704 9.52355E-05-2.85762E-05-2.85683E-05-1.94576E-08 2.09262E-19 1.19311E-18
 -1       705 9.52501E-05-2.85884E-05-2.85693E-05-2.68142E-09 2.12857E-18-9.86333E-19
 -1       706 9.52374E-05-2.85776E-05-2.85685E-05 1.56798E-08 7.41999E-19 9.48631E-19
 -1       707 9.52467E-05-2.85855E-05-2.85691E-05-1.21785E-08 9.79873E-19-1.88060E-18
 -1       708 9.52501E-05-2.85884E-05-2.85693E-05 2.74547E-09 4.15001E-19-2.06477E-18
 -1       709 9.52489E-05-2.85874E-05-2.85692E-05-7.83379E-09 6.60856E-19-3.08918E-18
 -1       710 1.11500E-04-5.41053E-05-2.44548E-05 2.72562E-05-4.11459E-19-1.12293E-18
 -1       711 9.52490E-05-2.85874E-05-2.85692E-05 7.81258E-09-1.27258E-18-1.97470E-18
 -1       712 9.52467E-05-2.85855E-05-2.85691E-05 1.21604E-08-3.38343E-19-3.95434E-18
 -1       713 9.52434E-05-2.85827E-05-2.85689E-05 1.51695E-08 1.74289E-18 2.02432E-18
 -1       714 1.12037E-04-3.82398E-05-3.16367E-05 2.60535E-06 6.13848E-19 1.09242E-18
 -1       715 5.69968E-05-2.21269E-05-1.44959E-05 3.05143E-05 1.70701E-18-3.08008E-18
 -1       716 4.78161E-05-1.87872E-05-1.19222E-05 2.58429E-05-1.96006E-18 7.44701E-19
 -1       717 8.25890E-05-3.93344E-05-1.81734E-05 3.63730E-05-1.35494E-18 3.54272E-19
 -1       718 9.82199E-05-2.33440E-05-3.21074E-05 2.74843E-06-8.44716E-19-5.13740E-19
 -1       719 4.12070E-05-9.95384E-06-1.28634E-05-1.88134E-05-4.07913E-19-3.79259E-18
 -1       720 9.46997E-05-4.35057E-05-2.17127E-05-3.37145E-05-1.65137E-18-1.48850E-18
 -1       721 1.12531E-04-3.14892E-05-3.47926E-05 1.29208E-05 8.69886E-19 1.92399E-18
 -1       722 1.01936E-04-2.89600E-05-3.12702E-05 5.82671E-06-4.16478E-19-2.71938E-19
 -1       723 1.36326E-04-4.20225E-05-4.07417E-05 1.47156E-05-6.06290E-19-1.02089E-18
 -1       724 1.08837E-04-3.48344E-05-3.17173E-05 6.57005E-07 8.66823E-19 7.08554E-19
 -1       725 8.25578E-05-3.86529E-05-1.84867E-05-3.40634E-05 2.49552E-18 2.11327E-18
 -1       726 8.49405E-05-1.68709E-05-2.91773E-05-7.32323E-06 6.75290E-19-1.35895E-18
 -1       727 1.17846E-04-1.25880E-05-4.56178E-05 7.08088E-06 3.01046E-18 1.29020E-18
 -1       728 9.36314E-05-4.36736E-05-2.11538E-05 3.32203E-05 2.20422E-18-1.15050E-18
 -1       729 7.53221E-05-9.95882E-06-2.80133E-05 5.89010E-06 3.23267E-20-1.78969E-18
 -1       730 1.29434E-04-2.03996E-05-4.73194E-05-1.29606E-05-3.54399E-18 1.85532E-18
 -1       731 1.23298E-04-5.60186E-05-2.87935E-05-1.86995E-05-1.30675E-18 1.54861E-19
 -1       732 6.26009E-05-2.34836E-05-1.63737E-05-3.25287E-05-1.22525E-18-2.96300E-18
 -1       733 3.94720E-05-7.76619E-06-1.30476E-05 1.08183E-05 7.24054E-19-3.34252E-18
 -1       734 1.21083E-04-5.72291E-05-2.72454E-05 2.25704E-05 1.32404E-18 6.89882E-19
 -1       735 1.28266E-04-2.09061E-05-4.65346E-05-1.30372E-05 3.54515E-18-1.00233E-18
 -1       736 1.27327E-04-2.05540E-05-4.62848E-05 1.41193E-05-2.96996E-18-4.37360E-19
 -1       737 1.18079E-04-5.75801E-05-2.58532E-05-2.41576E-05 2.42678E-18-7.13208E-19
 -1       738 1.34155E-04-5.04347E-05-3.60595E-05 1.99317E-06-2.29162E-20 1.39815E-18
 -1       739 8.51786E-05-1.62327E-05-2.95465E-05 6.33921E-06-3.21898E-19-1.41128E-18
 -1       740 6.56067E-05-3.78103E-06-2.65017E-05-2.06896E-06 6.73709E-20-2.21384E-18
 -1       741 1.29934E-04-3.26897E-05-4.20349E-05-1.38522E-05 1.97774E-18-1.42243E-18
 -1       742 1.29102E-04-4.14092E-05-3.77692E-05 1.19816E-05 5.95252E-19 2.52285E-18
 -1       743 1.33494E-04-5.20703E-05-3.49862E-05-1.37172E-06 4.72314E-19-2.75805E-18
 -1       744 9.52435E-05-2.85828E-05-2.85689E-05-1.52325E-08 6.45760E-19 6.12916E-20
 -1       745 1.03895E-04-4.81375E-05-2.37802E-05-2.63426E-05 2.23400E-18 4.33810E-19
 -1       746 1.30379E-04-5.70655E-05-3.14713E-05 8.72727E-06 8.09646E-19 1.88534E-18
 -1       747 6.80771E-05-5.27183E-06-2.69103E-05 2.75671E-06 8.30117E-21-1.94611E-18
 -1       748 1.18198E-04-2.26119E-05-4.11910E-05 1.29893E-05 1.87886E-18 2.21471E-18
 -1       749 9.52407E-05-2.85802E-05-2.85688E-05 1.71121E-08 2.00233E-19-8.84222E-19
 -1       750 1.01210E-04-2.99863E-05-3.05233E-05-4.56088E-06 6.58882E-19-4.25671E-19
 -1       751 7.33038E-05-2.81349E-05-1.91426E-05-2.67029E-05 1.78404E-18 2.54544E-18
 -1       752 1.25648E-04-5.17883E-05-3.17422E-05-3.72123E-06-1.01374E-18 1.19982E-18
 -1       753 1.12297E-04-4.62179E-05-2.82075E-05 1.53231E-05 1.20998E-18 6.28800E-19
 -1       754 1.22637E-04-5.53578E-05-2.87890E-05-1.29062E-05 1.40323E-18-5.14139E-19
 -1       755 1.00699E-04-3.76400E-05-2.70103E-05-1.68339E-05 3.46656E-19 1.20061E-18
 -1       756 9.55012E-05-3.14466E-05-2.74528E-05-1.48224E-05 1.40257E-19 1.19489E-18
 -1       757 9.32025E-05-2.78630E-05-2.80033E-05-1.26580E-05-9.68298E-21 1.35466E-18
 -1       758 9.23841E-05-2.59927E-05-2.84528E-05-1.07095E-05-8.32785E-20 8.24020E-19
 -1       759 9.23412E-05-2.52089E-05-2.87705E-05-8.99138E-06-3.21093E-19 4.65772E-19
 -1       760 9.26569E-05-2.50710E-05-2.89650E-05-7.48581E-06-4.96506E-19 5.40356E-19
 -1       761 9.30979E-05-2.52844E-05-2.90626E-05-6.16730E-06 1.07466E-18 1.31519E-18
 -1       762 9.35445E-05-2.56642E-05-2.90913E-05-5.01849E-06 9.58987E-19 1.64028E-18
 -1       763 9.39426E-05-2.61000E-05-2.90752E-05-4.02793E-06 2.26624E-19 1.16508E-18
 -1       764 9.42739E-05-2.65305E-05-2.90327E-05-3.18576E-06-1.00647E-18 1.24238E-18
 -1       765 9.45377E-05-2.69242E-05-2.89771E-05-2.48110E-06-8.99667E-19 3.83895E-19
 -1       766 9.47414E-05-2.72676E-05-2.89173E-05-1.90121E-06-1.00115E-18 8.91454E-19
 -1       767 9.48950E-05-2.75574E-05-2.88589E-05-1.43191E-06-4.21587E-19 1.12537E-18
 -1       768 9.50084E-05-2.77961E-05-2.88052E-05-1.05839E-06 2.60632E-19 1.04050E-18
 -1       769 9.50904E-05-2.79887E-05-2.87578E-05-7.66000E-07-2.51888E-19 1.14167E-18
 -1       770 9.51486E-05-2.81414E-05-2.87174E-05-5.40966E-07-1.54072E-18 4.69713E-19
 -1       771 9.51889E-05-2.82604E-05-2.86836E-05-3.70782E-07-1.17085E-18-3.18351E-19
 -1       772 9.52159E-05-2.83517E-05-2.86561E-05-2.44464E-07-1.08417E-18-6.52487E-19
 -1       773 9.52334E-05-2.84205E-05-2.86341E-05-1.52616E-07-2.42026E-19 1.50272E-18
 -1       774 9.52440E-05-2.84714E-05-2.86168E-05-8.73829E-08-5.39876E-19 1.31281E-18
 -1       775 9.52499E-05-2.85083E-05-2.86035E-05-4.23356E-08-3.15668E-19 7.51066E-19
 -1       776 9.52525E-05-2.85345E-05-2.85934E-05-1.23101E-08 1.62262E-19-6.40511E-19
 -1       777 9.52531E-05-2.85525E-05-2.85859E-05 6.76507E-09 1.79040E-18-1.03865E-19
 -1       778 9.52523E-05-2.85645E-05-2.85805E-05 1.80416E-08 1.34960E-18 5.07856E-19
 -1       779 9.52508E-05-2.85721E-05-2.85766E-05 2.39122E-08 2.23736E-18 2.14413E-18
 -1       780 9.52489E-05-2.85766E-05-2.85739E-05 2.61542E-08 2.13472E-19 2.74205E-18
 -1       781 9.52469E-05-2.85790E-05-2.85720E-05 2.60543E-08 5.74850E-19 1.51438E-18
 -1       782 9.52451E-05-2.85800E-05-2.85707E-05 2.45129E-08 2.73556E-19 9.66863E-19
 -1       783 9.52434E-05-2.85804E-05-2.85698E-05 2.21343E-08-1.38807E-19 2.78542E-19
 -1       784 9.52417E-05-2.85802E-05-2.85692E-05 1.97664E-08-1.16976E-18-7.32257E-19
 -1       785 1.20105E-04-4.41099E-05-3.25659E-05 5.50261E-06-1.08923E-20 1.46882E-18
 -1       786 5.80433E-05-1.37421E-05-1.87564E-05-2.12578E-05-7.34583E-19-2.87795E-18
 -1       787 1.11576E-04-1.50784E-05-4.17349E-05-5.89616E-06 3.16825E-18 3.36219E-19
 -1       788 1.21352E-04-3.85426E-05-3.56673E-05-1.36663E-05-2.15179E-19-6.56207E-19
 -1       789 1.20435E-04-4.46794E-05-3.25270E-05-6.63805E-06 2.94721E-19-7.79806E-19
 -1       790 1.15830E-04-4.47002E-05-3.04635E-05 4.15593E-07 3.71697E-19-8.09853E-19
 -1       791 1.10010E-04-4.12431E-05-2.94603E-05 5.11342E-06-2.83666E-19-9.64698E-19
 -1       792 1.04840E-04-3.69753E-05-2.90863E-05 7.50415E-06-2.80571E-19-6.59490E-20
 -1       793 1.00985E-04-3.32724E-05-2.90208E-05 8.33082E-06-2.96591E-19-3.43961E-19
 -1       794 9.84072E-05-3.05704E-05-2.90733E-05 8.21653E-06-4.16421E-19-4.12322E-19
 -1       795 9.68041E-05-2.87989E-05-2.91450E-05 7.60255E-06-8.09768E-20 6.51246E-19
 -1       796 9.58766E-05-2.77606E-05-2.91924E-05 6.74635E-06-6.13198E-20 7.00276E-19
 -1       797 9.53809E-05-2.72399E-05-2.92031E-05 5.80507E-06-6.30757E-19 1.19514E-18
 -1       798 9.51445E-05-2.70564E-05-2.91804E-05 4.87118E-06 1.11315E-19 1.21099E-18
 -1       799 9.50545E-05-2.70765E-05-2.91332E-05 3.99860E-06 5.33582E-19 6.32796E-19
 -1       800 9.50413E-05-2.72077E-05-2.90713E-05 3.21667E-06 1.06792E-18 3.94233E-21
 -1       801 9.50638E-05-2.73896E-05-2.90031E-05 2.53829E-06 6.49138E-19 6.12056E-19
 -1       802 9.50993E-05-2.75851E-05-2.89345E-05 1.96538E-06 8.63925E-19 1.19223E-18
 -1       803 9.51359E-05-2.77724E-05-2.88700E-05 1.49278E-06-2.53674E-19 8.94943E-19
 -1       804 9.51682E-05-2.79404E-05-2.88118E-05 1.11110E-06-8.49322E-19 1.12577E-18
 -1       805 9.51941E-05-2.80846E-05-2.87612E-05 8.08946E-07 6.96505E-19-1.30295E-19
 -1       806 9.52138E-05-2.82042E-05-2.87184E-05 5.74306E-07-7.03212E-19-5.84327E-19
 -1       807 9.52278E-05-2.83006E-05-2.86830E-05 3.95576E-07-1.08377E-18 1.16535E-18
 -1       808 9.52372E-05-2.83766E-05-2.86545E-05 2.62128E-07 3.96654E-19 1.90205E-18
 -1       809 9.52430E-05-2.84351E-05-2.86319E-05 1.64609E-07 1.64396E-19 8.91764E-20
 -1       810 9.52463E-05-2.84793E-05-2.86144E-05 9.50451E-08 6.27055E-20-1.08334E-18
 -1       811 9.52477E-05-2.85118E-05-2.86011E-05 4.68118E-08-3.38057E-19-1.08301E-18
 -1       812 9.52478E-05-2.85353E-05-2.85911E-05 1.45313E-08-1.37897E-18-3.54750E-19
 -1       813 9.52472E-05-2.85516E-05-2.85838E-05-6.07210E-09-1.49932E-18 1.25657E-18
 -1       814 9.52461E-05-2.85627E-05-2.85786E-05-1.83294E-08-9.16404E-19-4.36711E-19
 -1       815 9.52449E-05-2.85699E-05-2.85750E-05-2.47828E-08-1.19590E-18-2.47833E-18
 -1       816 9.52436E-05-2.85743E-05-2.85726E-05-2.73292E-08 8.85454E-19-3.29411E-18
 -1       817 9.52424E-05-2.85768E-05-2.85710E-05-2.73469E-08-1.87141E-19-9.03292E-19
 -1       818 9.52413E-05-2.85780E-05-2.85700E-05-2.58054E-08-4.11137E-19 1.71082E-18
 -1       819 9.52404E-05-2.85786E-05-2.85694E-05-2.33683E-08-1.13463E-18 1.13833E-18
 -1       820 7.15624E-05-1.18221E-05-2.55867E-05-1.21422E-05-7.98254E-20-1.84429E-18
 -1       821 9.52539E-05-2.85887E-05-2.85708E-05 2.92674E-11 1.27729E-18-3.65002E-18
 -1       822 9.52472E-05-2.85842E-05-2.85699E-05 1.59861E-08-1.75715E-19 3.99806E-19
 -1       823 9.52531E-05-2.85882E-05-2.85707E-05 6.05244E-09 5.96964E-19-3.02892E-18
 -1       824 1.15125E-04-4.22464E-05-3.12218E-05 1.97486E-07 1.77017E-21 9.92177E-19
 -1       825 8.26906E-05-3.04273E-05-2.22480E-05-2.80203E-05-1.33745E-18-1.52138E-18
 -1       826 9.78855E-05-4.33191E-05-2.32510E-05 2.69713E-05-1.26311E-18-3.03972E-19
 -1       827 9.52509E-05-2.85867E-05-2.85704E-05 1.15989E-08-9.44848E-19-3.37931E-18
 -1       828 7.98715E-05-2.92247E-05-2.14989E-05 2.68577E-05 1.69827E-18-1.65308E-18
 -1       829 1.16703E-04-2.58679E-05-3.91628E-05-1.40375E-05 1.92065E-18-8.00797E-19
 -1       830 1.25565E-04-5.56409E-05-3.00180E-05 9.00051E-06-5.62886E-19-2.39799E-18
 -1       831 5.89786E-05-1.40411E-05-1.90463E-05 1.88884E-05 1.07923E-18-2.41313E-18
 -1       832 1.01925E-04-3.56952E-05-2.83999E-05 1.38792E-05 6.09166E-19-2.38580E-19
 -1       833 4.95983E-05-1.27281E-05-1.55216E-05-7.12997E-06-2.54848E-19 3.27323E-18
 -1       834 4.75896E-05-5.73379E-06-1.77317E-05-4.38490E-06 9.85817E-20-2.86543E-18
 -1       835 5.24637E-05-1.39810E-05-1.62222E-05 1.28574E-05-1.49459E-18 1.96692E-18
 -1       836 1.10205E-04-4.73660E-05-2.68573E-05-2.05080E-05-1.45985E-18-5.90541E-20
 -1       837 1.05938E-04-3.31124E-05-3.12150E-05-1.66127E-06 6.86889E-19 3.28502E-19
 -1       838 7.14657E-05-2.73051E-05-1.87316E-05 2.77910E-05-1.76500E-18 3.43313E-19
 -1       839 6.36678E-05-6.38447E-06-2.45003E-05-6.68493E-06-1.82360E-20-2.13568E-18
 -1       840 9.12080E-05-3.76096E-05-2.28876E-05-2.54620E-05 1.29379E-18 8.49634E-19
 -1       841 8.27965E-05-1.92033E-05-2.72317E-05-1.26057E-05 2.76857E-20-1.37219E-18
 -1       842 1.30388E-04-4.32296E-05-3.73933E-05-1.07928E-05 2.79693E-19-2.19310E-18
 -1       843 9.54553E-05-2.76448E-05-2.90574E-05 1.07813E-05 6.10650E-20-7.33845E-19
 -1       844 9.52472E-05-2.85842E-05-2.85699E-05-1.60306E-08-8.95393E-19-1.01360E-18
 -1       845 1.09370E-04-4.61124E-05-2.70356E-05-1.70896E-05 1.33673E-18 7.39417E-19
 -1       846 9.52509E-05-2.85866E-05-2.85704E-05-1.16078E-08 7.70493E-20-1.78908E-18
 -1       847 9.52412E-05-2.85796E-05-2.85692E-05-2.08393E-08-4.53694E-19-1.37580E-19
 -1       848 9.34722E-05-2.58088E-05-2.90035E-05-9.29936E-06 3.62105E-19-8.49254E-19
 -1       849 9.52531E-05-2.85882E-05-2.85707E-05-6.07676E-09 3.87891E-19-1.13215E-19
 -1       850 1.13159E-04-4.96378E-05-2.71897E-05 1.58637E-05-4.23219E-19-1.86962E-18
 -1       851 5.66517E-05-7.05612E-06-2.11333E-05 6.33997E-06 4.73327E-19-2.34751E-18
 -1       852 1.10140E-04-3.78947E-05-3.09489E-05-1.67002E-06 3.91622E-19 3.45806E-19
 -1       853 6.22407E-05-1.79212E-05-1.88434E-05-1.63103E-05 1.21397E-20 2.10727E-18
 -1       854 9.52419E-05-2.85805E-05-2.85692E-05-1.90126E-08 6.51555E-19-3.08928E-19
 -1       855 6.94569E-05-9.94745E-06-2.54779E-05 8.50783E-06 2.89782E-19-2.00632E-18
 -1       856 9.52447E-05-2.85823E-05-2.85696E-05 1.81410E-08-1.81433E-18 4.21065E-20
 -1       857 8.14041E-05-1.76991E-05-2.73175E-05 1.10616E-05 1.96659E-19-1.29325E-18
 -1       858 1.15659E-04-4.59224E-05-2.98646E-05-7.68848E-06-7.35732E-19 4.54433E-19
 -1       859 9.76318E-05-3.57519E-05-2.64517E-05-1.91104E-05-8.62457E-19-3.97408E-19
 -1       860 8.64934E-05-2.53716E-05-2.61991E-05-1.40804E-05 4.01192E-19 2.56351E-18
 -1       861 8.69076E-05-2.36516E-05-2.71093E-05-1.11508E-05-5.07953E-19 2.94862E-18
 -1       862 8.79168E-05-2.30738E-05-2.77897E-05-8.97184E-06-4.76260E-19 2.49934E-18
 -1       863 8.90907E-05-2.31518E-05-2.82594E-05-7.31324E-06-5.52833E-19 2.13065E-18
 -1       864 9.02378E-05-2.35849E-05-2.85654E-05-5.98588E-06 2.69651E-19 1.51336E-18
 -1       865 9.12696E-05-2.41848E-05-2.87505E-05-4.88523E-06 9.67374E-19 6.35539E-19
 -1       866 9.21525E-05-2.48356E-05-2.88500E-05-3.95525E-06 9.88695E-19 3.22059E-19
 -1       867 9.28829E-05-2.54694E-05-2.88914E-05-3.16617E-06-9.68717E-19-1.67155E-19
 -1       868 9.34720E-05-2.60495E-05-2.88953E-05-2.50049E-06-1.20650E-18 5.32562E-19
 -1       869 9.39375E-05-2.65589E-05-2.88765E-05-1.94533E-06-8.90634E-19 7.08287E-19
 -1       870 9.42988E-05-2.69929E-05-2.88454E-05-1.48899E-06-2.74032E-19-3.93341E-19
 -1       871 9.45746E-05-2.73538E-05-2.88089E-05-1.11978E-06-4.50637E-19-3.34277E-20
 -1       872 9.47818E-05-2.76479E-05-2.87717E-05-8.25937E-07 1.70266E-19 4.77539E-19
 -1       873 9.49347E-05-2.78832E-05-2.87364E-05-5.96004E-07-5.77135E-19-1.68783E-19
 -1       874 9.50456E-05-2.80684E-05-2.87045E-05-4.19178E-07-1.06226E-18 3.27684E-19
 -1       875 9.51242E-05-2.82117E-05-2.86768E-05-2.85637E-07-2.00435E-18 2.46358E-19
 -1       876 9.51785E-05-2.83207E-05-2.86534E-05-1.86722E-07 6.25481E-19 8.29044E-19
 -1       877 9.52148E-05-2.84022E-05-2.86340E-05-1.15008E-07-2.83823E-19 3.85687E-19
 -1       878 9.52379E-05-2.84620E-05-2.86183E-05-6.42739E-08 2.92488E-19 1.43898E-18
 -1       879 9.52517E-05-2.85048E-05-2.86058E-05-2.94244E-08-5.40445E-19 1.44570E-18
 -1       880 9.52589E-05-2.85348E-05-2.85961E-05-6.36737E-09 6.90413E-19 1.73140E-18
 -1       881 9.52617E-05-2.85550E-05-2.85886E-05 8.12067E-09 1.45967E-18-8.24720E-20
 -1       882 9.52617E-05-2.85681E-05-2.85829E-05 1.65303E-08 2.08076E-18 7.33294E-19
 -1       883 9.52599E-05-2.85762E-05-2.85787E-05 2.07476E-08 5.73727E-19-4.01857E-19
 -1       884 9.52571E-05-2.85806E-05-2.85756E-05 2.21667E-08 1.34697E-19-5.22498E-19
 -1       885 9.52540E-05-2.85828E-05-2.85734E-05 2.17935E-08 8.26173E-20-1.37495E-18
 -1       886 9.52508E-05-2.85836E-05-2.85717E-05 2.03149E-08 7.49764E-19-2.51694E-19
 -1       887 1.03888E-04-3.89944E-05-2.78277E-05 1.17620E-05-8.66765E-19-4.04869E-19
 -1       888 9.88041E-05-3.38269E-05-2.78505E-05 1.14760E-05-7.02894E-19-1.51556E-19
 -1       889 9.57847E-05-3.02518E-05-2.80855E-05 1.03501E-05 1.87363E-20 2.80601E-19
 -1       890 9.41316E-05-2.79677E-05-2.83555E-05 9.01886E-06-8.41486E-19-1.10387E-18
 -1       891 9.33886E-05-2.66818E-05-2.85884E-05 7.68467E-06-2.26203E-19-9.15037E-19
 -1       892 9.31828E-05-2.60803E-05-2.87581E-05 6.44746E-06-7.64489E-19 3.84210E-19
 -1       893 9.32731E-05-2.59210E-05-2.88651E-05 5.33414E-06-1.23034E-19-2.76654E-19
 -1       894 9.35077E-05-2.60280E-05-2.89198E-05 4.35176E-06 2.43364E-19-1.08566E-19
 -1       895 9.37948E-05-2.62793E-05-2.89352E-05 3.49933E-06 8.55918E-19-1.77891E-19
 -1       896 9.40826E-05-2.65942E-05-2.89236E-05 2.77180E-06 3.25526E-19-7.20875E-19
 -1       897 9.43440E-05-2.69219E-05-2.88952E-05 2.16125E-06-6.35424E-19-5.73891E-19
 -1       898 9.45675E-05-2.72327E-05-2.88578E-05 1.65752E-06-1.28120E-19 7.98897E-19
 -1       899 9.47505E-05-2.75106E-05-2.88171E-05 1.24890E-06-2.11434E-19 1.71403E-18
 -1       900 9.48951E-05-2.77492E-05-2.87768E-05 9.23027E-07 1.24746E-18-7.71511E-20
 -1       901 9.50062E-05-2.79478E-05-2.87393E-05 6.67539E-07 2.41516E-19 1.92147E-19
 -1       902 9.50891E-05-2.81086E-05-2.87059E-05 4.70688E-07-1.35860E-18 9.25199E-20
 -1       903 9.51492E-05-2.82359E-05-2.86771E-05 3.21734E-07-7.66989E-19-7.24775E-19
 -1       904 9.51914E-05-2.83346E-05-2.86529E-05 2.11177E-07 1.53877E-18 1.40200E-19
 -1       905 9.52199E-05-2.84095E-05-2.86331E-05 1.30844E-07 6.99320E-19 1.07554E-18
 -1       906 9.52383E-05-2.84650E-05-2.86171E-05 7.38714E-08-3.97590E-20 7.31045E-19
 -1       907 9.52493E-05-2.85054E-05-2.86045E-05 3.46230E-08-1.48041E-18 1.45892E-18
 -1       908 9.52550E-05-2.85338E-05-2.85948E-05 8.56115E-09-2.53240E-18 6.55699E-19
 -1       909 9.52573E-05-2.85533E-05-2.85874E-05-7.89665E-09-6.23687E-19-8.86447E-19
 -1       910 9.52572E-05-2.85661E-05-2.85819E-05-1.75249E-08 6.56765E-20-1.13949E-18
 -1       911 9.52557E-05-2.85741E-05-2.85778E-05-2.24299E-08-8.48894E-21-1.10745E-18
 -1       912 9.52535E-05-2.85787E-05-2.85749E-05-2.41741E-08-7.64597E-19-1.60191E-19
 -1       913 9.52509E-05-2.85810E-05-2.85728E-05-2.38857E-08-1.19208E-18-2.53820E-19
 -1       914 9.52484E-05-2.85820E-05-2.85713E-05-2.23554E-08-7.82943E-19-1.48309E-18
 -1       915 9.52578E-05-2.85888E-05-2.85724E-05 3.39747E-09-1.76132E-19-4.34902E-18
 -1       916 6.74582E-05-1.98061E-05-2.03275E-05 1.74593E-05-1.03475E-18 3.37721E-19
 -1       917 5.89583E-05-7.78113E-06-2.18340E-05-1.09071E-05-1.91618E-19-2.44092E-18
 -1       918 7.38324E-05-1.95356E-05-2.31511E-05 1.87338E-05 8.49743E-19-1.79129E-18
 -1       919 1.16554E-04-4.81830E-05-2.92943E-05 7.07541E-06-1.84630E-19-9.65068E-19
 -1       920 6.24063E-05-5.36842E-06-2.44239E-05 1.82079E-06 1.32183E-19-2.13832E-18
 -1       921 5.92335E-05-1.34910E-05-1.94781E-05 1.18493E-06-4.15561E-19 1.91783E-18
 -1       922 7.35640E-05-1.83520E-05-2.36020E-05-1.93181E-05-6.99964E-19-1.78527E-18
 -1       923 8.75932E-05-2.91058E-05-2.50021E-05-1.80840E-05 9.85970E-19 2.01032E-18
 -1       924 1.09717E-04-4.38418E-05-2.82536E-05 1.03956E-05-3.38105E-19-8.97021E-19
 -1       925 8.64725E-05-3.22958E-05-2.31518E-05 2.27318E-05-2.15514E-18 4.57385E-19
 -1       926 8.06899E-05-2.81094E-05-2.24486E-05-2.19685E-05 9.25632E-19 1.91751E-18
 -1       927 9.52475E-05-2.85830E-05-2.85705E-05 1.94483E-08 2.97585E-19 7.85713E-19
 -1       928 9.52477E-05-2.85829E-05-2.85707E-05-2.00297E-08-8.10163E-19-1.43792E-18
 -1       929 1.00550E-04-4.05044E-05-2.56832E-05 1.89935E-05-1.01632E-18-9.66382E-19
 -1       930 1.03387E-04-3.47928E-05-2.94094E-05-8.50422E-06 6.32528E-20-5.13150E-19
 -1       931 9.52577E-05-2.85887E-05-2.85724E-05-3.44632E-09-9.30030E-19 2.03612E-19
 -1       932 9.52559E-05-2.85878E-05-2.85721E-05 9.97620E-09-1.96507E-19-4.09938E-18
 -1       933 1.06966E-04-3.86548E-05-2.93325E-05-9.01481E-06-2.95740E-19-2.54047E-19
 -1       934 9.52522E-05-2.85856E-05-2.85714E-05-1.56240E-08-1.20280E-19 1.36396E-18
 -1       935 8.25919E-05-2.27213E-05-2.56092E-05 1.68645E-05 6.50501E-19-1.22776E-18
 -1       936 9.52516E-05-2.85854E-05-2.85712E-05 1.60010E-08-3.62110E-19-1.35738E-18
 -1       937 8.02319E-05-2.05932E-05-2.55607E-05-1.00841E-05 3.83462E-19 9.62027E-19
 -1       938 8.29139E-05-2.06587E-05-2.66814E-05-7.73267E-06-2.28233E-19 1.38389E-18
 -1       939 8.52378E-05-2.11523E-05-2.74658E-05-6.15425E-06-2.19264E-19 2.08454E-18
 -1       940 8.72153E-05-2.18813E-05-2.80005E-05-4.99863E-06-8.76595E-20 2.01756E-18
 -1       941 8.88783E-05-2.27179E-05-2.83546E-05-4.09456E-06 4.36391E-19 2.24792E-18
 -1       942 9.02586E-05-2.35741E-05-2.85791E-05-3.35002E-06-1.61990E-19 9.05521E-19
 -1       943 9.13905E-05-2.43948E-05-2.87124E-05-2.71955E-06-2.79977E-19-2.93851E-19
 -1       944 9.23066E-05-2.51468E-05-2.87828E-05-2.18180E-06-4.93797E-19 5.77278E-19
 -1       945 9.30383E-05-2.58123E-05-2.88112E-05-1.72554E-06 9.44693E-20 1.07430E-18
 -1       946 9.36148E-05-2.63853E-05-2.88126E-05-1.34308E-06-1.28153E-18 1.62458E-18
 -1       947 9.40626E-05-2.68675E-05-2.87979E-05-1.02746E-06-3.86589E-19 1.23701E-18
 -1       948 9.44054E-05-2.72651E-05-2.87744E-05-7.71424E-07 2.42012E-19 1.02293E-18
 -1       949 9.46638E-05-2.75869E-05-2.87472E-05-5.67386E-07 2.74137E-19 1.10491E-18
 -1       950 9.48554E-05-2.78430E-05-2.87196E-05-4.07698E-07-9.07722E-19 1.03112E-18
 -1       951 9.49947E-05-2.80434E-05-2.86934E-05-2.85009E-07-1.61043E-18 1.30889E-18
 -1       952 9.50938E-05-2.81975E-05-2.86698E-05-1.92540E-07-9.76816E-19 2.29988E-18
 -1       953 9.51625E-05-2.83141E-05-2.86493E-05-1.24261E-07-1.02560E-18 4.22686E-19
 -1       954 9.52084E-05-2.84006E-05-2.86319E-05-7.49741E-08 5.76071E-19 2.79832E-19
 -1       955 9.52378E-05-2.84635E-05-2.86176E-05-4.03106E-08 4.59621E-19 6.27301E-19
 -1       956 9.52553E-05-2.85081E-05-2.86059E-05-1.66888E-08 4.47515E-20 1.25530E-18
 -1       957 9.52645E-05-2.85389E-05-2.85967E-05-1.23401E-09 1.20489E-18 1.36457E-18
 -1       958 9.52680E-05-2.85594E-05-2.85894E-05 8.31422E-09 1.65011E-18 1.62665E-18
 -1       959 9.52679E-05-2.85723E-05-2.85838E-05 1.36978E-08 1.24389E-18 1.78270E-19
 -1       960 9.52656E-05-2.85800E-05-2.85795E-05 1.62333E-08 3.48624E-19-2.93108E-20
 -1       961 9.52621E-05-2.85840E-05-2.85763E-05 1.68785E-08-2.46555E-19-2.24972E-19
 -1       962 9.52581E-05-2.85858E-05-2.85739E-05 1.63542E-08 9.73193E-19-1.84523E-18
 -1       963 9.46956E-05-3.33624E-05-2.62816E-05 1.56924E-05-9.57471E-19 1.98920E-19
 -1       964 9.02362E-05-2.52305E-05-2.78592E-05 8.36192E-06-1.39878E-19-4.52387E-19
 -1       965 9.05245E-05-2.46760E-05-2.82209E-05 6.74684E-06-1.11074E-18-5.57884E-19
 -1       966 9.10648E-05-2.46144E-05-2.84789E-05 5.43575E-06-2.69934E-19-9.13259E-19
 -1       967 9.16990E-05-2.48483E-05-2.86504E-05 4.36170E-06-5.76528E-19-1.16049E-19
 -1       968 9.23350E-05-2.52415E-05-2.87545E-05 3.47563E-06 1.92349E-19-5.59317E-19
 -1       969 9.29225E-05-2.57024E-05-2.88087E-05 2.74363E-06 5.83560E-19 8.79045E-19
 -1       970 9.34372E-05-2.61722E-05-2.88280E-05 2.14123E-06-1.58258E-19 1.62449E-19
 -1       971 9.38709E-05-2.66150E-05-2.88240E-05 1.64928E-06-4.70646E-19-5.99167E-19
 -1       972 9.42252E-05-2.70116E-05-2.88059E-05 1.25172E-06-4.34763E-19-9.02935E-19
 -1       973 9.45071E-05-2.73536E-05-2.87801E-05 9.34395E-07 8.01058E-20 4.05422E-19
 -1       974 9.47261E-05-2.76398E-05-2.87513E-05 6.84569E-07 1.75878E-19 2.02698E-18
 -1       975 9.48922E-05-2.78733E-05-2.87224E-05 4.90778E-07-4.69949E-19 2.25884E-18
 -1       976 9.50152E-05-2.80597E-05-2.86953E-05 3.42820E-07 6.60756E-19 1.29071E-18
 -1       977 9.51041E-05-2.82053E-05-2.86709E-05 2.31772E-07 2.88085E-19-9.40166E-20
 -1       978 9.51665E-05-2.83168E-05-2.86499E-05 1.49983E-07-4.54269E-19 7.29177E-19
 -1       979 9.52087E-05-2.84005E-05-2.86321E-05 9.10077E-08-6.08624E-21 2.44671E-18
 -1       980 9.52359E-05-2.84619E-05-2.86175E-05 4.95251E-08-6.34068E-19 2.77365E-18
 -1       981 9.52524E-05-2.85058E-05-2.86057E-05 2.12175E-08-1.57275E-18 2.02678E-18
 -1       982 9.52612E-05-2.85364E-05-2.85963E-05 2.64387E-09 2.07074E-19 4.78591E-19
 -1       983 9.52647E-05-2.85570E-05-2.85890E-05-8.88953E-09 5.43859E-19-8.29379E-19
 -1       984 9.52649E-05-2.85702E-05-2.85834E-05-1.54533E-08 1.08646E-19-8.48731E-19
 -1       985 9.52630E-05-2.85781E-05-2.85792E-05-1.86097E-08-8.00597E-19 7.65564E-20
 -1       986 9.52599E-05-2.85824E-05-2.85761E-05-1.95025E-08-1.80667E-18 1.61037E-19
 -1       987 9.52563E-05-2.85844E-05-2.85737E-05-1.89648E-08 1.25760E-19 1.94108E-18
 -1       988 9.52543E-05-2.85852E-05-2.85725E-05-1.74177E-08 8.96224E-19 3.24345E-18
 -1       989 6.81465E-05-1.65881E-05-2.20722E-05 7.98457E-06-9.44475E-19 2.89245E-19
 -1       990 7.60671E-05-2.16909E-05-2.32818E-05-1.51508E-05 4.62418E-19 8.87480E-19
 -1       991 6.73141E-05-1.65938E-05-2.16889E-05-8.91505E-06 3.99290E-19 2.14521E-18
 -1       992 9.52558E-05-2.85877E-05-2.85721E-05-9.97372E-09 5.13388E-19-1.86048E-18
 -1       993 7.96687E-05-2.43801E-05-2.36635E-05 1.64656E-05-1.24491E-18-7.21975E-19
 -1       994 9.04456E-05-2.65467E-05-2.73852E-05 1.03784E-05 1.54730E-19-1.33905E-19
 -1       995 9.17366E-05-2.91235E-05-2.68501E-05 1.28471E-05-4.86624E-19 1.26579E-19
 -1       996 9.52588E-05-2.85874E-05-2.85735E-05-1.14225E-08-4.99007E-19-2.32083E-18
 -1       997 9.52623E-05-2.85887E-05-2.85744E-05-5.40736E-11-1.65848E-18-1.48575E-18
 -1       998 9.52613E-05-2.85882E-05-2.85742E-05 7.25652E-09-2.81480E-19-4.20833E-18
 -1       999 6.98167E-05-1.59471E-05-2.30719E-05-8.76653E-07 3.80630E-19 5.17926E-19
 -1      1000 8.97031E-05-2.35745E-05-2.83411E-05 3.94090E-06-3.18806E-19-2.97460E-19
 -1      1001 7.78994E-05-1.83425E-05-2.55263E-05-4.62859E-06-4.94137E-19 1.90784E-18
 -1      1002 8.15350E-05-1.93685E-05-2.66474E-05-3.69255E-06-2.33098E-19 1.27320E-18
 -1      1003 8.43700E-05-2.03973E-05-2.74179E-05-3.04888E-06-1.46862E-19 7.34871E-19
 -1      1004 8.66434E-05-2.14476E-05-2.79417E-05-2.56395E-06 5.56407E-19 4.61759E-19
 -1      1005 8.84786E-05-2.24669E-05-2.82912E-05-2.16149E-06-6.85272E-19-3.76763E-19
 -1      1006 8.99691E-05-2.34305E-05-2.85169E-05-1.80752E-06-6.48940E-19 3.48584E-19
 -1      1007 9.11770E-05-2.43161E-05-2.86550E-05-1.49155E-06-1.85834E-19-2.65086E-19
 -1      1008 9.21487E-05-2.51075E-05-2.87322E-05-1.21068E-06-3.89586E-19 1.59168E-19
 -1      1009 9.29227E-05-2.57975E-05-2.87681E-05-9.65022E-07-7.20866E-19-9.45545E-19
 -1      1010 9.35319E-05-2.63858E-05-2.87770E-05-7.54661E-07-4.09699E-19-7.31831E-19
 -1      1011 9.40052E-05-2.68773E-05-2.87692E-05-5.78522E-07 2.31346E-19 9.92203E-20
 -1      1012 9.43675E-05-2.72802E-05-2.87518E-05-4.34271E-07 8.64795E-19-2.86051E-19
 -1      1013 9.46405E-05-2.76047E-05-2.87297E-05-3.18649E-07 4.09500E-20-3.58831E-19
 -1      1014 9.48427E-05-2.78615E-05-2.87063E-05-2.27899E-07-8.33901E-19-7.84246E-20
 -1      1015 9.49894E-05-2.80613E-05-2.86835E-05-1.58136E-07-1.22820E-18-3.59221E-19
 -1      1016 9.50935E-05-2.82141E-05-2.86626E-05-1.05633E-07-2.02042E-18-2.01090E-20
 -1      1017 9.51652E-05-2.83289E-05-2.86442E-05-6.69927E-08-3.31136E-19 1.08722E-18
 -1      1018 9.52128E-05-2.84134E-05-2.86283E-05-3.92448E-08 3.08700E-19 4.66242E-19
 -1      1019 9.52429E-05-2.84743E-05-2.86151E-05-1.98751E-08 2.59208E-19-3.55195E-19
 -1      1020 9.52605E-05-2.85170E-05-2.86043E-05-6.81343E-09 1.07403E-18 4.11350E-20
 -1      1021 9.52693E-05-2.85461E-05-2.85957E-05 1.60307E-09 1.81155E-18 6.72177E-19
 -1      1022 9.52723E-05-2.85651E-05-2.85888E-05 6.67894E-09 1.71912E-18-4.49920E-19
 -1      1023 9.52715E-05-2.85767E-05-2.85835E-05 9.41272E-09 1.20908E-19-6.68239E-20
 -1      1024 9.52685E-05-2.85834E-05-2.85793E-05 1.05758E-08-1.25032E-18-1.79665E-19
 -1      1025 9.52643E-05-2.85866E-05-2.85761E-05 1.07069E-08-7.80079E-19-2.37758E-18
 -1      1026 8.73766E-05-2.29729E-05-2.76023E-05 6.51146E-06-9.78398E-19 2.25240E-19
 -1      1027 9.07445E-05-2.41444E-05-2.85434E-05 3.07838E-06 3.48351E-19-1.23961E-18
 -1      1028 9.16627E-05-2.47671E-05-2.86699E-05 2.39955E-06-7.18564E-19-1.00605E-18
 -1      1029 9.24482E-05-2.53852E-05-2.87416E-05 1.85956E-06-2.95462E-19 3.42573E-19
 -1      1030 9.31037E-05-2.59628E-05-2.87749E-05 1.42852E-06 3.75035E-19 6.40601E-19
 -1      1031 9.36384E-05-2.64796E-05-2.87826E-05 1.08523E-06-2.71462E-19-7.29416E-19
 -1      1032 9.40655E-05-2.69266E-05-2.87739E-05 8.13501E-07-1.09683E-18 2.51675E-19
 -1      1033 9.43997E-05-2.73028E-05-2.87559E-05 6.00332E-07-6.50088E-19 2.33561E-19
 -1      1034 9.46560E-05-2.76119E-05-2.87333E-05 4.34942E-07-4.56195E-19 8.41520E-19
 -1      1035 9.48485E-05-2.78604E-05-2.87093E-05 3.08254E-07 2.49718E-20 1.06279E-18
 -1      1036 9.49900E-05-2.80562E-05-2.86860E-05 2.12605E-07 4.91403E-19 2.10323E-18
 -1      1037 9.50913E-05-2.82075E-05-2.86645E-05 1.41557E-07 7.56233E-20 1.60336E-18
 -1      1038 9.51619E-05-2.83221E-05-2.86456E-05 8.97474E-08-7.16553E-19 5.76014E-19
 -1      1039 9.52092E-05-2.84072E-05-2.86295E-05 5.27703E-08-7.31617E-19 9.33919E-19
 -1      1040 9.52395E-05-2.84690E-05-2.86159E-05 2.70505E-08-2.26962E-19 1.02920E-18
 -1      1041 9.52574E-05-2.85127E-05-2.86049E-05 9.73006E-09 5.05656E-19-4.53278E-19
 -1      1042 9.52667E-05-2.85426E-05-2.85961E-05-1.44109E-09 8.10791E-19-1.43243E-18
 -1      1043 9.52702E-05-2.85624E-05-2.85891E-05-8.20547E-09-7.37969E-19 8.99850E-19
 -1      1044 9.52698E-05-2.85747E-05-2.85836E-05-1.18886E-08-1.25199E-18 1.81700E-18
 -1      1045 9.52672E-05-2.85818E-05-2.85794E-05-1.34993E-08-9.36934E-19 4.62003E-19
 -1      1046 9.52633E-05-2.85855E-05-2.85762E-05-1.36988E-08-1.06670E-18-1.40725E-18
 -1      1047 7.33366E-05-1.73501E-05-2.39722E-05-6.15396E-06 4.27075E-19 2.60639E-18
 -1      1048 9.52612E-05-2.85884E-05-2.85741E-05-5.89878E-09-8.34507E-19-1.41947E-18
 -1      1049 8.85638E-05-2.31431E-05-2.80375E-05 5.05193E-06-2.68802E-19 2.79316E-19
 -1      1050 8.62625E-05-2.32614E-05-2.70024E-05 8.48255E-06-9.32421E-20-1.04023E-20
 -1      1051 9.52611E-05-2.85866E-05-2.85748E-05-1.26755E-08-1.28950E-18-2.40764E-18
 -1      1052 8.55283E-05-2.42945E-05-2.62392E-05 1.12134E-05 1.90020E-20-4.03664E-22
 -1      1053 7.67350E-05-1.98459E-05-2.43761E-05 9.50392E-06-7.47536E-19-2.08575E-19
 -1      1054 7.52755E-05-1.76184E-05-2.47152E-05 3.41107E-06-6.56906E-19-9.21122E-19
 -1      1055 9.52664E-05-2.85872E-05-2.85768E-05 3.32398E-09-2.26839E-18-1.50794E-18
 -1      1056 9.52664E-05-2.85877E-05-2.85766E-05-2.87204E-09-1.08790E-18-2.49083E-18
 -1      1057 9.03799E-05-2.38389E-05-2.85170E-05 1.71388E-06-3.89961E-19 4.73902E-19
 -1      1058 8.08275E-05-2.03704E-05-2.59040E-05 7.14711E-06 2.41767E-19-8.97129E-20
 -1      1059 8.21939E-05-1.94753E-05-2.68739E-05-1.95760E-08-2.09090E-19 2.68798E-19
 -1      1060 8.48975E-05-2.06089E-05-2.75536E-05-2.48128E-07-3.96893E-19-8.97093E-20
 -1      1061 8.70494E-05-2.16811E-05-2.80160E-05-3.67073E-07-5.76873E-19-8.77693E-19
 -1      1062 8.87967E-05-2.27038E-05-2.83261E-05-4.17963E-07-5.78598E-19-1.41352E-18
 -1      1063 9.02191E-05-2.36568E-05-2.85272E-05-4.19983E-07-9.20547E-19-8.54977E-19
 -1      1064 9.13731E-05-2.45224E-05-2.86506E-05-3.89376E-07-2.05081E-19-1.52323E-18
 -1      1065 9.23029E-05-2.52906E-05-2.87198E-05-3.41486E-07-3.62492E-19-1.19781E-18
 -1      1066 9.30441E-05-2.59565E-05-2.87520E-05-2.86911E-07-4.24100E-19-1.14370E-18
 -1      1067 9.36276E-05-2.65216E-05-2.87598E-05-2.32600E-07 2.83495E-19-1.50314E-18
 -1      1068 9.40805E-05-2.69914E-05-2.87525E-05-1.82696E-07-2.17192E-19-1.46783E-18
 -1      1069 9.44266E-05-2.73746E-05-2.87366E-05-1.39297E-07 4.75260E-19-1.80859E-18
 -1      1070 9.46866E-05-2.76817E-05-2.87164E-05-1.03107E-07-9.54625E-19-2.52693E-18
 -1      1071 9.48783E-05-2.79235E-05-2.86949E-05-7.39530E-08-9.88441E-19-2.78001E-18
 -1      1072 9.50167E-05-2.81105E-05-2.86741E-05-5.11680E-08-8.96949E-19-1.14077E-18
 -1      1073 9.51141E-05-2.82526E-05-2.86549E-05-3.38553E-08-2.38173E-19 1.65878E-19
 -1      1074 9.51805E-05-2.83585E-05-2.86380E-05-2.10613E-08-5.99483E-20 8.55615E-19
 -1      1075 9.52241E-05-2.84359E-05-2.86235E-05-1.18789E-08-7.45387E-19 1.17023E-18
 -1      1076 9.52509E-05-2.84910E-05-2.86114E-05-5.50126E-09 7.30781E-19 5.79360E-19
 -1      1077 9.52660E-05-2.85292E-05-2.86015E-05-1.24405E-09 1.93123E-18 2.33086E-19
 -1      1078 9.52729E-05-2.85547E-05-2.85935E-05 1.45283E-09 8.30915E-19-6.98820E-19
 -1      1079 9.52745E-05-2.85710E-05-2.85872E-05 3.03927E-09 9.38536E-19-2.00978E-18
 -1      1080 9.52727E-05-2.85809E-05-2.85822E-05 3.94074E-09-6.30831E-19-3.35076E-18
 -1      1081 9.52697E-05-2.85849E-05-2.85792E-05 3.42597E-09-2.02706E-18-1.83222E-18
 -1      1082 9.14439E-05-2.46070E-05-2.86439E-05 1.29823E-06-7.44207E-19 3.57107E-19
 -1      1083 8.91099E-05-2.30424E-05-2.83141E-05 2.26327E-06-6.55930E-19 1.14224E-19
 -1      1084 9.23223E-05-2.53162E-05-2.87166E-05 9.80557E-07-7.09729E-19-2.84077E-19
 -1      1085 9.30362E-05-2.59486E-05-2.87515E-05 7.36354E-07 4.22311E-19-1.40818E-20
 -1      1086 9.36069E-05-2.64966E-05-2.87614E-05 5.48295E-07-3.41386E-19 1.82665E-19
 -1      1087 9.40556E-05-2.69595E-05-2.87553E-05 4.03722E-07-6.16946E-19-3.56500E-19
 -1      1088 9.44021E-05-2.73419E-05-2.87400E-05 2.93110E-07-6.28089E-19-1.32338E-18
 -1      1089 9.46649E-05-2.76515E-05-2.87199E-05 2.09105E-07-5.71549E-19-1.19107E-18
 -1      1090 9.48602E-05-2.78972E-05-2.86984E-05 1.45930E-07-5.91270E-19 4.75821E-19
 -1      1091 9.50023E-05-2.80887E-05-2.86772E-05 9.89920E-08 4.94674E-20 7.38996E-19
 -1      1092 9.51030E-05-2.82351E-05-2.86577E-05 6.46240E-08 2.67557E-19 4.09513E-19
 -1      1093 9.51724E-05-2.83449E-05-2.86403E-05 3.98977E-08-9.13341E-20-3.12226E-19
 -1      1094 9.52182E-05-2.84255E-05-2.86254E-05 2.24837E-08-2.61277E-19-1.56321E-19
 -1      1095 9.52469E-05-2.84833E-05-2.86130E-05 1.05420E-08 6.34026E-19 8.05965E-19
 -1      1096 9.52634E-05-2.85237E-05-2.86027E-05 2.63236E-09 1.19865E-18 6.83302E-20
 -1      1097 9.52713E-05-2.85509E-05-2.85945E-05-2.36064E-09-7.63220E-19-8.02497E-19
 -1      1098 9.52736E-05-2.85684E-05-2.85879E-05-5.29023E-09-7.34735E-19-3.10497E-18
 -1      1099 9.52723E-05-2.85791E-05-2.85828E-05-6.77638E-09-1.13902E-18-3.15736E-18
 -1      1100 9.52688E-05-2.85850E-05-2.85788E-05-7.40796E-09-9.41066E-19-1.90692E-18
 -1      1101 8.33531E-05-2.07533E-05-2.68309E-05 5.18303E-06-6.46017E-19-4.91143E-20
 -1      1102 9.52641E-05-2.85873E-05-2.85758E-05-7.94775E-09-4.80102E-19-1.79164E-18
 -1      1103 7.59332E-05-1.75099E-05-2.50245E-05-9.70248E-07-9.33908E-19 5.39039E-19
 -1      1104 7.92364E-05-1.83907E-05-2.60771E-05-3.52355E-07-2.72243E-19 5.47823E-19
 -1      1105 8.55397E-05-2.13686E-05-2.75014E-05 3.80147E-06-4.72330E-19-6.40818E-19
 -1      1106 8.74949E-05-2.21883E-05-2.79878E-05 2.91006E-06-2.25119E-19-6.58947E-19
 -1      1107 1.28585E-04 2.95831E-10-4.65247E-05-4.02982E-05-2.24464E-19 8.48113E-18
 -1      1108 9.93748E-05 9.42081E-11-4.14021E-05-1.86375E-05-1.17949E-19 1.96623E-18
 -1      1109 9.11126E-05 5.33436E-11-3.85632E-05-1.00874E-05-9.52912E-20-9.11460E-19
 -1      1110 8.48902E-05 3.45529E-11-3.61268E-05-5.12342E-06-6.54333E-20-2.35831E-18
 -1      1111 7.94838E-05 2.07036E-11-3.39661E-05-2.08652E-06-4.06576E-20-3.09531E-18
 -1      1112 7.49482E-05 9.30326E-12-3.21566E-05-5.67800E-07-3.21873E-20-3.46614E-18
 -1      1113 7.15661E-05 6.38014E-13-3.08086E-05-2.59383E-07-1.30231E-20-3.68037E-18
 -1      1114 6.96500E-05-3.88173E-12-3.00410E-05-7.41743E-07-4.71162E-21-3.73238E-18
 -1      1115 6.94258E-05-3.36111E-12-2.99356E-05-1.46349E-06 6.15422E-21-3.69976E-18
 -1      1116 7.08264E-05 1.83449E-12-3.04682E-05-1.82972E-06 2.02229E-20-3.57747E-18
 -1      1117 7.35491E-05 1.02039E-11-3.15289E-05-1.36188E-06 2.33993E-20-3.29502E-18
 -1      1118 7.71418E-05 1.97852E-11-3.29501E-05 1.87941E-07 4.42575E-20-2.88023E-18
 -1      1119 8.12474E-05 2.96647E-11-3.46017E-05 2.90127E-06 5.85512E-20-2.17783E-18
 -1      1120 8.57364E-05 4.01764E-11-3.64266E-05 6.83091E-06 7.58094E-20-1.14330E-18
 -1      1121 9.08001E-05 5.46731E-11-3.84608E-05 1.21870E-05 1.03232E-19 6.47530E-19
 -1      1122 9.77126E-05 8.61013E-11-4.09873E-05 2.01490E-05 1.04609E-19 3.99058E-18
 -1      1123 1.17170E-04 1.92672E-10-4.47632E-05 3.53252E-05 1.93124E-19 1.05037E-17
 -1      1124 1.44302E-04-2.95830E-05-4.52506E-05-2.54900E-05-9.13737E-19 1.25911E-17
 -1      1125 1.17244E-04-3.48237E-05-3.76247E-05 9.12847E-09-3.00273E-19 1.04213E-17
 -1      1126 1.15104E-04-3.45181E-05-3.52719E-05 6.16267E-07-1.37140E-19 7.43330E-18
 -1      1127 1.16971E-04-3.51640E-05-3.51248E-05 4.01701E-07-1.59523E-19 5.49026E-18
 -1      1128 1.19081E-04-3.57467E-05-3.55286E-05 2.43587E-07-9.34896E-20 4.00154E-18
 -1      1129 1.19720E-04-3.58771E-05-3.55756E-05 3.81032E-08 3.76996E-20 3.71466E-18
 -1      1130 1.17278E-04-3.51042E-05-3.47565E-05-2.66534E-07-3.69981E-20 2.94969E-18
 -1      1131 1.10765E-04-3.31503E-05-3.28755E-05-6.25234E-07-1.67521E-20 2.24951E-18
 -1      1132 1.00839E-04-3.02332E-05-3.02083E-05-8.65210E-07-1.45842E-19 1.50941E-18
 -1      1133 9.05309E-05-2.72479E-05-2.75758E-05-7.60985E-07-1.02134E-19-4.21717E-19
 -1      1134 8.43495E-05-2.54803E-05-2.60552E-05-2.46762E-07 3.86459E-21-2.32966E-18
 -1      1135 8.55565E-05-2.58276E-05-2.63732E-05 4.26217E-07 6.37061E-20-2.40579E-18
 -1      1136 9.36901E-05-2.81643E-05-2.84248E-05 8.64736E-07-8.26453E-20-3.09093E-18
 -1      1137 1.04918E-04-3.14263E-05-3.13439E-05 8.84946E-07-3.70577E-21-3.73277E-18
 -1      1138 1.14816E-04-3.43415E-05-3.40512E-05 6.07577E-07 7.65705E-20-3.54314E-18
 -1      1139 1.20800E-04-3.61347E-05-3.58181E-05 2.65105E-07-5.16161E-20-2.31611E-18
 -1      1140 1.22568E-04-3.66891E-05-3.64590E-05 8.90097E-09-5.16856E-20-2.02147E-18
 -1      1141 1.21176E-04-3.63029E-05-3.61819E-05-1.26144E-07 5.52027E-20-1.76162E-18
 -1      1142 1.17997E-04-3.53769E-05-3.53392E-05-1.69260E-07-9.87190E-20-2.50881E-18
 -1      1143 1.14142E-04-3.42410E-05-3.42506E-05-1.61370E-07 2.76018E-20-2.90003E-18
 -1      1144 1.10320E-04-3.31075E-05-3.31368E-05-1.32782E-07-2.77790E-19-3.39406E-18
 -1      1145 1.06897E-04-3.20876E-05-3.21208E-05-1.00390E-07 2.90671E-20-3.24644E-18
 -1      1146 1.04015E-04-3.12254E-05-3.12552E-05-7.16379E-08 5.51721E-20-2.65027E-18
 -1      1147 1.01686E-04-3.05264E-05-3.05504E-05-4.87808E-08-8.79053E-20-3.86201E-18
 -1      1148 9.98596E-05-2.99768E-05-2.99950E-05-3.17129E-08 1.15111E-19-3.61590E-18
 -1      1149 9.84624E-05-2.95552E-05-2.95684E-05-1.94873E-08-7.59137E-20-2.07273E-18
 -1      1150 9.74160E-05-2.92386E-05-2.92479E-05-1.10117E-08 3.19957E-19-2.84977E-18
 -1      1151 9.66484E-05-2.90057E-05-2.90121E-05-5.31606E-09-1.78961E-20-3.75951E-18
 -1      1152 9.60976E-05-2.88382E-05-2.88424E-05-1.62358E-09-2.43735E-19-3.91191E-18
 -1      1153 9.57120E-05-2.87206E-05-2.87233E-05 6.56699E-10 3.84069E-19-3.29352E-18
 -1      1154 9.54502E-05-2.86404E-05-2.86420E-05 1.96185E-09-1.06685E-19-2.80489E-18
 -1      1155 9.52793E-05-2.85878E-05-2.85887E-05 2.60945E-09 1.51931E-19-3.41651E-18
 -1      1156 9.51740E-05-2.85552E-05-2.85556E-05 2.82712E-09-3.02795E-19-4.68499E-18
 -1      1157 9.51148E-05-2.85366E-05-2.85367E-05 2.77592E-09 1.79132E-19-5.94095E-18
 -1      1158 9.50871E-05-2.85277E-05-2.85275E-05 2.56803E-09-1.70386E-19-7.53507E-18
 -1      1159 9.50802E-05-2.85251E-05-2.85249E-05 2.28002E-09 2.40711E-19-6.77839E-18
 -1      1160 9.50862E-05-2.85266E-05-2.85263E-05 1.96272E-09 2.20627E-19-4.86679E-18
 -1      1161 9.50998E-05-2.85304E-05-2.85301E-05 1.64857E-09-9.57106E-21-3.73286E-18
 -1      1162 9.51171E-05-2.85354E-05-2.85351E-05 1.35701E-09 1.79766E-19-1.64773E-18
 -1      1163 9.51356E-05-2.85408E-05-2.85406E-05 1.09855E-09 8.59999E-20 1.10392E-18
 -1      1164 9.51538E-05-2.85462E-05-2.85460E-05 8.77632E-10-5.38293E-19-6.39910E-19
 -1      1165 9.51708E-05-2.85512E-05-2.85510E-05 6.94758E-10-2.46451E-19-4.87307E-18
 -1      1166 9.51860E-05-2.85558E-05-2.85556E-05 5.47843E-10 3.60205E-19-3.83996E-18
 -1      1167 9.51994E-05-2.85598E-05-2.85596E-05 4.32948E-10-4.10159E-19-2.17776E-18
 -1      1168 9.52109E-05-2.85632E-05-2.85631E-05 3.44245E-10-2.35363E-19-2.53872E-18
 -1      1169 9.52205E-05-2.85661E-05-2.85660E-05 2.72794E-10 4.32017E-19-4.75288E-20
 -1      1170 9.52282E-05-2.85684E-05-2.85683E-05 2.03033E-10 5.68398E-20 2.10306E-18
 -1      1171 9.52339E-05-2.85701E-05-2.85699E-05 1.02716E-10 3.70556E-19 2.21580E-18
 -1      1172 9.52370E-05-2.85710E-05-2.85709E-05-9.20980E-11-2.90392E-19-3.32792E-19
 -1      1173 9.52376E-05-2.85713E-05-2.85714E-05-1.48945E-10 2.77892E-19 1.61212E-18
 -1      1174 1.43238E-04-4.10147E-05-4.29749E-05 1.23206E-05-1.82589E-19 1.57133E-17
 -1      1175 1.12961E-04-3.30705E-05-3.63075E-05 5.50946E-07 7.62859E-20 1.33037E-17
 -1      1176 1.09939E-04-3.27856E-05-3.36410E-05-5.82136E-08 1.00850E-19 1.04622E-17
 -1      1177 1.09748E-04-3.28899E-05-3.29589E-05-1.48575E-07-1.23622E-21 8.61305E-18
 -1      1178 1.09687E-04-3.28855E-05-3.27484E-05-1.64563E-07-1.14978E-21 7.69731E-18
 -1      1179 1.08416E-04-3.25012E-05-3.22881E-05-1.18177E-07 5.57321E-20 6.74179E-18
 -1      1180 1.05121E-04-3.15316E-05-3.12845E-05-1.87470E-10-8.43062E-21 6.04980E-18
 -1      1181 9.96693E-05-2.99360E-05-2.97263E-05 1.79304E-07-9.77066E-21 5.51408E-18
 -1      1182 9.29087E-05-2.79461E-05-2.78799E-05 3.61855E-07-1.40075E-20 4.39261E-18
 -1      1183 8.66942E-05-2.60873E-05-2.62476E-05 4.49368E-07-6.58601E-20 4.15724E-18
 -1      1184 8.32644E-05-2.50216E-05-2.53854E-05 3.68292E-07 1.16070E-19 3.30270E-18
 -1      1185 8.40848E-05-2.52158E-05-2.56372E-05 1.36793E-07 4.38670E-20 2.95768E-18
 -1      1186 8.89591E-05-2.66453E-05-2.69470E-05-1.36414E-07 5.24433E-20 2.69404E-18
 -1      1187 9.61477E-05-2.88032E-05-2.88849E-05-3.29982E-07 3.18051E-20 2.77530E-18
 -1      1188 1.03362E-04-3.09893E-05-3.08733E-05-3.87230E-07 1.68791E-19 1.23127E-18
 -1      1189 1.08858E-04-3.26585E-05-3.24429E-05-3.31255E-07-3.99197E-20 4.89903E-19
 -1      1190 1.11919E-04-3.35861E-05-3.33678E-05-2.22052E-07-1.35823E-20 1.15519E-18
 -1      1191 1.12700E-04-3.38209E-05-3.36541E-05-1.11914E-07 2.37800E-19 1.58508E-19
 -1      1192 1.11802E-04-3.35480E-05-3.34463E-05-2.74762E-08 4.93694E-20-2.31935E-19
 -1      1193 1.09906E-04-3.29755E-05-3.29289E-05 2.55518E-08 2.80480E-20 3.33255E-19
 -1      1194 1.07577E-04-3.22746E-05-3.22654E-05 5.23296E-08-2.25068E-20 1.04390E-18
 -1      1195 1.05204E-04-3.15620E-05-3.15742E-05 6.11230E-08-3.52762E-20 2.09196E-18
 -1      1196 1.03018E-04-3.09061E-05-3.09280E-05 5.93308E-08 1.37269E-19 4.03267E-19
 -1      1197 1.01128E-04-3.03393E-05-3.03638E-05 5.22779E-08 1.17995E-19-2.14315E-18
 -1      1198 9.95666E-05-2.98713E-05-2.98945E-05 4.33154E-08 1.07456E-19-2.83289E-18
 -1      1199 9.83219E-05-2.94981E-05-2.95183E-05 3.43297E-08 6.68767E-20 1.04450E-19
 -1      1200 9.73588E-05-2.92093E-05-2.92259E-05 2.62516E-08-2.11952E-19 2.22429E-19
 -1      1201 9.66338E-05-2.89918E-05-2.90049E-05 1.94429E-08 5.69363E-20-1.52151E-19
 -1      1202 9.61024E-05-2.88323E-05-2.88424E-05 1.39526E-08 5.70904E-20 6.72825E-19
 -1      1203 9.57241E-05-2.87186E-05-2.87261E-05 9.67400E-09 3.38484E-20-5.04596E-19
 -1      1204 9.54634E-05-2.86402E-05-2.86457E-05 6.43562E-09-1.24516E-19 1.85395E-19
 -1      1205 9.52910E-05-2.85883E-05-2.85922E-05 4.05109E-09 1.46918E-19-1.92187E-18
 -1      1206 9.51834E-05-2.85558E-05-2.85584E-05 2.34434E-09 3.64436E-20-2.41994E-18
 -1      1207 9.51218E-05-2.85372E-05-2.85389E-05 1.16092E-09-2.57544E-19 3.17994E-19
 -1      1208 9.50921E-05-2.85282E-05-2.85292E-05 3.71544E-10-7.59513E-20 1.09498E-18
 -1      1209 9.50836E-05-2.85255E-05-2.85261E-05-1.28403E-10-3.27709E-19-7.76881E-19
 -1      1210 9.50885E-05-2.85269E-05-2.85271E-05-4.21338E-10 1.71119E-19-5.46681E-18
 -1      1211 9.51013E-05-2.85306E-05-2.85307E-05-5.70699E-10 1.99857E-19-4.30449E-18
 -1      1212 9.51180E-05-2.85356E-05-2.85355E-05-6.24289E-10-2.69781E-19-2.91523E-18
 -1      1213 9.51362E-05-2.85410E-05-2.85408E-05-6.17413E-10-1.16128E-19-2.47496E-18
 -1      1214 9.51541E-05-2.85463E-05-2.85462E-05-5.75640E-10-8.61385E-20-2.81893E-18
 -1      1215 9.51710E-05-2.85513E-05-2.85512E-05-5.17160E-10-1.58342E-19-3.01460E-18
 -1      1216 9.51861E-05-2.85559E-05-2.85557E-05-4.54730E-10 9.65435E-20-4.26541E-18
 -1      1217 9.51995E-05-2.85599E-05-2.85597E-05-3.97099E-10-2.56967E-19-3.78521E-18
 -1      1218 9.52109E-05-2.85633E-05-2.85631E-05-3.49750E-10-6.86058E-19-2.65246E-18
 -1      1219 9.52205E-05-2.85661E-05-2.85660E-05-3.15092E-10 5.25434E-19-6.34194E-18
 -1      1220 9.52282E-05-2.85684E-05-2.85683E-05-2.89992E-10 1.20385E-19-8.74394E-18
 -1      1221 9.52338E-05-2.85701E-05-2.85699E-05-2.49773E-10 4.01083E-19-8.58342E-18
 -1      1222 9.52370E-05-2.85711E-05-2.85709E-05-1.15524E-10 6.11109E-19-1.02084E-17
 -1      1223 9.52375E-05-2.85713E-05-2.85714E-05 1.31982E-10-7.00386E-19-6.17637E-18
 -1      1224 9.52370E-05-2.85708E-05-2.85714E-05 1.24111E-10-5.25502E-18-7.70800E-20
 -1      1225 9.52373E-05-2.85714E-05-2.85709E-05 7.52960E-11-5.95035E-18-1.14415E-19
 -1      1226 9.52382E-05-2.85745E-05-2.85700E-05-1.55471E-10 3.80010E-19 5.55891E-21
 -1      1227 9.52397E-05-2.85795E-05-2.85686E-05-2.48556E-10 2.00859E-18-7.09081E-19
 -1      1228 9.52414E-05-2.85853E-05-2.85669E-05-2.63431E-10 5.82508E-18 7.36815E-19
 -1      1229 9.52430E-05-2.85908E-05-2.85653E-05-2.29272E-10 3.32110E-18-1.51223E-18
 -1      1230 9.52443E-05-2.85953E-05-2.85640E-05-1.69878E-10 8.37932E-19-7.09815E-19
 -1      1231 9.52452E-05-2.85983E-05-2.85632E-05-8.87483E-11 2.85421E-18-8.75746E-20
 -1      1232 9.52455E-05-2.85993E-05-2.85629E-05 7.09642E-13 1.01995E-18 2.15090E-19
 -1      1233 9.52452E-05-2.85983E-05-2.85632E-05 9.01637E-11 2.41707E-18-2.01416E-19
 -1      1234 9.52443E-05-2.85953E-05-2.85641E-05 1.70932E-10-4.62741E-18-1.85117E-18
 -1      1235 9.52430E-05-2.85907E-05-2.85654E-05 2.33510E-10-1.17088E-17 5.14406E-19
 -1      1236 9.52413E-05-2.85852E-05-2.85669E-05 2.64077E-10-9.66472E-18 6.47452E-19
 -1      1237 9.52396E-05-2.85794E-05-2.85686E-05 2.51911E-10-4.19094E-18 7.89080E-19
 -1      1238 9.52381E-05-2.85744E-05-2.85700E-05 1.85950E-10-7.06486E-19-1.41775E-19
 -1      1239 9.52374E-05-2.85715E-05-2.85709E-05-1.68496E-10-1.93544E-18-1.38082E-18
 -1      1240 9.52370E-05-2.85707E-05-2.85714E-05-1.39684E-10-9.17488E-19 1.15898E-18
 -1      1241 3.32560E-05-1.05191E-04 1.77213E-05-1.31997E-05 1.52834E-17 2.70656E-18
 -1      1242 1.72210E-05-6.35693E-05 9.10951E-06-2.40226E-05 1.96961E-17 6.58992E-18
 -1      1243 7.66379E-06-8.10871E-06-6.25136E-06 4.27130E-07 1.70762E-17 1.02186E-17
 -1      1244 3.27935E-05 2.42900E-05-2.52863E-05 5.10895E-05 1.33628E-17 1.21973E-17
 -1      1245 1.04204E-04 1.40461E-05-4.57751E-05 9.86533E-05 9.79594E-18 1.38659E-17
 -1      1246 2.05778E-04-3.24766E-05-6.37885E-05 1.09724E-04 5.11481E-18 1.14477E-17
 -1      1247 2.86366E-04-7.86579E-05-7.52653E-05 6.11310E-05 1.51487E-18 5.16521E-18
 -1      1248 3.09979E-04-9.35830E-05-7.78958E-05-1.83522E-05 9.68741E-19-5.40661E-18
 -1      1249 2.59372E-04-6.23986E-05-7.15806E-05-8.71194E-05 4.13098E-18-1.34068E-17
 -1      1250 1.62326E-04-1.00635E-05-5.68525E-05-1.09840E-04 1.01822E-17-1.87177E-17
 -1      1251 6.77655E-05 2.42905E-05-3.69697E-05-8.09723E-05 1.55015E-17-1.82773E-17
 -1      1252 1.56093E-05 1.47832E-05-1.67949E-05-2.68289E-05 1.66306E-17-1.31265E-17
 -1      1253 9.33573E-06-3.24353E-05 1.25275E-06 1.46458E-05 1.34170E-17-6.86181E-18
 -1      1254 2.52495E-05-8.46493E-05 1.35468E-05 2.20753E-05 7.34547E-18-2.24040E-18
 -1      1255 3.59235E-05-1.08880E-04 1.80663E-05 1.32902E-06-5.22408E-19-6.35275E-19
 -1      1256 2.70191E-05-8.98130E-05 1.45849E-05-2.15964E-05-8.06121E-18-2.31261E-18
 -1      1257 1.04562E-05-4.06669E-05 3.34218E-06-1.93092E-05-1.37194E-17-6.69325E-18
 -1      1258 1.13732E-05 7.30456E-06-1.30655E-05 1.59785E-05-1.60716E-17-1.17526E-17
 -1      1259 5.22676E-05 2.50465E-05-3.23181E-05 6.86011E-05-1.49315E-17-1.63037E-17
 -1      1260 1.38269E-04 3.59141E-07-5.26658E-05 1.07197E-04-9.45543E-18-1.52161E-17
 -1      1261 2.40955E-04-5.13857E-05-6.91155E-05 1.00810E-04-3.64267E-18-9.83744E-18
 -1      1262 3.06994E-04-8.98609E-05-7.78194E-05 4.04069E-05-1.07025E-18-1.55049E-18
 -1      1263 3.03722E-04-8.77050E-05-7.75969E-05-4.24503E-05-1.47998E-18 8.08662E-18
 -1      1264 2.30742E-04-4.58640E-05-6.74851E-05-1.03812E-04-5.28125E-18 1.46901E-17
 -1      1265 1.23688E-04 6.58549E-06-4.97436E-05-1.04776E-04-1.15332E-17 1.74184E-17
 -1      1266 3.96796E-05 2.39245E-05-2.78354E-05-5.72883E-05-1.67137E-17 1.67696E-17
 -1      1267 7.91759E-06-7.96770E-06-6.58532E-06-6.31481E-07-1.66120E-17 1.11995E-17
 -1      1268 1.72336E-05-6.44711E-05 9.35935E-06 2.59909E-05-1.04905E-17 4.38594E-18
 -1      1269 3.40064E-05-1.06414E-04 1.78769E-05 1.40344E-05 2.04940E-18 1.09643E-18
 -1      1270 1.19582E-04-2.57653E-05-4.28035E-05-1.48366E-05-3.44107E-19 7.09941E-18
 -1      1271 1.01652E-04-8.84543E-06-3.98968E-05-1.42697E-05-9.26231E-19 6.40675E-19
 -1      1272 1.05896E-04-9.24236E-06-4.16247E-05-2.07122E-05-1.21210E-18 2.14580E-18
 -1      1273 9.26057E-05-5.24455E-06-3.75076E-05-8.63245E-06-9.15219E-19-1.52236E-18
 -1      1274 9.61587E-05-5.34983E-06-3.87876E-05-1.17378E-05-1.05604E-18-5.83923E-19
 -1      1275 1.03272E-04-1.33309E-05-3.85868E-05-1.25520E-05-1.61775E-18 6.44804E-19
 -1      1276 8.55790E-05-3.41206E-06-3.52731E-05-4.47560E-06-7.13308E-19-2.65882E-18
 -1      1277 8.86890E-05-3.45530E-06-3.64197E-05-6.43800E-06-8.11669E-19-2.12619E-18
 -1      1278 9.36257E-05-8.65632E-06-3.64877E-05-7.83366E-06-1.39072E-18-1.16515E-18
 -1      1279 7.94592E-05-2.02667E-06-3.32609E-05-1.84780E-06-4.98849E-19-3.27573E-18
 -1      1280 8.21975E-05-2.07119E-06-3.42661E-05-3.01495E-06-5.79265E-19-3.00008E-18
 -1      1281 8.58159E-05-5.61746E-06-3.44494E-05-4.13083E-06-1.04328E-18-2.15909E-18
 -1      1282 7.44232E-05-8.82748E-07-3.16115E-05-6.03096E-07-3.01544E-19-3.58838E-18
 -1      1283 7.66188E-05-9.22038E-07-3.24087E-05-1.10866E-06-3.93606E-19-3.43371E-18
 -1      1284 7.91606E-05-3.21199E-06-3.26206E-05-1.81251E-06-7.15213E-19-2.71204E-18
 -1      1285 7.07436E-05-9.64572E-09-3.04155E-05-4.46314E-07-1.37405E-19-3.70502E-18
 -1      1286 7.22420E-05-3.89644E-08-3.09590E-05-4.60240E-07-1.94288E-19-3.65106E-18
 -1      1287 7.37834E-05-1.28443E-06-3.11322E-05-7.76049E-07-4.29419E-19-2.97638E-18
 -1      1288 6.89580E-05 4.37947E-07-2.98259E-05-9.72476E-07 5.46932E-20-3.78412E-18
 -1      1289 6.95393E-05 4.30095E-07-3.00464E-05-7.25758E-07-9.60853E-21-3.75064E-18
 -1      1290 7.01638E-05-8.71055E-09-3.01209E-05-7.41252E-07-1.10141E-19-3.07669E-18
 -1      1291 6.92579E-05 3.71742E-07-2.98894E-05-1.59218E-06 1.88650E-19-3.72111E-18
 -1      1292 6.88792E-05 3.87911E-07-2.97746E-05-1.37676E-06 1.21607E-19-3.77605E-18
 -1      1293 6.88091E-05 3.80463E-07-2.97046E-05-1.24650E-06 1.54799E-19-3.13699E-18
 -1      1294 7.14662E-05-1.67091E-07-3.05585E-05-1.71261E-06 3.27325E-19-3.56742E-18
 -1      1295 7.02507E-05-1.32420E-07-3.01448E-05-1.79903E-06 2.83465E-19-3.66749E-18
 -1      1296 6.98243E-05-1.66413E-07-2.99078E-05-1.67905E-06 3.68142E-19-3.07240E-18
 -1      1297 7.51018E-05-1.02222E-06-3.17076E-05-8.99278E-07 4.91491E-19-3.24765E-18
 -1      1298 7.32887E-05-9.78617E-07-3.10669E-05-1.46994E-06 4.04141E-19-3.42661E-18
 -1      1299 7.28801E-05-1.46739E-06-3.06656E-05-1.47022E-06 6.01221E-19-2.87855E-18
 -1      1300 7.95069E-05-1.98405E-06-3.31519E-05 1.00246E-06 6.48033E-19-2.74072E-18
 -1      1301 7.73914E-05-1.94972E-06-3.23798E-05-9.92608E-08 5.91811E-19-3.02632E-18
 -1      1302 7.73135E-05-3.18462E-06-3.18350E-05-2.73823E-07 8.59355E-19-2.52884E-18
 -1      1303 8.44047E-05-2.96975E-06-3.48099E-05 4.07390E-06 9.13843E-19-2.03338E-18
 -1      1304 8.20813E-05-2.94652E-06-3.39374E-05 2.38895E-06 8.04258E-19-2.44120E-18
 -1      1305 8.25145E-05-5.04846E-06-3.32720E-05 2.02395E-06 1.19845E-18-1.99357E-18
 -1      1306 8.96245E-05-4.00266E-06-3.65973E-05 8.28032E-06 1.13132E-18-8.98437E-19
 -1      1307 8.71401E-05-3.99634E-06-3.56502E-05 5.99663E-06 1.00913E-18-1.57376E-18
 -1      1308 8.81791E-05-7.01070E-06-3.48656E-05 5.40619E-06 1.54687E-18-1.21848E-18
 -1      1309 9.56643E-05-5.41738E-06-3.85659E-05 1.38430E-05 1.25223E-18 1.05694E-18
 -1      1310 9.27470E-05-5.40585E-06-3.74793E-05 1.07084E-05 1.13269E-18-1.06064E-19
 -1      1311 9.44342E-05-9.38303E-06-3.65297E-05 9.78610E-06 1.80511E-18 1.10061E-19
 -1      1312 1.04700E-04-8.84864E-06-4.09504E-05 2.18157E-05 1.03465E-18 4.61029E-18
 -1      1313 1.00190E-04-8.29871E-06-3.94988E-05 1.67111E-05 1.02777E-18 2.46127E-18
 -1      1314 1.02493E-04-1.34083E-05-3.82201E-05 1.50246E-05 1.83012E-18 2.24411E-18
 -1      1315 1.36368E-04-2.80314E-05-4.31770E-05 2.74268E-05 4.60045E-19 1.08954E-17
 -1      1316 1.12330E-04-1.71730E-05-4.14111E-05 2.16002E-05 4.96255E-19 6.55773E-18
 -1      1317 1.14623E-04-2.30426E-05-3.92963E-05 1.79607E-05 1.68810E-18 5.42398E-18
 -1      1318 1.16853E-04-3.21837E-05-3.90851E-05 5.37762E-06 8.72391E-19 1.06762E-17
 -1      1319 1.22916E-04-3.57517E-05-3.88040E-05-5.21591E-06-1.00553E-18 7.43504E-18
 -1      1320 1.18295E-04-3.40453E-05-3.66380E-05-2.60325E-06-9.39412E-19 6.22813E-18
 -1      1321 1.16713E-04-3.43080E-05-3.55572E-05-3.12868E-07-7.12672E-19 5.76949E-18
 -1      1322 1.16509E-04-3.46571E-05-3.51109E-05 2.42782E-08-7.16855E-19 4.71146E-18
 -1      1323 1.18013E-04-3.38908E-05-3.64196E-05-3.57201E-06-1.60852E-18 3.66538E-18
 -1      1324 1.16097E-04-3.46859E-05-3.48685E-05 8.49807E-07-5.62609E-19 4.49907E-18
 -1      1325 1.16892E-04-3.50928E-05-3.50024E-05 8.55064E-07-5.54224E-19 3.71607E-18
 -1      1326 1.15766E-04-3.43405E-05-3.50059E-05 5.04022E-07-1.17891E-18 3.10003E-18
 -1      1327 1.17109E-04-3.52560E-05-3.50187E-05 7.63412E-07-3.37152E-19 3.43946E-18
 -1      1328 1.17726E-04-3.55596E-05-3.51620E-05 6.25378E-07-3.10729E-19 2.83677E-18
 -1      1329 1.15846E-04-3.48964E-05-3.46888E-05 1.38866E-06-8.10654E-19 2.63008E-18
 -1      1330 1.17834E-04-3.57023E-05-3.51320E-05-1.79493E-07-1.34506E-19 2.80332E-18
 -1      1331 1.17402E-04-3.56529E-05-3.49801E-05-4.84074E-07-2.33761E-19 2.58925E-18
 -1      1332 1.16348E-04-3.54513E-05-3.46173E-05 3.61430E-07-4.74722E-19 2.17461E-18
 -1      1333 1.16838E-04-3.55897E-05-3.47386E-05-1.85266E-06-2.14538E-19 2.51035E-18
 -1      1334 1.14704E-04-3.49375E-05-3.41218E-05-2.28650E-06-1.35856E-19 2.26539E-18
 -1      1335 1.16099E-04-3.57013E-05-3.43620E-05-2.21603E-06-4.81922E-19 1.90575E-18
 -1      1336 1.13105E-04-3.44831E-05-3.36092E-05-3.79290E-06-9.71507E-20 2.13071E-18
 -1      1337 1.09156E-04-3.31250E-05-3.25330E-05-4.19485E-06-3.97014E-19 1.74478E-18
 -1      1338 1.14138E-04-3.51748E-05-3.37267E-05-5.70696E-06-3.58030E-19 1.81711E-18
 -1      1339 1.06593E-04-3.22202E-05-3.18282E-05-5.03146E-06-4.25536E-19 1.80614E-18
 -1      1340 1.01691E-04-3.04179E-05-3.05489E-05-5.12535E-06-6.40270E-19 1.02523E-18
 -1      1341 1.10076E-04-3.35176E-05-3.27338E-05-8.64813E-06-7.21361E-19 1.63820E-18
 -1      1342 9.89169E-05-2.93131E-05-2.98706E-05-4.45135E-06-7.30096E-19 7.28025E-19
 -1      1343 9.48875E-05-2.77619E-05-2.88564E-05-4.02757E-06-9.03519E-19-2.28381E-19
 -1      1344 1.04677E-04-3.09573E-05-3.16328E-05-8.97898E-06-1.10966E-18 1.12671E-18
 -1      1345 9.31733E-05-2.70240E-05-2.84750E-05-1.71531E-06-6.60315E-19-5.20740E-19
 -1      1346 9.19498E-05-2.65336E-05-2.81782E-05-8.90624E-07-2.21036E-19-1.15732E-18
 -1      1347 1.00035E-04-2.85781E-05-3.08069E-05-5.38771E-06-1.11688E-18 4.99286E-19
 -1      1348 9.22906E-05-2.66660E-05-2.82642E-05 2.02560E-06 2.04347E-20-1.92855E-18
 -1      1349 9.45768E-05-2.75449E-05-2.88414E-05 2.79232E-06-2.54653E-19-2.10572E-18
 -1      1350 9.85899E-05-2.77852E-05-3.05849E-05 1.06979E-06-5.70053E-19-7.29537E-19
 -1      1351 9.68187E-05-2.84694E-05-2.93677E-05 4.78108E-06-5.74593E-19-2.21388E-18
 -1      1352 1.01535E-04-3.02511E-05-3.05739E-05 5.08403E-06-4.87242E-19-2.70384E-18
 -1      1353 1.01260E-04-2.91335E-05-3.10662E-05 7.11013E-06-6.44221E-19-2.03120E-18
 -1      1354 1.04514E-04-3.13986E-05-3.13289E-05 5.34377E-06-4.54916E-20-2.67625E-18
 -1      1355 1.09616E-04-3.32430E-05-3.26774E-05 5.14790E-06 8.22184E-20-2.81766E-18
 -1      1356 1.06613E-04-3.17864E-05-3.20757E-05 9.77488E-06-4.53424E-19-2.43159E-18
 -1      1357 1.12089E-04-3.40812E-05-3.33817E-05 4.01470E-06 3.21145E-20-2.83931E-18
 -1      1358 1.15885E-04-3.53653E-05-3.44291E-05 3.56851E-06 1.15574E-19-2.50007E-18
 -1      1359 1.12078E-04-3.42923E-05-3.32389E-05 8.57542E-06-8.03358E-20-2.20841E-18
 -1      1360 1.17210E-04-3.57116E-05-3.48778E-05 1.92196E-06 1.72570E-19-2.30329E-18
 -1      1361 1.19032E-04-3.62569E-05-3.54142E-05 1.48207E-06 6.71009E-20-2.08277E-18
 -1      1362 1.15734E-04-3.57237E-05-3.41671E-05 5.12187E-06 4.08852E-19-2.07750E-18
 -1      1363 1.19187E-04-3.61920E-05-3.55400E-05 3.43925E-08-1.62141E-19-1.66468E-18
 -1      1364 1.19239E-04-3.61348E-05-3.55856E-05-2.71864E-07-3.64754E-20-1.63277E-18
 -1      1365 1.16995E-04-3.59867E-05-3.46209E-05 1.37928E-06 1.15951E-19-1.60085E-18
 -1      1366 1.18523E-04-3.58193E-05-3.54358E-05-1.22377E-06 3.14683E-19-1.74771E-18
 -1      1367 1.17393E-04-3.53956E-05-3.51357E-05-1.38361E-06 1.84898E-19-1.71128E-18
 -1      1368 1.16240E-04-3.54541E-05-3.45657E-05-1.47097E-06 2.91082E-19-1.25429E-18
 -1      1369 1.16175E-04-3.49656E-05-3.48070E-05-1.84932E-06-1.74838E-19-1.87478E-18
 -1      1370 1.14457E-04-3.43813E-05-3.43244E-05-1.90019E-06-3.05384E-19-2.08966E-18
 -1      1371 1.14185E-04-3.45377E-05-3.41121E-05-3.12794E-06-8.79657E-20-1.77768E-18
 -1      1372 1.13041E-04-3.39260E-05-3.39125E-05-2.01425E-06-3.64649E-19-2.37112E-18
 -1      1373 1.11168E-04-3.33174E-05-3.33744E-05-2.00013E-06-4.49635E-19-2.74875E-18
 -1      1374 1.11503E-04-3.35191E-05-3.34216E-05-3.78768E-06-6.58997E-19-1.67387E-18
 -1      1375 1.09758E-04-3.28873E-05-3.29499E-05-1.90626E-06-1.53599E-19-2.79453E-18
 -1      1376 1.07989E-04-3.23280E-05-3.24350E-05-1.86062E-06-2.35986E-19-2.93939E-18
 -1      1377 1.08682E-04-3.25490E-05-3.26403E-05-3.78922E-06-6.62987E-19-2.05142E-18
 -1      1378 1.06703E-04-3.19476E-05-3.20408E-05-1.66728E-06 5.35351E-21-2.58094E-18
 -1      1379 1.05160E-04-3.14692E-05-3.15881E-05-1.61101E-06 1.83412E-19-2.42753E-18
 -1      1380 1.06021E-04-3.16934E-05-3.18713E-05-3.43246E-06 1.04349E-19-2.65304E-18
 -1      1381 1.04051E-04-3.11471E-05-3.12449E-05-1.38662E-06-1.85813E-19-2.02785E-18
 -1      1382 1.02772E-04-3.07562E-05-3.08679E-05-1.33101E-06-4.28226E-19-2.51340E-18
 -1      1383 1.03671E-04-3.09721E-05-3.11740E-05-2.92556E-06 3.57673E-20-1.77801E-18
 -1      1384 1.01853E-04-3.04921E-05-3.05820E-05-1.11318E-06-1.32283E-20-2.46763E-18
 -1      1385 1.00831E-04-3.01829E-05-3.02795E-05-1.06348E-06 1.03945E-19-2.30897E-18
 -1      1386 1.01687E-04-3.03823E-05-3.05752E-05-2.39259E-06-4.90060E-19-1.14950E-18
 -1      1387 1.00090E-04-2.99718E-05-3.00488E-05-8.69868E-07 4.70221E-19-2.02741E-18
 -1      1388 9.92955E-05-2.97334E-05-2.98129E-05-8.27902E-07 2.79886E-19-1.38942E-18
 -1      1389 1.00066E-04-2.99113E-05-3.00805E-05-1.89801E-06 6.03572E-19-2.53248E-19
 -1      1390 9.87138E-05-2.95682E-05-2.96315E-05-6.64605E-07-1.16599E-19-9.05984E-19
 -1      1391 9.81096E-05-2.93884E-05-2.94518E-05-6.30448E-07-1.50630E-20-1.17352E-18
 -1      1392 9.87760E-05-2.95423E-05-2.96835E-05-1.46936E-06 4.68047E-19 1.73053E-19
 -1      1393 9.76620E-05-2.92616E-05-2.93121E-05-4.97459E-07-1.56428E-19-1.79520E-18
 -1      1394 9.72123E-05-2.91287E-05-2.91780E-05-4.70380E-07-6.75674E-20-2.19748E-18
 -1      1395 9.77717E-05-2.92587E-05-2.93725E-05-1.11354E-06-7.99166E-19 4.85980E-19
 -1      1396 9.68744E-05-2.90332E-05-2.90727E-05-3.64839E-07-3.02786E-19-2.64657E-18
 -1      1397 9.65467E-05-2.89371E-05-2.89747E-05-3.43819E-07-4.72711E-19-2.83918E-18
 -1      1398 9.70051E-05-2.90443E-05-2.91338E-05-8.26990E-07-5.31444E-19-1.36271E-18
 -1      1399 9.62967E-05-2.88665E-05-2.88968E-05-2.61801E-07-1.73418E-19-3.14229E-18
 -1      1400 9.60632E-05-2.87986E-05-2.88268E-05-2.45781E-07 2.21225E-20-2.99360E-18
 -1      1401 9.64312E-05-2.88853E-05-2.89543E-05-6.01546E-07-4.38120E-19-2.38013E-18
 -1      1402 9.58820E-05-2.87476E-05-2.87703E-05-1.83222E-07 1.58252E-19-2.99152E-18
 -1      1403 9.57200E-05-2.87009E-05-2.87216E-05-1.71228E-07 1.29211E-19-2.65315E-18
 -1      1404 9.60099E-05-2.87697E-05-2.88219E-05-4.27647E-07 1.27420E-19-2.41367E-18
 -1      1405 9.55918E-05-2.86649E-05-2.86817E-05-1.24363E-07-1.01756E-20-2.37662E-18
 -1      1406 9.54830E-05-2.86339E-05-2.86488E-05-1.15547E-07-1.59603E-19-2.69762E-18
 -1      1407 9.57073E-05-2.86875E-05-2.87263E-05-2.95929E-07 1.88981E-19-2.68566E-18
 -1      1408 9.53947E-05-2.86092E-05-2.86214E-05-8.10866E-08-5.44850E-19-2.37429E-18
 -1      1409 9.53248E-05-2.85896E-05-2.86001E-05-7.47357E-08-9.34084E-19-2.88428E-18
 -1      1410 9.54954E-05-2.86307E-05-2.86589E-05-1.97954E-07-5.16779E-19-2.08886E-18
 -1      1411 9.52663E-05-2.85733E-05-2.85819E-05-4.99102E-08-4.89004E-19-3.73013E-18
 -1      1412 9.52242E-05-2.85618E-05-2.85690E-05-4.54414E-08-5.51266E-19-4.53517E-18
 -1      1413 9.53515E-05-2.85927E-05-2.86128E-05-1.26466E-07-1.60285E-18-2.73030E-18
 -1      1414 9.51872E-05-2.85516E-05-2.85575E-05-2.79756E-08-5.31979E-19-4.44426E-18
 -1      1415 9.51646E-05-2.85457E-05-2.85505E-05-2.49201E-08-5.73130E-19-5.44179E-18
 -1      1416 9.52577E-05-2.85685E-05-2.85825E-05-7.54182E-08-7.61627E-19-3.09809E-18
 -1      1417 9.51430E-05-2.85398E-05-2.85438E-05-1.29823E-08-2.11321E-19-5.28986E-18
 -1      1418 9.51335E-05-2.85377E-05-2.85407E-05-1.09694E-08 1.25881E-19-5.54238E-18
 -1      1419 9.52000E-05-2.85541E-05-2.85635E-05-3.98839E-08-5.08949E-19-3.51183E-18
 -1      1420 9.51225E-05-2.85347E-05-2.85373E-05-3.10938E-09 3.47107E-19-4.67731E-18
 -1      1421 9.51215E-05-2.85350E-05-2.85368E-05-1.85044E-09 8.55897E-19-4.15014E-18
 -1      1422 9.51678E-05-2.85465E-05-2.85526E-05-1.59222E-08 5.24784E-19-2.00720E-18
 -1      1423 9.51176E-05-2.85341E-05-2.85356E-05 3.06157E-09 7.27339E-19-4.66822E-18
 -1      1424 9.51219E-05-2.85358E-05-2.85367E-05 3.78794E-09 1.85902E-19-3.49814E-18
 -1      1425 9.51529E-05-2.85436E-05-2.85473E-05-4.32559E-10 7.30625E-19-2.78928E-18
 -1      1426 9.51226E-05-2.85361E-05-2.85369E-05 6.61865E-09 5.81528E-19-3.39868E-18
 -1      1427 9.51298E-05-2.85386E-05-2.85389E-05 6.97952E-09 3.30511E-19-2.73341E-18
 -1      1428 9.51496E-05-2.85436E-05-2.85457E-05 8.98653E-09 6.95956E-19-3.51626E-18
 -1      1429 9.51332E-05-2.85396E-05-2.85400E-05 8.38282E-09 5.41059E-19-1.10587E-18
 -1      1430 9.51417E-05-2.85425E-05-2.85424E-05 8.50209E-09 1.12929E-18-5.43863E-19
 -1      1431 9.51534E-05-2.85455E-05-2.85464E-05 1.41655E-08 1.21187E-18-9.04976E-19
 -1      1432 9.51466E-05-2.85439E-05-2.85439E-05 8.96233E-09 1.13753E-20-8.98618E-19
 -1      1433 9.51554E-05-2.85467E-05-2.85465E-05 8.92996E-09-8.91671E-19-1.27536E-18
 -1      1434 9.51614E-05-2.85483E-05-2.85485E-05 1.64757E-08 3.92770E-19-1.13363E-18
 -1      1435 9.51609E-05-2.85483E-05-2.85482E-05 8.79806E-09-2.34565E-19-4.92566E-19
 -1      1436 9.51694E-05-2.85510E-05-2.85507E-05 8.67773E-09-7.92310E-19-1.72345E-18
 -1      1437 9.51714E-05-2.85516E-05-2.85513E-05 1.69242E-08-5.99881E-19-1.30727E-18
 -1      1438 9.51750E-05-2.85526E-05-2.85524E-05 8.20065E-09-1.08430E-18-1.54301E-18
 -1      1439 9.51828E-05-2.85551E-05-2.85547E-05 8.03571E-09-2.11378E-19-2.52487E-18
 -1      1440 9.51821E-05-2.85550E-05-2.85545E-05 1.62327E-08-5.99414E-19-4.56779E-19
 -1      1441 9.51881E-05-2.85566E-05-2.85563E-05 7.37976E-09 6.90314E-19-2.23689E-18
 -1      1442 9.51950E-05-2.85588E-05-2.85584E-05 7.19792E-09 6.63651E-19-1.80229E-18
 -1      1443 9.51926E-05-2.85582E-05-2.85576E-05 1.49008E-08 3.83020E-19 6.99678E-19
 -1      1444 9.51998E-05-2.85602E-05-2.85599E-05 6.46635E-09-4.00413E-19-7.90906E-19
 -1      1445 9.52059E-05-2.85620E-05-2.85616E-05 6.28299E-09-3.65089E-19-1.02219E-18
 -1      1446 9.52024E-05-2.85612E-05-2.85605E-05 1.32551E-08 7.10640E-19 3.47074E-19
 -1      1447 9.52101E-05-2.85633E-05-2.85630E-05 5.52852E-09 5.57917E-19-8.74609E-19
 -1      1448 9.52153E-05-2.85649E-05-2.85645E-05 5.34873E-09 7.85974E-19 8.47852E-20
 -1      1449 9.52112E-05-2.85638E-05-2.85631E-05 1.14857E-08 7.70515E-19 6.48762E-19
 -1      1450 9.52189E-05-2.85659E-05-2.85656E-05 4.58169E-09 8.47808E-19 1.18392E-19
 -1      1451 9.52232E-05-2.85672E-05-2.85668E-05 4.40111E-09 9.88623E-19 1.28432E-18
 -1      1452 9.52188E-05-2.85661E-05-2.85654E-05 9.67161E-09 1.46876E-18 1.58338E-18
 -1      1453 9.52261E-05-2.85681E-05-2.85677E-05 3.59459E-09-2.90104E-20 7.16811E-20
 -1      1454 9.52294E-05-2.85691E-05-2.85687E-05 3.39872E-09-4.95963E-19 1.41005E-19
 -1      1455 9.52252E-05-2.85680E-05-2.85673E-05 7.79739E-09 3.98801E-19-1.38230E-19
 -1      1456 9.52316E-05-2.85698E-05-2.85694E-05 2.50234E-09 6.82112E-19 7.97661E-20
 -1      1457 9.52338E-05-2.85705E-05-2.85700E-05 2.26586E-09 3.16133E-19 4.03941E-19
 -1      1458 9.52303E-05-2.85696E-05-2.85688E-05 5.76965E-09 5.58080E-20-6.07449E-19
 -1      1459 9.52354E-05-2.85710E-05-2.85704E-05 1.23389E-09-6.27439E-20 7.39427E-19
 -1      1460 9.52363E-05-2.85712E-05-2.85708E-05 9.53252E-10-2.91685E-20 1.24080E-18
 -1      1461 9.52341E-05-2.85709E-05-2.85699E-05 3.50062E-09 3.70588E-19-9.24653E-19
 -1      1462 9.52372E-05-2.85712E-05-2.85712E-05-1.09813E-10-1.17974E-18 1.22014E-18
 -1      1463 9.52366E-05-2.85715E-05-2.85708E-05 8.78817E-10-7.59506E-19-7.56776E-20
 -1      1464 1.13457E-04-3.35355E-05-3.47445E-05 1.64207E-06 8.44915E-19 8.84467E-18
 -1      1465 1.17771E-04-3.39868E-05-3.67323E-05 2.97765E-06 7.31731E-19 1.01120E-17
 -1      1466 1.16839E-04-3.12714E-05-3.70277E-05 1.01299E-05 1.35981E-18 7.00512E-18
 -1      1467 1.10846E-04-3.31865E-05-3.33126E-05 2.94431E-07 6.02240E-19 7.13940E-18
 -1      1468 1.11660E-04-3.30043E-05-3.39068E-05 5.00374E-07 6.17778E-19 8.21140E-18
 -1      1469 1.12745E-04-3.31305E-05-3.43098E-05 2.77613E-06 1.27955E-18 5.82317E-18
 -1      1470 1.09989E-04-3.30821E-05-3.28958E-05 9.19868E-08 4.40462E-19 6.10838E-18
 -1      1471 1.10114E-04-3.29823E-05-3.30327E-05 9.95270E-08 3.76941E-19 6.66506E-18
 -1      1472 1.10610E-04-3.30976E-05-3.32335E-05 7.18577E-07 8.69790E-19 4.90609E-18
 -1      1473 1.09077E-04-3.28853E-05-3.25766E-05 5.32459E-07 2.58477E-19 5.47648E-18
 -1      1474 1.09463E-04-3.29845E-05-3.27209E-05 3.91214E-07 2.03883E-19 5.87224E-18
 -1      1475 1.09536E-04-3.30436E-05-3.27423E-05 6.88064E-07 6.10823E-19 4.08553E-18
 -1      1476 1.07044E-04-3.23086E-05-3.19533E-05 1.36794E-06 3.48074E-19 4.89270E-18
 -1      1477 1.08224E-04-3.27209E-05-3.23098E-05 1.11256E-06 2.25337E-19 5.26549E-18
 -1      1478 1.08284E-04-3.28264E-05-3.22758E-05 1.73226E-06 4.33456E-19 3.76856E-18
 -1      1479 1.03391E-04-3.11788E-05-3.08887E-05 2.31412E-06 1.23316E-19 4.35984E-18
 -1      1480 1.05592E-04-3.19579E-05-3.15198E-05 2.01335E-06 1.59676E-19 4.60382E-18
 -1      1481 1.06103E-04-3.22248E-05-3.15896E-05 3.32485E-06 3.53259E-19 3.45028E-18
 -1      1482 9.83294E-05-2.95355E-05-2.94697E-05 2.94645E-06 3.06953E-19 3.81938E-18
 -1      1483 1.01364E-04-3.05964E-05-3.03091E-05 2.72001E-06 2.64886E-19 4.26021E-18
 -1      1484 1.02738E-04-3.11033E-05-3.06418E-05 4.80748E-06 3.66415E-19 3.10808E-18
 -1      1485 9.29263E-05-2.77203E-05-2.80034E-05 2.80171E-06 1.56847E-19 3.24361E-18
 -1      1486 9.61084E-05-2.87991E-05-2.88568E-05 2.78768E-06 2.04869E-19 3.49015E-18
 -1      1487 9.85704E-05-2.95487E-05-2.95648E-05 5.34930E-06 4.73543E-19 2.82163E-18
 -1      1488 8.88840E-05-2.63328E-05-2.69322E-05 1.65604E-06 3.54801E-19 2.49994E-18
 -1      1489 9.11806E-05-2.70467E-05-2.75317E-05 1.92554E-06 1.89067E-19 2.80492E-18
 -1      1490 9.46440E-05-2.79554E-05-2.86226E-05 4.27068E-06 3.79980E-19 1.82239E-18
 -1      1491 8.77877E-05-2.59559E-05-2.66417E-05-1.97159E-07 1.14574E-19 2.06609E-18
 -1      1492 8.82873E-05-2.59935E-05-2.67645E-05 2.81087E-07 2.50616E-19 2.34287E-18
 -1      1493 9.23262E-05-2.69391E-05-2.81071E-05 1.56931E-06 4.81194E-19 1.07776E-18
 -1      1494 9.01750E-05-2.67823E-05-2.72656E-05-2.02684E-06 3.22779E-19 1.75775E-18
 -1      1495 8.86164E-05-2.61031E-05-2.68488E-05-1.53285E-06 2.30724E-19 1.92795E-18
 -1      1496 9.25892E-05-2.69926E-05-2.82032E-05-1.84359E-06 3.09816E-19 1.11047E-18
 -1      1497 9.51994E-05-2.84908E-05-2.86043E-05-3.11628E-06 6.79231E-20 1.80243E-18
 -1      1498 9.21321E-05-2.73504E-05-2.77841E-05-2.79549E-06-1.40720E-20 1.52892E-18
 -1      1499 9.53931E-05-2.81232E-05-2.88935E-05-4.61985E-06 3.21237E-19 8.98609E-19
 -1      1500 1.01130E-04-3.04526E-05-3.02314E-05-3.18389E-06 2.59151E-19 1.25027E-18
 -1      1501 9.75913E-05-2.92461E-05-2.92688E-05-3.11212E-06 3.60863E-19 1.70105E-18
 -1      1502 9.97064E-05-2.98523E-05-2.99621E-05-5.79096E-06 3.48476E-19 6.93746E-19
 -1      1503 1.06281E-04-3.20917E-05-3.17010E-05-2.45335E-06 4.48428E-19 4.43872E-19
 -1      1504 1.03251E-04-3.11425E-05-3.08547E-05-2.58023E-06 3.22184E-19 1.07690E-18
 -1      1505 1.04108E-04-3.15305E-05-3.10983E-05-5.26032E-06 5.23619E-19 2.88216E-19
 -1      1506 1.09664E-04-3.31108E-05-3.27182E-05-1.38370E-06-4.48137E-19 4.06788E-19
 -1      1507 1.07697E-04-3.25616E-05-3.21485E-05-1.60226E-06-1.20318E-19 2.05988E-19
 -1      1508 1.07482E-04-3.27049E-05-3.20255E-05-3.63652E-06 2.49967E-19 2.75908E-19
 -1      1509 1.11085E-04-3.34893E-05-3.31907E-05-3.68826E-07-4.55446E-20 5.84102E-19
 -1      1510 1.10269E-04-3.33230E-05-3.29375E-05-5.87071E-07-5.83460E-20 5.33154E-19
 -1      1511 1.09336E-04-3.32456E-05-3.25855E-05-1.70689E-06-3.10034E-19-2.96379E-19
 -1      1512 1.10875E-04-3.33639E-05-3.31834E-05 3.87150E-07 2.64919E-19-2.74128E-20
 -1      1513 1.10997E-04-3.34817E-05-3.31994E-05 2.17894E-07 3.47730E-19 8.10931E-19
 -1      1514 1.09720E-04-3.32501E-05-3.27521E-05-3.74752E-08 1.79306E-19-4.77085E-20
 -1      1515 1.09562E-04-3.29160E-05-3.28361E-05 8.43049E-07-3.52743E-19 9.83882E-20
 -1      1516 1.10304E-04-3.32033E-05-3.30367E-05 7.34873E-07-8.06468E-20-1.38066E-19
 -1      1517 1.08977E-04-3.28954E-05-3.25920E-05 1.12685E-06 8.93123E-20 3.73724E-19
 -1      1518 1.07658E-04-3.23065E-05-3.22958E-05 1.04684E-06-1.84670E-19 4.26481E-19
 -1      1519 1.08721E-04-3.26686E-05-3.25966E-05 9.91684E-07-2.44472E-19 7.55977E-20
 -1      1520 1.07528E-04-3.23491E-05-3.22107E-05 1.77772E-06-2.79005E-19 1.68560E-19
 -1      1521 1.05555E-04-3.16529E-05-3.16820E-05 1.07467E-06-3.70957E-19 1.07491E-18
 -1      1522 1.06714E-04-3.20249E-05-3.20170E-05 1.05768E-06-1.99494E-19 6.83456E-19
 -1      1523 1.05742E-04-3.17356E-05-3.17124E-05 2.02212E-06-4.64883E-19 7.96496E-19
 -1      1524 1.03512E-04-3.10288E-05-3.10763E-05 9.97217E-07 2.19894E-19 1.04857E-18
 -1      1525 1.04625E-04-3.13728E-05-3.14020E-05 1.00411E-06 2.17375E-20 9.88765E-19
 -1      1526 1.03890E-04-3.11340E-05-3.11796E-05 1.99384E-06-1.84866E-19 3.03373E-19
 -1      1527 1.01673E-04-3.04738E-05-3.05262E-05 8.67688E-07 4.74941E-19-5.46833E-19
 -1      1528 1.02664E-04-3.07715E-05-3.08182E-05 8.87461E-07 5.73648E-19 6.23668E-19
 -1      1529 1.02146E-04-3.05882E-05-3.06676E-05 1.80899E-06 8.96238E-19 1.89199E-19
 -1      1530 1.00104E-04-3.00038E-05-3.00536E-05 7.21212E-07 4.68753E-19-1.43819E-18
 -1      1531 1.00941E-04-3.02499E-05-3.03015E-05 7.46384E-07 5.20078E-19-8.23329E-19
 -1      1532 1.00601E-04-3.01179E-05-3.02083E-05 1.55217E-06 8.93888E-19-5.02918E-19
 -1      1533 9.88167E-05-2.96205E-05-2.96641E-05 5.78564E-07-8.08716E-19-6.46058E-19
 -1      1534 9.94958E-05-2.98168E-05-2.98662E-05 6.04530E-07-4.48602E-19-1.38446E-18
 -1      1535 9.92940E-05-2.97278E-05-2.98158E-05 1.27806E-06-7.40773E-20-2.46216E-19
 -1      1536 9.77933E-05-2.93173E-05-2.93535E-05 4.50521E-07-3.41887E-19 5.31599E-19
 -1      1537 9.83272E-05-2.94692E-05-2.95130E-05 4.74721E-07-4.78722E-19 5.88754E-20
 -1      1538 9.82257E-05-2.94138E-05-2.94928E-05 1.01829E-06-1.32418E-18 3.88474E-19
 -1      1539 9.70020E-05-2.90838E-05-2.91128E-05 3.41496E-07-1.76321E-19 1.00421E-18
 -1      1540 9.74101E-05-2.91981E-05-2.92351E-05 3.62708E-07-1.90598E-19 5.93378E-19
 -1      1541 9.73778E-05-2.91678E-05-2.92348E-05 7.88685E-07-5.35606E-19 1.04972E-18
 -1      1542 9.64057E-05-2.89085E-05-2.89310E-05 2.52152E-07 2.58436E-19 3.95955E-19
 -1      1543 9.67096E-05-2.89923E-05-2.90223E-05 2.69973E-07-5.69117E-20 8.59221E-19
 -1      1544 9.67219E-05-2.89795E-05-2.90343E-05 5.95078E-07-1.23002E-20 1.08877E-18
 -1      1545 9.59679E-05-2.87802E-05-2.87973E-05 1.81129E-07 6.55044E-21 6.24325E-19
 -1      1546 9.61880E-05-2.88399E-05-2.88636E-05 1.95626E-07-7.35041E-20 7.32632E-19
 -1      1547 9.62270E-05-2.88388E-05-2.88822E-05 4.37487E-07-2.13223E-19 1.48368E-18
 -1      1548 9.56552E-05-2.86890E-05-2.87015E-05 1.26131E-07 8.37504E-20 8.93459E-20
 -1      1549 9.58099E-05-2.87301E-05-2.87483E-05 1.37614E-07 2.39300E-19 4.52961E-19
 -1      1550 9.58626E-05-2.87363E-05-2.87698E-05 3.12852E-07 2.49592E-19 9.69249E-19
 -1      1551 9.54388E-05-2.86261E-05-2.86351E-05 8.45658E-08 4.25185E-19-4.79500E-20
 -1      1552 9.55438E-05-2.86533E-05-2.86670E-05 9.34474E-08-4.04905E-21-4.53898E-19
 -1      1553 9.56013E-05-2.86635E-05-2.86888E-05 2.16744E-07 2.64560E-19-5.41052E-19
 -1      1554 9.52949E-05-2.85845E-05-2.85908E-05 5.39026E-08 7.25985E-20-1.14550E-18
 -1      1555 9.53629E-05-2.86016E-05-2.86115E-05 6.06197E-08 5.15402E-19-2.28199E-19
 -1      1556 9.54197E-05-2.86136E-05-2.86321E-05 1.44385E-07 8.36669E-19-5.40421E-19
 -1      1557 9.52042E-05-2.85586E-05-2.85627E-05 3.18555E-08-4.92880E-19 1.54377E-19
 -1      1558 9.52454E-05-2.85683E-05-2.85754E-05 3.68217E-08-4.79347E-19-4.68676E-19
 -1      1559 9.52980E-05-2.85806E-05-2.85939E-05 9.12033E-08-7.47897E-19 6.78911E-19
 -1      1560 9.51515E-05-2.85437E-05-2.85463E-05 1.64578E-08-2.97537E-21 7.23372E-19
 -1      1561 9.51738E-05-2.85484E-05-2.85533E-05 2.00419E-08-1.59724E-19 1.99795E-19
 -1      1562 9.52206E-05-2.85601E-05-2.85693E-05 5.31163E-08-5.02172E-19 9.46103E-19
 -1      1563 9.51253E-05-2.85365E-05-2.85381E-05 6.07673E-09 3.36201E-20 9.30470E-19
 -1      1564 9.51347E-05-2.85378E-05-2.85411E-05 8.59393E-09 1.04942E-19 7.93011E-19
 -1      1565 9.51749E-05-2.85485E-05-2.85546E-05 2.66370E-08 7.17593E-20 1.08941E-18
 -1      1566 9.51168E-05-2.85344E-05-2.85352E-05-6.05960E-10 9.55987E-19-1.55152E-18
 -1      1567 9.51178E-05-2.85337E-05-2.85357E-05 1.10526E-09 5.53358E-19-2.85100E-20
 -1      1568 9.51514E-05-2.85429E-05-2.85469E-05 8.88513E-09 1.28800E-18 4.22632E-19
 -1      1569 9.51196E-05-2.85356E-05-2.85359E-05-4.62936E-09 1.20129E-19-3.47146E-18
 -1      1570 9.51155E-05-2.85336E-05-2.85348E-05-3.51347E-09 2.12390E-19-2.45697E-18
 -1      1571 9.51429E-05-2.85414E-05-2.85437E-05-2.45519E-09 1.11936E-18-9.70125E-19
 -1      1572 9.51290E-05-2.85386E-05-2.85386E-05-6.79467E-09-3.55867E-19-2.36718E-18
 -1      1573 9.51220E-05-2.85360E-05-2.85366E-05-6.10790E-09-2.79210E-19-2.84384E-18
 -1      1574 9.51440E-05-2.85425E-05-2.85437E-05-9.20314E-09-2.99485E-19-1.06407E-18
 -1      1575 9.51420E-05-2.85427E-05-2.85425E-05-7.70643E-09-5.76686E-19-8.99194E-19
 -1      1576 9.51337E-05-2.85398E-05-2.85400E-05-7.32034E-09-3.89149E-19-1.78543E-18
 -1      1577 9.51509E-05-2.85450E-05-2.85455E-05-1.27567E-08-1.06169E-18-1.18100E-18
 -1      1578 9.51564E-05-2.85470E-05-2.85467E-05-7.81037E-09 1.23148E-19-8.37534E-19
 -1      1579 9.51477E-05-2.85442E-05-2.85442E-05-7.62783E-09 1.84523E-19-7.91050E-19
 -1      1580 9.51609E-05-2.85483E-05-2.85483E-05-1.41671E-08 2.08203E-19 5.91018E-20
 -1      1581 9.51708E-05-2.85514E-05-2.85510E-05-7.42632E-09-2.08845E-19-1.18038E-18
 -1      1582 9.51624E-05-2.85488E-05-2.85486E-05-7.37564E-09 3.58029E-19-1.24082E-18
 -1      1583 9.51723E-05-2.85519E-05-2.85516E-05-1.42057E-08 4.91552E-19 9.76338E-19
 -1      1584 9.51844E-05-2.85555E-05-2.85551E-05-6.77554E-09 1.07503E-19-1.33625E-18
 -1      1585 9.51767E-05-2.85531E-05-2.85529E-05-6.80549E-09-1.57249E-19-1.35043E-18
 -1      1586 9.51838E-05-2.85555E-05-2.85550E-05-1.34224E-08 1.73566E-19 1.14770E-18
 -1      1587 9.51967E-05-2.85592E-05-2.85588E-05-6.00243E-09-5.19967E-19-1.55161E-18
 -1      1588 9.51898E-05-2.85571E-05-2.85568E-05-6.07830E-09-1.76796E-19-1.51251E-18
 -1      1589 9.51948E-05-2.85588E-05-2.85583E-05-1.21933E-08-7.33916E-20 5.78526E-19
 -1      1590 9.52075E-05-2.85624E-05-2.85621E-05-5.19033E-09 7.05359E-19-1.76538E-18
 -1      1591 9.52015E-05-2.85606E-05-2.85603E-05-5.29129E-09 3.55570E-19-1.45531E-18
 -1      1592 9.52048E-05-2.85618E-05-2.85613E-05-1.07577E-08 5.86750E-19 4.60892E-19
 -1      1593 9.52168E-05-2.85652E-05-2.85649E-05-4.37228E-09 1.27155E-19-2.82516E-18
 -1      1594 9.52118E-05-2.85637E-05-2.85634E-05-4.48975E-09 7.63733E-20-2.81814E-18
 -1      1595 9.52136E-05-2.85644E-05-2.85639E-05-9.24512E-09 6.34395E-19-1.07113E-18
 -1      1596 9.52245E-05-2.85675E-05-2.85672E-05-3.53918E-09 1.77268E-18-4.65972E-18
 -1      1597 9.52204E-05-2.85663E-05-2.85660E-05-3.67604E-09 1.51637E-18-2.66025E-18
 -1      1598 9.52211E-05-2.85667E-05-2.85662E-05-7.69437E-09 1.63300E-18-2.01901E-18
 -1      1599 9.52306E-05-2.85694E-05-2.85690E-05-2.64051E-09-4.00296E-19-5.17873E-18
 -1      1600 9.52274E-05-2.85684E-05-2.85681E-05-2.81405E-09-2.33222E-19-5.21160E-18
 -1      1601 9.52273E-05-2.85686E-05-2.85680E-05-6.06724E-09 9.12596E-19-5.97423E-19
 -1      1602 9.52347E-05-2.85706E-05-2.85703E-05-1.59127E-09 1.32208E-19-5.54525E-18
 -1      1603 9.52326E-05-2.85701E-05-2.85696E-05-1.83969E-09 1.11381E-19-5.05090E-18
 -1      1604 9.52320E-05-2.85700E-05-2.85694E-05-4.26317E-09-3.99648E-19-2.18074E-18
 -1      1605 9.52368E-05-2.85712E-05-2.85710E-05-4.48175E-10-1.14586E-18-5.21713E-18
 -1      1606 9.52359E-05-2.85711E-05-2.85706E-05-7.38153E-10-3.45487E-19-5.89287E-18
 -1      1607 9.52353E-05-2.85711E-05-2.85703E-05-2.19563E-09 6.23937E-20-1.06288E-18
 -1      1608 9.52372E-05-2.85712E-05-2.85712E-05 5.43683E-11-2.97018E-18-3.33314E-18
 -1      1609 9.52374E-05-2.85730E-05-2.85704E-05-1.29152E-09-1.85977E-18 1.99080E-18
 -1      1610 9.52371E-05-2.85720E-05-2.85708E-05-9.91995E-10-3.40203E-18 1.26492E-18
 -1      1611 9.52385E-05-2.85764E-05-2.85694E-05-2.35138E-09 9.48404E-19-4.16041E-19
 -1      1612 9.52378E-05-2.85744E-05-2.85700E-05-2.16855E-09-1.67557E-19 1.08858E-18
 -1      1613 9.52375E-05-2.85742E-05-2.85699E-05-3.39538E-09 3.24871E-19 2.52111E-18
 -1      1614 9.52400E-05-2.85810E-05-2.85682E-05-2.93090E-09 1.39936E-18 3.17547E-20
 -1      1615 9.52392E-05-2.85783E-05-2.85689E-05-2.85820E-09 2.06095E-18-4.91925E-19
 -1      1616 9.52388E-05-2.85776E-05-2.85690E-05-5.05034E-09 1.53595E-18 8.76163E-19
 -1      1617 9.52416E-05-2.85858E-05-2.85668E-05-2.99600E-09 4.06857E-18 7.13685E-19
 -1      1618 9.52407E-05-2.85831E-05-2.85676E-05-3.02458E-09 2.08412E-18 1.75773E-18
 -1      1619 9.52402E-05-2.85816E-05-2.85680E-05-5.75720E-09 1.59601E-18 8.10214E-19
 -1      1620 9.52430E-05-2.85902E-05-2.85655E-05-2.62433E-09-3.25147E-19-3.03557E-18
 -1      1621 9.52422E-05-2.85878E-05-2.85662E-05-2.72937E-09 2.95525E-18-2.89340E-18
 -1      1622 9.52417E-05-2.85857E-05-2.85669E-05-5.53105E-09 2.25700E-19-2.02794E-18
 -1      1623 9.52441E-05-2.85937E-05-2.85645E-05-1.90280E-09 4.21152E-19 9.97151E-19
 -1      1624 9.52436E-05-2.85919E-05-2.85650E-05-2.06801E-09 4.42218E-19-7.45421E-19
 -1      1625 9.52429E-05-2.85893E-05-2.85659E-05-4.53402E-09-8.44783E-19-2.09297E-18
 -1      1626 9.52448E-05-2.85957E-05-2.85639E-05-9.49747E-10 1.14942E-18 1.11283E-19
 -1      1627 9.52445E-05-2.85948E-05-2.85642E-05-1.14957E-09 6.89969E-19 1.80250E-18
 -1      1628 9.52438E-05-2.85920E-05-2.85651E-05-2.95024E-09 3.34983E-19 1.72277E-18
 -1      1629 9.52449E-05-2.85961E-05-2.85638E-05 1.13610E-10 2.11924E-18 1.37753E-19
 -1      1630 9.52449E-05-2.85961E-05-2.85638E-05-9.77192E-11 1.20059E-18-5.44185E-19
 -1      1631 9.52443E-05-2.85934E-05-2.85647E-05-1.01264E-09 6.36921E-19-8.29363E-19
 -1      1632 9.52445E-05-2.85947E-05-2.85642E-05 1.16444E-09 2.02760E-19-2.62749E-18
 -1      1633 9.52448E-05-2.85957E-05-2.85639E-05 9.65014E-10 1.54968E-18-4.16902E-20
 -1      1634 9.52443E-05-2.85934E-05-2.85647E-05 1.04272E-09 1.68474E-18-1.06379E-18
 -1      1635 9.52435E-05-2.85918E-05-2.85650E-05 2.07998E-09-3.18886E-18-2.60083E-18
 -1      1636 9.52441E-05-2.85937E-05-2.85645E-05 1.91602E-09 5.38764E-20-3.53277E-18
 -1      1637 9.52438E-05-2.85919E-05-2.85651E-05 2.97753E-09 5.36715E-19-3.95415E-18
 -1      1638 9.52422E-05-2.85878E-05-2.85662E-05 2.73157E-09-6.55539E-18 8.52497E-20
 -1      1639 9.52430E-05-2.85902E-05-2.85655E-05 2.62771E-09-4.12161E-18-2.79136E-18
 -1      1640 9.52429E-05-2.85893E-05-2.85659E-05 4.54610E-09-7.20424E-19-4.78300E-18
 -1      1641 9.52407E-05-2.85830E-05-2.85676E-05 3.02726E-09-4.67672E-18 1.08306E-18
 -1      1642 9.52416E-05-2.85858E-05-2.85668E-05 3.00008E-09-7.17002E-18 2.91286E-18
 -1      1643 9.52417E-05-2.85857E-05-2.85669E-05 5.53807E-09-1.99334E-18 9.57280E-19
 -1      1644 9.52391E-05-2.85783E-05-2.85689E-05 2.85874E-09-1.82927E-18 2.46391E-18
 -1      1645 9.52400E-05-2.85809E-05-2.85682E-05 2.92717E-09-4.50255E-18 2.36846E-18
 -1      1646 9.52402E-05-2.85816E-05-2.85680E-05 5.75635E-09-2.13162E-18 3.03315E-18
 -1      1647 9.52378E-05-2.85744E-05-2.85700E-05 2.16305E-09-8.93019E-19 1.67815E-19
 -1      1648 9.52385E-05-2.85764E-05-2.85695E-05 2.35033E-09-9.50605E-19 1.13613E-18
 -1      1649 9.52387E-05-2.85776E-05-2.85690E-05 5.03161E-09-7.64159E-19 2.61341E-18
 -1      1650 9.52370E-05-2.85723E-05-2.85706E-05 1.51764E-09-2.11811E-18-2.21676E-18
 -1      1651 9.52373E-05-2.85733E-05-2.85703E-05 1.95016E-09-3.58493E-19-2.19470E-18
 -1      1652 9.52374E-05-2.85745E-05-2.85698E-05 4.05016E-09 1.88695E-19-9.73420E-19
 -1      1653 9.52360E-05-2.85724E-05-2.85701E-05 3.02740E-09-3.57636E-20-2.05844E-18
 -1      1654 1.98584E-05-6.32227E-05 1.30574E-05-4.42195E-06 1.13807E-17 4.09096E-18
 -1      1655 2.29307E-05-7.30515E-05 1.52603E-05 2.75185E-06 7.06987E-18 3.71466E-18
 -1      1656 1.95696E-05-3.72239E-05 3.43390E-06 3.95058E-06 1.25344E-17 5.17505E-18
 -1      1657 2.39477E-05-5.95326E-05 9.35931E-06 3.44650E-07 1.20905E-17 3.59757E-18
 -1      1658 3.50756E-05-1.11557E-05-1.21768E-05 2.89408E-05 1.09462E-17 6.87028E-18
 -1      1659 2.91136E-05-3.13682E-05-3.56449E-06 1.14029E-05 1.20202E-17 6.12998E-18
 -1      1660 7.46123E-05-2.79672E-06-3.02965E-05 5.84902E-05 8.43391E-18 8.53725E-18
 -1      1661 5.12515E-05-8.06047E-06-2.08566E-05 3.69574E-05 9.89843E-18 7.39036E-18
 -1      1662 1.41663E-04-1.95579E-05-4.91904E-05 7.22914E-05 5.79074E-18 7.80626E-18
 -1      1663 1.00868E-04-8.16905E-06-3.94422E-05 5.98148E-05 7.21249E-18 7.91213E-18
 -1      1664 2.07344E-04-4.26735E-05-6.50834E-05 6.62121E-05 3.66649E-18 6.12320E-18
 -1      1665 1.63515E-04-2.10403E-05-5.78560E-05 7.59387E-05 5.43160E-18 8.06291E-18
 -1      1666 2.45293E-04-6.02596E-05-7.32645E-05 2.06145E-05 2.74015E-18-7.87741E-20
 -1      1667 2.21288E-04-4.69892E-05-6.97163E-05 5.03694E-05 3.49835E-18 3.75998E-18
 -1      1668 2.48149E-04-6.08460E-05-7.41307E-05-2.88234E-05 3.08786E-18-5.71493E-18
 -1      1669 2.55001E-04-6.48200E-05-7.51052E-05 6.13156E-06 2.74883E-18-1.42709E-18
 -1      1670 2.00816E-04-3.77479E-05-6.57854E-05-6.25284E-05 5.83193E-18-9.93400E-18
 -1      1671 2.34907E-04-5.56259E-05-7.08355E-05-4.09464E-05 3.73457E-18-7.03164E-18
 -1      1672 1.35300E-04-1.46729E-05-5.01550E-05-6.74121E-05 8.64143E-18-1.15993E-17
 -1      1673 1.80454E-04-3.32958E-05-5.88945E-05-6.78866E-05 6.54185E-18-1.02025E-17
 -1      1674 7.35607E-05-2.26644E-06-3.15836E-05-5.29953E-05 1.11046E-17-1.16467E-17
 -1      1675 1.08702E-04-7.51290E-06-4.14426E-05-7.16919E-05 9.73410E-18-1.30655E-17
 -1      1676 3.63933E-05-1.42496E-05-1.29915E-05-2.40790E-05 1.06260E-17-8.60840E-18
 -1      1677 5.16038E-05-9.17706E-07-2.23400E-05-4.59739E-05 1.14493E-17-1.11859E-17
 -1      1678 2.55289E-05-4.37882E-05 2.70932E-06-5.49283E-06 7.42848E-18-4.78616E-18
 -1      1679 2.55113E-05-2.07434E-05-4.97244E-06-1.71741E-05 9.70022E-18-7.28787E-18
 -1      1680 2.28960E-05-6.62994E-05 1.23567E-05-2.20771E-07 3.10311E-18-2.67101E-18
 -1      1681 1.80261E-05-4.93323E-05 8.39984E-06 2.19857E-06 6.49674E-18-4.04199E-18
 -1      1682 2.17129E-05-7.17727E-05 1.49956E-05-5.10717E-06-2.03309E-18-2.21012E-18
 -1      1683 2.13180E-05-7.03019E-05 1.46550E-05 4.39921E-06 1.69025E-18-2.18640E-18
 -1      1684 1.81874E-05-5.19527E-05 9.29435E-06-3.49093E-06-6.35783E-18-3.77671E-18
 -1      1685 2.27301E-05-6.75178E-05 1.29954E-05 7.21754E-08-3.20687E-18-2.41997E-18
 -1      1686 2.30048E-05-2.54768E-05-2.50013E-06 1.13168E-05-9.69853E-18-6.74365E-18
 -1      1687 2.44523E-05-4.74483E-05 4.34051E-06 2.21060E-06-7.57078E-18-4.52591E-18
 -1      1688 4.50427E-05-4.84630E-06-1.86084E-05 3.85260E-05-1.07734E-17-9.87471E-18
 -1      1689 3.35652E-05-1.99920E-05-9.87340E-06 1.86184E-05-1.03118E-17-7.52843E-18
 -1      1690 9.53165E-05-6.28491E-06-3.69971E-05 6.60099E-05-9.18861E-18-1.04388E-17
 -1      1691 6.52410E-05-5.32565E-06-2.74148E-05 4.59119E-05-1.03423E-17-1.00399E-17
 -1      1692 1.66927E-04-2.87295E-05-5.53633E-05 7.04544E-05-6.04527E-18-7.47761E-18
 -1      1693 1.22260E-04-1.26677E-05-4.59620E-05 6.40443E-05-8.22257E-18-8.90062E-18
 -1      1694 2.29438E-04-5.25545E-05-6.94569E-05 5.51808E-05-3.31854E-18-4.15046E-18
 -1      1695 1.89698E-04-3.20934E-05-6.33795E-05 7.18700E-05-5.21391E-18-7.13371E-18
 -1      1696 2.56174E-04-6.49860E-05-7.53787E-05 7.84076E-06-2.39477E-18 1.32836E-18
 -1      1697 2.41345E-04-5.64946E-05-7.31741E-05 4.07979E-05-2.96504E-18-2.48223E-18
 -1      1698 2.35129E-04-5.32982E-05-7.23493E-05-4.07292E-05-3.71742E-18 6.41585E-18
 -1      1699 2.52108E-04-6.27719E-05-7.48659E-05-7.39856E-06-2.83078E-18 2.61034E-18
 -1      1700 1.80935E-04-2.84081E-05-6.14731E-05-7.36870E-05-6.11854E-18 1.06362E-17
 -1      1701 2.24661E-04-5.07471E-05-6.84437E-05-5.80402E-05-3.88380E-18 8.51607E-18
 -1      1702 1.11654E-04-8.72274E-06-4.33222E-05-6.52016E-05-9.46051E-18 1.12003E-17
 -1      1703 1.56590E-04-2.36310E-05-5.30878E-05-7.51395E-05-7.31879E-18 1.02965E-17
 -1      1704 5.31755E-05-6.23637E-06-2.24771E-05-3.83171E-05-1.15874E-17 1.03677E-17
 -1      1705 8.27797E-05-2.28231E-06-3.34156E-05-6.33187E-05-1.06489E-17 1.19135E-17
 -1      1706 3.10746E-05-3.30420E-05-3.73978E-06-1.13381E-05-8.87775E-18 6.81480E-18
 -1      1707 3.82549E-05-1.24242E-05-1.29031E-05-3.02431E-05-1.07565E-17 9.72097E-18
 -1      1708 2.36641E-05-6.11952E-05 9.76412E-06 2.54468E-06-3.64394E-18 4.07084E-18
 -1      1709 1.88687E-05-3.82818E-05 3.82965E-06-1.25943E-06-8.33226E-18 6.39319E-18
 -1      1710 2.32473E-05-7.47327E-05 1.56229E-05-1.47278E-06 5.19295E-18 3.72885E-18
 -1      1711 2.00988E-05-6.54641E-05 1.35109E-05 6.71053E-06-1.24937E-18 3.81398E-18
 -1      1712 1.16803E-04-3.38097E-05-3.45666E-05 4.37484E-05 4.59600E-18 3.71255E-18
 -1      1713 7.26741E-05-3.43535E-05-1.75404E-05 4.02980E-05 6.24433E-18 3.76548E-18
 -1      1714 9.52369E-05-2.85713E-05-2.85709E-05-4.14831E-10-4.01396E-18-3.68763E-19
 -1      1715 9.52366E-05-2.85721E-05-2.85705E-05-1.69466E-09-1.51632E-18 9.68154E-19
 -1      1716 1.88967E-05-4.57887E-05 7.53139E-06 1.56616E-05 5.71324E-18 3.44361E-18
 -1      1717 3.98268E-05-4.04760E-05-2.65151E-06 2.91471E-05 6.89739E-18 3.46172E-18
 -1      1718 1.12982E-05-4.80583E-05 1.13527E-05 1.32976E-06 3.82748E-18 6.53401E-18
 -1      1719 1.57650E-04-3.30881E-05-5.10418E-05 3.86407E-05 4.20806E-18 3.75320E-18
 -1      1720 1.90855E-04-3.14878E-05-6.39505E-05 2.79398E-05 4.32368E-18 1.24810E-18
 -1      1721 2.07897E-04-3.30504E-05-6.99600E-05 4.75516E-06 4.73746E-18-1.24768E-18
 -1      1722 2.05521E-04-3.36447E-05-6.85718E-05-1.51404E-05 4.95599E-18-3.82689E-18
 -1      1723 1.77353E-04-3.17486E-05-5.88887E-05-2.84123E-05 5.80630E-18-4.79463E-18
 -1      1724 1.40444E-04-3.18728E-05-4.44162E-05-4.16356E-05 6.00546E-18-6.39340E-18
 -1      1725 9.33701E-05-2.97605E-05-2.72985E-05-4.49886E-05 6.45947E-18-7.82235E-18
 -1      1726 5.48660E-05-3.48529E-05-1.07394E-05-3.55189E-05 5.34054E-18-6.86097E-18
 -1      1727 2.78094E-05-4.06851E-05 2.14788E-06-2.34456E-05 3.65198E-18-5.37548E-18
 -1      1728 1.31870E-05-4.62418E-05 9.74094E-06-8.62370E-06 1.39633E-18-4.39271E-18
 -1      1729 1.23380E-05-4.59512E-05 1.00286E-05 5.90888E-06-1.06747E-18-4.19493E-18
 -1      1730 2.52870E-05-4.18648E-05 3.47244E-06 2.00315E-05-3.18442E-18-4.84376E-18
 -1      1731 4.99100E-05-3.67487E-05-8.22923E-06 3.21161E-05-5.18977E-18-5.89726E-18
 -1      1732 8.64027E-05-3.24250E-05-2.37050E-05 4.23498E-05-5.90043E-18-6.38112E-18
 -1      1733 1.33120E-04-3.46851E-05-4.06255E-05 4.17093E-05-5.52901E-18-4.17757E-18
 -1      1734 1.73036E-04-3.47477E-05-5.63253E-05 3.32422E-05-5.37506E-18-2.77996E-18
 -1      1735 2.04746E-04-3.47675E-05-6.76561E-05 2.26158E-05-4.54624E-18-5.40831E-19
 -1      1736 2.09653E-04-3.28775E-05-7.06548E-05 8.55060E-07-4.38932E-18 1.25901E-18
 -1      1737 1.99677E-04-3.29554E-05-6.65744E-05-2.25083E-05-4.76668E-18 3.52535E-18
 -1      1738 1.69015E-04-3.34906E-05-5.47423E-05-3.80743E-05-5.41360E-18 5.70731E-18
 -1      1739 1.22929E-04-3.22768E-05-3.75836E-05-4.46972E-05-6.40315E-18 6.30277E-18
 -1      1740 7.64230E-05-3.55350E-05-1.87931E-05-3.96869E-05-5.46082E-18 6.73137E-18
 -1      1741 4.12001E-05-4.17072E-05-2.70723E-06-2.83525E-05-3.69984E-18 6.33009E-18
 -1      1742 1.85841E-05-4.79099E-05 8.17909E-06-1.26591E-05-1.39337E-19 6.44550E-18
 -1      1743 1.21962E-04-2.78649E-05-4.04112E-05-1.32164E-05-1.20019E-18 5.94596E-18
 -1      1744 9.37765E-05-1.18437E-05-3.52664E-05-5.48527E-06-1.41335E-18-9.65009E-19
 -1      1745 9.80932E-05-1.37408E-05-3.62696E-05-7.60572E-06-1.64838E-18-3.93394E-19
 -1      1746 1.03009E-04-1.70475E-05-3.70273E-05-9.08574E-06-1.72253E-18 3.97470E-19
 -1      1747 1.07409E-04-1.98494E-05-3.79826E-05-1.13410E-05-1.83490E-18 1.38532E-18
 -1      1748 1.02954E-04-1.94508E-05-3.58063E-05-6.43410E-06-1.75600E-18 1.50481E-19
 -1      1749 7.85590E-05-4.59089E-06-3.17932E-05-7.44305E-07-7.22632E-19-2.15143E-18
 -1      1750 8.17858E-05-5.70931E-06-3.26168E-05-1.60095E-06-8.81470E-19-2.02125E-18
 -1      1751 7.28657E-05-1.95145E-06-3.04611E-05-1.47046E-07-3.73058E-19-2.42765E-18
 -1      1752 7.53578E-05-2.79910E-06-3.10940E-05-4.34042E-07-5.65540E-19-2.31026E-18
 -1      1753 7.77939E-05-5.38322E-06-3.10613E-05 3.13628E-08-6.67988E-19-2.12077E-18
 -1      1754 6.93430E-05-3.15067E-07-2.96261E-05-5.78668E-07-2.01270E-20-2.48402E-18
 -1      1755 7.07100E-05-7.53855E-07-2.99851E-05-4.54647E-07-2.05101E-19-2.48000E-18
 -1      1756 7.21380E-05-2.40347E-06-2.98940E-05 9.59573E-08-2.73300E-19-2.33632E-18
 -1      1757 6.85184E-05 4.49049E-09-2.93820E-05-1.47420E-06 2.72482E-19-2.56521E-18
 -1      1758 6.85672E-05 5.19323E-08-2.94318E-05-1.22709E-06 1.49280E-19-2.56001E-18
 -1      1759 6.90530E-05-8.42929E-07-2.92281E-05-8.31938E-07 9.92600E-20-2.47279E-18
 -1      1760 7.04068E-05-1.01658E-06-2.97333E-05-2.09867E-06 4.95832E-19-2.48103E-18
 -1      1761 6.92061E-05-5.18028E-07-2.94844E-05-2.04954E-06 3.62502E-19-2.52209E-18
 -1      1762 6.90059E-05-1.00910E-06-2.91400E-05-2.03890E-06 3.37036E-19-2.48213E-18
 -1      1763 7.44601E-05-3.05252E-06-3.05929E-05-1.82471E-06 7.70535E-19-2.23132E-18
 -1      1764 7.23215E-05-2.24270E-06-3.00986E-05-2.21799E-06 6.33121E-19-2.40052E-18
 -1      1765 7.18265E-05-2.77338E-06-2.96108E-05-2.68356E-06 5.87847E-19-2.37778E-18
 -1      1766 7.97356E-05-5.55908E-06-3.17912E-05-3.84871E-07 1.05227E-18-1.87192E-18
 -1      1767 7.71124E-05-4.62879E-06-3.11411E-05-1.30081E-06 8.88061E-19-2.09514E-18
 -1      1768 7.67179E-05-5.58140E-06-3.05244E-05-2.17927E-06 8.69632E-19-2.07680E-18
 -1      1769 8.56818E-05-8.25185E-06-3.32132E-05 2.23418E-06 1.48848E-18-1.26271E-18
 -1      1770 8.27900E-05-7.26207E-06-3.24581E-05 7.73614E-07 1.25115E-18-1.57653E-18
 -1      1771 8.27476E-05-8.83491E-06-3.17302E-05-3.85623E-07 1.21275E-18-1.58628E-18
 -1      1772 9.18905E-05-1.10842E-05-3.47084E-05 5.77425E-06 1.82459E-18-4.50172E-19
 -1      1773 8.88673E-05-9.99190E-06-3.39142E-05 3.84804E-06 1.64158E-18-9.37957E-19
 -1      1774 8.92638E-05-1.22111E-05-3.30785E-05 2.47116E-06 1.62934E-18-9.20407E-19
 -1      1775 9.86702E-05-1.46507E-05-3.61710E-05 9.85033E-06 2.09508E-18 8.11643E-19
 -1      1776 9.52676E-05-1.30945E-05-3.53732E-05 7.55824E-06 1.92439E-18 5.33895E-20
 -1      1777 9.60069E-05-1.58122E-05-3.44079E-05 5.86730E-06 1.93548E-18-8.69532E-21
 -1      1778 1.07479E-04-2.07456E-05-3.73809E-05 1.34628E-05 1.99890E-18 3.04831E-18
 -1      1779 1.02778E-04-1.76075E-05-3.66926E-05 1.13595E-05 2.02998E-18 1.75225E-18
 -1      1780 1.03495E-04-2.05238E-05-3.55464E-05 8.89247E-06 2.11745E-18 1.37688E-18
 -1      1781 1.15611E-04-2.94870E-05-3.73618E-05 1.11897E-05 1.66368E-18 5.61096E-18
 -1      1782 1.10703E-04-2.35775E-05-3.73455E-05 1.31942E-05 1.83146E-18 3.94008E-18
 -1      1783 1.09796E-04-2.61692E-05-3.59189E-05 9.18117E-06 2.09217E-18 3.06867E-18
 -1      1784 1.13269E-04-3.08518E-05-3.55315E-05 6.31174E-06 1.70783E-18 5.13156E-18
 -1      1785 1.15509E-04-2.42400E-05-3.88283E-05-1.37022E-05-1.61032E-18 3.06944E-18
 -1      1786 1.11154E-04-3.25282E-05-3.37325E-05 1.89475E-06 1.32685E-18 4.24493E-18
 -1      1787 1.12822E-04-3.23568E-05-3.45357E-05 3.81356E-06 1.47765E-18 4.73377E-18
 -1      1788 1.11643E-04-3.04332E-05-3.48073E-05 5.57480E-06 1.78009E-18 3.60927E-18
 -1      1789 1.14686E-04-2.72717E-05-3.71893E-05-8.75550E-06-1.69814E-18 2.41907E-18
 -1      1790 1.14779E-04-3.28005E-05-3.50140E-05-6.95288E-07-1.33097E-18 2.28467E-18
 -1      1791 1.14197E-04-3.33690E-05-3.46377E-05 6.33140E-07-1.15657E-18 2.00598E-18
 -1      1792 1.14414E-04-3.40824E-05-3.43330E-05 1.49578E-06-9.25575E-19 2.00805E-18
 -1      1793 1.14606E-04-3.47414E-05-3.42488E-05 1.52442E-06-7.29701E-19 1.74074E-18
 -1      1794 1.12434E-04-3.27460E-05-3.41915E-05 8.85758E-07-1.14224E-18 1.28724E-18
 -1      1795 1.15257E-04-3.55094E-05-3.41199E-05 1.12201E-06-5.68045E-19 1.82240E-18
 -1      1796 1.15379E-04-3.60782E-05-3.40496E-05 1.69198E-07-4.42750E-19 1.69248E-18
 -1      1797 1.13555E-04-3.50076E-05-3.36964E-05 1.59320E-06-7.80074E-19 1.22134E-18
 -1      1798 1.16185E-04-3.68241E-05-3.39829E-05-1.38655E-06-3.91303E-19 1.67357E-18
 -1      1799 1.15688E-04-3.70266E-05-3.37946E-05-3.11961E-06-3.81535E-19 1.58892E-18
 -1      1800 1.15232E-04-3.71509E-05-3.34805E-05-4.08217E-07-4.42935E-19 1.19577E-18
 -1      1801 1.16163E-04-3.73740E-05-3.37679E-05-5.49792E-06-4.04227E-19 1.75361E-18
 -1      1802 1.14657E-04-3.67791E-05-3.34319E-05-7.47739E-06-4.18990E-19 1.63426E-18
 -1      1803 1.16672E-04-3.86050E-05-3.34449E-05-4.65024E-06-3.92881E-19 1.34704E-18
 -1      1804 1.14189E-04-3.61717E-05-3.34765E-05-9.72880E-06-6.70049E-19 1.73443E-18
 -1      1805 1.11704E-04-3.45153E-05-3.30637E-05-1.09041E-05-8.30489E-19 1.55568E-18
 -1      1806 1.16707E-04-3.81299E-05-3.36343E-05-9.83642E-06-6.01552E-19 1.70966E-18
 -1      1807 1.10066E-04-3.27633E-05-3.32030E-05-1.14511E-05-1.14273E-18 1.39684E-18
 -1      1808 1.07338E-04-3.04940E-05-3.28475E-05-1.06593E-05-1.26701E-18 1.21105E-18
 -1      1809 1.14393E-04-3.47548E-05-3.41008E-05-1.32055E-05-1.12370E-18 1.56329E-18
 -1      1810 1.05309E-04-2.83899E-05-3.30254E-05-8.30131E-06-1.44242E-18 9.24709E-19
 -1      1811 1.03597E-04-2.67748E-05-3.28494E-05-5.25824E-06-1.33482E-18 6.77100E-19
 -1      1812 1.10343E-04-2.93987E-05-3.47393E-05-1.14808E-05-1.56349E-18 1.12824E-18
 -1      1813 1.02831E-04-2.59765E-05-3.29277E-05-6.07171E-07-1.25856E-18-2.96716E-19
 -1      1814 1.03165E-04-2.62376E-05-3.29775E-05 3.27623E-06-1.23680E-18-9.40961E-19
 -1      1815 1.07213E-04-2.53986E-05-3.52025E-05-3.60103E-06-1.91620E-18-3.47044E-19
 -1      1816 1.04387E-04-2.74782E-05-3.28831E-05 7.58413E-06-9.88540E-19-1.25255E-18
 -1      1817 1.06610E-04-2.94309E-05-3.31494E-05 1.01657E-05-8.76136E-19-1.72437E-18
 -1      1818 1.07724E-04-2.60093E-05-3.51503E-05 6.60213E-06-1.52259E-18-1.00657E-18
 -1      1819 1.08708E-04-3.16096E-05-3.29756E-05 1.18033E-05-7.79826E-19-1.96115E-18
 -1      1820 1.11623E-04-3.39024E-05-3.33844E-05 1.20342E-05-4.06837E-19-1.87275E-18
 -1      1821 1.11448E-04-3.07311E-05-3.46244E-05 1.31973E-05-9.33986E-19-1.51312E-18
 -1      1822 1.13017E-04-3.54592E-05-3.32466E-05 1.08390E-05-1.65191E-19-2.05259E-18
 -1      1823 1.15385E-04-3.69389E-05-3.36599E-05 9.26708E-06 2.26098E-19-1.87706E-18
 -1      1824 1.15330E-04-3.59481E-05-3.39729E-05 1.33775E-05-2.92375E-19-1.40602E-18
 -1      1825 1.15492E-04-3.73005E-05-3.35869E-05 6.65249E-06 1.75045E-19-1.75689E-18
 -1      1826 1.16700E-04-3.77145E-05-3.38636E-05 4.46946E-06 5.36423E-19-1.66081E-18
 -1      1827 1.17005E-04-3.87627E-05-3.34832E-05 8.91079E-06 2.58206E-19-1.34378E-18
 -1      1828 1.15846E-04-3.72144E-05-3.37983E-05 1.87404E-06 5.53245E-19-1.74903E-18
 -1      1829 1.15909E-04-3.68935E-05-3.38644E-05-1.20371E-08 5.25842E-19-1.18301E-18
 -1      1830 1.16226E-04-3.87514E-05-3.31832E-05 3.10479E-06 5.65070E-19-2.00783E-18
 -1      1831 1.14627E-04-3.60702E-05-3.37511E-05-1.87230E-06 2.02639E-19-1.33010E-18
 -1      1832 1.13866E-04-3.54249E-05-3.36158E-05-3.10431E-06 2.08615E-19-1.42324E-18
 -1      1833 1.13974E-04-3.71015E-05-3.29473E-05-1.73425E-06 3.28076E-19-1.69951E-18
 -1      1834 1.12511E-04-3.46222E-05-3.34346E-05-4.12674E-06-1.09628E-19-1.64011E-18
 -1      1835 1.11289E-04-3.39203E-05-3.31566E-05-4.72659E-06-2.72553E-19-1.58366E-18
 -1      1836 1.11214E-04-3.50285E-05-3.26623E-05-4.81385E-06-2.57108E-19-1.75378E-18
 -1      1837 1.10025E-04-3.32679E-05-3.29201E-05-5.09122E-06-4.27409E-19-1.74913E-18
 -1      1838 1.08630E-04-3.26330E-05-3.25685E-05-5.23250E-06-8.17443E-19-1.78942E-18
 -1      1839 1.08498E-04-3.31938E-05-3.22866E-05-6.26888E-06-3.14173E-19-1.61596E-18
 -1      1840 1.07510E-04-3.21420E-05-3.23033E-05-5.17493E-06-9.73031E-19-1.33915E-18
 -1      1841 1.06132E-04-3.16123E-05-3.19347E-05-5.04194E-06-4.11018E-19-1.81764E-18
 -1      1842 1.06049E-04-3.17928E-05-3.18367E-05-6.56255E-06-6.84493E-19-1.44963E-18
 -1      1843 1.05166E-04-3.12523E-05-3.16668E-05-4.75699E-06 1.48130E-19-1.86739E-18
 -1      1844 1.03913E-04-3.08276E-05-3.13185E-05-4.49028E-06 5.10684E-19-1.78235E-18
 -1      1845 1.03926E-04-3.07946E-05-3.13531E-05-6.15974E-06-3.72602E-19-1.27796E-18
 -1      1846 1.03093E-04-3.05638E-05-3.10670E-05-4.11077E-06 5.10379E-19-1.13972E-18
 -1      1847 1.02012E-04-3.02308E-05-3.07588E-05-3.80053E-06 7.75068E-20-7.40726E-19
 -1      1848 1.02122E-04-3.01029E-05-3.08756E-05-5.41210E-06 8.20300E-19-6.83167E-19
 -1      1849 1.01328E-04-3.00357E-05-3.05350E-05-3.40618E-06-5.64091E-19-2.83211E-19
 -1      1850 1.00430E-04-2.97785E-05-3.02743E-05-3.10310E-06-1.12005E-19-2.63631E-19
 -1      1851 1.00615E-04-2.96252E-05-3.04335E-05-4.54808E-06 3.56130E-19-1.27214E-19
 -1      1852 9.98686E-05-2.96329E-05-3.00829E-05-2.73631E-06 4.22977E-19-5.40584E-19
 -1      1853 9.91444E-05-2.94366E-05-2.98698E-05-2.46498E-06 7.28069E-19-4.61244E-19
 -1      1854 9.93739E-05-2.92928E-05-3.00432E-05-3.69958E-06 4.75844E-20 1.37893E-19
 -1      1855 9.86909E-05-2.93273E-05-2.97111E-05-2.14466E-06 9.14040E-19-6.36814E-19
 -1      1856 9.81203E-05-2.91795E-05-2.95414E-05-1.91413E-06 4.17286E-19-2.30325E-19
 -1      1857 9.83674E-05-2.90591E-05-2.97111E-05-2.93327E-06 7.52226E-19-1.29526E-18
 -1      1858 9.77601E-05-2.90977E-05-2.94131E-05-1.64566E-06-4.14338E-19-2.25237E-19
 -1      1859 9.73197E-05-2.89880E-05-2.92809E-05-1.45658E-06-8.73925E-19-2.67511E-19
 -1      1860 9.75640E-05-2.88936E-05-2.94367E-05-2.27582E-06 3.38011E-19-1.38002E-18
 -1      1861 9.70385E-05-2.89270E-05-2.91794E-05-1.23807E-06-1.01431E-18-8.30251E-19
 -1      1862 9.67051E-05-2.88469E-05-2.90785E-05-1.08698E-06-8.80198E-19-1.11004E-18
 -1      1863 9.69327E-05-2.87764E-05-2.92155E-05-1.73121E-06-1.15517E-18-4.26193E-19
 -1      1864 9.64892E-05-2.88021E-05-2.89998E-05-9.13216E-07-8.95736E-19-1.48351E-18
 -1      1865 9.62416E-05-2.87448E-05-2.89242E-05-7.95015E-07-5.47503E-19-1.77118E-18
 -1      1866 9.64449E-05-2.86940E-05-2.90408E-05-1.29180E-06-6.26641E-19-8.70954E-19
 -1      1867 9.60788E-05-2.87124E-05-2.88643E-05-6.59509E-07 4.56935E-19-1.74281E-18
 -1      1868 9.58987E-05-2.86723E-05-2.88088E-05-5.68750E-07 6.16561E-19-1.34910E-18
 -1      1869 9.60743E-05-2.86369E-05-2.89056E-05-9.44783E-07 4.26056E-20-1.23287E-18
 -1      1870 9.57782E-05-2.86494E-05-2.87641E-05-4.64971E-07 2.13809E-19-1.70460E-18
 -1      1871 9.56502E-05-2.86222E-05-2.87243E-05-3.96518E-07 2.31373E-19-1.79079E-18
 -1      1872 9.57977E-05-2.85984E-05-2.88028E-05-6.75847E-07 8.76569E-20-4.64617E-19
 -1      1873 9.55628E-05-2.86065E-05-2.86916E-05-3.18431E-07-5.81324E-19-1.87965E-18
 -1      1874 9.54743E-05-2.85888E-05-2.86636E-05-2.67734E-07-8.84218E-19-2.02166E-18
 -1      1875 9.55954E-05-2.85735E-05-2.87261E-05-4.71096E-07-1.56793E-19-1.26771E-18
 -1      1876 9.54125E-05-2.85784E-05-2.86402E-05-2.10051E-07-1.13669E-18-1.86432E-18
 -1      1877 9.53533E-05-2.85675E-05-2.86213E-05-1.73240E-07-9.93888E-19-1.24523E-18
 -1      1878 9.54508E-05-2.85582E-05-2.86701E-05-3.17971E-07-1.21702E-18-1.69176E-18
 -1      1879 9.53108E-05-2.85609E-05-2.86049E-05-1.31479E-07-9.47693E-19-1.30140E-18
 -1      1880 9.52731E-05-2.85549E-05-2.85926E-05-1.05343E-07-4.20246E-19-1.08462E-18
 -1      1881 9.53500E-05-2.85498E-05-2.86301E-05-2.05603E-07-6.95600E-19-1.69676E-19
 -1      1882 9.52450E-05-2.85511E-05-2.85816E-05-7.58016E-08-6.61175E-19-1.14698E-18
 -1      1883 9.52226E-05-2.85483E-05-2.85740E-05-5.77375E-08-1.45484E-19-5.02726E-19
 -1      1884 9.52822E-05-2.85460E-05-2.86023E-05-1.24863E-07-5.20418E-19-2.94911E-19
 -1      1885 9.52050E-05-2.85465E-05-2.85669E-05-3.74147E-08 7.91595E-19-1.37535E-18
 -1      1886 9.51932E-05-2.85459E-05-2.85627E-05-2.53468E-08 9.76195E-19-1.33852E-18
 -1      1887 9.52385E-05-2.85453E-05-2.85836E-05-6.82575E-08-8.52126E-20-4.28023E-19
 -1      1888 9.51830E-05-2.85453E-05-2.85584E-05-1.18547E-08 9.51961E-20-1.91474E-18
 -1      1889 9.51785E-05-2.85460E-05-2.85564E-05-4.15509E-09-1.68196E-19-1.99401E-18
 -1      1890 9.52122E-05-2.85465E-05-2.85716E-05-2.97515E-08-1.76338E-19-1.42217E-18
 -1      1891 9.51734E-05-2.85462E-05-2.85541E-05 4.37627E-09 4.08677E-19-1.78211E-18
 -1      1892 9.51735E-05-2.85478E-05-2.85537E-05 8.96417E-09 1.11970E-18-1.61470E-18
 -1      1893 9.51980E-05-2.85489E-05-2.85643E-05-4.56808E-09 2.54593E-19-1.08434E-18
 -1      1894 9.51719E-05-2.85484E-05-2.85527E-05 1.39753E-08 2.71402E-18-1.32986E-18
 -1      1895 9.51748E-05-2.85503E-05-2.85532E-05 1.64054E-08 2.02202E-18 3.58143E-19
 -1      1896 9.51922E-05-2.85517E-05-2.85605E-05 1.10131E-08 2.27533E-18-7.20182E-19
 -1      1897 9.51754E-05-2.85513E-05-2.85531E-05 1.89871E-08 4.27475E-19 6.01970E-19
 -1      1898 9.51799E-05-2.85533E-05-2.85541E-05 1.99708E-08-2.75507E-19-3.19942E-19
 -1      1899 9.51917E-05-2.85547E-05-2.85589E-05 1.98413E-08 1.46808E-18-4.62226E-19
 -1      1900 9.51818E-05-2.85544E-05-2.85546E-05 2.09334E-08-2.75447E-19 8.22733E-19
 -1      1901 9.51869E-05-2.85563E-05-2.85559E-05 2.09899E-08 2.89360E-19 1.44732E-18
 -1      1902 9.51946E-05-2.85576E-05-2.85588E-05 2.40603E-08 3.64025E-19 4.64131E-19
 -1      1903 9.51895E-05-2.85574E-05-2.85566E-05 2.09217E-08-1.66805E-19 6.41103E-19
 -1      1904 9.51948E-05-2.85592E-05-2.85581E-05 2.04194E-08-6.22228E-21 8.39607E-19
 -1      1905 9.51993E-05-2.85603E-05-2.85596E-05 2.52498E-08-3.16255E-19 2.70378E-18
 -1      1906 9.51976E-05-2.85602E-05-2.85589E-05 1.97345E-08-2.64432E-19 5.19706E-19
 -1      1907 9.52027E-05-2.85619E-05-2.85603E-05 1.89246E-08 1.21857E-19 3.78475E-19
 -1      1908 9.52049E-05-2.85627E-05-2.85610E-05 2.45446E-08-1.68337E-19 5.15816E-19
 -1      1909 9.52056E-05-2.85628E-05-2.85612E-05 1.79011E-08 1.26687E-18 2.78855E-19
 -1      1910 9.52102E-05-2.85642E-05-2.85625E-05 1.69429E-08 1.24947E-18 1.38113E-18
 -1      1911 9.52107E-05-2.85649E-05-2.85625E-05 2.27302E-08 4.98085E-19 1.11690E-18
 -1      1912 9.52129E-05-2.85651E-05-2.85634E-05 1.57521E-08 8.09833E-19 1.82678E-18
 -1      1913 9.52170E-05-2.85663E-05-2.85646E-05 1.47319E-08 1.53131E-18 2.87664E-18
 -1      1914 9.52163E-05-2.85667E-05-2.85641E-05 2.03194E-08 1.56476E-18 1.80071E-18
 -1      1915 9.52194E-05-2.85670E-05-2.85654E-05 1.34606E-08 1.25126E-18 2.36288E-18
 -1      1916 9.52229E-05-2.85681E-05-2.85664E-05 1.24049E-08 1.09002E-18 1.48305E-18
 -1      1917 9.52215E-05-2.85683E-05-2.85656E-05 1.76103E-08 1.19759E-18 1.72643E-18
 -1      1918 9.52251E-05-2.85688E-05-2.85670E-05 1.10741E-08-3.09656E-19 8.47917E-19
 -1      1919 9.52279E-05-2.85697E-05-2.85678E-05 9.96068E-09-6.10121E-19 6.64975E-19
 -1      1920 9.52261E-05-2.85698E-05-2.85670E-05 1.47329E-08 1.28436E-19 1.25306E-18
 -1      1921 9.52298E-05-2.85703E-05-2.85684E-05 8.54807E-09 1.23376E-19 3.19880E-19
 -1      1922 9.52320E-05-2.85711E-05-2.85690E-05 7.32132E-09-1.89310E-19 3.10639E-19
 -1      1923 9.52301E-05-2.85711E-05-2.85681E-05 1.16949E-08-7.49735E-19 9.04075E-19
 -1      1924 9.52333E-05-2.85715E-05-2.85694E-05 5.87706E-09 5.74835E-20-5.85140E-19
 -1      1925 9.52349E-05-2.85721E-05-2.85698E-05 4.55669E-09 6.00387E-19-1.20487E-18
 -1      1926 9.52355E-05-2.85730E-05-2.85697E-05 5.36824E-09-1.74116E-19-2.16228E-18
 -1      1927 9.52332E-05-2.85722E-05-2.85690E-05 8.53599E-09-5.50023E-19-9.58529E-21
 -1      1928 1.09990E-04-3.30551E-05-3.29645E-05 8.08029E-07 9.49028E-19 3.63261E-18
 -1      1929 1.10744E-04-3.29607E-05-3.32905E-05 1.24123E-06 1.03410E-18 4.00289E-18
 -1      1930 1.10439E-04-3.24446E-05-3.34364E-05 2.09480E-06 1.31632E-18 3.04383E-18
 -1      1931 1.09142E-04-3.33165E-05-3.25010E-05 1.44728E-06 7.64651E-19 3.10710E-18
 -1      1932 1.09706E-04-3.33031E-05-3.27152E-05 1.08537E-06 7.50082E-19 3.39510E-18
 -1      1933 1.09669E-04-3.32950E-05-3.27311E-05 1.48948E-06 9.64864E-19 2.71209E-18
 -1      1934 1.07893E-04-3.32281E-05-3.20097E-05 3.16481E-06 4.09921E-19 2.83457E-18
 -1      1935 1.08750E-04-3.34160E-05-3.22821E-05 2.29927E-06 4.17680E-19 2.93198E-18
 -1      1936 1.09025E-04-3.37313E-05-3.22577E-05 2.68000E-06 6.83436E-19 2.25692E-18
 -1      1937 1.05721E-04-3.25330E-05-3.13679E-05 5.27025E-06 2.81056E-19 2.45898E-18
 -1      1938 1.07122E-04-3.30441E-05-3.17567E-05 4.22448E-06 4.84754E-19 2.80418E-18
 -1      1939 1.07891E-04-3.36098E-05-3.18106E-05 4.88629E-06 4.95130E-19 1.98773E-18
 -1      1940 1.02519E-04-3.10829E-05-3.06017E-05 6.77580E-06 4.26977E-19 2.49741E-18
 -1      1941 1.04438E-04-3.19388E-05-3.10801E-05 6.02422E-06 2.80772E-19 2.50945E-18
 -1      1942 1.05829E-04-3.26452E-05-3.13344E-05 7.11763E-06 3.93632E-19 1.89719E-18
 -1      1943 9.87947E-05-2.90876E-05-2.98538E-05 6.58485E-06 6.22394E-19 2.25925E-18
 -1      1944 1.00878E-04-3.01186E-05-3.03239E-05 6.65023E-06 6.77304E-19 2.43499E-18
 -1      1945 1.02856E-04-3.07813E-05-3.08698E-05 8.10189E-06 7.00689E-19 1.82201E-18
 -1      1946 9.56803E-05-2.72493E-05-2.93192E-05 4.09208E-06 7.27423E-19 9.23378E-19
 -1      1947 9.73099E-05-2.80791E-05-2.96501E-05 5.24340E-06 7.30553E-19 1.60920E-18
 -1      1948 9.96545E-05-2.85063E-05-3.05033E-05 6.70752E-06 1.05648E-18 1.44428E-18
 -1      1949 9.45093E-05-2.65034E-05-2.91565E-05-1.26307E-07 1.97716E-19 1.03437E-18
 -1      1950 9.50497E-05-2.67286E-05-2.92404E-05 1.80474E-06 4.71824E-19 9.27428E-19
 -1      1951 9.74656E-05-2.68362E-05-3.03088E-05 2.75243E-06 5.85816E-19 9.36670E-19
 -1      1952 9.58956E-05-2.72829E-05-2.94251E-05-4.41425E-06 5.20654E-19 9.43026E-19
 -1      1953 9.50875E-05-2.67791E-05-2.92268E-05-2.47379E-06 3.71887E-19 9.24742E-19
 -1      1954 9.73651E-05-2.66906E-05-3.03283E-05-2.45015E-06 3.34783E-19 7.67212E-19
 -1      1955 9.92927E-05-2.92009E-05-3.00478E-05-7.07047E-06 2.76722E-19 5.62575E-19
 -1      1956 9.74170E-05-2.82005E-05-2.96266E-05-5.87267E-06 4.16416E-19 7.64752E-19
 -1      1957 9.94333E-05-2.81712E-05-3.05554E-05-6.79006E-06 5.12342E-19 3.31865E-19
 -1      1958 1.03339E-04-3.13398E-05-3.08444E-05-7.36357E-06 9.39459E-19-3.32196E-21
 -1      1959 1.01059E-04-3.02686E-05-3.03262E-05-7.19998E-06 5.44813E-19 1.89868E-19
 -1      1960 1.02704E-04-3.04978E-05-3.09351E-05-8.68120E-06 7.40080E-19-2.45970E-19
 -1      1961 1.06716E-04-3.29157E-05-3.16021E-05-5.75097E-06 4.77558E-19 3.07466E-19
 -1      1962 1.04708E-04-3.21134E-05-3.11256E-05-6.40404E-06 5.32029E-19 2.47817E-19
 -1      1963 1.05846E-04-3.25960E-05-3.13743E-05-7.92351E-06 6.14092E-19-2.95601E-19
 -1      1964 1.08726E-04-3.36463E-05-3.21499E-05-3.27740E-06-1.77520E-19-1.74628E-19
 -1      1965 1.07400E-04-3.32347E-05-3.18162E-05-4.29907E-06 3.69220E-19 2.18376E-20
 -1      1966 1.07941E-04-3.38047E-05-3.17618E-05-5.45310E-06 4.71394E-19 5.27609E-20
 -1      1967 1.09313E-04-3.36580E-05-3.24041E-05-8.70789E-07-1.96531E-19-4.16082E-19
 -1      1968 1.08765E-04-3.35897E-05-3.22536E-05-1.87314E-06-2.80421E-19-2.90529E-19
 -1      1969 1.08735E-04-3.40596E-05-3.20021E-05-2.49164E-06-9.43912E-20-6.00002E-19
 -1      1970 1.08773E-04-3.32182E-05-3.23713E-05 9.65132E-07 1.11107E-19 8.94844E-20
 -1      1971 1.08888E-04-3.33823E-05-3.23906E-05 1.92994E-07-2.13935E-19-1.96179E-19
 -1      1972 1.08427E-04-3.36549E-05-3.20489E-05 8.96291E-08-3.88841E-20-1.79229E-19
 -1      1973 1.07505E-04-3.25676E-05-3.21143E-05 2.10483E-06 1.69906E-19 3.43081E-19
 -1      1974 1.08079E-04-3.28568E-05-3.22602E-05 1.61777E-06 3.62586E-19 5.19870E-19
 -1      1975 1.07373E-04-3.29281E-05-3.19096E-05 1.90902E-06 8.41607E-20-2.64367E-20
 -1      1976 1.05864E-04-3.18679E-05-3.17155E-05 2.64039E-06-7.22635E-19 8.02531E-20
 -1      1977 1.06694E-04-3.22031E-05-3.19376E-05 2.40307E-06-1.36736E-19 2.42291E-19
 -1      1978 1.05908E-04-3.21224E-05-3.16265E-05 2.94292E-06-5.02926E-21-1.86167E-19
 -1      1979 1.04116E-04-3.12078E-05-3.12512E-05 2.74121E-06-6.07688E-20 3.23163E-20
 -1      1980 1.05041E-04-3.15397E-05-3.15055E-05 2.68549E-06-4.78834E-19 3.06226E-19
 -1      1981 1.04293E-04-3.13701E-05-3.12553E-05 3.34520E-06-5.11519E-19-3.74547E-20
 -1      1982 1.02435E-04-3.06274E-05-3.07794E-05 2.57260E-06 3.83734E-19-7.35772E-19
 -1      1983 1.03344E-04-3.09294E-05-3.10340E-05 2.63107E-06-2.26640E-19-5.72637E-19
 -1      1984 1.02699E-04-3.07244E-05-3.08480E-05 3.31524E-06 1.88463E-19-1.09609E-18
 -1      1985 1.00919E-04-3.01391E-05-3.03380E-05 2.26356E-06 1.30557E-18-7.49877E-19
 -1      1986 1.01747E-04-3.03993E-05-3.05730E-05 2.38303E-06 9.14066E-19-4.21436E-19
 -1      1987 1.01229E-04-3.01954E-05-3.04446E-05 3.03007E-06 7.26399E-19-9.60520E-19
 -1      1988 9.96124E-05-2.97408E-05-2.99479E-05 1.90228E-06 7.47218E-19-8.56706E-19
 -1      1989 1.00329E-04-2.99566E-05-3.01531E-05 2.04600E-06 1.05464E-18-4.67215E-19
 -1      1990 9.99377E-05-2.97741E-05-3.00714E-05 2.62187E-06 9.79803E-19-3.10189E-19
 -1      1991 9.85262E-05-2.94239E-05-2.96172E-05 1.54292E-06-1.63022E-18 8.00088E-20
 -1      1992 9.91216E-05-2.95973E-05-2.97891E-05 1.68802E-06-5.27852E-19-4.68623E-19
 -1      1993 9.88423E-05-2.94451E-05-2.97430E-05 2.17841E-06-5.63556E-19-1.71619E-21
 -1      1994 9.76488E-05-2.91770E-05-2.93462E-05 1.21502E-06-1.20005E-18 5.19421E-19
 -1      1995 9.81284E-05-2.93129E-05-2.94856E-05 1.34876E-06-1.48352E-18 2.73055E-19
 -1      1996 9.79405E-05-2.91924E-05-2.94649E-05 1.75221E-06-1.55505E-18 6.60362E-19
 -1      1997 9.69579E-05-2.89886E-05-2.91303E-05 9.31910E-07-1.07624E-19 2.68430E-19
 -1      1998 9.73338E-05-2.90926E-05-2.92401E-05 1.04832E-06-2.81112E-19 1.59060E-19
 -1      1999 9.72166E-05-2.90012E-05-2.92366E-05 1.37083E-06-4.70413E-19-4.71283E-19
 -1      2000 9.64266E-05-2.88479E-05-2.89625E-05 6.96971E-07 2.14350E-19 1.31643E-18
 -1      2001 9.67140E-05-2.89256E-05-2.90469E-05 7.94249E-07-6.46657E-20 7.62670E-19
 -1      2002 9.66488E-05-2.88590E-05-2.90542E-05 1.04558E-06-1.16545E-19-5.00316E-19
 -1      2003 9.60273E-05-2.87450E-05-2.88352E-05 5.07983E-07 9.47875E-20 7.31622E-19
 -1      2004 9.62417E-05-2.88017E-05-2.88985E-05 5.86748E-07 1.08263E-19 7.34704E-19
 -1      2005 9.62131E-05-2.87551E-05-2.89119E-05 7.77979E-07 3.60758E-19 2.37363E-19
 -1      2006 9.57343E-05-2.86717E-05-2.87409E-05 3.59919E-07 5.13447E-19 3.48784E-19
 -1      2007 9.58902E-05-2.87119E-05-2.87872E-05 4.22027E-07 2.86427E-19 6.84541E-19
 -1      2008 9.58861E-05-2.86808E-05-2.88035E-05 5.64100E-07 3.06828E-19-9.15384E-20
 -1      2009 9.55249E-05-2.86209E-05-2.86728E-05 2.46674E-07 3.80630E-19-2.57771E-19
 -1      2010 9.56351E-05-2.86486E-05-2.87057E-05 2.94491E-07 1.23370E-19-4.23020E-20
 -1      2011 9.56463E-05-2.86291E-05-2.87227E-05 3.97416E-07 5.99037E-19 1.13911E-18
 -1      2012 9.53796E-05-2.85871E-05-2.86250E-05 1.62060E-07-2.73337E-19 8.08786E-19
 -1      2013 9.54550E-05-2.86053E-05-2.86477E-05 1.98042E-07 5.96894E-19 1.80306E-19
 -1      2014 9.54748E-05-2.85942E-05-2.86640E-05 2.70521E-07 3.45280E-19 1.53320E-18
 -1      2015 9.52826E-05-2.85657E-05-2.85926E-05 1.00347E-07-9.75818E-19 4.30353E-19
 -1      2016 9.53320E-05-2.85770E-05-2.86077E-05 1.26799E-07-8.55865E-19 5.01916E-19
 -1      2017 9.53558E-05-2.85718E-05-2.86225E-05 1.76129E-07-4.67043E-19 1.39782E-18
 -1      2018 9.52211E-05-2.85531E-05-2.85717E-05 5.65182E-08-2.50524E-19 5.77137E-19
 -1      2019 9.52516E-05-2.85596E-05-2.85811E-05 7.54794E-08-5.09470E-19 5.86146E-19
 -1      2020 9.52763E-05-2.85582E-05-2.85941E-05 1.07601E-07-3.28015E-19 2.60010E-19
 -1      2021 9.51851E-05-2.85467E-05-2.85590E-05 2.63427E-08 4.66487E-19 6.98343E-19
 -1      2022 9.52021E-05-2.85498E-05-2.85645E-05 3.95474E-08-1.48255E-19 5.27749E-19
 -1      2023 9.52257E-05-2.85508E-05-2.85755E-05 5.91780E-08-1.06089E-19-3.14398E-19
 -1      2024 9.51668E-05-2.85444E-05-2.85522E-05 6.36159E-09 2.20823E-18-1.98900E-19
 -1      2025 9.51746E-05-2.85453E-05-2.85548E-05 1.52383E-08 1.35354E-18 7.52482E-19
 -1      2026 9.51960E-05-2.85477E-05-2.85640E-05 2.60411E-08 1.18549E-18 2.86105E-19
 -1      2027 9.51604E-05-2.85448E-05-2.85493E-05-6.18477E-09 2.96027E-19 7.94097E-20
 -1      2028 9.51621E-05-2.85442E-05-2.85501E-05-4.88670E-10 1.33783E-18 1.54697E-19
 -1      2029 9.51809E-05-2.85474E-05-2.85575E-05 4.27020E-09 1.34537E-18 1.01081E-18
 -1      2030 9.51617E-05-2.85468E-05-2.85491E-05-1.34487E-08-1.69030E-18-1.92826E-19
 -1      2031 9.51595E-05-2.85454E-05-2.85487E-05-1.00323E-08-4.23711E-19-3.68506E-19
 -1      2032 9.51755E-05-2.85488E-05-2.85545E-05-9.24800E-09 7.02507E-20 1.02700E-18
 -1      2033 9.51675E-05-2.85496E-05-2.85504E-05-1.70733E-08-2.77945E-19-3.25790E-19
 -1      2034 9.51632E-05-2.85478E-05-2.85493E-05-1.52440E-08-1.60682E-18-1.94018E-19
 -1      2035 9.51764E-05-2.85511E-05-2.85539E-05-1.69316E-08-1.67553E-18 9.30095E-19
 -1      2036 9.51759E-05-2.85528E-05-2.85526E-05-1.82846E-08-6.11807E-19 1.16935E-18
 -1      2037 9.51705E-05-2.85508E-05-2.85512E-05-1.75221E-08-5.90136E-19-1.59666E-19
 -1      2038 9.51811E-05-2.85538E-05-2.85547E-05-2.06186E-08-4.16710E-19-1.78676E-19
 -1      2039 9.51852E-05-2.85560E-05-2.85553E-05-1.79748E-08 9.62492E-19 1.40479E-18
 -1      2040 9.51795E-05-2.85541E-05-2.85537E-05-1.78976E-08 5.13324E-19 1.92152E-18
 -1      2041 9.51878E-05-2.85567E-05-2.85563E-05-2.16738E-08-4.76857E-19 7.32075E-19
 -1      2042 9.51947E-05-2.85591E-05-2.85581E-05-1.67721E-08-1.61841E-19 1.42849E-18
 -1      2043 9.51891E-05-2.85573E-05-2.85565E-05-1.71091E-08-4.71447E-21 1.29006E-18
 -1      2044 9.51954E-05-2.85594E-05-2.85583E-05-2.10836E-08 4.87405E-19 1.09163E-18
 -1      2045 9.52037E-05-2.85619E-05-2.85607E-05-1.50972E-08-5.81151E-19 8.99163E-19
 -1      2046 9.51984E-05-2.85602E-05-2.85593E-05-1.56655E-08 9.74508E-21 1.10695E-18
 -1      2047 9.52032E-05-2.85620E-05-2.85605E-05-1.95350E-08 9.23242E-20 1.46357E-18
 -1      2048 9.52119E-05-2.85643E-05-2.85632E-05-1.32074E-08 1.18315E-18 3.88818E-19
 -1      2049 9.52072E-05-2.85629E-05-2.85619E-05-1.38945E-08 3.83058E-19 6.72392E-19
 -1      2050 9.52105E-05-2.85643E-05-2.85627E-05-1.74794E-08 9.58542E-19 1.73557E-18
 -1      2051 9.52191E-05-2.85665E-05-2.85654E-05-1.12265E-08 5.97406E-19 1.57285E-19
 -1      2052 9.52150E-05-2.85653E-05-2.85642E-05-1.19792E-08 8.38029E-19 4.01050E-19
 -1      2053 9.52172E-05-2.85663E-05-2.85647E-05-1.51812E-08 1.05883E-18 1.99548E-18
 -1      2054 9.52252E-05-2.85684E-05-2.85672E-05-9.17399E-09 8.45892E-19 1.60721E-18
 -1      2055 9.52217E-05-2.85673E-05-2.85662E-05-9.98597E-09 3.87843E-19 4.05318E-19
 -1      2056 9.52230E-05-2.85681E-05-2.85664E-05-1.27518E-08 1.07481E-19 2.87857E-18
 -1      2057 9.52301E-05-2.85699E-05-2.85686E-05-6.98366E-09 3.37407E-19 1.89822E-18
 -1      2058 9.52274E-05-2.85691E-05-2.85679E-05-7.89328E-09 1.48870E-18 2.31650E-18
 -1      2059 9.52280E-05-2.85697E-05-2.85678E-05-1.01942E-08 1.17512E-18 3.78095E-18
 -1      2060 9.52338E-05-2.85712E-05-2.85697E-05-4.55468E-09-2.72745E-19 3.87126E-19
 -1      2061 9.52318E-05-2.85705E-05-2.85692E-05-5.62055E-09-5.55551E-19 5.52526E-19
 -1      2062 9.52320E-05-2.85710E-05-2.85690E-05-7.43896E-09 1.11327E-19 4.03909E-18
 -1      2063 9.52359E-05-2.85719E-05-2.85703E-05-2.58038E-09-7.45327E-19 1.60201E-18
 -1      2064 9.52347E-05-2.85716E-05-2.85699E-05-3.74123E-09 1.33299E-20 6.98775E-19
 -1      2065 9.52347E-05-2.85721E-05-2.85697E-05-5.08885E-09-4.81959E-19 2.63237E-18
 -1      2066 9.52362E-05-2.85726E-05-2.85701E-05-3.26376E-09-6.47299E-19 3.74657E-18
 -1      2067 9.52405E-05-2.85822E-05-2.85678E-05-7.84974E-09 1.19706E-18 4.88976E-19
 -1      2068 9.52396E-05-2.85802E-05-2.85683E-05-7.74428E-09 1.46936E-18 6.62449E-19
 -1      2069 9.52387E-05-2.85784E-05-2.85687E-05-7.32297E-09 1.92556E-18 8.86258E-19
 -1      2070 9.52378E-05-2.85765E-05-2.85691E-05-6.63504E-09 7.37152E-19 1.71590E-18
 -1      2071 9.52388E-05-2.85789E-05-2.85685E-05-9.56376E-09 6.57085E-19 5.09842E-19
 -1      2072 9.52373E-05-2.85753E-05-2.85694E-05-5.64357E-09 3.45567E-19 2.56917E-18
 -1      2073 9.52366E-05-2.85737E-05-2.85698E-05-4.52621E-09-1.70347E-19 2.99767E-18
 -1      2074 9.52359E-05-2.85735E-05-2.85696E-05-5.52399E-09-3.28949E-19 3.68669E-18
 -1      2075 9.52371E-05-2.85759E-05-2.85691E-05-7.95106E-09 1.80551E-19 2.14675E-18
 -1      2076 9.52421E-05-2.85858E-05-2.85670E-05-7.25198E-09-1.24513E-18-4.36094E-18
 -1      2077 9.52413E-05-2.85839E-05-2.85675E-05-7.63111E-09-7.47319E-20-1.45480E-18
 -1      2078 9.52408E-05-2.85825E-05-2.85679E-05-9.75132E-09-2.56417E-19-1.71786E-18
 -1      2079 9.52435E-05-2.85888E-05-2.85662E-05-5.68793E-09-3.40619E-19-2.04734E-18
 -1      2080 9.52428E-05-2.85872E-05-2.85667E-05-6.47063E-09-1.01665E-18-2.58350E-18
 -1      2081 9.52426E-05-2.85856E-05-2.85673E-05-8.61829E-09-3.31880E-19-3.53587E-18
 -1      2082 9.52444E-05-2.85909E-05-2.85657E-05-3.42338E-09 8.00599E-19 1.71187E-18
 -1      2083 9.52440E-05-2.85899E-05-2.85660E-05-4.47954E-09 6.98423E-19 1.40729E-18
 -1      2084 9.52440E-05-2.85882E-05-2.85668E-05-6.37767E-09 6.67355E-19-1.00653E-19
 -1      2085 9.52448E-05-2.85918E-05-2.85655E-05-7.58903E-10-1.67041E-19-1.65416E-18
 -1      2086 9.52446E-05-2.85914E-05-2.85656E-05-1.95345E-09-3.38491E-19-7.13598E-19
 -1      2087 9.52448E-05-2.85898E-05-2.85665E-05-3.37143E-09-2.56799E-19-7.63521E-19
 -1      2088 9.52446E-05-2.85914E-05-2.85656E-05 1.99233E-09 3.55446E-19-1.98354E-18
 -1      2089 9.52448E-05-2.85918E-05-2.85655E-05 7.98665E-10 5.27453E-19-1.38546E-18
 -1      2090 9.52451E-05-2.85904E-05-2.85664E-05 2.46097E-11-1.50153E-18-1.62034E-18
 -1      2091 9.52440E-05-2.85898E-05-2.85660E-05 4.51360E-09 1.48770E-19-4.46859E-18
 -1      2092 9.52444E-05-2.85909E-05-2.85657E-05 3.46058E-09 8.14357E-19-3.53814E-18
 -1      2093 9.52448E-05-2.85898E-05-2.85665E-05 3.41869E-09-2.57275E-19-2.82993E-18
 -1      2094 9.52428E-05-2.85872E-05-2.85667E-05 6.46818E-09-9.22567E-19-4.87140E-18
 -1      2095 9.52435E-05-2.85888E-05-2.85663E-05 5.70049E-09-2.14995E-19-5.07364E-18
 -1      2096 9.52440E-05-2.85882E-05-2.85668E-05 6.39787E-09-2.11816E-20-5.23267E-18
 -1      2097 9.52413E-05-2.85838E-05-2.85675E-05 7.63834E-09-2.94252E-19 2.54679E-18
 -1      2098 9.52421E-05-2.85858E-05-2.85670E-05 7.25424E-09-2.55586E-20-7.36776E-19
 -1      2099 9.52426E-05-2.85857E-05-2.85673E-05 8.61774E-09 5.62324E-19-2.08362E-18
 -1      2100 9.52395E-05-2.85801E-05-2.85683E-05 7.74036E-09-1.67961E-20 3.44506E-18
 -1      2101 9.52405E-05-2.85822E-05-2.85678E-05 7.85759E-09-2.85220E-19 1.89094E-18
 -1      2102 9.52408E-05-2.85824E-05-2.85679E-05 9.75981E-09 1.24411E-18 2.19938E-18
 -1      2103 9.52377E-05-2.85764E-05-2.85692E-05 6.65041E-09-3.27111E-19 1.93866E-18
 -1      2104 9.52387E-05-2.85783E-05-2.85687E-05 7.30723E-09-9.81705E-19 4.60551E-18
 -1      2105 9.52387E-05-2.85789E-05-2.85685E-05 9.54272E-09-4.49422E-19 3.67751E-18
 -1      2106 5.82798E-05-3.89141E-05-8.69546E-06 4.09209E-05 3.49486E-18 1.71495E-18
 -1      2107 4.32948E-05-4.00535E-05-2.60426E-06 3.36822E-05 3.15604E-18 1.95040E-18
 -1      2108 1.26377E-05-2.96230E-05 6.43030E-06 6.01222E-06 2.54025E-18 6.12151E-18
 -1      2109 1.28554E-05-3.09386E-05 6.71844E-06-5.19989E-06 1.33238E-18 7.23536E-18
 -1      2110 2.68372E-05-3.43496E-05 2.24265E-06 2.72179E-05 3.48554E-18 1.65574E-18
 -1      2111 1.82843E-05-3.42798E-05 5.57336E-06 1.82727E-05 2.74227E-18 2.46148E-18
 -1      2112 9.44575E-05-4.19850E-05-2.25005E-05 4.32516E-05 3.71085E-18 2.08878E-18
 -1      2113 7.55384E-05-4.35754E-05-1.47690E-05 3.89335E-05 3.90016E-18 1.63647E-18
 -1      2114 1.31649E-04-4.46928E-05-3.73257E-05 3.27106E-05 2.88034E-18 1.52889E-18
 -1      2115 1.11252E-04-4.39117E-05-2.93659E-05 3.59537E-05 3.41439E-18 2.17942E-18
 -1      2116 8.56446E-05-7.86904E-06-3.34474E-05-2.55798E-06-1.07307E-18-1.77980E-18
 -1      2117 8.94248E-05-9.26388E-06-3.44059E-05-4.07500E-06-1.30178E-18-1.37140E-18
 -1      2118 9.36576E-05-1.39009E-05-3.42442E-05-3.77585E-06-1.39355E-18-1.02971E-18
 -1      2119 8.51899E-05-9.27397E-06-3.25753E-05-1.33012E-06-1.00290E-18-1.74358E-18
 -1      2120 1.73940E-04-2.68048E-05-6.21062E-05 8.21831E-06 4.19662E-18-1.10919E-18
 -1      2121 1.68230E-04-3.01656E-05-5.81671E-05 1.77307E-05 4.01832E-18 5.73865E-19
 -1      2122 1.81926E-04-2.35594E-05-6.64192E-05-7.70150E-07 4.81581E-18-1.62440E-18
 -1      2123 1.73145E-04-2.07802E-05-6.46545E-05 4.88277E-06 4.65190E-18-1.14773E-18
 -1      2124 1.71808E-04-2.38016E-05-6.29730E-05-8.52058E-06 5.31259E-18-2.65227E-18
 -1      2125 1.81660E-04-2.49286E-05-6.58575E-05-3.23742E-06 4.98013E-18-1.87639E-18
 -1      2126 1.57696E-04-1.24738E-05-6.12358E-05 7.69701E-07 5.20883E-18-1.19670E-18
 -1      2127 1.55599E-04-3.25928E-05-5.27193E-05-1.32629E-05 4.61919E-18-2.31918E-18
 -1      2128 1.69236E-04-3.02557E-05-5.86564E-05-1.08512E-05 4.96679E-18-2.25226E-18
 -1      2129 1.30931E-04-4.18869E-05-3.83626E-05-2.99915E-05 3.85231E-18-3.82139E-18
 -1      2130 1.48880E-04-4.12345E-05-4.59412E-05-2.45247E-05 3.90043E-18-2.30351E-18
 -1      2131 9.32751E-05-4.12330E-05-2.32090E-05-3.86703E-05 3.45462E-18-5.20121E-18
 -1      2132 1.14732E-04-4.09757E-05-3.14828E-05-4.10684E-05 3.79132E-18-5.02460E-18
 -1      2133 6.15328E-05-4.06615E-05-9.89169E-06-3.82959E-05 2.01001E-18-4.84225E-18
 -1      2134 7.84406E-05-3.94638E-05-1.68793E-05-4.33962E-05 3.02560E-18-5.51461E-18
 -1      2135 2.70676E-05-3.50303E-05 1.89174E-06-2.55975E-05 1.53313E-18-4.71819E-18
 -1      2136 3.88893E-05-3.32216E-05-3.23907E-06-3.49826E-05 2.51272E-18-5.03963E-18
 -1      2137 1.22252E-05-3.22135E-05 6.93700E-06-7.37649E-06 2.35581E-19-4.37154E-18
 -1      2138 1.60510E-05-3.03391E-05 4.92818E-06-1.68579E-05 1.46028E-18-4.66376E-18
 -1      2139 1.40269E-05-2.98789E-05 5.56484E-06 1.23942E-05-8.01293E-19-4.16528E-18
 -1      2140 1.14379E-05-3.23672E-05 7.30486E-06 2.18104E-06 3.37172E-19-4.18307E-18
 -1      2141 1.30319E-05-2.15635E-05 2.88191E-06-3.39398E-06 4.23252E-19-4.85816E-18
 -1      2142 3.66614E-05-3.44117E-05-1.93536E-06 3.18244E-05-2.08624E-18-4.53332E-18
 -1      2143 2.54009E-05-3.45799E-05 2.50253E-06 2.32613E-05-9.19878E-19-4.15321E-18
 -1      2144 7.12186E-05-3.94894E-05-1.40096E-05 4.12901E-05-3.00570E-18-4.42522E-18
 -1      2145 5.51792E-05-4.06953E-05-7.49167E-06 3.54073E-05-2.06083E-18-4.20064E-18
 -1      2146 1.08531E-04-4.30299E-05-2.80387E-05 4.10107E-05-3.42794E-18-3.77268E-18
 -1      2147 8.79137E-05-4.32705E-05-2.02080E-05 3.78279E-05-3.19331E-18-4.26206E-18
 -1      2148 1.44556E-04-4.44854E-05-4.28113E-05 2.70599E-05-3.91880E-18-1.34848E-18
 -1      2149 1.25027E-04-4.40010E-05-3.50531E-05 3.20626E-05-3.90228E-18-2.50722E-18
 -1      2150 1.73633E-04-3.45520E-05-5.79301E-05 1.83776E-05-4.83232E-18-5.28972E-19
 -1      2151 1.56096E-04-3.65322E-05-5.08407E-05 1.81095E-05-4.82126E-18-9.32160E-19
 -1      2152 1.83685E-04-2.80631E-05-6.53347E-05 6.41150E-06-4.62480E-18 7.05367E-19
 -1      2153 1.76763E-04-2.96932E-05-6.19978E-05 1.33931E-05-4.94265E-18-2.93920E-19
 -1      2154 1.62151E-04-2.84954E-05-5.63722E-05 7.84970E-07-4.97865E-18 8.99549E-19
 -1      2155 1.78798E-04-2.22300E-05-6.61568E-05-2.84966E-06-4.28387E-18 1.42545E-18
 -1      2156 1.84139E-04-2.44037E-05-6.68327E-05 2.77202E-06-4.07550E-18 9.40101E-19
 -1      2157 1.73201E-04-2.97863E-05-6.04409E-05-1.22944E-05-4.38212E-18 2.24040E-18
 -1      2158 1.76329E-04-2.57686E-05-6.36860E-05-3.47660E-06-4.30970E-18 1.23476E-18
 -1      2159 1.51931E-04-3.77146E-05-4.88359E-05-2.03623E-05-4.37606E-18 2.53813E-18
 -1      2160 1.70105E-04-3.64083E-05-5.61247E-05-1.87743E-05-4.34782E-18 2.45724E-18
 -1      2161 1.59284E-04-3.02513E-05-5.43892E-05 4.91483E-07-3.85146E-18 3.55754E-19
 -1      2162 1.16991E-04-4.35676E-05-3.19685E-05-3.44395E-05-3.99545E-18 3.84595E-18
 -1      2163 1.39601E-04-4.32768E-05-4.08240E-05-3.30716E-05-3.92219E-18 2.99214E-18
 -1      2164 8.19418E-05-4.63429E-05-1.61873E-05-3.75566E-05-1.52593E-18 4.09117E-18
 -1      2165 1.01860E-04-4.41559E-05-2.46326E-05-4.16950E-05-3.24202E-18 3.75278E-18
 -1      2166 4.20785E-05-4.10084E-05-1.91632E-06-3.12438E-05-3.61683E-19 4.97060E-18
 -1      2167 5.83583E-05-3.95662E-05-8.55629E-06-3.99638E-05-1.17738E-18 5.25605E-18
 -1      2168 1.88304E-05-3.55421E-05 5.76446E-06-1.71616E-05 1.49141E-18 6.27058E-18
 -1      2169 2.78624E-05-3.56879E-05 2.33751E-06-2.59589E-05-5.45913E-19 6.03024E-18
 -1      2170 4.28434E-05-3.56652E-05-3.57257E-06-3.57703E-05 1.15133E-18 5.43922E-18
 -1      2171 1.62544E-04-3.56514E-05-5.29901E-05 2.40664E-05 3.56937E-18 1.31121E-18
 -1      2172 1.44979E-04-3.87785E-05-4.53281E-05 2.30703E-05 3.32587E-18 1.32095E-18
 -1      2173 1.55966E-04-3.26102E-05-5.22221E-05 4.44862E-06 3.44213E-18-1.30951E-18
 -1      2174 1.14350E-04-5.28963E-05-2.60550E-05 3.55820E-05 2.19297E-18 7.14684E-19
 -1      2175 1.13278E-04-2.95526E-05-3.59666E-05-4.45332E-06-1.62318E-18 2.04596E-18
 -1      2176 1.41229E-04-4.60869E-05-4.04088E-05 2.16842E-05 2.59965E-18 7.20825E-19
 -1      2177 1.37271E-04-5.32964E-05-3.54764E-05 1.87855E-05 1.64430E-18-4.28810E-19
 -1      2178 1.45548E-04-4.75282E-05-4.25951E-05 7.54771E-06 2.10440E-18-7.36495E-19
 -1      2179 1.10397E-04-2.79091E-05-3.54379E-05-3.89049E-06-1.67595E-18 1.21085E-18
 -1      2180 4.28769E-05-3.49113E-05-3.78298E-06 3.69683E-05 1.02449E-18 1.60619E-18
 -1      2181 1.88026E-05-2.40607E-05 1.80348E-06 1.43891E-05 6.20028E-19 4.24914E-18
 -1      2182 9.52370E-05-2.85752E-05-2.85694E-05 6.41362E-09-2.81592E-19 2.82471E-20
 -1      2183 7.90825E-05-4.73398E-05-1.37817E-05 4.26553E-05 1.27224E-18 6.26460E-19
 -1      2184 1.95570E-05-2.45751E-05 1.64141E-06-1.44434E-05 1.30496E-18 7.36114E-18
 -1      2185 8.27957E-05-4.93244E-05-1.44757E-05-4.10954E-05 8.63550E-19 3.81779E-18
 -1      2186 1.49287E-04-4.71616E-05-4.31672E-05-1.42535E-05-2.80468E-18 7.96634E-19
 -1      2187 1.64210E-04-1.73721E-05-6.17809E-05-7.45841E-07-4.68536E-18 1.22714E-18
 -1      2188 1.51297E-04-4.36583E-05-4.57009E-05 1.50281E-05-3.84998E-18-3.37543E-19
 -1      2189 1.45630E-04-5.03827E-05-4.04562E-05 1.07109E-05-2.64126E-18 7.22096E-19
 -1      2190 1.52238E-04-4.23014E-05-4.75539E-05 5.44753E-07-3.54536E-18 1.45668E-18
 -1      2191 1.26575E-04-5.31626E-05-3.11151E-05 2.95211E-05-2.08709E-18-1.32518E-18
 -1      2192 9.29825E-05-4.97095E-05-1.86925E-05 4.00980E-05-6.12405E-19-2.90437E-18
 -1      2193 2.33197E-05-2.64258E-05 6.62704E-07 2.19094E-05 1.39972E-19-4.54560E-18
 -1      2194 2.55009E-05-2.66354E-05-1.25504E-07-2.61788E-05 4.78574E-19-5.07839E-18
 -1      2195 6.03765E-05-3.91362E-05-9.37385E-06-4.17390E-05 5.07796E-19-4.57821E-18
 -1      2196 9.97641E-05-5.00177E-05-2.13953E-05-3.96748E-05 6.17487E-19-3.59947E-18
 -1      2197 1.31194E-04-5.08748E-05-3.39810E-05-2.68053E-05 1.82557E-18-2.06951E-18
 -1      2198 1.55815E-04-2.17711E-05-5.68548E-05 2.63858E-06 4.68346E-18-8.89385E-19
 -1      2199 1.63904E-04-2.04883E-05-6.07670E-05 1.46127E-06 4.15576E-18-1.41116E-18
 -1      2200 1.49234E-04-1.89325E-05-5.58222E-05-3.81344E-06 3.98233E-18-1.72075E-18
 -1      2201 1.47126E-04-1.23666E-05-5.79578E-05-4.15638E-06 4.40203E-18-1.88571E-18
 -1      2202 1.50612E-04-4.02308E-05-4.67693E-05-6.43784E-06 3.12566E-18-4.87044E-19
 -1      2203 5.55897E-05-3.86328E-05-7.68535E-06 3.92397E-05-2.05829E-19-3.99683E-18
 -1      2204 1.66460E-04-2.02279E-05-6.19663E-05 4.45136E-07-4.17799E-18 1.05117E-18
 -1      2205 1.49598E-04-1.27146E-05-5.88689E-05 3.50361E-06-3.88280E-18 9.76523E-19
 -1      2206 1.49589E-04-1.72596E-05-5.67260E-05 5.82004E-06-3.93362E-18 2.52628E-19
 -1      2207 1.21985E-04-5.50537E-05-2.84984E-05-3.13550E-05-1.01347E-18 1.76839E-18
 -1      2208 1.09265E-04-3.20297E-05-3.31196E-05 2.06465E-06 1.26885E-18 2.17081E-18
 -1      2209 1.09722E-04-3.11238E-05-3.36079E-05 3.10071E-06 1.49247E-18 2.40660E-18
 -1      2210 7.07990E-05-2.93101E-06-2.91395E-05 8.20381E-07-1.15385E-19-2.24384E-18
 -1      2211 7.32570E-05-4.12119E-06-2.96121E-05 1.09692E-06-3.48263E-19-2.21271E-18
 -1      2212 7.65828E-05-6.27481E-06-3.02018E-05 1.49052E-06-4.45012E-19-2.10157E-18
 -1      2213 8.01791E-05-8.06895E-06-3.08912E-05 1.12340E-06-6.69973E-19-1.91858E-18
 -1      2214 7.54098E-05-6.79881E-06-2.93954E-05 2.41652E-06-2.82940E-19-2.00060E-18
 -1      2215 6.90179E-05-2.06499E-06-2.86851E-05-2.79165E-06 3.61911E-19-2.37511E-18
 -1      2216 6.81481E-05-1.54441E-06-2.85781E-05-2.23312E-06 2.40580E-19-2.41893E-18
 -1      2217 7.30984E-05-4.63597E-06-2.93136E-05-3.70056E-06 6.56196E-19-2.25640E-18
 -1      2218 7.08217E-05-3.41506E-06-2.89445E-05-3.64651E-06 4.79680E-19-2.36547E-18
 -1      2219 7.00892E-05-3.94584E-06-2.83226E-05-4.00573E-06 3.56958E-19-2.25815E-18
 -1      2220 7.90843E-05-8.24950E-06-3.03340E-05-3.07492E-06 8.82251E-19-1.90594E-18
 -1      2221 7.60426E-05-6.68113E-06-2.97892E-05-3.69281E-06 7.41467E-19-2.05783E-18
 -1      2222 7.52337E-05-7.39211E-06-2.90803E-05-4.85571E-06 6.46213E-19-2.01327E-18
 -1      2223 8.59568E-05-1.22319E-05-3.15973E-05-9.46178E-07 1.30013E-18-1.29739E-18
 -1      2224 8.25843E-05-1.05229E-05-3.09440E-05-2.18954E-06 1.03488E-18-1.63444E-18
 -1      2225 8.20889E-05-1.17257E-05-3.01853E-05-3.85855E-06 8.90564E-19-1.57024E-18
 -1      2226 9.28373E-05-1.61467E-05-3.29098E-05 2.13636E-06 1.62478E-18-6.69871E-19
 -1      2227 8.94854E-05-1.43951E-05-3.22387E-05 5.19064E-07 1.39354E-18-1.04812E-18
 -1      2228 8.94240E-05-1.61252E-05-3.14454E-05-1.37008E-06 1.21689E-18-1.01324E-18
 -1      2229 9.95724E-05-2.02152E-05-3.41178E-05 5.33932E-06 1.93058E-18 2.07841E-19
 -1      2230 9.62319E-05-1.82166E-05-3.34946E-05 3.70505E-06 1.70846E-18-2.20361E-19
 -1      2231 9.64286E-05-2.02420E-05-3.26633E-05 1.71116E-06 1.49397E-18-3.03883E-19
 -1      2232 1.09339E-04-3.36578E-05-3.24679E-05 1.80219E-06 1.05965E-18 1.89315E-18
 -1      2233 1.09644E-04-3.30678E-05-3.27439E-05 1.62697E-06 1.12171E-18 2.16596E-18
 -1      2234 1.08554E-04-3.20156E-05-3.28260E-05 2.17331E-06 1.27197E-18 1.54554E-18
 -1      2235 1.09662E-04-3.03665E-05-3.39067E-05 5.71348E-07-1.18056E-18 7.60253E-19
 -1      2236 1.10079E-04-3.19621E-05-3.35234E-05 1.86753E-06-9.07712E-19 7.60804E-19
 -1      2237 1.24101E-04-5.65629E-05-2.91389E-05 2.84595E-05 1.07383E-18-1.52466E-20
 -1      2238 1.09828E-04-5.56340E-05-2.32753E-05 3.45560E-05 9.65618E-19-4.94455E-20
 -1      2239 1.11465E-04-3.37660E-05-3.32052E-05 2.54422E-06-7.33073E-19 8.88399E-19
 -1      2240 1.12234E-04-3.53137E-05-3.30237E-05 2.33839E-06-5.52418E-19 8.32428E-19
 -1      2241 1.08284E-04-3.18043E-05-3.28275E-05 2.78128E-06-8.51798E-19 3.56167E-19
 -1      2242 1.14153E-04-3.71841E-05-3.29001E-05 1.62639E-06-3.70464E-19 1.12561E-18
 -1      2243 1.15036E-04-3.86069E-05-3.28379E-05 1.27299E-07-3.42939E-19 1.06148E-18
 -1      2244 1.11626E-04-3.63391E-05-3.23406E-05 3.08500E-06-3.61801E-19 6.86709E-19
 -1      2245 1.17358E-04-4.03010E-05-3.29607E-05-2.07919E-06-1.53611E-19 1.22847E-18
 -1      2246 1.17839E-04-4.09722E-05-3.30335E-05-4.56837E-06-1.99212E-19 1.33463E-18
 -1      2247 1.15992E-04-4.07109E-05-3.23358E-05 4.30191E-07-1.57690E-19 1.09375E-18
 -1      2248 1.19730E-04-4.15100E-05-3.35328E-05-7.91516E-06-3.33337E-19 1.39358E-18
 -1      2249 1.19162E-04-4.03947E-05-3.38070E-05-1.04644E-05-6.28037E-19 1.30723E-18
 -1      2250 1.20406E-04-4.33917E-05-3.30402E-05-5.12497E-06-3.03049E-19 1.10095E-18
 -1      2251 1.19276E-04-3.84986E-05-3.47575E-05-1.33787E-05-1.07470E-18 1.52213E-18
 -1      2252 1.17460E-04-3.51381E-05-3.52349E-05-1.42018E-05-1.38309E-18 1.36185E-18
 -1      2253 1.22596E-04-4.16294E-05-3.47428E-05-1.20209E-05-7.78986E-19 1.29736E-18
 -1      2254 1.15407E-04-3.10906E-05-3.64088E-05-1.40006E-05-1.63938E-18 1.07501E-18
 -1      2255 1.13177E-04-2.69076E-05-3.69253E-05-1.16486E-05-2.06573E-18 7.28958E-19
 -1      2256 1.20647E-04-3.39371E-05-3.72000E-05-1.58483E-05-1.71019E-18 1.43236E-18
 -1      2257 1.10933E-04-2.33698E-05-3.77528E-05-6.77971E-06-2.47979E-18 1.22744E-19
 -1      2258 1.10072E-04-2.17588E-05-3.79502E-05-1.70412E-06-2.48054E-18-3.01928E-19
 -1      2259 1.16246E-04-2.38150E-05-3.96875E-05-1.07801E-05-2.75508E-18 3.97589E-19
 -1      2260 1.10315E-04-2.22494E-05-3.78199E-05 5.21011E-06-2.03494E-18-6.40867E-19
 -1      2261 1.11804E-04-2.47746E-05-3.75250E-05 9.92265E-06-1.49597E-18-9.31333E-19
 -1      2262 1.13926E-04-1.98551E-05-4.05056E-05 1.83221E-06-2.61146E-18 1.76772E-19
 -1      2263 1.14160E-04-2.88135E-05-3.65373E-05 1.36728E-05-1.17748E-18-1.27751E-18
 -1      2264 1.16524E-04-3.30870E-05-3.60002E-05 1.52379E-05-7.85782E-19-1.48484E-18
 -1      2265 1.17177E-04-2.61970E-05-3.91225E-05 1.31709E-05-1.59949E-18-8.71584E-19
 -1      2266 1.18124E-04-3.69513E-05-3.47740E-05 1.44165E-05-3.80986E-19-1.17899E-18
 -1      2267 1.19733E-04-3.99495E-05-3.42975E-05 1.28238E-05 1.96912E-19-6.70350E-19
 -1      2268 1.21336E-04-3.62411E-05-3.65152E-05 1.59542E-05-5.05732E-19-1.40780E-18
 -1      2269 1.18993E-04-4.12621E-05-3.33764E-05 9.34472E-06 1.80233E-19-8.63108E-19
 -1      2270 1.19181E-04-4.19831E-05-3.30877E-05 6.39468E-06 3.33428E-19-1.06085E-18
 -1      2271 1.22268E-04-4.29834E-05-3.39767E-05 1.06320E-05 1.97326E-19-5.53152E-19
 -1      2272 1.16928E-04-4.11640E-05-3.25642E-05 2.79917E-06 2.81122E-19-1.30061E-18
 -1      2273 1.16050E-04-4.03359E-05-3.24039E-05 2.16589E-08 5.00398E-19-1.43017E-18
 -1      2274 1.19090E-04-4.37658E-05-3.23173E-05 3.10573E-06 1.32654E-19-9.84955E-19
 -1      2275 1.13506E-04-3.86685E-05-3.21542E-05-2.51797E-06 2.91389E-19-1.33179E-18
 -1      2276 1.12153E-04-3.73062E-05-3.20294E-05-4.45845E-06 1.02261E-19-1.18100E-18
 -1      2277 1.14146E-04-4.08509E-05-3.14720E-05-3.05065E-06 4.53836E-19-1.06133E-18
 -1      2278 1.10004E-04-3.56899E-05-3.19018E-05-5.82871E-06-2.93824E-19-1.11452E-18
 -1      2279 1.08580E-04-3.44057E-05-3.17539E-05-6.87576E-06-2.35098E-19-1.19976E-18
 -1      2280 1.09388E-04-3.69498E-05-3.11015E-05-6.81677E-06-9.87058E-20-1.15137E-18
 -1      2281 1.06985E-04-3.31853E-05-3.16542E-05-7.36609E-06-7.36902E-20-1.13564E-18
 -1      2282 1.05669E-04-3.21938E-05-3.14687E-05-7.71999E-06-2.71434E-19-8.66284E-19
 -1      2283 1.05632E-04-3.35926E-05-3.09149E-05-8.52963E-06-1.68632E-19-3.48282E-19
 -1      2284 1.04545E-04-3.13912E-05-3.13577E-05-7.65599E-06-5.69444E-19-9.80183E-19
 -1      2285 1.03395E-04-3.06977E-05-3.11450E-05-7.56230E-06-7.29308E-19-7.56133E-19
 -1      2286 1.02915E-04-3.12138E-05-3.07551E-05-8.84399E-06-6.01284E-19-5.61535E-19
 -1      2287 1.02602E-04-3.02166E-05-3.10163E-05-7.19576E-06-3.30139E-19-5.18105E-19
 -1      2288 1.01621E-04-2.97556E-05-3.07947E-05-6.85736E-06 1.81451E-19-3.20175E-19
 -1      2289 1.01003E-04-2.97203E-05-3.05647E-05-8.33150E-06-4.38571E-19 7.08087E-20
 -1      2290 1.01047E-04-2.94879E-05-3.06553E-05-6.35639E-06 4.96865E-19-2.20556E-19
 -1      2291 1.00222E-04-2.91885E-05-3.04413E-05-5.91397E-06 8.82694E-19-5.67363E-19
 -1      2292 9.96379E-05-2.88672E-05-3.03395E-05-7.39915E-06 5.34924E-19 4.34980E-19
 -1      2293 9.97894E-05-2.90505E-05-3.03013E-05-5.38116E-06 9.47803E-19-8.33190E-19
 -1      2294 9.91064E-05-2.88576E-05-3.01062E-05-4.92123E-06 5.44295E-19-3.17281E-19
 -1      2295 9.86320E-05-2.84248E-05-3.00950E-05-6.30911E-06 6.07437E-19-3.93477E-19
 -1      2296 9.87692E-05-2.87934E-05-2.99740E-05-4.41412E-06 1.29750E-19-6.18587E-20
 -1      2297 9.82109E-05-2.86694E-05-2.98036E-05-3.98412E-06 1.93395E-21-2.31844E-20
 -1      2298 9.78642E-05-2.82255E-05-2.98500E-05-5.21797E-06 6.52787E-19-4.55507E-19
 -1      2299 9.79431E-05-2.86452E-05-2.96846E-05-3.53123E-06 3.34896E-20-2.36685E-19
 -1      2300 9.74936E-05-2.85654E-05-2.95408E-05-3.15326E-06 5.83315E-19-6.55300E-19
 -1      2301 9.72626E-05-2.81609E-05-2.96192E-05-4.21104E-06-5.71286E-20-1.54924E-19
 -1      2302 9.72793E-05-2.85618E-05-2.94376E-05-2.76539E-06 3.48360E-19-1.16281E-18
 -1      2303 9.69229E-05-2.85110E-05-2.93194E-05-2.44640E-06 9.44421E-20-1.20558E-18
 -1      2304 9.67848E-05-2.81659E-05-2.94119E-05-3.32792E-06-2.68325E-20-5.42545E-19
 -1      2305 9.67518E-05-2.85173E-05-2.92326E-05-2.12416E-06-8.56336E-19-9.05921E-19
 -1      2306 9.64737E-05-2.84855E-05-2.91378E-05-1.86279E-06-1.08094E-18-6.53398E-19
 -1      2307 9.64042E-05-2.82033E-05-2.92325E-05-2.58047E-06-3.32586E-19-1.34072E-18
 -1      2308 9.63385E-05-2.84960E-05-2.90665E-05-1.60142E-06-5.89835E-19-6.75124E-19
 -1      2309 9.61251E-05-2.84770E-05-2.89919E-05-1.39219E-06-4.22032E-20-3.81488E-19
 -1      2310 9.61028E-05-2.82531E-05-2.90816E-05-1.96474E-06-8.09406E-19-9.65656E-19
 -1      2311 9.60195E-05-2.84886E-05-2.89346E-05-1.18443E-06 3.49270E-19-1.00487E-18
 -1      2312 9.58586E-05-2.84782E-05-2.88771E-05-1.02023E-06 1.95962E-19-3.91254E-19
 -1      2313 9.58667E-05-2.83048E-05-2.89579E-05-1.46861E-06-3.39591E-20-2.41586E-19
 -1      2314 9.57774E-05-2.84896E-05-2.88320E-05-8.58049E-07 2.66362E-19-4.86914E-19
 -1      2315 9.56583E-05-2.84848E-05-2.87884E-05-7.31496E-07 1.24944E-19-8.25004E-19
 -1      2316 9.56842E-05-2.83532E-05-2.88585E-05-1.07646E-06 2.43812E-19-2.36380E-19
 -1      2317 9.55970E-05-2.84953E-05-2.87535E-05-6.07086E-07-3.21387E-19-1.17876E-18
 -1      2318 9.55107E-05-2.84942E-05-2.87211E-05-5.11248E-07-5.19330E-19-1.25866E-18
 -1      2319 9.55455E-05-2.83961E-05-2.87803E-05-7.71968E-07-3.68843E-19-7.65944E-19
 -1      2320 9.54653E-05-2.85034E-05-2.86946E-05-4.17461E-07-1.10346E-18-1.19425E-18
 -1      2321 9.54042E-05-2.85046E-05-2.86711E-05-3.46184E-07-1.13676E-18-8.67266E-19
 -1      2322 9.54421E-05-2.84329E-05-2.87198E-05-5.39599E-07-1.13486E-18-9.47568E-19
 -1      2323 9.53713E-05-2.85124E-05-2.86513E-05-2.76767E-07-1.03233E-18-2.90129E-19
 -1      2324 9.53294E-05-2.85149E-05-2.86346E-05-2.24781E-07-4.09375E-19 2.51100E-19
 -1      2325 9.53665E-05-2.84637E-05-2.86739E-05-3.65378E-07-7.53035E-19 3.67959E-20
 -1      2326 9.53061E-05-2.85215E-05-2.86202E-05-1.74427E-07-5.38442E-19-3.97172E-19
 -1      2327 9.52784E-05-2.85247E-05-2.86086E-05-1.37338E-07-6.37414E-19-7.50214E-19
 -1      2328 9.53126E-05-2.84889E-05-2.86397E-05-2.37194E-07-1.14026E-18-4.51601E-19
 -1      2329 9.52625E-05-2.85301E-05-2.85983E-05-1.01646E-07-4.64694E-19-2.20441E-19
 -1      2330 9.52451E-05-2.85335E-05-2.85905E-05-7.58675E-08-9.34454E-20-6.79521E-19
 -1      2331 9.52753E-05-2.85093E-05-2.86148E-05-1.44842E-07-6.62384E-19 1.86742E-19
 -1      2332 9.52346E-05-2.85379E-05-2.85834E-05-5.12606E-08-2.84051E-19-1.01161E-18
 -1      2333 9.52245E-05-2.85412E-05-2.85785E-05-3.39185E-08-6.07219E-19-1.48806E-18
 -1      2334 9.52503E-05-2.85254E-05-2.85970E-05-7.99065E-08-3.11295E-19-1.34707E-19
 -1      2335 9.52181E-05-2.85447E-05-2.85737E-05-1.75406E-08 1.35882E-19-3.24750E-20
 -1      2336 9.52131E-05-2.85477E-05-2.85708E-05-6.37005E-09 9.81968E-19 5.51623E-19
 -1      2337 9.52345E-05-2.85380E-05-2.85847E-05-3.55870E-08 5.48616E-19 6.19456E-19
 -1      2338 9.52094E-05-2.85505E-05-2.85677E-05 4.02122E-09 1.43261E-18 8.80674E-19
 -1      2339 9.52078E-05-2.85532E-05-2.85662E-05 1.07753E-08 2.08690E-18 4.56806E-19
 -1      2340 9.52252E-05-2.85477E-05-2.85764E-05-6.47934E-09 1.38982E-18 1.94143E-18
 -1      2341 9.52061E-05-2.85553E-05-2.85644E-05 1.69106E-08 2.08409E-18-1.89552E-19
 -1      2342 9.52067E-05-2.85576E-05-2.85638E-05 2.05855E-08 1.31954E-18 1.06450E-19
 -1      2343 9.52205E-05-2.85550E-05-2.85711E-05 1.16370E-08 1.31758E-18 1.42639E-18
 -1      2344 9.52063E-05-2.85592E-05-2.85629E-05 2.37772E-08 1.40896E-18 9.41764E-22
 -1      2345 9.52082E-05-2.85612E-05-2.85629E-05 2.53725E-08 8.70217E-19 1.32174E-18
 -1      2346 9.52188E-05-2.85604E-05-2.85680E-05 2.20017E-08 1.27552E-18 1.59328E-18
 -1      2347 9.52086E-05-2.85624E-05-2.85626E-05 2.65958E-08 6.06967E-20 1.28595E-18
 -1      2348 9.52111E-05-2.85640E-05-2.85630E-05 2.68425E-08-4.92346E-19 1.37466E-18
 -1      2349 9.52191E-05-2.85644E-05-2.85664E-05 2.70559E-08 6.70868E-19 1.78766E-18
 -1      2350 9.52120E-05-2.85649E-05-2.85630E-05 2.68050E-08-1.23268E-18 1.85497E-18
 -1      2351 9.52148E-05-2.85663E-05-2.85636E-05 2.62217E-08-3.34875E-19 1.32564E-18
 -1      2352 9.52206E-05-2.85673E-05-2.85657E-05 2.85996E-08-6.33260E-19 2.03851E-18
 -1      2353 9.52160E-05-2.85670E-05-2.85639E-05 2.54201E-08-1.51356E-19 1.05205E-18
 -1      2354 9.52188E-05-2.85681E-05-2.85646E-05 2.43598E-08 4.13410E-19 1.09826E-18
 -1      2355 9.52227E-05-2.85693E-05-2.85658E-05 2.79249E-08-7.56075E-19 1.50477E-18
 -1      2356 9.52200E-05-2.85686E-05-2.85649E-05 2.31262E-08 1.45792E-18 5.79537E-19
 -1      2357 9.52227E-05-2.85695E-05-2.85656E-05 2.18116E-08 1.66314E-18 6.54839E-19
 -1      2358 9.52252E-05-2.85708E-05-2.85662E-05 2.59245E-08 4.99330E-19 6.16942E-19
 -1      2359 9.52239E-05-2.85700E-05-2.85660E-05 2.03494E-08 1.09896E-18 1.14285E-18
 -1      2360 9.52264E-05-2.85708E-05-2.85667E-05 1.89014E-08 1.14487E-18 1.18338E-18
 -1      2361 9.52277E-05-2.85719E-05-2.85668E-05 2.31806E-08 1.04779E-18 7.95554E-19
 -1      2362 9.52275E-05-2.85712E-05-2.85671E-05 1.73144E-08 1.06485E-18 9.85982E-19
 -1      2363 9.52297E-05-2.85719E-05-2.85676E-05 1.57769E-08 1.92802E-20 9.25567E-19
 -1      2364 9.52301E-05-2.85729E-05-2.85674E-05 2.00328E-08 9.20771E-19 1.89560E-18
 -1      2365 9.52308E-05-2.85723E-05-2.85679E-05 1.40985E-08-1.15358E-18 1.00220E-18
 -1      2366 9.52326E-05-2.85730E-05-2.85684E-05 1.24611E-08-1.57241E-18 4.56034E-19
 -1      2367 9.52324E-05-2.85738E-05-2.85680E-05 1.66421E-08-1.82347E-19 6.23672E-19
 -1      2368 1.08893E-04-3.48288E-05-3.17762E-05 6.01164E-06 5.03449E-19 1.62727E-18
 -1      2369 1.09669E-04-3.50549E-05-3.19662E-05 4.73030E-06 5.80396E-19 1.81070E-18
 -1      2370 1.07393E-04-3.35909E-05-3.16276E-05 8.54953E-06 4.26721E-19 1.55983E-18
 -1      2371 1.08691E-04-3.45344E-05-3.17998E-05 7.54954E-06 4.42011E-19 1.64456E-18
 -1      2372 1.10618E-04-3.59349E-05-3.19869E-05 7.38855E-06 5.28265E-19 1.48492E-18
 -1      2373 1.04792E-04-3.08826E-05-3.16250E-05 9.40356E-06 9.10938E-19 1.46650E-18
 -1      2374 1.06451E-04-3.24552E-05-3.17540E-05 9.39858E-06 6.34006E-19 1.44489E-18
 -1      2375 1.09441E-04-3.40641E-05-3.22717E-05 1.00595E-05 6.26115E-19 1.51093E-18
 -1      2376 1.01768E-04-2.75254E-05-3.17437E-05 7.21103E-06 1.13416E-18 1.23249E-18
 -1      2377 1.03281E-04-2.91527E-05-3.18128E-05 8.67106E-06 1.06501E-18 1.53027E-18
 -1      2378 1.06832E-04-3.03690E-05-3.27604E-05 1.04032E-05 8.96915E-19 1.34489E-18
 -1      2379 9.98364E-05-2.53452E-05-3.18727E-05 1.93160E-06 4.59277E-19 1.20951E-18
 -1      2380 1.00489E-04-2.60965E-05-3.18899E-05 4.58269E-06 8.04661E-19 1.20218E-18
 -1      2381 1.03784E-04-2.62634E-05-3.32505E-05 6.90848E-06 9.16033E-19 1.59713E-18
 -1      2382 1.00260E-04-2.57945E-05-3.19157E-05-4.35096E-06 7.77040E-19 5.43302E-19
 -1      2383 9.97288E-05-2.52225E-05-3.18851E-05-1.61377E-06 6.29008E-19 8.14054E-19
 -1      2384 1.02272E-04-2.43190E-05-3.34713E-05 2.37492E-07 9.67226E-19 1.19338E-18
 -1      2385 1.02849E-04-2.86070E-05-3.18594E-05-8.91227E-06 8.02054E-19-3.51194E-19
 -1      2386 1.01375E-04-2.70367E-05-3.17836E-05-7.22431E-06 9.80408E-19-1.16467E-20
 -1      2387 1.03351E-04-2.57559E-05-3.32971E-05-6.71768E-06 1.18009E-18 5.83564E-20
 -1      2388 1.06112E-04-3.20890E-05-3.17691E-05-1.01182E-05 9.22909E-19-5.52070E-19
 -1      2389 1.04374E-04-3.03895E-05-3.16511E-05-9.94303E-06 8.33671E-19-5.02032E-19
 -1      2390 1.06223E-04-2.96499E-05-3.28013E-05-1.07960E-05 9.27198E-19-7.14970E-19
 -1      2391 1.08513E-04-3.45757E-05-3.17140E-05-8.28980E-06 6.07746E-20-4.24096E-19
 -1      2392 1.07139E-04-3.34403E-05-3.15770E-05-9.31173E-06 3.48025E-19-6.26460E-19
 -1      2393 1.08991E-04-3.37153E-05-3.22115E-05-1.08426E-05 4.65723E-19-6.15322E-19
 -1      2394 1.09383E-04-3.54481E-05-3.16956E-05-4.92142E-06 5.22950E-19-1.74900E-19
 -1      2395 1.08667E-04-3.50576E-05-3.15830E-05-6.46120E-06 6.55038E-19 1.51465E-19
 -1      2396 1.10270E-04-3.61530E-05-3.17277E-05-7.89789E-06 1.00833E-20-7.29314E-19
 -1      2397 1.08936E-04-3.50563E-05-3.16599E-05-1.45743E-06-3.28606E-19-3.58934E-19
 -1      2398 1.08853E-04-3.52205E-05-3.16110E-05-2.94826E-06-1.06018E-19-1.17401E-19
 -1      2399 1.09879E-04-3.65641E-05-3.14063E-05-3.86647E-06 2.22254E-19-5.14337E-20
 -1      2400 1.07670E-04-3.40149E-05-3.15594E-05 1.28518E-06-3.03810E-19-2.98236E-19
 -1      2401 1.08053E-04-3.44645E-05-3.15897E-05 1.44929E-07-1.40687E-19-4.55810E-19
 -1      2402 1.08402E-04-3.56089E-05-3.11989E-05-1.70090E-07-3.51641E-19-4.29235E-19
 -1      2403 1.06036E-04-3.28128E-05-3.13746E-05 3.05959E-06-1.30198E-20 9.64162E-21
 -1      2404 1.06699E-04-3.33426E-05-3.14775E-05 2.34561E-06-1.06792E-19-3.84747E-20
 -1      2405 1.06476E-04-3.40856E-05-3.10340E-05 2.53635E-06-8.56529E-20-2.02252E-19
 -1      2406 1.04332E-04-3.17191E-05-3.11141E-05 3.95702E-06-3.58115E-19-2.04468E-19
 -1      2407 1.05123E-04-3.22154E-05-3.12698E-05 3.61592E-06 3.48111E-20 8.93570E-20
 -1      2408 1.04529E-04-3.25521E-05-3.08585E-05 4.15524E-06-9.58305E-20-1.27328E-19
 -1      2409 1.02718E-04-3.08322E-05-3.08039E-05 4.19971E-06-2.57577E-19-3.45968E-21
 -1      2410 1.03531E-04-3.12498E-05-3.09884E-05 4.13105E-06-4.76100E-19 1.11559E-19
 -1      2411 1.02769E-04-3.12738E-05-3.06508E-05 4.86883E-06-4.47724E-19-1.99909E-19
 -1      2412 1.01270E-04-3.01569E-05-3.04735E-05 4.01800E-06 4.63495E-19-4.40572E-19
 -1      2413 1.02039E-04-3.04886E-05-3.06657E-05 4.12204E-06 3.37733E-19-1.35296E-19
 -1      2414 1.01260E-04-3.03149E-05-3.04134E-05 4.93995E-06 2.27404E-19 2.34328E-20
 -1      2415 1.00014E-04-2.96610E-05-3.01482E-05 3.59938E-06 6.41379E-19-5.00595E-19
 -1      2416 1.00704E-04-2.99157E-05-3.03327E-05 3.79650E-06 4.29257E-19-7.51123E-19
 -1      2417 9.99988E-05-2.96419E-05-3.01598E-05 4.61117E-06 5.89856E-19-7.66631E-20
 -1      2418 9.89522E-05-2.93047E-05-2.98463E-05 3.07761E-06 3.84117E-19 5.33078E-19
 -1      2419 9.95468E-05-2.94959E-05-3.00135E-05 3.31199E-06 6.47725E-19-7.45497E-22
 -1      2420 9.89590E-05-2.91911E-05-2.99065E-05 4.07051E-06 1.68054E-19-1.45224E-19
 -1      2421 9.80742E-05-2.90522E-05-2.95785E-05 2.53902E-06-1.02972E-18 1.14430E-18
 -1      2422 9.85706E-05-2.91935E-05-2.97234E-05 2.77533E-06 4.27338E-20 1.09357E-18
 -1      2423 9.81101E-05-2.88997E-05-2.96668E-05 3.44861E-06-1.66727E-19 1.36175E-18
 -1      2424 9.73622E-05-2.88754E-05-2.93493E-05 2.03395E-06-1.20155E-18-6.66158E-19
 -1      2425 9.77657E-05-2.89783E-05-2.94708E-05 2.25217E-06-1.29620E-18 1.25508E-19
 -1      2426 9.74239E-05-2.87177E-05-2.94501E-05 2.82825E-06-3.27165E-19 7.08241E-19
 -1      2427 9.67956E-05-2.87533E-05-2.91591E-05 1.58785E-06 6.01559E-20-1.29508E-18
 -1      2428 9.71160E-05-2.88269E-05-2.92579E-05 1.77836E-06-4.14590E-19-1.21923E-18
 -1      2429 9.68751E-05-2.86084E-05-2.92613E-05 2.25673E-06-1.55481E-19-1.65733E-18
 -1      2430 9.63531E-05-2.86704E-05-2.90052E-05 1.21013E-06-2.95454E-19-1.22301E-18
 -1      2431 9.66018E-05-2.87220E-05-2.90836E-05 1.36989E-06-3.62342E-19-1.33578E-18
 -1      2432 9.64417E-05-2.85462E-05-2.91017E-05 1.75704E-06-2.51986E-19-1.98818E-18
 -1      2433 9.60138E-05-2.86154E-05-2.88836E-05 9.00547E-07 5.01009E-19-1.09390E-18
 -1      2434 9.62028E-05-2.86507E-05-2.89444E-05 1.03038E-06 1.31889E-19-9.22231E-19
 -1      2435 9.61043E-05-2.85140E-05-2.89704E-05 1.33654E-06-3.70699E-20-2.02749E-18
 -1      2436 9.57589E-05-2.85802E-05-2.87897E-05 6.53582E-07-1.18004E-19-4.86580E-19
 -1      2437 9.58993E-05-2.86036E-05-2.88357E-05 7.56338E-07 1.71781E-19-6.42075E-19
 -1      2438 9.58457E-05-2.85005E-05-2.88649E-05 9.93242E-07 1.72937E-19-1.87966E-18
 -1      2439 9.55712E-05-2.85588E-05-2.87186E-05 4.61232E-07 1.11520E-19 6.46829E-19
 -1      2440 9.56731E-05-2.85736E-05-2.87527E-05 5.40648E-07 4.88216E-20 2.15288E-19
 -1      2441 9.56509E-05-2.84981E-05-2.87820E-05 7.20071E-07-4.35655E-19-1.17464E-18
 -1      2442 9.54364E-05-2.85470E-05-2.86661E-05 3.14763E-07 3.33411E-19 5.63257E-19
 -1      2443 9.55083E-05-2.85557E-05-2.86907E-05 3.74762E-07 4.11498E-19 9.36893E-19
 -1      2444 9.55069E-05-2.85021E-05-2.87181E-05 5.07676E-07 1.66079E-19-1.01421E-18
 -1      2445 9.53422E-05-2.85416E-05-2.86282E-05 2.05713E-07-2.90758E-19-3.56699E-19
 -1      2446 9.53913E-05-2.85461E-05-2.86455E-05 2.50012E-07-6.41518E-20 5.70315E-19
 -1      2447 9.54027E-05-2.85094E-05-2.86700E-05 3.46138E-07 3.97674E-19-1.01828E-18
 -1      2448 9.52785E-05-2.85403E-05-2.86016E-05 1.26428E-07-5.33270E-19 1.74882E-19
 -1      2449 9.53107E-05-2.85419E-05-2.86134E-05 1.58337E-07-3.27960E-19-6.84950E-20
 -1      2450 9.53292E-05-2.85179E-05-2.86345E-05 2.25976E-07-2.17566E-19-8.87269E-19
 -1      2451 9.52375E-05-2.85415E-05-2.85836E-05 7.02887E-08 2.31285E-19 2.58826E-19
 -1      2452 9.52573E-05-2.85414E-05-2.85912E-05 9.26372E-08 1.50272E-20 2.35204E-19
 -1      2453 9.52790E-05-2.85266E-05-2.86090E-05 1.38673E-07 1.29902E-19 7.02890E-19
 -1      2454 9.52128E-05-2.85442E-05-2.85720E-05 3.17623E-08 9.37679E-19 1.10386E-18
 -1      2455 9.52239E-05-2.85430E-05-2.85766E-05 4.68926E-08 3.15308E-19 4.99435E-19
 -1      2456 9.52460E-05-2.85348E-05-2.85912E-05 7.68924E-08 1.33398E-19 1.46675E-18
 -1      2457 9.51995E-05-2.85476E-05-2.85649E-05 6.34872E-09 7.18250E-19 1.82309E-18
 -1      2458 9.52046E-05-2.85458E-05-2.85674E-05 1.61499E-08 1.29704E-18 1.95991E-18
 -1      2459 9.52256E-05-2.85421E-05-2.85791E-05 3.45170E-08 2.89343E-19 1.92697E-18
 -1      2460 9.51940E-05-2.85512E-05-2.85611E-05-9.52744E-09-4.40475E-19 2.45176E-18
 -1      2461 9.51952E-05-2.85492E-05-2.85622E-05-3.56622E-09 5.96610E-19 2.33643E-18
 -1      2462 9.52142E-05-2.85484E-05-2.85714E-05 6.57949E-09 4.85561E-19 2.70467E-18
 -1      2463 9.51937E-05-2.85546E-05-2.85595E-05-1.86453E-08-1.08313E-18 1.08800E-18
 -1      2464 9.51923E-05-2.85526E-05-2.85596E-05-1.53754E-08-1.17229E-18 1.93973E-18
 -1      2465 9.52088E-05-2.85537E-05-2.85667E-05-1.08620E-08-1.98948E-19 2.10229E-18
 -1      2466 9.51965E-05-2.85578E-05-2.85594E-05-2.31190E-08-9.90689E-19 2.10961E-18
 -1      2467 9.51937E-05-2.85559E-05-2.85589E-05-2.16736E-08-5.04186E-19 1.36395E-18
 -1      2468 9.52075E-05-2.85580E-05-2.85643E-05-2.08687E-08-6.93499E-19 2.30999E-18
 -1      2469 9.52011E-05-2.85607E-05-2.85601E-05-2.45199E-08 3.22279E-20 1.50127E-18
 -1      2470 9.51975E-05-2.85590E-05-2.85593E-05-2.42607E-08-1.19361E-18 1.29117E-18
 -1      2471 9.52088E-05-2.85615E-05-2.85633E-05-2.57668E-08-1.01160E-18 2.82740E-18
 -1      2472 9.52065E-05-2.85632E-05-2.85614E-05-2.39839E-08 2.53770E-19 2.25063E-18
 -1      2473 9.52027E-05-2.85617E-05-2.85604E-05-2.44550E-08 4.33360E-19 1.40835E-18
 -1      2474 9.52117E-05-2.85642E-05-2.85632E-05-2.72829E-08-8.15135E-20 1.24683E-18
 -1      2475 9.52120E-05-2.85653E-05-2.85629E-05-2.23021E-08 6.54595E-19 1.45242E-18
 -1      2476 9.52083E-05-2.85640E-05-2.85619E-05-2.31916E-08 6.00157E-19 1.93664E-18
 -1      2477 9.52152E-05-2.85664E-05-2.85638E-05-2.66625E-08 8.63338E-20 2.82981E-18
 -1      2478 9.52174E-05-2.85672E-05-2.85644E-05-1.99940E-08 1.54291E-18 2.08283E-18
 -1      2479 9.52140E-05-2.85660E-05-2.85634E-05-2.11040E-08 1.42616E-18 1.87917E-18
 -1      2480 9.52191E-05-2.85682E-05-2.85647E-05-2.47701E-08 8.37293E-19 1.44706E-18
 -1      2481 9.52224E-05-2.85687E-05-2.85659E-05-1.73648E-08 4.50365E-19 3.53965E-18
 -1      2482 9.52193E-05-2.85678E-05-2.85650E-05-1.85890E-08 5.90968E-19 3.01321E-18
 -1      2483 9.52229E-05-2.85696E-05-2.85657E-05-2.21709E-08 4.65642E-19 1.84476E-18
 -1      2484 9.52268E-05-2.85702E-05-2.85672E-05-1.45394E-08-4.72787E-20 3.35097E-18
 -1      2485 9.52241E-05-2.85693E-05-2.85664E-05-1.58542E-08-5.43421E-19 3.15293E-18
 -1      2486 9.52265E-05-2.85708E-05-2.85667E-05-1.92102E-08-1.70096E-19 3.59949E-18
 -1      2487 9.52306E-05-2.85715E-05-2.85682E-05-1.15428E-08 9.47166E-19 4.56411E-18
 -1      2488 9.52284E-05-2.85707E-05-2.85676E-05-1.29630E-08 7.06242E-19 4.06932E-18
 -1      2489 9.52298E-05-2.85719E-05-2.85676E-05-1.60294E-08-4.16613E-19 3.16503E-18
 -1      2490 9.52338E-05-2.85727E-05-2.85691E-05-8.35914E-09 6.57351E-20 4.38307E-18
 -1      2491 9.52320E-05-2.85720E-05-2.85686E-05-9.88618E-09 1.18226E-18 5.23486E-18
 -1      2492 9.52327E-05-2.85730E-05-2.85684E-05-1.26194E-08 3.19518E-19 4.64167E-18
 -1      2493 9.52350E-05-2.85731E-05-2.85694E-05-6.45980E-09-2.72743E-19 3.40915E-18
 -1      2494 9.52436E-05-2.85858E-05-2.85676E-05-9.52891E-09 1.06506E-18-2.16337E-18
 -1      2495 9.52426E-05-2.85843E-05-2.85678E-05-1.04684E-08 9.03143E-19-2.63968E-18
 -1      2496 9.52451E-05-2.85880E-05-2.85673E-05-6.65497E-09 1.24837E-18 7.20672E-19
 -1      2497 9.52444E-05-2.85869E-05-2.85675E-05-8.09248E-09 1.17467E-18-1.22279E-18
 -1      2498 9.52446E-05-2.85859E-05-2.85681E-05-1.00186E-08 2.18872E-18-1.86564E-18
 -1      2499 9.52391E-05-2.85795E-05-2.85684E-05-1.15347E-08 6.61608E-20-5.37246E-19
 -1      2500 9.52377E-05-2.85776E-05-2.85686E-05-1.11064E-08 5.38836E-19 9.40097E-19
 -1      2501 9.52415E-05-2.85828E-05-2.85680E-05-1.12379E-08-3.87002E-19-2.01294E-18
 -1      2502 9.52403E-05-2.85811E-05-2.85682E-05-1.14925E-08-4.14669E-19-5.38626E-19
 -1      2503 9.52396E-05-2.85800E-05-2.85684E-05-1.31981E-08-4.40610E-20-1.04201E-18
 -1      2504 9.52423E-05-2.85831E-05-2.85682E-05-1.23995E-08 1.35261E-18-1.36587E-18
 -1      2505 9.52460E-05-2.85893E-05-2.85671E-05-3.01946E-09-1.59838E-18-1.57893E-18
 -1      2506 9.52457E-05-2.85887E-05-2.85672E-05-4.76560E-09-3.89869E-19-1.15975E-18
 -1      2507 9.52462E-05-2.85878E-05-2.85679E-05-6.48271E-09-2.30542E-19-1.83891E-18
 -1      2508 9.52462E-05-2.85895E-05-2.85671E-05 9.52145E-10-1.90281E-18-7.38426E-19
 -1      2509 9.52462E-05-2.85895E-05-2.85671E-05-8.97598E-10-1.95502E-18-9.03940E-19
 -1      2510 9.52471E-05-2.85888E-05-2.85679E-05-2.22234E-09-1.41633E-18-1.26753E-18
 -1      2511 9.52456E-05-2.85887E-05-2.85672E-05 4.81667E-09-8.29581E-19-2.28138E-18
 -1      2512 9.52460E-05-2.85893E-05-2.85671E-05 3.07326E-09-1.64875E-18-1.16063E-18
 -1      2513 9.52471E-05-2.85888E-05-2.85679E-05 2.28217E-09-2.24637E-18-4.35414E-19
 -1      2514 9.52444E-05-2.85869E-05-2.85675E-05 8.08671E-09 3.48485E-19-5.35289E-18
 -1      2515 9.52451E-05-2.85880E-05-2.85673E-05 6.67430E-09-2.67922E-20-5.06226E-18
 -1      2516 9.52462E-05-2.85878E-05-2.85679E-05 6.50672E-09-8.93165E-19-3.53153E-18
 -1      2517 9.52426E-05-2.85843E-05-2.85678E-05 1.04650E-08 1.12742E-18-4.56916E-19
 -1      2518 9.52436E-05-2.85858E-05-2.85676E-05 9.52522E-09 8.60607E-19-4.09360E-18
 -1      2519 9.52446E-05-2.85859E-05-2.85681E-05 1.00157E-08 4.50457E-19-4.22206E-18
 -1      2520 9.52403E-05-2.85811E-05-2.85682E-05 1.15266E-08 1.12237E-18 2.90207E-18
 -1      2521 9.52415E-05-2.85828E-05-2.85680E-05 1.12527E-08 4.58997E-19 3.06610E-18
 -1      2522 9.52423E-05-2.85832E-05-2.85682E-05 1.23963E-08 8.12357E-19 4.60075E-19
 -1      2523 9.52377E-05-2.85776E-05-2.85686E-05 1.10217E-08-7.78139E-19 3.59983E-18
 -1      2524 9.52390E-05-2.85794E-05-2.85684E-05 1.15198E-08-1.08814E-19 2.52655E-18
 -1      2525 9.52395E-05-2.85799E-05-2.85684E-05 1.32136E-08 3.12412E-19 2.01129E-18
 -1      2526 2.68915E-05-2.18380E-05-1.99786E-06 2.39020E-05 2.15040E-19 2.06380E-18
 -1      2527 2.06372E-05-1.67951E-05-1.31843E-06 9.38207E-06-2.39393E-19 4.89754E-18
 -1      2528 9.47700E-05-5.13895E-05-1.86122E-05 4.18923E-05 6.75509E-19 2.42900E-19
 -1      2529 7.69763E-05-4.52082E-05-1.33297E-05 4.21098E-05-9.59265E-20 3.85294E-19
 -1      2530 1.07874E-04-5.54571E-05-2.21482E-05 3.49455E-05-1.28114E-19-3.04138E-19
 -1      2531 1.09374E-04-3.46861E-05-3.20535E-05 3.36770E-06 6.73623E-19 1.79685E-18
 -1      2532 1.09766E-04-3.43931E-05-3.22605E-05 2.42500E-06 7.96302E-19 1.91517E-18
 -1      2533 1.10436E-04-3.58481E-05-3.19701E-05 4.29381E-06 7.31309E-19 1.51099E-18
 -1      2534 9.52360E-05-2.85749E-05-2.85691E-05 8.10853E-09-8.11724E-19 1.54355E-18
 -1      2535 2.22035E-05-1.66913E-05-1.96100E-06-9.88112E-06 9.57147E-19 6.86732E-18
 -1      2536 2.95860E-05-2.23482E-05-2.79406E-06-2.41120E-05 1.25456E-18 6.33496E-18
 -1      2537 5.50525E-05-3.45171E-05-8.74450E-06 4.10724E-05-2.02864E-19 3.97682E-19
 -1      2538 3.94398E-05-2.79564E-05-4.63189E-06 3.28412E-05 1.61995E-19 8.56562E-19
 -1      2539 7.75921E-05-4.59462E-05-1.32416E-05-4.03749E-05 1.92022E-18 3.57056E-18
 -1      2540 9.96174E-05-5.36522E-05-1.97840E-05-3.96726E-05 1.29236E-18 2.34648E-18
 -1      2541 1.05685E-04-2.36899E-05-3.51670E-05-4.36036E-06-1.63268E-18 3.14673E-19
 -1      2542 1.07773E-04-2.79212E-05-3.42686E-05-8.77749E-07-1.47469E-18 5.30895E-19
 -1      2543 1.05083E-04-2.67955E-05-3.35619E-05 2.55674E-07-1.27149E-18 3.89271E-20
 -1      2544 1.00715E-04-2.02439E-05-3.45030E-05-3.37381E-06-1.53484E-18-3.27246E-19
 -1      2545 1.48349E-04-1.30565E-05-5.84545E-05-2.75469E-06-4.42151E-18 9.87746E-19
 -1      2546 1.50588E-04-1.74242E-05-5.72534E-05-5.02333E-06-4.87425E-18 1.09691E-18
 -1      2547 2.38642E-05-1.91146E-05-1.89004E-06-2.18502E-05-7.90917E-20-4.69616E-18
 -1      2548 3.51631E-05-2.43377E-05-4.60575E-06-3.34716E-05 6.28922E-20-4.57313E-18
 -1      2549 6.81091E-05-1.40370E-06-2.86113E-05-9.28056E-07 1.96516E-19-2.41777E-18
 -1      2550 6.89661E-05-1.76785E-06-2.88027E-05-2.86009E-07 1.64009E-20-2.33645E-18
 -1      2551 6.99270E-05-3.45065E-06-2.84549E-05 8.46992E-07-1.21463E-20-2.13821E-18
 -1      2552 6.80480E-05-2.41845E-06-2.80836E-05-1.71573E-06 1.58271E-19-2.30193E-18
 -1      2553 1.43061E-04-4.64361E-05-4.14356E-05-3.21395E-06 1.75786E-18 2.29758E-19
 -1      2554 1.45188E-04-3.69418E-05-4.70388E-05 4.25604E-06 2.76779E-18 1.90159E-19
 -1      2555 1.44661E-04-1.16138E-05-5.74251E-05 3.11057E-06 4.82597E-18-1.01189E-18
 -1      2556 1.43830E-04-1.01677E-05-5.78283E-05 2.01867E-07 4.70188E-18-1.26998E-18
 -1      2557 6.98737E-05-4.02092E-05-1.27348E-05 4.22057E-05 6.09864E-19-3.11983E-18
 -1      2558 5.15694E-05-3.27027E-05-7.88194E-06 3.71279E-05 9.70276E-19-3.73584E-18
 -1      2559 1.42740E-04-2.31595E-05-5.17119E-05 7.09812E-06 4.02044E-18-1.95453E-19
 -1      2560 1.45121E-04-1.65428E-05-5.54305E-05 5.51545E-06 4.73661E-18-3.61471E-19
 -1      2561 1.24739E-04-5.51688E-05-2.98038E-05-2.64648E-05 3.15943E-19-1.45033E-18
 -1      2562 1.36178E-04-5.39879E-05-3.57884E-05-1.74340E-05 9.00025E-19-2.17264E-19
 -1      2563 9.78096E-05-5.03691E-05-2.00443E-05-3.84105E-05-7.82235E-19-2.54520E-18
 -1      2564 1.12970E-04-5.38413E-05-2.54299E-05-3.52354E-05-3.72694E-20-2.09588E-18
 -1      2565 1.22266E-04-5.67396E-05-2.78228E-05-2.58299E-05-8.91502E-19-7.81070E-19
 -1      2566 5.41766E-05-3.31127E-05-8.75025E-06-3.92308E-05-3.51942E-19-3.95861E-18
 -1      2567 7.46736E-05-4.10086E-05-1.44992E-05-4.36493E-05-4.68621E-19-3.39851E-18
 -1      2568 1.78660E-05-1.35630E-05-1.57095E-06 3.17138E-06 3.39713E-19-4.30716E-18
 -1      2569 1.88499E-05-1.37981E-05-1.84792E-06-9.70994E-06 4.09964E-19-4.53120E-18
 -1      2570 3.33325E-05-2.27054E-05-4.42577E-06 2.95371E-05 5.88053E-19-4.09752E-18
 -1      2571 2.20396E-05-1.72643E-05-1.81718E-06 1.59378E-05 8.43433E-19-4.22924E-18
 -1      2572 2.76851E-05-1.21525E-05-6.05248E-06 9.88793E-06 7.79906E-19-4.25825E-18
 -1      2573 1.07088E-04-5.37951E-05-2.29363E-05 3.71407E-05 9.31736E-20-1.70577E-18
 -1      2574 9.04208E-05-4.92716E-05-1.75412E-05 3.92693E-05 6.43957E-19-2.19540E-18
 -1      2575 1.34107E-04-5.63211E-05-3.36572E-05 2.12639E-05-1.28908E-18 1.38278E-19
 -1      2576 1.20782E-04-5.64948E-05-2.76047E-05 2.87736E-05-4.97632E-19-8.13575E-19
 -1      2577 1.18451E-04-5.73213E-05-2.59401E-05 2.90424E-05 6.64921E-19-3.48978E-19
 -1      2578 1.52367E-04-2.44988E-05-5.50435E-05-5.83625E-06-4.74974E-18 1.72774E-18
 -1      2579 1.50521E-04-3.10293E-05-5.15059E-05-5.14681E-06-4.33850E-18 1.88105E-18
 -1      2580 1.17851E-04-5.77321E-05-2.57092E-05-2.97346E-05 4.34104E-19 5.91017E-19
 -1      2581 1.32345E-04-5.80585E-05-3.21788E-05-2.39562E-05-7.53859E-19 3.62954E-19
 -1      2582 1.49578E-04-3.47445E-05-4.93797E-05 6.20694E-06-2.81067E-18-3.82224E-19
 -1      2583 1.49981E-04-2.73479E-05-5.30936E-05 7.06449E-06-3.28733E-18-1.30020E-19
 -1      2584 1.41307E-04-5.38894E-05-3.75353E-05-1.00525E-05-1.09431E-18-5.95041E-19
 -1      2585 1.48799E-04-4.66752E-05-4.42866E-05-8.64601E-07-2.02923E-18-1.08187E-18
 -1      2586 3.96268E-05-2.82754E-05-4.55933E-06-3.12757E-05 1.74870E-18 5.08199E-18
 -1      2587 5.33402E-05-3.42969E-05-8.12924E-06-3.92550E-05 1.69237E-18 4.37895E-18
 -1      2588 4.14552E-05-2.28399E-05-7.38590E-06-2.69483E-05 1.78766E-18 5.38162E-18
 -1      2589 1.49949E-04-2.90963E-05-5.20009E-05-2.87660E-06 3.76104E-18-1.85416E-18
 -1      2590 1.46774E-04-3.65467E-05-4.75196E-05-1.10223E-06 3.17002E-18-1.59623E-18
 -1      2591 1.09595E-04-3.00598E-05-3.41279E-05 4.22801E-06 1.77459E-18 2.54427E-18
 -1      2592 1.10116E-04-2.83819E-05-3.50572E-05 6.87313E-06 1.90940E-18 2.79741E-18
 -1      2593 1.07455E-04-2.56933E-05-3.51177E-05 7.64071E-06 2.06536E-18 2.08014E-18
 -1      2594 1.08042E-04-2.93545E-05-3.37795E-05 4.06616E-06 1.71825E-18 1.75240E-18
 -1      2595 1.35574E-04-3.68389E-05-4.25106E-05 9.80962E-06 1.83118E-18 1.30374E-18
 -1      2596 1.40408E-04-3.07157E-05-4.73260E-05 9.26538E-06 2.78134E-18 6.23734E-19
 -1      2597 1.31742E-04-2.43979E-05-4.65384E-05 1.30038E-05 2.87885E-18 9.66359E-19
 -1      2598 8.33127E-05-1.15998E-05-3.07454E-05 2.32965E-06-6.12954E-19-1.69005E-18
 -1      2599 8.43706E-05-1.07313E-05-3.16350E-05 6.84472E-07-7.73158E-19-1.71086E-18
 -1      2600 8.85474E-05-1.29153E-05-3.24358E-05-3.41312E-07-1.03470E-18-1.52116E-18
 -1      2601 1.09557E-04-3.43768E-05-3.22371E-05 2.27123E-06 9.93368E-19 1.39196E-18
 -1      2602 1.04022E-04-2.30998E-05-3.47231E-05 6.80615E-06 1.99094E-18 1.12818E-18
 -1      2603 1.45259E-04-4.34110E-05-4.38080E-05-4.41835E-08 2.45994E-18-1.34890E-18
 -1      2604 1.40703E-04-4.83691E-05-3.95853E-05 1.23016E-06 2.01326E-18-1.41010E-18
 -1      2605 1.40396E-04-3.88224E-05-4.39873E-05-8.11271E-06 2.64295E-18-1.80005E-18
 -1      2606 1.38375E-04-5.79279E-05-3.44403E-05-1.07305E-05-2.73274E-19-9.09502E-19
 -1      2607 1.42777E-04-1.24170E-05-5.62230E-05 2.85031E-07-3.90842E-18 6.25501E-19
 -1      2608 1.32924E-04-1.13639E-05-5.24809E-05-3.21452E-06-4.15088E-18 5.99117E-19
 -1      2609 1.33406E-04-1.14448E-05-5.29037E-05 3.71991E-06-3.75701E-18 1.97703E-19
 -1      2610 1.04058E-04-2.49849E-05-3.38413E-05 4.68807E-06 1.74565E-18 9.01084E-19
 -1      2611 1.35963E-04-5.62780E-05-3.47548E-05 1.00729E-05 8.82052E-19-1.26420E-18
 -1      2612 1.31982E-04-5.72171E-05-3.20055E-05 2.00637E-05 8.95102E-19-5.64971E-19
 -1      2613 1.27283E-04-5.89274E-05-2.90453E-05 2.09911E-05 2.11970E-19-1.01088E-18
 -1      2614 1.44487E-04-4.27497E-05-4.37254E-05 7.99373E-06-1.63837E-18-1.08907E-18
 -1      2615 1.12828E-04-5.75310E-05-2.35412E-05-3.12653E-05 1.54584E-18 1.24482E-18
 -1      2616 9.52352E-05-2.85741E-05-2.85690E-05-8.86544E-09 2.89694E-19 3.61248E-18
 -1      2617 9.52360E-05-2.85754E-05-2.85688E-05-9.93859E-09 1.16108E-18 2.33878E-18
 -1      2618 1.41326E-04-5.56143E-05-3.66461E-05 1.22798E-05-1.51725E-18 7.83082E-19
 -1      2619 1.36234E-04-5.83224E-05-3.31702E-05 1.34861E-05-3.73753E-19 1.13037E-18
 -1      2620 1.42944E-04-5.28121E-05-3.93607E-05 2.37284E-06-1.73454E-18 1.91154E-18
 -1      2621 2.98603E-05-1.32262E-05-6.73278E-06 8.37090E-06-1.06546E-18 4.21526E-18
 -1      2622 2.53363E-05-1.49552E-05-3.80034E-06-7.44944E-07-2.50986E-19 6.29854E-18
 -1      2623 3.16259E-05-1.36189E-05-7.36331E-06-9.80787E-06 2.86985E-19 5.60799E-18
 -1      2624 4.01801E-05-2.26481E-05-6.90898E-06 2.84300E-05-6.08699E-19 1.54181E-18
 -1      2625 7.26112E-05-4.01476E-05-1.34062E-05 4.03039E-05-8.07858E-19 1.67818E-19
 -1      2626 4.86496E-05-2.56056E-05-9.36305E-06 3.27926E-05 1.33577E-18-3.75320E-18
 -1      2627 8.62168E-05-4.55728E-05-1.70564E-05 3.89188E-05 1.35017E-18-2.20202E-18
 -1      2628 9.06189E-05-4.61053E-05-1.87084E-05-3.90881E-05-1.29871E-18-2.38614E-18
 -1      2629 2.80137E-05-1.33447E-05-5.75223E-06-1.59100E-05-1.70465E-19-4.47149E-18
 -1      2630 5.14927E-05-2.71694E-05-9.86659E-06-3.65121E-05-6.97320E-19-4.10324E-18
 -1      2631 1.49291E-04-3.84194E-05-4.78368E-05-5.70125E-06-3.77851E-18 2.12521E-18
 -1      2632 1.45057E-04-4.33942E-05-4.35595E-05-6.21841E-06-2.90628E-18 2.58578E-18
 -1      2633 1.41258E-04-3.29292E-05-4.71175E-05-1.22057E-05-3.69550E-18 2.61903E-18
 -1      2634 9.62678E-05-1.77039E-05-3.37072E-05-2.03941E-06-1.35871E-18-8.36478E-19
 -1      2635 7.27617E-05-4.00325E-05-1.34778E-05-3.85503E-05 2.07904E-18 3.80699E-18
 -1      2636 1.39840E-04-1.09314E-05-5.56198E-05-2.66197E-06 4.40076E-18-1.41534E-18
 -1      2637 1.32378E-04-1.11417E-05-5.25268E-05-5.89518E-06 3.93489E-18-1.60312E-18
 -1      2638 1.29918E-04-8.61886E-06-5.23765E-05-9.42730E-07 4.35333E-18-1.05383E-18
 -1      2639 1.34817E-04-1.28870E-05-5.26026E-05 6.82929E-06 4.35481E-18-5.04620E-19
 -1      2640 1.42014E-04-1.97768E-05-5.25963E-05-9.64586E-06-4.51363E-18 1.77210E-18
 -1      2641 1.42161E-04-2.32057E-05-5.13301E-05-8.84990E-06 3.59057E-18-1.72668E-18
 -1      2642 1.38745E-04-5.13789E-05-3.72944E-05-5.63508E-06 6.95718E-19 4.24575E-19
 -1      2643 1.42511E-04-2.17569E-05-5.20912E-05 1.07884E-05-3.17426E-18-2.81321E-19
 -1      2644 9.52345E-05-2.85738E-05-2.85689E-05 9.62824E-09-1.16488E-18 1.28382E-18
 -1      2645 9.52364E-05-2.85760E-05-2.85687E-05 1.06937E-08-1.37153E-18 3.40045E-18
 -1      2646 9.52364E-05-2.85765E-05-2.85685E-05 1.27812E-08-9.61298E-19 3.07588E-18
 -1      2647 9.52332E-05-2.85733E-05-2.85686E-05 1.12386E-08-1.46986E-18 1.37933E-18
 -1      2648 9.52359E-05-2.85759E-05-2.85686E-05-1.21565E-08 4.64983E-19 1.96435E-18
 -1      2649 9.52342E-05-2.85745E-05-2.85684E-05 1.35847E-08-1.42917E-18 1.85841E-18
 -1      2650 7.74208E-05-1.02526E-05-2.87293E-05-6.47805E-06 6.20776E-19-1.80925E-18
 -1      2651 7.39065E-05-8.21187E-06-2.82261E-05-6.54619E-06 4.62802E-19-1.96691E-18
 -1      2652 7.06013E-05-5.74347E-06-2.77558E-05-5.60749E-06 3.54747E-19-2.15061E-18
 -1      2653 6.83519E-05-4.39801E-06-2.74731E-05-4.70398E-06 2.19311E-19-2.16569E-18
 -1      2654 7.24599E-05-8.61243E-06-2.73331E-05-7.57113E-06 3.20749E-19-1.96272E-18
 -1      2655 9.31798E-05-2.01062E-05-3.13160E-05-2.02347E-06 1.18534E-18-8.11865E-19
 -1      2656 8.94641E-05-1.79495E-05-3.06755E-05-3.55476E-06 9.90753E-19-1.07254E-18
 -1      2657 9.99708E-05-2.41967E-05-3.24829E-05 1.19814E-06 1.39290E-18-3.41129E-20
 -1      2658 9.66413E-05-2.21503E-05-3.19277E-05-2.35581E-07 1.26169E-18-4.16757E-19
 -1      2659 9.67309E-05-2.40434E-05-3.11774E-05-2.43987E-06 1.05454E-18-4.64477E-19
 -1      2660 1.07612E-04-3.21789E-05-3.23725E-05 1.36302E-06 1.09905E-18 9.84055E-19
 -1      2661 1.07177E-04-3.05644E-05-3.27713E-05 1.96360E-06 1.23031E-18 9.65452E-19
 -1      2662 4.34731E-05-1.79749E-05-1.01489E-05-2.17737E-05 1.66172E-18 5.29205E-18
 -1      2663 5.18151E-05-2.39783E-05-1.16199E-05-3.02236E-05 1.86601E-18 3.73616E-18
 -1      2664 1.32904E-04-5.98919E-05-3.10534E-05-1.36682E-05 8.06587E-19-1.18870E-18
 -1      2665 1.38193E-04-5.67954E-05-3.56128E-05-3.04988E-06 2.40981E-19-1.24567E-18
 -1      2666 1.08394E-04-3.43173E-05-3.16384E-05 5.24551E-06-3.12850E-19 2.87822E-19
 -1      2667 1.10401E-04-3.70427E-05-3.14812E-05 4.95733E-06-1.17657E-19 3.79491E-19
 -1      2668 1.13891E-04-4.02028E-05-3.14475E-05 4.26904E-06 4.86912E-20 6.30239E-19
 -1      2669 1.16316E-04-4.27777E-05-3.15861E-05 2.48228E-06 2.19964E-20 5.97681E-19
 -1      2670 1.09801E-04-3.86208E-05-3.06358E-05 7.11739E-06 1.65941E-20 8.27379E-20
 -1      2671 1.20663E-04-4.55351E-05-3.20809E-05-2.00138E-07 8.07262E-20 1.24578E-18
 -1      2672 1.22693E-04-4.65398E-05-3.27072E-05-3.36234E-06-1.26221E-19 1.34944E-18
 -1      2673 1.17699E-04-4.55934E-05-3.10587E-05 4.44994E-06 2.80831E-19 7.59258E-19
 -1      2674 1.26415E-04-4.68785E-05-3.41251E-05-7.78439E-06-2.10461E-19 1.72039E-18
 -1      2675 1.26541E-04-4.44943E-05-3.52087E-05-1.08951E-05-6.52897E-19 1.84223E-18
 -1      2676 1.26102E-04-4.92546E-05-3.30402E-05-2.78464E-06-6.44539E-21 2.10554E-18
 -1      2677 1.30754E-04-3.99101E-05-3.92489E-05-1.43950E-05-1.91697E-18 2.24191E-18
 -1      2678 1.28343E-04-3.23625E-05-4.14210E-05-1.48979E-05-2.80220E-18 2.11001E-18
 -1      2679 1.19475E-04-1.51262E-05-4.52917E-05-2.02536E-06-3.15975E-18 2.19309E-19
 -1      2680 1.19838E-04-1.57642E-05-4.50891E-05 4.91578E-06-2.68594E-18 3.07671E-19
 -1      2681 1.25763E-04-3.62031E-05-3.84394E-05 1.57949E-05-6.84138E-19-1.35030E-18
 -1      2682 1.27446E-04-4.24797E-05-3.66132E-05 1.41997E-05 3.14646E-19-1.19400E-18
 -1      2683 1.25780E-04-4.59119E-05-3.43062E-05 9.56521E-06 1.28061E-19-8.13669E-19
 -1      2684 1.25049E-04-4.77721E-05-3.31096E-05 5.93014E-06 3.31746E-19-7.82526E-19
 -1      2685 1.30310E-04-4.75656E-05-3.55917E-05 9.36092E-06 5.23883E-19-1.03229E-18
 -1      2686 1.20938E-04-4.69666E-05-3.17956E-05 1.22527E-06 2.35796E-19-5.42468E-19
 -1      2687 1.18624E-04-4.56478E-05-3.11628E-05-2.14608E-06 4.34039E-19-5.32274E-19
 -1      2688 1.24125E-04-5.01318E-05-3.18445E-05 1.45948E-07 4.13200E-19-4.07853E-19
 -1      2689 1.14321E-04-4.29851E-05-3.06290E-05-5.03032E-06 4.10325E-19-2.76750E-19
 -1      2690 1.11684E-04-4.05816E-05-3.03664E-05-7.24470E-06 4.95508E-19-3.06422E-19
 -1      2691 1.15423E-04-4.58545E-05-2.99459E-05-7.06038E-06 4.91630E-19 2.77436E-19
 -1      2692 1.08399E-04-3.79076E-05-3.02335E-05-8.47434E-06 3.23368E-19-4.71136E-19
 -1      2693 1.06172E-04-3.56900E-05-3.01366E-05-9.58835E-06 1.54129E-19-6.03172E-20
 -1      2694 1.07802E-04-3.96303E-05-2.93279E-05-1.05324E-05 2.02206E-19 4.51349E-19
 -1      2695 1.04042E-04-3.36896E-05-3.01544E-05-9.81305E-06-6.24588E-20-3.12852E-20
 -1      2696 1.02392E-04-3.20650E-05-3.01023E-05-1.01437E-05-3.74425E-19 3.39781E-20
 -1      2697 1.02480E-04-3.43352E-05-2.92803E-05-1.15055E-05 2.88010E-19 4.11536E-19
 -1      2698 1.01148E-04-3.07924E-05-3.01460E-05-9.83869E-06-3.48873E-19 2.13974E-19
 -1      2699 9.99897E-05-2.97517E-05-3.00852E-05-9.68411E-06-4.63192E-19 1.98220E-19
 -1      2700 9.92015E-05-3.06906E-05-2.94058E-05-1.11454E-05-2.29771E-19 2.72024E-19
 -1      2701 9.93177E-05-2.90443E-05-3.01066E-05-9.13509E-06-5.06995E-19 4.27316E-19
 -1      2702 9.85077E-05-2.84412E-05-3.00236E-05-8.71522E-06-3.54109E-20 9.63868E-19
 -1      2703 9.73548E-05-2.85129E-05-2.95255E-05-1.01443E-05 1.49120E-21 1.08317E-18
 -1      2704 9.81666E-05-2.81087E-05-3.00126E-05-8.07686E-06 5.16576E-20 6.70813E-19
 -1      2705 9.75843E-05-2.77937E-05-2.99117E-05-7.53880E-06 2.78906E-19 2.76991E-19
 -1      2706 9.63818E-05-2.73812E-05-2.95811E-05-8.88524E-06-2.15553E-19 7.83788E-19
 -1      2707 9.74193E-05-2.76852E-05-2.98736E-05-6.89509E-06 6.06762E-19-6.30389E-19
 -1      2708 9.69844E-05-2.75445E-05-2.97642E-05-6.33088E-06 3.46729E-19-7.58779E-19
 -1      2709 9.58954E-05-2.69108E-05-2.95681E-05-7.56727E-06-2.02802E-19-5.36179E-19
 -1      2710 9.69060E-05-2.75577E-05-2.97086E-05-5.72751E-06 7.68253E-19-7.08432E-19
 -1      2711 9.65700E-05-2.75155E-05-2.95999E-05-5.19073E-06 8.48733E-19-6.03854E-19
 -1      2712 9.56605E-05-2.68226E-05-2.95027E-05-6.29916E-06 4.53035E-19-1.19920E-18
 -1      2713 9.65305E-05-2.75868E-05-2.95361E-05-4.65081E-06 3.85356E-19-4.41081E-19
 -1      2714 9.62651E-05-2.75963E-05-2.94344E-05-4.16924E-06 2.11952E-19-9.20921E-20
 -1      2715 9.55458E-05-2.69340E-05-2.94051E-05-5.13998E-06 8.51029E-19-8.17168E-19
 -1      2716 9.62414E-05-2.76892E-05-2.93694E-05-3.70205E-06-4.39322E-19-3.92297E-20
 -1      2717 9.60298E-05-2.77231E-05-2.92787E-05-3.28699E-06-4.36996E-19-4.40288E-19
 -1      2718 9.54839E-05-2.71346E-05-2.92926E-05-4.11828E-06-7.04883E-20 5.98643E-19
 -1      2719 9.60118E-05-2.78180E-05-2.92172E-05-2.89328E-06-5.10495E-19-7.21052E-19
 -1      2720 9.58434E-05-2.78609E-05-2.91390E-05-2.54608E-06-7.17382E-19-6.65811E-19
 -1      2721 9.54431E-05-2.73618E-05-2.91781E-05-3.24307E-06-5.28747E-19 3.46812E-19
 -1      2722 9.58275E-05-2.79483E-05-2.90836E-05-2.22157E-06-7.75567E-19-9.15889E-19
 -1      2723 9.56945E-05-2.79922E-05-2.90182E-05-1.93799E-06-4.21480E-19-4.95599E-19
 -1      2724 9.54102E-05-2.75824E-05-2.90697E-05-2.51096E-06-7.04304E-19 3.95386E-19
 -1      2725 9.56796E-05-2.80683E-05-2.89701E-05-1.67568E-06-1.76541E-19-9.11623E-19
 -1      2726 9.55759E-05-2.81092E-05-2.89166E-05-1.44874E-06-4.27427E-20-5.67040E-19
 -1      2727 9.53807E-05-2.77809E-05-2.89722E-05-1.91109E-06-5.28756E-19-3.82659E-19
 -1      2728 9.55623E-05-2.81730E-05-2.88761E-05-1.24046E-06 1.83917E-19-2.14294E-19
 -1      2729 9.54826E-05-2.82091E-05-2.88332E-05-1.06215E-06 1.39353E-19-5.35486E-19
 -1      2730 9.53538E-05-2.79515E-05-2.88876E-05-1.42867E-06-8.50972E-20-6.05110E-19
 -1      2731 9.54704E-05-2.82613E-05-2.87999E-05-8.99581E-07-1.04074E-19-5.03979E-19
 -1      2732 9.54103E-05-2.82921E-05-2.87662E-05-7.61891E-07-8.18824E-19-4.58983E-19
 -1      2733 9.53296E-05-2.80937E-05-2.88163E-05-1.04746E-06 3.14848E-20-4.98422E-19
 -1      2734 9.53999E-05-2.83339E-05-2.87394E-05-6.37133E-07-9.48286E-19 4.16850E-20
 -1      2735 9.53554E-05-2.83596E-05-2.87134E-05-5.32641E-07-6.71567E-19 4.03750E-19
 -1      2736 9.53086E-05-2.82094E-05-2.87576E-05-7.51305E-07-5.39872E-19 8.66642E-20
 -1      2737 9.53467E-05-2.83925E-05-2.86922E-05-4.38547E-07-1.10514E-18 5.23543E-19
 -1      2738 9.53145E-05-2.84135E-05-2.86725E-05-3.60665E-07-1.00819E-18 1.01890E-18
 -1      2739 9.52910E-05-2.83018E-05-2.87104E-05-5.25112E-07-9.41399E-19 8.00219E-19
 -1      2740 9.53074E-05-2.84390E-05-2.86560E-05-2.90998E-07-1.24705E-18 1.16654E-18
 -1      2741 9.52847E-05-2.84559E-05-2.86414E-05-2.34070E-07-1.25387E-18 1.02739E-18
 -1      2742 9.52766E-05-2.83744E-05-2.86730E-05-3.55387E-07-1.11194E-18 1.16214E-18
 -1      2743 9.52792E-05-2.84753E-05-2.86289E-05-1.83531E-07-1.28334E-18 1.25446E-18
 -1      2744 9.52637E-05-2.84886E-05-2.86182E-05-1.42826E-07-9.82885E-19 1.26782E-18
 -1      2745 9.52652E-05-2.84304E-05-2.86440E-05-2.30432E-07-1.21722E-18 2.38675E-18
 -1      2746 9.52594E-05-2.85031E-05-2.86088E-05-1.07012E-07-6.20042E-19 1.11220E-18
 -1      2747 9.52492E-05-2.85135E-05-2.86013E-05-7.86525E-08-4.61347E-20 1.00898E-18
 -1      2748 9.52565E-05-2.84730E-05-2.86219E-05-1.40370E-07-8.92095E-19 1.26357E-18
 -1      2749 9.52461E-05-2.85242E-05-2.85944E-05-5.39767E-08 3.09844E-19 1.59263E-18
 -1      2750 9.52398E-05-2.85321E-05-2.85892E-05-3.48456E-08 7.58102E-19 2.26990E-18
 -1      2751 9.52499E-05-2.85048E-05-2.86054E-05-7.70373E-08-1.40965E-19 1.99881E-18
 -1      2752 9.52375E-05-2.85398E-05-2.85842E-05-1.84403E-08 1.04054E-18 1.73422E-18
 -1      2753 9.52340E-05-2.85458E-05-2.85807E-05-6.07358E-09 1.44291E-18 1.64710E-18
 -1      2754 9.52451E-05-2.85282E-05-2.85932E-05-3.38183E-08 5.43939E-19 7.32414E-19
 -1      2755 9.52323E-05-2.85512E-05-2.85773E-05 4.31540E-09 1.46059E-18 1.92511E-18
 -1      2756 9.52307E-05-2.85556E-05-2.85751E-05 1.18315E-08 1.10045E-18 1.16699E-18
 -1      2757 9.52417E-05-2.85449E-05-2.85845E-05-5.44843E-09 1.02524E-18 4.79779E-19
 -1      2758 9.52296E-05-2.85593E-05-2.85728E-05 1.79449E-08 1.36241E-18 4.41567E-19
 -1      2759 9.52292E-05-2.85625E-05-2.85715E-05 2.20705E-08 1.33016E-18 7.75873E-19
 -1      2760 9.52393E-05-2.85566E-05-2.85785E-05 1.21895E-08 1.13294E-18 4.05144E-19
 -1      2761 9.52285E-05-2.85650E-05-2.85700E-05 2.52279E-08 8.01523E-19 8.69369E-19
 -1      2762 9.52289E-05-2.85672E-05-2.85693E-05 2.70557E-08 9.64293E-20 7.28426E-19
 -1      2763 9.52378E-05-2.85646E-05-2.85744E-05 2.22574E-08 7.09124E-19-1.10599E-19
 -1      2764 9.52285E-05-2.85688E-05-2.85684E-05 2.82366E-08 5.92978E-20 8.49556E-19
 -1      2765 9.52294E-05-2.85703E-05-2.85681E-05 2.85648E-08-2.66941E-19 1.01471E-18
 -1      2766 9.52369E-05-2.85698E-05-2.85717E-05 2.71372E-08 3.05758E-19 3.63088E-19
 -1      2767 9.52291E-05-2.85712E-05-2.85676E-05 2.84780E-08-8.25548E-19 1.61891E-18
 -1      2768 9.52303E-05-2.85723E-05-2.85677E-05 2.78725E-08-5.71978E-19 1.14869E-18
 -1      2769 9.52364E-05-2.85730E-05-2.85701E-05 2.85827E-08 1.18710E-19 9.32603E-19
 -1      2770 9.52302E-05-2.85728E-05-2.85674E-05 2.70140E-08-1.13244E-19 1.90484E-18
 -1      2771 9.52314E-05-2.85736E-05-2.85676E-05 2.58588E-08 1.13143E-18 1.45151E-18
 -1      2772 9.52362E-05-2.85749E-05-2.85692E-05 2.78504E-08-3.06852E-19 2.57168E-18
 -1      2773 9.52314E-05-2.85738E-05-2.85675E-05 2.45585E-08 1.39478E-18 1.15077E-18
 -1      2774 9.52326E-05-2.85744E-05-2.85678E-05 2.30962E-08 8.03436E-19 1.97046E-18
 -1      2775 9.52362E-05-2.85759E-05-2.85687E-05 2.58064E-08 9.83439E-19 2.16137E-18
 -1      2776 9.52328E-05-2.85746E-05-2.85678E-05 2.15561E-08 6.03618E-19 1.18049E-18
 -1      2777 9.52339E-05-2.85751E-05-2.85681E-05 1.99175E-08-1.45976E-19 9.70741E-19
 -1      2778 9.52364E-05-2.85766E-05-2.85685E-05 2.30130E-08 2.81804E-20 3.07628E-19
 -1      2779 9.52342E-05-2.85753E-05-2.85681E-05 1.82481E-08-2.59626E-19 1.01131E-18
 -1      2780 9.52352E-05-2.85758E-05-2.85683E-05 1.64892E-08-5.88919E-19 2.65757E-19
 -1      2781 9.52368E-05-2.85770E-05-2.85685E-05 1.97974E-08-3.65256E-19 6.21877E-19
 -1      2782 1.11767E-04-3.49045E-05-3.29103E-05 1.08129E-05 5.84154E-19 1.63210E-18
 -1      2783 1.12741E-04-3.67315E-05-3.26243E-05 9.80122E-06 5.55606E-19 1.77226E-18
 -1      2784 9.52375E-05-2.85777E-05-2.85685E-05-1.50634E-08 2.49776E-19-1.74167E-18
 -1      2785 9.52353E-05-2.85755E-05-2.85685E-05-1.39657E-08 5.29497E-19 1.33183E-18
 -1      2786 9.52340E-05-2.85749E-05-2.85682E-05-1.57922E-08-4.35414E-19 1.58774E-18
 -1      2787 1.12483E-04-3.75849E-05-3.21364E-05 7.75864E-06 3.99526E-19 1.49825E-18
 -1      2788 1.12717E-04-3.79949E-05-3.20067E-05 6.11485E-06 4.31523E-19 1.45975E-18
 -1      2789 1.14945E-04-3.87526E-05-3.26634E-05 8.73475E-06 3.99052E-19 1.47010E-18
 -1      2790 1.05577E-04-2.38460E-05-3.49605E-05 6.69217E-06 1.07367E-18 1.64823E-18
 -1      2791 1.07020E-04-2.64006E-05-3.46692E-05 9.36053E-06 1.02587E-18 1.68950E-18
 -1      2792 1.04264E-04-2.20316E-05-3.52930E-05-1.57186E-06 1.49030E-18 5.74914E-19
 -1      2793 1.04281E-04-2.21879E-05-3.52798E-05 2.15993E-06 1.33717E-18 1.06602E-18
 -1      2794 1.07265E-04-2.11966E-05-3.69178E-05 5.28364E-06 1.56158E-18 7.84405E-19
 -1      2795 1.06222E-04-2.53570E-05-3.47803E-05-9.07554E-06 1.50262E-18-3.69015E-19
 -1      2796 1.05018E-04-2.31653E-05-3.50417E-05-6.05678E-06 1.60069E-18 7.76656E-20
 -1      2797 1.07117E-04-2.11473E-05-3.69193E-05-4.21405E-06 1.91513E-18 4.03275E-19
 -1      2798 1.09822E-04-3.15043E-05-3.36835E-05-1.22269E-05 9.16617E-19-5.44912E-19
 -1      2799 1.08175E-04-2.84547E-05-3.40926E-05-1.13310E-05 1.11252E-18-4.77078E-19
 -1      2800 1.09984E-04-2.64674E-05-3.58160E-05-1.13362E-05 1.52765E-18-3.88285E-19
 -1      2801 1.12322E-04-3.66202E-05-3.25021E-05-1.06081E-05 1.06270E-19-5.44990E-19
 -1      2802 1.11160E-04-3.43482E-05-3.28834E-05-1.16721E-05 6.35846E-19-5.10672E-19
 -1      2803 1.13453E-04-3.38330E-05-3.40771E-05-1.26986E-05 8.38136E-19-1.52115E-19
 -1      2804 1.12360E-04-3.86435E-05-3.16004E-05-6.31350E-06-3.33472E-19-2.46426E-19
 -1      2805 1.12146E-04-3.78613E-05-3.18630E-05-8.30672E-06-3.28588E-19-5.62442E-19
 -1      2806 1.14681E-04-3.89983E-05-3.24165E-05-9.28489E-06-9.63177E-20 9.25102E-20
 -1      2807 1.10547E-04-3.80801E-05-3.10299E-05-1.74092E-06-4.95556E-20 3.62553E-20
 -1      2808 1.11073E-04-3.84231E-05-3.11882E-05-3.77382E-06 2.73780E-20-1.17506E-19
 -1      2809 1.13115E-04-4.02510E-05-3.12321E-05-4.12836E-06-2.68403E-19-4.06784E-19
 -1      2810 1.07917E-04-3.61794E-05-3.07077E-05 1.88353E-06-2.27445E-19-4.65163E-19
 -1      2811 1.08830E-04-3.70703E-05-3.08046E-05 2.85538E-07-5.05904E-21-1.25055E-19
 -1      2812 1.10022E-04-3.88391E-05-3.05314E-05 5.04260E-07 1.04719E-20-1.74043E-19
 -1      2813 1.05265E-04-3.39859E-05-3.05159E-05 4.21394E-06-1.16929E-19-8.83148E-20
 -1      2814 1.06275E-04-3.49766E-05-3.05945E-05 3.18142E-06-2.06698E-19-3.68965E-19
 -1      2815 1.06607E-04-3.62690E-05-3.01782E-05 3.76611E-06-1.19884E-19-1.14283E-19
 -1      2816 1.02978E-04-3.20693E-05-3.03662E-05 5.39559E-06-9.94817E-20 1.02136E-19
 -1      2817 1.03927E-04-3.29276E-05-3.04514E-05 4.87067E-06 1.90417E-21-6.33153E-20
 -1      2818 1.03607E-04-3.36517E-05-3.00117E-05 5.61915E-06-9.75755E-20-1.70561E-20
 -1      2819 1.01153E-04-3.06207E-05-3.02133E-05 5.73305E-06-4.09117E-19-8.63725E-20
 -1      2820 1.01979E-04-3.12740E-05-3.03129E-05 5.58794E-06-2.55375E-19-1.08247E-19
 -1      2821 1.01271E-04-3.15183E-05-2.99169E-05 6.37512E-06-2.43964E-19-1.61544E-19
 -1      2822 9.97435E-05-2.96237E-05-3.00431E-05 5.52242E-06 3.57638E-19-4.61225E-19
 -1      2823 1.00438E-04-3.00819E-05-3.01546E-05 5.62757E-06-1.63084E-19-4.77774E-19
 -1      2824 9.95626E-05-2.99930E-05-2.98314E-05 6.39029E-06-1.31106E-19-5.58270E-19
 -1      2825 9.86668E-05-2.89871E-05-2.98588E-05 4.99797E-06 5.10580E-19-2.69576E-19
 -1      2826 9.92407E-05-2.92897E-05-2.99754E-05 5.24689E-06 8.05573E-19 8.08641E-20
 -1      2827 9.83506E-05-2.90033E-05-2.97307E-05 5.95474E-06 2.25149E-19-5.54719E-19
 -1      2828 9.78426E-05-2.86094E-05-2.96700E-05 4.32711E-06-2.81108E-19 5.13841E-19
 -1      2829 9.83121E-05-2.87989E-05-2.97847E-05 4.64233E-06 1.62593E-19-2.82610E-20
 -1      2830 9.74970E-05-2.84197E-05-2.96116E-05 5.28070E-06 4.85727E-19 2.18761E-19
 -1      2831 9.72078E-05-2.84051E-05-2.94870E-05 3.62028E-06-1.84717E-19 8.36179E-19
 -1      2832 9.75889E-05-2.85171E-05-2.95940E-05 3.95034E-06-3.10727E-19 7.13903E-19
 -1      2833 9.68917E-05-2.81158E-05-2.94803E-05 4.51274E-06-2.88223E-19 7.99092E-19
 -1      2834 9.67167E-05-2.83106E-05-2.93176E-05 2.94466E-06 3.61986E-19-4.62606E-20
 -1      2835 9.70230E-05-2.83719E-05-2.94134E-05 3.25836E-06 3.53491E-19 8.93254E-19
 -1      2836 9.64558E-05-2.79912E-05-2.93457E-05 3.74332E-06 6.81650E-20 3.84353E-19
 -1      2837 9.63361E-05-2.82823E-05-2.91669E-05 2.33683E-06 8.88644E-20-1.26203E-18
 -1      2838 9.65796E-05-2.83114E-05-2.92497E-05 2.61747E-06 3.99283E-19-2.25834E-19
 -1      2839 9.61366E-05-2.79736E-05-2.92157E-05 3.02716E-06 6.96176E-19-4.53678E-20
 -1      2840 9.60420E-05-2.82912E-05-2.90370E-05 1.81284E-06 2.85576E-19-1.89040E-18
 -1      2841 9.62331E-05-2.83008E-05-2.91065E-05 2.05339E-06 5.12577E-19-1.49041E-18
 -1      2842 9.58993E-05-2.80148E-05-2.90959E-05 2.39272E-06 6.08741E-19-6.46284E-19
 -1      2843 9.58162E-05-2.83191E-05-2.89282E-05 1.37571E-06 2.43980E-20-2.07305E-18
 -1      2844 9.59640E-05-2.83174E-05-2.89851E-05 1.57523E-06-1.80000E-19-2.32146E-18
 -1      2845 9.57212E-05-2.80837E-05-2.89897E-05 1.85095E-06 6.44438E-19-1.84988E-18
 -1      2846 9.56446E-05-2.83548E-05-2.88392E-05 1.02079E-06-1.12809E-19-1.52684E-18
 -1      2847 9.57571E-05-2.83471E-05-2.88847E-05 1.18183E-06-2.85694E-19-1.63156E-18
 -1      2848 9.55870E-05-2.81617E-05-2.88984E-05 1.40172E-06-3.24314E-19-1.97387E-18
 -1      2849 9.55158E-05-2.83918E-05-2.87680E-05 7.39359E-07-2.60083E-19-1.42392E-18
 -1      2850 9.55999E-05-2.83814E-05-2.88036E-05 8.66285E-07 2.58467E-19-1.00366E-18
 -1      2851 9.54859E-05-2.82381E-05-2.88220E-05 1.03843E-06-3.22610E-19-1.06357E-18
 -1      2852 9.54207E-05-2.84266E-05-2.87122E-05 5.21026E-07 9.81295E-21-1.09398E-18
 -1      2853 9.54824E-05-2.84155E-05-2.87395E-05 6.18872E-07-4.45560E-19-1.74392E-18
 -1      2854 9.54102E-05-2.83075E-05-2.87597E-05 7.51149E-07-3.17103E-19-8.47322E-19
 -1      2855 9.53518E-05-2.84574E-05-2.86694E-05 3.55199E-07 3.96996E-19-1.21032E-18
 -1      2856 9.53960E-05-2.84467E-05-2.86899E-05 4.29012E-07 5.58782E-19-1.03250E-18
 -1      2857 9.53542E-05-2.83673E-05-2.87098E-05 5.28710E-07 4.66350E-20-1.34962E-18
 -1      2858 9.53031E-05-2.84835E-05-2.86372E-05 2.31944E-07-4.81371E-19-7.40677E-19
 -1      2859 9.53338E-05-2.84738E-05-2.86522E-05 2.86400E-07-1.83274E-20-7.98858E-19
 -1      2860 9.53132E-05-2.84170E-05-2.86707E-05 3.60006E-07 2.00860E-19-9.42869E-19
 -1      2861 9.52695E-05-2.85051E-05-2.86134E-05 1.42426E-07 2.82040E-19-3.48349E-21
 -1      2862 9.52901E-05-2.84967E-05-2.86242E-05 1.81641E-07-2.91202E-20-4.07871E-19
 -1      2863 9.52838E-05-2.84573E-05-2.86407E-05 2.34750E-07-5.24430E-19-1.05731E-18
 -1      2864 9.52472E-05-2.85224E-05-2.85964E-05 7.90775E-08 3.52645E-19 1.71250E-19
 -1      2865 9.52605E-05-2.85153E-05-2.86039E-05 1.06549E-07 1.93149E-19 6.06725E-19
 -1      2866 9.52632E-05-2.84890E-05-2.86181E-05 1.43860E-07-2.14516E-19-8.95779E-19
 -1      2867 9.52331E-05-2.85360E-05-2.85845E-05 3.56132E-08-4.75434E-19 6.13164E-19
 -1      2868 9.52411E-05-2.85302E-05-2.85896E-05 5.42241E-08 4.08294E-19 1.14816E-19
 -1      2869 9.52491E-05-2.85135E-05-2.86014E-05 7.95926E-08 4.02342E-19-5.54880E-19
 -1      2870 9.52250E-05-2.85465E-05-2.85765E-05 6.93756E-09 4.43451E-20 1.22705E-18
 -1      2871 9.52292E-05-2.85419E-05-2.85797E-05 1.90080E-08-2.08563E-19 1.25039E-18
 -1      2872 9.52399E-05-2.85320E-05-2.85894E-05 3.55317E-08-2.42984E-19-4.41113E-19
 -1      2873 9.52210E-05-2.85544E-05-2.85714E-05-1.09874E-08-4.27145E-19 1.63048E-18
 -1      2874 9.52226E-05-2.85508E-05-2.85733E-05-3.63101E-09 4.99172E-19 1.80082E-18
 -1      2875 9.52342E-05-2.85457E-05-2.85810E-05 6.48713E-09-3.89386E-19 3.21571E-19
 -1      2876 9.52196E-05-2.85602E-05-2.85683E-05-2.12947E-08-1.13020E-18 1.23384E-18
 -1      2877 9.52197E-05-2.85574E-05-2.85693E-05-1.72452E-08-1.04297E-18 1.62974E-18
 -1      2878 9.52310E-05-2.85556E-05-2.85754E-05-1.16485E-08-8.16115E-19 7.23415E-19
 -1      2879 9.52201E-05-2.85645E-05-2.85667E-05-2.63637E-08-5.12266E-19 1.32309E-18
 -1      2880 9.52191E-05-2.85623E-05-2.85670E-05-2.45605E-08-1.21851E-18 1.95846E-18
 -1      2881 9.52296E-05-2.85625E-05-2.85717E-05-2.20583E-08-1.76984E-18 2.77739E-19
 -1      2882 9.52216E-05-2.85675E-05-2.85660E-05-2.79588E-08-1.15446E-19 2.05279E-18
 -1      2883 9.52201E-05-2.85659E-05-2.85660E-05-2.76225E-08-2.13408E-19 1.83727E-18
 -1      2884 9.52292E-05-2.85673E-05-2.85695E-05-2.71564E-08-3.85894E-19 1.24107E-18
 -1      2885 9.52237E-05-2.85696E-05-2.85660E-05-2.73514E-08 9.29819E-19 9.54384E-19
 -1      2886 9.52219E-05-2.85684E-05-2.85658E-05-2.79271E-08 6.13823E-19 1.96043E-18
 -1      2887 9.52296E-05-2.85704E-05-2.85683E-05-2.87306E-08 4.78353E-19 1.60720E-18
 -1      2888 9.52261E-05-2.85711E-05-2.85664E-05-2.54226E-08 1.02493E-18-1.11970E-19
 -1      2889 9.52242E-05-2.85702E-05-2.85660E-05-2.65327E-08 1.41770E-18 1.50764E-19
 -1      2890 9.52304E-05-2.85724E-05-2.85678E-05-2.80670E-08 1.78635E-18 7.93135E-20
 -1      2891 9.52284E-05-2.85722E-05-2.85669E-05-2.27484E-08-5.02895E-19 9.51816E-19
 -1      2892 9.52266E-05-2.85715E-05-2.85665E-05-2.41533E-08 3.30330E-19 3.73251E-19
 -1      2893 9.52315E-05-2.85736E-05-2.85677E-05-2.60556E-08 6.98917E-19 4.86220E-19
 -1      2894 9.52307E-05-2.85731E-05-2.85675E-05-1.96601E-08 2.35500E-19 2.05136E-18
 -1      2895 9.52290E-05-2.85725E-05-2.85671E-05-2.12196E-08-2.81475E-19 2.20065E-18
 -1      2896 9.52327E-05-2.85745E-05-2.85678E-05-2.32848E-08-1.04553E-18 1.79239E-18
 -1      2897 9.52332E-05-2.85743E-05-2.85681E-05-1.69261E-08-7.80103E-19 2.53679E-18
 -1      2898 9.52317E-05-2.85738E-05-2.85678E-05-1.86120E-08-2.54064E-19 2.44401E-18
 -1      2899 9.52346E-05-2.85755E-05-2.85681E-05-2.05885E-08 1.01445E-19 1.86795E-18
 -1      2900 9.52365E-05-2.85767E-05-2.85684E-05-1.81653E-08 2.18013E-19 4.03468E-19
 -1      2901 9.52487E-05-2.85886E-05-2.85686E-05-1.28533E-09 1.08653E-19-2.85627E-19
 -1      2902 9.52484E-05-2.85884E-05-2.85686E-05-3.59558E-09 5.87922E-19-1.66136E-18
 -1      2903 9.52354E-05-2.85759E-05-2.85684E-05 1.52987E-08 1.33873E-19 1.20170E-18
 -1      2904 9.52361E-05-2.85763E-05-2.85685E-05 1.40208E-08 3.82394E-20 2.43460E-18
 -1      2905 9.52372E-05-2.85775E-05-2.85685E-05 1.68817E-08 9.57875E-21 2.30351E-19
 -1      2906 9.52462E-05-2.85862E-05-2.85686E-05-1.02558E-08 1.65752E-18-1.92939E-18
 -1      2907 9.52451E-05-2.85850E-05-2.85686E-05-1.18300E-08 1.62862E-18-2.68781E-18
 -1      2908 9.52484E-05-2.85884E-05-2.85686E-05 3.65676E-09-1.11813E-18-5.99552E-19
 -1      2909 9.52487E-05-2.85886E-05-2.85686E-05 1.34753E-09-6.71778E-19-5.22236E-19
 -1      2910 9.52501E-05-2.85885E-05-2.85693E-05 3.22258E-11 1.12221E-18-1.89105E-18
 -1      2911 9.52479E-05-2.85879E-05-2.85686E-05-6.09435E-09-5.54281E-20-2.86260E-18
 -1      2912 9.52472E-05-2.85871E-05-2.85686E-05-8.15454E-09 1.55880E-18-1.76271E-18
 -1      2913 9.52478E-05-2.85865E-05-2.85692E-05-1.00518E-08 7.61816E-19-2.23554E-18
 -1      2914 9.52495E-05-2.85880E-05-2.85693E-05-5.28179E-09 1.28859E-18-2.12648E-18
 -1      2915 1.15758E-04-5.69456E-05-2.52362E-05 2.85825E-05-8.58680E-20-9.12086E-19
 -1      2916 1.02928E-04-5.18870E-05-2.14716E-05 3.35028E-05-3.29284E-19-4.53990E-19
 -1      2917 9.52472E-05-2.85872E-05-2.85686E-05 8.13963E-09-7.69826E-19-4.23117E-18
 -1      2918 9.52479E-05-2.85879E-05-2.85686E-05 6.11387E-09-1.52967E-18-8.52308E-19
 -1      2919 9.52495E-05-2.85880E-05-2.85693E-05 5.30243E-09-6.35710E-19-1.21160E-18
 -1      2920 9.52451E-05-2.85850E-05-2.85686E-05 1.18204E-08-1.00501E-19-3.37983E-18
 -1      2921 9.52463E-05-2.85862E-05-2.85686E-05 1.02454E-08 7.56280E-20-4.69298E-18
 -1      2922 9.52478E-05-2.85865E-05-2.85692E-05 1.00361E-08-6.29574E-19-3.30166E-18
 -1      2923 9.52421E-05-2.85821E-05-2.85686E-05 1.41287E-08 1.27082E-18 1.87662E-18
 -1      2924 9.52436E-05-2.85837E-05-2.85685E-05 1.32866E-08 1.50337E-18-5.06490E-21
 -1      2925 9.52451E-05-2.85842E-05-2.85690E-05 1.37535E-08 5.36314E-19-8.21001E-19
 -1      2926 1.11449E-04-3.73879E-05-3.18008E-05 4.17010E-06 5.34157E-19 1.23098E-18
 -1      2927 1.11106E-04-3.66843E-05-3.18423E-05 2.83673E-06 6.96918E-19 1.35935E-18
 -1      2928 1.13315E-04-3.90593E-05-3.18525E-05 4.44879E-06 4.35205E-19 1.21530E-18
 -1      2929 6.07320E-05-2.88500E-05-1.35163E-05 3.57863E-05 1.59486E-18-3.09453E-18
 -1      2930 4.46457E-05-1.86306E-05-1.06108E-05 2.68400E-05 1.42069E-18-3.50608E-18
 -1      2931 4.88221E-05-2.37387E-05-1.06221E-05 3.18010E-05-1.32254E-18 6.18334E-20
 -1      2932 3.86738E-05-1.73628E-05-8.39069E-06 2.17424E-05-1.57315E-18 2.10996E-18
 -1      2933 8.67595E-05-4.48510E-05-1.79467E-05 3.90346E-05-7.95152E-19 3.45801E-19
 -1      2934 6.80538E-05-3.40292E-05-1.39598E-05 3.69546E-05-1.34032E-18-7.12566E-20
 -1      2935 9.77532E-05-4.72104E-05-2.13241E-05 3.21205E-05-7.73394E-19-1.92859E-19
 -1      2936 1.00751E-04-2.36801E-05-3.30380E-05 6.36365E-07-1.13994E-18-3.74064E-19
 -1      2937 1.02675E-04-2.65397E-05-3.26569E-05 2.27676E-06-9.54122E-19-2.01296E-19
 -1      2938 3.18406E-05-8.86399E-06-9.39200E-06-1.12461E-05-7.88270E-20-3.88725E-18
 -1      2939 3.77621E-05-1.41786E-05-9.63813E-06-2.42661E-05-4.23728E-19-4.13818E-18
 -1      2940 8.26350E-05-3.94996E-05-1.79627E-05-3.74623E-05-1.53260E-18-2.32436E-18
 -1      2941 1.01677E-04-4.92945E-05-2.26259E-05-3.42592E-05-1.44652E-18-1.30348E-18
 -1      2942 1.08956E-04-2.94914E-05-3.39924E-05 1.10080E-05 9.78462E-19 1.83149E-18
 -1      2943 1.10562E-04-3.24361E-05-3.36112E-05 1.16570E-05 7.53934E-19 1.66105E-18
 -1      2944 1.14100E-04-3.47117E-05-3.39891E-05 1.22750E-05 6.56755E-19 1.84841E-18
 -1      2945 1.11093E-04-2.81749E-05-3.55703E-05 1.12917E-05 1.02062E-18 1.73033E-18
 -1      2946 1.04526E-04-2.90984E-05-3.22554E-05 3.62526E-06-6.51320E-19-4.64098E-20
 -1      2947 1.05985E-04-3.16368E-05-3.18925E-05 4.67429E-06-4.99574E-19 1.13952E-19
 -1      2948 1.03999E-04-3.19444E-05-3.09844E-05 6.67233E-06-3.29363E-19-7.39599E-20
 -1      2949 9.99831E-05-2.61484E-05-3.16762E-05 4.35292E-06-6.41313E-19-3.20360E-19
 -1      2950 1.40348E-04-4.66876E-05-4.00364E-05 8.93191E-06-6.28393E-19-1.29998E-18
 -1      2951 1.39064E-04-3.74975E-05-4.43954E-05 1.29129E-05-1.58649E-18-4.64809E-19
 -1      2952 1.09580E-04-3.52815E-05-3.18944E-05 1.80374E-06 9.15810E-19 1.08887E-18
 -1      2953 1.09033E-04-3.39781E-05-3.20992E-05 1.29851E-06 9.37361E-19 1.06233E-18
 -1      2954 1.07285E-04-3.26967E-05-3.19756E-05 7.42378E-07 1.02831E-18 5.85947E-19
 -1      2955 1.10357E-04-3.65558E-05-3.16543E-05 1.54020E-06 7.39130E-19 9.64076E-19
 -1      2956 6.71530E-05-3.34890E-05-1.39296E-05-3.50064E-05 2.18916E-18 3.23694E-18
 -1      2957 8.77921E-05-4.48170E-05-1.83386E-05-3.65820E-05 2.59700E-18 2.33305E-18
 -1      2958 6.81183E-05-2.94806E-05-1.61039E-05-2.99083E-05 2.31653E-18 2.90485E-18
 -1      2959 8.54710E-05-1.53892E-05-2.99988E-05-5.01385E-06 9.05458E-19-1.30696E-18
 -1      2960 8.15155E-05-1.31146E-05-2.93704E-05-6.01395E-06 7.03168E-19-1.56898E-18
 -1      2961 8.05013E-05-1.40330E-05-2.85028E-05-7.99449E-06 5.27438E-19-1.58262E-18
 -1      2962 8.90713E-05-1.94672E-05-2.98669E-05-5.83586E-06 7.94823E-19-1.09160E-18
 -1      2963 1.25665E-04-1.47950E-05-4.80920E-05 9.06258E-06 3.57490E-18 5.68359E-19
 -1      2964 1.25938E-04-1.11221E-05-4.98523E-05 4.59274E-06 3.84384E-18-1.14932E-19
 -1      2965 9.82800E-05-4.89270E-05-2.12349E-05 3.52305E-05 1.60237E-18-1.19204E-18
 -1      2966 8.06973E-05-3.94240E-05-1.71588E-05 3.65737E-05 1.88242E-18-2.04950E-18
 -1      2967 7.34486E-05-7.31948E-06-2.84152E-05 3.84875E-06-7.93605E-20-1.97286E-18
 -1      2968 7.73053E-05-9.46789E-06-2.90264E-05 4.24904E-06-1.92840E-19-1.87595E-18
 -1      2969 1.33982E-04-1.73667E-05-5.07887E-05-9.11195E-06-4.07508E-18 1.39729E-18
 -1      2970 1.37073E-04-2.35577E-05-4.89829E-05-1.31845E-05-3.96221E-18 2.16205E-18
 -1      2971 1.17510E-04-5.48072E-05-2.64969E-05-2.53565E-05-1.27415E-18-4.60707E-19
 -1      2972 1.26739E-04-5.73243E-05-3.01996E-05-1.90504E-05-8.92137E-19 2.03817E-20
 -1      2973 4.88750E-05-2.06409E-05-1.15696E-05-3.10675E-05-9.25383E-19-3.71339E-18
 -1      2974 6.47266E-05-2.94196E-05-1.50342E-05-3.74594E-05-1.16446E-18-3.03195E-18
 -1      2975 5.24189E-05-1.69572E-05-1.46004E-05-2.59448E-05-8.28398E-19-3.52249E-18
 -1      2976 3.56851E-05-1.14588E-05-9.86728E-06 1.73495E-05 8.61221E-19-3.70704E-18
 -1      2977 3.11946E-05-7.78814E-06-9.48794E-06 3.88113E-06 5.34021E-19-3.71424E-18
 -1      2978 1.04374E-04-2.67705E-05-3.32781E-05 3.21590E-06 1.50663E-18 7.38702E-19
 -1      2979 9.37367E-05-1.73915E-05-3.27442E-05 5.37029E-08-1.07392E-18-9.83167E-19
 -1      2980 1.24946E-04-5.84545E-05-2.86405E-05 2.21318E-05 6.50204E-19 7.30089E-19
 -1      2981 1.13246E-04-5.53408E-05-2.46254E-05 2.86776E-05 1.31354E-18-2.13029E-19
 -1      2982 1.34074E-04-1.76978E-05-5.05206E-05-9.49452E-06 3.77438E-18-1.31227E-18
 -1      2983 1.35443E-04-2.65706E-05-4.71615E-05-1.12953E-05 3.24032E-18-1.47913E-18
 -1      2984 1.34834E-04-2.46071E-05-4.75173E-05 1.40959E-05-2.78928E-18-4.85244E-19
 -1      2985 1.34049E-04-1.74255E-05-5.06900E-05 9.87259E-06-3.38750E-18-1.60936E-19
 -1      2986 9.52377E-05-2.85779E-05-2.85685E-05 1.44127E-08 4.01618E-19 2.03050E-18
 -1      2987 1.07252E-04-5.44343E-05-2.23221E-05-3.14722E-05 2.40557E-18 7.66697E-19
 -1      2988 1.23342E-04-5.98572E-05-2.73517E-05-2.39957E-05 1.47405E-18-3.24493E-19
 -1      2989 1.34223E-04-5.38871E-05-3.43003E-05-7.09880E-06-2.98592E-19 7.19872E-19
 -1      2990 1.36663E-04-4.71378E-05-3.89184E-05 4.00116E-06 8.99125E-19 1.15286E-18
 -1      2991 1.30144E-04-5.40795E-05-3.25356E-05-7.93134E-06-7.79111E-19 7.23790E-19
 -1      2992 8.18950E-05-1.25702E-05-2.97773E-05 4.44733E-06-3.67774E-19-1.63760E-18
 -1      2993 8.65536E-05-1.52476E-05-3.05438E-05 3.98618E-06-5.42925E-19-1.42964E-18
 -1      2994 8.02215E-05-1.30927E-05-2.87728E-05 6.19037E-06-1.13742E-19-1.56718E-18
 -1      2995 6.71919E-05-4.87760E-06-2.66527E-05-4.36845E-06 1.47730E-19-2.12439E-18
 -1      2996 6.69352E-05-3.23111E-06-2.73064E-05-2.60347E-06 1.67597E-19-2.24599E-18
 -1      2997 6.68235E-05-3.10079E-06-2.73335E-05-1.15291E-06 6.37876E-20-2.22765E-18
 -1      2998 1.21877E-04-5.73586E-05-2.77266E-05 2.02419E-05-1.50613E-19-1.17370E-18
 -1      2999 1.36311E-04-3.30448E-05-4.46840E-05-1.14677E-05 2.64952E-18-1.56489E-18
 -1      3000 1.34795E-04-3.84516E-05-4.15724E-05-1.02277E-05 2.18185E-18-1.55325E-18
 -1      3001 1.29469E-04-2.68798E-05-4.42856E-05-1.39223E-05 2.75762E-18-1.46706E-18
 -1      3002 1.34974E-04-4.24947E-05-3.98300E-05 9.28672E-06 1.10194E-18 1.86697E-18
 -1      3003 1.28980E-04-3.61641E-05-4.03959E-05 1.27799E-05 1.24546E-18 2.19837E-18
 -1      3004 1.32047E-04-4.54687E-05-3.69618E-05 6.94665E-06 3.96597E-19 2.06745E-18
 -1      3005 1.27579E-04-1.55116E-05-4.85300E-05 7.84057E-06-3.04487E-18 6.06687E-20
 -1      3006 1.37632E-04-5.29066E-05-3.64510E-05 3.55520E-06 1.08989E-18-1.55918E-18
 -1      3007 1.33031E-04-5.53498E-05-3.33383E-05 6.94947E-06 4.36083E-19-1.72916E-18
 -1      3008 1.35438E-04-4.86167E-05-3.76893E-05-4.35107E-06 1.36049E-18-2.45650E-18
 -1      3009 1.21687E-04-1.04799E-05-4.81489E-05 1.93833E-06 3.73605E-18 1.41428E-19
 -1      3010 1.32308E-04-3.11262E-05-4.37159E-05 1.51630E-05-2.01964E-18-5.98535E-19
 -1      3011 1.34657E-04-4.55377E-05-3.85466E-05-1.02805E-05-1.50727E-18 2.71696E-18
 -1      3012 1.19918E-04-1.99810E-05-4.31581E-05 1.15060E-05-2.46857E-18-4.34713E-19
 -1      3013 1.22676E-04-2.46491E-05-4.27203E-05-1.37821E-05-2.95371E-18 1.31651E-18
 -1      3014 1.20165E-04-1.87494E-05-4.38989E-05-9.08883E-06-3.22825E-18 9.49339E-19
 -1      3015 1.22748E-04-2.64672E-05-4.18147E-05 1.51005E-05-2.08815E-18-9.75544E-19
 -1      3016 9.52451E-05-2.85842E-05-2.85690E-05-1.37299E-08 5.13806E-19-1.15335E-18
 -1      3017 9.52437E-05-2.85837E-05-2.85685E-05-1.32694E-08 9.18088E-19-2.22504E-18
 -1      3018 9.52421E-05-2.85822E-05-2.85686E-05-1.42097E-08 7.78870E-19-4.90823E-19
 -1      3019 4.78980E-05-1.48006E-05-1.35894E-05 2.06334E-05 1.23497E-18-3.26732E-18
 -1      3020 1.09590E-04-5.03164E-05-2.51449E-05-2.67654E-05-1.45901E-18-6.97533E-19
 -1      3021 1.27057E-04-5.89413E-05-2.91156E-05-1.56351E-05 1.90392E-18-1.01289E-18
 -1      3022 9.52393E-05-2.85795E-05-2.85685E-05-1.50178E-08-2.39469E-19-1.24150E-18
 -1      3023 1.42445E-04-4.95523E-05-3.99730E-05-4.11783E-06-1.86473E-18 2.71855E-18
 -1      3024 3.98241E-05-1.46028E-05-1.01431E-05 1.29588E-05-1.59618E-18 3.09580E-18
 -1      3025 9.36821E-05-4.35245E-05-2.12269E-05-3.05580E-05 2.36296E-18 1.10993E-18
 -1      3026 1.00298E-04-4.97360E-05-2.13563E-05-3.18408E-05 2.52993E-18 1.13643E-18
 -1      3027 1.10213E-04-5.28244E-05-2.47317E-05-2.52422E-05 2.34779E-18-3.04164E-19
 -1      3028 9.52393E-05-2.85796E-05-2.85684E-05 1.44346E-08 8.51515E-19 9.32883E-19
 -1      3029 1.02955E-04-2.66368E-05-3.27263E-05 2.04562E-06 1.39499E-18 3.54083E-19
 -1      3030 1.03009E-04-2.83636E-05-3.20248E-05 1.45269E-07 1.17682E-18 1.71195E-19
 -1      3031 7.90637E-05-3.37018E-05-1.89365E-05-3.36817E-05-1.42180E-18-2.32955E-18
 -1      3032 3.87958E-05-8.02803E-06-1.25955E-05-4.03396E-06 1.74416E-19-3.63642E-18
 -1      3033 7.54748E-05-3.30745E-05-1.77050E-05 3.31156E-05 1.91482E-18-2.24675E-18
 -1      3034 1.08233E-04-5.11506E-05-2.41415E-05 2.75064E-05 1.84134E-18-2.79488E-19
 -1      3035 1.34501E-04-5.70498E-05-3.35947E-05 6.14457E-06 1.91648E-19 2.14956E-18
 -1      3036 1.31004E-04-5.85222E-05-3.09924E-05 1.45611E-05 4.96361E-19 1.31481E-18
 -1      3037 1.25879E-04-5.70723E-05-2.93787E-05 1.61484E-05 9.73770E-19 1.17176E-18
 -1      3038 9.29698E-05-1.87606E-05-3.18059E-05 2.21264E-06-7.97752E-19-1.04831E-18
 -1      3039 1.36122E-04-2.94473E-05-4.59208E-05-1.38652E-05-3.42201E-18 2.42103E-18
 -1      3040 4.28374E-05-1.53763E-05-1.12603E-05-1.39115E-05 3.32460E-19 4.67297E-18
 -1      3041 6.79665E-05-3.83727E-06-2.75332E-05 1.14196E-06 7.23320E-20-2.03524E-18
 -1      3042 7.01162E-05-4.99904E-06-2.78821E-05 2.34399E-06-6.80340E-20-1.99256E-18
 -1      3043 7.17150E-05-7.58045E-06-2.74381E-05 4.45466E-06 3.44107E-22-1.88084E-18
 -1      3044 6.68649E-05-4.45519E-06-2.66784E-05 3.87566E-07 2.64375E-20-2.11660E-18
 -1      3045 1.28582E-04-1.50131E-05-4.91593E-05-6.74158E-06-3.61789E-18 1.13852E-18
 -1      3046 1.25935E-04-2.09778E-05-4.55055E-05 1.19561E-05 2.83153E-18 1.26478E-18
 -1      3047 1.17933E-04-1.74016E-05-4.33652E-05 1.02026E-05 2.43300E-18 1.96202E-18
 -1      3048 1.24568E-04-2.64268E-05-4.21558E-05 1.36667E-05 1.86993E-18 2.08635E-18
 -1      3049 1.27660E-04-1.49817E-05-4.86388E-05-9.45958E-06 3.93870E-18-7.66935E-19
 -1      3050 9.52391E-05-2.85789E-05-2.85686E-05 1.63702E-08 1.49710E-19 1.43567E-19
 -1      3051 9.52409E-05-2.85809E-05-2.85686E-05 1.51352E-08 6.95941E-19 8.63411E-19
 -1      3052 9.52420E-05-2.85814E-05-2.85688E-05 1.61555E-08 7.69555E-19 1.18135E-18
 -1      3053 9.52388E-05-2.85787E-05-2.85686E-05 1.75816E-08 1.73726E-19-4.75606E-19
 -1      3054 1.00665E-04-2.79395E-05-3.11399E-05-2.65211E-06 8.55483E-19-3.12668E-19
 -1      3055 9.72210E-05-2.59309E-05-3.05275E-05-4.41496E-06 7.65810E-19-6.18633E-19
 -1      3056 6.38898E-05-2.43374E-05-1.66480E-05-2.57544E-05 2.03439E-18 3.11968E-18
 -1      3057 7.73021E-05-3.32956E-05-1.87164E-05-3.03456E-05 2.05286E-18 2.15432E-18
 -1      3058 1.36954E-04-5.15778E-05-3.67390E-05 4.32066E-06 1.98808E-19-1.18267E-18
 -1      3059 1.25017E-04-5.31916E-05-3.04401E-05-1.03656E-05-1.16319E-18 6.90570E-19
 -1      3060 1.29267E-04-5.18291E-05-3.37339E-05-1.44871E-06-5.69775E-19 1.29488E-18
 -1      3061 1.13162E-04-4.37913E-05-2.94832E-05 1.03231E-05 6.81034E-19 5.96164E-19
 -1      3062 1.17612E-04-4.79094E-05-2.98791E-05 8.72141E-06 7.55659E-19 9.30924E-19
 -1      3063 1.26737E-04-5.29591E-05-3.14940E-05 5.14121E-06 6.43169E-19 1.75623E-18
 -1      3064 1.30906E-04-5.32320E-05-3.32957E-05 7.58643E-07 1.13701E-19 2.19613E-18
 -1      3065 1.26433E-04-5.37023E-05-3.12024E-05-3.96561E-06 1.00027E-18-7.61377E-19
 -1      3066 1.21819E-04-5.19115E-05-2.97317E-05-8.17920E-06 9.21373E-19-3.17730E-19
 -1      3067 1.06210E-04-4.02991E-05-2.82143E-05-1.32159E-05 3.09319E-19 7.98286E-19
 -1      3068 1.02851E-04-3.69234E-05-2.81436E-05-1.38228E-05 5.45920E-19 8.44270E-19
 -1      3069 1.00343E-04-3.41343E-05-2.83353E-05-1.31922E-05 2.74238E-19 8.47853E-19
 -1      3070 9.81596E-05-3.17572E-05-2.84163E-05-1.30682E-05-1.55168E-19 4.79507E-19
 -1      3071 9.77033E-05-3.44149E-05-2.71946E-05-1.58489E-05 4.31957E-19 1.29002E-18
 -1      3072 9.69658E-05-3.00253E-05-2.86546E-05-1.21350E-05-1.83783E-19 6.08391E-19
 -1      3073 9.56974E-05-2.85760E-05-2.87540E-05-1.16568E-05-1.23845E-19 9.33388E-19
 -1      3074 9.42010E-05-2.96317E-05-2.77285E-05-1.37270E-05-2.14691E-20 1.14137E-18
 -1      3075 9.52670E-05-2.76563E-05-2.89516E-05-1.07367E-05-3.71427E-20 9.14703E-19
 -1      3076 9.45861E-05-2.68736E-05-2.90206E-05-1.01153E-05-1.55152E-19 6.56917E-19
 -1      3077 9.27360E-05-2.69141E-05-2.82323E-05-1.16733E-05 5.17883E-20 1.26818E-18
 -1      3078 9.45533E-05-2.64772E-05-2.91580E-05-9.27110E-06-1.86591E-19 7.95673E-19
 -1      3079 9.42095E-05-2.61245E-05-2.91864E-05-8.60942E-06-4.57244E-19 4.10417E-19
 -1      3080 9.23529E-05-2.55936E-05-2.86170E-05-9.84077E-06-1.87489E-19 4.87342E-19
 -1      3081 9.43615E-05-2.60421E-05-2.92669E-05-7.85386E-06-5.74340E-19 5.32502E-19
 -1      3082 9.41969E-05-2.59446E-05-2.92603E-05-7.20651E-06-3.61073E-19 3.89267E-20
 -1      3083 9.25099E-05-2.51365E-05-2.88725E-05-8.23056E-06-5.25008E-19 3.69563E-19
 -1      3084 9.44146E-05-2.60335E-05-2.92961E-05-6.53882E-06 3.92387E-19 4.08208E-19
 -1      3085 9.43380E-05-2.60750E-05-2.92651E-05-5.93709E-06 9.46708E-19 5.04967E-19
 -1      3086 9.28948E-05-2.51763E-05-2.90174E-05-6.81947E-06 2.52183E-19 7.60829E-19
 -1      3087 9.45600E-05-2.62449E-05-2.92695E-05-5.35409E-06 8.77777E-19 5.86553E-19
 -1      3088 9.45229E-05-2.63533E-05-2.92244E-05-4.81504E-06 1.04018E-18 5.69818E-19
 -1      3089 9.33383E-05-2.54739E-05-2.90795E-05-5.58629E-06 1.01157E-18 1.67112E-18
 -1      3090 9.47214E-05-2.65504E-05-2.92088E-05-4.31309E-06 3.82237E-19 7.06425E-19
 -1      3091 9.47002E-05-2.66835E-05-2.91578E-05-3.84419E-06-2.28987E-19 1.42547E-18
 -1      3092 9.37578E-05-2.58822E-05-2.90849E-05-4.51694E-06 6.84266E-19 1.31893E-18
 -1      3093 9.48655E-05-2.68783E-05-2.91309E-05-3.41877E-06-6.85352E-19 1.29603E-18
 -1      3094 9.48499E-05-2.70129E-05-2.90795E-05-3.02090E-06-6.15564E-19 1.52180E-18
 -1      3095 9.41190E-05-2.63156E-05-2.90549E-05-3.60093E-06-5.29348E-19 8.92414E-19
 -1      3096 9.49815E-05-2.71906E-05-2.90477E-05-2.66627E-06-8.56693E-19 9.88029E-19
 -1      3097 9.49677E-05-2.73149E-05-2.89994E-05-2.33591E-06-8.19435E-19 5.28949E-19
 -1      3098 9.44133E-05-2.67277E-05-2.90053E-05-2.82797E-06-9.32817E-19 9.57172E-19
 -1      3099 9.50692E-05-2.74692E-05-2.89666E-05-2.04520E-06-9.21216E-19 3.93970E-19
 -1      3100 9.50562E-05-2.75783E-05-2.89234E-05-1.77620E-06-8.45742E-19 5.92091E-19
 -1      3101 9.46444E-05-2.70962E-05-2.89473E-05-2.18623E-06-8.57211E-19 1.34757E-19
 -1      3102 9.51327E-05-2.77079E-05-2.88923E-05-1.54182E-06-3.54617E-19 6.27459E-19
 -1      3103 9.51205E-05-2.78002E-05-2.88550E-05-1.32671E-06-2.40736E-19 5.71158E-19
 -1      3104 9.48210E-05-2.74127E-05-2.88880E-05-1.66224E-06-6.11355E-19 1.28002E-18
 -1      3105 9.51769E-05-2.79064E-05-2.88268E-05-1.14084E-06-1.03911E-19 6.23960E-19
 -1      3106 9.51660E-05-2.79826E-05-2.87955E-05-9.71767E-07-1.67933E-19 3.73780E-19
 -1      3107 9.49531E-05-2.76769E-05-2.88318E-05-1.24145E-06-1.32474E-19 1.04007E-18
 -1      3108 9.52067E-05-2.80679E-05-2.87710E-05-8.26791E-07-5.04821E-19 8.06277E-19
 -1      3109 9.51972E-05-2.81296E-05-2.87453E-05-6.96139E-07-2.89562E-19 1.02057E-18
 -1      3110 9.50498E-05-2.78925E-05-2.87813E-05-9.09088E-07-7.15929E-20 9.88491E-19
 -1      3111 9.52260E-05-2.81969E-05-2.87246E-05-5.84948E-07-1.12891E-18 8.32191E-19
 -1      3112 9.52181E-05-2.82458E-05-2.87039E-05-4.85717E-07-1.59784E-18 6.25194E-19
 -1      3113 9.51194E-05-2.80651E-05-2.87373E-05-6.50931E-07-7.29358E-19 4.78602E-19
 -1      3114 9.52380E-05-2.82981E-05-2.86868E-05-4.01926E-07-1.26620E-18 3.86400E-19
 -1      3115 9.52315E-05-2.83363E-05-2.86705E-05-3.27915E-07-1.14479E-18 8.82270E-19
 -1      3116 9.51682E-05-2.82010E-05-2.87002E-05-4.53815E-07-1.37410E-18 2.79448E-19
 -1      3117 9.52448E-05-2.83762E-05-2.86567E-05-2.65954E-07-9.80891E-19 1.27777E-18
 -1      3118 9.52398E-05-2.84056E-05-2.86440E-05-2.11831E-07-1.55813E-18 6.29015E-19
 -1      3119 9.52017E-05-2.83061E-05-2.86696E-05-3.05992E-07-1.00302E-18-7.11145E-19
 -1      3120 9.52483E-05-2.84355E-05-2.86330E-05-1.66963E-07-1.15993E-18 1.24940E-18
 -1      3121 9.52444E-05-2.84577E-05-2.86234E-05-1.28256E-07-2.53532E-19 1.21309E-18
 -1      3122 9.52239E-05-2.83861E-05-2.86449E-05-1.97270E-07-9.83845E-19 2.59324E-19
 -1      3123 9.52496E-05-2.84798E-05-2.86149E-05-9.65395E-08-5.84295E-19 1.64498E-18
 -1      3124 9.52467E-05-2.84963E-05-2.86077E-05-6.95761E-08-1.85484E-19 1.24951E-18
 -1      3125 9.52380E-05-2.84459E-05-2.86253E-05-1.19028E-07-1.43192E-19 1.80548E-18
 -1      3126 9.52495E-05-2.85122E-05-2.86012E-05-4.77992E-08-2.96041E-19 7.51946E-19
 -1      3127 9.52474E-05-2.85242E-05-2.85959E-05-2.96183E-08-5.95093E-20 7.58605E-19
 -1      3128 9.52463E-05-2.84899E-05-2.86100E-05-6.41298E-08-3.90308E-19 9.96947E-19
 -1      3129 9.52486E-05-2.85354E-05-2.85910E-05-1.52113E-08 4.23937E-19 3.12026E-19
 -1      3130 9.52471E-05-2.85439E-05-2.85872E-05-3.47002E-09 5.80347E-19-4.78666E-19
 -1      3131 9.52507E-05-2.85214E-05-2.85984E-05-2.67859E-08-3.53514E-19 2.23421E-19
 -1      3132 9.52473E-05-2.85516E-05-2.85836E-05 5.58642E-09 1.07013E-18 4.15141E-20
 -1      3133 9.52463E-05-2.85575E-05-2.85810E-05 1.27094E-08 1.19874E-18-2.13018E-19
 -1      3134 9.52523E-05-2.85435E-05-2.85896E-05-2.38579E-09 1.36559E-18-5.50490E-19
 -1      3135 9.52458E-05-2.85625E-05-2.85784E-05 1.79732E-08 1.03102E-18 3.56181E-20
 -1      3136 9.52451E-05-2.85665E-05-2.85766E-05 2.18677E-08 9.19951E-19 8.46462E-20
 -1      3137 9.52523E-05-2.85585E-05-2.85831E-05 1.26749E-08 1.41556E-18 2.50935E-19
 -1      3138 9.52443E-05-2.85696E-05-2.85748E-05 2.45177E-08 1.22819E-18 1.16606E-18
 -1      3139 9.52439E-05-2.85722E-05-2.85736E-05 2.62227E-08 1.18857E-18 1.36496E-18
 -1      3140 9.52512E-05-2.85683E-05-2.85785E-05 2.11620E-08 1.67997E-18 9.86568E-19
 -1      3141 9.52430E-05-2.85740E-05-2.85723E-05 2.71313E-08 1.78168E-19 1.78429E-18
 -1      3142 9.52427E-05-2.85755E-05-2.85716E-05 2.74046E-08 3.77618E-19 1.78942E-18
 -1      3143 9.52496E-05-2.85743E-05-2.85752E-05 2.51550E-08 1.35047E-18 2.87384E-18
 -1      3144 9.52417E-05-2.85765E-05-2.85708E-05 2.72008E-08 1.13694E-19 1.47302E-18
 -1      3145 9.52417E-05-2.85774E-05-2.85704E-05 2.65786E-08-1.22818E-19 1.92111E-18
 -1      3146 9.52477E-05-2.85778E-05-2.85729E-05 2.61809E-08 4.04742E-19 1.89833E-18
 -1      3147 9.52407E-05-2.85777E-05-2.85698E-05 2.56998E-08 1.97741E-19 2.24742E-18
 -1      3148 9.52407E-05-2.85782E-05-2.85696E-05 2.45445E-08 2.93436E-19 1.53253E-18
 -1      3149 9.52458E-05-2.85795E-05-2.85713E-05 2.53297E-08 5.13893E-19 1.06923E-18
 -1      3150 9.52399E-05-2.85783E-05-2.85692E-05 2.32841E-08-1.71889E-19 6.41073E-19
 -1      3151 9.52400E-05-2.85786E-05-2.85691E-05 2.18198E-08-9.34110E-21 5.78314E-19
 -1      3152 9.52441E-05-2.85802E-05-2.85703E-05 2.33501E-08-3.59911E-19 4.12914E-19
 -1      3153 9.52392E-05-2.85785E-05-2.85689E-05 2.05925E-08-5.39243E-19 5.13633E-19
 -1      3154 9.52394E-05-2.85788E-05-2.85688E-05 1.89298E-08-7.50182E-19 2.60364E-19
 -1      3155 9.52412E-05-2.85802E-05-2.85690E-05 1.84355E-08-8.63540E-19-1.80008E-18
 -1      3156 9.52425E-05-2.85803E-05-2.85695E-05 2.09647E-08-8.37769E-20-1.65068E-19
 -1      3157 1.17677E-04-4.10046E-05-3.28698E-05 7.99724E-06 2.84980E-19 1.53305E-18
 -1      3158 1.17467E-04-4.18319E-05-3.23615E-05 6.03836E-06 7.20077E-20 1.33768E-18
 -1      3159 5.02348E-05-1.20963E-05-1.59500E-05-1.97318E-05-6.27943E-19-3.33625E-18
 -1      3160 5.95206E-05-1.86269E-05-1.75175E-05-2.68369E-05-9.32001E-19-2.91803E-18
 -1      3161 1.09807E-04-1.93629E-05-3.90685E-05-6.98370E-06 2.41074E-18 1.48519E-19
 -1      3162 1.08703E-04-1.71008E-05-3.93663E-05-2.45853E-06 2.49263E-18 5.43001E-19
 -1      3163 1.11402E-04-1.99210E-05-3.93668E-05 6.48728E-06 1.90397E-18 1.30582E-18
 -1      3164 1.12997E-04-2.30311E-05-3.87283E-05 1.09061E-05 1.53001E-18 1.74191E-18
 -1      3165 1.18035E-04-3.81627E-05-3.42684E-05-1.23956E-05-8.02564E-20 2.15717E-19
 -1      3166 1.16268E-04-3.37173E-05-3.53430E-05-1.31498E-05 7.41299E-19-4.29995E-19
 -1      3167 1.17271E-04-4.24957E-05-3.20479E-05-6.57181E-06-1.08235E-19 1.07183E-19
 -1      3168 1.17368E-04-4.08848E-05-3.28476E-05-8.82223E-06 3.58401E-20 1.91474E-19
 -1      3169 1.21135E-04-4.21361E-05-3.40848E-05-1.00448E-05 4.71162E-20-8.19134E-19
 -1      3170 1.13802E-04-4.21889E-05-3.06263E-05-7.05640E-07 6.78553E-20-4.12618E-19
 -1      3171 1.15111E-04-4.26336E-05-3.11234E-05-3.13590E-06 1.28069E-19-8.50296E-20
 -1      3172 1.17829E-04-4.49192E-05-3.13976E-05-2.87922E-06 4.10778E-19-7.66247E-19
 -1      3173 1.09226E-04-3.93141E-05-2.98895E-05 3.65524E-06-1.63938E-19-4.75291E-19
 -1      3174 1.10983E-04-4.07651E-05-3.01424E-05 1.79508E-06-1.09898E-19-4.98230E-19
 -1      3175 1.12703E-04-4.30465E-05-2.99192E-05 2.90464E-06 8.67191E-20-9.07702E-19
 -1      3176 1.04994E-04-3.58218E-05-2.95886E-05 6.13867E-06-2.32943E-19-1.67592E-19
 -1      3177 1.06676E-04-3.74413E-05-2.96982E-05 5.01272E-06-2.86476E-19 2.33623E-19
 -1      3178 1.07209E-04-3.91078E-05-2.92526E-05 6.38809E-06-3.52094E-19-5.35093E-19
 -1      3179 1.01705E-04-3.27876E-05-2.94984E-05 7.19537E-06-3.92986E-19-1.37569E-19
 -1      3180 1.03075E-04-3.41648E-05-2.95438E-05 6.67665E-06-7.37034E-20-2.15663E-19
 -1      3181 1.02749E-04-3.51208E-05-2.90432E-05 7.97298E-06-2.39269E-19-2.26024E-19
 -1      3182 9.93948E-05-3.05506E-05-2.94824E-05 7.32145E-06-2.63717E-19-5.63884E-19
 -1      3183 1.00416E-04-3.15598E-05-2.95105E-05 7.22187E-06-3.16329E-19-2.45026E-19
 -1      3184 9.95871E-05-3.19150E-05-2.90434E-05 8.30127E-06-3.27518E-19-4.66311E-19
 -1      3185 9.78623E-05-2.90688E-05-2.94716E-05 6.89987E-06 3.77608E-20-2.75120E-20
 -1      3186 9.85912E-05-2.97382E-05-2.95041E-05 7.06541E-06-2.79988E-20 1.78483E-19
 -1      3187 9.75401E-05-2.96796E-05-2.91088E-05 7.92434E-06-3.21992E-19 1.71525E-19
 -1      3188 9.68852E-05-2.81848E-05-2.94389E-05 6.18645E-06 4.35532E-20 2.20023E-19
 -1      3189 9.73963E-05-2.85886E-05-2.94825E-05 6.50114E-06-2.03445E-20-6.23188E-20
 -1      3190 9.63042E-05-2.82760E-05-2.91697E-05 7.18072E-06-7.12168E-20 6.82306E-19
 -1      3191 9.62769E-05-2.77242E-05-2.93798E-05 5.34922E-06-1.97847E-19 9.52289E-19
 -1      3192 9.66357E-05-2.79408E-05-2.94333E-05 5.73238E-06 9.27456E-20 5.82941E-19
 -1      3193 9.56104E-05-2.74979E-05-2.91991E-05 6.27709E-06-1.53141E-19 7.96287E-19
 -1      3194 9.59024E-05-2.75405E-05-2.93002E-05 4.49371E-06 1.74927E-20 9.91081E-19
 -1      3195 9.61575E-05-2.76345E-05-2.93595E-05 4.89199E-06 4.27306E-20 1.03511E-18
 -1      3196 9.52540E-05-2.71469E-05-2.91929E-05 5.33658E-06-2.89020E-19 1.34066E-18
 -1      3197 9.56719E-05-2.75250E-05-2.92091E-05 3.68349E-06 2.50377E-19 5.79516E-19
 -1      3198 9.58566E-05-2.75440E-05-2.92696E-05 4.06377E-06 2.18735E-19 8.70381E-19
 -1      3199 9.50956E-05-2.70658E-05-2.91576E-05 4.43164E-06 4.04980E-19 8.03898E-19
 -1      3200 9.55284E-05-2.76025E-05-2.91146E-05 2.95368E-06 8.84911E-19-1.79485E-19
 -1      3201 9.56645E-05-2.75791E-05-2.91727E-05 3.29733E-06 8.42012E-19 9.27439E-20
 -1      3202 9.50461E-05-2.71418E-05-2.91027E-05 3.60352E-06 7.75883E-19 3.54475E-19
 -1      3203 9.54374E-05-2.77243E-05-2.90232E-05 2.32024E-06 4.26692E-19 2.29526E-20
 -1      3204 9.55391E-05-2.76799E-05-2.90764E-05 2.61861E-06 7.04317E-19 5.62365E-20
 -1      3205 9.50514E-05-2.72986E-05-2.90373E-05 2.87306E-06 8.68636E-19 2.13049E-19
 -1      3206 9.53780E-05-2.78603E-05-2.89391E-05 1.78651E-06 4.73774E-19-3.67263E-19
 -1      3207 9.54546E-05-2.78080E-05-2.89860E-05 2.03755E-06 7.24717E-19 5.03653E-20
 -1      3208 9.50804E-05-2.74874E-05-2.89687E-05 2.24749E-06 7.07926E-19 6.66151E-19
 -1      3209 9.53379E-05-2.79930E-05-2.88646E-05 1.34796E-06-5.96322E-19-6.10753E-19
 -1      3210 9.53957E-05-2.79407E-05-2.89048E-05 1.55370E-06-3.53142E-19-3.46183E-19
 -1      3211 9.51163E-05-2.76788E-05-2.89020E-05 1.72505E-06 3.48216E-19 1.04955E-18
 -1      3212 9.53100E-05-2.81131E-05-2.88007E-05 9.95553E-07-7.52126E-19-4.42079E-20
 -1      3213 9.53535E-05-2.80650E-05-2.88342E-05 1.16033E-06-4.23906E-19-1.79214E-19
 -1      3214 9.51505E-05-2.78565E-05-2.88406E-05 1.29835E-06-4.75873E-19 8.03316E-19
 -1      3215 9.52901E-05-2.82168E-05-2.87472E-05 7.18175E-07 2.57873E-19-6.39936E-19
 -1      3216 9.53226E-05-2.81748E-05-2.87745E-05 8.47363E-07 1.04063E-19-3.23806E-20
 -1      3217 9.51796E-05-2.80126E-05-2.87861E-05 9.56937E-07-3.12505E-19 6.68100E-19
 -1      3218 9.52755E-05-2.83032E-05-2.87036E-05 5.04158E-07-1.40933E-19-9.00480E-19
 -1      3219 9.52995E-05-2.82678E-05-2.87254E-05 6.03392E-07-3.67579E-19-7.51225E-19
 -1      3220 9.52024E-05-2.81444E-05-2.87394E-05 6.89039E-07 2.89540E-20-5.94063E-19
 -1      3221 9.52647E-05-2.83731E-05-2.86687E-05 3.42298E-07-7.68607E-19 7.55049E-19
 -1      3222 9.52822E-05-2.83442E-05-2.86857E-05 4.16972E-07 5.33864E-20 2.20871E-20
 -1      3223 9.52193E-05-2.82524E-05-2.87004E-05 4.82824E-07-9.70499E-19-5.18038E-20
 -1      3224 9.52566E-05-2.84283E-05-2.86414E-05 2.22410E-07-3.25653E-19 2.01921E-19
 -1      3225 9.52691E-05-2.84053E-05-2.86544E-05 2.77404E-07-3.71383E-19 7.07008E-19
 -1      3226 9.52311E-05-2.83386E-05-2.86685E-05 3.27156E-07-1.46891E-19 1.55048E-18
 -1      3227 9.52507E-05-2.84710E-05-2.86204E-05 1.35603E-07 2.18327E-19-6.49850E-19
 -1      3228 9.52594E-05-2.84530E-05-2.86301E-05 1.75157E-07-3.42881E-21-6.17642E-19
 -1      3229 9.52389E-05-2.84059E-05-2.86430E-05 2.12037E-07 2.05195E-19 1.45005E-18
 -1      3230 9.52463E-05-2.85032E-05-2.86045E-05 7.43529E-08 1.04464E-19-9.40990E-19
 -1      3231 9.52521E-05-2.84895E-05-2.86117E-05 1.02037E-07 3.49865E-19-9.64154E-19
 -1      3232 9.52436E-05-2.84572E-05-2.86230E-05 1.28801E-07 2.71896E-19-7.85139E-19
 -1      3233 9.52431E-05-2.85270E-05-2.85928E-05 3.24570E-08-1.34131E-19-6.24421E-19
 -1      3234 9.52468E-05-2.85168E-05-2.85980E-05 5.11999E-08-3.09227E-19-3.66156E-19
 -1      3235 9.52461E-05-2.84956E-05-2.86076E-05 7.01540E-08-2.89524E-19-1.16253E-18
 -1      3236 9.52408E-05-2.85442E-05-2.85844E-05 4.91577E-09-9.32329E-19-1.86618E-19
 -1      3237 9.52430E-05-2.85367E-05-2.85880E-05 1.70663E-08-5.45201E-19-5.01998E-19
 -1      3238 9.52470E-05-2.85235E-05-2.85959E-05 3.00989E-08-6.53315E-19-6.79610E-19
 -1      3239 9.52392E-05-2.85562E-05-2.85785E-05-1.22162E-08-1.51369E-18 3.52639E-19
 -1      3240 9.52404E-05-2.85509E-05-2.85809E-05-4.81389E-09-9.46874E-19 8.01626E-19
 -1      3241 9.52469E-05-2.85434E-05-2.85873E-05 3.81553E-09-1.70476E-18 3.59608E-19
 -1      3242 9.52381E-05-2.85644E-05-2.85745E-05-2.19888E-08-1.34887E-18-8.94217E-19
 -1      3243 9.52386E-05-2.85608E-05-2.85760E-05-1.79170E-08-1.89497E-18-1.69904E-19
 -1      3244 9.52462E-05-2.85572E-05-2.85811E-05-1.24925E-08-1.13287E-18 1.19470E-18
 -1      3245 9.52374E-05-2.85698E-05-2.85718E-05-2.67104E-08-6.40151E-19-8.17630E-19
 -1      3246 9.52374E-05-2.85673E-05-2.85728E-05-2.49030E-08-9.19129E-19-1.55430E-18
 -1      3247 9.52452E-05-2.85663E-05-2.85767E-05-2.17556E-08-1.06115E-18-1.83682E-18
 -1      3248 9.52370E-05-2.85731E-05-2.85702E-05-2.80860E-08 1.12203E-18-1.33390E-18
 -1      3249 9.52367E-05-2.85715E-05-2.85707E-05-2.77615E-08 4.08174E-19-6.73182E-19
 -1      3250 9.52440E-05-2.85721E-05-2.85737E-05-2.61876E-08-1.67906E-19-2.84633E-18
 -1      3251 9.52368E-05-2.85751E-05-2.85693E-05-2.73387E-08 8.76990E-19 1.39573E-19
 -1      3252 9.52363E-05-2.85741E-05-2.85695E-05-2.79425E-08 9.74265E-19-9.09493E-19
 -1      3253 9.52428E-05-2.85755E-05-2.85717E-05-2.74213E-08 5.39414E-19-2.64046E-18
 -1      3254 9.52368E-05-2.85761E-05-2.85688E-05-2.53124E-08-5.77831E-19 1.50880E-18
 -1      3255 9.52362E-05-2.85755E-05-2.85689E-05-2.64674E-08 9.55088E-19 1.23653E-18
 -1      3256 9.52417E-05-2.85774E-05-2.85705E-05-2.66259E-08-5.48323E-20 6.99220E-19
 -1      3257 9.52369E-05-2.85767E-05-2.85686E-05-2.25618E-08-1.34805E-18 1.51024E-18
 -1      3258 9.52363E-05-2.85763E-05-2.85686E-05-2.40146E-08-1.07275E-18 1.68600E-18
 -1      3259 9.52408E-05-2.85783E-05-2.85697E-05-2.46136E-08-9.83836E-19 1.67978E-18
 -1      3260 7.41023E-05-1.14827E-05-2.67440E-05-1.01782E-05 1.93243E-19-1.79380E-18
 -1      3261 6.98787E-05-8.92115E-06-2.62083E-05-9.15576E-06 4.37430E-20-2.01572E-18
 -1      3262 9.52520E-05-2.85885E-05-2.85700E-05 1.40533E-09 1.26828E-18-3.70203E-18
 -1      3263 9.52520E-05-2.85885E-05-2.85700E-05-1.34316E-09 1.82409E-18-2.05003E-18
 -1      3264 9.52452E-05-2.85834E-05-2.85694E-05 1.55702E-08 9.20712E-19 1.16710E-18
 -1      3265 9.52471E-05-2.85848E-05-2.85695E-05 1.40483E-08-1.42191E-19-1.46136E-18
 -1      3266 9.52510E-05-2.85878E-05-2.85700E-05 6.93802E-09-3.36796E-19-1.94355E-18
 -1      3267 9.52516E-05-2.85883E-05-2.85700E-05 4.37028E-09 8.27529E-19-2.65823E-18
 -1      3268 9.52535E-05-2.85884E-05-2.85708E-05 3.05155E-09 1.39941E-18-4.19411E-18
 -1      3269 1.14898E-04-4.10975E-05-3.16937E-05 3.23420E-06 6.92077E-20 1.17490E-18
 -1      3270 1.13547E-04-4.00117E-05-3.14302E-05 1.55251E-06 3.45302E-19 9.77909E-19
 -1      3271 1.17360E-04-4.33640E-05-3.18691E-05 2.64936E-06 3.58666E-21 1.21698E-18
 -1      3272 7.33285E-05-2.69629E-05-1.94229E-05-2.99708E-05-1.21380E-18-2.24400E-18
 -1      3273 8.75962E-05-3.69014E-05-2.19178E-05-3.10297E-05-1.42672E-18-1.51301E-18
 -1      3274 1.03603E-04-4.84623E-05-2.37723E-05 2.72596E-05-8.66224E-19-7.97270E-19
 -1      3275 9.12069E-05-4.13656E-05-2.08605E-05 3.10307E-05-1.39303E-18 1.44207E-19
 -1      3276 6.51653E-05-2.90280E-05-1.49208E-05 3.20466E-05-1.51968E-18 4.13352E-19
 -1      3277 9.52487E-05-2.85861E-05-2.85697E-05 1.18733E-08-6.39503E-19-3.79614E-18
 -1      3278 9.52500E-05-2.85870E-05-2.85698E-05 9.66586E-09-1.17290E-18-2.72683E-18
 -1      3279 9.52520E-05-2.85874E-05-2.85706E-05 8.86828E-09-5.65643E-19-2.44345E-18
 -1      3280 9.52491E-05-2.85855E-05-2.85701E-05 1.38857E-08-2.53943E-19-1.72812E-18
 -1      3281 8.55309E-05-3.64847E-05-2.11938E-05 3.04775E-05 1.95101E-18-1.37383E-18
 -1      3282 6.89326E-05-2.55509E-05-1.81172E-05 2.85371E-05 1.75132E-18-2.33728E-18
 -1      3283 1.14341E-04-2.86716E-05-3.69908E-05-1.34040E-05 1.50232E-18-6.47795E-19
 -1      3284 1.12118E-04-2.35950E-05-3.79551E-05-1.14007E-05 1.93875E-18-5.02112E-19
 -1      3285 1.14516E-04-2.01799E-05-4.05991E-05-1.04052E-05 2.63681E-18-3.81377E-19
 -1      3286 1.19201E-04-3.23389E-05-3.73153E-05-1.38897E-05 8.29139E-19-7.38983E-19
 -1      3287 1.20958E-04-5.62886E-05-2.73965E-05-1.79601E-05 1.91684E-18-7.11997E-19
 -1      3288 1.27582E-04-5.72401E-05-3.04452E-05-1.01012E-05 1.36915E-18-8.91264E-19
 -1      3289 1.29109E-04-5.75429E-05-3.06202E-05 1.15078E-05-2.75630E-19-1.80418E-18
 -1      3290 1.18620E-04-5.46537E-05-2.72736E-05 1.84563E-05-5.22778E-19-1.67164E-18
 -1      3291 5.77175E-05-1.78652E-05-1.68330E-05 2.45283E-05 1.34265E-18-2.72448E-18
 -1      3292 4.93854E-05-1.10291E-05-1.61631E-05 1.53632E-05 8.55662E-19-2.79404E-18
 -1      3293 6.94726E-05-2.14949E-05-2.01345E-05 2.28907E-05 1.39220E-18-2.18286E-18
 -1      3294 1.04404E-04-3.50762E-05-2.95667E-05 1.03907E-05 1.98713E-19-8.84488E-20
 -1      3295 1.08079E-04-3.92212E-05-2.94715E-05 1.05016E-05 3.86194E-19-2.94121E-20
 -1      3296 1.06365E-04-4.10425E-05-2.82750E-05 1.47506E-05 8.49468E-19 1.45716E-19
 -1      3297 1.16231E-04-5.17114E-05-2.76128E-05 1.90560E-05 1.36801E-18 7.30712E-19
 -1      3298 1.04585E-04-4.50835E-05-2.50500E-05 2.35782E-05 1.79297E-18-2.10276E-19
 -1      3299 4.18979E-05-1.19750E-05-1.23341E-05-4.24489E-06-5.20040E-19 3.64203E-18
 -1      3300 5.07637E-05-1.59937E-05-1.46749E-05-1.56839E-05 4.97936E-19 3.61143E-18
 -1      3301 9.52404E-05-2.85801E-05-2.85687E-05-1.62792E-08 8.99615E-19 7.98753E-20
 -1      3302 4.32727E-05-6.57630E-06-1.54159E-05 2.60759E-06 4.47667E-19-3.06033E-18
 -1      3303 4.40204E-05-7.66414E-06-1.52945E-05-1.11962E-05-1.35922E-19-3.31995E-18
 -1      3304 4.95783E-05-1.63219E-05-1.41308E-05 1.92062E-05-1.73435E-18 1.61677E-18
 -1      3305 4.27016E-05-1.22652E-05-1.26801E-05 6.52744E-06-1.35882E-18 3.39290E-18
 -1      3306 5.12406E-05-1.33244E-05-1.57965E-05 2.77317E-06-8.35029E-19 2.68816E-18
 -1      3307 1.03106E-04-4.51269E-05-2.44400E-05-2.65254E-05-1.51566E-18-7.05420E-19
 -1      3308 1.15633E-04-5.18764E-05-2.76838E-05-2.01574E-05-1.31862E-18 1.05164E-19
 -1      3309 9.18570E-05-1.98485E-05-3.08417E-05 4.59746E-06-5.36092E-19-1.00492E-18
 -1      3310 1.05876E-04-3.17366E-05-3.17332E-05-3.45800E-07 9.23945E-19 3.80135E-19
 -1      3311 1.02971E-04-2.95482E-05-3.14644E-05-1.26121E-06 9.07294E-19 1.09069E-19
 -1      3312 1.03704E-04-3.16359E-05-3.08820E-05-3.04439E-06 6.61738E-19-4.71071E-20
 -1      3313 1.07351E-04-3.40445E-05-3.14665E-05-6.16503E-07 7.90783E-19 4.53694E-19
 -1      3314 1.18474E-04-1.29028E-05-4.59163E-05-4.96047E-06 3.84796E-18-6.18136E-20
 -1      3315 1.19361E-04-1.70306E-05-4.42398E-05-9.55294E-06 3.51466E-18-2.90148E-19
 -1      3316 1.14917E-04-1.36748E-05-4.37625E-05 1.51909E-07 3.03502E-18 9.00422E-19
 -1      3317 7.57937E-05-3.32559E-05-1.83634E-05 3.21537E-05-1.54107E-18 2.11917E-19
 -1      3318 6.04078E-05-2.31100E-05-1.55003E-05 2.67157E-05-1.76590E-18 2.34734E-19
 -1      3319 6.20171E-05-2.04651E-05-1.73609E-05 2.06833E-05-1.51387E-18 1.24906E-18
 -1      3320 6.64475E-05-6.32833E-06-2.57171E-05-6.55175E-06 8.46549E-20-2.09715E-18
 -1      3321 6.44510E-05-5.11354E-06-2.55098E-05-4.38251E-06 2.17879E-20-2.15563E-18
 -1      3322 6.76005E-05-8.98396E-06-2.50189E-05-9.45632E-06-5.82434E-20-1.99633E-18
 -1      3323 1.24387E-04-3.18443E-05-3.98144E-05 1.33769E-05 1.29503E-18 2.20440E-18
 -1      3324 8.23057E-05-3.29942E-05-2.10212E-05-2.65848E-05 1.54287E-18 1.61614E-18
 -1      3325 8.75184E-05-3.80815E-05-2.08063E-05-2.92762E-05 1.93071E-18 1.43696E-18
 -1      3326 9.66510E-05-4.27069E-05-2.32584E-05-2.58711E-05 1.78843E-18 6.80644E-19
 -1      3327 8.40797E-05-1.79899E-05-2.82300E-05-9.83056E-06 3.68698E-19-1.39161E-18
 -1      3328 7.92094E-05-1.51784E-05-2.75265E-05-1.04016E-05 2.26059E-19-1.54523E-18
 -1      3329 7.75254E-05-1.57473E-05-2.64181E-05-1.25575E-05 6.09467E-21-1.60670E-18
 -1      3330 1.22076E-04-2.38826E-05-4.26253E-05-1.32600E-05 2.81702E-18-8.59897E-19
 -1      3331 1.22685E-04-2.85816E-05-4.05928E-05-1.39381E-05 1.91710E-18-1.19342E-18
 -1      3332 1.18703E-04-4.99818E-05-2.93206E-05-1.22950E-05-1.23034E-18 5.10404E-19
 -1      3333 1.34819E-04-4.40465E-05-3.90058E-05-9.01144E-06 1.14408E-18-2.06962E-18
 -1      3334 1.32480E-04-4.72787E-05-3.63269E-05-6.51404E-06 4.02923E-19-2.73269E-18
 -1      3335 1.30138E-04-3.83185E-05-3.96478E-05-1.22909E-05 1.04820E-18-1.60354E-18
 -1      3336 1.31990E-04-5.48853E-05-3.29471E-05-4.49360E-08 1.05741E-18-1.03338E-18
 -1      3337 1.35199E-04-5.32480E-05-3.52003E-05-2.55666E-06-2.95879E-19 2.53580E-18
 -1      3338 5.29585E-05-9.59908E-06-1.81360E-05-1.28913E-05-2.98791E-19-2.97399E-18
 -1      3339 1.27113E-04-3.52044E-05-3.95532E-05 1.62557E-05-1.05561E-18-1.23722E-18
 -1      3340 9.88884E-05-2.82480E-05-3.01789E-05 8.22374E-06-1.91255E-19-5.76654E-19
 -1      3341 1.01359E-04-3.15130E-05-2.98936E-05 9.12418E-06-6.95824E-20-4.09331E-19
 -1      3342 9.81233E-05-3.16193E-05-2.86704E-05 1.23131E-05 2.93858E-19-4.49179E-19
 -1      3343 9.52471E-05-2.85848E-05-2.85695E-05-1.40508E-08 3.54271E-19-1.20119E-18
 -1      3344 9.52452E-05-2.85834E-05-2.85694E-05-1.55744E-08-2.37509E-19 1.13824E-19
 -1      3345 9.69584E-05-3.92111E-05-2.44853E-05-2.47162E-05-1.44816E-18-8.53730E-19
 -1      3346 1.15158E-04-4.79642E-05-2.87999E-05-1.08506E-05 8.30529E-19 2.54491E-19
 -1      3347 1.10684E-04-4.41990E-05-2.83043E-05-1.28901E-05 7.93581E-19 4.24537E-19
 -1      3348 9.52487E-05-2.85860E-05-2.85697E-05-1.18830E-08 2.59902E-19-1.17139E-18
 -1      3349 9.52491E-05-2.85854E-05-2.85701E-05-1.38720E-08 1.57958E-19-1.34869E-18
 -1      3350 9.52500E-05-2.85870E-05-2.85698E-05-9.68139E-09-1.42091E-19-2.53957E-18
 -1      3351 1.15110E-04-5.06766E-05-2.77771E-05-1.53072E-05 1.38208E-18 1.24884E-19
 -1      3352 9.35975E-05-2.27065E-05-3.03758E-05 6.29771E-06-3.72499E-19-9.26132E-19
 -1      3353 7.04664E-05-2.20178E-05-2.04265E-05-2.52023E-05-9.86846E-19-2.26775E-18
 -1      3354 1.11680E-04-1.64301E-05-4.11962E-05 3.67188E-06 2.35983E-18 1.22786E-18
 -1      3355 1.15015E-04-2.74817E-05-3.77793E-05 1.28675E-05 1.36992E-18 1.84686E-18
 -1      3356 9.52373E-05-2.85772E-05-2.85686E-05-2.13727E-08-1.05811E-18 9.53764E-19
 -1      3357 9.52409E-05-2.85791E-05-2.85693E-05-2.21081E-08-8.58581E-19 1.80296E-19
 -1      3358 9.52382E-05-2.85779E-05-2.85688E-05-2.01452E-08 1.80066E-19 1.14970E-19
 -1      3359 9.73570E-05-2.79838E-05-2.97714E-05-6.89907E-06 5.49116E-19-6.19194E-19
 -1      3360 9.33910E-05-2.38209E-05-2.97843E-05-6.70989E-06 6.38054E-19-8.71171E-19
 -1      3361 8.90343E-05-2.12752E-05-2.90742E-05-8.33095E-06 4.71015E-19-1.11609E-18
 -1      3362 9.52516E-05-2.85883E-05-2.85700E-05-4.35003E-09 1.59890E-18-2.01140E-19
 -1      3363 9.52510E-05-2.85878E-05-2.85700E-05-6.95995E-09 3.31213E-19-1.81026E-18
 -1      3364 9.52520E-05-2.85874E-05-2.85706E-05-8.87860E-09-1.92274E-19-1.46134E-18
 -1      3365 9.52535E-05-2.85884E-05-2.85708E-05-3.03626E-09 5.15117E-19-1.36218E-18
 -1      3366 8.51240E-05-3.56844E-05-2.09363E-05 2.79922E-05-1.55089E-18 1.57230E-19
 -1      3367 1.13650E-04-5.21600E-05-2.62277E-05-2.01185E-05 1.70129E-18 2.82967E-19
 -1      3368 1.29378E-04-5.46003E-05-3.24216E-05 4.04683E-06-4.81154E-20-2.59650E-18
 -1      3369 1.18529E-04-5.22830E-05-2.84285E-05 1.27659E-05-6.17163E-19-2.00708E-18
 -1      3370 1.12830E-04-5.16394E-05-2.59826E-05 2.09184E-05-5.11158E-19-1.62556E-18
 -1      3371 1.05938E-04-4.69310E-05-2.52665E-05 2.16722E-05-7.03792E-19-1.14480E-18
 -1      3372 1.20054E-04-3.51556E-05-3.64359E-05 1.28360E-05 7.69291E-19 2.10887E-18
 -1      3373 1.21401E-04-3.95193E-05-3.51900E-05 1.12628E-05 5.28231E-19 1.98758E-18
 -1      3374 5.74096E-05-1.04457E-05-2.00880E-05 1.23199E-05 8.01607E-19-2.31629E-18
 -1      3375 4.98195E-05-8.15793E-06-1.74804E-05 8.19208E-06 5.99818E-19-2.73703E-18
 -1      3376 5.19814E-05-6.47779E-06-1.94770E-05 1.19030E-06 2.61237E-19-2.54727E-18
 -1      3377 9.74686E-05-3.85816E-05-2.49890E-05 2.21752E-05 1.45099E-18-6.41336E-19
 -1      3378 1.11085E-04-3.82087E-05-3.12935E-05 3.72231E-07 5.59139E-19 7.01058E-19
 -1      3379 1.09457E-04-3.62211E-05-3.13241E-05-4.46995E-07 5.63896E-19 5.29109E-19
 -1      3380 1.07832E-04-3.54696E-05-3.10634E-05-1.71385E-06 5.14695E-19 3.27018E-19
 -1      3381 1.12326E-04-4.01392E-05-3.10432E-05-8.99427E-07 2.35785E-19 6.66208E-19
 -1      3382 5.52750E-05-1.51992E-05-1.71632E-05-1.18237E-05-1.22118E-19 2.87229E-18
 -1      3383 5.88674E-05-1.92282E-05-1.65686E-05-2.02566E-05 8.27551E-19 3.11756E-18
 -1      3384 6.74701E-05-2.29355E-05-1.89231E-05-2.13696E-05 8.11431E-19 2.48461E-18
 -1      3385 9.52429E-05-2.85816E-05-2.85691E-05-1.71078E-08 1.30959E-18 6.88887E-19
 -1      3386 9.52394E-05-2.85789E-05-2.85688E-05-1.79653E-08 8.21985E-19-1.84461E-19
 -1      3387 9.52386E-05-2.85784E-05-2.85687E-05-1.93070E-08 7.19974E-19-1.96535E-19
 -1      3388 9.52446E-05-2.85824E-05-2.85695E-05-1.76335E-08-4.22514E-19-8.75237E-19
 -1      3389 1.04288E-04-4.17171E-05-2.69873E-05-1.69411E-05 7.68821E-19 9.80997E-19
 -1      3390 1.24084E-04-4.33975E-05-3.47746E-05 8.19335E-06 2.23375E-19 2.04925E-18
 -1      3391 6.85569E-05-7.62777E-06-2.61880E-05 5.48070E-06 1.73317E-19-2.00204E-18
 -1      3392 7.26503E-05-9.98897E-06-2.67733E-05 7.12505E-06 1.65543E-19-1.86743E-18
 -1      3393 9.52427E-05-2.85813E-05-2.85692E-05 1.76261E-08-1.06684E-18-6.77257E-19
 -1      3394 9.52441E-05-2.85825E-05-2.85692E-05 1.66587E-08 1.11618E-19 1.51498E-18
 -1      3395 9.52460E-05-2.85832E-05-2.85698E-05 1.70783E-08-8.35447E-19 4.46996E-19
 -1      3396 9.52432E-05-2.85813E-05-2.85694E-05 1.89315E-08-1.82569E-18-9.52422E-19
 -1      3397 7.80131E-05-1.37683E-05-2.76312E-05 8.45595E-06 1.43948E-19-1.51486E-18
 -1      3398 8.34672E-05-1.68944E-05-2.84334E-05 8.59399E-06-9.11032E-20-1.40011E-18
 -1      3399 7.54237E-05-1.38129E-05-2.63667E-05 1.00621E-05 2.26614E-19-1.60805E-18
 -1      3400 1.32325E-04-4.78028E-05-3.65747E-05 9.32682E-06 2.61416E-19-1.24196E-18
 -1      3401 1.13404E-04-4.62737E-05-2.84662E-05-1.34275E-05-1.11351E-18 2.69519E-19
 -1      3402 1.19804E-04-4.89137E-05-3.07050E-05-6.23823E-06-7.36935E-19 8.49151E-19
 -1      3403 1.28414E-04-4.77564E-05-3.47023E-05 4.06547E-06-3.18114E-19 1.79169E-18
 -1      3404 1.20019E-04-5.16716E-05-2.94156E-05 1.23078E-05 1.08634E-18 1.24527E-18
 -1      3405 8.98993E-05-2.18063E-05-2.92612E-05 8.62437E-06-1.65105E-19-1.06583E-18
 -1      3406 9.07583E-05-3.30182E-05-2.44311E-05-2.32588E-05-1.16218E-18-8.98020E-19
 -1      3407 1.02982E-04-4.16378E-05-2.65617E-05-2.02134E-05-1.15390E-18-2.57048E-19
 -1      3408 9.10188E-05-2.83680E-05-2.67960E-05-1.45465E-05 3.37960E-19 1.99518E-18
 -1      3409 8.98838E-05-2.66460E-05-2.71090E-05-1.33558E-05 6.70182E-20 2.15991E-18
 -1      3410 9.00802E-05-2.57302E-05-2.75392E-05-1.19227E-05-2.43579E-19 2.16763E-18
 -1      3411 8.96648E-05-2.48626E-05-2.77902E-05-1.09367E-05-3.82398E-19 1.91226E-18
 -1      3412 8.66805E-05-2.44966E-05-2.66563E-05-1.25713E-05-1.41285E-19 2.82942E-18
 -1      3413 9.01475E-05-2.45069E-05-2.81074E-05-9.83898E-06-2.58021E-19 1.35394E-18
 -1      3414 9.01255E-05-2.41682E-05-2.82859E-05-8.99925E-06-2.26476E-19 1.25039E-18
 -1      3415 8.74473E-05-2.33562E-05-2.74594E-05-1.00311E-05-5.56858E-19 2.66328E-18
 -1      3416 9.07025E-05-2.41604E-05-2.85041E-05-8.14332E-06-4.77844E-19 1.46708E-18
 -1      3417 9.08622E-05-2.41296E-05-2.86164E-05-7.41822E-06-5.39462E-19 1.12162E-18
 -1      3418 8.85495E-05-2.31103E-05-2.80327E-05-8.12587E-06-4.25357E-19 2.43568E-18
 -1      3419 9.14316E-05-2.43126E-05-2.87569E-05-6.72527E-06-5.78619E-20 9.01196E-19
 -1      3420 9.16546E-05-2.44481E-05-2.88172E-05-6.09358E-06 6.82987E-19 1.04560E-18
 -1      3421 8.97088E-05-2.33676E-05-2.84186E-05-6.63884E-06-2.04639E-19 1.72324E-18
 -1      3422 9.21691E-05-2.47220E-05-2.89002E-05-5.51678E-06 1.01390E-18 8.08703E-19
 -1      3423 9.23949E-05-2.49355E-05-2.89235E-05-4.96620E-06 8.95906E-19 8.89612E-19
 -1      3424 9.07925E-05-2.38849E-05-2.86625E-05-5.42789E-06 6.67742E-19 1.01770E-18
 -1      3425 9.28362E-05-2.52388E-05-2.89660E-05-4.47947E-06 9.63688E-19 1.03906E-18
 -1      3426 9.30376E-05-2.54775E-05-2.89647E-05-4.00321E-06 7.33715E-19 8.37233E-19
 -1      3427 9.17427E-05-2.45106E-05-2.88035E-05-4.41412E-06 1.02698E-18 5.74904E-19
 -1      3428 9.34031E-05-2.57746E-05-2.89799E-05-3.59184E-06-4.07696E-19 3.97789E-19
 -1      3429 9.35708E-05-2.60088E-05-2.89638E-05-3.18512E-06-1.01232E-18 1.15033E-19
 -1      3430 9.25426E-05-2.51529E-05-2.88729E-05-3.55540E-06-1.04097E-19-1.47743E-20
 -1      3431 9.38657E-05-2.62809E-05-2.89616E-05-2.83980E-06-1.18764E-18 6.84081E-19
 -1      3432 9.39993E-05-2.64950E-05-2.89375E-05-2.49786E-06-1.00306E-18 9.10462E-20
 -1      3433 9.31963E-05-2.57599E-05-2.88948E-05-2.82854E-06-9.31383E-19 2.93545E-19
 -1      3434 9.42323E-05-2.67333E-05-2.89252E-05-2.21137E-06-8.51477E-19 6.98579E-21
 -1      3435 9.43356E-05-2.69206E-05-2.88979E-05-1.92863E-06-8.84641E-19 4.04396E-19
 -1      3436 9.37187E-05-2.63046E-05-2.88867E-05-2.21858E-06-1.14898E-18 5.64521E-19
 -1      3437 9.45164E-05-2.71229E-05-2.88803E-05-1.69431E-06-6.03013E-19 5.77637E-19
 -1      3438 9.45943E-05-2.72816E-05-2.88529E-05-1.46445E-06-3.52127E-19 4.51291E-19
 -1      3439 9.41282E-05-2.67762E-05-2.88614E-05-1.71329E-06-4.51066E-19 1.54662E-19
 -1      3440 9.47323E-05-2.74493E-05-2.88333E-05-1.27576E-06-5.56159E-19 6.29598E-19
 -1      3441 9.47899E-05-2.75805E-05-2.88076E-05-1.09201E-06-1.78472E-21 5.92816E-19
 -1      3442 9.44438E-05-2.71736E-05-2.88273E-05-1.30099E-06-3.22384E-19-4.20396E-19
 -1      3443 9.48935E-05-2.77166E-05-2.87881E-05-9.42517E-07 2.95444E-19 3.54744E-19
 -1      3444 9.49352E-05-2.78230E-05-2.87652E-05-7.98082E-07 8.04409E-20 4.06209E-19
 -1      3445 9.46831E-05-2.75010E-05-2.87903E-05-9.69947E-07-2.42658E-19 2.77806E-19
 -1      3446 9.50116E-05-2.79315E-05-2.87469E-05-6.81599E-07-5.69061E-19 2.64427E-19
 -1      3447 9.50412E-05-2.80162E-05-2.87272E-05-5.69979E-07-1.00633E-18-1.19637E-19
 -1      3448 9.48615E-05-2.77657E-05-2.87539E-05-7.08527E-07-6.02114E-20 2.20370E-19
 -1      3449 9.50966E-05-2.81013E-05-2.87109E-05-4.80774E-07-1.20379E-18 2.71454E-19
 -1      3450 9.51171E-05-2.81675E-05-2.86943E-05-3.96010E-07-1.18787E-18 9.54833E-20
 -1      3451 9.49922E-05-2.79759E-05-2.87203E-05-5.05581E-07-7.91143E-19-1.11392E-19
 -1      3452 9.51563E-05-2.82331E-05-2.86802E-05-3.28926E-07-1.39296E-18-3.55533E-19
 -1      3453 9.51701E-05-2.82842E-05-2.86666E-05-2.65739E-07-1.12203E-18-3.34995E-19
 -1      3454 9.50861E-05-2.81401E-05-2.86905E-05-3.50785E-07-1.78200E-18 7.74029E-20
 -1      3455 9.51972E-05-2.83339E-05-2.86548E-05-2.16271E-07-3.79323E-19-2.76700E-19
 -1      3456 9.52061E-05-2.83726E-05-2.86438E-05-1.70110E-07-9.91301E-20 9.55258E-19
 -1      3457 9.51520E-05-2.82662E-05-2.86649E-05-2.34894E-07-4.45025E-19 8.34581E-19
 -1      3458 9.52242E-05-2.84096E-05-2.86341E-05-1.34421E-07-8.40581E-20 1.03517E-18
 -1      3459 9.52296E-05-2.84383E-05-2.86255E-05-1.01460E-07-3.13433E-19 5.91890E-19
 -1      3460 9.51969E-05-2.83615E-05-2.86435E-05-1.49865E-07-8.38228E-20 5.79558E-19
 -1      3461 9.52411E-05-2.84654E-05-2.86177E-05-7.63562E-08-4.97407E-19 1.11143E-18
 -1      3462 9.52441E-05-2.84863E-05-2.86109E-05-5.34474E-08 6.30751E-20 9.73079E-19
 -1      3463 9.52264E-05-2.84321E-05-2.86260E-05-8.88772E-08 3.64866E-20 1.09460E-18
 -1      3464 9.52510E-05-2.85056E-05-2.86048E-05-3.63241E-08-3.66283E-19 7.71185E-19
 -1      3465 9.52523E-05-2.85205E-05-2.85996E-05-2.09280E-08-3.77163E-19 4.30911E-19
 -1      3466 9.52447E-05-2.84834E-05-2.86119E-05-4.62770E-08-1.42494E-19 1.21756E-18
 -1      3467 9.52559E-05-2.85339E-05-2.85949E-05-9.70317E-09 4.91242E-19 1.03406E-18
 -1      3468 9.52562E-05-2.85443E-05-2.85910E-05 1.90668E-10 1.37373E-18 4.34982E-19
 -1      3469 9.52551E-05-2.85198E-05-2.86008E-05-1.74759E-08 2.95702E-19 2.83148E-18
 -1      3470 9.52576E-05-2.85533E-05-2.85874E-05 7.15035E-09 1.44604E-18-2.99512E-19
 -1      3471 9.52572E-05-2.85602E-05-2.85845E-05 1.31045E-08 1.37701E-18 3.02872E-19
 -1      3472 9.52601E-05-2.85449E-05-2.85922E-05 1.17798E-09 8.76255E-19 3.32109E-19
 -1      3473 9.52571E-05-2.85660E-05-2.85818E-05 1.70560E-08 1.57861E-18 9.47691E-19
 -1      3474 9.52564E-05-2.85704E-05-2.85797E-05 2.02613E-08 2.08061E-18 1.48115E-18
 -1      3475 9.52614E-05-2.85616E-05-2.85857E-05 1.25361E-08 2.08130E-18 3.98942E-19
 -1      3476 9.52554E-05-2.85739E-05-2.85777E-05 2.21527E-08 1.66030E-18 1.17430E-18
 -1      3477 9.52545E-05-2.85766E-05-2.85763E-05 2.34977E-08 6.06619E-19 1.59512E-18
 -1      3478 9.52605E-05-2.85721E-05-2.85808E-05 1.87817E-08 1.15198E-18 1.83201E-19
 -1      3479 9.52531E-05-2.85785E-05-2.85748E-05 2.40267E-08 1.87776E-20 1.16378E-18
 -1      3480 9.52521E-05-2.85799E-05-2.85738E-05 2.41569E-08 8.12505E-19 1.08648E-18
 -1      3481 9.52583E-05-2.85784E-05-2.85771E-05 2.15507E-08 3.31561E-19-8.02647E-19
 -1      3482 9.52505E-05-2.85808E-05-2.85727E-05 2.38256E-08 2.86828E-19 7.63749E-19
 -1      3483 9.52496E-05-2.85815E-05-2.85720E-05 2.31981E-08 1.28868E-19-2.43950E-19
 -1      3484 9.52554E-05-2.85817E-05-2.85745E-05 2.20376E-08 1.35996E-19-7.51670E-19
 -1      3485 9.52480E-05-2.85818E-05-2.85712E-05 2.23488E-08 2.10383E-19-1.06840E-19
 -1      3486 9.52471E-05-2.85820E-05-2.85708E-05 2.12616E-08-1.50318E-19 3.84737E-19
 -1      3487 9.52523E-05-2.85832E-05-2.85725E-05 2.11012E-08 4.80951E-19-1.24747E-18
 -1      3488 1.23772E-04-4.97940E-05-3.16019E-05 1.03977E-07 3.87451E-20-1.98886E-18
 -1      3489 1.25393E-04-4.75486E-05-3.33875E-05-3.74399E-06-2.13267E-19-1.93915E-18
 -1      3490 1.04472E-04-3.78595E-05-2.84709E-05 9.50148E-06-5.92544E-19-3.58518E-19
 -1      3491 1.07122E-04-4.02551E-05-2.86471E-05 8.52344E-06-6.62163E-19-5.97203E-19
 -1      3492 9.99885E-05-3.34957E-05-2.84500E-05 9.81161E-06-4.44742E-19-1.28562E-19
 -1      3493 1.01949E-04-3.55113E-05-2.84639E-05 9.56974E-06-3.44849E-19-1.03978E-19
 -1      3494 1.01051E-04-3.63936E-05-2.78131E-05 1.16982E-05-9.01241E-19-3.38697E-19
 -1      3495 9.71497E-05-3.03843E-05-2.85895E-05 9.23413E-06-2.67175E-19-3.03317E-20
 -1      3496 9.84601E-05-3.18095E-05-2.85466E-05 9.38833E-06-1.27713E-19-9.91306E-20
 -1      3497 9.71294E-05-3.20270E-05-2.79624E-05 1.09212E-05-3.10218E-19-4.92594E-20
 -1      3498 9.55002E-05-2.83756E-05-2.87576E-05 8.28529E-06-7.25777E-19-1.70400E-19
 -1      3499 9.63152E-05-2.92934E-05-2.87069E-05 8.64536E-06-7.64426E-19-6.13506E-19
 -1      3500 9.48648E-05-2.90995E-05-2.82195E-05 9.68953E-06-2.86409E-19-3.72522E-19
 -1      3501 9.46488E-05-2.72215E-05-2.88957E-05 7.20529E-06-2.01155E-21 3.00372E-19
 -1      3502 9.51202E-05-2.77485E-05-2.88595E-05 7.65748E-06-1.18413E-19-5.10013E-20
 -1      3503 9.37165E-05-2.73182E-05-2.84738E-05 8.34801E-06-7.51828E-19-1.13590E-18
 -1      3504 9.42886E-05-2.66643E-05-2.89846E-05 6.12400E-06-8.63006E-19 7.75776E-19
 -1      3505 9.45404E-05-2.69205E-05-2.89690E-05 6.60330E-06-3.21756E-19 4.25005E-19
 -1      3506 9.32694E-05-2.63774E-05-2.86757E-05 7.06117E-06-4.06132E-19-2.25875E-19
 -1      3507 9.42107E-05-2.64951E-05-2.90258E-05 5.10432E-06-7.89577E-20 4.61306E-19
 -1      3508 9.43306E-05-2.65762E-05-2.90289E-05 5.57223E-06-5.00869E-19 4.27211E-19
 -1      3509 9.32258E-05-2.59986E-05-2.88140E-05 5.88549E-06-4.20668E-19 2.70730E-19
 -1      3510 9.42807E-05-2.65596E-05-2.90290E-05 4.17849E-06 4.70427E-19 1.22359E-20
 -1      3511 9.43261E-05-2.65356E-05-2.90460E-05 4.61251E-06 1.75713E-19 3.34799E-19
 -1      3512 9.33948E-05-2.59735E-05-2.88944E-05 4.83759E-06 3.17328E-20-3.99074E-19
 -1      3513 9.44170E-05-2.67512E-05-2.90052E-05 3.36171E-06 9.18210E-19-1.80461E-19
 -1      3514 9.44233E-05-2.66702E-05-2.90311E-05 3.74956E-06 7.87658E-19 1.58360E-19
 -1      3515 9.36581E-05-2.61532E-05-2.89289E-05 3.92029E-06 6.04637E-19 1.22696E-19
 -1      3516 9.45721E-05-2.69996E-05-2.89648E-05 2.65854E-06 7.58149E-19 2.59786E-23
 -1      3517 9.45603E-05-2.68930E-05-2.89952E-05 2.99490E-06 9.31036E-19-2.66525E-19
 -1      3518 9.39457E-05-2.64366E-05-2.89304E-05 3.13055E-06 5.72214E-19-7.39322E-19
 -1      3519 9.47208E-05-2.72607E-05-2.89160E-05 2.06633E-06 2.21447E-19 4.32554E-19
 -1      3520 9.47024E-05-2.71481E-05-2.89475E-05 2.35067E-06 1.76345E-19 3.99025E-19
 -1      3521 9.42194E-05-2.67581E-05-2.89100E-05 2.46187E-06-3.15084E-20-5.60499E-19
 -1      3522 9.48512E-05-2.75091E-05-2.88648E-05 1.57760E-06 2.45417E-19 1.25177E-18
 -1      3523 9.48323E-05-2.74017E-05-2.88951E-05 1.81257E-06 6.35882E-19 1.20395E-18
 -1      3524 9.44606E-05-2.70774E-05-2.88768E-05 1.90517E-06-4.47303E-19-4.08185E-19
 -1      3525 9.49591E-05-2.77313E-05-2.88151E-05 1.18191E-06-6.62892E-19 1.51631E-18
 -1      3526 9.49424E-05-2.76351E-05-2.88429E-05 1.37210E-06-5.20902E-20 1.62764E-18
 -1      3527 9.46626E-05-2.73717E-05-2.88375E-05 1.44950E-06-8.49025E-20 1.44584E-18
 -1      3528 9.50447E-05-2.79219E-05-2.87695E-05 8.67417E-07 9.55977E-19-2.71845E-19
 -1      3529 9.50312E-05-2.78394E-05-2.87939E-05 1.01838E-06 2.88407E-19 6.24298E-19
 -1      3530 9.48253E-05-2.76300E-05-2.87969E-05 1.08277E-06 5.16796E-19 7.69404E-19
 -1      3531 9.51102E-05-2.80801E-05-2.87292E-05 6.21958E-07-3.97882E-21 1.40472E-19
 -1      3532 9.51000E-05-2.80116E-05-2.87501E-05 7.39527E-07 5.82304E-19 1.56558E-19
 -1      3533 9.49523E-05-2.78486E-05-2.87579E-05 7.92590E-07 6.86234E-19-3.00575E-19
 -1      3534 9.51587E-05-2.82080E-05-2.86947E-05 4.33853E-07-1.71236E-18-2.47196E-21
 -1      3535 9.51515E-05-2.81526E-05-2.87121E-05 5.23697E-07-9.47587E-19-4.47110E-19
 -1      3536 9.50486E-05-2.80282E-05-2.87225E-05 5.66891E-07-3.59666E-19 2.59121E-19
 -1      3537 9.51935E-05-2.83090E-05-2.86660E-05 2.92412E-07 1.69906E-19 4.35364E-19
 -1      3538 9.51886E-05-2.82652E-05-2.86801E-05 3.59735E-07-9.01720E-19 3.75800E-19
 -1      3539 9.51195E-05-2.81723E-05-2.86913E-05 3.94413E-07-1.22403E-18-2.14855E-19
 -1      3540 9.52176E-05-2.83870E-05-2.86425E-05 1.88195E-07 5.66096E-19 8.85829E-19
 -1      3541 9.52145E-05-2.83532E-05-2.86538E-05 2.37594E-07 1.14218E-18 1.41337E-18
 -1      3542 9.51704E-05-2.82853E-05-2.86648E-05 2.65028E-07 4.36575E-19-6.96531E-19
 -1      3543 9.52334E-05-2.84460E-05-2.86238E-05 1.13118E-07 2.58235E-19 2.20232E-19
 -1      3544 9.52317E-05-2.84204E-05-2.86326E-05 1.48526E-07 4.37266E-19 3.10456E-19
 -1      3545 9.52055E-05-2.83721E-05-2.86428E-05 1.69898E-07 1.18069E-18 9.47013E-19
 -1      3546 9.52433E-05-2.84897E-05-2.86091E-05 6.04253E-08-2.41297E-19-4.68489E-19
 -1      3547 9.52425E-05-2.84707E-05-2.86159E-05 8.51220E-08-1.47813E-19-2.90192E-19
 -1      3548 9.52288E-05-2.84373E-05-2.86249E-05 1.01506E-07 1.87846E-19 8.12349E-19
 -1      3549 9.52488E-05-2.85212E-05-2.85978E-05 2.46013E-08-1.55996E-18 5.97351E-19
 -1      3550 9.52487E-05-2.85075E-05-2.86029E-05 4.12567E-08-9.17798E-19-2.88319E-19
 -1      3551 9.52434E-05-2.84852E-05-2.86107E-05 5.36076E-08-7.17472E-19 1.04481E-18
 -1      3552 9.52514E-05-2.85434E-05-2.85893E-05 1.23136E-09-2.24537E-18 3.07129E-19
 -1      3553 9.52516E-05-2.85338E-05-2.85931E-05 1.19758E-08-2.21225E-18 5.40338E-19
 -1      3554 9.52518E-05-2.85196E-05-2.85996E-05 2.11215E-08-2.10852E-18 1.60273E-18
 -1      3555 9.52519E-05-2.85585E-05-2.85830E-05-1.31474E-08-4.33128E-19 2.56993E-20
 -1      3556 9.52524E-05-2.85519E-05-2.85857E-05-6.64886E-09-1.19826E-18 4.86244E-19
 -1      3557 9.52558E-05-2.85436E-05-2.85910E-05-6.27141E-12-1.52510E-18-6.64740E-19
 -1      3558 9.52512E-05-2.85683E-05-2.85784E-05-2.11981E-08-7.22701E-19-1.21290E-18
 -1      3559 9.52518E-05-2.85640E-05-2.85803E-05-1.76702E-08-7.90860E-20-5.75933E-19
 -1      3560 9.52569E-05-2.85597E-05-2.85846E-05-1.29481E-08-2.69083E-19-8.27735E-19
 -1      3561 9.52498E-05-2.85744E-05-2.85752E-05-2.49261E-08 1.29255E-19-1.94610E-18
 -1      3562 9.52504E-05-2.85717E-05-2.85765E-05-2.34136E-08-7.26109E-19-1.97669E-18
 -1      3563 9.52562E-05-2.85701E-05-2.85798E-05-2.01387E-08-5.20925E-21-1.58353E-18
 -1      3564 9.52480E-05-2.85779E-05-2.85729E-05-2.58045E-08-9.15114E-19-6.61198E-19
 -1      3565 9.52487E-05-2.85763E-05-2.85738E-05-2.56101E-08 1.69866E-19-1.84251E-18
 -1      3566 9.52544E-05-2.85764E-05-2.85763E-05-2.34077E-08-2.19473E-19-1.70254E-19
 -1      3567 9.52462E-05-2.85796E-05-2.85714E-05-2.48834E-08-9.58383E-19 5.56714E-19
 -1      3568 9.52467E-05-2.85788E-05-2.85719E-05-2.55143E-08-1.03909E-18-2.35541E-19
 -1      3569 9.52520E-05-2.85799E-05-2.85738E-05-2.40966E-08-1.03843E-18-2.55416E-19
 -1      3570 9.52444E-05-2.85803E-05-2.85703E-05-2.28805E-08-9.58230E-19 1.08540E-19
 -1      3571 9.52449E-05-2.85799E-05-2.85707E-05-2.39984E-08-7.10772E-19 3.63957E-19
 -1      3572 9.52495E-05-2.85815E-05-2.85720E-05-2.31616E-08-8.25714E-19-9.77275E-19
 -1      3573 1.24712E-04-3.59529E-05-3.84620E-05-1.31652E-05 6.06396E-19-9.59516E-19
 -1      3574 1.07067E-04-4.68138E-05-2.54564E-05-2.14260E-05 1.80728E-18 7.52936E-19
 -1      3575 9.23337E-05-3.28615E-05-2.52500E-05 2.03617E-05 1.20802E-18-8.77003E-19
 -1      3576 9.52554E-05-2.85885E-05-2.85716E-05 4.71758E-09 1.48762E-19-4.42197E-18
 -1      3577 9.52558E-05-2.85887E-05-2.85716E-05 1.70640E-09 7.18940E-19-4.31338E-18
 -1      3578 1.18529E-04-4.54079E-05-3.13203E-05-8.77902E-07-3.81125E-19 8.80269E-19
 -1      3579 1.15746E-04-4.38074E-05-3.06065E-05-3.37662E-06-3.47373E-19 7.64924E-19
 -1      3580 6.86677E-05-2.35076E-05-1.95042E-05 2.24957E-05-1.42497E-18 6.20981E-19
 -1      3581 6.03960E-05-1.70530E-05-1.83203E-05 1.51264E-05-1.35535E-18 1.01554E-18
 -1      3582 1.00829E-04-4.22532E-05-2.49841E-05-2.15999E-05 1.30906E-18 1.03567E-18
 -1      3583 5.35803E-05-6.75744E-06-1.98197E-05-7.79110E-06-5.87927E-20-2.64687E-18
 -1      3584 5.82378E-05-1.08180E-05-2.03320E-05-1.59140E-05-4.60865E-19-2.60161E-18
 -1      3585 7.61950E-05-2.40922E-05-2.22407E-05 2.23220E-05 1.26292E-18-1.74536E-18
 -1      3586 6.67760E-05-1.69345E-05-2.10883E-05 1.90191E-05 1.02124E-18-2.17351E-18
 -1      3587 1.19388E-04-4.69047E-05-3.09717E-05-1.92331E-07 2.02810E-19-1.23284E-18
 -1      3588 1.20294E-04-5.17138E-05-2.95373E-05 8.34934E-06-3.87359E-19-1.60104E-18
 -1      3589 1.14428E-04-4.85756E-05-2.82447E-05 1.15366E-05-3.62442E-19-1.20809E-18
 -1      3590 1.16641E-04-4.64315E-05-2.99238E-05 3.50003E-06 4.93843E-20-1.11416E-18
 -1      3591 6.40804E-05-4.58984E-06-2.54902E-05-1.76989E-07 1.00413E-19-2.16470E-18
 -1      3592 6.55452E-05-5.50438E-06-2.57084E-05 2.24874E-06 2.16399E-20-2.07804E-18
 -1      3593 6.62451E-05-7.73707E-06-2.49435E-05 5.10895E-06 1.68629E-19-2.13930E-18
 -1      3594 9.67292E-05-3.76572E-05-2.50700E-05-2.07622E-05 6.33180E-19 1.20019E-18
 -1      3595 5.54073E-05-1.36922E-05-1.78529E-05 6.72469E-06-9.05845E-19 1.47940E-18
 -1      3596 5.47587E-05-1.31477E-05-1.75438E-05-2.91281E-06-2.43091E-19 2.82830E-18
 -1      3597 6.63774E-05-1.61123E-05-2.12883E-05-2.00809E-05-7.66370E-19-2.26536E-18
 -1      3598 7.72293E-05-2.43710E-05-2.28713E-05-2.37687E-05-9.92802E-19-1.61257E-18
 -1      3599 9.39243E-05-3.33838E-05-2.59560E-05-1.77356E-05 5.63839E-19 1.44115E-18
 -1      3600 9.15180E-05-3.02472E-05-2.62494E-05-1.63007E-05 6.07379E-19 1.80940E-18
 -1      3601 8.68884E-05-2.72846E-05-2.56097E-05-1.60820E-05 7.73346E-19 2.15634E-18
 -1      3602 1.10102E-04-4.24448E-05-2.88753E-05 7.61692E-06-2.94293E-19-9.90355E-19
 -1      3603 1.13116E-04-4.45171E-05-2.93670E-05 5.43512E-06-3.15454E-20-9.57108E-19
 -1      3604 1.12712E-04-4.59256E-05-2.87466E-05 8.84798E-06-2.34489E-19-7.32674E-19
 -1      3605 1.06486E-04-4.14127E-05-2.80281E-05 1.11943E-05-5.19428E-19-7.15622E-19
 -1      3606 9.12470E-05-3.76787E-05-2.31113E-05 2.48555E-05-1.60427E-18 4.81750E-21
 -1      3607 7.97345E-05-2.97906E-05-2.10584E-05 2.50688E-05-1.97298E-18 3.66170E-19
 -1      3608 7.75924E-05-2.80064E-05-2.08432E-05-2.41942E-05 1.37811E-18 2.26872E-18
 -1      3609 8.52797E-05-3.26945E-05-2.26171E-05-2.37403E-05 1.11025E-18 9.05147E-19
 -1      3610 8.80042E-05-2.25277E-05-2.81035E-05-1.11771E-05 1.79065E-19-1.07943E-18
 -1      3611 1.07188E-04-4.13653E-05-2.81361E-05-1.37618E-05-8.96227E-19-7.24941E-21
 -1      3612 1.22919E-04-4.72963E-05-3.22234E-05 1.58232E-06-4.67787E-19 1.45614E-18
 -1      3613 8.54489E-05-2.70437E-05-2.49116E-05-1.99324E-05-7.56983E-19-1.21088E-18
 -1      3614 8.85127E-05-2.27167E-05-2.81609E-05 1.11305E-05 1.13456E-19-1.05839E-18
 -1      3615 9.13498E-05-3.34194E-05-2.47905E-05-1.97622E-05 4.70103E-19 1.36509E-18
 -1      3616 8.44629E-05-2.86351E-05-2.37660E-05-1.99226E-05 1.00041E-18 2.29315E-18
 -1      3617 9.52455E-05-2.85817E-05-2.85702E-05 2.07406E-08 4.14696E-19 5.53302E-19
 -1      3618 9.52446E-05-2.85816E-05-2.85698E-05 1.96333E-08 9.65506E-20-2.16387E-19
 -1      3619 9.52460E-05-2.85826E-05-2.85700E-05 1.87703E-08-7.12327E-19-2.30439E-19
 -1      3620 9.52490E-05-2.85833E-05-2.85711E-05 1.98622E-08 4.04996E-19 7.82890E-19
 -1      3621 1.33528E-04-4.21381E-05-3.94499E-05 1.43514E-05-7.87741E-20-1.01792E-18
 -1      3622 9.52416E-05-2.85800E-05-2.85692E-05-1.98701E-08-3.12478E-20 3.47153E-20
 -1      3623 7.71792E-05-2.61506E-05-2.17005E-05 2.06524E-05-1.49778E-18 2.72361E-19
 -1      3624 9.52441E-05-2.85807E-05-2.85701E-05-2.17349E-08-7.69299E-19 2.11384E-19
 -1      3625 9.52481E-05-2.85824E-05-2.85710E-05-2.11795E-08-6.85898E-19-1.60265E-18
 -1      3626 9.52444E-05-2.85812E-05-2.85699E-05-2.04890E-08-6.43073E-19-1.34900E-19
 -1      3627 9.96098E-05-4.17256E-05-2.45205E-05 2.25849E-05-1.00635E-18-7.04688E-19
 -1      3628 9.37959E-05-3.67110E-05-2.44066E-05 2.10956E-05-1.42464E-18 2.73532E-20
 -1      3629 1.06361E-04-4.50612E-05-2.63429E-05 1.76305E-05-6.18830E-19-1.46701E-18
 -1      3630 1.02102E-04-3.22722E-05-2.99445E-05-6.55275E-06 4.03935E-19-5.04090E-19
 -1      3631 9.84603E-05-3.02671E-05-2.91741E-05-8.88814E-06 2.12039E-19-6.54725E-19
 -1      3632 9.52558E-05-2.85887E-05-2.85716E-05-1.70323E-09-1.83613E-19-1.10187E-18
 -1      3633 9.52554E-05-2.85884E-05-2.85716E-05-4.75171E-09-8.29448E-20-6.15796E-21
 -1      3634 9.52578E-05-2.85887E-05-2.85724E-05-2.88433E-11-4.00780E-19-1.97777E-18
 -1      3635 9.52546E-05-2.85879E-05-2.85714E-05 7.98194E-09 3.88283E-20-3.60239E-18
 -1      3636 9.52568E-05-2.85882E-05-2.85723E-05 6.71349E-09-1.19120E-19-4.49929E-18
 -1      3637 9.52533E-05-2.85872E-05-2.85712E-05 1.07615E-08-8.82436E-19-3.62480E-18
 -1      3638 1.10721E-04-4.23364E-05-2.95249E-05-8.66580E-06-5.28889E-19 1.31555E-19
 -1      3639 1.11605E-04-4.08800E-05-3.02881E-05-4.47963E-06-1.89034E-19 3.01431E-19
 -1      3640 1.08987E-04-3.82773E-05-3.01876E-05-5.15694E-06 1.98904E-20 2.03089E-20
 -1      3641 1.03000E-04-3.73174E-05-2.79847E-05-1.37404E-05-5.29698E-19-2.36266E-19
 -1      3642 6.29177E-05-1.62617E-05-1.97825E-05 9.49754E-06-8.55272E-19 8.13813E-19
 -1      3643 7.86282E-05-1.87929E-05-2.54944E-05-1.58485E-05-3.33393E-19-1.59193E-18
 -1      3644 7.22800E-05-1.50775E-05-2.46127E-05-1.55921E-05-3.86809E-19-1.76241E-18
 -1      3645 6.00496E-05-1.53177E-05-1.90187E-05-7.45013E-06 9.42986E-21 2.41685E-18
 -1      3646 6.56601E-05-1.00465E-05-2.37903E-05-1.18780E-05-1.99844E-19-2.11722E-18
 -1      3647 6.16849E-05-7.27984E-06-2.32230E-05-8.57879E-06-8.33467E-20-2.27572E-18
 -1      3648 6.24399E-05-5.55276E-06-2.43877E-05-2.48589E-06 8.94050E-20-2.16106E-18
 -1      3649 6.45902E-05-1.29101E-05-2.19524E-05 1.31784E-05 6.56748E-19-2.15254E-18
 -1      3650 5.68869E-05-6.81810E-06-2.12932E-05-2.48769E-06 1.86830E-19-2.46669E-18
 -1      3651 9.52516E-05-2.85861E-05-2.85709E-05-1.35882E-08 3.91952E-19-3.51513E-19
 -1      3652 9.52496E-05-2.85849E-05-2.85706E-05-1.57732E-08-6.24812E-19-6.54159E-20
 -1      3653 6.64882E-05-1.30361E-05-2.26929E-05-1.53683E-05-4.98161E-19-2.12176E-18
 -1      3654 9.52500E-05-2.85842E-05-2.85710E-05-1.78200E-08-6.54660E-19-2.81152E-19
 -1      3655 9.52476E-05-2.85835E-05-2.85703E-05-1.79901E-08-1.28670E-18-1.03551E-18
 -1      3656 7.15790E-05-2.32488E-05-2.06153E-05-1.96326E-05 3.35015E-19 2.07388E-18
 -1      3657 7.11498E-05-1.45784E-05-2.42909E-05 1.34948E-05 5.55394E-19-1.81846E-18
 -1      3658 7.80259E-05-1.87117E-05-2.53634E-05 1.44661E-05 5.30760E-19-1.44607E-18
 -1      3659 5.97203E-05-6.26100E-06-2.28159E-05 3.98357E-06 3.10292E-19-2.21266E-18
 -1      3660 6.31588E-05-8.52523E-06-2.33558E-05 7.74634E-06 3.56525E-19-2.21749E-18
 -1      3661 9.52475E-05-2.85836E-05-2.85702E-05 1.76772E-08-4.05793E-19 2.23574E-19
 -1      3662 9.27116E-05-2.93489E-05-2.70076E-05 1.54993E-05 6.91808E-19-8.46781E-19
 -1      3663 8.09093E-05-2.58363E-05-2.36352E-05 2.14383E-05 1.11162E-18-1.40561E-18
 -1      3664 9.52495E-05-2.85842E-05-2.85709E-05 1.77744E-08-3.02085E-19-4.09962E-19
 -1      3665 9.52493E-05-2.85848E-05-2.85705E-05 1.59690E-08-4.00631E-19-8.12693E-19
 -1      3666 9.52514E-05-2.85860E-05-2.85708E-05 1.37792E-08-4.20863E-19-2.64469E-18
 -1      3667 9.52513E-05-2.85845E-05-2.85715E-05 1.80641E-08 5.24490E-19-1.04932E-18
 -1      3668 8.93634E-05-2.52864E-05-2.73711E-05 1.36925E-05 4.19970E-19-9.51651E-19
 -1      3669 8.33909E-05-2.29213E-05-2.58613E-05-1.20424E-05 4.61016E-19 1.80304E-18
 -1      3670 8.35423E-05-2.22068E-05-2.63357E-05-1.06763E-05-1.27450E-19 1.99132E-18
 -1      3671 1.28300E-04-4.46429E-05-3.57222E-05-8.69367E-06 1.09585E-20-2.11885E-18
 -1      3672 8.48621E-05-2.20910E-05-2.68780E-05-9.41430E-06-3.09465E-19 2.27501E-18
 -1      3673 8.53821E-05-2.19120E-05-2.72383E-05-8.40043E-06-5.47814E-19 2.17678E-18
 -1      3674 8.17024E-05-2.06294E-05-2.61340E-05-8.86784E-06 1.56403E-20 1.25926E-18
 -1      3675 8.65355E-05-2.20759E-05-2.76153E-05-7.53809E-06-4.53756E-19 2.52948E-18
 -1      3676 8.71324E-05-2.21787E-05-2.78644E-05-6.77081E-06-2.94418E-19 2.34246E-18
 -1      3677 8.41836E-05-2.09081E-05-2.70865E-05-6.92246E-06-3.12266E-19 1.57883E-18
 -1      3678 8.81187E-05-2.24940E-05-2.81207E-05-6.13316E-06-3.30952E-19 2.05493E-18
 -1      3679 8.86990E-05-2.27497E-05-2.82843E-05-5.52159E-06-1.17420E-20 2.02370E-18
 -1      3680 8.63109E-05-2.15184E-05-2.77426E-05-5.56391E-06-1.93562E-19 1.88366E-18
 -1      3681 8.95303E-05-2.31364E-05-2.84530E-05-5.02095E-06 2.29361E-19 1.89698E-18
 -1      3682 9.00511E-05-2.34624E-05-2.85537E-05-4.51303E-06 5.99283E-19 1.36963E-18
 -1      3683 8.81130E-05-2.23011E-05-2.81844E-05-4.53888E-06 1.88647E-19 2.40906E-18
 -1      3684 9.07421E-05-2.38685E-05-2.86596E-05-4.10225E-06 6.57336E-19 8.79512E-19
 -1      3685 9.11872E-05-2.42133E-05-2.87156E-05-3.67080E-06 4.92820E-19 5.87533E-19
 -1      3686 8.96198E-05-2.31472E-05-2.84718E-05-3.71719E-06 2.32002E-19 1.64723E-18
 -1      3687 9.17543E-05-2.46063E-05-2.87774E-05-3.32562E-06 4.07187E-19-2.42093E-19
 -1      3688 9.21224E-05-2.49393E-05-2.88029E-05-2.95708E-06-4.34677E-19-6.83725E-20
 -1      3689 9.08643E-05-2.39854E-05-2.86493E-05-3.03080E-06-3.36297E-19 9.30822E-20
 -1      3690 9.25816E-05-2.53003E-05-2.88344E-05-2.66528E-06-4.57493E-19 2.44950E-19
 -1      3691 9.28784E-05-2.56046E-05-2.88399E-05-2.35221E-06-6.39157E-19 7.48670E-19
 -1      3692 9.18791E-05-2.47715E-05-2.87501E-05-2.44720E-06-2.39912E-19 6.62592E-20
 -1      3693 9.32452E-05-2.59240E-05-2.88513E-05-2.10680E-06-5.76443E-19 9.48847E-19
 -1      3694 9.34798E-05-2.61915E-05-2.88445E-05-1.84398E-06-3.84600E-19 1.65977E-18
 -1      3695 9.26957E-05-2.54801E-05-2.87986E-05-1.95051E-06-2.46050E-19 7.74090E-19
 -1      3696 9.37687E-05-2.64660E-05-2.88432E-05-1.63993E-06-1.24700E-18 1.67601E-18
 -1      3697 9.39508E-05-2.66944E-05-2.88295E-05-1.42256E-06-9.83338E-19 1.04298E-18
 -1      3698 9.33440E-05-2.60992E-05-2.88129E-05-1.53140E-06-6.41192E-19 1.33810E-18
 -1      3699 9.41753E-05-2.69248E-05-2.88208E-05-1.25540E-06-5.49439E-19 2.62565E-19
 -1      3700 9.43143E-05-2.71154E-05-2.88038E-05-1.07854E-06-3.95011E-19 1.97944E-19
 -1      3701 9.38516E-05-2.66268E-05-2.88059E-05-1.18264E-06-9.48214E-19 1.43746E-18
 -1      3702 9.44861E-05-2.73047E-05-2.87911E-05-9.43838E-07-9.49914E-20 1.54479E-19
 -1      3703 9.45906E-05-2.74606E-05-2.87734E-05-8.02349E-07 1.83764E-19 7.96305E-19
 -1      3704 9.42434E-05-2.70666E-05-2.87865E-05-8.97113E-07 6.17120E-20 1.05639E-18
 -1      3705 9.47201E-05-2.76134E-05-2.87591E-05-6.95645E-07 8.32888E-20 8.10741E-19
 -1      3706 9.47972E-05-2.77385E-05-2.87421E-05-5.84384E-07 4.04120E-21 5.81349E-19
 -1      3707 9.45414E-05-2.74262E-05-2.87610E-05-6.67394E-07 1.54779E-19 1.10392E-18
 -1      3708 9.48932E-05-2.78598E-05-2.87278E-05-5.01345E-07-5.73759E-19 5.36840E-19
 -1      3709 9.49491E-05-2.79586E-05-2.87122E-05-4.15373E-07-6.93160E-19 8.95982E-19
 -1      3710 9.47643E-05-2.77151E-05-2.87334E-05-4.85845E-07-3.24582E-19 9.80010E-19
 -1      3711 9.50189E-05-2.80532E-05-2.86989E-05-3.51923E-07-1.44696E-18 8.32966E-19
 -1      3712 9.50586E-05-2.81299E-05-2.86852E-05-2.86684E-07-2.27118E-18 8.80036E-19
 -1      3713 9.49283E-05-2.79433E-05-2.87064E-05-3.44953E-07-1.16817E-18 1.03504E-18
 -1      3714 9.51082E-05-2.82024E-05-2.86733E-05-2.39128E-07-1.46857E-18 1.26700E-18
 -1      3715 9.51356E-05-2.82610E-05-2.86617E-05-1.90562E-07 1.59569E-19 1.82386E-18
 -1      3716 9.50464E-05-2.81206E-05-2.86815E-05-2.37643E-07-1.16889E-18 1.77957E-18
 -1      3717 9.51700E-05-2.83157E-05-2.86514E-05-1.55653E-07-1.36509E-19 5.55847E-19
 -1      3718 9.51884E-05-2.83596E-05-2.86417E-05-1.20249E-07-6.97942E-19 3.39158E-19
 -1      3719 9.51295E-05-2.82559E-05-2.86594E-05-1.57504E-07-1.24349E-18 1.52345E-18
 -1      3720 9.52114E-05-2.84001E-05-2.86330E-05-9.52128E-08 2.92150E-19 2.63474E-19
 -1      3721 9.52231E-05-2.84324E-05-2.86251E-05-7.00091E-08 8.04304E-19 8.56053E-19
 -1      3722 9.51862E-05-2.83574E-05-2.86405E-05-9.89217E-08-1.45398E-19 2.54779E-19
 -1      3723 9.52378E-05-2.84617E-05-2.86180E-05-5.25352E-08 3.49863E-19 9.40511E-19
 -1      3724 9.52447E-05-2.84850E-05-2.86117E-05-3.50907E-08-2.42493E-19 1.21225E-18
 -1      3725 9.52235E-05-2.84321E-05-2.86246E-05-5.71120E-08 4.99141E-19 5.98688E-19
 -1      3726 9.52535E-05-2.85057E-05-2.86060E-05-2.32958E-08-2.08139E-20 1.45781E-18
 -1      3727 9.52571E-05-2.85221E-05-2.86010E-05-1.16401E-08 4.70549E-19 1.47860E-18
 -1      3728 9.52467E-05-2.84858E-05-2.86116E-05-2.81037E-08 2.83415E-19 1.06300E-18
 -1      3729 9.52617E-05-2.85363E-05-2.85964E-05-4.02134E-09 7.92999E-19 7.89750E-19
 -1      3730 9.52632E-05-2.85474E-05-2.85926E-05 3.40475E-09 1.35826E-18 9.01970E-19
 -1      3731 9.52598E-05-2.85235E-05-2.86012E-05-8.67203E-09 3.23245E-19 1.28239E-18
 -1      3732 9.52649E-05-2.85568E-05-2.85891E-05 8.02281E-09 1.81539E-18 9.68686E-19
 -1      3733 9.52649E-05-2.85641E-05-2.85862E-05 1.24296E-08 1.95989E-18 1.04916E-18
 -1      3734 9.52661E-05-2.85491E-05-2.85930E-05 3.74663E-09 1.85743E-18 1.59327E-18
 -1      3735 9.52649E-05-2.85700E-05-2.85834E-05 1.49484E-08 1.52706E-18-3.06209E-20
 -1      3736 9.52640E-05-2.85745E-05-2.85813E-05 1.72564E-08 7.86235E-19-2.23243E-19
 -1      3737 9.52678E-05-2.85659E-05-2.85866E-05 1.11493E-08 1.03996E-18 5.67221E-19
 -1      3738 9.52628E-05-2.85779E-05-2.85792E-05 1.83528E-08 4.21431E-19-4.50110E-19
 -1      3739 9.52615E-05-2.85805E-05-2.85776E-05 1.92466E-08 3.76735E-19-1.11880E-19
 -1      3740 9.52666E-05-2.85762E-05-2.85816E-05 1.50615E-08 1.00622E-18 3.37197E-19
 -1      3741 9.52597E-05-2.85822E-05-2.85760E-05 1.94112E-08-1.40775E-19-2.87276E-20
 -1      3742 9.52581E-05-2.85835E-05-2.85748E-05 1.93844E-08 1.58845E-19-7.59797E-19
 -1      3743 9.52637E-05-2.85820E-05-2.85779E-05 1.66190E-08 1.05909E-19 4.71525E-20
 -1      3744 9.52561E-05-2.85842E-05-2.85736E-05 1.89741E-08 6.56855E-19-1.48848E-18
 -1      3745 9.52545E-05-2.85847E-05-2.85727E-05 1.84276E-08 9.98050E-19-1.43884E-18
 -1      3746 9.52599E-05-2.85849E-05-2.85750E-05 1.66376E-08 2.33843E-19-4.85975E-19
 -1      3747 9.68355E-05-3.35339E-05-2.70752E-05 1.33883E-05-8.03678E-19-7.81611E-20
 -1      3748 9.93537E-05-3.62254E-05-2.70251E-05 1.38215E-05-9.31776E-19-6.10790E-21
 -1      3749 9.18282E-05-2.59745E-05-2.82290E-05 8.02043E-06-4.90116E-19-1.12518E-18
 -1      3750 9.22069E-05-2.65863E-05-2.80984E-05 8.70681E-06-4.86814E-19-7.33949E-19
 -1      3751 9.18572E-05-2.53936E-05-2.84929E-05 6.60184E-06-9.84215E-19-2.67149E-19
 -1      3752 9.19630E-05-2.56652E-05-2.83973E-05 7.22170E-06-7.68325E-19-8.52295E-19
 -1      3753 9.03789E-05-2.49490E-05-2.80446E-05 7.53970E-06-7.50774E-19-5.82810E-19
 -1      3754 9.21665E-05-2.52806E-05-2.86744E-05 5.39278E-06-2.60540E-19-3.63225E-19
 -1      3755 9.21221E-05-2.53345E-05-2.86126E-05 5.94181E-06-5.03830E-19-3.53429E-19
 -1      3756 9.08065E-05-2.46427E-05-2.83539E-05 6.08009E-06-6.53549E-19-1.00379E-18
 -1      3757 9.25983E-05-2.54492E-05-2.87869E-05 4.36535E-06-1.59570E-19 2.17704E-20
 -1      3758 9.24808E-05-2.53732E-05-2.87531E-05 4.84561E-06-1.49496E-19-2.16272E-19
 -1      3759 9.13990E-05-2.47302E-05-2.85680E-05 4.89013E-06-4.11937E-19-3.98596E-19
 -1      3760 9.30593E-05-2.57700E-05-2.88463E-05 3.49573E-06 5.30623E-19 6.57092E-20
 -1      3761 9.29150E-05-2.56244E-05-2.88336E-05 3.91067E-06 3.11454E-19 1.22290E-19
 -1      3762 9.20348E-05-2.50445E-05-2.87050E-05 3.91172E-06-1.49929E-19-8.26287E-20
 -1      3763 9.34974E-05-2.61568E-05-2.88673E-05 2.76503E-06 2.28874E-19 1.56280E-19
 -1      3764 9.33526E-05-2.59815E-05-2.88693E-05 3.11862E-06 7.87973E-19 5.10614E-19
 -1      3765 9.26452E-05-2.54718E-05-2.87835E-05 3.10385E-06 3.70180E-19-3.15679E-20
 -1      3766 9.38862E-05-2.65546E-05-2.88624E-05 2.15743E-06-4.70880E-19-5.15191E-19
 -1      3767 9.37545E-05-2.63748E-05-2.88739E-05 2.45421E-06-1.40463E-19-1.58115E-19
 -1      3768 9.31940E-05-2.59373E-05-2.88197E-05 2.43750E-06 1.98544E-19 7.85298E-19
 -1      3769 9.42157E-05-2.69305E-05-2.88416E-05 1.65845E-06-4.93573E-19-2.40754E-19
 -1      3770 9.41030E-05-2.67611E-05-2.88583E-05 1.90362E-06-5.84740E-19-5.82033E-19
 -1      3771 9.36657E-05-2.63937E-05-2.88268E-05 1.89103E-06-2.87285E-19-2.85786E-19
 -1      3772 9.44851E-05-2.72668E-05-2.88120E-05 1.25431E-06-2.54932E-19 2.73650E-19
 -1      3773 9.43929E-05-2.71157E-05-2.88309E-05 1.45357E-06-3.09123E-19 1.57418E-20
 -1      3774 9.40572E-05-2.68135E-05-2.88155E-05 1.44688E-06-4.98778E-19-9.71853E-19
 -1      3775 9.46992E-05-2.75563E-05-2.87789E-05 9.31801E-07 7.69012E-19 4.89565E-19
 -1      3776 9.46262E-05-2.74266E-05-2.87980E-05 1.09110E-06 6.64048E-20 1.00061E-18
 -1      3777 9.43732E-05-2.71827E-05-2.87933E-05 1.08999E-06-3.46185E-19-5.57993E-19
 -1      3778 9.48648E-05-2.77979E-05-2.87456E-05 6.78380E-07-6.66185E-20 9.25213E-19
 -1      3779 9.48087E-05-2.76899E-05-2.87637E-05 8.03620E-07 7.27304E-19 1.08770E-18
 -1      3780 9.46218E-05-2.74968E-05-2.87658E-05 8.06910E-07 4.63073E-19 1.06826E-18
 -1      3781 9.49897E-05-2.79943E-05-2.87144E-05 4.82440E-07-6.04593E-19 1.27198E-18
 -1      3782 9.49479E-05-2.79067E-05-2.87307E-05 5.79238E-07-2.15401E-19 1.40061E-18
 -1      3783 9.48128E-05-2.77567E-05-2.87368E-05 5.85552E-07-4.29419E-19 2.67431E-18
 -1      3784 9.50817E-05-2.81505E-05-2.86863E-05 3.33496E-07-3.74357E-19 8.75763E-20
 -1      3785 9.50513E-05-2.80810E-05-2.87005E-05 4.06996E-07-3.99124E-19 1.04347E-18
 -1      3786 9.49563E-05-2.79666E-05-2.87087E-05 4.15076E-07 1.52501E-19 1.36097E-18
 -1      3787 9.51475E-05-2.82721E-05-2.86620E-05 2.22318E-07 9.96868E-19-8.94427E-19
 -1      3788 9.51261E-05-2.82181E-05-2.86740E-05 2.77086E-07 2.73056E-20-7.39077E-19
 -1      3789 9.50614E-05-2.81326E-05-2.86830E-05 2.85919E-07 7.41925E-19 4.42423E-19
 -1      3790 9.51931E-05-2.83648E-05-2.86415E-05 1.40974E-07 1.62370E-19 9.03374E-19
 -1      3791 9.51786E-05-2.83238E-05-2.86514E-05 1.80950E-07 5.56354E-19 2.91321E-19
 -1      3792 9.51363E-05-2.82611E-05-2.86603E-05 1.89795E-07-2.98751E-19 5.90311E-20
 -1      3793 9.52235E-05-2.84340E-05-2.86246E-05 8.27928E-08 1.19627E-19 1.74135E-18
 -1      3794 9.52142E-05-2.84035E-05-2.86327E-05 1.11297E-07 4.65256E-19 1.72911E-18
 -1      3795 9.51881E-05-2.83587E-05-2.86408E-05 1.19659E-07-1.41208E-19 1.73434E-18
 -1      3796 9.52427E-05-2.84846E-05-2.86110E-05 4.22793E-08-1.01045E-18 2.12170E-18
 -1      3797 9.52371E-05-2.84623E-05-2.86174E-05 6.20470E-08-2.56885E-19 2.03945E-18
 -1      3798 9.52226E-05-2.84312E-05-2.86247E-05 6.96309E-08-3.27989E-19 2.54554E-18
 -1      3799 9.52538E-05-2.85205E-05-2.86002E-05 1.49922E-08-2.06668E-18 1.61284E-18
 -1      3800 9.52509E-05-2.85047E-05-2.86052E-05 2.82334E-08-1.46326E-18 2.05986E-18
 -1      3801 9.52442E-05-2.84839E-05-2.86115E-05 3.48975E-08-1.12462E-18 2.67653E-18
 -1      3802 9.52593E-05-2.85454E-05-2.85919E-05-2.59143E-09-3.45360E-19-5.38900E-19
 -1      3803 9.52582E-05-2.85345E-05-2.85956E-05 5.87398E-09-1.17285E-18 7.36677E-19
 -1      3804 9.52567E-05-2.85211E-05-2.86009E-05 1.15844E-08-8.01096E-19 9.79021E-19
 -1      3805 9.52611E-05-2.85619E-05-2.85855E-05-1.32148E-08 7.14614E-20-1.41622E-18
 -1      3806 9.52611E-05-2.85547E-05-2.85883E-05-8.16449E-09-1.79504E-19-1.22070E-18
 -1      3807 9.52628E-05-2.85467E-05-2.85926E-05-3.37013E-09 5.39806E-19-2.51373E-19
 -1      3808 9.52604E-05-2.85724E-05-2.85806E-05-1.89735E-08 2.09977E-19-1.37274E-18
 -1      3809 9.52612E-05-2.85679E-05-2.85827E-05-1.63015E-08 3.26920E-19-1.34298E-18
 -1      3810 9.52646E-05-2.85636E-05-2.85862E-05-1.23434E-08 3.25389E-19-6.30315E-19
 -1      3811 9.52583E-05-2.85786E-05-2.85771E-05-2.14356E-08-7.45924E-19-1.37294E-19
 -1      3812 9.52595E-05-2.85759E-05-2.85786E-05-2.03692E-08-5.53038E-20-4.47978E-19
 -1      3813 9.52638E-05-2.85742E-05-2.85813E-05-1.71471E-08-3.91149E-19-1.02550E-18
 -1      3814 9.52555E-05-2.85818E-05-2.85744E-05-2.17412E-08-1.26023E-18 1.74355E-19
 -1      3815 9.52568E-05-2.85804E-05-2.85755E-05-2.17211E-08-9.82344E-19 2.09071E-19
 -1      3816 9.52613E-05-2.85803E-05-2.85776E-05-1.91328E-08-1.49456E-18 3.89281E-19
 -1      3817 9.52524E-05-2.85832E-05-2.85725E-05-2.06968E-08-2.07357E-21 3.46387E-19
 -1      3818 9.52537E-05-2.85827E-05-2.85733E-05-2.13357E-08-2.78944E-19 8.26270E-19
 -1      3819 9.52580E-05-2.85834E-05-2.85748E-05-1.92835E-08-1.06177E-18 7.82123E-19
 -1      3820 1.04793E-04-3.38745E-05-3.03486E-05-4.90079E-06 3.80113E-19-1.51085E-19
 -1      3821 9.52511E-05-2.85841E-05-2.85716E-05-1.86928E-08-1.21889E-19-3.82307E-19
 -1      3822 9.52514E-05-2.85836E-05-2.85719E-05-1.98703E-08-8.78057E-20 2.00982E-19
 -1      3823 9.52553E-05-2.85848E-05-2.85731E-05-1.82142E-08 7.48341E-19 3.17850E-18
 -1      3824 9.52532E-05-2.85854E-05-2.85719E-05-1.65460E-08 3.65671E-19 2.68723E-18
 -1      3825 6.73059E-05-1.81037E-05-2.11694E-05 1.25846E-05-1.03026E-18 2.96144E-19
 -1      3826 6.38132E-05-1.51598E-05-2.07944E-05 4.80232E-06-8.05568E-19 8.80107E-19
 -1      3827 7.77841E-05-2.47433E-05-2.28283E-05-1.84437E-05 7.10459E-19 1.60832E-18
 -1      3828 8.18689E-05-2.54524E-05-2.40982E-05-1.69611E-05 9.22419E-19 1.53560E-18
 -1      3829 8.91748E-05-2.70174E-05-2.67081E-05-1.59984E-05-4.61626E-19-9.63778E-19
 -1      3830 6.30196E-05-1.50880E-05-2.05565E-05-4.24144E-06 4.21994E-20 2.08217E-18
 -1      3831 6.47613E-05-1.71071E-05-2.03022E-05-1.23656E-05 2.24351E-19 1.95299E-18
 -1      3832 6.97697E-05-1.99411E-05-2.12007E-05-1.56763E-05 8.84852E-20 1.20978E-18
 -1      3833 5.99699E-05-6.30628E-06-2.30424E-05-3.96783E-06 7.71065E-20-2.29764E-18
 -1      3834 1.11412E-04-4.65122E-05-2.77264E-05 1.29658E-05-3.47045E-19-1.33246E-18
 -1      3835 9.52544E-05-3.03881E-05-2.77549E-05-1.38770E-05-2.16487E-19-5.90261E-19
 -1      3836 9.52546E-05-2.85879E-05-2.85714E-05-8.00655E-09 2.84592E-19-8.63218E-19
 -1      3837 9.52533E-05-2.85871E-05-2.85712E-05-1.07645E-08 7.04557E-19-2.01506E-18
 -1      3838 9.52541E-05-2.85867E-05-2.85717E-05-1.28259E-08 5.97962E-19-6.00649E-19
 -1      3839 9.52568E-05-2.85882E-05-2.85723E-05-6.72386E-09-3.98846E-19-6.61475E-19
 -1      3840 9.52446E-05-2.85817E-05-2.85699E-05-1.95157E-08-6.32764E-19-7.37688E-19
 -1      3841 8.14609E-05-2.36274E-05-2.47944E-05-1.46761E-05 7.26768E-19 1.60320E-18
 -1      3842 8.22996E-05-2.82473E-05-2.33424E-05 1.96194E-05-1.90595E-18-2.64671E-19
 -1      3843 7.40593E-05-2.20881E-05-2.20565E-05 1.68839E-05-1.07275E-18-4.13875E-19
 -1      3844 9.23350E-05-2.72820E-05-2.78791E-05 9.67653E-06-9.19000E-20-4.83945E-19
 -1      3845 9.31807E-05-2.84066E-05-2.77249E-05 1.04043E-05 2.62355E-19 1.78618E-19
 -1      3846 9.03162E-05-2.58837E-05-2.76269E-05 9.34495E-06 1.00741E-19 5.18402E-20
 -1      3847 9.38006E-05-2.96648E-05-2.74685E-05 1.15452E-05-3.68007E-19 5.35765E-20
 -1      3848 9.53750E-05-3.14861E-05-2.73266E-05 1.22538E-05-7.57741E-19 4.41537E-20
 -1      3849 9.30307E-05-3.13530E-05-2.65545E-05 1.42951E-05-5.73162E-19 2.97332E-19
 -1      3850 9.52573E-05-2.85875E-05-2.85728E-05-1.07298E-08 1.33319E-19-2.04278E-18
 -1      3851 9.52555E-05-2.85865E-05-2.85724E-05-1.35629E-08 1.37179E-19-2.90412E-19
 -1      3852 9.52566E-05-2.85863E-05-2.85730E-05-1.44121E-08 3.92599E-19 5.20558E-19
 -1      3853 7.83576E-05-2.11826E-05-2.44236E-05 1.77180E-05 6.88347E-19-1.46182E-18
 -1      3854 9.52600E-05-2.85887E-05-2.85734E-05 1.65263E-09-9.14629E-19-2.63401E-18
 -1      3855 9.52600E-05-2.85887E-05-2.85734E-05-1.73727E-09-1.36402E-18-8.75963E-19
 -1      3856 1.07139E-04-3.65368E-05-3.02111E-05-5.08976E-06 2.07143E-19-1.56593E-19
 -1      3857 7.36936E-05-2.03261E-05-2.27827E-05 1.25699E-05-1.13244E-18-1.90897E-19
 -1      3858 1.05254E-04-4.22940E-05-2.69911E-05 1.47821E-05-7.25649E-19-9.56492E-19
 -1      3859 9.52596E-05-2.85885E-05-2.85733E-05 5.34521E-09-3.83933E-19-4.63138E-18
 -1      3860 9.52618E-05-2.85884E-05-2.85743E-05 3.60749E-09-9.64382E-19-3.37130E-18
 -1      3861 9.52586E-05-2.85880E-05-2.85731E-05 8.58174E-09-2.30319E-19-4.04298E-18
 -1      3862 6.51651E-05-1.49166E-05-2.13952E-05 1.46924E-07-1.53920E-19 1.37764E-18
 -1      3863 6.82413E-05-1.61003E-05-2.23654E-05-4.64857E-06 5.44263E-19 1.60680E-18
 -1      3864 6.89948E-05-1.62283E-05-2.25598E-05 3.15723E-06-3.62017E-19 2.27223E-19
 -1      3865 7.17630E-05-1.92797E-05-2.24702E-05-1.22343E-05 1.05284E-19 1.77471E-18
 -1      3866 9.70216E-05-3.67760E-05-2.59629E-05 1.73273E-05-1.16014E-18-5.49665E-19
 -1      3867 9.11440E-05-3.28031E-05-2.48117E-05 1.88517E-05-1.68048E-18 4.76138E-19
 -1      3868 9.52538E-05-2.85866E-05-2.85717E-05 1.31078E-08-3.10983E-19-2.45299E-18
 -1      3869 1.02433E-04-3.96429E-05-2.68198E-05 1.50389E-05-9.82386E-19-6.97657E-19
 -1      3870 9.52546E-05-2.85856E-05-2.85725E-05 1.61680E-08 4.21742E-19-1.40331E-18
 -1      3871 8.74542E-05-2.90870E-05-2.49607E-05 1.65168E-05-1.16028E-18 1.97774E-19
 -1      3872 7.83087E-05-2.11042E-05-2.44699E-05-1.24462E-05 6.35782E-19 9.15925E-19
 -1      3873 9.09439E-05-2.77855E-05-2.71039E-05 1.15878E-05-2.17505E-19-4.10467E-19
 -1      3874 1.24771E-04-4.05519E-05-3.64881E-05-1.18998E-05-5.24102E-21-1.48465E-18
 -1      3875 1.00810E-04-3.53659E-05-2.80519E-05-1.33811E-05-3.34350E-19-2.80957E-19
 -1      3876 9.06900E-05-2.42281E-05-2.84967E-05 4.16540E-06-7.04041E-19-3.73513E-19
 -1      3877 9.03714E-05-2.40776E-05-2.84048E-05 4.67888E-06-2.09396E-19-3.86823E-19
 -1      3878 7.89026E-05-1.93622E-05-2.55141E-05-7.32434E-06 9.35423E-20 1.36615E-18
 -1      3879 8.03052E-05-1.95336E-05-2.60995E-05-6.28433E-06-2.01487E-19 1.60335E-18
 -1      3880 8.21377E-05-1.99635E-05-2.66501E-05-5.67350E-06-2.13149E-19 1.20618E-18
 -1      3881 8.33152E-05-2.02762E-05-2.70544E-05-4.99088E-06-1.35729E-19 1.51550E-18
 -1      3882 7.98982E-05-1.88755E-05-2.61064E-05-4.13096E-06-4.28790E-19 1.71340E-18
 -1      3883 8.47444E-05-2.07512E-05-2.74318E-05-4.56141E-06-3.78439E-19 1.12497E-18
 -1      3884 8.57460E-05-2.11542E-05-2.77078E-05-4.06716E-06-2.86224E-19 1.22051E-18
 -1      3885 8.30769E-05-1.98794E-05-2.70459E-05-3.36409E-06-2.85480E-19 7.37607E-19
 -1      3886 8.68855E-05-2.16512E-05-2.79638E-05-3.74959E-06 2.01064E-19 1.44769E-18
 -1      3887 8.77253E-05-2.20910E-05-2.81473E-05-3.36105E-06 5.58005E-19 1.30097E-18
 -1      3888 8.56061E-05-2.09275E-05-2.76892E-05-2.80205E-06 2.42575E-19 1.03431E-18
 -1      3889 8.86459E-05-2.25843E-05-2.83175E-05-3.10366E-06-5.56862E-20 9.24558E-19
 -1      3890 8.93415E-05-2.30259E-05-2.84348E-05-2.77984E-06-5.92116E-19 3.41030E-19
 -1      3891 8.76335E-05-2.19598E-05-2.81231E-05-2.36062E-06-6.52732E-20-1.71622E-19
 -1      3892 9.00892E-05-2.34965E-05-2.85440E-05-2.56008E-06-4.76858E-19 4.90778E-19
 -1      3893 9.06591E-05-2.39170E-05-2.86145E-05-2.28213E-06-5.61434E-19 1.81464E-19
 -1      3894 8.92784E-05-2.29502E-05-2.84088E-05-1.98318E-06-5.91770E-19-1.28854E-19
 -1      3895 9.12649E-05-2.43507E-05-2.86808E-05-2.09133E-06-4.01285E-19 2.52709E-20
 -1      3896 9.17260E-05-2.47353E-05-2.87189E-05-1.85110E-06-5.12932E-19 8.00047E-20
 -1      3897 9.06148E-05-2.38744E-05-2.85893E-05-1.64825E-06-4.36062E-19 1.75572E-19
 -1      3898 9.22133E-05-2.51228E-05-2.87554E-05-1.68558E-06-5.96295E-19 6.22250E-19
 -1      3899 9.25814E-05-2.54635E-05-2.87718E-05-1.47931E-06-1.28485E-19 5.95513E-19
 -1      3900 9.16947E-05-2.47126E-05-2.86959E-05-1.34980E-06-2.90568E-19-2.27955E-19
 -1      3901 9.29696E-05-2.58008E-05-2.87882E-05-1.33741E-06-4.39609E-19-4.74049E-19
 -1      3902 9.32596E-05-2.60949E-05-2.87905E-05-1.16271E-06-7.60034E-19 2.47640E-19
 -1      3903 9.25600E-05-2.54531E-05-2.87517E-05-1.08647E-06-6.79860E-19-3.66139E-19
 -1      3904 9.35651E-05-2.63818E-05-2.87938E-05-1.04317E-06-5.68056E-19-2.02709E-20
 -1      3905 9.37904E-05-2.66299E-05-2.87876E-05-8.97695E-07-2.94551E-19 5.89024E-19
 -1      3906 9.32457E-05-2.60922E-05-2.87736E-05-8.58453E-07-4.15070E-19-9.27032E-19
 -1      3907 9.40277E-05-2.68690E-05-2.87829E-05-7.98939E-07 1.24816E-20 6.87333E-19
 -1      3908 9.42003E-05-2.70741E-05-2.87720E-05-6.80003E-07 3.35335E-19 8.60907E-19
 -1      3909 9.37823E-05-2.66320E-05-2.87738E-05-6.65263E-07-1.73279E-19-3.12403E-19
 -1      3910 9.43819E-05-2.72696E-05-2.87627E-05-6.00039E-07 4.99133E-19 6.21466E-19
 -1      3911 9.45120E-05-2.74361E-05-2.87496E-05-5.04589E-07 6.55368E-19 1.02724E-18
 -1      3912 9.41965E-05-2.70791E-05-2.87609E-05-5.05180E-07 5.26167E-19 7.31360E-20
 -1      3913 9.46489E-05-2.75932E-05-2.87382E-05-4.41128E-07 2.60385E-19 5.68649E-19
 -1      3914 9.47454E-05-2.77260E-05-2.87248E-05-3.65940E-07-5.68450E-19 4.92688E-19
 -1      3915 9.45114E-05-2.74427E-05-2.87409E-05-3.75387E-07 3.47284E-19-3.00772E-19
 -1      3916 9.48467E-05-2.78501E-05-2.87128E-05-3.16577E-07-1.14327E-18 5.24490E-19
 -1      3917 9.49169E-05-2.79542E-05-2.87000E-05-2.58449E-07-1.09317E-18 5.29643E-19
 -1      3918 9.47469E-05-2.77333E-05-2.87181E-05-2.72357E-07-4.48809E-19-6.65138E-20
 -1      3919 9.49904E-05-2.80505E-05-2.86884E-05-2.20827E-07-1.23562E-18 6.62211E-19
 -1      3920 9.50404E-05-2.81309E-05-2.86768E-05-1.76744E-07-1.13535E-18 8.99648E-19
 -1      3921 9.49197E-05-2.79615E-05-2.86949E-05-1.92257E-07-8.84023E-19-1.52115E-19
 -1      3922 9.50925E-05-2.82044E-05-2.86662E-05-1.48672E-07-1.88812E-18 9.97828E-19
 -1      3923 9.51272E-05-2.82653E-05-2.86560E-05-1.15910E-07-1.71403E-18 3.06756E-19
 -1      3924 9.50439E-05-2.81378E-05-2.86730E-05-1.31269E-07-1.78450E-18-2.31612E-19
 -1      3925 9.51631E-05-2.83204E-05-2.86468E-05-9.54362E-08-8.06250E-19 6.17894E-19
 -1      3926 9.51863E-05-2.83656E-05-2.86381E-05-7.16188E-08-2.14796E-19 7.16199E-19
 -1      3927 9.51309E-05-2.82716E-05-2.86533E-05-8.58257E-08-1.01533E-18 6.57500E-19
 -1      3928 9.52102E-05-2.84061E-05-2.86302E-05-5.70639E-08 5.16936E-19 4.69933E-19
 -1      3929 9.52251E-05-2.84391E-05-2.86230E-05-4.01756E-08 7.99594E-19 4.92700E-19
 -1      3930 9.51900E-05-2.83712E-05-2.86361E-05-5.27418E-08-4.99427E-20 9.26293E-19
 -1      3931 9.52401E-05-2.84682E-05-2.86164E-05-3.01365E-08 3.48240E-19-1.99839E-19
 -1      3932 9.52490E-05-2.84917E-05-2.86106E-05-1.85119E-08 5.44481E-20 4.92810E-19
 -1      3933 9.52284E-05-2.84439E-05-2.86216E-05-2.92746E-08 7.39574E-20 1.74023E-19
 -1      3934 9.52578E-05-2.85121E-05-2.86052E-05-1.18448E-08 5.97441E-19 6.23747E-19
 -1      3935 9.52624E-05-2.85283E-05-2.86005E-05-4.13835E-09 1.06579E-18 9.00662E-19
 -1      3936 9.52520E-05-2.84957E-05-2.86097E-05-1.31330E-08 8.06958E-19-4.45991E-19
 -1      3937 9.52669E-05-2.85421E-05-2.85962E-05 6.75898E-11 1.87579E-18 8.21711E-19
 -1      3938 9.52687E-05-2.85530E-05-2.85926E-05 4.92015E-09 2.03066E-18 9.61160E-19
 -1      3939 9.52650E-05-2.85316E-05-2.85999E-05-2.45248E-09 1.29782E-18 2.75237E-19
 -1      3940 9.52702E-05-2.85620E-05-2.85892E-05 7.37390E-09 1.31111E-18 6.34755E-19
 -1      3941 9.52702E-05-2.85689E-05-2.85863E-05 1.01973E-08 1.13407E-18 1.72214E-19
 -1      3942 9.52707E-05-2.85556E-05-2.85922E-05 4.24864E-09 1.76075E-18 3.53332E-19
 -1      3943 9.52698E-05-2.85744E-05-2.85837E-05 1.14401E-08 6.55459E-19 6.17443E-19
 -1      3944 9.52686E-05-2.85785E-05-2.85815E-05 1.28621E-08-2.30070E-21-2.46931E-19
 -1      3945 9.52718E-05-2.85709E-05-2.85861E-05 8.11933E-09 8.53078E-19-5.89266E-20
 -1      3946 9.52671E-05-2.85816E-05-2.85795E-05 1.33001E-08-4.97059E-19-9.57522E-19
 -1      3947 9.52653E-05-2.85838E-05-2.85778E-05 1.37804E-08-7.08883E-19-9.82335E-19
 -1      3948 9.52698E-05-2.85801E-05-2.85814E-05 1.00429E-08-4.92401E-19-2.18832E-19
 -1      3949 9.52632E-05-2.85853E-05-2.85762E-05 1.36697E-08-6.41407E-19-1.51688E-18
 -1      3950 9.52613E-05-2.85863E-05-2.85750E-05 1.35429E-08 9.45816E-20-2.02107E-18
 -1      3951 9.52662E-05-2.85850E-05-2.85777E-05 1.06939E-08-1.12895E-18-1.03071E-18
 -1      3952 8.62570E-05-2.69912E-05-2.53642E-05 1.47094E-05-5.52667E-19 7.49938E-20
 -1      3953 8.89452E-05-2.38567E-05-2.79146E-05 6.64188E-06-1.05037E-18-1.16134E-19
 -1      3954 8.88045E-05-2.40715E-05-2.77223E-05 7.43096E-06-4.79415E-19-1.84201E-19
 -1      3955 9.15286E-05-2.47051E-05-2.86496E-05 3.29052E-06 1.55832E-19-1.24822E-18
 -1      3956 9.12092E-05-2.44831E-05-2.85929E-05 3.71223E-06-1.02237E-19-9.42264E-19
 -1      3957 9.02585E-05-2.38599E-05-2.84462E-05 3.50025E-06 5.21268E-20-8.35222E-19
 -1      3958 9.22826E-05-2.52443E-05-2.87398E-05 2.58307E-06-2.49420E-19-4.69096E-19
 -1      3959 9.19876E-05-2.49936E-05-2.87092E-05 2.93058E-06-3.53969E-19-1.33391E-18
 -1      3960 9.12321E-05-2.44557E-05-2.86096E-05 2.73192E-06-1.91673E-19-1.18903E-18
 -1      3961 9.29342E-05-2.57864E-05-2.87851E-05 2.00987E-06-7.36414E-20 5.96558E-19
 -1      3962 9.26758E-05-2.55350E-05-2.87730E-05 2.29568E-06 1.69876E-19 5.44678E-19
 -1      3963 9.20790E-05-2.50762E-05-2.87079E-05 2.12417E-06-5.77859E-19-5.15822E-19
 -1      3964 9.34804E-05-2.62953E-05-2.87998E-05 1.54656E-06-2.03490E-19 8.21517E-21
 -1      3965 9.32626E-05-2.60602E-05-2.87999E-05 1.78014E-06 1.19866E-20 3.05745E-19
 -1      3966 9.27950E-05-2.56741E-05-2.87597E-05 1.63972E-06 1.38627E-19 7.61791E-19
 -1      3967 9.39264E-05-2.67509E-05-2.87945E-05 1.17455E-06-5.51577E-19-4.49958E-19
 -1      3968 9.37484E-05-2.65411E-05-2.88022E-05 1.36362E-06-4.96688E-19-8.35752E-19
 -1      3969 9.33861E-05-2.62213E-05-2.87797E-05 1.25336E-06-8.91717E-20-3.26590E-19
 -1      3970 9.42821E-05-2.71445E-05-2.87772E-05 8.78680E-07-7.62532E-19 4.78165E-19
 -1      3971 9.41405E-05-2.69640E-05-2.87892E-05 1.02993E-06-7.84377E-19-7.21364E-20
 -1      3972 9.38636E-05-2.67032E-05-2.87789E-05 9.46485E-07-6.30533E-19-2.57981E-19
 -1      3973 9.45598E-05-2.74750E-05-2.87538E-05 6.46062E-07-1.27456E-20 1.21018E-18
 -1      3974 9.44497E-05-2.73239E-05-2.87676E-05 7.65472E-07-2.37963E-19 5.79607E-19
 -1      3975 9.42415E-05-2.71149E-05-2.87653E-05 7.04563E-07-9.46759E-19 1.58487E-19
 -1      3976 9.47718E-05-2.77456E-05-2.87280E-05 4.65560E-07-7.39640E-19 1.73115E-18
 -1      3977 9.46883E-05-2.76223E-05-2.87420E-05 5.58485E-07-4.56153E-19 1.47772E-18
 -1      3978 9.45344E-05-2.74575E-05-2.87448E-05 5.15724E-07-6.16327E-19 5.93267E-19
 -1      3979 9.49303E-05-2.79624E-05-2.87024E-05 3.27511E-07 3.33915E-19 1.81106E-18
 -1      3980 9.48684E-05-2.78640E-05-2.87157E-05 3.98716E-07-2.71434E-19 1.50383E-18
 -1      3981 9.47570E-05-2.77362E-05-2.87213E-05 3.70059E-07 7.98882E-20 9.18393E-19
 -1      3982 9.50459E-05-2.81326E-05-2.86785E-05 2.23597E-07 2.61545E-19 1.52752E-18
 -1      3983 9.50012E-05-2.80556E-05-2.86906E-05 2.77258E-07 9.19208E-19 1.98316E-18
 -1      3984 9.49226E-05-2.79584E-05-2.86976E-05 2.59205E-07 1.87992E-19 1.31666E-18
 -1      3985 9.51282E-05-2.82636E-05-2.86573E-05 1.46745E-07-8.37445E-20 1.07447E-18
 -1      3986 9.50968E-05-2.82046E-05-2.86678E-05 1.86452E-07-9.12438E-22 1.33144E-18
 -1      3987 9.50429E-05-2.81319E-05-2.86752E-05 1.76120E-07 2.11977E-19 2.20425E-18
 -1      3988 9.51848E-05-2.83624E-05-2.86389E-05 9.10284E-08-5.30873E-19 1.66398E-18
 -1      3989 9.51636E-05-2.83181E-05-2.86478E-05 1.19816E-07-6.69124E-19 9.54217E-19
 -1      3990 9.51281E-05-2.82648E-05-2.86550E-05 1.14908E-07-2.93247E-19 6.74793E-19
 -1      3991 9.52223E-05-2.84354E-05-2.86235E-05 5.15612E-08-6.96854E-19 1.63458E-18
 -1      3992 9.52086E-05-2.84028E-05-2.86308E-05 7.19433E-08-5.23472E-19 1.30055E-18
 -1      3993 9.51864E-05-2.83647E-05-2.86374E-05 7.06915E-08-7.99373E-19 5.98948E-19
 -1      3994 9.52458E-05-2.84880E-05-2.86108E-05 2.43780E-08-1.20554E-18 1.59367E-18
 -1      3995 9.52375E-05-2.84646E-05-2.86168E-05 3.84016E-08-6.87544E-19 1.69609E-18
 -1      3996 9.52248E-05-2.84381E-05-2.86226E-05 3.94851E-08-3.02351E-19 1.16912E-18
 -1      3997 9.52593E-05-2.85250E-05-2.86006E-05 6.31347E-09 3.35582E-19 1.62079E-19
 -1      3998 9.52548E-05-2.85086E-05-2.86054E-05 1.56163E-08-5.38191E-19 6.85394E-19
 -1      3999 9.52486E-05-2.84908E-05-2.86103E-05 1.80774E-08 1.24594E-19 4.57964E-19
 -1      4000 9.52658E-05-2.85501E-05-2.85925E-05-5.11714E-09 7.91700E-19-6.71972E-19
 -1      4001 9.52639E-05-2.85391E-05-2.85962E-05 7.51936E-10 8.73634E-19-2.09003E-19
 -1      4002 9.52621E-05-2.85276E-05-2.86004E-05 3.91905E-09 7.70450E-19-1.15341E-18
 -1      4003 9.52676E-05-2.85665E-05-2.85863E-05-1.18306E-08-5.02439E-19 8.09795E-19
 -1      4004 9.52675E-05-2.85594E-05-2.85891E-05-8.40220E-09-2.75611E-19 2.77959E-19
 -1      4005 9.52684E-05-2.85525E-05-2.85925E-05-4.98189E-09-1.88832E-19-9.59634E-19
 -1      4006 9.52665E-05-2.85766E-05-2.85814E-05-1.52789E-08-7.75528E-19 1.08280E-18
 -1      4007 9.52674E-05-2.85722E-05-2.85836E-05-1.35391E-08-4.19863E-19 6.11406E-19
 -1      4008 9.52699E-05-2.85685E-05-2.85863E-05-1.01554E-08-9.72504E-19 1.76350E-18
 -1      4009 9.52636E-05-2.85823E-05-2.85777E-05-1.65433E-08-1.73373E-18 1.28816E-19
 -1      4010 9.52652E-05-2.85798E-05-2.85794E-05-1.59360E-08-1.21913E-18 8.99819E-19
 -1      4011 9.52684E-05-2.85783E-05-2.85815E-05-1.27628E-08-1.23145E-18 1.15514E-18
 -1      4012 9.52599E-05-2.85850E-05-2.85750E-05-1.63662E-08-7.61648E-19-8.52066E-19
 -1      4013 9.52617E-05-2.85839E-05-2.85762E-05-1.65075E-08-1.21087E-18-8.88170E-19
 -1      4014 9.52651E-05-2.85837E-05-2.85778E-05-1.36498E-08-7.79670E-19 1.65606E-20
 -1      4015 1.04952E-04-3.67056E-05-2.93852E-05-8.76640E-06-9.76007E-20-3.80576E-19
 -1      4016 7.43235E-05-1.92980E-05-2.35634E-05-1.04693E-05 4.46300E-19 1.78802E-18
 -1      4017 7.65952E-05-1.89996E-05-2.47579E-05-8.27326E-06 4.91689E-19 1.72368E-18
 -1      4018 7.58885E-05-1.78984E-05-2.47773E-05-5.33427E-06 2.45152E-20 2.29114E-18
 -1      4019 7.06272E-05-1.68909E-05-2.28614E-05-7.41318E-06 4.30758E-19 2.44546E-18
 -1      4020 9.52595E-05-2.85886E-05-2.85733E-05-4.70219E-09-1.07528E-18-6.49667E-19
 -1      4021 9.52586E-05-2.85880E-05-2.85731E-05-7.94799E-09-4.21150E-19-1.45993E-18
 -1      4022 9.52600E-05-2.85878E-05-2.85738E-05-8.64323E-09-7.96146E-19-1.83411E-18
 -1      4023 9.52617E-05-2.85884E-05-2.85743E-05-2.97550E-09-1.22535E-18-1.44200E-18
 -1      4024 9.52572E-05-2.85869E-05-2.85730E-05 1.31352E-08 7.47920E-19-3.13232E-18
 -1      4025 8.98045E-05-2.39017E-05-2.82599E-05 5.25754E-06-2.05287E-19-2.24396E-19
 -1      4026 8.95345E-05-2.38871E-05-2.81226E-05 5.88935E-06-6.68475E-19-5.82726E-20
 -1      4027 8.80138E-05-2.30559E-05-2.78264E-05 5.76283E-06-7.75660E-19 1.94554E-19
 -1      4028 8.91730E-05-2.33578E-05-2.81944E-05 4.48389E-06-1.60932E-19 6.86839E-20
 -1      4029 8.82499E-05-2.42872E-05-2.74360E-05 8.42726E-06-1.06919E-19 9.51775E-21
 -1      4030 8.83567E-05-2.48604E-05-2.71828E-05 9.42401E-06-1.40050E-19-2.16178E-19
 -1      4031 8.68577E-05-2.31093E-05-2.73102E-05 7.46981E-06-5.05632E-19 3.44178E-19
 -1      4032 9.52578E-05-2.85860E-05-2.85736E-05-1.50469E-08 1.20728E-19 4.78019E-19
 -1      4033 9.52588E-05-2.85855E-05-2.85743E-05-1.57722E-08-5.34264E-19-6.06378E-19
 -1      4034 9.52621E-05-2.85860E-05-2.85755E-05-1.31824E-08-1.32053E-18-2.21208E-18
 -1      4035 9.52599E-05-2.85870E-05-2.85741E-05-1.20661E-08-1.07095E-18-2.24248E-18
 -1      4036 8.79444E-05-2.54611E-05-2.68053E-05 1.07387E-05-2.44014E-20 1.22630E-21
 -1      4037 8.86586E-05-2.66543E-05-2.65392E-05 1.19579E-05-9.97878E-20 1.73198E-19
 -1      4038 8.58997E-05-2.37633E-05-2.66139E-05 9.79800E-06-7.52445E-20-3.06515E-19
 -1      4039 7.77531E-05-2.19295E-05-2.39736E-05 1.28175E-05-9.69955E-19-4.22947E-19
 -1      4040 7.26474E-05-1.82527E-05-2.32570E-05 8.89447E-06-9.15565E-19 1.33087E-19
 -1      4041 8.29555E-05-2.44535E-05-2.50473E-05 1.35883E-05-4.18505E-19-3.24877E-19
 -1      4042 8.18422E-05-2.02817E-05-2.64792E-05 1.37871E-05 4.56210E-19-1.18792E-18
 -1      4043 9.52627E-05-2.85874E-05-2.85752E-05 9.04332E-09-3.37576E-19-3.14338E-18
 -1      4044 9.52598E-05-2.85870E-05-2.85741E-05 1.18331E-08 4.03324E-19-3.00976E-18
 -1      4045 7.19291E-05-1.70821E-05-2.34673E-05 5.55558E-06-6.85073E-19-4.26971E-19
 -1      4046 7.25188E-05-1.68605E-05-2.39000E-05 1.40701E-06-2.38111E-19-6.37808E-19
 -1      4047 7.60213E-05-1.86980E-05-2.45281E-05 6.27398E-06-7.50081E-19-5.56006E-19
 -1      4048 7.14162E-05-1.67239E-05-2.34996E-05-3.68822E-06 3.35329E-19 1.75809E-18
 -1      4049 9.52639E-05-2.85878E-05-2.85755E-05 5.21958E-09-1.06838E-18-2.72765E-18
 -1      4050 9.52644E-05-2.85880E-05-2.85756E-05 1.67195E-09-1.90948E-18-1.55262E-18
 -1      4051 9.52654E-05-2.85868E-05-2.85765E-05 6.96135E-09-1.35933E-18-2.20462E-18
 -1      4052 8.10712E-05-2.21213E-05-2.53218E-05 1.06190E-05-2.43941E-19-1.71420E-19
 -1      4053 9.52664E-05-2.85874E-05-2.85767E-05 2.85218E-10-1.51917E-18-1.83365E-18
 -1      4054 9.52643E-05-2.85882E-05-2.85755E-05-1.58941E-09-1.46552E-18-1.07860E-18
 -1      4055 9.52637E-05-2.85879E-05-2.85753E-05-4.41529E-09-1.16308E-18-1.38268E-18
 -1      4056 9.10186E-05-2.43245E-05-2.85960E-05 2.06292E-06-4.32076E-19 3.59788E-19
 -1      4057 9.05634E-05-2.39914E-05-2.85301E-05 2.37002E-06 1.21635E-19 6.00305E-20
 -1      4058 8.30737E-05-2.22598E-05-2.60438E-05 9.23423E-06 4.65670E-20-1.23672E-19
 -1      4059 7.90391E-05-2.01559E-05-2.51713E-05 8.29350E-06-1.20303E-19-2.53441E-19
 -1      4060 8.18224E-05-1.94283E-05-2.67576E-05-1.80184E-06-2.41253E-19 8.65510E-19
 -1      4061 8.32534E-05-1.99628E-05-2.71489E-05-1.61773E-06-1.08668E-19 6.44302E-19
 -1      4062 8.45980E-05-2.05173E-05-2.74839E-05-1.61497E-06 1.62624E-20 6.87545E-19
 -1      4063 8.57501E-05-2.10446E-05-2.77494E-05-1.46593E-06 2.50365E-19 2.67441E-19
 -1      4064 8.37349E-05-2.00623E-05-2.72315E-05-1.41929E-07-3.66963E-19 7.91628E-20
 -1      4065 8.68233E-05-2.15775E-05-2.79779E-05-1.44235E-06 9.27671E-20-4.66312E-19
 -1      4066 8.77518E-05-2.20873E-05-2.81556E-05-1.31006E-06-5.10753E-19-7.61113E-19
 -1      4067 8.61079E-05-2.11512E-05-2.77966E-05-3.08132E-07-4.97738E-19-6.20470E-19
 -1      4068 8.86208E-05-2.25957E-05-2.83082E-05-1.27112E-06-7.18894E-19-8.25414E-19
 -1      4069 8.93753E-05-2.30779E-05-2.84235E-05-1.14603E-06-7.03543E-19-3.95465E-19
 -1      4070 8.80248E-05-2.21966E-05-2.81799E-05-3.93271E-07-5.95731E-19-1.19583E-18
 -1      4071 9.00820E-05-2.35522E-05-2.85218E-05-1.09921E-06-9.25536E-19-1.91351E-19
 -1      4072 9.06929E-05-2.39957E-05-2.85927E-05-9.80853E-07-6.42370E-19-3.31462E-19
 -1      4073 8.95885E-05-2.31844E-05-2.84333E-05-4.19589E-07-5.70269E-19-1.19281E-18
 -1      4074 9.12661E-05-2.44258E-05-2.86526E-05-9.29452E-07 9.12453E-20-1.01585E-18
 -1      4075 9.17573E-05-2.48230E-05-2.86927E-05-8.19211E-07 3.56066E-20-8.82494E-19
 -1      4076 9.08584E-05-2.40925E-05-2.85937E-05-4.05025E-07-7.15426E-19-1.31006E-18
 -1      4077 9.22189E-05-2.52038E-05-2.87258E-05-7.67883E-07-5.51861E-19-5.13138E-19
 -1      4078 9.26102E-05-2.55510E-05-2.87449E-05-6.67907E-07-7.34943E-19-7.88108E-19
 -1      4079 9.18862E-05-2.49088E-05-2.86886E-05-3.65702E-07-2.36506E-19-1.25283E-18
 -1      4080 9.29781E-05-2.58803E-05-2.87599E-05-6.19978E-07-6.73147E-19-8.57185E-19
 -1      4081 9.32862E-05-2.61772E-05-2.87652E-05-5.31909E-07-6.42948E-19-8.23572E-19
 -1      4082 9.27107E-05-2.56256E-05-2.87382E-05-3.14442E-07-4.14870E-19-1.26545E-18
 -1      4083 9.35757E-05-2.64559E-05-2.87684E-05-4.89361E-07-1.03642E-19-9.33480E-19
 -1      4084 9.38151E-05-2.67045E-05-2.87650E-05-4.13917E-07 3.95998E-19-7.38030E-19
 -1      4085 9.33643E-05-2.62408E-05-2.87575E-05-2.59996E-07-8.61398E-20-1.15600E-18
 -1      4086 9.40396E-05-2.69357E-05-2.87608E-05-3.77653E-07-1.28936E-19-6.66485E-19
 -1      4087 9.42231E-05-2.71400E-05-2.87525E-05-3.14676E-07 3.35596E-19-9.64604E-19
 -1      4088 9.38755E-05-2.67580E-05-2.87572E-05-2.07896E-07 5.66009E-21-1.46557E-18
 -1      4089 9.43946E-05-2.73283E-05-2.87441E-05-2.84812E-07 5.99532E-19-1.51757E-18
 -1      4090 9.45329E-05-2.74930E-05-2.87334E-05-2.33486E-07 1.88710E-19-1.23655E-18
 -1      4091 9.42694E-05-2.71843E-05-2.87452E-05-1.61253E-07 1.82648E-19-1.50240E-18
 -1      4092 9.46617E-05-2.76436E-05-2.87230E-05-2.09628E-07-4.78846E-19-1.52972E-18
 -1      4093 9.47642E-05-2.77742E-05-2.87115E-05-1.68725E-07-8.03638E-19-1.49720E-18
 -1      4094 9.45682E-05-2.75293E-05-2.87268E-05-1.21462E-07-2.43649E-19-1.84531E-18
 -1      4095 9.48590E-05-2.78926E-05-2.87006E-05-1.50193E-07-9.25959E-19-1.58934E-18
 -1      4096 9.49336E-05-2.79944E-05-2.86893E-05-1.18289E-07-1.15868E-18-1.75922E-18
 -1      4097 9.47907E-05-2.78036E-05-2.87058E-05-8.87873E-08-1.02451E-18-2.66318E-18
 -1      4098 9.50020E-05-2.80859E-05-2.86788E-05-1.04279E-07-1.27188E-18-9.17579E-19
 -1      4099 9.50549E-05-2.81638E-05-2.86684E-05-7.99144E-08-1.43694E-18-3.55886E-19
 -1      4100 9.49532E-05-2.80178E-05-2.86845E-05-6.28079E-08-8.19293E-19-2.18532E-18
 -1      4101 9.51030E-05-2.82333E-05-2.86588E-05-6.96120E-08-8.83806E-19 4.36680E-19
 -1      4102 9.51395E-05-2.82919E-05-2.86495E-05-5.14026E-08-1.16391E-19 8.57813E-19
 -1      4103 9.50692E-05-2.81822E-05-2.86644E-05-4.27425E-08-6.08437E-19-4.17002E-20
 -1      4104 9.51723E-05-2.83436E-05-2.86411E-05-4.40485E-08-7.17094E-20 1.18810E-18
 -1      4105 9.51966E-05-2.83868E-05-2.86332E-05-3.07476E-08-5.79932E-21 7.78249E-19
 -1      4106 9.51498E-05-2.83061E-05-2.86463E-05-2.76679E-08-2.28161E-19 2.87263E-19
 -1      4107 9.52180E-05-2.84245E-05-2.86259E-05-2.56744E-08-6.65766E-19 1.00334E-18
 -1      4108 9.52335E-05-2.84556E-05-2.86193E-05-1.62030E-08-3.81818E-19 3.89918E-19
 -1      4109 9.52038E-05-2.83976E-05-2.86306E-05-1.66557E-08-2.74703E-19 1.43761E-18
 -1      4110 9.52466E-05-2.84825E-05-2.86133E-05-1.28479E-08 4.63855E-19 2.86067E-19
 -1      4111 9.52557E-05-2.85044E-05-2.86078E-05-6.30173E-09 8.07913E-19 3.77818E-19
 -1      4112 9.52383E-05-2.84638E-05-2.86173E-05-8.85044E-09-1.89698E-19 7.07797E-19
 -1      4113 9.52630E-05-2.85230E-05-2.86029E-05-4.20596E-09 1.44847E-18 6.52454E-19
 -1      4114 9.52677E-05-2.85379E-05-2.85986E-05 1.52629E-10 1.59204E-18 7.68564E-19
 -1      4115 9.52588E-05-2.85103E-05-2.86063E-05-3.50798E-09 1.47347E-18 2.20588E-19
 -1      4116 9.52710E-05-2.85503E-05-2.85946E-05 1.35225E-09 1.01416E-18 4.09431E-19
 -1      4117 9.52726E-05-2.85600E-05-2.85911E-05 4.11017E-09 1.30501E-18-8.20812E-19
 -1      4118 9.52695E-05-2.85421E-05-2.85974E-05-7.04899E-12 1.36645E-18 8.33382E-20
 -1      4119 9.52733E-05-2.85679E-05-2.85880E-05 4.69469E-09 1.80955E-18-1.94137E-18
 -1      4120 9.52730E-05-2.85740E-05-2.85853E-05 6.30851E-09 8.93727E-19-1.33953E-18
 -1      4121 9.52736E-05-2.85630E-05-2.85902E-05 2.15509E-09 8.14458E-19-1.52677E-18
 -1      4122 9.52720E-05-2.85786E-05-2.85829E-05 6.48303E-09 9.80285E-20-1.76336E-18
 -1      4123 9.52706E-05-2.85821E-05-2.85808E-05 7.32536E-09-8.91615E-19-1.19733E-18
 -1      4124 9.52733E-05-2.85760E-05-2.85846E-05 3.36179E-09 1.15479E-19-2.35254E-18
 -1      4125 9.52692E-05-2.85841E-05-2.85793E-05 6.89533E-09-1.84554E-18-1.01751E-18
 -1      4126 9.52671E-05-2.85858E-05-2.85777E-05 7.12009E-09-1.52765E-18-2.15395E-18
 -1      4127 9.52679E-05-2.85860E-05-2.85780E-05 3.42763E-09-2.20089E-18-1.21983E-18
 -1      4128 9.52711E-05-2.85830E-05-2.85807E-05 3.70094E-09-1.15992E-18-2.79666E-18
 -1      4129 9.19435E-05-2.50130E-05-2.86947E-05 1.58408E-06-7.25020E-19-6.00680E-20
 -1      4130 9.15540E-05-2.46875E-05-2.86569E-05 1.82835E-06-6.59245E-19-1.41702E-19
 -1      4131 9.09735E-05-2.42242E-05-2.85851E-05 1.50298E-06-5.40809E-19 4.40301E-19
 -1      4132 8.99228E-05-2.36200E-05-2.84320E-05 2.67686E-06-3.73609E-20 2.97552E-20
 -1      4133 8.94039E-05-2.33050E-05-2.83273E-05 3.06939E-06-2.91382E-19-1.97737E-19
 -1      4134 8.98226E-05-2.34421E-05-2.84217E-05 1.98385E-06-3.68042E-19 4.79800E-19
 -1      4135 9.27106E-05-2.56528E-05-2.87471E-05 1.20860E-06-6.79361E-21 2.23730E-19
 -1      4136 9.23855E-05-2.53513E-05-2.87291E-05 1.40396E-06-7.24516E-19 1.44586E-19
 -1      4137 9.19317E-05-2.49628E-05-2.86836E-05 1.13683E-06-9.81846E-19-1.35321E-19
 -1      4138 9.33352E-05-2.62246E-05-2.87681E-05 9.13824E-07 3.76305E-19-3.86921E-19
 -1      4139 9.30700E-05-2.59562E-05-2.87633E-05 1.06994E-06 7.15869E-19 2.93151E-19
 -1      4140 9.27172E-05-2.56335E-05-2.87364E-05 8.56142E-07-1.98874E-20-1.84426E-19
 -1      4141 9.38344E-05-2.67199E-05-2.87684E-05 6.83052E-07-7.38143E-19 1.80588E-19
 -1      4142 9.36226E-05-2.64884E-05-2.87720E-05 8.07203E-07-1.14210E-19 1.92551E-19
 -1      4143 9.33509E-05-2.62236E-05-2.87581E-05 6.40182E-07 6.05660E-20 1.89846E-19
 -1      4144 9.42261E-05-2.71377E-05-2.87561E-05 5.03472E-07-8.25040E-19-7.99214E-20
 -1      4145 9.40604E-05-2.69432E-05-2.87647E-05 6.01416E-07-8.21506E-19 1.96555E-19
 -1      4146 9.38536E-05-2.67289E-05-2.87594E-05 4.74020E-07-6.29579E-19-3.33039E-19
 -1      4147 9.45278E-05-2.74820E-05-2.87370E-05 3.64924E-07-3.82087E-19-4.94300E-19
 -1      4148 9.44008E-05-2.73223E-05-2.87480E-05 4.41405E-07-6.19043E-19-5.62349E-19
 -1      4149 9.42455E-05-2.71514E-05-2.87483E-05 3.46592E-07-7.09540E-19-6.78044E-19
 -1      4150 9.47556E-05-2.77598E-05-2.87148E-05 2.59174E-07-1.71795E-19 2.05667E-19
 -1      4151 9.46604E-05-2.76315E-05-2.87266E-05 3.18182E-07-2.56203E-19-2.84912E-19
 -1      4152 9.45457E-05-2.74973E-05-2.87303E-05 2.49464E-07-5.62994E-19-1.73415E-18
 -1      4153 9.49242E-05-2.79796E-05-2.86923E-05 1.79478E-07-1.72009E-20 9.42178E-19
 -1      4154 9.48543E-05-2.78785E-05-2.87039E-05 2.24388E-07-2.25097E-20 7.48803E-19
 -1      4155 9.47713E-05-2.77748E-05-2.87093E-05 1.76066E-07-4.50917E-19 5.86955E-20
 -1      4156 9.50461E-05-2.81502E-05-2.86710E-05 1.20294E-07-2.07308E-20 1.48722E-18
 -1      4157 9.49961E-05-2.80721E-05-2.86816E-05 1.53957E-07 1.10494E-19 1.64752E-18
 -1      4158 9.49373E-05-2.79933E-05-2.86878E-05 1.21204E-07-4.05708E-19 4.58387E-19
 -1      4159 9.51320E-05-2.82802E-05-2.86517E-05 7.70862E-08-4.55938E-19 9.22710E-19
 -1      4160 9.50972E-05-2.82209E-05-2.86611E-05 1.01888E-07-6.95599E-20 1.20049E-18
 -1      4161 9.50567E-05-2.81622E-05-2.86674E-05 8.07396E-08 3.48224E-19 6.93874E-19
 -1      4162 9.51904E-05-2.83772E-05-2.86349E-05 4.61676E-08-3.74409E-19-3.02997E-20
 -1      4163 9.51671E-05-2.83331E-05-2.86430E-05 6.40840E-08-2.57884E-19 2.76185E-19
 -1      4164 9.51403E-05-2.82902E-05-2.86489E-05 5.13693E-08-2.81572E-20 3.35569E-19
 -1      4165 9.52286E-05-2.84480E-05-2.86207E-05 2.45707E-08 1.26603E-19 7.75449E-19
 -1      4166 9.52137E-05-2.84160E-05-2.86275E-05 3.72162E-08-2.06567E-19 6.70758E-19
 -1      4167 9.51968E-05-2.83854E-05-2.86328E-05 3.04597E-08-2.99413E-19-7.34903E-19
 -1      4168 9.52520E-05-2.84985E-05-2.86089E-05 9.93436E-09 7.29170E-19 2.21877E-19
 -1      4169 9.52432E-05-2.84759E-05-2.86145E-05 1.86094E-08 4.21698E-19 8.87493E-19
 -1      4170 9.52334E-05-2.84546E-05-2.86191E-05 1.59237E-08 1.56181E-19 4.04286E-19
 -1      4171 9.52649E-05-2.85335E-05-2.85994E-05 4.04365E-10 1.19011E-18-8.38143E-19
 -1      4172 9.52604E-05-2.85179E-05-2.86038E-05 6.14103E-09 1.11158E-18-2.95819E-19
 -1      4173 9.52555E-05-2.85036E-05-2.86077E-05 6.12044E-09 1.10715E-18 8.67415E-19
 -1      4174 9.52707E-05-2.85568E-05-2.85917E-05-5.45472E-09-5.28709E-19-1.30853E-21
 -1      4175 9.52690E-05-2.85465E-05-2.85953E-05-1.85064E-09-1.80923E-19-4.04962E-19
 -1      4176 9.52674E-05-2.85374E-05-2.85985E-05-2.27445E-10 7.96127E-20-4.47141E-19
 -1      4177 9.52717E-05-2.85717E-05-2.85858E-05-8.73591E-09-1.36687E-18-6.54175E-19
 -1      4178 9.52719E-05-2.85652E-05-2.85885E-05-6.64613E-09-7.29041E-19-2.36057E-19
 -1      4179 9.52723E-05-2.85597E-05-2.85911E-05-4.10254E-09-8.34136E-19-2.06661E-18
 -1      4180 9.52697E-05-2.85805E-05-2.85811E-05-1.02505E-08-6.54228E-19-1.35025E-18
 -1      4181 9.52711E-05-2.85767E-05-2.85832E-05-9.20746E-09-1.14302E-18-1.18546E-18
 -1      4182 9.52727E-05-2.85738E-05-2.85853E-05-6.24533E-09-8.50347E-19-3.79000E-18
 -1      4183 9.52661E-05-2.85852E-05-2.85775E-05-1.05626E-08-1.20506E-18-1.04272E-18
 -1      4184 9.52681E-05-2.85833E-05-2.85791E-05-1.03034E-08-7.26848E-19-9.52083E-19
 -1      4185 9.52703E-05-2.85820E-05-2.85808E-05-7.25725E-09-1.15341E-18-2.30634E-18
 -1      4186 8.34888E-05-2.18905E-05-2.64607E-05 7.88620E-06 1.27411E-19 3.91273E-20
 -1      4187 8.53670E-05-2.19267E-05-2.72259E-05 5.86865E-06-9.48242E-19 3.34313E-20
 -1      4188 8.47985E-05-2.19645E-05-2.69118E-05 6.78721E-06-4.13292E-19 1.65611E-19
 -1      4189 8.22390E-05-2.05419E-05-2.63822E-05 6.11606E-06-2.73959E-19-2.95568E-20
 -1      4190 9.52627E-05-2.85879E-05-2.85749E-05-6.95312E-09-6.39154E-19-1.62554E-18
 -1      4191 9.52615E-05-2.85874E-05-2.85746E-05-9.66250E-09-4.67781E-19-1.83771E-18
 -1      4192 9.52626E-05-2.85869E-05-2.85753E-05-1.02970E-08-9.57569E-19-1.62184E-18
 -1      4193 9.52651E-05-2.85873E-05-2.85762E-05-5.49146E-09-1.23892E-18-2.04241E-18
 -1      4194 7.31323E-05-1.68072E-05-2.40738E-05-8.33903E-07-3.18142E-19 2.80216E-19
 -1      4195 7.45544E-05-1.74493E-05-2.44980E-05-3.42566E-06-2.93598E-19 1.50666E-18
 -1      4196 7.67597E-05-1.79042E-05-2.52618E-05-2.84973E-06-7.40491E-19 1.25966E-18
 -1      4197 7.56751E-05-1.76270E-05-2.48593E-05 1.15646E-06-9.14090E-19-4.83421E-20
 -1      4198 7.85805E-05-1.84301E-05-2.58032E-05-2.41387E-06-4.91310E-19 1.13614E-18
 -1      4199 8.03602E-05-1.89522E-05-2.63651E-05-2.11258E-06-2.39363E-19 1.01142E-18
 -1      4200 8.09355E-05-1.89410E-05-2.64895E-05-1.50390E-07-2.47205E-19 5.58899E-19
 -1      4201 7.77617E-05-1.80246E-05-2.55711E-05-7.20995E-07-4.81508E-19 5.50753E-19
 -1      4202 7.78921E-05-1.90256E-05-2.52896E-05 5.35003E-06-1.22807E-19-5.75607E-19
 -1      4203 9.52681E-05-2.85862E-05-2.85779E-05 4.02766E-10-9.94129E-19-2.49187E-18
 -1      4204 8.64470E-05-2.21525E-05-2.75470E-05 5.11966E-06-7.66362E-19-1.96803E-19
 -1      4205 8.46268E-05-2.10722E-05-2.71829E-05 4.47824E-06-6.72324E-19-7.66383E-20
 -1      4206 8.70461E-05-2.23030E-05-2.77743E-05 4.45092E-06-4.24852E-19-4.05134E-19
 -1      4207 8.85925E-05-2.29146E-05-2.81682E-05 3.44000E-06-2.18143E-19-5.38806E-19
 -1      4208 8.80197E-05-2.26551E-05-2.80105E-05 3.94639E-06-1.34899E-19-4.40381E-19
 -1      4209 8.66511E-05-2.17831E-05-2.77568E-05 3.34649E-06-3.95762E-19-9.39704E-19
 -1      4210 8.84063E-05-2.26192E-05-2.81600E-05 2.58167E-06-4.22570E-19-4.31684E-19
 -1      4211 9.52638E-05-2.85863E-05-2.85760E-05-1.07438E-08-9.37199E-19-1.58738E-18
 -1      4212 9.52663E-05-2.85861E-05-2.85772E-05-7.61689E-09-8.17525E-19-1.90245E-18
 -1      4213 9.07636E-05-2.41210E-05-2.85788E-05 4.75435E-07-7.46735E-19-1.34774E-19
 -1      4214 9.02106E-05-2.37105E-05-2.85116E-05 6.42949E-07-6.55468E-19-6.45381E-19
 -1      4215 8.60594E-05-2.13821E-05-2.77567E-05 1.40774E-06-4.56766E-19-4.26867E-19
 -1      4216 8.71303E-05-2.18780E-05-2.79838E-05 1.26503E-06-4.42610E-19-3.95349E-19
 -1      4217 8.79722E-05-2.23469E-05-2.81535E-05 1.01166E-06-8.67796E-19-4.13111E-19
 -1      4218 8.88402E-05-2.28268E-05-2.83057E-05 9.19714E-07-6.05512E-19-7.41164E-19
 -1      4219 8.95019E-05-2.32584E-05-2.84125E-05 6.94634E-07-4.56198E-19-8.15268E-19
 -1      4220 9.13391E-05-2.45347E-05-2.86397E-05 4.50787E-07-7.81305E-19-3.08290E-19
 -1      4221 9.17949E-05-2.49106E-05-2.86786E-05 3.24310E-07-7.64155E-19-7.27341E-19
 -1      4222 9.22586E-05-2.52792E-05-2.87128E-05 3.16544E-07-1.65025E-19-7.77054E-19
 -1      4223 9.26288E-05-2.56128E-05-2.87321E-05 2.20264E-07-3.83800E-20-6.34682E-19
 -1      4224 9.29985E-05-2.59332E-05-2.87480E-05 2.22448E-07 1.62478E-20-8.20457E-19
 -1      4225 9.32946E-05-2.62214E-05-2.87542E-05 1.48814E-07-4.30889E-20-6.21604E-19
 -1      4226 9.35855E-05-2.64935E-05-2.87581E-05 1.56248E-07-3.69913E-20-9.95003E-19
 -1      4227 9.38185E-05-2.67367E-05-2.87559E-05 9.98613E-08-2.28080E-19-1.27170E-18
 -1      4228 9.40441E-05-2.69631E-05-2.87523E-05 1.09489E-07-2.52173E-19-1.07136E-18
 -1      4229 9.42243E-05-2.71639E-05-2.87452E-05 6.63916E-08-5.35283E-19-1.32149E-18
 -1      4230 9.43967E-05-2.73487E-05-2.87373E-05 7.63409E-08 3.11017E-20-1.48607E-18
 -1      4231 9.45335E-05-2.75112E-05-2.87276E-05 4.35553E-08-1.62869E-19-1.70529E-18
 -1      4232 9.46629E-05-2.76592E-05-2.87177E-05 5.27770E-08-7.47543E-19-1.86936E-18
 -1      4233 9.47649E-05-2.77883E-05-2.87070E-05 2.80168E-08-1.11928E-18-1.08739E-18
 -1      4234 9.48602E-05-2.79047E-05-2.86964E-05 3.60075E-08-9.50829E-19-1.13726E-18
 -1      4235 9.49346E-05-2.80054E-05-2.86859E-05 1.74891E-08-3.27371E-19-1.26978E-18
 -1      4236 9.50033E-05-2.80954E-05-2.86756E-05 2.40878E-08-1.45670E-19-7.68535E-19
 -1      4237 9.50562E-05-2.81725E-05-2.86659E-05 1.04056E-08-7.24573E-21-7.51636E-19
 -1      4238 9.51045E-05-2.82407E-05-2.86564E-05 1.56513E-08 2.85245E-19-3.92636E-19
 -1      4239 9.51410E-05-2.82986E-05-2.86477E-05 5.69171E-09-1.70750E-19-2.46980E-19
 -1      4240 9.51739E-05-2.83495E-05-2.86393E-05 9.72737E-09-1.16666E-19 1.13133E-19
 -1      4241 9.51982E-05-2.83921E-05-2.86318E-05 2.60793E-09-2.99971E-19 3.90361E-20
 -1      4242 9.52197E-05-2.84291E-05-2.86247E-05 5.61960E-09-2.45691E-19 3.07948E-19
 -1      4243 9.52350E-05-2.84597E-05-2.86184E-05 6.43042E-10 1.51442E-20 7.20423E-19
 -1      4244 9.52482E-05-2.84861E-05-2.86124E-05 2.82302E-09 5.83140E-19 5.28908E-19
 -1      4245 9.52571E-05-2.85075E-05-2.86072E-05-5.58125E-10 1.00815E-18 5.06355E-19
 -1      4246 9.52644E-05-2.85257E-05-2.86023E-05 9.68578E-10 1.33408E-18-2.44823E-19
 -1      4247 9.52689E-05-2.85402E-05-2.85981E-05-1.24345E-09 6.89617E-19-7.79843E-19
 -1      4248 9.52722E-05-2.85524E-05-2.85942E-05-2.14922E-10 2.96231E-19-1.33442E-18
 -1      4249 9.52737E-05-2.85618E-05-2.85908E-05-1.58678E-09 3.88459E-19-2.28636E-18
 -1      4250 9.52743E-05-2.85695E-05-2.85877E-05-9.28657E-10 1.13203E-19-2.40625E-18
 -1      4251 9.52738E-05-2.85752E-05-2.85851E-05-1.70239E-09-4.88311E-19-2.24867E-18
 -1      4252 9.52728E-05-2.85798E-05-2.85827E-05-1.27535E-09-1.10519E-18-2.66883E-18
 -1      4253 9.52711E-05-2.85830E-05-2.85806E-05-1.71467E-09-8.12909E-19-2.71482E-18
 -1      4254 9.52677E-05-2.85864E-05-2.85777E-05-5.15077E-09-1.00738E-18-2.33428E-18
 -1      4255 8.36857E-05-2.04044E-05-2.71715E-05 1.98000E-06-3.18024E-19-2.24524E-19
 -1      4256 8.50372E-05-2.09140E-05-2.75048E-05 1.76241E-06-4.44837E-19-3.87087E-19
 -1      4257 8.10390E-05-1.95294E-05-2.64177E-05 2.61978E-06-3.20354E-19 4.33931E-20
 -1      4258 7.96738E-05-1.91810E-05-2.59338E-05 3.39015E-06-1.06768E-19 5.88465E-20
 -1      4259 8.25181E-05-2.00224E-05-2.68187E-05 2.58253E-06-2.72751E-19 8.63320E-20
 -1      4260 9.52696E-05-2.85846E-05-2.85793E-05 5.97370E-10-8.29774E-19-3.75381E-18
 -1      4261 7.73457E-05-1.79797E-05-2.54045E-05 1.42454E-06-3.96762E-19-4.75033E-20
 -3
    1PSTEP                         4           1           1          
  100CL  101 1.000000000        4261                     0    1           1
 -4  ERROR       1    1
 -5  STR(%)      1    1    0    0
 -1         1 1.30627E+01
 -1         2 2.55771E+01
 -1         3 1.95063E-04
 -1         4 2.27295E-04
 -1         5 1.26861E+01
 -1         6 1.17282E+01
 -1         7 1.17282E+01
 -1         8 4.04378E+00
 -1         9 2.79983E+00
 -1        10 2.34430E+00
 -1        11 2.07030E+00
 -1        12 1.73982E+00
 -1        13 1.31008E+00
 -1        14 7.00152E-01
 -1        15 1.11400E+00
 -1        16 1.47682E+00
 -1        17 1.66581E+00
 -1        18 1.84094E+00
 -1        19 2.06257E+00
 -1        20 2.55582E+00
 -1        21 3.79983E+00
 -1        22 8.12185E+00
 -1        23 1.17282E+01
 -1        24 2.76791E+00
 -1        25 1.35657E+00
 -1        26 8.44207E-01
 -1        27 1.10125E+00
 -1        28 1.28957E+00
 -1        29 1.72060E+00
 -1        30 2.66049E+00
 -1        31 4.44574E+00
 -1        32 5.02094E+00
 -1        33 5.05766E+00
 -1        34 5.05766E+00
 -1        35 4.03789E+00
 -1        36 2.23380E+00
 -1        37 1.69490E+00
 -1        38 1.69490E+00
 -1        39 1.65394E+00
 -1        40 1.65394E+00
 -1        41 1.47486E+00
 -1        42 1.20262E+00
 -1        43 9.58127E-01
 -1        44 7.45254E-01
 -1        45 5.97408E-01
 -1        46 4.95457E-01
 -1        47 3.97338E-01
 -1        48 3.09918E-01
 -1        49 2.35862E-01
 -1        50 1.75366E-01
 -1        51 1.27329E-01
 -1        52 1.02229E-01
 -1        53 8.37392E-02
 -1        54 6.72283E-02
 -1        55 5.29804E-02
 -1        56 4.10109E-02
 -1        57 3.11782E-02
 -1        58 2.32576E-02
 -1        59 1.90576E-02
 -1        60 1.55377E-02
 -1        61 1.24217E-02
 -1        62 9.74296E-03
 -1        63 7.49086E-03
 -1        64 5.80169E-03
 -1        65 4.37977E-03
 -1        66 3.18861E-03
 -1        67 2.62447E-03
 -1        68 2.20776E-03
 -1        69 1.76753E-03
 -1        70 1.37525E-03
 -1        71 9.97567E-04
 -1        72 1.26861E+01
 -1        73 2.46037E+00
 -1        74 1.17182E+00
 -1        75 3.34244E-01
 -1        76 6.87138E-01
 -1        77 9.89361E-01
 -1        78 1.38352E+00
 -1        79 1.70463E+00
 -1        80 2.62495E+00
 -1        81 3.04605E+00
 -1        82 3.45046E+00
 -1        83 3.45046E+00
 -1        84 3.25666E+00
 -1        85 2.33788E+00
 -1        86 1.39295E+00
 -1        87 9.49977E-01
 -1        88 9.03701E-01
 -1        89 1.02596E+00
 -1        90 1.02596E+00
 -1        91 9.93336E-01
 -1        92 8.76419E-01
 -1        93 7.37904E-01
 -1        94 6.08530E-01
 -1        95 4.79793E-01
 -1        96 3.63315E-01
 -1        97 2.75373E-01
 -1        98 2.16201E-01
 -1        99 1.64898E-01
 -1       100 1.22280E-01
 -1       101 8.80657E-02
 -1       102 6.13897E-02
 -1       103 4.52848E-02
 -1       104 3.78802E-02
 -1       105 3.09378E-02
 -1       106 2.47352E-02
 -1       107 1.93870E-02
 -1       108 1.67172E-02
 -1       109 1.44699E-02
 -1       110 1.21908E-02
 -1       111 1.00376E-02
 -1       112 8.09423E-03
 -1       113 6.49773E-03
 -1       114 5.16024E-03
 -1       115 3.98729E-03
 -1       116 2.96565E-03
 -1       117 2.18858E-03
 -1       118 1.75434E-03
 -1       119 1.23500E-03
 -1       120 7.30812E-04
 -1       121 3.32955E-04
 -1       122 3.32955E-04
 -1       123 2.55589E-04
 -1       124 1.15612E-04
 -1       125 1.51795E-04
 -1       126 2.30906E-04
 -1       127 2.76767E-04
 -1       128 2.89720E-04
 -1       129 2.89720E-04
 -1       130 2.76349E-04
 -1       131 2.28181E-04
 -1       132 1.51690E-04
 -1       133 1.18133E-04
 -1       134 2.57101E-04
 -1       135 4.42119E-04
 -1       136 5.13281E-04
 -1       137 2.55771E+01
 -1       138 4.72209E+01
 -1       139 4.72209E+01
 -1       140 1.98773E+01
 -1       141 1.21194E+01
 -1       142 1.29695E+01
 -1       143 1.29695E+01
 -1       144 1.27251E+01
 -1       145 1.27251E+01
 -1       146 1.33967E+01
 -1       147 3.16831E+01
 -1       148 3.16831E+01
 -1       149 2.78876E+01
 -1       150 2.56458E+01
 -1       151 2.62329E+01
 -1       152 2.62329E+01
 -1       153 3.95650E+01
 -1       154 3.95650E+01
 -1       155 1.52108E+01
 -1       156 1.21354E+01
 -1       157 1.25015E+01
 -1       158 1.30627E+01
 -1       159 1.22939E+01
 -1       160 2.01688E+01
 -1       161 4.68008E+01
 -1       162 4.68008E+01
 -1       163 2.48176E+01
 -1       164 6.19479E+00
 -1       165 3.10453E+00
 -1       166 2.41457E+00
 -1       167 2.09013E+00
 -1       168 1.91480E+00
 -1       169 1.62529E+00
 -1       170 1.05476E+00
 -1       171 9.27050E-01
 -1       172 1.40213E+00
 -1       173 1.59463E+00
 -1       174 1.68071E+00
 -1       175 1.85749E+00
 -1       176 2.22696E+00
 -1       177 2.87340E+00
 -1       178 4.04012E+00
 -1       179 1.26861E+01
 -1       180 3.02946E+00
 -1       181 1.88134E+00
 -1       182 9.20851E-01
 -1       183 8.44207E-01
 -1       184 1.10125E+00
 -1       185 1.28957E+00
 -1       186 1.72060E+00
 -1       187 2.80779E+00
 -1       188 4.44574E+00
 -1       189 5.02094E+00
 -1       190 5.05766E+00
 -1       191 4.03789E+00
 -1       192 2.43315E+00
 -1       193 1.63726E+00
 -1       194 1.69490E+00
 -1       195 1.59341E+00
 -1       196 1.65394E+00
 -1       197 1.47486E+00
 -1       198 1.21346E+00
 -1       199 1.03526E+00
 -1       200 8.87478E-01
 -1       201 7.21097E-01
 -1       202 5.61441E-01
 -1       203 4.21399E-01
 -1       204 3.09918E-01
 -1       205 2.41005E-01
 -1       206 1.85064E-01
 -1       207 1.39115E-01
 -1       208 1.02356E-01
 -1       209 8.37392E-02
 -1       210 6.72283E-02
 -1       211 5.29804E-02
 -1       212 4.10109E-02
 -1       213 3.11782E-02
 -1       214 2.42809E-02
 -1       215 1.90576E-02
 -1       216 1.55377E-02
 -1       217 1.24217E-02
 -1       218 9.85468E-03
 -1       219 7.86446E-03
 -1       220 6.19432E-03
 -1       221 4.93220E-03
 -1       222 3.81223E-03
 -1       223 2.84132E-03
 -1       224 2.20776E-03
 -1       225 1.76753E-03
 -1       226 1.37525E-03
 -1       227 9.97567E-04
 -1       228 2.46037E+00
 -1       229 1.25555E+00
 -1       230 5.46348E-01
 -1       231 4.11306E-01
 -1       232 6.87138E-01
 -1       233 9.89361E-01
 -1       234 1.38352E+00
 -1       235 1.93343E+00
 -1       236 2.62495E+00
 -1       237 3.04605E+00
 -1       238 3.45046E+00
 -1       239 3.25666E+00
 -1       240 2.33788E+00
 -1       241 1.39295E+00
 -1       242 9.49977E-01
 -1       243 8.69403E-01
 -1       244 9.03701E-01
 -1       245 1.02596E+00
 -1       246 9.93336E-01
 -1       247 8.76419E-01
 -1       248 7.37904E-01
 -1       249 6.13812E-01
 -1       250 4.98920E-01
 -1       251 3.89475E-01
 -1       252 2.92914E-01
 -1       253 2.16201E-01
 -1       254 1.64898E-01
 -1       255 1.22280E-01
 -1       256 8.96922E-02
 -1       257 6.44720E-02
 -1       258 4.52848E-02
 -1       259 3.78802E-02
 -1       260 3.09378E-02
 -1       261 2.47352E-02
 -1       262 1.93870E-02
 -1       263 1.67172E-02
 -1       264 1.44699E-02
 -1       265 1.21908E-02
 -1       266 1.00376E-02
 -1       267 8.09423E-03
 -1       268 6.49773E-03
 -1       269 5.16024E-03
 -1       270 3.98729E-03
 -1       271 3.02977E-03
 -1       272 2.19574E-03
 -1       273 1.75434E-03
 -1       274 1.23500E-03
 -1       275 7.30812E-04
 -1       276 4.16835E-04
 -1       277 4.16835E-04
 -1       278 3.78422E-04
 -1       279 2.44956E-04
 -1       280 4.02684E-04
 -1       281 5.00226E-04
 -1       282 5.38810E-04
 -1       283 5.38810E-04
 -1       284 5.38699E-04
 -1       285 4.97664E-04
 -1       286 4.02710E-04
 -1       287 2.49590E-04
 -1       288 3.76702E-04
 -1       289 3.76702E-04
 -1       290 5.36016E-04
 -1       291 3.32224E+01
 -1       292 2.84511E+01
 -1       293 4.72209E+01
 -1       294 2.15293E+01
 -1       295 1.14186E+01
 -1       296 1.21194E+01
 -1       297 1.29695E+01
 -1       298 1.18117E+01
 -1       299 1.27251E+01
 -1       300 1.24162E+01
 -1       301 1.33967E+01
 -1       302 3.16831E+01
 -1       303 3.10942E+01
 -1       304 2.74234E+01
 -1       305 2.93834E+01
 -1       306 2.93834E+01
 -1       307 3.49958E+01
 -1       308 3.95650E+01
 -1       309 1.54349E+01
 -1       310 1.15622E+01
 -1       311 1.21354E+01
 -1       312 1.25015E+01
 -1       313 1.30627E+01
 -1       314 1.22939E+01
 -1       315 1.10528E+01
 -1       316 2.02221E+01
 -1       317 4.68008E+01
 -1       318 2.88124E+01
 -1       319 3.32224E+01
 -1       320 2.58242E+00
 -1       321 3.02946E+00
 -1       322 2.03227E+00
 -1       323 1.95798E+00
 -1       324 1.54975E+00
 -1       325 1.05325E+00
 -1       326 1.40620E+00
 -1       327 1.65669E+00
 -1       328 1.67881E+00
 -1       329 1.67881E+00
 -1       330 1.71304E+00
 -1       331 1.89343E+00
 -1       332 1.95737E+00
 -1       333 1.80404E+00
 -1       334 1.25555E+00
 -1       335 1.69185E+00
 -1       336 1.31227E+00
 -1       337 1.17440E+00
 -1       338 1.09354E+00
 -1       339 1.18819E+00
 -1       340 1.90561E+00
 -1       341 2.51001E+00
 -1       342 2.97061E+00
 -1       343 2.89557E+00
 -1       344 2.91280E+00
 -1       345 2.21409E+00
 -1       346 1.60890E+00
 -1       347 1.25729E+00
 -1       348 1.09266E+00
 -1       349 1.22083E+00
 -1       350 1.27712E+00
 -1       351 1.18853E+00
 -1       352 1.06136E+00
 -1       353 9.50705E-01
 -1       354 8.08569E-01
 -1       355 6.58133E-01
 -1       356 5.17119E-01
 -1       357 3.94241E-01
 -1       358 2.92337E-01
 -1       359 2.10875E-01
 -1       360 1.47648E-01
 -1       361 1.02356E-01
 -1       362 7.35970E-02
 -1       363 5.33845E-02
 -1       364 4.14876E-02
 -1       365 3.42869E-02
 -1       366 2.77559E-02
 -1       367 2.20418E-02
 -1       368 1.71805E-02
 -1       369 1.34920E-02
 -1       370 1.13146E-02
 -1       371 9.41988E-03
 -1       372 7.65813E-03
 -1       373 6.19432E-03
 -1       374 4.95886E-03
 -1       375 3.85753E-03
 -1       376 3.02920E-03
 -1       377 2.29219E-03
 -1       378 1.66126E-03
 -1       379 1.24057E-03
 -1       380 8.74060E-04
 -1       381 6.54859E-01
 -1       382 2.82868E-01
 -1       383 6.24525E-01
 -1       384 1.05099E+00
 -1       385 1.56008E+00
 -1       386 1.86647E+00
 -1       387 1.86647E+00
 -1       388 1.82989E+00
 -1       389 1.97618E+00
 -1       390 2.07311E+00
 -1       391 1.68881E+00
 -1       392 1.11276E+00
 -1       393 6.94977E-01
 -1       394 4.98094E-01
 -1       395 6.70210E-01
 -1       396 7.17096E-01
 -1       397 7.53768E-01
 -1       398 7.10915E-01
 -1       399 6.36560E-01
 -1       400 5.57890E-01
 -1       401 4.64976E-01
 -1       402 3.71860E-01
 -1       403 2.86786E-01
 -1       404 2.13732E-01
 -1       405 1.59961E-01
 -1       406 1.21362E-01
 -1       407 8.96922E-02
 -1       408 6.44720E-02
 -1       409 4.49094E-02
 -1       410 3.01050E-02
 -1       411 2.47627E-02
 -1       412 2.10407E-02
 -1       413 1.74344E-02
 -1       414 1.41246E-02
 -1       415 1.12020E-02
 -1       416 9.29347E-03
 -1       417 7.93545E-03
 -1       418 6.58414E-03
 -1       419 5.35418E-03
 -1       420 4.42948E-03
 -1       421 3.56184E-03
 -1       422 2.77455E-03
 -1       423 2.07467E-03
 -1       424 1.54005E-03
 -1       425 1.15762E-03
 -1       426 7.27339E-04
 -1       427 4.36683E-04
 -1       428 8.13395E-04
 -1       429 8.13395E-04
 -1       430 5.42100E-04
 -1       431 6.80314E-04
 -1       432 7.43104E-04
 -1       433 7.43104E-04
 -1       434 7.41361E-04
 -1       435 7.41361E-04
 -1       436 6.80972E-04
 -1       437 5.40264E-04
 -1       438 4.28861E-04
 -1       439 6.96924E-04
 -1       440 2.84511E+01
 -1       441 3.32224E+01
 -1       442 2.82600E+01
 -1       443 1.64157E+01
 -1       444 8.83928E+00
 -1       445 2.58242E+00
 -1       446 8.69357E+00
 -1       447 1.10257E+01
 -1       448 1.10186E+01
 -1       449 9.02935E+00
 -1       450 7.02382E+00
 -1       451 1.26259E+01
 -1       452 2.15909E+01
 -1       453 2.63637E+01
 -1       454 4.48568E+01
 -1       455 4.48568E+01
 -1       456 2.88913E+01
 -1       457 2.36999E+01
 -1       458 1.39772E+01
 -1       459 7.70935E+00
 -1       460 7.79165E+00
 -1       461 9.86392E+00
 -1       462 1.01822E+01
 -1       463 9.53367E+00
 -1       464 8.02364E+00
 -1       465 8.78854E+00
 -1       466 1.62000E+01
 -1       467 2.88124E+01
 -1       468 2.92259E+01
 -1       469 7.81217E+00
 -1       470 4.53707E+00
 -1       471 3.98834E+00
 -1       472 9.17549E+00
 -1       473 9.70655E+00
 -1       474 1.54692E+00
 -1       475 2.15244E+00
 -1       476 2.18737E+00
 -1       477 1.49830E+00
 -1       478 1.88990E+00
 -1       479 1.88990E+00
 -1       480 1.87030E+00
 -1       481 1.66618E+00
 -1       482 1.77764E+00
 -1       483 7.78112E-01
 -1       484 1.76645E+00
 -1       485 7.70045E+00
 -1       486 1.83265E+00
 -1       487 1.83367E+00
 -1       488 2.00335E+00
 -1       489 2.27283E+00
 -1       490 3.41985E+00
 -1       491 5.40050E+00
 -1       492 5.37136E+00
 -1       493 5.08273E+00
 -1       494 3.69559E+00
 -1       495 2.25716E+00
 -1       496 2.33434E+00
 -1       497 1.91063E+00
 -1       498 1.71719E+00
 -1       499 1.53525E+00
 -1       500 1.31138E+00
 -1       501 1.14774E+00
 -1       502 1.02417E+00
 -1       503 8.73181E-01
 -1       504 7.18726E-01
 -1       505 5.74899E-01
 -1       506 4.48712E-01
 -1       507 3.42512E-01
 -1       508 2.55898E-01
 -1       509 1.87032E-01
 -1       510 1.33469E-01
 -1       511 9.26446E-02
 -1       512 6.21421E-02
 -1       513 3.98183E-02
 -1       514 2.68648E-02
 -1       515 2.00787E-02
 -1       516 1.76194E-02
 -1       517 1.50012E-02
 -1       518 1.24505E-02
 -1       519 1.00988E-02
 -1       520 8.12461E-03
 -1       521 7.00641E-03
 -1       522 5.88257E-03
 -1       523 4.79519E-03
 -1       524 3.87206E-03
 -1       525 3.04953E-03
 -1       526 2.31360E-03
 -1       527 1.73755E-03
 -1       528 1.26586E-03
 -1       529 8.55751E-01
 -1       530 1.31173E+00
 -1       531 1.64751E+00
 -1       532 1.89113E+00
 -1       533 2.01498E+00
 -1       534 1.94125E+00
 -1       535 1.84946E+00
 -1       536 1.56902E+00
 -1       537 1.26983E+00
 -1       538 8.99497E-01
 -1       539 8.19464E-01
 -1       540 6.85966E-01
 -1       541 7.53320E-01
 -1       542 7.40438E-01
 -1       543 6.84326E-01
 -1       544 6.31870E-01
 -1       545 5.63442E-01
 -1       546 4.82109E-01
 -1       547 3.96083E-01
 -1       548 3.14351E-01
 -1       549 2.41827E-01
 -1       550 1.80547E-01
 -1       551 1.30710E-01
 -1       552 9.14611E-02
 -1       553 6.14319E-02
 -1       554 4.25736E-02
 -1       555 2.99599E-02
 -1       556 2.47627E-02
 -1       557 2.10407E-02
 -1       558 1.74344E-02
 -1       559 1.41246E-02
 -1       560 1.12020E-02
 -1       561 9.29347E-03
 -1       562 7.93545E-03
 -1       563 6.58414E-03
 -1       564 5.33325E-03
 -1       565 4.30642E-03
 -1       566 3.37736E-03
 -1       567 2.58860E-03
 -1       568 1.95583E-03
 -1       569 1.51150E-03
 -1       570 1.05674E-03
 -1       571 8.58618E-04
 -1       572 9.49683E-04
 -1       573 8.56068E-04
 -1       574 9.68441E-04
 -1       575 9.49683E-04
 -1       576 9.46229E-04
 -1       577 9.49487E-04
 -1       578 9.49487E-04
 -1       579 8.59676E-04
 -1       580 7.22329E-04
 -1       581 7.22329E-04
 -1       582 2.82600E+01
 -1       583 1.31446E+01
 -1       584 7.12187E-01
 -1       585 2.92259E+01
 -1       586 1.94422E+01
 -1       587 1.43990E+01
 -1       588 2.58242E+00
 -1       589 7.42358E+00
 -1       590 2.63637E+01
 -1       591 1.70515E+00
 -1       592 4.66847E+00
 -1       593 7.32339E+00
 -1       594 1.71891E+01
 -1       595 6.44157E+00
 -1       596 5.93367E+00
 -1       597 1.15142E+01
 -1       598 1.63904E+01
 -1       599 4.48568E+01
 -1       600 2.88913E+01
 -1       601 1.11436E+01
 -1       602 6.87164E+00
 -1       603 5.81042E+00
 -1       604 8.50424E+00
 -1       605 5.17385E+00
 -1       606 5.12673E+00
 -1       607 1.87840E+01
 -1       608 4.71329E+00
 -1       609 1.77764E+00
 -1       610 5.05286E+00
 -1       611 2.76771E+00
 -1       612 3.11019E+00
 -1       613 7.79861E+00
 -1       614 4.90185E+00
 -1       615 4.31863E+00
 -1       616 1.85665E+01
 -1       617 5.40050E+00
 -1       618 7.37515E+00
 -1       619 7.77525E-04
 -1       620 2.40458E+00
 -1       621 2.40458E+00
 -1       622 1.94852E+00
 -1       623 1.54430E+00
 -1       624 1.54692E+00
 -1       625 1.49535E+01
 -1       626 4.62445E+00
 -1       627 2.58919E+00
 -1       628 2.88670E+00
 -1       629 3.98914E+00
 -1       630 3.41985E+00
 -1       631 2.73149E+00
 -1       632 3.03531E+00
 -1       633 3.24091E+00
 -1       634 2.73274E+00
 -1       635 2.12125E+00
 -1       636 1.63293E+00
 -1       637 1.40151E+00
 -1       638 1.16118E+00
 -1       639 9.44254E-01
 -1       640 7.56320E-01
 -1       641 5.97975E-01
 -1       642 4.67222E-01
 -1       643 3.60233E-01
 -1       644 2.73769E-01
 -1       645 2.04801E-01
 -1       646 1.50538E-01
 -1       647 1.08458E-01
 -1       648 7.63176E-02
 -1       649 5.21655E-02
 -1       650 3.43362E-02
 -1       651 2.14352E-02
 -1       652 1.29258E-02
 -1       653 1.02957E-02
 -1       654 9.74347E-03
 -1       655 8.77110E-03
 -1       656 7.60376E-03
 -1       657 6.38883E-03
 -1       658 5.34495E-03
 -1       659 4.55992E-03
 -1       660 3.75926E-03
 -1       661 2.99521E-03
 -1       662 2.29777E-03
 -1       663 1.73755E-03
 -1       664 1.26586E-03
 -1       665 2.69784E+00
 -1       666 1.56745E-03
 -1       667 1.53087E+00
 -1       668 2.53406E+00
 -1       669 4.18168E+00
 -1       670 2.74581E+00
 -1       671 1.84946E+00
 -1       672 1.98607E+00
 -1       673 1.40042E+00
 -1       674 1.37929E+00
 -1       675 1.08013E+00
 -1       676 1.00761E+00
 -1       677 9.08875E-01
 -1       678 7.85911E-01
 -1       679 6.85498E-01
 -1       680 6.09217E-01
 -1       681 5.20138E-01
 -1       682 4.29888E-01
 -1       683 3.45545E-01
 -1       684 2.70860E-01
 -1       685 2.07316E-01
 -1       686 1.54947E-01
 -1       687 1.12937E-01
 -1       688 8.00467E-02
 -1       689 5.48815E-02
 -1       690 3.60645E-02
 -1       691 2.23311E-02
 -1       692 1.49645E-02
 -1       693 1.28555E-02
 -1       694 1.15975E-02
 -1       695 1.00823E-02
 -1       696 8.50265E-03
 -1       697 6.97941E-03
 -1       698 5.85904E-03
 -1       699 4.99310E-03
 -1       700 4.11676E-03
 -1       701 3.30209E-03
 -1       702 2.60655E-03
 -1       703 1.99466E-03
 -1       704 1.75211E-03
 -1       705 1.17422E-03
 -1       706 8.17657E-04
 -1       707 1.16296E-03
 -1       708 1.17399E-03
 -1       709 1.17422E-03
 -1       710 7.44308E+00
 -1       711 1.17399E-03
 -1       712 1.16041E-03
 -1       713 1.00053E-03
 -1       714 1.15204E+00
 -1       715 1.49056E+01
 -1       716 1.41259E+01
 -1       717 1.23013E+01
 -1       718 3.21999E+00
 -1       719 1.71349E+01
 -1       720 9.01545E+00
 -1       721 3.50647E+00
 -1       722 3.65509E+00
 -1       723 3.69559E+00
 -1       724 8.38235E-01
 -1       725 1.17972E+01
 -1       726 2.31004E+00
 -1       727 5.45675E+00
 -1       728 1.07902E+01
 -1       729 2.72004E+00
 -1       730 5.40050E+00
 -1       731 6.92504E+00
 -1       732 1.35272E+01
 -1       733 1.46882E+01
 -1       734 6.57884E+00
 -1       735 4.91068E+00
 -1       736 5.08273E+00
 -1       737 7.59061E+00
 -1       738 4.28036E+00
 -1       739 3.65509E+00
 -1       740 2.50414E+00
 -1       741 3.31338E+00
 -1       742 3.50647E+00
 -1       743 3.04601E+00
 -1       744 1.56745E-03
 -1       745 6.29252E+00
 -1       746 3.98914E+00
 -1       747 2.50414E+00
 -1       748 4.26828E+00
 -1       749 1.04276E-03
 -1       750 2.02043E+00
 -1       751 8.32023E+00
 -1       752 4.33423E+00
 -1       753 8.20212E+00
 -1       754 5.09067E+00
 -1       755 5.24405E+00
 -1       756 2.68006E+00
 -1       757 1.87078E+00
 -1       758 1.37586E+00
 -1       759 1.06986E+00
 -1       760 8.50921E-01
 -1       761 6.83030E-01
 -1       762 5.35885E-01
 -1       763 4.12304E-01
 -1       764 3.11441E-01
 -1       765 2.30905E-01
 -1       766 1.67789E-01
 -1       767 1.19177E-01
 -1       768 8.39622E-02
 -1       769 5.78663E-02
 -1       770 3.85685E-02
 -1       771 2.55910E-02
 -1       772 1.63025E-02
 -1       773 9.68284E-03
 -1       774 5.82947E-03
 -1       775 6.04293E-03
 -1       776 6.05393E-03
 -1       777 5.65315E-03
 -1       778 5.02589E-03
 -1       779 4.29785E-03
 -1       780 3.72822E-03
 -1       781 3.17157E-03
 -1       782 2.59484E-03
 -1       783 2.03806E-03
 -1       784 1.51679E-03
 -1       785 2.69784E+00
 -1       786 8.21855E+00
 -1       787 4.91068E+00
 -1       788 2.66906E+00
 -1       789 1.98607E+00
 -1       790 2.00227E+00
 -1       791 1.68994E+00
 -1       792 1.45556E+00
 -1       793 1.19832E+00
 -1       794 9.56059E-01
 -1       795 8.19764E-01
 -1       796 6.87443E-01
 -1       797 5.67779E-01
 -1       798 4.57613E-01
 -1       799 3.60846E-01
 -1       800 2.80770E-01
 -1       801 2.15819E-01
 -1       802 1.63166E-01
 -1       803 1.21149E-01
 -1       804 8.81440E-02
 -1       805 6.26366E-02
 -1       806 4.32579E-02
 -1       807 2.88043E-02
 -1       808 1.82426E-02
 -1       809 1.07043E-02
 -1       810 7.05774E-03
 -1       811 7.32624E-03
 -1       812 7.00706E-03
 -1       813 6.34719E-03
 -1       814 5.51832E-03
 -1       815 4.63519E-03
 -1       816 4.03576E-03
 -1       817 3.39396E-03
 -1       818 2.75056E-03
 -1       819 2.14957E-03
 -1       820 4.42011E+00
 -1       821 1.32303E-03
 -1       822 1.19035E-03
 -1       823 1.40693E-03
 -1       824 2.36383E+00
 -1       825 7.71881E+00
 -1       826 7.26200E+00
 -1       827 1.40693E-03
 -1       828 8.45230E+00
 -1       829 3.31338E+00
 -1       830 4.90185E+00
 -1       831 9.37884E+00
 -1       832 5.10404E+00
 -1       833 1.17395E+01
 -1       834 8.26968E+00
 -1       835 1.17395E+01
 -1       836 6.46427E+00
 -1       837 1.19204E+00
 -1       838 9.33401E+00
 -1       839 4.42011E+00
 -1       840 5.35620E+00
 -1       841 4.30644E+00
 -1       842 2.66906E+00
 -1       843 3.65509E+00
 -1       844 1.55339E-03
 -1       845 4.83924E+00
 -1       846 1.39621E-03
 -1       847 1.85900E-03
 -1       848 3.14995E+00
 -1       849 1.39621E-03
 -1       850 4.23031E+00
 -1       851 8.26968E+00
 -1       852 1.91759E+00
 -1       853 6.40500E+00
 -1       854 1.57364E-03
 -1       855 5.42007E+00
 -1       856 1.31251E-03
 -1       857 3.56165E+00
 -1       858 4.30927E+00
 -1       859 5.87822E+00
 -1       860 2.86874E+00
 -1       861 1.76527E+00
 -1       862 1.36440E+00
 -1       863 1.06986E+00
 -1       864 8.33037E-01
 -1       865 6.44979E-01
 -1       866 4.96016E-01
 -1       867 3.78142E-01
 -1       868 2.85127E-01
 -1       869 2.12144E-01
 -1       870 1.55357E-01
 -1       871 1.11637E-01
 -1       872 7.83962E-02
 -1       873 5.41086E-02
 -1       874 3.67073E-02
 -1       875 2.39165E-02
 -1       876 1.47033E-02
 -1       877 8.33169E-03
 -1       878 4.08229E-03
 -1       879 3.63236E-03
 -1       880 4.16282E-03
 -1       881 4.19803E-03
 -1       882 3.92915E-03
 -1       883 3.49040E-03
 -1       884 3.01794E-03
 -1       885 2.61948E-03
 -1       886 2.17484E-03
 -1       887 2.24103E+00
 -1       888 1.59666E+00
 -1       889 1.31646E+00
 -1       890 1.04790E+00
 -1       891 8.04528E-01
 -1       892 6.33618E-01
 -1       893 5.08901E-01
 -1       894 4.17439E-01
 -1       895 3.34408E-01
 -1       896 2.61496E-01
 -1       897 1.99836E-01
 -1       898 1.49220E-01
 -1       899 1.08705E-01
 -1       900 7.70144E-02
 -1       901 5.37855E-02
 -1       902 3.64942E-02
 -1       903 2.36643E-02
 -1       904 1.44196E-02
 -1       905 7.99788E-03
 -1       906 4.11053E-03
 -1       907 4.46264E-03
 -1       908 4.82756E-03
 -1       909 4.72154E-03
 -1       910 4.33324E-03
 -1       911 3.79478E-03
 -1       912 3.29436E-03
 -1       913 2.83933E-03
 -1       914 2.35417E-03
 -1       915 1.59698E-03
 -1       916 6.59342E+00
 -1       917 6.00416E+00
 -1       918 6.65093E+00
 -1       919 2.96496E+00
 -1       920 5.42007E+00
 -1       921 6.59342E+00
 -1       922 5.87926E+00
 -1       923 3.81410E+00
 -1       924 2.88587E+00
 -1       925 5.78130E+00
 -1       926 6.40500E+00
 -1       927 1.70229E-03
 -1       928 1.96628E-03
 -1       929 3.82916E+00
 -1       930 2.02043E+00
 -1       931 1.51216E-03
 -1       932 1.90208E-03
 -1       933 2.85693E+00
 -1       934 1.74733E-03
 -1       935 5.08522E+00
 -1       936 1.90208E-03
 -1       937 2.86874E+00
 -1       938 1.76527E+00
 -1       939 1.27976E+00
 -1       940 9.47543E-01
 -1       941 7.12546E-01
 -1       942 5.41080E-01
 -1       943 4.12154E-01
 -1       944 3.13066E-01
 -1       945 2.36071E-01
 -1       946 1.76086E-01
 -1       947 1.29493E-01
 -1       948 9.35682E-02
 -1       949 6.61634E-02
 -1       950 4.55342E-02
 -1       951 3.10016E-02
 -1       952 2.05213E-02
 -1       953 1.29078E-02
 -1       954 7.50200E-03
 -1       955 4.09931E-03
 -1       956 2.19854E-03
 -1       957 2.91122E-03
 -1       958 3.13972E-03
 -1       959 3.05873E-03
 -1       960 2.79322E-03
 -1       961 2.43018E-03
 -1       962 2.10163E-03
 -1       963 4.15147E+00
 -1       964 1.00925E+00
 -1       965 7.74430E-01
 -1       966 6.33618E-01
 -1       967 5.08901E-01
 -1       968 4.02678E-01
 -1       969 3.14085E-01
 -1       970 2.41292E-01
 -1       971 1.82389E-01
 -1       972 1.35415E-01
 -1       973 9.85107E-02
 -1       974 6.99750E-02
 -1       975 4.82825E-02
 -1       976 3.29372E-02
 -1       977 2.17290E-02
 -1       978 1.35735E-02
 -1       979 7.78164E-03
 -1       980 4.23493E-03
 -1       981 2.70243E-03
 -1       982 3.36728E-03
 -1       983 3.53800E-03
 -1       984 3.39567E-03
 -1       985 3.06933E-03
 -1       986 2.65763E-03
 -1       987 2.32129E-03
 -1       988 2.02286E-03
 -1       989 4.39455E+00
 -1       990 4.98010E+00
 -1       991 4.98010E+00
 -1       992 1.73830E-03
 -1       993 4.39455E+00
 -1       994 1.38104E+00
 -1       995 2.88398E+00
 -1       996 1.82649E-03
 -1       997 1.65830E-03
 -1       998 1.68247E-03
 -1       999 4.11802E+00
 -1      1000 5.92710E-01
 -1      1001 1.92059E+00
 -1      1002 1.36221E+00
 -1      1003 9.58197E-01
 -1      1004 6.93805E-01
 -1      1005 5.20358E-01
 -1      1006 3.96189E-01
 -1      1007 3.02982E-01
 -1      1008 2.31136E-01
 -1      1009 1.75035E-01
 -1      1010 1.31043E-01
 -1      1011 9.66623E-02
 -1      1012 7.00128E-02
 -1      1013 4.95941E-02
 -1      1014 3.41698E-02
 -1      1015 2.37444E-02
 -1      1016 1.64104E-02
 -1      1017 1.09489E-02
 -1      1018 6.95639E-03
 -1      1019 4.09931E-03
 -1      1020 2.10576E-03
 -1      1021 2.09486E-03
 -1      1022 2.35810E-03
 -1      1023 2.35254E-03
 -1      1024 2.18451E-03
 -1      1025 2.02343E-03
 -1      1026 1.07833E+00
 -1      1027 4.55280E-01
 -1      1028 3.49760E-01
 -1      1029 2.66608E-01
 -1      1030 2.01497E-01
 -1      1031 1.50511E-01
 -1      1032 1.10791E-01
 -1      1033 8.01107E-02
 -1      1034 5.66763E-02
 -1      1035 3.90179E-02
 -1      1036 2.63527E-02
 -1      1037 1.74993E-02
 -1      1038 1.12262E-02
 -1      1039 7.15704E-03
 -1      1040 4.23493E-03
 -1      1041 2.25708E-03
 -1      1042 2.42138E-03
 -1      1043 2.67805E-03
 -1      1044 2.64673E-03
 -1      1045 2.43924E-03
 -1      1046 2.13216E-03
 -1      1047 2.45022E+00
 -1      1048 1.60912E-03
 -1      1049 8.06741E-01
 -1      1050 1.48541E+00
 -1      1051 1.90018E-03
 -1      1052 2.80741E+00
 -1      1053 2.90126E+00
 -1      1054 2.90126E+00
 -1      1055 1.72405E-03
 -1      1056 2.49645E-03
 -1      1057 4.90405E-01
 -1      1058 2.21973E+00
 -1      1059 1.17033E+00
 -1      1060 8.71449E-01
 -1      1061 6.63027E-01
 -1      1062 4.90405E-01
 -1      1063 3.68021E-01
 -1      1064 2.76672E-01
 -1      1065 2.07328E-01
 -1      1066 1.54238E-01
 -1      1067 1.15600E-01
 -1      1068 8.56661E-02
 -1      1069 6.23934E-02
 -1      1070 4.45081E-02
 -1      1071 3.09492E-02
 -1      1072 2.15228E-02
 -1      1073 1.46455E-02
 -1      1074 9.56491E-03
 -1      1075 5.88597E-03
 -1      1076 3.28324E-03
 -1      1077 1.49288E-03
 -1      1078 1.63124E-03
 -1      1079 1.97205E-03
 -1      1080 2.49645E-03
 -1      1081 2.34590E-03
 -1      1082 3.68021E-01
 -1      1083 6.63027E-01
 -1      1084 2.76672E-01
 -1      1085 2.07328E-01
 -1      1086 1.54238E-01
 -1      1087 1.13498E-01
 -1      1088 8.23161E-02
 -1      1089 5.86078E-02
 -1      1090 4.10623E-02
 -1      1091 2.85572E-02
 -1      1092 1.92467E-02
 -1      1093 1.24279E-02
 -1      1094 7.53149E-03
 -1      1095 4.23377E-03
 -1      1096 2.18716E-03
 -1      1097 1.80744E-03
 -1      1098 2.03446E-03
 -1      1099 2.02980E-03
 -1      1100 2.49645E-03
 -1      1101 1.53728E+00
 -1      1102 1.65193E-03
 -1      1103 2.16416E+00
 -1      1104 1.55145E+00
 -1      1105 1.17033E+00
 -1      1106 8.71449E-01
 -1      1107 1.17282E+01
 -1      1108 7.88600E+00
 -1      1109 3.42181E+00
 -1      1110 2.57207E+00
 -1      1111 2.20730E+00
 -1      1112 1.90506E+00
 -1      1113 1.52495E+00
 -1      1114 1.00512E+00
 -1      1115 9.07078E-01
 -1      1116 1.29541E+00
 -1      1117 1.57131E+00
 -1      1118 1.75337E+00
 -1      1119 1.95176E+00
 -1      1120 2.30919E+00
 -1      1121 3.17782E+00
 -1      1122 5.96084E+00
 -1      1123 1.04040E+01
 -1      1124 1.17282E+01
 -1      1125 7.24806E+00
 -1      1126 2.06224E+00
 -1      1127 1.10039E+00
 -1      1128 9.72727E-01
 -1      1129 1.19541E+00
 -1      1130 1.50509E+00
 -1      1131 2.19054E+00
 -1      1132 3.55311E+00
 -1      1133 4.73334E+00
 -1      1134 5.03930E+00
 -1      1135 5.05766E+00
 -1      1136 4.54777E+00
 -1      1137 3.13585E+00
 -1      1138 1.96435E+00
 -1      1139 1.69490E+00
 -1      1140 1.67442E+00
 -1      1141 1.65394E+00
 -1      1142 1.56440E+00
 -1      1143 1.33874E+00
 -1      1144 1.08038E+00
 -1      1145 8.51691E-01
 -1      1146 6.71331E-01
 -1      1147 5.46432E-01
 -1      1148 4.46397E-01
 -1      1149 3.53628E-01
 -1      1150 2.72890E-01
 -1      1151 2.05614E-01
 -1      1152 1.51347E-01
 -1      1153 1.14779E-01
 -1      1154 9.29843E-02
 -1      1155 7.54838E-02
 -1      1156 6.01044E-02
 -1      1157 4.69957E-02
 -1      1158 3.60945E-02
 -1      1159 2.72179E-02
 -1      1160 2.11576E-02
 -1      1161 1.72977E-02
 -1      1162 1.39797E-02
 -1      1163 1.10823E-02
 -1      1164 8.61691E-03
 -1      1165 6.64628E-03
 -1      1166 5.09073E-03
 -1      1167 3.78419E-03
 -1      1168 2.90654E-03
 -1      1169 2.41611E-03
 -1      1170 1.98764E-03
 -1      1171 1.57139E-03
 -1      1172 1.18641E-03
 -1      1173 6.12431E-04
 -1      1174 1.26861E+01
 -1      1175 7.57325E+00
 -1      1176 1.81610E+00
 -1      1177 7.53034E-01
 -1      1178 5.10691E-01
 -1      1179 8.38250E-01
 -1      1180 1.18644E+00
 -1      1181 1.54407E+00
 -1      1182 2.16479E+00
 -1      1183 2.83550E+00
 -1      1184 3.24826E+00
 -1      1185 3.45046E+00
 -1      1186 3.35356E+00
 -1      1187 2.79727E+00
 -1      1188 1.86541E+00
 -1      1189 1.17146E+00
 -1      1190 9.26839E-01
 -1      1191 9.64829E-01
 -1      1192 1.02596E+00
 -1      1193 1.00965E+00
 -1      1194 9.34877E-01
 -1      1195 8.07161E-01
 -1      1196 6.73217E-01
 -1      1197 5.44161E-01
 -1      1198 4.21554E-01
 -1      1199 3.19344E-01
 -1      1200 2.45787E-01
 -1      1201 1.90550E-01
 -1      1202 1.43589E-01
 -1      1203 1.05173E-01
 -1      1204 7.47277E-02
 -1      1205 5.33373E-02
 -1      1206 4.15825E-02
 -1      1207 3.44090E-02
 -1      1208 2.78365E-02
 -1      1209 2.20611E-02
 -1      1210 1.80521E-02
 -1      1211 1.55936E-02
 -1      1212 1.33304E-02
 -1      1213 1.11142E-02
 -1      1214 9.06590E-03
 -1      1215 7.29598E-03
 -1      1216 5.82899E-03
 -1      1217 4.57377E-03
 -1      1218 3.47647E-03
 -1      1219 2.57712E-03
 -1      1220 1.97146E-03
 -1      1221 1.49467E-03
 -1      1222 9.82906E-04
 -1      1223 4.62937E-04
 -1      1224 2.64009E-04
 -1      1225 3.32955E-04
 -1      1226 2.94272E-04
 -1      1227 1.85600E-04
 -1      1228 1.33703E-04
 -1      1229 1.91350E-04
 -1      1230 2.53836E-04
 -1      1231 2.83243E-04
 -1      1232 2.89720E-04
 -1      1233 2.83034E-04
 -1      1234 2.52265E-04
 -1      1235 1.89935E-04
 -1      1236 1.34912E-04
 -1      1237 1.87617E-04
 -1      1238 3.49610E-04
 -1      1239 4.77700E-04
 -1      1240 3.70288E-04
 -1      1241 2.55771E+01
 -1      1242 3.63990E+01
 -1      1243 4.72209E+01
 -1      1244 3.35491E+01
 -1      1245 1.59984E+01
 -1      1246 1.25444E+01
 -1      1247 1.29695E+01
 -1      1248 1.28473E+01
 -1      1249 1.27251E+01
 -1      1250 1.30609E+01
 -1      1251 2.25399E+01
 -1      1252 3.16831E+01
 -1      1253 2.97853E+01
 -1      1254 2.67667E+01
 -1      1255 2.59394E+01
 -1      1256 2.62329E+01
 -1      1257 3.28990E+01
 -1      1258 3.95650E+01
 -1      1259 2.73879E+01
 -1      1260 1.36731E+01
 -1      1261 1.23184E+01
 -1      1262 1.27821E+01
 -1      1263 1.30627E+01
 -1      1264 1.26783E+01
 -1      1265 1.62314E+01
 -1      1266 3.34848E+01
 -1      1267 4.68008E+01
 -1      1268 3.58092E+01
 -1      1269 2.51973E+01
 -1      1270 1.17282E+01
 -1      1271 5.11929E+00
 -1      1272 8.96150E+00
 -1      1273 2.95218E+00
 -1      1274 3.57416E+00
 -1      1275 4.64966E+00
 -1      1276 2.37944E+00
 -1      1277 2.60720E+00
 -1      1278 2.75955E+00
 -1      1279 2.08021E+00
 -1      1280 2.21722E+00
 -1      1281 2.25235E+00
 -1      1282 1.82731E+00
 -1      1283 1.99255E+00
 -1      1284 2.00246E+00
 -1      1285 1.46768E+00
 -1      1286 1.68255E+00
 -1      1287 1.77004E+00
 -1      1288 8.77454E-01
 -1      1289 1.18242E+00
 -1      1290 1.34002E+00
 -1      1291 1.02053E+00
 -1      1292 8.13601E-01
 -1      1293 9.90903E-01
 -1      1294 1.43948E+00
 -1      1295 1.25807E+00
 -1      1296 1.16459E+00
 -1      1297 1.63022E+00
 -1      1298 1.53573E+00
 -1      1299 1.49838E+00
 -1      1300 1.76082E+00
 -1      1301 1.67326E+00
 -1      1302 1.63767E+00
 -1      1303 1.96003E+00
 -1      1304 1.84922E+00
 -1      1305 1.76910E+00
 -1      1306 2.39139E+00
 -1      1307 2.14477E+00
 -1      1308 2.04223E+00
 -1      1309 3.33661E+00
 -1      1310 2.71461E+00
 -1      1311 2.55018E+00
 -1      1312 6.08098E+00
 -1      1313 3.91998E+00
 -1      1314 3.45676E+00
 -1      1315 1.26861E+01
 -1      1316 1.04040E+01
 -1      1317 8.36312E+00
 -1      1318 1.26861E+01
 -1      1319 7.37884E+00
 -1      1320 2.89869E+00
 -1      1321 2.32462E+00
 -1      1322 1.61895E+00
 -1      1323 2.45540E+00
 -1      1324 1.13871E+00
 -1      1325 8.82529E-01
 -1      1326 1.40109E+00
 -1      1327 8.44207E-01
 -1      1328 9.72727E-01
 -1      1329 8.82529E-01
 -1      1330 1.10125E+00
 -1      1331 1.19541E+00
 -1      1332 9.72727E-01
 -1      1333 1.28957E+00
 -1      1334 1.50509E+00
 -1      1335 1.19541E+00
 -1      1336 1.72060E+00
 -1      1337 2.19054E+00
 -1      1338 1.50509E+00
 -1      1339 2.73414E+00
 -1      1340 3.62676E+00
 -1      1341 2.26420E+00
 -1      1342 4.44574E+00
 -1      1343 4.73334E+00
 -1      1344 3.62676E+00
 -1      1345 5.02094E+00
 -1      1346 5.03930E+00
 -1      1347 4.73334E+00
 -1      1348 5.05766E+00
 -1      1349 5.05766E+00
 -1      1350 5.03930E+00
 -1      1351 4.54777E+00
 -1      1352 4.03789E+00
 -1      1353 4.54777E+00
 -1      1354 3.23552E+00
 -1      1355 2.33348E+00
 -1      1356 3.23552E+00
 -1      1357 1.93553E+00
 -1      1358 1.66608E+00
 -1      1359 2.03521E+00
 -1      1360 1.69490E+00
 -1      1361 1.69490E+00
 -1      1362 1.66608E+00
 -1      1363 1.64416E+00
 -1      1364 1.62368E+00
 -1      1365 1.64416E+00
 -1      1366 1.65394E+00
 -1      1367 1.65394E+00
 -1      1368 1.62368E+00
 -1      1369 1.56440E+00
 -1      1370 1.47486E+00
 -1      1371 1.56440E+00
 -1      1372 1.34416E+00
 -1      1373 1.20804E+00
 -1      1374 1.34416E+00
 -1      1375 1.11894E+00
 -1      1376 9.96693E-01
 -1      1377 1.12436E+00
 -1      1378 9.22802E-01
 -1      1379 8.16366E-01
 -1      1380 9.61368E-01
 -1      1381 7.33176E-01
 -1      1382 6.59253E-01
 -1      1383 8.04287E-01
 -1      1384 5.79425E-01
 -1      1385 5.28449E-01
 -1      1386 6.41269E-01
 -1      1387 4.58428E-01
 -1      1388 4.09368E-01
 -1      1389 4.91420E-01
 -1      1390 3.53628E-01
 -1      1391 3.09918E-01
 -1      1392 3.65658E-01
 -1      1393 2.75461E-01
 -1      1394 2.38433E-01
 -1      1395 2.75461E-01
 -1      1396 2.10463E-01
 -1      1397 1.80215E-01
 -1      1398 2.13035E-01
 -1      1399 1.57240E-01
 -1      1400 1.33222E-01
 -1      1401 1.62090E-01
 -1      1402 1.14842E-01
 -1      1403 1.02292E-01
 -1      1404 1.20735E-01
 -1      1405 9.29843E-02
 -1      1406 8.37392E-02
 -1      1407 9.30474E-02
 -1      1408 7.54838E-02
 -1      1409 6.72283E-02
 -1      1410 7.54838E-02
 -1      1411 6.01044E-02
 -1      1412 5.29804E-02
 -1      1413 6.01044E-02
 -1      1414 4.69957E-02
 -1      1415 4.10109E-02
 -1      1416 4.69957E-02
 -1      1417 3.60945E-02
 -1      1418 3.11782E-02
 -1      1419 3.60945E-02
 -1      1420 2.77295E-02
 -1      1421 2.37693E-02
 -1      1422 2.77295E-02
 -1      1423 2.11576E-02
 -1      1424 1.90576E-02
 -1      1425 2.16692E-02
 -1      1426 1.72977E-02
 -1      1427 1.55377E-02
 -1      1428 1.72977E-02
 -1      1429 1.39797E-02
 -1      1430 1.24217E-02
 -1      1431 1.39797E-02
 -1      1432 1.11382E-02
 -1      1433 9.79882E-03
 -1      1434 1.11382E-02
 -1      1435 8.80371E-03
 -1      1436 7.67766E-03
 -1      1437 8.85957E-03
 -1      1438 6.84259E-03
 -1      1439 5.99800E-03
 -1      1440 7.02939E-03
 -1      1441 5.36694E-03
 -1      1442 4.65599E-03
 -1      1443 5.56326E-03
 -1      1444 4.09600E-03
 -1      1445 3.50042E-03
 -1      1446 4.37221E-03
 -1      1447 3.01497E-03
 -1      1448 2.73289E-03
 -1      1449 3.32678E-03
 -1      1450 2.41611E-03
 -1      1451 2.20776E-03
 -1      1452 2.52454E-03
 -1      1453 1.98764E-03
 -1      1454 1.76753E-03
 -1      1455 1.98764E-03
 -1      1456 1.57139E-03
 -1      1457 1.37525E-03
 -1      1458 1.57139E-03
 -1      1459 1.18641E-03
 -1      1460 9.97567E-04
 -1      1461 1.18641E-03
 -1      1462 7.55424E-04
 -1      1463 7.55424E-04
 -1      1464 2.46037E+00
 -1      1465 7.57325E+00
 -1      1466 7.57325E+00
 -1      1467 1.21369E+00
 -1      1468 1.85796E+00
 -1      1469 1.85796E+00
 -1      1470 4.40296E-01
 -1      1471 8.59086E-01
 -1      1472 9.00949E-01
 -1      1473 5.49222E-01
 -1      1474 3.72775E-01
 -1      1475 4.78827E-01
 -1      1476 8.38250E-01
 -1      1477 6.87138E-01
 -1      1478 5.49222E-01
 -1      1479 1.18644E+00
 -1      1480 9.89361E-01
 -1      1481 8.38250E-01
 -1      1482 1.54407E+00
 -1      1483 1.38352E+00
 -1      1484 1.18644E+00
 -1      1485 2.27919E+00
 -1      1486 1.81903E+00
 -1      1487 1.65847E+00
 -1      1488 2.83550E+00
 -1      1489 2.62495E+00
 -1      1490 2.27919E+00
 -1      1491 3.24826E+00
 -1      1492 3.04605E+00
 -1      1493 2.83550E+00
 -1      1494 3.45046E+00
 -1      1495 3.45046E+00
 -1      1496 3.24826E+00
 -1      1497 3.25666E+00
 -1      1498 3.35356E+00
 -1      1499 3.35356E+00
 -1      1500 2.33788E+00
 -1      1501 2.79727E+00
 -1      1502 2.79727E+00
 -1      1503 1.39295E+00
 -1      1504 1.86541E+00
 -1      1505 1.86541E+00
 -1      1506 9.49977E-01
 -1      1507 1.17146E+00
 -1      1508 1.17146E+00
 -1      1509 8.86552E-01
 -1      1510 9.09690E-01
 -1      1511 9.09690E-01
 -1      1512 9.64829E-01
 -1      1513 9.03701E-01
 -1      1514 8.86552E-01
 -1      1515 1.02596E+00
 -1      1516 1.02596E+00
 -1      1517 9.64829E-01
 -1      1518 9.93336E-01
 -1      1519 1.00965E+00
 -1      1520 1.00965E+00
 -1      1521 8.76419E-01
 -1      1522 9.34877E-01
 -1      1523 9.34877E-01
 -1      1524 7.37904E-01
 -1      1525 8.07161E-01
 -1      1526 8.07161E-01
 -1      1527 6.11171E-01
 -1      1528 6.75858E-01
 -1      1529 6.75858E-01
 -1      1530 4.89356E-01
 -1      1531 5.53725E-01
 -1      1532 5.56366E-01
 -1      1533 3.76395E-01
 -1      1534 4.34634E-01
 -1      1535 4.44197E-01
 -1      1536 2.84144E-01
 -1      1537 3.28115E-01
 -1      1538 3.41195E-01
 -1      1539 2.16201E-01
 -1      1540 2.45787E-01
 -1      1541 2.54558E-01
 -1      1542 1.64898E-01
 -1      1543 1.90550E-01
 -1      1544 1.90550E-01
 -1      1545 1.22280E-01
 -1      1546 1.43589E-01
 -1      1547 1.43589E-01
 -1      1548 8.88790E-02
 -1      1549 1.05986E-01
 -1      1550 1.05986E-01
 -1      1551 6.29309E-02
 -1      1552 7.62688E-02
 -1      1553 7.70821E-02
 -1      1554 4.52848E-02
 -1      1555 5.33373E-02
 -1      1556 5.48784E-02
 -1      1557 3.78802E-02
 -1      1558 4.15825E-02
 -1      1559 4.15825E-02
 -1      1560 3.09378E-02
 -1      1561 3.44090E-02
 -1      1562 3.44090E-02
 -1      1563 2.47352E-02
 -1      1564 2.78365E-02
 -1      1565 2.78365E-02
 -1      1566 1.93870E-02
 -1      1567 2.20611E-02
 -1      1568 2.20611E-02
 -1      1569 1.67172E-02
 -1      1570 1.80521E-02
 -1      1571 1.80521E-02
 -1      1572 1.44699E-02
 -1      1573 1.55936E-02
 -1      1574 1.55936E-02
 -1      1575 1.21908E-02
 -1      1576 1.33304E-02
 -1      1577 1.33304E-02
 -1      1578 1.00376E-02
 -1      1579 1.11142E-02
 -1      1580 1.11142E-02
 -1      1581 8.09423E-03
 -1      1582 9.06590E-03
 -1      1583 9.06590E-03
 -1      1584 6.49773E-03
 -1      1585 7.29598E-03
 -1      1586 7.29598E-03
 -1      1587 5.16024E-03
 -1      1588 5.82899E-03
 -1      1589 5.82899E-03
 -1      1590 3.98729E-03
 -1      1591 4.57377E-03
 -1      1592 4.57377E-03
 -1      1593 2.99771E-03
 -1      1594 3.50853E-03
 -1      1595 3.50853E-03
 -1      1596 2.19216E-03
 -1      1597 2.58070E-03
 -1      1598 2.61276E-03
 -1      1599 1.75434E-03
 -1      1600 1.97146E-03
 -1      1601 1.97504E-03
 -1      1602 1.23500E-03
 -1      1603 1.49467E-03
 -1      1604 1.49467E-03
 -1      1605 7.30812E-04
 -1      1606 9.82906E-04
 -1      1607 9.82906E-04
 -1      1608 5.31884E-04
 -1      1609 3.74895E-04
 -1      1610 3.74895E-04
 -1      1611 3.36212E-04
 -1      1612 3.74895E-04
 -1      1613 4.16835E-04
 -1      1614 2.47017E-04
 -1      1615 3.17005E-04
 -1      1616 3.97629E-04
 -1      1617 1.98375E-04
 -1      1618 1.80284E-04
 -1      1619 3.11689E-04
 -1      1620 3.16795E-04
 -1      1621 2.77239E-04
 -1      1622 3.23820E-04
 -1      1623 3.88497E-04
 -1      1624 3.65566E-04
 -1      1625 4.51455E-04
 -1      1626 4.14265E-04
 -1      1627 4.07789E-04
 -1      1628 5.19518E-04
 -1      1629 4.14265E-04
 -1      1630 4.14265E-04
 -1      1631 5.38810E-04
 -1      1632 4.07524E-04
 -1      1633 4.14209E-04
 -1      1634 5.38755E-04
 -1      1635 3.62922E-04
 -1      1636 3.87006E-04
 -1      1637 5.18181E-04
 -1      1638 2.77200E-04
 -1      1639 3.15445E-04
 -1      1640 4.50187E-04
 -1      1641 1.83862E-04
 -1      1642 2.00640E-04
 -1      1643 3.26150E-04
 -1      1644 3.16902E-04
 -1      1645 2.47418E-04
 -1      1646 3.13146E-04
 -1      1647 4.09410E-04
 -1      1648 3.16902E-04
 -1      1649 3.76702E-04
 -1      1650 5.24649E-04
 -1      1651 4.89067E-04
 -1      1652 4.56359E-04
 -1      1653 7.66792E-04
 -1      1654 2.93997E+01
 -1      1655 2.93997E+01
 -1      1656 3.78360E+01
 -1      1657 2.70141E+01
 -1      1658 4.72209E+01
 -1      1659 4.72209E+01
 -1      1660 2.07033E+01
 -1      1661 3.43751E+01
 -1      1662 1.17690E+01
 -1      1663 1.56479E+01
 -1      1664 1.25444E+01
 -1      1665 1.21194E+01
 -1      1666 1.29695E+01
 -1      1667 1.29695E+01
 -1      1668 1.22684E+01
 -1      1669 1.23906E+01
 -1      1670 1.27251E+01
 -1      1671 1.27251E+01
 -1      1672 1.29065E+01
 -1      1673 1.25707E+01
 -1      1674 2.25399E+01
 -1      1675 1.33967E+01
 -1      1676 3.16831E+01
 -1      1677 3.16831E+01
 -1      1678 2.94909E+01
 -1      1679 3.13886E+01
 -1      1680 2.65346E+01
 -1      1681 2.76555E+01
 -1      1682 2.78081E+01
 -1      1683 2.75146E+01
 -1      1684 2.78081E+01
 -1      1685 2.78081E+01
 -1      1686 3.72804E+01
 -1      1687 3.06144E+01
 -1      1688 3.95650E+01
 -1      1689 3.95650E+01
 -1      1690 1.53228E+01
 -1      1691 2.74999E+01
 -1      1692 1.18488E+01
 -1      1693 1.33865E+01
 -1      1694 1.23184E+01
 -1      1695 1.21354E+01
 -1      1696 1.27821E+01
 -1      1697 1.25015E+01
 -1      1698 1.30627E+01
 -1      1699 1.30627E+01
 -1      1700 1.22939E+01
 -1      1701 1.26783E+01
 -1      1702 1.56108E+01
 -1      1703 1.16734E+01
 -1      1704 3.35115E+01
 -1      1705 2.01955E+01
 -1      1706 4.68008E+01
 -1      1707 4.68008E+01
 -1      1708 2.68150E+01
 -1      1709 3.78066E+01
 -1      1710 2.93997E+01
 -1      1711 2.90200E+01
 -1      1712 1.64740E+01
 -1      1713 3.43751E+01
 -1      1714 5.31884E-04
 -1      1715 5.73824E-04
 -1      1716 3.08367E+01
 -1      1717 3.78360E+01
 -1      1718 3.32224E+01
 -1      1719 1.17690E+01
 -1      1720 1.25444E+01
 -1      1721 1.23906E+01
 -1      1722 1.22684E+01
 -1      1723 1.25707E+01
 -1      1724 1.29065E+01
 -1      1725 2.25399E+01
 -1      1726 3.13886E+01
 -1      1727 2.92588E+01
 -1      1728 2.84034E+01
 -1      1729 2.93834E+01
 -1      1730 3.21896E+01
 -1      1731 3.72804E+01
 -1      1732 2.74999E+01
 -1      1733 1.34985E+01
 -1      1734 1.18488E+01
 -1      1735 1.23184E+01
 -1      1736 1.27821E+01
 -1      1737 1.26783E+01
 -1      1738 1.16734E+01
 -1      1739 1.56375E+01
 -1      1740 3.35115E+01
 -1      1741 3.78066E+01
 -1      1742 3.10174E+01
 -1      1743 8.96150E+00
 -1      1744 2.49850E+00
 -1      1745 2.84348E+00
 -1      1746 3.06700E+00
 -1      1747 4.61213E+00
 -1      1748 2.80594E+00
 -1      1749 1.97353E+00
 -1      1750 2.06120E+00
 -1      1751 1.79163E+00
 -1      1752 1.93639E+00
 -1      1753 1.99512E+00
 -1      1754 1.30225E+00
 -1      1755 1.58752E+00
 -1      1756 1.75387E+00
 -1      1757 9.90148E-01
 -1      1758 1.05400E+00
 -1      1759 1.30150E+00
 -1      1760 1.40417E+00
 -1      1761 1.16663E+00
 -1      1762 1.22972E+00
 -1      1763 1.62566E+00
 -1      1764 1.52941E+00
 -1      1765 1.53145E+00
 -1      1766 1.67976E+00
 -1      1767 1.63672E+00
 -1      1768 1.66775E+00
 -1      1769 1.76815E+00
 -1      1770 1.67976E+00
 -1      1771 1.67881E+00
 -1      1772 1.97000E+00
 -1      1773 1.78526E+00
 -1      1774 1.69593E+00
 -1      1775 2.38341E+00
 -1      1776 2.06020E+00
 -1      1777 1.80323E+00
 -1      1778 2.99874E+00
 -1      1779 2.41538E+00
 -1      1780 1.92540E+00
 -1      1781 7.24508E+00
 -1      1782 2.92208E+00
 -1      1783 1.88070E+00
 -1      1784 2.13221E+00
 -1      1785 4.61213E+00
 -1      1786 1.25555E+00
 -1      1787 1.85796E+00
 -1      1788 1.52979E+00
 -1      1789 3.02946E+00
 -1      1790 1.78659E+00
 -1      1791 1.30635E+00
 -1      1792 1.11656E+00
 -1      1793 1.07824E+00
 -1      1794 1.50206E+00
 -1      1795 1.00930E+00
 -1      1796 1.13782E+00
 -1      1797 1.24333E+00
 -1      1798 1.09740E+00
 -1      1799 1.19156E+00
 -1      1800 1.13397E+00
 -1      1801 1.23888E+00
 -1      1802 1.45440E+00
 -1      1803 1.14086E+00
 -1      1804 1.81311E+00
 -1      1805 2.35670E+00
 -1      1806 1.54690E+00
 -1      1807 2.65890E+00
 -1      1808 3.47788E+00
 -1      1809 2.20781E+00
 -1      1810 3.70818E+00
 -1      1811 3.99577E+00
 -1      1812 2.74031E+00
 -1      1813 3.95825E+00
 -1      1814 3.97661E+00
 -1      1815 2.93309E+00
 -1      1816 3.98523E+00
 -1      1817 3.47534E+00
 -1      1818 2.90418E+00
 -1      1819 3.12599E+00
 -1      1820 2.32362E+00
 -1      1821 2.56345E+00
 -1      1822 2.02102E+00
 -1      1823 1.62308E+00
 -1      1824 1.91150E+00
 -1      1825 1.44728E+00
 -1      1826 1.47609E+00
 -1      1827 1.43309E+00
 -1      1828 1.39378E+00
 -1      1829 1.34304E+00
 -1      1830 1.17497E+00
 -1      1831 1.40712E+00
 -1      1832 1.43738E+00
 -1      1833 1.15674E+00
 -1      1834 1.46553E+00
 -1      1835 1.37599E+00
 -1      1836 1.24897E+00
 -1      1837 1.33170E+00
 -1      1838 1.20100E+00
 -1      1839 1.23282E+00
 -1      1840 1.13741E+00
 -1      1841 1.04831E+00
 -1      1842 1.12495E+00
 -1      1843 9.92982E-01
 -1      1844 9.19091E-01
 -1      1845 1.00603E+00
 -1      1846 8.48023E-01
 -1      1847 7.64833E-01
 -1      1848 8.79637E-01
 -1      1849 6.89615E-01
 -1      1850 6.09787E-01
 -1      1851 7.33351E-01
 -1      1852 5.39280E-01
 -1      1853 4.69259E-01
 -1      1854 5.87626E-01
 -1      1855 4.07820E-01
 -1      1856 3.52080E-01
 -1      1857 4.55680E-01
 -1      1858 3.01128E-01
 -1      1859 2.66671E-01
 -1      1860 3.43289E-01
 -1      1861 2.25940E-01
 -1      1862 1.97970E-01
 -1      1863 2.51606E-01
 -1      1864 1.66356E-01
 -1      1865 1.43381E-01
 -1      1866 1.79261E-01
 -1      1867 1.20735E-01
 -1      1868 1.02356E-01
 -1      1869 1.25002E-01
 -1      1870 8.79763E-02
 -1      1871 7.86681E-02
 -1      1872 8.79763E-02
 -1      1873 6.85619E-02
 -1      1874 6.03064E-02
 -1      1875 6.34908E-02
 -1      1876 5.43579E-02
 -1      1877 4.72340E-02
 -1      1878 4.74361E-02
 -1      1879 4.36336E-02
 -1      1880 3.76489E-02
 -1      1881 3.78872E-02
 -1      1882 3.43834E-02
 -1      1883 2.94670E-02
 -1      1884 3.10214E-02
 -1      1885 2.66100E-02
 -1      1886 2.31613E-02
 -1      1887 2.48989E-02
 -1      1888 2.07307E-02
 -1      1889 1.81191E-02
 -1      1890 1.96112E-02
 -1      1891 1.62748E-02
 -1      1892 1.45149E-02
 -1      1893 1.53363E-02
 -1      1894 1.34261E-02
 -1      1895 1.18682E-02
 -1      1896 1.24033E-02
 -1      1897 1.09208E-02
 -1      1898 9.63728E-03
 -1      1899 1.03672E-02
 -1      1900 8.75640E-03
 -1      1901 7.76129E-03
 -1      1902 8.53901E-03
 -1      1903 7.02939E-03
 -1      1904 6.19432E-03
 -1      1905 6.92622E-03
 -1      1906 5.57659E-03
 -1      1907 4.94553E-03
 -1      1908 5.57659E-03
 -1      1909 4.39486E-03
 -1      1910 3.83488E-03
 -1      1911 4.40819E-03
 -1      1912 3.42071E-03
 -1      1913 2.93526E-03
 -1      1914 3.44336E-03
 -1      1915 2.56675E-03
 -1      1916 2.24997E-03
 -1      1917 2.66069E-03
 -1      1918 1.93451E-03
 -1      1919 1.71439E-03
 -1      1920 1.97672E-03
 -1      1921 1.50405E-03
 -1      1922 1.30791E-03
 -1      1923 1.45091E-03
 -1      1924 1.12465E-03
 -1      1925 9.35814E-04
 -1      1926 7.05038E-04
 -1      1927 1.05731E-03
 -1      1928 6.00603E-01
 -1      1929 9.55205E-01
 -1      1930 9.55205E-01
 -1      1931 3.47087E-01
 -1      1932 4.14608E-01
 -1      1933 4.68863E-01
 -1      1934 6.55832E-01
 -1      1935 5.17916E-01
 -1      1936 4.53696E-01
 -1      1937 1.02017E+00
 -1      1938 8.69063E-01
 -1      1939 8.37757E-01
 -1      1940 1.47180E+00
 -1      1941 1.27472E+00
 -1      1942 1.30553E+00
 -1      1943 1.89995E+00
 -1      1944 1.62499E+00
 -1      1945 1.71328E+00
 -1      1946 2.24571E+00
 -1      1947 1.89995E+00
 -1      1948 1.86647E+00
 -1      1949 2.43797E+00
 -1      1950 2.22742E+00
 -1      1951 1.84818E+00
 -1      1952 2.71332E+00
 -1      1953 2.51112E+00
 -1      1954 1.90304E+00
 -1      1955 2.66489E+00
 -1      1956 2.76178E+00
 -1      1957 2.02465E+00
 -1      1958 2.01334E+00
 -1      1959 2.47274E+00
 -1      1960 1.88096E+00
 -1      1961 1.25286E+00
 -1      1962 1.72532E+00
 -1      1963 1.40079E+00
 -1      1964 8.22477E-01
 -1      1965 1.04396E+00
 -1      1966 9.03870E-01
 -1      1967 6.83748E-01
 -1      1968 7.24036E-01
 -1      1969 5.96535E-01
 -1      1970 7.86955E-01
 -1      1971 7.69806E-01
 -1      1972 5.84152E-01
 -1      1973 8.71526E-01
 -1      1974 8.10399E-01
 -1      1975 6.93653E-01
 -1      1976 8.73552E-01
 -1      1977 8.89862E-01
 -1      1978 7.35432E-01
 -1      1979 7.93667E-01
 -1      1980 8.52126E-01
 -1      1981 7.32342E-01
 -1      1982 6.87232E-01
 -1      1983 7.56489E-01
 -1      1984 6.73738E-01
 -1      1985 5.85851E-01
 -1      1986 6.47897E-01
 -1      1987 5.97225E-01
 -1      1988 4.81948E-01
 -1      1989 5.39394E-01
 -1      1990 5.11433E-01
 -1      1991 3.80667E-01
 -1      1992 4.35390E-01
 -1      1993 4.18418E-01
 -1      1994 2.89850E-01
 -1      1995 3.38130E-01
 -1      1996 3.29323E-01
 -1      1997 2.14967E-01
 -1      1998 2.53323E-01
 -1      1999 2.50259E-01
 -1      2000 1.62430E-01
 -1      2001 1.88081E-01
 -1      2002 1.86847E-01
 -1      2003 1.21821E-01
 -1      2004 1.43130E-01
 -1      2005 1.40662E-01
 -1      2006 8.96922E-02
 -1      2007 1.05986E-01
 -1      2008 1.05527E-01
 -1      2009 6.44720E-02
 -1      2010 7.70821E-02
 -1      2011 7.70821E-02
 -1      2012 4.50971E-02
 -1      2013 5.46907E-02
 -1      2014 5.46907E-02
 -1      2015 3.39926E-02
 -1      2016 3.76949E-02
 -1      2017 3.75072E-02
 -1      2018 2.78502E-02
 -1      2019 3.13215E-02
 -1      2020 2.74339E-02
 -1      2021 2.28880E-02
 -1      2022 2.59892E-02
 -1      2023 2.29017E-02
 -1      2024 1.84107E-02
 -1      2025 2.10848E-02
 -1      2026 1.92375E-02
 -1      2027 1.54209E-02
 -1      2028 1.67558E-02
 -1      2029 1.57795E-02
 -1      2030 1.28359E-02
 -1      2031 1.39596E-02
 -1      2032 1.26633E-02
 -1      2033 1.07421E-02
 -1      2034 1.18817E-02
 -1      2035 1.02477E-02
 -1      2036 8.98651E-03
 -1      2037 1.00631E-02
 -1      2038 8.61446E-03
 -1      2039 7.33919E-03
 -1      2040 8.31086E-03
 -1      2041 7.25979E-03
 -1      2042 5.92596E-03
 -1      2043 6.72420E-03
 -1      2044 5.96916E-03
 -1      2045 4.79486E-03
 -1      2046 5.46361E-03
 -1      2047 4.89183E-03
 -1      2048 3.77457E-03
 -1      2049 4.36104E-03
 -1      2050 3.99566E-03
 -1      2051 2.90216E-03
 -1      2052 3.38092E-03
 -1      2053 3.16820E-03
 -1      2054 2.13521E-03
 -1      2055 2.55222E-03
 -1      2056 2.42461E-03
 -1      2057 1.64719E-03
 -1      2058 1.86790E-03
 -1      2059 1.80736E-03
 -1      2060 1.19631E-03
 -1      2061 1.45598E-03
 -1      2062 1.34883E-03
 -1      2063 7.29076E-04
 -1      2064 9.81170E-04
 -1      2065 9.42479E-04
 -1      2066 5.72087E-04
 -1      2067 3.40820E-04
 -1      2068 4.07553E-04
 -1      2069 5.95909E-04
 -1      2070 6.15115E-04
 -1      2071 6.25039E-04
 -1      2072 6.15115E-04
 -1      2073 6.15115E-04
 -1      2074 7.70367E-04
 -1      2075 8.13395E-04
 -1      2076 4.72392E-04
 -1      2077 3.93528E-04
 -1      2078 4.89392E-04
 -1      2079 5.90270E-04
 -1      2080 5.41499E-04
 -1      2081 6.11207E-04
 -1      2082 6.40957E-04
 -1      2083 6.21665E-04
 -1      2084 7.11709E-04
 -1      2085 6.40957E-04
 -1      2086 6.40957E-04
 -1      2087 7.43104E-04
 -1      2088 6.40030E-04
 -1      2089 6.40086E-04
 -1      2090 7.42233E-04
 -1      2091 6.19513E-04
 -1      2092 6.40030E-04
 -1      2093 7.41361E-04
 -1      2094 5.41841E-04
 -1      2095 5.89318E-04
 -1      2096 7.11167E-04
 -1      2097 3.94927E-04
 -1      2098 4.71487E-04
 -1      2099 6.10618E-04
 -1      2100 4.02782E-04
 -1      2101 3.39225E-04
 -1      2102 4.84563E-04
 -1      2103 5.36813E-04
 -1      2104 5.36813E-04
 -1      2105 5.62893E-04
 -1      2106 3.78360E+01
 -1      2107 2.84511E+01
 -1      2108 3.32224E+01
 -1      2109 3.32224E+01
 -1      2110 2.83555E+01
 -1      2111 3.07412E+01
 -1      2112 1.89725E+01
 -1      2113 3.18183E+01
 -1      2114 1.01289E+01
 -1      2115 1.51843E+01
 -1      2116 2.33627E+00
 -1      2117 2.49850E+00
 -1      2118 2.58242E+00
 -1      2119 2.30735E+00
 -1      2120 1.08315E+01
 -1      2121 1.04065E+01
 -1      2122 1.14187E+01
 -1      2123 1.19976E+01
 -1      2124 1.18719E+01
 -1      2125 1.14152E+01
 -1      2126 1.10222E+01
 -1      2127 1.07228E+01
 -1      2128 1.08772E+01
 -1      2129 1.02103E+01
 -1      2130 9.72003E+00
 -1      2131 2.21545E+01
 -1      2132 1.30113E+01
 -1      2133 2.63426E+01
 -1      2134 2.66370E+01
 -1      2135 2.68936E+01
 -1      2136 2.87290E+01
 -1      2137 3.71201E+01
 -1      2138 3.61401E+01
 -1      2139 3.71201E+01
 -1      2140 3.71201E+01
 -1      2141 4.48568E+01
 -1      2142 3.19436E+01
 -1      2143 2.91373E+01
 -1      2144 3.16325E+01
 -1      2145 2.93479E+01
 -1      2146 1.47060E+01
 -1      2147 2.67711E+01
 -1      2148 9.63575E+00
 -1      2149 1.15721E+01
 -1      2150 9.96350E+00
 -1      2151 9.67690E+00
 -1      2152 1.11827E+01
 -1      2153 1.09996E+01
 -1      2154 8.82778E+00
 -1      2155 1.16225E+01
 -1      2156 1.13419E+01
 -1      2157 1.09138E+01
 -1      2158 1.12982E+01
 -1      2159 9.53821E+00
 -1      2160 1.01588E+01
 -1      2161 8.77866E+00
 -1      2162 1.45053E+01
 -1      2163 9.92066E+00
 -1      2164 3.15004E+01
 -1      2165 1.82111E+01
 -1      2166 2.88124E+01
 -1      2167 3.78066E+01
 -1      2168 3.12242E+01
 -1      2169 2.90192E+01
 -1      2170 2.90192E+01
 -1      2171 9.96578E+00
 -1      2172 9.61537E+00
 -1      2173 8.25287E+00
 -1      2174 1.26275E+01
 -1      2175 2.45540E+00
 -1      2176 7.97783E+00
 -1      2177 6.68817E+00
 -1      2178 6.17462E+00
 -1      2179 2.36066E+00
 -1      2180 2.83555E+01
 -1      2181 3.07412E+01
 -1      2182 6.16470E-04
 -1      2183 2.24334E+01
 -1      2184 3.12242E+01
 -1      2185 2.25062E+01
 -1      2186 8.40609E+00
 -1      2187 1.00231E+01
 -1      2188 7.77524E+00
 -1      2189 5.84884E+00
 -1      2190 5.88999E+00
 -1      2191 1.08433E+01
 -1      2192 1.88386E+01
 -1      2193 3.68741E+01
 -1      2194 3.56103E+01
 -1      2195 2.39773E+01
 -1      2196 1.71084E+01
 -1      2197 9.82486E+00
 -1      2198 1.00240E+01
 -1      2199 1.10725E+01
 -1      2200 8.93453E+00
 -1      2201 1.01006E+01
 -1      2202 8.02658E+00
 -1      2203 2.62956E+01
 -1      2204 1.13846E+01
 -1      2205 9.94440E+00
 -1      2206 9.62011E+00
 -1      2207 1.24943E+01
 -1      2208 1.10089E+00
 -1      2209 1.40124E+00
 -1      2210 1.85110E+00
 -1      2211 2.05521E+00
 -1      2212 2.07267E+00
 -1      2213 2.10982E+00
 -1      2214 2.16991E+00
 -1      2215 1.45225E+00
 -1      2216 1.27577E+00
 -1      2217 1.77330E+00
 -1      2218 1.64805E+00
 -1      2219 1.69410E+00
 -1      2220 1.78436E+00
 -1      2221 1.77330E+00
 -1      2222 1.88990E+00
 -1      2223 1.77455E+00
 -1      2224 1.77455E+00
 -1      2225 1.88010E+00
 -1      2226 1.68961E+00
 -1      2227 1.67250E+00
 -1      2228 1.76824E+00
 -1      2229 1.83553E+00
 -1      2230 1.74534E+00
 -1      2231 1.72191E+00
 -1      2232 5.30490E-01
 -1      2233 7.16485E-01
 -1      2234 1.16252E+00
 -1      2235 1.72915E+00
 -1      2236 1.53936E+00
 -1      2237 8.26987E+00
 -1      2238 1.20581E+01
 -1      2239 1.57246E+00
 -1      2240 1.50353E+00
 -1      2241 1.79955E+00
 -1      2242 1.50403E+00
 -1      2243 1.46361E+00
 -1      2244 1.83316E+00
 -1      2245 1.54845E+00
 -1      2246 1.59577E+00
 -1      2247 1.91851E+00
 -1      2248 1.73051E+00
 -1      2249 2.08922E+00
 -1      2250 2.13809E+00
 -1      2251 2.66273E+00
 -1      2252 2.96493E+00
 -1      2253 2.84634E+00
 -1      2254 3.95526E+00
 -1      2255 4.18556E+00
 -1      2256 4.41018E+00
 -1      2257 4.17099E+00
 -1      2258 4.13347E+00
 -1      2259 5.38593E+00
 -1      2260 3.98915E+00
 -1      2261 3.99776E+00
 -1      2262 5.22705E+00
 -1      2263 3.30420E+00
 -1      2264 2.95484E+00
 -1      2265 4.38916E+00
 -1      2266 2.23563E+00
 -1      2267 1.93303E+00
 -1      2268 2.97638E+00
 -1      2269 1.97162E+00
 -1      2270 1.79582E+00
 -1      2271 2.29575E+00
 -1      2272 1.58396E+00
 -1      2273 1.50164E+00
 -1      2274 2.12249E+00
 -1      2275 1.40492E+00
 -1      2276 1.46901E+00
 -1      2277 1.81391E+00
 -1      2278 1.37804E+00
 -1      2279 1.40618E+00
 -1      2280 1.62622E+00
 -1      2281 1.29425E+00
 -1      2282 1.24996E+00
 -1      2283 1.42332E+00
 -1      2284 1.16813E+00
 -1      2285 1.10455E+00
 -1      2286 1.22956E+00
 -1      2287 1.04276E+00
 -1      2288 9.87436E-01
 -1      2289 1.08595E+00
 -1      2290 9.11943E-01
 -1      2291 8.40875E-01
 -1      2292 9.48674E-01
 -1      2293 7.63647E-01
 -1      2294 6.88429E-01
 -1      2295 7.95954E-01
 -1      2296 6.16516E-01
 -1      2297 5.46009E-01
 -1      2298 6.46813E-01
 -1      2299 4.82916E-01
 -1      2300 4.21476E-01
 -1      2301 5.11806E-01
 -1      2302 3.68376E-01
 -1      2303 3.17425E-01
 -1      2304 3.95612E-01
 -1      2305 2.74118E-01
 -1      2306 2.33387E-01
 -1      2307 2.99205E-01
 -1      2308 1.98954E-01
 -1      2309 1.67340E-01
 -1      2310 2.21465E-01
 -1      2311 1.40558E-01
 -1      2312 1.17912E-01
 -1      2313 1.60251E-01
 -1      2314 9.75001E-02
 -1      2315 8.31208E-02
 -1      2316 1.13057E-01
 -1      2317 6.78695E-02
 -1      2318 5.77633E-02
 -1      2319 7.73933E-02
 -1      2320 4.66014E-02
 -1      2321 4.06530E-02
 -1      2322 5.09802E-02
 -1      2323 3.41762E-02
 -1      2324 3.05758E-02
 -1      2325 3.33415E-02
 -1      2326 2.71828E-02
 -1      2327 2.39173E-02
 -1      2328 2.34717E-02
 -1      2329 2.26877E-02
 -1      2330 1.98306E-02
 -1      2331 1.88490E-02
 -1      2332 1.85215E-02
 -1      2333 1.60909E-02
 -1      2334 1.63103E-02
 -1      2335 1.48155E-02
 -1      2336 1.29713E-02
 -1      2337 1.37259E-02
 -1      2338 1.17954E-02
 -1      2339 1.07067E-02
 -1      2340 1.12746E-02
 -1      2341 9.71960E-03
 -1      2342 8.77224E-03
 -1      2343 9.11169E-03
 -1      2344 8.21314E-03
 -1      2345 7.33227E-03
 -1      2346 7.56551E-03
 -1      2347 6.77035E-03
 -1      2348 6.03844E-03
 -1      2349 6.44449E-03
 -1      2350 5.49475E-03
 -1      2351 4.87703E-03
 -1      2352 5.33888E-03
 -1      2353 4.41546E-03
 -1      2354 3.86479E-03
 -1      2355 4.33363E-03
 -1      2356 3.45353E-03
 -1      2357 3.03936E-03
 -1      2358 3.46080E-03
 -1      2359 2.67140E-03
 -1      2360 2.30289E-03
 -1      2361 2.68157E-03
 -1      2362 2.01487E-03
 -1      2363 1.69941E-03
 -1      2364 2.02557E-03
 -1      2365 1.46356E-03
 -1      2366 1.25321E-03
 -1      2367 1.50170E-03
 -1      2368 9.53370E-01
 -1      2369 7.40138E-01
 -1      2370 1.43591E+00
 -1      2371 1.18136E+00
 -1      2372 1.08374E+00
 -1      2373 1.75699E+00
 -1      2374 1.60380E+00
 -1      2375 1.47962E+00
 -1      2376 1.87880E+00
 -1      2377 1.87880E+00
 -1      2378 1.76932E+00
 -1      2379 1.92244E+00
 -1      2380 1.94073E+00
 -1      2381 1.95305E+00
 -1      2382 1.95872E+00
 -1      2383 1.88557E+00
 -1      2384 1.97811E+00
 -1      2385 1.96128E+00
 -1      2386 1.91282E+00
 -1      2387 1.89535E+00
 -1      2388 1.62892E+00
 -1      2389 1.82107E+00
 -1      2390 1.70924E+00
 -1      2391 1.19130E+00
 -1      2392 1.47932E+00
 -1      2393 1.41943E+00
 -1      2394 7.97237E-01
 -1      2395 1.00613E+00
 -1      2396 1.08467E+00
 -1      2397 6.58779E-01
 -1      2398 7.57221E-01
 -1      2399 8.59481E-01
 -1      2400 6.78088E-01
 -1      2401 5.92030E-01
 -1      2402 7.52715E-01
 -1      2403 7.35208E-01
 -1      2404 7.11765E-01
 -1      2405 7.19643E-01
 -1      2406 7.47103E-01
 -1      2407 7.28767E-01
 -1      2408 7.46879E-01
 -1      2409 6.97621E-01
 -1      2410 7.19047E-01
 -1      2411 7.12382E-01
 -1      2412 6.34215E-01
 -1      2413 6.71393E-01
 -1      2414 6.58098E-01
 -1      2415 5.60666E-01
 -1      2416 6.00001E-01
 -1      2417 5.97656E-01
 -1      2418 4.73542E-01
 -1      2419 5.20000E-01
 -1      2420 5.22775E-01
 -1      2421 3.83971E-01
 -1      2422 4.30529E-01
 -1      2423 4.39096E-01
 -1      2424 3.00569E-01
 -1      2425 3.43105E-01
 -1      2426 3.55217E-01
 -1      2427 2.27779E-01
 -1      2428 2.64306E-01
 -1      2429 2.78089E-01
 -1      2430 1.70254E-01
 -1      2431 1.97139E-01
 -1      2432 2.11187E-01
 -1      2433 1.26036E-01
 -1      2434 1.45336E-01
 -1      2435 1.55628E-01
 -1      2436 9.05767E-02
 -1      2437 1.06412E-01
 -1      2438 1.11086E-01
 -1      2439 6.29520E-02
 -1      2440 7.55621E-02
 -1      2441 7.64465E-02
 -1      2442 4.37415E-02
 -1      2443 5.35228E-02
 -1      2444 5.20027E-02
 -1      2445 3.00324E-02
 -1      2446 3.74347E-02
 -1      2447 3.62667E-02
 -1      2448 2.47627E-02
 -1      2449 2.74339E-02
 -1      2450 2.73613E-02
 -1      2451 2.10407E-02
 -1      2452 2.29017E-02
 -1      2453 2.29017E-02
 -1      2454 1.74344E-02
 -1      2455 1.92375E-02
 -1      2456 1.92375E-02
 -1      2457 1.41246E-02
 -1      2458 1.57795E-02
 -1      2459 1.57795E-02
 -1      2460 1.12020E-02
 -1      2461 1.26633E-02
 -1      2462 1.26633E-02
 -1      2463 9.29347E-03
 -1      2464 1.02477E-02
 -1      2465 1.02477E-02
 -1      2466 7.93545E-03
 -1      2467 8.61446E-03
 -1      2468 8.61446E-03
 -1      2469 6.58414E-03
 -1      2470 7.25979E-03
 -1      2471 7.25979E-03
 -1      2472 5.34371E-03
 -1      2473 5.95869E-03
 -1      2474 5.95869E-03
 -1      2475 4.36795E-03
 -1      2476 4.83030E-03
 -1      2477 4.81983E-03
 -1      2478 3.46960E-03
 -1      2479 3.90342E-03
 -1      2480 3.84189E-03
 -1      2481 2.68158E-03
 -1      2482 3.07522E-03
 -1      2483 2.98298E-03
 -1      2484 2.01525E-03
 -1      2485 2.36519E-03
 -1      2486 2.27221E-03
 -1      2487 1.52578E-03
 -1      2488 1.79309E-03
 -1      2489 1.73366E-03
 -1      2490 1.10718E-03
 -1      2491 1.29839E-03
 -1      2492 1.28412E-03
 -1      2493 9.85507E-04
 -1      2494 7.69466E-04
 -1      2495 7.00359E-04
 -1      2496 8.46394E-04
 -1      2497 8.14999E-04
 -1      2498 9.04151E-04
 -1      2499 6.46375E-04
 -1      2500 8.34732E-04
 -1      2501 7.55271E-04
 -1      2502 7.02562E-04
 -1      2503 9.12254E-04
 -1      2504 9.13529E-04
 -1      2505 8.46394E-04
 -1      2506 8.46394E-04
 -1      2507 9.49683E-04
 -1      2508 8.43795E-04
 -1      2509 8.44667E-04
 -1      2510 9.47956E-04
 -1      2511 8.45424E-04
 -1      2512 8.45424E-04
 -1      2513 9.47858E-04
 -1      2514 8.15230E-04
 -1      2515 8.45424E-04
 -1      2516 9.49487E-04
 -1      2517 6.99970E-04
 -1      2518 7.70324E-04
 -1      2519 9.04582E-04
 -1      2520 5.75595E-04
 -1      2521 6.31297E-04
 -1      2522 7.91003E-04
 -1      2523 7.09627E-04
 -1      2524 5.75595E-04
 -1      2525 7.22329E-04
 -1      2526 2.82600E+01
 -1      2527 3.07412E+01
 -1      2528 1.47801E+01
 -1      2529 2.07978E+01
 -1      2530 1.04225E+01
 -1      2531 6.68356E-01
 -1      2532 4.97527E-01
 -1      2533 7.83969E-01
 -1      2534 7.85492E-04
 -1      2535 3.12242E+01
 -1      2536 2.92259E+01
 -1      2537 2.39466E+01
 -1      2538 2.38511E+01
 -1      2539 2.16057E+01
 -1      2540 1.52995E+01
 -1      2541 2.80594E+00
 -1      2542 2.13714E+00
 -1      2543 2.17444E+00
 -1      2544 2.58242E+00
 -1      2545 8.80291E+00
 -1      2546 8.64375E+00
 -1      2547 3.56103E+01
 -1      2548 2.63637E+01
 -1      2549 1.37920E+00
 -1      2550 1.62745E+00
 -1      2551 1.92880E+00
 -1      2552 1.60172E+00
 -1      2553 5.84615E+00
 -1      2554 6.84891E+00
 -1      2555 9.17101E+00
 -1      2556 9.17454E+00
 -1      2557 2.04445E+01
 -1      2558 2.30402E+01
 -1      2559 7.73546E+00
 -1      2560 8.73010E+00
 -1      2561 9.27979E+00
 -1      2562 6.47874E+00
 -1      2563 1.65526E+01
 -1      2564 1.20700E+01
 -1      2565 8.72392E+00
 -1      2566 2.13770E+01
 -1      2567 1.89907E+01
 -1      2568 4.48568E+01
 -1      2569 4.48568E+01
 -1      2570 2.88913E+01
 -1      2571 3.68741E+01
 -1      2572 3.68741E+01
 -1      2573 1.25604E+01
 -1      2574 1.74218E+01
 -1      2575 7.29050E+00
 -1      2576 1.04244E+01
 -1      2577 9.00763E+00
 -1      2578 7.83717E+00
 -1      2579 6.80103E+00
 -1      2580 1.23521E+01
 -1      2581 8.64639E+00
 -1      2582 6.59875E+00
 -1      2583 7.35376E+00
 -1      2584 6.95763E+00
 -1      2585 6.57518E+00
 -1      2586 2.40050E+01
 -1      2587 2.37982E+01
 -1      2588 2.40050E+01
 -1      2589 6.70343E+00
 -1      2590 6.26273E+00
 -1      2591 1.51659E+00
 -1      2592 1.79084E+00
 -1      2593 1.86750E+00
 -1      2594 1.66228E+00
 -1      2595 4.86067E+00
 -1      2596 7.04111E+00
 -1      2597 5.74722E+00
 -1      2598 2.47754E+00
 -1      2599 2.39999E+00
 -1      2600 2.67507E+00
 -1      2601 7.45149E-01
 -1      2602 1.83553E+00
 -1      2603 5.46118E+00
 -1      2604 3.82363E+00
 -1      2605 3.91174E+00
 -1      2606 6.81548E+00
 -1      2607 8.99043E+00
 -1      2608 7.61109E+00
 -1      2609 8.75258E+00
 -1      2610 1.77764E+00
 -1      2611 4.71946E+00
 -1      2612 6.87057E+00
 -1      2613 6.30115E+00
 -1      2614 5.15029E+00
 -1      2615 1.14516E+01
 -1      2616 9.35067E-04
 -1      2617 9.35067E-04
 -1      2618 6.01399E+00
 -1      2619 5.59514E+00
 -1      2620 4.15348E+00
 -1      2621 2.34132E+01
 -1      2622 2.58944E+01
 -1      2623 2.38962E+01
 -1      2624 2.38511E+01
 -1      2625 1.62934E+01
 -1      2626 2.30402E+01
 -1      2627 1.41664E+01
 -1      2628 1.39523E+01
 -1      2629 3.56103E+01
 -1      2630 2.13770E+01
 -1      2631 6.59608E+00
 -1      2632 4.69442E+00
 -1      2633 5.60546E+00
 -1      2634 2.58242E+00
 -1      2635 1.65915E+01
 -1      2636 9.20042E+00
 -1      2637 8.27532E+00
 -1      2638 7.34927E+00
 -1      2639 6.88248E+00
 -1      2640 6.61700E+00
 -1      2641 6.94439E+00
 -1      2642 5.30107E+00
 -1      2643 7.44020E+00
 -1      2644 8.25792E-04
 -1      2645 7.37225E-04
 -1      2646 7.49927E-04
 -1      2647 1.00905E-03
 -1      2648 9.56403E-04
 -1      2649 1.02169E-03
 -1      2650 2.14724E+00
 -1      2651 2.14724E+00
 -1      2652 2.14724E+00
 -1      2653 1.95144E+00
 -1      2654 2.40458E+00
 -1      2655 1.80735E+00
 -1      2656 1.90941E+00
 -1      2657 1.66097E+00
 -1      2658 1.60524E+00
 -1      2659 1.74641E+00
 -1      2660 1.16252E+00
 -1      2661 1.54692E+00
 -1      2662 2.20897E+01
 -1      2663 1.68688E+01
 -1      2664 6.56434E+00
 -1      2665 4.87559E+00
 -1      2666 2.21092E+00
 -1      2667 2.21143E+00
 -1      2668 2.36019E+00
 -1      2669 2.44503E+00
 -1      2670 2.73795E+00
 -1      2671 2.99625E+00
 -1      2672 3.13098E+00
 -1      2673 3.43792E+00
 -1      2674 2.84634E+00
 -1      2675 3.41985E+00
 -1      2676 3.70450E+00
 -1      2677 4.41018E+00
 -1      2678 5.40050E+00
 -1      2679 6.58499E+00
 -1      2680 6.44067E+00
 -1      2681 3.21354E+00
 -1      2682 2.49433E+00
 -1      2683 2.64624E+00
 -1      2684 2.68483E+00
 -1      2685 2.88340E+00
 -1      2686 2.78763E+00
 -1      2687 2.57577E+00
 -1      2688 3.13811E+00
 -1      2689 2.32169E+00
 -1      2690 2.22497E+00
 -1      2691 2.98683E+00
 -1      2692 1.91922E+00
 -1      2693 1.82825E+00
 -1      2694 2.42700E+00
 -1      2695 1.58409E+00
 -1      2696 1.47216E+00
 -1      2697 1.87709E+00
 -1      2698 1.35645E+00
 -1      2699 1.27462E+00
 -1      2700 1.51722E+00
 -1      2701 1.15446E+00
 -1      2702 1.09267E+00
 -1      2703 1.28134E+00
 -1      2704 9.84210E-01
 -1      2705 9.08718E-01
 -1      2706 1.05271E+00
 -1      2707 8.14751E-01
 -1      2708 7.37523E-01
 -1      2709 8.50287E-01
 -1      2710 6.58350E-01
 -1      2711 5.86437E-01
 -1      2712 6.77148E-01
 -1      2713 5.21061E-01
 -1      2714 4.57967E-01
 -1      2715 5.32598E-01
 -1      2716 4.04472E-01
 -1      2717 3.51372E-01
 -1      2718 4.13727E-01
 -1      2719 3.08141E-01
 -1      2720 2.64834E-01
 -1      2721 3.17001E-01
 -1      2722 2.30349E-01
 -1      2723 1.95916E-01
 -1      2724 2.39285E-01
 -1      2725 1.68785E-01
 -1      2726 1.42004E-01
 -1      2727 1.77669E-01
 -1      2728 1.20963E-01
 -1      2729 1.00551E-01
 -1      2730 1.29498E-01
 -1      2731 8.44811E-02
 -1      2732 6.92298E-02
 -1      2733 9.23878E-02
 -1      2734 5.71538E-02
 -1      2735 4.59919E-02
 -1      2736 6.42416E-02
 -1      2737 3.70772E-02
 -1      2738 3.06005E-02
 -1      2739 4.32508E-02
 -1      2740 2.41500E-02
 -1      2741 2.07569E-02
 -1      2742 2.78857E-02
 -1      2743 1.65022E-02
 -1      2744 1.52726E-02
 -1      2745 1.71805E-02
 -1      2746 1.39575E-02
 -1      2747 1.26484E-02
 -1      2748 1.16107E-02
 -1      2749 1.23723E-02
 -1      2750 1.10970E-02
 -1      2751 1.00196E-02
 -1      2752 1.06108E-02
 -1      2753 9.43493E-03
 -1      2754 9.25729E-03
 -1      2755 8.85126E-03
 -1      2756 7.86419E-03
 -1      2757 8.18743E-03
 -1      2758 7.25672E-03
 -1      2759 6.69762E-03
 -1      2760 6.99629E-03
 -1      2761 6.17568E-03
 -1      2762 5.61376E-03
 -1      2763 5.86689E-03
 -1      2764 5.22124E-03
 -1      2765 4.67756E-03
 -1      2766 4.95244E-03
 -1      2767 4.27723E-03
 -1      2768 3.81566E-03
 -1      2769 4.15959E-03
 -1      2770 3.43364E-03
 -1      2771 3.02237E-03
 -1      2772 3.37724E-03
 -1      2773 2.67365E-03
 -1      2774 2.30568E-03
 -1      2775 2.64649E-03
 -1      2776 2.02557E-03
 -1      2777 1.73755E-03
 -1      2778 2.01766E-03
 -1      2779 1.50170E-03
 -1      2780 1.26586E-03
 -1      2781 1.50170E-03
 -1      2782 2.17268E+00
 -1      2783 2.00479E+00
 -1      2784 1.21176E-03
 -1      2785 1.31209E-03
 -1      2786 1.53948E-03
 -1      2787 1.42130E+00
 -1      2788 1.19331E+00
 -1      2789 2.11435E+00
 -1      2790 2.27452E+00
 -1      2791 2.21260E+00
 -1      2792 3.06146E+00
 -1      2793 3.09833E+00
 -1      2794 3.35787E+00
 -1      2795 2.29763E+00
 -1      2796 2.34353E+00
 -1      2797 3.46374E+00
 -1      2798 1.70924E+00
 -1      2799 1.84946E+00
 -1      2800 2.29763E+00
 -1      2801 1.62795E+00
 -1      2802 1.77755E+00
 -1      2803 1.91777E+00
 -1      2804 1.14996E+00
 -1      2805 1.33513E+00
 -1      2806 1.69324E+00
 -1      2807 1.09938E+00
 -1      2808 1.13939E+00
 -1      2809 1.38985E+00
 -1      2810 8.83050E-01
 -1      2811 9.49799E-01
 -1      2812 1.22971E+00
 -1      2813 8.80466E-01
 -1      2814 8.46789E-01
 -1      2815 1.04387E+00
 -1      2816 8.24656E-01
 -1      2817 8.31097E-01
 -1      2818 9.58244E-01
 -1      2819 7.35119E-01
 -1      2820 7.63174E-01
 -1      2821 8.47393E-01
 -1      2822 6.58684E-01
 -1      2823 6.84912E-01
 -1      2824 7.35704E-01
 -1      2825 5.86329E-01
 -1      2826 6.20543E-01
 -1      2827 6.47358E-01
 -1      2828 5.01123E-01
 -1      2829 5.41790E-01
 -1      2830 5.64677E-01
 -1      2831 4.12985E-01
 -1      2832 4.55998E-01
 -1      2833 4.75013E-01
 -1      2834 3.29948E-01
 -1      2835 3.70814E-01
 -1      2836 3.87717E-01
 -1      2837 2.56344E-01
 -1      2838 2.92606E-01
 -1      2839 3.08203E-01
 -1      2840 1.93932E-01
 -1      2841 2.24572E-01
 -1      2842 2.39088E-01
 -1      2843 1.42828E-01
 -1      2844 1.67747E-01
 -1      2845 1.81131E-01
 -1      2846 1.02199E-01
 -1      2847 1.21824E-01
 -1      2848 1.33942E-01
 -1      2849 7.07393E-02
 -1      2850 8.57539E-02
 -1      2851 9.64919E-02
 -1      2852 4.87275E-02
 -1      2853 5.81567E-02
 -1      2854 6.74641E-02
 -1      2855 3.30122E-02
 -1      2856 3.93190E-02
 -1      2857 4.54730E-02
 -1      2858 2.35469E-02
 -1      2859 2.61455E-02
 -1      2860 2.91978E-02
 -1      2861 1.80026E-02
 -1      2862 1.98636E-02
 -1      2863 1.86478E-02
 -1      2864 1.51449E-02
 -1      2865 1.69481E-02
 -1      2866 1.39100E-02
 -1      2867 1.28611E-02
 -1      2868 1.45159E-02
 -1      2869 1.22265E-02
 -1      2870 1.06421E-02
 -1      2871 1.21035E-02
 -1      2872 1.08399E-02
 -1      2873 8.89806E-03
 -1      2874 9.85230E-03
 -1      2875 9.29249E-03
 -1      2876 7.45743E-03
 -1      2877 8.13644E-03
 -1      2878 7.74103E-03
 -1      2879 6.22159E-03
 -1      2880 6.89725E-03
 -1      2881 6.41923E-03
 -1      2882 5.16317E-03
 -1      2883 5.78862E-03
 -1      2884 5.42607E-03
 -1      2885 4.21159E-03
 -1      2886 4.72500E-03
 -1      2887 4.55493E-03
 -1      2888 3.33973E-03
 -1      2889 3.80425E-03
 -1      2890 3.70942E-03
 -1      2891 2.59757E-03
 -1      2892 2.99195E-03
 -1      2893 2.95432E-03
 -1      2894 1.97525E-03
 -1      2895 2.29163E-03
 -1      2896 2.30060E-03
 -1      2897 1.63181E-03
 -1      2898 1.85397E-03
 -1      2899 1.87339E-03
 -1      2900 1.65978E-03
 -1      2901 1.06022E-03
 -1      2902 1.06195E-03
 -1      2903 1.04176E-03
 -1      2904 7.97591E-04
 -1      2905 1.04176E-03
 -1      2906 1.05632E-03
 -1      2907 1.01079E-03
 -1      2908 1.06174E-03
 -1      2909 1.06011E-03
 -1      2910 1.17411E-03
 -1      2911 1.06195E-03
 -1      2912 1.06195E-03
 -1      2913 1.16859E-03
 -1      2914 1.17422E-03
 -1      2915 7.57177E+00
 -1      2916 1.02938E+01
 -1      2917 1.06174E-03
 -1      2918 1.06174E-03
 -1      2919 1.17399E-03
 -1      2920 1.01004E-03
 -1      2921 1.05495E-03
 -1      2922 1.16720E-03
 -1      2923 8.61429E-04
 -1      2924 9.30103E-04
 -1      2925 1.08047E-03
 -1      2926 1.00390E+00
 -1      2927 9.32115E-01
 -1      2928 1.34146E+00
 -1      2929 1.60474E+01
 -1      2930 2.18985E+01
 -1      2931 1.67841E+01
 -1      2932 2.11930E+01
 -1      2933 1.27229E+01
 -1      2934 1.58717E+01
 -1      2935 9.87217E+00
 -1      2936 2.90120E+00
 -1      2937 2.49322E+00
 -1      2938 3.09958E+01
 -1      2939 2.17493E+01
 -1      2940 1.27029E+01
 -1      2941 1.02648E+01
 -1      2942 2.69880E+00
 -1      2943 2.57699E+00
 -1      2944 3.10215E+00
 -1      2945 3.02026E+00
 -1      2946 2.71077E+00
 -1      2947 2.74387E+00
 -1      2948 3.12214E+00
 -1      2949 3.43754E+00
 -1      2950 4.41116E+00
 -1      2951 4.43472E+00
 -1      2952 7.75211E-01
 -1      2953 8.08173E-01
 -1      2954 1.19258E+00
 -1      2955 9.95139E-01
 -1      2956 1.52906E+01
 -1      2957 1.30981E+01
 -1      2958 1.33754E+01
 -1      2959 2.09017E+00
 -1      2960 2.09997E+00
 -1      2961 2.35731E+00
 -1      2962 2.12928E+00
 -1      2963 5.94916E+00
 -1      2964 6.39007E+00
 -1      2965 1.09669E+01
 -1      2966 1.39897E+01
 -1      2967 2.43624E+00
 -1      2968 2.45370E+00
 -1      2969 6.41204E+00
 -1      2970 5.60546E+00
 -1      2971 9.21960E+00
 -1      2972 6.42935E+00
 -1      2973 1.99454E+01
 -1      2974 1.49588E+01
 -1      2975 1.53310E+01
 -1      2976 2.17898E+01
 -1      2977 2.97725E+01
 -1      2978 1.66228E+00
 -1      2979 2.90120E+00
 -1      2980 6.72524E+00
 -1      2981 8.86123E+00
 -1      2982 7.04308E+00
 -1      2983 4.81198E+00
 -1      2984 5.12829E+00
 -1      2985 7.39464E+00
 -1      2986 7.69993E-04
 -1      2987 1.09948E+01
 -1      2988 8.04742E+00
 -1      2989 5.10702E+00
 -1      2990 4.47442E+00
 -1      2991 5.60270E+00
 -1      2992 2.92123E+00
 -1      2993 3.21140E+00
 -1      2994 3.18756E+00
 -1      2995 2.45436E+00
 -1      2996 2.00122E+00
 -1      2997 2.10465E+00
 -1      2998 6.17247E+00
 -1      2999 4.01333E+00
 -1      3000 3.21178E+00
 -1      3001 4.11203E+00
 -1      3002 4.08747E+00
 -1      3003 4.27967E+00
 -1      3004 3.89342E+00
 -1      3005 6.44067E+00
 -1      3006 3.79154E+00
 -1      3007 3.97393E+00
 -1      3008 3.07810E+00
 -1      3009 6.41595E+00
 -1      3010 4.38916E+00
 -1      3011 4.41018E+00
 -1      3012 5.08273E+00
 -1      3013 5.40050E+00
 -1      3014 5.38593E+00
 -1      3015 4.38916E+00
 -1      3016 1.36521E-03
 -1      3017 1.21303E-03
 -1      3018 1.26795E-03
 -1      3019 1.47969E+01
 -1      3020 7.97024E+00
 -1      3021 6.10753E+00
 -1      3022 1.26795E-03
 -1      3023 4.85957E+00
 -1      3024 1.63462E+01
 -1      3025 9.04486E+00
 -1      3026 1.03457E+01
 -1      3027 6.94156E+00
 -1      3028 7.69993E-04
 -1      3029 1.66228E+00
 -1      3030 1.54561E+00
 -1      3031 1.12713E+01
 -1      3032 1.59115E+01
 -1      3033 1.28479E+01
 -1      3034 8.68452E+00
 -1      3035 4.15388E+00
 -1      3036 5.43039E+00
 -1      3037 5.28399E+00
 -1      3038 2.99385E+00
 -1      3039 5.40050E+00
 -1      3040 1.67600E+01
 -1      3041 2.10465E+00
 -1      3042 2.32829E+00
 -1      3043 2.61209E+00
 -1      3044 2.50414E+00
 -1      3045 6.59956E+00
 -1      3046 5.35493E+00
 -1      3047 4.86251E+00
 -1      3048 4.66057E+00
 -1      3049 6.14291E+00
 -1      3050 9.30209E-04
 -1      3051 8.82545E-04
 -1      3052 1.02164E-03
 -1      3053 1.15431E-03
 -1      3054 1.78236E+00
 -1      3055 1.98447E+00
 -1      3056 1.16369E+01
 -1      3057 1.00587E+01
 -1      3058 4.16002E+00
 -1      3059 5.62963E+00
 -1      3060 4.30730E+00
 -1      3061 5.54441E+00
 -1      3062 6.09563E+00
 -1      3063 3.98914E+00
 -1      3064 3.70450E+00
 -1      3065 4.06299E+00
 -1      3066 4.16579E+00
 -1      3067 3.98840E+00
 -1      3068 3.68265E+00
 -1      3069 2.40066E+00
 -1      3070 2.15649E+00
 -1      3071 3.96206E+00
 -1      3072 1.75185E+00
 -1      3073 1.63614E+00
 -1      3074 2.27542E+00
 -1      3075 1.38869E+00
 -1      3076 1.26852E+00
 -1      3077 1.62332E+00
 -1      3078 1.11552E+00
 -1      3079 1.00706E+00
 -1      3080 1.22286E+00
 -1      3081 8.97587E-01
 -1      3082 8.03621E-01
 -1      3083 9.60390E-01
 -1      3084 7.19675E-01
 -1      3085 6.40502E-01
 -1      3086 7.66975E-01
 -1      3087 5.66930E-01
 -1      3088 5.01553E-01
 -1      3089 6.09457E-01
 -1      3090 4.39763E-01
 -1      3091 3.86268E-01
 -1      3092 4.74094E-01
 -1      3093 3.35837E-01
 -1      3094 2.92605E-01
 -1      3095 3.61872E-01
 -1      3096 2.52337E-01
 -1      3097 2.17853E-01
 -1      3098 2.71173E-01
 -1      3099 1.86295E-01
 -1      3100 1.59164E-01
 -1      3101 1.99347E-01
 -1      3102 1.34857E-01
 -1      3103 1.13817E-01
 -1      3104 1.43483E-01
 -1      3105 9.62101E-02
 -1      3106 8.01399E-02
 -1      3107 1.01569E-01
 -1      3108 6.70920E-02
 -1      3109 5.50159E-02
 -1      3110 7.09143E-02
 -1      3111 4.53670E-02
 -1      3112 3.64523E-02
 -1      3113 4.82174E-02
 -1      3114 2.99636E-02
 -1      3115 2.35131E-02
 -1      3116 3.20797E-02
 -1      3117 1.88689E-02
 -1      3118 1.46141E-02
 -1      3119 2.09467E-02
 -1      3120 1.13043E-02
 -1      3121 9.98926E-03
 -1      3122 1.29927E-02
 -1      3123 8.06258E-03
 -1      3124 7.78647E-03
 -1      3125 7.75616E-03
 -1      3126 7.89320E-03
 -1      3127 7.40702E-03
 -1      3128 5.93620E-03
 -1      3129 7.41252E-03
 -1      3130 6.82885E-03
 -1      3131 6.04843E-03
 -1      3132 6.62846E-03
 -1      3133 6.02099E-03
 -1      3134 5.85354E-03
 -1      3135 5.70736E-03
 -1      3136 5.18542E-03
 -1      3137 5.33952E-03
 -1      3138 4.82140E-03
 -1      3139 4.42889E-03
 -1      3140 4.66187E-03
 -1      3141 4.14407E-03
 -1      3142 3.74374E-03
 -1      3143 4.01304E-03
 -1      3144 3.46542E-03
 -1      3145 3.08339E-03
 -1      3146 3.44990E-03
 -1      3147 2.79503E-03
 -1      3148 2.44631E-03
 -1      3149 2.88321E-03
 -1      3150 2.16791E-03
 -1      3151 1.88781E-03
 -1      3152 2.31645E-03
 -1      3153 1.62717E-03
 -1      3154 1.39132E-03
 -1      3155 1.27978E-03
 -1      3156 1.77743E-03
 -1      3157 2.69784E+00
 -1      3158 2.11435E+00
 -1      3159 1.26767E+01
 -1      3160 1.08729E+01
 -1      3161 3.82824E+00
 -1      3162 4.54618E+00
 -1      3163 4.22498E+00
 -1      3164 3.40117E+00
 -1      3165 2.32757E+00
 -1      3166 2.25926E+00
 -1      3167 1.69324E+00
 -1      3168 1.98607E+00
 -1      3169 2.32757E+00
 -1      3170 1.69078E+00
 -1      3171 1.70134E+00
 -1      3172 1.99417E+00
 -1      3173 1.38504E+00
 -1      3174 1.53461E+00
 -1      3175 1.84611E+00
 -1      3176 1.23159E+00
 -1      3177 1.26785E+00
 -1      3178 1.57275E+00
 -1      3179 1.05360E+00
 -1      3180 1.10297E+00
 -1      3181 1.32694E+00
 -1      3182 8.70985E-01
 -1      3183 9.32467E-01
 -1      3184 1.07719E+00
 -1      3185 7.52631E-01
 -1      3186 8.02837E-01
 -1      3187 8.87912E-01
 -1      3188 6.48330E-01
 -1      3189 6.86471E-01
 -1      3190 7.53604E-01
 -1      3191 5.43958E-01
 -1      3192 5.88498E-01
 -1      3193 6.27611E-01
 -1      3194 4.43750E-01
 -1      3195 4.88875E-01
 -1      3196 5.12696E-01
 -1      3197 3.53195E-01
 -1      3198 3.95367E-01
 -1      3199 4.09229E-01
 -1      3200 2.75815E-01
 -1      3201 3.13158E-01
 -1      3202 3.20808E-01
 -1      3203 2.11568E-01
 -1      3204 2.43340E-01
 -1      3205 2.48295E-01
 -1      3206 1.59056E-01
 -1      3207 1.85241E-01
 -1      3208 1.89493E-01
 -1      3209 1.17043E-01
 -1      3210 1.38048E-01
 -1      3211 1.42158E-01
 -1      3212 8.40953E-02
 -1      3213 1.00541E-01
 -1      3214 1.04646E-01
 -1      3215 5.87590E-02
 -1      3216 7.13416E-02
 -1      3217 7.53903E-02
 -1      3218 3.96612E-02
 -1      3219 4.90697E-02
 -1      3220 5.29472E-02
 -1      3221 2.55677E-02
 -1      3222 3.24344E-02
 -1      3223 3.60311E-02
 -1      3224 1.66035E-02
 -1      3225 2.02868E-02
 -1      3226 2.35234E-02
 -1      3227 1.17799E-02
 -1      3228 1.28344E-02
 -1      3229 1.44734E-02
 -1      3230 9.32763E-03
 -1      3231 9.95664E-03
 -1      3232 8.88104E-03
 -1      3233 8.70428E-03
 -1      3234 9.46188E-03
 -1      3235 7.19199E-03
 -1      3236 7.75485E-03
 -1      3237 8.54469E-03
 -1      3238 7.16665E-03
 -1      3239 6.66330E-03
 -1      3240 7.42492E-03
 -1      3241 6.67712E-03
 -1      3242 5.68868E-03
 -1      3243 6.24886E-03
 -1      3244 5.93275E-03
 -1      3245 4.81414E-03
 -1      3246 5.24712E-03
 -1      3247 5.07675E-03
 -1      3248 4.07626E-03
 -1      3249 4.51443E-03
 -1      3250 4.33547E-03
 -1      3251 3.34803E-03
 -1      3252 3.75536E-03
 -1      3253 3.71486E-03
 -1      3254 2.67855E-03
 -1      3255 3.02632E-03
 -1      3256 3.07226E-03
 -1      3257 2.07212E-03
 -1      3258 2.37806E-03
 -1      3259 2.45006E-03
 -1      3260 3.41234E+00
 -1      3261 3.41234E+00
 -1      3262 1.24851E-03
 -1      3263 1.24863E-03
 -1      3264 1.09544E-03
 -1      3265 1.17538E-03
 -1      3266 1.29046E-03
 -1      3267 1.29046E-03
 -1      3268 1.36498E-03
 -1      3269 1.94735E+00
 -1      3270 1.75794E+00
 -1      3271 2.53084E+00
 -1      3272 1.06230E+01
 -1      3273 8.36713E+00
 -1      3274 7.35254E+00
 -1      3275 9.78164E+00
 -1      3276 1.32136E+01
 -1      3277 1.28367E-03
 -1      3278 1.29046E-03
 -1      3279 1.40693E-03
 -1      3280 1.29864E-03
 -1      3281 9.62125E+00
 -1      3282 1.16790E+01
 -1      3283 2.58142E+00
 -1      3284 3.02959E+00
 -1      3285 4.11203E+00
 -1      3286 2.99122E+00
 -1      3287 6.34064E+00
 -1      3288 4.85756E+00
 -1      3289 4.90185E+00
 -1      3290 6.17247E+00
 -1      3291 1.21422E+01
 -1      3292 1.20335E+01
 -1      3293 8.91557E+00
 -1      3294 3.84661E+00
 -1      3295 3.99537E+00
 -1      3296 6.65308E+00
 -1      3297 7.39048E+00
 -1      3298 9.49616E+00
 -1      3299 1.51530E+01
 -1      3300 1.33465E+01
 -1      3301 1.56745E-03
 -1      3302 1.14789E+01
 -1      3303 1.27023E+01
 -1      3304 1.29327E+01
 -1      3305 1.51530E+01
 -1      3306 1.17395E+01
 -1      3307 7.73986E+00
 -1      3308 6.69465E+00
 -1      3309 3.43754E+00
 -1      3310 1.36948E+00
 -1      3311 1.36817E+00
 -1      3312 1.60623E+00
 -1      3313 1.01514E+00
 -1      3314 6.14291E+00
 -1      3315 4.91068E+00
 -1      3316 5.18371E+00
 -1      3317 1.08176E+01
 -1      3318 1.17300E+01
 -1      3319 1.05367E+01
 -1      3320 3.41234E+00
 -1      3321 3.46212E+00
 -1      3322 4.42011E+00
 -1      3323 3.88737E+00
 -1      3324 6.83822E+00
 -1      3325 8.57670E+00
 -1      3326 5.82436E+00
 -1      3327 3.30824E+00
 -1      3328 3.35551E+00
 -1      3329 4.36328E+00
 -1      3330 4.11203E+00
 -1      3331 3.31338E+00
 -1      3332 5.39925E+00
 -1      3333 2.88962E+00
 -1      3334 2.85753E+00
 -1      3335 2.99122E+00
 -1      3336 3.82988E+00
 -1      3337 3.86924E+00
 -1      3338 8.24411E+00
 -1      3339 3.69559E+00
 -1      3340 3.65509E+00
 -1      3341 3.12214E+00
 -1      3342 4.37956E+00
 -1      3343 1.35817E-03
 -1      3344 1.56042E-03
 -1      3345 7.09154E+00
 -1      3346 4.04008E+00
 -1      3347 3.78599E+00
 -1      3348 1.27959E-03
 -1      3349 1.47480E-03
 -1      3350 1.28521E-03
 -1      3351 4.96495E+00
 -1      3352 3.65509E+00
 -1      3353 7.96868E+00
 -1      3354 4.81921E+00
 -1      3355 3.88737E+00
 -1      3356 1.92683E-03
 -1      3357 2.00429E-03
 -1      3358 1.80556E-03
 -1      3359 2.58519E+00
 -1      3360 2.54924E+00
 -1      3361 2.72999E+00
 -1      3362 1.28521E-03
 -1      3363 1.28521E-03
 -1      3364 1.39621E-03
 -1      3365 1.35962E-03
 -1      3366 8.29801E+00
 -1      3367 5.69159E+00
 -1      3368 3.97393E+00
 -1      3369 4.56608E+00
 -1      3370 5.83670E+00
 -1      3371 5.74616E+00
 -1      3372 3.50647E+00
 -1      3373 3.10215E+00
 -1      3374 8.82426E+00
 -1      3375 1.14789E+01
 -1      3376 8.26968E+00
 -1      3377 8.32721E+00
 -1      3378 1.53481E+00
 -1      3379 1.37791E+00
 -1      3380 1.55481E+00
 -1      3381 2.14071E+00
 -1      3382 9.07223E+00
 -1      3383 1.06793E+01
 -1      3384 7.36262E+00
 -1      3385 1.57054E-03
 -1      3386 1.57054E-03
 -1      3387 1.66288E-03
 -1      3388 1.56351E-03
 -1      3389 5.04165E+00
 -1      3390 3.10215E+00
 -1      3391 3.96210E+00
 -1      3392 4.07005E+00
 -1      3393 1.17763E-03
 -1      3394 1.15652E-03
 -1      3395 1.25143E-03
 -1      3396 1.41465E-03
 -1      3397 3.14084E+00
 -1      3398 3.60837E+00
 -1      3399 4.49086E+00
 -1      3400 3.36545E+00
 -1      3401 5.38677E+00
 -1      3402 4.32175E+00
 -1      3403 3.92035E+00
 -1      3404 6.09563E+00
 -1      3405 3.65509E+00
 -1      3406 6.79852E+00
 -1      3407 6.17125E+00
 -1      3408 2.77440E+00
 -1      3409 2.36976E+00
 -1      3410 1.81803E+00
 -1      3411 1.57057E+00
 -1      3412 2.31700E+00
 -1      3413 1.37013E+00
 -1      3414 1.21713E+00
 -1      3415 1.56484E+00
 -1      3416 1.06986E+00
 -1      3417 9.60390E-01
 -1      3418 1.21713E+00
 -1      3419 8.41979E-01
 -1      3420 7.58033E-01
 -1      3421 9.51448E-01
 -1      3422 6.64005E-01
 -1      3423 5.90432E-01
 -1      3424 7.39008E-01
 -1      3425 5.15951E-01
 -1      3426 4.54160E-01
 -1      3427 5.70498E-01
 -1      3428 3.95223E-01
 -1      3429 3.44792E-01
 -1      3430 4.37079E-01
 -1      3431 2.98284E-01
 -1      3432 2.58016E-01
 -1      3433 3.31635E-01
 -1      3434 2.21524E-01
 -1      3435 1.89967E-01
 -1      3436 2.48636E-01
 -1      3437 1.61573E-01
 -1      3438 1.37267E-01
 -1      3439 1.83751E-01
 -1      3440 1.15407E-01
 -1      3441 9.77996E-02
 -1      3442 1.33497E-01
 -1      3443 8.11792E-02
 -1      3444 6.81313E-02
 -1      3445 9.50166E-02
 -1      3446 5.59874E-02
 -1      3447 4.63385E-02
 -1      3448 6.62524E-02
 -1      3449 3.76379E-02
 -1      3450 3.11491E-02
 -1      3451 4.54079E-02
 -1      3452 2.47538E-02
 -1      3453 2.01095E-02
 -1      3454 3.03119E-02
 -1      3455 1.55029E-02
 -1      3456 1.21931E-02
 -1      3457 1.93099E-02
 -1      3458 9.00726E-03
 -1      3459 7.08058E-03
 -1      3460 1.15175E-02
 -1      3461 4.95588E-03
 -1      3462 5.06261E-03
 -1      3463 6.20699E-03
 -1      3464 4.83765E-03
 -1      3465 4.84315E-03
 -1      3466 3.85733E-03
 -1      3467 5.10837E-03
 -1      3468 4.90798E-03
 -1      3469 3.89759E-03
 -1      3470 4.92559E-03
 -1      3471 4.61196E-03
 -1      3472 4.18042E-03
 -1      3473 4.47752E-03
 -1      3474 4.11350E-03
 -1      3475 4.06359E-03
 -1      3476 3.89413E-03
 -1      3477 3.60931E-03
 -1      3478 3.70978E-03
 -1      3479 3.37308E-03
 -1      3480 3.09476E-03
 -1      3481 3.25417E-03
 -1      3482 2.89553E-03
 -1      3483 2.60716E-03
 -1      3484 2.81871E-03
 -1      3485 2.38484E-03
 -1      3486 2.10645E-03
 -1      3487 2.39716E-03
 -1      3488 3.44396E+00
 -1      3489 3.78545E+00
 -1      3490 1.84830E+00
 -1      3491 1.96549E+00
 -1      3492 1.39749E+00
 -1      3493 1.52611E+00
 -1      3494 1.91885E+00
 -1      3495 1.13626E+00
 -1      3496 1.25739E+00
 -1      3497 1.45656E+00
 -1      3498 9.33831E-01
 -1      3499 1.00198E+00
 -1      3500 1.18218E+00
 -1      3501 7.45986E-01
 -1      3502 8.12146E-01
 -1      3503 9.26213E-01
 -1      3504 6.00699E-01
 -1      3505 6.60531E-01
 -1      3506 7.19073E-01
 -1      3507 4.83257E-01
 -1      3508 5.38340E-01
 -1      3509 5.71260E-01
 -1      3510 3.89143E-01
 -1      3511 4.37526E-01
 -1      3512 4.63170E-01
 -1      3513 3.07589E-01
 -1      3514 3.47627E-01
 -1      3515 3.75924E-01
 -1      3516 2.38658E-01
 -1      3517 2.71133E-01
 -1      3518 2.97952E-01
 -1      3519 1.81501E-01
 -1      3520 2.07827E-01
 -1      3521 2.30666E-01
 -1      3522 1.35184E-01
 -1      3523 1.56193E-01
 -1      3524 1.74528E-01
 -1      3525 9.84246E-02
 -1      3526 1.14927E-01
 -1      3527 1.28962E-01
 -1      3528 6.98255E-02
 -1      3529 8.25792E-02
 -1      3530 9.28598E-02
 -1      3531 4.85217E-02
 -1      3532 5.82110E-02
 -1      3533 6.54000E-02
 -1      3534 3.26492E-02
 -1      3535 3.98760E-02
 -1      3536 4.51398E-02
 -1      3537 2.09534E-02
 -1      3538 2.62343E-02
 -1      3539 3.00792E-02
 -1      3540 1.25620E-02
 -1      3541 1.63311E-02
 -1      3542 1.90420E-02
 -1      3543 7.52781E-03
 -1      3544 9.35111E-03
 -1      3545 1.12087E-02
 -1      3546 5.71839E-03
 -1      3547 5.58414E-03
 -1      3548 6.05421E-03
 -1      3549 5.73485E-03
 -1      3550 5.89444E-03
 -1      3551 4.28658E-03
 -1      3552 5.58738E-03
 -1      3553 5.91731E-03
 -1      3554 4.64510E-03
 -1      3555 5.11993E-03
 -1      3556 5.53436E-03
 -1      3557 4.77455E-03
 -1      3558 4.48421E-03
 -1      3559 4.92578E-03
 -1      3560 4.52739E-03
 -1      3561 3.91527E-03
 -1      3562 4.21498E-03
 -1      3563 4.06401E-03
 -1      3564 3.34416E-03
 -1      3565 3.66506E-03
 -1      3566 3.54457E-03
 -1      3567 2.79494E-03
 -1      3568 3.11665E-03
 -1      3569 3.06684E-03
 -1      3570 2.25187E-03
 -1      3571 2.55236E-03
 -1      3572 2.59675E-03
 -1      3573 2.99122E+00
 -1      3574 5.56588E+00
 -1      3575 6.77817E+00
 -1      3576 1.50196E-03
 -1      3577 1.46001E-03
 -1      3578 3.50355E+00
 -1      3579 3.33655E+00
 -1      3580 7.96372E+00
 -1      3581 9.16644E+00
 -1      3582 5.09772E+00
 -1      3583 7.13692E+00
 -1      3584 7.11135E+00
 -1      3585 7.55161E+00
 -1      3586 8.01488E+00
 -1      3587 2.47552E+00
 -1      3588 3.93341E+00
 -1      3589 3.59764E+00
 -1      3590 2.48361E+00
 -1      3591 3.96210E+00
 -1      3592 3.96210E+00
 -1      3593 5.42007E+00
 -1      3594 5.30013E+00
 -1      3595 9.16644E+00
 -1      3596 9.16644E+00
 -1      3597 7.04890E+00
 -1      3598 6.79903E+00
 -1      3599 4.52908E+00
 -1      3600 3.24708E+00
 -1      3601 3.34142E+00
 -1      3602 2.28791E+00
 -1      3603 2.44407E+00
 -1      3604 2.92542E+00
 -1      3605 2.56345E+00
 -1      3606 6.52165E+00
 -1      3607 7.55766E+00
 -1      3608 7.36262E+00
 -1      3609 5.88060E+00
 -1      3610 3.72820E+00
 -1      3611 5.09374E+00
 -1      3612 3.51603E+00
 -1      3613 5.87874E+00
 -1      3614 3.60837E+00
 -1      3615 5.82453E+00
 -1      3616 5.10955E+00
 -1      3617 1.87017E-03
 -1      3618 1.60954E-03
 -1      3619 1.50740E-03
 -1      3620 1.93856E-03
 -1      3621 3.21354E+00
 -1      3622 1.71632E-03
 -1      3623 6.18736E+00
 -1      3624 2.05793E-03
 -1      3625 2.16023E-03
 -1      3626 1.91264E-03
 -1      3627 5.54558E+00
 -1      3628 4.80523E+00
 -1      3629 4.02974E+00
 -1      3630 2.02043E+00
 -1      3631 2.58519E+00
 -1      3632 1.41760E-03
 -1      3633 1.45419E-03
 -1      3634 1.55457E-03
 -1      3635 1.65451E-03
 -1      3636 1.74953E-03
 -1      3637 1.65451E-03
 -1      3638 3.58310E+00
 -1      3639 2.61038E+00
 -1      3640 2.38726E+00
 -1      3641 4.36758E+00
 -1      3642 6.59342E+00
 -1      3643 5.09285E+00
 -1      3644 5.14968E+00
 -1      3645 6.49921E+00
 -1      3646 5.21213E+00
 -1      3647 5.21213E+00
 -1      3648 4.92009E+00
 -1      3649 7.46030E+00
 -1      3650 7.13692E+00
 -1      3651 1.57177E-03
 -1      3652 1.65036E-03
 -1      3653 5.94171E+00
 -1      3654 1.85681E-03
 -1      3655 1.75983E-03
 -1      3656 6.40500E+00
 -1      3657 6.03550E+00
 -1      3658 5.10629E+00
 -1      3659 6.84487E+00
 -1      3660 6.84487E+00
 -1      3661 1.44632E-03
 -1      3662 5.09463E+00
 -1      3663 6.76876E+00
 -1      3664 1.80218E-03
 -1      3665 1.54622E-03
 -1      3666 1.65451E-03
 -1      3667 2.03846E-03
 -1      3668 4.37015E+00
 -1      3669 2.86874E+00
 -1      3670 2.31700E+00
 -1      3671 2.85753E+00
 -1      3672 1.76527E+00
 -1      3673 1.56484E+00
 -1      3674 2.31700E+00
 -1      3675 1.32208E+00
 -1      3676 1.17481E+00
 -1      3677 1.52252E+00
 -1      3678 1.00870E+00
 -1      3679 8.90290E-01
 -1      3680 1.11365E+00
 -1      3681 7.72791E-01
 -1      3682 6.78762E-01
 -1      3683 8.30045E-01
 -1      3684 5.93030E-01
 -1      3685 5.18548E-01
 -1      3686 6.26813E-01
 -1      3687 4.54085E-01
 -1      3688 3.95148E-01
 -1      3689 4.76617E-01
 -1      3690 3.45604E-01
 -1      3691 2.99096E-01
 -1      3692 3.62610E-01
 -1      3693 2.60599E-01
 -1      3694 2.24108E-01
 -1      3695 2.74569E-01
 -1      3696 1.94115E-01
 -1      3697 1.65722E-01
 -1      3698 2.06079E-01
 -1      3699 1.42425E-01
 -1      3700 1.20565E-01
 -1      3701 1.52789E-01
 -1      3702 1.02603E-01
 -1      3703 8.59822E-02
 -1      3704 1.11530E-01
 -1      3705 7.22798E-02
 -1      3706 6.01360E-02
 -1      3707 7.98658E-02
 -1      3708 4.98214E-02
 -1      3709 4.11207E-02
 -1      3710 5.58488E-02
 -1      3711 3.38544E-02
 -1      3712 2.74591E-02
 -1      3713 3.82679E-02
 -1      3714 2.22189E-02
 -1      3715 1.76123E-02
 -1      3716 2.57615E-02
 -1      3717 1.38056E-02
 -1      3718 1.06198E-02
 -1      3719 1.67146E-02
 -1      3720 7.91685E-03
 -1      3721 5.79215E-03
 -1      3722 1.02049E-02
 -1      3723 4.09080E-03
 -1      3724 3.86583E-03
 -1      3725 5.80065E-03
 -1      3726 2.91545E-03
 -1      3727 3.18068E-03
 -1      3728 3.14892E-03
 -1      3729 3.53702E-03
 -1      3730 3.55462E-03
 -1      3731 2.55488E-03
 -1      3732 3.66887E-03
 -1      3733 3.53444E-03
 -1      3734 3.02547E-03
 -1      3735 3.49394E-03
 -1      3736 3.27457E-03
 -1      3737 3.09922E-03
 -1      3738 3.14181E-03
 -1      3739 2.90558E-03
 -1      3740 2.92597E-03
 -1      3741 2.72406E-03
 -1      3742 2.52483E-03
 -1      3743 2.61170E-03
 -1      3744 2.36056E-03
 -1      3745 2.13824E-03
 -1      3746 2.26590E-03
 -1      3747 2.87406E+00
 -1      3748 3.19625E+00
 -1      3749 9.06888E-01
 -1      3750 1.02857E+00
 -1      3751 7.04024E-01
 -1      3752 7.89479E-01
 -1      3753 8.91840E-01
 -1      3754 5.71260E-01
 -1      3755 6.33618E-01
 -1      3756 7.04024E-01
 -1      3757 4.63170E-01
 -1      3758 5.08901E-01
 -1      3759 5.71260E-01
 -1      3760 3.68543E-01
 -1      3761 4.10059E-01
 -1      3762 4.55790E-01
 -1      3763 2.87791E-01
 -1      3764 3.24246E-01
 -1      3765 3.58381E-01
 -1      3766 2.20564E-01
 -1      3767 2.51394E-01
 -1      3768 2.77688E-01
 -1      3769 1.65805E-01
 -1      3770 1.91113E-01
 -1      3771 2.11840E-01
 -1      3772 1.22060E-01
 -1      3773 1.42317E-01
 -1      3774 1.58902E-01
 -1      3775 8.77626E-02
 -1      3776 1.03608E-01
 -1      3777 1.16963E-01
 -1      3778 6.18802E-02
 -1      3779 7.34947E-02
 -1      3780 8.42428E-02
 -1      3781 4.23883E-02
 -1      3782 5.10340E-02
 -1      3783 5.91287E-02
 -1      3784 2.83008E-02
 -1      3785 3.47157E-02
 -1      3786 4.06098E-02
 -1      3787 1.80743E-02
 -1      3788 2.26967E-02
 -1      3789 2.73331E-02
 -1      3790 1.07857E-02
 -1      3791 1.39965E-02
 -1      3792 1.76512E-02
 -1      3793 5.94608E-03
 -1      3794 7.88976E-03
 -1      3795 1.06775E-02
 -1      3796 4.34878E-03
 -1      3797 4.17273E-03
 -1      3798 6.00828E-03
 -1      3799 3.76499E-03
 -1      3800 3.58253E-03
 -1      3801 3.46868E-03
 -1      3802 4.04441E-03
 -1      3803 4.09742E-03
 -1      3804 3.03485E-03
 -1      3805 3.93562E-03
 -1      3806 4.12977E-03
 -1      3807 3.45264E-03
 -1      3808 3.59522E-03
 -1      3809 3.86445E-03
 -1      3810 3.46683E-03
 -1      3811 3.18184E-03
 -1      3812 3.43206E-03
 -1      3813 3.23250E-03
 -1      3814 2.74848E-03
 -1      3815 2.97599E-03
 -1      3816 2.86348E-03
 -1      3817 2.33773E-03
 -1      3818 2.58031E-03
 -1      3819 2.48946E-03
 -1      3820 1.60623E+00
 -1      3821 1.99457E-03
 -1      3822 2.18851E-03
 -1      3823 2.17207E-03
 -1      3824 1.88509E-03
 -1      3825 5.49398E+00
 -1      3826 5.49398E+00
 -1      3827 5.69255E+00
 -1      3828 4.39710E+00
 -1      3829 5.09233E+00
 -1      3830 5.78676E+00
 -1      3831 5.69255E+00
 -1      3832 5.69255E+00
 -1      3833 5.71211E+00
 -1      3834 3.55809E+00
 -1      3835 4.51409E+00
 -1      3836 1.56725E-03
 -1      3837 1.56725E-03
 -1      3838 1.74281E-03
 -1      3839 1.62523E-03
 -1      3840 1.76996E-03
 -1      3841 3.92442E+00
 -1      3842 5.08793E+00
 -1      3843 5.49398E+00
 -1      3844 1.21447E+00
 -1      3845 1.34875E+00
 -1      3846 1.19514E+00
 -1      3847 2.10022E+00
 -1      3848 2.24032E+00
 -1      3849 3.51772E+00
 -1      3850 1.78240E-03
 -1      3851 1.78691E-03
 -1      3852 1.92467E-03
 -1      3853 5.86807E+00
 -1      3854 1.62764E-03
 -1      3855 1.58523E-03
 -1      3856 1.96901E+00
 -1      3857 4.39455E+00
 -1      3858 3.35752E+00
 -1      3859 1.63972E-03
 -1      3860 1.67038E-03
 -1      3861 1.79227E-03
 -1      3862 5.35572E+00
 -1      3863 4.54906E+00
 -1      3864 4.25629E+00
 -1      3865 4.98010E+00
 -1      3866 3.99031E+00
 -1      3867 4.96639E+00
 -1      3868 1.90208E-03
 -1      3869 3.03510E+00
 -1      3870 2.00186E-03
 -1      3871 4.27301E+00
 -1      3872 3.92442E+00
 -1      3873 2.13251E+00
 -1      3874 2.66906E+00
 -1      3875 3.94932E+00
 -1      3876 5.50806E-01
 -1      3877 6.13164E-01
 -1      3878 2.39466E+00
 -1      3879 1.84293E+00
 -1      3880 1.56374E+00
 -1      3881 1.32099E+00
 -1      3882 1.64140E+00
 -1      3883 1.11898E+00
 -1      3884 9.52870E-01
 -1      3885 1.16020E+00
 -1      3886 8.20674E-01
 -1      3887 7.03175E-01
 -1      3888 8.26001E-01
 -1      3889 6.16452E-01
 -1      3890 5.30719E-01
 -1      3891 6.07082E-01
 -1      3892 4.68635E-01
 -1      3893 4.04172E-01
 -1      3894 4.58274E-01
 -1      3895 3.57568E-01
 -1      3896 3.08024E-01
 -1      3897 3.49585E-01
 -1      3898 2.72101E-01
 -1      3899 2.33604E-01
 -1      3900 2.67059E-01
 -1      3901 2.05553E-01
 -1      3902 1.75561E-01
 -1      3903 2.03086E-01
 -1      3904 1.53565E-01
 -1      3905 1.30268E-01
 -1      3906 1.53039E-01
 -1      3907 1.13077E-01
 -1      3908 9.51153E-02
 -1      3909 1.13853E-01
 -1      3910 8.17905E-02
 -1      3911 6.80881E-02
 -1      3912 8.33376E-02
 -1      3913 5.78788E-02
 -1      3914 4.75642E-02
 -1      3915 5.98035E-02
 -1      3916 3.98520E-02
 -1      3917 3.25857E-02
 -1      3918 4.18819E-02
 -1      3919 2.73730E-02
 -1      3920 2.21329E-02
 -1      3921 2.89571E-02
 -1      3922 1.84659E-02
 -1      3923 1.46591E-02
 -1      3924 2.00774E-02
 -1      3925 1.19284E-02
 -1      3926 9.22544E-03
 -1      3927 1.36796E-02
 -1      3928 7.22920E-03
 -1      3929 5.52785E-03
 -1      3930 8.95263E-03
 -1      3931 4.09931E-03
 -1      3932 3.14892E-03
 -1      3933 5.52785E-03
 -1      3934 2.15215E-03
 -1      3935 2.50849E-03
 -1      3936 3.10253E-03
 -1      3937 2.50304E-03
 -1      3938 2.61729E-03
 -1      3939 2.10031E-03
 -1      3940 2.74891E-03
 -1      3941 2.70841E-03
 -1      3942 2.22648E-03
 -1      3943 2.70563E-03
 -1      3944 2.57288E-03
 -1      3945 2.35532E-03
 -1      3946 2.48886E-03
 -1      3947 2.30734E-03
 -1      3948 2.26852E-03
 -1      3949 2.22680E-03
 -1      3950 2.06253E-03
 -1      3951 2.10397E-03
 -1      3952 3.63927E+00
 -1      3953 9.26382E-01
 -1      3954 1.04379E+00
 -1      3955 4.28979E-01
 -1      3956 4.82091E-01
 -1      3957 5.23995E-01
 -1      3958 3.31922E-01
 -1      3959 3.76219E-01
 -1      3960 4.02520E-01
 -1      3961 2.53950E-01
 -1      3962 2.90346E-01
 -1      3963 3.08184E-01
 -1      3964 1.91943E-01
 -1      3965 2.21394E-01
 -1      3966 2.34052E-01
 -1      3967 1.42963E-01
 -1      3968 1.66450E-01
 -1      3969 1.76004E-01
 -1      3970 1.04651E-01
 -1      3971 1.23103E-01
 -1      3972 1.30651E-01
 -1      3973 7.50428E-02
 -1      3974 8.93107E-02
 -1      3975 9.54508E-02
 -1      3976 5.24794E-02
 -1      3977 6.33256E-02
 -1      3978 6.83935E-02
 -1      3979 3.59775E-02
 -1      3980 4.36502E-02
 -1      3981 4.78471E-02
 -1      3982 2.40409E-02
 -1      3983 2.96449E-02
 -1      3984 3.26853E-02
 -1      3985 1.55364E-02
 -1      3986 1.96142E-02
 -1      3987 2.19260E-02
 -1      3988 9.50393E-03
 -1      3989 1.23998E-02
 -1      3990 1.43628E-02
 -1      3991 5.69599E-03
 -1      3992 7.46934E-03
 -1      3993 9.19163E-03
 -1      3994 3.46868E-03
 -1      3995 4.23493E-03
 -1      3996 5.69599E-03
 -1      3997 2.81218E-03
 -1      3998 2.47975E-03
 -1      3999 3.24600E-03
 -1      4000 2.97969E-03
 -1      4001 2.89433E-03
 -1      4002 2.33923E-03
 -1      4003 3.03686E-03
 -1      4004 3.10802E-03
 -1      4005 2.54971E-03
 -1      4006 2.85803E-03
 -1      4007 3.02120E-03
 -1      4008 2.66239E-03
 -1      4009 2.54844E-03
 -1      4010 2.75429E-03
 -1      4011 2.54299E-03
 -1      4012 2.22673E-03
 -1      4013 2.39490E-03
 -1      4014 2.28570E-03
 -1      4015 2.43868E+00
 -1      4016 3.71516E+00
 -1      4017 2.65948E+00
 -1      4018 2.18540E+00
 -1      4019 3.71516E+00
 -1      4020 1.56064E-03
 -1      4021 1.67371E-03
 -1      4022 1.71781E-03
 -1      4023 1.63371E-03
 -1      4024 2.00186E-03
 -1      4025 7.20179E-01
 -1      4026 7.90586E-01
 -1      4027 9.42538E-01
 -1      4028 6.99726E-01
 -1      4029 1.24733E+00
 -1      4030 1.43322E+00
 -1      4031 1.28187E+00
 -1      4032 1.96152E-03
 -1      4033 2.11073E-03
 -1      4034 2.01617E-03
 -1      4035 1.86334E-03
 -1      4036 2.09422E+00
 -1      4037 2.84570E+00
 -1      4038 2.14641E+00
 -1      4039 3.64791E+00
 -1      4040 3.64791E+00
 -1      4041 3.60098E+00
 -1      4042 4.32343E+00
 -1      4043 1.85295E-03
 -1      4044 1.89205E-03
 -1      4045 3.64791E+00
 -1      4046 3.50964E+00
 -1      4047 2.90126E+00
 -1      4048 3.28412E+00
 -1      4049 1.70326E-03
 -1      4050 1.69117E-03
 -1      4051 1.87374E-03
 -1      4052 2.85434E+00
 -1      4053 2.11025E-03
 -1      4054 2.07738E-03
 -1      4055 2.05279E-03
 -1      4056 4.20082E-01
 -1      4057 4.72842E-01
 -1      4058 2.51357E+00
 -1      4059 2.56050E+00
 -1      4060 1.26627E+00
 -1      4061 1.06427E+00
 -1      4062 9.14823E-01
 -1      4063 7.82627E-01
 -1      4064 1.02089E+00
 -1      4065 6.78416E-01
 -1      4066 5.91692E-01
 -1      4067 7.67238E-01
 -1      4068 5.05382E-01
 -1      4069 4.43297E-01
 -1      4070 5.76716E-01
 -1      4071 3.82105E-01
 -1      4072 3.35501E-01
 -1      4073 4.29213E-01
 -1      4074 2.89827E-01
 -1      4075 2.53904E-01
 -1      4076 3.22346E-01
 -1      4077 2.19232E-01
 -1      4078 1.91181E-01
 -1      4079 2.42000E-01
 -1      4080 1.64637E-01
 -1      4081 1.42641E-01
 -1      4082 1.80783E-01
 -1      4083 1.23322E-01
 -1      4084 1.06131E-01
 -1      4085 1.34919E-01
 -1      4086 9.11642E-02
 -1      4087 7.78394E-02
 -1      4088 1.00633E-01
 -1      4089 6.62031E-02
 -1      4090 5.59938E-02
 -1      4091 7.40297E-02
 -1      4092 4.70511E-02
 -1      4093 3.93389E-02
 -1      4094 5.34508E-02
 -1      4095 3.25595E-02
 -1      4096 2.73468E-02
 -1      4097 3.77287E-02
 -1      4098 2.26336E-02
 -1      4099 1.89666E-02
 -1      4100 2.62360E-02
 -1      4101 1.55280E-02
 -1      4102 1.27972E-02
 -1      4103 1.80842E-02
 -1      4104 1.02569E-02
 -1      4105 8.26065E-03
 -1      4106 1.21052E-02
 -1      4107 6.42118E-03
 -1      4108 4.99264E-03
 -1      4109 7.72544E-03
 -1      4110 3.69127E-03
 -1      4111 2.69450E-03
 -1      4112 4.58461E-03
 -1      4113 1.79932E-03
 -1      4114 1.79387E-03
 -1      4115 2.38806E-03
 -1      4116 1.86305E-03
 -1      4117 1.99467E-03
 -1      4118 1.56206E-03
 -1      4119 2.16508E-03
 -1      4120 2.16230E-03
 -1      4121 1.80164E-03
 -1      4122 2.42450E-03
 -1      4123 2.34048E-03
 -1      4124 2.23425E-03
 -1      4125 2.26521E-03
 -1      4126 2.18467E-03
 -1      4127 2.03497E-03
 -1      4128 2.42118E-03
 -1      4129 3.17314E-01
 -1      4130 3.58890E-01
 -1      4131 4.29213E-01
 -1      4132 5.59153E-01
 -1      4133 6.27868E-01
 -1      4134 5.76716E-01
 -1      4135 2.39084E-01
 -1      4136 2.71640E-01
 -1      4137 3.22346E-01
 -1      4138 1.78919E-01
 -1      4139 2.04412E-01
 -1      4140 2.42000E-01
 -1      4141 1.32515E-01
 -1      4142 1.52374E-01
 -1      4143 1.80783E-01
 -1      4144 9.68043E-02
 -1      4145 1.12144E-01
 -1      4146 1.33868E-01
 -1      4147 6.94962E-02
 -1      4148 8.12134E-02
 -1      4149 9.79070E-02
 -1      4150 4.88129E-02
 -1      4151 5.76421E-02
 -1      4152 7.04619E-02
 -1      4153 3.37075E-02
 -1      4154 4.00401E-02
 -1      4155 4.98351E-02
 -1      4156 2.30283E-02
 -1      4157 2.74549E-02
 -1      4158 3.48098E-02
 -1      4159 1.52364E-02
 -1      4160 1.83730E-02
 -1      4161 2.39019E-02
 -1      4162 9.79247E-03
 -1      4163 1.18271E-02
 -1      4164 1.58373E-02
 -1      4165 5.88321E-03
 -1      4166 7.34427E-03
 -1      4167 9.97970E-03
 -1      4168 3.24543E-03
 -1      4169 4.23435E-03
 -1      4170 5.88263E-03
 -1      4171 2.30427E-03
 -1      4172 2.22212E-03
 -1      4173 3.21047E-03
 -1      4174 2.24274E-03
 -1      4175 2.11441E-03
 -1      4176 1.99730E-03
 -1      4177 2.34060E-03
 -1      4178 2.35625E-03
 -1      4179 1.92095E-03
 -1      4180 2.23452E-03
 -1      4181 2.33827E-03
 -1      4182 2.03213E-03
 -1      4183 2.31431E-03
 -1      4184 2.46785E-03
 -1      4185 2.26313E-03
 -1      4186 1.85257E+00
 -1      4187 1.30781E+00
 -1      4188 1.51134E+00
 -1      4189 1.87850E+00
 -1      4190 1.63053E-03
 -1      4191 1.73921E-03
 -1      4192 1.77605E-03
 -1      4193 2.07419E-03
 -1      4194 3.14109E+00
 -1      4195 2.30719E+00
 -1      4196 2.04237E+00
 -1      4197 2.53271E+00
 -1      4198 1.73602E+00
 -1      4199 1.45683E+00
 -1      4200 1.36089E+00
 -1      4201 1.85781E+00
 -1      4202 2.56050E+00
 -1      4203 2.42118E-03
 -1      4204 1.12433E+00
 -1      4205 1.35381E+00
 -1      4206 9.88538E-01
 -1      4207 7.32080E-01
 -1      4208 8.39095E-01
 -1      4209 1.02089E+00
 -1      4210 7.67238E-01
 -1      4211 1.89205E-03
 -1      4212 2.07419E-03
 -1      4213 3.68021E-01
 -1      4214 4.29213E-01
 -1      4215 8.71449E-01
 -1      4216 7.67238E-01
 -1      4217 6.63027E-01
 -1      4218 5.76716E-01
 -1      4219 4.90405E-01
 -1      4220 3.22346E-01
 -1      4221 2.76672E-01
 -1      4222 2.42000E-01
 -1      4223 2.07328E-01
 -1      4224 1.80783E-01
 -1      4225 1.54238E-01
 -1      4226 1.34919E-01
 -1      4227 1.14549E-01
 -1      4228 9.95820E-02
 -1      4229 8.39911E-02
 -1      4230 7.23547E-02
 -1      4231 6.05006E-02
 -1      4232 5.15580E-02
 -1      4233 4.27852E-02
 -1      4234 3.60058E-02
 -1      4235 2.97532E-02
 -1      4236 2.50400E-02
 -1      4237 2.03848E-02
 -1      4238 1.69461E-02
 -1      4239 1.35367E-02
 -1      4240 1.09964E-02
 -1      4241 8.54820E-03
 -1      4242 6.70873E-03
 -1      4243 5.05987E-03
 -1      4244 3.75851E-03
 -1      4245 2.73520E-03
 -1      4246 1.84002E-03
 -1      4247 1.65016E-03
 -1      4248 1.71934E-03
 -1      4249 1.83285E-03
 -1      4250 2.00326E-03
 -1      4251 2.00093E-03
 -1      4252 2.26313E-03
 -1      4253 2.49645E-03
 -1      4254 2.49645E-03
 -1      4255 1.17033E+00
 -1      4256 1.02089E+00
 -1      4257 1.54436E+00
 -1      4258 1.88559E+00
 -1      4259 1.35381E+00
 -1      4260 2.49645E-03
 -1      4261 2.22636E+00
 -3
 9999
