    1C
    1UUSER                                                              
    1UDATE              27.october.2022                                 
    1UTIME              00:08:28                                        
    1UHOST                                                              
    1UPGM               CalculiX                                        
    1UVERSION           Version 2.17                             
    1UCOMPILETIME       Thu Jul 23 21:43:50 CEST 2020                    
    1UDIR                                                               
    1UDBN                                                               
    1UMAT    1SOLIDMATERIAL                                             
    2C                          4262                                     1
 -1         1 9.81818E+01 1.69643E+01 0.00000E+00
 -1         2 1.07975E+02 1.05458E+01 0.00000E+00
 -1         3 1.50000E+02 0.00000E+00 0.00000E+00
 -1         4 1.50000E+02 5.00000E+01 0.00000E+00
 -1         5 0.00000E+00 0.00000E+00 0.00000E+00
 -1         6 0.00000E+00 5.00000E+01 0.00000E+00
 -1         7 0.00000E+00 4.70500E+01 0.00000E+00
 -1         8 0.00000E+00 4.41000E+01 0.00000E+00
 -1         9 0.00000E+00 4.11500E+01 0.00000E+00
 -1        10 0.00000E+00 3.82000E+01 0.00000E+00
 -1        11 0.00000E+00 3.52500E+01 0.00000E+00
 -1        12 0.00000E+00 3.23500E+01 0.00000E+00
 -1        13 0.00000E+00 2.94000E+01 0.00000E+00
 -1        14 0.00000E+00 2.64500E+01 0.00000E+00
 -1        15 0.00000E+00 2.35000E+01 0.00000E+00
 -1        16 0.00000E+00 2.05500E+01 0.00000E+00
 -1        17 0.00000E+00 1.76000E+01 0.00000E+00
 -1        18 0.00000E+00 1.47000E+01 0.00000E+00
 -1        19 0.00000E+00 1.17500E+01 0.00000E+00
 -1        20 0.00000E+00 8.80000E+00 0.00000E+00
 -1        21 0.00000E+00 5.85000E+00 0.00000E+00
 -1        22 0.00000E+00 2.90000E+00 0.00000E+00
 -1        23 3.15000E+00 5.00000E+01 0.00000E+00
 -1        24 6.15000E+00 5.00000E+01 0.00000E+00
 -1        25 9.15000E+00 5.00000E+01 0.00000E+00
 -1        26 1.21500E+01 5.00000E+01 0.00000E+00
 -1        27 1.51500E+01 5.00000E+01 0.00000E+00
 -1        28 1.81500E+01 5.00000E+01 0.00000E+00
 -1        29 2.11500E+01 5.00000E+01 0.00000E+00
 -1        30 2.41500E+01 5.00000E+01 0.00000E+00
 -1        31 2.71500E+01 5.00000E+01 0.00000E+00
 -1        32 3.01500E+01 5.00000E+01 0.00000E+00
 -1        33 3.31500E+01 5.00000E+01 0.00000E+00
 -1        34 3.61500E+01 5.00000E+01 0.00000E+00
 -1        35 3.91500E+01 5.00000E+01 0.00000E+00
 -1        36 4.21500E+01 5.00000E+01 0.00000E+00
 -1        37 4.51500E+01 5.00000E+01 0.00000E+00
 -1        38 4.81500E+01 5.00000E+01 0.00000E+00
 -1        39 5.11500E+01 5.00000E+01 0.00000E+00
 -1        40 5.41500E+01 5.00000E+01 0.00000E+00
 -1        41 5.71500E+01 5.00000E+01 0.00000E+00
 -1        42 6.01500E+01 5.00000E+01 0.00000E+00
 -1        43 6.31500E+01 5.00000E+01 0.00000E+00
 -1        44 6.61500E+01 5.00000E+01 0.00000E+00
 -1        45 6.91500E+01 5.00000E+01 0.00000E+00
 -1        46 7.21500E+01 5.00000E+01 0.00000E+00
 -1        47 7.51500E+01 5.00000E+01 0.00000E+00
 -1        48 7.81500E+01 5.00000E+01 0.00000E+00
 -1        49 8.11500E+01 5.00000E+01 0.00000E+00
 -1        50 8.41500E+01 5.00000E+01 0.00000E+00
 -1        51 8.71500E+01 5.00000E+01 0.00000E+00
 -1        52 9.01500E+01 5.00000E+01 0.00000E+00
 -1        53 9.31500E+01 5.00000E+01 0.00000E+00
 -1        54 9.61500E+01 5.00000E+01 0.00000E+00
 -1        55 9.91500E+01 5.00000E+01 0.00000E+00
 -1        56 1.02150E+02 5.00000E+01 0.00000E+00
 -1        57 1.05150E+02 5.00000E+01 0.00000E+00
 -1        58 1.08150E+02 5.00000E+01 0.00000E+00
 -1        59 1.11150E+02 5.00000E+01 0.00000E+00
 -1        60 1.14150E+02 5.00000E+01 0.00000E+00
 -1        61 1.17150E+02 5.00000E+01 0.00000E+00
 -1        62 1.20150E+02 5.00000E+01 0.00000E+00
 -1        63 1.23150E+02 5.00000E+01 0.00000E+00
 -1        64 1.26150E+02 5.00000E+01 0.00000E+00
 -1        65 1.29150E+02 5.00000E+01 0.00000E+00
 -1        66 1.32150E+02 5.00000E+01 0.00000E+00
 -1        67 1.35150E+02 5.00000E+01 0.00000E+00
 -1        68 1.38150E+02 5.00000E+01 0.00000E+00
 -1        69 1.41150E+02 5.00000E+01 0.00000E+00
 -1        70 1.44150E+02 5.00000E+01 0.00000E+00
 -1        71 1.47150E+02 5.00000E+01 0.00000E+00
 -1        72 3.15000E+00 0.00000E+00 0.00000E+00
 -1        73 6.15000E+00 0.00000E+00 0.00000E+00
 -1        74 9.15000E+00 0.00000E+00 0.00000E+00
 -1        75 1.21500E+01 0.00000E+00 0.00000E+00
 -1        76 1.51500E+01 0.00000E+00 0.00000E+00
 -1        77 1.83000E+01 0.00000E+00 0.00000E+00
 -1        78 2.13000E+01 0.00000E+00 0.00000E+00
 -1        79 2.43000E+01 0.00000E+00 0.00000E+00
 -1        80 2.73000E+01 0.00000E+00 0.00000E+00
 -1        81 3.03000E+01 0.00000E+00 0.00000E+00
 -1        82 3.33000E+01 0.00000E+00 0.00000E+00
 -1        83 3.64500E+01 0.00000E+00 0.00000E+00
 -1        84 3.94500E+01 0.00000E+00 0.00000E+00
 -1        85 4.24500E+01 0.00000E+00 0.00000E+00
 -1        86 4.54500E+01 0.00000E+00 0.00000E+00
 -1        87 4.84500E+01 0.00000E+00 0.00000E+00
 -1        88 5.16000E+01 0.00000E+00 0.00000E+00
 -1        89 5.46000E+01 0.00000E+00 0.00000E+00
 -1        90 5.76000E+01 0.00000E+00 0.00000E+00
 -1        91 6.06000E+01 0.00000E+00 0.00000E+00
 -1        92 6.36000E+01 0.00000E+00 0.00000E+00
 -1        93 6.66000E+01 0.00000E+00 0.00000E+00
 -1        94 6.97500E+01 0.00000E+00 0.00000E+00
 -1        95 7.27500E+01 0.00000E+00 0.00000E+00
 -1        96 7.57500E+01 0.00000E+00 0.00000E+00
 -1        97 7.87500E+01 0.00000E+00 0.00000E+00
 -1        98 8.17500E+01 0.00000E+00 0.00000E+00
 -1        99 8.49000E+01 0.00000E+00 0.00000E+00
 -1       100 8.79000E+01 0.00000E+00 0.00000E+00
 -1       101 9.06000E+01 0.00000E+00 0.00000E+00
 -1       102 9.36000E+01 0.00000E+00 0.00000E+00
 -1       103 9.60000E+01 0.00000E+00 0.00000E+00
 -1       104 9.82500E+01 0.00000E+00 0.00000E+00
 -1       105 1.00200E+02 0.00000E+00 0.00000E+00
 -1       106 1.02150E+02 0.00000E+00 0.00000E+00
 -1       107 1.04250E+02 0.00000E+00 0.00000E+00
 -1       108 1.06200E+02 0.00000E+00 0.00000E+00
 -1       109 1.08450E+02 0.00000E+00 0.00000E+00
 -1       110 1.11000E+02 0.00000E+00 0.00000E+00
 -1       111 1.13700E+02 0.00000E+00 0.00000E+00
 -1       112 1.16850E+02 0.00000E+00 0.00000E+00
 -1       113 1.19850E+02 0.00000E+00 0.00000E+00
 -1       114 1.22850E+02 0.00000E+00 0.00000E+00
 -1       115 1.25850E+02 0.00000E+00 0.00000E+00
 -1       116 1.28850E+02 0.00000E+00 0.00000E+00
 -1       117 1.31850E+02 0.00000E+00 0.00000E+00
 -1       118 1.35000E+02 0.00000E+00 0.00000E+00
 -1       119 1.38000E+02 0.00000E+00 0.00000E+00
 -1       120 1.41000E+02 0.00000E+00 0.00000E+00
 -1       121 1.44000E+02 0.00000E+00 0.00000E+00
 -1       122 1.47000E+02 0.00000E+00 0.00000E+00
 -1       123 1.50000E+02 2.95000E+00 0.00000E+00
 -1       124 1.50000E+02 5.90000E+00 0.00000E+00
 -1       125 1.50000E+02 8.85000E+00 0.00000E+00
 -1       126 1.50000E+02 1.18000E+01 0.00000E+00
 -1       127 1.50000E+02 1.47500E+01 0.00000E+00
 -1       128 1.50000E+02 1.76500E+01 0.00000E+00
 -1       129 1.50000E+02 2.06000E+01 0.00000E+00
 -1       130 1.50000E+02 2.35500E+01 0.00000E+00
 -1       131 1.50000E+02 2.65000E+01 0.00000E+00
 -1       132 1.50000E+02 2.94500E+01 0.00000E+00
 -1       133 1.50000E+02 3.24000E+01 0.00000E+00
 -1       134 1.50000E+02 3.53000E+01 0.00000E+00
 -1       135 1.50000E+02 3.82500E+01 0.00000E+00
 -1       136 1.50000E+02 4.12000E+01 0.00000E+00
 -1       137 1.50000E+02 4.41500E+01 0.00000E+00
 -1       138 1.50000E+02 4.71000E+01 0.00000E+00
 -1       139 1.07836E+02 9.15576E+00 0.00000E+00
 -1       140 1.07379E+02 7.71981E+00 0.00000E+00
 -1       141 1.06655E+02 6.45382E+00 0.00000E+00
 -1       142 1.05638E+02 5.32519E+00 0.00000E+00
 -1       143 1.04444E+02 4.46559E+00 0.00000E+00
 -1       144 1.03024E+02 3.85226E+00 0.00000E+00
 -1       145 1.01378E+02 3.55745E+00 0.00000E+00
 -1       146 9.99404E+01 3.62276E+00 0.00000E+00
 -1       147 9.84200E+01 4.02889E+00 0.00000E+00
 -1       148 9.71624E+01 4.67539E+00 0.00000E+00
 -1       149 9.59538E+01 5.66880E+00 0.00000E+00
 -1       150 9.50822E+01 6.76803E+00 0.00000E+00
 -1       151 9.44237E+01 8.08052E+00 0.00000E+00
 -1       152 9.40457E+01 9.55489E+00 0.00000E+00
 -1       153 9.39998E+01 1.11320E+01 0.00000E+00
 -1       154 9.42885E+01 1.26166E+01 0.00000E+00
 -1       155 9.48316E+01 1.39008E+01 0.00000E+00
 -1       156 9.56822E+01 1.51267E+01 0.00000E+00
 -1       157 9.68066E+01 1.61692E+01 0.00000E+00
 -1       158 9.94986E+01 1.73883E+01 0.00000E+00
 -1       159 1.00942E+02 1.75458E+01 0.00000E+00
 -1       160 1.02263E+02 1.74263E+01 0.00000E+00
 -1       161 1.03586E+02 1.70408E+01 0.00000E+00
 -1       162 1.04839E+02 1.63828E+01 0.00000E+00
 -1       163 1.05869E+02 1.55505E+01 0.00000E+00
 -1       164 1.06745E+02 1.45096E+01 0.00000E+00
 -1       165 1.07399E+02 1.33271E+01 0.00000E+00
 -1       166 1.07821E+02 1.20090E+01 0.00000E+00
 -1       167 2.59800E+00 4.55750E+01 0.00000E+00
 -1       168 2.59800E+00 4.26250E+01 0.00000E+00
 -1       169 2.59800E+00 3.96750E+01 0.00000E+00
 -1       170 2.59800E+00 3.67250E+01 0.00000E+00
 -1       171 2.59800E+00 3.38250E+01 0.00000E+00
 -1       172 2.59800E+00 3.08750E+01 0.00000E+00
 -1       173 2.59800E+00 2.79250E+01 0.00000E+00
 -1       174 2.59800E+00 2.49750E+01 0.00000E+00
 -1       175 2.59800E+00 2.20250E+01 0.00000E+00
 -1       176 2.59800E+00 1.90750E+01 0.00000E+00
 -1       177 2.59800E+00 1.61750E+01 0.00000E+00
 -1       178 2.59800E+00 1.32250E+01 0.00000E+00
 -1       179 2.59800E+00 1.02750E+01 0.00000E+00
 -1       180 2.59800E+00 7.32500E+00 0.00000E+00
 -1       181 2.59800E+00 4.37500E+00 0.00000E+00
 -1       182 2.87400E+00 2.18750E+00 0.00000E+00
 -1       183 4.65000E+00 4.74020E+01 0.00000E+00
 -1       184 7.65000E+00 4.74020E+01 0.00000E+00
 -1       185 1.06500E+01 4.74020E+01 0.00000E+00
 -1       186 1.36500E+01 4.74020E+01 0.00000E+00
 -1       187 1.66500E+01 4.74020E+01 0.00000E+00
 -1       188 1.96500E+01 4.74020E+01 0.00000E+00
 -1       189 2.26500E+01 4.74020E+01 0.00000E+00
 -1       190 2.56500E+01 4.74020E+01 0.00000E+00
 -1       191 2.86500E+01 4.74020E+01 0.00000E+00
 -1       192 3.16500E+01 4.74020E+01 0.00000E+00
 -1       193 3.46500E+01 4.74020E+01 0.00000E+00
 -1       194 3.76500E+01 4.74020E+01 0.00000E+00
 -1       195 4.06500E+01 4.74020E+01 0.00000E+00
 -1       196 4.36500E+01 4.74020E+01 0.00000E+00
 -1       197 4.66500E+01 4.74020E+01 0.00000E+00
 -1       198 4.96500E+01 4.74020E+01 0.00000E+00
 -1       199 5.26500E+01 4.74020E+01 0.00000E+00
 -1       200 5.56500E+01 4.74020E+01 0.00000E+00
 -1       201 5.86500E+01 4.74020E+01 0.00000E+00
 -1       202 6.16500E+01 4.74020E+01 0.00000E+00
 -1       203 6.46500E+01 4.74020E+01 0.00000E+00
 -1       204 6.76500E+01 4.74020E+01 0.00000E+00
 -1       205 7.06500E+01 4.74020E+01 0.00000E+00
 -1       206 7.36500E+01 4.74020E+01 0.00000E+00
 -1       207 7.66500E+01 4.74020E+01 0.00000E+00
 -1       208 7.96500E+01 4.74020E+01 0.00000E+00
 -1       209 8.26500E+01 4.74020E+01 0.00000E+00
 -1       210 8.56500E+01 4.74020E+01 0.00000E+00
 -1       211 8.86500E+01 4.74020E+01 0.00000E+00
 -1       212 9.16500E+01 4.74020E+01 0.00000E+00
 -1       213 9.46500E+01 4.74020E+01 0.00000E+00
 -1       214 9.76500E+01 4.74020E+01 0.00000E+00
 -1       215 1.00650E+02 4.74020E+01 0.00000E+00
 -1       216 1.03650E+02 4.74020E+01 0.00000E+00
 -1       217 1.06650E+02 4.74020E+01 0.00000E+00
 -1       218 1.09650E+02 4.74020E+01 0.00000E+00
 -1       219 1.12650E+02 4.74020E+01 0.00000E+00
 -1       220 1.15650E+02 4.74020E+01 0.00000E+00
 -1       221 1.18650E+02 4.74020E+01 0.00000E+00
 -1       222 1.21650E+02 4.74020E+01 0.00000E+00
 -1       223 1.24650E+02 4.74020E+01 0.00000E+00
 -1       224 1.27650E+02 4.74020E+01 0.00000E+00
 -1       225 1.30650E+02 4.74020E+01 0.00000E+00
 -1       226 1.33650E+02 4.74020E+01 0.00000E+00
 -1       227 1.36650E+02 4.74020E+01 0.00000E+00
 -1       228 1.39650E+02 4.74020E+01 0.00000E+00
 -1       229 1.42650E+02 4.74020E+01 0.00000E+00
 -1       230 1.45650E+02 4.74020E+01 0.00000E+00
 -1       231 5.87400E+00 2.18750E+00 0.00000E+00
 -1       232 8.87400E+00 2.18750E+00 0.00000E+00
 -1       233 1.18740E+01 2.18750E+00 0.00000E+00
 -1       234 1.48740E+01 2.18750E+00 0.00000E+00
 -1       235 1.80240E+01 2.18750E+00 0.00000E+00
 -1       236 2.10240E+01 2.18750E+00 0.00000E+00
 -1       237 2.40240E+01 2.18750E+00 0.00000E+00
 -1       238 2.70240E+01 2.18750E+00 0.00000E+00
 -1       239 3.00240E+01 2.18750E+00 0.00000E+00
 -1       240 3.30240E+01 2.18750E+00 0.00000E+00
 -1       241 3.61740E+01 2.18750E+00 0.00000E+00
 -1       242 3.91740E+01 2.18750E+00 0.00000E+00
 -1       243 4.21740E+01 2.18750E+00 0.00000E+00
 -1       244 4.51740E+01 2.18750E+00 0.00000E+00
 -1       245 4.81740E+01 2.18750E+00 0.00000E+00
 -1       246 5.13240E+01 2.18750E+00 0.00000E+00
 -1       247 5.43240E+01 2.18750E+00 0.00000E+00
 -1       248 5.73240E+01 2.18750E+00 0.00000E+00
 -1       249 6.03240E+01 2.18750E+00 0.00000E+00
 -1       250 6.33240E+01 2.18750E+00 0.00000E+00
 -1       251 6.63240E+01 2.18750E+00 0.00000E+00
 -1       252 6.94740E+01 2.18750E+00 0.00000E+00
 -1       253 7.24740E+01 2.18750E+00 0.00000E+00
 -1       254 7.54740E+01 2.18750E+00 0.00000E+00
 -1       255 7.84740E+01 2.18750E+00 0.00000E+00
 -1       256 8.14740E+01 2.18750E+00 0.00000E+00
 -1       257 8.46240E+01 2.18750E+00 0.00000E+00
 -1       258 8.76240E+01 2.18750E+00 0.00000E+00
 -1       259 9.03240E+01 2.18750E+00 0.00000E+00
 -1       260 9.33240E+01 2.18750E+00 0.00000E+00
 -1       261 9.71250E+01 1.88268E+00 0.00000E+00
 -1       262 1.01175E+02 1.63132E+00 0.00000E+00
 -1       263 1.03275E+02 1.63132E+00 0.00000E+00
 -1       264 1.05225E+02 1.63132E+00 0.00000E+00
 -1       265 1.07475E+02 1.63132E+00 0.00000E+00
 -1       266 1.10025E+02 1.63132E+00 0.00000E+00
 -1       267 1.12725E+02 1.63132E+00 0.00000E+00
 -1       268 1.15875E+02 1.63132E+00 0.00000E+00
 -1       269 1.18875E+02 1.63132E+00 0.00000E+00
 -1       270 1.21875E+02 1.63132E+00 0.00000E+00
 -1       271 1.24875E+02 1.63132E+00 0.00000E+00
 -1       272 1.27875E+02 1.63132E+00 0.00000E+00
 -1       273 1.30875E+02 1.63132E+00 0.00000E+00
 -1       274 1.34025E+02 1.63132E+00 0.00000E+00
 -1       275 1.37025E+02 1.63132E+00 0.00000E+00
 -1       276 1.40025E+02 1.63132E+00 0.00000E+00
 -1       277 1.43025E+02 1.63132E+00 0.00000E+00
 -1       278 1.46025E+02 1.63132E+00 0.00000E+00
 -1       279 1.48012E+02 2.29066E+00 0.00000E+00
 -1       280 1.48012E+02 5.24066E+00 0.00000E+00
 -1       281 1.48012E+02 8.19066E+00 0.00000E+00
 -1       282 1.48012E+02 1.11407E+01 0.00000E+00
 -1       283 1.48012E+02 1.40907E+01 0.00000E+00
 -1       284 1.48012E+02 1.69907E+01 0.00000E+00
 -1       285 1.48012E+02 1.99407E+01 0.00000E+00
 -1       286 1.48012E+02 2.28907E+01 0.00000E+00
 -1       287 1.48012E+02 2.58407E+01 0.00000E+00
 -1       288 1.48012E+02 2.87907E+01 0.00000E+00
 -1       289 1.48012E+02 3.17407E+01 0.00000E+00
 -1       290 1.48012E+02 3.46407E+01 0.00000E+00
 -1       291 1.48012E+02 3.75907E+01 0.00000E+00
 -1       292 1.48012E+02 4.05407E+01 0.00000E+00
 -1       293 1.48012E+02 4.34907E+01 0.00000E+00
 -1       294 1.09112E+02 9.72982E+00 0.00000E+00
 -1       295 1.08843E+02 8.04515E+00 0.00000E+00
 -1       296 1.08142E+02 6.44280E+00 0.00000E+00
 -1       297 1.07110E+02 5.02217E+00 0.00000E+00
 -1       298 1.05798E+02 3.84326E+00 0.00000E+00
 -1       299 1.04248E+02 2.96897E+00 0.00000E+00
 -1       300 1.00600E+02 2.29526E+00 0.00000E+00
 -1       301 9.88240E+01 2.49261E+00 0.00000E+00
 -1       302 9.72369E+01 3.27388E+00 0.00000E+00
 -1       303 9.56818E+01 4.10604E+00 0.00000E+00
 -1       304 9.45680E+01 5.46512E+00 0.00000E+00
 -1       305 9.36693E+01 6.88062E+00 0.00000E+00
 -1       306 9.30603E+01 8.51661E+00 0.00000E+00
 -1       307 9.27271E+01 1.03057E+01 0.00000E+00
 -1       308 9.28718E+01 1.21217E+01 0.00000E+00
 -1       309 9.34434E+01 1.37309E+01 0.00000E+00
 -1       310 9.42608E+01 1.52049E+01 0.00000E+00
 -1       311 9.53061E+01 1.66599E+01 0.00000E+00
 -1       312 9.68035E+01 1.77614E+01 0.00000E+00
 -1       313 9.84686E+01 1.83304E+01 0.00000E+00
 -1       314 1.00071E+02 1.88389E+01 0.00000E+00
 -1       315 1.01712E+02 1.86935E+01 0.00000E+00
 -1       316 1.03264E+02 1.83975E+01 0.00000E+00
 -1       317 1.04815E+02 1.78594E+01 0.00000E+00
 -1       318 1.06116E+02 1.69097E+01 0.00000E+00
 -1       319 1.07235E+02 1.58104E+01 0.00000E+00
 -1       320 1.08133E+02 1.45052E+01 0.00000E+00
 -1       321 1.08765E+02 1.30374E+01 0.00000E+00
 -1       322 1.09270E+02 1.14224E+01 0.00000E+00
 -1       323 1.47402E+02 4.56250E+01 0.00000E+00
 -1       324 5.19600E+00 4.11500E+01 0.00000E+00
 -1       325 5.19600E+00 4.41000E+01 0.00000E+00
 -1       326 5.19600E+00 3.52750E+01 0.00000E+00
 -1       327 5.19600E+00 3.23250E+01 0.00000E+00
 -1       328 5.19600E+00 2.93750E+01 0.00000E+00
 -1       329 5.19600E+00 2.64250E+01 0.00000E+00
 -1       330 5.19600E+00 2.34750E+01 0.00000E+00
 -1       331 5.19600E+00 2.05250E+01 0.00000E+00
 -1       332 5.19600E+00 1.76250E+01 0.00000E+00
 -1       333 5.19600E+00 1.46750E+01 0.00000E+00
 -1       334 5.19600E+00 1.17250E+01 0.00000E+00
 -1       335 5.19600E+00 8.77500E+00 0.00000E+00
 -1       336 5.19600E+00 5.82500E+00 0.00000E+00
 -1       337 5.53500E+00 4.00625E+00 0.00000E+00
 -1       338 8.53500E+00 4.00625E+00 0.00000E+00
 -1       339 9.15000E+00 4.48040E+01 0.00000E+00
 -1       340 1.21500E+01 4.48040E+01 0.00000E+00
 -1       341 1.51500E+01 4.48040E+01 0.00000E+00
 -1       342 1.81500E+01 4.48040E+01 0.00000E+00
 -1       343 2.11500E+01 4.48040E+01 0.00000E+00
 -1       344 2.41500E+01 4.48040E+01 0.00000E+00
 -1       345 2.71500E+01 4.48040E+01 0.00000E+00
 -1       346 3.01500E+01 4.48040E+01 0.00000E+00
 -1       347 3.31500E+01 4.48040E+01 0.00000E+00
 -1       348 3.61500E+01 4.48040E+01 0.00000E+00
 -1       349 3.91500E+01 4.48040E+01 0.00000E+00
 -1       350 4.21500E+01 4.48040E+01 0.00000E+00
 -1       351 4.51500E+01 4.48040E+01 0.00000E+00
 -1       352 4.81500E+01 4.48040E+01 0.00000E+00
 -1       353 5.11500E+01 4.48040E+01 0.00000E+00
 -1       354 5.41500E+01 4.48040E+01 0.00000E+00
 -1       355 5.71500E+01 4.48040E+01 0.00000E+00
 -1       356 6.01500E+01 4.48040E+01 0.00000E+00
 -1       357 6.31500E+01 4.48040E+01 0.00000E+00
 -1       358 6.61500E+01 4.48040E+01 0.00000E+00
 -1       359 6.91500E+01 4.48040E+01 0.00000E+00
 -1       360 7.21500E+01 4.48040E+01 0.00000E+00
 -1       361 7.51500E+01 4.48040E+01 0.00000E+00
 -1       362 7.81500E+01 4.48040E+01 0.00000E+00
 -1       363 8.11500E+01 4.48040E+01 0.00000E+00
 -1       364 8.41500E+01 4.48040E+01 0.00000E+00
 -1       365 8.71500E+01 4.48040E+01 0.00000E+00
 -1       366 9.01500E+01 4.48040E+01 0.00000E+00
 -1       367 9.31500E+01 4.48040E+01 0.00000E+00
 -1       368 9.61500E+01 4.48040E+01 0.00000E+00
 -1       369 9.91500E+01 4.48040E+01 0.00000E+00
 -1       370 1.02150E+02 4.48040E+01 0.00000E+00
 -1       371 1.05150E+02 4.48040E+01 0.00000E+00
 -1       372 1.08150E+02 4.48040E+01 0.00000E+00
 -1       373 1.11150E+02 4.48040E+01 0.00000E+00
 -1       374 1.14150E+02 4.48040E+01 0.00000E+00
 -1       375 1.17150E+02 4.48040E+01 0.00000E+00
 -1       376 1.20150E+02 4.48040E+01 0.00000E+00
 -1       377 1.23150E+02 4.48040E+01 0.00000E+00
 -1       378 1.26150E+02 4.48040E+01 0.00000E+00
 -1       379 1.29150E+02 4.48040E+01 0.00000E+00
 -1       380 1.32150E+02 4.48040E+01 0.00000E+00
 -1       381 1.35150E+02 4.48040E+01 0.00000E+00
 -1       382 1.38150E+02 4.48040E+01 0.00000E+00
 -1       383 1.41150E+02 4.48040E+01 0.00000E+00
 -1       384 1.44150E+02 4.48040E+01 0.00000E+00
 -1       385 1.09757E+02 6.69086E+00 0.00000E+00
 -1       386 1.15350E+01 4.00625E+00 0.00000E+00
 -1       387 1.45350E+01 4.00625E+00 0.00000E+00
 -1       388 1.76850E+01 4.00625E+00 0.00000E+00
 -1       389 2.06850E+01 4.00625E+00 0.00000E+00
 -1       390 2.36850E+01 4.00625E+00 0.00000E+00
 -1       391 2.66850E+01 4.00625E+00 0.00000E+00
 -1       392 2.96850E+01 4.00625E+00 0.00000E+00
 -1       393 3.26850E+01 4.00625E+00 0.00000E+00
 -1       394 3.58350E+01 4.00625E+00 0.00000E+00
 -1       395 3.88350E+01 4.00625E+00 0.00000E+00
 -1       396 4.18350E+01 4.00625E+00 0.00000E+00
 -1       397 4.48350E+01 4.00625E+00 0.00000E+00
 -1       398 4.78350E+01 4.00625E+00 0.00000E+00
 -1       399 5.09850E+01 4.00625E+00 0.00000E+00
 -1       400 5.39850E+01 4.00625E+00 0.00000E+00
 -1       401 5.69850E+01 4.00625E+00 0.00000E+00
 -1       402 5.99850E+01 4.00625E+00 0.00000E+00
 -1       403 6.29850E+01 4.00625E+00 0.00000E+00
 -1       404 6.59850E+01 4.00625E+00 0.00000E+00
 -1       405 6.91350E+01 4.00625E+00 0.00000E+00
 -1       406 7.21350E+01 4.00625E+00 0.00000E+00
 -1       407 7.51350E+01 4.00625E+00 0.00000E+00
 -1       408 7.81350E+01 4.00625E+00 0.00000E+00
 -1       409 8.11350E+01 4.00625E+00 0.00000E+00
 -1       410 8.42850E+01 4.00625E+00 0.00000E+00
 -1       411 8.72850E+01 4.00625E+00 0.00000E+00
 -1       412 8.99850E+01 4.00625E+00 0.00000E+00
 -1       413 9.58535E+01 2.55138E+00 0.00000E+00
 -1       414 1.08750E+02 3.34644E+00 0.00000E+00
 -1       415 1.11375E+02 3.84915E+00 0.00000E+00
 -1       416 1.14525E+02 3.84915E+00 0.00000E+00
 -1       417 1.17525E+02 3.84915E+00 0.00000E+00
 -1       418 1.20525E+02 3.84915E+00 0.00000E+00
 -1       419 1.23525E+02 3.84915E+00 0.00000E+00
 -1       420 1.26525E+02 3.84915E+00 0.00000E+00
 -1       421 1.29525E+02 3.84915E+00 0.00000E+00
 -1       422 1.32675E+02 3.84915E+00 0.00000E+00
 -1       423 1.35675E+02 3.84915E+00 0.00000E+00
 -1       424 1.38675E+02 3.84915E+00 0.00000E+00
 -1       425 1.41675E+02 3.84915E+00 0.00000E+00
 -1       426 1.44675E+02 3.84915E+00 0.00000E+00
 -1       427 1.46344E+02 4.54490E+00 0.00000E+00
 -1       428 1.45415E+02 9.66566E+00 0.00000E+00
 -1       429 1.45879E+02 7.10528E+00 0.00000E+00
 -1       430 1.45415E+02 1.26157E+01 0.00000E+00
 -1       431 1.45415E+02 1.55157E+01 0.00000E+00
 -1       432 1.45415E+02 1.84657E+01 0.00000E+00
 -1       433 1.45415E+02 2.14157E+01 0.00000E+00
 -1       434 1.45415E+02 2.43657E+01 0.00000E+00
 -1       435 1.45415E+02 2.73157E+01 0.00000E+00
 -1       436 1.45415E+02 3.02657E+01 0.00000E+00
 -1       437 1.45415E+02 3.31657E+01 0.00000E+00
 -1       438 1.45415E+02 3.61157E+01 0.00000E+00
 -1       439 1.45415E+02 3.90657E+01 0.00000E+00
 -1       440 1.45415E+02 4.20157E+01 0.00000E+00
 -1       441 1.07320E+02 3.46870E+00 0.00000E+00
 -1       442 1.10732E+02 1.04319E+01 0.00000E+00
 -1       443 1.08878E+02 4.82285E+00 0.00000E+00
 -1       444 5.19600E+00 3.82125E+01 0.00000E+00
 -1       445 9.40576E+01 3.91086E+00 0.00000E+00
 -1       446 9.30244E+01 5.47809E+00 0.00000E+00
 -1       447 9.19930E+01 7.18799E+00 0.00000E+00
 -1       448 9.15370E+01 9.15854E+00 0.00000E+00
 -1       449 9.12568E+01 1.13366E+01 0.00000E+00
 -1       450 9.19362E+01 1.33602E+01 0.00000E+00
 -1       451 9.26452E+01 1.51371E+01 0.00000E+00
 -1       452 9.35266E+01 1.68353E+01 0.00000E+00
 -1       453 9.51874E+01 1.83897E+01 0.00000E+00
 -1       454 9.71086E+01 1.95896E+01 0.00000E+00
 -1       455 9.87109E+01 2.00981E+01 0.00000E+00
 -1       456 1.01006E+02 2.00573E+01 0.00000E+00
 -1       457 1.02731E+02 1.98188E+01 0.00000E+00
 -1       458 1.04492E+02 1.94322E+01 0.00000E+00
 -1       459 1.06279E+02 1.84992E+01 0.00000E+00
 -1       460 1.07584E+02 1.72846E+01 0.00000E+00
 -1       461 1.08821E+02 1.59399E+01 0.00000E+00
 -1       462 1.09639E+02 1.42837E+01 0.00000E+00
 -1       463 1.10494E+02 1.26923E+01 0.00000E+00
 -1       464 1.10463E+02 8.74727E+00 0.00000E+00
 -1       465 9.18240E+01 4.40532E+00 0.00000E+00
 -1       466 7.79400E+00 3.08500E+01 0.00000E+00
 -1       467 7.79400E+00 3.38000E+01 0.00000E+00
 -1       468 7.79400E+00 2.49500E+01 0.00000E+00
 -1       469 7.79400E+00 2.20000E+01 0.00000E+00
 -1       470 7.79400E+00 1.91000E+01 0.00000E+00
 -1       471 7.79400E+00 1.61500E+01 0.00000E+00
 -1       472 7.79400E+00 1.32000E+01 0.00000E+00
 -1       473 7.79400E+00 1.02500E+01 0.00000E+00
 -1       474 7.79400E+00 7.30000E+00 0.00000E+00
 -1       475 8.16450E+00 5.65312E+00 0.00000E+00
 -1       476 1.61100E+01 6.60425E+00 0.00000E+00
 -1       477 1.16025E+02 6.23454E+00 0.00000E+00
 -1       478 1.31100E+01 6.60425E+00 0.00000E+00
 -1       479 1.06500E+01 4.22060E+01 0.00000E+00
 -1       480 7.92300E+00 4.16780E+01 0.00000E+00
 -1       481 1.36500E+01 4.22060E+01 0.00000E+00
 -1       482 1.66500E+01 4.22060E+01 0.00000E+00
 -1       483 1.96500E+01 4.22060E+01 0.00000E+00
 -1       484 2.26500E+01 4.22060E+01 0.00000E+00
 -1       485 2.56500E+01 4.22060E+01 0.00000E+00
 -1       486 2.86500E+01 4.22060E+01 0.00000E+00
 -1       487 3.16500E+01 4.22060E+01 0.00000E+00
 -1       488 3.46500E+01 4.22060E+01 0.00000E+00
 -1       489 3.76500E+01 4.22060E+01 0.00000E+00
 -1       490 4.06500E+01 4.22060E+01 0.00000E+00
 -1       491 4.36500E+01 4.22060E+01 0.00000E+00
 -1       492 4.66500E+01 4.22060E+01 0.00000E+00
 -1       493 4.96500E+01 4.22060E+01 0.00000E+00
 -1       494 5.26500E+01 4.22060E+01 0.00000E+00
 -1       495 5.56500E+01 4.22060E+01 0.00000E+00
 -1       496 5.86500E+01 4.22060E+01 0.00000E+00
 -1       497 6.16500E+01 4.22060E+01 0.00000E+00
 -1       498 6.46500E+01 4.22060E+01 0.00000E+00
 -1       499 6.76500E+01 4.22060E+01 0.00000E+00
 -1       500 7.06500E+01 4.22060E+01 0.00000E+00
 -1       501 7.36500E+01 4.22060E+01 0.00000E+00
 -1       502 7.66500E+01 4.22060E+01 0.00000E+00
 -1       503 7.96500E+01 4.22060E+01 0.00000E+00
 -1       504 8.26500E+01 4.22060E+01 0.00000E+00
 -1       505 8.56500E+01 4.22060E+01 0.00000E+00
 -1       506 8.86500E+01 4.22060E+01 0.00000E+00
 -1       507 9.16500E+01 4.22060E+01 0.00000E+00
 -1       508 9.46500E+01 4.22060E+01 0.00000E+00
 -1       509 9.76500E+01 4.22060E+01 0.00000E+00
 -1       510 1.00650E+02 4.22060E+01 0.00000E+00
 -1       511 1.03650E+02 4.22060E+01 0.00000E+00
 -1       512 1.06650E+02 4.22060E+01 0.00000E+00
 -1       513 1.09650E+02 4.22060E+01 0.00000E+00
 -1       514 1.12650E+02 4.22060E+01 0.00000E+00
 -1       515 1.15650E+02 4.22060E+01 0.00000E+00
 -1       516 1.18650E+02 4.22060E+01 0.00000E+00
 -1       517 1.21650E+02 4.22060E+01 0.00000E+00
 -1       518 1.24650E+02 4.22060E+01 0.00000E+00
 -1       519 1.27650E+02 4.22060E+01 0.00000E+00
 -1       520 1.30650E+02 4.22060E+01 0.00000E+00
 -1       521 1.33650E+02 4.22060E+01 0.00000E+00
 -1       522 1.36650E+02 4.22060E+01 0.00000E+00
 -1       523 1.39650E+02 4.22060E+01 0.00000E+00
 -1       524 1.42532E+02 4.21108E+01 0.00000E+00
 -1       525 1.06372E+01 6.12869E+00 0.00000E+00
 -1       526 1.91100E+01 6.60425E+00 0.00000E+00
 -1       527 2.21100E+01 6.60425E+00 0.00000E+00
 -1       528 2.51100E+01 6.60425E+00 0.00000E+00
 -1       529 2.81100E+01 6.60425E+00 0.00000E+00
 -1       530 3.11100E+01 6.60425E+00 0.00000E+00
 -1       531 3.42600E+01 6.60425E+00 0.00000E+00
 -1       532 3.72600E+01 6.60425E+00 0.00000E+00
 -1       533 4.02600E+01 6.60425E+00 0.00000E+00
 -1       534 4.32600E+01 6.60425E+00 0.00000E+00
 -1       535 4.62600E+01 6.60425E+00 0.00000E+00
 -1       536 4.94100E+01 6.60425E+00 0.00000E+00
 -1       537 5.24100E+01 6.60425E+00 0.00000E+00
 -1       538 5.54100E+01 6.60425E+00 0.00000E+00
 -1       539 5.84100E+01 6.60425E+00 0.00000E+00
 -1       540 6.14100E+01 6.60425E+00 0.00000E+00
 -1       541 6.44100E+01 6.60425E+00 0.00000E+00
 -1       542 6.75600E+01 6.60425E+00 0.00000E+00
 -1       543 7.05600E+01 6.60425E+00 0.00000E+00
 -1       544 7.35600E+01 6.60425E+00 0.00000E+00
 -1       545 7.65600E+01 6.60425E+00 0.00000E+00
 -1       546 7.95600E+01 6.60425E+00 0.00000E+00
 -1       547 8.27100E+01 6.60425E+00 0.00000E+00
 -1       548 8.57100E+01 6.60425E+00 0.00000E+00
 -1       549 8.86350E+01 5.88893E+00 0.00000E+00
 -1       550 1.11430E+02 1.42204E+01 0.00000E+00
 -1       551 1.12652E+02 1.17765E+01 0.00000E+00
 -1       552 1.12950E+02 6.23454E+00 0.00000E+00
 -1       553 1.22025E+02 6.44715E+00 0.00000E+00
 -1       554 1.25025E+02 6.44715E+00 0.00000E+00
 -1       555 1.28025E+02 6.44715E+00 0.00000E+00
 -1       556 1.31175E+02 6.44715E+00 0.00000E+00
 -1       557 1.34175E+02 6.44715E+00 0.00000E+00
 -1       558 1.37175E+02 6.44715E+00 0.00000E+00
 -1       559 1.40175E+02 6.44715E+00 0.00000E+00
 -1       560 1.44210E+02 6.40952E+00 0.00000E+00
 -1       561 1.42816E+02 1.40657E+01 0.00000E+00
 -1       562 1.42816E+02 1.70157E+01 0.00000E+00
 -1       563 1.42816E+02 1.11157E+01 0.00000E+00
 -1       564 1.42816E+02 1.99657E+01 0.00000E+00
 -1       565 1.42816E+02 2.29157E+01 0.00000E+00
 -1       566 1.42816E+02 2.58657E+01 0.00000E+00
 -1       567 1.42816E+02 2.88157E+01 0.00000E+00
 -1       568 1.42816E+02 3.17157E+01 0.00000E+00
 -1       569 1.42816E+02 3.46657E+01 0.00000E+00
 -1       570 1.42816E+02 3.76157E+01 0.00000E+00
 -1       571 1.42674E+02 3.98632E+01 0.00000E+00
 -1       572 9.02573E+01 7.82443E+00 0.00000E+00
 -1       573 9.52838E+01 2.03733E+01 0.00000E+00
 -1       574 1.19025E+02 6.44715E+00 0.00000E+00
 -1       575 7.79400E+00 2.79000E+01 0.00000E+00
 -1       576 9.08297E+01 5.68351E+00 0.00000E+00
 -1       577 1.11494E+02 7.24362E+00 0.00000E+00
 -1       578 1.02069E+02 2.13880E+01 0.00000E+00
 -1       579 8.96958E+01 1.00287E+01 0.00000E+00
 -1       580 9.01294E+01 1.28410E+01 0.00000E+00
 -1       581 9.06977E+01 1.48843E+01 0.00000E+00
 -1       582 9.15791E+01 1.65825E+01 0.00000E+00
 -1       583 9.31850E+01 1.88647E+01 0.00000E+00
 -1       584 9.73402E+01 2.16383E+01 0.00000E+00
 -1       585 9.98889E+01 2.17926E+01 0.00000E+00
 -1       586 1.03830E+02 2.10015E+01 0.00000E+00
 -1       587 1.06102E+02 2.03376E+01 0.00000E+00
 -1       588 1.08214E+02 1.92700E+01 0.00000E+00
 -1       589 1.09451E+02 1.79253E+01 0.00000E+00
 -1       590 1.10612E+02 1.58766E+01 0.00000E+00
 -1       591 1.12291E+02 9.31920E+00 0.00000E+00
 -1       592 7.79400E+00 3.67375E+01 0.00000E+00
 -1       593 1.42849E+02 8.12208E+00 0.00000E+00
 -1       594 8.85684E+01 1.15330E+01 0.00000E+00
 -1       595 1.03920E+01 2.05500E+01 0.00000E+00
 -1       596 1.03920E+01 2.35000E+01 0.00000E+00
 -1       597 1.03920E+01 1.46750E+01 0.00000E+00
 -1       598 1.03920E+01 1.17250E+01 0.00000E+00
 -1       599 2.06100E+01 9.20225E+00 0.00000E+00
 -1       600 2.36100E+01 9.20225E+00 0.00000E+00
 -1       601 1.76100E+01 9.20225E+00 0.00000E+00
 -1       602 1.21500E+01 3.96080E+01 0.00000E+00
 -1       603 1.29600E+02 9.04515E+00 0.00000E+00
 -1       604 1.51500E+01 3.96080E+01 0.00000E+00
 -1       605 1.81500E+01 3.96080E+01 0.00000E+00
 -1       606 2.11500E+01 3.96080E+01 0.00000E+00
 -1       607 2.41500E+01 3.96080E+01 0.00000E+00
 -1       608 2.71500E+01 3.96080E+01 0.00000E+00
 -1       609 3.01500E+01 3.96080E+01 0.00000E+00
 -1       610 3.31500E+01 3.96080E+01 0.00000E+00
 -1       611 3.61500E+01 3.96080E+01 0.00000E+00
 -1       612 3.91500E+01 3.96080E+01 0.00000E+00
 -1       613 4.21500E+01 3.96080E+01 0.00000E+00
 -1       614 4.51500E+01 3.96080E+01 0.00000E+00
 -1       615 4.81500E+01 3.96080E+01 0.00000E+00
 -1       616 5.11500E+01 3.96080E+01 0.00000E+00
 -1       617 5.41500E+01 3.96080E+01 0.00000E+00
 -1       618 5.71500E+01 3.96080E+01 0.00000E+00
 -1       619 6.01500E+01 3.96080E+01 0.00000E+00
 -1       620 6.31500E+01 3.96080E+01 0.00000E+00
 -1       621 6.61500E+01 3.96080E+01 0.00000E+00
 -1       622 6.91500E+01 3.96080E+01 0.00000E+00
 -1       623 7.21500E+01 3.96080E+01 0.00000E+00
 -1       624 7.51500E+01 3.96080E+01 0.00000E+00
 -1       625 7.81500E+01 3.96080E+01 0.00000E+00
 -1       626 8.11500E+01 3.96080E+01 0.00000E+00
 -1       627 8.41500E+01 3.96080E+01 0.00000E+00
 -1       628 8.71500E+01 3.96080E+01 0.00000E+00
 -1       629 9.01500E+01 3.96080E+01 0.00000E+00
 -1       630 9.31500E+01 3.96080E+01 0.00000E+00
 -1       631 9.61500E+01 3.96080E+01 0.00000E+00
 -1       632 9.91500E+01 3.96080E+01 0.00000E+00
 -1       633 1.02150E+02 3.96080E+01 0.00000E+00
 -1       634 1.05150E+02 3.96080E+01 0.00000E+00
 -1       635 1.08150E+02 3.96080E+01 0.00000E+00
 -1       636 1.11150E+02 3.96080E+01 0.00000E+00
 -1       637 1.14150E+02 3.96080E+01 0.00000E+00
 -1       638 1.17150E+02 3.96080E+01 0.00000E+00
 -1       639 1.20150E+02 3.96080E+01 0.00000E+00
 -1       640 1.23150E+02 3.96080E+01 0.00000E+00
 -1       641 1.26150E+02 3.96080E+01 0.00000E+00
 -1       642 1.29150E+02 3.96080E+01 0.00000E+00
 -1       643 1.32150E+02 3.96080E+01 0.00000E+00
 -1       644 1.35150E+02 3.96080E+01 0.00000E+00
 -1       645 1.38150E+02 3.96080E+01 0.00000E+00
 -1       646 1.40412E+02 3.97356E+01 0.00000E+00
 -1       647 1.26600E+02 9.04515E+00 0.00000E+00
 -1       648 8.76993E+01 8.40093E+00 0.00000E+00
 -1       649 2.66100E+01 9.20225E+00 0.00000E+00
 -1       650 2.96100E+01 9.20225E+00 0.00000E+00
 -1       651 3.27600E+01 9.20225E+00 0.00000E+00
 -1       652 3.57600E+01 9.20225E+00 0.00000E+00
 -1       653 3.87600E+01 9.20225E+00 0.00000E+00
 -1       654 4.17600E+01 9.20225E+00 0.00000E+00
 -1       655 4.47600E+01 9.20225E+00 0.00000E+00
 -1       656 4.79100E+01 9.20225E+00 0.00000E+00
 -1       657 5.09100E+01 9.20225E+00 0.00000E+00
 -1       658 5.39100E+01 9.20225E+00 0.00000E+00
 -1       659 5.69100E+01 9.20225E+00 0.00000E+00
 -1       660 5.99100E+01 9.20225E+00 0.00000E+00
 -1       661 6.29100E+01 9.20225E+00 0.00000E+00
 -1       662 6.60600E+01 9.20225E+00 0.00000E+00
 -1       663 6.90600E+01 9.20225E+00 0.00000E+00
 -1       664 7.20600E+01 9.20225E+00 0.00000E+00
 -1       665 7.50600E+01 9.20225E+00 0.00000E+00
 -1       666 7.80600E+01 9.20225E+00 0.00000E+00
 -1       667 8.12100E+01 9.20225E+00 0.00000E+00
 -1       668 8.42100E+01 9.20225E+00 0.00000E+00
 -1       669 1.13575E+02 1.37655E+01 0.00000E+00
 -1       670 1.14500E+02 1.02498E+01 0.00000E+00
 -1       671 9.51500E+01 2.28948E+01 0.00000E+00
 -1       672 1.23600E+02 9.04515E+00 0.00000E+00
 -1       673 1.32600E+02 9.04515E+00 0.00000E+00
 -1       674 1.35600E+02 9.04515E+00 0.00000E+00
 -1       675 1.38600E+02 9.04515E+00 0.00000E+00
 -1       676 1.40235E+02 9.59036E+00 0.00000E+00
 -1       677 1.40219E+02 1.55407E+01 0.00000E+00
 -1       678 1.40219E+02 1.25907E+01 0.00000E+00
 -1       679 1.40219E+02 1.84907E+01 0.00000E+00
 -1       680 1.40219E+02 2.43907E+01 0.00000E+00
 -1       681 1.40219E+02 2.73407E+01 0.00000E+00
 -1       682 1.40219E+02 3.02407E+01 0.00000E+00
 -1       683 1.40219E+02 3.31907E+01 0.00000E+00
 -1       684 1.40219E+02 3.61407E+01 0.00000E+00
 -1       685 1.20600E+02 9.04515E+00 0.00000E+00
 -1       686 1.17356E+02 8.72027E+00 0.00000E+00
 -1       687 1.05447E+02 2.23158E+01 0.00000E+00
 -1       688 1.14488E+02 8.28479E+00 0.00000E+00
 -1       689 1.40219E+02 2.14407E+01 0.00000E+00
 -1       690 1.46100E+01 9.20225E+00 0.00000E+00
 -1       691 8.88419E+01 1.42998E+01 0.00000E+00
 -1       692 1.03920E+01 1.76125E+01 0.00000E+00
 -1       693 1.03920E+01 3.23250E+01 0.00000E+00
 -1       694 1.01292E+02 2.32766E+01 0.00000E+00
 -1       695 8.96161E+01 1.65235E+01 0.00000E+00
 -1       696 1.07931E+02 2.13346E+01 0.00000E+00
 -1       697 1.11961E+02 1.79940E+01 0.00000E+00
 -1       698 9.09794E+01 1.87106E+01 0.00000E+00
 -1       699 9.84907E+01 2.37620E+01 0.00000E+00
 -1       700 1.03053E+02 2.28901E+01 0.00000E+00
 -1       701 1.10724E+02 1.93388E+01 0.00000E+00
 -1       702 1.12768E+02 1.58798E+01 0.00000E+00
 -1       703 9.30511E+01 2.13863E+01 0.00000E+00
 -1       704 1.03920E+01 2.64500E+01 0.00000E+00
 -1       705 1.04520E+01 8.42712E+00 0.00000E+00
 -1       706 9.78035E+00 3.93914E+01 0.00000E+00
 -1       707 9.08455E+01 2.12321E+01 0.00000E+00
 -1       708 1.15423E+02 1.22388E+01 0.00000E+00
 -1       709 1.03920E+01 3.52625E+01 0.00000E+00
 -1       710 1.03920E+01 2.93875E+01 0.00000E+00
 -1       711 1.10441E+02 2.14034E+01 0.00000E+00
 -1       712 1.29900E+01 1.32000E+01 0.00000E+00
 -1       713 2.81100E+01 1.18003E+01 0.00000E+00
 -1       714 2.21100E+01 1.18003E+01 0.00000E+00
 -1       715 1.91100E+01 1.18003E+01 0.00000E+00
 -1       716 1.00213E+02 2.53743E+01 0.00000E+00
 -1       717 1.66500E+01 3.70100E+01 0.00000E+00
 -1       718 1.96500E+01 3.70100E+01 0.00000E+00
 -1       719 2.26500E+01 3.70100E+01 0.00000E+00
 -1       720 2.56500E+01 3.70100E+01 0.00000E+00
 -1       721 2.86500E+01 3.70100E+01 0.00000E+00
 -1       722 3.16500E+01 3.70100E+01 0.00000E+00
 -1       723 3.46500E+01 3.70100E+01 0.00000E+00
 -1       724 3.76500E+01 3.70100E+01 0.00000E+00
 -1       725 4.06500E+01 3.70100E+01 0.00000E+00
 -1       726 4.36500E+01 3.70100E+01 0.00000E+00
 -1       727 4.66500E+01 3.70100E+01 0.00000E+00
 -1       728 4.96500E+01 3.70100E+01 0.00000E+00
 -1       729 5.26500E+01 3.70100E+01 0.00000E+00
 -1       730 5.56500E+01 3.70100E+01 0.00000E+00
 -1       731 5.86500E+01 3.70100E+01 0.00000E+00
 -1       732 6.16500E+01 3.70100E+01 0.00000E+00
 -1       733 6.46500E+01 3.70100E+01 0.00000E+00
 -1       734 6.76500E+01 3.70100E+01 0.00000E+00
 -1       735 7.06500E+01 3.70100E+01 0.00000E+00
 -1       736 7.36500E+01 3.70100E+01 0.00000E+00
 -1       737 7.66500E+01 3.70100E+01 0.00000E+00
 -1       738 7.96500E+01 3.70100E+01 0.00000E+00
 -1       739 8.26500E+01 3.70100E+01 0.00000E+00
 -1       740 8.56500E+01 3.70100E+01 0.00000E+00
 -1       741 8.86500E+01 3.70100E+01 0.00000E+00
 -1       742 9.16500E+01 3.70100E+01 0.00000E+00
 -1       743 9.46500E+01 3.70100E+01 0.00000E+00
 -1       744 9.76500E+01 3.70100E+01 0.00000E+00
 -1       745 1.00650E+02 3.70100E+01 0.00000E+00
 -1       746 1.03650E+02 3.70100E+01 0.00000E+00
 -1       747 1.06650E+02 3.70100E+01 0.00000E+00
 -1       748 1.09650E+02 3.70100E+01 0.00000E+00
 -1       749 1.12650E+02 3.70100E+01 0.00000E+00
 -1       750 1.15650E+02 3.70100E+01 0.00000E+00
 -1       751 1.18650E+02 3.70100E+01 0.00000E+00
 -1       752 1.21650E+02 3.70100E+01 0.00000E+00
 -1       753 1.24650E+02 3.70100E+01 0.00000E+00
 -1       754 1.27650E+02 3.70100E+01 0.00000E+00
 -1       755 1.30650E+02 3.70100E+01 0.00000E+00
 -1       756 1.33650E+02 3.70100E+01 0.00000E+00
 -1       757 1.36650E+02 3.70100E+01 0.00000E+00
 -1       758 3.12600E+01 1.18003E+01 0.00000E+00
 -1       759 1.38583E+02 1.20454E+01 0.00000E+00
 -1       760 2.51100E+01 1.18003E+01 0.00000E+00
 -1       761 3.42600E+01 1.18003E+01 0.00000E+00
 -1       762 3.72600E+01 1.18003E+01 0.00000E+00
 -1       763 4.02600E+01 1.18003E+01 0.00000E+00
 -1       764 4.32600E+01 1.18003E+01 0.00000E+00
 -1       765 4.64100E+01 1.18003E+01 0.00000E+00
 -1       766 4.94100E+01 1.18003E+01 0.00000E+00
 -1       767 5.24100E+01 1.18003E+01 0.00000E+00
 -1       768 5.54100E+01 1.18003E+01 0.00000E+00
 -1       769 5.84100E+01 1.18003E+01 0.00000E+00
 -1       770 6.14100E+01 1.18003E+01 0.00000E+00
 -1       771 6.45600E+01 1.18003E+01 0.00000E+00
 -1       772 6.75600E+01 1.18003E+01 0.00000E+00
 -1       773 7.05600E+01 1.18003E+01 0.00000E+00
 -1       774 7.35600E+01 1.18003E+01 0.00000E+00
 -1       775 7.65600E+01 1.18003E+01 0.00000E+00
 -1       776 7.97100E+01 1.18003E+01 0.00000E+00
 -1       777 8.27100E+01 1.18003E+01 0.00000E+00
 -1       778 1.38583E+02 1.49954E+01 0.00000E+00
 -1       779 1.38583E+02 1.79454E+01 0.00000E+00
 -1       780 1.61100E+01 1.18003E+01 0.00000E+00
 -1       781 1.37620E+02 2.87907E+01 0.00000E+00
 -1       782 1.37620E+02 2.58407E+01 0.00000E+00
 -1       783 1.37620E+02 3.46657E+01 0.00000E+00
 -1       784 1.22100E+02 1.16431E+01 0.00000E+00
 -1       785 1.28100E+02 1.16431E+01 0.00000E+00
 -1       786 1.12017E+01 3.69125E+01 0.00000E+00
 -1       787 9.27083E+01 2.40775E+01 0.00000E+00
 -1       788 1.18724E+02 1.14230E+01 0.00000E+00
 -1       789 1.25100E+02 1.16431E+01 0.00000E+00
 -1       790 8.74020E+01 1.08038E+01 0.00000E+00
 -1       791 1.37620E+02 3.17282E+01 0.00000E+00
 -1       792 8.87001E+01 1.86129E+01 0.00000E+00
 -1       793 8.71345E+01 1.61409E+01 0.00000E+00
 -1       794 1.31100E+02 1.16431E+01 0.00000E+00
 -1       795 8.68611E+01 1.33741E+01 0.00000E+00
 -1       796 1.07381E+02 2.35763E+01 0.00000E+00
 -1       797 1.39258E+01 3.69612E+01 0.00000E+00
 -1       798 1.34100E+02 1.16431E+01 0.00000E+00
 -1       799 9.62631E+01 2.54751E+01 0.00000E+00
 -1       800 1.01974E+02 2.49878E+01 0.00000E+00
 -1       801 1.13255E+02 2.04251E+01 0.00000E+00
 -1       802 1.29900E+01 2.20250E+01 0.00000E+00
 -1       803 1.04689E+02 2.44337E+01 0.00000E+00
 -1       804 1.29900E+01 3.08563E+01 0.00000E+00
 -1       805 1.15698E+02 1.44536E+01 0.00000E+00
 -1       806 1.14891E+02 1.65679E+01 0.00000E+00
 -1       807 1.29900E+01 3.37938E+01 0.00000E+00
 -1       808 1.38583E+02 2.08954E+01 0.00000E+00
 -1       809 1.09891E+02 2.36451E+01 0.00000E+00
 -1       810 9.79851E+01 2.70874E+01 0.00000E+00
 -1       811 1.38102E+02 2.33681E+01 0.00000E+00
 -1       812 1.29900E+01 1.61375E+01 0.00000E+00
 -1       813 1.29900E+01 1.90812E+01 0.00000E+00
 -1       814 1.29900E+01 2.49750E+01 0.00000E+00
 -1       815 1.14073E+02 1.84965E+01 0.00000E+00
 -1       816 2.66100E+01 1.43982E+01 0.00000E+00
 -1       817 1.12704E+02 2.26668E+01 0.00000E+00
 -1       818 2.11500E+01 3.44120E+01 0.00000E+00
 -1       819 2.41500E+01 3.44120E+01 0.00000E+00
 -1       820 2.71500E+01 3.44120E+01 0.00000E+00
 -1       821 3.01500E+01 3.44120E+01 0.00000E+00
 -1       822 3.31500E+01 3.44120E+01 0.00000E+00
 -1       823 3.61500E+01 3.44120E+01 0.00000E+00
 -1       824 3.91500E+01 3.44120E+01 0.00000E+00
 -1       825 4.21500E+01 3.44120E+01 0.00000E+00
 -1       826 4.51500E+01 3.44120E+01 0.00000E+00
 -1       827 4.81500E+01 3.44120E+01 0.00000E+00
 -1       828 5.11500E+01 3.44120E+01 0.00000E+00
 -1       829 5.41500E+01 3.44120E+01 0.00000E+00
 -1       830 5.71500E+01 3.44120E+01 0.00000E+00
 -1       831 6.01500E+01 3.44120E+01 0.00000E+00
 -1       832 6.31500E+01 3.44120E+01 0.00000E+00
 -1       833 6.61500E+01 3.44120E+01 0.00000E+00
 -1       834 6.91500E+01 3.44120E+01 0.00000E+00
 -1       835 7.21500E+01 3.44120E+01 0.00000E+00
 -1       836 7.51500E+01 3.44120E+01 0.00000E+00
 -1       837 7.81500E+01 3.44120E+01 0.00000E+00
 -1       838 8.11500E+01 3.44120E+01 0.00000E+00
 -1       839 8.41500E+01 3.44120E+01 0.00000E+00
 -1       840 8.71500E+01 3.44120E+01 0.00000E+00
 -1       841 9.01500E+01 3.44120E+01 0.00000E+00
 -1       842 9.31500E+01 3.44120E+01 0.00000E+00
 -1       843 9.61500E+01 3.44120E+01 0.00000E+00
 -1       844 9.91500E+01 3.44120E+01 0.00000E+00
 -1       845 1.02150E+02 3.44120E+01 0.00000E+00
 -1       846 1.05150E+02 3.44120E+01 0.00000E+00
 -1       847 1.08150E+02 3.44120E+01 0.00000E+00
 -1       848 1.11150E+02 3.44120E+01 0.00000E+00
 -1       849 1.14150E+02 3.44120E+01 0.00000E+00
 -1       850 1.17150E+02 3.44120E+01 0.00000E+00
 -1       851 1.20150E+02 3.44120E+01 0.00000E+00
 -1       852 1.23150E+02 3.44120E+01 0.00000E+00
 -1       853 1.26150E+02 3.44120E+01 0.00000E+00
 -1       854 1.29150E+02 3.44120E+01 0.00000E+00
 -1       855 1.32150E+02 3.44120E+01 0.00000E+00
 -1       856 1.34885E+02 3.45388E+01 0.00000E+00
 -1       857 3.57600E+01 1.43982E+01 0.00000E+00
 -1       858 3.87600E+01 1.43982E+01 0.00000E+00
 -1       859 4.17600E+01 1.43982E+01 0.00000E+00
 -1       860 4.49100E+01 1.43982E+01 0.00000E+00
 -1       861 4.79100E+01 1.43982E+01 0.00000E+00
 -1       862 5.09100E+01 1.43982E+01 0.00000E+00
 -1       863 5.39100E+01 1.43982E+01 0.00000E+00
 -1       864 5.69100E+01 1.43982E+01 0.00000E+00
 -1       865 5.99100E+01 1.43982E+01 0.00000E+00
 -1       866 6.30600E+01 1.43982E+01 0.00000E+00
 -1       867 6.60600E+01 1.43982E+01 0.00000E+00
 -1       868 6.90600E+01 1.43982E+01 0.00000E+00
 -1       869 7.20600E+01 1.43982E+01 0.00000E+00
 -1       870 7.50600E+01 1.43982E+01 0.00000E+00
 -1       871 7.82100E+01 1.43982E+01 0.00000E+00
 -1       872 8.12100E+01 1.43982E+01 0.00000E+00
 -1       873 1.61100E+01 1.47378E+01 0.00000E+00
 -1       874 1.35023E+02 2.73157E+01 0.00000E+00
 -1       875 1.29900E+01 2.79188E+01 0.00000E+00
 -1       876 2.36100E+01 1.43982E+01 0.00000E+00
 -1       877 1.03842E+02 2.72122E+01 0.00000E+00
 -1       878 1.20246E+02 1.40806E+01 0.00000E+00
 -1       879 9.35352E+01 2.71941E+01 0.00000E+00
 -1       880 1.32600E+02 1.42411E+01 0.00000E+00
 -1       881 8.80571E+01 2.13279E+01 0.00000E+00
 -1       882 8.60436E+01 1.85635E+01 0.00000E+00
 -1       883 1.23600E+02 1.42411E+01 0.00000E+00
 -1       884 1.06533E+02 2.63548E+01 0.00000E+00
 -1       885 8.97812E+01 2.39614E+01 0.00000E+00
 -1       886 1.81500E+01 3.44120E+01 0.00000E+00
 -1       887 1.35592E+02 1.46183E+01 0.00000E+00
 -1       888 2.06100E+01 1.43982E+01 0.00000E+00
 -1       889 3.27600E+01 1.43982E+01 0.00000E+00
 -1       890 8.43768E+01 1.51819E+01 0.00000E+00
 -1       891 2.96850E+01 1.43982E+01 0.00000E+00
 -1       892 1.26600E+02 1.42411E+01 0.00000E+00
 -1       893 1.35592E+02 1.75683E+01 0.00000E+00
 -1       894 1.00913E+02 2.71498E+01 0.00000E+00
 -1       895 1.29600E+02 1.42411E+01 0.00000E+00
 -1       896 1.34579E+01 3.53775E+01 0.00000E+00
 -1       897 1.17972E+02 1.42671E+01 0.00000E+00
 -1       898 1.17165E+02 1.63814E+01 0.00000E+00
 -1       899 1.55880E+01 3.23250E+01 0.00000E+00
 -1       900 1.35023E+02 3.02532E+01 0.00000E+00
 -1       901 1.35039E+02 2.43189E+01 0.00000E+00
 -1       902 1.55880E+01 2.93875E+01 0.00000E+00
 -1       903 9.06080E+01 2.70780E+01 0.00000E+00
 -1       904 1.09043E+02 2.64235E+01 0.00000E+00
 -1       905 1.35592E+02 2.05183E+01 0.00000E+00
 -1       906 9.52571E+01 2.88065E+01 0.00000E+00
 -1       907 1.55880E+01 2.35000E+01 0.00000E+00
 -1       908 1.15502E+02 2.21660E+01 0.00000E+00
 -1       909 1.16321E+02 2.02373E+01 0.00000E+00
 -1       910 1.55880E+01 2.05562E+01 0.00000E+00
 -1       911 1.12150E+02 2.56099E+01 0.00000E+00
 -1       912 1.32600E+02 1.71911E+01 0.00000E+00
 -1       913 1.21801E+02 1.67109E+01 0.00000E+00
 -1       914 2.56500E+01 3.18140E+01 0.00000E+00
 -1       915 2.86500E+01 3.18140E+01 0.00000E+00
 -1       916 3.16500E+01 3.18140E+01 0.00000E+00
 -1       917 3.46500E+01 3.18140E+01 0.00000E+00
 -1       918 3.76500E+01 3.18140E+01 0.00000E+00
 -1       919 4.06500E+01 3.18140E+01 0.00000E+00
 -1       920 4.36500E+01 3.18140E+01 0.00000E+00
 -1       921 4.66500E+01 3.18140E+01 0.00000E+00
 -1       922 4.96500E+01 3.18140E+01 0.00000E+00
 -1       923 5.26500E+01 3.18140E+01 0.00000E+00
 -1       924 5.56500E+01 3.18140E+01 0.00000E+00
 -1       925 5.86500E+01 3.18140E+01 0.00000E+00
 -1       926 6.16500E+01 3.18140E+01 0.00000E+00
 -1       927 6.46500E+01 3.18140E+01 0.00000E+00
 -1       928 6.76500E+01 3.18140E+01 0.00000E+00
 -1       929 7.06500E+01 3.18140E+01 0.00000E+00
 -1       930 7.36500E+01 3.18140E+01 0.00000E+00
 -1       931 7.66500E+01 3.18140E+01 0.00000E+00
 -1       932 7.96500E+01 3.18140E+01 0.00000E+00
 -1       933 8.26500E+01 3.18140E+01 0.00000E+00
 -1       934 8.56500E+01 3.18140E+01 0.00000E+00
 -1       935 8.86500E+01 3.18140E+01 0.00000E+00
 -1       936 9.16500E+01 3.18140E+01 0.00000E+00
 -1       937 9.46500E+01 3.18140E+01 0.00000E+00
 -1       938 9.76500E+01 3.18140E+01 0.00000E+00
 -1       939 1.00650E+02 3.18140E+01 0.00000E+00
 -1       940 1.03650E+02 3.18140E+01 0.00000E+00
 -1       941 1.06650E+02 3.18140E+01 0.00000E+00
 -1       942 1.09650E+02 3.18140E+01 0.00000E+00
 -1       943 1.12650E+02 3.18140E+01 0.00000E+00
 -1       944 1.15650E+02 3.18140E+01 0.00000E+00
 -1       945 1.18650E+02 3.18140E+01 0.00000E+00
 -1       946 1.21650E+02 3.18140E+01 0.00000E+00
 -1       947 1.24650E+02 3.18140E+01 0.00000E+00
 -1       948 1.27650E+02 3.18140E+01 0.00000E+00
 -1       949 1.30650E+02 3.18140E+01 0.00000E+00
 -1       950 4.33350E+01 1.69963E+01 0.00000E+00
 -1       951 3.72600E+01 1.69963E+01 0.00000E+00
 -1       952 1.55880E+01 2.64438E+01 0.00000E+00
 -1       953 4.63350E+01 1.69963E+01 0.00000E+00
 -1       954 4.93350E+01 1.69963E+01 0.00000E+00
 -1       955 5.23350E+01 1.69963E+01 0.00000E+00
 -1       956 5.53350E+01 1.69963E+01 0.00000E+00
 -1       957 5.83350E+01 1.69963E+01 0.00000E+00
 -1       958 6.14850E+01 1.69963E+01 0.00000E+00
 -1       959 6.44850E+01 1.69963E+01 0.00000E+00
 -1       960 6.74850E+01 1.69963E+01 0.00000E+00
 -1       961 7.04850E+01 1.69963E+01 0.00000E+00
 -1       962 7.34850E+01 1.69963E+01 0.00000E+00
 -1       963 7.66350E+01 1.69963E+01 0.00000E+00
 -1       964 7.96350E+01 1.69963E+01 0.00000E+00
 -1       965 1.32433E+02 2.58031E+01 0.00000E+00
 -1       966 8.28018E+01 1.77799E+01 0.00000E+00
 -1       967 2.51100E+01 1.69963E+01 0.00000E+00
 -1       968 1.85554E+01 1.71586E+01 0.00000E+00
 -1       969 8.51222E+01 2.13501E+01 0.00000E+00
 -1       970 8.68463E+01 2.39836E+01 0.00000E+00
 -1       971 1.05861E+02 2.88967E+01 0.00000E+00
 -1       972 1.96500E+01 3.18140E+01 0.00000E+00
 -1       973 1.25100E+02 1.68391E+01 0.00000E+00
 -1       974 3.42600E+01 1.69963E+01 0.00000E+00
 -1       975 1.58490E+01 1.76470E+01 0.00000E+00
 -1       976 1.19483E+02 1.65462E+01 0.00000E+00
 -1       977 2.21100E+01 1.69963E+01 0.00000E+00
 -1       978 1.14949E+02 2.51090E+01 0.00000E+00
 -1       979 2.26500E+01 3.18140E+01 0.00000E+00
 -1       980 1.16743E+02 1.83094E+01 0.00000E+00
 -1       981 4.02600E+01 1.69963E+01 0.00000E+00
 -1       982 1.32450E+02 2.28035E+01 0.00000E+00
 -1       983 1.28100E+02 1.68391E+01 0.00000E+00
 -1       984 9.26204E+01 2.98968E+01 0.00000E+00
 -1       985 2.81850E+01 1.69963E+01 0.00000E+00
 -1       986 1.08371E+02 2.89654E+01 0.00000E+00
 -1       987 9.93985E+01 2.95035E+01 0.00000E+00
 -1       988 1.81860E+01 2.20281E+01 0.00000E+00
 -1       989 8.76731E+01 2.71002E+01 0.00000E+00
 -1       990 1.17779E+02 2.41177E+01 0.00000E+00
 -1       991 1.81860E+01 2.49719E+01 0.00000E+00
 -1       992 1.02630E+02 2.92001E+01 0.00000E+00
 -1       993 1.18597E+02 2.21891E+01 0.00000E+00
 -1       994 3.12225E+01 1.69963E+01 0.00000E+00
 -1       995 1.31541E+02 2.88086E+01 0.00000E+00
 -1       996 4.78350E+01 1.95942E+01 0.00000E+00
 -1       997 2.36100E+01 1.95942E+01 0.00000E+00
 -1       998 5.08350E+01 1.95942E+01 0.00000E+00
 -1       999 3.01500E+01 2.92160E+01 0.00000E+00
 -1      1000 3.31500E+01 2.92160E+01 0.00000E+00
 -1      1001 3.61500E+01 2.92160E+01 0.00000E+00
 -1      1002 3.91500E+01 2.92160E+01 0.00000E+00
 -1      1003 4.21500E+01 2.92160E+01 0.00000E+00
 -1      1004 4.51500E+01 2.92160E+01 0.00000E+00
 -1      1005 4.81500E+01 2.92160E+01 0.00000E+00
 -1      1006 5.11500E+01 2.92160E+01 0.00000E+00
 -1      1007 5.41500E+01 2.92160E+01 0.00000E+00
 -1      1008 5.71500E+01 2.92160E+01 0.00000E+00
 -1      1009 6.01500E+01 2.92160E+01 0.00000E+00
 -1      1010 6.31500E+01 2.92160E+01 0.00000E+00
 -1      1011 6.61500E+01 2.92160E+01 0.00000E+00
 -1      1012 6.91500E+01 2.92160E+01 0.00000E+00
 -1      1013 7.21500E+01 2.92160E+01 0.00000E+00
 -1      1014 7.51500E+01 2.92160E+01 0.00000E+00
 -1      1015 7.81500E+01 2.92160E+01 0.00000E+00
 -1      1016 8.11500E+01 2.92160E+01 0.00000E+00
 -1      1017 8.41500E+01 2.92160E+01 0.00000E+00
 -1      1018 1.14150E+02 2.92160E+01 0.00000E+00
 -1      1019 1.17150E+02 2.92160E+01 0.00000E+00
 -1      1020 1.20150E+02 2.92160E+01 0.00000E+00
 -1      1021 1.23150E+02 2.92160E+01 0.00000E+00
 -1      1022 1.26150E+02 2.92160E+01 0.00000E+00
 -1      1023 1.28846E+02 2.90123E+01 0.00000E+00
 -1      1024 4.17975E+01 1.95942E+01 0.00000E+00
 -1      1025 1.29843E+02 2.42883E+01 0.00000E+00
 -1      1026 1.81860E+01 2.79156E+01 0.00000E+00
 -1      1027 1.83707E+01 1.95934E+01 0.00000E+00
 -1      1028 5.38350E+01 1.95942E+01 0.00000E+00
 -1      1029 5.68350E+01 1.95942E+01 0.00000E+00
 -1      1030 5.99850E+01 1.95942E+01 0.00000E+00
 -1      1031 6.29850E+01 1.95942E+01 0.00000E+00
 -1      1032 6.59850E+01 1.95942E+01 0.00000E+00
 -1      1033 6.89850E+01 1.95942E+01 0.00000E+00
 -1      1034 7.19850E+01 1.95942E+01 0.00000E+00
 -1      1035 7.51350E+01 1.95942E+01 0.00000E+00
 -1      1036 7.81350E+01 1.95942E+01 0.00000E+00
 -1      1037 8.13018E+01 2.03779E+01 0.00000E+00
 -1      1038 2.71500E+01 2.92160E+01 0.00000E+00
 -1      1039 1.11260E+02 2.90907E+01 0.00000E+00
 -1      1040 4.48350E+01 1.95942E+01 0.00000E+00
 -1      1041 8.38106E+01 2.40899E+01 0.00000E+00
 -1      1042 3.87975E+01 1.95942E+01 0.00000E+00
 -1      1043 3.57975E+01 1.95942E+01 0.00000E+00
 -1      1044 1.23350E+02 1.93711E+01 0.00000E+00
 -1      1045 2.09904E+01 1.95938E+01 0.00000E+00
 -1      1046 2.41500E+01 2.92160E+01 0.00000E+00
 -1      1047 1.28972E+02 2.05637E+01 0.00000E+00
 -1      1048 2.11680E+01 2.85658E+01 0.00000E+00
 -1      1049 1.19019E+02 2.02611E+01 0.00000E+00
 -1      1050 3.27600E+01 1.95942E+01 0.00000E+00
 -1      1051 2.66850E+01 1.95942E+01 0.00000E+00
 -1      1052 1.26161E+02 1.99674E+01 0.00000E+00
 -1      1053 1.21032E+02 1.92063E+01 0.00000E+00
 -1      1054 8.39803E+01 2.66529E+01 0.00000E+00
 -1      1055 1.29345E+02 2.66503E+01 0.00000E+00
 -1      1056 2.08056E+01 2.20286E+01 0.00000E+00
 -1      1057 1.20580E+02 2.41680E+01 0.00000E+00
 -1      1058 2.56500E+01 2.66180E+01 0.00000E+00
 -1      1059 2.11680E+01 2.56221E+01 0.00000E+00
 -1      1060 4.93350E+01 2.21922E+01 0.00000E+00
 -1      1061 3.46500E+01 2.66180E+01 0.00000E+00
 -1      1062 3.76500E+01 2.66180E+01 0.00000E+00
 -1      1063 4.06500E+01 2.66180E+01 0.00000E+00
 -1      1064 4.36500E+01 2.66180E+01 0.00000E+00
 -1      1065 4.66500E+01 2.66180E+01 0.00000E+00
 -1      1066 4.96500E+01 2.66180E+01 0.00000E+00
 -1      1067 5.26500E+01 2.66180E+01 0.00000E+00
 -1      1068 5.56500E+01 2.66180E+01 0.00000E+00
 -1      1069 5.86500E+01 2.66180E+01 0.00000E+00
 -1      1070 6.16500E+01 2.66180E+01 0.00000E+00
 -1      1071 6.46500E+01 2.66180E+01 0.00000E+00
 -1      1072 6.76500E+01 2.66180E+01 0.00000E+00
 -1      1073 7.06500E+01 2.66180E+01 0.00000E+00
 -1      1074 7.36500E+01 2.66180E+01 0.00000E+00
 -1      1075 7.66500E+01 2.66180E+01 0.00000E+00
 -1      1076 7.96500E+01 2.66180E+01 0.00000E+00
 -1      1077 1.21650E+02 2.66180E+01 0.00000E+00
 -1      1078 1.24650E+02 2.66180E+01 0.00000E+00
 -1      1079 8.04037E+01 2.36887E+01 0.00000E+00
 -1      1080 6.14850E+01 2.21922E+01 0.00000E+00
 -1      1081 6.44850E+01 2.21922E+01 0.00000E+00
 -1      1082 6.74850E+01 2.21922E+01 0.00000E+00
 -1      1083 7.04850E+01 2.21922E+01 0.00000E+00
 -1      1084 7.36350E+01 2.21922E+01 0.00000E+00
 -1      1085 7.66350E+01 2.21922E+01 0.00000E+00
 -1      1086 2.86500E+01 2.66180E+01 0.00000E+00
 -1      1087 4.63350E+01 2.21922E+01 0.00000E+00
 -1      1088 4.02975E+01 2.21922E+01 0.00000E+00
 -1      1089 3.72975E+01 2.21922E+01 0.00000E+00
 -1      1090 5.23350E+01 2.21922E+01 0.00000E+00
 -1      1091 5.83350E+01 2.21922E+01 0.00000E+00
 -1      1092 2.97225E+01 1.95942E+01 0.00000E+00
 -1      1093 3.16500E+01 2.66180E+01 0.00000E+00
 -1      1094 1.21002E+02 2.22400E+01 0.00000E+00
 -1      1095 5.53350E+01 2.21922E+01 0.00000E+00
 -1      1096 4.33162E+01 2.21922E+01 0.00000E+00
 -1      1097 2.51475E+01 2.21922E+01 0.00000E+00
 -1      1098 1.23150E+02 2.40200E+01 0.00000E+00
 -1      1099 2.29766E+01 2.21104E+01 0.00000E+00
 -1      1100 3.42600E+01 2.21922E+01 0.00000E+00
 -1      1101 1.26997E+02 2.66341E+01 0.00000E+00
 -1      1102 2.34090E+01 2.61200E+01 0.00000E+00
 -1      1103 1.24216E+02 2.22107E+01 0.00000E+00
 -1      1104 1.27496E+02 2.42721E+01 0.00000E+00
 -1      1105 2.81850E+01 2.21922E+01 0.00000E+00
 -1      1106 3.31500E+01 2.40200E+01 0.00000E+00
 -1      1107 3.12225E+01 2.21922E+01 0.00000E+00
 -1      1108 0.00000E+00 4.85250E+01 0.00000E+00
 -1      1109 0.00000E+00 4.55750E+01 0.00000E+00
 -1      1110 0.00000E+00 4.26250E+01 0.00000E+00
 -1      1111 0.00000E+00 3.96750E+01 0.00000E+00
 -1      1112 0.00000E+00 3.67250E+01 0.00000E+00
 -1      1113 0.00000E+00 3.38000E+01 0.00000E+00
 -1      1114 0.00000E+00 3.08750E+01 0.00000E+00
 -1      1115 0.00000E+00 2.79250E+01 0.00000E+00
 -1      1116 0.00000E+00 2.49750E+01 0.00000E+00
 -1      1117 0.00000E+00 2.20250E+01 0.00000E+00
 -1      1118 0.00000E+00 1.90750E+01 0.00000E+00
 -1      1119 0.00000E+00 1.61500E+01 0.00000E+00
 -1      1120 0.00000E+00 1.32250E+01 0.00000E+00
 -1      1121 0.00000E+00 1.02750E+01 0.00000E+00
 -1      1122 0.00000E+00 7.32500E+00 0.00000E+00
 -1      1123 0.00000E+00 4.37500E+00 0.00000E+00
 -1      1124 0.00000E+00 1.45000E+00 0.00000E+00
 -1      1125 1.57500E+00 5.00000E+01 0.00000E+00
 -1      1126 4.65000E+00 5.00000E+01 0.00000E+00
 -1      1127 7.65000E+00 5.00000E+01 0.00000E+00
 -1      1128 1.06500E+01 5.00000E+01 0.00000E+00
 -1      1129 1.36500E+01 5.00000E+01 0.00000E+00
 -1      1130 1.66500E+01 5.00000E+01 0.00000E+00
 -1      1131 1.96500E+01 5.00000E+01 0.00000E+00
 -1      1132 2.26500E+01 5.00000E+01 0.00000E+00
 -1      1133 2.56500E+01 5.00000E+01 0.00000E+00
 -1      1134 2.86500E+01 5.00000E+01 0.00000E+00
 -1      1135 3.16500E+01 5.00000E+01 0.00000E+00
 -1      1136 3.46500E+01 5.00000E+01 0.00000E+00
 -1      1137 3.76500E+01 5.00000E+01 0.00000E+00
 -1      1138 4.06500E+01 5.00000E+01 0.00000E+00
 -1      1139 4.36500E+01 5.00000E+01 0.00000E+00
 -1      1140 4.66500E+01 5.00000E+01 0.00000E+00
 -1      1141 4.96500E+01 5.00000E+01 0.00000E+00
 -1      1142 5.26500E+01 5.00000E+01 0.00000E+00
 -1      1143 5.56500E+01 5.00000E+01 0.00000E+00
 -1      1144 5.86500E+01 5.00000E+01 0.00000E+00
 -1      1145 6.16500E+01 5.00000E+01 0.00000E+00
 -1      1146 6.46500E+01 5.00000E+01 0.00000E+00
 -1      1147 6.76500E+01 5.00000E+01 0.00000E+00
 -1      1148 7.06500E+01 5.00000E+01 0.00000E+00
 -1      1149 7.36500E+01 5.00000E+01 0.00000E+00
 -1      1150 7.66500E+01 5.00000E+01 0.00000E+00
 -1      1151 7.96500E+01 5.00000E+01 0.00000E+00
 -1      1152 8.26500E+01 5.00000E+01 0.00000E+00
 -1      1153 8.56500E+01 5.00000E+01 0.00000E+00
 -1      1154 8.86500E+01 5.00000E+01 0.00000E+00
 -1      1155 9.16500E+01 5.00000E+01 0.00000E+00
 -1      1156 9.46500E+01 5.00000E+01 0.00000E+00
 -1      1157 9.76500E+01 5.00000E+01 0.00000E+00
 -1      1158 1.00650E+02 5.00000E+01 0.00000E+00
 -1      1159 1.03650E+02 5.00000E+01 0.00000E+00
 -1      1160 1.06650E+02 5.00000E+01 0.00000E+00
 -1      1161 1.09650E+02 5.00000E+01 0.00000E+00
 -1      1162 1.12650E+02 5.00000E+01 0.00000E+00
 -1      1163 1.15650E+02 5.00000E+01 0.00000E+00
 -1      1164 1.18650E+02 5.00000E+01 0.00000E+00
 -1      1165 1.21650E+02 5.00000E+01 0.00000E+00
 -1      1166 1.24650E+02 5.00000E+01 0.00000E+00
 -1      1167 1.27650E+02 5.00000E+01 0.00000E+00
 -1      1168 1.30650E+02 5.00000E+01 0.00000E+00
 -1      1169 1.33650E+02 5.00000E+01 0.00000E+00
 -1      1170 1.36650E+02 5.00000E+01 0.00000E+00
 -1      1171 1.39650E+02 5.00000E+01 0.00000E+00
 -1      1172 1.42650E+02 5.00000E+01 0.00000E+00
 -1      1173 1.45650E+02 5.00000E+01 0.00000E+00
 -1      1174 1.48575E+02 5.00000E+01 0.00000E+00
 -1      1175 1.57500E+00 0.00000E+00 0.00000E+00
 -1      1176 4.65000E+00 0.00000E+00 0.00000E+00
 -1      1177 7.65000E+00 0.00000E+00 0.00000E+00
 -1      1178 1.06500E+01 0.00000E+00 0.00000E+00
 -1      1179 1.36500E+01 0.00000E+00 0.00000E+00
 -1      1180 1.67250E+01 0.00000E+00 0.00000E+00
 -1      1181 1.98000E+01 0.00000E+00 0.00000E+00
 -1      1182 2.28000E+01 0.00000E+00 0.00000E+00
 -1      1183 2.58000E+01 0.00000E+00 0.00000E+00
 -1      1184 2.88000E+01 0.00000E+00 0.00000E+00
 -1      1185 3.18000E+01 0.00000E+00 0.00000E+00
 -1      1186 3.48750E+01 0.00000E+00 0.00000E+00
 -1      1187 3.79500E+01 0.00000E+00 0.00000E+00
 -1      1188 4.09500E+01 0.00000E+00 0.00000E+00
 -1      1189 4.39500E+01 0.00000E+00 0.00000E+00
 -1      1190 4.69500E+01 0.00000E+00 0.00000E+00
 -1      1191 5.00250E+01 0.00000E+00 0.00000E+00
 -1      1192 5.31000E+01 0.00000E+00 0.00000E+00
 -1      1193 5.61000E+01 0.00000E+00 0.00000E+00
 -1      1194 5.91000E+01 0.00000E+00 0.00000E+00
 -1      1195 6.21000E+01 0.00000E+00 0.00000E+00
 -1      1196 6.51000E+01 0.00000E+00 0.00000E+00
 -1      1197 6.81750E+01 0.00000E+00 0.00000E+00
 -1      1198 7.12500E+01 0.00000E+00 0.00000E+00
 -1      1199 7.42500E+01 0.00000E+00 0.00000E+00
 -1      1200 7.72500E+01 0.00000E+00 0.00000E+00
 -1      1201 8.02500E+01 0.00000E+00 0.00000E+00
 -1      1202 8.33250E+01 0.00000E+00 0.00000E+00
 -1      1203 8.64000E+01 0.00000E+00 0.00000E+00
 -1      1204 8.92500E+01 0.00000E+00 0.00000E+00
 -1      1205 9.21000E+01 0.00000E+00 0.00000E+00
 -1      1206 9.48000E+01 0.00000E+00 0.00000E+00
 -1      1207 9.71250E+01 0.00000E+00 0.00000E+00
 -1      1208 9.92250E+01 0.00000E+00 0.00000E+00
 -1      1209 1.01175E+02 0.00000E+00 0.00000E+00
 -1      1210 1.03200E+02 0.00000E+00 0.00000E+00
 -1      1211 1.05225E+02 0.00000E+00 0.00000E+00
 -1      1212 1.07325E+02 0.00000E+00 0.00000E+00
 -1      1213 1.09725E+02 0.00000E+00 0.00000E+00
 -1      1214 1.12350E+02 0.00000E+00 0.00000E+00
 -1      1215 1.15275E+02 0.00000E+00 0.00000E+00
 -1      1216 1.18350E+02 0.00000E+00 0.00000E+00
 -1      1217 1.21350E+02 0.00000E+00 0.00000E+00
 -1      1218 1.24350E+02 0.00000E+00 0.00000E+00
 -1      1219 1.27350E+02 0.00000E+00 0.00000E+00
 -1      1220 1.30350E+02 0.00000E+00 0.00000E+00
 -1      1221 1.33425E+02 0.00000E+00 0.00000E+00
 -1      1222 1.36500E+02 0.00000E+00 0.00000E+00
 -1      1223 1.39500E+02 0.00000E+00 0.00000E+00
 -1      1224 1.42500E+02 0.00000E+00 0.00000E+00
 -1      1225 1.45500E+02 0.00000E+00 0.00000E+00
 -1      1226 1.48500E+02 0.00000E+00 0.00000E+00
 -1      1227 1.50000E+02 1.47500E+00 0.00000E+00
 -1      1228 1.50000E+02 4.42500E+00 0.00000E+00
 -1      1229 1.50000E+02 7.37500E+00 0.00000E+00
 -1      1230 1.50000E+02 1.03250E+01 0.00000E+00
 -1      1231 1.50000E+02 1.32750E+01 0.00000E+00
 -1      1232 1.50000E+02 1.62000E+01 0.00000E+00
 -1      1233 1.50000E+02 1.91250E+01 0.00000E+00
 -1      1234 1.50000E+02 2.20750E+01 0.00000E+00
 -1      1235 1.50000E+02 2.50250E+01 0.00000E+00
 -1      1236 1.50000E+02 2.79750E+01 0.00000E+00
 -1      1237 1.50000E+02 3.09250E+01 0.00000E+00
 -1      1238 1.50000E+02 3.38500E+01 0.00000E+00
 -1      1239 1.50000E+02 3.67750E+01 0.00000E+00
 -1      1240 1.50000E+02 3.97250E+01 0.00000E+00
 -1      1241 1.50000E+02 4.26750E+01 0.00000E+00
 -1      1242 1.50000E+02 4.56250E+01 0.00000E+00
 -1      1243 1.50000E+02 4.85500E+01 0.00000E+00
 -1      1244 1.07940E+02 9.84731E+00 0.00000E+00
 -1      1245 1.07646E+02 8.42547E+00 0.00000E+00
 -1      1246 1.07050E+02 7.06788E+00 0.00000E+00
 -1      1247 1.06177E+02 5.86186E+00 0.00000E+00
 -1      1248 1.05064E+02 4.86391E+00 0.00000E+00
 -1      1249 1.03751E+02 4.11958E+00 0.00000E+00
 -1      1250 1.02210E+02 3.65555E+00 0.00000E+00
 -1      1251 1.00658E+02 3.55306E+00 0.00000E+00
 -1      1252 9.91687E+01 3.78297E+00 0.00000E+00
 -1      1253 9.77748E+01 4.32030E+00 0.00000E+00
 -1      1254 9.65303E+01 5.13823E+00 0.00000E+00
 -1      1255 9.54904E+01 6.19653E+00 0.00000E+00
 -1      1256 9.47184E+01 7.40696E+00 0.00000E+00
 -1      1257 9.41945E+01 8.80740E+00 0.00000E+00
 -1      1258 9.39782E+01 1.03422E+01 0.00000E+00
 -1      1259 9.41039E+01 1.18821E+01 0.00000E+00
 -1      1260 9.45280E+01 1.32722E+01 0.00000E+00
 -1      1261 9.52241E+01 1.45365E+01 0.00000E+00
 -1      1262 9.62157E+01 1.56788E+01 0.00000E+00
 -1      1263 9.74716E+01 1.66059E+01 0.00000E+00
 -1      1264 9.88297E+01 1.72089E+01 0.00000E+00
 -1      1265 1.00216E+02 1.75046E+01 0.00000E+00
 -1      1266 1.01606E+02 1.75174E+01 0.00000E+00
 -1      1267 1.02934E+02 1.72662E+01 0.00000E+00
 -1      1268 1.04229E+02 1.67436E+01 0.00000E+00
 -1      1269 1.05374E+02 1.59911E+01 0.00000E+00
 -1      1270 1.06332E+02 1.50514E+01 0.00000E+00
 -1      1271 1.07101E+02 1.39342E+01 0.00000E+00
 -1      1272 1.07642E+02 1.26785E+01 0.00000E+00
 -1      1273 1.07936E+02 1.12815E+01 0.00000E+00
 -1      1274 1.57500E+00 4.85250E+01 0.00000E+00
 -1      1275 1.29900E+00 4.48375E+01 0.00000E+00
 -1      1276 1.29900E+00 4.63125E+01 0.00000E+00
 -1      1277 1.29900E+00 4.18875E+01 0.00000E+00
 -1      1278 1.29900E+00 4.33625E+01 0.00000E+00
 -1      1279 2.59800E+00 4.41000E+01 0.00000E+00
 -1      1280 1.29900E+00 3.89375E+01 0.00000E+00
 -1      1281 1.29900E+00 4.04125E+01 0.00000E+00
 -1      1282 2.59800E+00 4.11500E+01 0.00000E+00
 -1      1283 1.29900E+00 3.59875E+01 0.00000E+00
 -1      1284 1.29900E+00 3.74625E+01 0.00000E+00
 -1      1285 2.59800E+00 3.82000E+01 0.00000E+00
 -1      1286 1.29900E+00 3.30875E+01 0.00000E+00
 -1      1287 1.29900E+00 3.45375E+01 0.00000E+00
 -1      1288 2.59800E+00 3.52750E+01 0.00000E+00
 -1      1289 1.29900E+00 3.01375E+01 0.00000E+00
 -1      1290 1.29900E+00 3.16125E+01 0.00000E+00
 -1      1291 2.59800E+00 3.23500E+01 0.00000E+00
 -1      1292 1.29900E+00 2.71875E+01 0.00000E+00
 -1      1293 1.29900E+00 2.86625E+01 0.00000E+00
 -1      1294 2.59800E+00 2.94000E+01 0.00000E+00
 -1      1295 1.29900E+00 2.42375E+01 0.00000E+00
 -1      1296 1.29900E+00 2.57125E+01 0.00000E+00
 -1      1297 2.59800E+00 2.64500E+01 0.00000E+00
 -1      1298 1.29900E+00 2.12875E+01 0.00000E+00
 -1      1299 1.29900E+00 2.27625E+01 0.00000E+00
 -1      1300 2.59800E+00 2.35000E+01 0.00000E+00
 -1      1301 1.29900E+00 1.83375E+01 0.00000E+00
 -1      1302 1.29900E+00 1.98125E+01 0.00000E+00
 -1      1303 2.59800E+00 2.05500E+01 0.00000E+00
 -1      1304 1.29900E+00 1.54375E+01 0.00000E+00
 -1      1305 1.29900E+00 1.68875E+01 0.00000E+00
 -1      1306 2.59800E+00 1.76250E+01 0.00000E+00
 -1      1307 1.29900E+00 1.24875E+01 0.00000E+00
 -1      1308 1.29900E+00 1.39625E+01 0.00000E+00
 -1      1309 2.59800E+00 1.47000E+01 0.00000E+00
 -1      1310 1.29900E+00 9.53750E+00 0.00000E+00
 -1      1311 1.29900E+00 1.10125E+01 0.00000E+00
 -1      1312 2.59800E+00 1.17500E+01 0.00000E+00
 -1      1313 1.29900E+00 6.58750E+00 0.00000E+00
 -1      1314 1.29900E+00 8.06250E+00 0.00000E+00
 -1      1315 2.59800E+00 8.80000E+00 0.00000E+00
 -1      1316 1.29900E+00 3.63750E+00 0.00000E+00
 -1      1317 1.29900E+00 5.11250E+00 0.00000E+00
 -1      1318 2.59800E+00 5.85000E+00 0.00000E+00
 -1      1319 1.43700E+00 1.09375E+00 0.00000E+00
 -1      1320 1.43700E+00 2.54375E+00 0.00000E+00
 -1      1321 2.73600E+00 3.28125E+00 0.00000E+00
 -1      1322 3.01200E+00 1.09375E+00 0.00000E+00
 -1      1323 3.90000E+00 4.87010E+01 0.00000E+00
 -1      1324 5.40000E+00 4.87010E+01 0.00000E+00
 -1      1325 6.90000E+00 4.87010E+01 0.00000E+00
 -1      1326 8.40000E+00 4.87010E+01 0.00000E+00
 -1      1327 6.15000E+00 4.74020E+01 0.00000E+00
 -1      1328 9.90000E+00 4.87010E+01 0.00000E+00
 -1      1329 1.14000E+01 4.87010E+01 0.00000E+00
 -1      1330 9.15000E+00 4.74020E+01 0.00000E+00
 -1      1331 1.29000E+01 4.87010E+01 0.00000E+00
 -1      1332 1.44000E+01 4.87010E+01 0.00000E+00
 -1      1333 1.21500E+01 4.74020E+01 0.00000E+00
 -1      1334 1.59000E+01 4.87010E+01 0.00000E+00
 -1      1335 1.74000E+01 4.87010E+01 0.00000E+00
 -1      1336 1.51500E+01 4.74020E+01 0.00000E+00
 -1      1337 1.89000E+01 4.87010E+01 0.00000E+00
 -1      1338 2.04000E+01 4.87010E+01 0.00000E+00
 -1      1339 1.81500E+01 4.74020E+01 0.00000E+00
 -1      1340 2.19000E+01 4.87010E+01 0.00000E+00
 -1      1341 2.34000E+01 4.87010E+01 0.00000E+00
 -1      1342 2.11500E+01 4.74020E+01 0.00000E+00
 -1      1343 2.49000E+01 4.87010E+01 0.00000E+00
 -1      1344 2.64000E+01 4.87010E+01 0.00000E+00
 -1      1345 2.41500E+01 4.74020E+01 0.00000E+00
 -1      1346 2.79000E+01 4.87010E+01 0.00000E+00
 -1      1347 2.94000E+01 4.87010E+01 0.00000E+00
 -1      1348 2.71500E+01 4.74020E+01 0.00000E+00
 -1      1349 3.09000E+01 4.87010E+01 0.00000E+00
 -1      1350 3.24000E+01 4.87010E+01 0.00000E+00
 -1      1351 3.01500E+01 4.74020E+01 0.00000E+00
 -1      1352 3.39000E+01 4.87010E+01 0.00000E+00
 -1      1353 3.54000E+01 4.87010E+01 0.00000E+00
 -1      1354 3.31500E+01 4.74020E+01 0.00000E+00
 -1      1355 3.69000E+01 4.87010E+01 0.00000E+00
 -1      1356 3.84000E+01 4.87010E+01 0.00000E+00
 -1      1357 3.61500E+01 4.74020E+01 0.00000E+00
 -1      1358 3.99000E+01 4.87010E+01 0.00000E+00
 -1      1359 4.14000E+01 4.87010E+01 0.00000E+00
 -1      1360 3.91500E+01 4.74020E+01 0.00000E+00
 -1      1361 4.29000E+01 4.87010E+01 0.00000E+00
 -1      1362 4.44000E+01 4.87010E+01 0.00000E+00
 -1      1363 4.21500E+01 4.74020E+01 0.00000E+00
 -1      1364 4.59000E+01 4.87010E+01 0.00000E+00
 -1      1365 4.74000E+01 4.87010E+01 0.00000E+00
 -1      1366 4.51500E+01 4.74020E+01 0.00000E+00
 -1      1367 4.89000E+01 4.87010E+01 0.00000E+00
 -1      1368 5.04000E+01 4.87010E+01 0.00000E+00
 -1      1369 4.81500E+01 4.74020E+01 0.00000E+00
 -1      1370 5.19000E+01 4.87010E+01 0.00000E+00
 -1      1371 5.34000E+01 4.87010E+01 0.00000E+00
 -1      1372 5.11500E+01 4.74020E+01 0.00000E+00
 -1      1373 5.49000E+01 4.87010E+01 0.00000E+00
 -1      1374 5.64000E+01 4.87010E+01 0.00000E+00
 -1      1375 5.41500E+01 4.74020E+01 0.00000E+00
 -1      1376 5.79000E+01 4.87010E+01 0.00000E+00
 -1      1377 5.94000E+01 4.87010E+01 0.00000E+00
 -1      1378 5.71500E+01 4.74020E+01 0.00000E+00
 -1      1379 6.09000E+01 4.87010E+01 0.00000E+00
 -1      1380 6.24000E+01 4.87010E+01 0.00000E+00
 -1      1381 6.01500E+01 4.74020E+01 0.00000E+00
 -1      1382 6.39000E+01 4.87010E+01 0.00000E+00
 -1      1383 6.54000E+01 4.87010E+01 0.00000E+00
 -1      1384 6.31500E+01 4.74020E+01 0.00000E+00
 -1      1385 6.69000E+01 4.87010E+01 0.00000E+00
 -1      1386 6.84000E+01 4.87010E+01 0.00000E+00
 -1      1387 6.61500E+01 4.74020E+01 0.00000E+00
 -1      1388 6.99000E+01 4.87010E+01 0.00000E+00
 -1      1389 7.14000E+01 4.87010E+01 0.00000E+00
 -1      1390 6.91500E+01 4.74020E+01 0.00000E+00
 -1      1391 7.29000E+01 4.87010E+01 0.00000E+00
 -1      1392 7.44000E+01 4.87010E+01 0.00000E+00
 -1      1393 7.21500E+01 4.74020E+01 0.00000E+00
 -1      1394 7.59000E+01 4.87010E+01 0.00000E+00
 -1      1395 7.74000E+01 4.87010E+01 0.00000E+00
 -1      1396 7.51500E+01 4.74020E+01 0.00000E+00
 -1      1397 7.89000E+01 4.87010E+01 0.00000E+00
 -1      1398 8.04000E+01 4.87010E+01 0.00000E+00
 -1      1399 7.81500E+01 4.74020E+01 0.00000E+00
 -1      1400 8.19000E+01 4.87010E+01 0.00000E+00
 -1      1401 8.34000E+01 4.87010E+01 0.00000E+00
 -1      1402 8.11500E+01 4.74020E+01 0.00000E+00
 -1      1403 8.49000E+01 4.87010E+01 0.00000E+00
 -1      1404 8.64000E+01 4.87010E+01 0.00000E+00
 -1      1405 8.41500E+01 4.74020E+01 0.00000E+00
 -1      1406 8.79000E+01 4.87010E+01 0.00000E+00
 -1      1407 8.94000E+01 4.87010E+01 0.00000E+00
 -1      1408 8.71500E+01 4.74020E+01 0.00000E+00
 -1      1409 9.09000E+01 4.87010E+01 0.00000E+00
 -1      1410 9.24000E+01 4.87010E+01 0.00000E+00
 -1      1411 9.01500E+01 4.74020E+01 0.00000E+00
 -1      1412 9.39000E+01 4.87010E+01 0.00000E+00
 -1      1413 9.54000E+01 4.87010E+01 0.00000E+00
 -1      1414 9.31500E+01 4.74020E+01 0.00000E+00
 -1      1415 9.69000E+01 4.87010E+01 0.00000E+00
 -1      1416 9.84000E+01 4.87010E+01 0.00000E+00
 -1      1417 9.61500E+01 4.74020E+01 0.00000E+00
 -1      1418 9.99000E+01 4.87010E+01 0.00000E+00
 -1      1419 1.01400E+02 4.87010E+01 0.00000E+00
 -1      1420 9.91500E+01 4.74020E+01 0.00000E+00
 -1      1421 1.02900E+02 4.87010E+01 0.00000E+00
 -1      1422 1.04400E+02 4.87010E+01 0.00000E+00
 -1      1423 1.02150E+02 4.74020E+01 0.00000E+00
 -1      1424 1.05900E+02 4.87010E+01 0.00000E+00
 -1      1425 1.07400E+02 4.87010E+01 0.00000E+00
 -1      1426 1.05150E+02 4.74020E+01 0.00000E+00
 -1      1427 1.08900E+02 4.87010E+01 0.00000E+00
 -1      1428 1.10400E+02 4.87010E+01 0.00000E+00
 -1      1429 1.08150E+02 4.74020E+01 0.00000E+00
 -1      1430 1.11900E+02 4.87010E+01 0.00000E+00
 -1      1431 1.13400E+02 4.87010E+01 0.00000E+00
 -1      1432 1.11150E+02 4.74020E+01 0.00000E+00
 -1      1433 1.14900E+02 4.87010E+01 0.00000E+00
 -1      1434 1.16400E+02 4.87010E+01 0.00000E+00
 -1      1435 1.14150E+02 4.74020E+01 0.00000E+00
 -1      1436 1.17900E+02 4.87010E+01 0.00000E+00
 -1      1437 1.19400E+02 4.87010E+01 0.00000E+00
 -1      1438 1.17150E+02 4.74020E+01 0.00000E+00
 -1      1439 1.20900E+02 4.87010E+01 0.00000E+00
 -1      1440 1.22400E+02 4.87010E+01 0.00000E+00
 -1      1441 1.20150E+02 4.74020E+01 0.00000E+00
 -1      1442 1.23900E+02 4.87010E+01 0.00000E+00
 -1      1443 1.25400E+02 4.87010E+01 0.00000E+00
 -1      1444 1.23150E+02 4.74020E+01 0.00000E+00
 -1      1445 1.26900E+02 4.87010E+01 0.00000E+00
 -1      1446 1.28400E+02 4.87010E+01 0.00000E+00
 -1      1447 1.26150E+02 4.74020E+01 0.00000E+00
 -1      1448 1.29900E+02 4.87010E+01 0.00000E+00
 -1      1449 1.31400E+02 4.87010E+01 0.00000E+00
 -1      1450 1.29150E+02 4.74020E+01 0.00000E+00
 -1      1451 1.32900E+02 4.87010E+01 0.00000E+00
 -1      1452 1.34400E+02 4.87010E+01 0.00000E+00
 -1      1453 1.32150E+02 4.74020E+01 0.00000E+00
 -1      1454 1.35900E+02 4.87010E+01 0.00000E+00
 -1      1455 1.37400E+02 4.87010E+01 0.00000E+00
 -1      1456 1.35150E+02 4.74020E+01 0.00000E+00
 -1      1457 1.38900E+02 4.87010E+01 0.00000E+00
 -1      1458 1.40400E+02 4.87010E+01 0.00000E+00
 -1      1459 1.38150E+02 4.74020E+01 0.00000E+00
 -1      1460 1.41900E+02 4.87010E+01 0.00000E+00
 -1      1461 1.43400E+02 4.87010E+01 0.00000E+00
 -1      1462 1.41150E+02 4.74020E+01 0.00000E+00
 -1      1463 1.44900E+02 4.87010E+01 0.00000E+00
 -1      1464 1.46400E+02 4.87010E+01 0.00000E+00
 -1      1465 1.44150E+02 4.74020E+01 0.00000E+00
 -1      1466 1.48575E+02 4.85500E+01 0.00000E+00
 -1      1467 1.47825E+02 4.72510E+01 0.00000E+00
 -1      1468 6.01200E+00 1.09375E+00 0.00000E+00
 -1      1469 4.51200E+00 1.09375E+00 0.00000E+00
 -1      1470 4.37400E+00 2.18750E+00 0.00000E+00
 -1      1471 9.01200E+00 1.09375E+00 0.00000E+00
 -1      1472 7.51200E+00 1.09375E+00 0.00000E+00
 -1      1473 7.37400E+00 2.18750E+00 0.00000E+00
 -1      1474 1.20120E+01 1.09375E+00 0.00000E+00
 -1      1475 1.05120E+01 1.09375E+00 0.00000E+00
 -1      1476 1.03740E+01 2.18750E+00 0.00000E+00
 -1      1477 1.50120E+01 1.09375E+00 0.00000E+00
 -1      1478 1.35120E+01 1.09375E+00 0.00000E+00
 -1      1479 1.33740E+01 2.18750E+00 0.00000E+00
 -1      1480 1.81620E+01 1.09375E+00 0.00000E+00
 -1      1481 1.65870E+01 1.09375E+00 0.00000E+00
 -1      1482 1.64490E+01 2.18750E+00 0.00000E+00
 -1      1483 2.11620E+01 1.09375E+00 0.00000E+00
 -1      1484 1.96620E+01 1.09375E+00 0.00000E+00
 -1      1485 1.95240E+01 2.18750E+00 0.00000E+00
 -1      1486 2.41620E+01 1.09375E+00 0.00000E+00
 -1      1487 2.26620E+01 1.09375E+00 0.00000E+00
 -1      1488 2.25240E+01 2.18750E+00 0.00000E+00
 -1      1489 2.71620E+01 1.09375E+00 0.00000E+00
 -1      1490 2.56620E+01 1.09375E+00 0.00000E+00
 -1      1491 2.55240E+01 2.18750E+00 0.00000E+00
 -1      1492 3.01620E+01 1.09375E+00 0.00000E+00
 -1      1493 2.86620E+01 1.09375E+00 0.00000E+00
 -1      1494 2.85240E+01 2.18750E+00 0.00000E+00
 -1      1495 3.31620E+01 1.09375E+00 0.00000E+00
 -1      1496 3.16620E+01 1.09375E+00 0.00000E+00
 -1      1497 3.15240E+01 2.18750E+00 0.00000E+00
 -1      1498 3.63120E+01 1.09375E+00 0.00000E+00
 -1      1499 3.47370E+01 1.09375E+00 0.00000E+00
 -1      1500 3.45990E+01 2.18750E+00 0.00000E+00
 -1      1501 3.93120E+01 1.09375E+00 0.00000E+00
 -1      1502 3.78120E+01 1.09375E+00 0.00000E+00
 -1      1503 3.76740E+01 2.18750E+00 0.00000E+00
 -1      1504 4.23120E+01 1.09375E+00 0.00000E+00
 -1      1505 4.08120E+01 1.09375E+00 0.00000E+00
 -1      1506 4.06740E+01 2.18750E+00 0.00000E+00
 -1      1507 4.53120E+01 1.09375E+00 0.00000E+00
 -1      1508 4.38120E+01 1.09375E+00 0.00000E+00
 -1      1509 4.36740E+01 2.18750E+00 0.00000E+00
 -1      1510 4.83120E+01 1.09375E+00 0.00000E+00
 -1      1511 4.68120E+01 1.09375E+00 0.00000E+00
 -1      1512 4.66740E+01 2.18750E+00 0.00000E+00
 -1      1513 5.14620E+01 1.09375E+00 0.00000E+00
 -1      1514 4.98870E+01 1.09375E+00 0.00000E+00
 -1      1515 4.97490E+01 2.18750E+00 0.00000E+00
 -1      1516 5.44620E+01 1.09375E+00 0.00000E+00
 -1      1517 5.29620E+01 1.09375E+00 0.00000E+00
 -1      1518 5.28240E+01 2.18750E+00 0.00000E+00
 -1      1519 5.74620E+01 1.09375E+00 0.00000E+00
 -1      1520 5.59620E+01 1.09375E+00 0.00000E+00
 -1      1521 5.58240E+01 2.18750E+00 0.00000E+00
 -1      1522 6.04620E+01 1.09375E+00 0.00000E+00
 -1      1523 5.89620E+01 1.09375E+00 0.00000E+00
 -1      1524 5.88240E+01 2.18750E+00 0.00000E+00
 -1      1525 6.34620E+01 1.09375E+00 0.00000E+00
 -1      1526 6.19620E+01 1.09375E+00 0.00000E+00
 -1      1527 6.18240E+01 2.18750E+00 0.00000E+00
 -1      1528 6.64620E+01 1.09375E+00 0.00000E+00
 -1      1529 6.49620E+01 1.09375E+00 0.00000E+00
 -1      1530 6.48240E+01 2.18750E+00 0.00000E+00
 -1      1531 6.96120E+01 1.09375E+00 0.00000E+00
 -1      1532 6.80370E+01 1.09375E+00 0.00000E+00
 -1      1533 6.78990E+01 2.18750E+00 0.00000E+00
 -1      1534 7.26120E+01 1.09375E+00 0.00000E+00
 -1      1535 7.11120E+01 1.09375E+00 0.00000E+00
 -1      1536 7.09740E+01 2.18750E+00 0.00000E+00
 -1      1537 7.56120E+01 1.09375E+00 0.00000E+00
 -1      1538 7.41120E+01 1.09375E+00 0.00000E+00
 -1      1539 7.39740E+01 2.18750E+00 0.00000E+00
 -1      1540 7.86120E+01 1.09375E+00 0.00000E+00
 -1      1541 7.71120E+01 1.09375E+00 0.00000E+00
 -1      1542 7.69740E+01 2.18750E+00 0.00000E+00
 -1      1543 8.16120E+01 1.09375E+00 0.00000E+00
 -1      1544 8.01120E+01 1.09375E+00 0.00000E+00
 -1      1545 7.99740E+01 2.18750E+00 0.00000E+00
 -1      1546 8.47620E+01 1.09375E+00 0.00000E+00
 -1      1547 8.31870E+01 1.09375E+00 0.00000E+00
 -1      1548 8.30490E+01 2.18750E+00 0.00000E+00
 -1      1549 8.77620E+01 1.09375E+00 0.00000E+00
 -1      1550 8.62620E+01 1.09375E+00 0.00000E+00
 -1      1551 8.61240E+01 2.18750E+00 0.00000E+00
 -1      1552 9.04620E+01 1.09375E+00 0.00000E+00
 -1      1553 8.91120E+01 1.09375E+00 0.00000E+00
 -1      1554 8.89740E+01 2.18750E+00 0.00000E+00
 -1      1555 9.34620E+01 1.09375E+00 0.00000E+00
 -1      1556 9.19620E+01 1.09375E+00 0.00000E+00
 -1      1557 9.18240E+01 2.18750E+00 0.00000E+00
 -1      1558 9.46620E+01 1.09375E+00 0.00000E+00
 -1      1559 9.76875E+01 9.41339E-01 0.00000E+00
 -1      1560 9.65625E+01 9.41339E-01 0.00000E+00
 -1      1561 1.01662E+02 8.15662E-01 0.00000E+00
 -1      1562 1.00688E+02 8.15662E-01 0.00000E+00
 -1      1563 1.03762E+02 8.15662E-01 0.00000E+00
 -1      1564 1.02713E+02 8.15662E-01 0.00000E+00
 -1      1565 1.02225E+02 1.63132E+00 0.00000E+00
 -1      1566 1.05713E+02 8.15662E-01 0.00000E+00
 -1      1567 1.04738E+02 8.15662E-01 0.00000E+00
 -1      1568 1.04250E+02 1.63132E+00 0.00000E+00
 -1      1569 1.07963E+02 8.15662E-01 0.00000E+00
 -1      1570 1.06838E+02 8.15662E-01 0.00000E+00
 -1      1571 1.06350E+02 1.63132E+00 0.00000E+00
 -1      1572 1.10512E+02 8.15662E-01 0.00000E+00
 -1      1573 1.09238E+02 8.15662E-01 0.00000E+00
 -1      1574 1.08750E+02 1.63132E+00 0.00000E+00
 -1      1575 1.13213E+02 8.15662E-01 0.00000E+00
 -1      1576 1.11863E+02 8.15662E-01 0.00000E+00
 -1      1577 1.11375E+02 1.63132E+00 0.00000E+00
 -1      1578 1.16363E+02 8.15662E-01 0.00000E+00
 -1      1579 1.14787E+02 8.15662E-01 0.00000E+00
 -1      1580 1.14300E+02 1.63132E+00 0.00000E+00
 -1      1581 1.19363E+02 8.15662E-01 0.00000E+00
 -1      1582 1.17863E+02 8.15662E-01 0.00000E+00
 -1      1583 1.17375E+02 1.63132E+00 0.00000E+00
 -1      1584 1.22363E+02 8.15662E-01 0.00000E+00
 -1      1585 1.20863E+02 8.15662E-01 0.00000E+00
 -1      1586 1.20375E+02 1.63132E+00 0.00000E+00
 -1      1587 1.25363E+02 8.15662E-01 0.00000E+00
 -1      1588 1.23863E+02 8.15662E-01 0.00000E+00
 -1      1589 1.23375E+02 1.63132E+00 0.00000E+00
 -1      1590 1.28363E+02 8.15662E-01 0.00000E+00
 -1      1591 1.26863E+02 8.15662E-01 0.00000E+00
 -1      1592 1.26375E+02 1.63132E+00 0.00000E+00
 -1      1593 1.31363E+02 8.15662E-01 0.00000E+00
 -1      1594 1.29863E+02 8.15662E-01 0.00000E+00
 -1      1595 1.29375E+02 1.63132E+00 0.00000E+00
 -1      1596 1.34512E+02 8.15662E-01 0.00000E+00
 -1      1597 1.32938E+02 8.15662E-01 0.00000E+00
 -1      1598 1.32450E+02 1.63132E+00 0.00000E+00
 -1      1599 1.37512E+02 8.15662E-01 0.00000E+00
 -1      1600 1.36012E+02 8.15662E-01 0.00000E+00
 -1      1601 1.35525E+02 1.63132E+00 0.00000E+00
 -1      1602 1.40512E+02 8.15662E-01 0.00000E+00
 -1      1603 1.39012E+02 8.15662E-01 0.00000E+00
 -1      1604 1.38525E+02 1.63132E+00 0.00000E+00
 -1      1605 1.43512E+02 8.15662E-01 0.00000E+00
 -1      1606 1.42012E+02 8.15662E-01 0.00000E+00
 -1      1607 1.41525E+02 1.63132E+00 0.00000E+00
 -1      1608 1.46512E+02 8.15662E-01 0.00000E+00
 -1      1609 1.45012E+02 8.15662E-01 0.00000E+00
 -1      1610 1.44525E+02 1.63132E+00 0.00000E+00
 -1      1611 1.49006E+02 1.14533E+00 0.00000E+00
 -1      1612 1.47506E+02 1.14533E+00 0.00000E+00
 -1      1613 1.47019E+02 1.96099E+00 0.00000E+00
 -1      1614 1.49006E+02 2.62033E+00 0.00000E+00
 -1      1615 1.49006E+02 5.57033E+00 0.00000E+00
 -1      1616 1.49006E+02 4.09533E+00 0.00000E+00
 -1      1617 1.48012E+02 3.76566E+00 0.00000E+00
 -1      1618 1.49006E+02 8.52033E+00 0.00000E+00
 -1      1619 1.49006E+02 7.04533E+00 0.00000E+00
 -1      1620 1.48012E+02 6.71566E+00 0.00000E+00
 -1      1621 1.49006E+02 1.14703E+01 0.00000E+00
 -1      1622 1.49006E+02 9.99533E+00 0.00000E+00
 -1      1623 1.48012E+02 9.66566E+00 0.00000E+00
 -1      1624 1.49006E+02 1.44203E+01 0.00000E+00
 -1      1625 1.49006E+02 1.29453E+01 0.00000E+00
 -1      1626 1.48012E+02 1.26157E+01 0.00000E+00
 -1      1627 1.49006E+02 1.73203E+01 0.00000E+00
 -1      1628 1.49006E+02 1.58703E+01 0.00000E+00
 -1      1629 1.48012E+02 1.55407E+01 0.00000E+00
 -1      1630 1.49006E+02 2.02703E+01 0.00000E+00
 -1      1631 1.49006E+02 1.87953E+01 0.00000E+00
 -1      1632 1.48012E+02 1.84657E+01 0.00000E+00
 -1      1633 1.49006E+02 2.32203E+01 0.00000E+00
 -1      1634 1.49006E+02 2.17453E+01 0.00000E+00
 -1      1635 1.48012E+02 2.14157E+01 0.00000E+00
 -1      1636 1.49006E+02 2.61703E+01 0.00000E+00
 -1      1637 1.49006E+02 2.46953E+01 0.00000E+00
 -1      1638 1.48012E+02 2.43657E+01 0.00000E+00
 -1      1639 1.49006E+02 2.91203E+01 0.00000E+00
 -1      1640 1.49006E+02 2.76453E+01 0.00000E+00
 -1      1641 1.48012E+02 2.73157E+01 0.00000E+00
 -1      1642 1.49006E+02 3.20703E+01 0.00000E+00
 -1      1643 1.49006E+02 3.05953E+01 0.00000E+00
 -1      1644 1.48012E+02 3.02657E+01 0.00000E+00
 -1      1645 1.49006E+02 3.49703E+01 0.00000E+00
 -1      1646 1.49006E+02 3.35203E+01 0.00000E+00
 -1      1647 1.48012E+02 3.31907E+01 0.00000E+00
 -1      1648 1.49006E+02 3.79203E+01 0.00000E+00
 -1      1649 1.49006E+02 3.64453E+01 0.00000E+00
 -1      1650 1.48012E+02 3.61157E+01 0.00000E+00
 -1      1651 1.49006E+02 4.08703E+01 0.00000E+00
 -1      1652 1.49006E+02 3.93953E+01 0.00000E+00
 -1      1653 1.48012E+02 3.90657E+01 0.00000E+00
 -1      1654 1.49006E+02 4.38203E+01 0.00000E+00
 -1      1655 1.49006E+02 4.23453E+01 0.00000E+00
 -1      1656 1.48012E+02 4.20157E+01 0.00000E+00
 -1      1657 1.08474E+02 9.44279E+00 0.00000E+00
 -1      1658 1.08544E+02 1.01378E+01 0.00000E+00
 -1      1659 1.08111E+02 7.88248E+00 0.00000E+00
 -1      1660 1.08339E+02 8.60046E+00 0.00000E+00
 -1      1661 1.07398E+02 6.44831E+00 0.00000E+00
 -1      1662 1.07761E+02 7.08130E+00 0.00000E+00
 -1      1663 1.06374E+02 5.17368E+00 0.00000E+00
 -1      1664 1.06882E+02 5.73799E+00 0.00000E+00
 -1      1665 1.05121E+02 4.15443E+00 0.00000E+00
 -1      1666 1.05718E+02 4.58423E+00 0.00000E+00
 -1      1667 1.03636E+02 3.41062E+00 0.00000E+00
 -1      1668 1.04346E+02 3.71728E+00 0.00000E+00
 -1      1669 1.02327E+02 2.59438E+00 0.00000E+00
 -1      1670 1.03149E+02 2.74179E+00 0.00000E+00
 -1      1671 1.00270E+02 2.95901E+00 0.00000E+00
 -1      1672 1.00989E+02 2.92635E+00 0.00000E+00
 -1      1673 9.86220E+01 3.26075E+00 0.00000E+00
 -1      1674 9.93822E+01 3.05768E+00 0.00000E+00
 -1      1675 9.71996E+01 3.97463E+00 0.00000E+00
 -1      1676 9.78284E+01 3.65138E+00 0.00000E+00
 -1      1677 9.58178E+01 4.88742E+00 0.00000E+00
 -1      1678 9.64221E+01 4.39072E+00 0.00000E+00
 -1      1679 9.48251E+01 6.11657E+00 0.00000E+00
 -1      1680 9.52609E+01 5.56696E+00 0.00000E+00
 -1      1681 9.40465E+01 7.48057E+00 0.00000E+00
 -1      1682 9.43757E+01 6.82433E+00 0.00000E+00
 -1      1683 9.35530E+01 9.03575E+00 0.00000E+00
 -1      1684 9.37420E+01 8.29856E+00 0.00000E+00
 -1      1685 9.33635E+01 1.07189E+01 0.00000E+00
 -1      1686 9.33864E+01 9.93032E+00 0.00000E+00
 -1      1687 9.35801E+01 1.23692E+01 0.00000E+00
 -1      1688 9.34358E+01 1.16269E+01 0.00000E+00
 -1      1689 9.41375E+01 1.38158E+01 0.00000E+00
 -1      1690 9.38659E+01 1.31737E+01 0.00000E+00
 -1      1691 9.49715E+01 1.51658E+01 0.00000E+00
 -1      1692 9.45462E+01 1.45529E+01 0.00000E+00
 -1      1693 9.60563E+01 1.64145E+01 0.00000E+00
 -1      1694 9.54941E+01 1.58933E+01 0.00000E+00
 -1      1695 9.74927E+01 1.73629E+01 0.00000E+00
 -1      1696 9.68050E+01 1.69653E+01 0.00000E+00
 -1      1697 9.89836E+01 1.78594E+01 0.00000E+00
 -1      1698 9.83252E+01 1.76474E+01 0.00000E+00
 -1      1699 1.00507E+02 1.81923E+01 0.00000E+00
 -1      1700 9.97847E+01 1.81136E+01 0.00000E+00
 -1      1701 1.01988E+02 1.80599E+01 0.00000E+00
 -1      1702 1.01327E+02 1.81196E+01 0.00000E+00
 -1      1703 1.03425E+02 1.77192E+01 0.00000E+00
 -1      1704 1.02764E+02 1.79119E+01 0.00000E+00
 -1      1705 1.04827E+02 1.71211E+01 0.00000E+00
 -1      1706 1.04200E+02 1.74501E+01 0.00000E+00
 -1      1707 1.05993E+02 1.62301E+01 0.00000E+00
 -1      1708 1.05478E+02 1.66463E+01 0.00000E+00
 -1      1709 1.06990E+02 1.51600E+01 0.00000E+00
 -1      1710 1.06552E+02 1.56805E+01 0.00000E+00
 -1      1711 1.07766E+02 1.39161E+01 0.00000E+00
 -1      1712 1.07439E+02 1.45074E+01 0.00000E+00
 -1      1713 1.08293E+02 1.25232E+01 0.00000E+00
 -1      1714 1.08082E+02 1.31822E+01 0.00000E+00
 -1      1715 1.08623E+02 1.09841E+01 0.00000E+00
 -1      1716 1.08545E+02 1.17157E+01 0.00000E+00
 -1      1717 1.07626E+02 5.73248E+00 0.00000E+00
 -1      1718 9.85370E+01 1.24630E+00 0.00000E+00
 -1      1719 9.79745E+01 2.18764E+00 0.00000E+00
 -1      1720 9.95120E+01 1.24630E+00 0.00000E+00
 -1      1721 1.08492E+02 7.24398E+00 0.00000E+00
 -1      1722 1.09191E+02 1.05761E+01 0.00000E+00
 -1      1723 1.08977E+02 8.88748E+00 0.00000E+00
 -1      1724 1.48701E+02 4.63625E+01 0.00000E+00
 -1      1725 1.48701E+02 4.48875E+01 0.00000E+00
 -1      1726 1.47707E+02 4.45578E+01 0.00000E+00
 -1      1727 1.06454E+02 4.43272E+00 0.00000E+00
 -1      1728 1.05023E+02 3.40612E+00 0.00000E+00
 -1      1729 9.97122E+01 2.39393E+00 0.00000E+00
 -1      1730 9.80304E+01 2.88324E+00 0.00000E+00
 -1      1731 9.64593E+01 3.68996E+00 0.00000E+00
 -1      1732 9.51249E+01 4.78558E+00 0.00000E+00
 -1      1733 9.41186E+01 6.17287E+00 0.00000E+00
 -1      1734 9.33648E+01 7.69861E+00 0.00000E+00
 -1      1735 9.28937E+01 9.41118E+00 0.00000E+00
 -1      1736 9.27995E+01 1.12137E+01 0.00000E+00
 -1      1737 9.31576E+01 1.29263E+01 0.00000E+00
 -1      1738 9.38521E+01 1.44679E+01 0.00000E+00
 -1      1739 9.47834E+01 1.59324E+01 0.00000E+00
 -1      1740 9.60548E+01 1.72107E+01 0.00000E+00
 -1      1741 9.76360E+01 1.80459E+01 0.00000E+00
 -1      1742 9.92697E+01 1.85846E+01 0.00000E+00
 -1      1743 1.00891E+02 1.87662E+01 0.00000E+00
 -1      1744 1.02488E+02 1.85455E+01 0.00000E+00
 -1      1745 1.04039E+02 1.81285E+01 0.00000E+00
 -1      1746 1.05466E+02 1.73846E+01 0.00000E+00
 -1      1747 1.06676E+02 1.63601E+01 0.00000E+00
 -1      1748 1.07684E+02 1.51578E+01 0.00000E+00
 -1      1749 1.08449E+02 1.37713E+01 0.00000E+00
 -1      1750 1.09017E+02 1.22299E+01 0.00000E+00
 -1      1751 2.87400E+00 4.77875E+01 0.00000E+00
 -1      1752 3.89700E+00 4.04125E+01 0.00000E+00
 -1      1753 3.89700E+00 4.18875E+01 0.00000E+00
 -1      1754 3.89700E+00 4.33625E+01 0.00000E+00
 -1      1755 3.89700E+00 4.48375E+01 0.00000E+00
 -1      1756 5.19600E+00 4.26250E+01 0.00000E+00
 -1      1757 3.89700E+00 3.45500E+01 0.00000E+00
 -1      1758 3.89700E+00 3.60000E+01 0.00000E+00
 -1      1759 3.89700E+00 3.16000E+01 0.00000E+00
 -1      1760 3.89700E+00 3.30750E+01 0.00000E+00
 -1      1761 5.19600E+00 3.38000E+01 0.00000E+00
 -1      1762 3.89700E+00 2.86500E+01 0.00000E+00
 -1      1763 3.89700E+00 3.01250E+01 0.00000E+00
 -1      1764 5.19600E+00 3.08500E+01 0.00000E+00
 -1      1765 3.89700E+00 2.57000E+01 0.00000E+00
 -1      1766 3.89700E+00 2.71750E+01 0.00000E+00
 -1      1767 5.19600E+00 2.79000E+01 0.00000E+00
 -1      1768 3.89700E+00 2.27500E+01 0.00000E+00
 -1      1769 3.89700E+00 2.42250E+01 0.00000E+00
 -1      1770 5.19600E+00 2.49500E+01 0.00000E+00
 -1      1771 3.89700E+00 1.98000E+01 0.00000E+00
 -1      1772 3.89700E+00 2.12750E+01 0.00000E+00
 -1      1773 5.19600E+00 2.20000E+01 0.00000E+00
 -1      1774 3.89700E+00 1.69000E+01 0.00000E+00
 -1      1775 3.89700E+00 1.83500E+01 0.00000E+00
 -1      1776 5.19600E+00 1.90750E+01 0.00000E+00
 -1      1777 3.89700E+00 1.39500E+01 0.00000E+00
 -1      1778 3.89700E+00 1.54250E+01 0.00000E+00
 -1      1779 5.19600E+00 1.61500E+01 0.00000E+00
 -1      1780 3.89700E+00 1.10000E+01 0.00000E+00
 -1      1781 3.89700E+00 1.24750E+01 0.00000E+00
 -1      1782 5.19600E+00 1.32000E+01 0.00000E+00
 -1      1783 3.89700E+00 8.05000E+00 0.00000E+00
 -1      1784 3.89700E+00 9.52500E+00 0.00000E+00
 -1      1785 5.19600E+00 1.02500E+01 0.00000E+00
 -1      1786 3.89700E+00 5.10000E+00 0.00000E+00
 -1      1787 3.89700E+00 6.57500E+00 0.00000E+00
 -1      1788 5.19600E+00 7.30000E+00 0.00000E+00
 -1      1789 4.20450E+00 3.09687E+00 0.00000E+00
 -1      1790 4.06650E+00 4.19063E+00 0.00000E+00
 -1      1791 5.36550E+00 4.91563E+00 0.00000E+00
 -1      1792 5.70450E+00 3.09687E+00 0.00000E+00
 -1      1793 3.62400E+00 4.64885E+01 0.00000E+00
 -1      1794 8.70450E+00 3.09687E+00 0.00000E+00
 -1      1795 7.20450E+00 3.09687E+00 0.00000E+00
 -1      1796 7.03500E+00 4.00625E+00 0.00000E+00
 -1      1797 4.92300E+00 4.57510E+01 0.00000E+00
 -1      1798 8.40000E+00 4.61030E+01 0.00000E+00
 -1      1799 9.90000E+00 4.61030E+01 0.00000E+00
 -1      1800 1.14000E+01 4.61030E+01 0.00000E+00
 -1      1801 1.29000E+01 4.61030E+01 0.00000E+00
 -1      1802 1.06500E+01 4.48040E+01 0.00000E+00
 -1      1803 1.44000E+01 4.61030E+01 0.00000E+00
 -1      1804 1.59000E+01 4.61030E+01 0.00000E+00
 -1      1805 1.36500E+01 4.48040E+01 0.00000E+00
 -1      1806 1.74000E+01 4.61030E+01 0.00000E+00
 -1      1807 1.89000E+01 4.61030E+01 0.00000E+00
 -1      1808 1.66500E+01 4.48040E+01 0.00000E+00
 -1      1809 2.04000E+01 4.61030E+01 0.00000E+00
 -1      1810 2.19000E+01 4.61030E+01 0.00000E+00
 -1      1811 1.96500E+01 4.48040E+01 0.00000E+00
 -1      1812 2.34000E+01 4.61030E+01 0.00000E+00
 -1      1813 2.49000E+01 4.61030E+01 0.00000E+00
 -1      1814 2.26500E+01 4.48040E+01 0.00000E+00
 -1      1815 2.64000E+01 4.61030E+01 0.00000E+00
 -1      1816 2.79000E+01 4.61030E+01 0.00000E+00
 -1      1817 2.56500E+01 4.48040E+01 0.00000E+00
 -1      1818 2.94000E+01 4.61030E+01 0.00000E+00
 -1      1819 3.09000E+01 4.61030E+01 0.00000E+00
 -1      1820 2.86500E+01 4.48040E+01 0.00000E+00
 -1      1821 3.24000E+01 4.61030E+01 0.00000E+00
 -1      1822 3.39000E+01 4.61030E+01 0.00000E+00
 -1      1823 3.16500E+01 4.48040E+01 0.00000E+00
 -1      1824 3.54000E+01 4.61030E+01 0.00000E+00
 -1      1825 3.69000E+01 4.61030E+01 0.00000E+00
 -1      1826 3.46500E+01 4.48040E+01 0.00000E+00
 -1      1827 3.84000E+01 4.61030E+01 0.00000E+00
 -1      1828 3.99000E+01 4.61030E+01 0.00000E+00
 -1      1829 3.76500E+01 4.48040E+01 0.00000E+00
 -1      1830 4.14000E+01 4.61030E+01 0.00000E+00
 -1      1831 4.29000E+01 4.61030E+01 0.00000E+00
 -1      1832 4.06500E+01 4.48040E+01 0.00000E+00
 -1      1833 4.44000E+01 4.61030E+01 0.00000E+00
 -1      1834 4.59000E+01 4.61030E+01 0.00000E+00
 -1      1835 4.36500E+01 4.48040E+01 0.00000E+00
 -1      1836 4.74000E+01 4.61030E+01 0.00000E+00
 -1      1837 4.89000E+01 4.61030E+01 0.00000E+00
 -1      1838 4.66500E+01 4.48040E+01 0.00000E+00
 -1      1839 5.04000E+01 4.61030E+01 0.00000E+00
 -1      1840 5.19000E+01 4.61030E+01 0.00000E+00
 -1      1841 4.96500E+01 4.48040E+01 0.00000E+00
 -1      1842 5.34000E+01 4.61030E+01 0.00000E+00
 -1      1843 5.49000E+01 4.61030E+01 0.00000E+00
 -1      1844 5.26500E+01 4.48040E+01 0.00000E+00
 -1      1845 5.64000E+01 4.61030E+01 0.00000E+00
 -1      1846 5.79000E+01 4.61030E+01 0.00000E+00
 -1      1847 5.56500E+01 4.48040E+01 0.00000E+00
 -1      1848 5.94000E+01 4.61030E+01 0.00000E+00
 -1      1849 6.09000E+01 4.61030E+01 0.00000E+00
 -1      1850 5.86500E+01 4.48040E+01 0.00000E+00
 -1      1851 6.24000E+01 4.61030E+01 0.00000E+00
 -1      1852 6.39000E+01 4.61030E+01 0.00000E+00
 -1      1853 6.16500E+01 4.48040E+01 0.00000E+00
 -1      1854 6.54000E+01 4.61030E+01 0.00000E+00
 -1      1855 6.69000E+01 4.61030E+01 0.00000E+00
 -1      1856 6.46500E+01 4.48040E+01 0.00000E+00
 -1      1857 6.84000E+01 4.61030E+01 0.00000E+00
 -1      1858 6.99000E+01 4.61030E+01 0.00000E+00
 -1      1859 6.76500E+01 4.48040E+01 0.00000E+00
 -1      1860 7.14000E+01 4.61030E+01 0.00000E+00
 -1      1861 7.29000E+01 4.61030E+01 0.00000E+00
 -1      1862 7.06500E+01 4.48040E+01 0.00000E+00
 -1      1863 7.44000E+01 4.61030E+01 0.00000E+00
 -1      1864 7.59000E+01 4.61030E+01 0.00000E+00
 -1      1865 7.36500E+01 4.48040E+01 0.00000E+00
 -1      1866 7.74000E+01 4.61030E+01 0.00000E+00
 -1      1867 7.89000E+01 4.61030E+01 0.00000E+00
 -1      1868 7.66500E+01 4.48040E+01 0.00000E+00
 -1      1869 8.04000E+01 4.61030E+01 0.00000E+00
 -1      1870 8.19000E+01 4.61030E+01 0.00000E+00
 -1      1871 7.96500E+01 4.48040E+01 0.00000E+00
 -1      1872 8.34000E+01 4.61030E+01 0.00000E+00
 -1      1873 8.49000E+01 4.61030E+01 0.00000E+00
 -1      1874 8.26500E+01 4.48040E+01 0.00000E+00
 -1      1875 8.64000E+01 4.61030E+01 0.00000E+00
 -1      1876 8.79000E+01 4.61030E+01 0.00000E+00
 -1      1877 8.56500E+01 4.48040E+01 0.00000E+00
 -1      1878 8.94000E+01 4.61030E+01 0.00000E+00
 -1      1879 9.09000E+01 4.61030E+01 0.00000E+00
 -1      1880 8.86500E+01 4.48040E+01 0.00000E+00
 -1      1881 9.24000E+01 4.61030E+01 0.00000E+00
 -1      1882 9.39000E+01 4.61030E+01 0.00000E+00
 -1      1883 9.16500E+01 4.48040E+01 0.00000E+00
 -1      1884 9.54000E+01 4.61030E+01 0.00000E+00
 -1      1885 9.69000E+01 4.61030E+01 0.00000E+00
 -1      1886 9.46500E+01 4.48040E+01 0.00000E+00
 -1      1887 9.84000E+01 4.61030E+01 0.00000E+00
 -1      1888 9.99000E+01 4.61030E+01 0.00000E+00
 -1      1889 9.76500E+01 4.48040E+01 0.00000E+00
 -1      1890 1.01400E+02 4.61030E+01 0.00000E+00
 -1      1891 1.02900E+02 4.61030E+01 0.00000E+00
 -1      1892 1.00650E+02 4.48040E+01 0.00000E+00
 -1      1893 1.04400E+02 4.61030E+01 0.00000E+00
 -1      1894 1.05900E+02 4.61030E+01 0.00000E+00
 -1      1895 1.03650E+02 4.48040E+01 0.00000E+00
 -1      1896 1.07400E+02 4.61030E+01 0.00000E+00
 -1      1897 1.08900E+02 4.61030E+01 0.00000E+00
 -1      1898 1.06650E+02 4.48040E+01 0.00000E+00
 -1      1899 1.10400E+02 4.61030E+01 0.00000E+00
 -1      1900 1.11900E+02 4.61030E+01 0.00000E+00
 -1      1901 1.09650E+02 4.48040E+01 0.00000E+00
 -1      1902 1.13400E+02 4.61030E+01 0.00000E+00
 -1      1903 1.14900E+02 4.61030E+01 0.00000E+00
 -1      1904 1.12650E+02 4.48040E+01 0.00000E+00
 -1      1905 1.16400E+02 4.61030E+01 0.00000E+00
 -1      1906 1.17900E+02 4.61030E+01 0.00000E+00
 -1      1907 1.15650E+02 4.48040E+01 0.00000E+00
 -1      1908 1.19400E+02 4.61030E+01 0.00000E+00
 -1      1909 1.20900E+02 4.61030E+01 0.00000E+00
 -1      1910 1.18650E+02 4.48040E+01 0.00000E+00
 -1      1911 1.22400E+02 4.61030E+01 0.00000E+00
 -1      1912 1.23900E+02 4.61030E+01 0.00000E+00
 -1      1913 1.21650E+02 4.48040E+01 0.00000E+00
 -1      1914 1.25400E+02 4.61030E+01 0.00000E+00
 -1      1915 1.26900E+02 4.61030E+01 0.00000E+00
 -1      1916 1.24650E+02 4.48040E+01 0.00000E+00
 -1      1917 1.28400E+02 4.61030E+01 0.00000E+00
 -1      1918 1.29900E+02 4.61030E+01 0.00000E+00
 -1      1919 1.27650E+02 4.48040E+01 0.00000E+00
 -1      1920 1.31400E+02 4.61030E+01 0.00000E+00
 -1      1921 1.32900E+02 4.61030E+01 0.00000E+00
 -1      1922 1.30650E+02 4.48040E+01 0.00000E+00
 -1      1923 1.34400E+02 4.61030E+01 0.00000E+00
 -1      1924 1.35900E+02 4.61030E+01 0.00000E+00
 -1      1925 1.33650E+02 4.48040E+01 0.00000E+00
 -1      1926 1.37400E+02 4.61030E+01 0.00000E+00
 -1      1927 1.38900E+02 4.61030E+01 0.00000E+00
 -1      1928 1.36650E+02 4.48040E+01 0.00000E+00
 -1      1929 1.40400E+02 4.61030E+01 0.00000E+00
 -1      1930 1.41900E+02 4.61030E+01 0.00000E+00
 -1      1931 1.39650E+02 4.48040E+01 0.00000E+00
 -1      1932 1.43400E+02 4.61030E+01 0.00000E+00
 -1      1933 1.44900E+02 4.61030E+01 0.00000E+00
 -1      1934 1.42650E+02 4.48040E+01 0.00000E+00
 -1      1935 1.08949E+02 6.56683E+00 0.00000E+00
 -1      1936 1.09300E+02 7.36801E+00 0.00000E+00
 -1      1937 1.17045E+01 3.09687E+00 0.00000E+00
 -1      1938 1.02045E+01 3.09687E+00 0.00000E+00
 -1      1939 1.00350E+01 4.00625E+00 0.00000E+00
 -1      1940 1.47045E+01 3.09687E+00 0.00000E+00
 -1      1941 1.32045E+01 3.09687E+00 0.00000E+00
 -1      1942 1.30350E+01 4.00625E+00 0.00000E+00
 -1      1943 1.78545E+01 3.09687E+00 0.00000E+00
 -1      1944 1.62795E+01 3.09687E+00 0.00000E+00
 -1      1945 1.61100E+01 4.00625E+00 0.00000E+00
 -1      1946 2.08545E+01 3.09687E+00 0.00000E+00
 -1      1947 1.93545E+01 3.09687E+00 0.00000E+00
 -1      1948 1.91850E+01 4.00625E+00 0.00000E+00
 -1      1949 2.38545E+01 3.09687E+00 0.00000E+00
 -1      1950 2.23545E+01 3.09687E+00 0.00000E+00
 -1      1951 2.21850E+01 4.00625E+00 0.00000E+00
 -1      1952 2.68545E+01 3.09687E+00 0.00000E+00
 -1      1953 2.53545E+01 3.09687E+00 0.00000E+00
 -1      1954 2.51850E+01 4.00625E+00 0.00000E+00
 -1      1955 2.98545E+01 3.09687E+00 0.00000E+00
 -1      1956 2.83545E+01 3.09687E+00 0.00000E+00
 -1      1957 2.81850E+01 4.00625E+00 0.00000E+00
 -1      1958 3.28545E+01 3.09687E+00 0.00000E+00
 -1      1959 3.13545E+01 3.09687E+00 0.00000E+00
 -1      1960 3.11850E+01 4.00625E+00 0.00000E+00
 -1      1961 3.60045E+01 3.09687E+00 0.00000E+00
 -1      1962 3.44295E+01 3.09687E+00 0.00000E+00
 -1      1963 3.42600E+01 4.00625E+00 0.00000E+00
 -1      1964 3.90045E+01 3.09687E+00 0.00000E+00
 -1      1965 3.75045E+01 3.09687E+00 0.00000E+00
 -1      1966 3.73350E+01 4.00625E+00 0.00000E+00
 -1      1967 4.20045E+01 3.09687E+00 0.00000E+00
 -1      1968 4.05045E+01 3.09687E+00 0.00000E+00
 -1      1969 4.03350E+01 4.00625E+00 0.00000E+00
 -1      1970 4.50045E+01 3.09687E+00 0.00000E+00
 -1      1971 4.35045E+01 3.09687E+00 0.00000E+00
 -1      1972 4.33350E+01 4.00625E+00 0.00000E+00
 -1      1973 4.80045E+01 3.09687E+00 0.00000E+00
 -1      1974 4.65045E+01 3.09687E+00 0.00000E+00
 -1      1975 4.63350E+01 4.00625E+00 0.00000E+00
 -1      1976 5.11545E+01 3.09687E+00 0.00000E+00
 -1      1977 4.95795E+01 3.09687E+00 0.00000E+00
 -1      1978 4.94100E+01 4.00625E+00 0.00000E+00
 -1      1979 5.41545E+01 3.09687E+00 0.00000E+00
 -1      1980 5.26545E+01 3.09687E+00 0.00000E+00
 -1      1981 5.24850E+01 4.00625E+00 0.00000E+00
 -1      1982 5.71545E+01 3.09687E+00 0.00000E+00
 -1      1983 5.56545E+01 3.09687E+00 0.00000E+00
 -1      1984 5.54850E+01 4.00625E+00 0.00000E+00
 -1      1985 6.01545E+01 3.09687E+00 0.00000E+00
 -1      1986 5.86545E+01 3.09687E+00 0.00000E+00
 -1      1987 5.84850E+01 4.00625E+00 0.00000E+00
 -1      1988 6.31545E+01 3.09687E+00 0.00000E+00
 -1      1989 6.16545E+01 3.09687E+00 0.00000E+00
 -1      1990 6.14850E+01 4.00625E+00 0.00000E+00
 -1      1991 6.61545E+01 3.09687E+00 0.00000E+00
 -1      1992 6.46545E+01 3.09687E+00 0.00000E+00
 -1      1993 6.44850E+01 4.00625E+00 0.00000E+00
 -1      1994 6.93045E+01 3.09687E+00 0.00000E+00
 -1      1995 6.77295E+01 3.09687E+00 0.00000E+00
 -1      1996 6.75600E+01 4.00625E+00 0.00000E+00
 -1      1997 7.23045E+01 3.09687E+00 0.00000E+00
 -1      1998 7.08045E+01 3.09687E+00 0.00000E+00
 -1      1999 7.06350E+01 4.00625E+00 0.00000E+00
 -1      2000 7.53045E+01 3.09687E+00 0.00000E+00
 -1      2001 7.38045E+01 3.09687E+00 0.00000E+00
 -1      2002 7.36350E+01 4.00625E+00 0.00000E+00
 -1      2003 7.83045E+01 3.09687E+00 0.00000E+00
 -1      2004 7.68045E+01 3.09687E+00 0.00000E+00
 -1      2005 7.66350E+01 4.00625E+00 0.00000E+00
 -1      2006 8.13045E+01 3.09687E+00 0.00000E+00
 -1      2007 7.98045E+01 3.09687E+00 0.00000E+00
 -1      2008 7.96350E+01 4.00625E+00 0.00000E+00
 -1      2009 8.44545E+01 3.09687E+00 0.00000E+00
 -1      2010 8.28795E+01 3.09687E+00 0.00000E+00
 -1      2011 8.27100E+01 4.00625E+00 0.00000E+00
 -1      2012 8.74545E+01 3.09687E+00 0.00000E+00
 -1      2013 8.59545E+01 3.09687E+00 0.00000E+00
 -1      2014 8.57850E+01 4.00625E+00 0.00000E+00
 -1      2015 9.01545E+01 3.09687E+00 0.00000E+00
 -1      2016 8.88045E+01 3.09687E+00 0.00000E+00
 -1      2017 8.86350E+01 4.00625E+00 0.00000E+00
 -1      2018 9.59268E+01 1.27569E+00 0.00000E+00
 -1      2019 9.45888E+01 2.36944E+00 0.00000E+00
 -1      2020 9.64893E+01 2.21703E+00 0.00000E+00
 -1      2021 1.09387E+02 2.48888E+00 0.00000E+00
 -1      2022 1.08113E+02 2.48888E+00 0.00000E+00
 -1      2023 1.12050E+02 2.74023E+00 0.00000E+00
 -1      2024 1.10700E+02 2.74023E+00 0.00000E+00
 -1      2025 1.15200E+02 2.74023E+00 0.00000E+00
 -1      2026 1.13625E+02 2.74023E+00 0.00000E+00
 -1      2027 1.12950E+02 3.84915E+00 0.00000E+00
 -1      2028 1.18200E+02 2.74023E+00 0.00000E+00
 -1      2029 1.16700E+02 2.74023E+00 0.00000E+00
 -1      2030 1.16025E+02 3.84915E+00 0.00000E+00
 -1      2031 1.21200E+02 2.74023E+00 0.00000E+00
 -1      2032 1.19700E+02 2.74023E+00 0.00000E+00
 -1      2033 1.19025E+02 3.84915E+00 0.00000E+00
 -1      2034 1.24200E+02 2.74023E+00 0.00000E+00
 -1      2035 1.22700E+02 2.74023E+00 0.00000E+00
 -1      2036 1.22025E+02 3.84915E+00 0.00000E+00
 -1      2037 1.27200E+02 2.74023E+00 0.00000E+00
 -1      2038 1.25700E+02 2.74023E+00 0.00000E+00
 -1      2039 1.25025E+02 3.84915E+00 0.00000E+00
 -1      2040 1.30200E+02 2.74023E+00 0.00000E+00
 -1      2041 1.28700E+02 2.74023E+00 0.00000E+00
 -1      2042 1.28025E+02 3.84915E+00 0.00000E+00
 -1      2043 1.33350E+02 2.74023E+00 0.00000E+00
 -1      2044 1.31775E+02 2.74023E+00 0.00000E+00
 -1      2045 1.31100E+02 3.84915E+00 0.00000E+00
 -1      2046 1.36350E+02 2.74023E+00 0.00000E+00
 -1      2047 1.34850E+02 2.74023E+00 0.00000E+00
 -1      2048 1.34175E+02 3.84915E+00 0.00000E+00
 -1      2049 1.39350E+02 2.74023E+00 0.00000E+00
 -1      2050 1.37850E+02 2.74023E+00 0.00000E+00
 -1      2051 1.37175E+02 3.84915E+00 0.00000E+00
 -1      2052 1.42350E+02 2.74023E+00 0.00000E+00
 -1      2053 1.40850E+02 2.74023E+00 0.00000E+00
 -1      2054 1.40175E+02 3.84915E+00 0.00000E+00
 -1      2055 1.45350E+02 2.74023E+00 0.00000E+00
 -1      2056 1.43850E+02 2.74023E+00 0.00000E+00
 -1      2057 1.43175E+02 3.84915E+00 0.00000E+00
 -1      2058 1.47178E+02 3.41778E+00 0.00000E+00
 -1      2059 1.46184E+02 3.08811E+00 0.00000E+00
 -1      2060 1.45509E+02 4.19702E+00 0.00000E+00
 -1      2061 1.47178E+02 4.89278E+00 0.00000E+00
 -1      2062 1.46714E+02 1.04032E+01 0.00000E+00
 -1      2063 1.46714E+02 8.92816E+00 0.00000E+00
 -1      2064 1.46946E+02 7.64797E+00 0.00000E+00
 -1      2065 1.46946E+02 6.17297E+00 0.00000E+00
 -1      2066 1.46111E+02 5.82509E+00 0.00000E+00
 -1      2067 1.45647E+02 8.38547E+00 0.00000E+00
 -1      2068 1.46714E+02 1.33532E+01 0.00000E+00
 -1      2069 1.46714E+02 1.18782E+01 0.00000E+00
 -1      2070 1.45415E+02 1.11407E+01 0.00000E+00
 -1      2071 1.46714E+02 1.62532E+01 0.00000E+00
 -1      2072 1.46714E+02 1.48032E+01 0.00000E+00
 -1      2073 1.45415E+02 1.40657E+01 0.00000E+00
 -1      2074 1.46714E+02 1.92032E+01 0.00000E+00
 -1      2075 1.46714E+02 1.77282E+01 0.00000E+00
 -1      2076 1.45415E+02 1.69907E+01 0.00000E+00
 -1      2077 1.46714E+02 2.21532E+01 0.00000E+00
 -1      2078 1.46714E+02 2.06782E+01 0.00000E+00
 -1      2079 1.45415E+02 1.99407E+01 0.00000E+00
 -1      2080 1.46714E+02 2.51032E+01 0.00000E+00
 -1      2081 1.46714E+02 2.36282E+01 0.00000E+00
 -1      2082 1.45415E+02 2.28907E+01 0.00000E+00
 -1      2083 1.46714E+02 2.80532E+01 0.00000E+00
 -1      2084 1.46714E+02 2.65782E+01 0.00000E+00
 -1      2085 1.45415E+02 2.58407E+01 0.00000E+00
 -1      2086 1.46714E+02 3.10032E+01 0.00000E+00
 -1      2087 1.46714E+02 2.95282E+01 0.00000E+00
 -1      2088 1.45415E+02 2.87907E+01 0.00000E+00
 -1      2089 1.46714E+02 3.39032E+01 0.00000E+00
 -1      2090 1.46714E+02 3.24532E+01 0.00000E+00
 -1      2091 1.45415E+02 3.17157E+01 0.00000E+00
 -1      2092 1.46714E+02 3.68532E+01 0.00000E+00
 -1      2093 1.46714E+02 3.53782E+01 0.00000E+00
 -1      2094 1.45415E+02 3.46407E+01 0.00000E+00
 -1      2095 1.46714E+02 3.98032E+01 0.00000E+00
 -1      2096 1.46714E+02 3.83282E+01 0.00000E+00
 -1      2097 1.45415E+02 3.75907E+01 0.00000E+00
 -1      2098 1.46714E+02 4.27532E+01 0.00000E+00
 -1      2099 1.46714E+02 4.12782E+01 0.00000E+00
 -1      2100 1.45415E+02 4.05407E+01 0.00000E+00
 -1      2101 1.06559E+02 3.65598E+00 0.00000E+00
 -1      2102 1.07215E+02 4.24544E+00 0.00000E+00
 -1      2103 1.46526E+02 4.65135E+01 0.00000E+00
 -1      2104 1.09922E+02 1.00809E+01 0.00000E+00
 -1      2105 1.10001E+02 1.09272E+01 0.00000E+00
 -1      2106 9.71809E+01 2.57828E+00 0.00000E+00
 -1      2107 1.03761E+02 2.30015E+00 0.00000E+00
 -1      2108 1.07994E+02 4.92251E+00 0.00000E+00
 -1      2109 1.08510E+02 5.63283E+00 0.00000E+00
 -1      2110 3.89700E+00 3.74688E+01 0.00000E+00
 -1      2111 3.89700E+00 3.89437E+01 0.00000E+00
 -1      2112 5.19600E+00 3.96813E+01 0.00000E+00
 -1      2113 5.19600E+00 3.67438E+01 0.00000E+00
 -1      2114 1.04736E+02 2.30015E+00 0.00000E+00
 -1      2115 9.57677E+01 3.32871E+00 0.00000E+00
 -1      2116 9.65452E+01 2.91263E+00 0.00000E+00
 -1      2117 9.43128E+01 4.68799E+00 0.00000E+00
 -1      2118 9.48697E+01 4.00845E+00 0.00000E+00
 -1      2119 9.33468E+01 6.17936E+00 0.00000E+00
 -1      2120 9.37962E+01 5.47160E+00 0.00000E+00
 -1      2121 9.25266E+01 7.85230E+00 0.00000E+00
 -1      2122 9.28311E+01 7.03430E+00 0.00000E+00
 -1      2123 9.21321E+01 9.73214E+00 0.00000E+00
 -1      2124 9.22987E+01 8.83757E+00 0.00000E+00
 -1      2125 9.20643E+01 1.17292E+01 0.00000E+00
 -1      2126 9.19920E+01 1.08212E+01 0.00000E+00
 -1      2127 9.26898E+01 1.35455E+01 0.00000E+00
 -1      2128 9.24040E+01 1.27410E+01 0.00000E+00
 -1      2129 9.34530E+01 1.51710E+01 0.00000E+00
 -1      2130 9.30443E+01 1.44340E+01 0.00000E+00
 -1      2131 9.44164E+01 1.67476E+01 0.00000E+00
 -1      2132 9.38937E+01 1.60201E+01 0.00000E+00
 -1      2133 9.59954E+01 1.80756E+01 0.00000E+00
 -1      2134 9.52467E+01 1.75248E+01 0.00000E+00
 -1      2135 9.77886E+01 1.89600E+01 0.00000E+00
 -1      2136 9.69560E+01 1.86755E+01 0.00000E+00
 -1      2137 9.93909E+01 1.94685E+01 0.00000E+00
 -1      2138 9.85897E+01 1.92143E+01 0.00000E+00
 -1      2139 9.79097E+01 1.98439E+01 0.00000E+00
 -1      2140 1.01359E+02 1.93754E+01 0.00000E+00
 -1      2141 1.00538E+02 1.94481E+01 0.00000E+00
 -1      2142 1.02997E+02 1.91081E+01 0.00000E+00
 -1      2143 1.02221E+02 1.92561E+01 0.00000E+00
 -1      2144 1.04653E+02 1.86458E+01 0.00000E+00
 -1      2145 1.03878E+02 1.89149E+01 0.00000E+00
 -1      2146 1.06198E+02 1.77045E+01 0.00000E+00
 -1      2147 1.05547E+02 1.81793E+01 0.00000E+00
 -1      2148 1.07410E+02 1.65475E+01 0.00000E+00
 -1      2149 1.06850E+02 1.70972E+01 0.00000E+00
 -1      2150 1.08477E+02 1.52226E+01 0.00000E+00
 -1      2151 1.08028E+02 1.58752E+01 0.00000E+00
 -1      2152 1.09202E+02 1.36606E+01 0.00000E+00
 -1      2153 1.08886E+02 1.43945E+01 0.00000E+00
 -1      2154 1.09882E+02 1.20574E+01 0.00000E+00
 -1      2155 1.09629E+02 1.28649E+01 0.00000E+00
 -1      2156 1.09653E+02 8.39621E+00 0.00000E+00
 -1      2157 1.09787E+02 9.23854E+00 0.00000E+00
 -1      2158 1.10597E+02 9.58960E+00 0.00000E+00
 -1      2159 1.05512E+02 2.73729E+00 0.00000E+00
 -1      2160 1.45776E+02 4.52145E+01 0.00000E+00
 -1      2161 1.06637E+02 2.73729E+00 0.00000E+00
 -1      2162 9.49556E+01 3.23112E+00 0.00000E+00
 -1      2163 1.10110E+02 7.71907E+00 0.00000E+00
 -1      2164 6.42300E+00 4.57510E+01 0.00000E+00
 -1      2165 7.17300E+00 4.44520E+01 0.00000E+00
 -1      2166 1.07398E+02 2.55001E+00 0.00000E+00
 -1      2167 1.09317E+02 5.75686E+00 0.00000E+00
 -1      2168 9.36908E+01 3.04918E+00 0.00000E+00
 -1      2169 1.08035E+02 3.40757E+00 0.00000E+00
 -1      2170 9.25740E+01 3.29641E+00 0.00000E+00
 -1      2171 9.10740E+01 3.29641E+00 0.00000E+00
 -1      2172 1.10063E+02 3.59779E+00 0.00000E+00
 -1      2173 1.46081E+02 4.41473E+01 0.00000E+00
 -1      2174 1.00400E+02 1.14763E+00 0.00000E+00
 -1      2175 1.44782E+02 4.34098E+01 0.00000E+00
 -1      2176 9.17650E+01 8.17326E+00 0.00000E+00
 -1      2177 1.08099E+02 4.14578E+00 0.00000E+00
 -1      2178 9.29408E+01 4.15809E+00 0.00000E+00
 -1      2179 1.00888E+02 1.96329E+00 0.00000E+00
 -1      2180 1.10613E+02 1.15621E+01 0.00000E+00
 -1      2181 1.01938E+02 1.96329E+00 0.00000E+00
 -1      2182 9.09045E+01 4.20578E+00 0.00000E+00
 -1      2183 1.10067E+02 1.34880E+01 0.00000E+00
 -1      2184 1.09230E+02 1.51118E+01 0.00000E+00
 -1      2185 1.08202E+02 1.66123E+01 0.00000E+00
 -1      2186 1.06932E+02 1.78919E+01 0.00000E+00
 -1      2187 1.05385E+02 1.89657E+01 0.00000E+00
 -1      2188 1.03611E+02 1.96255E+01 0.00000E+00
 -1      2189 9.98584E+01 2.00777E+01 0.00000E+00
 -1      2190 9.61480E+01 1.89897E+01 0.00000E+00
 -1      2191 9.43570E+01 1.76125E+01 0.00000E+00
 -1      2192 9.30859E+01 1.59862E+01 0.00000E+00
 -1      2193 9.22907E+01 1.42487E+01 0.00000E+00
 -1      2194 9.15965E+01 1.23484E+01 0.00000E+00
 -1      2195 9.13969E+01 1.02476E+01 0.00000E+00
 -1      2196 9.35410E+01 4.69448E+00 0.00000E+00
 -1      2197 9.25087E+01 6.33304E+00 0.00000E+00
 -1      2198 1.01868E+02 1.99380E+01 0.00000E+00
 -1      2199 6.49500E+00 3.01125E+01 0.00000E+00
 -1      2200 6.49500E+00 3.15875E+01 0.00000E+00
 -1      2201 6.49500E+00 3.30625E+01 0.00000E+00
 -1      2202 6.49500E+00 3.45375E+01 0.00000E+00
 -1      2203 7.79400E+00 3.23250E+01 0.00000E+00
 -1      2204 6.49500E+00 2.42125E+01 0.00000E+00
 -1      2205 6.49500E+00 2.56875E+01 0.00000E+00
 -1      2206 6.49500E+00 2.12625E+01 0.00000E+00
 -1      2207 6.49500E+00 2.27375E+01 0.00000E+00
 -1      2208 7.79400E+00 2.34750E+01 0.00000E+00
 -1      2209 6.49500E+00 1.83625E+01 0.00000E+00
 -1      2210 6.49500E+00 1.98125E+01 0.00000E+00
 -1      2211 7.79400E+00 2.05500E+01 0.00000E+00
 -1      2212 6.49500E+00 1.54125E+01 0.00000E+00
 -1      2213 6.49500E+00 1.68875E+01 0.00000E+00
 -1      2214 7.79400E+00 1.76250E+01 0.00000E+00
 -1      2215 6.49500E+00 1.24625E+01 0.00000E+00
 -1      2216 6.49500E+00 1.39375E+01 0.00000E+00
 -1      2217 7.79400E+00 1.46750E+01 0.00000E+00
 -1      2218 6.49500E+00 9.51250E+00 0.00000E+00
 -1      2219 6.49500E+00 1.09875E+01 0.00000E+00
 -1      2220 7.79400E+00 1.17250E+01 0.00000E+00
 -1      2221 6.49500E+00 6.56250E+00 0.00000E+00
 -1      2222 6.49500E+00 8.03750E+00 0.00000E+00
 -1      2223 7.79400E+00 8.77500E+00 0.00000E+00
 -1      2224 6.84975E+00 4.82969E+00 0.00000E+00
 -1      2225 6.68025E+00 5.73906E+00 0.00000E+00
 -1      2226 7.97925E+00 6.47656E+00 0.00000E+00
 -1      2227 8.34975E+00 4.82969E+00 0.00000E+00
 -1      2228 1.68975E+01 5.30525E+00 0.00000E+00
 -1      2229 1.53225E+01 5.30525E+00 0.00000E+00
 -1      2230 1.16775E+02 5.04184E+00 0.00000E+00
 -1      2231 1.15275E+02 5.04184E+00 0.00000E+00
 -1      2232 1.38225E+01 5.30525E+00 0.00000E+00
 -1      2233 1.23225E+01 5.30525E+00 0.00000E+00
 -1      2234 1.46100E+01 6.60425E+00 0.00000E+00
 -1      2235 9.90000E+00 4.35050E+01 0.00000E+00
 -1      2236 1.14000E+01 4.35050E+01 0.00000E+00
 -1      2237 6.55950E+00 4.28890E+01 0.00000E+00
 -1      2238 8.53650E+00 4.32410E+01 0.00000E+00
 -1      2239 9.28650E+00 4.19420E+01 0.00000E+00
 -1      2240 6.55950E+00 4.14140E+01 0.00000E+00
 -1      2241 1.29000E+01 4.35050E+01 0.00000E+00
 -1      2242 1.44000E+01 4.35050E+01 0.00000E+00
 -1      2243 1.21500E+01 4.22060E+01 0.00000E+00
 -1      2244 1.59000E+01 4.35050E+01 0.00000E+00
 -1      2245 1.74000E+01 4.35050E+01 0.00000E+00
 -1      2246 1.51500E+01 4.22060E+01 0.00000E+00
 -1      2247 1.89000E+01 4.35050E+01 0.00000E+00
 -1      2248 2.04000E+01 4.35050E+01 0.00000E+00
 -1      2249 1.81500E+01 4.22060E+01 0.00000E+00
 -1      2250 2.19000E+01 4.35050E+01 0.00000E+00
 -1      2251 2.34000E+01 4.35050E+01 0.00000E+00
 -1      2252 2.11500E+01 4.22060E+01 0.00000E+00
 -1      2253 2.49000E+01 4.35050E+01 0.00000E+00
 -1      2254 2.64000E+01 4.35050E+01 0.00000E+00
 -1      2255 2.41500E+01 4.22060E+01 0.00000E+00
 -1      2256 2.79000E+01 4.35050E+01 0.00000E+00
 -1      2257 2.94000E+01 4.35050E+01 0.00000E+00
 -1      2258 2.71500E+01 4.22060E+01 0.00000E+00
 -1      2259 3.09000E+01 4.35050E+01 0.00000E+00
 -1      2260 3.24000E+01 4.35050E+01 0.00000E+00
 -1      2261 3.01500E+01 4.22060E+01 0.00000E+00
 -1      2262 3.39000E+01 4.35050E+01 0.00000E+00
 -1      2263 3.54000E+01 4.35050E+01 0.00000E+00
 -1      2264 3.31500E+01 4.22060E+01 0.00000E+00
 -1      2265 3.69000E+01 4.35050E+01 0.00000E+00
 -1      2266 3.84000E+01 4.35050E+01 0.00000E+00
 -1      2267 3.61500E+01 4.22060E+01 0.00000E+00
 -1      2268 3.99000E+01 4.35050E+01 0.00000E+00
 -1      2269 4.14000E+01 4.35050E+01 0.00000E+00
 -1      2270 3.91500E+01 4.22060E+01 0.00000E+00
 -1      2271 4.29000E+01 4.35050E+01 0.00000E+00
 -1      2272 4.44000E+01 4.35050E+01 0.00000E+00
 -1      2273 4.21500E+01 4.22060E+01 0.00000E+00
 -1      2274 4.59000E+01 4.35050E+01 0.00000E+00
 -1      2275 4.74000E+01 4.35050E+01 0.00000E+00
 -1      2276 4.51500E+01 4.22060E+01 0.00000E+00
 -1      2277 4.89000E+01 4.35050E+01 0.00000E+00
 -1      2278 5.04000E+01 4.35050E+01 0.00000E+00
 -1      2279 4.81500E+01 4.22060E+01 0.00000E+00
 -1      2280 5.19000E+01 4.35050E+01 0.00000E+00
 -1      2281 5.34000E+01 4.35050E+01 0.00000E+00
 -1      2282 5.11500E+01 4.22060E+01 0.00000E+00
 -1      2283 5.49000E+01 4.35050E+01 0.00000E+00
 -1      2284 5.64000E+01 4.35050E+01 0.00000E+00
 -1      2285 5.41500E+01 4.22060E+01 0.00000E+00
 -1      2286 5.79000E+01 4.35050E+01 0.00000E+00
 -1      2287 5.94000E+01 4.35050E+01 0.00000E+00
 -1      2288 5.71500E+01 4.22060E+01 0.00000E+00
 -1      2289 6.09000E+01 4.35050E+01 0.00000E+00
 -1      2290 6.24000E+01 4.35050E+01 0.00000E+00
 -1      2291 6.01500E+01 4.22060E+01 0.00000E+00
 -1      2292 6.39000E+01 4.35050E+01 0.00000E+00
 -1      2293 6.54000E+01 4.35050E+01 0.00000E+00
 -1      2294 6.31500E+01 4.22060E+01 0.00000E+00
 -1      2295 6.69000E+01 4.35050E+01 0.00000E+00
 -1      2296 6.84000E+01 4.35050E+01 0.00000E+00
 -1      2297 6.61500E+01 4.22060E+01 0.00000E+00
 -1      2298 6.99000E+01 4.35050E+01 0.00000E+00
 -1      2299 7.14000E+01 4.35050E+01 0.00000E+00
 -1      2300 6.91500E+01 4.22060E+01 0.00000E+00
 -1      2301 7.29000E+01 4.35050E+01 0.00000E+00
 -1      2302 7.44000E+01 4.35050E+01 0.00000E+00
 -1      2303 7.21500E+01 4.22060E+01 0.00000E+00
 -1      2304 7.59000E+01 4.35050E+01 0.00000E+00
 -1      2305 7.74000E+01 4.35050E+01 0.00000E+00
 -1      2306 7.51500E+01 4.22060E+01 0.00000E+00
 -1      2307 7.89000E+01 4.35050E+01 0.00000E+00
 -1      2308 8.04000E+01 4.35050E+01 0.00000E+00
 -1      2309 7.81500E+01 4.22060E+01 0.00000E+00
 -1      2310 8.19000E+01 4.35050E+01 0.00000E+00
 -1      2311 8.34000E+01 4.35050E+01 0.00000E+00
 -1      2312 8.11500E+01 4.22060E+01 0.00000E+00
 -1      2313 8.49000E+01 4.35050E+01 0.00000E+00
 -1      2314 8.64000E+01 4.35050E+01 0.00000E+00
 -1      2315 8.41500E+01 4.22060E+01 0.00000E+00
 -1      2316 8.79000E+01 4.35050E+01 0.00000E+00
 -1      2317 8.94000E+01 4.35050E+01 0.00000E+00
 -1      2318 8.71500E+01 4.22060E+01 0.00000E+00
 -1      2319 9.09000E+01 4.35050E+01 0.00000E+00
 -1      2320 9.24000E+01 4.35050E+01 0.00000E+00
 -1      2321 9.01500E+01 4.22060E+01 0.00000E+00
 -1      2322 9.39000E+01 4.35050E+01 0.00000E+00
 -1      2323 9.54000E+01 4.35050E+01 0.00000E+00
 -1      2324 9.31500E+01 4.22060E+01 0.00000E+00
 -1      2325 9.69000E+01 4.35050E+01 0.00000E+00
 -1      2326 9.84000E+01 4.35050E+01 0.00000E+00
 -1      2327 9.61500E+01 4.22060E+01 0.00000E+00
 -1      2328 9.99000E+01 4.35050E+01 0.00000E+00
 -1      2329 1.01400E+02 4.35050E+01 0.00000E+00
 -1      2330 9.91500E+01 4.22060E+01 0.00000E+00
 -1      2331 1.02900E+02 4.35050E+01 0.00000E+00
 -1      2332 1.04400E+02 4.35050E+01 0.00000E+00
 -1      2333 1.02150E+02 4.22060E+01 0.00000E+00
 -1      2334 1.05900E+02 4.35050E+01 0.00000E+00
 -1      2335 1.07400E+02 4.35050E+01 0.00000E+00
 -1      2336 1.05150E+02 4.22060E+01 0.00000E+00
 -1      2337 1.08900E+02 4.35050E+01 0.00000E+00
 -1      2338 1.10400E+02 4.35050E+01 0.00000E+00
 -1      2339 1.08150E+02 4.22060E+01 0.00000E+00
 -1      2340 1.11900E+02 4.35050E+01 0.00000E+00
 -1      2341 1.13400E+02 4.35050E+01 0.00000E+00
 -1      2342 1.11150E+02 4.22060E+01 0.00000E+00
 -1      2343 1.14900E+02 4.35050E+01 0.00000E+00
 -1      2344 1.16400E+02 4.35050E+01 0.00000E+00
 -1      2345 1.14150E+02 4.22060E+01 0.00000E+00
 -1      2346 1.17900E+02 4.35050E+01 0.00000E+00
 -1      2347 1.19400E+02 4.35050E+01 0.00000E+00
 -1      2348 1.17150E+02 4.22060E+01 0.00000E+00
 -1      2349 1.20900E+02 4.35050E+01 0.00000E+00
 -1      2350 1.22400E+02 4.35050E+01 0.00000E+00
 -1      2351 1.20150E+02 4.22060E+01 0.00000E+00
 -1      2352 1.23900E+02 4.35050E+01 0.00000E+00
 -1      2353 1.25400E+02 4.35050E+01 0.00000E+00
 -1      2354 1.23150E+02 4.22060E+01 0.00000E+00
 -1      2355 1.26900E+02 4.35050E+01 0.00000E+00
 -1      2356 1.28400E+02 4.35050E+01 0.00000E+00
 -1      2357 1.26150E+02 4.22060E+01 0.00000E+00
 -1      2358 1.29900E+02 4.35050E+01 0.00000E+00
 -1      2359 1.31400E+02 4.35050E+01 0.00000E+00
 -1      2360 1.29150E+02 4.22060E+01 0.00000E+00
 -1      2361 1.32900E+02 4.35050E+01 0.00000E+00
 -1      2362 1.34400E+02 4.35050E+01 0.00000E+00
 -1      2363 1.32150E+02 4.22060E+01 0.00000E+00
 -1      2364 1.35900E+02 4.35050E+01 0.00000E+00
 -1      2365 1.37400E+02 4.35050E+01 0.00000E+00
 -1      2366 1.35150E+02 4.22060E+01 0.00000E+00
 -1      2367 1.38900E+02 4.35050E+01 0.00000E+00
 -1      2368 1.40400E+02 4.35050E+01 0.00000E+00
 -1      2369 1.38150E+02 4.22060E+01 0.00000E+00
 -1      2370 1.41841E+02 4.34574E+01 0.00000E+00
 -1      2371 1.43341E+02 4.34574E+01 0.00000E+00
 -1      2372 1.43973E+02 4.20632E+01 0.00000E+00
 -1      2373 1.41091E+02 4.21584E+01 0.00000E+00
 -1      2374 1.10861E+01 5.06747E+00 0.00000E+00
 -1      2375 9.58613E+00 5.06747E+00 0.00000E+00
 -1      2376 9.40088E+00 5.89091E+00 0.00000E+00
 -1      2377 1.18736E+01 6.36647E+00 0.00000E+00
 -1      2378 1.98975E+01 5.30525E+00 0.00000E+00
 -1      2379 1.83975E+01 5.30525E+00 0.00000E+00
 -1      2380 1.76100E+01 6.60425E+00 0.00000E+00
 -1      2381 2.28975E+01 5.30525E+00 0.00000E+00
 -1      2382 2.13975E+01 5.30525E+00 0.00000E+00
 -1      2383 2.06100E+01 6.60425E+00 0.00000E+00
 -1      2384 2.58975E+01 5.30525E+00 0.00000E+00
 -1      2385 2.43975E+01 5.30525E+00 0.00000E+00
 -1      2386 2.36100E+01 6.60425E+00 0.00000E+00
 -1      2387 2.88975E+01 5.30525E+00 0.00000E+00
 -1      2388 2.73975E+01 5.30525E+00 0.00000E+00
 -1      2389 2.66100E+01 6.60425E+00 0.00000E+00
 -1      2390 3.18975E+01 5.30525E+00 0.00000E+00
 -1      2391 3.03975E+01 5.30525E+00 0.00000E+00
 -1      2392 2.96100E+01 6.60425E+00 0.00000E+00
 -1      2393 3.50475E+01 5.30525E+00 0.00000E+00
 -1      2394 3.34725E+01 5.30525E+00 0.00000E+00
 -1      2395 3.26850E+01 6.60425E+00 0.00000E+00
 -1      2396 3.80475E+01 5.30525E+00 0.00000E+00
 -1      2397 3.65475E+01 5.30525E+00 0.00000E+00
 -1      2398 3.57600E+01 6.60425E+00 0.00000E+00
 -1      2399 4.10475E+01 5.30525E+00 0.00000E+00
 -1      2400 3.95475E+01 5.30525E+00 0.00000E+00
 -1      2401 3.87600E+01 6.60425E+00 0.00000E+00
 -1      2402 4.40475E+01 5.30525E+00 0.00000E+00
 -1      2403 4.25475E+01 5.30525E+00 0.00000E+00
 -1      2404 4.17600E+01 6.60425E+00 0.00000E+00
 -1      2405 4.70475E+01 5.30525E+00 0.00000E+00
 -1      2406 4.55475E+01 5.30525E+00 0.00000E+00
 -1      2407 4.47600E+01 6.60425E+00 0.00000E+00
 -1      2408 5.01975E+01 5.30525E+00 0.00000E+00
 -1      2409 4.86225E+01 5.30525E+00 0.00000E+00
 -1      2410 4.78350E+01 6.60425E+00 0.00000E+00
 -1      2411 5.31975E+01 5.30525E+00 0.00000E+00
 -1      2412 5.16975E+01 5.30525E+00 0.00000E+00
 -1      2413 5.09100E+01 6.60425E+00 0.00000E+00
 -1      2414 5.61975E+01 5.30525E+00 0.00000E+00
 -1      2415 5.46975E+01 5.30525E+00 0.00000E+00
 -1      2416 5.39100E+01 6.60425E+00 0.00000E+00
 -1      2417 5.91975E+01 5.30525E+00 0.00000E+00
 -1      2418 5.76975E+01 5.30525E+00 0.00000E+00
 -1      2419 5.69100E+01 6.60425E+00 0.00000E+00
 -1      2420 6.21975E+01 5.30525E+00 0.00000E+00
 -1      2421 6.06975E+01 5.30525E+00 0.00000E+00
 -1      2422 5.99100E+01 6.60425E+00 0.00000E+00
 -1      2423 6.51975E+01 5.30525E+00 0.00000E+00
 -1      2424 6.36975E+01 5.30525E+00 0.00000E+00
 -1      2425 6.29100E+01 6.60425E+00 0.00000E+00
 -1      2426 6.83475E+01 5.30525E+00 0.00000E+00
 -1      2427 6.67725E+01 5.30525E+00 0.00000E+00
 -1      2428 6.59850E+01 6.60425E+00 0.00000E+00
 -1      2429 7.13475E+01 5.30525E+00 0.00000E+00
 -1      2430 6.98475E+01 5.30525E+00 0.00000E+00
 -1      2431 6.90600E+01 6.60425E+00 0.00000E+00
 -1      2432 7.43475E+01 5.30525E+00 0.00000E+00
 -1      2433 7.28475E+01 5.30525E+00 0.00000E+00
 -1      2434 7.20600E+01 6.60425E+00 0.00000E+00
 -1      2435 7.73475E+01 5.30525E+00 0.00000E+00
 -1      2436 7.58475E+01 5.30525E+00 0.00000E+00
 -1      2437 7.50600E+01 6.60425E+00 0.00000E+00
 -1      2438 8.03475E+01 5.30525E+00 0.00000E+00
 -1      2439 7.88475E+01 5.30525E+00 0.00000E+00
 -1      2440 7.80600E+01 6.60425E+00 0.00000E+00
 -1      2441 8.34975E+01 5.30525E+00 0.00000E+00
 -1      2442 8.19225E+01 5.30525E+00 0.00000E+00
 -1      2443 8.11350E+01 6.60425E+00 0.00000E+00
 -1      2444 8.64975E+01 5.30525E+00 0.00000E+00
 -1      2445 8.49975E+01 5.30525E+00 0.00000E+00
 -1      2446 8.42100E+01 6.60425E+00 0.00000E+00
 -1      2447 8.93100E+01 4.94759E+00 0.00000E+00
 -1      2448 8.79600E+01 4.94759E+00 0.00000E+00
 -1      2449 1.08814E+02 4.08465E+00 0.00000E+00
 -1      2450 1.10962E+02 1.34564E+01 0.00000E+00
 -1      2451 1.10535E+02 1.42521E+01 0.00000E+00
 -1      2452 1.10126E+02 4.33600E+00 0.00000E+00
 -1      2453 1.11692E+02 1.11042E+01 0.00000E+00
 -1      2454 1.11573E+02 1.22344E+01 0.00000E+00
 -1      2455 1.13738E+02 5.04184E+00 0.00000E+00
 -1      2456 1.12162E+02 5.04184E+00 0.00000E+00
 -1      2457 1.22775E+02 5.14815E+00 0.00000E+00
 -1      2458 1.21275E+02 5.14815E+00 0.00000E+00
 -1      2459 1.25775E+02 5.14815E+00 0.00000E+00
 -1      2460 1.24275E+02 5.14815E+00 0.00000E+00
 -1      2461 1.23525E+02 6.44715E+00 0.00000E+00
 -1      2462 1.28775E+02 5.14815E+00 0.00000E+00
 -1      2463 1.27275E+02 5.14815E+00 0.00000E+00
 -1      2464 1.26525E+02 6.44715E+00 0.00000E+00
 -1      2465 1.31925E+02 5.14815E+00 0.00000E+00
 -1      2466 1.30350E+02 5.14815E+00 0.00000E+00
 -1      2467 1.29600E+02 6.44715E+00 0.00000E+00
 -1      2468 1.34925E+02 5.14815E+00 0.00000E+00
 -1      2469 1.33425E+02 5.14815E+00 0.00000E+00
 -1      2470 1.32675E+02 6.44715E+00 0.00000E+00
 -1      2471 1.37925E+02 5.14815E+00 0.00000E+00
 -1      2472 1.36425E+02 5.14815E+00 0.00000E+00
 -1      2473 1.35675E+02 6.44715E+00 0.00000E+00
 -1      2474 1.40925E+02 5.14815E+00 0.00000E+00
 -1      2475 1.39425E+02 5.14815E+00 0.00000E+00
 -1      2476 1.38675E+02 6.44715E+00 0.00000E+00
 -1      2477 1.45277E+02 5.47721E+00 0.00000E+00
 -1      2478 1.44443E+02 5.12934E+00 0.00000E+00
 -1      2479 1.45045E+02 6.75740E+00 0.00000E+00
 -1      2480 1.44115E+02 1.47907E+01 0.00000E+00
 -1      2481 1.44115E+02 1.33407E+01 0.00000E+00
 -1      2482 1.44115E+02 1.77407E+01 0.00000E+00
 -1      2483 1.44115E+02 1.62657E+01 0.00000E+00
 -1      2484 1.42816E+02 1.55407E+01 0.00000E+00
 -1      2485 1.44115E+02 1.18657E+01 0.00000E+00
 -1      2486 1.44115E+02 1.03907E+01 0.00000E+00
 -1      2487 1.42816E+02 1.25907E+01 0.00000E+00
 -1      2488 1.44115E+02 2.06907E+01 0.00000E+00
 -1      2489 1.44115E+02 1.92157E+01 0.00000E+00
 -1      2490 1.42816E+02 1.84907E+01 0.00000E+00
 -1      2491 1.44115E+02 2.36407E+01 0.00000E+00
 -1      2492 1.44115E+02 2.21657E+01 0.00000E+00
 -1      2493 1.42816E+02 2.14407E+01 0.00000E+00
 -1      2494 1.44115E+02 2.65907E+01 0.00000E+00
 -1      2495 1.44115E+02 2.51157E+01 0.00000E+00
 -1      2496 1.42816E+02 2.43907E+01 0.00000E+00
 -1      2497 1.44115E+02 2.95407E+01 0.00000E+00
 -1      2498 1.44115E+02 2.80657E+01 0.00000E+00
 -1      2499 1.42816E+02 2.73407E+01 0.00000E+00
 -1      2500 1.44115E+02 3.24407E+01 0.00000E+00
 -1      2501 1.44115E+02 3.09907E+01 0.00000E+00
 -1      2502 1.42816E+02 3.02657E+01 0.00000E+00
 -1      2503 1.44115E+02 3.53907E+01 0.00000E+00
 -1      2504 1.44115E+02 3.39157E+01 0.00000E+00
 -1      2505 1.42816E+02 3.31907E+01 0.00000E+00
 -1      2506 1.44115E+02 3.83407E+01 0.00000E+00
 -1      2507 1.44115E+02 3.68657E+01 0.00000E+00
 -1      2508 1.42816E+02 3.61407E+01 0.00000E+00
 -1      2509 1.44044E+02 4.09395E+01 0.00000E+00
 -1      2510 1.44044E+02 3.94645E+01 0.00000E+00
 -1      2511 1.42745E+02 3.87395E+01 0.00000E+00
 -1      2512 1.42603E+02 4.09870E+01 0.00000E+00
 -1      2513 9.08972E+01 8.49148E+00 0.00000E+00
 -1      2514 9.11251E+01 7.50621E+00 0.00000E+00
 -1      2515 9.24242E+01 4.94171E+00 0.00000E+00
 -1      2516 9.61962E+01 1.99815E+01 0.00000E+00
 -1      2517 9.52356E+01 1.93815E+01 0.00000E+00
 -1      2518 1.19775E+02 5.14815E+00 0.00000E+00
 -1      2519 1.18275E+02 5.14815E+00 0.00000E+00
 -1      2520 1.20525E+02 6.44715E+00 0.00000E+00
 -1      2521 6.49500E+00 2.71625E+01 0.00000E+00
 -1      2522 6.49500E+00 2.86375E+01 0.00000E+00
 -1      2523 7.79400E+00 2.93750E+01 0.00000E+00
 -1      2524 7.79400E+00 2.64250E+01 0.00000E+00
 -1      2525 9.13268E+01 5.04441E+00 0.00000E+00
 -1      2526 9.04073E+01 4.84488E+00 0.00000E+00
 -1      2527 8.97323E+01 5.78622E+00 0.00000E+00
 -1      2528 9.19270E+01 5.58080E+00 0.00000E+00
 -1      2529 1.10625E+02 6.96724E+00 0.00000E+00
 -1      2530 1.10979E+02 7.99544E+00 0.00000E+00
 -1      2531 9.14113E+01 6.43575E+00 0.00000E+00
 -1      2532 1.02400E+02 2.06034E+01 0.00000E+00
 -1      2533 1.01537E+02 2.07227E+01 0.00000E+00
 -1      2534 9.04763E+01 1.06827E+01 0.00000E+00
 -1      2535 9.06164E+01 9.59363E+00 0.00000E+00
 -1      2536 9.10328E+01 1.31006E+01 0.00000E+00
 -1      2537 9.06931E+01 1.20888E+01 0.00000E+00
 -1      2538 9.16715E+01 1.50107E+01 0.00000E+00
 -1      2539 9.13169E+01 1.41222E+01 0.00000E+00
 -1      2540 9.25529E+01 1.67089E+01 0.00000E+00
 -1      2541 9.21122E+01 1.58598E+01 0.00000E+00
 -1      2542 9.11384E+01 1.57334E+01 0.00000E+00
 -1      2543 9.41862E+01 1.86272E+01 0.00000E+00
 -1      2544 9.33558E+01 1.78500E+01 0.00000E+00
 -1      2545 9.80256E+01 2.08682E+01 0.00000E+00
 -1      2546 9.72244E+01 2.06140E+01 0.00000E+00
 -1      2547 1.00447E+02 2.09249E+01 0.00000E+00
 -1      2548 9.92999E+01 2.09453E+01 0.00000E+00
 -1      2549 1.04161E+02 2.02169E+01 0.00000E+00
 -1      2550 1.03280E+02 2.04101E+01 0.00000E+00
 -1      2551 1.02949E+02 2.11947E+01 0.00000E+00
 -1      2552 1.06190E+02 1.94184E+01 0.00000E+00
 -1      2553 1.05297E+02 1.98849E+01 0.00000E+00
 -1      2554 1.07899E+02 1.82773E+01 0.00000E+00
 -1      2555 1.07247E+02 1.88846E+01 0.00000E+00
 -1      2556 1.09136E+02 1.69326E+01 0.00000E+00
 -1      2557 1.08518E+02 1.76050E+01 0.00000E+00
 -1      2558 1.08833E+02 1.85977E+01 0.00000E+00
 -1      2559 1.10125E+02 1.50802E+01 0.00000E+00
 -1      2560 1.09716E+02 1.59083E+01 0.00000E+00
 -1      2561 1.11021E+02 1.50485E+01 0.00000E+00
 -1      2562 1.11377E+02 9.03324E+00 0.00000E+00
 -1      2563 1.11511E+02 9.87557E+00 0.00000E+00
 -1      2564 7.79400E+00 3.52687E+01 0.00000E+00
 -1      2565 6.49500E+00 3.60062E+01 0.00000E+00
 -1      2566 6.49500E+00 3.74750E+01 0.00000E+00
 -1      2567 1.17525E+02 6.34084E+00 0.00000E+00
 -1      2568 1.14488E+02 6.23454E+00 0.00000E+00
 -1      2569 8.71725E+01 6.24659E+00 0.00000E+00
 -1      2570 1.12041E+02 1.29985E+01 0.00000E+00
 -1      2571 1.12472E+02 1.05478E+01 0.00000E+00
 -1      2572 1.42943E+02 5.12934E+00 0.00000E+00
 -1      2573 1.42193E+02 6.42834E+00 0.00000E+00
 -1      2574 1.42833E+02 9.61887E+00 0.00000E+00
 -1      2575 1.44132E+02 8.89387E+00 0.00000E+00
 -1      2576 1.44364E+02 7.61368E+00 0.00000E+00
 -1      2577 8.99766E+01 8.92657E+00 0.00000E+00
 -1      2578 1.11893E+02 8.28141E+00 0.00000E+00
 -1      2579 1.10566E+02 5.27000E+00 0.00000E+00
 -1      2580 9.63120E+01 2.10058E+01 0.00000E+00
 -1      2581 1.10031E+02 1.69009E+01 0.00000E+00
 -1      2582 1.04966E+02 2.06696E+01 0.00000E+00
 -1      2583 1.00979E+02 2.15903E+01 0.00000E+00
 -1      2584 9.86145E+01 2.17155E+01 0.00000E+00
 -1      2585 9.23821E+01 1.77236E+01 0.00000E+00
 -1      2586 6.55950E+00 3.99453E+01 0.00000E+00
 -1      2587 9.04136E+01 1.38626E+01 0.00000E+00
 -1      2588 8.99126E+01 1.14348E+01 0.00000E+00
 -1      2589 8.91321E+01 1.07809E+01 0.00000E+00
 -1      2590 8.93489E+01 1.21870E+01 0.00000E+00
 -1      2591 9.05435E+01 6.75397E+00 0.00000E+00
 -1      2592 9.42344E+01 1.96190E+01 0.00000E+00
 -1      2593 1.07158E+02 1.98038E+01 0.00000E+00
 -1      2594 1.11353E+02 6.46270E+00 0.00000E+00
 -1      2595 9.09300E+00 1.98250E+01 0.00000E+00
 -1      2596 9.09300E+00 2.12750E+01 0.00000E+00
 -1      2597 9.09300E+00 2.27500E+01 0.00000E+00
 -1      2598 9.09300E+00 2.42250E+01 0.00000E+00
 -1      2599 1.03920E+01 2.20250E+01 0.00000E+00
 -1      2600 9.09300E+00 1.39375E+01 0.00000E+00
 -1      2601 9.09300E+00 1.54125E+01 0.00000E+00
 -1      2602 9.09300E+00 1.09875E+01 0.00000E+00
 -1      2603 9.09300E+00 1.24625E+01 0.00000E+00
 -1      2604 1.03920E+01 1.32000E+01 0.00000E+00
 -1      2605 9.21562E+00 6.71434E+00 0.00000E+00
 -1      2606 2.13600E+01 7.90325E+00 0.00000E+00
 -1      2607 1.98600E+01 7.90325E+00 0.00000E+00
 -1      2608 2.43600E+01 7.90325E+00 0.00000E+00
 -1      2609 2.28600E+01 7.90325E+00 0.00000E+00
 -1      2610 2.21100E+01 9.20225E+00 0.00000E+00
 -1      2611 1.83600E+01 7.90325E+00 0.00000E+00
 -1      2612 1.68600E+01 7.90325E+00 0.00000E+00
 -1      2613 1.91100E+01 9.20225E+00 0.00000E+00
 -1      2614 1.14000E+01 4.09070E+01 0.00000E+00
 -1      2615 1.29000E+01 4.09070E+01 0.00000E+00
 -1      2616 1.30387E+02 7.74615E+00 0.00000E+00
 -1      2617 1.28813E+02 7.74615E+00 0.00000E+00
 -1      2618 1.44000E+01 4.09070E+01 0.00000E+00
 -1      2619 1.59000E+01 4.09070E+01 0.00000E+00
 -1      2620 1.36500E+01 3.96080E+01 0.00000E+00
 -1      2621 1.74000E+01 4.09070E+01 0.00000E+00
 -1      2622 1.89000E+01 4.09070E+01 0.00000E+00
 -1      2623 1.66500E+01 3.96080E+01 0.00000E+00
 -1      2624 2.04000E+01 4.09070E+01 0.00000E+00
 -1      2625 2.19000E+01 4.09070E+01 0.00000E+00
 -1      2626 1.96500E+01 3.96080E+01 0.00000E+00
 -1      2627 2.34000E+01 4.09070E+01 0.00000E+00
 -1      2628 2.49000E+01 4.09070E+01 0.00000E+00
 -1      2629 2.26500E+01 3.96080E+01 0.00000E+00
 -1      2630 2.64000E+01 4.09070E+01 0.00000E+00
 -1      2631 2.79000E+01 4.09070E+01 0.00000E+00
 -1      2632 2.56500E+01 3.96080E+01 0.00000E+00
 -1      2633 2.94000E+01 4.09070E+01 0.00000E+00
 -1      2634 3.09000E+01 4.09070E+01 0.00000E+00
 -1      2635 2.86500E+01 3.96080E+01 0.00000E+00
 -1      2636 3.24000E+01 4.09070E+01 0.00000E+00
 -1      2637 3.39000E+01 4.09070E+01 0.00000E+00
 -1      2638 3.16500E+01 3.96080E+01 0.00000E+00
 -1      2639 3.54000E+01 4.09070E+01 0.00000E+00
 -1      2640 3.69000E+01 4.09070E+01 0.00000E+00
 -1      2641 3.46500E+01 3.96080E+01 0.00000E+00
 -1      2642 3.84000E+01 4.09070E+01 0.00000E+00
 -1      2643 3.99000E+01 4.09070E+01 0.00000E+00
 -1      2644 3.76500E+01 3.96080E+01 0.00000E+00
 -1      2645 4.14000E+01 4.09070E+01 0.00000E+00
 -1      2646 4.29000E+01 4.09070E+01 0.00000E+00
 -1      2647 4.06500E+01 3.96080E+01 0.00000E+00
 -1      2648 4.44000E+01 4.09070E+01 0.00000E+00
 -1      2649 4.59000E+01 4.09070E+01 0.00000E+00
 -1      2650 4.36500E+01 3.96080E+01 0.00000E+00
 -1      2651 4.74000E+01 4.09070E+01 0.00000E+00
 -1      2652 4.89000E+01 4.09070E+01 0.00000E+00
 -1      2653 4.66500E+01 3.96080E+01 0.00000E+00
 -1      2654 5.04000E+01 4.09070E+01 0.00000E+00
 -1      2655 5.19000E+01 4.09070E+01 0.00000E+00
 -1      2656 4.96500E+01 3.96080E+01 0.00000E+00
 -1      2657 5.34000E+01 4.09070E+01 0.00000E+00
 -1      2658 5.49000E+01 4.09070E+01 0.00000E+00
 -1      2659 5.26500E+01 3.96080E+01 0.00000E+00
 -1      2660 5.64000E+01 4.09070E+01 0.00000E+00
 -1      2661 5.79000E+01 4.09070E+01 0.00000E+00
 -1      2662 5.56500E+01 3.96080E+01 0.00000E+00
 -1      2663 5.94000E+01 4.09070E+01 0.00000E+00
 -1      2664 6.09000E+01 4.09070E+01 0.00000E+00
 -1      2665 5.86500E+01 3.96080E+01 0.00000E+00
 -1      2666 6.24000E+01 4.09070E+01 0.00000E+00
 -1      2667 6.39000E+01 4.09070E+01 0.00000E+00
 -1      2668 6.16500E+01 3.96080E+01 0.00000E+00
 -1      2669 6.54000E+01 4.09070E+01 0.00000E+00
 -1      2670 6.69000E+01 4.09070E+01 0.00000E+00
 -1      2671 6.46500E+01 3.96080E+01 0.00000E+00
 -1      2672 6.84000E+01 4.09070E+01 0.00000E+00
 -1      2673 6.99000E+01 4.09070E+01 0.00000E+00
 -1      2674 6.76500E+01 3.96080E+01 0.00000E+00
 -1      2675 7.14000E+01 4.09070E+01 0.00000E+00
 -1      2676 7.29000E+01 4.09070E+01 0.00000E+00
 -1      2677 7.06500E+01 3.96080E+01 0.00000E+00
 -1      2678 7.44000E+01 4.09070E+01 0.00000E+00
 -1      2679 7.59000E+01 4.09070E+01 0.00000E+00
 -1      2680 7.36500E+01 3.96080E+01 0.00000E+00
 -1      2681 7.74000E+01 4.09070E+01 0.00000E+00
 -1      2682 7.89000E+01 4.09070E+01 0.00000E+00
 -1      2683 7.66500E+01 3.96080E+01 0.00000E+00
 -1      2684 8.04000E+01 4.09070E+01 0.00000E+00
 -1      2685 8.19000E+01 4.09070E+01 0.00000E+00
 -1      2686 7.96500E+01 3.96080E+01 0.00000E+00
 -1      2687 8.34000E+01 4.09070E+01 0.00000E+00
 -1      2688 8.49000E+01 4.09070E+01 0.00000E+00
 -1      2689 8.26500E+01 3.96080E+01 0.00000E+00
 -1      2690 8.64000E+01 4.09070E+01 0.00000E+00
 -1      2691 8.79000E+01 4.09070E+01 0.00000E+00
 -1      2692 8.56500E+01 3.96080E+01 0.00000E+00
 -1      2693 8.94000E+01 4.09070E+01 0.00000E+00
 -1      2694 9.09000E+01 4.09070E+01 0.00000E+00
 -1      2695 8.86500E+01 3.96080E+01 0.00000E+00
 -1      2696 9.24000E+01 4.09070E+01 0.00000E+00
 -1      2697 9.39000E+01 4.09070E+01 0.00000E+00
 -1      2698 9.16500E+01 3.96080E+01 0.00000E+00
 -1      2699 9.54000E+01 4.09070E+01 0.00000E+00
 -1      2700 9.69000E+01 4.09070E+01 0.00000E+00
 -1      2701 9.46500E+01 3.96080E+01 0.00000E+00
 -1      2702 9.84000E+01 4.09070E+01 0.00000E+00
 -1      2703 9.99000E+01 4.09070E+01 0.00000E+00
 -1      2704 9.76500E+01 3.96080E+01 0.00000E+00
 -1      2705 1.01400E+02 4.09070E+01 0.00000E+00
 -1      2706 1.02900E+02 4.09070E+01 0.00000E+00
 -1      2707 1.00650E+02 3.96080E+01 0.00000E+00
 -1      2708 1.04400E+02 4.09070E+01 0.00000E+00
 -1      2709 1.05900E+02 4.09070E+01 0.00000E+00
 -1      2710 1.03650E+02 3.96080E+01 0.00000E+00
 -1      2711 1.07400E+02 4.09070E+01 0.00000E+00
 -1      2712 1.08900E+02 4.09070E+01 0.00000E+00
 -1      2713 1.06650E+02 3.96080E+01 0.00000E+00
 -1      2714 1.10400E+02 4.09070E+01 0.00000E+00
 -1      2715 1.11900E+02 4.09070E+01 0.00000E+00
 -1      2716 1.09650E+02 3.96080E+01 0.00000E+00
 -1      2717 1.13400E+02 4.09070E+01 0.00000E+00
 -1      2718 1.14900E+02 4.09070E+01 0.00000E+00
 -1      2719 1.12650E+02 3.96080E+01 0.00000E+00
 -1      2720 1.16400E+02 4.09070E+01 0.00000E+00
 -1      2721 1.17900E+02 4.09070E+01 0.00000E+00
 -1      2722 1.15650E+02 3.96080E+01 0.00000E+00
 -1      2723 1.19400E+02 4.09070E+01 0.00000E+00
 -1      2724 1.20900E+02 4.09070E+01 0.00000E+00
 -1      2725 1.18650E+02 3.96080E+01 0.00000E+00
 -1      2726 1.22400E+02 4.09070E+01 0.00000E+00
 -1      2727 1.23900E+02 4.09070E+01 0.00000E+00
 -1      2728 1.21650E+02 3.96080E+01 0.00000E+00
 -1      2729 1.25400E+02 4.09070E+01 0.00000E+00
 -1      2730 1.26900E+02 4.09070E+01 0.00000E+00
 -1      2731 1.24650E+02 3.96080E+01 0.00000E+00
 -1      2732 1.28400E+02 4.09070E+01 0.00000E+00
 -1      2733 1.29900E+02 4.09070E+01 0.00000E+00
 -1      2734 1.27650E+02 3.96080E+01 0.00000E+00
 -1      2735 1.31400E+02 4.09070E+01 0.00000E+00
 -1      2736 1.32900E+02 4.09070E+01 0.00000E+00
 -1      2737 1.30650E+02 3.96080E+01 0.00000E+00
 -1      2738 1.34400E+02 4.09070E+01 0.00000E+00
 -1      2739 1.35900E+02 4.09070E+01 0.00000E+00
 -1      2740 1.33650E+02 3.96080E+01 0.00000E+00
 -1      2741 1.37400E+02 4.09070E+01 0.00000E+00
 -1      2742 1.38900E+02 4.09070E+01 0.00000E+00
 -1      2743 1.36650E+02 3.96080E+01 0.00000E+00
 -1      2744 1.40031E+02 4.09708E+01 0.00000E+00
 -1      2745 1.41472E+02 4.09232E+01 0.00000E+00
 -1      2746 1.41543E+02 3.97994E+01 0.00000E+00
 -1      2747 1.39281E+02 3.96718E+01 0.00000E+00
 -1      2748 1.27313E+02 7.74615E+00 0.00000E+00
 -1      2749 1.25813E+02 7.74615E+00 0.00000E+00
 -1      2750 1.28100E+02 9.04515E+00 0.00000E+00
 -1      2751 8.81672E+01 7.14493E+00 0.00000E+00
 -1      2752 8.67047E+01 7.50259E+00 0.00000E+00
 -1      2753 2.73600E+01 7.90325E+00 0.00000E+00
 -1      2754 2.58600E+01 7.90325E+00 0.00000E+00
 -1      2755 2.51100E+01 9.20225E+00 0.00000E+00
 -1      2756 3.03600E+01 7.90325E+00 0.00000E+00
 -1      2757 2.88600E+01 7.90325E+00 0.00000E+00
 -1      2758 2.81100E+01 9.20225E+00 0.00000E+00
 -1      2759 3.35100E+01 7.90325E+00 0.00000E+00
 -1      2760 3.19350E+01 7.90325E+00 0.00000E+00
 -1      2761 3.11850E+01 9.20225E+00 0.00000E+00
 -1      2762 3.65100E+01 7.90325E+00 0.00000E+00
 -1      2763 3.50100E+01 7.90325E+00 0.00000E+00
 -1      2764 3.42600E+01 9.20225E+00 0.00000E+00
 -1      2765 3.95100E+01 7.90325E+00 0.00000E+00
 -1      2766 3.80100E+01 7.90325E+00 0.00000E+00
 -1      2767 3.72600E+01 9.20225E+00 0.00000E+00
 -1      2768 4.25100E+01 7.90325E+00 0.00000E+00
 -1      2769 4.10100E+01 7.90325E+00 0.00000E+00
 -1      2770 4.02600E+01 9.20225E+00 0.00000E+00
 -1      2771 4.55100E+01 7.90325E+00 0.00000E+00
 -1      2772 4.40100E+01 7.90325E+00 0.00000E+00
 -1      2773 4.32600E+01 9.20225E+00 0.00000E+00
 -1      2774 4.86600E+01 7.90325E+00 0.00000E+00
 -1      2775 4.70850E+01 7.90325E+00 0.00000E+00
 -1      2776 4.63350E+01 9.20225E+00 0.00000E+00
 -1      2777 5.16600E+01 7.90325E+00 0.00000E+00
 -1      2778 5.01600E+01 7.90325E+00 0.00000E+00
 -1      2779 4.94100E+01 9.20225E+00 0.00000E+00
 -1      2780 5.46600E+01 7.90325E+00 0.00000E+00
 -1      2781 5.31600E+01 7.90325E+00 0.00000E+00
 -1      2782 5.24100E+01 9.20225E+00 0.00000E+00
 -1      2783 5.76600E+01 7.90325E+00 0.00000E+00
 -1      2784 5.61600E+01 7.90325E+00 0.00000E+00
 -1      2785 5.54100E+01 9.20225E+00 0.00000E+00
 -1      2786 6.06600E+01 7.90325E+00 0.00000E+00
 -1      2787 5.91600E+01 7.90325E+00 0.00000E+00
 -1      2788 5.84100E+01 9.20225E+00 0.00000E+00
 -1      2789 6.36600E+01 7.90325E+00 0.00000E+00
 -1      2790 6.21600E+01 7.90325E+00 0.00000E+00
 -1      2791 6.14100E+01 9.20225E+00 0.00000E+00
 -1      2792 6.68100E+01 7.90325E+00 0.00000E+00
 -1      2793 6.52350E+01 7.90325E+00 0.00000E+00
 -1      2794 6.44850E+01 9.20225E+00 0.00000E+00
 -1      2795 6.98100E+01 7.90325E+00 0.00000E+00
 -1      2796 6.83100E+01 7.90325E+00 0.00000E+00
 -1      2797 6.75600E+01 9.20225E+00 0.00000E+00
 -1      2798 7.28100E+01 7.90325E+00 0.00000E+00
 -1      2799 7.13100E+01 7.90325E+00 0.00000E+00
 -1      2800 7.05600E+01 9.20225E+00 0.00000E+00
 -1      2801 7.58100E+01 7.90325E+00 0.00000E+00
 -1      2802 7.43100E+01 7.90325E+00 0.00000E+00
 -1      2803 7.35600E+01 9.20225E+00 0.00000E+00
 -1      2804 7.88100E+01 7.90325E+00 0.00000E+00
 -1      2805 7.73100E+01 7.90325E+00 0.00000E+00
 -1      2806 7.65600E+01 9.20225E+00 0.00000E+00
 -1      2807 8.19600E+01 7.90325E+00 0.00000E+00
 -1      2808 8.03850E+01 7.90325E+00 0.00000E+00
 -1      2809 7.96350E+01 9.20225E+00 0.00000E+00
 -1      2810 8.49600E+01 7.90325E+00 0.00000E+00
 -1      2811 8.34600E+01 7.90325E+00 0.00000E+00
 -1      2812 8.27100E+01 9.20225E+00 0.00000E+00
 -1      2813 1.13114E+02 1.27710E+01 0.00000E+00
 -1      2814 1.12503E+02 1.39930E+01 0.00000E+00
 -1      2815 1.13396E+02 9.78450E+00 0.00000E+00
 -1      2816 1.13576E+02 1.10131E+01 0.00000E+00
 -1      2817 9.62451E+01 2.22666E+01 0.00000E+00
 -1      2818 9.52169E+01 2.16341E+01 0.00000E+00
 -1      2819 1.24313E+02 7.74615E+00 0.00000E+00
 -1      2820 1.22813E+02 7.74615E+00 0.00000E+00
 -1      2821 1.25100E+02 9.04515E+00 0.00000E+00
 -1      2822 1.33387E+02 7.74615E+00 0.00000E+00
 -1      2823 1.31887E+02 7.74615E+00 0.00000E+00
 -1      2824 1.31100E+02 9.04515E+00 0.00000E+00
 -1      2825 1.36387E+02 7.74615E+00 0.00000E+00
 -1      2826 1.34887E+02 7.74615E+00 0.00000E+00
 -1      2827 1.34100E+02 9.04515E+00 0.00000E+00
 -1      2828 1.39387E+02 7.74615E+00 0.00000E+00
 -1      2829 1.37887E+02 7.74615E+00 0.00000E+00
 -1      2830 1.37100E+02 9.04515E+00 0.00000E+00
 -1      2831 1.41526E+02 1.03530E+01 0.00000E+00
 -1      2832 1.41542E+02 8.85622E+00 0.00000E+00
 -1      2833 1.41518E+02 1.62782E+01 0.00000E+00
 -1      2834 1.41518E+02 1.48032E+01 0.00000E+00
 -1      2835 1.41518E+02 1.33282E+01 0.00000E+00
 -1      2836 1.41518E+02 1.18532E+01 0.00000E+00
 -1      2837 1.40219E+02 1.40657E+01 0.00000E+00
 -1      2838 1.41518E+02 1.92282E+01 0.00000E+00
 -1      2839 1.41518E+02 1.77532E+01 0.00000E+00
 -1      2840 1.40219E+02 1.70157E+01 0.00000E+00
 -1      2841 1.41518E+02 2.51282E+01 0.00000E+00
 -1      2842 1.41518E+02 2.36532E+01 0.00000E+00
 -1      2843 1.41518E+02 2.80782E+01 0.00000E+00
 -1      2844 1.41518E+02 2.66032E+01 0.00000E+00
 -1      2845 1.40219E+02 2.58657E+01 0.00000E+00
 -1      2846 1.41518E+02 3.09782E+01 0.00000E+00
 -1      2847 1.41518E+02 2.95282E+01 0.00000E+00
 -1      2848 1.40219E+02 2.87907E+01 0.00000E+00
 -1      2849 1.41518E+02 3.39282E+01 0.00000E+00
 -1      2850 1.41518E+02 3.24532E+01 0.00000E+00
 -1      2851 1.40219E+02 3.17157E+01 0.00000E+00
 -1      2852 1.41518E+02 3.68782E+01 0.00000E+00
 -1      2853 1.41518E+02 3.54032E+01 0.00000E+00
 -1      2854 1.40219E+02 3.46657E+01 0.00000E+00
 -1      2855 1.21313E+02 7.74615E+00 0.00000E+00
 -1      2856 1.19813E+02 7.74615E+00 0.00000E+00
 -1      2857 1.22100E+02 9.04515E+00 0.00000E+00
 -1      2858 1.18191E+02 7.58371E+00 0.00000E+00
 -1      2859 1.16691E+02 7.47740E+00 0.00000E+00
 -1      2860 1.05774E+02 2.13267E+01 0.00000E+00
 -1      2861 1.04638E+02 2.16586E+01 0.00000E+00
 -1      2862 1.15256E+02 7.25967E+00 0.00000E+00
 -1      2863 1.13719E+02 7.25967E+00 0.00000E+00
 -1      2864 7.85850E+00 3.92077E+01 0.00000E+00
 -1      2865 1.41518E+02 2.21782E+01 0.00000E+00
 -1      2866 1.41518E+02 2.07032E+01 0.00000E+00
 -1      2867 1.40219E+02 1.99657E+01 0.00000E+00
 -1      2868 1.40219E+02 2.29157E+01 0.00000E+00
 -1      2869 1.53600E+01 7.90325E+00 0.00000E+00
 -1      2870 1.38600E+01 7.90325E+00 0.00000E+00
 -1      2871 1.61100E+01 9.20225E+00 0.00000E+00
 -1      2872 8.97698E+01 1.45920E+01 0.00000E+00
 -1      2873 8.94857E+01 1.35704E+01 0.00000E+00
 -1      2874 9.09300E+00 1.68813E+01 0.00000E+00
 -1      2875 9.09300E+00 1.83563E+01 0.00000E+00
 -1      2876 1.03920E+01 1.90812E+01 0.00000E+00
 -1      2877 1.03920E+01 1.61437E+01 0.00000E+00
 -1      2878 9.09300E+00 3.15875E+01 0.00000E+00
 -1      2879 9.09300E+00 3.30625E+01 0.00000E+00
 -1      2880 1.01680E+02 2.23323E+01 0.00000E+00
 -1      2881 1.00590E+02 2.25346E+01 0.00000E+00
 -1      2882 8.86976E+01 9.21482E+00 0.00000E+00
 -1      2883 8.89783E+01 8.11268E+00 0.00000E+00
 -1      2884 8.94461E+01 6.85668E+00 0.00000E+00
 -1      2885 9.05976E+01 1.65530E+01 0.00000E+00
 -1      2886 9.01569E+01 1.57039E+01 0.00000E+00
 -1      2887 1.08073E+02 2.03023E+01 0.00000E+00
 -1      2888 1.07016E+02 2.08361E+01 0.00000E+00
 -1      2889 1.11286E+02 1.69353E+01 0.00000E+00
 -1      2890 1.10706E+02 1.79597E+01 0.00000E+00
 -1      2891 9.20822E+01 1.87877E+01 0.00000E+00
 -1      2892 9.12793E+01 1.76466E+01 0.00000E+00
 -1      2893 9.91898E+01 2.27773E+01 0.00000E+00
 -1      2894 9.79155E+01 2.27002E+01 0.00000E+00
 -1      2895 1.03441E+02 2.19458E+01 0.00000E+00
 -1      2896 1.02561E+02 2.21390E+01 0.00000E+00
 -1      2897 1.02172E+02 2.30833E+01 0.00000E+00
 -1      2898 1.10088E+02 1.86320E+01 0.00000E+00
 -1      2899 1.09469E+02 1.93044E+01 0.00000E+00
 -1      2900 1.11343E+02 1.86664E+01 0.00000E+00
 -1      2901 1.12099E+02 1.50501E+01 0.00000E+00
 -1      2902 1.11690E+02 1.58782E+01 0.00000E+00
 -1      2903 1.12365E+02 1.69369E+01 0.00000E+00
 -1      2904 1.13172E+02 1.48226E+01 0.00000E+00
 -1      2905 9.41675E+01 2.08798E+01 0.00000E+00
 -1      2906 9.31181E+01 2.01255E+01 0.00000E+00
 -1      2907 9.41006E+01 2.21405E+01 0.00000E+00
 -1      2908 1.03920E+01 2.49750E+01 0.00000E+00
 -1      2909 9.09300E+00 2.57000E+01 0.00000E+00
 -1      2910 9.09300E+00 2.71750E+01 0.00000E+00
 -1      2911 1.05446E+01 7.27791E+00 0.00000E+00
 -1      2912 9.12300E+00 7.86356E+00 0.00000E+00
 -1      2913 9.12300E+00 9.33856E+00 0.00000E+00
 -1      2914 1.17810E+01 7.51569E+00 0.00000E+00
 -1      2915 8.87052E+01 1.29164E+01 0.00000E+00
 -1      2916 8.59547E+01 8.80159E+00 0.00000E+00
 -1      2917 8.85168E+00 4.05347E+01 0.00000E+00
 -1      2918 1.02152E+01 4.07987E+01 0.00000E+00
 -1      2919 9.19483E+01 2.13092E+01 0.00000E+00
 -1      2920 9.20153E+01 2.00484E+01 0.00000E+00
 -1      2921 9.09125E+01 1.99714E+01 0.00000E+00
 -1      2922 1.09652E+01 3.94997E+01 0.00000E+00
 -1      2923 1.14038E+02 1.20077E+01 0.00000E+00
 -1      2924 1.14499E+02 1.30022E+01 0.00000E+00
 -1      2925 1.14962E+02 1.12443E+01 0.00000E+00
 -1      2926 1.03920E+01 3.37938E+01 0.00000E+00
 -1      2927 9.09300E+00 3.45313E+01 0.00000E+00
 -1      2928 9.09300E+00 3.60000E+01 0.00000E+00
 -1      2929 1.25310E+01 8.81469E+00 0.00000E+00
 -1      2930 9.09300E+00 2.86437E+01 0.00000E+00
 -1      2931 9.09300E+00 3.01187E+01 0.00000E+00
 -1      2932 1.03920E+01 3.08563E+01 0.00000E+00
 -1      2933 1.03920E+01 2.79188E+01 0.00000E+00
 -1      2934 1.40205E+02 8.01875E+00 0.00000E+00
 -1      2935 1.39418E+02 9.31775E+00 0.00000E+00
 -1      2936 1.40227E+02 1.10905E+01 0.00000E+00
 -1      2937 1.43530E+02 7.26580E+00 0.00000E+00
 -1      2938 1.41512E+02 7.28461E+00 0.00000E+00
 -1      2939 1.04250E+02 2.26030E+01 0.00000E+00
 -1      2940 1.18978E+02 8.88271E+00 0.00000E+00
 -1      2941 1.41614E+02 3.86756E+01 0.00000E+00
 -1      2942 9.98913E+01 2.35193E+01 0.00000E+00
 -1      2943 1.40315E+02 3.79381E+01 0.00000E+00
 -1      2944 1.09328E+02 2.03367E+01 0.00000E+00
 -1      2945 1.09186E+02 2.13690E+01 0.00000E+00
 -1      2946 1.10583E+02 2.03711E+01 0.00000E+00
 -1      2947 1.15922E+02 8.50253E+00 0.00000E+00
 -1      2948 1.06689E+02 2.18252E+01 0.00000E+00
 -1      2949 9.68203E+01 2.33284E+01 0.00000E+00
 -1      2950 1.13389E+02 8.80200E+00 0.00000E+00
 -1      2951 1.14494E+02 9.26730E+00 0.00000E+00
 -1      2952 8.92290E+01 1.54116E+01 0.00000E+00
 -1      2953 1.04220E+01 1.00761E+01 0.00000E+00
 -1      2954 1.12991E+02 7.76421E+00 0.00000E+00
 -1      2955 9.02978E+01 1.76171E+01 0.00000E+00
 -1      2956 1.16910E+01 1.24625E+01 0.00000E+00
 -1      2957 1.16910E+01 1.39375E+01 0.00000E+00
 -1      2958 2.88600E+01 1.05013E+01 0.00000E+00
 -1      2959 2.73600E+01 1.05013E+01 0.00000E+00
 -1      2960 2.28600E+01 1.05013E+01 0.00000E+00
 -1      2961 2.13600E+01 1.05013E+01 0.00000E+00
 -1      2962 1.98600E+01 1.05013E+01 0.00000E+00
 -1      2963 1.83600E+01 1.05013E+01 0.00000E+00
 -1      2964 2.06100E+01 1.18003E+01 0.00000E+00
 -1      2965 8.78718E+00 3.80644E+01 0.00000E+00
 -1      2966 1.00752E+02 2.43255E+01 0.00000E+00
 -1      2967 9.93517E+01 2.45681E+01 0.00000E+00
 -1      2968 1.59000E+01 3.83090E+01 0.00000E+00
 -1      2969 1.74000E+01 3.83090E+01 0.00000E+00
 -1      2970 1.89000E+01 3.83090E+01 0.00000E+00
 -1      2971 2.04000E+01 3.83090E+01 0.00000E+00
 -1      2972 1.81500E+01 3.70100E+01 0.00000E+00
 -1      2973 2.19000E+01 3.83090E+01 0.00000E+00
 -1      2974 2.34000E+01 3.83090E+01 0.00000E+00
 -1      2975 2.11500E+01 3.70100E+01 0.00000E+00
 -1      2976 2.49000E+01 3.83090E+01 0.00000E+00
 -1      2977 2.64000E+01 3.83090E+01 0.00000E+00
 -1      2978 2.41500E+01 3.70100E+01 0.00000E+00
 -1      2979 2.79000E+01 3.83090E+01 0.00000E+00
 -1      2980 2.94000E+01 3.83090E+01 0.00000E+00
 -1      2981 2.71500E+01 3.70100E+01 0.00000E+00
 -1      2982 3.09000E+01 3.83090E+01 0.00000E+00
 -1      2983 3.24000E+01 3.83090E+01 0.00000E+00
 -1      2984 3.01500E+01 3.70100E+01 0.00000E+00
 -1      2985 3.39000E+01 3.83090E+01 0.00000E+00
 -1      2986 3.54000E+01 3.83090E+01 0.00000E+00
 -1      2987 3.31500E+01 3.70100E+01 0.00000E+00
 -1      2988 3.69000E+01 3.83090E+01 0.00000E+00
 -1      2989 3.84000E+01 3.83090E+01 0.00000E+00
 -1      2990 3.61500E+01 3.70100E+01 0.00000E+00
 -1      2991 3.99000E+01 3.83090E+01 0.00000E+00
 -1      2992 4.14000E+01 3.83090E+01 0.00000E+00
 -1      2993 3.91500E+01 3.70100E+01 0.00000E+00
 -1      2994 4.29000E+01 3.83090E+01 0.00000E+00
 -1      2995 4.44000E+01 3.83090E+01 0.00000E+00
 -1      2996 4.21500E+01 3.70100E+01 0.00000E+00
 -1      2997 4.59000E+01 3.83090E+01 0.00000E+00
 -1      2998 4.74000E+01 3.83090E+01 0.00000E+00
 -1      2999 4.51500E+01 3.70100E+01 0.00000E+00
 -1      3000 4.89000E+01 3.83090E+01 0.00000E+00
 -1      3001 5.04000E+01 3.83090E+01 0.00000E+00
 -1      3002 4.81500E+01 3.70100E+01 0.00000E+00
 -1      3003 5.19000E+01 3.83090E+01 0.00000E+00
 -1      3004 5.34000E+01 3.83090E+01 0.00000E+00
 -1      3005 5.11500E+01 3.70100E+01 0.00000E+00
 -1      3006 5.49000E+01 3.83090E+01 0.00000E+00
 -1      3007 5.64000E+01 3.83090E+01 0.00000E+00
 -1      3008 5.41500E+01 3.70100E+01 0.00000E+00
 -1      3009 5.79000E+01 3.83090E+01 0.00000E+00
 -1      3010 5.94000E+01 3.83090E+01 0.00000E+00
 -1      3011 5.71500E+01 3.70100E+01 0.00000E+00
 -1      3012 6.09000E+01 3.83090E+01 0.00000E+00
 -1      3013 6.24000E+01 3.83090E+01 0.00000E+00
 -1      3014 6.01500E+01 3.70100E+01 0.00000E+00
 -1      3015 6.39000E+01 3.83090E+01 0.00000E+00
 -1      3016 6.54000E+01 3.83090E+01 0.00000E+00
 -1      3017 6.31500E+01 3.70100E+01 0.00000E+00
 -1      3018 6.69000E+01 3.83090E+01 0.00000E+00
 -1      3019 6.84000E+01 3.83090E+01 0.00000E+00
 -1      3020 6.61500E+01 3.70100E+01 0.00000E+00
 -1      3021 6.99000E+01 3.83090E+01 0.00000E+00
 -1      3022 7.14000E+01 3.83090E+01 0.00000E+00
 -1      3023 6.91500E+01 3.70100E+01 0.00000E+00
 -1      3024 7.29000E+01 3.83090E+01 0.00000E+00
 -1      3025 7.44000E+01 3.83090E+01 0.00000E+00
 -1      3026 7.21500E+01 3.70100E+01 0.00000E+00
 -1      3027 7.59000E+01 3.83090E+01 0.00000E+00
 -1      3028 7.74000E+01 3.83090E+01 0.00000E+00
 -1      3029 7.51500E+01 3.70100E+01 0.00000E+00
 -1      3030 7.89000E+01 3.83090E+01 0.00000E+00
 -1      3031 8.04000E+01 3.83090E+01 0.00000E+00
 -1      3032 7.81500E+01 3.70100E+01 0.00000E+00
 -1      3033 8.19000E+01 3.83090E+01 0.00000E+00
 -1      3034 8.34000E+01 3.83090E+01 0.00000E+00
 -1      3035 8.11500E+01 3.70100E+01 0.00000E+00
 -1      3036 8.49000E+01 3.83090E+01 0.00000E+00
 -1      3037 8.64000E+01 3.83090E+01 0.00000E+00
 -1      3038 8.41500E+01 3.70100E+01 0.00000E+00
 -1      3039 8.79000E+01 3.83090E+01 0.00000E+00
 -1      3040 8.94000E+01 3.83090E+01 0.00000E+00
 -1      3041 8.71500E+01 3.70100E+01 0.00000E+00
 -1      3042 9.09000E+01 3.83090E+01 0.00000E+00
 -1      3043 9.24000E+01 3.83090E+01 0.00000E+00
 -1      3044 9.01500E+01 3.70100E+01 0.00000E+00
 -1      3045 9.39000E+01 3.83090E+01 0.00000E+00
 -1      3046 9.54000E+01 3.83090E+01 0.00000E+00
 -1      3047 9.31500E+01 3.70100E+01 0.00000E+00
 -1      3048 9.69000E+01 3.83090E+01 0.00000E+00
 -1      3049 9.84000E+01 3.83090E+01 0.00000E+00
 -1      3050 9.61500E+01 3.70100E+01 0.00000E+00
 -1      3051 9.99000E+01 3.83090E+01 0.00000E+00
 -1      3052 1.01400E+02 3.83090E+01 0.00000E+00
 -1      3053 9.91500E+01 3.70100E+01 0.00000E+00
 -1      3054 1.02900E+02 3.83090E+01 0.00000E+00
 -1      3055 1.04400E+02 3.83090E+01 0.00000E+00
 -1      3056 1.02150E+02 3.70100E+01 0.00000E+00
 -1      3057 1.05900E+02 3.83090E+01 0.00000E+00
 -1      3058 1.07400E+02 3.83090E+01 0.00000E+00
 -1      3059 1.05150E+02 3.70100E+01 0.00000E+00
 -1      3060 1.08900E+02 3.83090E+01 0.00000E+00
 -1      3061 1.10400E+02 3.83090E+01 0.00000E+00
 -1      3062 1.08150E+02 3.70100E+01 0.00000E+00
 -1      3063 1.11900E+02 3.83090E+01 0.00000E+00
 -1      3064 1.13400E+02 3.83090E+01 0.00000E+00
 -1      3065 1.11150E+02 3.70100E+01 0.00000E+00
 -1      3066 1.14900E+02 3.83090E+01 0.00000E+00
 -1      3067 1.16400E+02 3.83090E+01 0.00000E+00
 -1      3068 1.14150E+02 3.70100E+01 0.00000E+00
 -1      3069 1.17900E+02 3.83090E+01 0.00000E+00
 -1      3070 1.19400E+02 3.83090E+01 0.00000E+00
 -1      3071 1.17150E+02 3.70100E+01 0.00000E+00
 -1      3072 1.20900E+02 3.83090E+01 0.00000E+00
 -1      3073 1.22400E+02 3.83090E+01 0.00000E+00
 -1      3074 1.20150E+02 3.70100E+01 0.00000E+00
 -1      3075 1.23900E+02 3.83090E+01 0.00000E+00
 -1      3076 1.25400E+02 3.83090E+01 0.00000E+00
 -1      3077 1.23150E+02 3.70100E+01 0.00000E+00
 -1      3078 1.26900E+02 3.83090E+01 0.00000E+00
 -1      3079 1.28400E+02 3.83090E+01 0.00000E+00
 -1      3080 1.26150E+02 3.70100E+01 0.00000E+00
 -1      3081 1.29900E+02 3.83090E+01 0.00000E+00
 -1      3082 1.31400E+02 3.83090E+01 0.00000E+00
 -1      3083 1.29150E+02 3.70100E+01 0.00000E+00
 -1      3084 1.32900E+02 3.83090E+01 0.00000E+00
 -1      3085 1.34400E+02 3.83090E+01 0.00000E+00
 -1      3086 1.32150E+02 3.70100E+01 0.00000E+00
 -1      3087 1.35900E+02 3.83090E+01 0.00000E+00
 -1      3088 1.37400E+02 3.83090E+01 0.00000E+00
 -1      3089 1.35150E+02 3.70100E+01 0.00000E+00
 -1      3090 1.39184E+02 3.78743E+01 0.00000E+00
 -1      3091 3.20100E+01 1.05013E+01 0.00000E+00
 -1      3092 3.04350E+01 1.05013E+01 0.00000E+00
 -1      3093 2.96850E+01 1.18003E+01 0.00000E+00
 -1      3094 1.39409E+02 1.08179E+01 0.00000E+00
 -1      3095 1.38592E+02 1.05453E+01 0.00000E+00
 -1      3096 1.39401E+02 1.23181E+01 0.00000E+00
 -1      3097 2.58600E+01 1.05013E+01 0.00000E+00
 -1      3098 2.43600E+01 1.05013E+01 0.00000E+00
 -1      3099 2.36100E+01 1.18003E+01 0.00000E+00
 -1      3100 3.50100E+01 1.05013E+01 0.00000E+00
 -1      3101 3.35100E+01 1.05013E+01 0.00000E+00
 -1      3102 3.27600E+01 1.18003E+01 0.00000E+00
 -1      3103 3.80100E+01 1.05013E+01 0.00000E+00
 -1      3104 3.65100E+01 1.05013E+01 0.00000E+00
 -1      3105 3.57600E+01 1.18003E+01 0.00000E+00
 -1      3106 4.10100E+01 1.05013E+01 0.00000E+00
 -1      3107 3.95100E+01 1.05013E+01 0.00000E+00
 -1      3108 3.87600E+01 1.18003E+01 0.00000E+00
 -1      3109 4.40100E+01 1.05013E+01 0.00000E+00
 -1      3110 4.25100E+01 1.05013E+01 0.00000E+00
 -1      3111 4.17600E+01 1.18003E+01 0.00000E+00
 -1      3112 4.71600E+01 1.05013E+01 0.00000E+00
 -1      3113 4.55850E+01 1.05013E+01 0.00000E+00
 -1      3114 4.48350E+01 1.18003E+01 0.00000E+00
 -1      3115 5.01600E+01 1.05013E+01 0.00000E+00
 -1      3116 4.86600E+01 1.05013E+01 0.00000E+00
 -1      3117 4.79100E+01 1.18003E+01 0.00000E+00
 -1      3118 5.31600E+01 1.05013E+01 0.00000E+00
 -1      3119 5.16600E+01 1.05013E+01 0.00000E+00
 -1      3120 5.09100E+01 1.18003E+01 0.00000E+00
 -1      3121 5.61600E+01 1.05013E+01 0.00000E+00
 -1      3122 5.46600E+01 1.05013E+01 0.00000E+00
 -1      3123 5.39100E+01 1.18003E+01 0.00000E+00
 -1      3124 5.91600E+01 1.05013E+01 0.00000E+00
 -1      3125 5.76600E+01 1.05013E+01 0.00000E+00
 -1      3126 5.69100E+01 1.18003E+01 0.00000E+00
 -1      3127 6.21600E+01 1.05013E+01 0.00000E+00
 -1      3128 6.06600E+01 1.05013E+01 0.00000E+00
 -1      3129 5.99100E+01 1.18003E+01 0.00000E+00
 -1      3130 6.53100E+01 1.05013E+01 0.00000E+00
 -1      3131 6.37350E+01 1.05013E+01 0.00000E+00
 -1      3132 6.29850E+01 1.18003E+01 0.00000E+00
 -1      3133 6.83100E+01 1.05013E+01 0.00000E+00
 -1      3134 6.68100E+01 1.05013E+01 0.00000E+00
 -1      3135 6.60600E+01 1.18003E+01 0.00000E+00
 -1      3136 7.13100E+01 1.05013E+01 0.00000E+00
 -1      3137 6.98100E+01 1.05013E+01 0.00000E+00
 -1      3138 6.90600E+01 1.18003E+01 0.00000E+00
 -1      3139 7.43100E+01 1.05013E+01 0.00000E+00
 -1      3140 7.28100E+01 1.05013E+01 0.00000E+00
 -1      3141 7.20600E+01 1.18003E+01 0.00000E+00
 -1      3142 7.73100E+01 1.05013E+01 0.00000E+00
 -1      3143 7.58100E+01 1.05013E+01 0.00000E+00
 -1      3144 7.50600E+01 1.18003E+01 0.00000E+00
 -1      3145 8.04600E+01 1.05013E+01 0.00000E+00
 -1      3146 7.88850E+01 1.05013E+01 0.00000E+00
 -1      3147 7.81350E+01 1.18003E+01 0.00000E+00
 -1      3148 8.34600E+01 1.05013E+01 0.00000E+00
 -1      3149 8.19600E+01 1.05013E+01 0.00000E+00
 -1      3150 8.12100E+01 1.18003E+01 0.00000E+00
 -1      3151 1.12222E+02 6.73908E+00 0.00000E+00
 -1      3152 1.39401E+02 1.52681E+01 0.00000E+00
 -1      3153 1.39401E+02 1.37931E+01 0.00000E+00
 -1      3154 1.38583E+02 1.35204E+01 0.00000E+00
 -1      3155 1.37092E+02 1.05453E+01 0.00000E+00
 -1      3156 1.39401E+02 1.82181E+01 0.00000E+00
 -1      3157 1.39401E+02 1.67431E+01 0.00000E+00
 -1      3158 1.38583E+02 1.64704E+01 0.00000E+00
 -1      3159 1.68600E+01 1.05013E+01 0.00000E+00
 -1      3160 1.53600E+01 1.05013E+01 0.00000E+00
 -1      3161 1.76100E+01 1.18003E+01 0.00000E+00
 -1      3162 1.38919E+02 2.95157E+01 0.00000E+00
 -1      3163 1.38919E+02 2.80657E+01 0.00000E+00
 -1      3164 1.38919E+02 2.65907E+01 0.00000E+00
 -1      3165 1.38919E+02 2.51157E+01 0.00000E+00
 -1      3166 1.37620E+02 2.73157E+01 0.00000E+00
 -1      3167 1.38919E+02 3.54032E+01 0.00000E+00
 -1      3168 1.38919E+02 3.39282E+01 0.00000E+00
 -1      3169 1.22850E+02 1.03441E+01 0.00000E+00
 -1      3170 1.21350E+02 1.03441E+01 0.00000E+00
 -1      3171 1.28850E+02 1.03441E+01 0.00000E+00
 -1      3172 1.27350E+02 1.03441E+01 0.00000E+00
 -1      3173 1.04910E+01 3.81519E+01 0.00000E+00
 -1      3174 1.16758E+01 3.82602E+01 0.00000E+00
 -1      3175 9.39292E+01 2.34862E+01 0.00000E+00
 -1      3176 9.28797E+01 2.27319E+01 0.00000E+00
 -1      3177 1.19662E+02 1.02341E+01 0.00000E+00
 -1      3178 1.18040E+02 1.00716E+01 0.00000E+00
 -1      3179 1.25850E+02 1.03441E+01 0.00000E+00
 -1      3180 1.24350E+02 1.03441E+01 0.00000E+00
 -1      3181 1.23600E+02 1.16431E+01 0.00000E+00
 -1      3182 1.25010E+01 1.04636E+01 0.00000E+00
 -1      3183 8.85489E+01 1.04163E+01 0.00000E+00
 -1      3184 8.75507E+01 9.60239E+00 0.00000E+00
 -1      3185 1.38919E+02 3.24594E+01 0.00000E+00
 -1      3186 1.38919E+02 3.09844E+01 0.00000E+00
 -1      3187 1.37620E+02 3.02594E+01 0.00000E+00
 -1      3188 1.37620E+02 3.31969E+01 0.00000E+00
 -1      3189 8.98397E+01 1.86618E+01 0.00000E+00
 -1      3190 8.91581E+01 1.75682E+01 0.00000E+00
 -1      3191 8.83753E+01 1.63322E+01 0.00000E+00
 -1      3192 8.79882E+01 1.52203E+01 0.00000E+00
 -1      3193 8.58060E+01 1.00030E+01 0.00000E+00
 -1      3194 1.31850E+02 1.03441E+01 0.00000E+00
 -1      3195 1.30350E+02 1.03441E+01 0.00000E+00
 -1      3196 1.29600E+02 1.16431E+01 0.00000E+00
 -1      3197 1.15928E+02 9.48504E+00 0.00000E+00
 -1      3198 8.78515E+01 1.38369E+01 0.00000E+00
 -1      3199 8.77148E+01 1.24536E+01 0.00000E+00
 -1      3200 8.69978E+01 1.47575E+01 0.00000E+00
 -1      3201 1.07656E+02 2.24555E+01 0.00000E+00
 -1      3202 1.06414E+02 2.29461E+01 0.00000E+00
 -1      3203 1.30379E+01 3.82846E+01 0.00000E+00
 -1      3204 1.45379E+01 3.82846E+01 0.00000E+00
 -1      3205 1.52879E+01 3.69856E+01 0.00000E+00
 -1      3206 1.25638E+01 3.69369E+01 0.00000E+00
 -1      3207 1.34850E+02 1.03441E+01 0.00000E+00
 -1      3208 1.33350E+02 1.03441E+01 0.00000E+00
 -1      3209 1.32600E+02 1.16431E+01 0.00000E+00
 -1      3210 8.79852E+01 1.11684E+01 0.00000E+00
 -1      3211 9.73769E+01 2.46185E+01 0.00000E+00
 -1      3212 9.57066E+01 2.41850E+01 0.00000E+00
 -1      3213 1.02513E+02 2.39389E+01 0.00000E+00
 -1      3214 1.01633E+02 2.41322E+01 0.00000E+00
 -1      3215 1.01093E+02 2.51811E+01 0.00000E+00
 -1      3216 1.12608E+02 1.92096E+01 0.00000E+00
 -1      3217 1.11990E+02 1.98820E+01 0.00000E+00
 -1      3218 1.16910E+01 2.12875E+01 0.00000E+00
 -1      3219 1.16910E+01 2.27625E+01 0.00000E+00
 -1      3220 1.05068E+02 2.33748E+01 0.00000E+00
 -1      3221 1.03871E+02 2.36619E+01 0.00000E+00
 -1      3222 1.16612E+02 1.08364E+01 0.00000E+00
 -1      3223 1.38000E+01 1.12011E+01 0.00000E+00
 -1      3224 8.50560E+01 1.13020E+01 0.00000E+00
 -1      3225 1.16910E+01 3.01219E+01 0.00000E+00
 -1      3226 1.16910E+01 3.15906E+01 0.00000E+00
 -1      3227 2.66100E+01 1.18003E+01 0.00000E+00
 -1      3228 9.49785E+00 3.68250E+01 0.00000E+00
 -1      3229 9.17769E+01 2.26548E+01 0.00000E+00
 -1      3230 8.79173E+01 1.73769E+01 0.00000E+00
 -1      3231 1.36342E+02 1.18443E+01 0.00000E+00
 -1      3232 1.15561E+02 1.33462E+01 0.00000E+00
 -1      3233 1.14637E+02 1.41096E+01 0.00000E+00
 -1      3234 1.11848E+02 2.09143E+01 0.00000E+00
 -1      3235 8.97728E+01 1.99225E+01 0.00000E+00
 -1      3236 1.38434E+02 3.65753E+01 0.00000E+00
 -1      3237 1.15295E+02 1.55108E+01 0.00000E+00
 -1      3238 1.14233E+02 1.51667E+01 0.00000E+00
 -1      3239 1.13830E+02 1.62238E+01 0.00000E+00
 -1      3240 1.07968E+01 3.60875E+01 0.00000E+00
 -1      3241 1.29900E+01 3.23250E+01 0.00000E+00
 -1      3242 1.16910E+01 3.30594E+01 0.00000E+00
 -1      3243 1.16910E+01 3.45281E+01 0.00000E+00
 -1      3244 1.45500E+01 1.25001E+01 0.00000E+00
 -1      3245 1.39401E+02 1.96931E+01 0.00000E+00
 -1      3246 1.38583E+02 1.94204E+01 0.00000E+00
 -1      3247 1.39401E+02 2.11681E+01 0.00000E+00
 -1      3248 1.37135E+02 3.58378E+01 0.00000E+00
 -1      3249 1.20412E+02 1.15331E+01 0.00000E+00
 -1      3250 1.10166E+02 2.25242E+01 0.00000E+00
 -1      3251 1.08911E+02 2.24898E+01 0.00000E+00
 -1      3252 1.08636E+02 2.36107E+01 0.00000E+00
 -1      3253 1.26600E+02 1.16431E+01 0.00000E+00
 -1      3254 9.44857E+01 2.47763E+01 0.00000E+00
 -1      3255 1.06035E+02 2.40050E+01 0.00000E+00
 -1      3256 9.90989E+01 2.62309E+01 0.00000E+00
 -1      3257 9.82379E+01 2.54247E+01 0.00000E+00
 -1      3258 9.71241E+01 2.62813E+01 0.00000E+00
 -1      3259 1.39160E+02 2.38794E+01 0.00000E+00
 -1      3260 1.39160E+02 2.24044E+01 0.00000E+00
 -1      3261 1.38343E+02 2.21318E+01 0.00000E+00
 -1      3262 1.37861E+02 2.46044E+01 0.00000E+00
 -1      3263 1.16910E+01 1.54063E+01 0.00000E+00
 -1      3264 1.16910E+01 1.68750E+01 0.00000E+00
 -1      3265 1.29900E+01 1.46687E+01 0.00000E+00
 -1      3266 8.71315E+01 1.20890E+01 0.00000E+00
 -1      3267 1.16910E+01 1.83469E+01 0.00000E+00
 -1      3268 1.16910E+01 1.98156E+01 0.00000E+00
 -1      3269 1.29900E+01 2.05531E+01 0.00000E+00
 -1      3270 1.29900E+01 1.76094E+01 0.00000E+00
 -1      3271 1.03331E+02 2.47108E+01 0.00000E+00
 -1      3272 1.16910E+01 2.42375E+01 0.00000E+00
 -1      3273 1.16910E+01 2.57125E+01 0.00000E+00
 -1      3274 1.29900E+01 2.35000E+01 0.00000E+00
 -1      3275 8.47855E+01 1.25872E+01 0.00000E+00
 -1      3276 1.13421E+02 1.71881E+01 0.00000E+00
 -1      3277 1.13017E+02 1.82453E+01 0.00000E+00
 -1      3278 1.13664E+02 1.94608E+01 0.00000E+00
 -1      3279 1.14482E+02 1.75322E+01 0.00000E+00
 -1      3280 2.73600E+01 1.30992E+01 0.00000E+00
 -1      3281 2.58600E+01 1.30992E+01 0.00000E+00
 -1      3282 1.12979E+02 2.15460E+01 0.00000E+00
 -1      3283 1.11573E+02 2.20351E+01 0.00000E+00
 -1      3284 1.11297E+02 2.31560E+01 0.00000E+00
 -1      3285 2.04000E+01 3.57110E+01 0.00000E+00
 -1      3286 2.19000E+01 3.57110E+01 0.00000E+00
 -1      3287 2.34000E+01 3.57110E+01 0.00000E+00
 -1      3288 2.49000E+01 3.57110E+01 0.00000E+00
 -1      3289 2.26500E+01 3.44120E+01 0.00000E+00
 -1      3290 2.64000E+01 3.57110E+01 0.00000E+00
 -1      3291 2.79000E+01 3.57110E+01 0.00000E+00
 -1      3292 2.56500E+01 3.44120E+01 0.00000E+00
 -1      3293 2.94000E+01 3.57110E+01 0.00000E+00
 -1      3294 3.09000E+01 3.57110E+01 0.00000E+00
 -1      3295 2.86500E+01 3.44120E+01 0.00000E+00
 -1      3296 3.24000E+01 3.57110E+01 0.00000E+00
 -1      3297 3.39000E+01 3.57110E+01 0.00000E+00
 -1      3298 3.16500E+01 3.44120E+01 0.00000E+00
 -1      3299 3.54000E+01 3.57110E+01 0.00000E+00
 -1      3300 3.69000E+01 3.57110E+01 0.00000E+00
 -1      3301 3.46500E+01 3.44120E+01 0.00000E+00
 -1      3302 3.84000E+01 3.57110E+01 0.00000E+00
 -1      3303 3.99000E+01 3.57110E+01 0.00000E+00
 -1      3304 3.76500E+01 3.44120E+01 0.00000E+00
 -1      3305 4.14000E+01 3.57110E+01 0.00000E+00
 -1      3306 4.29000E+01 3.57110E+01 0.00000E+00
 -1      3307 4.06500E+01 3.44120E+01 0.00000E+00
 -1      3308 4.44000E+01 3.57110E+01 0.00000E+00
 -1      3309 4.59000E+01 3.57110E+01 0.00000E+00
 -1      3310 4.36500E+01 3.44120E+01 0.00000E+00
 -1      3311 4.74000E+01 3.57110E+01 0.00000E+00
 -1      3312 4.89000E+01 3.57110E+01 0.00000E+00
 -1      3313 4.66500E+01 3.44120E+01 0.00000E+00
 -1      3314 5.04000E+01 3.57110E+01 0.00000E+00
 -1      3315 5.19000E+01 3.57110E+01 0.00000E+00
 -1      3316 4.96500E+01 3.44120E+01 0.00000E+00
 -1      3317 5.34000E+01 3.57110E+01 0.00000E+00
 -1      3318 5.49000E+01 3.57110E+01 0.00000E+00
 -1      3319 5.26500E+01 3.44120E+01 0.00000E+00
 -1      3320 5.64000E+01 3.57110E+01 0.00000E+00
 -1      3321 5.79000E+01 3.57110E+01 0.00000E+00
 -1      3322 5.56500E+01 3.44120E+01 0.00000E+00
 -1      3323 5.94000E+01 3.57110E+01 0.00000E+00
 -1      3324 6.09000E+01 3.57110E+01 0.00000E+00
 -1      3325 5.86500E+01 3.44120E+01 0.00000E+00
 -1      3326 6.24000E+01 3.57110E+01 0.00000E+00
 -1      3327 6.39000E+01 3.57110E+01 0.00000E+00
 -1      3328 6.16500E+01 3.44120E+01 0.00000E+00
 -1      3329 6.54000E+01 3.57110E+01 0.00000E+00
 -1      3330 6.69000E+01 3.57110E+01 0.00000E+00
 -1      3331 6.46500E+01 3.44120E+01 0.00000E+00
 -1      3332 6.84000E+01 3.57110E+01 0.00000E+00
 -1      3333 6.99000E+01 3.57110E+01 0.00000E+00
 -1      3334 6.76500E+01 3.44120E+01 0.00000E+00
 -1      3335 7.14000E+01 3.57110E+01 0.00000E+00
 -1      3336 7.29000E+01 3.57110E+01 0.00000E+00
 -1      3337 7.06500E+01 3.44120E+01 0.00000E+00
 -1      3338 7.44000E+01 3.57110E+01 0.00000E+00
 -1      3339 7.59000E+01 3.57110E+01 0.00000E+00
 -1      3340 7.36500E+01 3.44120E+01 0.00000E+00
 -1      3341 7.74000E+01 3.57110E+01 0.00000E+00
 -1      3342 7.89000E+01 3.57110E+01 0.00000E+00
 -1      3343 7.66500E+01 3.44120E+01 0.00000E+00
 -1      3344 8.04000E+01 3.57110E+01 0.00000E+00
 -1      3345 8.19000E+01 3.57110E+01 0.00000E+00
 -1      3346 7.96500E+01 3.44120E+01 0.00000E+00
 -1      3347 8.34000E+01 3.57110E+01 0.00000E+00
 -1      3348 8.49000E+01 3.57110E+01 0.00000E+00
 -1      3349 8.26500E+01 3.44120E+01 0.00000E+00
 -1      3350 8.64000E+01 3.57110E+01 0.00000E+00
 -1      3351 8.79000E+01 3.57110E+01 0.00000E+00
 -1      3352 8.56500E+01 3.44120E+01 0.00000E+00
 -1      3353 8.94000E+01 3.57110E+01 0.00000E+00
 -1      3354 9.09000E+01 3.57110E+01 0.00000E+00
 -1      3355 8.86500E+01 3.44120E+01 0.00000E+00
 -1      3356 9.24000E+01 3.57110E+01 0.00000E+00
 -1      3357 9.39000E+01 3.57110E+01 0.00000E+00
 -1      3358 9.16500E+01 3.44120E+01 0.00000E+00
 -1      3359 9.54000E+01 3.57110E+01 0.00000E+00
 -1      3360 9.69000E+01 3.57110E+01 0.00000E+00
 -1      3361 9.46500E+01 3.44120E+01 0.00000E+00
 -1      3362 9.84000E+01 3.57110E+01 0.00000E+00
 -1      3363 9.99000E+01 3.57110E+01 0.00000E+00
 -1      3364 9.76500E+01 3.44120E+01 0.00000E+00
 -1      3365 1.01400E+02 3.57110E+01 0.00000E+00
 -1      3366 1.02900E+02 3.57110E+01 0.00000E+00
 -1      3367 1.00650E+02 3.44120E+01 0.00000E+00
 -1      3368 1.04400E+02 3.57110E+01 0.00000E+00
 -1      3369 1.05900E+02 3.57110E+01 0.00000E+00
 -1      3370 1.03650E+02 3.44120E+01 0.00000E+00
 -1      3371 1.07400E+02 3.57110E+01 0.00000E+00
 -1      3372 1.08900E+02 3.57110E+01 0.00000E+00
 -1      3373 1.06650E+02 3.44120E+01 0.00000E+00
 -1      3374 1.10400E+02 3.57110E+01 0.00000E+00
 -1      3375 1.11900E+02 3.57110E+01 0.00000E+00
 -1      3376 1.09650E+02 3.44120E+01 0.00000E+00
 -1      3377 1.13400E+02 3.57110E+01 0.00000E+00
 -1      3378 1.14900E+02 3.57110E+01 0.00000E+00
 -1      3379 1.12650E+02 3.44120E+01 0.00000E+00
 -1      3380 1.16400E+02 3.57110E+01 0.00000E+00
 -1      3381 1.17900E+02 3.57110E+01 0.00000E+00
 -1      3382 1.15650E+02 3.44120E+01 0.00000E+00
 -1      3383 1.19400E+02 3.57110E+01 0.00000E+00
 -1      3384 1.20900E+02 3.57110E+01 0.00000E+00
 -1      3385 1.18650E+02 3.44120E+01 0.00000E+00
 -1      3386 1.22400E+02 3.57110E+01 0.00000E+00
 -1      3387 1.23900E+02 3.57110E+01 0.00000E+00
 -1      3388 1.21650E+02 3.44120E+01 0.00000E+00
 -1      3389 1.25400E+02 3.57110E+01 0.00000E+00
 -1      3390 1.26900E+02 3.57110E+01 0.00000E+00
 -1      3391 1.24650E+02 3.44120E+01 0.00000E+00
 -1      3392 1.28400E+02 3.57110E+01 0.00000E+00
 -1      3393 1.29900E+02 3.57110E+01 0.00000E+00
 -1      3394 1.27650E+02 3.44120E+01 0.00000E+00
 -1      3395 1.31400E+02 3.57110E+01 0.00000E+00
 -1      3396 1.32900E+02 3.57110E+01 0.00000E+00
 -1      3397 1.30650E+02 3.44120E+01 0.00000E+00
 -1      3398 1.34268E+02 3.57744E+01 0.00000E+00
 -1      3399 1.35768E+02 3.57744E+01 0.00000E+00
 -1      3400 1.36253E+02 3.46022E+01 0.00000E+00
 -1      3401 1.33518E+02 3.44754E+01 0.00000E+00
 -1      3402 3.65100E+01 1.30992E+01 0.00000E+00
 -1      3403 3.50100E+01 1.30992E+01 0.00000E+00
 -1      3404 3.95100E+01 1.30992E+01 0.00000E+00
 -1      3405 3.80100E+01 1.30992E+01 0.00000E+00
 -1      3406 3.72600E+01 1.43982E+01 0.00000E+00
 -1      3407 4.25100E+01 1.30992E+01 0.00000E+00
 -1      3408 4.10100E+01 1.30992E+01 0.00000E+00
 -1      3409 4.02600E+01 1.43982E+01 0.00000E+00
 -1      3410 4.56600E+01 1.30992E+01 0.00000E+00
 -1      3411 4.40850E+01 1.30992E+01 0.00000E+00
 -1      3412 4.33350E+01 1.43982E+01 0.00000E+00
 -1      3413 4.86600E+01 1.30992E+01 0.00000E+00
 -1      3414 4.71600E+01 1.30992E+01 0.00000E+00
 -1      3415 4.64100E+01 1.43982E+01 0.00000E+00
 -1      3416 5.16600E+01 1.30992E+01 0.00000E+00
 -1      3417 5.01600E+01 1.30992E+01 0.00000E+00
 -1      3418 4.94100E+01 1.43982E+01 0.00000E+00
 -1      3419 5.46600E+01 1.30992E+01 0.00000E+00
 -1      3420 5.31600E+01 1.30992E+01 0.00000E+00
 -1      3421 5.24100E+01 1.43982E+01 0.00000E+00
 -1      3422 5.76600E+01 1.30992E+01 0.00000E+00
 -1      3423 5.61600E+01 1.30992E+01 0.00000E+00
 -1      3424 5.54100E+01 1.43982E+01 0.00000E+00
 -1      3425 6.06600E+01 1.30992E+01 0.00000E+00
 -1      3426 5.91600E+01 1.30992E+01 0.00000E+00
 -1      3427 5.84100E+01 1.43982E+01 0.00000E+00
 -1      3428 6.38100E+01 1.30992E+01 0.00000E+00
 -1      3429 6.22350E+01 1.30992E+01 0.00000E+00
 -1      3430 6.14850E+01 1.43982E+01 0.00000E+00
 -1      3431 6.68100E+01 1.30992E+01 0.00000E+00
 -1      3432 6.53100E+01 1.30992E+01 0.00000E+00
 -1      3433 6.45600E+01 1.43982E+01 0.00000E+00
 -1      3434 6.98100E+01 1.30992E+01 0.00000E+00
 -1      3435 6.83100E+01 1.30992E+01 0.00000E+00
 -1      3436 6.75600E+01 1.43982E+01 0.00000E+00
 -1      3437 7.28100E+01 1.30992E+01 0.00000E+00
 -1      3438 7.13100E+01 1.30992E+01 0.00000E+00
 -1      3439 7.05600E+01 1.43982E+01 0.00000E+00
 -1      3440 7.58100E+01 1.30992E+01 0.00000E+00
 -1      3441 7.43100E+01 1.30992E+01 0.00000E+00
 -1      3442 7.35600E+01 1.43982E+01 0.00000E+00
 -1      3443 7.89600E+01 1.30992E+01 0.00000E+00
 -1      3444 7.73850E+01 1.30992E+01 0.00000E+00
 -1      3445 7.66350E+01 1.43982E+01 0.00000E+00
 -1      3446 8.19600E+01 1.30992E+01 0.00000E+00
 -1      3447 8.04600E+01 1.30992E+01 0.00000E+00
 -1      3448 7.97100E+01 1.43982E+01 0.00000E+00
 -1      3449 1.17073E+02 1.18309E+01 0.00000E+00
 -1      3450 1.61100E+01 1.32690E+01 0.00000E+00
 -1      3451 1.45500E+01 1.39689E+01 0.00000E+00
 -1      3452 1.45500E+01 1.54376E+01 0.00000E+00
 -1      3453 1.36322E+02 2.80532E+01 0.00000E+00
 -1      3454 1.36322E+02 2.65782E+01 0.00000E+00
 -1      3455 1.16910E+01 2.71844E+01 0.00000E+00
 -1      3456 1.16910E+01 2.86531E+01 0.00000E+00
 -1      3457 1.29900E+01 2.93875E+01 0.00000E+00
 -1      3458 2.43600E+01 1.30992E+01 0.00000E+00
 -1      3459 2.28600E+01 1.30992E+01 0.00000E+00
 -1      3460 2.51100E+01 1.43982E+01 0.00000E+00
 -1      3461 1.76100E+01 1.32690E+01 0.00000E+00
 -1      3462 1.04265E+02 2.58229E+01 0.00000E+00
 -1      3463 1.02908E+02 2.61000E+01 0.00000E+00
 -1      3464 1.21173E+02 1.28619E+01 0.00000E+00
 -1      3465 1.19485E+02 1.27518E+01 0.00000E+00
 -1      3466 9.48991E+01 2.63346E+01 0.00000E+00
 -1      3467 9.31217E+01 2.56358E+01 0.00000E+00
 -1      3468 1.33350E+02 1.29421E+01 0.00000E+00
 -1      3469 1.31850E+02 1.29421E+01 0.00000E+00
 -1      3470 8.94513E+01 2.12800E+01 0.00000E+00
 -1      3471 8.83786E+01 1.99704E+01 0.00000E+00
 -1      3472 8.73718E+01 1.85882E+01 0.00000E+00
 -1      3473 8.65891E+01 1.73522E+01 0.00000E+00
 -1      3474 1.24350E+02 1.29421E+01 0.00000E+00
 -1      3475 1.22850E+02 1.29421E+01 0.00000E+00
 -1      3476 1.06957E+02 2.49655E+01 0.00000E+00
 -1      3477 1.05611E+02 2.53942E+01 0.00000E+00
 -1      3478 1.05188E+02 2.67835E+01 0.00000E+00
 -1      3479 9.12448E+01 2.40194E+01 0.00000E+00
 -1      3480 9.03134E+01 2.25968E+01 0.00000E+00
 -1      3481 1.74000E+01 3.57110E+01 0.00000E+00
 -1      3482 1.89000E+01 3.57110E+01 0.00000E+00
 -1      3483 1.96500E+01 3.44120E+01 0.00000E+00
 -1      3484 1.37088E+02 1.33319E+01 0.00000E+00
 -1      3485 1.34846E+02 1.31307E+01 0.00000E+00
 -1      3486 1.34096E+02 1.44297E+01 0.00000E+00
 -1      3487 1.37088E+02 1.48069E+01 0.00000E+00
 -1      3488 2.13600E+01 1.30992E+01 0.00000E+00
 -1      3489 1.98600E+01 1.30992E+01 0.00000E+00
 -1      3490 2.21100E+01 1.43982E+01 0.00000E+00
 -1      3491 3.35100E+01 1.30992E+01 0.00000E+00
 -1      3492 3.20100E+01 1.30992E+01 0.00000E+00
 -1      3493 3.42600E+01 1.43982E+01 0.00000E+00
 -1      3494 8.57557E+01 1.56614E+01 0.00000E+00
 -1      3495 8.56189E+01 1.42780E+01 0.00000E+00
 -1      3496 8.35434E+01 1.34911E+01 0.00000E+00
 -1      3497 8.52102E+01 1.68727E+01 0.00000E+00
 -1      3498 3.04725E+01 1.30992E+01 0.00000E+00
 -1      3499 2.88975E+01 1.30992E+01 0.00000E+00
 -1      3500 2.81475E+01 1.43982E+01 0.00000E+00
 -1      3501 3.12225E+01 1.43982E+01 0.00000E+00
 -1      3502 1.27350E+02 1.29421E+01 0.00000E+00
 -1      3503 1.25850E+02 1.29421E+01 0.00000E+00
 -1      3504 1.25100E+02 1.42411E+01 0.00000E+00
 -1      3505 1.37088E+02 1.77569E+01 0.00000E+00
 -1      3506 1.37088E+02 1.62819E+01 0.00000E+00
 -1      3507 1.35592E+02 1.60933E+01 0.00000E+00
 -1      3508 1.01443E+02 2.60688E+01 0.00000E+00
 -1      3509 1.00563E+02 2.62621E+01 0.00000E+00
 -1      3510 9.94493E+01 2.71186E+01 0.00000E+00
 -1      3511 1.02378E+02 2.71810E+01 0.00000E+00
 -1      3512 1.30350E+02 1.29421E+01 0.00000E+00
 -1      3513 1.28850E+02 1.29421E+01 0.00000E+00
 -1      3514 1.28100E+02 1.42411E+01 0.00000E+00
 -1      3515 1.31100E+02 1.42411E+01 0.00000E+00
 -1      3516 1.19250E+01 3.53200E+01 0.00000E+00
 -1      3517 1.23298E+01 3.61450E+01 0.00000E+00
 -1      3518 1.36919E+01 3.61694E+01 0.00000E+00
 -1      3519 1.32240E+01 3.45856E+01 0.00000E+00
 -1      3520 1.18348E+02 1.28450E+01 0.00000E+00
 -1      3521 1.16698E+02 1.32530E+01 0.00000E+00
 -1      3522 1.16835E+02 1.43604E+01 0.00000E+00
 -1      3523 1.19109E+02 1.41739E+01 0.00000E+00
 -1      3524 1.83600E+01 1.45680E+01 0.00000E+00
 -1      3525 1.16432E+02 1.54175E+01 0.00000E+00
 -1      3526 1.16028E+02 1.64746E+01 0.00000E+00
 -1      3527 1.17568E+02 1.53243E+01 0.00000E+00
 -1      3528 8.27934E+01 1.47901E+01 0.00000E+00
 -1      3529 1.42890E+01 3.15906E+01 0.00000E+00
 -1      3530 1.42890E+01 3.30594E+01 0.00000E+00
 -1      3531 1.29900E+01 2.64469E+01 0.00000E+00
 -1      3532 1.36322E+02 3.09907E+01 0.00000E+00
 -1      3533 1.36322E+02 2.95219E+01 0.00000E+00
 -1      3534 1.35023E+02 2.87844E+01 0.00000E+00
 -1      3535 1.35031E+02 2.58173E+01 0.00000E+00
 -1      3536 1.36330E+02 2.50798E+01 0.00000E+00
 -1      3537 1.42890E+01 2.86531E+01 0.00000E+00
 -1      3538 1.42890E+01 3.01219E+01 0.00000E+00
 -1      3539 1.55880E+01 3.08563E+01 0.00000E+00
 -1      3540 1.21923E+02 1.41609E+01 0.00000E+00
 -1      3541 8.89192E+01 2.26447E+01 0.00000E+00
 -1      3542 9.20716E+01 2.71361E+01 0.00000E+00
 -1      3543 9.16582E+01 2.55778E+01 0.00000E+00
 -1      3544 9.01946E+01 2.55197E+01 0.00000E+00
 -1      3545 1.36253E+02 3.31335E+01 0.00000E+00
 -1      3546 1.61190E+01 3.46675E+01 0.00000E+00
 -1      3547 1.68690E+01 3.33685E+01 0.00000E+00
 -1      3548 1.08212E+02 2.49999E+01 0.00000E+00
 -1      3549 1.07788E+02 2.63891E+01 0.00000E+00
 -1      3550 1.09467E+02 2.50343E+01 0.00000E+00
 -1      3551 8.70503E+01 1.99457E+01 0.00000E+00
 -1      3552 1.37088E+02 2.07069E+01 0.00000E+00
 -1      3553 1.37088E+02 1.92319E+01 0.00000E+00
 -1      3554 1.35592E+02 1.90433E+01 0.00000E+00
 -1      3555 1.36570E+02 2.38435E+01 0.00000E+00
 -1      3556 9.66211E+01 2.79470E+01 0.00000E+00
 -1      3557 9.57601E+01 2.71408E+01 0.00000E+00
 -1      3558 9.43961E+01 2.80003E+01 0.00000E+00
 -1      3559 1.47569E+01 3.46431E+01 0.00000E+00
 -1      3560 1.42890E+01 2.27625E+01 0.00000E+00
 -1      3561 1.42890E+01 2.42375E+01 0.00000E+00
 -1      3562 1.14379E+02 2.12955E+01 0.00000E+00
 -1      3563 1.14103E+02 2.24164E+01 0.00000E+00
 -1      3564 1.15197E+02 1.93669E+01 0.00000E+00
 -1      3565 1.14788E+02 2.03312E+01 0.00000E+00
 -1      3566 1.15911E+02 2.12017E+01 0.00000E+00
 -1      3567 1.42890E+01 1.98188E+01 0.00000E+00
 -1      3568 1.42890E+01 2.12906E+01 0.00000E+00
 -1      3569 1.55880E+01 2.20281E+01 0.00000E+00
 -1      3570 1.12427E+02 2.41383E+01 0.00000E+00
 -1      3571 1.11021E+02 2.46275E+01 0.00000E+00
 -1      3572 1.34096E+02 1.59047E+01 0.00000E+00
 -1      3573 1.32600E+02 1.57161E+01 0.00000E+00
 -1      3574 1.34096E+02 1.73797E+01 0.00000E+00
 -1      3575 1.22700E+02 1.54760E+01 0.00000E+00
 -1      3576 1.21023E+02 1.53958E+01 0.00000E+00
 -1      3577 2.49000E+01 3.31130E+01 0.00000E+00
 -1      3578 2.64000E+01 3.31130E+01 0.00000E+00
 -1      3579 2.79000E+01 3.31130E+01 0.00000E+00
 -1      3580 2.94000E+01 3.31130E+01 0.00000E+00
 -1      3581 2.71500E+01 3.18140E+01 0.00000E+00
 -1      3582 3.09000E+01 3.31130E+01 0.00000E+00
 -1      3583 3.24000E+01 3.31130E+01 0.00000E+00
 -1      3584 3.01500E+01 3.18140E+01 0.00000E+00
 -1      3585 3.39000E+01 3.31130E+01 0.00000E+00
 -1      3586 3.54000E+01 3.31130E+01 0.00000E+00
 -1      3587 3.31500E+01 3.18140E+01 0.00000E+00
 -1      3588 3.69000E+01 3.31130E+01 0.00000E+00
 -1      3589 3.84000E+01 3.31130E+01 0.00000E+00
 -1      3590 3.61500E+01 3.18140E+01 0.00000E+00
 -1      3591 3.99000E+01 3.31130E+01 0.00000E+00
 -1      3592 4.14000E+01 3.31130E+01 0.00000E+00
 -1      3593 3.91500E+01 3.18140E+01 0.00000E+00
 -1      3594 4.29000E+01 3.31130E+01 0.00000E+00
 -1      3595 4.44000E+01 3.31130E+01 0.00000E+00
 -1      3596 4.21500E+01 3.18140E+01 0.00000E+00
 -1      3597 4.59000E+01 3.31130E+01 0.00000E+00
 -1      3598 4.74000E+01 3.31130E+01 0.00000E+00
 -1      3599 4.51500E+01 3.18140E+01 0.00000E+00
 -1      3600 4.89000E+01 3.31130E+01 0.00000E+00
 -1      3601 5.04000E+01 3.31130E+01 0.00000E+00
 -1      3602 4.81500E+01 3.18140E+01 0.00000E+00
 -1      3603 5.19000E+01 3.31130E+01 0.00000E+00
 -1      3604 5.34000E+01 3.31130E+01 0.00000E+00
 -1      3605 5.11500E+01 3.18140E+01 0.00000E+00
 -1      3606 5.49000E+01 3.31130E+01 0.00000E+00
 -1      3607 5.64000E+01 3.31130E+01 0.00000E+00
 -1      3608 5.41500E+01 3.18140E+01 0.00000E+00
 -1      3609 5.79000E+01 3.31130E+01 0.00000E+00
 -1      3610 5.94000E+01 3.31130E+01 0.00000E+00
 -1      3611 5.71500E+01 3.18140E+01 0.00000E+00
 -1      3612 6.09000E+01 3.31130E+01 0.00000E+00
 -1      3613 6.24000E+01 3.31130E+01 0.00000E+00
 -1      3614 6.01500E+01 3.18140E+01 0.00000E+00
 -1      3615 6.39000E+01 3.31130E+01 0.00000E+00
 -1      3616 6.54000E+01 3.31130E+01 0.00000E+00
 -1      3617 6.31500E+01 3.18140E+01 0.00000E+00
 -1      3618 6.69000E+01 3.31130E+01 0.00000E+00
 -1      3619 6.84000E+01 3.31130E+01 0.00000E+00
 -1      3620 6.61500E+01 3.18140E+01 0.00000E+00
 -1      3621 6.99000E+01 3.31130E+01 0.00000E+00
 -1      3622 7.14000E+01 3.31130E+01 0.00000E+00
 -1      3623 6.91500E+01 3.18140E+01 0.00000E+00
 -1      3624 7.29000E+01 3.31130E+01 0.00000E+00
 -1      3625 7.44000E+01 3.31130E+01 0.00000E+00
 -1      3626 7.21500E+01 3.18140E+01 0.00000E+00
 -1      3627 7.59000E+01 3.31130E+01 0.00000E+00
 -1      3628 7.74000E+01 3.31130E+01 0.00000E+00
 -1      3629 7.51500E+01 3.18140E+01 0.00000E+00
 -1      3630 7.89000E+01 3.31130E+01 0.00000E+00
 -1      3631 8.04000E+01 3.31130E+01 0.00000E+00
 -1      3632 7.81500E+01 3.18140E+01 0.00000E+00
 -1      3633 8.19000E+01 3.31130E+01 0.00000E+00
 -1      3634 8.34000E+01 3.31130E+01 0.00000E+00
 -1      3635 8.11500E+01 3.18140E+01 0.00000E+00
 -1      3636 8.49000E+01 3.31130E+01 0.00000E+00
 -1      3637 8.64000E+01 3.31130E+01 0.00000E+00
 -1      3638 8.41500E+01 3.18140E+01 0.00000E+00
 -1      3639 8.79000E+01 3.31130E+01 0.00000E+00
 -1      3640 8.94000E+01 3.31130E+01 0.00000E+00
 -1      3641 8.71500E+01 3.18140E+01 0.00000E+00
 -1      3642 9.09000E+01 3.31130E+01 0.00000E+00
 -1      3643 9.24000E+01 3.31130E+01 0.00000E+00
 -1      3644 9.01500E+01 3.18140E+01 0.00000E+00
 -1      3645 9.39000E+01 3.31130E+01 0.00000E+00
 -1      3646 9.54000E+01 3.31130E+01 0.00000E+00
 -1      3647 9.31500E+01 3.18140E+01 0.00000E+00
 -1      3648 9.69000E+01 3.31130E+01 0.00000E+00
 -1      3649 9.84000E+01 3.31130E+01 0.00000E+00
 -1      3650 9.61500E+01 3.18140E+01 0.00000E+00
 -1      3651 9.99000E+01 3.31130E+01 0.00000E+00
 -1      3652 1.01400E+02 3.31130E+01 0.00000E+00
 -1      3653 9.91500E+01 3.18140E+01 0.00000E+00
 -1      3654 1.02900E+02 3.31130E+01 0.00000E+00
 -1      3655 1.04400E+02 3.31130E+01 0.00000E+00
 -1      3656 1.02150E+02 3.18140E+01 0.00000E+00
 -1      3657 1.05900E+02 3.31130E+01 0.00000E+00
 -1      3658 1.07400E+02 3.31130E+01 0.00000E+00
 -1      3659 1.05150E+02 3.18140E+01 0.00000E+00
 -1      3660 1.08900E+02 3.31130E+01 0.00000E+00
 -1      3661 1.10400E+02 3.31130E+01 0.00000E+00
 -1      3662 1.08150E+02 3.18140E+01 0.00000E+00
 -1      3663 1.11900E+02 3.31130E+01 0.00000E+00
 -1      3664 1.13400E+02 3.31130E+01 0.00000E+00
 -1      3665 1.11150E+02 3.18140E+01 0.00000E+00
 -1      3666 1.14900E+02 3.31130E+01 0.00000E+00
 -1      3667 1.16400E+02 3.31130E+01 0.00000E+00
 -1      3668 1.14150E+02 3.18140E+01 0.00000E+00
 -1      3669 1.17900E+02 3.31130E+01 0.00000E+00
 -1      3670 1.19400E+02 3.31130E+01 0.00000E+00
 -1      3671 1.17150E+02 3.18140E+01 0.00000E+00
 -1      3672 1.20900E+02 3.31130E+01 0.00000E+00
 -1      3673 1.22400E+02 3.31130E+01 0.00000E+00
 -1      3674 1.20150E+02 3.18140E+01 0.00000E+00
 -1      3675 1.23900E+02 3.31130E+01 0.00000E+00
 -1      3676 1.25400E+02 3.31130E+01 0.00000E+00
 -1      3677 1.23150E+02 3.18140E+01 0.00000E+00
 -1      3678 1.26900E+02 3.31130E+01 0.00000E+00
 -1      3679 1.28400E+02 3.31130E+01 0.00000E+00
 -1      3680 1.26150E+02 3.18140E+01 0.00000E+00
 -1      3681 1.29900E+02 3.31130E+01 0.00000E+00
 -1      3682 1.31400E+02 3.31130E+01 0.00000E+00
 -1      3683 1.29150E+02 3.18140E+01 0.00000E+00
 -1      3684 1.33586E+02 3.23326E+01 0.00000E+00
 -1      3685 1.34954E+02 3.23960E+01 0.00000E+00
 -1      3686 4.41225E+01 1.56973E+01 0.00000E+00
 -1      3687 4.25475E+01 1.56973E+01 0.00000E+00
 -1      3688 3.80100E+01 1.56973E+01 0.00000E+00
 -1      3689 3.65100E+01 1.56973E+01 0.00000E+00
 -1      3690 1.42890E+01 2.57094E+01 0.00000E+00
 -1      3691 1.42890E+01 2.71812E+01 0.00000E+00
 -1      3692 1.55880E+01 2.79156E+01 0.00000E+00
 -1      3693 1.55880E+01 2.49719E+01 0.00000E+00
 -1      3694 4.71225E+01 1.56973E+01 0.00000E+00
 -1      3695 4.56225E+01 1.56973E+01 0.00000E+00
 -1      3696 4.48350E+01 1.69963E+01 0.00000E+00
 -1      3697 5.01225E+01 1.56973E+01 0.00000E+00
 -1      3698 4.86225E+01 1.56973E+01 0.00000E+00
 -1      3699 4.78350E+01 1.69963E+01 0.00000E+00
 -1      3700 5.31225E+01 1.56973E+01 0.00000E+00
 -1      3701 5.16225E+01 1.56973E+01 0.00000E+00
 -1      3702 5.08350E+01 1.69963E+01 0.00000E+00
 -1      3703 5.61225E+01 1.56973E+01 0.00000E+00
 -1      3704 5.46225E+01 1.56973E+01 0.00000E+00
 -1      3705 5.38350E+01 1.69963E+01 0.00000E+00
 -1      3706 5.91225E+01 1.56973E+01 0.00000E+00
 -1      3707 5.76225E+01 1.56973E+01 0.00000E+00
 -1      3708 5.68350E+01 1.69963E+01 0.00000E+00
 -1      3709 6.22725E+01 1.56973E+01 0.00000E+00
 -1      3710 6.06975E+01 1.56973E+01 0.00000E+00
 -1      3711 5.99100E+01 1.69963E+01 0.00000E+00
 -1      3712 6.52725E+01 1.56973E+01 0.00000E+00
 -1      3713 6.37725E+01 1.56973E+01 0.00000E+00
 -1      3714 6.29850E+01 1.69963E+01 0.00000E+00
 -1      3715 6.82725E+01 1.56973E+01 0.00000E+00
 -1      3716 6.67725E+01 1.56973E+01 0.00000E+00
 -1      3717 6.59850E+01 1.69963E+01 0.00000E+00
 -1      3718 7.12725E+01 1.56973E+01 0.00000E+00
 -1      3719 6.97725E+01 1.56973E+01 0.00000E+00
 -1      3720 6.89850E+01 1.69963E+01 0.00000E+00
 -1      3721 7.42725E+01 1.56973E+01 0.00000E+00
 -1      3722 7.27725E+01 1.56973E+01 0.00000E+00
 -1      3723 7.19850E+01 1.69963E+01 0.00000E+00
 -1      3724 7.74225E+01 1.56973E+01 0.00000E+00
 -1      3725 7.58475E+01 1.56973E+01 0.00000E+00
 -1      3726 7.50600E+01 1.69963E+01 0.00000E+00
 -1      3727 8.04225E+01 1.56973E+01 0.00000E+00
 -1      3728 7.89225E+01 1.56973E+01 0.00000E+00
 -1      3729 7.81350E+01 1.69963E+01 0.00000E+00
 -1      3730 1.33728E+02 2.65594E+01 0.00000E+00
 -1      3731 1.33736E+02 2.50610E+01 0.00000E+00
 -1      3732 8.35893E+01 1.64809E+01 0.00000E+00
 -1      3733 8.20059E+01 1.60891E+01 0.00000E+00
 -1      3734 8.12184E+01 1.73881E+01 0.00000E+00
 -1      3735 2.58600E+01 1.56973E+01 0.00000E+00
 -1      3736 2.43600E+01 1.56973E+01 0.00000E+00
 -1      3737 1.95827E+01 1.57784E+01 0.00000E+00
 -1      3738 1.73327E+01 1.59482E+01 0.00000E+00
 -1      3739 8.65897E+01 2.13390E+01 0.00000E+00
 -1      3740 8.55829E+01 1.99568E+01 0.00000E+00
 -1      3741 8.83138E+01 2.39725E+01 0.00000E+00
 -1      3742 8.74517E+01 2.26557E+01 0.00000E+00
 -1      3743 8.59842E+01 2.26668E+01 0.00000E+00
 -1      3744 1.06197E+02 2.76257E+01 0.00000E+00
 -1      3745 1.04851E+02 2.80544E+01 0.00000E+00
 -1      3746 1.89000E+01 3.31130E+01 0.00000E+00
 -1      3747 2.04000E+01 3.31130E+01 0.00000E+00
 -1      3748 1.25850E+02 1.55401E+01 0.00000E+00
 -1      3749 1.24350E+02 1.55401E+01 0.00000E+00
 -1      3750 3.50100E+01 1.56973E+01 0.00000E+00
 -1      3751 3.35100E+01 1.56973E+01 0.00000E+00
 -1      3752 3.57600E+01 1.69963E+01 0.00000E+00
 -1      3753 8.44227E+01 1.81717E+01 0.00000E+00
 -1      3754 1.44195E+01 1.68923E+01 0.00000E+00
 -1      3755 1.44195E+01 1.83641E+01 0.00000E+00
 -1      3756 1.57185E+01 1.91016E+01 0.00000E+00
 -1      3757 1.59795E+01 1.61924E+01 0.00000E+00
 -1      3758 1.19864E+02 1.53134E+01 0.00000E+00
 -1      3759 1.18727E+02 1.54066E+01 0.00000E+00
 -1      3760 1.18324E+02 1.64638E+01 0.00000E+00
 -1      3761 1.20642E+02 1.66285E+01 0.00000E+00
 -1      3762 2.28600E+01 1.56973E+01 0.00000E+00
 -1      3763 2.13600E+01 1.56973E+01 0.00000E+00
 -1      3764 2.36100E+01 1.69963E+01 0.00000E+00
 -1      3765 1.15226E+02 2.36375E+01 0.00000E+00
 -1      3766 1.13826E+02 2.38879E+01 0.00000E+00
 -1      3767 1.13550E+02 2.53594E+01 0.00000E+00
 -1      3768 2.19000E+01 3.31130E+01 0.00000E+00
 -1      3769 2.34000E+01 3.31130E+01 0.00000E+00
 -1      3770 2.11500E+01 3.18140E+01 0.00000E+00
 -1      3771 1.76190E+01 3.20695E+01 0.00000E+00
 -1      3772 1.15817E+02 1.74386E+01 0.00000E+00
 -1      3773 1.15408E+02 1.84029E+01 0.00000E+00
 -1      3774 1.16532E+02 1.92733E+01 0.00000E+00
 -1      3775 1.16954E+02 1.73454E+01 0.00000E+00
 -1      3776 1.36847E+02 2.19432E+01 0.00000E+00
 -1      3777 4.10100E+01 1.56973E+01 0.00000E+00
 -1      3778 3.95100E+01 1.56973E+01 0.00000E+00
 -1      3779 3.87600E+01 1.69963E+01 0.00000E+00
 -1      3780 1.31100E+02 1.57161E+01 0.00000E+00
 -1      3781 1.23450E+02 1.67750E+01 0.00000E+00
 -1      3782 1.32836E+02 3.10336E+01 0.00000E+00
 -1      3783 4.17975E+01 1.69963E+01 0.00000E+00
 -1      3784 8.39620E+01 1.95650E+01 0.00000E+00
 -1      3785 1.32441E+02 2.43033E+01 0.00000E+00
 -1      3786 1.33744E+02 2.35612E+01 0.00000E+00
 -1      3787 1.76190E+01 3.06007E+01 0.00000E+00
 -1      3788 1.28850E+02 1.55401E+01 0.00000E+00
 -1      3789 1.27350E+02 1.55401E+01 0.00000E+00
 -1      3790 1.26600E+02 1.68391E+01 0.00000E+00
 -1      3791 9.39388E+01 2.93516E+01 0.00000E+00
 -1      3792 9.30778E+01 2.85455E+01 0.00000E+00
 -1      3793 2.73975E+01 1.56973E+01 0.00000E+00
 -1      3794 2.66475E+01 1.69963E+01 0.00000E+00
 -1      3795 2.89350E+01 1.56973E+01 0.00000E+00
 -1      3796 1.72022E+01 1.74028E+01 0.00000E+00
 -1      3797 2.41500E+01 3.18140E+01 0.00000E+00
 -1      3798 9.16142E+01 2.84874E+01 0.00000E+00
 -1      3799 1.34021E+02 2.16609E+01 0.00000E+00
 -1      3800 1.35315E+02 2.24186E+01 0.00000E+00
 -1      3801 1.10597E+02 2.60167E+01 0.00000E+00
 -1      3802 1.08707E+02 2.76945E+01 0.00000E+00
 -1      3803 1.07452E+02 2.76601E+01 0.00000E+00
 -1      3804 1.07116E+02 2.89310E+01 0.00000E+00
 -1      3805 1.34096E+02 1.88547E+01 0.00000E+00
 -1      3806 2.03327E+01 1.70774E+01 0.00000E+00
 -1      3807 1.00156E+02 2.83266E+01 0.00000E+00
 -1      3808 9.86918E+01 2.82955E+01 0.00000E+00
 -1      3809 9.73278E+01 2.91550E+01 0.00000E+00
 -1      3810 1.68870E+01 2.12922E+01 0.00000E+00
 -1      3811 1.68870E+01 2.27641E+01 0.00000E+00
 -1      3812 8.91406E+01 2.70891E+01 0.00000E+00
 -1      3813 8.87272E+01 2.55308E+01 0.00000E+00
 -1      3814 8.72597E+01 2.55419E+01 0.00000E+00
 -1      3815 1.16641E+02 2.31418E+01 0.00000E+00
 -1      3816 1.16364E+02 2.46133E+01 0.00000E+00
 -1      3817 1.81860E+01 2.35000E+01 0.00000E+00
 -1      3818 1.68870E+01 2.42359E+01 0.00000E+00
 -1      3819 1.68870E+01 2.57078E+01 0.00000E+00
 -1      3820 1.03236E+02 2.82061E+01 0.00000E+00
 -1      3821 1.01771E+02 2.81749E+01 0.00000E+00
 -1      3822 1.01014E+02 2.93518E+01 0.00000E+00
 -1      3823 1.04245E+02 2.90484E+01 0.00000E+00
 -1      3824 1.17459E+02 2.12132E+01 0.00000E+00
 -1      3825 1.17050E+02 2.21775E+01 0.00000E+00
 -1      3826 1.18188E+02 2.31534E+01 0.00000E+00
 -1      3827 3.19912E+01 1.56973E+01 0.00000E+00
 -1      3828 3.04538E+01 1.56973E+01 0.00000E+00
 -1      3829 2.97038E+01 1.69963E+01 0.00000E+00
 -1      3830 3.27412E+01 1.69963E+01 0.00000E+00
 -1      3831 1.33282E+02 2.95309E+01 0.00000E+00
 -1      3832 1.33282E+02 2.80621E+01 0.00000E+00
 -1      3833 1.31987E+02 2.73059E+01 0.00000E+00
 -1      3834 1.31096E+02 3.03113E+01 0.00000E+00
 -1      3835 4.85850E+01 1.82952E+01 0.00000E+00
 -1      3836 4.70850E+01 1.82952E+01 0.00000E+00
 -1      3837 2.43600E+01 1.82952E+01 0.00000E+00
 -1      3838 2.28600E+01 1.82952E+01 0.00000E+00
 -1      3839 5.15850E+01 1.82952E+01 0.00000E+00
 -1      3840 5.00850E+01 1.82952E+01 0.00000E+00
 -1      3841 4.93350E+01 1.95942E+01 0.00000E+00
 -1      3842 2.94000E+01 3.05150E+01 0.00000E+00
 -1      3843 3.09000E+01 3.05150E+01 0.00000E+00
 -1      3844 3.24000E+01 3.05150E+01 0.00000E+00
 -1      3845 3.39000E+01 3.05150E+01 0.00000E+00
 -1      3846 3.16500E+01 2.92160E+01 0.00000E+00
 -1      3847 3.54000E+01 3.05150E+01 0.00000E+00
 -1      3848 3.69000E+01 3.05150E+01 0.00000E+00
 -1      3849 3.46500E+01 2.92160E+01 0.00000E+00
 -1      3850 3.84000E+01 3.05150E+01 0.00000E+00
 -1      3851 3.99000E+01 3.05150E+01 0.00000E+00
 -1      3852 3.76500E+01 2.92160E+01 0.00000E+00
 -1      3853 4.14000E+01 3.05150E+01 0.00000E+00
 -1      3854 4.29000E+01 3.05150E+01 0.00000E+00
 -1      3855 4.06500E+01 2.92160E+01 0.00000E+00
 -1      3856 4.44000E+01 3.05150E+01 0.00000E+00
 -1      3857 4.59000E+01 3.05150E+01 0.00000E+00
 -1      3858 4.36500E+01 2.92160E+01 0.00000E+00
 -1      3859 4.74000E+01 3.05150E+01 0.00000E+00
 -1      3860 4.89000E+01 3.05150E+01 0.00000E+00
 -1      3861 4.66500E+01 2.92160E+01 0.00000E+00
 -1      3862 5.04000E+01 3.05150E+01 0.00000E+00
 -1      3863 5.19000E+01 3.05150E+01 0.00000E+00
 -1      3864 4.96500E+01 2.92160E+01 0.00000E+00
 -1      3865 5.34000E+01 3.05150E+01 0.00000E+00
 -1      3866 5.49000E+01 3.05150E+01 0.00000E+00
 -1      3867 5.26500E+01 2.92160E+01 0.00000E+00
 -1      3868 5.64000E+01 3.05150E+01 0.00000E+00
 -1      3869 5.79000E+01 3.05150E+01 0.00000E+00
 -1      3870 5.56500E+01 2.92160E+01 0.00000E+00
 -1      3871 5.94000E+01 3.05150E+01 0.00000E+00
 -1      3872 6.09000E+01 3.05150E+01 0.00000E+00
 -1      3873 5.86500E+01 2.92160E+01 0.00000E+00
 -1      3874 6.24000E+01 3.05150E+01 0.00000E+00
 -1      3875 6.39000E+01 3.05150E+01 0.00000E+00
 -1      3876 6.16500E+01 2.92160E+01 0.00000E+00
 -1      3877 6.54000E+01 3.05150E+01 0.00000E+00
 -1      3878 6.69000E+01 3.05150E+01 0.00000E+00
 -1      3879 6.46500E+01 2.92160E+01 0.00000E+00
 -1      3880 6.84000E+01 3.05150E+01 0.00000E+00
 -1      3881 6.99000E+01 3.05150E+01 0.00000E+00
 -1      3882 6.76500E+01 2.92160E+01 0.00000E+00
 -1      3883 7.14000E+01 3.05150E+01 0.00000E+00
 -1      3884 7.29000E+01 3.05150E+01 0.00000E+00
 -1      3885 7.06500E+01 2.92160E+01 0.00000E+00
 -1      3886 7.44000E+01 3.05150E+01 0.00000E+00
 -1      3887 7.59000E+01 3.05150E+01 0.00000E+00
 -1      3888 7.36500E+01 2.92160E+01 0.00000E+00
 -1      3889 7.74000E+01 3.05150E+01 0.00000E+00
 -1      3890 7.89000E+01 3.05150E+01 0.00000E+00
 -1      3891 7.66500E+01 2.92160E+01 0.00000E+00
 -1      3892 8.04000E+01 3.05150E+01 0.00000E+00
 -1      3893 8.19000E+01 3.05150E+01 0.00000E+00
 -1      3894 7.96500E+01 2.92160E+01 0.00000E+00
 -1      3895 8.34000E+01 3.05150E+01 0.00000E+00
 -1      3896 8.49000E+01 3.05150E+01 0.00000E+00
 -1      3897 8.26500E+01 2.92160E+01 0.00000E+00
 -1      3898 8.66616E+01 2.94571E+01 0.00000E+00
 -1      3899 8.81616E+01 2.94571E+01 0.00000E+00
 -1      3900 9.21352E+01 3.08554E+01 0.00000E+00
 -1      3901 9.36352E+01 3.08554E+01 0.00000E+00
 -1      3902 9.85242E+01 3.06587E+01 0.00000E+00
 -1      3903 1.00024E+02 3.06587E+01 0.00000E+00
 -1      3904 1.01640E+02 3.05070E+01 0.00000E+00
 -1      3905 1.03140E+02 3.05070E+01 0.00000E+00
 -1      3906 1.04755E+02 3.03553E+01 0.00000E+00
 -1      3907 1.06255E+02 3.03553E+01 0.00000E+00
 -1      3908 1.07510E+02 3.03897E+01 0.00000E+00
 -1      3909 1.09010E+02 3.03897E+01 0.00000E+00
 -1      3910 1.13400E+02 3.05150E+01 0.00000E+00
 -1      3911 1.14900E+02 3.05150E+01 0.00000E+00
 -1      3912 1.16400E+02 3.05150E+01 0.00000E+00
 -1      3913 1.17900E+02 3.05150E+01 0.00000E+00
 -1      3914 1.15650E+02 2.92160E+01 0.00000E+00
 -1      3915 1.19400E+02 3.05150E+01 0.00000E+00
 -1      3916 1.20900E+02 3.05150E+01 0.00000E+00
 -1      3917 1.18650E+02 2.92160E+01 0.00000E+00
 -1      3918 1.22400E+02 3.05150E+01 0.00000E+00
 -1      3919 1.23900E+02 3.05150E+01 0.00000E+00
 -1      3920 1.21650E+02 2.92160E+01 0.00000E+00
 -1      3921 1.25400E+02 3.05150E+01 0.00000E+00
 -1      3922 1.26900E+02 3.05150E+01 0.00000E+00
 -1      3923 1.24650E+02 2.92160E+01 0.00000E+00
 -1      3924 1.28248E+02 3.04131E+01 0.00000E+00
 -1      3925 1.29748E+02 3.04131E+01 0.00000E+00
 -1      3926 1.30194E+02 2.89104E+01 0.00000E+00
 -1      3927 1.27498E+02 2.91141E+01 0.00000E+00
 -1      3928 4.25662E+01 1.82952E+01 0.00000E+00
 -1      3929 4.10288E+01 1.82952E+01 0.00000E+00
 -1      3930 1.31138E+02 2.50457E+01 0.00000E+00
 -1      3931 1.31147E+02 2.35459E+01 0.00000E+00
 -1      3932 1.68870E+01 2.71797E+01 0.00000E+00
 -1      3933 1.68870E+01 2.86516E+01 0.00000E+00
 -1      3934 1.81860E+01 2.64438E+01 0.00000E+00
 -1      3935 1.71099E+01 1.86202E+01 0.00000E+00
 -1      3936 1.69794E+01 2.00748E+01 0.00000E+00
 -1      3937 1.82784E+01 2.08108E+01 0.00000E+00
 -1      3938 1.84631E+01 1.83760E+01 0.00000E+00
 -1      3939 5.45850E+01 1.82952E+01 0.00000E+00
 -1      3940 5.30850E+01 1.82952E+01 0.00000E+00
 -1      3941 5.23350E+01 1.95942E+01 0.00000E+00
 -1      3942 5.75850E+01 1.82952E+01 0.00000E+00
 -1      3943 5.60850E+01 1.82952E+01 0.00000E+00
 -1      3944 5.53350E+01 1.95942E+01 0.00000E+00
 -1      3945 6.07350E+01 1.82952E+01 0.00000E+00
 -1      3946 5.91600E+01 1.82952E+01 0.00000E+00
 -1      3947 5.84100E+01 1.95942E+01 0.00000E+00
 -1      3948 6.37350E+01 1.82952E+01 0.00000E+00
 -1      3949 6.22350E+01 1.82952E+01 0.00000E+00
 -1      3950 6.14850E+01 1.95942E+01 0.00000E+00
 -1      3951 6.67350E+01 1.82952E+01 0.00000E+00
 -1      3952 6.52350E+01 1.82952E+01 0.00000E+00
 -1      3953 6.44850E+01 1.95942E+01 0.00000E+00
 -1      3954 6.97350E+01 1.82952E+01 0.00000E+00
 -1      3955 6.82350E+01 1.82952E+01 0.00000E+00
 -1      3956 6.74850E+01 1.95942E+01 0.00000E+00
 -1      3957 7.27350E+01 1.82952E+01 0.00000E+00
 -1      3958 7.12350E+01 1.82952E+01 0.00000E+00
 -1      3959 7.04850E+01 1.95942E+01 0.00000E+00
 -1      3960 7.58850E+01 1.82952E+01 0.00000E+00
 -1      3961 7.43100E+01 1.82952E+01 0.00000E+00
 -1      3962 7.35600E+01 1.95942E+01 0.00000E+00
 -1      3963 7.88850E+01 1.82952E+01 0.00000E+00
 -1      3964 7.73850E+01 1.82952E+01 0.00000E+00
 -1      3965 7.66350E+01 1.95942E+01 0.00000E+00
 -1      3966 1.89180E+01 2.98648E+01 0.00000E+00
 -1      3967 1.14549E+02 2.71625E+01 0.00000E+00
 -1      3968 1.13150E+02 2.74129E+01 0.00000E+00
 -1      3969 1.30350E+02 1.70151E+01 0.00000E+00
 -1      3970 1.45230E+01 3.38512E+01 0.00000E+00
 -1      3971 9.49536E+01 3.03102E+01 0.00000E+00
 -1      3972 8.20518E+01 1.90789E+01 0.00000E+00
 -1      3973 8.04684E+01 1.86871E+01 0.00000E+00
 -1      3974 7.97184E+01 1.99861E+01 0.00000E+00
 -1      3975 2.64000E+01 3.05150E+01 0.00000E+00
 -1      3976 2.79000E+01 3.05150E+01 0.00000E+00
 -1      3977 2.86500E+01 2.92160E+01 0.00000E+00
 -1      3978 1.32525E+02 1.99973E+01 0.00000E+00
 -1      3979 1.11705E+02 2.73503E+01 0.00000E+00
 -1      3980 1.10152E+02 2.77571E+01 0.00000E+00
 -1      3981 1.09815E+02 2.90281E+01 0.00000E+00
 -1      3982 1.12705E+02 2.91534E+01 0.00000E+00
 -1      3983 4.55850E+01 1.82952E+01 0.00000E+00
 -1      3984 4.40850E+01 1.82952E+01 0.00000E+00
 -1      3985 4.63350E+01 1.95942E+01 0.00000E+00
 -1      3986 9.64536E+01 3.03102E+01 0.00000E+00
 -1      3987 8.53285E+01 2.40367E+01 0.00000E+00
 -1      3988 8.44664E+01 2.27200E+01 0.00000E+00
 -1      3989 3.95288E+01 1.82952E+01 0.00000E+00
 -1      3990 3.80288E+01 1.82952E+01 0.00000E+00
 -1      3991 4.02975E+01 1.95942E+01 0.00000E+00
 -1      3992 3.65288E+01 1.82952E+01 0.00000E+00
 -1      3993 3.50288E+01 1.82952E+01 0.00000E+00
 -1      3994 3.72975E+01 1.95942E+01 0.00000E+00
 -1      3995 1.24225E+02 1.81051E+01 0.00000E+00
 -1      3996 1.22575E+02 1.80410E+01 0.00000E+00
 -1      3997 2.15502E+01 1.82950E+01 0.00000E+00
 -1      3998 1.97729E+01 1.83762E+01 0.00000E+00
 -1      3999 1.96805E+01 1.95936E+01 0.00000E+00
 -1      4000 2.23002E+01 1.95940E+01 0.00000E+00
 -1      4001 2.34000E+01 3.05150E+01 0.00000E+00
 -1      4002 2.49000E+01 3.05150E+01 0.00000E+00
 -1      4003 2.56500E+01 2.92160E+01 0.00000E+00
 -1      4004 1.17464E+02 2.66669E+01 0.00000E+00
 -1      4005 1.16049E+02 2.71625E+01 0.00000E+00
 -1      4006 1.30711E+02 2.16836E+01 0.00000E+00
 -1      4007 1.30786E+02 1.88774E+01 0.00000E+00
 -1      4008 1.28536E+02 1.87014E+01 0.00000E+00
 -1      4009 1.29408E+02 2.24260E+01 0.00000E+00
 -1      4010 2.04090E+01 3.01899E+01 0.00000E+00
 -1      4011 2.19090E+01 3.01899E+01 0.00000E+00
 -1      4012 2.26590E+01 2.88909E+01 0.00000E+00
 -1      4013 1.96770E+01 2.82407E+01 0.00000E+00
 -1      4014 8.32120E+01 2.08640E+01 0.00000E+00
 -1      4015 1.17881E+02 1.92852E+01 0.00000E+00
 -1      4016 1.17670E+02 2.02492E+01 0.00000E+00
 -1      4017 1.18808E+02 2.12251E+01 0.00000E+00
 -1      4018 8.96290E+01 2.94460E+01 0.00000E+00
 -1      4019 8.59116E+01 2.81581E+01 0.00000E+00
 -1      4020 9.11290E+01 2.94460E+01 0.00000E+00
 -1      4021 1.10455E+02 3.04524E+01 0.00000E+00
 -1      4022 3.42788E+01 1.95942E+01 0.00000E+00
 -1      4023 3.35100E+01 1.82952E+01 0.00000E+00
 -1      4024 3.19912E+01 1.82952E+01 0.00000E+00
 -1      4025 1.11955E+02 3.04524E+01 0.00000E+00
 -1      4026 4.33162E+01 1.95942E+01 0.00000E+00
 -1      4027 8.25562E+01 2.22339E+01 0.00000E+00
 -1      4028 2.74350E+01 1.82952E+01 0.00000E+00
 -1      4029 2.58975E+01 1.82952E+01 0.00000E+00
 -1      4030 2.51475E+01 1.95942E+01 0.00000E+00
 -1      4031 1.27130E+02 1.84033E+01 0.00000E+00
 -1      4032 1.25630E+02 1.84033E+01 0.00000E+00
 -1      4033 1.24755E+02 1.96692E+01 0.00000E+00
 -1      4034 1.27566E+02 2.02656E+01 0.00000E+00
 -1      4035 1.22191E+02 1.92887E+01 0.00000E+00
 -1      4036 1.21416E+02 1.79586E+01 0.00000E+00
 -1      4037 1.20257E+02 1.78762E+01 0.00000E+00
 -1      4038 8.58267E+01 2.68766E+01 0.00000E+00
 -1      4039 8.54133E+01 2.53183E+01 0.00000E+00
 -1      4040 8.38955E+01 2.53714E+01 0.00000E+00
 -1      4041 8.40652E+01 2.79345E+01 0.00000E+00
 -1      4042 1.30443E+02 2.77294E+01 0.00000E+00
 -1      4043 1.30889E+02 2.62267E+01 0.00000E+00
 -1      4044 1.29594E+02 2.54693E+01 0.00000E+00
 -1      4045 1.29095E+02 2.78313E+01 0.00000E+00
 -1      4046 1.95882E+01 2.08110E+01 0.00000E+00
 -1      4047 1.94958E+01 2.20283E+01 0.00000E+00
 -1      4048 2.08980E+01 2.08112E+01 0.00000E+00
 -1      4049 1.18113E+02 1.74278E+01 0.00000E+00
 -1      4050 1.19588E+02 2.31785E+01 0.00000E+00
 -1      4051 1.19179E+02 2.41428E+01 0.00000E+00
 -1      4052 1.94958E+01 2.35002E+01 0.00000E+00
 -1      4053 2.49000E+01 2.79170E+01 0.00000E+00
 -1      4054 2.64000E+01 2.79170E+01 0.00000E+00
 -1      4055 1.96770E+01 2.52970E+01 0.00000E+00
 -1      4056 1.96770E+01 2.67688E+01 0.00000E+00
 -1      4057 2.11680E+01 2.70939E+01 0.00000E+00
 -1      4058 5.00850E+01 2.08932E+01 0.00000E+00
 -1      4059 4.85850E+01 2.08932E+01 0.00000E+00
 -1      4060 3.39000E+01 2.79170E+01 0.00000E+00
 -1      4061 3.54000E+01 2.79170E+01 0.00000E+00
 -1      4062 3.69000E+01 2.79170E+01 0.00000E+00
 -1      4063 3.84000E+01 2.79170E+01 0.00000E+00
 -1      4064 3.61500E+01 2.66180E+01 0.00000E+00
 -1      4065 3.99000E+01 2.79170E+01 0.00000E+00
 -1      4066 4.14000E+01 2.79170E+01 0.00000E+00
 -1      4067 3.91500E+01 2.66180E+01 0.00000E+00
 -1      4068 4.29000E+01 2.79170E+01 0.00000E+00
 -1      4069 4.44000E+01 2.79170E+01 0.00000E+00
 -1      4070 4.21500E+01 2.66180E+01 0.00000E+00
 -1      4071 4.59000E+01 2.79170E+01 0.00000E+00
 -1      4072 4.74000E+01 2.79170E+01 0.00000E+00
 -1      4073 4.51500E+01 2.66180E+01 0.00000E+00
 -1      4074 4.89000E+01 2.79170E+01 0.00000E+00
 -1      4075 5.04000E+01 2.79170E+01 0.00000E+00
 -1      4076 4.81500E+01 2.66180E+01 0.00000E+00
 -1      4077 5.19000E+01 2.79170E+01 0.00000E+00
 -1      4078 5.34000E+01 2.79170E+01 0.00000E+00
 -1      4079 5.11500E+01 2.66180E+01 0.00000E+00
 -1      4080 5.49000E+01 2.79170E+01 0.00000E+00
 -1      4081 5.64000E+01 2.79170E+01 0.00000E+00
 -1      4082 5.41500E+01 2.66180E+01 0.00000E+00
 -1      4083 5.79000E+01 2.79170E+01 0.00000E+00
 -1      4084 5.94000E+01 2.79170E+01 0.00000E+00
 -1      4085 5.71500E+01 2.66180E+01 0.00000E+00
 -1      4086 6.09000E+01 2.79170E+01 0.00000E+00
 -1      4087 6.24000E+01 2.79170E+01 0.00000E+00
 -1      4088 6.01500E+01 2.66180E+01 0.00000E+00
 -1      4089 6.39000E+01 2.79170E+01 0.00000E+00
 -1      4090 6.54000E+01 2.79170E+01 0.00000E+00
 -1      4091 6.31500E+01 2.66180E+01 0.00000E+00
 -1      4092 6.69000E+01 2.79170E+01 0.00000E+00
 -1      4093 6.84000E+01 2.79170E+01 0.00000E+00
 -1      4094 6.61500E+01 2.66180E+01 0.00000E+00
 -1      4095 6.99000E+01 2.79170E+01 0.00000E+00
 -1      4096 7.14000E+01 2.79170E+01 0.00000E+00
 -1      4097 6.91500E+01 2.66180E+01 0.00000E+00
 -1      4098 7.29000E+01 2.79170E+01 0.00000E+00
 -1      4099 7.44000E+01 2.79170E+01 0.00000E+00
 -1      4100 7.21500E+01 2.66180E+01 0.00000E+00
 -1      4101 7.59000E+01 2.79170E+01 0.00000E+00
 -1      4102 7.74000E+01 2.79170E+01 0.00000E+00
 -1      4103 7.51500E+01 2.66180E+01 0.00000E+00
 -1      4104 7.89000E+01 2.79170E+01 0.00000E+00
 -1      4105 8.04000E+01 2.79170E+01 0.00000E+00
 -1      4106 7.81500E+01 2.66180E+01 0.00000E+00
 -1      4107 8.25652E+01 2.79345E+01 0.00000E+00
 -1      4108 1.20900E+02 2.79170E+01 0.00000E+00
 -1      4109 1.22400E+02 2.79170E+01 0.00000E+00
 -1      4110 1.23900E+02 2.79170E+01 0.00000E+00
 -1      4111 1.25400E+02 2.79170E+01 0.00000E+00
 -1      4112 1.23150E+02 2.66180E+01 0.00000E+00
 -1      4113 8.21072E+01 2.38893E+01 0.00000E+00
 -1      4114 8.08528E+01 2.20333E+01 0.00000E+00
 -1      4115 6.22350E+01 2.08932E+01 0.00000E+00
 -1      4116 6.07350E+01 2.08932E+01 0.00000E+00
 -1      4117 6.52350E+01 2.08932E+01 0.00000E+00
 -1      4118 6.37350E+01 2.08932E+01 0.00000E+00
 -1      4119 6.29850E+01 2.21922E+01 0.00000E+00
 -1      4120 6.82350E+01 2.08932E+01 0.00000E+00
 -1      4121 6.67350E+01 2.08932E+01 0.00000E+00
 -1      4122 6.59850E+01 2.21922E+01 0.00000E+00
 -1      4123 7.12350E+01 2.08932E+01 0.00000E+00
 -1      4124 6.97350E+01 2.08932E+01 0.00000E+00
 -1      4125 6.89850E+01 2.21922E+01 0.00000E+00
 -1      4126 7.43850E+01 2.08932E+01 0.00000E+00
 -1      4127 7.28100E+01 2.08932E+01 0.00000E+00
 -1      4128 7.20600E+01 2.21922E+01 0.00000E+00
 -1      4129 7.73850E+01 2.08932E+01 0.00000E+00
 -1      4130 7.58850E+01 2.08932E+01 0.00000E+00
 -1      4131 7.51350E+01 2.21922E+01 0.00000E+00
 -1      4132 2.79000E+01 2.79170E+01 0.00000E+00
 -1      4133 2.94000E+01 2.79170E+01 0.00000E+00
 -1      4134 2.71500E+01 2.66180E+01 0.00000E+00
 -1      4135 7.92694E+01 2.16415E+01 0.00000E+00
 -1      4136 4.70850E+01 2.08932E+01 0.00000E+00
 -1      4137 4.55850E+01 2.08932E+01 0.00000E+00
 -1      4138 4.78350E+01 2.21922E+01 0.00000E+00
 -1      4139 4.10475E+01 2.08932E+01 0.00000E+00
 -1      4140 3.95475E+01 2.08932E+01 0.00000E+00
 -1      4141 3.80475E+01 2.08932E+01 0.00000E+00
 -1      4142 3.65475E+01 2.08932E+01 0.00000E+00
 -1      4143 3.87975E+01 2.21922E+01 0.00000E+00
 -1      4144 5.30850E+01 2.08932E+01 0.00000E+00
 -1      4145 5.15850E+01 2.08932E+01 0.00000E+00
 -1      4146 5.08350E+01 2.21922E+01 0.00000E+00
 -1      4147 5.91600E+01 2.08932E+01 0.00000E+00
 -1      4148 5.75850E+01 2.08932E+01 0.00000E+00
 -1      4149 5.99100E+01 2.21922E+01 0.00000E+00
 -1      4150 3.04725E+01 1.82952E+01 0.00000E+00
 -1      4151 2.89538E+01 1.82952E+01 0.00000E+00
 -1      4152 3.12412E+01 1.95942E+01 0.00000E+00
 -1      4153 1.19714E+02 2.53679E+01 0.00000E+00
 -1      4154 1.19400E+02 2.79170E+01 0.00000E+00
 -1      4155 3.09000E+01 2.79170E+01 0.00000E+00
 -1      4156 3.24000E+01 2.79170E+01 0.00000E+00
 -1      4157 3.01500E+01 2.66180E+01 0.00000E+00
 -1      4158 1.19799E+02 2.22145E+01 0.00000E+00
 -1      4159 1.20791E+02 2.32040E+01 0.00000E+00
 -1      4160 1.20011E+02 2.12505E+01 0.00000E+00
 -1      4161 2.09868E+01 2.38253E+01 0.00000E+00
 -1      4162 1.19251E+02 1.84036E+01 0.00000E+00
 -1      4163 5.60850E+01 2.08932E+01 0.00000E+00
 -1      4164 5.45850E+01 2.08932E+01 0.00000E+00
 -1      4165 5.38350E+01 2.21922E+01 0.00000E+00
 -1      4166 5.68350E+01 2.21922E+01 0.00000E+00
 -1      4167 4.40756E+01 2.08932E+01 0.00000E+00
 -1      4168 4.25569E+01 2.08932E+01 0.00000E+00
 -1      4169 4.18069E+01 2.21922E+01 0.00000E+00
 -1      4170 4.48256E+01 2.21922E+01 0.00000E+00
 -1      4171 8.18152E+01 2.66355E+01 0.00000E+00
 -1      4172 2.59163E+01 2.08932E+01 0.00000E+00
 -1      4173 2.43787E+01 2.08932E+01 0.00000E+00
 -1      4174 1.22400E+02 2.53190E+01 0.00000E+00
 -1      4175 1.23900E+02 2.53190E+01 0.00000E+00
 -1      4176 2.32933E+01 2.08523E+01 0.00000E+00
 -1      4177 2.19835E+01 2.08521E+01 0.00000E+00
 -1      4178 2.18911E+01 2.20695E+01 0.00000E+00
 -1      4179 2.40620E+01 2.21513E+01 0.00000E+00
 -1      4180 3.50288E+01 2.08932E+01 0.00000E+00
 -1      4181 3.35100E+01 2.08932E+01 0.00000E+00
 -1      4182 3.57788E+01 2.21922E+01 0.00000E+00
 -1      4183 8.17303E+01 2.53539E+01 0.00000E+00
 -1      4184 8.00269E+01 2.51533E+01 0.00000E+00
 -1      4185 1.26574E+02 2.79251E+01 0.00000E+00
 -1      4186 1.27921E+02 2.78232E+01 0.00000E+00
 -1      4187 1.28171E+02 2.66422E+01 0.00000E+00
 -1      4188 1.25824E+02 2.66261E+01 0.00000E+00
 -1      4189 2.22885E+01 2.73429E+01 0.00000E+00
 -1      4190 2.37795E+01 2.76680E+01 0.00000E+00
 -1      4191 2.45295E+01 2.63690E+01 0.00000E+00
 -1      4192 2.22885E+01 2.58710E+01 0.00000E+00
 -1      4193 2.82038E+01 1.95942E+01 0.00000E+00
 -1      4194 1.22076E+02 2.31300E+01 0.00000E+00
 -1      4195 1.21865E+02 2.40940E+01 0.00000E+00
 -1      4196 7.85194E+01 2.29405E+01 0.00000E+00
 -1      4197 3.31500E+01 2.66180E+01 0.00000E+00
 -1      4198 1.25188E+02 2.10890E+01 0.00000E+00
 -1      4199 1.23783E+02 2.07909E+01 0.00000E+00
 -1      4200 1.28420E+02 2.54612E+01 0.00000E+00
 -1      4201 1.28670E+02 2.42802E+01 0.00000E+00
 -1      4202 1.27247E+02 2.54531E+01 0.00000E+00
 -1      4203 1.28234E+02 2.24179E+01 0.00000E+00
 -1      4204 1.21115E+02 2.53930E+01 0.00000E+00
 -1      4205 1.20025E+02 1.97337E+01 0.00000E+00
 -1      4206 2.20723E+01 2.38662E+01 0.00000E+00
 -1      4207 2.89538E+01 2.08932E+01 0.00000E+00
 -1      4208 2.74350E+01 2.08932E+01 0.00000E+00
 -1      4209 2.66663E+01 2.21922E+01 0.00000E+00
 -1      4210 3.89738E+01 2.44051E+01 0.00000E+00
 -1      4211 4.04738E+01 2.44051E+01 0.00000E+00
 -1      4212 4.19831E+01 2.44051E+01 0.00000E+00
 -1      4213 4.34831E+01 2.44051E+01 0.00000E+00
 -1      4214 4.49925E+01 2.44051E+01 0.00000E+00
 -1      4215 4.64925E+01 2.44051E+01 0.00000E+00
 -1      4216 4.79925E+01 2.44051E+01 0.00000E+00
 -1      4217 4.94925E+01 2.44051E+01 0.00000E+00
 -1      4218 5.09925E+01 2.44051E+01 0.00000E+00
 -1      4219 5.24925E+01 2.44051E+01 0.00000E+00
 -1      4220 5.39925E+01 2.44051E+01 0.00000E+00
 -1      4221 5.54925E+01 2.44051E+01 0.00000E+00
 -1      4222 5.69925E+01 2.44051E+01 0.00000E+00
 -1      4223 5.84925E+01 2.44051E+01 0.00000E+00
 -1      4224 6.00675E+01 2.44051E+01 0.00000E+00
 -1      4225 6.15675E+01 2.44051E+01 0.00000E+00
 -1      4226 6.30675E+01 2.44051E+01 0.00000E+00
 -1      4227 6.45675E+01 2.44051E+01 0.00000E+00
 -1      4228 6.60675E+01 2.44051E+01 0.00000E+00
 -1      4229 6.75675E+01 2.44051E+01 0.00000E+00
 -1      4230 6.90675E+01 2.44051E+01 0.00000E+00
 -1      4231 7.05675E+01 2.44051E+01 0.00000E+00
 -1      4232 7.21425E+01 2.44051E+01 0.00000E+00
 -1      4233 7.36425E+01 2.44051E+01 0.00000E+00
 -1      4234 7.51425E+01 2.44051E+01 0.00000E+00
 -1      4235 7.66425E+01 2.44051E+01 0.00000E+00
 -1      4236 7.81425E+01 2.44051E+01 0.00000E+00
 -1      4237 1.26828E+02 2.21198E+01 0.00000E+00
 -1      4238 1.22609E+02 2.22253E+01 0.00000E+00
 -1      4239 1.23683E+02 2.31153E+01 0.00000E+00
 -1      4240 2.69175E+01 2.44051E+01 0.00000E+00
 -1      4241 2.84175E+01 2.44051E+01 0.00000E+00
 -1      4242 1.25856E+02 2.32414E+01 0.00000E+00
 -1      4243 1.22176E+02 2.08055E+01 0.00000E+00
 -1      4244 1.21017E+02 2.07231E+01 0.00000E+00
 -1      4245 3.24000E+01 2.53190E+01 0.00000E+00
 -1      4246 3.39000E+01 2.53190E+01 0.00000E+00
 -1      4247 3.19912E+01 2.08932E+01 0.00000E+00
 -1      4248 3.04725E+01 2.08932E+01 0.00000E+00
 -1      4249 2.97038E+01 2.21922E+01 0.00000E+00
 -1      4250 3.27412E+01 2.21922E+01 0.00000E+00
 -1      4251 3.59738E+01 2.44051E+01 0.00000E+00
 -1      4252 3.74738E+01 2.44051E+01 0.00000E+00
 -1      4253 2.31928E+01 2.41152E+01 0.00000E+00
 -1      4254 1.25323E+02 2.41461E+01 0.00000E+00
 -1      4255 1.26073E+02 2.54451E+01 0.00000E+00
 -1      4256 2.99363E+01 2.44051E+01 0.00000E+00
 -1      4257 3.14363E+01 2.44051E+01 0.00000E+00
 -1      4258 3.44550E+01 2.44051E+01 0.00000E+00
 -1      4259 2.53988E+01 2.44051E+01 0.00000E+00
 -1      4260 2.42782E+01 2.41561E+01 0.00000E+00
 -1      4261 3.21862E+01 2.31061E+01 0.00000E+00
 -1      4262 3.37050E+01 2.31061E+01 0.00000E+00
 -3
    3C                          2048                                     1
 -1       167    8    0    1
 -2         6         7        23      1108      1274      1125
 -1       168    8    0    1
 -2         7         8       167      1109      1275      1276
 -1       169    8    0    1
 -2         8         9       168      1110      1277      1278
 -1       170    8    0    1
 -2         8       168       167      1278      1279      1275
 -1       171    8    0    1
 -2         9        10       169      1111      1280      1281
 -1       172    8    0    1
 -2         9       169       168      1281      1282      1277
 -1       173    8    0    1
 -2        10        11       170      1112      1283      1284
 -1       174    8    0    1
 -2        10       170       169      1284      1285      1280
 -1       175    8    0    1
 -2        11        12       171      1113      1286      1287
 -1       176    8    0    1
 -2        11       171       170      1287      1288      1283
 -1       177    8    0    1
 -2        12        13       172      1114      1289      1290
 -1       178    8    0    1
 -2        12       172       171      1290      1291      1286
 -1       179    8    0    1
 -2        13        14       173      1115      1292      1293
 -1       180    8    0    1
 -2        13       173       172      1293      1294      1289
 -1       181    8    0    1
 -2        14        15       174      1116      1295      1296
 -1       182    8    0    1
 -2        14       174       173      1296      1297      1292
 -1       183    8    0    1
 -2        15        16       175      1117      1298      1299
 -1       184    8    0    1
 -2        15       175       174      1299      1300      1295
 -1       185    8    0    1
 -2        16        17       176      1118      1301      1302
 -1       186    8    0    1
 -2        16       176       175      1302      1303      1298
 -1       187    8    0    1
 -2        17        18       177      1119      1304      1305
 -1       188    8    0    1
 -2        17       177       176      1305      1306      1301
 -1       189    8    0    1
 -2        18        19       178      1120      1307      1308
 -1       190    8    0    1
 -2        18       178       177      1308      1309      1304
 -1       191    8    0    1
 -2        19        20       179      1121      1310      1311
 -1       192    8    0    1
 -2        19       179       178      1311      1312      1307
 -1       193    8    0    1
 -2        20        21       180      1122      1313      1314
 -1       194    8    0    1
 -2        20       180       179      1314      1315      1310
 -1       195    8    0    1
 -2        21        22       181      1123      1316      1317
 -1       196    8    0    1
 -2        21       181       180      1317      1318      1313
 -1       197    8    0    1
 -2        22         5       182      1124      1319      1320
 -1       198    8    0    1
 -2       181        22       182      1316      1320      1321
 -1       199    8    0    1
 -2         5        72       182      1175      1322      1319
 -1       200    8    0    1
 -2        24        23       183      1126      1323      1324
 -1       201    8    0    1
 -2        25        24       184      1127      1325      1326
 -1       202    8    0    1
 -2        24       183       184      1324      1327      1325
 -1       203    8    0    1
 -2        26        25       185      1128      1328      1329
 -1       204    8    0    1
 -2        25       184       185      1326      1330      1328
 -1       205    8    0    1
 -2        27        26       186      1129      1331      1332
 -1       206    8    0    1
 -2        26       185       186      1329      1333      1331
 -1       207    8    0    1
 -2        28        27       187      1130      1334      1335
 -1       208    8    0    1
 -2        27       186       187      1332      1336      1334
 -1       209    8    0    1
 -2        29        28       188      1131      1337      1338
 -1       210    8    0    1
 -2        28       187       188      1335      1339      1337
 -1       211    8    0    1
 -2        30        29       189      1132      1340      1341
 -1       212    8    0    1
 -2        29       188       189      1338      1342      1340
 -1       213    8    0    1
 -2        31        30       190      1133      1343      1344
 -1       214    8    0    1
 -2        30       189       190      1341      1345      1343
 -1       215    8    0    1
 -2        32        31       191      1134      1346      1347
 -1       216    8    0    1
 -2        31       190       191      1344      1348      1346
 -1       217    8    0    1
 -2        33        32       192      1135      1349      1350
 -1       218    8    0    1
 -2        32       191       192      1347      1351      1349
 -1       219    8    0    1
 -2        34        33       193      1136      1352      1353
 -1       220    8    0    1
 -2        33       192       193      1350      1354      1352
 -1       221    8    0    1
 -2        35        34       194      1137      1355      1356
 -1       222    8    0    1
 -2        34       193       194      1353      1357      1355
 -1       223    8    0    1
 -2        36        35       195      1138      1358      1359
 -1       224    8    0    1
 -2        35       194       195      1356      1360      1358
 -1       225    8    0    1
 -2        37        36       196      1139      1361      1362
 -1       226    8    0    1
 -2        36       195       196      1359      1363      1361
 -1       227    8    0    1
 -2        38        37       197      1140      1364      1365
 -1       228    8    0    1
 -2        37       196       197      1362      1366      1364
 -1       229    8    0    1
 -2        39        38       198      1141      1367      1368
 -1       230    8    0    1
 -2        38       197       198      1365      1369      1367
 -1       231    8    0    1
 -2        40        39       199      1142      1370      1371
 -1       232    8    0    1
 -2        39       198       199      1368      1372      1370
 -1       233    8    0    1
 -2        41        40       200      1143      1373      1374
 -1       234    8    0    1
 -2        40       199       200      1371      1375      1373
 -1       235    8    0    1
 -2        42        41       201      1144      1376      1377
 -1       236    8    0    1
 -2        41       200       201      1374      1378      1376
 -1       237    8    0    1
 -2        43        42       202      1145      1379      1380
 -1       238    8    0    1
 -2        42       201       202      1377      1381      1379
 -1       239    8    0    1
 -2        44        43       203      1146      1382      1383
 -1       240    8    0    1
 -2        43       202       203      1380      1384      1382
 -1       241    8    0    1
 -2        45        44       204      1147      1385      1386
 -1       242    8    0    1
 -2        44       203       204      1383      1387      1385
 -1       243    8    0    1
 -2        46        45       205      1148      1388      1389
 -1       244    8    0    1
 -2        45       204       205      1386      1390      1388
 -1       245    8    0    1
 -2        47        46       206      1149      1391      1392
 -1       246    8    0    1
 -2        46       205       206      1389      1393      1391
 -1       247    8    0    1
 -2        48        47       207      1150      1394      1395
 -1       248    8    0    1
 -2        47       206       207      1392      1396      1394
 -1       249    8    0    1
 -2        49        48       208      1151      1397      1398
 -1       250    8    0    1
 -2        48       207       208      1395      1399      1397
 -1       251    8    0    1
 -2        50        49       209      1152      1400      1401
 -1       252    8    0    1
 -2        49       208       209      1398      1402      1400
 -1       253    8    0    1
 -2        51        50       210      1153      1403      1404
 -1       254    8    0    1
 -2        50       209       210      1401      1405      1403
 -1       255    8    0    1
 -2        52        51       211      1154      1406      1407
 -1       256    8    0    1
 -2        51       210       211      1404      1408      1406
 -1       257    8    0    1
 -2        53        52       212      1155      1409      1410
 -1       258    8    0    1
 -2        52       211       212      1407      1411      1409
 -1       259    8    0    1
 -2        54        53       213      1156      1412      1413
 -1       260    8    0    1
 -2        53       212       213      1410      1414      1412
 -1       261    8    0    1
 -2        55        54       214      1157      1415      1416
 -1       262    8    0    1
 -2        54       213       214      1413      1417      1415
 -1       263    8    0    1
 -2        56        55       215      1158      1418      1419
 -1       264    8    0    1
 -2        55       214       215      1416      1420      1418
 -1       265    8    0    1
 -2        57        56       216      1159      1421      1422
 -1       266    8    0    1
 -2        56       215       216      1419      1423      1421
 -1       267    8    0    1
 -2        58        57       217      1160      1424      1425
 -1       268    8    0    1
 -2        57       216       217      1422      1426      1424
 -1       269    8    0    1
 -2        59        58       218      1161      1427      1428
 -1       270    8    0    1
 -2        58       217       218      1425      1429      1427
 -1       271    8    0    1
 -2        60        59       219      1162      1430      1431
 -1       272    8    0    1
 -2        59       218       219      1428      1432      1430
 -1       273    8    0    1
 -2        61        60       220      1163      1433      1434
 -1       274    8    0    1
 -2        60       219       220      1431      1435      1433
 -1       275    8    0    1
 -2        62        61       221      1164      1436      1437
 -1       276    8    0    1
 -2        61       220       221      1434      1438      1436
 -1       277    8    0    1
 -2        63        62       222      1165      1439      1440
 -1       278    8    0    1
 -2        62       221       222      1437      1441      1439
 -1       279    8    0    1
 -2        64        63       223      1166      1442      1443
 -1       280    8    0    1
 -2        63       222       223      1440      1444      1442
 -1       281    8    0    1
 -2        65        64       224      1167      1445      1446
 -1       282    8    0    1
 -2        64       223       224      1443      1447      1445
 -1       283    8    0    1
 -2        66        65       225      1168      1448      1449
 -1       284    8    0    1
 -2        65       224       225      1446      1450      1448
 -1       285    8    0    1
 -2        67        66       226      1169      1451      1452
 -1       286    8    0    1
 -2        66       225       226      1449      1453      1451
 -1       287    8    0    1
 -2        68        67       227      1170      1454      1455
 -1       288    8    0    1
 -2        67       226       227      1452      1456      1454
 -1       289    8    0    1
 -2        69        68       228      1171      1457      1458
 -1       290    8    0    1
 -2        68       227       228      1455      1459      1457
 -1       291    8    0    1
 -2        70        69       229      1172      1460      1461
 -1       292    8    0    1
 -2        69       228       229      1458      1462      1460
 -1       293    8    0    1
 -2        71        70       230      1173      1463      1464
 -1       294    8    0    1
 -2        70       229       230      1461      1465      1463
 -1       295    8    0    1
 -2         4        71       138      1174      1466      1243
 -1       296    8    0    1
 -2       138        71       230      1466      1464      1467
 -1       297    8    0    1
 -2        72        73       231      1176      1468      1469
 -1       298    8    0    1
 -2        72       231       182      1469      1470      1322
 -1       299    8    0    1
 -2        73        74       232      1177      1471      1472
 -1       300    8    0    1
 -2        73       232       231      1472      1473      1468
 -1       301    8    0    1
 -2        74        75       233      1178      1474      1475
 -1       302    8    0    1
 -2        74       233       232      1475      1476      1471
 -1       303    8    0    1
 -2        75        76       234      1179      1477      1478
 -1       304    8    0    1
 -2        75       234       233      1478      1479      1474
 -1       305    8    0    1
 -2        76        77       235      1180      1480      1481
 -1       306    8    0    1
 -2        76       235       234      1481      1482      1477
 -1       307    8    0    1
 -2        77        78       236      1181      1483      1484
 -1       308    8    0    1
 -2        77       236       235      1484      1485      1480
 -1       309    8    0    1
 -2        78        79       237      1182      1486      1487
 -1       310    8    0    1
 -2        78       237       236      1487      1488      1483
 -1       311    8    0    1
 -2        79        80       238      1183      1489      1490
 -1       312    8    0    1
 -2        79       238       237      1490      1491      1486
 -1       313    8    0    1
 -2        80        81       239      1184      1492      1493
 -1       314    8    0    1
 -2        80       239       238      1493      1494      1489
 -1       315    8    0    1
 -2        81        82       240      1185      1495      1496
 -1       316    8    0    1
 -2        81       240       239      1496      1497      1492
 -1       317    8    0    1
 -2        82        83       241      1186      1498      1499
 -1       318    8    0    1
 -2        82       241       240      1499      1500      1495
 -1       319    8    0    1
 -2        83        84       242      1187      1501      1502
 -1       320    8    0    1
 -2        83       242       241      1502      1503      1498
 -1       321    8    0    1
 -2        84        85       243      1188      1504      1505
 -1       322    8    0    1
 -2        84       243       242      1505      1506      1501
 -1       323    8    0    1
 -2        85        86       244      1189      1507      1508
 -1       324    8    0    1
 -2        85       244       243      1508      1509      1504
 -1       325    8    0    1
 -2        86        87       245      1190      1510      1511
 -1       326    8    0    1
 -2        86       245       244      1511      1512      1507
 -1       327    8    0    1
 -2        87        88       246      1191      1513      1514
 -1       328    8    0    1
 -2        87       246       245      1514      1515      1510
 -1       329    8    0    1
 -2        88        89       247      1192      1516      1517
 -1       330    8    0    1
 -2        88       247       246      1517      1518      1513
 -1       331    8    0    1
 -2        89        90       248      1193      1519      1520
 -1       332    8    0    1
 -2        89       248       247      1520      1521      1516
 -1       333    8    0    1
 -2        90        91       249      1194      1522      1523
 -1       334    8    0    1
 -2        90       249       248      1523      1524      1519
 -1       335    8    0    1
 -2        91        92       250      1195      1525      1526
 -1       336    8    0    1
 -2        91       250       249      1526      1527      1522
 -1       337    8    0    1
 -2        92        93       251      1196      1528      1529
 -1       338    8    0    1
 -2        92       251       250      1529      1530      1525
 -1       339    8    0    1
 -2        93        94       252      1197      1531      1532
 -1       340    8    0    1
 -2        93       252       251      1532      1533      1528
 -1       341    8    0    1
 -2        94        95       253      1198      1534      1535
 -1       342    8    0    1
 -2        94       253       252      1535      1536      1531
 -1       343    8    0    1
 -2        95        96       254      1199      1537      1538
 -1       344    8    0    1
 -2        95       254       253      1538      1539      1534
 -1       345    8    0    1
 -2        96        97       255      1200      1540      1541
 -1       346    8    0    1
 -2        96       255       254      1541      1542      1537
 -1       347    8    0    1
 -2        97        98       256      1201      1543      1544
 -1       348    8    0    1
 -2        97       256       255      1544      1545      1540
 -1       349    8    0    1
 -2        98        99       257      1202      1546      1547
 -1       350    8    0    1
 -2        98       257       256      1547      1548      1543
 -1       351    8    0    1
 -2        99       100       258      1203      1549      1550
 -1       352    8    0    1
 -2        99       258       257      1550      1551      1546
 -1       353    8    0    1
 -2       100       101       259      1204      1552      1553
 -1       354    8    0    1
 -2       100       259       258      1553      1554      1549
 -1       355    8    0    1
 -2       101       102       260      1205      1555      1556
 -1       356    8    0    1
 -2       101       260       259      1556      1557      1552
 -1       357    8    0    1
 -2       102       103       260      1206      1558      1555
 -1       358    8    0    1
 -2       103       104       261      1207      1559      1560
 -1       359    8    0    1
 -2       105       106       262      1209      1561      1562
 -1       360    8    0    1
 -2       106       107       263      1210      1563      1564
 -1       361    8    0    1
 -2       106       263       262      1564      1565      1561
 -1       362    8    0    1
 -2       107       108       264      1211      1566      1567
 -1       363    8    0    1
 -2       107       264       263      1567      1568      1563
 -1       364    8    0    1
 -2       108       109       265      1212      1569      1570
 -1       365    8    0    1
 -2       108       265       264      1570      1571      1566
 -1       366    8    0    1
 -2       109       110       266      1213      1572      1573
 -1       367    8    0    1
 -2       109       266       265      1573      1574      1569
 -1       368    8    0    1
 -2       110       111       267      1214      1575      1576
 -1       369    8    0    1
 -2       110       267       266      1576      1577      1572
 -1       370    8    0    1
 -2       111       112       268      1215      1578      1579
 -1       371    8    0    1
 -2       111       268       267      1579      1580      1575
 -1       372    8    0    1
 -2       112       113       269      1216      1581      1582
 -1       373    8    0    1
 -2       112       269       268      1582      1583      1578
 -1       374    8    0    1
 -2       113       114       270      1217      1584      1585
 -1       375    8    0    1
 -2       113       270       269      1585      1586      1581
 -1       376    8    0    1
 -2       114       115       271      1218      1587      1588
 -1       377    8    0    1
 -2       114       271       270      1588      1589      1584
 -1       378    8    0    1
 -2       115       116       272      1219      1590      1591
 -1       379    8    0    1
 -2       115       272       271      1591      1592      1587
 -1       380    8    0    1
 -2       116       117       273      1220      1593      1594
 -1       381    8    0    1
 -2       116       273       272      1594      1595      1590
 -1       382    8    0    1
 -2       117       118       274      1221      1596      1597
 -1       383    8    0    1
 -2       117       274       273      1597      1598      1593
 -1       384    8    0    1
 -2       118       119       275      1222      1599      1600
 -1       385    8    0    1
 -2       118       275       274      1600      1601      1596
 -1       386    8    0    1
 -2       119       120       276      1223      1602      1603
 -1       387    8    0    1
 -2       119       276       275      1603      1604      1599
 -1       388    8    0    1
 -2       120       121       277      1224      1605      1606
 -1       389    8    0    1
 -2       120       277       276      1606      1607      1602
 -1       390    8    0    1
 -2       121       122       278      1225      1608      1609
 -1       391    8    0    1
 -2       121       278       277      1609      1610      1605
 -1       392    8    0    1
 -2       122         3       279      1226      1611      1612
 -1       393    8    0    1
 -2       278       122       279      1608      1612      1613
 -1       394    8    0    1
 -2         3       123       279      1227      1614      1611
 -1       395    8    0    1
 -2       123       124       280      1228      1615      1616
 -1       396    8    0    1
 -2       123       280       279      1616      1617      1614
 -1       397    8    0    1
 -2       124       125       281      1229      1618      1619
 -1       398    8    0    1
 -2       124       281       280      1619      1620      1615
 -1       399    8    0    1
 -2       125       126       282      1230      1621      1622
 -1       400    8    0    1
 -2       125       282       281      1622      1623      1618
 -1       401    8    0    1
 -2       126       127       283      1231      1624      1625
 -1       402    8    0    1
 -2       126       283       282      1625      1626      1621
 -1       403    8    0    1
 -2       127       128       284      1232      1627      1628
 -1       404    8    0    1
 -2       127       284       283      1628      1629      1624
 -1       405    8    0    1
 -2       128       129       285      1233      1630      1631
 -1       406    8    0    1
 -2       128       285       284      1631      1632      1627
 -1       407    8    0    1
 -2       129       130       286      1234      1633      1634
 -1       408    8    0    1
 -2       129       286       285      1634      1635      1630
 -1       409    8    0    1
 -2       130       131       287      1235      1636      1637
 -1       410    8    0    1
 -2       130       287       286      1637      1638      1633
 -1       411    8    0    1
 -2       131       132       288      1236      1639      1640
 -1       412    8    0    1
 -2       131       288       287      1640      1641      1636
 -1       413    8    0    1
 -2       132       133       289      1237      1642      1643
 -1       414    8    0    1
 -2       132       289       288      1643      1644      1639
 -1       415    8    0    1
 -2       133       134       290      1238      1645      1646
 -1       416    8    0    1
 -2       133       290       289      1646      1647      1642
 -1       417    8    0    1
 -2       134       135       291      1239      1648      1649
 -1       418    8    0    1
 -2       134       291       290      1649      1650      1645
 -1       419    8    0    1
 -2       135       136       292      1240      1651      1652
 -1       420    8    0    1
 -2       135       292       291      1652      1653      1648
 -1       421    8    0    1
 -2       136       137       293      1241      1654      1655
 -1       422    8    0    1
 -2       136       293       292      1655      1656      1651
 -1       423    8    0    1
 -2         2       139       294      1244      1657      1658
 -1       424    8    0    1
 -2       139       140       295      1245      1659      1660
 -1       425    8    0    1
 -2       140       141       296      1246      1661      1662
 -1       426    8    0    1
 -2       141       142       297      1247      1663      1664
 -1       427    8    0    1
 -2       142       143       298      1248      1665      1666
 -1       428    8    0    1
 -2       143       144       299      1249      1667      1668
 -1       429    8    0    1
 -2       144       145       263      1250      1669      1670
 -1       430    8    0    1
 -2       145       146       300      1251      1671      1672
 -1       431    8    0    1
 -2       146       147       301      1252      1673      1674
 -1       432    8    0    1
 -2       147       148       302      1253      1675      1676
 -1       433    8    0    1
 -2       148       149       303      1254      1677      1678
 -1       434    8    0    1
 -2       149       150       304      1255      1679      1680
 -1       435    8    0    1
 -2       150       151       305      1256      1681      1682
 -1       436    8    0    1
 -2       151       152       306      1257      1683      1684
 -1       437    8    0    1
 -2       152       153       307      1258      1685      1686
 -1       438    8    0    1
 -2       153       154       308      1259      1687      1688
 -1       439    8    0    1
 -2       154       155       309      1260      1689      1690
 -1       440    8    0    1
 -2       155       156       310      1261      1691      1692
 -1       441    8    0    1
 -2       156       157       311      1262      1693      1694
 -1       442    8    0    1
 -2       157         1       312      1263      1695      1696
 -1       443    8    0    1
 -2         1       158       313      1264      1697      1698
 -1       444    8    0    1
 -2       158       159       314      1265      1699      1700
 -1       445    8    0    1
 -2       159       160       315      1266      1701      1702
 -1       446    8    0    1
 -2       160       161       316      1267      1703      1704
 -1       447    8    0    1
 -2       161       162       317      1268      1705      1706
 -1       448    8    0    1
 -2       162       163       318      1269      1707      1708
 -1       449    8    0    1
 -2       163       164       319      1270      1709      1710
 -1       450    8    0    1
 -2       164       165       320      1271      1711      1712
 -1       451    8    0    1
 -2       165       166       321      1272      1713      1714
 -1       452    8    0    1
 -2       166         2       322      1273      1715      1716
 -1       453    8    0    1
 -2       296       141       297      1661      1664      1717
 -1       454    8    0    1
 -2       261       104       301      1559      1718      1719
 -1       455    8    0    1
 -2       104       105       301      1208      1720      1718
 -1       456    8    0    1
 -2       295       140       296      1659      1662      1721
 -1       457    8    0    1
 -2         2       294       322      1658      1722      1715
 -1       458    8    0    1
 -2       294       139       295      1657      1660      1723
 -1       459    8    0    1
 -2       137       138       323      1242      1724      1725
 -1       460    8    0    1
 -2       137       323       293      1725      1726      1654
 -1       461    8    0    1
 -2       142       298       297      1666      1727      1663
 -1       462    8    0    1
 -2       143       299       298      1668      1728      1665
 -1       463    8    0    1
 -2       146       301       300      1674      1729      1671
 -1       464    8    0    1
 -2       147       302       301      1676      1730      1673
 -1       465    8    0    1
 -2       148       303       302      1678      1731      1675
 -1       466    8    0    1
 -2       149       304       303      1680      1732      1677
 -1       467    8    0    1
 -2       150       305       304      1682      1733      1679
 -1       468    8    0    1
 -2       151       306       305      1684      1734      1681
 -1       469    8    0    1
 -2       152       307       306      1686      1735      1683
 -1       470    8    0    1
 -2       153       308       307      1688      1736      1685
 -1       471    8    0    1
 -2       154       309       308      1690      1737      1687
 -1       472    8    0    1
 -2       155       310       309      1692      1738      1689
 -1       473    8    0    1
 -2       156       311       310      1694      1739      1691
 -1       474    8    0    1
 -2       157       312       311      1696      1740      1693
 -1       475    8    0    1
 -2         1       313       312      1698      1741      1695
 -1       476    8    0    1
 -2       158       314       313      1700      1742      1697
 -1       477    8    0    1
 -2       159       315       314      1702      1743      1699
 -1       478    8    0    1
 -2       160       316       315      1704      1744      1701
 -1       479    8    0    1
 -2       161       317       316      1706      1745      1703
 -1       480    8    0    1
 -2       162       318       317      1708      1746      1705
 -1       481    8    0    1
 -2       163       319       318      1710      1747      1707
 -1       482    8    0    1
 -2       164       320       319      1712      1748      1709
 -1       483    8    0    1
 -2       165       321       320      1714      1749      1711
 -1       484    8    0    1
 -2       166       322       321      1716      1750      1713
 -1       485    8    0    1
 -2        23         7       167      1274      1276      1751
 -1       486    8    0    1
 -2       168       169       324      1282      1752      1753
 -1       487    8    0    1
 -2       167       168       325      1279      1754      1755
 -1       488    8    0    1
 -2       168       324       325      1753      1756      1754
 -1       489    8    0    1
 -2       170       171       326      1288      1757      1758
 -1       490    8    0    1
 -2       171       172       327      1291      1759      1760
 -1       491    8    0    1
 -2       171       327       326      1760      1761      1757
 -1       492    8    0    1
 -2       172       173       328      1294      1762      1763
 -1       493    8    0    1
 -2       172       328       327      1763      1764      1759
 -1       494    8    0    1
 -2       173       174       329      1297      1765      1766
 -1       495    8    0    1
 -2       173       329       328      1766      1767      1762
 -1       496    8    0    1
 -2       174       175       330      1300      1768      1769
 -1       497    8    0    1
 -2       174       330       329      1769      1770      1765
 -1       498    8    0    1
 -2       175       176       331      1303      1771      1772
 -1       499    8    0    1
 -2       175       331       330      1772      1773      1768
 -1       500    8    0    1
 -2       176       177       332      1306      1774      1775
 -1       501    8    0    1
 -2       176       332       331      1775      1776      1771
 -1       502    8    0    1
 -2       177       178       333      1309      1777      1778
 -1       503    8    0    1
 -2       177       333       332      1778      1779      1774
 -1       504    8    0    1
 -2       178       179       334      1312      1780      1781
 -1       505    8    0    1
 -2       178       334       333      1781      1782      1777
 -1       506    8    0    1
 -2       179       180       335      1315      1783      1784
 -1       507    8    0    1
 -2       179       335       334      1784      1785      1780
 -1       508    8    0    1
 -2       180       181       336      1318      1786      1787
 -1       509    8    0    1
 -2       180       336       335      1787      1788      1783
 -1       510    8    0    1
 -2       181       182       337      1321      1789      1790
 -1       511    8    0    1
 -2       336       181       337      1786      1790      1791
 -1       512    8    0    1
 -2       182       231       337      1470      1792      1789
 -1       513    8    0    1
 -2       183        23       167      1323      1751      1793
 -1       514    8    0    1
 -2       231       232       338      1473      1794      1795
 -1       515    8    0    1
 -2       231       338       337      1795      1796      1792
 -1       516    8    0    1
 -2       183       167       325      1793      1755      1797
 -1       517    8    0    1
 -2       185       184       339      1330      1798      1799
 -1       518    8    0    1
 -2       186       185       340      1333      1800      1801
 -1       519    8    0    1
 -2       185       339       340      1799      1802      1800
 -1       520    8    0    1
 -2       187       186       341      1336      1803      1804
 -1       521    8    0    1
 -2       186       340       341      1801      1805      1803
 -1       522    8    0    1
 -2       188       187       342      1339      1806      1807
 -1       523    8    0    1
 -2       187       341       342      1804      1808      1806
 -1       524    8    0    1
 -2       189       188       343      1342      1809      1810
 -1       525    8    0    1
 -2       188       342       343      1807      1811      1809
 -1       526    8    0    1
 -2       190       189       344      1345      1812      1813
 -1       527    8    0    1
 -2       189       343       344      1810      1814      1812
 -1       528    8    0    1
 -2       191       190       345      1348      1815      1816
 -1       529    8    0    1
 -2       190       344       345      1813      1817      1815
 -1       530    8    0    1
 -2       192       191       346      1351      1818      1819
 -1       531    8    0    1
 -2       191       345       346      1816      1820      1818
 -1       532    8    0    1
 -2       193       192       347      1354      1821      1822
 -1       533    8    0    1
 -2       192       346       347      1819      1823      1821
 -1       534    8    0    1
 -2       194       193       348      1357      1824      1825
 -1       535    8    0    1
 -2       193       347       348      1822      1826      1824
 -1       536    8    0    1
 -2       195       194       349      1360      1827      1828
 -1       537    8    0    1
 -2       194       348       349      1825      1829      1827
 -1       538    8    0    1
 -2       196       195       350      1363      1830      1831
 -1       539    8    0    1
 -2       195       349       350      1828      1832      1830
 -1       540    8    0    1
 -2       197       196       351      1366      1833      1834
 -1       541    8    0    1
 -2       196       350       351      1831      1835      1833
 -1       542    8    0    1
 -2       198       197       352      1369      1836      1837
 -1       543    8    0    1
 -2       197       351       352      1834      1838      1836
 -1       544    8    0    1
 -2       199       198       353      1372      1839      1840
 -1       545    8    0    1
 -2       198       352       353      1837      1841      1839
 -1       546    8    0    1
 -2       200       199       354      1375      1842      1843
 -1       547    8    0    1
 -2       199       353       354      1840      1844      1842
 -1       548    8    0    1
 -2       201       200       355      1378      1845      1846
 -1       549    8    0    1
 -2       200       354       355      1843      1847      1845
 -1       550    8    0    1
 -2       202       201       356      1381      1848      1849
 -1       551    8    0    1
 -2       201       355       356      1846      1850      1848
 -1       552    8    0    1
 -2       203       202       357      1384      1851      1852
 -1       553    8    0    1
 -2       202       356       357      1849      1853      1851
 -1       554    8    0    1
 -2       204       203       358      1387      1854      1855
 -1       555    8    0    1
 -2       203       357       358      1852      1856      1854
 -1       556    8    0    1
 -2       205       204       359      1390      1857      1858
 -1       557    8    0    1
 -2       204       358       359      1855      1859      1857
 -1       558    8    0    1
 -2       206       205       360      1393      1860      1861
 -1       559    8    0    1
 -2       205       359       360      1858      1862      1860
 -1       560    8    0    1
 -2       207       206       361      1396      1863      1864
 -1       561    8    0    1
 -2       206       360       361      1861      1865      1863
 -1       562    8    0    1
 -2       208       207       362      1399      1866      1867
 -1       563    8    0    1
 -2       207       361       362      1864      1868      1866
 -1       564    8    0    1
 -2       209       208       363      1402      1869      1870
 -1       565    8    0    1
 -2       208       362       363      1867      1871      1869
 -1       566    8    0    1
 -2       210       209       364      1405      1872      1873
 -1       567    8    0    1
 -2       209       363       364      1870      1874      1872
 -1       568    8    0    1
 -2       211       210       365      1408      1875      1876
 -1       569    8    0    1
 -2       210       364       365      1873      1877      1875
 -1       570    8    0    1
 -2       212       211       366      1411      1878      1879
 -1       571    8    0    1
 -2       211       365       366      1876      1880      1878
 -1       572    8    0    1
 -2       213       212       367      1414      1881      1882
 -1       573    8    0    1
 -2       212       366       367      1879      1883      1881
 -1       574    8    0    1
 -2       214       213       368      1417      1884      1885
 -1       575    8    0    1
 -2       213       367       368      1882      1886      1884
 -1       576    8    0    1
 -2       215       214       369      1420      1887      1888
 -1       577    8    0    1
 -2       214       368       369      1885      1889      1887
 -1       578    8    0    1
 -2       216       215       370      1423      1890      1891
 -1       579    8    0    1
 -2       215       369       370      1888      1892      1890
 -1       580    8    0    1
 -2       217       216       371      1426      1893      1894
 -1       581    8    0    1
 -2       216       370       371      1891      1895      1893
 -1       582    8    0    1
 -2       218       217       372      1429      1896      1897
 -1       583    8    0    1
 -2       217       371       372      1894      1898      1896
 -1       584    8    0    1
 -2       219       218       373      1432      1899      1900
 -1       585    8    0    1
 -2       218       372       373      1897      1901      1899
 -1       586    8    0    1
 -2       220       219       374      1435      1902      1903
 -1       587    8    0    1
 -2       219       373       374      1900      1904      1902
 -1       588    8    0    1
 -2       221       220       375      1438      1905      1906
 -1       589    8    0    1
 -2       220       374       375      1903      1907      1905
 -1       590    8    0    1
 -2       222       221       376      1441      1908      1909
 -1       591    8    0    1
 -2       221       375       376      1906      1910      1908
 -1       592    8    0    1
 -2       223       222       377      1444      1911      1912
 -1       593    8    0    1
 -2       222       376       377      1909      1913      1911
 -1       594    8    0    1
 -2       224       223       378      1447      1914      1915
 -1       595    8    0    1
 -2       223       377       378      1912      1916      1914
 -1       596    8    0    1
 -2       225       224       379      1450      1917      1918
 -1       597    8    0    1
 -2       224       378       379      1915      1919      1917
 -1       598    8    0    1
 -2       226       225       380      1453      1920      1921
 -1       599    8    0    1
 -2       225       379       380      1918      1922      1920
 -1       600    8    0    1
 -2       227       226       381      1456      1923      1924
 -1       601    8    0    1
 -2       226       380       381      1921      1925      1923
 -1       602    8    0    1
 -2       228       227       382      1459      1926      1927
 -1       603    8    0    1
 -2       227       381       382      1924      1928      1926
 -1       604    8    0    1
 -2       229       228       383      1462      1929      1930
 -1       605    8    0    1
 -2       228       382       383      1927      1931      1929
 -1       606    8    0    1
 -2       230       229       384      1465      1932      1933
 -1       607    8    0    1
 -2       229       383       384      1930      1934      1932
 -1       608    8    0    1
 -2       295       296       385      1721      1935      1936
 -1       609    8    0    1
 -2       232       233       386      1476      1937      1938
 -1       610    8    0    1
 -2       232       386       338      1938      1939      1794
 -1       611    8    0    1
 -2       233       234       387      1479      1940      1941
 -1       612    8    0    1
 -2       233       387       386      1941      1942      1937
 -1       613    8    0    1
 -2       234       235       388      1482      1943      1944
 -1       614    8    0    1
 -2       234       388       387      1944      1945      1940
 -1       615    8    0    1
 -2       235       236       389      1485      1946      1947
 -1       616    8    0    1
 -2       235       389       388      1947      1948      1943
 -1       617    8    0    1
 -2       236       237       390      1488      1949      1950
 -1       618    8    0    1
 -2       236       390       389      1950      1951      1946
 -1       619    8    0    1
 -2       237       238       391      1491      1952      1953
 -1       620    8    0    1
 -2       237       391       390      1953      1954      1949
 -1       621    8    0    1
 -2       238       239       392      1494      1955      1956
 -1       622    8    0    1
 -2       238       392       391      1956      1957      1952
 -1       623    8    0    1
 -2       239       240       393      1497      1958      1959
 -1       624    8    0    1
 -2       239       393       392      1959      1960      1955
 -1       625    8    0    1
 -2       240       241       394      1500      1961      1962
 -1       626    8    0    1
 -2       240       394       393      1962      1963      1958
 -1       627    8    0    1
 -2       241       242       395      1503      1964      1965
 -1       628    8    0    1
 -2       241       395       394      1965      1966      1961
 -1       629    8    0    1
 -2       242       243       396      1506      1967      1968
 -1       630    8    0    1
 -2       242       396       395      1968      1969      1964
 -1       631    8    0    1
 -2       243       244       397      1509      1970      1971
 -1       632    8    0    1
 -2       243       397       396      1971      1972      1967
 -1       633    8    0    1
 -2       244       245       398      1512      1973      1974
 -1       634    8    0    1
 -2       244       398       397      1974      1975      1970
 -1       635    8    0    1
 -2       245       246       399      1515      1976      1977
 -1       636    8    0    1
 -2       245       399       398      1977      1978      1973
 -1       637    8    0    1
 -2       246       247       400      1518      1979      1980
 -1       638    8    0    1
 -2       246       400       399      1980      1981      1976
 -1       639    8    0    1
 -2       247       248       401      1521      1982      1983
 -1       640    8    0    1
 -2       247       401       400      1983      1984      1979
 -1       641    8    0    1
 -2       248       249       402      1524      1985      1986
 -1       642    8    0    1
 -2       248       402       401      1986      1987      1982
 -1       643    8    0    1
 -2       249       250       403      1527      1988      1989
 -1       644    8    0    1
 -2       249       403       402      1989      1990      1985
 -1       645    8    0    1
 -2       250       251       404      1530      1991      1992
 -1       646    8    0    1
 -2       250       404       403      1992      1993      1988
 -1       647    8    0    1
 -2       251       252       405      1533      1994      1995
 -1       648    8    0    1
 -2       251       405       404      1995      1996      1991
 -1       649    8    0    1
 -2       252       253       406      1536      1997      1998
 -1       650    8    0    1
 -2       252       406       405      1998      1999      1994
 -1       651    8    0    1
 -2       253       254       407      1539      2000      2001
 -1       652    8    0    1
 -2       253       407       406      2001      2002      1997
 -1       653    8    0    1
 -2       254       255       408      1542      2003      2004
 -1       654    8    0    1
 -2       254       408       407      2004      2005      2000
 -1       655    8    0    1
 -2       255       256       409      1545      2006      2007
 -1       656    8    0    1
 -2       255       409       408      2007      2008      2003
 -1       657    8    0    1
 -2       256       257       410      1548      2009      2010
 -1       658    8    0    1
 -2       256       410       409      2010      2011      2006
 -1       659    8    0    1
 -2       257       258       411      1551      2012      2013
 -1       660    8    0    1
 -2       257       411       410      2013      2014      2009
 -1       661    8    0    1
 -2       258       259       412      1554      2015      2016
 -1       662    8    0    1
 -2       258       412       411      2016      2017      2012
 -1       663    8    0    1
 -2       260       103       413      1558      2018      2019
 -1       664    8    0    1
 -2       103       261       413      1560      2020      2018
 -1       665    8    0    1
 -2       265       266       414      1574      2021      2022
 -1       666    8    0    1
 -2       266       267       415      1577      2023      2024
 -1       667    8    0    1
 -2       267       268       416      1580      2025      2026
 -1       668    8    0    1
 -2       267       416       415      2026      2027      2023
 -1       669    8    0    1
 -2       268       269       417      1583      2028      2029
 -1       670    8    0    1
 -2       268       417       416      2029      2030      2025
 -1       671    8    0    1
 -2       269       270       418      1586      2031      2032
 -1       672    8    0    1
 -2       269       418       417      2032      2033      2028
 -1       673    8    0    1
 -2       270       271       419      1589      2034      2035
 -1       674    8    0    1
 -2       270       419       418      2035      2036      2031
 -1       675    8    0    1
 -2       271       272       420      1592      2037      2038
 -1       676    8    0    1
 -2       271       420       419      2038      2039      2034
 -1       677    8    0    1
 -2       272       273       421      1595      2040      2041
 -1       678    8    0    1
 -2       272       421       420      2041      2042      2037
 -1       679    8    0    1
 -2       273       274       422      1598      2043      2044
 -1       680    8    0    1
 -2       273       422       421      2044      2045      2040
 -1       681    8    0    1
 -2       274       275       423      1601      2046      2047
 -1       682    8    0    1
 -2       274       423       422      2047      2048      2043
 -1       683    8    0    1
 -2       275       276       424      1604      2049      2050
 -1       684    8    0    1
 -2       275       424       423      2050      2051      2046
 -1       685    8    0    1
 -2       276       277       425      1607      2052      2053
 -1       686    8    0    1
 -2       276       425       424      2053      2054      2049
 -1       687    8    0    1
 -2       277       278       426      1610      2055      2056
 -1       688    8    0    1
 -2       277       426       425      2056      2057      2052
 -1       689    8    0    1
 -2       278       279       427      1613      2058      2059
 -1       690    8    0    1
 -2       426       278       427      2055      2059      2060
 -1       691    8    0    1
 -2       279       280       427      1617      2061      2058
 -1       692    8    0    1
 -2       281       282       428      1623      2062      2063
 -1       693    8    0    1
 -2       280       281       429      1620      2064      2065
 -1       694    8    0    1
 -2       427       280       429      2061      2065      2066
 -1       695    8    0    1
 -2       281       428       429      2063      2067      2064
 -1       696    8    0    1
 -2       282       283       430      1626      2068      2069
 -1       697    8    0    1
 -2       282       430       428      2069      2070      2062
 -1       698    8    0    1
 -2       283       284       431      1629      2071      2072
 -1       699    8    0    1
 -2       283       431       430      2072      2073      2068
 -1       700    8    0    1
 -2       284       285       432      1632      2074      2075
 -1       701    8    0    1
 -2       284       432       431      2075      2076      2071
 -1       702    8    0    1
 -2       285       286       433      1635      2077      2078
 -1       703    8    0    1
 -2       285       433       432      2078      2079      2074
 -1       704    8    0    1
 -2       286       287       434      1638      2080      2081
 -1       705    8    0    1
 -2       286       434       433      2081      2082      2077
 -1       706    8    0    1
 -2       287       288       435      1641      2083      2084
 -1       707    8    0    1
 -2       287       435       434      2084      2085      2080
 -1       708    8    0    1
 -2       288       289       436      1644      2086      2087
 -1       709    8    0    1
 -2       288       436       435      2087      2088      2083
 -1       710    8    0    1
 -2       289       290       437      1647      2089      2090
 -1       711    8    0    1
 -2       289       437       436      2090      2091      2086
 -1       712    8    0    1
 -2       290       291       438      1650      2092      2093
 -1       713    8    0    1
 -2       290       438       437      2093      2094      2089
 -1       714    8    0    1
 -2       291       292       439      1653      2095      2096
 -1       715    8    0    1
 -2       291       439       438      2096      2097      2092
 -1       716    8    0    1
 -2       292       293       440      1656      2098      2099
 -1       717    8    0    1
 -2       292       440       439      2099      2100      2095
 -1       718    8    0    1
 -2       297       298       441      1727      2101      2102
 -1       719    8    0    1
 -2       323       138       230      1724      1467      2103
 -1       720    8    0    1
 -2       322       294       442      1722      2104      2105
 -1       721    8    0    1
 -2       261       301       302      1719      1730      2106
 -1       722    8    0    1
 -2       144       263       299      1670      2107      1667
 -1       723    8    0    1
 -2       296       297       443      1717      2108      2109
 -1       724    8    0    1
 -2       169       170       444      1285      2110      2111
 -1       725    8    0    1
 -2       324       169       444      1752      2111      2112
 -1       726    8    0    1
 -2       170       326       444      1758      2113      2110
 -1       727    8    0    1
 -2       299       263       264      2107      1568      2114
 -1       728    8    0    1
 -2       302       303       413      1731      2115      2116
 -1       729    8    0    1
 -2       303       304       445      1732      2117      2118
 -1       730    8    0    1
 -2       304       305       446      1733      2119      2120
 -1       731    8    0    1
 -2       305       306       447      1734      2121      2122
 -1       732    8    0    1
 -2       306       307       448      1735      2123      2124
 -1       733    8    0    1
 -2       307       308       449      1736      2125      2126
 -1       734    8    0    1
 -2       308       309       450      1737      2127      2128
 -1       735    8    0    1
 -2       309       310       451      1738      2129      2130
 -1       736    8    0    1
 -2       310       311       452      1739      2131      2132
 -1       737    8    0    1
 -2       311       312       453      1740      2133      2134
 -1       738    8    0    1
 -2       312       313       454      1741      2135      2136
 -1       739    8    0    1
 -2       313       314       455      1742      2137      2138
 -1       740    8    0    1
 -2       313       455       454      2138      2139      2135
 -1       741    8    0    1
 -2       314       315       456      1743      2140      2141
 -1       742    8    0    1
 -2       315       316       457      1744      2142      2143
 -1       743    8    0    1
 -2       316       317       458      1745      2144      2145
 -1       744    8    0    1
 -2       317       318       459      1746      2146      2147
 -1       745    8    0    1
 -2       318       319       460      1747      2148      2149
 -1       746    8    0    1
 -2       319       320       461      1748      2150      2151
 -1       747    8    0    1
 -2       320       321       462      1749      2152      2153
 -1       748    8    0    1
 -2       321       322       463      1750      2154      2155
 -1       749    8    0    1
 -2       294       295       464      1723      2156      2157
 -1       750    8    0    1
 -2       294       464       442      2157      2158      2104
 -1       751    8    0    1
 -2       299       264       298      2114      2159      1728
 -1       752    8    0    1
 -2       413       261       302      2020      2106      2116
 -1       753    8    0    1
 -2       323       230       384      2103      1933      2160
 -1       754    8    0    1
 -2       298       264       265      2159      1571      2161
 -1       755    8    0    1
 -2       413       303       445      2115      2118      2162
 -1       756    8    0    1
 -2       295       385       464      1936      2163      2156
 -1       757    8    0    1
 -2       183       325       184      1797      2164      1327
 -1       758    8    0    1
 -2       339       184       325      1798      2164      2165
 -1       759    8    0    1
 -2       298       265       441      2161      2166      2101
 -1       760    8    0    1
 -2       385       296       443      1935      2109      2167
 -1       761    8    0    1
 -2       413       445       260      2162      2168      2019
 -1       762    8    0    1
 -2       265       414       441      2022      2169      2166
 -1       763    8    0    1
 -2       259       260       465      1557      2170      2171
 -1       764    8    0    1
 -2       414       266       415      2021      2024      2172
 -1       765    8    0    1
 -2       323       384       293      2160      2173      1726
 -1       766    8    0    1
 -2       301       105       300      1720      2174      1729
 -1       767    8    0    1
 -2       293       384       440      2173      2175      2098
 -1       768    8    0    1
 -2       447       306       448      2121      2124      2176
 -1       769    8    0    1
 -2       297       441       443      2102      2177      2108
 -1       770    8    0    1
 -2       465       260       445      2170      2168      2178
 -1       771    8    0    1
 -2       300       105       262      2174      1562      2179
 -1       772    8    0    1
 -2       322       442       463      2105      2180      2154
 -1       773    8    0    1
 -2       145       300       263      1672      2181      1669
 -1       774    8    0    1
 -2       259       465       412      2171      2182      2015
 -1       775    8    0    1
 -2       462       321       463      2152      2155      2183
 -1       776    8    0    1
 -2       461       320       462      2150      2153      2184
 -1       777    8    0    1
 -2       460       319       461      2148      2151      2185
 -1       778    8    0    1
 -2       459       318       460      2146      2149      2186
 -1       779    8    0    1
 -2       458       317       459      2144      2147      2187
 -1       780    8    0    1
 -2       457       316       458      2142      2145      2188
 -1       781    8    0    1
 -2       455       314       456      2137      2141      2189
 -1       782    8    0    1
 -2       453       312       454      2133      2136      2190
 -1       783    8    0    1
 -2       452       311       453      2131      2134      2191
 -1       784    8    0    1
 -2       451       310       452      2129      2132      2192
 -1       785    8    0    1
 -2       450       309       451      2127      2130      2193
 -1       786    8    0    1
 -2       449       308       450      2125      2128      2194
 -1       787    8    0    1
 -2       448       307       449      2123      2126      2195
 -1       788    8    0    1
 -2       445       304       446      2117      2120      2196
 -1       789    8    0    1
 -2       446       305       447      2119      2122      2197
 -1       790    8    0    1
 -2       456       315       457      2140      2143      2198
 -1       791    8    0    1
 -2       327       328       466      1764      2199      2200
 -1       792    8    0    1
 -2       326       327       467      1761      2201      2202
 -1       793    8    0    1
 -2       327       466       467      2200      2203      2201
 -1       794    8    0    1
 -2       329       330       468      1770      2204      2205
 -1       795    8    0    1
 -2       330       331       469      1773      2206      2207
 -1       796    8    0    1
 -2       330       469       468      2207      2208      2204
 -1       797    8    0    1
 -2       331       332       470      1776      2209      2210
 -1       798    8    0    1
 -2       331       470       469      2210      2211      2206
 -1       799    8    0    1
 -2       332       333       471      1779      2212      2213
 -1       800    8    0    1
 -2       332       471       470      2213      2214      2209
 -1       801    8    0    1
 -2       333       334       472      1782      2215      2216
 -1       802    8    0    1
 -2       333       472       471      2216      2217      2212
 -1       803    8    0    1
 -2       334       335       473      1785      2218      2219
 -1       804    8    0    1
 -2       334       473       472      2219      2220      2215
 -1       805    8    0    1
 -2       335       336       474      1788      2221      2222
 -1       806    8    0    1
 -2       335       474       473      2222      2223      2218
 -1       807    8    0    1
 -2       336       337       475      1791      2224      2225
 -1       808    8    0    1
 -2       474       336       475      2221      2225      2226
 -1       809    8    0    1
 -2       337       338       475      1796      2227      2224
 -1       810    8    0    1
 -2       387       388       476      1945      2228      2229
 -1       811    8    0    1
 -2       416       417       477      2030      2230      2231
 -1       812    8    0    1
 -2       386       387       478      1942      2232      2233
 -1       813    8    0    1
 -2       387       476       478      2229      2234      2232
 -1       814    8    0    1
 -2       340       339       479      1802      2235      2236
 -1       815    8    0    1
 -2       339       325       480      2165      2237      2238
 -1       816    8    0    1
 -2       479       339       480      2235      2238      2239
 -1       817    8    0    1
 -2       325       324       480      1756      2240      2237
 -1       818    8    0    1
 -2       341       340       481      1805      2241      2242
 -1       819    8    0    1
 -2       340       479       481      2236      2243      2241
 -1       820    8    0    1
 -2       342       341       482      1808      2244      2245
 -1       821    8    0    1
 -2       341       481       482      2242      2246      2244
 -1       822    8    0    1
 -2       343       342       483      1811      2247      2248
 -1       823    8    0    1
 -2       342       482       483      2245      2249      2247
 -1       824    8    0    1
 -2       344       343       484      1814      2250      2251
 -1       825    8    0    1
 -2       343       483       484      2248      2252      2250
 -1       826    8    0    1
 -2       345       344       485      1817      2253      2254
 -1       827    8    0    1
 -2       344       484       485      2251      2255      2253
 -1       828    8    0    1
 -2       346       345       486      1820      2256      2257
 -1       829    8    0    1
 -2       345       485       486      2254      2258      2256
 -1       830    8    0    1
 -2       347       346       487      1823      2259      2260
 -1       831    8    0    1
 -2       346       486       487      2257      2261      2259
 -1       832    8    0    1
 -2       348       347       488      1826      2262      2263
 -1       833    8    0    1
 -2       347       487       488      2260      2264      2262
 -1       834    8    0    1
 -2       349       348       489      1829      2265      2266
 -1       835    8    0    1
 -2       348       488       489      2263      2267      2265
 -1       836    8    0    1
 -2       350       349       490      1832      2268      2269
 -1       837    8    0    1
 -2       349       489       490      2266      2270      2268
 -1       838    8    0    1
 -2       351       350       491      1835      2271      2272
 -1       839    8    0    1
 -2       350       490       491      2269      2273      2271
 -1       840    8    0    1
 -2       352       351       492      1838      2274      2275
 -1       841    8    0    1
 -2       351       491       492      2272      2276      2274
 -1       842    8    0    1
 -2       353       352       493      1841      2277      2278
 -1       843    8    0    1
 -2       352       492       493      2275      2279      2277
 -1       844    8    0    1
 -2       354       353       494      1844      2280      2281
 -1       845    8    0    1
 -2       353       493       494      2278      2282      2280
 -1       846    8    0    1
 -2       355       354       495      1847      2283      2284
 -1       847    8    0    1
 -2       354       494       495      2281      2285      2283
 -1       848    8    0    1
 -2       356       355       496      1850      2286      2287
 -1       849    8    0    1
 -2       355       495       496      2284      2288      2286
 -1       850    8    0    1
 -2       357       356       497      1853      2289      2290
 -1       851    8    0    1
 -2       356       496       497      2287      2291      2289
 -1       852    8    0    1
 -2       358       357       498      1856      2292      2293
 -1       853    8    0    1
 -2       357       497       498      2290      2294      2292
 -1       854    8    0    1
 -2       359       358       499      1859      2295      2296
 -1       855    8    0    1
 -2       358       498       499      2293      2297      2295
 -1       856    8    0    1
 -2       360       359       500      1862      2298      2299
 -1       857    8    0    1
 -2       359       499       500      2296      2300      2298
 -1       858    8    0    1
 -2       361       360       501      1865      2301      2302
 -1       859    8    0    1
 -2       360       500       501      2299      2303      2301
 -1       860    8    0    1
 -2       362       361       502      1868      2304      2305
 -1       861    8    0    1
 -2       361       501       502      2302      2306      2304
 -1       862    8    0    1
 -2       363       362       503      1871      2307      2308
 -1       863    8    0    1
 -2       362       502       503      2305      2309      2307
 -1       864    8    0    1
 -2       364       363       504      1874      2310      2311
 -1       865    8    0    1
 -2       363       503       504      2308      2312      2310
 -1       866    8    0    1
 -2       365       364       505      1877      2313      2314
 -1       867    8    0    1
 -2       364       504       505      2311      2315      2313
 -1       868    8    0    1
 -2       366       365       506      1880      2316      2317
 -1       869    8    0    1
 -2       365       505       506      2314      2318      2316
 -1       870    8    0    1
 -2       367       366       507      1883      2319      2320
 -1       871    8    0    1
 -2       366       506       507      2317      2321      2319
 -1       872    8    0    1
 -2       368       367       508      1886      2322      2323
 -1       873    8    0    1
 -2       367       507       508      2320      2324      2322
 -1       874    8    0    1
 -2       369       368       509      1889      2325      2326
 -1       875    8    0    1
 -2       368       508       509      2323      2327      2325
 -1       876    8    0    1
 -2       370       369       510      1892      2328      2329
 -1       877    8    0    1
 -2       369       509       510      2326      2330      2328
 -1       878    8    0    1
 -2       371       370       511      1895      2331      2332
 -1       879    8    0    1
 -2       370       510       511      2329      2333      2331
 -1       880    8    0    1
 -2       372       371       512      1898      2334      2335
 -1       881    8    0    1
 -2       371       511       512      2332      2336      2334
 -1       882    8    0    1
 -2       373       372       513      1901      2337      2338
 -1       883    8    0    1
 -2       372       512       513      2335      2339      2337
 -1       884    8    0    1
 -2       374       373       514      1904      2340      2341
 -1       885    8    0    1
 -2       373       513       514      2338      2342      2340
 -1       886    8    0    1
 -2       375       374       515      1907      2343      2344
 -1       887    8    0    1
 -2       374       514       515      2341      2345      2343
 -1       888    8    0    1
 -2       376       375       516      1910      2346      2347
 -1       889    8    0    1
 -2       375       515       516      2344      2348      2346
 -1       890    8    0    1
 -2       377       376       517      1913      2349      2350
 -1       891    8    0    1
 -2       376       516       517      2347      2351      2349
 -1       892    8    0    1
 -2       378       377       518      1916      2352      2353
 -1       893    8    0    1
 -2       377       517       518      2350      2354      2352
 -1       894    8    0    1
 -2       379       378       519      1919      2355      2356
 -1       895    8    0    1
 -2       378       518       519      2353      2357      2355
 -1       896    8    0    1
 -2       380       379       520      1922      2358      2359
 -1       897    8    0    1
 -2       379       519       520      2356      2360      2358
 -1       898    8    0    1
 -2       381       380       521      1925      2361      2362
 -1       899    8    0    1
 -2       380       520       521      2359      2363      2361
 -1       900    8    0    1
 -2       382       381       522      1928      2364      2365
 -1       901    8    0    1
 -2       381       521       522      2362      2366      2364
 -1       902    8    0    1
 -2       383       382       523      1931      2367      2368
 -1       903    8    0    1
 -2       382       522       523      2365      2369      2367
 -1       904    8    0    1
 -2       384       383       524      1934      2370      2371
 -1       905    8    0    1
 -2       440       384       524      2175      2371      2372
 -1       906    8    0    1
 -2       383       523       524      2368      2373      2370
 -1       907    8    0    1
 -2       338       386       525      1939      2374      2375
 -1       908    8    0    1
 -2       475       338       525      2227      2375      2376
 -1       909    8    0    1
 -2       386       478       525      2233      2377      2374
 -1       910    8    0    1
 -2       388       389       526      1948      2378      2379
 -1       911    8    0    1
 -2       388       526       476      2379      2380      2228
 -1       912    8    0    1
 -2       389       390       527      1951      2381      2382
 -1       913    8    0    1
 -2       389       527       526      2382      2383      2378
 -1       914    8    0    1
 -2       390       391       528      1954      2384      2385
 -1       915    8    0    1
 -2       390       528       527      2385      2386      2381
 -1       916    8    0    1
 -2       391       392       529      1957      2387      2388
 -1       917    8    0    1
 -2       391       529       528      2388      2389      2384
 -1       918    8    0    1
 -2       392       393       530      1960      2390      2391
 -1       919    8    0    1
 -2       392       530       529      2391      2392      2387
 -1       920    8    0    1
 -2       393       394       531      1963      2393      2394
 -1       921    8    0    1
 -2       393       531       530      2394      2395      2390
 -1       922    8    0    1
 -2       394       395       532      1966      2396      2397
 -1       923    8    0    1
 -2       394       532       531      2397      2398      2393
 -1       924    8    0    1
 -2       395       396       533      1969      2399      2400
 -1       925    8    0    1
 -2       395       533       532      2400      2401      2396
 -1       926    8    0    1
 -2       396       397       534      1972      2402      2403
 -1       927    8    0    1
 -2       396       534       533      2403      2404      2399
 -1       928    8    0    1
 -2       397       398       535      1975      2405      2406
 -1       929    8    0    1
 -2       397       535       534      2406      2407      2402
 -1       930    8    0    1
 -2       398       399       536      1978      2408      2409
 -1       931    8    0    1
 -2       398       536       535      2409      2410      2405
 -1       932    8    0    1
 -2       399       400       537      1981      2411      2412
 -1       933    8    0    1
 -2       399       537       536      2412      2413      2408
 -1       934    8    0    1
 -2       400       401       538      1984      2414      2415
 -1       935    8    0    1
 -2       400       538       537      2415      2416      2411
 -1       936    8    0    1
 -2       401       402       539      1987      2417      2418
 -1       937    8    0    1
 -2       401       539       538      2418      2419      2414
 -1       938    8    0    1
 -2       402       403       540      1990      2420      2421
 -1       939    8    0    1
 -2       402       540       539      2421      2422      2417
 -1       940    8    0    1
 -2       403       404       541      1993      2423      2424
 -1       941    8    0    1
 -2       403       541       540      2424      2425      2420
 -1       942    8    0    1
 -2       404       405       542      1996      2426      2427
 -1       943    8    0    1
 -2       404       542       541      2427      2428      2423
 -1       944    8    0    1
 -2       405       406       543      1999      2429      2430
 -1       945    8    0    1
 -2       405       543       542      2430      2431      2426
 -1       946    8    0    1
 -2       406       407       544      2002      2432      2433
 -1       947    8    0    1
 -2       406       544       543      2433      2434      2429
 -1       948    8    0    1
 -2       407       408       545      2005      2435      2436
 -1       949    8    0    1
 -2       407       545       544      2436      2437      2432
 -1       950    8    0    1
 -2       408       409       546      2008      2438      2439
 -1       951    8    0    1
 -2       408       546       545      2439      2440      2435
 -1       952    8    0    1
 -2       409       410       547      2011      2441      2442
 -1       953    8    0    1
 -2       409       547       546      2442      2443      2438
 -1       954    8    0    1
 -2       410       411       548      2014      2444      2445
 -1       955    8    0    1
 -2       410       548       547      2445      2446      2441
 -1       956    8    0    1
 -2       411       412       549      2017      2447      2448
 -1       957    8    0    1
 -2       441       414       443      2169      2449      2177
 -1       958    8    0    1
 -2       462       463       550      2183      2450      2451
 -1       959    8    0    1
 -2       414       415       443      2172      2452      2449
 -1       960    8    0    1
 -2       463       442       551      2180      2453      2454
 -1       961    8    0    1
 -2       415       416       552      2027      2455      2456
 -1       962    8    0    1
 -2       418       419       553      2036      2457      2458
 -1       963    8    0    1
 -2       419       420       554      2039      2459      2460
 -1       964    8    0    1
 -2       419       554       553      2460      2461      2457
 -1       965    8    0    1
 -2       420       421       555      2042      2462      2463
 -1       966    8    0    1
 -2       420       555       554      2463      2464      2459
 -1       967    8    0    1
 -2       421       422       556      2045      2465      2466
 -1       968    8    0    1
 -2       421       556       555      2466      2467      2462
 -1       969    8    0    1
 -2       422       423       557      2048      2468      2469
 -1       970    8    0    1
 -2       422       557       556      2469      2470      2465
 -1       971    8    0    1
 -2       423       424       558      2051      2471      2472
 -1       972    8    0    1
 -2       423       558       557      2472      2473      2468
 -1       973    8    0    1
 -2       424       425       559      2054      2474      2475
 -1       974    8    0    1
 -2       424       559       558      2475      2476      2471
 -1       975    8    0    1
 -2       426       427       560      2060      2477      2478
 -1       976    8    0    1
 -2       427       429       560      2066      2479      2477
 -1       977    8    0    1
 -2       430       431       561      2073      2480      2481
 -1       978    8    0    1
 -2       431       432       562      2076      2482      2483
 -1       979    8    0    1
 -2       431       562       561      2483      2484      2480
 -1       980    8    0    1
 -2       428       430       563      2070      2485      2486
 -1       981    8    0    1
 -2       430       561       563      2481      2487      2485
 -1       982    8    0    1
 -2       432       433       564      2079      2488      2489
 -1       983    8    0    1
 -2       432       564       562      2489      2490      2482
 -1       984    8    0    1
 -2       433       434       565      2082      2491      2492
 -1       985    8    0    1
 -2       433       565       564      2492      2493      2488
 -1       986    8    0    1
 -2       434       435       566      2085      2494      2495
 -1       987    8    0    1
 -2       434       566       565      2495      2496      2491
 -1       988    8    0    1
 -2       435       436       567      2088      2497      2498
 -1       989    8    0    1
 -2       435       567       566      2498      2499      2494
 -1       990    8    0    1
 -2       436       437       568      2091      2500      2501
 -1       991    8    0    1
 -2       436       568       567      2501      2502      2497
 -1       992    8    0    1
 -2       437       438       569      2094      2503      2504
 -1       993    8    0    1
 -2       437       569       568      2504      2505      2500
 -1       994    8    0    1
 -2       438       439       570      2097      2506      2507
 -1       995    8    0    1
 -2       438       570       569      2507      2508      2503
 -1       996    8    0    1
 -2       439       440       571      2100      2509      2510
 -1       997    8    0    1
 -2       570       439       571      2506      2510      2511
 -1       998    8    0    1
 -2       440       524       571      2372      2512      2509
 -1       999    8    0    1
 -2       447       448       572      2176      2513      2514
 -1      1000    8    0    1
 -2       465       445       446      2178      2196      2515
 -1      1001    8    0    1
 -2       453       454       573      2190      2516      2517
 -1      1002    8    0    1
 -2       417       418       574      2033      2518      2519
 -1      1003    8    0    1
 -2       418       553       574      2458      2520      2518
 -1      1004    8    0    1
 -2       328       329       575      1767      2521      2522
 -1      1005    8    0    1
 -2       466       328       575      2199      2522      2523
 -1      1006    8    0    1
 -2       329       468       575      2205      2524      2521
 -1      1007    8    0    1
 -2       412       465       576      2182      2525      2526
 -1      1008    8    0    1
 -2       549       412       576      2447      2526      2527
 -1      1009    8    0    1
 -2       465       446       576      2515      2528      2525
 -1      1010    8    0    1
 -2       464       385       577      2163      2529      2530
 -1      1011    8    0    1
 -2       446       447       576      2197      2531      2528
 -1      1012    8    0    1
 -2       456       457       578      2198      2532      2533
 -1      1013    8    0    1
 -2       448       449       579      2195      2534      2535
 -1      1014    8    0    1
 -2       449       450       580      2194      2536      2537
 -1      1015    8    0    1
 -2       450       451       581      2193      2538      2539
 -1      1016    8    0    1
 -2       451       452       582      2192      2540      2541
 -1      1017    8    0    1
 -2       451       582       581      2541      2542      2538
 -1      1018    8    0    1
 -2       452       453       583      2191      2543      2544
 -1      1019    8    0    1
 -2       454       455       584      2139      2545      2546
 -1      1020    8    0    1
 -2       455       456       585      2189      2547      2548
 -1      1021    8    0    1
 -2       457       458       586      2188      2549      2550
 -1      1022    8    0    1
 -2       457       586       578      2550      2551      2532
 -1      1023    8    0    1
 -2       458       459       587      2187      2552      2553
 -1      1024    8    0    1
 -2       459       460       588      2186      2554      2555
 -1      1025    8    0    1
 -2       460       461       589      2185      2556      2557
 -1      1026    8    0    1
 -2       460       589       588      2557      2558      2554
 -1      1027    8    0    1
 -2       461       462       590      2184      2559      2560
 -1      1028    8    0    1
 -2       462       550       590      2451      2561      2559
 -1      1029    8    0    1
 -2       442       464       591      2158      2562      2563
 -1      1030    8    0    1
 -2       326       467       592      2202      2564      2565
 -1      1031    8    0    1
 -2       326       592       444      2565      2566      2113
 -1      1032    8    0    1
 -2       477       417       574      2230      2519      2567
 -1      1033    8    0    1
 -2       416       477       552      2231      2568      2455
 -1      1034    8    0    1
 -2       411       549       548      2448      2569      2444
 -1      1035    8    0    1
 -2       463       551       550      2454      2570      2450
 -1      1036    8    0    1
 -2       551       442       591      2453      2563      2571
 -1      1037    8    0    1
 -2       426       560       425      2478      2572      2057
 -1      1038    8    0    1
 -2       559       425       560      2474      2572      2573
 -1      1039    8    0    1
 -2       428       563       593      2486      2574      2575
 -1      1040    8    0    1
 -2       429       428       593      2067      2575      2576
 -1      1041    8    0    1
 -2       572       448       579      2513      2535      2577
 -1      1042    8    0    1
 -2       464       577       591      2530      2578      2562
 -1      1043    8    0    1
 -2       385       443       415      2167      2452      2579
 -1      1044    8    0    1
 -2       573       454       584      2516      2546      2580
 -1      1045    8    0    1
 -2       589       461       590      2556      2560      2581
 -1      1046    8    0    1
 -2       586       458       587      2549      2553      2582
 -1      1047    8    0    1
 -2       585       456       578      2547      2533      2583
 -1      1048    8    0    1
 -2       584       455       585      2545      2548      2584
 -1      1049    8    0    1
 -2       582       452       583      2540      2544      2585
 -1      1050    8    0    1
 -2       480       324       444      2240      2112      2586
 -1      1051    8    0    1
 -2       580       450       581      2536      2539      2587
 -1      1052    8    0    1
 -2       579       449       594      2534      2588      2589
 -1      1053    8    0    1
 -2       449       580       594      2537      2590      2588
 -1      1054    8    0    1
 -2       576       447       572      2531      2514      2591
 -1      1055    8    0    1
 -2       453       573       583      2517      2592      2543
 -1      1056    8    0    1
 -2       587       459       588      2552      2555      2593
 -1      1057    8    0    1
 -2       385       415       552      2579      2456      2594
 -1      1058    8    0    1
 -2       469       470       595      2211      2595      2596
 -1      1059    8    0    1
 -2       468       469       596      2208      2597      2598
 -1      1060    8    0    1
 -2       469       595       596      2596      2599      2597
 -1      1061    8    0    1
 -2       471       472       597      2217      2600      2601
 -1      1062    8    0    1
 -2       472       473       598      2220      2602      2603
 -1      1063    8    0    1
 -2       472       598       597      2603      2604      2600
 -1      1064    8    0    1
 -2       474       475       525      2226      2376      2605
 -1      1065    8    0    1
 -2       526       527       599      2383      2606      2607
 -1      1066    8    0    1
 -2       527       528       600      2386      2608      2609
 -1      1067    8    0    1
 -2       527       600       599      2609      2610      2606
 -1      1068    8    0    1
 -2       476       526       601      2380      2611      2612
 -1      1069    8    0    1
 -2       526       599       601      2607      2613      2611
 -1      1070    8    0    1
 -2       481       479       602      2243      2614      2615
 -1      1071    8    0    1
 -2       555       556       603      2467      2616      2617
 -1      1072    8    0    1
 -2       482       481       604      2246      2618      2619
 -1      1073    8    0    1
 -2       481       602       604      2615      2620      2618
 -1      1074    8    0    1
 -2       483       482       605      2249      2621      2622
 -1      1075    8    0    1
 -2       482       604       605      2619      2623      2621
 -1      1076    8    0    1
 -2       484       483       606      2252      2624      2625
 -1      1077    8    0    1
 -2       483       605       606      2622      2626      2624
 -1      1078    8    0    1
 -2       485       484       607      2255      2627      2628
 -1      1079    8    0    1
 -2       484       606       607      2625      2629      2627
 -1      1080    8    0    1
 -2       486       485       608      2258      2630      2631
 -1      1081    8    0    1
 -2       485       607       608      2628      2632      2630
 -1      1082    8    0    1
 -2       487       486       609      2261      2633      2634
 -1      1083    8    0    1
 -2       486       608       609      2631      2635      2633
 -1      1084    8    0    1
 -2       488       487       610      2264      2636      2637
 -1      1085    8    0    1
 -2       487       609       610      2634      2638      2636
 -1      1086    8    0    1
 -2       489       488       611      2267      2639      2640
 -1      1087    8    0    1
 -2       488       610       611      2637      2641      2639
 -1      1088    8    0    1
 -2       490       489       612      2270      2642      2643
 -1      1089    8    0    1
 -2       489       611       612      2640      2644      2642
 -1      1090    8    0    1
 -2       491       490       613      2273      2645      2646
 -1      1091    8    0    1
 -2       490       612       613      2643      2647      2645
 -1      1092    8    0    1
 -2       492       491       614      2276      2648      2649
 -1      1093    8    0    1
 -2       491       613       614      2646      2650      2648
 -1      1094    8    0    1
 -2       493       492       615      2279      2651      2652
 -1      1095    8    0    1
 -2       492       614       615      2649      2653      2651
 -1      1096    8    0    1
 -2       494       493       616      2282      2654      2655
 -1      1097    8    0    1
 -2       493       615       616      2652      2656      2654
 -1      1098    8    0    1
 -2       495       494       617      2285      2657      2658
 -1      1099    8    0    1
 -2       494       616       617      2655      2659      2657
 -1      1100    8    0    1
 -2       496       495       618      2288      2660      2661
 -1      1101    8    0    1
 -2       495       617       618      2658      2662      2660
 -1      1102    8    0    1
 -2       497       496       619      2291      2663      2664
 -1      1103    8    0    1
 -2       496       618       619      2661      2665      2663
 -1      1104    8    0    1
 -2       498       497       620      2294      2666      2667
 -1      1105    8    0    1
 -2       497       619       620      2664      2668      2666
 -1      1106    8    0    1
 -2       499       498       621      2297      2669      2670
 -1      1107    8    0    1
 -2       498       620       621      2667      2671      2669
 -1      1108    8    0    1
 -2       500       499       622      2300      2672      2673
 -1      1109    8    0    1
 -2       499       621       622      2670      2674      2672
 -1      1110    8    0    1
 -2       501       500       623      2303      2675      2676
 -1      1111    8    0    1
 -2       500       622       623      2673      2677      2675
 -1      1112    8    0    1
 -2       502       501       624      2306      2678      2679
 -1      1113    8    0    1
 -2       501       623       624      2676      2680      2678
 -1      1114    8    0    1
 -2       503       502       625      2309      2681      2682
 -1      1115    8    0    1
 -2       502       624       625      2679      2683      2681
 -1      1116    8    0    1
 -2       504       503       626      2312      2684      2685
 -1      1117    8    0    1
 -2       503       625       626      2682      2686      2684
 -1      1118    8    0    1
 -2       505       504       627      2315      2687      2688
 -1      1119    8    0    1
 -2       504       626       627      2685      2689      2687
 -1      1120    8    0    1
 -2       506       505       628      2318      2690      2691
 -1      1121    8    0    1
 -2       505       627       628      2688      2692      2690
 -1      1122    8    0    1
 -2       507       506       629      2321      2693      2694
 -1      1123    8    0    1
 -2       506       628       629      2691      2695      2693
 -1      1124    8    0    1
 -2       508       507       630      2324      2696      2697
 -1      1125    8    0    1
 -2       507       629       630      2694      2698      2696
 -1      1126    8    0    1
 -2       509       508       631      2327      2699      2700
 -1      1127    8    0    1
 -2       508       630       631      2697      2701      2699
 -1      1128    8    0    1
 -2       510       509       632      2330      2702      2703
 -1      1129    8    0    1
 -2       509       631       632      2700      2704      2702
 -1      1130    8    0    1
 -2       511       510       633      2333      2705      2706
 -1      1131    8    0    1
 -2       510       632       633      2703      2707      2705
 -1      1132    8    0    1
 -2       512       511       634      2336      2708      2709
 -1      1133    8    0    1
 -2       511       633       634      2706      2710      2708
 -1      1134    8    0    1
 -2       513       512       635      2339      2711      2712
 -1      1135    8    0    1
 -2       512       634       635      2709      2713      2711
 -1      1136    8    0    1
 -2       514       513       636      2342      2714      2715
 -1      1137    8    0    1
 -2       513       635       636      2712      2716      2714
 -1      1138    8    0    1
 -2       515       514       637      2345      2717      2718
 -1      1139    8    0    1
 -2       514       636       637      2715      2719      2717
 -1      1140    8    0    1
 -2       516       515       638      2348      2720      2721
 -1      1141    8    0    1
 -2       515       637       638      2718      2722      2720
 -1      1142    8    0    1
 -2       517       516       639      2351      2723      2724
 -1      1143    8    0    1
 -2       516       638       639      2721      2725      2723
 -1      1144    8    0    1
 -2       518       517       640      2354      2726      2727
 -1      1145    8    0    1
 -2       517       639       640      2724      2728      2726
 -1      1146    8    0    1
 -2       519       518       641      2357      2729      2730
 -1      1147    8    0    1
 -2       518       640       641      2727      2731      2729
 -1      1148    8    0    1
 -2       520       519       642      2360      2732      2733
 -1      1149    8    0    1
 -2       519       641       642      2730      2734      2732
 -1      1150    8    0    1
 -2       521       520       643      2363      2735      2736
 -1      1151    8    0    1
 -2       520       642       643      2733      2737      2735
 -1      1152    8    0    1
 -2       522       521       644      2366      2738      2739
 -1      1153    8    0    1
 -2       521       643       644      2736      2740      2738
 -1      1154    8    0    1
 -2       523       522       645      2369      2741      2742
 -1      1155    8    0    1
 -2       522       644       645      2739      2743      2741
 -1      1156    8    0    1
 -2       524       523       646      2373      2744      2745
 -1      1157    8    0    1
 -2       571       524       646      2512      2745      2746
 -1      1158    8    0    1
 -2       523       645       646      2742      2747      2744
 -1      1159    8    0    1
 -2       554       555       647      2464      2748      2749
 -1      1160    8    0    1
 -2       555       603       647      2617      2750      2748
 -1      1161    8    0    1
 -2       548       549       648      2569      2751      2752
 -1      1162    8    0    1
 -2       528       529       649      2389      2753      2754
 -1      1163    8    0    1
 -2       528       649       600      2754      2755      2608
 -1      1164    8    0    1
 -2       529       530       650      2392      2756      2757
 -1      1165    8    0    1
 -2       529       650       649      2757      2758      2753
 -1      1166    8    0    1
 -2       530       531       651      2395      2759      2760
 -1      1167    8    0    1
 -2       530       651       650      2760      2761      2756
 -1      1168    8    0    1
 -2       531       532       652      2398      2762      2763
 -1      1169    8    0    1
 -2       531       652       651      2763      2764      2759
 -1      1170    8    0    1
 -2       532       533       653      2401      2765      2766
 -1      1171    8    0    1
 -2       532       653       652      2766      2767      2762
 -1      1172    8    0    1
 -2       533       534       654      2404      2768      2769
 -1      1173    8    0    1
 -2       533       654       653      2769      2770      2765
 -1      1174    8    0    1
 -2       534       535       655      2407      2771      2772
 -1      1175    8    0    1
 -2       534       655       654      2772      2773      2768
 -1      1176    8    0    1
 -2       535       536       656      2410      2774      2775
 -1      1177    8    0    1
 -2       535       656       655      2775      2776      2771
 -1      1178    8    0    1
 -2       536       537       657      2413      2777      2778
 -1      1179    8    0    1
 -2       536       657       656      2778      2779      2774
 -1      1180    8    0    1
 -2       537       538       658      2416      2780      2781
 -1      1181    8    0    1
 -2       537       658       657      2781      2782      2777
 -1      1182    8    0    1
 -2       538       539       659      2419      2783      2784
 -1      1183    8    0    1
 -2       538       659       658      2784      2785      2780
 -1      1184    8    0    1
 -2       539       540       660      2422      2786      2787
 -1      1185    8    0    1
 -2       539       660       659      2787      2788      2783
 -1      1186    8    0    1
 -2       540       541       661      2425      2789      2790
 -1      1187    8    0    1
 -2       540       661       660      2790      2791      2786
 -1      1188    8    0    1
 -2       541       542       662      2428      2792      2793
 -1      1189    8    0    1
 -2       541       662       661      2793      2794      2789
 -1      1190    8    0    1
 -2       542       543       663      2431      2795      2796
 -1      1191    8    0    1
 -2       542       663       662      2796      2797      2792
 -1      1192    8    0    1
 -2       543       544       664      2434      2798      2799
 -1      1193    8    0    1
 -2       543       664       663      2799      2800      2795
 -1      1194    8    0    1
 -2       544       545       665      2437      2801      2802
 -1      1195    8    0    1
 -2       544       665       664      2802      2803      2798
 -1      1196    8    0    1
 -2       545       546       666      2440      2804      2805
 -1      1197    8    0    1
 -2       545       666       665      2805      2806      2801
 -1      1198    8    0    1
 -2       546       547       667      2443      2807      2808
 -1      1199    8    0    1
 -2       546       667       666      2808      2809      2804
 -1      1200    8    0    1
 -2       547       548       668      2446      2810      2811
 -1      1201    8    0    1
 -2       547       668       667      2811      2812      2807
 -1      1202    8    0    1
 -2       550       551       669      2570      2813      2814
 -1      1203    8    0    1
 -2       551       591       670      2571      2815      2816
 -1      1204    8    0    1
 -2       573       584       671      2580      2817      2818
 -1      1205    8    0    1
 -2       262       263       300      1565      2181      2179
 -1      1206    8    0    1
 -2       553       554       672      2461      2819      2820
 -1      1207    8    0    1
 -2       554       647       672      2749      2821      2819
 -1      1208    8    0    1
 -2       556       557       673      2470      2822      2823
 -1      1209    8    0    1
 -2       556       673       603      2823      2824      2616
 -1      1210    8    0    1
 -2       557       558       674      2473      2825      2826
 -1      1211    8    0    1
 -2       557       674       673      2826      2827      2822
 -1      1212    8    0    1
 -2       558       559       675      2476      2828      2829
 -1      1213    8    0    1
 -2       558       675       674      2829      2830      2825
 -1      1214    8    0    1
 -2       593       563       676      2574      2831      2832
 -1      1215    8    0    1
 -2       561       562       677      2484      2833      2834
 -1      1216    8    0    1
 -2       563       561       678      2487      2835      2836
 -1      1217    8    0    1
 -2       561       677       678      2834      2837      2835
 -1      1218    8    0    1
 -2       562       564       679      2490      2838      2839
 -1      1219    8    0    1
 -2       562       679       677      2839      2840      2833
 -1      1220    8    0    1
 -2       565       566       680      2496      2841      2842
 -1      1221    8    0    1
 -2       566       567       681      2499      2843      2844
 -1      1222    8    0    1
 -2       566       681       680      2844      2845      2841
 -1      1223    8    0    1
 -2       567       568       682      2502      2846      2847
 -1      1224    8    0    1
 -2       567       682       681      2847      2848      2843
 -1      1225    8    0    1
 -2       568       569       683      2505      2849      2850
 -1      1226    8    0    1
 -2       568       683       682      2850      2851      2846
 -1      1227    8    0    1
 -2       569       570       684      2508      2852      2853
 -1      1228    8    0    1
 -2       569       684       683      2853      2854      2849
 -1      1229    8    0    1
 -2       574       553       685      2520      2855      2856
 -1      1230    8    0    1
 -2       553       672       685      2820      2857      2855
 -1      1231    8    0    1
 -2       477       574       686      2567      2858      2859
 -1      1232    8    0    1
 -2       586       587       687      2582      2860      2861
 -1      1233    8    0    1
 -2       552       477       688      2568      2862      2863
 -1      1234    8    0    1
 -2       480       444       592      2586      2566      2864
 -1      1235    8    0    1
 -2       564       565       689      2493      2865      2866
 -1      1236    8    0    1
 -2       679       564       689      2838      2866      2867
 -1      1237    8    0    1
 -2       565       680       689      2842      2868      2865
 -1      1238    8    0    1
 -2       478       476       690      2234      2869      2870
 -1      1239    8    0    1
 -2       476       601       690      2612      2871      2869
 -1      1240    8    0    1
 -2       580       581       691      2587      2872      2873
 -1      1241    8    0    1
 -2       470       471       692      2214      2874      2875
 -1      1242    8    0    1
 -2       595       470       692      2595      2875      2876
 -1      1243    8    0    1
 -2       471       597       692      2601      2877      2874
 -1      1244    8    0    1
 -2       467       466       693      2203      2878      2879
 -1      1245    8    0    1
 -2       585       578       694      2583      2880      2881
 -1      1246    8    0    1
 -2       572       579       648      2577      2882      2883
 -1      1247    8    0    1
 -2       576       572       549      2591      2884      2527
 -1      1248    8    0    1
 -2       581       582       695      2542      2885      2886
 -1      1249    8    0    1
 -2       587       588       696      2593      2887      2888
 -1      1250    8    0    1
 -2       589       590       697      2581      2889      2890
 -1      1251    8    0    1
 -2       582       583       698      2585      2891      2892
 -1      1252    8    0    1
 -2       584       585       699      2584      2893      2894
 -1      1253    8    0    1
 -2       578       586       700      2551      2895      2896
 -1      1254    8    0    1
 -2       578       700       694      2896      2897      2880
 -1      1255    8    0    1
 -2       588       589       701      2558      2898      2899
 -1      1256    8    0    1
 -2       589       697       701      2890      2900      2898
 -1      1257    8    0    1
 -2       590       550       702      2561      2901      2902
 -1      1258    8    0    1
 -2       697       590       702      2889      2902      2903
 -1      1259    8    0    1
 -2       550       669       702      2814      2904      2901
 -1      1260    8    0    1
 -2       583       573       703      2592      2905      2906
 -1      1261    8    0    1
 -2       573       671       703      2818      2907      2905
 -1      1262    8    0    1
 -2       549       572       648      2884      2883      2751
 -1      1263    8    0    1
 -2       468       596       704      2598      2908      2909
 -1      1264    8    0    1
 -2       468       704       575      2909      2910      2524
 -1      1265    8    0    1
 -2       474       525       705      2605      2911      2912
 -1      1266    8    0    1
 -2       473       474       705      2223      2912      2913
 -1      1267    8    0    1
 -2       525       478       705      2377      2914      2911
 -1      1268    8    0    1
 -2       580       691       594      2873      2915      2590
 -1      1269    8    0    1
 -2       548       648       668      2752      2916      2810
 -1      1270    8    0    1
 -2       479       480       706      2239      2917      2918
 -1      1271    8    0    1
 -2       583       703       707      2906      2919      2920
 -1      1272    8    0    1
 -2       583       707       698      2920      2921      2891
 -1      1273    8    0    1
 -2       479       706       602      2918      2922      2614
 -1      1274    8    0    1
 -2       669       551       708      2813      2923      2924
 -1      1275    8    0    1
 -2       551       670       708      2816      2925      2923
 -1      1276    8    0    1
 -2       467       693       709      2879      2926      2927
 -1      1277    8    0    1
 -2       467       709       592      2927      2928      2564
 -1      1278    8    0    1
 -2       478       690       705      2870      2929      2914
 -1      1279    8    0    1
 -2       466       575       710      2523      2930      2931
 -1      1280    8    0    1
 -2       693       466       710      2878      2931      2932
 -1      1281    8    0    1
 -2       575       704       710      2910      2933      2930
 -1      1282    8    0    1
 -2       675       559       676      2828      2934      2935
 -1      1283    8    0    1
 -2       676       563       678      2831      2836      2936
 -1      1284    8    0    1
 -2       560       429       593      2479      2576      2937
 -1      1285    8    0    1
 -2       559       560       593      2573      2937      2938
 -1      1286    8    0    1
 -2       559       593       676      2938      2832      2934
 -1      1287    8    0    1
 -2       700       586       687      2895      2861      2939
 -1      1288    8    0    1
 -2       574       685       686      2856      2940      2858
 -1      1289    8    0    1
 -2       570       571       646      2511      2746      2941
 -1      1290    8    0    1
 -2       699       585       694      2893      2881      2942
 -1      1291    8    0    1
 -2       570       646       684      2941      2943      2852
 -1      1292    8    0    1
 -2       696       588       711      2887      2944      2945
 -1      1293    8    0    1
 -2       588       701       711      2899      2946      2944
 -1      1294    8    0    1
 -2       688       477       686      2862      2859      2947
 -1      1295    8    0    1
 -2       687       587       696      2860      2888      2948
 -1      1296    8    0    1
 -2       671       584       699      2817      2894      2949
 -1      1297    8    0    1
 -2       670       591       688      2815      2950      2951
 -1      1298    8    0    1
 -2       691       581       695      2872      2886      2952
 -1      1299    8    0    1
 -2       473       705       598      2913      2953      2602
 -1      1300    8    0    1
 -2       591       577       688      2578      2954      2950
 -1      1301    8    0    1
 -2       695       582       698      2885      2892      2955
 -1      1302    8    0    1
 -2       597       598       712      2604      2956      2957
 -1      1303    8    0    1
 -2       649       650       713      2758      2958      2959
 -1      1304    8    0    1
 -2       599       600       714      2610      2960      2961
 -1      1305    8    0    1
 -2       601       599       715      2613      2962      2963
 -1      1306    8    0    1
 -2       599       714       715      2961      2964      2962
 -1      1307    8    0    1
 -2       706       480       592      2917      2864      2965
 -1      1308    8    0    1
 -2       699       694       716      2942      2966      2967
 -1      1309    8    0    1
 -2       605       604       717      2623      2968      2969
 -1      1310    8    0    1
 -2       606       605       718      2626      2970      2971
 -1      1311    8    0    1
 -2       605       717       718      2969      2972      2970
 -1      1312    8    0    1
 -2       607       606       719      2629      2973      2974
 -1      1313    8    0    1
 -2       606       718       719      2971      2975      2973
 -1      1314    8    0    1
 -2       608       607       720      2632      2976      2977
 -1      1315    8    0    1
 -2       607       719       720      2974      2978      2976
 -1      1316    8    0    1
 -2       609       608       721      2635      2979      2980
 -1      1317    8    0    1
 -2       608       720       721      2977      2981      2979
 -1      1318    8    0    1
 -2       610       609       722      2638      2982      2983
 -1      1319    8    0    1
 -2       609       721       722      2980      2984      2982
 -1      1320    8    0    1
 -2       611       610       723      2641      2985      2986
 -1      1321    8    0    1
 -2       610       722       723      2983      2987      2985
 -1      1322    8    0    1
 -2       612       611       724      2644      2988      2989
 -1      1323    8    0    1
 -2       611       723       724      2986      2990      2988
 -1      1324    8    0    1
 -2       613       612       725      2647      2991      2992
 -1      1325    8    0    1
 -2       612       724       725      2989      2993      2991
 -1      1326    8    0    1
 -2       614       613       726      2650      2994      2995
 -1      1327    8    0    1
 -2       613       725       726      2992      2996      2994
 -1      1328    8    0    1
 -2       615       614       727      2653      2997      2998
 -1      1329    8    0    1
 -2       614       726       727      2995      2999      2997
 -1      1330    8    0    1
 -2       616       615       728      2656      3000      3001
 -1      1331    8    0    1
 -2       615       727       728      2998      3002      3000
 -1      1332    8    0    1
 -2       617       616       729      2659      3003      3004
 -1      1333    8    0    1
 -2       616       728       729      3001      3005      3003
 -1      1334    8    0    1
 -2       618       617       730      2662      3006      3007
 -1      1335    8    0    1
 -2       617       729       730      3004      3008      3006
 -1      1336    8    0    1
 -2       619       618       731      2665      3009      3010
 -1      1337    8    0    1
 -2       618       730       731      3007      3011      3009
 -1      1338    8    0    1
 -2       620       619       732      2668      3012      3013
 -1      1339    8    0    1
 -2       619       731       732      3010      3014      3012
 -1      1340    8    0    1
 -2       621       620       733      2671      3015      3016
 -1      1341    8    0    1
 -2       620       732       733      3013      3017      3015
 -1      1342    8    0    1
 -2       622       621       734      2674      3018      3019
 -1      1343    8    0    1
 -2       621       733       734      3016      3020      3018
 -1      1344    8    0    1
 -2       623       622       735      2677      3021      3022
 -1      1345    8    0    1
 -2       622       734       735      3019      3023      3021
 -1      1346    8    0    1
 -2       624       623       736      2680      3024      3025
 -1      1347    8    0    1
 -2       623       735       736      3022      3026      3024
 -1      1348    8    0    1
 -2       625       624       737      2683      3027      3028
 -1      1349    8    0    1
 -2       624       736       737      3025      3029      3027
 -1      1350    8    0    1
 -2       626       625       738      2686      3030      3031
 -1      1351    8    0    1
 -2       625       737       738      3028      3032      3030
 -1      1352    8    0    1
 -2       627       626       739      2689      3033      3034
 -1      1353    8    0    1
 -2       626       738       739      3031      3035      3033
 -1      1354    8    0    1
 -2       628       627       740      2692      3036      3037
 -1      1355    8    0    1
 -2       627       739       740      3034      3038      3036
 -1      1356    8    0    1
 -2       629       628       741      2695      3039      3040
 -1      1357    8    0    1
 -2       628       740       741      3037      3041      3039
 -1      1358    8    0    1
 -2       630       629       742      2698      3042      3043
 -1      1359    8    0    1
 -2       629       741       742      3040      3044      3042
 -1      1360    8    0    1
 -2       631       630       743      2701      3045      3046
 -1      1361    8    0    1
 -2       630       742       743      3043      3047      3045
 -1      1362    8    0    1
 -2       632       631       744      2704      3048      3049
 -1      1363    8    0    1
 -2       631       743       744      3046      3050      3048
 -1      1364    8    0    1
 -2       633       632       745      2707      3051      3052
 -1      1365    8    0    1
 -2       632       744       745      3049      3053      3051
 -1      1366    8    0    1
 -2       634       633       746      2710      3054      3055
 -1      1367    8    0    1
 -2       633       745       746      3052      3056      3054
 -1      1368    8    0    1
 -2       635       634       747      2713      3057      3058
 -1      1369    8    0    1
 -2       634       746       747      3055      3059      3057
 -1      1370    8    0    1
 -2       636       635       748      2716      3060      3061
 -1      1371    8    0    1
 -2       635       747       748      3058      3062      3060
 -1      1372    8    0    1
 -2       637       636       749      2719      3063      3064
 -1      1373    8    0    1
 -2       636       748       749      3061      3065      3063
 -1      1374    8    0    1
 -2       638       637       750      2722      3066      3067
 -1      1375    8    0    1
 -2       637       749       750      3064      3068      3066
 -1      1376    8    0    1
 -2       639       638       751      2725      3069      3070
 -1      1377    8    0    1
 -2       638       750       751      3067      3071      3069
 -1      1378    8    0    1
 -2       640       639       752      2728      3072      3073
 -1      1379    8    0    1
 -2       639       751       752      3070      3074      3072
 -1      1380    8    0    1
 -2       641       640       753      2731      3075      3076
 -1      1381    8    0    1
 -2       640       752       753      3073      3077      3075
 -1      1382    8    0    1
 -2       642       641       754      2734      3078      3079
 -1      1383    8    0    1
 -2       641       753       754      3076      3080      3078
 -1      1384    8    0    1
 -2       643       642       755      2737      3081      3082
 -1      1385    8    0    1
 -2       642       754       755      3079      3083      3081
 -1      1386    8    0    1
 -2       644       643       756      2740      3084      3085
 -1      1387    8    0    1
 -2       643       755       756      3082      3086      3084
 -1      1388    8    0    1
 -2       645       644       757      2743      3087      3088
 -1      1389    8    0    1
 -2       644       756       757      3085      3089      3087
 -1      1390    8    0    1
 -2       646       645       684      2747      3090      2943
 -1      1391    8    0    1
 -2       650       651       758      2761      3091      3092
 -1      1392    8    0    1
 -2       650       758       713      3092      3093      2958
 -1      1393    8    0    1
 -2       675       676       759      2935      3094      3095
 -1      1394    8    0    1
 -2       676       678       759      2936      3096      3094
 -1      1395    8    0    1
 -2       600       649       760      2755      3097      3098
 -1      1396    8    0    1
 -2       600       760       714      3098      3099      2960
 -1      1397    8    0    1
 -2       651       652       761      2764      3100      3101
 -1      1398    8    0    1
 -2       651       761       758      3101      3102      3091
 -1      1399    8    0    1
 -2       652       653       762      2767      3103      3104
 -1      1400    8    0    1
 -2       652       762       761      3104      3105      3100
 -1      1401    8    0    1
 -2       653       654       763      2770      3106      3107
 -1      1402    8    0    1
 -2       653       763       762      3107      3108      3103
 -1      1403    8    0    1
 -2       654       655       764      2773      3109      3110
 -1      1404    8    0    1
 -2       654       764       763      3110      3111      3106
 -1      1405    8    0    1
 -2       655       656       765      2776      3112      3113
 -1      1406    8    0    1
 -2       655       765       764      3113      3114      3109
 -1      1407    8    0    1
 -2       656       657       766      2779      3115      3116
 -1      1408    8    0    1
 -2       656       766       765      3116      3117      3112
 -1      1409    8    0    1
 -2       657       658       767      2782      3118      3119
 -1      1410    8    0    1
 -2       657       767       766      3119      3120      3115
 -1      1411    8    0    1
 -2       658       659       768      2785      3121      3122
 -1      1412    8    0    1
 -2       658       768       767      3122      3123      3118
 -1      1413    8    0    1
 -2       659       660       769      2788      3124      3125
 -1      1414    8    0    1
 -2       659       769       768      3125      3126      3121
 -1      1415    8    0    1
 -2       660       661       770      2791      3127      3128
 -1      1416    8    0    1
 -2       660       770       769      3128      3129      3124
 -1      1417    8    0    1
 -2       661       662       771      2794      3130      3131
 -1      1418    8    0    1
 -2       661       771       770      3131      3132      3127
 -1      1419    8    0    1
 -2       662       663       772      2797      3133      3134
 -1      1420    8    0    1
 -2       662       772       771      3134      3135      3130
 -1      1421    8    0    1
 -2       663       664       773      2800      3136      3137
 -1      1422    8    0    1
 -2       663       773       772      3137      3138      3133
 -1      1423    8    0    1
 -2       664       665       774      2803      3139      3140
 -1      1424    8    0    1
 -2       664       774       773      3140      3141      3136
 -1      1425    8    0    1
 -2       665       666       775      2806      3142      3143
 -1      1426    8    0    1
 -2       665       775       774      3143      3144      3139
 -1      1427    8    0    1
 -2       666       667       776      2809      3145      3146
 -1      1428    8    0    1
 -2       666       776       775      3146      3147      3142
 -1      1429    8    0    1
 -2       667       668       777      2812      3148      3149
 -1      1430    8    0    1
 -2       667       777       776      3149      3150      3145
 -1      1431    8    0    1
 -2       577       385       552      2529      2594      3151
 -1      1432    8    0    1
 -2       678       677       778      2837      3152      3153
 -1      1433    8    0    1
 -2       678       778       759      3153      3154      3096
 -1      1434    8    0    1
 -2       674       675       759      2830      3095      3155
 -1      1435    8    0    1
 -2       677       679       779      2840      3156      3157
 -1      1436    8    0    1
 -2       677       779       778      3157      3158      3152
 -1      1437    8    0    1
 -2       690       601       780      2871      3159      3160
 -1      1438    8    0    1
 -2       601       715       780      2963      3161      3159
 -1      1439    8    0    1
 -2       681       682       781      2848      3162      3163
 -1      1440    8    0    1
 -2       680       681       782      2845      3164      3165
 -1      1441    8    0    1
 -2       681       781       782      3163      3166      3164
 -1      1442    8    0    1
 -2       683       684       783      2854      3167      3168
 -1      1443    8    0    1
 -2       685       672       784      2857      3169      3170
 -1      1444    8    0    1
 -2       647       603       785      2750      3171      3172
 -1      1445    8    0    1
 -2       602       706       786      2922      3173      3174
 -1      1446    8    0    1
 -2       703       671       787      2907      3175      3176
 -1      1447    8    0    1
 -2       686       685       788      2940      3177      3178
 -1      1448    8    0    1
 -2       672       647       789      2821      3179      3180
 -1      1449    8    0    1
 -2       672       789       784      3180      3181      3169
 -1      1450    8    0    1
 -2       705       690       598      2929      3182      2953
 -1      1451    8    0    1
 -2       648       579       790      2882      3183      3184
 -1      1452    8    0    1
 -2       552       688       577      2863      2954      3151
 -1      1453    8    0    1
 -2       682       683       791      2851      3185      3186
 -1      1454    8    0    1
 -2       781       682       791      3162      3186      3187
 -1      1455    8    0    1
 -2       683       783       791      3168      3188      3185
 -1      1456    8    0    1
 -2       695       698       792      2955      3189      3190
 -1      1457    8    0    1
 -2       691       695       793      2952      3191      3192
 -1      1458    8    0    1
 -2       668       648       790      2916      3184      3193
 -1      1459    8    0    1
 -2       603       673       794      2824      3194      3195
 -1      1460    8    0    1
 -2       603       794       785      3195      3196      3171
 -1      1461    8    0    1
 -2       688       686       670      2947      3197      2951
 -1      1462    8    0    1
 -2       594       691       795      2915      3198      3199
 -1      1463    8    0    1
 -2       691       793       795      3192      3200      3198
 -1      1464    8    0    1
 -2       687       696       796      2948      3201      3202
 -1      1465    8    0    1
 -2       604       602       797      2620      3203      3204
 -1      1466    8    0    1
 -2       717       604       797      2968      3204      3205
 -1      1467    8    0    1
 -2       602       786       797      3174      3206      3203
 -1      1468    8    0    1
 -2       673       674       798      2827      3207      3208
 -1      1469    8    0    1
 -2       673       798       794      3208      3209      3194
 -1      1470    8    0    1
 -2       579       594       790      2589      3210      3183
 -1      1471    8    0    1
 -2       671       699       799      2949      3211      3212
 -1      1472    8    0    1
 -2       694       700       800      2897      3213      3214
 -1      1473    8    0    1
 -2       694       800       716      3214      3215      2966
 -1      1474    8    0    1
 -2       701       697       801      2900      3216      3217
 -1      1475    8    0    1
 -2       596       595       802      2599      3218      3219
 -1      1476    8    0    1
 -2       700       687       803      2939      3220      3221
 -1      1477    8    0    1
 -2       670       686       788      3197      3178      3222
 -1      1478    8    0    1
 -2       598       690       712      3182      3223      2956
 -1      1479    8    0    1
 -2       668       790       777      3193      3224      3148
 -1      1480    8    0    1
 -2       693       710       804      2932      3225      3226
 -1      1481    8    0    1
 -2       649       713       760      2959      3227      3097
 -1      1482    8    0    1
 -2       706       592       786      2965      3228      3173
 -1      1483    8    0    1
 -2       707       703       787      2919      3176      3229
 -1      1484    8    0    1
 -2       695       792       793      3190      3230      3191
 -1      1485    8    0    1
 -2       798       674       759      3207      3155      3231
 -1      1486    8    0    1
 -2       669       708       805      2924      3232      3233
 -1      1487    8    0    1
 -2       701       801       711      3217      3234      2946
 -1      1488    8    0    1
 -2       698       707       792      2921      3235      3189
 -1      1489    8    0    1
 -2       684       645       757      3090      3088      3236
 -1      1490    8    0    1
 -2       669       805       806      3233      3237      3238
 -1      1491    8    0    1
 -2       669       806       702      3238      3239      2904
 -1      1492    8    0    1
 -2       786       592       709      3228      2928      3240
 -1      1493    8    0    1
 -2       693       804       807      3226      3241      3242
 -1      1494    8    0    1
 -2       693       807       709      3242      3243      2926
 -1      1495    8    0    1
 -2       690       780       712      3160      3244      3223
 -1      1496    8    0    1
 -2       779       679       808      3156      3245      3246
 -1      1497    8    0    1
 -2       679       689       808      2867      3247      3245
 -1      1498    8    0    1
 -2       684       757       783      3236      3248      3167
 -1      1499    8    0    1
 -2       685       784       788      3170      3249      3177
 -1      1500    8    0    1
 -2       696       711       809      2945      3250      3251
 -1      1501    8    0    1
 -2       696       809       796      3251      3252      3201
 -1      1502    8    0    1
 -2       647       785       789      3172      3253      3179
 -1      1503    8    0    1
 -2       787       671       799      3175      3212      3254
 -1      1504    8    0    1
 -2       803       687       796      3220      3202      3255
 -1      1505    8    0    1
 -2       699       716       810      2967      3256      3257
 -1      1506    8    0    1
 -2       699       810       799      3257      3258      3211
 -1      1507    8    0    1
 -2       689       680       811      2868      3259      3260
 -1      1508    8    0    1
 -2       808       689       811      3247      3260      3261
 -1      1509    8    0    1
 -2       680       782       811      3165      3262      3259
 -1      1510    8    0    1
 -2       692       597       812      2877      3263      3264
 -1      1511    8    0    1
 -2       597       712       812      2957      3265      3263
 -1      1512    8    0    1
 -2       790       594       795      3210      3199      3266
 -1      1513    8    0    1
 -2       595       692       813      2876      3267      3268
 -1      1514    8    0    1
 -2       802       595       813      3218      3268      3269
 -1      1515    8    0    1
 -2       692       812       813      3264      3270      3267
 -1      1516    8    0    1
 -2       800       700       803      3213      3221      3271
 -1      1517    8    0    1
 -2       704       596       814      2908      3272      3273
 -1      1518    8    0    1
 -2       596       802       814      3219      3274      3272
 -1      1519    8    0    1
 -2       777       790       795      3224      3266      3275
 -1      1520    8    0    1
 -2       697       702       815      2903      3276      3277
 -1      1521    8    0    1
 -2       801       697       815      3216      3277      3278
 -1      1522    8    0    1
 -2       702       806       815      3239      3279      3276
 -1      1523    8    0    1
 -2       760       713       816      3227      3280      3281
 -1      1524    8    0    1
 -2       711       801       817      3234      3282      3283
 -1      1525    8    0    1
 -2       711       817       809      3283      3284      3250
 -1      1526    8    0    1
 -2       719       718       818      2975      3285      3286
 -1      1527    8    0    1
 -2       720       719       819      2978      3287      3288
 -1      1528    8    0    1
 -2       719       818       819      3286      3289      3287
 -1      1529    8    0    1
 -2       721       720       820      2981      3290      3291
 -1      1530    8    0    1
 -2       720       819       820      3288      3292      3290
 -1      1531    8    0    1
 -2       722       721       821      2984      3293      3294
 -1      1532    8    0    1
 -2       721       820       821      3291      3295      3293
 -1      1533    8    0    1
 -2       723       722       822      2987      3296      3297
 -1      1534    8    0    1
 -2       722       821       822      3294      3298      3296
 -1      1535    8    0    1
 -2       724       723       823      2990      3299      3300
 -1      1536    8    0    1
 -2       723       822       823      3297      3301      3299
 -1      1537    8    0    1
 -2       725       724       824      2993      3302      3303
 -1      1538    8    0    1
 -2       724       823       824      3300      3304      3302
 -1      1539    8    0    1
 -2       726       725       825      2996      3305      3306
 -1      1540    8    0    1
 -2       725       824       825      3303      3307      3305
 -1      1541    8    0    1
 -2       727       726       826      2999      3308      3309
 -1      1542    8    0    1
 -2       726       825       826      3306      3310      3308
 -1      1543    8    0    1
 -2       728       727       827      3002      3311      3312
 -1      1544    8    0    1
 -2       727       826       827      3309      3313      3311
 -1      1545    8    0    1
 -2       729       728       828      3005      3314      3315
 -1      1546    8    0    1
 -2       728       827       828      3312      3316      3314
 -1      1547    8    0    1
 -2       730       729       829      3008      3317      3318
 -1      1548    8    0    1
 -2       729       828       829      3315      3319      3317
 -1      1549    8    0    1
 -2       731       730       830      3011      3320      3321
 -1      1550    8    0    1
 -2       730       829       830      3318      3322      3320
 -1      1551    8    0    1
 -2       732       731       831      3014      3323      3324
 -1      1552    8    0    1
 -2       731       830       831      3321      3325      3323
 -1      1553    8    0    1
 -2       733       732       832      3017      3326      3327
 -1      1554    8    0    1
 -2       732       831       832      3324      3328      3326
 -1      1555    8    0    1
 -2       734       733       833      3020      3329      3330
 -1      1556    8    0    1
 -2       733       832       833      3327      3331      3329
 -1      1557    8    0    1
 -2       735       734       834      3023      3332      3333
 -1      1558    8    0    1
 -2       734       833       834      3330      3334      3332
 -1      1559    8    0    1
 -2       736       735       835      3026      3335      3336
 -1      1560    8    0    1
 -2       735       834       835      3333      3337      3335
 -1      1561    8    0    1
 -2       737       736       836      3029      3338      3339
 -1      1562    8    0    1
 -2       736       835       836      3336      3340      3338
 -1      1563    8    0    1
 -2       738       737       837      3032      3341      3342
 -1      1564    8    0    1
 -2       737       836       837      3339      3343      3341
 -1      1565    8    0    1
 -2       739       738       838      3035      3344      3345
 -1      1566    8    0    1
 -2       738       837       838      3342      3346      3344
 -1      1567    8    0    1
 -2       740       739       839      3038      3347      3348
 -1      1568    8    0    1
 -2       739       838       839      3345      3349      3347
 -1      1569    8    0    1
 -2       741       740       840      3041      3350      3351
 -1      1570    8    0    1
 -2       740       839       840      3348      3352      3350
 -1      1571    8    0    1
 -2       742       741       841      3044      3353      3354
 -1      1572    8    0    1
 -2       741       840       841      3351      3355      3353
 -1      1573    8    0    1
 -2       743       742       842      3047      3356      3357
 -1      1574    8    0    1
 -2       742       841       842      3354      3358      3356
 -1      1575    8    0    1
 -2       744       743       843      3050      3359      3360
 -1      1576    8    0    1
 -2       743       842       843      3357      3361      3359
 -1      1577    8    0    1
 -2       745       744       844      3053      3362      3363
 -1      1578    8    0    1
 -2       744       843       844      3360      3364      3362
 -1      1579    8    0    1
 -2       746       745       845      3056      3365      3366
 -1      1580    8    0    1
 -2       745       844       845      3363      3367      3365
 -1      1581    8    0    1
 -2       747       746       846      3059      3368      3369
 -1      1582    8    0    1
 -2       746       845       846      3366      3370      3368
 -1      1583    8    0    1
 -2       748       747       847      3062      3371      3372
 -1      1584    8    0    1
 -2       747       846       847      3369      3373      3371
 -1      1585    8    0    1
 -2       749       748       848      3065      3374      3375
 -1      1586    8    0    1
 -2       748       847       848      3372      3376      3374
 -1      1587    8    0    1
 -2       750       749       849      3068      3377      3378
 -1      1588    8    0    1
 -2       749       848       849      3375      3379      3377
 -1      1589    8    0    1
 -2       751       750       850      3071      3380      3381
 -1      1590    8    0    1
 -2       750       849       850      3378      3382      3380
 -1      1591    8    0    1
 -2       752       751       851      3074      3383      3384
 -1      1592    8    0    1
 -2       751       850       851      3381      3385      3383
 -1      1593    8    0    1
 -2       753       752       852      3077      3386      3387
 -1      1594    8    0    1
 -2       752       851       852      3384      3388      3386
 -1      1595    8    0    1
 -2       754       753       853      3080      3389      3390
 -1      1596    8    0    1
 -2       753       852       853      3387      3391      3389
 -1      1597    8    0    1
 -2       755       754       854      3083      3392      3393
 -1      1598    8    0    1
 -2       754       853       854      3390      3394      3392
 -1      1599    8    0    1
 -2       756       755       855      3086      3395      3396
 -1      1600    8    0    1
 -2       755       854       855      3393      3397      3395
 -1      1601    8    0    1
 -2       757       756       856      3089      3398      3399
 -1      1602    8    0    1
 -2       783       757       856      3248      3399      3400
 -1      1603    8    0    1
 -2       756       855       856      3396      3401      3398
 -1      1604    8    0    1
 -2       761       762       857      3105      3402      3403
 -1      1605    8    0    1
 -2       762       763       858      3108      3404      3405
 -1      1606    8    0    1
 -2       762       858       857      3405      3406      3402
 -1      1607    8    0    1
 -2       763       764       859      3111      3407      3408
 -1      1608    8    0    1
 -2       763       859       858      3408      3409      3404
 -1      1609    8    0    1
 -2       764       765       860      3114      3410      3411
 -1      1610    8    0    1
 -2       764       860       859      3411      3412      3407
 -1      1611    8    0    1
 -2       765       766       861      3117      3413      3414
 -1      1612    8    0    1
 -2       765       861       860      3414      3415      3410
 -1      1613    8    0    1
 -2       766       767       862      3120      3416      3417
 -1      1614    8    0    1
 -2       766       862       861      3417      3418      3413
 -1      1615    8    0    1
 -2       767       768       863      3123      3419      3420
 -1      1616    8    0    1
 -2       767       863       862      3420      3421      3416
 -1      1617    8    0    1
 -2       768       769       864      3126      3422      3423
 -1      1618    8    0    1
 -2       768       864       863      3423      3424      3419
 -1      1619    8    0    1
 -2       769       770       865      3129      3425      3426
 -1      1620    8    0    1
 -2       769       865       864      3426      3427      3422
 -1      1621    8    0    1
 -2       770       771       866      3132      3428      3429
 -1      1622    8    0    1
 -2       770       866       865      3429      3430      3425
 -1      1623    8    0    1
 -2       771       772       867      3135      3431      3432
 -1      1624    8    0    1
 -2       771       867       866      3432      3433      3428
 -1      1625    8    0    1
 -2       772       773       868      3138      3434      3435
 -1      1626    8    0    1
 -2       772       868       867      3435      3436      3431
 -1      1627    8    0    1
 -2       773       774       869      3141      3437      3438
 -1      1628    8    0    1
 -2       773       869       868      3438      3439      3434
 -1      1629    8    0    1
 -2       774       775       870      3144      3440      3441
 -1      1630    8    0    1
 -2       774       870       869      3441      3442      3437
 -1      1631    8    0    1
 -2       775       776       871      3147      3443      3444
 -1      1632    8    0    1
 -2       775       871       870      3444      3445      3440
 -1      1633    8    0    1
 -2       776       777       872      3150      3446      3447
 -1      1634    8    0    1
 -2       776       872       871      3447      3448      3443
 -1      1635    8    0    1
 -2       708       670       788      2925      3222      3449
 -1      1636    8    0    1
 -2       712       780       873      3244      3450      3451
 -1      1637    8    0    1
 -2       712       873       812      3451      3452      3265
 -1      1638    8    0    1
 -2       782       781       874      3166      3453      3454
 -1      1639    8    0    1
 -2       710       704       875      2933      3455      3456
 -1      1640    8    0    1
 -2       710       875       804      3456      3457      3225
 -1      1641    8    0    1
 -2       714       760       876      3099      3458      3459
 -1      1642    8    0    1
 -2       760       816       876      3281      3460      3458
 -1      1643    8    0    1
 -2       780       715       873      3161      3461      3450
 -1      1644    8    0    1
 -2       800       803       877      3271      3462      3463
 -1      1645    8    0    1
 -2       788       784       878      3249      3464      3465
 -1      1646    8    0    1
 -2       787       799       879      3254      3466      3467
 -1      1647    8    0    1
 -2       794       798       880      3209      3468      3469
 -1      1648    8    0    1
 -2       792       707       881      3235      3470      3471
 -1      1649    8    0    1
 -2       793       792       882      3230      3472      3473
 -1      1650    8    0    1
 -2       784       789       883      3181      3474      3475
 -1      1651    8    0    1
 -2       803       796       884      3255      3476      3477
 -1      1652    8    0    1
 -2       803       884       877      3477      3478      3462
 -1      1653    8    0    1
 -2       707       787       885      3229      3479      3480
 -1      1654    8    0    1
 -2       718       717       886      2972      3481      3482
 -1      1655    8    0    1
 -2       718       886       818      3482      3483      3285
 -1      1656    8    0    1
 -2       798       759       887      3231      3484      3485
 -1      1657    8    0    1
 -2       880       798       887      3468      3485      3486
 -1      1658    8    0    1
 -2       759       778       887      3154      3487      3484
 -1      1659    8    0    1
 -2       715       714       888      2964      3488      3489
 -1      1660    8    0    1
 -2       714       876       888      3459      3490      3488
 -1      1661    8    0    1
 -2       758       761       889      3102      3491      3492
 -1      1662    8    0    1
 -2       761       857       889      3403      3493      3491
 -1      1663    8    0    1
 -2       795       793       890      3200      3494      3495
 -1      1664    8    0    1
 -2       777       795       890      3275      3495      3496
 -1      1665    8    0    1
 -2       793       882       890      3473      3497      3494
 -1      1666    8    0    1
 -2       713       758       891      3093      3498      3499
 -1      1667    8    0    1
 -2       816       713       891      3280      3499      3500
 -1      1668    8    0    1
 -2       758       889       891      3492      3501      3498
 -1      1669    8    0    1
 -2       789       785       892      3253      3502      3503
 -1      1670    8    0    1
 -2       789       892       883      3503      3504      3474
 -1      1671    8    0    1
 -2       778       779       893      3158      3505      3506
 -1      1672    8    0    1
 -2       778       893       887      3506      3507      3487
 -1      1673    8    0    1
 -2       716       800       894      3215      3508      3509
 -1      1674    8    0    1
 -2       810       716       894      3256      3509      3510
 -1      1675    8    0    1
 -2       800       877       894      3463      3511      3508
 -1      1676    8    0    1
 -2       785       794       895      3196      3512      3513
 -1      1677    8    0    1
 -2       892       785       895      3502      3513      3514
 -1      1678    8    0    1
 -2       794       880       895      3469      3515      3512
 -1      1679    8    0    1
 -2       786       709       896      3240      3516      3517
 -1      1680    8    0    1
 -2       797       786       896      3206      3517      3518
 -1      1681    8    0    1
 -2       709       807       896      3243      3519      3516
 -1      1682    8    0    1
 -2       708       788       897      3449      3520      3521
 -1      1683    8    0    1
 -2       805       708       897      3232      3521      3522
 -1      1684    8    0    1
 -2       788       878       897      3465      3523      3520
 -1      1685    8    0    1
 -2       873       715       888      3461      3489      3524
 -1      1686    8    0    1
 -2       806       805       898      3237      3525      3526
 -1      1687    8    0    1
 -2       805       897       898      3522      3527      3525
 -1      1688    8    0    1
 -2       777       890       872      3496      3528      3446
 -1      1689    8    0    1
 -2       807       804       899      3241      3529      3530
 -1      1690    8    0    1
 -2       875       704       814      3455      3273      3531
 -1      1691    8    0    1
 -2       781       791       900      3187      3532      3533
 -1      1692    8    0    1
 -2       781       900       874      3533      3534      3453
 -1      1693    8    0    1
 -2       782       874       901      3454      3535      3536
 -1      1694    8    0    1
 -2       804       875       902      3457      3537      3538
 -1      1695    8    0    1
 -2       804       902       899      3538      3539      3529
 -1      1696    8    0    1
 -2       878       784       883      3464      3475      3540
 -1      1697    8    0    1
 -2       707       885       881      3480      3541      3470
 -1      1698    8    0    1
 -2       787       879       903      3467      3542      3543
 -1      1699    8    0    1
 -2       787       903       885      3543      3544      3479
 -1      1700    8    0    1
 -2       783       856       791      3400      3545      3188
 -1      1701    8    0    1
 -2       886       717       899      3481      3546      3547
 -1      1702    8    0    1
 -2       884       796       904      3476      3548      3549
 -1      1703    8    0    1
 -2       796       809       904      3252      3550      3548
 -1      1704    8    0    1
 -2       792       881       882      3471      3551      3472
 -1      1705    8    0    1
 -2       779       808       905      3246      3552      3553
 -1      1706    8    0    1
 -2       779       905       893      3553      3554      3505
 -1      1707    8    0    1
 -2       811       782       901      3262      3536      3555
 -1      1708    8    0    1
 -2       799       810       906      3258      3556      3557
 -1      1709    8    0    1
 -2       799       906       879      3557      3558      3466
 -1      1710    8    0    1
 -2       717       797       899      3205      3559      3546
 -1      1711    8    0    1
 -2       814       802       907      3274      3560      3561
 -1      1712    8    0    1
 -2       817       801       908      3282      3562      3563
 -1      1713    8    0    1
 -2       801       815       909      3278      3564      3565
 -1      1714    8    0    1
 -2       801       909       908      3565      3566      3562
 -1      1715    8    0    1
 -2       802       813       910      3269      3567      3568
 -1      1716    8    0    1
 -2       802       910       907      3568      3569      3560
 -1      1717    8    0    1
 -2       809       817       911      3284      3570      3571
 -1      1718    8    0    1
 -2       880       887       912      3486      3572      3573
 -1      1719    8    0    1
 -2       887       893       912      3507      3574      3572
 -1      1720    8    0    1
 -2       878       883       913      3540      3575      3576
 -1      1721    8    0    1
 -2       820       819       914      3292      3577      3578
 -1      1722    8    0    1
 -2       821       820       915      3295      3579      3580
 -1      1723    8    0    1
 -2       820       914       915      3578      3581      3579
 -1      1724    8    0    1
 -2       822       821       916      3298      3582      3583
 -1      1725    8    0    1
 -2       821       915       916      3580      3584      3582
 -1      1726    8    0    1
 -2       823       822       917      3301      3585      3586
 -1      1727    8    0    1
 -2       822       916       917      3583      3587      3585
 -1      1728    8    0    1
 -2       824       823       918      3304      3588      3589
 -1      1729    8    0    1
 -2       823       917       918      3586      3590      3588
 -1      1730    8    0    1
 -2       825       824       919      3307      3591      3592
 -1      1731    8    0    1
 -2       824       918       919      3589      3593      3591
 -1      1732    8    0    1
 -2       826       825       920      3310      3594      3595
 -1      1733    8    0    1
 -2       825       919       920      3592      3596      3594
 -1      1734    8    0    1
 -2       827       826       921      3313      3597      3598
 -1      1735    8    0    1
 -2       826       920       921      3595      3599      3597
 -1      1736    8    0    1
 -2       828       827       922      3316      3600      3601
 -1      1737    8    0    1
 -2       827       921       922      3598      3602      3600
 -1      1738    8    0    1
 -2       829       828       923      3319      3603      3604
 -1      1739    8    0    1
 -2       828       922       923      3601      3605      3603
 -1      1740    8    0    1
 -2       830       829       924      3322      3606      3607
 -1      1741    8    0    1
 -2       829       923       924      3604      3608      3606
 -1      1742    8    0    1
 -2       831       830       925      3325      3609      3610
 -1      1743    8    0    1
 -2       830       924       925      3607      3611      3609
 -1      1744    8    0    1
 -2       832       831       926      3328      3612      3613
 -1      1745    8    0    1
 -2       831       925       926      3610      3614      3612
 -1      1746    8    0    1
 -2       833       832       927      3331      3615      3616
 -1      1747    8    0    1
 -2       832       926       927      3613      3617      3615
 -1      1748    8    0    1
 -2       834       833       928      3334      3618      3619
 -1      1749    8    0    1
 -2       833       927       928      3616      3620      3618
 -1      1750    8    0    1
 -2       835       834       929      3337      3621      3622
 -1      1751    8    0    1
 -2       834       928       929      3619      3623      3621
 -1      1752    8    0    1
 -2       836       835       930      3340      3624      3625
 -1      1753    8    0    1
 -2       835       929       930      3622      3626      3624
 -1      1754    8    0    1
 -2       837       836       931      3343      3627      3628
 -1      1755    8    0    1
 -2       836       930       931      3625      3629      3627
 -1      1756    8    0    1
 -2       838       837       932      3346      3630      3631
 -1      1757    8    0    1
 -2       837       931       932      3628      3632      3630
 -1      1758    8    0    1
 -2       839       838       933      3349      3633      3634
 -1      1759    8    0    1
 -2       838       932       933      3631      3635      3633
 -1      1760    8    0    1
 -2       840       839       934      3352      3636      3637
 -1      1761    8    0    1
 -2       839       933       934      3634      3638      3636
 -1      1762    8    0    1
 -2       841       840       935      3355      3639      3640
 -1      1763    8    0    1
 -2       840       934       935      3637      3641      3639
 -1      1764    8    0    1
 -2       842       841       936      3358      3642      3643
 -1      1765    8    0    1
 -2       841       935       936      3640      3644      3642
 -1      1766    8    0    1
 -2       843       842       937      3361      3645      3646
 -1      1767    8    0    1
 -2       842       936       937      3643      3647      3645
 -1      1768    8    0    1
 -2       844       843       938      3364      3648      3649
 -1      1769    8    0    1
 -2       843       937       938      3646      3650      3648
 -1      1770    8    0    1
 -2       845       844       939      3367      3651      3652
 -1      1771    8    0    1
 -2       844       938       939      3649      3653      3651
 -1      1772    8    0    1
 -2       846       845       940      3370      3654      3655
 -1      1773    8    0    1
 -2       845       939       940      3652      3656      3654
 -1      1774    8    0    1
 -2       847       846       941      3373      3657      3658
 -1      1775    8    0    1
 -2       846       940       941      3655      3659      3657
 -1      1776    8    0    1
 -2       848       847       942      3376      3660      3661
 -1      1777    8    0    1
 -2       847       941       942      3658      3662      3660
 -1      1778    8    0    1
 -2       849       848       943      3379      3663      3664
 -1      1779    8    0    1
 -2       848       942       943      3661      3665      3663
 -1      1780    8    0    1
 -2       850       849       944      3382      3666      3667
 -1      1781    8    0    1
 -2       849       943       944      3664      3668      3666
 -1      1782    8    0    1
 -2       851       850       945      3385      3669      3670
 -1      1783    8    0    1
 -2       850       944       945      3667      3671      3669
 -1      1784    8    0    1
 -2       852       851       946      3388      3672      3673
 -1      1785    8    0    1
 -2       851       945       946      3670      3674      3672
 -1      1786    8    0    1
 -2       853       852       947      3391      3675      3676
 -1      1787    8    0    1
 -2       852       946       947      3673      3677      3675
 -1      1788    8    0    1
 -2       854       853       948      3394      3678      3679
 -1      1789    8    0    1
 -2       853       947       948      3676      3680      3678
 -1      1790    8    0    1
 -2       855       854       949      3397      3681      3682
 -1      1791    8    0    1
 -2       854       948       949      3679      3683      3681
 -1      1792    8    0    1
 -2       856       855       900      3401      3684      3685
 -1      1793    8    0    1
 -2       859       860       950      3412      3686      3687
 -1      1794    8    0    1
 -2       857       858       951      3406      3688      3689
 -1      1795    8    0    1
 -2       875       814       952      3531      3690      3691
 -1      1796    8    0    1
 -2       902       875       952      3537      3691      3692
 -1      1797    8    0    1
 -2       814       907       952      3561      3693      3690
 -1      1798    8    0    1
 -2       860       861       953      3415      3694      3695
 -1      1799    8    0    1
 -2       860       953       950      3695      3696      3686
 -1      1800    8    0    1
 -2       861       862       954      3418      3697      3698
 -1      1801    8    0    1
 -2       861       954       953      3698      3699      3694
 -1      1802    8    0    1
 -2       862       863       955      3421      3700      3701
 -1      1803    8    0    1
 -2       862       955       954      3701      3702      3697
 -1      1804    8    0    1
 -2       863       864       956      3424      3703      3704
 -1      1805    8    0    1
 -2       863       956       955      3704      3705      3700
 -1      1806    8    0    1
 -2       864       865       957      3427      3706      3707
 -1      1807    8    0    1
 -2       864       957       956      3707      3708      3703
 -1      1808    8    0    1
 -2       865       866       958      3430      3709      3710
 -1      1809    8    0    1
 -2       865       958       957      3710      3711      3706
 -1      1810    8    0    1
 -2       866       867       959      3433      3712      3713
 -1      1811    8    0    1
 -2       866       959       958      3713      3714      3709
 -1      1812    8    0    1
 -2       867       868       960      3436      3715      3716
 -1      1813    8    0    1
 -2       867       960       959      3716      3717      3712
 -1      1814    8    0    1
 -2       868       869       961      3439      3718      3719
 -1      1815    8    0    1
 -2       868       961       960      3719      3720      3715
 -1      1816    8    0    1
 -2       869       870       962      3442      3721      3722
 -1      1817    8    0    1
 -2       869       962       961      3722      3723      3718
 -1      1818    8    0    1
 -2       870       871       963      3445      3724      3725
 -1      1819    8    0    1
 -2       870       963       962      3725      3726      3721
 -1      1820    8    0    1
 -2       871       872       964      3448      3727      3728
 -1      1821    8    0    1
 -2       871       964       963      3728      3729      3724
 -1      1822    8    0    1
 -2       901       874       965      3535      3730      3731
 -1      1823    8    0    1
 -2       872       890       966      3528      3732      3733
 -1      1824    8    0    1
 -2       872       966       964      3733      3734      3727
 -1      1825    8    0    1
 -2       876       816       967      3460      3735      3736
 -1      1826    8    0    1
 -2       873       888       968      3524      3737      3738
 -1      1827    8    0    1
 -2       882       881       969      3551      3739      3740
 -1      1828    8    0    1
 -2       881       885       970      3541      3741      3742
 -1      1829    8    0    1
 -2       881       970       969      3742      3743      3739
 -1      1830    8    0    1
 -2       877       884       971      3478      3744      3745
 -1      1831    8    0    1
 -2       791       856       900      3545      3685      3532
 -1      1832    8    0    1
 -2       818       886       972      3483      3746      3747
 -1      1833    8    0    1
 -2       883       892       973      3504      3748      3749
 -1      1834    8    0    1
 -2       889       857       974      3493      3750      3751
 -1      1835    8    0    1
 -2       857       951       974      3689      3752      3750
 -1      1836    8    0    1
 -2       890       882       966      3497      3753      3732
 -1      1837    8    0    1
 -2       813       812       975      3270      3754      3755
 -1      1838    8    0    1
 -2       910       813       975      3567      3755      3756
 -1      1839    8    0    1
 -2       812       873       975      3452      3757      3754
 -1      1840    8    0    1
 -2       897       878       976      3523      3758      3759
 -1      1841    8    0    1
 -2       898       897       976      3527      3759      3760
 -1      1842    8    0    1
 -2       878       913       976      3576      3761      3758
 -1      1843    8    0    1
 -2       888       876       977      3490      3762      3763
 -1      1844    8    0    1
 -2       876       967       977      3736      3764      3762
 -1      1845    8    0    1
 -2       817       908       978      3563      3765      3766
 -1      1846    8    0    1
 -2       817       978       911      3766      3767      3570
 -1      1847    8    0    1
 -2       819       818       979      3289      3768      3769
 -1      1848    8    0    1
 -2       818       972       979      3747      3770      3768
 -1      1849    8    0    1
 -2       886       899       972      3547      3771      3746
 -1      1850    8    0    1
 -2       815       806       980      3279      3772      3773
 -1      1851    8    0    1
 -2       909       815       980      3564      3773      3774
 -1      1852    8    0    1
 -2       806       898       980      3526      3775      3772
 -1      1853    8    0    1
 -2       808       811       905      3261      3776      3552
 -1      1854    8    0    1
 -2       858       859       981      3409      3777      3778
 -1      1855    8    0    1
 -2       858       981       951      3778      3779      3688
 -1      1856    8    0    1
 -2       880       912       895      3573      3780      3515
 -1      1857    8    0    1
 -2       913       883       973      3575      3749      3781
 -1      1858    8    0    1
 -2       855       949       900      3682      3782      3684
 -1      1859    8    0    1
 -2       859       950       981      3687      3783      3777
 -1      1860    8    0    1
 -2       966       882       969      3753      3740      3784
 -1      1861    8    0    1
 -2       901       965       982      3731      3785      3786
 -1      1862    8    0    1
 -2       972       899       902      3771      3539      3787
 -1      1863    8    0    1
 -2       892       895       983      3514      3788      3789
 -1      1864    8    0    1
 -2       892       983       973      3789      3790      3748
 -1      1865    8    0    1
 -2       879       906       984      3558      3791      3792
 -1      1866    8    0    1
 -2       967       816       985      3735      3793      3794
 -1      1867    8    0    1
 -2       816       891       985      3500      3795      3793
 -1      1868    8    0    1
 -2       873       968       975      3738      3796      3757
 -1      1869    8    0    1
 -2       914       819       979      3577      3769      3797
 -1      1870    8    0    1
 -2       903       879       984      3542      3792      3798
 -1      1871    8    0    1
 -2       901       982       905      3786      3799      3800
 -1      1872    8    0    1
 -2       904       809       911      3550      3571      3801
 -1      1873    8    0    1
 -2       884       904       986      3549      3802      3803
 -1      1874    8    0    1
 -2       884       986       971      3803      3804      3744
 -1      1875    8    0    1
 -2       912       893       905      3574      3554      3805
 -1      1876    8    0    1
 -2       888       977       968      3763      3806      3737
 -1      1877    8    0    1
 -2       901       905       811      3800      3776      3555
 -1      1878    8    0    1
 -2       810       894       987      3510      3807      3808
 -1      1879    8    0    1
 -2       906       810       987      3556      3808      3809
 -1      1880    8    0    1
 -2       907       910       988      3569      3810      3811
 -1      1881    8    0    1
 -2       885       903       989      3544      3812      3813
 -1      1882    8    0    1
 -2       885       989       970      3813      3814      3741
 -1      1883    8    0    1
 -2       978       908       990      3765      3815      3816
 -1      1884    8    0    1
 -2       907       988       991      3811      3817      3818
 -1      1885    8    0    1
 -2       907       991       952      3818      3819      3693
 -1      1886    8    0    1
 -2       894       877       992      3511      3820      3821
 -1      1887    8    0    1
 -2       987       894       992      3807      3821      3822
 -1      1888    8    0    1
 -2       877       971       992      3745      3823      3820
 -1      1889    8    0    1
 -2       908       909       993      3566      3824      3825
 -1      1890    8    0    1
 -2       908       993       990      3825      3826      3815
 -1      1891    8    0    1
 -2       891       889       994      3501      3827      3828
 -1      1892    8    0    1
 -2       985       891       994      3795      3828      3829
 -1      1893    8    0    1
 -2       889       974       994      3751      3830      3827
 -1      1894    8    0    1
 -2       874       900       995      3534      3831      3832
 -1      1895    8    0    1
 -2       965       874       995      3730      3832      3833
 -1      1896    8    0    1
 -2       900       949       995      3782      3834      3831
 -1      1897    8    0    1
 -2       953       954       996      3699      3835      3836
 -1      1898    8    0    1
 -2       977       967       997      3764      3837      3838
 -1      1899    8    0    1
 -2       954       955       998      3702      3839      3840
 -1      1900    8    0    1
 -2       954       998       996      3840      3841      3835
 -1      1901    8    0    1
 -2       916       915       999      3584      3842      3843
 -1      1902    8    0    1
 -2       917       916      1000      3587      3844      3845
 -1      1903    8    0    1
 -2       916       999      1000      3843      3846      3844
 -1      1904    8    0    1
 -2       918       917      1001      3590      3847      3848
 -1      1905    8    0    1
 -2       917      1000      1001      3845      3849      3847
 -1      1906    8    0    1
 -2       919       918      1002      3593      3850      3851
 -1      1907    8    0    1
 -2       918      1001      1002      3848      3852      3850
 -1      1908    8    0    1
 -2       920       919      1003      3596      3853      3854
 -1      1909    8    0    1
 -2       919      1002      1003      3851      3855      3853
 -1      1910    8    0    1
 -2       921       920      1004      3599      3856      3857
 -1      1911    8    0    1
 -2       920      1003      1004      3854      3858      3856
 -1      1912    8    0    1
 -2       922       921      1005      3602      3859      3860
 -1      1913    8    0    1
 -2       921      1004      1005      3857      3861      3859
 -1      1914    8    0    1
 -2       923       922      1006      3605      3862      3863
 -1      1915    8    0    1
 -2       922      1005      1006      3860      3864      3862
 -1      1916    8    0    1
 -2       924       923      1007      3608      3865      3866
 -1      1917    8    0    1
 -2       923      1006      1007      3863      3867      3865
 -1      1918    8    0    1
 -2       925       924      1008      3611      3868      3869
 -1      1919    8    0    1
 -2       924      1007      1008      3866      3870      3868
 -1      1920    8    0    1
 -2       926       925      1009      3614      3871      3872
 -1      1921    8    0    1
 -2       925      1008      1009      3869      3873      3871
 -1      1922    8    0    1
 -2       927       926      1010      3617      3874      3875
 -1      1923    8    0    1
 -2       926      1009      1010      3872      3876      3874
 -1      1924    8    0    1
 -2       928       927      1011      3620      3877      3878
 -1      1925    8    0    1
 -2       927      1010      1011      3875      3879      3877
 -1      1926    8    0    1
 -2       929       928      1012      3623      3880      3881
 -1      1927    8    0    1
 -2       928      1011      1012      3878      3882      3880
 -1      1928    8    0    1
 -2       930       929      1013      3626      3883      3884
 -1      1929    8    0    1
 -2       929      1012      1013      3881      3885      3883
 -1      1930    8    0    1
 -2       931       930      1014      3629      3886      3887
 -1      1931    8    0    1
 -2       930      1013      1014      3884      3888      3886
 -1      1932    8    0    1
 -2       932       931      1015      3632      3889      3890
 -1      1933    8    0    1
 -2       931      1014      1015      3887      3891      3889
 -1      1934    8    0    1
 -2       933       932      1016      3635      3892      3893
 -1      1935    8    0    1
 -2       932      1015      1016      3890      3894      3892
 -1      1936    8    0    1
 -2       934       933      1017      3638      3895      3896
 -1      1937    8    0    1
 -2       933      1016      1017      3893      3897      3895
 -1      1938    8    0    1
 -2       935       934       989      3641      3898      3899
 -1      1939    8    0    1
 -2       937       936       984      3647      3900      3901
 -1      1940    8    0    1
 -2       939       938       987      3653      3902      3903
 -1      1941    8    0    1
 -2       940       939       992      3656      3904      3905
 -1      1942    8    0    1
 -2       941       940       971      3659      3906      3907
 -1      1943    8    0    1
 -2       942       941       986      3662      3908      3909
 -1      1944    8    0    1
 -2       944       943      1018      3668      3910      3911
 -1      1945    8    0    1
 -2       945       944      1019      3671      3912      3913
 -1      1946    8    0    1
 -2       944      1018      1019      3911      3914      3912
 -1      1947    8    0    1
 -2       946       945      1020      3674      3915      3916
 -1      1948    8    0    1
 -2       945      1019      1020      3913      3917      3915
 -1      1949    8    0    1
 -2       947       946      1021      3677      3918      3919
 -1      1950    8    0    1
 -2       946      1020      1021      3916      3920      3918
 -1      1951    8    0    1
 -2       948       947      1022      3680      3921      3922
 -1      1952    8    0    1
 -2       947      1021      1022      3919      3923      3921
 -1      1953    8    0    1
 -2       949       948      1023      3683      3924      3925
 -1      1954    8    0    1
 -2       995       949      1023      3834      3925      3926
 -1      1955    8    0    1
 -2       948      1022      1023      3922      3927      3924
 -1      1956    8    0    1
 -2       981       950      1024      3783      3928      3929
 -1      1957    8    0    1
 -2       982       965      1025      3785      3930      3931
 -1      1958    8    0    1
 -2       902       952      1026      3692      3932      3933
 -1      1959    8    0    1
 -2       952       991      1026      3819      3934      3932
 -1      1960    8    0    1
 -2       910       975      1027      3756      3935      3936
 -1      1961    8    0    1
 -2       988       910      1027      3810      3936      3937
 -1      1962    8    0    1
 -2       975       968      1027      3796      3938      3935
 -1      1963    8    0    1
 -2       955       956      1028      3705      3939      3940
 -1      1964    8    0    1
 -2       955      1028       998      3940      3941      3839
 -1      1965    8    0    1
 -2       956       957      1029      3708      3942      3943
 -1      1966    8    0    1
 -2       956      1029      1028      3943      3944      3939
 -1      1967    8    0    1
 -2       957       958      1030      3711      3945      3946
 -1      1968    8    0    1
 -2       957      1030      1029      3946      3947      3942
 -1      1969    8    0    1
 -2       958       959      1031      3714      3948      3949
 -1      1970    8    0    1
 -2       958      1031      1030      3949      3950      3945
 -1      1971    8    0    1
 -2       959       960      1032      3717      3951      3952
 -1      1972    8    0    1
 -2       959      1032      1031      3952      3953      3948
 -1      1973    8    0    1
 -2       960       961      1033      3720      3954      3955
 -1      1974    8    0    1
 -2       960      1033      1032      3955      3956      3951
 -1      1975    8    0    1
 -2       961       962      1034      3723      3957      3958
 -1      1976    8    0    1
 -2       961      1034      1033      3958      3959      3954
 -1      1977    8    0    1
 -2       962       963      1035      3726      3960      3961
 -1      1978    8    0    1
 -2       962      1035      1034      3961      3962      3957
 -1      1979    8    0    1
 -2       963       964      1036      3729      3963      3964
 -1      1980    8    0    1
 -2       963      1036      1035      3964      3965      3960
 -1      1981    8    0    1
 -2       972       902      1026      3787      3933      3966
 -1      1982    8    0    1
 -2       911       978      1018      3767      3967      3968
 -1      1983    8    0    1
 -2       895       912       983      3780      3969      3788
 -1      1984    8    0    1
 -2       807       899       896      3530      3970      3519
 -1      1985    8    0    1
 -2       937       984       906      3901      3791      3971
 -1      1986    8    0    1
 -2       939       987       992      3903      3822      3904
 -1      1987    8    0    1
 -2       941       971       986      3907      3804      3908
 -1      1988    8    0    1
 -2       964       966      1037      3734      3972      3973
 -1      1989    8    0    1
 -2       964      1037      1036      3973      3974      3963
 -1      1990    8    0    1
 -2       915       914      1038      3581      3975      3976
 -1      1991    8    0    1
 -2       915      1038       999      3976      3977      3842
 -1      1992    8    0    1
 -2       971       940       992      3906      3905      3823
 -1      1993    8    0    1
 -2       905       982       912      3799      3978      3805
 -1      1994    8    0    1
 -2       904       911      1039      3801      3979      3980
 -1      1995    8    0    1
 -2       986       904      1039      3802      3980      3981
 -1      1996    8    0    1
 -2       911      1018      1039      3968      3982      3979
 -1      1997    8    0    1
 -2       950       953      1040      3696      3983      3984
 -1      1998    8    0    1
 -2       953       996      1040      3836      3985      3983
 -1      1999    8    0    1
 -2       987       938       906      3902      3986      3809
 -1      2000    8    0    1
 -2       969       970      1041      3743      3987      3988
 -1      2001    8    0    1
 -2       951       981      1042      3779      3989      3990
 -1      2002    8    0    1
 -2       981      1024      1042      3929      3991      3989
 -1      2003    8    0    1
 -2       974       951      1043      3752      3992      3993
 -1      2004    8    0    1
 -2       951      1042      1043      3990      3994      3992
 -1      2005    8    0    1
 -2       913       973      1044      3781      3995      3996
 -1      2006    8    0    1
 -2       906       938       937      3986      3650      3971
 -1      2007    8    0    1
 -2       968       977      1045      3806      3997      3998
 -1      2008    8    0    1
 -2      1027       968      1045      3938      3998      3999
 -1      2009    8    0    1
 -2       977       997      1045      3838      4000      3997
 -1      2010    8    0    1
 -2       914       979      1046      3797      4001      4002
 -1      2011    8    0    1
 -2       914      1046      1038      4002      4003      3975
 -1      2012    8    0    1
 -2       978       990      1019      3816      4004      4005
 -1      2013    8    0    1
 -2       912       982      1047      3978      4006      4007
 -1      2014    8    0    1
 -2       983       912      1047      3969      4007      4008
 -1      2015    8    0    1
 -2       982      1025      1047      3931      4009      4006
 -1      2016    8    0    1
 -2       979       972      1048      3770      4010      4011
 -1      2017    8    0    1
 -2      1046       979      1048      4001      4011      4012
 -1      2018    8    0    1
 -2       972      1026      1048      3966      4013      4010
 -1      2019    8    0    1
 -2       966       969      1037      3784      4014      3972
 -1      2020    8    0    1
 -2       909       980      1049      3774      4015      4016
 -1      2021    8    0    1
 -2       909      1049       993      4016      4017      3824
 -1      2022    8    0    1
 -2       935       989       903      3899      3812      4018
 -1      2023    8    0    1
 -2       989       934      1017      3898      3896      4019
 -1      2024    8    0    1
 -2       936       935       903      3644      4018      4020
 -1      2025    8    0    1
 -2       942       986      1039      3909      3981      4021
 -1      2026    8    0    1
 -2       974      1043      1050      3993      4022      4023
 -1      2027    8    0    1
 -2       974      1050       994      4023      4024      3830
 -1      2028    8    0    1
 -2       943       942      1039      3665      4021      4025
 -1      2029    8    0    1
 -2      1024       950      1040      3928      3984      4026
 -1      2030    8    0    1
 -2      1037       969      1041      4014      3988      4027
 -1      2031    8    0    1
 -2      1018       978      1019      3967      4005      3914
 -1      2032    8    0    1
 -2       967       985      1051      3794      4028      4029
 -1      2033    8    0    1
 -2       967      1051       997      4029      4030      3837
 -1      2034    8    0    1
 -2      1018       943      1039      3910      4025      3982
 -1      2035    8    0    1
 -2       973       983      1052      3790      4031      4032
 -1      2036    8    0    1
 -2      1044       973      1052      3995      4032      4033
 -1      2037    8    0    1
 -2       983      1047      1052      4008      4034      4031
 -1      2038    8    0    1
 -2       913      1044      1053      3996      4035      4036
 -1      2039    8    0    1
 -2       913      1053       976      4036      4037      3761
 -1      2040    8    0    1
 -2       970       989      1054      3814      4038      4039
 -1      2041    8    0    1
 -2      1041       970      1054      3987      4039      4040
 -1      2042    8    0    1
 -2       989      1017      1054      4019      4041      4038
 -1      2043    8    0    1
 -2       965       995      1055      3833      4042      4043
 -1      2044    8    0    1
 -2      1025       965      1055      3930      4043      4044
 -1      2045    8    0    1
 -2       995      1023      1055      3926      4045      4042
 -1      2046    8    0    1
 -2       988      1027      1056      3937      4046      4047
 -1      2047    8    0    1
 -2      1027      1045      1056      3999      4048      4046
 -1      2048    8    0    1
 -2       980       898       976      3775      3760      4049
 -1      2049    8    0    1
 -2       990       993      1057      3826      4050      4051
 -1      2050    8    0    1
 -2       991       988      1056      3817      4047      4052
 -1      2051    8    0    1
 -2      1038      1046      1058      4003      4053      4054
 -1      2052    8    0    1
 -2      1026       991      1059      3934      4055      4056
 -1      2053    8    0    1
 -2      1026      1059      1048      4056      4057      4013
 -1      2054    8    0    1
 -2       996       998      1060      3841      4058      4059
 -1      2055    8    0    1
 -2      1001      1000      1061      3849      4060      4061
 -1      2056    8    0    1
 -2      1002      1001      1062      3852      4062      4063
 -1      2057    8    0    1
 -2      1001      1061      1062      4061      4064      4062
 -1      2058    8    0    1
 -2      1003      1002      1063      3855      4065      4066
 -1      2059    8    0    1
 -2      1002      1062      1063      4063      4067      4065
 -1      2060    8    0    1
 -2      1004      1003      1064      3858      4068      4069
 -1      2061    8    0    1
 -2      1003      1063      1064      4066      4070      4068
 -1      2062    8    0    1
 -2      1005      1004      1065      3861      4071      4072
 -1      2063    8    0    1
 -2      1004      1064      1065      4069      4073      4071
 -1      2064    8    0    1
 -2      1006      1005      1066      3864      4074      4075
 -1      2065    8    0    1
 -2      1005      1065      1066      4072      4076      4074
 -1      2066    8    0    1
 -2      1007      1006      1067      3867      4077      4078
 -1      2067    8    0    1
 -2      1006      1066      1067      4075      4079      4077
 -1      2068    8    0    1
 -2      1008      1007      1068      3870      4080      4081
 -1      2069    8    0    1
 -2      1007      1067      1068      4078      4082      4080
 -1      2070    8    0    1
 -2      1009      1008      1069      3873      4083      4084
 -1      2071    8    0    1
 -2      1008      1068      1069      4081      4085      4083
 -1      2072    8    0    1
 -2      1010      1009      1070      3876      4086      4087
 -1      2073    8    0    1
 -2      1009      1069      1070      4084      4088      4086
 -1      2074    8    0    1
 -2      1011      1010      1071      3879      4089      4090
 -1      2075    8    0    1
 -2      1010      1070      1071      4087      4091      4089
 -1      2076    8    0    1
 -2      1012      1011      1072      3882      4092      4093
 -1      2077    8    0    1
 -2      1011      1071      1072      4090      4094      4092
 -1      2078    8    0    1
 -2      1013      1012      1073      3885      4095      4096
 -1      2079    8    0    1
 -2      1012      1072      1073      4093      4097      4095
 -1      2080    8    0    1
 -2      1014      1013      1074      3888      4098      4099
 -1      2081    8    0    1
 -2      1013      1073      1074      4096      4100      4098
 -1      2082    8    0    1
 -2      1015      1014      1075      3891      4101      4102
 -1      2083    8    0    1
 -2      1014      1074      1075      4099      4103      4101
 -1      2084    8    0    1
 -2      1016      1015      1076      3894      4104      4105
 -1      2085    8    0    1
 -2      1015      1075      1076      4102      4106      4104
 -1      2086    8    0    1
 -2      1017      1016      1054      3897      4107      4041
 -1      2087    8    0    1
 -2      1021      1020      1077      3920      4108      4109
 -1      2088    8    0    1
 -2      1022      1021      1078      3923      4110      4111
 -1      2089    8    0    1
 -2      1021      1077      1078      4109      4112      4110
 -1      2090    8    0    1
 -2      1037      1041      1079      4027      4113      4114
 -1      2091    8    0    1
 -2      1030      1031      1080      3950      4115      4116
 -1      2092    8    0    1
 -2      1031      1032      1081      3953      4117      4118
 -1      2093    8    0    1
 -2      1031      1081      1080      4118      4119      4115
 -1      2094    8    0    1
 -2      1032      1033      1082      3956      4120      4121
 -1      2095    8    0    1
 -2      1032      1082      1081      4121      4122      4117
 -1      2096    8    0    1
 -2      1033      1034      1083      3959      4123      4124
 -1      2097    8    0    1
 -2      1033      1083      1082      4124      4125      4120
 -1      2098    8    0    1
 -2      1034      1035      1084      3962      4126      4127
 -1      2099    8    0    1
 -2      1034      1084      1083      4127      4128      4123
 -1      2100    8    0    1
 -2      1035      1036      1085      3965      4129      4130
 -1      2101    8    0    1
 -2      1035      1085      1084      4130      4131      4126
 -1      2102    8    0    1
 -2       999      1038      1086      3977      4132      4133
 -1      2103    8    0    1
 -2      1038      1058      1086      4054      4134      4132
 -1      2104    8    0    1
 -2       936       903       984      4020      3798      3900
 -1      2105    8    0    1
 -2      1036      1037      1079      3974      4114      4135
 -1      2106    8    0    1
 -2      1040       996      1087      3985      4136      4137
 -1      2107    8    0    1
 -2       996      1060      1087      4059      4138      4136
 -1      2108    8    0    1
 -2      1042      1024      1088      3991      4139      4140
 -1      2109    8    0    1
 -2      1043      1042      1089      3994      4141      4142
 -1      2110    8    0    1
 -2      1042      1088      1089      4140      4143      4141
 -1      2111    8    0    1
 -2       998      1028      1090      3941      4144      4145
 -1      2112    8    0    1
 -2       998      1090      1060      4145      4146      4058
 -1      2113    8    0    1
 -2      1029      1030      1091      3947      4147      4148
 -1      2114    8    0    1
 -2      1030      1080      1091      4116      4149      4147
 -1      2115    8    0    1
 -2       985       994      1092      3829      4150      4151
 -1      2116    8    0    1
 -2       994      1050      1092      4024      4152      4150
 -1      2117    8    0    1
 -2      1019       990      1077      4004      4153      4154
 -1      2118    8    0    1
 -2       899       797       896      3559      3518      3970
 -1      2119    8    0    1
 -2      1000       999      1093      3846      4155      4156
 -1      2120    8    0    1
 -2       999      1086      1093      4133      4157      4155
 -1      2121    8    0    1
 -2      1057       993      1094      4050      4158      4159
 -1      2122    8    0    1
 -2       993      1049      1094      4017      4160      4158
 -1      2123    8    0    1
 -2       991      1056      1059      4052      4161      4055
 -1      2124    8    0    1
 -2       980       976      1049      4049      4162      4015
 -1      2125    8    0    1
 -2      1028      1029      1095      3944      4163      4164
 -1      2126    8    0    1
 -2      1090      1028      1095      4144      4164      4165
 -1      2127    8    0    1
 -2      1029      1091      1095      4148      4166      4163
 -1      2128    8    0    1
 -2      1024      1040      1096      4026      4167      4168
 -1      2129    8    0    1
 -2      1088      1024      1096      4139      4168      4169
 -1      2130    8    0    1
 -2      1040      1087      1096      4137      4170      4167
 -1      2131    8    0    1
 -2      1054      1016      1076      4107      4105      4171
 -1      2132    8    0    1
 -2       997      1051      1097      4030      4172      4173
 -1      2133    8    0    1
 -2      1078      1077      1098      4112      4174      4175
 -1      2134    8    0    1
 -2      1045       997      1099      4000      4176      4177
 -1      2135    8    0    1
 -2      1056      1045      1099      4048      4177      4178
 -1      2136    8    0    1
 -2       997      1097      1099      4173      4179      4176
 -1      2137    8    0    1
 -2      1050      1043      1100      4022      4180      4181
 -1      2138    8    0    1
 -2      1043      1089      1100      4142      4182      4180
 -1      2139    8    0    1
 -2      1079      1041      1076      4113      4183      4184
 -1      2140    8    0    1
 -2      1023      1022      1101      3927      4185      4186
 -1      2141    8    0    1
 -2      1055      1023      1101      4045      4186      4187
 -1      2142    8    0    1
 -2      1022      1078      1101      4111      4188      4185
 -1      2143    8    0    1
 -2      1046      1048      1102      4012      4189      4190
 -1      2144    8    0    1
 -2      1058      1046      1102      4053      4190      4191
 -1      2145    8    0    1
 -2      1048      1059      1102      4057      4192      4189
 -1      2146    8    0    1
 -2       985      1092      1051      4151      4193      4028
 -1      2147    8    0    1
 -2      1057      1094      1098      4159      4194      4195
 -1      2148    8    0    1
 -2      1085      1036      1079      4129      4135      4196
 -1      2149    8    0    1
 -2      1000      1093      1061      4156      4197      4060
 -1      2150    8    0    1
 -2      1044      1052      1103      4033      4198      4199
 -1      2151    8    0    1
 -2      1025      1055      1104      4044      4200      4201
 -1      2152    8    0    1
 -2      1055      1101      1104      4187      4202      4200
 -1      2153    8    0    1
 -2      1047      1025      1104      4009      4201      4203
 -1      2154    8    0    1
 -2      1077       990      1057      4153      4051      4204
 -1      2155    8    0    1
 -2      1049       976      1053      4162      4037      4205
 -1      2156    8    0    1
 -2      1059      1056      1099      4161      4178      4206
 -1      2157    8    0    1
 -2      1041      1054      1076      4040      4171      4183
 -1      2158    8    0    1
 -2      1077      1057      1098      4204      4195      4174
 -1      2159    8    0    1
 -2      1051      1092      1105      4193      4207      4208
 -1      2160    8    0    1
 -2      1051      1105      1097      4208      4209      4172
 -1      2161    8    0    1
 -2      1063      1062      1088      4067      4210      4211
 -1      2162    8    0    1
 -2      1064      1063      1096      4070      4212      4213
 -1      2163    8    0    1
 -2      1065      1064      1087      4073      4214      4215
 -1      2164    8    0    1
 -2      1066      1065      1060      4076      4216      4217
 -1      2165    8    0    1
 -2      1067      1066      1090      4079      4218      4219
 -1      2166    8    0    1
 -2      1068      1067      1095      4082      4220      4221
 -1      2167    8    0    1
 -2      1069      1068      1091      4085      4222      4223
 -1      2168    8    0    1
 -2      1070      1069      1080      4088      4224      4225
 -1      2169    8    0    1
 -2      1071      1070      1081      4091      4226      4227
 -1      2170    8    0    1
 -2      1072      1071      1082      4094      4228      4229
 -1      2171    8    0    1
 -2      1073      1072      1083      4097      4230      4231
 -1      2172    8    0    1
 -2      1074      1073      1084      4100      4232      4233
 -1      2173    8    0    1
 -2      1075      1074      1085      4103      4234      4235
 -1      2174    8    0    1
 -2      1076      1075      1085      4106      4235      4236
 -1      2175    8    0    1
 -2      1077      1020      1019      4108      3917      4154
 -1      2176    8    0    1
 -2      1087      1064      1096      4214      4213      4170
 -1      2177    8    0    1
 -2      1047      1104      1052      4203      4237      4034
 -1      2178    8    0    1
 -2      1085      1074      1084      4234      4233      4131
 -1      2179    8    0    1
 -2      1098      1094      1103      4194      4238      4239
 -1      2180    8    0    1
 -2      1080      1081      1070      4119      4226      4225
 -1      2181    8    0    1
 -2      1083      1084      1073      4128      4232      4231
 -1      2182    8    0    1
 -2      1086      1058      1105      4134      4240      4241
 -1      2183    8    0    1
 -2      1060      1090      1066      4146      4218      4217
 -1      2184    8    0    1
 -2      1103      1052      1104      4198      4237      4242
 -1      2185    8    0    1
 -2      1082      1083      1072      4125      4230      4229
 -1      2186    8    0    1
 -2      1081      1082      1071      4122      4228      4227
 -1      2187    8    0    1
 -2      1087      1060      1065      4138      4216      4215
 -1      2188    8    0    1
 -2      1091      1080      1069      4149      4224      4223
 -1      2189    8    0    1
 -2      1053      1044      1094      4035      4243      4244
 -1      2190    8    0    1
 -2      1061      1093      1106      4197      4245      4246
 -1      2191    8    0    1
 -2      1092      1050      1107      4152      4247      4248
 -1      2192    8    0    1
 -2      1105      1092      1107      4207      4248      4249
 -1      2193    8    0    1
 -2      1050      1100      1107      4181      4250      4247
 -1      2194    8    0    1
 -2      1062      1061      1089      4064      4251      4252
 -1      2195    8    0    1
 -2      1044      1103      1094      4199      4238      4243
 -1      2196    8    0    1
 -2      1059      1099      1102      4206      4253      4192
 -1      2197    8    0    1
 -2      1091      1068      1095      4222      4221      4166
 -1      2198    8    0    1
 -2      1094      1049      1053      4160      4205      4244
 -1      2199    8    0    1
 -2      1089      1088      1062      4143      4210      4252
 -1      2200    8    0    1
 -2      1088      1096      1063      4169      4212      4211
 -1      2201    8    0    1
 -2      1078      1098      1104      4175      4254      4255
 -1      2202    8    0    1
 -2      1103      1104      1098      4242      4254      4239
 -1      2203    8    0    1
 -2      1067      1090      1095      4219      4165      4220
 -1      2204    8    0    1
 -2      1086      1105      1107      4241      4249      4256
 -1      2205    8    0    1
 -2      1076      1085      1079      4236      4196      4184
 -1      2206    8    0    1
 -2      1086      1107      1093      4256      4257      4157
 -1      2207    8    0    1
 -2      1089      1061      1100      4251      4258      4182
 -1      2208    8    0    1
 -2      1097      1105      1058      4209      4240      4259
 -1      2209    8    0    1
 -2      1099      1097      1102      4179      4260      4253
 -1      2210    8    0    1
 -2      1078      1104      1101      4255      4202      4188
 -1      2211    8    0    1
 -2      1097      1058      1102      4259      4191      4260
 -1      2212    8    0    1
 -2      1093      1107      1106      4257      4261      4245
 -1      2213    8    0    1
 -2      1107      1100      1106      4250      4262      4261
 -1      2214    8    0    1
 -2      1100      1061      1106      4258      4246      4262
 -3
    1PSTEP                         1           1           1          
  100CL  101 1.000000000        4262                     0    1           1
 -4  DISP        4    1
 -5  D1          1    2    1    0
 -5  D2          1    2    2    0
 -5  D3          1    2    3    0
 -5  ALL         1    2    0    0    1ALL
 -1         1 9.51998E-03 1.45454E-04-3.65297E-14
 -1         2 1.35901E-02 1.36553E-03-4.17187E-14
 -1         3 1.76771E-02 5.04009E-03-6.56230E-14
 -1         4 1.32736E-02 3.59765E-03-7.09225E-14
 -1         5 0.00000E+00 0.00000E+00 0.00000E+00
 -1         6 0.00000E+00 0.00000E+00 0.00000E+00
 -1         7 0.00000E+00 0.00000E+00 0.00000E+00
 -1         8 0.00000E+00 0.00000E+00 0.00000E+00
 -1         9 0.00000E+00 0.00000E+00 0.00000E+00
 -1        10 0.00000E+00 0.00000E+00 0.00000E+00
 -1        11 0.00000E+00 0.00000E+00 0.00000E+00
 -1        12 0.00000E+00 0.00000E+00 0.00000E+00
 -1        13 0.00000E+00 0.00000E+00 0.00000E+00
 -1        14 0.00000E+00 0.00000E+00 0.00000E+00
 -1        15 0.00000E+00 0.00000E+00 0.00000E+00
 -1        16 0.00000E+00 0.00000E+00 0.00000E+00
 -1        17 0.00000E+00 0.00000E+00 0.00000E+00
 -1        18 0.00000E+00 0.00000E+00 0.00000E+00
 -1        19 0.00000E+00 0.00000E+00 0.00000E+00
 -1        20 0.00000E+00 0.00000E+00 0.00000E+00
 -1        21 0.00000E+00 0.00000E+00 0.00000E+00
 -1        22 0.00000E+00 0.00000E+00 0.00000E+00
 -1        23 4.11413E-04-2.60712E-04 1.92852E-17
 -1        24 7.03454E-04-4.00926E-04-6.99209E-17
 -1        25 9.73601E-04-4.98281E-04-2.62438E-16
 -1        26 1.23819E-03-5.67016E-04-5.56084E-16
 -1        27 1.50184E-03-6.16279E-04-9.47789E-16
 -1        28 1.76666E-03-6.51463E-04-1.43305E-15
 -1        29 2.03359E-03-6.76286E-04-2.01233E-15
 -1        30 2.30302E-03-6.93457E-04-2.68186E-15
 -1        31 2.57499E-03-7.05012E-04-3.44125E-15
 -1        32 2.84938E-03-7.12499E-04-4.28714E-15
 -1        33 3.12595E-03-7.17098E-04-5.21495E-15
 -1        34 3.40444E-03-7.19708E-04-6.21941E-15
 -1        35 3.68455E-03-7.21006E-04-7.30019E-15
 -1        36 3.96600E-03-7.21505E-04-8.45677E-15
 -1        37 4.24855E-03-7.21591E-04-9.68488E-15
 -1        38 4.53192E-03-7.21557E-04-1.09740E-14
 -1        39 4.81591E-03-7.21635E-04-1.23220E-14
 -1        40 5.10027E-03-7.22011E-04-1.37246E-14
 -1        41 5.38475E-03-7.22846E-04-1.51794E-14
 -1        42 5.66904E-03-7.24275E-04-1.66862E-14
 -1        43 5.95276E-03-7.26404E-04-1.82403E-14
 -1        44 6.23539E-03-7.29279E-04-1.98402E-14
 -1        45 6.51620E-03-7.32840E-04-2.14871E-14
 -1        46 6.79426E-03-7.36824E-04-2.31816E-14
 -1        47 7.06833E-03-7.40645E-04-2.49161E-14
 -1        48 7.33690E-03-7.43213E-04-2.66878E-14
 -1        49 7.59827E-03-7.42750E-04-2.84815E-14
 -1        50 7.85069E-03-7.36610E-04-3.03020E-14
 -1        51 8.09268E-03-7.21198E-04-3.21437E-14
 -1        52 8.32340E-03-6.92059E-04-3.40107E-14
 -1        53 8.54307E-03-6.44227E-04-3.58947E-14
 -1        54 8.75321E-03-5.72827E-04-3.77973E-14
 -1        55 8.95671E-03-4.73861E-04-3.97151E-14
 -1        56 9.15754E-03-3.44962E-04-4.16427E-14
 -1        57 9.36011E-03-1.85884E-04-4.35733E-14
 -1        58 9.56852E-03 1.44266E-06-4.54986E-14
 -1        59 9.78595E-03 2.13321E-04-4.74206E-14
 -1        60 1.00142E-02 4.45002E-04-4.93347E-14
 -1        61 1.02539E-02 6.91483E-04-5.12264E-14
 -1        62 1.05042E-02 9.48160E-04-5.31045E-14
 -1        63 1.07639E-02 1.21123E-03-5.49793E-14
 -1        64 1.10313E-02 1.47785E-03-5.68402E-14
 -1        65 1.13046E-02 1.74604E-03-5.86933E-14
 -1        66 1.15823E-02 2.01456E-03-6.05405E-14
 -1        67 1.18632E-02 2.28270E-03-6.23702E-14
 -1        68 1.21463E-02 2.55008E-03-6.41550E-14
 -1        69 1.24309E-02 2.81653E-03-6.58825E-14
 -1        70 1.27163E-02 3.08203E-03-6.75842E-14
 -1        71 1.30021E-02 3.34668E-03-6.92830E-14
 -1        72 4.13861E-04 2.61419E-04 4.24330E-17
 -1        73 7.03278E-04 4.03639E-04-6.21383E-18
 -1        74 9.74135E-04 5.00053E-04-1.42091E-16
 -1        75 1.23902E-03 5.68724E-04-3.66664E-16
 -1        76 1.50280E-03 6.18046E-04-6.78121E-16
 -1        77 1.78097E-03 6.54794E-04-1.10109E-15
 -1        78 2.04805E-03 6.79288E-04-1.59442E-15
 -1        79 2.31761E-03 6.96257E-04-2.17181E-15
 -1        80 2.58971E-03 7.07700E-04-2.83008E-15
 -1        81 2.86419E-03 7.15139E-04-3.56897E-15
 -1        82 3.14082E-03 7.19731E-04-4.38857E-15
 -1        83 3.43330E-03 7.22440E-04-5.33434E-15
 -1        84 3.71346E-03 7.23680E-04-6.31080E-15
 -1        85 3.99491E-03 7.24092E-04-7.36370E-15
 -1        86 4.27737E-03 7.24002E-04-8.48719E-15
 -1        87 4.56063E-03 7.23624E-04-9.67921E-15
 -1        88 4.85869E-03 7.23044E-04-1.09988E-14
 -1        89 5.14299E-03 7.22348E-04-1.23132E-14
 -1        90 5.42764E-03 7.21446E-04-1.36742E-14
 -1        91 5.71264E-03 7.20184E-04-1.50680E-14
 -1        92 5.99819E-03 7.18301E-04-1.64875E-14
 -1        93 6.28479E-03 7.15437E-04-1.79403E-14
 -1        94 6.58804E-03 7.10903E-04-1.95024E-14
 -1        95 6.88128E-03 7.04779E-04-2.10126E-14
 -1        96 7.18295E-03 6.97050E-04-2.25475E-14
 -1        97 7.50049E-03 6.89481E-04-2.41059E-14
 -1        98 7.84712E-03 6.88103E-04-2.56861E-14
 -1        99 8.26698E-03 7.11392E-04-2.73638E-14
 -1       100 8.75501E-03 7.99062E-04-2.89774E-14
 -1       101 9.29854E-03 1.00276E-03-3.04381E-14
 -1       102 1.00160E-02 1.49461E-03-3.20687E-14
 -1       103 1.05990E-02 2.14531E-03-3.33823E-14
 -1       104 1.10174E-02 2.85802E-03-3.46390E-14
 -1       105 1.12270E-02 3.29369E-03-3.57599E-14
 -1       106 1.13713E-02 3.33660E-03-3.69061E-14
 -1       107 1.16302E-02 2.97506E-03-3.81543E-14
 -1       108 1.20219E-02 2.52584E-03-3.93337E-14
 -1       109 1.25723E-02 2.12754E-03-4.07064E-14
 -1       110 1.31867E-02 1.92577E-03-4.22689E-14
 -1       111 1.37441E-02 1.93723E-03-4.39206E-14
 -1       112 1.42673E-02 2.11223E-03-4.58431E-14
 -1       113 1.46733E-02 2.35088E-03-4.77004E-14
 -1       114 1.50247E-02 2.61512E-03-4.95428E-14
 -1       115 1.53450E-02 2.88669E-03-5.13803E-14
 -1       116 1.56482E-02 3.15877E-03-5.32060E-14
 -1       117 1.59424E-02 3.42930E-03-5.50258E-14
 -1       118 1.62464E-02 3.71142E-03-5.69004E-14
 -1       119 1.65337E-02 3.97859E-03-5.86472E-14
 -1       120 1.68199E-02 4.24472E-03-6.03849E-14
 -1       121 1.71058E-02 4.51018E-03-6.21316E-14
 -1       122 1.73914E-02 4.77523E-03-6.38750E-14
 -1       123 1.74167E-02 4.95578E-03-6.59407E-14
 -1       124 1.71564E-02 4.87148E-03-6.62853E-14
 -1       125 1.68964E-02 4.78734E-03-6.66112E-14
 -1       126 1.66362E-02 4.70338E-03-6.69214E-14
 -1       127 1.63758E-02 4.61942E-03-6.72181E-14
 -1       128 1.61194E-02 4.53660E-03-6.75178E-14
 -1       129 1.58583E-02 4.45177E-03-6.78464E-14
 -1       130 1.55972E-02 4.36617E-03-6.81387E-14
 -1       131 1.53365E-02 4.27983E-03-6.84121E-14
 -1       132 1.50764E-02 4.19297E-03-6.86907E-14
 -1       133 1.48172E-02 4.10598E-03-6.89578E-14
 -1       134 1.45630E-02 4.02073E-03-6.92403E-14
 -1       135 1.43049E-02 3.93462E-03-6.95421E-14
 -1       136 1.40467E-02 3.84929E-03-6.98429E-14
 -1       137 1.37881E-02 3.76467E-03-7.02069E-14
 -1       138 1.35289E-02 3.68043E-03-7.05794E-14
 -1       139 1.36780E-02 1.56009E-03-4.14727E-14
 -1       140 1.36565E-02 1.78525E-03-4.10240E-14
 -1       141 1.35098E-02 2.03348E-03-4.04344E-14
 -1       142 1.32126E-02 2.33712E-03-3.96766E-14
 -1       143 1.27709E-02 2.67025E-03-3.88510E-14
 -1       144 1.21329E-02 2.98229E-03-3.79164E-14
 -1       145 1.13446E-02 3.15542E-03-3.68905E-14
 -1       146 1.05924E-02 3.03469E-03-3.60321E-14
 -1       147 9.82952E-03 2.66347E-03-3.51843E-14
 -1       148 9.24492E-03 2.23997E-03-3.45361E-14
 -1       149 8.73788E-03 1.79127E-03-3.39567E-14
 -1       150 8.40705E-03 1.44662E-03-3.35834E-14
 -1       151 8.17778E-03 1.14798E-03-3.33516E-14
 -1       152 8.05917E-03 8.92314E-04-3.33010E-14
 -1       153 8.05814E-03 6.72935E-04-3.34522E-14
 -1       154 8.16856E-03 4.98294E-04-3.37788E-14
 -1       155 8.36135E-03 3.65895E-04-3.42293E-14
 -1       156 8.65687E-03 2.56440E-04-3.48567E-14
 -1       157 9.04440E-03 1.81076E-04-3.56332E-14
 -1       158 9.98266E-03 1.52313E-04-3.73514E-14
 -1       159 1.04958E-02 1.96532E-04-3.82242E-14
 -1       160 1.09793E-02 2.69257E-04-3.89983E-14
 -1       161 1.14780E-02 3.74296E-04-3.97513E-14
 -1       162 1.19703E-02 5.09214E-04-4.04358E-14
 -1       163 1.23993E-02 6.54421E-04-4.09744E-14
 -1       164 1.27935E-02 8.17558E-04-4.13968E-14
 -1       165 1.31267E-02 9.88705E-04-4.16665E-14
 -1       166 1.33956E-02 1.17001E-03-4.17861E-14
 -1       167 2.40438E-04-1.25480E-04-2.46487E-17
 -1       168 2.25298E-04-9.45717E-05-3.81368E-17
 -1       169 2.19531E-04-7.27271E-05-4.51062E-17
 -1       170 2.16707E-04-5.50600E-05-4.86231E-17
 -1       171 2.15205E-04-3.99271E-05-5.00698E-17
 -1       172 2.14360E-04-2.58863E-05-5.03883E-17
 -1       173 2.13935E-04-1.26294E-05-4.99716E-17
 -1       174 2.13811E-04 2.72008E-07-4.93007E-17
 -1       175 2.13955E-04 1.31861E-05-4.83656E-17
 -1       176 2.14401E-04 2.64835E-05-4.67054E-17
 -1       177 2.15254E-04 4.03531E-05-4.42456E-17
 -1       178 2.16813E-04 5.58653E-05-4.05729E-17
 -1       179 2.19688E-04 7.37657E-05-3.44776E-17
 -1       180 2.25463E-04 9.59752E-05-2.48452E-17
 -1       181 2.39368E-04 1.27555E-04-8.58214E-18
 -1       182 2.97750E-04 1.85472E-04 8.81592E-18
 -1       183 4.68693E-04-2.63495E-04-6.44287E-17
 -1       184 7.66895E-04-3.82055E-04-2.23447E-16
 -1       185 1.05082E-03-4.64914E-04-4.78387E-16
 -1       186 1.32829E-03-5.23679E-04-8.29177E-16
 -1       187 1.60300E-03-5.65376E-04-1.27289E-15
 -1       188 1.87701E-03-5.94704E-04-1.80800E-15
 -1       189 2.15147E-03-6.14973E-04-2.43298E-15
 -1       190 2.42696E-03-6.28622E-04-3.14654E-15
 -1       191 2.70375E-03-6.37481E-04-3.94572E-15
 -1       192 2.98191E-03-6.42935E-04-4.82771E-15
 -1       193 3.26139E-03-6.46030E-04-5.78719E-15
 -1       194 3.54205E-03-6.47555E-04-6.82216E-15
 -1       195 3.82376E-03-6.48100E-04-7.93334E-15
 -1       196 4.10634E-03-6.48109E-04-9.11516E-15
 -1       197 4.38962E-03-6.47916E-04-1.03639E-14
 -1       198 4.67342E-03-6.47777E-04-1.16727E-14
 -1       199 4.95756E-03-6.47902E-04-1.30375E-14
 -1       200 5.24184E-03-6.48467E-04-1.44561E-14
 -1       201 5.52603E-03-6.49632E-04-1.59263E-14
 -1       202 5.80985E-03-6.51538E-04-1.74435E-14
 -1       203 6.09294E-03-6.54296E-04-1.90106E-14
 -1       204 6.37481E-03-6.57948E-04-2.06239E-14
 -1       205 6.65486E-03-6.62399E-04-2.22853E-14
 -1       206 6.93227E-03-6.67305E-04-2.39887E-14
 -1       207 7.20610E-03-6.71911E-04-2.57280E-14
 -1       208 7.47521E-03-6.74856E-04-2.74954E-14
 -1       209 7.73843E-03-6.73957E-04-2.92869E-14
 -1       210 7.99468E-03-6.66039E-04-3.11045E-14
 -1       211 8.24319E-03-6.46914E-04-3.29417E-14
 -1       212 8.48380E-03-6.11577E-04-3.48028E-14
 -1       213 8.71714E-03-5.54712E-04-3.66815E-14
 -1       214 8.94479E-03-4.71463E-04-3.85741E-14
 -1       215 9.16917E-03-3.58315E-04-4.04784E-14
 -1       216 9.39322E-03-2.13818E-04-4.23908E-14
 -1       217 9.61994E-03-3.89080E-05-4.43054E-14
 -1       218 9.85190E-03 1.63303E-04-4.62222E-14
 -1       219 1.00909E-02 3.88184E-04-4.81328E-14
 -1       220 1.03377E-02 6.30449E-04-5.00279E-14
 -1       221 1.05924E-02 8.84977E-04-5.19057E-14
 -1       222 1.08543E-02 1.14737E-03-5.37758E-14
 -1       223 1.11224E-02 1.41424E-03-5.56370E-14
 -1       224 1.13955E-02 1.68318E-03-5.74874E-14
 -1       225 1.16726E-02 1.95265E-03-5.93264E-14
 -1       226 1.19525E-02 2.22177E-03-6.11531E-14
 -1       227 1.22346E-02 2.49006E-03-6.29528E-14
 -1       228 1.25183E-02 2.75733E-03-6.47070E-14
 -1       229 1.28029E-02 3.02352E-03-6.64262E-14
 -1       230 1.30881E-02 3.28869E-03-6.81322E-14
 -1       231 6.04662E-04 3.30982E-04-5.40814E-17
 -1       232 8.93820E-04 4.32560E-04-1.99991E-16
 -1       233 1.17278E-03 5.04276E-04-4.31201E-16
 -1       234 1.44722E-03 5.55373E-04-7.48438E-16
 -1       235 1.73379E-03 5.93147E-04-1.17441E-15
 -1       236 2.00685E-03 6.18128E-04-1.66766E-15
 -1       237 2.28090E-03 6.35285E-04-2.24459E-15
 -1       238 2.55631E-03 6.46735E-04-2.90315E-15
 -1       239 2.83321E-03 6.54076E-04-3.64151E-15
 -1       240 3.11158E-03 6.58512E-04-4.45906E-15
 -1       241 3.40532E-03 6.61035E-04-5.40086E-15
 -1       242 3.68628E-03 6.62097E-04-6.37425E-15
 -1       243 3.96826E-03 6.62344E-04-7.42159E-15
 -1       244 4.25106E-03 6.62109E-04-8.53900E-15
 -1       245 4.53453E-03 6.61612E-04-9.72350E-15
 -1       246 4.83273E-03 6.60937E-04-1.10356E-14
 -1       247 5.11716E-03 6.60175E-04-1.23429E-14
 -1       248 5.40195E-03 6.59227E-04-1.36981E-14
 -1       249 5.68714E-03 6.57921E-04-1.50889E-14
 -1       250 5.97289E-03 6.55967E-04-1.65122E-14
 -1       251 6.25963E-03 6.52941E-04-1.79674E-14
 -1       252 6.56263E-03 6.48005E-04-1.95272E-14
 -1       253 6.85459E-03 6.41024E-04-2.10424E-14
 -1       254 7.15244E-03 6.31512E-04-2.25852E-14
 -1       255 7.46048E-03 6.20353E-04-2.41500E-14
 -1       256 7.78551E-03 6.11904E-04-2.57384E-14
 -1       257 8.15602E-03 6.20708E-04-2.74233E-14
 -1       258 8.55059E-03 6.82559E-04-2.90438E-14
 -1       259 8.95287E-03 8.48207E-04-3.05139E-14
 -1       260 9.46249E-03 1.28026E-03-3.21487E-14
 -1       261 1.03013E-02 2.38685E-03-3.42181E-14
 -1       262 1.12536E-02 3.31543E-03-3.65324E-14
 -1       263 1.17164E-02 3.09946E-03-3.77850E-14
 -1       264 1.21303E-02 2.64462E-03-3.89585E-14
 -1       265 1.25995E-02 2.15979E-03-4.03223E-14
 -1       266 1.30972E-02 1.86642E-03-4.18729E-14
 -1       267 1.35697E-02 1.82354E-03-4.35217E-14
 -1       268 1.40445E-02 1.97429E-03-4.54441E-14
 -1       269 1.44338E-02 2.20795E-03-4.72856E-14
 -1       270 1.47810E-02 2.47324E-03-4.91276E-14
 -1       271 1.51017E-02 2.74727E-03-5.09621E-14
 -1       272 1.54066E-02 3.02163E-03-5.27866E-14
 -1       273 1.57024E-02 3.29387E-03-5.45983E-14
 -1       274 1.60077E-02 3.57718E-03-5.64831E-14
 -1       275 1.62958E-02 3.84507E-03-5.82459E-14
 -1       276 1.65825E-02 4.11163E-03-5.99952E-14
 -1       277 1.68687E-02 4.37734E-03-6.17423E-14
 -1       278 1.71545E-02 4.64251E-03-6.34849E-14
 -1       279 1.72856E-02 4.79918E-03-6.47130E-14
 -1       280 1.70253E-02 4.71495E-03-6.50342E-14
 -1       281 1.67652E-02 4.63083E-03-6.53575E-14
 -1       282 1.65052E-02 4.54682E-03-6.56729E-14
 -1       283 1.62448E-02 4.46279E-03-6.59841E-14
 -1       284 1.59884E-02 4.37995E-03-6.62858E-14
 -1       285 1.57272E-02 4.29522E-03-6.65955E-14
 -1       286 1.54660E-02 4.20988E-03-6.68982E-14
 -1       287 1.52050E-02 4.12391E-03-6.71894E-14
 -1       288 1.49447E-02 4.03747E-03-6.74766E-14
 -1       289 1.46853E-02 3.95081E-03-6.77618E-14
 -1       290 1.44310E-02 3.86573E-03-6.80471E-14
 -1       291 1.41730E-02 3.77957E-03-6.83510E-14
 -1       292 1.39150E-02 3.69397E-03-6.86703E-14
 -1       293 1.36567E-02 3.60895E-03-6.90098E-14
 -1       294 1.36829E-02 1.50866E-03-4.22974E-14
 -1       295 1.36977E-02 1.61362E-03-4.19396E-14
 -1       296 1.35407E-02 1.75920E-03-4.13270E-14
 -1       297 1.32154E-02 1.99040E-03-4.05306E-14
 -1       298 1.27440E-02 2.33937E-03-3.95888E-14
 -1       299 1.21929E-02 2.78748E-03-3.85403E-14
 -1       300 1.10696E-02 3.24638E-03-3.62717E-14
 -1       301 1.05436E-02 2.88637E-03-3.52535E-14
 -1       302 9.89768E-03 2.32042E-03-3.44324E-14
 -1       303 9.31317E-03 1.74947E-03-3.36492E-14
 -1       304 8.74938E-03 1.35509E-03-3.31726E-14
 -1       305 8.35765E-03 1.07725E-03-3.28216E-14
 -1       306 8.10402E-03 8.87386E-04-3.26538E-14
 -1       307 8.01256E-03 7.52227E-04-3.26561E-14
 -1       308 8.09049E-03 6.51267E-04-3.29268E-14
 -1       309 8.29716E-03 5.47205E-04-3.34169E-14
 -1       310 8.59988E-03 4.30665E-04-3.40364E-14
 -1       311 8.99505E-03 3.03774E-04-3.47908E-14
 -1       312 9.42500E-03 1.71871E-04-3.57803E-14
 -1       313 9.83462E-03 9.39609E-05-3.68216E-14
 -1       314 1.02350E-02 7.77832E-05-3.78215E-14
 -1       315 1.06416E-02 1.52893E-04-3.87883E-14
 -1       316 1.10527E-02 2.89589E-04-3.96881E-14
 -1       317 1.14897E-02 4.89868E-04-4.05681E-14
 -1       318 1.19598E-02 7.09289E-04-4.12583E-14
 -1       319 1.24123E-02 9.25778E-04-4.18243E-14
 -1       320 1.28443E-02 1.12042E-03-4.22328E-14
 -1       321 1.32217E-02 1.27939E-03-4.24587E-14
 -1       322 1.35176E-02 1.42065E-03-4.25827E-14
 -1       323 1.34112E-02 3.49397E-03-6.89187E-14
 -1       324 4.55427E-04-1.64702E-04-1.50203E-16
 -1       325 4.74319E-04-2.12897E-04-1.28776E-16
 -1       326 4.40427E-04-9.39363E-05-1.69010E-16
 -1       327 4.37437E-04-6.48505E-05-1.71592E-16
 -1       328 4.35797E-04-3.78682E-05-1.71822E-16
 -1       329 4.35079E-04-1.20059E-05-1.70376E-16
 -1       330 4.35110E-04 1.35208E-05-1.67814E-16
 -1       331 4.35897E-04 3.94412E-05-1.63803E-16
 -1       332 4.37579E-04 6.60766E-05-1.57653E-16
 -1       333 4.40657E-04 9.53376E-05-1.48976E-16
 -1       334 4.46070E-04 1.28242E-04-1.36162E-16
 -1       335 4.56021E-04 1.67229E-04-1.17145E-16
 -1       336 4.75946E-04 2.16901E-04-8.89893E-17
 -1       337 5.32068E-04 2.69891E-04-7.66362E-17
 -1       338 8.24615E-04 3.73388E-04-2.27523E-16
 -1       339 8.63403E-04-3.57286E-04-3.93494E-16
 -1       340 1.14982E-03-4.26016E-04-7.06036E-16
 -1       341 1.43267E-03-4.75179E-04-1.11000E-15
 -1       342 1.71347E-03-5.09927E-04-1.60328E-15
 -1       343 1.99334E-03-5.34066E-04-2.18563E-15
 -1       344 2.27304E-03-5.50430E-04-2.85507E-15
 -1       345 2.55305E-03-5.61149E-04-3.60951E-15
 -1       346 2.83361E-03-5.67835E-04-4.44716E-15
 -1       347 3.11485E-03-5.71706E-04-5.36350E-15
 -1       348 3.39678E-03-5.73676E-04-6.35471E-15
 -1       349 3.67937E-03-5.74432E-04-7.41980E-15
 -1       350 3.96254E-03-5.74483E-04-8.55745E-15
 -1       351 4.24621E-03-5.74211E-04-9.76424E-15
 -1       352 4.53026E-03-5.73906E-04-1.10343E-14
 -1       353 4.81459E-03-5.73795E-04-1.23612E-14
 -1       354 5.09907E-03-5.74067E-04-1.37423E-14
 -1       355 5.38357E-03-5.74893E-04-1.51763E-14
 -1       356 5.66793E-03-5.76429E-04-1.66590E-14
 -1       357 5.95195E-03-5.78815E-04-1.81924E-14
 -1       358 6.23538E-03-5.82156E-04-1.97737E-14
 -1       359 6.51788E-03-5.86472E-04-2.14022E-14
 -1       360 6.79904E-03-5.91611E-04-2.30753E-14
 -1       361 7.07828E-03-5.97118E-04-2.47841E-14
 -1       362 7.35491E-03-6.02046E-04-2.65252E-14
 -1       363 7.62810E-03-6.04731E-04-2.82897E-14
 -1       364 7.89697E-03-6.02560E-04-3.00791E-14
 -1       365 8.16065E-03-5.91818E-04-3.18922E-14
 -1       366 8.41857E-03-5.67715E-04-3.37263E-14
 -1       367 8.67065E-03-5.24719E-04-3.55799E-14
 -1       368 8.91757E-03-4.57238E-04-3.74475E-14
 -1       369 9.16081E-03-3.60576E-04-3.93331E-14
 -1       370 9.40255E-03-2.31912E-04-4.12279E-14
 -1       371 9.64526E-03-7.09519E-05-4.31269E-14
 -1       372 9.89123E-03 1.19999E-04-4.50304E-14
 -1       373 1.01421E-02 3.36581E-04-4.69350E-14
 -1       374 1.03988E-02 5.73317E-04-4.88349E-14
 -1       375 1.06613E-02 8.24595E-04-5.07166E-14
 -1       376 1.09292E-02 1.08543E-03-5.25832E-14
 -1       377 1.12016E-02 1.35185E-03-5.44421E-14
 -1       378 1.14777E-02 1.62102E-03-5.62921E-14
 -1       379 1.17567E-02 1.89108E-03-5.81295E-14
 -1       380 1.20377E-02 2.16092E-03-5.99533E-14
 -1       381 1.23203E-02 2.42996E-03-6.17591E-14
 -1       382 1.26041E-02 2.69796E-03-6.35260E-14
 -1       383 1.28886E-02 2.96483E-03-6.52651E-14
 -1       384 1.31738E-02 3.23059E-03-6.69808E-14
 -1       385 1.36366E-02 1.63780E-03-4.23262E-14
 -1       386 1.11014E-03 4.47666E-04-4.61653E-16
 -1       387 1.39100E-03 5.00756E-04-7.80419E-16
 -1       388 1.68329E-03 5.39936E-04-1.20622E-15
 -1       389 1.96078E-03 5.65781E-04-1.69772E-15
 -1       390 2.23835E-03 5.83469E-04-2.27201E-15
 -1       391 2.51651E-03 5.95221E-04-2.92775E-15
 -1       392 2.79553E-03 6.02708E-04-3.66261E-15
 -1       393 3.07550E-03 6.07191E-04-4.47599E-15
 -1       394 3.37048E-03 6.09693E-04-5.41270E-15
 -1       395 3.65231E-03 6.10701E-04-6.38080E-15
 -1       396 3.93490E-03 6.10876E-04-7.42101E-15
 -1       397 4.21814E-03 6.10567E-04-8.53248E-15
 -1       398 4.50192E-03 6.10002E-04-9.70991E-15
 -1       399 4.80035E-03 6.09273E-04-1.10132E-14
 -1       400 5.08492E-03 6.08480E-04-1.23148E-14
 -1       401 5.36979E-03 6.07532E-04-1.36628E-14
 -1       402 5.65495E-03 6.06261E-04-1.50507E-14
 -1       403 5.94049E-03 6.04386E-04-1.64742E-14
 -1       404 6.22657E-03 6.01487E-04-1.79305E-14
 -1       405 6.52793E-03 5.96743E-04-1.94923E-14
 -1       406 6.81645E-03 5.89978E-04-2.10082E-14
 -1       407 7.10730E-03 5.80644E-04-2.25539E-14
 -1       408 7.40156E-03 5.69393E-04-2.41253E-14
 -1       409 7.70042E-03 5.59848E-04-2.57188E-14
 -1       410 8.02031E-03 5.63993E-04-2.74112E-14
 -1       411 8.33232E-03 6.11569E-04-2.90389E-14
 -1       412 8.62416E-03 7.43237E-04-3.05122E-14
 -1       413 9.84852E-03 1.91551E-03-3.35804E-14
 -1       414 1.31015E-02 1.86490E-03-4.13129E-14
 -1       415 1.35069E-02 1.71319E-03-4.29656E-14
 -1       416 1.38617E-02 1.81347E-03-4.48833E-14
 -1       417 1.41809E-02 2.02681E-03-4.67142E-14
 -1       418 1.44902E-02 2.28543E-03-4.85496E-14
 -1       419 1.47920E-02 2.55863E-03-5.03824E-14
 -1       420 1.50880E-02 2.83414E-03-5.22037E-14
 -1       421 1.53800E-02 3.10787E-03-5.40165E-14
 -1       422 1.56838E-02 3.39251E-03-5.59052E-14
 -1       423 1.59714E-02 3.66129E-03-5.76818E-14
 -1       424 1.62580E-02 3.92844E-03-5.94445E-14
 -1       425 1.65442E-02 4.19449E-03-6.11934E-14
 -1       426 1.68301E-02 4.45988E-03-6.29364E-14
 -1       427 1.69277E-02 4.58746E-03-6.39824E-14
 -1       428 1.63879E-02 4.35960E-03-6.39847E-14
 -1       429 1.66578E-02 4.47344E-03-6.39836E-14
 -1       430 1.61278E-02 4.27581E-03-6.42999E-14
 -1       431 1.58716E-02 4.19332E-03-6.46050E-14
 -1       432 1.56104E-02 4.10903E-03-6.49139E-14
 -1       433 1.53489E-02 4.02414E-03-6.52233E-14
 -1       434 1.50875E-02 3.93856E-03-6.55249E-14
 -1       435 1.48266E-02 3.85237E-03-6.58258E-14
 -1       436 1.45666E-02 3.76578E-03-6.61218E-14
 -1       437 1.43120E-02 3.68056E-03-6.64158E-14
 -1       438 1.40539E-02 3.59407E-03-6.67241E-14
 -1       439 1.37962E-02 3.50801E-03-6.70430E-14
 -1       440 1.35384E-02 3.42254E-03-6.73756E-14
 -1       441 1.29029E-02 2.05205E-03-4.04632E-14
 -1       442 1.36467E-02 1.55401E-03-4.33450E-14
 -1       443 1.33480E-02 1.76777E-03-4.15720E-14
 -1       444 4.45611E-04-1.26398E-04-1.62403E-16
 -1       445 9.14525E-03 1.32353E-03-3.27320E-14
 -1       446 8.63163E-03 1.03110E-03-3.23260E-14
 -1       447 8.25078E-03 8.26397E-04-3.19329E-14
 -1       448 8.03746E-03 7.36790E-04-3.18791E-14
 -1       449 8.01447E-03 6.77183E-04-3.19419E-14
 -1       450 8.18437E-03 6.23180E-04-3.25241E-14
 -1       451 8.46085E-03 5.35464E-04-3.31013E-14
 -1       452 8.80501E-03 4.15560E-04-3.37694E-14
 -1       453 9.24833E-03 2.45027E-04-3.48848E-14
 -1       454 9.67900E-03 9.82000E-05-3.61258E-14
 -1       455 9.98103E-03 4.15946E-05-3.71211E-14
 -1       456 1.04040E-02 7.79206E-05-3.84893E-14
 -1       457 1.07473E-02 1.98231E-04-3.95000E-14
 -1       458 1.11211E-02 3.98704E-04-4.05240E-14
 -1       459 1.15957E-02 6.78787E-04-4.15114E-14
 -1       460 1.20611E-02 9.28345E-04-4.21819E-14
 -1       461 1.25331E-02 1.16951E-03-4.27945E-14
 -1       462 1.29883E-02 1.34468E-03-4.31156E-14
 -1       463 1.33437E-02 1.48424E-03-4.34551E-14
 -1       464 1.37287E-02 1.57857E-03-4.29904E-14
 -1       465 8.75356E-03 9.08096E-04-3.15588E-14
 -1       466 6.65747E-04-7.50738E-05-3.62195E-16
 -1       467 6.69742E-04-1.15807E-04-3.59525E-16
 -1       468 6.63053E-04 1.10191E-06-3.57441E-16
 -1       469 6.63781E-04 3.87312E-05-3.50997E-16
 -1       470 6.65939E-04 7.67552E-05-3.41348E-16
 -1       471 6.70061E-04 1.17640E-04-3.27575E-16
 -1       472 6.77101E-04 1.62243E-04-3.08079E-16
 -1       473 6.89036E-04 2.12610E-04-2.80795E-16
 -1       474 7.09844E-04 2.71621E-04-2.43129E-16
 -1       475 7.63602E-04 3.20424E-04-2.39019E-16
 -1       476 1.50855E-03 4.50959E-04-1.07553E-15
 -1       477 1.39916E-02 1.86838E-03-4.60724E-14
 -1       478 1.22444E-03 4.07695E-04-6.97809E-16
 -1       479 9.76412E-04-3.28489E-04-5.81085E-16
 -1       480 7.12689E-04-2.51718E-04-3.31081E-16
 -1       481 1.26235E-03-3.83350E-04-9.46634E-16
 -1       482 1.54741E-03-4.23099E-04-1.39996E-15
 -1       483 1.83158E-03-4.51179E-04-1.94082E-15
 -1       484 2.11517E-03-4.70499E-04-2.56757E-15
 -1       485 2.39850E-03-4.83364E-04-3.27889E-15
 -1       486 2.68180E-03-4.91558E-04-4.07301E-15
 -1       487 2.96525E-03-4.96450E-04-4.94628E-15
 -1       488 3.24892E-03-4.99078E-04-5.89525E-15
 -1       489 3.53286E-03-5.00218E-04-6.91738E-15
 -1       490 3.81707E-03-5.00452E-04-8.01082E-15
 -1       491 4.10152E-03-5.00211E-04-9.17502E-15
 -1       492 4.38618E-03-4.99816E-04-1.04046E-14
 -1       493 4.67102E-03-4.99514E-04-1.16946E-14
 -1       494 4.95598E-03-4.99500E-04-1.30393E-14
 -1       495 5.24102E-03-4.99942E-04-1.44371E-14
 -1       496 5.52609E-03-5.00994E-04-1.58868E-14
 -1       497 5.81116E-03-5.02799E-04-1.73855E-14
 -1       498 6.09616E-03-5.05486E-04-1.89344E-14
 -1       499 6.38102E-03-5.09141E-04-2.05335E-14
 -1       500 6.66563E-03-5.13754E-04-2.21760E-14
 -1       501 6.94979E-03-5.19125E-04-2.38562E-14
 -1       502 7.23319E-03-5.24709E-04-2.55671E-14
 -1       503 7.51531E-03-5.29408E-04-2.73066E-14
 -1       504 7.79545E-03-5.31303E-04-2.90699E-14
 -1       505 8.07267E-03-5.27384E-04-3.08567E-14
 -1       506 8.34599E-03-5.13371E-04-3.26665E-14
 -1       507 8.61462E-03-4.83781E-04-3.44951E-14
 -1       508 8.87832E-03-4.32405E-04-3.63401E-14
 -1       509 9.13776E-03-3.53256E-04-3.82015E-14
 -1       510 9.39460E-03-2.41826E-04-4.00762E-14
 -1       511 9.65117E-03-9.62146E-05-4.19584E-14
 -1       512 9.90988E-03 8.23477E-05-4.38497E-14
 -1       513 1.01726E-02 2.89843E-04-4.57456E-14
 -1       514 1.04401E-02 5.20503E-04-4.76425E-14
 -1       515 1.07125E-02 7.68076E-04-4.95266E-14
 -1       516 1.09890E-02 1.02687E-03-5.13940E-14
 -1       517 1.12686E-02 1.29232E-03-5.32537E-14
 -1       518 1.15505E-02 1.56116E-03-5.51052E-14
 -1       519 1.18337E-02 1.83124E-03-5.69438E-14
 -1       520 1.21179E-02 2.10130E-03-5.87635E-14
 -1       521 1.24026E-02 2.37067E-03-6.05688E-14
 -1       522 1.26876E-02 2.63907E-03-6.23483E-14
 -1       523 1.29729E-02 2.90639E-03-6.40978E-14
 -1       524 1.32555E-02 3.16496E-03-6.57473E-14
 -1       525 9.94561E-04 3.71801E-04-4.37940E-16
 -1       526 1.79133E-03 4.81591E-04-1.53574E-15
 -1       527 2.07338E-03 5.02787E-04-2.07767E-15
 -1       528 2.35520E-03 5.17042E-04-2.70101E-15
 -1       529 2.63714E-03 5.26268E-04-3.40248E-15
 -1       530 2.91938E-03 5.31919E-04-4.18183E-15
 -1       531 3.21618E-03 5.35201E-04-5.08328E-15
 -1       532 3.49931E-03 5.36648E-04-6.01795E-15
 -1       533 3.78287E-03 5.37058E-04-7.02550E-15
 -1       534 4.06683E-03 5.36853E-04-8.10303E-15
 -1       535 4.35112E-03 5.36319E-04-9.24767E-15
 -1       536 4.64993E-03 5.35599E-04-1.05186E-14
 -1       537 4.93473E-03 5.34850E-04-1.17894E-14
 -1       538 5.21968E-03 5.34038E-04-1.31136E-14
 -1       539 5.50470E-03 5.33079E-04-1.44818E-14
 -1       540 5.78971E-03 5.31795E-04-1.58918E-14
 -1       541 6.07455E-03 5.29917E-04-1.73371E-14
 -1       542 6.37316E-03 5.26932E-04-1.88899E-14
 -1       543 6.65658E-03 5.22752E-04-2.03986E-14
 -1       544 6.93800E-03 5.17118E-04-2.19372E-14
 -1       545 7.21545E-03 5.10594E-04-2.35059E-14
 -1       546 7.48517E-03 5.05549E-04-2.51007E-14
 -1       547 7.75290E-03 5.08935E-04-2.67967E-14
 -1       548 7.98236E-03 5.35804E-04-2.84274E-14
 -1       549 8.24911E-03 6.21400E-04-2.99596E-14
 -1       550 1.31124E-02 1.51519E-03-4.41833E-14
 -1       551 1.35423E-02 1.64514E-03-4.46481E-14
 -1       552 1.37802E-02 1.68795E-03-4.41999E-14
 -1       553 1.44749E-02 2.36213E-03-4.97544E-14
 -1       554 1.47451E-02 2.63139E-03-5.15756E-14
 -1       555 1.50229E-02 2.90244E-03-5.33876E-14
 -1       556 1.53188E-02 3.18605E-03-5.52808E-14
 -1       557 1.56027E-02 3.45457E-03-5.70691E-14
 -1       558 1.58875E-02 3.72170E-03-5.88397E-14
 -1       559 1.61728E-02 3.98780E-03-6.05956E-14
 -1       560 1.65602E-02 4.34583E-03-6.29371E-14
 -1       561 1.57529E-02 4.00617E-03-6.29291E-14
 -1       562 1.54918E-02 3.92261E-03-6.32383E-14
 -1       563 1.60132E-02 4.08943E-03-6.26227E-14
 -1       564 1.52300E-02 3.83837E-03-6.35479E-14
 -1       565 1.49680E-02 3.75322E-03-6.38582E-14
 -1       566 1.47064E-02 3.66717E-03-6.41628E-14
 -1       567 1.44457E-02 3.58040E-03-6.44680E-14
 -1       568 1.41906E-02 3.49475E-03-6.47696E-14
 -1       569 1.39322E-02 3.40765E-03-6.50826E-14
 -1       570 1.36747E-02 3.32095E-03-6.54049E-14
 -1       571 1.34652E-02 3.24274E-03-6.55732E-14
 -1       572 8.11992E-03 6.80315E-04-3.10402E-14
 -1       573 9.42338E-03 1.49523E-04-3.51178E-14
 -1       574 1.42192E-02 2.10172E-03-4.79272E-14
 -1       575 6.63667E-04-3.64915E-05-3.61348E-16
 -1       576 8.43066E-03 7.59288E-04-3.11421E-14
 -1       577 1.37366E-02 1.62495E-03-4.34361E-14
 -1       578 1.05104E-02 1.26287E-04-3.92454E-14
 -1       579 7.98027E-03 6.40570E-04-3.09452E-14
 -1       580 8.06490E-03 6.23670E-04-3.14558E-14
 -1       581 8.27713E-03 5.72608E-04-3.19693E-14
 -1       582 8.54725E-03 4.91020E-04-3.26250E-14
 -1       583 8.99580E-03 3.17529E-04-3.37555E-14
 -1       584 9.77730E-03 3.70411E-05-3.64418E-14
 -1       585 1.01591E-02 2.75369E-05-3.79731E-14
 -1       586 1.08191E-02 2.85132E-04-4.02709E-14
 -1       587 1.12606E-02 5.77989E-04-4.15797E-14
 -1       588 1.17543E-02 9.10324E-04-4.27561E-14
 -1       589 1.21757E-02 1.14173E-03-4.33747E-14
 -1       590 1.27235E-02 1.37773E-03-4.38682E-14
 -1       591 1.37416E-02 1.63818E-03-4.41540E-14
 -1       592 6.76620E-04-1.59970E-04-3.51722E-16
 -1       593 1.62799E-02 4.17696E-03-6.23254E-14
 -1       594 7.95386E-03 5.96197E-04-3.04602E-14
 -1       595 8.99642E-04 7.40570E-05-5.93492E-16
 -1       596 8.97535E-04 2.51579E-05-6.06266E-16
 -1       597 9.11785E-04 1.78115E-04-5.50182E-16
 -1       598 9.24156E-04 2.36535E-04-5.16104E-16
 -1       599 1.91295E-03 4.21088E-04-1.89172E-15
 -1       600 2.19797E-03 4.37732E-04-2.48476E-15
 -1       601 1.62760E-03 3.96796E-04-1.37934E-15
 -1       602 1.09778E-03-2.94493E-04-7.85457E-16
 -1       603 1.49540E-02 2.97931E-03-5.46172E-14
 -1       604 1.38334E-03-3.36900E-04-1.20025E-15
 -1       605 1.66955E-03-3.67831E-04-1.70024E-15
 -1       606 1.95577E-03-3.89643E-04-2.28592E-15
 -1       607 2.24181E-03-4.04505E-04-2.95467E-15
 -1       608 2.52766E-03-4.14220E-04-3.70535E-15
 -1       609 2.81337E-03-4.20224E-04-4.53685E-15
 -1       610 3.09898E-03-4.23631E-04-5.44425E-15
 -1       611 3.38454E-03-4.25289E-04-6.42452E-15
 -1       612 3.67006E-03-4.25834E-04-7.47596E-15
 -1       613 3.95559E-03-4.25739E-04-8.59636E-15
 -1       614 4.24112E-03-4.25352E-04-9.78481E-15
 -1       615 4.52668E-03-4.24933E-04-1.10369E-14
 -1       616 4.81229E-03-4.24680E-04-1.23464E-14
 -1       617 5.09797E-03-4.24751E-04-1.37085E-14
 -1       618 5.38378E-03-4.25281E-04-1.51245E-14
 -1       619 5.66979E-03-4.26394E-04-1.65916E-14
 -1       620 5.95611E-03-4.28206E-04-1.81096E-14
 -1       621 6.24287E-03-4.30820E-04-1.96770E-14
 -1       622 6.53022E-03-4.34305E-04-2.12888E-14
 -1       623 6.81832E-03-4.38642E-04-2.29422E-14
 -1       624 7.10722E-03-4.43631E-04-2.46226E-14
 -1       625 7.39680E-03-4.48731E-04-2.63349E-14
 -1       626 7.68667E-03-4.52806E-04-2.80754E-14
 -1       627 7.97599E-03-4.53787E-04-2.98357E-14
 -1       628 8.26352E-03-4.48289E-04-3.16220E-14
 -1       629 8.54778E-03-4.31337E-04-3.34261E-14
 -1       630 8.82752E-03-3.96433E-04-3.52490E-14
 -1       631 9.10232E-03-3.36275E-04-3.70888E-14
 -1       632 9.37312E-03-2.44213E-04-3.89408E-14
 -1       633 9.64219E-03-1.16034E-04-4.08031E-14
 -1       634 9.91238E-03 4.87081E-05-4.26794E-14
 -1       635 1.01862E-02 2.46543E-04-4.45664E-14
 -1       636 1.04648E-02 4.71205E-04-4.64577E-14
 -1       637 1.07482E-02 7.15398E-04-4.83387E-14
 -1       638 1.10352E-02 9.72369E-04-5.02074E-14
 -1       639 1.13242E-02 1.23678E-03-5.20699E-14
 -1       640 1.16140E-02 1.50493E-03-5.39260E-14
 -1       641 1.19037E-02 1.77448E-03-5.57630E-14
 -1       642 1.21928E-02 2.04412E-03-5.75851E-14
 -1       643 1.24811E-02 2.31321E-03-5.93903E-14
 -1       644 1.27686E-02 2.58145E-03-6.11730E-14
 -1       645 1.30555E-02 2.84877E-03-6.29326E-14
 -1       646 1.32605E-02 3.04600E-03-6.42574E-14
 -1       647 1.46838E-02 2.71478E-03-5.28124E-14
 -1       648 7.98514E-03 5.72440E-04-2.96867E-14
 -1       649 2.48276E-03 4.48732E-04-3.15653E-15
 -1       650 2.76747E-03 4.55656E-04-3.90475E-15
 -1       651 3.06642E-03 4.59854E-04-4.77285E-15
 -1       652 3.35121E-03 4.61874E-04-5.67722E-15
 -1       653 3.63610E-03 4.62643E-04-6.65463E-15
 -1       654 3.92111E-03 4.62649E-04-7.70138E-15
 -1       655 4.20622E-03 4.62234E-04-8.81733E-15
 -1       656 4.50568E-03 4.61594E-04-1.00571E-14
 -1       657 4.79093E-03 4.60936E-04-1.12996E-14
 -1       658 5.07617E-03 4.60294E-04-1.25984E-14
 -1       659 5.36130E-03 4.59669E-04-1.39471E-14
 -1       660 5.64614E-03 4.59008E-04-1.53397E-14
 -1       661 5.93041E-03 4.58221E-04-1.67735E-14
 -1       662 6.22768E-03 4.57164E-04-1.83179E-14
 -1       663 6.50866E-03 4.55929E-04-1.98217E-14
 -1       664 6.78586E-03 4.54757E-04-2.13544E-14
 -1       665 7.05638E-03 4.54591E-04-2.29171E-14
 -1       666 7.31535E-03 4.57725E-04-2.45105E-14
 -1       667 7.56615E-03 4.69882E-04-2.62085E-14
 -1       668 7.77186E-03 4.98821E-04-2.78427E-14
 -1       669 1.33148E-02 1.67477E-03-4.54254E-14
 -1       670 1.37488E-02 1.75662E-03-4.55967E-14
 -1       671 9.46597E-03 5.70039E-05-3.52530E-14
 -1       672 1.44255E-02 2.45365E-03-5.09982E-14
 -1       673 1.52311E-02 3.24481E-03-5.64062E-14
 -1       674 1.55122E-02 3.51030E-03-5.81874E-14
 -1       675 1.57954E-02 3.77556E-03-5.99466E-14
 -1       676 1.59025E-02 3.90471E-03-6.09576E-14
 -1       677 1.53762E-02 3.73704E-03-6.15668E-14
 -1       678 1.56370E-02 3.81947E-03-6.12613E-14
 -1       679 1.51142E-02 3.65387E-03-6.18729E-14
 -1       680 1.45887E-02 3.48370E-03-6.24926E-14
 -1       681 1.43268E-02 3.39671E-03-6.28049E-14
 -1       682 1.40708E-02 3.31041E-03-6.31101E-14
 -1       683 1.38120E-02 3.22240E-03-6.34257E-14
 -1       684 1.35546E-02 3.13468E-03-6.37469E-14
 -1       685 1.41875E-02 2.20088E-03-4.91750E-14
 -1       686 1.39861E-02 1.94919E-03-4.71640E-14
 -1       687 1.09406E-02 4.34011E-04-4.13666E-14
 -1       688 1.38524E-02 1.75621E-03-4.53695E-14
 -1       689 1.48514E-02 3.56948E-03-6.21838E-14
 -1       690 1.34191E-03 3.62456E-04-9.47112E-16
 -1       691 8.09903E-03 5.64168E-04-3.08668E-14
 -1       692 9.04123E-04 1.24532E-04-5.75430E-16
 -1       693 9.03747E-04-1.22127E-04-6.17097E-16
 -1       694 1.02984E-02 7.18138E-05-3.89440E-14
 -1       695 8.34050E-03 4.98747E-04-3.15009E-14
 -1       696 1.14126E-02 7.67863E-04-4.27823E-14
 -1       697 1.24742E-02 1.39593E-03-4.49012E-14
 -1       698 8.68189E-03 3.81645E-04-3.24661E-14
 -1       699 9.91286E-03-5.14623E-06-3.73070E-14
 -1       700 1.05576E-02 1.89308E-04-3.99736E-14
 -1       701 1.20984E-02 1.20077E-03-4.42864E-14
 -1       702 1.29183E-02 1.55910E-03-4.51674E-14
 -1       703 9.13132E-03 1.83514E-04-3.38940E-14
 -1       704 8.97470E-04-2.31422E-05-6.14353E-16
 -1       705 9.52594E-04 3.11026E-04-4.69524E-16
 -1       706 8.72408E-04-2.46944E-04-5.20403E-16
 -1       707 8.81560E-03 2.41421E-04-3.25989E-14
 -1       708 1.36053E-02 1.80705E-03-4.63766E-14
 -1       709 9.11207E-04-1.75527E-04-6.09718E-16
 -1       710 8.99430E-04-7.17762E-05-6.18043E-16
 -1       711 1.17641E-02 1.05411E-03-4.43194E-14
 -1       712 1.16156E-03 2.43579E-04-8.21602E-16
 -1       713 2.61384E-03 3.78527E-04-3.62366E-15
 -1       714 2.03990E-03 3.57930E-04-2.26399E-15
 -1       715 1.75288E-03 3.39527E-04-1.70057E-15
 -1       716 1.00728E-02 1.76497E-05-3.84723E-14
 -1       717 1.51015E-03-2.86394E-04-1.46635E-15
 -1       718 1.79723E-03-3.09372E-04-2.01113E-15
 -1       719 2.08486E-03-3.25495E-04-2.63821E-15
 -1       720 2.37261E-03-3.36344E-04-3.34652E-15
 -1       721 2.66026E-03-3.43287E-04-4.13493E-15
 -1       722 2.94771E-03-3.47428E-04-5.00094E-15
 -1       723 3.23491E-03-3.49631E-04-5.94120E-15
 -1       724 3.52187E-03-3.50556E-04-6.95128E-15
 -1       725 3.80861E-03-3.50695E-04-8.03051E-15
 -1       726 4.09516E-03-3.50411E-04-9.17707E-15
 -1       727 4.38158E-03-3.49970E-04-1.03891E-14
 -1       728 4.66793E-03-3.49564E-04-1.16624E-14
 -1       729 4.95428E-03-3.49334E-04-1.29904E-14
 -1       730 5.24076E-03-3.49389E-04-1.43728E-14
 -1       731 5.52751E-03-3.49815E-04-1.58077E-14
 -1       732 5.81476E-03-3.50690E-04-1.72953E-14
 -1       733 6.10278E-03-3.52086E-04-1.88314E-14
 -1       734 6.39194E-03-3.54077E-04-2.04147E-14
 -1       735 6.68266E-03-3.56728E-04-2.20380E-14
 -1       736 6.97538E-03-3.60065E-04-2.36955E-14
 -1       737 7.27045E-03-3.64000E-04-2.53805E-14
 -1       738 7.56794E-03-3.68158E-04-2.70931E-14
 -1       739 7.86745E-03-3.71558E-04-2.88329E-14
 -1       740 8.16782E-03-3.72121E-04-3.05922E-14
 -1       741 8.46720E-03-3.66047E-04-3.23722E-14
 -1       742 8.76328E-03-3.47301E-04-3.41739E-14
 -1       743 9.05417E-03-3.07668E-04-3.59914E-14
 -1       744 9.33946E-03-2.37999E-04-3.78239E-14
 -1       745 9.62090E-03-1.30711E-04-3.96666E-14
 -1       746 9.90192E-03 1.75870E-05-4.15212E-14
 -1       747 1.01861E-02 2.04690E-04-4.33927E-14
 -1       748 1.04758E-02 4.23709E-04-4.52760E-14
 -1       749 1.07708E-02 6.65606E-04-4.71562E-14
 -1       750 1.10697E-02 9.21827E-04-4.90238E-14
 -1       751 1.13700E-02 1.18582E-03-5.08876E-14
 -1       752 1.16697E-02 1.45333E-03-5.27443E-14
 -1       753 1.19677E-02 1.72194E-03-5.45859E-14
 -1       754 1.22632E-02 1.99051E-03-5.64104E-14
 -1       755 1.25562E-02 2.25855E-03-5.82188E-14
 -1       756 1.28472E-02 2.52592E-03-6.00038E-14
 -1       757 1.31365E-02 2.79260E-03-6.17659E-14
 -1       758 2.91490E-03 3.83653E-04-4.45990E-15
 -1       759 1.55305E-02 3.69105E-03-6.02522E-14
 -1       760 2.32694E-03 3.70423E-04-2.90616E-15
 -1       761 3.20145E-03 3.86311E-04-5.33330E-15
 -1       762 3.48784E-03 3.87529E-04-6.28100E-15
 -1       763 3.77409E-03 3.87839E-04-7.29930E-15
 -1       764 4.06022E-03 3.87627E-04-8.38434E-15
 -1       765 4.36054E-03 3.87138E-04-9.59507E-15
 -1       766 4.64644E-03 3.86613E-04-1.08102E-14
 -1       767 4.93219E-03 3.86151E-04-1.20831E-14
 -1       768 5.21769E-03 3.85830E-04-1.34094E-14
 -1       769 5.50280E-03 3.85706E-04-1.47833E-14
 -1       770 5.78719E-03 3.85840E-04-1.62021E-14
 -1       771 6.08446E-03 3.86398E-04-1.77370E-14
 -1       772 6.36533E-03 3.87614E-04-1.92344E-14
 -1       773 6.64245E-03 3.90123E-04-2.07637E-14
 -1       774 6.91331E-03 3.95167E-04-2.23235E-14
 -1       775 7.17397E-03 4.05071E-04-2.39111E-14
 -1       776 7.43023E-03 4.25159E-04-2.56073E-14
 -1       777 7.64881E-03 4.59749E-04-2.72441E-14
 -1       778 1.52700E-02 3.60951E-03-6.05574E-14
 -1       779 1.50077E-02 3.52717E-03-6.08593E-14
 -1       780 1.46609E-03 3.13347E-04-1.21675E-15
 -1       781 1.39483E-02 3.12669E-03-6.14422E-14
 -1       782 1.42102E-02 3.21522E-03-6.11243E-14
 -1       783 1.34332E-02 2.94905E-03-6.20757E-14
 -1       784 1.40965E-02 2.28912E-03-5.03710E-14
 -1       785 1.45985E-02 2.78820E-03-5.40022E-14
 -1       786 9.92991E-04-2.19775E-04-6.93351E-16
 -1       787 9.13696E-03 6.56569E-05-3.39124E-14
 -1       788 1.38743E-02 2.03438E-03-4.82964E-14
 -1       789 1.43390E-02 2.53409E-03-5.21912E-14
 -1       790 7.90523E-03 5.63863E-04-2.97457E-14
 -1       791 1.36897E-02 3.03784E-03-6.17568E-14
 -1       792 8.40002E-03 3.95234E-04-3.11538E-14
 -1       793 8.08856E-03 4.76514E-04-3.00648E-14
 -1       794 1.48687E-02 3.04728E-03-5.57985E-14
 -1       795 7.93016E-03 5.32352E-04-2.96754E-14
 -1       796 1.10988E-02 6.10925E-04-4.26574E-14
 -1       797 1.25044E-03-2.57039E-04-1.04524E-15
 -1       798 1.51455E-02 3.30893E-03-5.75736E-14
 -1       799 9.58866E-03-3.18286E-05-3.61194E-14
 -1       800 1.03022E-02 1.00562E-04-3.95004E-14
 -1       801 1.22636E-02 1.38490E-03-4.59388E-14
 -1       802 1.13808E-03 5.90143E-05-9.11963E-16
 -1       803 1.06732E-02 3.11625E-04-4.10994E-14
 -1       804 1.14187E-03-1.15121E-04-9.37425E-16
 -1       805 1.33550E-02 1.79621E-03-4.67857E-14
 -1       806 1.29972E-02 1.68689E-03-4.65267E-14
 -1       807 1.14911E-03-1.76023E-04-9.32424E-16
 -1       808 1.47443E-02 3.44333E-03-6.11638E-14
 -1       809 1.14341E-02 8.81999E-04-4.41987E-14
 -1       810 9.74919E-03-5.12611E-05-3.72739E-14
 -1       811 1.44773E-02 3.32996E-03-6.11423E-14
 -1       812 1.14971E-03 1.79009E-04-8.60873E-16
 -1       813 1.14223E-03 1.17856E-04-8.90415E-16
 -1       814 1.13670E-03 1.19352E-06-9.26966E-16
 -1       815 1.26324E-02 1.54890E-03-4.62363E-14
 -1       816 2.45974E-03 3.01067E-04-3.34009E-15
 -1       817 1.19128E-02 1.21756E-03-4.58290E-14
 -1       818 1.92933E-03-2.47686E-04-2.33196E-15
 -1       819 2.21806E-03-2.58823E-04-2.99793E-15
 -1       820 2.50705E-03-2.66196E-04-3.74343E-15
 -1       821 2.79598E-03-2.70789E-04-4.56739E-15
 -1       822 3.08466E-03-2.73406E-04-5.46653E-15
 -1       823 3.37298E-03-2.74676E-04-6.43779E-15
 -1       824 3.66094E-03-2.75076E-04-7.47617E-15
 -1       825 3.94856E-03-2.74961E-04-8.58248E-15
 -1       826 4.23588E-03-2.74586E-04-9.75434E-15
 -1       827 4.52299E-03-2.74129E-04-1.09885E-14
 -1       828 4.80999E-03-2.73711E-04-1.22820E-14
 -1       829 5.09703E-03-2.73407E-04-1.36316E-14
 -1       830 5.38431E-03-2.73262E-04-1.50342E-14
 -1       831 5.67209E-03-2.73294E-04-1.64898E-14
 -1       832 5.96072E-03-2.73513E-04-1.79964E-14
 -1       833 6.25070E-03-2.73934E-04-1.95499E-14
 -1       834 6.54263E-03-2.74599E-04-2.11457E-14
 -1       835 6.83727E-03-2.75600E-04-2.27777E-14
 -1       836 7.13539E-03-2.77101E-04-2.44384E-14
 -1       837 7.43772E-03-2.79300E-04-2.61275E-14
 -1       838 7.74454E-03-2.82241E-04-2.78420E-14
 -1       839 8.05540E-03-2.85391E-04-2.95796E-14
 -1       840 8.36866E-03-2.86839E-04-3.13357E-14
 -1       841 8.68143E-03-2.82205E-04-3.31136E-14
 -1       842 8.99021E-03-2.63616E-04-3.49113E-14
 -1       843 9.29231E-03-2.19799E-04-3.67227E-14
 -1       844 9.58784E-03-1.38617E-04-3.85459E-14
 -1       845 9.88023E-03-1.16364E-05-4.03792E-14
 -1       846 1.01747E-02 1.62137E-04-4.22329E-14
 -1       847 1.04752E-02 3.75585E-04-4.41017E-14
 -1       848 1.07826E-02 6.16946E-04-4.59771E-14
 -1       849 1.10948E-02 8.74502E-04-4.78436E-14
 -1       850 1.14082E-02 1.13956E-03-4.97041E-14
 -1       851 1.17197E-02 1.40704E-03-5.15621E-14
 -1       852 1.20274E-02 1.67457E-03-5.34073E-14
 -1       853 1.23305E-02 1.94142E-03-5.52344E-14
 -1       854 1.26293E-02 2.20758E-03-5.70457E-14
 -1       855 1.29243E-02 2.47317E-03-5.88379E-14
 -1       856 1.31798E-02 2.71118E-03-6.04627E-14
 -1       857 3.33859E-03 3.11740E-04-5.90419E-15
 -1       858 3.62614E-03 3.12386E-04-6.89369E-15
 -1       859 3.91338E-03 3.12428E-04-7.95047E-15
 -1       860 4.21468E-03 3.12142E-04-9.13065E-15
 -1       861 4.50136E-03 3.11780E-04-1.03197E-14
 -1       862 4.78776E-03 3.11491E-04-1.15675E-14
 -1       863 5.07385E-03 3.11405E-04-1.28704E-14
 -1       864 5.35952E-03 3.11653E-04-1.42248E-14
 -1       865 5.64454E-03 3.12398E-04-1.56277E-14
 -1       866 5.94268E-03 3.13999E-04-1.71486E-14
 -1       867 6.22485E-03 3.16754E-04-1.86386E-14
 -1       868 6.50421E-03 3.21487E-04-2.01619E-14
 -1       869 6.77910E-03 3.29495E-04-2.17180E-14
 -1       870 7.04719E-03 3.42893E-04-2.33015E-14
 -1       871 7.31791E-03 3.66309E-04-2.49933E-14
 -1       872 7.56138E-03 4.02019E-04-2.66315E-14
 -1       873 1.45061E-03 2.39758E-04-1.27476E-15
 -1       874 1.38276E-02 2.94572E-03-5.97620E-14
 -1       875 1.13791E-03-5.64794E-05-9.35412E-16
 -1       876 2.17125E-03 2.92234E-04-2.65215E-15
 -1       877 1.04068E-02 2.01283E-04-4.08219E-14
 -1       878 1.37273E-02 2.11210E-03-4.95125E-14
 -1       879 9.21953E-03-5.99641E-05-3.46344E-14
 -1       880 1.47777E-02 3.11127E-03-5.69629E-14
 -1       881 8.45999E-03 2.57848E-04-3.10019E-14
 -1       882 8.11230E-03 3.71629E-04-2.96457E-14
 -1       883 1.39801E-02 2.36339E-03-5.15648E-14
 -1       884 1.07764E-02 4.41861E-04-4.23934E-14
 -1       885 8.74993E-03 1.14402E-04-3.21948E-14
 -1       886 1.64145E-03-2.31639E-04-1.74570E-15
 -1       887 1.50223E-02 3.35966E-03-5.87660E-14
 -1       888 1.88296E-03 2.79009E-04-2.03977E-15
 -1       889 3.05072E-03 3.10086E-04-4.98649E-15
 -1       890 7.82407E-03 4.43025E-04-2.84442E-14
 -1       891 2.75535E-03 3.06777E-04-4.12332E-15
 -1       892 1.42365E-02 2.60492E-03-5.33818E-14
 -1       893 1.47590E-02 3.27919E-03-5.90666E-14
 -1       894 1.00788E-02 3.14717E-05-3.90395E-14
 -1       895 1.45035E-02 2.85535E-03-5.51809E-14
 -1       896 1.19885E-03-2.15363E-04-9.89595E-16
 -1       897 1.35382E-02 1.94906E-03-4.81485E-14
 -1       898 1.32202E-02 1.84881E-03-4.78877E-14
 -1       899 1.39006E-03-1.64172E-04-1.31664E-15
 -1       900 1.35673E-02 2.85541E-03-6.00807E-14
 -1       901 1.40978E-02 3.03777E-03-5.94497E-14
 -1       902 1.38366E-03-9.69995E-05-1.31842E-15
 -1       903 8.86438E-03-3.13552E-05-3.29034E-14
 -1       904 1.10814E-02 6.82182E-04-4.39394E-14
 -1       905 1.44936E-02 3.19626E-03-5.93690E-14
 -1       906 9.38427E-03-1.07128E-04-3.57781E-14
 -1       907 1.38079E-03 3.40839E-05-1.29554E-15
 -1       908 1.23157E-02 1.49541E-03-4.74888E-14
 -1       909 1.26427E-02 1.64954E-03-4.77850E-14
 -1       910 1.38398E-03 9.99180E-05-1.27140E-15
 -1       911 1.15401E-02 1.02258E-03-4.57751E-14
 -1       912 1.45127E-02 3.03358E-03-5.72676E-14
 -1       913 1.35804E-02 2.17263E-03-5.07415E-14
 -1       914 2.35483E-03-1.89743E-04-3.36345E-15
 -1       915 2.64473E-03-1.94240E-04-4.14483E-15
 -1       916 2.93453E-03-1.96942E-04-5.00218E-15
 -1       917 3.22401E-03-1.98384E-04-5.93286E-15
 -1       918 3.51306E-03-1.98979E-04-6.93279E-15
 -1       919 3.80166E-03-1.99039E-04-8.00046E-15
 -1       920 4.08985E-03-1.98788E-04-9.13234E-15
 -1       921 4.37768E-03-1.98375E-04-1.03289E-14
 -1       922 4.66528E-03-1.97896E-04-1.15846E-14
 -1       923 4.95278E-03-1.97392E-04-1.29000E-14
 -1       924 5.24039E-03-1.96863E-04-1.42702E-14
 -1       925 5.52837E-03-1.96271E-04-1.56932E-14
 -1       926 5.81709E-03-1.95547E-04-1.71692E-14
 -1       927 6.10704E-03-1.94608E-04-1.86925E-14
 -1       928 6.39891E-03-1.93389E-04-2.02616E-14
 -1       929 6.69359E-03-1.91897E-04-2.18700E-14
 -1       930 6.99220E-03-1.90292E-04-2.35083E-14
 -1       931 7.29602E-03-1.88998E-04-2.51729E-14
 -1       932 7.60626E-03-1.88749E-04-2.68640E-14
 -1       933 7.92362E-03-1.90398E-04-2.85773E-14
 -1       934 8.24764E-03-1.94354E-04-3.03128E-14
 -1       935 8.57599E-03-1.99068E-04-3.20675E-14
 -1       936 8.90391E-03-1.99128E-04-3.38417E-14
 -1       937 9.22700E-03-1.83318E-04-3.56340E-14
 -1       938 9.54057E-03-1.34952E-04-3.74375E-14
 -1       939 9.84724E-03-3.75342E-05-3.92535E-14
 -1       940 1.01530E-02 1.17280E-04-4.10888E-14
 -1       941 1.04647E-02 3.23807E-04-4.29402E-14
 -1       942 1.07856E-02 5.66833E-04-4.48049E-14
 -1       943 1.11131E-02 8.29075E-04-4.66691E-14
 -1       944 1.14417E-02 1.09785E-03-4.85254E-14
 -1       945 1.17669E-02 1.36660E-03-5.03804E-14
 -1       946 1.20856E-02 1.63314E-03-5.22286E-14
 -1       947 1.23972E-02 1.89765E-03-5.40596E-14
 -1       948 1.27020E-02 2.16099E-03-5.58725E-14
 -1       949 1.30014E-02 2.42391E-03-5.76684E-14
 -1       950 4.06116E-03 2.36593E-04-8.63651E-15
 -1       951 3.47774E-03 2.36369E-04-6.48518E-15
 -1       952 1.38069E-03-3.12403E-05-1.31088E-15
 -1       953 4.34867E-03 2.36406E-04-9.79639E-15
 -1       954 4.63580E-03 2.36270E-04-1.10182E-14
 -1       955 4.92258E-03 2.36340E-04-1.22972E-14
 -1       956 5.20895E-03 2.36779E-04-1.36299E-14
 -1       957 5.49482E-03 2.37797E-04-1.50123E-14
 -1       958 5.79422E-03 2.39823E-04-1.65169E-14
 -1       959 6.07825E-03 2.43155E-04-1.79945E-14
 -1       960 6.36064E-03 2.48611E-04-1.95098E-14
 -1       961 6.64060E-03 2.57340E-04-2.10611E-14
 -1       962 6.91717E-03 2.71031E-04-2.26413E-14
 -1       963 7.20285E-03 2.93277E-04-2.43298E-14
 -1       964 7.46988E-03 3.24706E-04-2.59640E-14
 -1       965 1.37113E-02 2.76938E-03-5.80779E-14
 -1       966 7.77092E-03 3.48852E-04-2.77738E-14
 -1       967 2.30638E-03 2.24105E-04-3.05430E-15
 -1       968 1.67501E-03 1.95796E-04-1.71775E-15
 -1       969 8.11865E-03 2.45969E-04-2.93371E-14
 -1       970 8.38401E-03 1.30137E-04-3.05055E-14
 -1       971 1.05421E-02 3.26054E-04-4.22023E-14
 -1       972 1.77651E-03-1.72634E-04-2.03642E-15
 -1       973 1.38589E-02 2.42391E-03-5.27542E-14
 -1       974 3.18899E-03 2.35449E-04-5.52548E-15
 -1       975 1.41526E-03 1.68114E-04-1.27899E-15
 -1       976 1.33983E-02 2.00684E-03-4.93161E-14
 -1       977 2.01711E-03 2.15377E-04-2.39551E-15
 -1       978 1.19326E-02 1.30917E-03-4.74459E-14
 -1       979 2.06522E-03-1.82794E-04-2.66046E-15
 -1       980 1.29331E-02 1.75822E-03-4.78378E-14
 -1       981 3.76606E-03 2.36656E-04-7.51442E-15
 -1       982 1.39858E-02 2.86197E-03-5.77676E-14
 -1       983 1.41297E-02 2.66612E-03-5.45599E-14
 -1       984 9.05750E-03-1.40378E-04-3.42882E-14
 -1       985 2.60316E-03 2.29953E-04-3.80660E-15
 -1       986 1.08230E-02 5.38094E-04-4.37554E-14
 -1       987 9.81448E-03-5.08963E-05-3.83144E-14
 -1       988 1.62900E-03 7.32177E-05-1.71639E-15
 -1       989 8.50981E-03-1.31423E-05-3.11967E-14
 -1       990 1.23643E-02 1.60155E-03-4.90777E-14
 -1       991 1.62721E-03 1.55695E-06-1.74046E-15
 -1       992 1.01724E-02 9.64943E-05-4.02479E-14
 -1       993 1.26622E-02 1.75005E-03-4.93775E-14
 -1       994 2.89623E-03 2.33483E-04-4.62720E-15
 -1       995 1.33541E-02 2.59812E-03-5.78749E-14
 -1       996 4.49079E-03 1.60519E-04-1.04994E-14
 -1       997 2.15479E-03 1.48653E-04-2.76750E-15
 -1       998 4.77822E-03 1.60694E-04-1.17541E-14
 -1       999 2.78527E-03-1.20707E-04-4.54928E-15
 -1      1000 3.07558E-03-1.21991E-04-5.43869E-15
 -1      1001 3.36549E-03-1.22599E-04-6.39870E-15
 -1      1002 3.65492E-03-1.22758E-04-7.42733E-15
 -1      1003 3.94384E-03-1.22633E-04-8.52272E-15
 -1      1004 4.23231E-03-1.22327E-04-9.68146E-15
 -1      1005 4.52041E-03-1.21899E-04-1.09017E-14
 -1      1006 4.80828E-03-1.21356E-04-1.21805E-14
 -1      1007 5.09608E-03-1.20663E-04-1.35160E-14
 -1      1008 5.38405E-03-1.19730E-04-1.49072E-14
 -1      1009 5.67249E-03-1.18421E-04-1.63509E-14
 -1      1010 5.96183E-03-1.16551E-04-1.78448E-14
 -1      1011 6.25270E-03-1.13913E-04-1.93845E-14
 -1      1012 6.54595E-03-1.10328E-04-2.09665E-14
 -1      1013 6.84278E-03-1.05744E-04-2.25819E-14
 -1      1014 7.14478E-03-1.00411E-04-2.42248E-14
 -1      1015 7.45388E-03-9.51949E-05-2.58929E-14
 -1      1016 7.77208E-03-9.15843E-05-2.75848E-14
 -1      1017 8.10074E-03-9.18582E-05-2.92969E-14
 -1      1018 1.14743E-02 1.06033E-03-4.73528E-14
 -1      1019 1.18155E-02 1.33233E-03-4.92032E-14
 -1      1020 1.21467E-02 1.59848E-03-5.10469E-14
 -1      1021 1.24667E-02 1.85982E-03-5.28814E-14
 -1      1022 1.27774E-02 2.11923E-03-5.46974E-14
 -1      1023 1.30681E-02 2.35872E-03-5.62951E-14
 -1      1024 3.91108E-03 1.60540E-04-8.15805E-15
 -1      1025 1.35966E-02 2.59671E-03-5.63875E-14
 -1      1026 1.62880E-03-7.01190E-05-1.75613E-15
 -1      1027 1.65072E-03 1.33746E-04-1.72096E-15
 -1      1028 5.06528E-03 1.61206E-04-1.30651E-14
 -1      1029 5.35197E-03 1.62265E-04-1.44277E-14
 -1      1030 5.65255E-03 1.64287E-04-1.59148E-14
 -1      1031 5.93829E-03 1.67534E-04-1.73796E-14
 -1      1032 6.22338E-03 1.72724E-04-1.88848E-14
 -1      1033 6.50764E-03 1.80774E-04-2.04284E-14
 -1      1034 6.79104E-03 1.92928E-04-2.20064E-14
 -1      1035 7.08803E-03 2.11779E-04-2.36934E-14
 -1      1036 7.37138E-03 2.37047E-04-2.53258E-14
 -1      1037 7.69259E-03 2.45570E-04-2.71298E-14
 -1      1038 2.49479E-03-1.18454E-04-3.73427E-15
 -1      1039 1.11493E-02 7.98220E-04-4.55553E-14
 -1      1040 4.20296E-03 1.60517E-04-9.30405E-15
 -1      1041 8.03277E-03 1.20836E-04-2.87870E-14
 -1      1042 3.62233E-03 1.60428E-04-7.08876E-15
 -1      1043 3.33307E-03 1.59991E-04-6.08811E-15
 -1      1044 1.34439E-02 2.21904E-03-5.19692E-14
 -1      1045 1.90217E-03 1.42331E-04-2.21487E-15
 -1      1046 2.20449E-03-1.14862E-04-2.99605E-15
 -1      1047 1.38604E-02 2.63666E-03-5.54750E-14
 -1      1048 1.91571E-03-9.24167E-05-2.33719E-15
 -1      1049 1.29239E-02 1.85767E-03-4.94320E-14
 -1      1050 3.03972E-03 1.58973E-04-5.14575E-15
 -1      1051 2.45209E-03 1.53802E-04-3.48902E-15
 -1      1052 1.36504E-02 2.42438E-03-5.37296E-14
 -1      1053 1.32412E-02 2.04594E-03-5.05452E-14
 -1      1054 8.07870E-03 1.30386E-05-2.90459E-14
 -1      1055 1.33307E-02 2.47911E-03-5.63414E-14
 -1      1056 1.88025E-03 7.81422E-05-2.21126E-15
 -1      1057 1.26679E-02 1.83341E-03-5.07938E-14
 -1      1058 2.34683E-03-4.41737E-05-3.33735E-15
 -1      1059 1.91335E-03-1.53134E-05-2.31981E-15
 -1      1060 4.63377E-03 8.45823E-05-1.12104E-14
 -1      1061 3.21878E-03-4.62166E-05-5.87558E-15
 -1      1062 3.50879E-03-4.63046E-05-6.86439E-15
 -1      1063 3.79827E-03-4.62364E-05-7.92215E-15
 -1      1064 4.08722E-03-4.60461E-05-9.04462E-15
 -1      1065 4.37571E-03-4.57408E-05-1.02279E-14
 -1      1066 4.66384E-03-4.52932E-05-1.14717E-14
 -1      1067 4.95174E-03-4.46353E-05-1.27726E-14
 -1      1068 5.23957E-03-4.36481E-05-1.41311E-14
 -1      1069 5.52758E-03-4.21511E-05-1.55429E-14
 -1      1070 5.81605E-03-3.98837E-05-1.70048E-14
 -1      1071 6.10544E-03-3.65215E-05-1.85157E-14
 -1      1072 6.39641E-03-3.16805E-05-2.00697E-14
 -1      1073 6.68996E-03-2.50111E-05-2.16587E-14
 -1      1074 6.98758E-03-1.63246E-05-2.32808E-14
 -1      1075 7.29129E-03-5.81193E-06-2.49278E-14
 -1      1076 7.60426E-03 4.57461E-06-2.65980E-14
 -1      1077 1.25441E-02 1.82855E-03-5.17000E-14
 -1      1078 1.28593E-02 2.08239E-03-5.35217E-14
 -1      1079 7.65700E-03 1.18712E-04-2.68479E-14
 -1      1080 5.79728E-03 9.05231E-05-1.67560E-14
 -1      1081 6.08434E-03 9.48275E-05-1.82492E-14
 -1      1082 6.37165E-03 1.01371E-04-1.97836E-14
 -1      1083 6.65964E-03 1.11000E-04-2.13557E-14
 -1      1084 6.96377E-03 1.25408E-04-2.30409E-14
 -1      1085 7.25701E-03 1.44010E-04-2.46715E-14
 -1      1086 2.63756E-03-4.52634E-05-4.10885E-15
 -1      1087 4.34580E-03 8.43379E-05-9.98047E-15
 -1      1088 3.76488E-03 8.41297E-05-7.69111E-15
 -1      1089 3.47545E-03 8.39400E-05-6.65044E-15
 -1      1090 4.92139E-03 8.50915E-05-1.24979E-14
 -1      1091 5.49589E-03 8.76785E-05-1.52356E-14
 -1      1092 2.74599E-03 1.57048E-04-4.27907E-15
 -1      1093 2.92832E-03-4.58964E-05-4.95596E-15
 -1      1094 1.29113E-02 1.94058E-03-5.08506E-14
 -1      1095 5.20874E-03 8.60413E-05-1.38395E-14
 -1      1096 4.05559E-03 8.42248E-05-8.80440E-15
 -1      1097 2.29929E-03 7.91087E-05-3.16301E-15
 -1      1098 1.29526E-02 2.05012E-03-5.23422E-14
 -1      1099 2.08946E-03 7.90548E-05-2.66696E-15
 -1      1100 3.18186E-03 8.35185E-05-5.66661E-15
 -1      1101 1.30972E-02 2.28038E-03-5.49388E-14
 -1      1102 2.12975E-03-2.94372E-05-2.80709E-15
 -1      1103 1.32401E-02 2.19887E-03-5.27967E-14
 -1      1104 1.33669E-02 2.40053E-03-5.49891E-14
 -1      1105 2.59352E-03 8.13312E-05-3.92102E-15
 -1      1106 3.07346E-03 2.98643E-05-5.36306E-15
 -1      1107 2.88783E-03 8.27199E-05-4.75629E-15
 -1      1108 0.00000E+00 0.00000E+00 0.00000E+00
 -1      1109 0.00000E+00 0.00000E+00 0.00000E+00
 -1      1110 0.00000E+00 0.00000E+00 0.00000E+00
 -1      1111 0.00000E+00 0.00000E+00 0.00000E+00
 -1      1112 0.00000E+00 0.00000E+00 0.00000E+00
 -1      1113 0.00000E+00 0.00000E+00 0.00000E+00
 -1      1114 0.00000E+00 0.00000E+00 0.00000E+00
 -1      1115 0.00000E+00 0.00000E+00 0.00000E+00
 -1      1116 0.00000E+00 0.00000E+00 0.00000E+00
 -1      1117 0.00000E+00 0.00000E+00 0.00000E+00
 -1      1118 0.00000E+00 0.00000E+00 0.00000E+00
 -1      1119 0.00000E+00 0.00000E+00 0.00000E+00
 -1      1120 0.00000E+00 0.00000E+00 0.00000E+00
 -1      1121 0.00000E+00 0.00000E+00 0.00000E+00
 -1      1122 0.00000E+00 0.00000E+00 0.00000E+00
 -1      1123 0.00000E+00 0.00000E+00 0.00000E+00
 -1      1124 0.00000E+00 0.00000E+00 0.00000E+00
 -1      1125 2.11677E-04-1.48321E-04 7.86047E-18
 -1      1126 5.51687E-04-3.37463E-04-3.95869E-17
 -1      1127 8.33571E-04-4.58919E-04-1.78378E-16
 -1      1128 1.10323E-03-5.40575E-04-4.22066E-16
 -1      1129 1.36875E-03-5.97811E-04-7.65271E-16
 -1      1130 1.63370E-03-6.38528E-04-1.20375E-15
 -1      1131 1.89993E-03-6.67384E-04-1.73592E-15
 -1      1132 2.16829E-03-6.87506E-04-2.35933E-15
 -1      1133 2.43908E-03-7.01195E-04-3.07283E-15
 -1      1134 2.71231E-03-7.10193E-04-3.87544E-15
 -1      1135 2.98781E-03-7.15832E-04-4.76257E-15
 -1      1136 3.26533E-03-7.19124E-04-5.72852E-15
 -1      1137 3.54462E-03-7.20839E-04-6.77035E-15
 -1      1138 3.82539E-03-7.21555E-04-7.88903E-15
 -1      1139 4.10737E-03-7.21708E-04-9.08137E-15
 -1      1140 4.39030E-03-7.21627E-04-1.03385E-14
 -1      1141 4.67396E-03-7.21566E-04-1.16554E-14
 -1      1142 4.95810E-03-7.21728E-04-1.30313E-14
 -1      1143 5.24248E-03-7.22286E-04-1.44578E-14
 -1      1144 5.52681E-03-7.23389E-04-1.59387E-14
 -1      1145 5.81076E-03-7.25166E-04-1.74703E-14
 -1      1146 6.09386E-03-7.27711E-04-1.90490E-14
 -1      1147 6.37549E-03-7.31044E-04-2.06710E-14
 -1      1148 6.65482E-03-7.35044E-04-2.23402E-14
 -1      1149 6.93077E-03-7.39338E-04-2.40542E-14
 -1      1150 7.20198E-03-7.43147E-04-2.58078E-14
 -1      1151 7.46686E-03-7.45089E-04-2.75904E-14
 -1      1152 7.72369E-03-7.42983E-04-2.93954E-14
 -1      1153 7.97089E-03-7.33689E-04-3.12280E-14
 -1      1154 8.20730E-03-7.13095E-04-3.30814E-14
 -1      1155 8.43261E-03-6.76322E-04-3.49538E-14
 -1      1156 8.64768E-03-6.18220E-04-3.68460E-14
 -1      1157 8.85471E-03-5.34110E-04-3.87544E-14
 -1      1158 9.05711E-03-4.20615E-04-4.06790E-14
 -1      1159 9.25903E-03-2.76345E-04-4.26090E-14
 -1      1160 9.46473E-03-1.02196E-04-4.45344E-14
 -1      1161 9.67783E-03 9.88437E-05-4.64577E-14
 -1      1162 9.90081E-03 3.22313E-04-4.83754E-14
 -1      1163 1.01348E-02 5.63098E-04-5.02799E-14
 -1      1164 1.03798E-02 8.16214E-04-5.21647E-14
 -1      1165 1.06348E-02 1.07735E-03-5.40423E-14
 -1      1166 1.08983E-02 1.34316E-03-5.59099E-14
 -1      1167 1.11685E-02 1.61124E-03-5.77660E-14
 -1      1168 1.14439E-02 1.88004E-03-5.96170E-14
 -1      1169 1.17231E-02 2.14865E-03-6.14548E-14
 -1      1170 1.20050E-02 2.41656E-03-6.32586E-14
 -1      1171 1.22888E-02 2.68356E-03-6.50132E-14
 -1      1172 1.25737E-02 2.94955E-03-6.67328E-14
 -1      1173 1.28593E-02 3.21457E-03-6.84340E-14
 -1      1174 1.31379E-02 3.47229E-03-7.01027E-14
 -1      1175 2.28437E-04 1.60698E-04 2.17925E-17
 -1      1176 5.53862E-04 3.42104E-04 7.98244E-18
 -1      1177 8.34500E-04 4.61099E-04-8.47168E-17
 -1      1178 1.10413E-03 5.42267E-04-2.65440E-16
 -1      1179 1.36966E-03 5.99494E-04-5.34024E-16
 -1      1180 1.64128E-03 6.41162E-04-8.99888E-16
 -1      1181 1.91429E-03 6.70471E-04-1.35987E-15
 -1      1182 2.18279E-03 6.90341E-04-1.89540E-15
 -1      1183 2.45372E-03 7.03886E-04-2.51300E-15
 -1      1184 2.72706E-03 7.12816E-04-3.21051E-15
 -1      1185 3.00263E-03 7.18439E-04-3.98921E-15
 -1      1186 3.28717E-03 7.21805E-04-4.87188E-15
 -1      1187 3.57350E-03 7.23532E-04-5.83366E-15
 -1      1188 3.85429E-03 7.24197E-04-6.84797E-15
 -1      1189 4.13624E-03 7.24246E-04-7.93595E-15
 -1      1190 4.41909E-03 7.23939E-04-9.09160E-15
 -1      1191 4.70973E-03 7.23425E-04-1.03474E-14
 -1      1192 5.00091E-03 7.22779E-04-1.16649E-14
 -1      1193 5.28540E-03 7.22004E-04-1.30004E-14
 -1      1194 5.57026E-03 7.20968E-04-1.43758E-14
 -1      1195 5.85561E-03 7.19453E-04-1.57829E-14
 -1      1196 6.14182E-03 7.17118E-04-1.72179E-14
 -1      1197 6.43695E-03 7.13366E-04-1.87268E-14
 -1      1198 6.73563E-03 7.07641E-04-2.02636E-14
 -1      1199 7.03366E-03 6.99597E-04-2.17830E-14
 -1      1200 7.34397E-03 6.89158E-04-2.33307E-14
 -1      1201 7.67649E-03 6.78394E-04-2.48983E-14
 -1      1202 8.05802E-03 6.75611E-04-2.65254E-14
 -1      1203 8.50929E-03 7.08141E-04-2.81747E-14
 -1      1204 9.02444E-03 8.27418E-04-2.97076E-14
 -1      1205 9.65977E-03 1.14272E-03-3.12565E-14
 -1      1206 1.03314E-02 1.74000E-03-3.27330E-14
 -1      1207 1.08520E-02 2.50117E-03-3.40238E-14
 -1      1208 1.11522E-02 3.15974E-03-3.52146E-14
 -1      1209 1.12941E-02 3.43096E-03-3.63425E-14
 -1      1210 1.14576E-02 3.22468E-03-3.75300E-14
 -1      1211 1.17844E-02 2.73731E-03-3.87395E-14
 -1      1212 1.22736E-02 2.25314E-03-4.00183E-14
 -1      1213 1.28759E-02 1.93178E-03-4.14883E-14
 -1      1214 1.34687E-02 1.85431E-03-4.30964E-14
 -1      1215 1.40101E-02 1.97402E-03-4.48817E-14
 -1      1216 1.44695E-02 2.20737E-03-4.67725E-14
 -1      1217 1.48469E-02 2.47224E-03-4.86189E-14
 -1      1218 1.51828E-02 2.74669E-03-5.04596E-14
 -1      1219 1.54951E-02 3.02139E-03-5.22916E-14
 -1      1220 1.57943E-02 3.29384E-03-5.41130E-14
 -1      1221 1.60939E-02 3.57057E-03-5.59625E-14
 -1      1222 1.63897E-02 3.84526E-03-5.77789E-14
 -1      1223 1.66766E-02 4.11187E-03-5.95163E-14
 -1      1224 1.69627E-02 4.37761E-03-6.12554E-14
 -1      1225 1.72485E-02 4.64280E-03-6.30032E-14
 -1      1226 1.75342E-02 4.90770E-03-6.47509E-14
 -1      1227 1.75469E-02 4.99796E-03-6.57849E-14
 -1      1228 1.72865E-02 4.91364E-03-6.61088E-14
 -1      1229 1.70264E-02 4.82940E-03-6.64536E-14
 -1      1230 1.67663E-02 4.74533E-03-6.67693E-14
 -1      1231 1.65061E-02 4.66136E-03-6.70731E-14
 -1      1232 1.62476E-02 4.57796E-03-6.73658E-14
 -1      1233 1.59889E-02 4.49413E-03-6.76906E-14
 -1      1234 1.57277E-02 4.40892E-03-6.80020E-14
 -1      1235 1.54667E-02 4.32296E-03-6.82755E-14
 -1      1236 1.52062E-02 4.23638E-03-6.85544E-14
 -1      1237 1.49466E-02 4.14947E-03-6.88265E-14
 -1      1238 1.46899E-02 4.06337E-03-6.91012E-14
 -1      1239 1.44339E-02 3.97770E-03-6.93952E-14
 -1      1240 1.41759E-02 3.89199E-03-6.96889E-14
 -1      1241 1.39176E-02 3.80703E-03-7.00223E-14
 -1      1242 1.36587E-02 3.72263E-03-7.03990E-14
 -1      1243 1.34014E-02 3.63914E-03-7.07642E-14
 -1      1244 1.37056E-02 1.44874E-03-4.16187E-14
 -1      1245 1.37351E-02 1.62311E-03-4.12670E-14
 -1      1246 1.36293E-02 1.83368E-03-4.07402E-14
 -1      1247 1.33798E-02 2.10647E-03-4.00651E-14
 -1      1248 1.29836E-02 2.45641E-03-3.92751E-14
 -1      1249 1.24356E-02 2.84824E-03-3.83973E-14
 -1      1250 1.17262E-02 3.15626E-03-3.74140E-14
 -1      1251 1.09711E-02 3.19951E-03-3.64706E-14
 -1      1252 1.02285E-02 2.91679E-03-3.56078E-14
 -1      1253 9.55837E-03 2.44553E-03-3.48562E-14
 -1      1254 8.99343E-03 1.95220E-03-3.42329E-14
 -1      1255 8.54886E-03 1.53531E-03-3.37548E-14
 -1      1256 8.24038E-03 1.22343E-03-3.34409E-14
 -1      1257 8.04789E-03 9.76431E-04-3.32926E-14
 -1      1258 7.98674E-03 7.76488E-04-3.33457E-14
 -1      1259 8.05985E-03 6.11469E-04-3.35926E-14
 -1      1260 8.24107E-03 4.74487E-04-3.39855E-14
 -1      1261 8.51499E-03 3.51341E-04-3.45255E-14
 -1      1262 8.88166E-03 2.40410E-04-3.52345E-14
 -1      1263 9.32295E-03 1.54917E-04-3.60785E-14
 -1      1264 9.78550E-03 1.13354E-04-3.69458E-14
 -1      1265 1.02517E-02 1.22797E-04-3.77936E-14
 -1      1266 1.07246E-02 1.80232E-04-3.86163E-14
 -1      1267 1.11940E-02 2.83359E-04-3.93843E-14
 -1      1268 1.16792E-02 4.29310E-04-4.01057E-14
 -1      1269 1.21441E-02 5.97221E-04-4.07155E-14
 -1      1270 1.25745E-02 7.72893E-04-4.11976E-14
 -1      1271 1.29661E-02 9.49694E-04-4.15392E-14
 -1      1272 1.32970E-02 1.11978E-03-4.17370E-14
 -1      1273 1.35537E-02 1.28629E-03-4.17751E-14
 -1      1274 1.66716E-04-1.10326E-04-6.76271E-18
 -1      1275 1.12555E-04-5.69526E-05-2.29444E-17
 -1      1276 1.17637E-04-6.75637E-05-1.83772E-17
 -1      1277 1.08433E-04-4.34660E-05-3.05203E-17
 -1      1278 1.10298E-04-4.95819E-05-2.82977E-17
 -1      1279 2.26358E-04-1.07579E-04-6.62583E-17
 -1      1280 1.06845E-04-3.35820E-05-3.42608E-17
 -1      1281 1.07696E-04-3.83054E-05-3.32037E-17
 -1      1282 2.19126E-04-8.24073E-05-7.93636E-17
 -1      1283 1.06059E-04-2.53287E-05-3.63343E-17
 -1      1284 1.06492E-04-2.93590E-05-3.58329E-17
 -1      1285 2.15867E-04-6.32254E-05-8.64516E-17
 -1      1286 1.05654E-04-1.80708E-05-3.71881E-17
 -1      1287 1.05886E-04-2.16368E-05-3.70255E-17
 -1      1288 2.14201E-04-4.71454E-05-9.01785E-17
 -1      1289 1.05428E-04-1.12253E-05-3.76218E-17
 -1      1290 1.05553E-04-1.46072E-05-3.76354E-17
 -1      1291 2.13277E-04-3.27173E-05-9.19132E-17
 -1      1292 1.05326E-04-4.68316E-06-3.74050E-17
 -1      1293 1.05379E-04-7.93265E-06-3.75676E-17
 -1      1294 2.12771E-04-1.91677E-05-9.22927E-17
 -1      1295 1.05314E-04 1.74057E-06-3.70526E-17
 -1      1296 1.05312E-04-1.46893E-06-3.72288E-17
 -1      1297 2.12553E-04-6.15333E-06-9.17506E-17
 -1      1298 1.05388E-04 8.21433E-06-3.63479E-17
 -1      1299 1.05330E-04 4.95817E-06-3.65376E-17
 -1      1300 2.12561E-04 6.69985E-06-9.05038E-17
 -1      1301 1.05569E-04 1.49147E-05-3.50197E-17
 -1      1302 1.05440E-04 1.15178E-05-3.54128E-17
 -1      1303 2.12797E-04 1.97409E-05-8.81998E-17
 -1      1304 1.05906E-04 2.19282E-05-3.31766E-17
 -1      1305 1.05669E-04 1.83393E-05-3.36780E-17
 -1      1306 2.13316E-04 3.32310E-05-8.46762E-17
 -1      1307 1.06536E-04 2.97907E-05-3.03983E-17
 -1      1308 1.06093E-04 2.57155E-05-3.13877E-17
 -1      1309 2.14266E-04 4.77495E-05-7.97973E-17
 -1      1310 1.07740E-04 3.88882E-05-2.60751E-17
 -1      1311 1.06884E-04 3.40927E-05-2.76607E-17
 -1      1312 2.15988E-04 6.41535E-05-7.24925E-17
 -1      1313 1.10279E-04 5.03277E-05-1.95698E-17
 -1      1314 1.08442E-04 4.41438E-05-2.23617E-17
 -1      1315 2.19240E-04 8.36627E-05-6.18266E-17
 -1      1316 1.16945E-04 6.75977E-05-8.99888E-18
 -1      1317 1.12193E-04 5.77496E-05-1.40540E-17
 -1      1318 2.26336E-04 1.09403E-04-4.59973E-17
 -1      1319 1.57593E-04 1.09844E-04 7.45389E-18
 -1      1320 1.35678E-04 8.60711E-05-2.83248E-18
 -1      1321 2.56067E-04 1.52050E-04-2.70508E-17
 -1      1322 3.35120E-04 2.20702E-04 2.16840E-19
 -1      1323 4.21589E-04-2.61691E-04-4.78946E-17
 -1      1324 5.74712E-04-3.36728E-04-9.52201E-17
 -1      1325 7.21930E-04-3.97311E-04-1.70355E-16
 -1      1326 8.65132E-04-4.46589E-04-2.70739E-16
 -1      1327 6.12165E-04-3.30804E-04-1.58727E-16
 -1      1328 1.00520E-03-4.87646E-04-3.94894E-16
 -1      1329 1.14308E-03-5.21623E-04-5.43998E-16
 -1      1330 9.05462E-04-4.31466E-04-3.65295E-16
 -1      1331 1.27963E-03-5.50388E-04-7.17281E-16
 -1      1332 1.41533E-03-5.74421E-04-9.14552E-16
 -1      1333 1.18797E-03-5.00861E-04-6.68045E-16
 -1      1334 1.55063E-03-5.94788E-04-1.13505E-15
 -1      1335 1.68579E-03-6.11822E-04-1.37851E-15
 -1      1336 1.46500E-03-5.49624E-04-1.06535E-15
 -1      1337 1.82105E-03-6.26154E-04-1.64521E-15
 -1      1338 1.95652E-03-6.38077E-04-1.93476E-15
 -1      1339 1.73980E-03-5.83940E-04-1.55414E-15
 -1      1340 2.09232E-03-6.47995E-04-2.24664E-15
 -1      1341 2.22849E-03-6.56159E-04-2.58079E-15
 -1      1342 2.01425E-03-6.07799E-04-2.13378E-15
 -1      1343 2.36511E-03-6.62845E-04-2.93763E-15
 -1      1344 2.50216E-03-6.68262E-04-3.31605E-15
 -1      1345 2.28933E-03-6.24024E-04-2.80261E-15
 -1      1346 2.63967E-03-6.72607E-04-3.71631E-15
 -1      1347 2.77763E-03-6.76047E-04-4.13791E-15
 -1      1348 2.56552E-03-6.34704E-04-3.55838E-15
 -1      1349 2.91603E-03-6.78724E-04-4.57934E-15
 -1      1350 3.05485E-03-6.80772E-04-5.04131E-15
 -1      1351 2.84301E-03-6.41413E-04-4.39838E-15
 -1      1352 3.19408E-03-6.82294E-04-5.52255E-15
 -1      1353 3.33369E-03-6.83392E-04-6.02293E-15
 -1      1354 3.12183E-03-6.45340E-04-5.31847E-15
 -1      1355 3.47365E-03-6.84143E-04-6.54240E-15
 -1      1356 3.61393E-03-6.84627E-04-7.08050E-15
 -1      1357 3.40188E-03-6.47383E-04-6.31591E-15
 -1      1358 3.75452E-03-6.84896E-04-7.63788E-15
 -1      1359 3.89538E-03-6.85014E-04-8.21344E-15
 -1      1360 3.68305E-03-6.48213E-04-7.38872E-15
 -1      1361 4.03649E-03-6.85019E-04-8.80638E-15
 -1      1362 4.17782E-03-6.84959E-04-9.41688E-15
 -1      1363 3.96517E-03-6.48333E-04-8.53500E-15
 -1      1364 4.31934E-03-6.84863E-04-1.00427E-14
 -1      1365 4.46103E-03-6.84768E-04-1.06831E-14
 -1      1366 4.24807E-03-6.48121E-04-9.74893E-15
 -1      1367 4.60286E-03-6.84698E-04-1.13393E-14
 -1      1368 4.74481E-03-6.84680E-04-1.20105E-14
 -1      1369 4.53158E-03-6.47862E-04-1.10265E-14
 -1      1370 4.88684E-03-6.84738E-04-1.26952E-14
 -1      1371 5.02894E-03-6.84891E-04-1.33936E-14
 -1      1372 4.81552E-03-6.47784E-04-1.23626E-14
 -1      1373 5.17106E-03-6.85163E-04-1.41056E-14
 -1      1374 5.31318E-03-6.85568E-04-1.48289E-14
 -1      1375 5.09969E-03-6.48075E-04-1.37538E-14
 -1      1376 5.45526E-03-6.86133E-04-1.55663E-14
 -1      1377 5.59727E-03-6.86865E-04-1.63170E-14
 -1      1378 5.38388E-03-6.48903E-04-1.51978E-14
 -1      1379 5.73914E-03-6.87794E-04-1.70795E-14
 -1      1380 5.88084E-03-6.88916E-04-1.78546E-14
 -1      1381 5.66783E-03-6.50424E-04-1.66918E-14
 -1      1382 6.02230E-03-6.90263E-04-1.86402E-14
 -1      1383 6.16346E-03-6.91817E-04-1.94376E-14
 -1      1384 5.95121E-03-6.52776E-04-1.82342E-14
 -1      1385 6.30422E-03-6.93606E-04-2.02479E-14
 -1      1386 6.44451E-03-6.95585E-04-2.10678E-14
 -1      1387 6.23360E-03-6.56058E-04-1.98256E-14
 -1      1388 6.58421E-03-6.97770E-04-2.18996E-14
 -1      1389 6.72321E-03-7.00078E-04-2.27440E-14
 -1      1390 6.51445E-03-6.60275E-04-2.14630E-14
 -1      1391 6.86138E-03-7.02490E-04-2.35969E-14
 -1      1392 6.99858E-03-7.04869E-04-2.44612E-14
 -1      1393 6.79306E-03-6.65252E-04-2.31437E-14
 -1      1394 7.13464E-03-7.07137E-04-2.53330E-14
 -1      1395 7.26941E-03-7.09081E-04-2.62133E-14
 -1      1396 7.06854E-03-6.70497E-04-2.48634E-14
 -1      1397 7.40271E-03-7.10529E-04-2.71007E-14
 -1      1398 7.53436E-03-7.11171E-04-2.79943E-14
 -1      1399 7.33987E-03-6.75009E-04-2.66158E-14
 -1      1400 7.66419E-03-7.10710E-04-2.88942E-14
 -1      1401 7.79205E-03-7.08725E-04-2.97989E-14
 -1      1402 7.60593E-03-6.77060E-04-2.83953E-14
 -1      1403 7.91780E-03-7.04772E-04-3.07100E-14
 -1      1404 8.04131E-03-6.98317E-04-3.16291E-14
 -1      1405 7.86560E-03-6.73986E-04-3.01989E-14
 -1      1406 8.16253E-03-6.88772E-04-3.25534E-14
 -1      1407 8.28142E-03-6.75523E-04-3.34799E-14
 -1      1408 8.11798E-03-6.62056E-04-3.20261E-14
 -1      1409 8.39802E-03-6.57879E-04-3.44135E-14
 -1      1410 8.51243E-03-6.35204E-04-3.53513E-14
 -1      1411 8.36263E-03-6.36548E-04-3.38761E-14
 -1      1412 8.62481E-03-6.06796E-04-3.62949E-14
 -1      1413 8.73538E-03-5.72084E-04-3.72406E-14
 -1      1414 8.59977E-03-5.92100E-04-3.57451E-14
 -1      1415 8.84446E-03-5.30478E-04-3.81900E-14
 -1      1416 8.95239E-03-4.81569E-04-3.91436E-14
 -1      1417 8.83050E-03-5.23378E-04-3.76295E-14
 -1      1418 9.05958E-03-4.25003E-04-4.01010E-14
 -1      1419 9.16644E-03-3.60612E-04-4.10614E-14
 -1      1420 9.05680E-03-4.25962E-04-3.95285E-14
 -1      1421 9.27343E-03-2.88359E-04-4.20206E-14
 -1      1422 9.38099E-03-2.08353E-04-4.29800E-14
 -1      1423 9.28132E-03-2.97221E-04-4.14366E-14
 -1      1424 9.48953E-03-1.20882E-04-4.39406E-14
 -1      1425 9.59941E-03-2.63090E-05-4.49000E-14
 -1      1426 9.50699E-03-1.36880E-04-4.33498E-14
 -1      1427 9.71098E-03 7.48198E-05-4.58598E-14
 -1      1428 9.82449E-03 1.81960E-04-4.68186E-14
 -1      1429 9.73658E-03 5.29127E-05-4.52640E-14
 -1      1430 9.94014E-03 2.94424E-04-4.77740E-14
 -1      1431 1.00580E-02 4.11583E-04-4.87285E-14
 -1      1432 9.97223E-03 2.68063E-04-4.71762E-14
 -1      1433 1.01783E-02 5.32734E-04-4.96782E-14
 -1      1434 1.03008E-02 6.57253E-04-5.06221E-14
 -1      1435 1.02152E-02 5.03363E-04-4.90784E-14
 -1      1436 1.04256E-02 7.84524E-04-5.15651E-14
 -1      1437 1.05526E-02 9.13993E-04-5.25051E-14
 -1      1438 1.04660E-02 7.53394E-04-5.09670E-14
 -1      1439 1.06817E-02 1.04518E-03-5.34405E-14
 -1      1440 1.08127E-02 1.17765E-03-5.43753E-14
 -1      1441 1.07243E-02 1.01325E-03-5.28412E-14
 -1      1442 1.09453E-02 1.31105E-03-5.53084E-14
 -1      1443 1.10796E-02 1.44507E-03-5.62363E-14
 -1      1444 1.09892E-02 1.27899E-03-5.47071E-14
 -1      1445 1.12152E-02 1.57951E-03-5.71630E-14
 -1      1446 1.13521E-02 1.71412E-03-5.80888E-14
 -1      1447 1.12596E-02 1.54769E-03-5.65627E-14
 -1      1448 1.14901E-02 1.84882E-03-5.90122E-14
 -1      1449 1.16289E-02 1.98344E-03-5.99304E-14
 -1      1450 1.15346E-02 1.81744E-03-5.84088E-14
 -1      1451 1.17686E-02 2.11795E-03-6.08432E-14
 -1      1452 1.19089E-02 2.25226E-03-6.17521E-14
 -1      1453 1.18130E-02 2.08709E-03-6.02390E-14
 -1      1454 1.20498E-02 2.38637E-03-6.26521E-14
 -1      1455 1.21912E-02 2.52021E-03-6.35389E-14
 -1      1456 1.20939E-02 2.35600E-03-6.20484E-14
 -1      1457 1.23329E-02 2.65380E-03-6.44189E-14
 -1      1458 1.24750E-02 2.78712E-03-6.52875E-14
 -1      1459 1.23767E-02 2.62390E-03-6.38250E-14
 -1      1460 1.26173E-02 2.92018E-03-6.61496E-14
 -1      1461 1.27598E-02 3.05297E-03-6.70069E-14
 -1      1462 1.26607E-02 2.89068E-03-6.55649E-14
 -1      1463 1.29025E-02 3.18551E-03-6.78574E-14
 -1      1464 1.30452E-02 3.31781E-03-6.87098E-14
 -1      1465 1.29456E-02 3.15635E-03-6.72800E-14
 -1      1466 1.32656E-02 3.51371E-03-6.99381E-14
 -1      1467 1.33086E-02 3.48481E-03-6.93549E-14
 -1      1468 6.43164E-04 3.71953E-04-5.38442E-17
 -1      1469 4.93011E-04 3.03642E-04-1.56803E-17
 -1      1470 4.44942E-04 2.65838E-04-3.58058E-17
 -1      1471 9.28818E-04 4.71877E-04-1.95875E-16
 -1      1472 7.87921E-04 4.26403E-04-1.14194E-16
 -1      1473 7.44864E-04 3.90625E-04-1.38900E-16
 -1      1474 1.20379E-03 5.41263E-04-4.23815E-16
 -1      1475 1.06708E-03 5.09597E-04-2.98725E-16
 -1      1476 1.03098E-03 4.76028E-04-3.27809E-16
 -1      1477 1.47445E-03 5.90449E-04-7.38084E-16
 -1      1478 1.33934E-03 5.67994E-04-5.70223E-16
 -1      1479 1.30898E-03 5.35829E-04-6.01990E-16
 -1      1480 1.75759E-03 6.26821E-04-1.16247E-15
 -1      1481 1.61596E-03 6.10324E-04-9.37943E-16
 -1      1482 1.59014E-03 5.79004E-04-9.71960E-16
 -1      1483 2.02801E-03 6.50883E-04-1.65566E-15
 -1      1484 1.89262E-03 6.39961E-04-1.39862E-15
 -1      1485 1.87026E-03 6.09102E-04-1.43308E-15
 -1      1486 2.29996E-03 6.67418E-04-2.23248E-15
 -1      1487 2.16376E-03 6.59961E-04-1.93365E-15
 -1      1488 2.14396E-03 6.29323E-04-1.96836E-15
 -1      1489 2.57374E-03 6.78450E-04-2.88997E-15
 -1      1490 2.43661E-03 6.73521E-04-2.55139E-15
 -1      1491 2.41875E-03 6.42967E-04-2.58578E-15
 -1      1492 2.84940E-03 6.85516E-04-3.62793E-15
 -1      1493 2.71134E-03 6.82402E-04-3.24891E-15
 -1      1494 2.69494E-03 6.51848E-04-3.28372E-15
 -1      1495 3.12684E-03 6.89779E-04-4.44637E-15
 -1      1496 2.98791E-03 6.87939E-04-4.02720E-15
 -1      1497 2.97258E-03 6.57339E-04-4.06134E-15
 -1      1498 3.41986E-03 6.92194E-04-5.38976E-15
 -1      1499 3.27314E-03 6.91201E-04-4.90759E-15
 -1      1500 3.25860E-03 6.60528E-04-4.94029E-15
 -1      1501 3.70034E-03 6.93204E-04-6.36413E-15
 -1      1502 3.55994E-03 6.92823E-04-5.86778E-15
 -1      1503 3.54595E-03 6.62067E-04-5.89874E-15
 -1      1504 3.98196E-03 6.93429E-04-7.41319E-15
 -1      1505 3.84102E-03 6.93392E-04-6.87929E-15
 -1      1506 3.82740E-03 6.62555E-04-6.90831E-15
 -1      1507 4.26452E-03 6.93194E-04-8.53274E-15
 -1      1508 4.12314E-03 6.93354E-04-7.96485E-15
 -1      1509 4.10977E-03 6.62442E-04-7.99065E-15
 -1      1510 4.54782E-03 6.92712E-04-9.72025E-15
 -1      1511 4.40609E-03 6.92975E-04-9.11825E-15
 -1      1512 4.39288E-03 6.61999E-04-9.14179E-15
 -1      1513 4.84590E-03 6.92061E-04-1.10343E-14
 -1      1514 4.69679E-03 6.92400E-04-1.03682E-14
 -1      1515 4.68370E-03 6.61370E-04-1.03883E-14
 -1      1516 5.13025E-03 6.91328E-04-1.23431E-14
 -1      1517 4.98802E-03 6.91709E-04-1.16821E-14
 -1      1518 4.97501E-03 6.60636E-04-1.16976E-14
 -1      1519 5.41500E-03 6.90413E-04-1.36958E-14
 -1      1520 5.27258E-03 6.90898E-04-1.30148E-14
 -1      1521 5.25963E-03 6.59793E-04-1.30273E-14
 -1      1522 5.70019E-03 6.89143E-04-1.50876E-14
 -1      1523 5.55753E-03 6.89830E-04-1.43873E-14
 -1      1524 5.54466E-03 6.58699E-04-1.43981E-14
 -1      1525 5.98607E-03 6.87220E-04-1.65088E-14
 -1      1526 5.84303E-03 6.88270E-04-1.57946E-14
 -1      1527 5.83020E-03 6.57110E-04-1.58049E-14
 -1      1528 6.27318E-03 6.84205E-04-1.79635E-14
 -1      1529 6.12944E-03 6.85849E-04-1.72320E-14
 -1      1530 6.11659E-03 6.54635E-04-1.72436E-14
 -1      1531 6.57714E-03 6.79210E-04-1.95240E-14
 -1      1532 6.42476E-03 6.81915E-04-1.87397E-14
 -1      1533 6.41169E-03 6.50586E-04-1.87523E-14
 -1      1534 6.87114E-03 6.71986E-04-2.10356E-14
 -1      1535 6.72345E-03 6.75812E-04-2.02768E-14
 -1      1536 6.70965E-03 6.44234E-04-2.02894E-14
 -1      1537 7.17321E-03 6.61795E-04-2.25721E-14
 -1      1538 7.02091E-03 6.67038E-04-2.18006E-14
 -1      1539 7.00526E-03 6.34961E-04-2.18158E-14
 -1      1540 7.48951E-03 6.49015E-04-2.41358E-14
 -1      1541 7.32911E-03 6.55214E-04-2.33509E-14
 -1      1542 7.30921E-03 6.22172E-04-2.33704E-14
 -1      1543 7.82999E-03 6.37164E-04-2.57158E-14
 -1      1544 7.65590E-03 6.41860E-04-2.49240E-14
 -1      1545 7.62687E-03 6.06976E-04-2.49470E-14
 -1      1546 8.22997E-03 6.39958E-04-2.73995E-14
 -1      1547 8.02305E-03 6.33927E-04-2.65548E-14
 -1      1548 7.97473E-03 5.95413E-04-2.65833E-14
 -1      1549 8.67294E-03 6.95049E-04-2.90151E-14
 -1      1550 8.44214E-03 6.56123E-04-2.82056E-14
 -1      1551 8.35646E-03 6.10176E-04-2.82372E-14
 -1      1552 9.14260E-03 8.59755E-04-3.04744E-14
 -1      1553 8.89838E-03 7.56937E-04-2.97435E-14
 -1      1554 8.75337E-03 6.97099E-04-2.97784E-14
 -1      1555 9.75385E-03 1.31522E-03-3.21140E-14
 -1      1556 9.43773E-03 1.04223E-03-3.12941E-14
 -1      1557 9.20736E-03 9.56440E-04-3.13321E-14
 -1      1558 1.00131E-02 1.62106E-03-3.27743E-14
 -1      1559 1.06976E-02 2.64262E-03-3.44476E-14
 -1      1560 1.04698E-02 2.24081E-03-3.38130E-14
 -1      1561 1.13424E-02 3.41382E-03-3.67283E-14
 -1      1562 1.12076E-02 3.39968E-03-3.61574E-14
 -1      1563 1.16696E-02 3.07066E-03-3.79725E-14
 -1      1564 1.14956E-02 3.29152E-03-3.73494E-14
 -1      1565 1.14727E-02 3.32841E-03-3.71641E-14
 -1      1566 1.20564E-02 2.55388E-03-3.91443E-14
 -1      1567 1.18540E-02 2.81234E-03-3.85556E-14
 -1      1568 1.18961E-02 2.89415E-03-3.83716E-14
 -1      1569 1.25604E-02 2.07367E-03-4.05127E-14
 -1      1570 1.23058E-02 2.28618E-03-3.98254E-14
 -1      1571 1.23471E-02 2.33749E-03-3.96372E-14
 -1      1572 1.31146E-02 1.82540E-03-4.20729E-14
 -1      1573 1.28425E-02 1.91322E-03-4.12934E-14
 -1      1574 1.28425E-02 1.91130E-03-4.10956E-14
 -1      1575 1.36315E-02 1.82784E-03-4.37179E-14
 -1      1576 1.33828E-02 1.80095E-03-4.28952E-14
 -1      1577 1.33321E-02 1.75717E-03-4.26970E-14
 -1      1578 1.41351E-02 2.01381E-03-4.56472E-14
 -1      1579 1.38953E-02 1.90482E-03-4.46817E-14
 -1      1580 1.38060E-02 1.83901E-03-4.44814E-14
 -1      1581 1.45388E-02 2.26465E-03-4.74909E-14
 -1      1582 1.43448E-02 2.13422E-03-4.65676E-14
 -1      1583 1.42346E-02 2.06130E-03-4.63627E-14
 -1      1584 1.48933E-02 2.53748E-03-4.93292E-14
 -1      1585 1.47210E-02 2.39974E-03-4.84122E-14
 -1      1586 1.46029E-02 2.32665E-03-4.82046E-14
 -1      1587 1.52176E-02 2.81424E-03-5.11678E-14
 -1      1588 1.50584E-02 2.67585E-03-5.02486E-14
 -1      1589 1.49379E-02 2.60435E-03-5.00413E-14
 -1      1590 1.55241E-02 3.08924E-03-5.29933E-14
 -1      1591 1.53725E-02 2.95209E-03-5.20826E-14
 -1      1592 1.52519E-02 2.88227E-03-5.18718E-14
 -1      1593 1.58206E-02 3.36136E-03-5.48059E-14
 -1      1594 1.56733E-02 3.22567E-03-5.39020E-14
 -1      1595 1.55531E-02 3.15716E-03-5.36917E-14
 -1      1596 1.61261E-02 3.64436E-03-5.66875E-14
 -1      1597 1.59739E-02 3.50318E-03-5.57502E-14
 -1      1598 1.58543E-02 3.43558E-03-5.55418E-14
 -1      1599 1.64143E-02 3.91195E-03-5.84510E-14
 -1      1600 1.62704E-02 3.77836E-03-5.75731E-14
 -1      1601 1.61513E-02 3.71132E-03-5.73663E-14
 -1      1602 1.67010E-02 4.17829E-03-6.01871E-14
 -1      1603 1.65578E-02 4.04525E-03-5.93209E-14
 -1      1604 1.64389E-02 3.97855E-03-5.91215E-14
 -1      1605 1.69871E-02 4.44384E-03-6.19340E-14
 -1      1606 1.68441E-02 4.31114E-03-6.10606E-14
 -1      1607 1.67255E-02 4.24464E-03-6.08661E-14
 -1      1608 1.72729E-02 4.70892E-03-6.36814E-14
 -1      1609 1.71300E-02 4.57643E-03-6.28075E-14
 -1      1610 1.70115E-02 4.51003E-03-6.26124E-14
 -1      1611 1.74813E-02 4.91966E-03-6.51724E-14
 -1      1612 1.73385E-02 4.78725E-03-6.42978E-14
 -1      1613 1.72200E-02 4.72090E-03-6.41020E-14
 -1      1614 1.73511E-02 4.87752E-03-6.53300E-14
 -1      1615 1.70908E-02 4.79326E-03-6.56627E-14
 -1      1616 1.72210E-02 4.83538E-03-6.54936E-14
 -1      1617 1.71554E-02 4.75708E-03-6.48797E-14
 -1      1618 1.68308E-02 4.70911E-03-6.59839E-14
 -1      1619 1.69608E-02 4.75116E-03-6.58283E-14
 -1      1620 1.68952E-02 4.67288E-03-6.52053E-14
 -1      1621 1.65707E-02 4.62506E-03-6.63016E-14
 -1      1622 1.67008E-02 4.66708E-03-6.61423E-14
 -1      1623 1.66352E-02 4.58880E-03-6.55233E-14
 -1      1624 1.63103E-02 4.54099E-03-6.66000E-14
 -1      1625 1.64405E-02 4.58304E-03-6.64511E-14
 -1      1626 1.63750E-02 4.50477E-03-6.58302E-14
 -1      1627 1.60539E-02 4.45809E-03-6.69008E-14
 -1      1628 1.61822E-02 4.49958E-03-6.67486E-14
 -1      1629 1.61167E-02 4.42132E-03-6.61313E-14
 -1      1630 1.57927E-02 4.37327E-03-6.72261E-14
 -1      1631 1.59233E-02 4.41575E-03-6.70638E-14
 -1      1632 1.58578E-02 4.33753E-03-6.64408E-14
 -1      1633 1.55315E-02 4.28781E-03-6.75219E-14
 -1      1634 1.56621E-02 4.33062E-03-6.73785E-14
 -1      1635 1.55965E-02 4.25249E-03-6.67528E-14
 -1      1636 1.52706E-02 4.20172E-03-6.78005E-14
 -1      1637 1.54010E-02 4.24484E-03-6.76600E-14
 -1      1638 1.53353E-02 4.16684E-03-6.70458E-14
 -1      1639 1.50104E-02 4.11517E-03-6.80871E-14
 -1      1640 1.51404E-02 4.15849E-03-6.79437E-14
 -1      1641 1.50746E-02 4.08065E-03-6.73327E-14
 -1      1642 1.47511E-02 4.02847E-03-6.83615E-14
 -1      1643 1.48807E-02 4.07182E-03-6.82240E-14
 -1      1644 1.48147E-02 3.99413E-03-6.76194E-14
 -1      1645 1.44970E-02 3.94339E-03-6.86486E-14
 -1      1646 1.46240E-02 3.98589E-03-6.85037E-14
 -1      1647 1.45580E-02 3.90829E-03-6.79048E-14
 -1      1648 1.42389E-02 3.85730E-03-6.89499E-14
 -1      1649 1.43679E-02 3.90027E-03-6.87988E-14
 -1      1650 1.43019E-02 3.82269E-03-6.82010E-14
 -1      1651 1.39810E-02 3.77182E-03-6.92565E-14
 -1      1652 1.41100E-02 3.81448E-03-6.91006E-14
 -1      1653 1.40440E-02 3.73682E-03-6.85081E-14
 -1      1654 1.37225E-02 3.68695E-03-6.96100E-14
 -1      1655 1.38518E-02 3.72932E-03-6.94286E-14
 -1      1656 1.37860E-02 3.65151E-03-6.88360E-14
 -1      1657 1.37448E-02 1.49744E-03-4.18876E-14
 -1      1658 1.37026E-02 1.45023E-03-4.20100E-14
 -1      1659 1.37240E-02 1.61916E-03-4.14777E-14
 -1      1660 1.37546E-02 1.55915E-03-4.17049E-14
 -1      1661 1.35385E-02 1.79181E-03-4.08752E-14
 -1      1662 1.36436E-02 1.70405E-03-4.11704E-14
 -1      1663 1.31875E-02 2.06609E-03-4.00991E-14
 -1      1664 1.33703E-02 1.92307E-03-4.04752E-14
 -1      1665 1.27039E-02 2.45656E-03-3.92241E-14
 -1      1666 1.29384E-02 2.26232E-03-3.96330E-14
 -1      1667 1.21293E-02 2.92685E-03-3.82372E-14
 -1      1668 1.24024E-02 2.70633E-03-3.87032E-14
 -1      1669 1.15729E-02 3.25647E-03-3.73472E-14
 -1      1670 1.18276E-02 3.09835E-03-3.78576E-14
 -1      1671 1.08993E-02 3.24204E-03-3.61687E-14
 -1      1672 1.11595E-02 3.30957E-03-3.65918E-14
 -1      1673 1.02788E-02 2.80437E-03-3.52348E-14
 -1      1674 1.05775E-02 3.04887E-03-3.56579E-14
 -1      1675 9.63700E-03 2.23848E-03-3.44948E-14
 -1      1676 9.91328E-03 2.49758E-03-3.48186E-14
 -1      1677 9.05253E-03 1.68321E-03-3.38088E-14
 -1      1678 9.32947E-03 1.92569E-03-3.40974E-14
 -1      1679 8.55838E-03 1.31517E-03-3.33789E-14
 -1      1680 8.75626E-03 1.47116E-03-3.35657E-14
 -1      1681 8.21476E-03 1.05428E-03-3.30793E-14
 -1      1682 8.35781E-03 1.16344E-03-3.31989E-14
 -1      1683 8.01277E-03 8.74054E-04-3.29681E-14
 -1      1684 8.08681E-03 9.48567E-04-3.29948E-14
 -1      1685 7.97397E-03 7.42905E-04-3.30497E-14
 -1      1686 7.97018E-03 7.97136E-04-3.29742E-14
 -1      1687 8.09602E-03 6.35222E-04-3.33513E-14
 -1      1688 8.02147E-03 6.83265E-04-3.31894E-14
 -1      1689 8.33090E-03 5.24312E-04-3.38209E-14
 -1      1690 8.21126E-03 5.74607E-04-3.35985E-14
 -1      1691 8.66322E-03 3.97900E-04-3.44461E-14
 -1      1692 8.49689E-03 4.58923E-04-3.41338E-14
 -1      1693 9.07738E-03 2.66098E-04-3.52134E-14
 -1      1694 8.88421E-03 3.30935E-04-3.48276E-14
 -1      1695 9.52484E-03 1.39530E-04-3.61600E-14
 -1      1696 9.31626E-03 1.94166E-04-3.57132E-14
 -1      1697 9.93587E-03 7.43345E-05-3.70937E-14
 -1      1698 9.75036E-03 9.61517E-05-3.66823E-14
 -1      1699 1.03544E-02 7.46678E-05-3.80260E-14
 -1      1700 1.01619E-02 6.36975E-05-3.75920E-14
 -1      1701 1.07662E-02 1.57211E-04-3.88941E-14
 -1      1702 1.05808E-02 1.13075E-04-3.85067E-14
 -1      1703 1.11949E-02 3.03628E-04-3.97203E-14
 -1      1704 1.09928E-02 2.27532E-04-3.93418E-14
 -1      1705 1.16499E-02 5.07333E-04-4.05013E-14
 -1      1706 1.14336E-02 4.07741E-04-4.01588E-14
 -1      1707 1.21153E-02 7.19968E-04-4.11120E-14
 -1      1708 1.19072E-02 6.21163E-04-4.08437E-14
 -1      1709 1.25677E-02 9.29571E-04-4.16050E-14
 -1      1710 1.23593E-02 8.33816E-04-4.13954E-14
 -1      1711 1.29870E-02 1.11435E-03-4.19375E-14
 -1      1712 1.27993E-02 1.03319E-03-4.18048E-14
 -1      1713 1.33449E-02 1.26573E-03-4.21126E-14
 -1      1714 1.31888E-02 1.20009E-03-4.20523E-14
 -1      1715 1.36136E-02 1.39874E-03-4.21524E-14
 -1      1716 1.35022E-02 1.34698E-03-4.21827E-14
 -1      1717 1.34096E-02 1.78701E-03-4.09251E-14
 -1      1718 1.07881E-02 2.91777E-03-3.49658E-14
 -1      1719 1.04424E-02 2.66548E-03-3.47483E-14
 -1      1720 1.09695E-02 3.19002E-03-3.55256E-14
 -1      1721 1.36766E-02 1.62012E-03-4.16320E-14
 -1      1722 1.36662E-02 1.46690E-03-4.24443E-14
 -1      1723 1.37607E-02 1.53113E-03-4.21201E-14
 -1      1724 1.34702E-02 3.58733E-03-6.97495E-14
 -1      1725 1.35998E-02 3.62954E-03-6.95680E-14
 -1      1726 1.35341E-02 3.55156E-03-6.89661E-14
 -1      1727 1.29806E-02 2.08517E-03-4.00582E-14
 -1      1728 1.24412E-02 2.53380E-03-3.90696E-14
 -1      1729 1.08282E-02 3.17635E-03-3.57738E-14
 -1      1730 1.02590E-02 2.62711E-03-3.48544E-14
 -1      1731 9.62371E-03 1.98284E-03-3.40467E-14
 -1      1732 9.02158E-03 1.46671E-03-3.34130E-14
 -1      1733 8.51438E-03 1.13294E-03-3.29938E-14
 -1      1734 8.16774E-03 9.24486E-04-3.27298E-14
 -1      1735 7.98526E-03 7.97774E-04-3.26484E-14
 -1      1736 7.98822E-03 7.18897E-04-3.27892E-14
 -1      1737 8.15732E-03 6.42655E-04-3.31706E-14
 -1      1738 8.44404E-03 5.39229E-04-3.37260E-14
 -1      1739 8.82435E-03 4.06825E-04-3.44144E-14
 -1      1740 9.25481E-03 2.50127E-04-3.52895E-14
 -1      1741 9.67246E-03 1.12099E-04-3.63067E-14
 -1      1742 1.00675E-02 4.31405E-05-3.73261E-14
 -1      1743 1.04358E-02 6.27135E-05-3.83073E-14
 -1      1744 1.08215E-02 1.75572E-04-3.92377E-14
 -1      1745 1.12287E-02 3.65336E-04-4.01268E-14
 -1      1746 1.16755E-02 6.05157E-04-4.09101E-14
 -1      1747 1.21496E-02 8.48804E-04-4.15373E-14
 -1      1748 1.26161E-02 1.07085E-03-4.20210E-14
 -1      1749 1.30514E-02 1.24907E-03-4.23357E-14
 -1      1750 1.34167E-02 1.38641E-03-4.25177E-14
 -1      1751 2.85277E-04-1.76193E-04-4.20128E-17
 -1      1752 3.32210E-04-1.16693E-04-1.25239E-16
 -1      1753 3.36358E-04-1.32939E-04-1.18341E-16
 -1      1754 3.42249E-04-1.51931E-04-1.09762E-16
 -1      1755 3.51810E-04-1.73939E-04-9.72529E-17
 -1      1756 4.58382E-04-1.87975E-04-1.71358E-16
 -1      1757 3.24550E-04-6.53096E-05-1.38629E-16
 -1      1758 3.25698E-04-7.66024E-05-1.36853E-16
 -1      1759 3.23039E-04-4.38363E-05-1.40635E-16
 -1      1760 3.23700E-04-5.43160E-05-1.39862E-16
 -1      1761 4.36479E-04-7.92019E-05-2.05172E-16
 -1      1762 3.22247E-04-2.37415E-05-1.40702E-16
 -1      1763 3.22582E-04-3.36431E-05-1.40906E-16
 -1      1764 4.34460E-04-5.12580E-05-2.07069E-16
 -1      1765 3.21950E-04-4.33218E-06-1.39483E-16
 -1      1766 3.22048E-04-1.39719E-05-1.40133E-16
 -1      1767 4.33430E-04-2.48943E-05-2.06608E-16
 -1      1768 3.22074E-04 1.49606E-05-1.37084E-16
 -1      1769 3.21958E-04 5.31061E-06-1.38493E-16
 -1      1770 4.33130E-04 7.55326E-07-2.04291E-16
 -1      1771 3.22646E-04 3.46863E-05-1.33289E-16
 -1      1772 3.22291E-04 2.47516E-05-1.35525E-16
 -1      1773 4.33490E-04 2.64342E-05-2.00496E-16
 -1      1774 3.23785E-04 5.51045E-05-1.27597E-16
 -1      1775 3.23116E-04 4.47509E-05-1.30755E-16
 -1      1776 4.34577E-04 5.26615E-05-1.94370E-16
 -1      1777 3.25853E-04 7.77418E-05-1.19859E-16
 -1      1778 3.24650E-04 6.61675E-05-1.24290E-16
 -1      1779 4.36647E-04 8.05188E-05-1.86022E-16
 -1      1780 3.29564E-04 1.03568E-04-1.07987E-16
 -1      1781 3.27400E-04 9.02254E-05-1.14681E-16
 -1      1782 4.40310E-04 1.11476E-04-1.73865E-16
 -1      1783 3.36663E-04 1.35055E-04-9.08968E-17
 -1      1784 3.32486E-04 1.18526E-04-1.00478E-16
 -1      1785 4.46847E-04 1.47246E-04-1.56220E-16
 -1      1786 3.52302E-04 1.77506E-04-6.52148E-17
 -1      1787 3.42823E-04 1.54662E-04-7.95533E-17
 -1      1788 4.59330E-04 1.91341E-04-1.30701E-16
 -1      1789 4.07733E-04 2.33616E-04-4.72848E-17
 -1      1790 3.78121E-04 2.02597E-04-5.90348E-17
 -1      1791 4.95911E-04 2.43926E-04-1.07919E-16
 -1      1792 5.58611E-04 3.02426E-04-8.92027E-17
 -1      1793 3.40071E-04-1.90850E-04-7.17606E-17
 -1      1794 8.53722E-04 4.07001E-04-2.38714E-16
 -1      1795 7.07287E-04 3.59276E-04-1.53401E-16
 -1      1796 6.73535E-04 3.28711E-04-1.65409E-16
 -1      1797 4.59022E-04-2.36633E-04-1.26310E-16
 -1      1798 8.07362E-04-3.73979E-04-3.33406E-16
 -1      1799 9.52659E-04-4.15144E-04-4.63727E-16
 -1      1800 1.09553E-03-4.49814E-04-6.17399E-16
 -1      1801 1.23724E-03-4.78695E-04-7.94503E-16
 -1      1802 1.00408E-03-3.97744E-04-5.65737E-16
 -1      1803 1.37769E-03-5.03168E-04-9.94362E-16
 -1      1804 1.51742E-03-5.23534E-04-1.21723E-15
 -1      1805 1.28983E-03-4.55676E-04-9.23130E-16
 -1      1806 1.65664E-03-5.40712E-04-1.46306E-15
 -1      1807 1.79553E-03-5.54942E-04-1.73093E-15
 -1      1808 1.57232E-03-4.96609E-04-1.37134E-15
 -1      1809 1.93431E-03-5.66832E-04-2.02117E-15
 -1      1810 2.07303E-03-5.76588E-04-2.33338E-15
 -1      1811 1.85302E-03-5.25162E-04-1.90879E-15
 -1      1812 2.21185E-03-5.84629E-04-2.66819E-15
 -1      1813 2.35076E-03-5.91127E-04-3.02421E-15
 -1      1814 2.13302E-03-5.44681E-04-2.53423E-15
 -1      1815 2.48989E-03-5.96381E-04-3.40140E-15
 -1      1816 2.62918E-03-6.00533E-04-3.80002E-15
 -1      1817 2.41300E-03-5.57632E-04-3.24569E-15
 -1      1818 2.76874E-03-6.03800E-04-4.21897E-15
 -1      1819 2.90850E-03-6.06295E-04-4.65813E-15
 -1      1820 2.69336E-03-5.65865E-04-4.04098E-15
 -1      1821 3.04853E-03-6.08176E-04-5.11696E-15
 -1      1822 3.18878E-03-6.09533E-04-5.59500E-15
 -1      1823 2.97430E-03-5.70773E-04-4.91737E-15
 -1      1824 3.32928E-03-6.10480E-04-6.09193E-15
 -1      1825 3.46999E-03-6.11087E-04-6.60808E-15
 -1      1826 3.25590E-03-5.73403E-04-5.87017E-15
 -1      1827 3.61092E-03-6.11438E-04-7.14276E-15
 -1      1828 3.75204E-03-6.11587E-04-7.69588E-15
 -1      1829 3.53817E-03-5.74542E-04-6.89901E-15
 -1      1830 3.89335E-03-6.11594E-04-8.26597E-15
 -1      1831 4.03482E-03-6.11501E-04-8.85407E-15
 -1      1832 3.82104E-03-5.74772E-04-8.00006E-15
 -1      1833 4.17644E-03-6.11352E-04-9.45861E-15
 -1      1834 4.31819E-03-6.11180E-04-1.00794E-14
 -1      1835 4.10444E-03-5.74529E-04-9.17068E-15
 -1      1836 4.46006E-03-6.11019E-04-1.07160E-14
 -1      1837 4.60202E-03-6.10893E-04-1.13670E-14
 -1      1838 4.38828E-03-5.74139E-04-1.04082E-14
 -1      1839 4.74407E-03-6.10832E-04-1.20327E-14
 -1      1840 4.88616E-03-6.10854E-04-1.27123E-14
 -1      1841 4.67245E-03-5.73854E-04-1.17054E-14
 -1      1842 5.02830E-03-6.10988E-04-1.34050E-14
 -1      1843 5.17044E-03-6.11248E-04-1.41115E-14
 -1      1844 4.95682E-03-5.73877E-04-1.30591E-14
 -1      1845 5.31258E-03-6.11663E-04-1.48314E-14
 -1      1846 5.45468E-03-6.12242E-04-1.55630E-14
 -1      1847 5.24128E-03-5.74388E-04-1.44666E-14
 -1      1848 5.59671E-03-6.13017E-04-1.63077E-14
 -1      1849 5.73864E-03-6.13993E-04-1.70644E-14
 -1      1850 5.52566E-03-5.75550E-04-1.59262E-14
 -1      1851 5.88044E-03-6.15202E-04-1.78327E-14
 -1      1852 6.02204E-03-6.16642E-04-1.86131E-14
 -1      1853 5.80980E-03-5.77522E-04-1.74338E-14
 -1      1854 6.16344E-03-6.18340E-04-1.94068E-14
 -1      1855 6.30452E-03-6.20282E-04-2.02125E-14
 -1      1856 6.09345E-03-5.80442E-04-1.89913E-14
 -1      1857 6.44529E-03-6.22483E-04-2.10286E-14
 -1      1858 6.58560E-03-6.24905E-04-2.18556E-14
 -1      1859 6.37634E-03-5.84398E-04-2.05971E-14
 -1      1860 6.72546E-03-6.27534E-04-2.26930E-14
 -1      1861 6.86468E-03-6.30297E-04-2.35405E-14
 -1      1862 6.65809E-03-5.89358E-04-2.22465E-14
 -1      1863 7.00328E-03-6.33123E-04-2.43973E-14
 -1      1864 7.14102E-03-6.35887E-04-2.52626E-14
 -1      1865 6.93821E-03-5.95067E-04-2.39348E-14
 -1      1866 7.27793E-03-6.38431E-04-2.61354E-14
 -1      1867 7.41374E-03-6.40551E-04-2.70148E-14
 -1      1868 7.21609E-03-6.00878E-04-2.56585E-14
 -1      1869 7.54848E-03-6.41964E-04-2.79016E-14
 -1      1870 7.68188E-03-6.42369E-04-2.87936E-14
 -1      1871 7.49097E-03-6.05537E-04-2.74114E-14
 -1      1872 7.81397E-03-6.41328E-04-2.96923E-14
 -1      1873 7.94451E-03-6.38422E-04-3.05957E-14
 -1      1874 7.76202E-03-6.06939E-04-2.91881E-14
 -1      1875 8.07352E-03-6.33050E-04-3.15055E-14
 -1      1876 8.20087E-03-6.24682E-04-3.24220E-14
 -1      1877 8.02835E-03-6.01909E-04-3.09896E-14
 -1      1878 8.32656E-03-6.12577E-04-3.33416E-14
 -1      1879 8.45061E-03-5.96130E-04-3.42668E-14
 -1      1880 8.28926E-03-5.86120E-04-3.28115E-14
 -1      1881 8.57302E-03-5.74538E-04-3.51981E-14
 -1      1882 8.69401E-03-5.47193E-04-3.61325E-14
 -1      1883 8.54438E-03-5.54254E-04-3.46547E-14
 -1      1884 8.81358E-03-5.13349E-04-3.70725E-14
 -1      1885 8.93217E-03-4.72499E-04-3.80133E-14
 -1      1886 8.79399E-03-5.00520E-04-3.65173E-14
 -1      1887 9.04975E-03-4.24097E-04-3.89579E-14
 -1      1888 9.16693E-03-3.67840E-04-3.99075E-14
 -1      1889 9.03914E-03-4.19524E-04-3.83937E-14
 -1      1890 9.28371E-03-3.03500E-04-4.08572E-14
 -1      1891 9.40076E-03-2.31047E-04-4.18081E-14
 -1      1892 9.28167E-03-3.07301E-04-4.02812E-14
 -1      1893 9.51806E-03-1.50626E-04-4.27616E-14
 -1      1894 9.63624E-03-6.24862E-05-4.37151E-14
 -1      1895 9.52394E-03-1.62205E-04-4.21767E-14
 -1      1896 9.75530E-03 3.28889E-05-4.46701E-14
 -1      1897 9.87571E-03 1.35029E-04-4.56256E-14
 -1      1898 9.76835E-03 1.47011E-05-4.40789E-14
 -1      1899 9.99746E-03 2.43220E-04-4.65784E-14
 -1      1900 1.01208E-02 3.56869E-04-4.75306E-14
 -1      1901 1.00169E-02 2.19899E-04-4.59833E-14
 -1      1902 1.02458E-02 4.75172E-04-4.84797E-14
 -1      1903 1.03725E-02 5.97518E-04-4.94255E-14
 -1      1904 1.02708E-02 4.48223E-04-4.78828E-14
 -1      1905 1.05008E-02 7.23144E-04-5.03667E-14
 -1      1906 1.06307E-02 8.51501E-04-5.13073E-14
 -1      1907 1.05305E-02 6.93890E-04-4.97711E-14
 -1      1908 1.07622E-02 9.81952E-04-5.22450E-14
 -1      1909 1.08951E-02 1.11405E-03-5.31773E-14
 -1      1910 1.07958E-02 9.51427E-04-5.16467E-14
 -1      1911 1.10293E-02 1.24733E-03-5.41075E-14
 -1      1912 1.11647E-02 1.38146E-03-5.50361E-14
 -1      1913 1.10659E-02 1.21627E-03-5.35113E-14
 -1      1914 1.13013E-02 1.51613E-03-5.59637E-14
 -1      1915 1.14388E-02 1.65110E-03-5.68875E-14
 -1      1916 1.13402E-02 1.48498E-03-5.53663E-14
 -1      1917 1.15772E-02 1.78621E-03-5.78079E-14
 -1      1918 1.17162E-02 1.92129E-03-5.87251E-14
 -1      1919 1.16177E-02 1.75525E-03-5.72113E-14
 -1      1920 1.18560E-02 2.05627E-03-5.96400E-14
 -1      1921 1.19963E-02 2.19106E-03-6.05478E-14
 -1      1922 1.18976E-02 2.02563E-03-5.90400E-14
 -1      1923 1.21371E-02 2.32563E-03-6.14476E-14
 -1      1924 1.22783E-02 2.45993E-03-6.23418E-14
 -1      1925 1.21794E-02 2.29535E-03-6.08527E-14
 -1      1926 1.24199E-02 2.59395E-03-6.32300E-14
 -1      1927 1.25617E-02 2.72768E-03-6.41082E-14
 -1      1928 1.24625E-02 2.56404E-03-6.26354E-14
 -1      1929 1.27038E-02 2.86113E-03-6.49798E-14
 -1      1930 1.28461E-02 2.99427E-03-6.58442E-14
 -1      1931 1.27465E-02 2.83157E-03-6.43936E-14
 -1      1932 1.29886E-02 3.12715E-03-6.66982E-14
 -1      1933 1.31312E-02 3.25975E-03-6.75527E-14
 -1      1934 1.30313E-02 3.09793E-03-6.61194E-14
 -1      1935 1.36163E-02 1.61390E-03-4.18254E-14
 -1      1936 1.37099E-02 1.57558E-03-4.21319E-14
 -1      1937 1.13884E-03 4.79911E-04-4.71221E-16
 -1      1938 9.97032E-04 4.46690E-04-3.44234E-16
 -1      1939 9.64664E-04 4.17253E-04-3.57841E-16
 -1      1940 1.41804E-03 5.31373E-04-7.88771E-16
 -1      1941 1.27883E-03 5.07933E-04-6.19296E-16
 -1      1942 1.24918E-03 4.79794E-04-6.33825E-16
 -1      1943 1.70831E-03 5.69174E-04-1.21436E-15
 -1      1944 1.56334E-03 5.52078E-04-9.89660E-16
 -1      1945 1.53650E-03 5.24915E-04-1.00459E-15
 -1      1946 1.98399E-03 5.94022E-04-1.70676E-15
 -1      1947 1.84615E-03 5.82782E-04-1.44993E-15
 -1      1948 1.82176E-03 5.56260E-04-1.46455E-15
 -1      1949 2.26000E-03 6.10978E-04-2.28207E-15
 -1      1950 2.12191E-03 6.03363E-04-1.98424E-15
 -1      1951 2.09949E-03 5.77235E-04-1.99734E-15
 -1      1952 2.53687E-03 6.22201E-04-2.93813E-15
 -1      1953 2.39831E-03 6.17213E-04-2.59992E-15
 -1      1954 2.37746E-03 5.91321E-04-2.61192E-15
 -1      1955 2.81485E-03 6.29311E-04-3.67454E-15
 -1      1956 2.67572E-03 6.26200E-04-3.29669E-15
 -1      1957 2.65611E-03 6.00439E-04-3.30686E-15
 -1      1958 3.09400E-03 6.33530E-04-4.49002E-15
 -1      1959 2.95428E-03 6.31730E-04-4.07233E-15
 -1      1960 2.93563E-03 6.06031E-04-4.08107E-15
 -1      1961 3.38831E-03 6.35848E-04-5.42852E-15
 -1      1962 3.24101E-03 6.34916E-04-4.94854E-15
 -1      1963 3.22311E-03 6.09234E-04-4.95507E-15
 -1      1964 3.66965E-03 6.36742E-04-6.39854E-15
 -1      1965 3.52887E-03 6.36426E-04-5.90427E-15
 -1      1966 3.51152E-03 6.10731E-04-5.90764E-15
 -1      1967 3.95188E-03 6.36847E-04-7.44139E-15
 -1      1968 3.81067E-03 6.36874E-04-6.91114E-15
 -1      1969 3.79372E-03 6.11152E-04-6.91186E-15
 -1      1970 4.23485E-03 6.36500E-04-8.55476E-15
 -1      1971 4.09328E-03 6.36718E-04-7.98935E-15
 -1      1972 4.07662E-03 6.10961E-04-7.98687E-15
 -1      1973 4.51842E-03 6.35918E-04-9.73618E-15
 -1      1974 4.37657E-03 6.36231E-04-9.13780E-15
 -1      1975 4.36011E-03 6.10441E-04-9.13168E-15
 -1      1976 4.81670E-03 6.35184E-04-1.10409E-14
 -1      1977 4.66751E-03 6.35564E-04-1.03799E-14
 -1      1978 4.65120E-03 6.09744E-04-1.03705E-14
 -1      1979 5.10119E-03 6.34392E-04-1.23431E-14
 -1      1980 4.95891E-03 6.34801E-04-1.16851E-14
 -1      1981 4.94271E-03 6.08959E-04-1.16720E-14
 -1      1982 5.38605E-03 6.33436E-04-1.36911E-14
 -1      1983 5.24358E-03 6.33940E-04-1.30124E-14
 -1      1984 5.22744E-03 6.08091E-04-1.29952E-14
 -1      1985 5.67130E-03 6.32136E-04-1.50797E-14
 -1      1986 5.52862E-03 6.32838E-04-1.43812E-14
 -1      1987 5.51249E-03 6.07000E-04-1.43629E-14
 -1      1988 5.95711E-03 6.30180E-04-1.65021E-14
 -1      1989 5.81412E-03 6.31253E-04-1.57867E-14
 -1      1990 5.79792E-03 6.05451E-04-1.57678E-14
 -1      1991 6.24382E-03 6.27094E-04-1.79580E-14
 -1      1992 6.10032E-03 6.28792E-04-1.72254E-14
 -1      1993 6.08386E-03 6.03062E-04-1.72066E-14
 -1      1994 6.54655E-03 6.21924E-04-1.95186E-14
 -1      1995 6.39490E-03 6.24766E-04-1.87346E-14
 -1      1996 6.37780E-03 5.99163E-04-1.87157E-14
 -1      1997 6.83766E-03 6.14311E-04-2.10335E-14
 -1      1998 6.69162E-03 6.18434E-04-2.02733E-14
 -1      1999 6.67313E-03 5.93033E-04-2.02552E-14
 -1      2000 7.13330E-03 6.03313E-04-2.25770E-14
 -1      2001 6.98465E-03 6.09168E-04-2.18021E-14
 -1      2002 6.96338E-03 5.84070E-04-2.17865E-14
 -1      2003 7.43617E-03 5.88911E-04-2.41453E-14
 -1      2004 7.28338E-03 5.96335E-04-2.33573E-14
 -1      2005 7.25666E-03 5.71672E-04-2.33448E-14
 -1      2006 7.74977E-03 5.73751E-04-2.57334E-14
 -1      2007 7.59086E-03 5.80908E-04-2.49365E-14
 -1      2008 7.55387E-03 5.56751E-04-2.49255E-14
 -1      2009 8.09527E-03 5.68641E-04-2.74231E-14
 -1      2010 7.91916E-03 5.68296E-04-2.65756E-14
 -1      2011 7.86296E-03 5.44249E-04-2.65676E-14
 -1      2012 8.44564E-03 6.05725E-04-2.90454E-14
 -1      2013 8.26618E-03 5.78674E-04-2.82326E-14
 -1      2014 8.17650E-03 5.52278E-04-2.82276E-14
 -1      2015 8.78870E-03 7.34854E-04-3.05115E-14
 -1      2016 8.61253E-03 6.53624E-04-2.97780E-14
 -1      2017 8.47379E-03 6.17556E-04-2.97762E-14
 -1      2018 1.02406E-02 1.99201E-03-3.34945E-14
 -1      2019 9.67258E-03 1.50451E-03-3.28684E-14
 -1      2020 1.01027E-02 2.11720E-03-3.39115E-14
 -1      2021 1.30738E-02 1.78970E-03-4.15915E-14
 -1      2022 1.28498E-02 1.93216E-03-4.08143E-14
 -1      2023 1.35126E-02 1.70572E-03-4.32404E-14
 -1      2024 1.33156E-02 1.71041E-03-4.24215E-14
 -1      2025 1.39301E-02 1.85476E-03-4.51640E-14
 -1      2026 1.37272E-02 1.75970E-03-4.41998E-14
 -1      2027 1.36893E-02 1.69219E-03-4.39217E-14
 -1      2028 1.42895E-02 2.09549E-03-4.69994E-14
 -1      2029 1.41127E-02 1.96799E-03-4.60820E-14
 -1      2030 1.40208E-02 1.88271E-03-4.57979E-14
 -1      2031 1.46232E-02 2.36811E-03-4.88347E-14
 -1      2032 1.44583E-02 2.22977E-03-4.79173E-14
 -1      2033 1.43327E-02 2.13721E-03-4.76323E-14
 -1      2034 1.49390E-02 2.64758E-03-5.06658E-14
 -1      2035 1.47825E-02 2.50772E-03-4.97491E-14
 -1      2036 1.46381E-02 2.41317E-03-4.94616E-14
 -1      2037 1.52426E-02 2.92548E-03-5.24924E-14
 -1      2038 1.50917E-02 2.78697E-03-5.15812E-14
 -1      2039 1.49377E-02 2.69256E-03-5.12901E-14
 -1      2040 1.55385E-02 3.19989E-03-5.43044E-14
 -1      2041 1.53912E-02 3.06318E-03-5.34011E-14
 -1      2042 1.52325E-02 2.96955E-03-5.31092E-14
 -1      2043 1.58443E-02 3.48453E-03-5.61892E-14
 -1      2044 1.56918E-02 3.34264E-03-5.52487E-14
 -1      2045 1.55310E-02 3.24982E-03-5.49593E-14
 -1      2046 1.61328E-02 3.75311E-03-5.79643E-14
 -1      2047 1.59888E-02 3.61910E-03-5.70780E-14
 -1      2048 1.58270E-02 3.52690E-03-5.67923E-14
 -1      2049 1.64199E-02 4.02006E-03-5.97166E-14
 -1      2050 1.62765E-02 3.88676E-03-5.88429E-14
 -1      2051 1.61144E-02 3.79497E-03-5.85612E-14
 -1      2052 1.67063E-02 4.28596E-03-6.14658E-14
 -1      2053 1.65631E-02 4.15312E-03-6.05919E-14
 -1      2054 1.64010E-02 4.06158E-03-6.03161E-14
 -1      2055 1.69922E-02 4.55124E-03-6.32126E-14
 -1      2056 1.68493E-02 4.41866E-03-6.23404E-14
 -1      2057 1.66871E-02 4.32728E-03-6.20659E-14
 -1      2058 1.71066E-02 4.69335E-03-6.43544E-14
 -1      2059 1.70410E-02 4.61501E-03-6.37375E-14
 -1      2060 1.68789E-02 4.52371E-03-6.34633E-14
 -1      2061 1.69765E-02 4.65124E-03-6.45149E-14
 -1      2062 1.64465E-02 4.45319E-03-6.48346E-14
 -1      2063 1.65765E-02 4.49518E-03-6.46763E-14
 -1      2064 1.67115E-02 4.55215E-03-6.46768E-14
 -1      2065 1.68415E-02 4.59420E-03-6.45187E-14
 -1      2066 1.67927E-02 4.53044E-03-6.39916E-14
 -1      2067 1.65228E-02 4.41648E-03-6.39922E-14
 -1      2068 1.61863E-02 4.36922E-03-6.51408E-14
 -1      2069 1.63165E-02 4.41122E-03-6.49890E-14
 -1      2070 1.62579E-02 4.31765E-03-6.41474E-14
 -1      2071 1.59300E-02 4.28648E-03-6.54439E-14
 -1      2072 1.60582E-02 4.32789E-03-6.52932E-14
 -1      2073 1.59998E-02 4.23452E-03-6.44542E-14
 -1      2074 1.56688E-02 4.20192E-03-6.57578E-14
 -1      2075 1.57994E-02 4.24427E-03-6.55987E-14
 -1      2076 1.57411E-02 4.15114E-03-6.47609E-14
 -1      2077 1.54073E-02 4.11679E-03-6.60628E-14
 -1      2078 1.55381E-02 4.15943E-03-6.59102E-14
 -1      2079 1.54797E-02 4.06656E-03-6.50707E-14
 -1      2080 1.51461E-02 4.03105E-03-6.63571E-14
 -1      2081 1.52767E-02 4.07399E-03-6.62121E-14
 -1      2082 1.52181E-02 3.98133E-03-6.53757E-14
 -1      2083 1.48855E-02 3.94481E-03-6.66527E-14
 -1      2084 1.50157E-02 3.98798E-03-6.65043E-14
 -1      2085 1.49569E-02 3.89545E-03-6.56761E-14
 -1      2086 1.46258E-02 3.85829E-03-6.69438E-14
 -1      2087 1.47556E-02 3.90156E-03-6.67984E-14
 -1      2088 1.46964E-02 3.80906E-03-6.59729E-14
 -1      2089 1.43715E-02 3.77323E-03-6.72360E-14
 -1      2090 1.44986E-02 3.81574E-03-6.70872E-14
 -1      2091 1.44391E-02 3.72316E-03-6.62675E-14
 -1      2092 1.41135E-02 3.68696E-03-6.75422E-14
 -1      2093 1.42424E-02 3.73004E-03-6.73866E-14
 -1      2094 1.41829E-02 3.63731E-03-6.65692E-14
 -1      2095 1.38557E-02 3.60116E-03-6.78564E-14
 -1      2096 1.39846E-02 3.64400E-03-6.76983E-14
 -1      2097 1.39250E-02 3.55104E-03-6.68817E-14
 -1      2098 1.35977E-02 3.51592E-03-6.81927E-14
 -1      2099 1.37267E-02 3.55847E-03-6.80206E-14
 -1      2100 1.36674E-02 3.46529E-03-6.72056E-14
 -1      2101 1.27954E-02 2.11927E-03-4.00249E-14
 -1      2102 1.30396E-02 1.93984E-03-4.04919E-14
 -1      2103 1.32498E-02 3.39147E-03-6.85271E-14
 -1      2104 1.37163E-02 1.51943E-03-4.28251E-14
 -1      2105 1.36317E-02 1.51143E-03-4.29675E-14
 -1      2106 1.01537E-02 2.33773E-03-3.43389E-14
 -1      2107 1.18905E-02 2.97266E-03-3.81683E-14
 -1      2108 1.32776E-02 1.77915E-03-4.10467E-14
 -1      2109 1.34569E-02 1.68560E-03-4.14465E-14
 -1      2110 3.27136E-04-8.89069E-05-1.34102E-16
 -1      2111 3.29255E-04-1.02049E-04-1.30158E-16
 -1      2112 4.46334E-04-1.45000E-04-1.89220E-16
 -1      2113 4.39997E-04-1.09848E-04-1.99683E-16
 -1      2114 1.21178E-02 2.70611E-03-3.87527E-14
 -1      2115 9.61872E-03 1.77016E-03-3.36228E-14
 -1      2116 9.91152E-03 2.07828E-03-3.40158E-14
 -1      2117 8.95803E-03 1.25421E-03-3.29541E-14
 -1      2118 9.24883E-03 1.44693E-03-3.31929E-14
 -1      2119 8.46993E-03 9.82235E-04-3.25693E-14
 -1      2120 8.68331E-03 1.09725E-03-3.27472E-14
 -1      2121 8.12853E-03 8.16265E-04-3.22870E-14
 -1      2122 8.26954E-03 8.72960E-04-3.23729E-14
 -1      2123 7.96833E-03 7.45192E-04-3.22642E-14
 -1      2124 8.01869E-03 7.70946E-04-3.22624E-14
 -1      2125 8.00986E-03 7.02243E-04-3.24317E-14
 -1      2126 7.96409E-03 7.16969E-04-3.22972E-14
 -1      2127 8.22622E-03 6.42847E-04-3.29683E-14
 -1      2128 8.10899E-03 6.74003E-04-3.27256E-14
 -1      2129 8.54653E-03 5.42023E-04-3.35670E-14
 -1      2130 8.38328E-03 5.95210E-04-3.32597E-14
 -1      2131 8.93931E-03 4.01096E-04-3.42811E-14
 -1      2132 8.74308E-03 4.75687E-04-3.39060E-14
 -1      2133 9.38642E-03 2.17002E-04-3.53350E-14
 -1      2134 9.18521E-03 3.02096E-04-3.48406E-14
 -1      2135 9.79770E-03 7.05929E-05-3.64767E-14
 -1      2136 9.62266E-03 1.29669E-04-3.59572E-14
 -1      2137 1.01200E-02 1.56272E-05-3.74761E-14
 -1      2138 9.96386E-03 3.49004E-05-3.69776E-14
 -1      2139 9.86595E-03 4.19977E-05-3.66261E-14
 -1      2140 1.05030E-02 6.59972E-05-3.86397E-14
 -1      2141 1.03415E-02 3.04228E-05-3.81574E-14
 -1      2142 1.08515E-02 2.07342E-04-3.95951E-14
 -1      2143 1.06844E-02 1.28609E-04-3.91451E-14
 -1      2144 1.12392E-02 4.33800E-04-4.05447E-14
 -1      2145 1.10494E-02 3.15516E-04-4.01040E-14
 -1      2146 1.17106E-02 7.14276E-04-4.13836E-14
 -1      2147 1.14926E-02 5.85926E-04-4.10394E-14
 -1      2148 1.21878E-02 9.70256E-04-4.20004E-14
 -1      2149 1.19630E-02 8.49255E-04-4.17169E-14
 -1      2150 1.26671E-02 1.20003E-03-4.25060E-14
 -1      2151 1.24429E-02 1.10081E-03-4.23050E-14
 -1      2152 1.31167E-02 1.36050E-03-4.27786E-14
 -1      2153 1.29151E-02 1.29268E-03-4.26659E-14
 -1      2154 1.34674E-02 1.47744E-03-4.30200E-14
 -1      2155 1.33077E-02 1.43470E-03-4.29519E-14
 -1      2156 1.37632E-02 1.54459E-03-4.24657E-14
 -1      2157 1.37603E-02 1.53219E-03-4.26467E-14
 -1      2158 1.37464E-02 1.55352E-03-4.31720E-14
 -1      2159 1.23834E-02 2.45244E-03-3.92750E-14
 -1      2160 1.32926E-02 3.36253E-03-6.79481E-14
 -1      2161 1.26100E-02 2.17600E-03-3.99544E-14
 -1      2162 9.49805E-03 1.53554E-03-3.31616E-14
 -1      2163 1.37464E-02 1.55966E-03-4.26606E-14
 -1      2164 6.07971E-04-2.98020E-04-2.03708E-16
 -1      2165 6.63694E-04-2.92289E-04-2.71227E-16
 -1      2166 1.27238E-02 2.03709E-03-4.03888E-14
 -1      2167 1.35317E-02 1.62654E-03-4.19493E-14
 -1      2168 9.32696E-03 1.22619E-03-3.24437E-14
 -1      2169 1.29905E-02 1.87417E-03-4.08839E-14
 -1      2170 9.08882E-03 1.00493E-03-3.18552E-14
 -1      2171 8.87777E-03 8.07413E-04-3.10318E-14
 -1      2172 1.33172E-02 1.68938E-03-4.21356E-14
 -1      2173 1.34153E-02 3.42008E-03-6.79969E-14
 -1      2174 1.11358E-02 3.36364E-03-3.60305E-14
 -1      2175 1.33562E-02 3.32663E-03-6.71737E-14
 -1      2176 8.08033E-03 7.42942E-04-3.19036E-14
 -1      2177 1.31399E-02 1.81676E-03-4.10151E-14
 -1      2178 8.93777E-03 1.01466E-03-3.21439E-14
 -1      2179 1.11728E-02 3.36795E-03-3.64131E-14
 -1      2180 1.35539E-02 1.53878E-03-4.34041E-14
 -1      2181 1.14278E-02 3.33932E-03-3.70358E-14
 -1      2182 8.68661E-03 7.54083E-04-3.10323E-14
 -1      2183 1.31949E-02 1.45755E-03-4.32833E-14
 -1      2184 1.27619E-02 1.30463E-03-4.29514E-14
 -1      2185 1.22727E-02 1.08800E-03-4.24859E-14
 -1      2186 1.17848E-02 8.21879E-04-4.18470E-14
 -1      2187 1.13125E-02 5.28939E-04-4.10167E-14
 -1      2188 1.09017E-02 2.64656E-04-4.00115E-14
 -1      2189 1.02031E-02 8.98818E-06-3.78073E-14
 -1      2190 9.51021E-03 1.65815E-04-3.55059E-14
 -1      2191 9.06188E-03 3.56224E-04-3.43280E-14
 -1      2192 8.64704E-03 5.19207E-04-3.34361E-14
 -1      2193 8.30536E-03 6.25779E-04-3.28116E-14
 -1      2194 8.05011E-03 6.83331E-04-3.22308E-14
 -1      2195 7.95913E-03 7.03326E-04-3.19094E-14
 -1      2196 8.86893E-03 1.09160E-03-3.25290E-14
 -1      2197 8.39376E-03 8.55606E-04-3.21264E-14
 -1      2198 1.05620E-02 9.09774E-05-3.89954E-14
 -1      2199 5.47709E-04-5.52463E-05-2.93006E-16
 -1      2200 5.48755E-04-7.19478E-05-2.92586E-16
 -1      2201 5.50188E-04-8.92569E-05-2.91352E-16
 -1      2202 5.52076E-04-1.07220E-04-2.89089E-16
 -1      2203 6.65210E-04-9.54105E-05-3.94379E-16
 -1      2204 5.46313E-04 8.84572E-06-2.88018E-16
 -1      2205 5.46293E-04-6.97536E-06-2.90119E-16
 -1      2206 5.47077E-04 4.08249E-05-2.82096E-16
 -1      2207 5.46571E-04 2.47660E-05-2.85416E-16
 -1      2208 6.61228E-04 1.99093E-05-3.87399E-16
 -1      2209 5.48922E-04 7.34185E-05-2.73246E-16
 -1      2210 5.47849E-04 5.69396E-05-2.78247E-16
 -1      2211 6.62568E-04 5.77301E-05-3.78969E-16
 -1      2212 5.52342E-04 1.08869E-04-2.60696E-16
 -1      2213 5.50403E-04 9.08040E-05-2.67459E-16
 -1      2214 6.65456E-04 9.71674E-05-3.66420E-16
 -1      2215 5.58247E-04 1.48195E-04-2.42726E-16
 -1      2216 5.54917E-04 1.27973E-04-2.52592E-16
 -1      2217 6.70585E-04 1.39912E-04-3.48720E-16
 -1      2218 5.68658E-04 1.93786E-04-2.17776E-16
 -1      2219 5.62751E-04 1.70076E-04-2.31450E-16
 -1      2220 6.79264E-04 1.87454E-04-3.24136E-16
 -1      2221 5.88095E-04 2.49381E-04-1.82187E-16
 -1      2222 5.76949E-04 2.20120E-04-2.01743E-16
 -1      2223 6.94278E-04 2.42365E-04-2.90390E-16
 -1      2224 6.42239E-04 3.01211E-04-1.72117E-16
 -1      2225 6.14506E-04 2.73716E-04-1.79300E-16
 -1      2226 7.31660E-04 2.97733E-04-2.67324E-16
 -1      2227 7.88708E-04 3.49612E-04-2.58745E-16
 -1      2228 1.59530E-03 4.98124E-04-1.16550E-15
 -1      2229 1.44731E-03 4.79056E-04-9.49151E-16
 -1      2230 1.40796E-02 1.92004E-03-4.63940E-14
 -1      2231 1.39468E-02 1.80404E-03-4.54776E-14
 -1      2232 1.30582E-03 4.57157E-04-7.64471E-16
 -1      2233 1.16350E-03 4.31312E-04-6.00906E-16
 -1      2234 1.36512E-03 4.33613E-04-9.00525E-16
 -1      2235 9.15299E-04-3.46217E-04-5.13044E-16
 -1      2236 1.05942E-03-3.79512E-04-6.71297E-16
 -1      2237 5.88569E-04-2.37855E-04-2.48960E-16
 -1      2238 7.81399E-04-3.04680E-04-3.92847E-16
 -1      2239 8.40821E-04-2.93444E-04-4.76358E-16
 -1      2240 5.79015E-04-2.10053E-04-2.62485E-16
 -1      2241 1.20270E-03-4.07882E-04-8.51831E-16
 -1      2242 1.34553E-03-4.31743E-04-1.05477E-15
 -1      2243 1.11709E-03-3.60318E-04-7.80476E-16
 -1      2244 1.48773E-03-4.51952E-04-1.28021E-15
 -1      2245 1.62954E-03-4.68785E-04-1.52793E-15
 -1      2246 1.40345E-03-4.07059E-04-1.18965E-15
 -1      2247 1.77099E-03-4.82916E-04-1.79704E-15
 -1      2248 1.91220E-03-4.94560E-04-2.08821E-15
 -1      2249 1.68861E-03-4.40284E-04-1.68600E-15
 -1      2250 2.05326E-03-5.04215E-04-2.40086E-15
 -1      2251 2.19422E-03-5.12055E-04-2.73544E-15
 -1      2252 1.97284E-03-4.63340E-04-2.26892E-15
 -1      2253 2.33515E-03-5.18445E-04-3.09121E-15
 -1      2254 2.47608E-03-5.23528E-04-3.46756E-15
 -1      2255 2.25652E-03-4.78876E-04-2.93735E-15
 -1      2256 2.61707E-03-5.27572E-04-3.86442E-15
 -1      2257 2.75811E-03-5.30692E-04-4.28174E-15
 -1      2258 2.53998E-03-4.88945E-04-3.68942E-15
 -1      2259 2.89925E-03-5.33084E-04-4.71907E-15
 -1      2260 3.04047E-03-5.34840E-04-5.17533E-15
 -1      2261 2.82345E-03-4.95115E-04-4.52249E-15
 -1      2262 3.18182E-03-5.36104E-04-5.65036E-15
 -1      2263 3.32326E-03-5.36948E-04-6.14455E-15
 -1      2264 3.10707E-03-4.98576E-04-5.43268E-15
 -1      2265 3.46482E-03-5.37475E-04-6.65718E-15
 -1      2266 3.60648E-03-5.37741E-04-7.18799E-15
 -1      2267 3.39091E-03-5.00224E-04-6.41803E-15
 -1      2268 3.74825E-03-5.37823E-04-7.73683E-15
 -1      2269 3.89011E-03-5.37761E-04-8.30278E-15
 -1      2270 3.67500E-03-5.00728E-04-7.47559E-15
 -1      2271 4.03207E-03-5.37612E-04-8.88540E-15
 -1      2272 4.17411E-03-5.37408E-04-9.48548E-15
 -1      2273 3.95933E-03-5.00583E-04-8.60324E-15
 -1      2274 4.31623E-03-5.37191E-04-1.01031E-14
 -1      2275 4.45840E-03-5.36985E-04-1.07348E-14
 -1      2276 4.24388E-03-5.00157E-04-9.79921E-15
 -1      2277 4.60064E-03-5.36824E-04-1.13804E-14
 -1      2278 4.74291E-03-5.36727E-04-1.20412E-14
 -1      2279 4.52861E-03-4.99727E-04-1.10583E-14
 -1      2280 4.88523E-03-5.36722E-04-1.27159E-14
 -1      2281 5.02757E-03-5.36825E-04-1.34033E-14
 -1      2282 4.81349E-03-4.99509E-04-1.23745E-14
 -1      2283 5.16992E-03-5.37063E-04-1.41050E-14
 -1      2284 5.31227E-03-5.37450E-04-1.48199E-14
 -1      2285 5.09846E-03-4.99683E-04-1.37462E-14
 -1      2286 5.45461E-03-5.38013E-04-1.55468E-14
 -1      2287 5.59692E-03-5.38764E-04-1.62861E-14
 -1      2288 5.38348E-03-5.00409E-04-1.51701E-14
 -1      2289 5.73919E-03-5.39730E-04-1.70382E-14
 -1      2290 5.88139E-03-5.40920E-04-1.78018E-14
 -1      2291 5.66850E-03-5.01842E-04-1.66448E-14
 -1      2292 6.02352E-03-5.42359E-04-1.85783E-14
 -1      2293 6.16553E-03-5.44051E-04-1.93675E-14
 -1      2294 5.95348E-03-5.04127E-04-1.81690E-14
 -1      2295 6.30744E-03-5.46012E-04-2.01696E-14
 -1      2296 6.44916E-03-5.48233E-04-2.09812E-14
 -1      2297 6.23836E-03-5.07390E-04-1.97436E-14
 -1      2298 6.59071E-03-5.50712E-04-2.18029E-14
 -1      2299 6.73199E-03-5.53418E-04-2.26352E-14
 -1      2300 6.52305E-03-5.11695E-04-2.13631E-14
 -1      2301 6.87304E-03-5.56306E-04-2.34761E-14
 -1      2302 7.01368E-03-5.59308E-04-2.43265E-14
 -1      2303 6.80740E-03-5.16975E-04-2.30219E-14
 -1      2304 7.15398E-03-5.62313E-04-2.51865E-14
 -1      2305 7.29372E-03-5.65190E-04-2.60523E-14
 -1      2306 7.09118E-03-5.22905E-04-2.47162E-14
 -1      2307 7.43297E-03-5.67726E-04-2.69241E-14
 -1      2308 7.57147E-03-5.69698E-04-2.78032E-14
 -1      2309 7.37399E-03-5.28720E-04-2.64410E-14
 -1      2310 7.70927E-03-5.70757E-04-2.86887E-14
 -1      2311 7.84612E-03-5.70553E-04-2.95795E-14
 -1      2312 7.65524E-03-5.32961E-04-2.81918E-14
 -1      2313 7.98203E-03-5.68581E-04-3.04762E-14
 -1      2314 8.11680E-03-5.64339E-04-3.13791E-14
 -1      2315 7.93409E-03-5.33193E-04-2.99668E-14
 -1      2316 8.25039E-03-5.57164E-04-3.22868E-14
 -1      2317 8.38270E-03-5.46416E-04-3.31990E-14
 -1      2318 8.20957E-03-5.25752E-04-3.17647E-14
 -1      2319 8.51367E-03-5.31314E-04-3.41179E-14
 -1      2320 8.64338E-03-5.11133E-04-3.50400E-14
 -1      2321 8.48072E-03-5.05658E-04-3.35840E-14
 -1      2322 8.77174E-03-4.85075E-04-3.59662E-14
 -1      2323 8.89905E-03-4.52441E-04-3.68981E-14
 -1      2324 8.74696E-03-4.66866E-04-3.54206E-14
 -1      2325 9.02524E-03-4.12554E-04-3.78319E-14
 -1      2326 9.15080E-03-3.64888E-04-3.87692E-14
 -1      2327 9.00845E-03-4.03008E-04-3.72741E-14
 -1      2328 9.27568E-03-3.09035E-04-3.97095E-14
 -1      2329 9.40051E-03-2.44772E-04-4.06512E-14
 -1      2330 9.26636E-03-3.08558E-04-3.91409E-14
 -1      2331 9.52526E-03-1.72056E-04-4.15973E-14
 -1      2332 9.65056E-03-9.10320E-05-4.25431E-14
 -1      2333 9.52277E-03-1.80125E-04-4.10189E-14
 -1      2334 9.77638E-03-2.03392E-06-4.34910E-14
 -1      2335 9.90324E-03 9.44701E-05-4.44414E-14
 -1      2336 9.78015E-03-1.73518E-05-4.29070E-14
 -1      2337 1.00311E-02 1.97850E-04-4.53902E-14
 -1      2338 1.01602E-02 3.07432E-04-4.63389E-14
 -1      2339 1.00407E-02 1.76980E-04-4.47993E-14
 -1      2340 1.02907E-02 4.22434E-04-4.72872E-14
 -1      2341 1.04224E-02 5.42124E-04-4.82331E-14
 -1      2342 1.03059E-02 3.97711E-04-4.66936E-14
 -1      2343 1.05555E-02 6.65710E-04-4.91760E-14
 -1      2344 1.06897E-02 7.92526E-04-5.01141E-14
 -1      2345 1.05760E-02 6.38551E-04-4.85808E-14
 -1      2346 1.08252E-02 9.21878E-04-5.10526E-14
 -1      2347 1.09617E-02 1.05323E-03-5.19879E-14
 -1      2348 1.08507E-02 8.93311E-04-5.04580E-14
 -1      2349 1.10991E-02 1.18605E-03-5.29185E-14
 -1      2350 1.12374E-02 1.31995E-03-5.38453E-14
 -1      2351 1.11289E-02 1.15675E-03-5.23247E-14
 -1      2352 1.13764E-02 1.45454E-03-5.47707E-14
 -1      2353 1.15160E-02 1.58959E-03-5.56963E-14
 -1      2354 1.14098E-02 1.42490E-03-5.41795E-14
 -1      2355 1.16561E-02 1.72484E-03-5.66159E-14
 -1      2356 1.17967E-02 1.86015E-03-5.75322E-14
 -1      2357 1.16924E-02 1.69509E-03-5.60224E-14
 -1      2358 1.19377E-02 1.99539E-03-5.84441E-14
 -1      2359 1.20789E-02 2.13048E-03-5.93544E-14
 -1      2360 1.19761E-02 1.96567E-03-5.78518E-14
 -1      2361 1.22205E-02 2.26535E-03-6.02587E-14
 -1      2362 1.23623E-02 2.39996E-03-6.11532E-14
 -1      2363 1.22605E-02 2.23572E-03-5.96635E-14
 -1      2364 1.25043E-02 2.53430E-03-6.20442E-14
 -1      2365 1.26465E-02 2.66835E-03-6.29284E-14
 -1      2366 1.25454E-02 2.50482E-03-6.14556E-14
 -1      2367 1.27888E-02 2.80211E-03-6.38049E-14
 -1      2368 1.29312E-02 2.93557E-03-6.46783E-14
 -1      2369 1.28305E-02 2.77280E-03-6.32193E-14
 -1      2370 1.30723E-02 3.06491E-03-6.55018E-14
 -1      2371 1.32149E-02 3.19781E-03-6.63576E-14
 -1      2372 1.33970E-02 3.29394E-03-6.65602E-14
 -1      2373 1.31144E-02 3.03582E-03-6.49197E-14
 -1      2374 1.04893E-03 4.12728E-04-4.75558E-16
 -1      2375 9.04705E-04 3.77330E-04-3.50956E-16
 -1      2376 8.75595E-04 3.50966E-04-3.55767E-16
 -1      2377 1.10712E-03 3.94077E-04-5.84968E-16
 -1      2378 1.87608E-03 5.25909E-04-1.64079E-15
 -1      2379 1.73583E-03 5.13337E-04-1.39258E-15
 -1      2380 1.64914E-03 4.69764E-04-1.31907E-15
 -1      2381 2.15623E-03 5.44919E-04-2.19869E-15
 -1      2382 2.01620E-03 5.36376E-04-1.90940E-15
 -1      2383 1.93190E-03 4.94942E-04-1.81994E-15
 -1      2384 2.43638E-03 5.57543E-04-2.83692E-15
 -1      2385 2.29629E-03 5.51924E-04-2.50802E-15
 -1      2386 2.21405E-03 5.12045E-04-2.40233E-15
 -1      2387 2.71691E-03 5.65579E-04-3.55488E-15
 -1      2388 2.57660E-03 5.62052E-04-3.18604E-15
 -1      2389 2.49606E-03 5.23276E-04-3.06447E-15
 -1      2390 2.99801E-03 5.70383E-04-4.35126E-15
 -1      2391 2.85739E-03 5.68322E-04-3.94341E-15
 -1      2392 2.77823E-03 5.30306E-04-3.80470E-15
 -1      2393 3.29386E-03 5.73056E-04-5.26888E-15
 -1      2394 3.14585E-03 5.71970E-04-4.79965E-15
 -1      2395 3.06780E-03 5.34468E-04-4.64357E-15
 -1      2396 3.57627E-03 5.74120E-04-6.21999E-15
 -1      2397 3.43500E-03 5.73732E-04-5.73536E-15
 -1      2398 3.35780E-03 5.36552E-04-5.56236E-15
 -1      2399 3.85928E-03 5.74287E-04-7.24284E-15
 -1      2400 3.71771E-03 5.74290E-04-6.72224E-15
 -1      2401 3.64116E-03 5.37291E-04-6.53291E-15
 -1      2402 4.14281E-03 5.73937E-04-8.33566E-15
 -1      2403 4.00099E-03 5.74158E-04-7.78060E-15
 -1      2404 3.92492E-03 5.37253E-04-7.57462E-15
 -1      2405 4.42679E-03 5.73321E-04-9.49650E-15
 -1      2406 4.28476E-03 5.73649E-04-8.90743E-15
 -1      2407 4.20904E-03 5.36782E-04-8.68526E-15
 -1      2408 4.72536E-03 5.72549E-04-1.07819E-14
 -1      2409 4.57604E-03 5.72943E-04-1.01317E-14
 -1      2410 4.50059E-03 5.36086E-04-9.89199E-15
 -1      2411 5.01002E-03 5.71750E-04-1.20657E-14
 -1      2412 4.86766E-03 5.72154E-04-1.14167E-14
 -1      2413 4.79240E-03 5.35308E-04-1.11628E-14
 -1      2414 5.29492E-03 5.70850E-04-1.33991E-14
 -1      2415 5.15244E-03 5.71314E-04-1.27264E-14
 -1      2416 5.07729E-03 5.34507E-04-1.24587E-14
 -1      2417 5.58004E-03 5.69710E-04-1.47776E-14
 -1      2418 5.43745E-03 5.70316E-04-1.40836E-14
 -1      2419 5.36230E-03 5.33614E-04-1.38042E-14
 -1      2420 5.86536E-03 5.68078E-04-1.61923E-14
 -1      2421 5.72266E-03 5.68967E-04-1.54804E-14
 -1      2422 5.64737E-03 5.32486E-04-1.51926E-14
 -1      2423 6.15090E-03 5.65565E-04-1.76433E-14
 -1      2424 6.00807E-03 5.66949E-04-1.69140E-14
 -1      2425 5.93239E-03 5.30877E-04-1.66200E-14
 -1      2426 6.45098E-03 5.61392E-04-1.92003E-14
 -1      2427 6.30085E-03 5.63703E-04-1.84171E-14
 -1      2428 6.22427E-03 5.28355E-04-1.81179E-14
 -1      2429 6.73698E-03 5.55280E-04-2.07132E-14
 -1      2430 6.59386E-03 5.58631E-04-1.99530E-14
 -1      2431 6.51550E-03 5.24475E-04-1.96497E-14
 -1      2432 7.02289E-03 5.46490E-04-2.22559E-14
 -1      2433 6.87979E-03 5.51258E-04-2.14811E-14
 -1      2434 6.79821E-03 5.18923E-04-2.11742E-14
 -1      2435 7.30779E-03 5.35038E-04-2.38243E-14
 -1      2436 7.16523E-03 5.41128E-04-2.30369E-14
 -1      2437 7.07794E-03 5.11475E-04-2.27270E-14
 -1      2438 7.58935E-03 5.22882E-04-2.54161E-14
 -1      2439 7.44865E-03 5.29036E-04-2.46177E-14
 -1      2440 7.35159E-03 5.02983E-04-2.43072E-14
 -1      2441 7.87629E-03 5.17061E-04-2.71094E-14
 -1      2442 7.73345E-03 5.18784E-04-2.62596E-14
 -1      2443 7.61970E-03 4.96657E-04-2.59498E-14
 -1      2444 8.13445E-03 5.37614E-04-2.87373E-14
 -1      2445 8.00649E-03 5.23229E-04-2.79218E-14
 -1      2446 7.86524E-03 5.02171E-04-2.76122E-14
 -1      2447 8.41006E-03 6.26841E-04-3.02366E-14
 -1      2448 8.29219E-03 5.75252E-04-2.95005E-14
 -1      2449 1.32256E-02 1.74174E-03-4.14392E-14
 -1      2450 1.32462E-02 1.53137E-03-4.38189E-14
 -1      2451 1.30595E-02 1.47566E-03-4.36451E-14
 -1      2452 1.34190E-02 1.65060E-03-4.22650E-14
 -1      2453 1.36295E-02 1.60264E-03-4.40006E-14
 -1      2454 1.34761E-02 1.59347E-03-4.40538E-14
 -1      2455 1.38170E-02 1.70638E-03-4.45417E-14
 -1      2456 1.36831E-02 1.63568E-03-4.35839E-14
 -1      2457 1.46275E-02 2.45123E-03-5.00621E-14
 -1      2458 1.44859E-02 2.31291E-03-4.91502E-14
 -1      2459 1.49123E-02 2.72791E-03-5.18848E-14
 -1      2460 1.47691E-02 2.58950E-03-5.09737E-14
 -1      2461 1.46087E-02 2.49118E-03-5.06632E-14
 -1      2462 1.51986E-02 3.00269E-03-5.36986E-14
 -1      2463 1.50551E-02 2.86561E-03-5.27924E-14
 -1      2464 1.48827E-02 2.76431E-03-5.24778E-14
 -1      2465 1.54996E-02 3.28812E-03-5.55864E-14
 -1      2466 1.53490E-02 3.14578E-03-5.46454E-14
 -1      2467 1.51699E-02 3.04316E-03-5.43319E-14
 -1      2468 1.57860E-02 3.55739E-03-5.73707E-14
 -1      2469 1.56428E-02 3.42304E-03-5.64804E-14
 -1      2470 1.54601E-02 3.31992E-03-5.61708E-14
 -1      2471 1.60722E-02 3.82483E-03-5.91365E-14
 -1      2472 1.59291E-02 3.69131E-03-5.82562E-14
 -1      2473 1.57447E-02 3.58803E-03-5.79498E-14
 -1      2474 1.63582E-02 4.09106E-03-6.08893E-14
 -1      2475 1.62152E-02 3.95807E-03-6.00142E-14
 -1      2476 1.60299E-02 3.85476E-03-5.97121E-14
 -1      2477 1.67439E-02 4.46665E-03-6.34637E-14
 -1      2478 1.66951E-02 4.40285E-03-6.29403E-14
 -1      2479 1.66089E-02 4.40965E-03-6.34653E-14
 -1      2480 1.58122E-02 4.09966E-03-6.37683E-14
 -1      2481 1.59403E-02 4.14079E-03-6.36172E-14
 -1      2482 1.55510E-02 4.01568E-03-6.40756E-14
 -1      2483 1.56817E-02 4.05773E-03-6.39204E-14
 -1      2484 1.56225E-02 3.96436E-03-6.30854E-14
 -1      2485 1.60705E-02 4.18259E-03-6.34618E-14
 -1      2486 1.62005E-02 4.22438E-03-6.33076E-14
 -1      2487 1.58832E-02 4.04772E-03-6.27793E-14
 -1      2488 1.52894E-02 3.93107E-03-6.43864E-14
 -1      2489 1.54203E-02 3.97347E-03-6.42310E-14
 -1      2490 1.53610E-02 3.88050E-03-6.33925E-14
 -1      2491 1.50276E-02 3.84570E-03-6.46897E-14
 -1      2492 1.51585E-02 3.88848E-03-6.45375E-14
 -1      2493 1.50990E-02 3.79583E-03-6.37016E-14
 -1      2494 1.47664E-02 3.75960E-03-6.49939E-14
 -1      2495 1.48969E-02 3.80273E-03-6.48425E-14
 -1      2496 1.48371E-02 3.71023E-03-6.40072E-14
 -1      2497 1.45061E-02 3.67297E-03-6.52952E-14
 -1      2498 1.46361E-02 3.71633E-03-6.51457E-14
 -1      2499 1.45758E-02 3.62379E-03-6.43142E-14
 -1      2500 1.42513E-02 3.58759E-03-6.55948E-14
 -1      2501 1.43786E-02 3.63028E-03-6.54452E-14
 -1      2502 1.43179E-02 3.53755E-03-6.46188E-14
 -1      2503 1.39931E-02 3.50087E-03-6.59057E-14
 -1      2504 1.41221E-02 3.54419E-03-6.57483E-14
 -1      2505 1.40612E-02 3.45115E-03-6.49253E-14
 -1      2506 1.37356E-02 3.41455E-03-6.62218E-14
 -1      2507 1.38643E-02 3.45764E-03-6.60622E-14
 -1      2508 1.38034E-02 3.36423E-03-6.52402E-14
 -1      2509 1.35020E-02 3.33273E-03-6.64710E-14
 -1      2510 1.36307E-02 3.37554E-03-6.63054E-14
 -1      2511 1.35700E-02 3.28182E-03-6.54813E-14
 -1      2512 1.33605E-02 3.20383E-03-6.56535E-14
 -1      2513 8.03694E-03 6.85390E-04-3.14579E-14
 -1      2514 8.14734E-03 7.01166E-04-3.14846E-14
 -1      2515 8.69076E-03 8.94700E-04-3.19382E-14
 -1      2516 9.58610E-03 1.17540E-04-3.56219E-14
 -1      2517 9.39147E-03 2.02784E-04-3.50025E-14
 -1      2518 1.43475E-02 2.17702E-03-4.82354E-14
 -1      2519 1.42098E-02 2.04359E-03-4.73220E-14
 -1      2520 1.43467E-02 2.22069E-03-4.88378E-14
 -1      2521 5.46509E-04-2.28788E-05-2.91759E-16
 -1      2522 5.46971E-04-3.89036E-05-2.92789E-16
 -1      2523 6.62415E-04-5.57651E-05-3.95449E-16
 -1      2524 6.61174E-04-1.76900E-05-3.92969E-16
 -1      2525 8.56833E-03 7.65596E-04-3.13480E-14
 -1      2526 8.52173E-03 6.94834E-04-3.08261E-14
 -1      2527 8.32186E-03 6.33414E-04-3.05502E-14
 -1      2528 8.51159E-03 8.09517E-04-3.17323E-14
 -1      2529 1.37201E-02 1.57206E-03-4.28834E-14
 -1      2530 1.37732E-02 1.57173E-03-4.32164E-14
 -1      2531 8.31735E-03 7.38605E-04-3.15351E-14
 -1      2532 1.06016E-02 1.24598E-04-3.93745E-14
 -1      2533 1.04590E-02 6.12721E-05-3.88677E-14
 -1      2534 7.95330E-03 6.68714E-04-3.14414E-14
 -1      2535 7.96793E-03 6.69824E-04-3.14123E-14
 -1      2536 8.10087E-03 6.62381E-04-3.19872E-14
 -1      2537 8.00715E-03 6.67981E-04-3.16983E-14
 -1      2538 8.36663E-03 6.02958E-04-3.25334E-14
 -1      2539 8.22456E-03 6.36889E-04-3.22475E-14
 -1      2540 8.69229E-03 4.96080E-04-3.31973E-14
 -1      2541 8.52267E-03 5.56464E-04-3.28645E-14
 -1      2542 8.40903E-03 5.69535E-04-3.22975E-14
 -1      2543 9.15733E-03 3.03123E-04-3.43230E-14
 -1      2544 8.94415E-03 3.96155E-04-3.37686E-14
 -1      2545 9.90388E-03 1.40277E-05-3.67849E-14
 -1      2546 9.77573E-03 4.90553E-05-3.62859E-14
 -1      2547 1.02778E-02 1.20133E-05-3.82325E-14
 -1      2548 1.01025E-02-2.92227E-06-3.75504E-14
 -1      2549 1.09242E-02 3.18203E-04-4.03959E-14
 -1      2550 1.07614E-02 2.10227E-04-3.98850E-14
 -1      2551 1.06441E-02 1.69018E-04-3.97572E-14
 -1      2552 1.13718E-02 6.29150E-04-4.15473E-14
 -1      2553 1.11545E-02 4.77707E-04-4.10507E-14
 -1      2554 1.18548E-02 9.44465E-04-4.24683E-14
 -1      2555 1.16354E-02 8.11123E-04-4.21329E-14
 -1      2556 1.23191E-02 1.19423E-03-4.30807E-14
 -1      2557 1.20850E-02 1.07092E-03-4.27751E-14
 -1      2558 1.19361E-02 1.04715E-03-4.30636E-14
 -1      2559 1.28487E-02 1.40434E-03-4.34859E-14
 -1      2560 1.26180E-02 1.32061E-03-4.33265E-14
 -1      2561 1.29293E-02 1.48407E-03-4.40230E-14
 -1      2562 1.37742E-02 1.58233E-03-4.35750E-14
 -1      2563 1.37358E-02 1.59320E-03-4.37534E-14
 -1      2564 6.70206E-04-1.37860E-04-3.88768E-16
 -1      2565 5.54604E-04-1.26114E-04-2.85728E-16
 -1      2566 5.57789E-04-1.46105E-04-2.80551E-16
 -1      2567 1.41095E-02 1.96351E-03-4.69974E-14
 -1      2568 1.38955E-02 1.73706E-03-4.51362E-14
 -1      2569 8.09977E-03 5.39971E-04-2.91943E-14
 -1      2570 1.33719E-02 1.61090E-03-4.44182E-14
 -1      2571 1.36948E-02 1.64060E-03-4.44062E-14
 -1      2572 1.65521E-02 4.27022E-03-6.20660E-14
 -1      2573 1.63663E-02 4.16690E-03-6.17636E-14
 -1      2574 1.61466E-02 4.13309E-03-6.24758E-14
 -1      2575 1.63339E-02 4.26828E-03-6.31576E-14
 -1      2576 1.64687E-02 4.32516E-03-6.31583E-14
 -1      2577 7.99497E-03 6.39049E-04-3.09929E-14
 -1      2578 1.37914E-02 1.60087E-03-4.38000E-14
 -1      2579 1.35714E-02 1.60975E-03-4.26443E-14
 -1      2580 9.63871E-03 7.43996E-05-3.57792E-14
 -1      2581 1.24384E-02 1.29558E-03-4.36183E-14
 -1      2582 1.10061E-02 4.07975E-04-4.09252E-14
 -1      2583 1.03307E-02 3.17509E-05-3.86100E-14
 -1      2584 9.98687E-03-6.53389E-06-3.72073E-14
 -1      2585 8.79150E-03 4.35824E-04-3.31923E-14
 -1      2586 5.71847E-04-1.85079E-04-2.72745E-16
 -1      2587 8.14463E-03 6.31237E-04-3.17118E-14
 -1      2588 7.95930E-03 6.48336E-04-3.12000E-14
 -1      2589 7.93250E-03 6.17558E-04-3.07038E-14
 -1      2590 7.97705E-03 6.28001E-04-3.09559E-14
 -1      2591 8.22946E-03 6.70988E-04-3.10907E-14
 -1      2592 9.24533E-03 2.40788E-04-3.44383E-14
 -1      2593 1.14720E-02 7.46567E-04-4.21682E-14
 -1      2594 1.37209E-02 1.58871E-03-4.32614E-14
 -1      2595 7.80088E-04 7.72658E-05-4.90236E-16
 -1      2596 7.78816E-04 5.54216E-05-4.96619E-16
 -1      2597 7.77962E-04 3.35281E-05-5.02121E-16
 -1      2598 7.77535E-04 1.18832E-05-5.06512E-16
 -1      2599 8.96352E-04 4.96365E-05-6.31141E-16
 -1      2600 7.91508E-04 1.73000E-04-4.49375E-16
 -1      2601 7.87476E-04 1.47602E-04-4.62304E-16
 -1      2602 8.03392E-04 2.28189E-04-4.17174E-16
 -1      2603 7.96769E-04 1.99799E-04-4.34575E-16
 -1      2604 9.14807E-04 2.07654E-04-5.62389E-16
 -1      2605 8.48143E-04 3.25542E-04-3.58871E-16
 -1      2606 1.99274E-03 4.63540E-04-2.00924E-15
 -1      2607 1.85068E-03 4.53375E-04-1.73541E-15
 -1      2608 2.27651E-03 4.78732E-04-2.61649E-15
 -1      2609 2.13467E-03 4.71937E-04-2.30271E-15
 -1      2610 2.05488E-03 4.31559E-04-2.20185E-15
 -1      2611 1.70846E-03 4.41023E-04-1.48221E-15
 -1      2612 1.56600E-03 4.26284E-04-1.24942E-15
 -1      2613 1.76936E-03 4.11629E-04-1.64959E-15
 -1      2614 1.03376E-03-3.14080E-04-7.09610E-16
 -1      2615 1.17701E-03-3.40181E-04-8.93464E-16
 -1      2616 1.51354E-02 3.08069E-03-5.49414E-14
 -1      2617 1.49896E-02 2.93952E-03-5.39980E-14
 -1      2618 1.32022E-03-3.62576E-04-1.09920E-15
 -1      2619 1.46345E-03-3.81549E-04-1.32691E-15
 -1      2620 1.23844E-03-3.18909E-04-1.01021E-15
 -1      2621 1.60650E-03-3.97627E-04-1.57594E-15
 -1      2622 1.74945E-03-4.11036E-04-1.84641E-15
 -1      2623 1.52501E-03-3.55223E-04-1.46697E-15
 -1      2624 1.89223E-03-4.22248E-04-2.13810E-15
 -1      2625 2.03489E-03-4.31450E-04-2.45116E-15
 -1      2626 1.81169E-03-3.81126E-04-2.00892E-15
 -1      2627 2.17745E-03-4.39022E-04-2.78552E-15
 -1      2628 2.31993E-03-4.45115E-04-3.14064E-15
 -1      2629 2.09815E-03-3.98999E-04-2.63547E-15
 -1      2630 2.46235E-03-4.50022E-04-3.51612E-15
 -1      2631 2.60472E-03-4.53865E-04-3.91188E-15
 -1      2632 2.38433E-03-4.10874E-04-3.34445E-15
 -1      2633 2.74709E-03-4.56867E-04-4.32747E-15
 -1      2634 2.88943E-03-4.59123E-04-4.76286E-15
 -1      2635 2.67026E-03-4.18382E-04-4.13467E-15
 -1      2636 3.03178E-03-4.60800E-04-5.21714E-15
 -1      2637 3.17413E-03-4.61972E-04-5.68953E-15
 -1      2638 2.95603E-03-4.22797E-04-5.00321E-15
 -1      2639 3.31651E-03-4.62763E-04-6.18051E-15
 -1      2640 3.45890E-03-4.63228E-04-6.69010E-15
 -1      2641 3.24168E-03-4.25096E-04-5.94610E-15
 -1      2642 3.60132E-03-4.63459E-04-7.21756E-15
 -1      2643 3.74376E-03-4.63499E-04-7.76244E-15
 -1      2644 3.52726E-03-4.26013E-04-6.96178E-15
 -1      2645 3.88624E-03-4.63413E-04-8.32492E-15
 -1      2646 4.02873E-03-4.63234E-04-8.90305E-15
 -1      2647 3.81281E-03-4.26093E-04-8.04786E-15
 -1      2648 4.17125E-03-4.63010E-04-9.49893E-15
 -1      2649 4.31379E-03-4.62766E-04-1.01117E-14
 -1      2650 4.09835E-03-4.25741E-04-9.20241E-15
 -1      2651 4.45637E-03-4.62540E-04-1.07384E-14
 -1      2652 4.59895E-03-4.62349E-04-1.13796E-14
 -1      2653 4.38389E-03-4.25255E-04-1.04208E-14
 -1      2654 4.74157E-03-4.62223E-04-1.20360E-14
 -1      2655 4.88420E-03-4.62176E-04-1.27058E-14
 -1      2656 4.66946E-03-4.24858E-04-1.17003E-14
 -1      2657 5.02685E-03-4.62236E-04-1.33897E-14
 -1      2658 5.16952E-03-4.62414E-04-1.40868E-14
 -1      2659 4.95509E-03-4.24726E-04-1.30356E-14
 -1      2660 5.31222E-03-4.62735E-04-1.47969E-14
 -1      2661 5.45493E-03-4.63210E-04-1.55194E-14
 -1      2662 5.24080E-03-4.25004E-04-1.44256E-14
 -1      2663 5.59768E-03-4.63862E-04-1.62537E-14
 -1      2664 5.74045E-03-4.64705E-04-1.70021E-14
 -1      2665 5.52668E-03-4.25824E-04-1.58670E-14
 -1      2666 5.88327E-03-4.65759E-04-1.77631E-14
 -1      2667 6.02611E-03-4.67036E-04-1.85355E-14
 -1      2668 5.81280E-03-4.27311E-04-1.73593E-14
 -1      2669 6.16901E-03-4.68551E-04-1.93212E-14
 -1      2670 6.31195E-03-4.70315E-04-2.01191E-14
 -1      2671 6.09929E-03-4.29586E-04-1.89025E-14
 -1      2672 6.45496E-03-4.72330E-04-2.09256E-14
 -1      2673 6.59800E-03-4.74600E-04-2.17427E-14
 -1      2674 6.38631E-03-4.32752E-04-2.04911E-14
 -1      2675 6.74112E-03-4.77099E-04-2.25694E-14
 -1      2676 6.88425E-03-4.79812E-04-2.34045E-14
 -1      2677 6.67402E-03-4.36860E-04-2.21203E-14
 -1      2678 7.02745E-03-4.82670E-04-2.42503E-14
 -1      2679 7.17059E-03-4.85618E-04-2.51026E-14
 -1      2680 6.96255E-03-4.41839E-04-2.37872E-14
 -1      2681 7.31373E-03-4.88514E-04-2.59623E-14
 -1      2682 7.45670E-03-4.91229E-04-2.68269E-14
 -1      2683 7.25190E-03-4.47371E-04-2.54850E-14
 -1      2684 7.59954E-03-4.93516E-04-2.76992E-14
 -1      2685 7.74201E-03-4.95128E-04-2.85785E-14
 -1      2686 7.54182E-03-4.52680E-04-2.72107E-14
 -1      2687 7.88413E-03-4.95680E-04-2.94610E-14
 -1      2688 8.02561E-03-4.94749E-04-3.03501E-14
 -1      2689 7.83171E-03-4.56230E-04-2.89601E-14
 -1      2690 8.16643E-03-4.91792E-04-3.12472E-14
 -1      2691 8.30633E-03-4.86177E-04-3.21483E-14
 -1      2692 8.12050E-03-4.55339E-04-3.07319E-14
 -1      2693 8.44521E-03-4.77201E-04-3.30550E-14
 -1      2694 8.58296E-03-4.64037E-04-3.39653E-14
 -1      2695 8.40674E-03-4.45810E-04-3.25290E-14
 -1      2696 8.71944E-03-4.45876E-04-3.48791E-14
 -1      2697 8.85473E-03-4.21791E-04-3.57984E-14
 -1      2698 8.68893E-03-4.21774E-04-3.43422E-14
 -1      2699 8.98874E-03-3.90992E-04-3.67208E-14
 -1      2700 9.12180E-03-3.52639E-04-3.76470E-14
 -1      2701 8.96611E-03-3.76057E-04-3.61720E-14
 -1      2702 9.25387E-03-3.06129E-04-3.85774E-14
 -1      2703 9.38552E-03-2.50931E-04-3.95084E-14
 -1      2704 9.23848E-03-3.01314E-04-3.80171E-14
 -1      2705 9.51675E-03-1.86790E-04-4.04450E-14
 -1      2706 9.64826E-03-1.13649E-04-4.13840E-14
 -1      2707 9.50774E-03-1.91770E-04-3.98747E-14
 -1      2708 9.78004E-03-3.16746E-05-4.23241E-14
 -1      2709 9.91271E-03 5.86977E-05-4.32679E-14
 -1      2710 9.77666E-03-4.49354E-05-4.17454E-14
 -1      2711 1.00462E-02 1.56928E-04-4.42119E-14
 -1      2712 1.01810E-02 2.62226E-04-4.51571E-14
 -1      2713 1.00482E-02 1.37573E-04-4.36273E-14
 -1      2714 1.03169E-02 3.73828E-04-4.61007E-14
 -1      2715 1.04542E-02 4.90808E-04-4.70454E-14
 -1      2716 1.03242E-02 3.50572E-04-4.55110E-14
 -1      2717 1.05926E-02 6.12350E-04-4.79889E-14
 -1      2718 1.07320E-02 7.37595E-04-4.89261E-14
 -1      2719 1.06054E-02 5.86902E-04-4.73959E-14
 -1      2720 1.08725E-02 8.65810E-04-4.98632E-14
 -1      2721 1.10137E-02 9.96318E-04-5.07995E-14
 -1      2722 1.08909E-02 8.39238E-04-4.92714E-14
 -1      2723 1.11556E-02 1.12854E-03-5.17314E-14
 -1      2724 1.12979E-02 1.26200E-03-5.26614E-14
 -1      2725 1.11792E-02 1.10138E-03-5.11390E-14
 -1      2726 1.14407E-02 1.39630E-03-5.35873E-14
 -1      2727 1.15836E-02 1.53114E-03-5.45100E-14
 -1      2728 1.14690E-02 1.36875E-03-5.29960E-14
 -1      2729 1.17267E-02 1.66625E-03-5.54305E-14
 -1      2730 1.18698E-02 1.80149E-03-5.63471E-14
 -1      2731 1.17590E-02 1.63839E-03-5.48405E-14
 -1      2732 1.20131E-02 1.93668E-03-5.72596E-14
 -1      2733 1.21562E-02 2.07176E-03-5.81685E-14
 -1      2734 1.20485E-02 1.90852E-03-5.66698E-14
 -1      2735 1.22994E-02 2.20665E-03-5.90733E-14
 -1      2736 1.24425E-02 2.34132E-03-5.99719E-14
 -1      2737 1.23372E-02 2.17825E-03-5.84836E-14
 -1      2738 1.25856E-02 2.47573E-03-6.08648E-14
 -1      2739 1.27286E-02 2.60989E-03-6.17518E-14
 -1      2740 1.26251E-02 2.44714E-03-6.02771E-14
 -1      2741 1.28716E-02 2.74377E-03-6.26333E-14
 -1      2742 1.30146E-02 2.87739E-03-6.35091E-14
 -1      2743 1.29123E-02 2.71507E-03-6.20468E-14
 -1      2744 1.31168E-02 2.97611E-03-6.41729E-14
 -1      2745 1.32583E-02 3.10544E-03-6.49979E-14
 -1      2746 1.33629E-02 3.14444E-03-6.49110E-14
 -1      2747 1.31581E-02 2.94739E-03-6.35903E-14
 -1      2748 1.48525E-02 2.80511E-03-5.30963E-14
 -1      2749 1.47171E-02 2.67041E-03-5.21901E-14
 -1      2750 1.48181E-02 2.84528E-03-5.37103E-14
 -1      2751 8.07711E-03 5.64346E-04-2.98251E-14
 -1      2752 7.97359E-03 5.30093E-04-2.90570E-14
 -1      2753 2.56008E-03 4.88595E-04-3.30201E-15
 -1      2754 2.41831E-03 4.84241E-04-2.94940E-15
 -1      2755 2.34000E-03 4.44913E-04-2.83347E-15
 -1      2756 2.84367E-03 4.94659E-04-4.06608E-15
 -1      2757 2.70187E-03 4.92033E-04-3.67451E-15
 -1      2758 2.62490E-03 4.53482E-04-3.54309E-15
 -1      2759 3.14159E-03 4.98199E-04-4.94936E-15
 -1      2760 2.99261E-03 4.96732E-04-4.49732E-15
 -1      2761 2.91683E-03 4.58745E-04-4.35017E-15
 -1      2762 3.42556E-03 4.99775E-04-5.86945E-15
 -1      2763 3.28355E-03 4.99166E-04-5.40023E-15
 -1      2764 3.20877E-03 4.61563E-04-5.23704E-15
 -1      2765 3.70977E-03 5.00237E-04-6.86006E-15
 -1      2766 3.56764E-03 5.00116E-04-6.35581E-15
 -1      2767 3.49365E-03 4.62760E-04-6.17770E-15
 -1      2768 3.99422E-03 5.00037E-04-7.92126E-15
 -1      2769 3.85197E-03 5.00200E-04-7.38229E-15
 -1      2770 3.77862E-03 4.62996E-04-7.18909E-15
 -1      2771 4.27889E-03 4.99486E-04-9.04994E-15
 -1      2772 4.13654E-03 4.99792E-04-8.47730E-15
 -1      2773 4.06370E-03 4.62677E-04-8.26883E-15
 -1      2774 4.57800E-03 4.98747E-04-1.03048E-14
 -1      2775 4.42843E-03 4.99128E-04-9.66839E-15
 -1      2776 4.35599E-03 4.62067E-04-9.44575E-15
 -1      2777 4.86300E-03 4.98004E-04-1.15595E-14
 -1      2778 4.72049E-03 4.98376E-04-1.09253E-14
 -1      2779 4.64836E-03 4.61358E-04-1.06873E-14
 -1      2780 5.14807E-03 4.97247E-04-1.28685E-14
 -1      2781 5.00553E-03 4.97626E-04-1.22076E-14
 -1      2782 4.93362E-03 4.60669E-04-1.19564E-14
 -1      2783 5.43313E-03 4.96426E-04-1.42263E-14
 -1      2784 5.29061E-03 4.96848E-04-1.35416E-14
 -1      2785 5.21883E-03 4.60008E-04-1.32795E-14
 -1      2786 5.71804E-03 4.95413E-04-1.56269E-14
 -1      2787 5.57561E-03 4.95952E-04-1.49214E-14
 -1      2788 5.50387E-03 4.59337E-04-1.46493E-14
 -1      2789 6.00255E-03 4.94004E-04-1.70655E-14
 -1      2790 5.86035E-03 4.94772E-04-1.63413E-14
 -1      2791 5.78849E-03 4.58568E-04-1.60623E-14
 -1      2792 6.30037E-03 4.91807E-04-1.86136E-14
 -1      2793 6.15159E-03 4.93022E-04-1.78356E-14
 -1      2794 6.07938E-03 4.57547E-04-1.75503E-14
 -1      2795 6.58228E-03 4.88766E-04-2.01203E-14
 -1      2796 6.44156E-03 4.90434E-04-1.93631E-14
 -1      2797 6.36864E-03 4.56177E-04-1.90755E-14
 -1      2798 6.86093E-03 4.84712E-04-2.16565E-14
 -1      2799 6.72206E-03 4.86908E-04-2.08844E-14
 -1      2800 6.64789E-03 4.54537E-04-2.05936E-14
 -1      2801 7.13342E-03 4.80153E-04-2.32210E-14
 -1      2802 6.99804E-03 4.82552E-04-2.24353E-14
 -1      2803 6.92186E-03 4.53033E-04-2.21410E-14
 -1      2804 7.39464E-03 4.77033E-04-2.48125E-14
 -1      2805 7.26564E-03 4.78482E-04-2.40137E-14
 -1      2806 7.18647E-03 4.53026E-04-2.37179E-14
 -1      2807 7.64719E-03 4.80645E-04-2.65073E-14
 -1      2808 7.52414E-03 4.78071E-04-2.56574E-14
 -1      2809 7.44076E-03 4.57958E-04-2.53613E-14
 -1      2810 7.85314E-03 5.01147E-04-2.81389E-14
 -1      2811 7.75491E-03 4.89011E-04-2.73209E-14
 -1      2812 7.66619E-03 4.74673E-04-2.70267E-14
 -1      2813 1.34526E-02 1.67485E-03-4.50409E-14
 -1      2814 1.32299E-02 1.62279E-03-4.48044E-14
 -1      2815 1.37716E-02 1.68432E-03-4.48778E-14
 -1      2816 1.36773E-02 1.70510E-03-4.51239E-14
 -1      2817 9.64282E-03 3.42564E-05-3.58471E-14
 -1      2818 9.48608E-03 9.59710E-05-3.51859E-14
 -1      2819 1.45851E-02 2.53650E-03-5.12833E-14
 -1      2820 1.44563E-02 2.40278E-03-5.03734E-14
 -1      2821 1.45541E-02 2.58084E-03-5.19025E-14
 -1      2822 1.54162E-02 3.34861E-03-5.67326E-14
 -1      2823 1.52753E-02 3.21476E-03-5.58398E-14
 -1      2824 1.50919E-02 3.11119E-03-5.55092E-14
 -1      2825 1.56994E-02 3.61543E-03-5.85070E-14
 -1      2826 1.55575E-02 3.48213E-03-5.76212E-14
 -1      2827 1.53712E-02 3.37716E-03-5.72933E-14
 -1      2828 1.59838E-02 3.88139E-03-6.02638E-14
 -1      2829 1.58415E-02 3.74850E-03-5.93877E-14
 -1      2830 1.56535E-02 3.64275E-03-5.90634E-14
 -1      2831 1.59578E-02 3.99707E-03-6.17898E-14
 -1      2832 1.60910E-02 4.04066E-03-6.16422E-14
 -1      2833 1.54339E-02 3.82973E-03-6.24010E-14
 -1      2834 1.55645E-02 3.87132E-03-6.22489E-14
 -1      2835 1.56949E-02 3.91277E-03-6.20980E-14
 -1      2836 1.58250E-02 3.95419E-03-6.19437E-14
 -1      2837 1.55068E-02 3.77820E-03-6.14149E-14
 -1      2838 1.51720E-02 3.74598E-03-6.27085E-14
 -1      2839 1.53030E-02 3.78798E-03-6.25535E-14
 -1      2840 1.52454E-02 3.69549E-03-6.17181E-14
 -1      2841 1.46474E-02 3.57523E-03-6.33284E-14
 -1      2842 1.47784E-02 3.61833E-03-6.31741E-14
 -1      2843 1.43862E-02 3.48835E-03-6.36359E-14
 -1      2844 1.45166E-02 3.53188E-03-6.34809E-14
 -1      2845 1.44575E-02 3.44029E-03-6.26471E-14
 -1      2846 1.41307E-02 3.40241E-03-6.39403E-14
 -1      2847 1.42582E-02 3.44541E-03-6.37865E-14
 -1      2848 1.41985E-02 3.35357E-03-6.29547E-14
 -1      2849 1.38722E-02 3.31490E-03-6.42538E-14
 -1      2850 1.40013E-02 3.35863E-03-6.40974E-14
 -1      2851 1.39411E-02 3.26635E-03-6.32634E-14
 -1      2852 1.36148E-02 3.22775E-03-6.45733E-14
 -1      2853 1.37434E-02 3.27125E-03-6.44139E-14
 -1      2854 1.36831E-02 3.17841E-03-6.35810E-14
 -1      2855 1.43332E-02 2.27166E-03-4.94615E-14
 -1      2856 1.42160E-02 2.14191E-03-4.85488E-14
 -1      2857 1.43068E-02 2.32128E-03-5.00838E-14
 -1      2858 1.41079E-02 2.00922E-03-4.75422E-14
 -1      2859 1.40127E-02 1.89018E-03-4.66167E-14
 -1      2860 1.10591E-02 4.91924E-04-4.14746E-14
 -1      2861 1.08572E-02 3.40678E-04-4.08178E-14
 -1      2862 1.39344E-02 1.78794E-03-4.57204E-14
 -1      2863 1.38547E-02 1.68794E-03-4.47856E-14
 -1      2864 6.88563E-04-2.03864E-04-3.75649E-16
 -1      2865 1.49096E-02 3.66117E-03-6.30183E-14
 -1      2866 1.50408E-02 3.70372E-03-6.28654E-14
 -1      2867 1.49828E-02 3.61178E-03-6.20246E-14
 -1      2868 1.47199E-02 3.52671E-03-6.23370E-14
 -1      2869 1.42331E-03 4.08632E-04-1.03711E-15
 -1      2870 1.28028E-03 3.87805E-04-8.44892E-16
 -1      2871 1.48334E-03 3.82858E-04-1.17796E-15
 -1      2872 8.17403E-03 5.99298E-04-3.14161E-14
 -1      2873 8.06755E-03 6.15796E-04-3.11609E-14
 -1      2874 7.84311E-04 1.23361E-04-4.73065E-16
 -1      2875 7.81907E-04 9.99398E-05-4.82375E-16
 -1      2876 8.99491E-04 9.93687E-05-6.15109E-16
 -1      2877 9.05266E-04 1.51479E-04-5.92801E-16
 -1      2878 7.81634E-04-9.78915E-05-5.13912E-16
 -1      2879 7.83961E-04-1.21231E-04-5.12096E-16
 -1      2880 1.03923E-02 6.66301E-05-3.90969E-14
 -1      2881 1.02390E-02 1.53595E-05-3.84598E-14
 -1      2882 7.95351E-03 5.93610E-04-3.03144E-14
 -1      2883 8.02621E-03 5.93239E-04-3.03635E-14
 -1      2884 8.16551E-03 6.12680E-04-3.04991E-14
 -1      2885 8.44724E-03 5.28249E-04-3.20627E-14
 -1      2886 8.31304E-03 5.65362E-04-3.17365E-14
 -1      2887 1.15426E-02 8.43858E-04-4.27707E-14
 -1      2888 1.13068E-02 6.73976E-04-4.21818E-14
 -1      2889 1.25790E-02 1.41694E-03-4.43804E-14
 -1      2890 1.23141E-02 1.30121E-03-4.41341E-14
 -1      2891 8.85583E-03 3.75698E-04-3.31147E-14
 -1      2892 8.63925E-03 4.64054E-04-3.25503E-14
 -1      2893 1.00432E-02-1.64716E-05-3.76434E-14
 -1      2894 9.87480E-03-1.10170E-05-3.68769E-14
 -1      2895 1.06596E-02 2.08717E-04-4.01220E-14
 -1      2896 1.05247E-02 1.28107E-04-3.96096E-14
 -1      2897 1.04188E-02 9.77747E-05-3.94587E-14
 -1      2898 1.21106E-02 1.19443E-03-4.38281E-14
 -1      2899 1.19071E-02 1.07849E-03-4.35206E-14
 -1      2900 1.22749E-02 1.32039E-03-4.45929E-14
 -1      2901 1.30162E-02 1.56564E-03-4.46730E-14
 -1      2902 1.28225E-02 1.50276E-03-4.45132E-14
 -1      2903 1.26962E-02 1.50464E-03-4.50328E-14
 -1      2904 1.31344E-02 1.64246E-03-4.52973E-14
 -1      2905 9.30409E-03 1.73118E-04-3.45058E-14
 -1      2906 9.10568E-03 2.59413E-04-3.38304E-14
 -1      2907 9.32822E-03 1.13865E-04-3.45723E-14
 -1      2908 8.95317E-04 1.00721E-06-6.42159E-16
 -1      2909 7.77504E-04-9.71433E-06-5.09982E-16
 -1      2910 7.77871E-04-3.13427E-05-5.12665E-16
 -1      2911 9.69597E-04 3.43166E-04-4.80613E-16
 -1      2912 8.27674E-04 2.95858E-04-3.72993E-16
 -1      2913 8.16221E-04 2.62991E-04-3.96981E-16
 -1      2914 1.08554E-03 3.62247E-04-6.03901E-16
 -1      2915 7.98884E-03 5.99855E-04-3.06642E-14
 -1      2916 7.86728E-03 5.16847E-04-2.87653E-14
 -1      2917 7.88894E-04-2.52307E-04-4.51001E-16
 -1      2918 9.20098E-04-2.88095E-04-5.80943E-16
 -1      2919 8.99044E-03 2.22253E-04-3.32465E-14
 -1      2920 8.93833E-03 2.97927E-04-3.31824E-14
 -1      2921 8.77525E-03 3.25449E-04-3.25377E-14
 -1      2922 9.82196E-04-2.73118E-04-6.75444E-16
 -1      2923 1.35881E-02 1.73142E-03-4.55146E-14
 -1      2924 1.34841E-02 1.75308E-03-4.59032E-14
 -1      2925 1.37030E-02 1.78298E-03-4.59896E-14
 -1      2926 9.04795E-04-1.48971E-04-6.45114E-16
 -1      2927 7.87041E-04-1.45368E-04-5.08748E-16
 -1      2928 7.90968E-04-1.70526E-04-5.03612E-16
 -1      2929 1.14479E-03 3.42747E-04-7.13161E-16
 -1      2930 7.78656E-04-5.31089E-05-5.14102E-16
 -1      2931 7.79884E-04-7.52803E-05-5.14508E-16
 -1      2932 8.99203E-04-9.70237E-05-6.49383E-16
 -1      2933 8.96220E-04-4.74900E-05-6.48258E-16
 -1      2934 1.60375E-02 3.94608E-03-6.07712E-14
 -1      2935 1.58489E-02 3.84004E-03-6.04476E-14
 -1      2936 1.57698E-02 3.86194E-03-6.11091E-14
 -1      2937 1.64199E-02 4.26134E-03-6.26330E-14
 -1      2938 1.62263E-02 4.08241E-03-6.14580E-14
 -1      2939 1.07267E-02 2.81632E-04-4.06695E-14
 -1      2940 1.40900E-02 2.06421E-03-4.81667E-14
 -1      2941 1.34676E-02 3.18356E-03-6.48271E-14
 -1      2942 1.01088E-02-5.76414E-06-3.81262E-14
 -1      2943 1.34076E-02 3.09012E-03-6.39967E-14
 -1      2944 1.17272E-02 9.98374E-04-4.35366E-14
 -1      2945 1.15695E-02 9.19743E-04-4.35515E-14
 -1      2946 1.19061E-02 1.13871E-03-4.43038E-14
 -1      2947 1.39310E-02 1.83411E-03-4.62637E-14
 -1      2948 1.11466E-02 5.88667E-04-4.20747E-14
 -1      2949 9.71388E-03-4.96098E-06-3.62779E-14
 -1      2950 1.38192E-02 1.67766E-03-4.47618E-14
 -1      2951 1.38322E-02 1.74538E-03-4.54840E-14
 -1      2952 8.20610E-03 5.59633E-04-3.11841E-14
 -1      2953 9.34212E-04 2.74269E-04-5.21623E-16
 -1      2954 1.38242E-02 1.64802E-03-4.44024E-14
 -1      2955 8.51632E-03 4.68943E-04-3.19855E-14
 -1      2956 1.04024E-03 2.43171E-04-6.87276E-16
 -1      2957 1.03360E-03 2.11421E-04-7.07591E-16
 -1      2958 2.69053E-03 4.17919E-04-3.78732E-15
 -1      2959 2.54755E-03 4.14699E-04-3.41082E-15
 -1      2960 2.11827E-03 3.98957E-04-2.39853E-15
 -1      2961 1.97505E-03 3.91102E-04-2.09979E-15
 -1      2962 1.83177E-03 3.81519E-04-1.82097E-15
 -1      2963 1.68842E-03 3.70030E-04-1.56212E-15
 -1      2964 1.89542E-03 3.50742E-04-1.99675E-15
 -1      2965 7.69910E-04-2.02373E-04-4.63998E-16
 -1      2966 1.01828E-02 2.02463E-05-3.87115E-14
 -1      2967 1.00056E-02-2.15069E-05-3.78923E-14
 -1      2968 1.44456E-03-3.13568E-04-1.35968E-15
 -1      2969 1.58805E-03-3.28044E-04-1.61023E-15
 -1      2970 1.73164E-03-3.40291E-04-1.88151E-15
 -1      2971 1.87530E-03-3.50503E-04-2.17397E-15
 -1      2972 1.65229E-03-2.99974E-04-1.75608E-15
 -1      2973 2.01895E-03-3.59005E-04-2.48698E-15
 -1      2974 2.16259E-03-3.65948E-04-2.82089E-15
 -1      2975 1.94005E-03-3.19204E-04-2.34106E-15
 -1      2976 2.30617E-03-3.71614E-04-3.17513E-15
 -1      2977 2.44970E-03-3.76129E-04-3.54950E-15
 -1      2978 2.22804E-03-3.32357E-04-3.00760E-15
 -1      2979 2.59318E-03-3.79717E-04-3.94429E-15
 -1      2980 2.73660E-03-3.82480E-04-4.35818E-15
 -1      2981 2.51597E-03-3.40949E-04-3.75565E-15
 -1      2982 2.87996E-03-3.84591E-04-4.79108E-15
 -1      2983 3.02326E-03-3.86129E-04-5.24350E-15
 -1      2984 2.80367E-03-3.46229E-04-4.58188E-15
 -1      2985 3.16652E-03-3.87227E-04-5.71403E-15
 -1      2986 3.30973E-03-3.87944E-04-6.20248E-15
 -1      2987 3.09111E-03-3.49183E-04-5.48377E-15
 -1      2988 3.45290E-03-3.88379E-04-6.70857E-15
 -1      2989 3.59602E-03-3.88575E-04-7.23244E-15
 -1      2990 3.37827E-03-3.50571E-04-6.45848E-15
 -1      2991 3.73911E-03-3.88609E-04-7.77376E-15
 -1      2992 3.88217E-03-3.88509E-04-8.33235E-15
 -1      2993 3.66517E-03-3.50964E-04-7.50249E-15
 -1      2994 4.02521E-03-3.88332E-04-8.90752E-15
 -1      2995 4.16822E-03-3.88100E-04-9.49902E-15
 -1      2996 3.95184E-03-3.50784E-04-8.61586E-15
 -1      2997 4.31122E-03-3.87855E-04-1.01067E-14
 -1      2998 4.45420E-03-3.87612E-04-1.07291E-14
 -1      2999 4.23834E-03-3.50339E-04-9.79437E-15
 -1      3000 4.59718E-03-3.87402E-04-1.13664E-14
 -1      3001 4.74016E-03-3.87239E-04-1.20187E-14
 -1      3002 4.52472E-03-3.49856E-04-1.10361E-14
 -1      3003 4.88316E-03-3.87145E-04-1.26847E-14
 -1      3004 5.02617E-03-3.87131E-04-1.33644E-14
 -1      3005 4.81106E-03-3.49498E-04-1.23360E-14
 -1      3006 5.16922E-03-3.87216E-04-1.40566E-14
 -1      3007 5.31231E-03-3.87412E-04-1.47630E-14
 -1      3008 5.09745E-03-3.49388E-04-1.36911E-14
 -1      3009 5.45547E-03-3.87733E-04-1.54823E-14
 -1      3010 5.59870E-03-3.88193E-04-1.62137E-14
 -1      3011 5.38404E-03-3.49624E-04-1.50992E-14
 -1      3012 5.74205E-03-3.88802E-04-1.69584E-14
 -1      3013 5.88551E-03-3.89578E-04-1.77160E-14
 -1      3014 5.67100E-03-3.50289E-04-1.65605E-14
 -1      3015 6.02916E-03-3.90526E-04-1.84857E-14
 -1      3016 6.17298E-03-3.91670E-04-1.92675E-14
 -1      3017 5.95859E-03-3.51464E-04-1.80718E-14
 -1      3018 6.31705E-03-3.93005E-04-2.00594E-14
 -1      3019 6.46137E-03-3.94561E-04-2.08617E-14
 -1      3020 6.24715E-03-3.53230E-04-1.96300E-14
 -1      3021 6.60602E-03-3.96318E-04-2.16756E-14
 -1      3022 6.75099E-03-3.98305E-04-2.24967E-14
 -1      3023 6.53707E-03-3.55671E-04-2.12318E-14
 -1      3024 6.89637E-03-4.00479E-04-2.33266E-14
 -1      3025 7.04210E-03-4.02858E-04-2.41663E-14
 -1      3026 6.82882E-03-3.58856E-04-2.28712E-14
 -1      3027 7.18831E-03-4.05356E-04-2.50117E-14
 -1      3028 7.33485E-03-4.07952E-04-2.58641E-14
 -1      3029 7.12283E-03-3.62797E-04-2.45417E-14
 -1      3030 7.48183E-03-4.10496E-04-2.67242E-14
 -1      3031 7.62903E-03-4.12875E-04-2.75904E-14
 -1      3032 7.41935E-03-3.67322E-04-2.62413E-14
 -1      3033 7.77652E-03-4.14840E-04-2.84628E-14
 -1      3034 7.92399E-03-4.16120E-04-2.93391E-14
 -1      3035 7.71822E-03-3.71842E-04-2.79678E-14
 -1      3036 8.07141E-03-4.16323E-04-3.02213E-14
 -1      3037 8.21843E-03-4.14920E-04-3.11108E-14
 -1      3038 8.01869E-03-3.74938E-04-2.97159E-14
 -1      3039 8.36492E-03-4.11345E-04-3.20054E-14
 -1      3040 8.51054E-03-4.04757E-04-3.29048E-14
 -1      3041 8.31916E-03-3.73758E-04-3.14861E-14
 -1      3042 8.65512E-03-3.94398E-04-3.38076E-14
 -1      3043 8.79845E-03-3.79141E-04-3.47153E-14
 -1      3044 8.61737E-03-3.63377E-04-3.32767E-14
 -1      3045 8.94034E-03-3.58106E-04-3.56274E-14
 -1      3046 9.08094E-03-3.30056E-04-3.65422E-14
 -1      3047 8.91098E-03-3.36472E-04-3.50862E-14
 -1      3048 9.22011E-03-2.94172E-04-3.74615E-14
 -1      3049 9.35839E-03-2.49435E-04-3.83838E-14
 -1      3050 9.19862E-03-2.83921E-04-3.69102E-14
 -1      3051 9.49573E-03-1.95314E-04-3.93096E-14
 -1      3052 9.63297E-03-1.31363E-04-4.02383E-14
 -1      3053 9.48097E-03-1.96780E-04-3.87487E-14
 -1      3054 9.77011E-03-5.75235E-05-4.11692E-14
 -1      3055 9.90802E-03 2.59140E-05-4.21045E-14
 -1      3056 9.76090E-03-6.91299E-05-4.05967E-14
 -1      3057 1.00467E-02 1.18509E-04-4.30416E-14
 -1      3058 1.01867E-02 2.19343E-04-4.39816E-14
 -1      3059 1.00424E-02 9.96747E-05-4.24599E-14
 -1      3060 1.03280E-02 3.27638E-04-4.49244E-14
 -1      3061 1.04707E-02 4.42172E-04-4.58641E-14
 -1      3062 1.03287E-02 3.04721E-04-4.43355E-14
 -1      3063 1.06148E-02 5.62064E-04-4.68033E-14
 -1      3064 1.07600E-02 6.86142E-04-4.77424E-14
 -1      3065 1.06211E-02 5.37470E-04-4.62149E-14
 -1      3066 1.09061E-02 8.13611E-04-4.86789E-14
 -1      3067 1.10529E-02 9.43568E-04-4.96139E-14
 -1      3068 1.09185E-02 7.88639E-04-4.80879E-14
 -1      3069 1.12002E-02 1.07539E-03-5.05460E-14
 -1      3070 1.13476E-02 1.20850E-03-5.14771E-14
 -1      3071 1.12186E-02 1.05043E-03-4.99544E-14
 -1      3072 1.14951E-02 1.34247E-03-5.24045E-14
 -1      3073 1.16424E-02 1.47696E-03-5.33286E-14
 -1      3074 1.15192E-02 1.31739E-03-5.18121E-14
 -1      3075 1.17895E-02 1.61171E-03-5.42504E-14
 -1      3076 1.19362E-02 1.74658E-03-5.51672E-14
 -1      3077 1.18185E-02 1.58626E-03-5.36598E-14
 -1      3078 1.20826E-02 1.88140E-03-5.60801E-14
 -1      3079 1.22285E-02 2.01613E-03-5.69887E-14
 -1      3080 1.21155E-02 1.85539E-03-5.54908E-14
 -1      3081 1.23740E-02 2.15068E-03-5.78947E-14
 -1      3082 1.25191E-02 2.28505E-03-5.87955E-14
 -1      3083 1.24099E-02 2.12403E-03-5.73062E-14
 -1      3084 1.26638E-02 2.41919E-03-5.96918E-14
 -1      3085 1.28082E-02 2.55313E-03-6.05781E-14
 -1      3086 1.27020E-02 2.39195E-03-5.91052E-14
 -1      3087 1.29524E-02 2.68684E-03-6.14649E-14
 -1      3088 1.30962E-02 2.82034E-03-6.23444E-14
 -1      3089 1.29921E-02 2.65913E-03-6.08808E-14
 -1      3090 1.33049E-02 2.99169E-03-6.33332E-14
 -1      3091 2.99068E-03 4.22425E-04-4.63811E-15
 -1      3092 2.84063E-03 4.20521E-04-4.20211E-15
 -1      3093 2.76410E-03 3.82104E-04-4.05318E-15
 -1      3094 1.57165E-02 3.79753E-03-6.06005E-14
 -1      3095 1.56631E-02 3.73306E-03-6.00944E-14
 -1      3096 1.55837E-02 3.75514E-03-6.07555E-14
 -1      3097 2.40452E-03 4.10561E-04-3.05386E-15
 -1      3098 2.26143E-03 4.05397E-04-2.71643E-15
 -1      3099 2.18276E-03 3.65809E-04-2.59849E-15
 -1      3100 3.27642E-03 4.24629E-04-5.52726E-15
 -1      3101 3.13356E-03 4.23738E-04-5.07337E-15
 -1      3102 3.05801E-03 3.85713E-04-4.90877E-15
 -1      3103 3.56210E-03 4.25506E-04-6.48792E-15
 -1      3104 3.41927E-03 4.25202E-04-5.99839E-15
 -1      3105 3.34455E-03 3.87456E-04-5.81870E-15
 -1      3106 3.84774E-03 4.25568E-04-7.51952E-15
 -1      3107 3.70493E-03 4.25617E-04-6.99541E-15
 -1      3108 3.63092E-03 3.88066E-04-6.80101E-15
 -1      3109 4.13336E-03 4.25176E-04-8.61878E-15
 -1      3110 3.99056E-03 4.25413E-04-8.06098E-15
 -1      3111 3.91715E-03 3.87996E-04-7.85202E-15
 -1      3112 4.43325E-03 4.24549E-04-9.84289E-15
 -1      3113 4.28331E-03 4.24878E-04-9.22202E-15
 -1      3114 4.21040E-03 3.87556E-04-8.99863E-15
 -1      3115 4.71881E-03 4.23912E-04-1.10707E-14
 -1      3116 4.57604E-03 4.24228E-04-1.04495E-14
 -1      3117 4.50353E-03 3.86979E-04-1.02114E-14
 -1      3118 5.00429E-03 4.23327E-04-1.23548E-14
 -1      3119 4.86157E-03 4.23609E-04-1.17067E-14
 -1      3120 4.78937E-03 3.86435E-04-1.14554E-14
 -1      3121 5.28959E-03 4.22828E-04-1.36915E-14
 -1      3122 5.14697E-03 4.23066E-04-1.30169E-14
 -1      3123 5.07502E-03 3.86002E-04-1.27545E-14
 -1      3124 5.57453E-03 4.22412E-04-1.50742E-14
 -1      3125 5.43211E-03 4.22612E-04-1.43773E-14
 -1      3126 5.36036E-03 3.85737E-04-1.41045E-14
 -1      3127 5.85879E-03 4.22055E-04-1.64993E-14
 -1      3128 5.71676E-03 4.22230E-04-1.57815E-14
 -1      3129 5.64516E-03 3.85687E-04-1.55001E-14
 -1      3130 6.15591E-03 4.21743E-04-1.80378E-14
 -1      3131 6.00756E-03 4.21899E-04-1.72630E-14
 -1      3132 5.93609E-03 3.85932E-04-1.69752E-14
 -1      3133 6.43653E-03 4.21628E-04-1.95381E-14
 -1      3134 6.29657E-03 4.21673E-04-1.87838E-14
 -1      3135 6.22523E-03 3.86656E-04-1.84901E-14
 -1      3136 6.71307E-03 4.22102E-04-2.10691E-14
 -1      3137 6.57542E-03 4.21801E-04-2.02999E-14
 -1      3138 6.50431E-03 3.88229E-04-2.00036E-14
 -1      3139 6.98256E-03 4.24206E-04-2.26289E-14
 -1      3140 6.84890E-03 4.22960E-04-2.18454E-14
 -1      3141 6.77833E-03 3.91517E-04-2.15473E-14
 -1      3142 7.24008E-03 4.30210E-04-2.42192E-14
 -1      3143 7.11316E-03 4.26734E-04-2.34218E-14
 -1      3144 7.04391E-03 3.98238E-04-2.31210E-14
 -1      3145 7.48903E-03 4.45496E-04-2.59133E-14
 -1      3146 7.36797E-03 4.36728E-04-2.50627E-14
 -1      3147 7.30187E-03 4.12010E-04-2.47621E-14
 -1      3148 7.69355E-03 4.76479E-04-2.75469E-14
 -1      3149 7.59628E-03 4.59298E-04-2.67278E-14
 -1      3150 7.53717E-03 4.38627E-04-2.64262E-14
 -1      3151 1.37768E-02 1.61482E-03-4.38204E-14
 -1      3152 1.53231E-02 3.67315E-03-6.10589E-14
 -1      3153 1.54536E-02 3.71420E-03-6.09072E-14
 -1      3154 1.54005E-02 3.65019E-03-6.03995E-14
 -1      3155 1.55216E-02 3.60088E-03-5.92171E-14
 -1      3156 1.50609E-02 3.59040E-03-6.13630E-14
 -1      3157 1.51922E-02 3.63193E-03-6.12134E-14
 -1      3158 1.51391E-02 3.56841E-03-6.07043E-14
 -1      3159 1.54506E-03 3.56263E-04-1.32339E-15
 -1      3160 1.40169E-03 3.40024E-04-1.10492E-15
 -1      3161 1.60809E-03 3.28790E-04-1.47367E-15
 -1      3162 1.40095E-02 3.21829E-03-6.22760E-14
 -1      3163 1.41376E-02 3.26173E-03-6.21229E-14
 -1      3164 1.42684E-02 3.30572E-03-6.19655E-14
 -1      3165 1.43996E-02 3.34943E-03-6.18088E-14
 -1      3166 1.40789E-02 3.17107E-03-6.12836E-14
 -1      3167 1.34941E-02 3.04166E-03-6.29085E-14
 -1      3168 1.36226E-02 3.08578E-03-6.27484E-14
 -1      3169 1.42661E-02 2.36662E-03-5.06827E-14
 -1      3170 1.41514E-02 2.24283E-03-4.97721E-14
 -1      3171 1.47770E-02 2.88160E-03-5.43026E-14
 -1      3172 1.46436E-02 2.75069E-03-5.34014E-14
 -1      3173 9.29653E-04-2.35406E-04-6.34136E-16
 -1      3174 1.04212E-03-2.57367E-04-7.68970E-16
 -1      3175 9.31797E-03 5.85626E-05-3.45810E-14
 -1      3176 9.16348E-03 1.22881E-04-3.39054E-14
 -1      3177 1.40407E-02 2.11068E-03-4.87317E-14
 -1      3178 1.39503E-02 1.98712E-03-4.77264E-14
 -1      3179 1.45135E-02 2.62110E-03-5.24985E-14
 -1      3180 1.43872E-02 2.49245E-03-5.15909E-14
 -1      3181 1.42183E-02 2.40854E-03-5.12794E-14
 -1      3182 1.12916E-03 3.01716E-04-7.43858E-16
 -1      3183 7.91884E-03 5.95527E-04-3.03464E-14
 -1      3184 7.90690E-03 5.59101E-04-2.97185E-14
 -1      3185 1.37509E-02 3.12987E-03-6.25900E-14
 -1      3186 1.38802E-02 3.17418E-03-6.24318E-14
 -1      3187 1.38186E-02 3.08223E-03-6.15983E-14
 -1      3188 1.35611E-02 2.99328E-03-6.19133E-14
 -1      3189 8.54716E-03 4.11028E-04-3.18118E-14
 -1      3190 8.38137E-03 4.67357E-04-3.13299E-14
 -1      3191 8.20758E-03 5.10317E-04-3.07816E-14
 -1      3192 8.09204E-03 5.37848E-04-3.04673E-14
 -1      3193 7.82640E-03 5.19903E-04-2.87928E-14
 -1      3194 1.50500E-02 3.14472E-03-5.60965E-14
 -1      3195 1.49125E-02 3.01288E-03-5.52009E-14
 -1      3196 1.47332E-02 2.91654E-03-5.48947E-14
 -1      3197 1.38794E-02 1.83954E-03-4.63787E-14
 -1      3198 7.99620E-03 5.64164E-04-3.02691E-14
 -1      3199 7.92385E-03 5.71819E-04-3.00698E-14
 -1      3200 7.99187E-03 5.21607E-04-2.98719E-14
 -1      3201 1.12228E-02 6.82193E-04-4.27222E-14
 -1      3202 1.10000E-02 5.13992E-04-4.20120E-14
 -1      3203 1.17145E-03-2.78140E-04-9.41182E-16
 -1      3204 1.31437E-03-2.97617E-04-1.15083E-15
 -1      3205 1.37840E-03-2.73794E-04-1.27575E-15
 -1      3206 1.11927E-03-2.40522E-04-8.89805E-16
 -1      3207 1.53288E-02 3.40884E-03-5.78738E-14
 -1      3208 1.51888E-02 3.27668E-03-5.69881E-14
 -1      3209 1.50067E-02 3.17742E-03-5.66799E-14
 -1      3210 7.90456E-03 5.81917E-04-3.01038E-14
 -1      3211 9.76045E-03-3.57630E-05-3.67156E-14
 -1      3212 9.55512E-03-4.65448E-06-3.56866E-14
 -1      3213 1.04156E-02 1.18281E-04-3.97391E-14
 -1      3214 1.02989E-02 6.20467E-05-3.92249E-14
 -1      3215 1.01861E-02 3.32627E-05-3.89898E-14
 -1      3216 1.23497E-02 1.40609E-03-4.54148E-14
 -1      3217 1.21684E-02 1.31048E-03-4.51088E-14
 -1      3218 1.01640E-03 6.81491E-05-7.74202E-16
 -1      3219 1.01522E-03 4.11880E-05-7.82293E-16
 -1      3220 1.07804E-02 3.53213E-04-4.12345E-14
 -1      3221 1.06045E-02 2.29344E-04-4.05359E-14
 -1      3222 1.38150E-02 1.88695E-03-4.69442E-14
 -1      3223 1.24790E-03 3.02623E-04-9.13413E-16
 -1      3224 7.77792E-03 5.03906E-04-2.84942E-14
 -1      3225 1.01794E-03-9.29197E-05-8.00656E-16
 -1      3226 1.02034E-03-1.20614E-04-7.99965E-16
 -1      3227 2.46995E-03 3.75759E-04-3.27799E-15
 -1      3228 8.31229E-04-1.92077E-04-5.39309E-16
 -1      3229 9.00527E-03 1.52370E-04-3.32556E-14
 -1      3230 8.23710E-03 4.58701E-04-3.06095E-14
 -1      3231 1.53373E-02 3.49962E-03-5.89146E-14
 -1      3232 1.34994E-02 1.81112E-03-4.65854E-14
 -1      3233 1.33429E-02 1.74724E-03-4.61087E-14
 -1      3234 1.20056E-02 1.23531E-03-4.51279E-14
 -1      3235 8.61904E-03 3.37247E-04-3.18757E-14
 -1      3236 1.33456E-02 2.96373E-03-6.27556E-14
 -1      3237 1.31896E-02 1.75681E-03-4.66596E-14
 -1      3238 1.31593E-02 1.69924E-03-4.59783E-14
 -1      3239 1.29587E-02 1.64160E-03-4.58455E-14
 -1      3240 9.49424E-04-1.98008E-04-6.81191E-16
 -1      3241 1.14314E-03-1.45795E-04-9.65211E-16
 -1      3242 1.02355E-03-1.49002E-04-7.97322E-16
 -1      3243 1.02763E-03-1.78211E-04-7.92877E-16
 -1      3244 1.31149E-03 2.80079E-04-1.03638E-15
 -1      3245 1.49294E-02 3.54855E-03-6.15183E-14
 -1      3246 1.48761E-02 3.48541E-03-6.10115E-14
 -1      3247 1.47978E-02 3.50629E-03-6.16739E-14
 -1      3248 1.32847E-02 2.87071E-03-6.19181E-14
 -1      3249 1.39869E-02 2.15711E-03-4.93320E-14
 -1      3250 1.15749E-02 9.69172E-04-4.42614E-14
 -1      3251 1.13994E-02 8.28679E-04-4.34906E-14
 -1      3252 1.12504E-02 7.44138E-04-4.34283E-14
 -1      3253 1.44685E-02 2.65913E-03-5.30930E-14
 -1      3254 9.38574E-03-4.86925E-07-3.50129E-14
 -1      3255 1.08646E-02 4.41325E-04-4.18795E-14
 -1      3256 9.91312E-03-3.77518E-05-3.78762E-14
 -1      3257 9.84257E-03-4.42229E-05-3.72952E-14
 -1      3258 9.68296E-03-6.08202E-05-3.66974E-14
 -1      3259 1.45329E-02 3.40668E-03-6.18193E-14
 -1      3260 1.46645E-02 3.44968E-03-6.16625E-14
 -1      3261 1.46108E-02 3.38678E-03-6.11559E-14
 -1      3262 1.43436E-02 3.27276E-03-6.11352E-14
 -1      3263 1.02824E-03 1.81051E-04-7.25372E-16
 -1      3264 1.02404E-03 1.51731E-04-7.40673E-16
 -1      3265 1.15300E-03 2.11707E-04-8.70045E-16
 -1      3266 7.88888E-03 5.54739E-04-2.97133E-14
 -1      3267 1.02071E-03 1.23203E-04-7.53724E-16
 -1      3268 1.01822E-03 9.54492E-05-7.64932E-16
 -1      3269 1.13796E-03 8.85529E-05-9.31018E-16
 -1      3270 1.14361E-03 1.48667E-04-9.05146E-16
 -1      3271 1.04754E-02 1.74900E-04-4.03013E-14
 -1      3272 1.01462E-03 1.44341E-05-7.88811E-16
 -1      3273 1.01458E-03-1.22205E-05-7.94070E-16
 -1      3274 1.13528E-03 3.01389E-05-9.49598E-16
 -1      3275 7.77659E-03 4.93945E-04-2.84550E-14
 -1      3276 1.27639E-02 1.57365E-03-4.56980E-14
 -1      3277 1.25480E-02 1.49190E-03-4.55632E-14
 -1      3278 1.24408E-02 1.48135E-03-4.60831E-14
 -1      3279 1.28171E-02 1.63487E-03-4.63807E-14
 -1      3280 2.53630E-03 3.40488E-04-3.50486E-15
 -1      3281 2.39233E-03 3.36771E-04-3.14394E-15
 -1      3282 1.20735E-02 1.30903E-03-4.58806E-14
 -1      3283 1.18254E-02 1.14459E-03-4.50716E-14
 -1      3284 1.16612E-02 1.05510E-03-4.50125E-14
 -1      3285 1.86170E-03-2.79860E-04-2.19700E-15
 -1      3286 2.00590E-03-2.87201E-04-2.50966E-15
 -1      3287 2.15018E-03-2.93275E-04-2.84293E-15
 -1      3288 2.29450E-03-2.98204E-04-3.19616E-15
 -1      3289 2.07271E-03-2.54512E-04-2.68070E-15
 -1      3290 2.43882E-03-3.02186E-04-3.56937E-15
 -1      3291 2.58310E-03-3.05321E-04-3.96261E-15
 -1      3292 2.36186E-03-2.63532E-04-3.38613E-15
 -1      3293 2.72733E-03-3.07774E-04-4.37435E-15
 -1      3294 2.87149E-03-3.09622E-04-4.80556E-15
 -1      3295 2.65103E-03-2.69299E-04-4.16971E-15
 -1      3296 3.01557E-03-3.10997E-04-5.25568E-15
 -1      3297 3.15957E-03-3.11957E-04-5.72410E-15
 -1      3298 2.93999E-03-2.72717E-04-5.03007E-15
 -1      3299 3.30348E-03-3.12603E-04-6.21050E-15
 -1      3300 3.44731E-03-3.12978E-04-6.71371E-15
 -1      3301 3.22860E-03-2.74505E-04-5.96445E-15
 -1      3302 3.59106E-03-3.13160E-04-7.23441E-15
 -1      3303 3.73472E-03-3.13178E-04-7.77285E-15
 -1      3304 3.51682E-03-2.75215E-04-6.96933E-15
 -1      3305 3.87832E-03-3.13090E-04-8.32707E-15
 -1      3306 4.02184E-03-3.12916E-04-8.89825E-15
 -1      3307 3.80466E-03-2.75259E-04-8.04169E-15
 -1      3308 4.16531E-03-3.12699E-04-9.48620E-15
 -1      3309 4.30873E-03-3.12454E-04-1.00891E-14
 -1      3310 4.09216E-03-2.74939E-04-9.18020E-15
 -1      3311 4.45212E-03-3.12211E-04-1.07081E-14
 -1      3312 4.59547E-03-3.11978E-04-1.13414E-14
 -1      3313 4.37938E-03-2.74469E-04-1.03831E-14
 -1      3314 4.73882E-03-3.11779E-04-1.19896E-14
 -1      3315 4.88216E-03-3.11621E-04-1.26521E-14
 -1      3316 4.66644E-03-2.73995E-04-1.16461E-14
 -1      3317 5.02553E-03-3.11516E-04-1.33269E-14
 -1      3318 5.16893E-03-3.11473E-04-1.40161E-14
 -1      3319 4.95345E-03-2.73614E-04-1.29661E-14
 -1      3320 5.31241E-03-3.11499E-04-1.47198E-14
 -1      3321 5.45597E-03-3.11603E-04-1.54358E-14
 -1      3322 5.24059E-03-2.73385E-04-1.43419E-14
 -1      3323 5.59967E-03-3.11786E-04-1.61644E-14
 -1      3324 5.74353E-03-3.12062E-04-1.69065E-14
 -1      3325 5.52808E-03-2.73338E-04-1.57710E-14
 -1      3326 5.88761E-03-3.12427E-04-1.76599E-14
 -1      3327 6.03195E-03-3.12901E-04-1.84264E-14
 -1      3328 5.81625E-03-2.73490E-04-1.72513E-14
 -1      3329 6.17662E-03-3.13473E-04-1.92047E-14
 -1      3330 6.32167E-03-3.14177E-04-1.99926E-14
 -1      3331 6.10552E-03-2.73853E-04-1.87799E-14
 -1      3332 6.46719E-03-3.14992E-04-2.07912E-14
 -1      3333 6.61323E-03-3.15968E-04-2.16001E-14
 -1      3334 6.39645E-03-2.74461E-04-2.03536E-14
 -1      3335 6.75993E-03-3.17072E-04-2.24179E-14
 -1      3336 6.90728E-03-3.18373E-04-2.32427E-14
 -1      3337 6.68974E-03-2.75387E-04-2.19664E-14
 -1      3338 7.05545E-03-3.19819E-04-2.40756E-14
 -1      3339 7.20440E-03-3.21486E-04-2.49158E-14
 -1      3340 6.98620E-03-2.76781E-04-2.36127E-14
 -1      3341 7.35428E-03-3.23296E-04-2.57623E-14
 -1      3342 7.50499E-03-3.25293E-04-2.66164E-14
 -1      3343 7.28663E-03-2.78867E-04-2.52864E-14
 -1      3344 7.65663E-03-3.27345E-04-2.74763E-14
 -1      3345 7.80896E-03-3.29397E-04-2.83422E-14
 -1      3346 7.59160E-03-2.81851E-04-2.69874E-14
 -1      3347 7.96202E-03-3.31218E-04-2.92122E-14
 -1      3348 8.11541E-03-3.32535E-04-3.00885E-14
 -1      3349 7.90106E-03-2.85628E-04-2.87125E-14
 -1      3350 8.26905E-03-3.32971E-04-3.09716E-14
 -1      3351 8.42240E-03-3.31824E-04-3.18596E-14
 -1      3352 8.21395E-03-2.89194E-04-3.04597E-14
 -1      3353 8.57526E-03-3.28490E-04-3.27501E-14
 -1      3354 8.72710E-03-3.21805E-04-3.36470E-14
 -1      3355 8.52787E-03-2.89563E-04-3.22279E-14
 -1      3356 8.87763E-03-3.10879E-04-3.45490E-14
 -1      3357 9.02659E-03-2.94086E-04-3.54538E-14
 -1      3358 8.83928E-03-2.80603E-04-3.40147E-14
 -1      3359 9.17370E-03-2.70399E-04-3.63621E-14
 -1      3360 9.31929E-03-2.38076E-04-3.72739E-14
 -1      3361 9.14462E-03-2.52434E-04-3.58185E-14
 -1      3362 9.46323E-03-1.96230E-04-3.81907E-14
 -1      3363 9.60641E-03-1.43701E-04-3.91095E-14
 -1      3364 9.44228E-03-1.92477E-04-3.76357E-14
 -1      3365 9.74884E-03-8.00744E-05-4.00308E-14
 -1      3366 9.89175E-03-5.20055E-06-4.09554E-14
 -1      3367 9.73428E-03-8.95541E-05-3.94670E-14
 -1      3368 1.00352E-02 8.06410E-05-4.18849E-14
 -1      3369 1.01801E-02 1.76467E-04-4.28161E-14
 -1      3370 1.00256E-02 6.15763E-05-4.13118E-14
 -1      3371 1.03264E-02 2.81470E-04-4.37507E-14
 -1      3372 1.04747E-02 3.93970E-04-4.46894E-14
 -1      3373 1.03217E-02 2.57510E-04-4.31708E-14
 -1      3374 1.06245E-02 5.12947E-04-4.56260E-14
 -1      3375 1.07758E-02 6.36707E-04-4.65607E-14
 -1      3376 1.06254E-02 4.87928E-04-4.50396E-14
 -1      3377 1.09282E-02 7.64327E-04-4.74977E-14
 -1      3378 1.10814E-02 8.94516E-04-4.84327E-14
 -1      3379 1.09357E-02 7.40181E-04-4.69087E-14
 -1      3380 1.12350E-02 1.02660E-03-4.93627E-14
 -1      3381 1.13884E-02 1.15980E-03-5.02926E-14
 -1      3382 1.12494E-02 1.00361E-03-4.87720E-14
 -1      3383 1.15417E-02 1.29370E-03-5.12216E-14
 -1      3384 1.16943E-02 1.42792E-03-5.21478E-14
 -1      3385 1.15627E-02 1.27127E-03-5.06303E-14
 -1      3386 1.18462E-02 1.56222E-03-5.30700E-14
 -1      3387 1.19973E-02 1.69652E-03-5.39883E-14
 -1      3388 1.18729E-02 1.53960E-03-5.24810E-14
 -1      3389 1.21475E-02 1.83065E-03-5.49033E-14
 -1      3390 1.22967E-02 1.96466E-03-5.58129E-14
 -1      3391 1.21788E-02 1.80726E-03-5.43145E-14
 -1      3392 1.24452E-02 2.09846E-03-5.67188E-14
 -1      3393 1.25927E-02 2.23211E-03-5.76220E-14
 -1      3394 1.24800E-02 2.07404E-03-5.61323E-14
 -1      3395 1.27396E-02 2.36556E-03-5.85190E-14
 -1      3396 1.28858E-02 2.49888E-03-5.94100E-14
 -1      3397 1.27770E-02 2.34009E-03-5.79333E-14
 -1      3398 1.30131E-02 2.61835E-03-6.02271E-14
 -1      3399 1.31583E-02 2.75143E-03-6.11097E-14
 -1      3400 1.33067E-02 2.82997E-03-6.12659E-14
 -1      3401 1.30522E-02 2.59197E-03-5.96434E-14
 -1      3402 3.41316E-03 3.50045E-04-6.11296E-15
 -1      3403 3.26959E-03 3.49527E-04-5.63861E-15
 -1      3404 3.70012E-03 3.50442E-04-7.11598E-15
 -1      3405 3.55668E-03 3.50339E-04-6.60575E-15
 -1      3406 3.48224E-03 3.12450E-04-6.41010E-15
 -1      3407 3.98684E-03 3.50286E-04-8.18663E-15
 -1      3408 3.84351E-03 3.50416E-04-7.64299E-15
 -1      3409 3.76970E-03 3.12679E-04-7.43320E-15
 -1      3410 4.28767E-03 3.49839E-04-9.38035E-15
 -1      3411 4.13729E-03 3.50086E-04-8.77457E-15
 -1      3412 4.06401E-03 3.12468E-04-8.54982E-15
 -1      3413 4.57397E-03 3.49350E-04-1.05817E-14
 -1      3414 4.43085E-03 3.49594E-04-9.97367E-15
 -1      3415 4.35803E-03 3.12070E-04-9.73490E-15
 -1      3416 4.86005E-03 3.48941E-04-1.18405E-14
 -1      3417 4.71704E-03 3.49130E-04-1.12036E-14
 -1      3418 4.64459E-03 3.11688E-04-1.09526E-14
 -1      3419 5.14584E-03 3.48716E-04-1.31542E-14
 -1      3420 5.00298E-03 3.48801E-04-1.24912E-14
 -1      3421 4.93086E-03 3.11453E-04-1.22270E-14
 -1      3422 5.43120E-03 3.48765E-04-1.45180E-14
 -1      3423 5.28858E-03 3.48702E-04-1.38298E-14
 -1      3424 5.21677E-03 3.11486E-04-1.35557E-14
 -1      3425 5.71586E-03 3.49202E-04-1.59280E-14
 -1      3426 5.57364E-03 3.48930E-04-1.52183E-14
 -1      3427 5.50214E-03 3.11925E-04-1.49343E-14
 -1      3428 6.01346E-03 3.50286E-04-1.74537E-14
 -1      3429 5.86486E-03 3.49656E-04-1.66850E-14
 -1      3430 5.79379E-03 3.13002E-04-1.63942E-14
 -1      3431 6.29478E-03 3.52292E-04-1.89456E-14
 -1      3432 6.15444E-03 3.51158E-04-1.81948E-14
 -1      3433 6.08398E-03 3.15063E-04-1.78984E-14
 -1      3434 6.57263E-03 3.55956E-04-2.04725E-14
 -1      3435 6.43425E-03 3.53894E-04-1.97051E-14
 -1      3436 6.36479E-03 3.18616E-04-1.94045E-14
 -1      3437 6.84482E-03 3.62578E-04-2.20285E-14
 -1      3438 6.70962E-03 3.58859E-04-2.12466E-14
 -1      3439 6.64190E-03 3.24711E-04-2.09430E-14
 -1      3440 7.10796E-03 3.74469E-04-2.36152E-14
 -1      3441 6.97782E-03 3.67805E-04-2.28180E-14
 -1      3442 6.91323E-03 3.35068E-04-2.25132E-14
 -1      3443 7.36921E-03 3.96775E-04-2.53072E-14
 -1      3444 7.24105E-03 3.84277E-04-2.44587E-14
 -1      3445 7.18227E-03 3.53020E-04-2.41499E-14
 -1      3446 7.59697E-03 4.33453E-04-2.69412E-14
 -1      3447 7.48644E-03 4.13184E-04-2.61213E-14
 -1      3448 7.43807E-03 3.82851E-04-2.58146E-14
 -1      3449 1.37491E-02 1.91705E-03-4.73347E-14
 -1      3450 1.45617E-03 2.77317E-04-1.27331E-15
 -1      3451 1.30388E-03 2.44684E-04-1.06248E-15
 -1      3452 1.29767E-03 2.10208E-04-1.08572E-15
 -1      3453 1.38878E-02 3.03589E-03-6.05999E-14
 -1      3454 1.40191E-02 3.08056E-03-6.04416E-14
 -1      3455 1.01511E-03-3.89044E-05-7.97715E-16
 -1      3456 1.01621E-03-6.57229E-05-7.99829E-16
 -1      3457 1.13770E-03-8.59148E-05-9.67068E-16
 -1      3458 2.24832E-03 3.32088E-04-2.80212E-15
 -1      3459 2.10428E-03 3.26327E-04-2.47962E-15
 -1      3460 2.31481E-03 2.97843E-04-3.00972E-15
 -1      3461 1.59966E-03 2.90262E-04-1.50787E-15
 -1      3462 1.05243E-02 2.37717E-04-4.09645E-14
 -1      3463 1.03523E-02 1.31886E-04-4.01635E-14
 -1      3464 1.39214E-02 2.19950E-03-4.99406E-14
 -1      3465 1.38107E-02 2.07567E-03-4.89012E-14
 -1      3466 9.41306E-03-5.34394E-05-3.53783E-14
 -1      3467 9.20143E-03-7.61819E-06-3.42749E-14
 -1      3468 1.49621E-02 3.20935E-03-5.72633E-14
 -1      3469 1.48240E-02 3.07937E-03-5.63739E-14
 -1      3470 8.64469E-03 2.62841E-04-3.18014E-14
 -1      3471 8.44611E-03 3.38142E-04-3.10832E-14
 -1      3472 8.25516E-03 3.98731E-04-3.04007E-14
 -1      3473 8.10380E-03 4.37182E-04-2.98593E-14
 -1      3474 1.41647E-02 2.44737E-03-5.18761E-14
 -1      3475 1.40435E-02 2.32731E-03-5.09661E-14
 -1      3476 1.09131E-02 5.12152E-04-4.25290E-14
 -1      3477 1.07139E-02 3.64899E-04-4.17467E-14
 -1      3478 1.05789E-02 3.00704E-04-4.16107E-14
 -1      3479 8.95447E-03 9.28402E-05-3.30520E-14
 -1      3480 8.80380E-03 1.81536E-04-3.24016E-14
 -1      3481 1.57391E-03-2.60547E-04-1.63244E-15
 -1      3482 1.71769E-03-2.71018E-04-1.90465E-15
 -1      3483 1.78405E-03-2.41156E-04-2.05562E-15
 -1      3484 1.52764E-02 3.52456E-03-5.95036E-14
 -1      3485 1.50844E-02 3.33441E-03-5.81633E-14
 -1      3486 1.48997E-02 3.23498E-03-5.78558E-14
 -1      3487 1.51459E-02 3.48429E-03-5.96551E-14
 -1      3488 1.96027E-03 3.19255E-04-2.17666E-15
 -1      3489 1.81628E-03 3.10760E-04-1.89277E-15
 -1      3490 2.02614E-03 2.87103E-04-2.36016E-15
 -1      3491 3.12594E-03 3.48700E-04-5.18216E-15
 -1      3492 2.98224E-03 3.47517E-04-4.74315E-15
 -1      3493 3.19446E-03 3.11445E-04-5.45755E-15
 -1      3494 7.94446E-03 4.71501E-04-2.92528E-14
 -1      3495 7.87376E-03 4.95194E-04-2.90613E-14
 -1      3496 7.71365E-03 4.58062E-04-2.78450E-14
 -1      3497 7.95374E-03 4.24966E-04-2.90470E-14
 -1      3498 2.83486E-03 3.45817E-04-4.31414E-15
 -1      3499 2.68382E-03 3.43490E-04-3.89489E-15
 -1      3500 2.60708E-03 3.04876E-04-3.74478E-15
 -1      3501 2.90273E-03 3.09158E-04-4.56778E-15
 -1      3502 1.44201E-02 2.69522E-03-5.36835E-14
 -1      3503 1.42907E-02 2.56993E-03-5.27820E-14
 -1      3504 1.41088E-02 2.48266E-03-5.24694E-14
 -1      3505 1.48832E-02 3.40286E-03-5.99616E-14
 -1      3506 1.50149E-02 3.44379E-03-5.98093E-14
 -1      3507 1.48911E-02 3.31953E-03-5.89093E-14
 -1      3508 1.01861E-02 4.56567E-05-3.92743E-14
 -1      3509 1.00789E-02 5.79992E-06-3.87597E-14
 -1      3510 9.91842E-03-3.62562E-05-3.81580E-14
 -1      3511 1.02394E-02 9.01810E-05-3.99320E-14
 -1      3512 1.46873E-02 2.95027E-03-5.54817E-14
 -1      3513 1.45525E-02 2.82198E-03-5.45854E-14
 -1      3514 1.43700E-02 2.72895E-03-5.42748E-14
 -1      3515 1.46403E-02 2.98242E-03-5.60660E-14
 -1      3516 1.05226E-03-1.97268E-04-8.18369E-16
 -1      3517 1.09356E-03-2.19957E-04-8.64475E-16
 -1      3518 1.22252E-03-2.36959E-04-1.04636E-15
 -1      3519 1.17182E-03-1.96210E-04-9.89714E-16
 -1      3520 1.37247E-02 1.99580E-03-4.82201E-14
 -1      3521 1.35786E-02 1.88300E-03-4.72637E-14
 -1      3522 1.34553E-02 1.87845E-03-4.74691E-14
 -1      3523 1.36383E-02 2.03219E-03-4.88300E-14
 -1      3524 1.66511E-03 2.62002E-04-1.66111E-15
 -1      3525 1.32913E-02 1.83175E-03-4.73405E-14
 -1      3526 1.31143E-02 1.77873E-03-4.72083E-14
 -1      3527 1.33904E-02 1.90803E-03-4.80190E-14
 -1      3528 7.68590E-03 4.24373E-04-2.75368E-14
 -1      3529 1.26359E-03-1.39610E-04-1.14892E-15
 -1      3530 1.26743E-03-1.72104E-04-1.14547E-15
 -1      3531 1.13519E-03-2.76773E-05-9.61660E-16
 -1      3532 1.36285E-02 2.94627E-03-6.09162E-14
 -1      3533 1.37578E-02 2.99114E-03-6.07573E-14
 -1      3534 1.36969E-02 2.90064E-03-5.99161E-14
 -1      3535 1.39623E-02 2.99204E-03-5.96027E-14
 -1      3536 1.41538E-02 3.12625E-03-6.02865E-14
 -1      3537 1.25849E-03-7.62754E-05-1.14843E-15
 -1      3538 1.26061E-03-1.07701E-04-1.14963E-15
 -1      3539 1.38481E-03-1.30829E-04-1.34723E-15
 -1      3540 1.38547E-02 2.23604E-03-5.05366E-14
 -1      3541 8.62002E-03 1.92718E-04-3.16004E-14
 -1      3542 9.05151E-03-5.08772E-05-3.37691E-14
 -1      3543 9.01405E-03 1.58823E-05-3.34115E-14
 -1      3544 8.82572E-03 3.75979E-05-3.25526E-14
 -1      3545 1.34344E-02 2.87471E-03-6.11067E-14
 -1      3546 1.44692E-03-2.24479E-04-1.42234E-15
 -1      3547 1.51366E-03-1.98025E-04-1.55254E-15
 -1      3548 1.10735E-02 6.42629E-04-4.32973E-14
 -1      3549 1.09174E-02 5.52436E-04-4.31657E-14
 -1      3550 1.12358E-02 7.74695E-04-4.40703E-14
 -1      3551 8.28778E-03 3.30954E-04-3.03268E-14
 -1      3552 1.46189E-02 3.31946E-03-6.02690E-14
 -1      3553 1.47511E-02 3.36144E-03-6.01138E-14
 -1      3554 1.46265E-02 3.23804E-03-5.92161E-14
 -1      3555 1.42878E-02 3.18373E-03-6.02956E-14
 -1      3556 9.57167E-03-9.29876E-05-3.65276E-14
 -1      3557 9.49746E-03-7.85282E-05-3.59520E-14
 -1      3558 9.31408E-03-9.54247E-05-3.52066E-14
 -1      3559 1.31714E-03-2.12337E-04-1.20914E-15
 -1      3560 1.25724E-03 4.78127E-05-1.12434E-15
 -1      3561 1.25649E-03 1.67689E-05-1.13317E-15
 -1      3562 1.22804E-02 1.44815E-03-4.67090E-14
 -1      3563 1.21102E-02 1.36550E-03-4.66551E-14
 -1      3564 1.26298E-02 1.60916E-03-4.70073E-14
 -1      3565 1.24533E-02 1.53044E-03-4.68598E-14
 -1      3566 1.24743E-02 1.58046E-03-4.76345E-14
 -1      3567 1.26095E-03 1.10545E-04-1.10117E-15
 -1      3568 1.25872E-03 7.90083E-05-1.11376E-15
 -1      3569 1.38039E-03 6.71138E-05-1.31244E-15
 -1      3570 1.17078E-02 1.11973E-03-4.57994E-14
 -1      3571 1.14756E-02 9.53959E-04-4.49849E-14
 -1      3572 1.47681E-02 3.19581E-03-5.80089E-14
 -1      3573 1.46460E-02 3.07264E-03-5.71105E-14
 -1      3574 1.46357E-02 3.15594E-03-5.81638E-14
 -1      3575 1.37870E-02 2.26967E-03-5.11511E-14
 -1      3576 1.36567E-02 2.14623E-03-5.01248E-14
 -1      3577 2.28525E-03-2.25130E-04-3.20551E-15
 -1      3578 2.43009E-03-2.28338E-04-3.57709E-15
 -1      3579 2.57493E-03-2.30899E-04-3.96855E-15
 -1      3580 2.71974E-03-2.32881E-04-4.37841E-15
 -1      3581 2.49911E-03-1.92663E-04-3.76942E-15
 -1      3582 2.86449E-03-2.34403E-04-4.80727E-15
 -1      3583 3.00916E-03-2.35514E-04-5.25536E-15
 -1      3584 2.78915E-03-1.96119E-04-4.58788E-15
 -1      3585 3.15373E-03-2.36312E-04-5.72105E-15
 -1      3586 3.29820E-03-2.36830E-04-6.20465E-15
 -1      3587 3.07894E-03-1.98067E-04-5.48033E-15
 -1      3588 3.44256E-03-2.37146E-04-6.70589E-15
 -1      3589 3.58680E-03-2.37284E-04-7.22401E-15
 -1      3590 3.36831E-03-1.98984E-04-6.44499E-15
 -1      3591 3.73095E-03-2.37300E-04-7.75860E-15
 -1      3592 3.87498E-03-2.37212E-04-8.30964E-15
 -1      3593 3.65722E-03-1.99230E-04-7.47791E-15
 -1      3594 4.01893E-03-2.37060E-04-8.87750E-15
 -1      3595 4.16278E-03-2.36856E-04-9.46179E-15
 -1      3596 3.94566E-03-1.99073E-04-8.57784E-15
 -1      3597 4.30657E-03-2.36629E-04-1.00610E-14
 -1      3598 4.45029E-03-2.36384E-04-1.06758E-14
 -1      3599 4.23370E-03-1.98696E-04-9.74221E-15
 -1      3600 4.59397E-03-2.36141E-04-1.13054E-14
 -1      3601 4.73761E-03-2.35901E-04-1.19498E-14
 -1      3602 4.52142E-03-1.98221E-04-1.09680E-14
 -1      3603 4.88126E-03-2.35678E-04-1.26087E-14
 -1      3604 5.02491E-03-2.35469E-04-1.32808E-14
 -1      3605 4.80897E-03-1.97714E-04-1.22530E-14
 -1      3606 5.16861E-03-2.35279E-04-1.39673E-14
 -1      3607 5.31238E-03-2.35108E-04-1.46675E-14
 -1      3608 5.09651E-03-1.97196E-04-1.35958E-14
 -1      3609 5.45627E-03-2.34950E-04-1.53800E-14
 -1      3610 5.60031E-03-2.34808E-04-1.61060E-14
 -1      3611 5.38428E-03-1.96646E-04-1.49914E-14
 -1      3612 5.74456E-03-2.34669E-04-1.68449E-14
 -1      3613 5.88906E-03-2.34543E-04-1.75952E-14
 -1      3614 5.67260E-03-1.96010E-04-1.64402E-14
 -1      3615 6.03391E-03-2.34405E-04-1.83589E-14
 -1      3616 6.17916E-03-2.34283E-04-1.91332E-14
 -1      3617 5.96189E-03-1.95208E-04-1.79392E-14
 -1      3618 6.32493E-03-2.34141E-04-1.99174E-14
 -1      3619 6.47128E-03-2.34029E-04-2.07123E-14
 -1      3620 6.25277E-03-1.94163E-04-1.94836E-14
 -1      3621 6.61838E-03-2.33906E-04-2.15169E-14
 -1      3622 6.76629E-03-2.33858E-04-2.23306E-14
 -1      3623 6.54602E-03-1.92841E-04-2.10697E-14
 -1      3624 6.91521E-03-2.33840E-04-2.31509E-14
 -1      3625 7.06520E-03-2.33983E-04-2.39783E-14
 -1      3626 6.84270E-03-1.91321E-04-2.26910E-14
 -1      3627 7.21647E-03-2.34241E-04-2.48136E-14
 -1      3628 7.36905E-03-2.34796E-04-2.56550E-14
 -1      3629 7.14404E-03-1.89901E-04-2.43430E-14
 -1      3630 7.52313E-03-2.35597E-04-2.65031E-14
 -1      3631 7.67861E-03-2.36813E-04-2.73571E-14
 -1      3632 7.45138E-03-1.89218E-04-2.60206E-14
 -1      3633 7.83565E-03-2.38377E-04-2.82155E-14
 -1      3634 7.99394E-03-2.40328E-04-2.90804E-14
 -1      3635 7.76575E-03-1.90186E-04-2.77223E-14
 -1      3636 8.15350E-03-2.42528E-04-2.99509E-14
 -1      3637 8.31379E-03-2.44685E-04-3.08279E-14
 -1      3638 8.08733E-03-1.93647E-04-2.94461E-14
 -1      3639 8.47475E-03-2.46474E-04-3.17092E-14
 -1      3640 8.63533E-03-2.46885E-04-3.25933E-14
 -1      3641 8.41477E-03-1.99427E-04-3.11907E-14
 -1      3642 8.79538E-03-2.45241E-04-3.34843E-14
 -1      3643 8.95402E-03-2.39895E-04-3.43795E-14
 -1      3644 8.74443E-03-2.04520E-04-3.29565E-14
 -1      3645 9.11082E-03-2.29631E-04-3.52770E-14
 -1      3646 9.26550E-03-2.11875E-04-3.61789E-14
 -1      3647 9.07067E-03-2.00532E-04-3.47387E-14
 -1      3648 9.41766E-03-1.85312E-04-3.70849E-14
 -1      3649 9.56812E-03-1.47585E-04-3.79936E-14
 -1      3650 9.38835E-03-1.72948E-04-3.65369E-14
 -1      3651 9.71672E-03-9.77744E-05-3.89053E-14
 -1      3652 9.86508E-03-3.46088E-05-3.98220E-14
 -1      3653 9.69599E-03-1.02944E-04-3.83480E-14
 -1      3654 1.00132E-02 4.20217E-05-4.07420E-14
 -1      3655 1.01630E-02 1.31312E-04-4.16655E-14
 -1      3656 9.99869E-03 2.26792E-05-4.01746E-14
 -1      3657 1.03142E-02 2.32448E-04-4.25934E-14
 -1      3658 1.04678E-02 3.43197E-04-4.35241E-14
 -1      3659 1.03047E-02 2.05894E-04-4.20183E-14
 -1      3660 1.06237E-02 4.62246E-04-4.44559E-14
 -1      3661 1.07815E-02 5.86993E-04-4.53881E-14
 -1      3662 1.06200E-02 4.35025E-04-4.38745E-14
 -1      3663 1.09410E-02 7.16264E-04-4.63204E-14
 -1      3664 1.11014E-02 8.48082E-04-4.72531E-14
 -1      3665 1.09447E-02 6.91769E-04-4.57359E-14
 -1      3666 1.12623E-02 9.81647E-04-4.81849E-14
 -1      3667 1.14228E-02 1.11587E-03-4.91125E-14
 -1      3668 1.12740E-02 9.60215E-04-4.75961E-14
 -1      3669 1.15828E-02 1.25033E-03-5.00396E-14
 -1      3670 1.17416E-02 1.38465E-03-5.09676E-14
 -1      3671 1.16023E-02 1.23066E-03-4.94510E-14
 -1      3672 1.18992E-02 1.51859E-03-5.18903E-14
 -1      3673 1.20552E-02 1.65218E-03-5.28097E-14
 -1      3674 1.19253E-02 1.49917E-03-5.13000E-14
 -1      3675 1.22099E-02 1.78536E-03-5.37277E-14
 -1      3676 1.23630E-02 1.91827E-03-5.46394E-14
 -1      3677 1.22411E-02 1.76500E-03-5.31398E-14
 -1      3678 1.25147E-02 2.05087E-03-5.55470E-14
 -1      3679 1.26651E-02 2.18333E-03-5.64500E-14
 -1      3680 1.25496E-02 2.02905E-03-5.49606E-14
 -1      3681 1.28143E-02 2.31562E-03-5.73471E-14
 -1      3682 1.29625E-02 2.44785E-03-5.82417E-14
 -1      3683 1.28519E-02 2.29221E-03-5.67637E-14
 -1      3684 1.32447E-02 2.66485E-03-5.94523E-14
 -1      3685 1.33726E-02 2.78306E-03-6.02658E-14
 -1      3686 4.13790E-03 2.74563E-04-8.90176E-15
 -1      3687 3.98702E-03 2.74706E-04-8.31124E-15
 -1      3688 3.55179E-03 2.74676E-04-6.70980E-15
 -1      3689 3.40772E-03 2.74417E-04-6.21436E-15
 -1      3690 1.25645E-03-1.41434E-05-1.14004E-15
 -1      3691 1.25711E-03-4.51073E-05-1.14513E-15
 -1      3692 1.38019E-03-6.42332E-05-1.34410E-15
 -1      3693 1.37877E-03 1.42263E-06-1.33223E-15
 -1      3694 4.42502E-03 2.74248E-04-1.00762E-14
 -1      3695 4.28150E-03 2.74408E-04-9.48146E-15
 -1      3696 4.20488E-03 2.36607E-04-9.22770E-15
 -1      3697 4.71181E-03 2.74004E-04-1.13090E-14
 -1      3698 4.56846E-03 2.74110E-04-1.06853E-14
 -1      3699 4.49223E-03 2.36391E-04-1.04179E-14
 -1      3700 4.99825E-03 2.73976E-04-1.25986E-14
 -1      3701 4.85508E-03 2.73956E-04-1.19463E-14
 -1      3702 4.77921E-03 2.36310E-04-1.16665E-14
 -1      3703 5.28427E-03 2.74312E-04-1.39411E-14
 -1      3704 5.14132E-03 2.74090E-04-1.32636E-14
 -1      3705 5.06581E-03 2.36516E-04-1.29709E-14
 -1      3706 5.56970E-03 2.75201E-04-1.53343E-14
 -1      3707 5.42708E-03 2.74676E-04-1.46316E-14
 -1      3708 5.35196E-03 2.37190E-04-1.43283E-14
 -1      3709 5.86844E-03 2.77045E-04-1.68447E-14
 -1      3710 5.71923E-03 2.75988E-04-1.60839E-14
 -1      3711 5.64463E-03 2.38627E-04-1.57709E-14
 -1      3712 6.15146E-03 2.80156E-04-1.83268E-14
 -1      3713 6.01018E-03 2.78409E-04-1.75811E-14
 -1      3714 5.93636E-03 2.41225E-04-1.72616E-14
 -1      3715 6.43219E-03 2.85376E-04-1.98459E-14
 -1      3716 6.29219E-03 2.82461E-04-1.90816E-14
 -1      3717 6.21958E-03 2.45497E-04-1.87567E-14
 -1      3718 6.70937E-03 2.93973E-04-2.13974E-14
 -1      3719 6.57134E-03 2.89188E-04-2.06183E-14
 -1      3720 6.50072E-03 2.52442E-04-2.02889E-14
 -1      3721 6.98130E-03 3.07944E-04-2.29787E-14
 -1      3722 6.84618E-03 3.00192E-04-2.21841E-14
 -1      3723 6.77886E-03 2.63520E-04-2.18535E-14
 -1      3724 7.25892E-03 3.31623E-04-2.46697E-14
 -1      3725 7.12141E-03 3.18482E-04-2.38208E-14
 -1      3726 7.05970E-03 2.81391E-04-2.34876E-14
 -1      3727 7.51384E-03 3.66814E-04-2.63025E-14
 -1      3728 7.38788E-03 3.47521E-04-2.54837E-14
 -1      3729 7.33533E-03 3.08873E-04-2.51492E-14
 -1      3730 1.37692E-02 2.85722E-03-5.89167E-14
 -1      3731 1.39049E-02 2.90373E-03-5.87624E-14
 -1      3732 7.79724E-03 4.03658E-04-2.81111E-14
 -1      3733 7.65402E-03 3.83301E-04-2.72033E-14
 -1      3734 7.61589E-03 3.39292E-04-2.68680E-14
 -1      3735 2.38223E-03 2.63062E-04-3.22042E-15
 -1      3736 2.23760E-03 2.59127E-04-2.87465E-15
 -1      3737 1.77732E-03 2.37642E-04-1.90267E-15
 -1      3738 1.56088E-03 2.19800E-04-1.51502E-15
 -1      3739 8.29060E-03 2.61683E-04-3.01707E-14
 -1      3740 8.12364E-03 3.17087E-04-2.94963E-14
 -1      3741 8.57202E-03 1.28467E-04-3.13501E-14
 -1      3742 8.43522E-03 1.98376E-04-3.07601E-14
 -1      3743 8.25789E-03 1.95662E-04-2.99234E-14
 -1      3744 1.06467E-02 3.71349E-04-4.23013E-14
 -1      3745 1.04697E-02 2.50893E-04-4.15134E-14
 -1      3746 1.70724E-03-2.03370E-04-1.91699E-15
 -1      3747 1.85139E-03-2.10378E-04-2.20908E-15
 -1      3748 1.40515E-02 2.51484E-03-5.30600E-14
 -1      3749 1.39213E-02 2.39553E-03-5.21564E-14
 -1      3750 3.26354E-03 2.73950E-04-5.73617E-15
 -1      3751 3.11927E-03 2.73243E-04-5.27669E-15
 -1      3752 3.33316E-03 2.36268E-04-6.01785E-15
 -1      3753 7.93494E-03 3.69258E-04-2.87077E-14
 -1      3754 1.28029E-03 1.75859E-04-1.08745E-15
 -1      3755 1.27630E-03 1.43052E-04-1.10476E-15
 -1      3756 1.39754E-03 1.34114E-04-1.30402E-15
 -1      3757 1.43077E-03 2.04252E-04-1.30503E-15
 -1      3758 1.35716E-02 2.06480E-03-4.94114E-14
 -1      3759 1.34715E-02 1.98427E-03-4.87296E-14
 -1      3760 1.33126E-02 1.93321E-03-4.86002E-14
 -1      3761 1.34916E-02 2.09204E-03-5.00247E-14
 -1      3762 2.09302E-03 2.54259E-04-2.54783E-15
 -1      3763 1.94855E-03 2.48356E-04-2.24044E-15
 -1      3764 2.16080E-03 2.20751E-04-2.73956E-15
 -1      3765 1.21121E-02 1.40567E-03-4.74629E-14
 -1      3766 1.19120E-02 1.26633E-03-4.66324E-14
 -1      3767 1.17299E-02 1.16842E-03-4.66066E-14
 -1      3768 1.99582E-03-2.16268E-04-2.52131E-15
 -1      3769 2.14048E-03-2.21135E-04-2.85363E-15
 -1      3770 1.91960E-03-1.78693E-04-2.36504E-15
 -1      3771 1.58126E-03-1.70354E-04-1.68562E-15
 -1      3772 1.29617E-02 1.73308E-03-4.71831E-14
 -1      3773 1.27852E-02 1.66675E-03-4.70347E-14
 -1      3774 1.27865E-02 1.71356E-03-4.78111E-14
 -1      3775 1.30801E-02 1.81382E-03-4.78642E-14
 -1      3776 1.44849E-02 3.26311E-03-6.02583E-14
 -1      3777 3.83964E-03 2.74786E-04-7.75173E-15
 -1      3778 3.69577E-03 2.74791E-04-7.22217E-15
 -1      3779 3.62177E-03 2.36769E-04-7.01145E-15
 -1      3780 1.45078E-02 2.94510E-03-5.62219E-14
 -1      3781 1.37205E-02 2.29789E-03-5.17437E-14
 -1      3782 1.32848E-02 2.63993E-03-5.88726E-14
 -1      3783 3.91354E-03 2.36800E-04-8.08620E-15
 -1      3784 7.93919E-03 3.11356E-04-2.85552E-14
 -1      3785 1.38482E-02 2.81626E-03-5.79173E-14
 -1      3786 1.40415E-02 2.94963E-03-5.86063E-14
 -1      3787 1.57761E-03-1.34264E-04-1.68682E-15
 -1      3788 1.43187E-02 2.76066E-03-5.48624E-14
 -1      3789 1.41842E-02 2.63654E-03-5.39645E-14
 -1      3790 1.39947E-02 2.54439E-03-5.36518E-14
 -1      3791 9.22641E-03-1.31937E-04-3.50361E-14
 -1      3792 9.14736E-03-1.06066E-04-3.44655E-14
 -1      3793 2.53047E-03 2.66302E-04-3.59452E-15
 -1      3794 2.45409E-03 2.27860E-04-3.44409E-15
 -1      3795 2.67868E-03 2.68821E-04-3.98879E-15
 -1      3796 1.54338E-03 1.82863E-04-1.51734E-15
 -1      3797 2.20909E-03-1.87097E-04-3.02795E-15
 -1      3798 8.97557E-03-9.55848E-05-3.35972E-14
 -1      3799 1.42406E-02 3.02919E-03-5.85669E-14
 -1      3800 1.42958E-02 3.11770E-03-5.94087E-14
 -1      3801 1.12990E-02 8.48938E-04-4.48549E-14
 -1      3802 1.09387E-02 6.01053E-04-4.38484E-14
 -1      3803 1.07915E-02 4.83451E-04-4.30744E-14
 -1      3804 1.06751E-02 4.20863E-04-4.29792E-14
 -1      3805 1.45023E-02 3.11531E-03-5.83175E-14
 -1      3806 1.84469E-03 2.06930E-04-2.06850E-15
 -1      3807 9.94595E-03-2.53714E-05-3.86812E-14
 -1      3808 9.78952E-03-6.77921E-05-3.77965E-14
 -1      3809 9.60840E-03-1.05249E-04-3.70445E-14
 -1      3810 1.50461E-03 8.78272E-05-1.51344E-15
 -1      3811 1.50294E-03 5.31757E-05-1.52681E-15
 -1      3812 8.69312E-03-2.25898E-05-3.20511E-14
 -1      3813 8.64130E-03 5.08357E-05-3.17014E-14
 -1      3814 8.45986E-03 5.87132E-05-3.08555E-14
 -1      3815 1.23340E-02 1.55170E-03-4.82777E-14
 -1      3816 1.21455E-02 1.45994E-03-4.82576E-14
 -1      3817 1.62630E-03 3.74569E-05-1.75680E-15
 -1      3818 1.50209E-03 1.87007E-05-1.53795E-15
 -1      3819 1.50204E-03-1.57157E-05-1.54679E-15
 -1      3820 1.02830E-02 1.33017E-04-4.05413E-14
 -1      3821 1.01267E-02 4.72818E-05-3.96480E-14
 -1      3822 9.99279E-03-3.35854E-07-3.92848E-14
 -1      3823 1.03508E-02 1.90714E-04-4.12276E-14
 -1      3824 1.26468E-02 1.70431E-03-4.85796E-14
 -1      3825 1.24890E-02 1.62918E-03-4.84292E-14
 -1      3826 1.25095E-02 1.67997E-03-4.92256E-14
 -1      3827 2.97310E-03 2.72196E-04-4.82993E-15
 -1      3828 2.82503E-03 2.70748E-04-4.39717E-15
 -1      3829 2.74922E-03 2.32361E-04-4.23098E-15
 -1      3830 3.04229E-03 2.34954E-04-5.08977E-15
 -1      3831 1.34608E-02 2.72617E-03-5.89758E-14
 -1      3832 1.35913E-02 2.77217E-03-5.88167E-14
 -1      3833 1.35321E-02 2.68427E-03-5.79720E-14
 -1      3834 1.31767E-02 2.51117E-03-5.77642E-14
 -1      3835 4.56326E-03 1.98504E-04-1.07759E-14
 -1      3836 4.41955E-03 1.98538E-04-1.01653E-14
 -1      3837 2.22947E-03 1.86586E-04-2.93475E-15
 -1      3838 2.08458E-03 1.82887E-04-2.60428E-15
 -1      3839 4.85039E-03 1.98608E-04-1.20418E-14
 -1      3840 4.70687E-03 1.98524E-04-1.14023E-14
 -1      3841 4.63449E-03 1.60608E-04-1.11367E-14
 -1      3842 2.71410E-03-1.57946E-04-4.37078E-15
 -1      3843 2.85926E-03-1.59021E-04-4.79717E-15
 -1      3844 3.00434E-03-1.59827E-04-5.24284E-15
 -1      3845 3.14932E-03-1.60385E-04-5.70584E-15
 -1      3846 2.92998E-03-1.21642E-04-5.00759E-15
 -1      3847 3.29419E-03-1.60762E-04-6.18670E-15
 -1      3848 3.43893E-03-1.60974E-04-6.68529E-15
 -1      3849 3.22023E-03-1.22519E-04-5.93195E-15
 -1      3850 3.58355E-03-1.61071E-04-7.20044E-15
 -1      3851 3.72804E-03-1.61063E-04-7.73254E-15
 -1      3852 3.51000E-03-1.22847E-04-6.92534E-15
 -1      3853 3.87242E-03-1.60988E-04-8.28034E-15
 -1      3854 4.01667E-03-1.60849E-04-8.84557E-15
 -1      3855 3.79924E-03-1.22821E-04-7.98640E-15
 -1      3856 4.16082E-03-1.60675E-04-9.42611E-15
 -1      3857 4.30488E-03-1.60465E-04-1.00223E-14
 -1      3858 4.08799E-03-1.22576E-04-9.11261E-15
 -1      3859 4.44886E-03-1.60236E-04-1.06335E-14
 -1      3860 4.59277E-03-1.59985E-04-1.12597E-14
 -1      3861 4.37630E-03-1.22191E-04-1.03017E-14
 -1      3862 4.73664E-03-1.59720E-04-1.19006E-14
 -1      3863 4.88049E-03-1.59436E-04-1.25556E-14
 -1      3864 4.66429E-03-1.21699E-04-1.15512E-14
 -1      3865 5.02434E-03-1.59130E-04-1.32258E-14
 -1      3866 5.16822E-03-1.58796E-04-1.39088E-14
 -1      3867 4.95212E-03-1.21085E-04-1.28583E-14
 -1      3868 5.31218E-03-1.58423E-04-1.46052E-14
 -1      3869 5.45623E-03-1.58002E-04-1.53150E-14
 -1      3870 5.23999E-03-1.20286E-04-1.42214E-14
 -1      3871 5.60044E-03-1.57512E-04-1.60375E-14
 -1      3872 5.74486E-03-1.56947E-04-1.67730E-14
 -1      3873 5.52817E-03-1.19190E-04-1.56378E-14
 -1      3874 5.88956E-03-1.56272E-04-1.75210E-14
 -1      3875 6.03461E-03-1.55493E-04-1.82812E-14
 -1      3876 5.81703E-03-1.17629E-04-1.71055E-14
 -1      3877 6.18010E-03-1.54562E-04-1.90522E-14
 -1      3878 6.32614E-03-1.53505E-04-1.98329E-14
 -1      3879 6.10709E-03-1.15402E-04-1.86210E-14
 -1      3880 6.47285E-03-1.52264E-04-2.06242E-14
 -1      3881 6.62037E-03-1.50905E-04-2.14243E-14
 -1      3882 6.39911E-03-1.12302E-04-2.01807E-14
 -1      3883 6.76889E-03-1.49363E-04-2.22333E-14
 -1      3884 6.91855E-03-1.47770E-04-2.30496E-14
 -1      3885 6.69413E-03-1.08193E-04-2.17763E-14
 -1      3886 7.06959E-03-1.46073E-04-2.38726E-14
 -1      3887 7.22218E-03-1.44501E-04-2.47029E-14
 -1      3888 6.99357E-03-1.03150E-04-2.34042E-14
 -1      3889 7.37659E-03-1.43026E-04-2.55392E-14
 -1      3890 7.53293E-03-1.42016E-04-2.63821E-14
 -1      3891 7.29927E-03-9.76781E-05-2.50589E-14
 -1      3892 7.69149E-03-1.41463E-04-2.72300E-14
 -1      3893 7.85222E-03-1.41766E-04-2.80822E-14
 -1      3894 7.61332E-03-9.31432E-05-2.67389E-14
 -1      3895 8.01544E-03-1.42856E-04-2.89421E-14
 -1      3896 8.18066E-03-1.45203E-04-2.98065E-14
 -1      3897 7.93770E-03-9.15514E-05-2.84395E-14
 -1      3898 8.38688E-03-1.07582E-04-3.07638E-14
 -1      3899 8.55881E-03-1.13174E-04-3.16376E-14
 -1      3900 8.98602E-03-1.74984E-04-3.40701E-14
 -1      3901 9.15103E-03-1.72544E-04-3.49619E-14
 -1      3902 9.67859E-03-1.04120E-04-3.78802E-14
 -1      3903 9.83369E-03-5.66964E-05-3.87876E-14
 -1      3904 1.00059E-02 1.49239E-05-3.97584E-14
 -1      3905 1.01612E-02 9.65426E-05-4.06744E-14
 -1      3906 1.03378E-02 2.05183E-04-4.16503E-14
 -1      3907 1.04984E-02 3.17025E-04-4.25742E-14
 -1      3908 1.06330E-02 4.18507E-04-4.33526E-14
 -1      3909 1.07989E-02 5.46898E-04-4.42795E-14
 -1      3910 1.12849E-02 9.39690E-04-4.70093E-14
 -1      3911 1.14538E-02 1.07650E-03-4.79381E-14
 -1      3912 1.16219E-02 1.21263E-03-4.88635E-14
 -1      3913 1.17878E-02 1.34768E-03-4.97870E-14
 -1      3914 1.16418E-02 1.19593E-03-4.82763E-14
 -1      3915 1.19519E-02 1.48155E-03-5.07108E-14
 -1      3916 1.21136E-02 1.61441E-03-5.16303E-14
 -1      3917 1.19796E-02 1.46579E-03-5.01214E-14
 -1      3918 1.22730E-02 1.74633E-03-5.25475E-14
 -1      3919 1.24302E-02 1.87774E-03-5.34625E-14
 -1      3920 1.23061E-02 1.72936E-03-5.19575E-14
 -1      3921 1.25853E-02 2.00862E-03-5.43727E-14
 -1      3922 1.27385E-02 2.13934E-03-5.52776E-14
 -1      3923 1.26221E-02 1.98967E-03-5.37820E-14
 -1      3924 1.28837E-02 2.26006E-03-5.60773E-14
 -1      3925 1.30339E-02 2.39060E-03-5.69714E-14
 -1      3926 1.32113E-02 2.47838E-03-5.70797E-14
 -1      3927 1.29228E-02 2.23902E-03-5.54896E-14
 -1      3928 3.98599E-03 1.98733E-04-8.41608E-15
 -1      3929 3.83825E-03 1.98769E-04-7.85354E-15
 -1      3930 1.36535E-02 2.68272E-03-5.72282E-14
 -1      3931 1.37919E-02 2.72964E-03-5.70727E-14
 -1      3932 1.50279E-03-5.01843E-05-1.55373E-15
 -1      3933 1.50435E-03-8.48263E-05-1.55831E-15
 -1      3934 1.62620E-03-3.43444E-05-1.77683E-15
 -1      3935 1.53111E-03 1.52644E-04-1.51920E-15
 -1      3936 1.51544E-03 1.17050E-04-1.51576E-15
 -1      3937 1.63817E-03 1.03646E-04-1.74622E-15
 -1      3938 1.66119E-03 1.65110E-04-1.74657E-15
 -1      3939 5.13713E-03 1.99075E-04-1.33616E-14
 -1      3940 4.99381E-03 1.98787E-04-1.26945E-14
 -1      3941 4.92176E-03 1.60909E-04-1.24185E-14
 -1      3942 5.42343E-03 2.00118E-04-1.47349E-14
 -1      3943 5.28034E-03 1.99511E-04-1.40419E-14
 -1      3944 5.20865E-03 1.61646E-04-1.37544E-14
 -1      3945 5.72343E-03 2.02172E-04-1.62294E-14
 -1      3946 5.57352E-03 2.01000E-04-1.54754E-14
 -1      3947 5.50230E-03 1.63113E-04-1.51782E-14
 -1      3948 6.00832E-03 2.05525E-04-1.76978E-14
 -1      3949 5.86600E-03 2.03646E-04-1.69582E-14
 -1      3950 5.79547E-03 1.65690E-04-1.66534E-14
 -1      3951 6.29206E-03 2.10968E-04-1.92079E-14
 -1      3952 6.15038E-03 2.07939E-04-1.84487E-14
 -1      3953 6.08087E-03 1.69826E-04-1.81378E-14
 -1      3954 6.57418E-03 2.19570E-04-2.07537E-14
 -1      3955 6.43338E-03 2.14807E-04-1.99753E-14
 -1      3956 6.36551E-03 1.76365E-04-1.96606E-14
 -1      3957 6.85420E-03 2.32865E-04-2.23302E-14
 -1      3958 6.71452E-03 2.25537E-04-2.15384E-14
 -1      3959 6.64923E-03 1.86424E-04-2.12197E-14
 -1      3960 7.14568E-03 2.54106E-04-2.40179E-14
 -1      3961 7.00035E-03 2.42420E-04-2.31696E-14
 -1      3962 6.93921E-03 2.01949E-04-2.28497E-14
 -1      3963 7.42159E-03 2.83678E-04-2.56502E-14
 -1      3964 7.28388E-03 2.67615E-04-2.48322E-14
 -1      3965 7.22902E-03 2.24618E-04-2.45098E-14
 -1      3966 1.70042E-03-1.20672E-04-1.92283E-15
 -1      3967 1.16874E-02 1.18122E-03-4.73974E-14
 -1      3968 1.14974E-02 1.03920E-03-4.65604E-14
 -1      3969 1.43204E-02 2.84856E-03-5.59138E-14
 -1      3970 1.29207E-03-1.91957E-04-1.17728E-15
 -1      3971 9.31147E-03-1.52984E-04-3.57093E-14
 -1      3972 7.73489E-03 3.02068E-04-2.74536E-14
 -1      3973 7.57577E-03 2.92017E-04-2.65490E-14
 -1      3974 7.52918E-03 2.43612E-04-2.62266E-14
 -1      3975 2.42370E-03-1.54706E-04-3.57303E-15
 -1      3976 2.56890E-03-1.56519E-04-3.96235E-15
 -1      3977 2.63940E-03-1.19956E-04-4.15610E-15
 -1      3978 1.42500E-02 2.94995E-03-5.75115E-14
 -1      3979 1.13276E-02 9.03681E-04-4.56629E-14
 -1      3980 1.11076E-02 7.37314E-04-4.47442E-14
 -1      3981 1.09789E-02 6.61697E-04-4.46541E-14
 -1      3982 1.13066E-02 9.26725E-04-4.64520E-14
 -1      3983 4.27573E-03 1.98597E-04-9.56953E-15
 -1      3984 4.13182E-03 1.98672E-04-8.98850E-15
 -1      3985 4.34684E-03 1.60562E-04-9.91228E-15
 -1      3986 9.47388E-03-1.38411E-04-3.66082E-14
 -1      3987 8.20980E-03 1.30665E-04-2.96455E-14
 -1      3988 8.08365E-03 1.86810E-04-2.90657E-14
 -1      3989 3.69398E-03 1.98741E-04-7.32175E-15
 -1      3990 3.54960E-03 1.98637E-04-6.80645E-15
 -1      3991 3.76658E-03 1.60629E-04-7.63498E-15
 -1      3992 3.40509E-03 1.98410E-04-6.30800E-15
 -1      3993 3.26047E-03 1.98044E-04-5.82688E-15
 -1      3994 3.47750E-03 1.60419E-04-6.60098E-15
 -1      3995 1.36552E-02 2.32398E-03-5.23555E-14
 -1      3996 1.35114E-02 2.19905E-03-5.13513E-14
 -1      3997 1.95822E-03 1.79019E-04-2.33091E-15
 -1      3998 1.78690E-03 1.70578E-04-1.98500E-15
 -1      3999 1.77501E-03 1.38764E-04-1.98639E-15
 -1      4000 2.02734E-03 1.46137E-04-2.50880E-15
 -1      4001 2.13352E-03-1.49589E-04-2.85350E-15
 -1      4002 2.27855E-03-1.52415E-04-3.20353E-15
 -1      4003 2.34877E-03-1.17122E-04-3.38037E-15
 -1      4004 1.20741E-02 1.46654E-03-4.91405E-14
 -1      4005 1.18641E-02 1.31867E-03-4.83192E-14
 -1      4006 1.39220E-02 2.74884E-03-5.66187E-14
 -1      4007 1.41890E-02 2.83501E-03-5.63686E-14
 -1      4008 1.39953E-02 2.65324E-03-5.50112E-14
 -1      4009 1.37273E-02 2.61785E-03-5.59249E-14
 -1      4010 1.84432E-03-1.33521E-04-2.21298E-15
 -1      4011 1.98886E-03-1.37435E-04-2.52414E-15
 -1      4012 2.05893E-03-1.03941E-04-2.68293E-15
 -1      4013 1.77069E-03-8.14242E-05-2.06366E-15
 -1      4014 7.90055E-03 2.53212E-04-2.82302E-14
 -1      4015 1.29241E-02 1.81336E-03-4.86332E-14
 -1      4016 1.27843E-02 1.76026E-03-4.86058E-14
 -1      4017 1.27911E-02 1.80915E-03-4.94031E-14
 -1      4018 8.72904E-03-1.19639E-04-3.24955E-14
 -1      4019 8.30710E-03-5.23768E-05-3.02490E-14
 -1      4020 8.90246E-03-1.26314E-04-3.33779E-14
 -1      4021 1.09568E-02 6.73913E-04-4.51795E-14
 -1      4022 3.18609E-03 1.59772E-04-5.63034E-15
 -1      4023 3.11391E-03 1.97467E-04-5.35840E-15
 -1      4024 2.96725E-03 1.96658E-04-4.90831E-15
 -1      4025 1.11259E-02 8.09863E-04-4.61084E-14
 -1      4026 4.05695E-03 1.60619E-04-8.74200E-15
 -1      4027 7.86266E-03 1.92821E-04-2.79570E-14
 -1      4028 2.52679E-03 1.92136E-04-3.67158E-15
 -1      4029 2.37810E-03 1.89677E-04-3.29295E-15
 -1      4030 2.30256E-03 1.51856E-04-3.14259E-15
 -1      4031 1.38931E-02 2.54682E-03-5.41386E-14
 -1      4032 1.37547E-02 2.42652E-03-5.32364E-14
 -1      4033 1.35472E-02 2.32215E-03-5.28459E-14
 -1      4034 1.37553E-02 2.53034E-03-5.45987E-14
 -1      4035 1.33434E-02 2.13453E-03-5.12539E-14
 -1      4036 1.34143E-02 2.11421E-03-5.06409E-14
 -1      4037 1.33179E-02 2.03151E-03-4.99271E-14
 -1      4038 8.29635E-03 2.60886E-06-3.01192E-14
 -1      4039 8.23729E-03 7.28555E-05-2.97805E-14
 -1      4040 8.06202E-03 6.86519E-05-2.89184E-14
 -1      4041 8.09577E-03-3.99161E-05-2.91742E-14
 -1      4042 1.33417E-02 2.53819E-03-5.71016E-14
 -1      4043 1.35215E-02 2.62437E-03-5.72047E-14
 -1      4044 1.34630E-02 2.53855E-03-5.63570E-14
 -1      4045 1.31985E-02 2.41929E-03-5.63087E-14
 -1      4046 1.76375E-03 1.07281E-04-1.98553E-15
 -1      4047 1.75310E-03 7.60710E-05-1.98263E-15
 -1      4048 1.88975E-03 1.10432E-04-2.23957E-15
 -1      4049 1.31750E-02 1.89191E-03-4.85740E-14
 -1      4050 1.26610E-02 1.79374E-03-5.00816E-14
 -1      4051 1.25156E-02 1.72057E-03-4.99308E-14
 -1      4052 1.75178E-03 3.87938E-05-1.99749E-15
 -1      4053 2.27443E-03-8.00256E-05-3.19158E-15
 -1      4054 2.41975E-03-8.12556E-05-3.55877E-15
 -1      4055 1.76871E-03-6.62483E-06-2.04712E-15
 -1      4056 1.76927E-03-4.39845E-05-2.05666E-15
 -1      4057 1.91296E-03-5.39757E-05-2.35615E-15
 -1      4058 4.70593E-03 1.22703E-04-1.14997E-14
 -1      4059 4.56211E-03 1.22580E-04-1.08712E-14
 -1      4060 3.14654E-03-8.43031E-05-5.67902E-15
 -1      4061 3.29165E-03-8.44866E-05-6.15709E-15
 -1      4062 3.43664E-03-8.45915E-05-6.65266E-15
 -1      4063 3.58149E-03-8.46182E-05-7.16536E-15
 -1      4064 3.36352E-03-4.63291E-05-6.38258E-15
 -1      4065 3.72621E-03-8.45954E-05-7.69476E-15
 -1      4066 3.87079E-03-8.45191E-05-8.24014E-15
 -1      4067 3.65335E-03-4.63265E-05-7.40502E-15
 -1      4068 4.01524E-03-8.44106E-05-8.80266E-15
 -1      4069 4.15957E-03-8.42631E-05-9.38033E-15
 -1      4070 3.94263E-03-4.61892E-05-8.49463E-15
 -1      4071 4.30380E-03-8.40906E-05-9.97318E-15
 -1      4072 4.44792E-03-8.38835E-05-1.05815E-14
 -1      4073 4.23139E-03-4.59395E-05-9.64691E-15
 -1      4074 4.59198E-03-8.36481E-05-1.12044E-14
 -1      4075 4.73596E-03-8.33719E-05-1.18423E-14
 -1      4076 4.51972E-03-4.55680E-05-1.08602E-14
 -1      4077 4.87991E-03-8.30523E-05-1.24943E-14
 -1      4078 5.02385E-03-8.26739E-05-1.31606E-14
 -1      4079 4.80774E-03-4.50275E-05-1.21329E-14
 -1      4080 5.16779E-03-8.22238E-05-1.38404E-14
 -1      4081 5.31177E-03-8.16835E-05-1.45341E-14
 -1      4082 5.09561E-03-4.42252E-05-1.34626E-14
 -1      4083 5.45584E-03-8.10277E-05-1.52409E-14
 -1      4084 5.60002E-03-8.02349E-05-1.59601E-14
 -1      4085 5.38352E-03-4.30102E-05-1.48464E-14
 -1      4086 5.74439E-03-7.92646E-05-1.66924E-14
 -1      4087 5.88898E-03-7.80985E-05-1.74369E-14
 -1      4088 5.67173E-03-4.11603E-05-1.62821E-14
 -1      4089 6.03389E-03-7.66787E-05-1.81935E-14
 -1      4090 6.17919E-03-7.49952E-05-1.89606E-14
 -1      4091 5.96063E-03-3.83774E-05-1.77671E-14
 -1      4092 6.32500E-03-7.29740E-05-1.97384E-14
 -1      4093 6.47145E-03-7.06323E-05-2.05252E-14
 -1      4094 6.25076E-03-3.42899E-05-1.92974E-14
 -1      4095 6.61869E-03-6.78860E-05-2.13212E-14
 -1      4096 6.76692E-03-6.48045E-05-2.21255E-14
 -1      4097 6.54296E-03-2.85031E-05-2.08673E-14
 -1      4098 6.91635E-03-6.13030E-05-2.29369E-14
 -1      4099 7.06722E-03-5.75560E-05-2.37554E-14
 -1      4100 6.83849E-03-2.07106E-05-2.24707E-14
 -1      4101 7.21986E-03-5.34680E-05-2.45805E-14
 -1      4102 7.37459E-03-4.95197E-05-2.54125E-14
 -1      4103 7.13918E-03-1.09263E-05-2.41036E-14
 -1      4104 7.53169E-03-4.56969E-05-2.62502E-14
 -1      4105 7.69152E-03-4.24756E-05-2.70922E-14
 -1      4106 7.44757E-03 6.38040E-08-2.57619E-14
 -1      4107 7.92801E-03-4.00865E-05-2.83181E-14
 -1      4108 1.23415E-02 1.71422E-03-5.13679E-14
 -1      4109 1.25026E-02 1.84373E-03-5.22808E-14
 -1      4110 1.26608E-02 1.97220E-03-5.31935E-14
 -1      4111 1.28164E-02 2.10048E-03-5.41015E-14
 -1      4112 1.27019E-02 1.95632E-03-5.26042E-14
 -1      4113 7.84371E-03 1.23768E-04-2.78145E-14
 -1      4114 7.67966E-03 1.85578E-04-2.69927E-14
 -1      4115 5.86791E-03 1.29135E-04-1.70798E-14
 -1      4116 5.72473E-03 1.27442E-04-1.63467E-14
 -1      4117 6.15407E-03 1.33960E-04-1.85788E-14
 -1      4118 6.01104E-03 1.31285E-04-1.78241E-14
 -1      4119 5.94078E-03 9.24234E-05-1.75086E-14
 -1      4120 6.43998E-03 1.41397E-04-2.01156E-14
 -1      4121 6.29707E-03 1.37298E-04-1.93428E-14
 -1      4122 6.22792E-03 9.77920E-05-1.90211E-14
 -1      4123 6.72591E-03 1.52522E-04-2.16885E-14
 -1      4124 6.58296E-03 1.46427E-04-2.08977E-14
 -1      4125 6.51549E-03 1.05864E-04-2.05731E-14
 -1      4126 7.02695E-03 1.69593E-04-2.33726E-14
 -1      4127 6.87631E-03 1.60259E-04-2.25267E-14
 -1      4128 6.81139E-03 1.17936E-04-2.21994E-14
 -1      4129 7.31626E-03 1.92238E-04-2.50038E-14
 -1      4130 7.17120E-03 1.80053E-04-2.41837E-14
 -1      4131 7.10990E-03 1.34878E-04-2.38557E-14
 -1      4132 2.56516E-03-8.22394E-05-3.94570E-15
 -1      4133 2.71058E-03-8.29998E-05-4.35138E-15
 -1      4134 2.49143E-03-4.48612E-05-3.73837E-15
 -1      4135 7.51247E-03 1.84493E-04-2.60895E-14
 -1      4136 4.41818E-03 1.22508E-04-1.02577E-14
 -1      4137 4.27416E-03 1.22479E-04-9.66005E-15
 -1      4138 4.48975E-03 8.44497E-05-1.06056E-14
 -1      4139 3.83774E-03 1.22447E-04-7.94346E-15
 -1      4140 3.69321E-03 1.22406E-04-7.40858E-15
 -1      4141 3.54855E-03 1.22308E-04-6.89024E-15
 -1      4142 3.40375E-03 1.22149E-04-6.38889E-15
 -1      4143 3.61998E-03 8.41173E-05-7.18232E-15
 -1      4144 4.99332E-03 1.23204E-04-1.27963E-14
 -1      4145 4.84967E-03 1.22906E-04-1.21414E-14
 -1      4146 4.77756E-03 8.47937E-05-1.18633E-14
 -1      4147 5.57430E-03 1.26044E-04-1.55898E-14
 -1      4148 5.42379E-03 1.24981E-04-1.48452E-14
 -1      4149 5.64657E-03 8.88978E-05-1.60028E-14
 -1      4150 2.82049E-03 1.95535E-04-4.47682E-15
 -1      4151 2.67366E-03 1.94061E-04-4.06465E-15
 -1      4152 2.89241E-03 1.58398E-04-4.72629E-15
 -1      4153 1.24521E-02 1.71524E-03-5.03844E-14
 -1      4154 1.21773E-02 1.58384E-03-5.04512E-14
 -1      4155 2.85598E-03-8.35823E-05-4.77549E-15
 -1      4156 3.00131E-03-8.40028E-05-5.21856E-15
 -1      4157 2.78238E-03-4.56958E-05-4.54679E-15
 -1      4158 1.27867E-02 1.84866E-03-5.01100E-14
 -1      4159 1.27873E-02 1.88997E-03-5.08158E-14
 -1      4160 1.29142E-02 1.90187E-03-5.01368E-14
 -1      4161 1.89499E-03 3.16404E-05-2.29310E-15
 -1      4162 1.31639E-02 1.94266E-03-4.93709E-14
 -1      4163 5.28037E-03 1.24206E-04-1.41493E-14
 -1      4164 5.13689E-03 1.23630E-04-1.34664E-14
 -1      4165 5.06506E-03 8.54845E-05-1.31777E-14
 -1      4166 5.35231E-03 8.67308E-05-1.45461E-14
 -1      4167 4.12911E-03 1.22467E-04-9.07324E-15
 -1      4168 3.98304E-03 1.22466E-04-8.49846E-15
 -1      4169 3.91012E-03 8.42270E-05-8.25882E-15
 -1      4170 4.20062E-03 8.43009E-05-9.40280E-15
 -1      4171 7.84000E-03 1.11655E-05-2.78180E-14
 -1      4172 2.37462E-03 1.16467E-04-3.35004E-15
 -1      4173 2.22577E-03 1.14502E-04-2.98805E-15
 -1      4174 1.27465E-02 1.94175E-03-5.20142E-14
 -1      4175 1.29032E-02 2.06672E-03-5.29246E-14
 -1      4176 2.12085E-03 1.13959E-04-2.74313E-15
 -1      4177 1.99433E-03 1.11613E-04-2.46209E-15
 -1      4178 1.98366E-03 7.89290E-05-2.45926E-15
 -1      4179 2.19339E-03 7.93623E-05-2.93527E-15
 -1      4180 3.25700E-03 1.21881E-04-5.89944E-15
 -1      4181 3.11013E-03 1.21504E-04-5.42783E-15
 -1      4182 3.32838E-03 8.38509E-05-6.17163E-15
 -1      4183 7.82048E-03 6.28944E-05-2.76937E-14
 -1      4184 7.63451E-03 6.29279E-05-2.67264E-14
 -1      4185 1.29358E-02 2.20041E-03-5.48091E-14
 -1      4186 1.30815E-02 2.31914E-03-5.56068E-14
 -1      4187 1.32140E-02 2.37985E-03-5.56316E-14
 -1      4188 1.29781E-02 2.18173E-03-5.42220E-14
 -1      4189 2.02126E-03-6.17612E-05-2.59383E-15
 -1      4190 2.16571E-03-7.20832E-05-2.92760E-15
 -1      4191 2.23732E-03-3.68283E-05-3.09178E-15
 -1      4192 2.02037E-03-2.23342E-05-2.58341E-15
 -1      4193 2.59840E-03 1.55925E-04-3.89806E-15
 -1      4194 1.29297E-02 1.99646E-03-5.15902E-14
 -1      4195 1.28103E-02 1.94360E-03-5.15619E-14
 -1      4196 7.45422E-03 1.34035E-04-2.57552E-14
 -1      4197 3.07315E-03-4.61553E-05-5.42903E-15
 -1      4198 1.34469E-02 2.31383E-03-5.32572E-14
 -1      4199 1.33403E-02 2.21151E-03-5.23763E-14
 -1      4200 1.33475E-02 2.43980E-03-5.56557E-14
 -1      4201 1.34819E-02 2.49876E-03-5.56820E-14
 -1      4202 1.32311E-02 2.34136E-03-5.49540E-14
 -1      4203 1.36142E-02 2.52077E-03-5.52236E-14
 -1      4204 1.26023E-02 1.83184E-03-5.12397E-14
 -1      4205 1.30852E-02 1.95676E-03-4.99872E-14
 -1      4206 1.99966E-03 3.12031E-05-2.51883E-15
 -1      4207 2.66892E-03 1.19269E-04-4.12406E-15
 -1      4208 2.52176E-03 1.18040E-04-3.72734E-15
 -1      4209 2.44559E-03 8.04939E-05-3.55713E-15
 -1      4210 3.63620E-03 1.89041E-05-7.29720E-15
 -1      4211 3.78095E-03 1.89700E-05-7.82957E-15
 -1      4212 3.92645E-03 1.90278E-05-8.38233E-15
 -1      4213 4.07092E-03 1.91085E-05-8.94700E-15
 -1      4214 4.21617E-03 1.91970E-05-9.53099E-15
 -1      4215 4.36040E-03 1.93212E-05-1.01262E-14
 -1      4216 4.50452E-03 1.94729E-05-1.07367E-14
 -1      4217 4.64855E-03 1.96803E-05-1.13620E-14
 -1      4218 4.79250E-03 1.99432E-05-1.20009E-14
 -1      4219 4.93640E-03 2.02916E-05-1.26559E-14
 -1      4220 5.08024E-03 2.07359E-05-1.33242E-14
 -1      4221 5.22407E-03 2.13107E-05-1.40051E-14
 -1      4222 5.36789E-03 2.20398E-05-1.47001E-14
 -1      4223 5.51173E-03 2.29655E-05-1.54076E-14
 -1      4224 5.66281E-03 2.41937E-05-1.61633E-14
 -1      4225 5.80679E-03 2.56566E-05-1.68963E-14
 -1      4226 5.95089E-03 2.74759E-05-1.76410E-14
 -1      4227 6.09519E-03 2.97027E-05-1.83967E-14
 -1      4228 6.23971E-03 3.24351E-05-1.91634E-14
 -1      4229 6.38460E-03 3.57125E-05-1.99390E-14
 -1      4230 6.52990E-03 3.96747E-05-2.07239E-14
 -1      4231 6.67584E-03 4.43132E-05-2.15177E-14
 -1      4232 6.82986E-03 5.01142E-05-2.23600E-14
 -1      4233 6.97767E-03 5.63615E-05-2.31693E-14
 -1      4234 7.12673E-03 6.36007E-05-2.39845E-14
 -1      4235 7.27761E-03 7.12419E-05-2.48068E-14
 -1      4236 7.43070E-03 7.98886E-05-2.56348E-14
 -1      4237 1.35060E-02 2.41457E-03-5.43518E-14
 -1      4238 1.30767E-02 2.07129E-03-5.18175E-14
 -1      4239 1.30960E-02 2.12658E-03-5.25623E-14
 -1      4240 2.46855E-03 1.79322E-05-3.65319E-15
 -1      4241 2.61404E-03 1.81647E-05-4.04261E-15
 -1      4242 1.33018E-02 2.29935E-03-5.38865E-14
 -1      4243 1.31810E-02 2.08521E-03-5.14050E-14
 -1      4244 1.30745E-02 1.99838E-03-5.06934E-14
 -1      4245 3.00018E-03-8.13309E-06-5.18217E-15
 -1      4246 3.14551E-03-8.12581E-06-5.63964E-15
 -1      4247 2.96315E-03 1.20963E-04-4.97435E-15
 -1      4248 2.81607E-03 1.20239E-04-4.53961E-15
 -1      4249 2.74009E-03 8.22429E-05-4.35334E-15
 -1      4250 3.03444E-03 8.32958E-05-5.22537E-15
 -1      4251 3.34629E-03 1.87794E-05-6.28343E-15
 -1      4252 3.49132E-03 1.88523E-05-6.78212E-15
 -1      4253 2.10782E-03 2.50265E-05-2.76421E-15
 -1      4254 1.31611E-02 2.22543E-03-5.36616E-14
 -1      4255 1.31136E-02 2.24339E-03-5.42491E-14
 -1      4256 2.76136E-03 1.83378E-05-4.45614E-15
 -1      4257 2.90682E-03 1.84893E-05-4.88273E-15
 -1      4258 3.19933E-03 1.87128E-05-5.79680E-15
 -1      4259 2.32131E-03 1.76641E-05-3.27817E-15
 -1      4260 2.21284E-03 2.42806E-05-3.01075E-15
 -1      4261 2.98005E-03 5.64792E-05-5.07880E-15
 -1      4262 3.12716E-03 5.67368E-05-5.53733E-15
 -3
    1PSTEP                         2           1           1          
  100CL  101 1.000000000        4262                     0    1           1
 -4  STRESS      6    1
 -5  SXX         1    4    1    1
 -5  SYY         1    4    2    2
 -5  SZZ         1    4    3    3
 -5  SXY         1    4    1    2
 -5  SYZ         1    4    2    3
 -5  SZX         1    4    3    1
 -1         1 5.14576E+01 9.88472E+00 2.62943E+00 2.16311E+01-4.12226E-13-8.82794E-13
 -1         2-7.17365E-01-2.83015E+01-3.39596E+00-1.56928E-01-9.18154E-14 1.01547E-13
 -1         3 1.99991E+01-7.00631E-04 2.07426E-03-6.25164E-04 8.66647E-14 2.82378E-13
 -1         4 2.00012E+01 1.46600E-03-6.09081E-03-1.50788E-03-1.52606E-13 3.40941E-13
 -1         5 3.27683E+01 6.14274E+00 2.74195E+00 6.22390E+00-2.86160E-14 2.04427E-12
 -1         6 3.57516E+01 1.22630E+01 5.12481E+00-8.64603E+00-1.31339E-13 1.80511E-12
 -1         7 2.08209E+01 6.10029E+00-1.28423E-01-4.72444E+00-1.95538E-14 2.14072E-13
 -1         8 1.96737E+01 5.93553E+00 5.10579E-02-3.27322E+00-2.10318E-14-2.54964E-13
 -1         9 1.91387E+01 5.77233E+00 4.92029E-02-2.52479E+00-1.94792E-14-5.05684E-13
 -1        10 1.88954E+01 5.69222E+00 5.09721E-02-1.94945E+00-1.29749E-14-6.14068E-13
 -1        11 1.87733E+01 5.65112E+00 5.02622E-02-1.45460E+00-9.17018E-15-6.59340E-13
 -1        12 1.87091E+01 5.62929E+00 4.87695E-02-1.01393E+00-3.03945E-15-6.70190E-13
 -1        13 1.86749E+01 5.61767E+00 4.73521E-02-5.94574E-01-1.15023E-15-6.63205E-13
 -1        14 1.86606E+01 5.61275E+00 4.66179E-02-1.90956E-01 2.55601E-15-6.44899E-13
 -1        15 1.86611E+01 5.61292E+00 4.66614E-02 2.07905E-01 7.13318E-15-6.29495E-13
 -1        16 1.86765E+01 5.61817E+00 4.74929E-02 6.12375E-01 1.04925E-14-6.18077E-13
 -1        17 1.87118E+01 5.63003E+00 4.90267E-02 1.03371E+00 1.19811E-14-5.81445E-13
 -1        18 1.87773E+01 5.65226E+00 5.07858E-02 1.47746E+00 1.36401E-14-5.32587E-13
 -1        19 1.89015E+01 5.69400E+00 5.16863E-02 1.97832E+00 1.97056E-14-4.30911E-13
 -1        20 1.91444E+01 5.77498E+00 4.91720E-02 2.56224E+00 2.65291E-14-2.61037E-13
 -1        21 1.96687E+01 5.95003E+00 4.59033E-02 3.30737E+00 2.80539E-14 5.56118E-14
 -1        22 2.12033E+01 6.38195E+00 1.39599E-01 4.52196E+00 3.62210E-15 6.71957E-13
 -1        23 2.30317E+01-1.37935E+00-9.38378E-01-7.10882E-01-8.94944E-14 1.35364E-12
 -1        24 1.93706E+01-9.94869E-02-3.09813E-01 6.32487E-02-2.99838E-14 9.61661E-13
 -1        25 1.86837E+01-5.63284E-02-6.88129E-02 6.07446E-02-2.72850E-15 6.06461E-13
 -1        26 1.84827E+01-2.21038E-02-6.51027E-03 3.30136E-02-7.56589E-15 3.31166E-13
 -1        27 1.84959E+01-1.18156E-02 1.56190E-03 2.26436E-02-1.12728E-14 2.03160E-13
 -1        28 1.86120E+01-6.25423E-03 1.75755E-03 1.63551E-02-1.68333E-15 1.14852E-13
 -1        29 1.87742E+01-3.09891E-03 1.69177E-03 1.22278E-02 1.54655E-14 3.65159E-16
 -1        30 1.89511E+01-1.24001E-03 1.87272E-03 9.29736E-03-9.96611E-15-1.37996E-13
 -1        31 1.91251E+01-1.36716E-04 2.03475E-03 7.10536E-03-4.42908E-15-3.60204E-13
 -1        32 1.92862E+01 5.02823E-04 2.07041E-03 5.42137E-03-1.24338E-14-5.06315E-13
 -1        33 1.94296E+01 8.50683E-04 1.98891E-03 4.11678E-03-4.47134E-15-5.89995E-13
 -1        34 1.95532E+01 1.01671E-03 1.83194E-03 3.11045E-03-8.43442E-16-5.17200E-13
 -1        35 1.96569E+01 1.07602E-03 1.64094E-03 2.34526E-03-2.10500E-14-6.11316E-13
 -1        36 1.97417E+01 1.08351E-03 1.45103E-03 1.77723E-03-6.84784E-15-6.62564E-13
 -1        37 1.98088E+01 1.08245E-03 1.29305E-03 1.36976E-03 5.38323E-15-6.35155E-13
 -1        38 1.98592E+01 1.11018E-03 1.19757E-03 1.08955E-03-3.69276E-14-5.76949E-13
 -1        39 1.98935E+01 1.20221E-03 1.19925E-03 9.02176E-04 7.15995E-15-7.36619E-13
 -1        40 1.99109E+01 1.39469E-03 1.34081E-03 7.66346E-04-1.05172E-14-5.36066E-13
 -1        41 1.99091E+01 1.72484E-03 1.67552E-03 6.25987E-04-3.94841E-15-7.09650E-13
 -1        42 1.98834E+01 2.22792E-03 2.26599E-03 4.00120E-04 5.87997E-15-9.07151E-13
 -1        43 1.98262E+01 2.92886E-03 3.17542E-03-2.82368E-05-6.34267E-14-1.01999E-12
 -1        44 1.97263E+01 3.82669E-03 4.44644E-03-8.20471E-04 7.95807E-14-8.34075E-13
 -1        45 1.95686E+01 4.87073E-03 6.06255E-03-2.18054E-03-3.33576E-14-7.46839E-13
 -1        46 1.93349E+01 5.93117E-03 7.89142E-03-4.33079E-03-5.01769E-16-9.54991E-13
 -1        47 1.90054E+01 6.77290E-03 9.62069E-03-7.45090E-03-1.94490E-14-7.73045E-13
 -1        48 1.85625E+01 7.05055E-03 1.07159E-02-1.15707E-02 4.26039E-14-5.41564E-13
 -1        49 1.79970E+01 6.34906E-03 1.04498E-02-1.64269E-02 7.25055E-14-5.33714E-13
 -1        50 1.73158E+01 4.29217E-03 8.06233E-03-2.13305E-02-7.45546E-14-6.38109E-13
 -1        51 1.65496E+01 7.16379E-04 3.07227E-03-2.51353E-02-5.93996E-15-5.26180E-13
 -1        52 1.57578E+01-4.13946E-03-4.32663E-03-2.64217E-02 2.73991E-15-3.26399E-13
 -1        53 1.50250E+01-9.53241E-03-1.29905E-02-2.39475E-02-4.58342E-14-4.26310E-13
 -1        54 1.44482E+01-1.43160E-02-2.09346E-02-1.72504E-02-4.04532E-14-7.76461E-13
 -1        55 1.41153E+01-1.72765E-02-2.59438E-02-7.09419E-03-2.88184E-14-1.15686E-12
 -1        56 1.40816E+01-1.75890E-02-2.64728E-02 4.57635E-03 1.71783E-14-1.16143E-12
 -1        57 1.43528E+01-1.51651E-02-2.23539E-02 1.52594E-02 1.05902E-13-7.95975E-13
 -1        58 1.48836E+01-1.06918E-02-1.48794E-02 2.28194E-02-1.73351E-14-9.79037E-13
 -1        59 1.55916E+01-5.33751E-03-6.19804E-03 2.62143E-02 9.70003E-15-8.88923E-13
 -1        60 1.63797E+01-2.98894E-04 1.58971E-03 2.56668E-02 1.40666E-14-8.38343E-13
 -1        61 1.71594E+01 3.57641E-03 7.13147E-03 2.23000E-02 7.64184E-14-5.22807E-13
 -1        62 1.78656E+01 5.94240E-03 1.00380E-02 1.75417E-02-6.12232E-14-4.71983E-13
 -1        63 1.84619E+01 6.88989E-03 1.06736E-02 1.26264E-02-1.83831E-14-2.61404E-13
 -1        64 1.89369E+01 6.76748E-03 9.77070E-03 8.35251E-03-7.37561E-14-1.69247E-13
 -1        65 1.92976E+01 5.99883E-03 8.09120E-03 5.07138E-03-6.90084E-14-1.35880E-13
 -1        66 1.95607E+01 4.95912E-03 6.23897E-03 2.80426E-03 3.88009E-15-1.69238E-13
 -1        67 1.97459E+01 3.92091E-03 4.61602E-03 1.38038E-03 1.04015E-13 2.83203E-13
 -1        68 1.98716E+01 3.04739E-03 3.46716E-03 5.34262E-04 2.77157E-14 8.19033E-13
 -1        69 1.99522E+01 2.40667E-03 2.88914E-03-6.59737E-05 1.12894E-15 6.78539E-13
 -1        70 1.99963E+01 1.71505E-03 2.45431E-03-1.00657E-03 6.44295E-14 1.04348E-12
 -1        71 2.00067E+01-3.92948E-05-2.54093E-04-2.45226E-03 9.66655E-14 1.10319E-12
 -1        72 2.10444E+01-4.05115E-01-9.80580E-01-3.11713E-01 3.17073E-14 1.85855E-12
 -1        73 1.93349E+01-6.59739E-02-2.90824E-01-5.40140E-02 1.66507E-14 1.41311E-12
 -1        74 1.86932E+01-2.04030E-02-6.36779E-02-2.04565E-02 2.10682E-15 1.12021E-12
 -1        75 1.84920E+01-9.87097E-03-8.99136E-03-1.53499E-02 1.48290E-14 9.09007E-13
 -1        76 1.85049E+01-5.32887E-03 4.51328E-04-1.18837E-02 7.14733E-15 7.38447E-13
 -1        77 1.86265E+01-2.45492E-03 1.70981E-03-1.03438E-02 9.94165E-15 4.68753E-13
 -1        78 1.87894E+01-1.09417E-03 1.87169E-03-8.32493E-03 5.06137E-15 4.35189E-13
 -1        79 1.89651E+01-2.47898E-04 2.05950E-03-6.92223E-03-6.56479E-15 3.61802E-13
 -1        80 1.91370E+01 2.45745E-04 2.20215E-03-5.72147E-03 1.27702E-14 3.45403E-13
 -1        81 1.92956E+01 5.32059E-04 2.22077E-03-4.68102E-03-2.96918E-15 2.22667E-13
 -1        82 1.94362E+01 6.44266E-04 2.14679E-03-3.82679E-03 2.65414E-14-9.56331E-15
 -1        83 1.95615E+01 6.70739E-04 1.93783E-03-2.97775E-03-2.77302E-15-7.61232E-14
 -1        84 1.96606E+01 6.71394E-04 1.75908E-03-2.31241E-03-6.11372E-15-5.39327E-14
 -1        85 1.97405E+01 6.08503E-04 1.54798E-03-1.74785E-03-2.18112E-14-1.29652E-13
 -1        86 1.98033E+01 5.13498E-04 1.34099E-03-1.23810E-03 9.77508E-15-1.43051E-13
 -1        87 1.98510E+01 3.63493E-04 1.13728E-03-7.74560E-04 5.47886E-14-2.64777E-13
 -1        88 1.98876E+01 1.14584E-04 8.53084E-04-1.65448E-04-2.92672E-14-2.25492E-13
 -1        89 1.99137E+01-2.56809E-04 4.94724E-04 4.87695E-04 1.72759E-14-6.34404E-14
 -1        90 1.99368E+01-8.97908E-04-1.18511E-04 1.38628E-03 1.94599E-14 1.17874E-15
 -1        91 1.99662E+01-1.99585E-03-1.24617E-03 2.68117E-03 6.51443E-15-8.65424E-14
 -1        92 2.00183E+01-3.89821E-03-3.39124E-03 4.60253E-03 7.99545E-16 7.53266E-15
 -1        93 2.01222E+01-7.41882E-03-7.56356E-03 7.97207E-03-6.72829E-15-1.10695E-13
 -1        94 2.03479E+01-1.22853E-02-1.61457E-02 1.10471E-02-3.63347E-14 5.16149E-14
 -1        95 2.07756E+01-2.15423E-02-3.30244E-02 1.56766E-02-2.70530E-14 2.98913E-13
 -1        96 2.15910E+01-3.48348E-02-6.59560E-02 1.85591E-02 3.91126E-14 1.94502E-13
 -1        97 2.31067E+01-5.19722E-02-1.26319E-01 1.25405E-02-6.85649E-15 3.18912E-13
 -1        98 2.58496E+01-7.20186E-02-2.16998E-01-1.58956E-02 6.44788E-14 3.49089E-13
 -1        99 3.08732E+01-5.31916E-02-2.59385E-01-1.59120E-01-1.88929E-14 1.35933E-13
 -1       100 3.84080E+01 3.27828E-02-4.83463E-03-4.46918E-01-5.24910E-14 6.10595E-13
 -1       101 4.70207E+01 3.20087E-01 8.36542E-01-7.87751E-01-7.23744E-14 5.13076E-13
 -1       102 5.34874E+01 1.92838E-02 1.73753E+00 2.08935E-01 3.61083E-15 1.06348E-12
 -1       103 4.72750E+01-2.10140E-01 4.42917E-01 2.30273E+00-1.68606E-13 1.08780E-12
 -1       104 3.00269E+01-1.56203E-01-3.10222E+00 3.66224E+00-7.68274E-14 1.55792E-12
 -1       105 1.47187E+01-1.29857E-01-6.72314E+00 1.62065E+00 9.88654E-14 1.59711E-12
 -1       106 1.61440E+01 6.41036E-02-6.49143E+00-1.38443E+00-1.05790E-13 1.48220E-12
 -1       107 3.40927E+01-1.19358E-01-2.17502E+00-1.90928E+00 1.69753E-13 7.05658E-13
 -1       108 4.85721E+01 1.01582E-01 9.76411E-01-1.02047E+00 4.16334E-17-2.80942E-13
 -1       109 5.30419E+01 1.08279E-01 1.68278E+00-5.25528E-02 3.89411E-14-1.07699E-12
 -1       110 4.76830E+01 5.76046E-02 8.41552E-01 3.41395E-01-7.28653E-14-6.27248E-13
 -1       111 3.89703E+01-1.11640E-02 8.31838E-03 3.10914E-01-2.03496E-14-2.18769E-13
 -1       112 3.09325E+01-3.06825E-02-2.63895E-01 1.68767E-01 4.47283E-14-3.40034E-13
 -1       113 2.60688E+01-3.47183E-02-2.23668E-01 7.92997E-02-2.18488E-14-7.84511E-13
 -1       114 2.32447E+01-2.61881E-02-1.35331E-01 3.39490E-02 7.89377E-14-4.31415E-13
 -1       115 2.16779E+01-1.71725E-02-7.18184E-02 1.34981E-02-1.42059E-14-3.38018E-13
 -1       116 2.08346E+01-1.05430E-02-3.63276E-02 4.71036E-03 8.51986E-14-2.68479E-13
 -1       117 2.03927E+01-6.14489E-03-1.81819E-02 1.56407E-03-1.57799E-13-2.34561E-13
 -1       118 2.01640E+01-3.36759E-03-8.27640E-03-4.59715E-04 7.10999E-14 1.82912E-13
 -1       119 2.00623E+01-1.88032E-03-3.87360E-03-5.96557E-04-3.72562E-14 9.73716E-13
 -1       120 2.00173E+01-1.00635E-03-1.72337E-03-5.49956E-04 6.84747E-15 1.14315E-12
 -1       121 1.99999E+01-5.06330E-04-7.88091E-04-4.23837E-04-1.66409E-13 3.58317E-13
 -1       122 1.99967E+01-6.66885E-05 1.65116E-04-6.71343E-04-1.00582E-13 1.62004E-13
 -1       123 1.99998E+01-2.94087E-03-2.78930E-04-7.09039E-04-5.82666E-14-1.39047E-13
 -1       124 1.99999E+01 3.57994E-03-7.75629E-04 4.63657E-04-1.40951E-12-2.83571E-13
 -1       125 2.00003E+01 1.78482E-02 3.37193E-04 1.21063E-03 2.28752E-13 5.56330E-13
 -1       126 2.00006E+01 2.63716E-02 1.62978E-03 1.15888E-03 3.73280E-13 3.78396E-13
 -1       127 2.00006E+01 1.66459E-02 2.18809E-03 4.62995E-04 2.82398E-13-2.09227E-13
 -1       128 2.00003E+01-1.52779E-02 1.79066E-03-4.28799E-04-7.90368E-13-1.06188E-13
 -1       129 1.99998E+01-6.56947E-02 6.18029E-04-1.23667E-03-2.08368E-13 2.09648E-13
 -1       130 1.99993E+01-1.21897E-01-8.52288E-04-1.60864E-03 1.27407E-12-4.53096E-14
 -1       131 1.99989E+01-1.68577E-01-2.11413E-03-1.43695E-03 6.66634E-13-1.67528E-13
 -1       132 1.99987E+01-1.92637E-01-2.77334E-03-7.87762E-04 8.45233E-13 8.34425E-14
 -1       133 1.99988E+01-1.87164E-01-2.62440E-03 1.58376E-04 9.33090E-13 6.26527E-14
 -1       134 1.99992E+01-1.54278E-01-1.70725E-03 1.02678E-03 5.71900E-13 1.25719E-13
 -1       135 1.99998E+01-1.02055E-01-1.31079E-04 1.68258E-03 5.03580E-13-1.31321E-13
 -1       136 2.00004E+01-4.61627E-02 1.70884E-03 1.76350E-03-8.75330E-13-9.22985E-14
 -1       137 2.00002E+01-5.47097E-03 2.41697E-03 7.47919E-04-1.74293E-12-4.11146E-14
 -1       138 2.00005E+01 5.51173E-03-7.01024E-05-3.56843E-03-1.45205E-12-8.07507E-14
 -1       139-1.97546E+00-2.91714E+01-3.73937E+00-5.90154E+00-7.15300E-13-1.54401E-13
 -1       140-4.68575E+00-2.17001E+01-3.95953E+00-9.00101E+00-9.33975E-14 1.01988E-13
 -1       141-4.70078E+00-9.65194E+00-3.91318E+00-5.86034E+00 1.28453E-13-2.38809E-13
 -1       142 5.42643E+00 2.14651E+00-2.90110E+00 4.21144E+00 4.59410E-13 7.28861E-13
 -1       143 3.27138E+01 7.97739E+00 5.38562E-01 1.62413E+01 3.61933E-13 7.17426E-13
 -1       144 7.56262E+01 4.94298E+00 6.28207E+00 1.70717E+01 1.53211E-14-1.25455E-13
 -1       145 1.05908E+02 4.32584E+00 1.16418E+01 7.15135E+00 1.12632E-13-1.09623E-12
 -1       146 1.00059E+02 3.39393E+00 1.03294E+01-1.31593E+01 1.19982E-13-1.51090E-12
 -1       147 6.01047E+01 7.79444E+00 4.35790E+00-2.02730E+01 2.54408E-13-7.00551E-13
 -1       148 2.30472E+01 7.15620E+00-7.47384E-01-1.32376E+01 3.03757E-13-3.66929E-13
 -1       149 5.21113E-01-1.07301E+00-3.35754E+00-4.75087E-01 4.21219E-13-4.00902E-13
 -1       150-5.27446E+00-1.30115E+01-3.96525E+00 7.51361E+00 7.01827E-13-4.18193E-13
 -1       151-3.98151E+00-2.43755E+01-3.91441E+00 8.78887E+00 1.05665E-13-1.99819E-13
 -1       152-1.34483E+00-2.98967E+01-3.66280E+00 4.19203E+00-9.83214E-13 4.91551E-14
 -1       153-8.01220E-01-2.56489E+01-3.20832E+00-1.70509E+00-1.17911E-12-8.14626E-14
 -1       154-1.31493E+00-1.34964E+01-2.45695E+00-3.34471E+00-9.77718E-13-3.17746E-13
 -1       155 7.03644E-01 3.59889E-01-1.45460E+00 1.09062E+00-1.28253E-12-8.30669E-13
 -1       156 1.01049E+01 1.12645E+01-1.14692E-01 1.06671E+01-1.53044E-12-1.32594E-12
 -1       157 2.83513E+01 1.42722E+01 1.33029E+00 1.97290E+01-1.01374E-12-1.19998E-12
 -1       158 6.86674E+01 3.75416E+00 3.41426E+00 1.40441E+01 3.16414E-15-1.39444E-13
 -1       159 7.57035E+01 9.34816E-01 3.70245E+00 5.80010E-01-4.21989E-14 3.48905E-13
 -1       160 7.03011E+01 3.09490E+00 3.46287E+00-1.27270E+01 3.80702E-14 1.12521E-13
 -1       161 5.44032E+01 8.90674E+00 2.75339E+00-2.10651E+01-1.75998E-13 8.14904E-14
 -1       162 3.36754E+01 1.37818E+01 1.65635E+00-2.11098E+01-6.02851E-14 2.32869E-13
 -1       163 1.59298E+01 1.35331E+01 4.20040E-01-1.45605E+01 9.06497E-14-2.50688E-13
 -1       164 4.08940E+00 6.39131E+00-8.37995E-01-5.31514E+00-9.10383E-15 2.50744E-13
 -1       165-7.74930E-01-5.89231E+00-1.94129E+00 1.67806E+00 6.72351E-13-5.34017E-14
 -1       166-1.17403E+00-1.92187E+01-2.81516E+00 3.29940E+00 8.95006E-13-3.82111E-13
 -1       167 2.10158E+01 3.69386E+00-5.73315E-02-3.60881E+00-2.76952E-13-2.47719E-14
 -1       168 1.99926E+01 4.20790E+00-4.57185E-02-2.80770E+00-2.45905E-13-3.09284E-13
 -1       169 1.95096E+01 4.47738E+00-3.15788E-02-2.19269E+00-1.94690E-13-4.71489E-13
 -1       170 1.92674E+01 4.61540E+00-2.37232E-02-1.67393E+00-1.39676E-13-5.47955E-13
 -1       171 1.91362E+01 4.69721E+00-1.94843E-02-1.21776E+00-8.69593E-14-5.67827E-13
 -1       172 1.90615E+01 4.74831E+00-1.74103E-02-7.91131E-01-4.49811E-14-5.73191E-13
 -1       173 1.90239E+01 4.77618E+00-1.64122E-02-3.86425E-01 3.76942E-15-5.50262E-13
 -1       174 1.90129E+01 4.78470E+00-1.61227E-02 8.23598E-03 5.27511E-14-5.41860E-13
 -1       175 1.90256E+01 4.77487E+00-1.64567E-02 4.03245E-01 9.70578E-14-5.26901E-13
 -1       176 1.90653E+01 4.74529E+00-1.75126E-02 8.09070E-01 1.32899E-13-5.12103E-13
 -1       177 1.91405E+01 4.69284E+00-1.96813E-02 1.23026E+00 1.78389E-13-4.67687E-13
 -1       178 1.92768E+01 4.60582E+00-2.39702E-02 1.69668E+00 2.23133E-13-3.98405E-13
 -1       179 1.95252E+01 4.45982E+00-3.25717E-02 2.22413E+00 2.73152E-13-2.80552E-13
 -1       180 2.00143E+01 4.18419E+00-4.71831E-02 2.84629E+00 3.04329E-13-6.85493E-14
 -1       181 2.11373E+01 3.46343E+00-6.00539E-02 3.53495E+00 2.79133E-13 3.04590E-13
 -1       182 2.24219E+01 1.14331E+00-3.36560E-01 3.01388E+00 2.07904E-13 8.09935E-13
 -1       183 2.19745E+01 8.58135E-01 6.61054E-04-1.95797E+00-2.42278E-13 3.32113E-13
 -1       184 2.04509E+01 1.90201E-01-9.99447E-03-7.63184E-01-1.99561E-13 2.35012E-13
 -1       185 1.96764E+01 1.01762E-01 1.35499E-02-2.84508E-01-1.53331E-13 1.35834E-13
 -1       186 1.93379E+01 4.72449E-02 1.00027E-02-6.66152E-02-9.24853E-14 4.97497E-14
 -1       187 1.92096E+01 2.26604E-02 5.16425E-03 4.08697E-02-6.73000E-14 8.76534E-15
 -1       188 1.91977E+01 9.64744E-03 2.43544E-03 9.37686E-02-9.72420E-14-1.88105E-14
 -1       189 1.92481E+01 2.25794E-03 1.13079E-03 1.16463E-01-1.01028E-13-1.18503E-13
 -1       190 1.93293E+01-1.98334E-03 4.94169E-04 1.21691E-01-9.77303E-14-1.75687E-13
 -1       191 1.94223E+01-4.30894E-03 1.55191E-04 1.16825E-01-8.83981E-14-1.69383E-13
 -1       192 1.95160E+01-5.42881E-03-3.76249E-05 1.06412E-01-6.40635E-14-1.58721E-13
 -1       193 1.96037E+01-5.79604E-03-1.48554E-04 9.33107E-02-1.03998E-14-2.45542E-13
 -1       194 1.96820E+01-5.72142E-03-2.10724E-04 7.92863E-02-5.07762E-14-3.13001E-13
 -1       195 1.97490E+01-5.43103E-03-2.45116E-04 6.53382E-02-1.21774E-14-2.80662E-13
 -1       196 1.98040E+01-5.10090E-03-2.66995E-04 5.18987E-02 3.13307E-15-2.28110E-13
 -1       197 1.98467E+01-4.88151E-03-2.88544E-04 3.89446E-02 9.15503E-15-2.71542E-13
 -1       198 1.98768E+01-4.91742E-03-3.20232E-04 2.60488E-02-1.04157E-14-2.83265E-13
 -1       199 1.98936E+01-5.36308E-03-3.71468E-04 1.23844E-02 7.05554E-14-2.70389E-13
 -1       200 1.98953E+01-6.39307E-03-4.50552E-04-3.30464E-03-9.87005E-14-3.37691E-13
 -1       201 1.98789E+01-8.20165E-03-5.63722E-04-2.27437E-02-1.37097E-13-4.27286E-13
 -1       202 1.98397E+01-1.09828E-02-7.13078E-04-4.81398E-02-5.41667E-14-4.74016E-13
 -1       203 1.97710E+01-1.48777E-02-8.93294E-04-8.21016E-02 6.03367E-14-4.15705E-13
 -1       204 1.96637E+01-1.98768E-02-1.08751E-03-1.27368E-01 6.83481E-16-5.74825E-13
 -1       205 1.95069E+01-2.56687E-02-1.26353E-03-1.86229E-01-9.15804E-15-3.88009E-13
 -1       206 1.92885E+01-3.14531E-02-1.37283E-03-2.59530E-01 1.20508E-13-2.23223E-13
 -1       207 1.89974E+01-3.57814E-02-1.35487E-03-3.45254E-01 8.40124E-14-1.75255E-13
 -1       208 1.86266E+01-3.65465E-02-1.14894E-03-4.36915E-01 1.25895E-14-3.02442E-13
 -1       209 1.81776E+01-3.12926E-02-7.15409E-04-5.22328E-01-2.80175E-14-3.41612E-13
 -1       210 1.76651E+01-1.79781E-02-5.71210E-05-5.83729E-01 1.58209E-14-3.62943E-13
 -1       211 1.71208E+01 3.85586E-03 7.64789E-04-6.00284E-01 3.81352E-14-3.54786E-13
 -1       212 1.65933E+01 3.19323E-02 1.63564E-03-5.53495E-01-4.10682E-14-3.98614E-13
 -1       213 1.61432E+01 6.08929E-02 2.41279E-03-4.34491E-01-2.17287E-13-3.07264E-13
 -1       214 1.58319E+01 8.34785E-02 2.96078E-03-2.50288E-01-2.48231E-13-3.17768E-13
 -1       215 1.57068E+01 9.31414E-02 3.18322E-03-2.53106E-02-1.32587E-14-3.82898E-13
 -1       216 1.57881E+01 8.68848E-02 3.04170E-03 2.03977E-01 2.36904E-13-2.60228E-13
 -1       217 1.60626E+01 6.66754E-02 2.56073E-03 3.99807E-01-3.41784E-14-4.17178E-13
 -1       218 1.64882E+01 3.85145E-02 1.82558E-03 5.34469E-01-6.88143E-16-4.12234E-13
 -1       219 1.70053E+01 9.75950E-03 9.65387E-04 5.97096E-01-2.29704E-14-5.78809E-13
 -1       220 1.75523E+01-1.36669E-02 1.25136E-04 5.93548E-01 1.12589E-13-4.73006E-13
 -1       221 1.80772E+01-2.87987E-02-5.71410E-04 5.40882E-01 1.48885E-14-4.96834E-13
 -1       222 1.85449E+01-3.55715E-02-1.05135E-03 4.60012E-01 7.47145E-14-3.80229E-13
 -1       223 1.89375E+01-3.57903E-02-1.30082E-03 3.69730E-01-2.44813E-16-3.48272E-13
 -1       224 1.92511E+01-3.19204E-02-1.35366E-03 2.83536E-01 4.37143E-14-2.01704E-13
 -1       225 1.94916E+01-2.62236E-02-1.26866E-03 2.09038E-01 3.76590E-14 1.60472E-13
 -1       226 1.96696E+01-2.03689E-02-1.10641E-03 1.48918E-01 4.33297E-13 3.43579E-13
 -1       227 1.97973E+01-1.53978E-02-9.10974E-04 1.02451E-01 2.85792E-13 4.12123E-13
 -1       228 1.98856E+01-1.18881E-02-6.97565E-04 6.69111E-02-2.83660E-15 3.10833E-13
 -1       229 1.99438E+01-9.97439E-03-4.68667E-04 3.86706E-02 1.38866E-13 3.14949E-13
 -1       230 1.99800E+01-9.71488E-03-3.40361E-04 1.48843E-02 1.73779E-13 6.03838E-13
 -1       231 2.09674E+01 2.77986E-01-5.07427E-02 1.16437E+00 2.12046E-13 6.97147E-13
 -1       232 1.98726E+01 1.27955E-01 8.88592E-03 4.42932E-01 1.44764E-13 5.39766E-13
 -1       233 1.93675E+01 5.76784E-02 1.27308E-02 1.49295E-01 1.23164E-13 3.98477E-13
 -1       234 1.91587E+01 2.80450E-02 7.49806E-03 9.64698E-03 1.09100E-13 2.99418E-13
 -1       235 1.91111E+01 1.25147E-02 3.69171E-03-6.19289E-02 1.13514E-13 2.36471E-13
 -1       236 1.91514E+01 4.91515E-03 1.82444E-03-9.32032E-02 6.30325E-14 1.33246E-13
 -1       237 1.92336E+01 4.78692E-04 9.65298E-04-1.04350E-01 4.41528E-14 6.80543E-14
 -1       238 1.93336E+01-2.04988E-03 5.20269E-04-1.03850E-01 3.06635E-14 2.32995E-14
 -1       239 1.94369E+01-3.41659E-03 2.59438E-04-9.67185E-02 7.92847E-14-6.57840E-16
 -1       240 1.95354E+01-4.01804E-03 1.09749E-04-8.61318E-02 1.07482E-13-4.93689E-14
 -1       241 1.96282E+01-4.19460E-03-2.04631E-06-7.34417E-02 2.20616E-15-9.91783E-14
 -1       242 1.97044E+01-4.02143E-03-4.88254E-05-6.11306E-02-3.85808E-14-7.45061E-14
 -1       243 1.97683E+01-3.71694E-03-7.15904E-05-4.94362E-02-5.11518E-15-6.52650E-14
 -1       244 1.98203E+01-3.29391E-03-6.85923E-05-3.88286E-02 6.42911E-14-9.73655E-14
 -1       245 1.98617E+01-2.77610E-03-3.57074E-05-2.96927E-02 2.61628E-14-4.16932E-14
 -1       246 1.98958E+01-2.02097E-03 2.20661E-05-2.22602E-02-5.03781E-14-6.11633E-14
 -1       247 1.99226E+01-9.54514E-04 1.34386E-04-1.81060E-02-5.13005E-14-8.42863E-14
 -1       248 1.99489E+01 7.94958E-04 3.14056E-04-1.85306E-02 4.02201E-14-1.43057E-13
 -1       249 1.99826E+01 3.84956E-03 6.06813E-04-2.66642E-02 4.18313E-14-2.36876E-13
 -1       250 2.00367E+01 9.31939E-03 1.07249E-03-4.82311E-02-1.14739E-14-2.64905E-13
 -1       251 2.01335E+01 1.89797E-02 1.82013E-03-9.31615E-02 6.40709E-15-1.72577E-13
 -1       252 2.03220E+01 3.79435E-02 2.64689E-03-1.85983E-01-9.88886E-14-3.14349E-14
 -1       253 2.06506E+01 7.04946E-02 3.41556E-03-3.51139E-01-8.09886E-14-1.29720E-13
 -1       254 2.12252E+01 1.27700E-01 2.37394E-03-6.44821E-01 3.84666E-14-8.22545E-14
 -1       255 2.21989E+01 2.24546E-01-3.60037E-03-1.15250E+00-3.09856E-14-6.27599E-14
 -1       256 2.37824E+01 3.75741E-01-1.64773E-02-1.98771E+00-1.67730E-14-3.37404E-14
 -1       257 2.63460E+01 5.58197E-01-2.06816E-02-3.30277E+00-2.88138E-14 2.55060E-13
 -1       258 2.97638E+01 5.58522E-01 5.89344E-02-4.75077E+00-1.43574E-13 4.44911E-13
 -1       259 3.34123E+01-1.22979E-01 2.38580E-01-5.24435E+00 3.01287E-14 3.50307E-13
 -1       260 3.77452E+01-2.48785E+00 2.78461E-01-2.26202E+00-2.46012E-13 2.57360E-13
 -1       261 4.46574E+01-1.91389E+00-3.25570E-02 6.71430E+00-2.69548E-13 3.33775E-13
 -1       262 4.86334E+01 3.51564E+00 2.01393E-01-1.22887E+00 1.08524E-13 5.43372E-13
 -1       263 4.42749E+01 1.60854E+00-5.87169E-01-7.89382E+00 4.41813E-13 2.70478E-14
 -1       264 4.40472E+01-2.11186E+00-5.44683E-02-6.66147E+00 5.62064E-13-1.69613E-13
 -1       265 4.26174E+01-2.44834E+00 4.56391E-01-1.14285E+00 1.72397E-13-3.61003E-13
 -1       266 3.90104E+01-7.91650E-01 4.32808E-01 3.34581E+00-8.66529E-14 3.57422E-14
 -1       267 3.42506E+01 1.39927E-01 1.36181E-01 4.36971E+00-1.09791E-13-1.32352E-13
 -1       268 2.91678E+01 3.61842E-01-3.56804E-02 3.38769E+00 1.48810E-13-2.34382E-13
 -1       269 2.56221E+01 2.73741E-01-4.99210E-02 2.17378E+00 1.95823E-13-1.76650E-13
 -1       270 2.32769E+01 1.72692E-01-2.75486E-02 1.28215E+00-1.78104E-14-3.90865E-13
 -1       271 2.18373E+01 9.98467E-02-1.01331E-02 7.22428E-01-1.19953E-13-3.24435E-13
 -1       272 2.09931E+01 5.55626E-02-2.24399E-03 3.94244E-01-3.61343E-15-9.06843E-14
 -1       273 2.05151E+01 3.02213E-02 2.30329E-04 2.08715E-01-1.43265E-13 1.93241E-13
 -1       274 2.02461E+01 1.54463E-02 1.06931E-03 1.02808E-01 5.50558E-16-5.35056E-14
 -1       275 2.01144E+01 7.90836E-03 8.33392E-04 4.97279E-02-3.61536E-13 7.36803E-14
 -1       276 2.00485E+01 3.84488E-03 5.90129E-04 2.23576E-02 2.35538E-14 4.07973E-13
 -1       277 2.00176E+01 1.88275E-03 3.47098E-04 8.94880E-03 1.70192E-13 4.04631E-13
 -1       278 2.00048E+01 9.89594E-04 3.10271E-04 2.09614E-03 1.15542E-13-3.24847E-14
 -1       279 2.00017E+01 1.05457E-03 1.91277E-04 2.80242E-04-1.49095E-13-2.69610E-13
 -1       280 2.00018E+01 7.37405E-03-1.73064E-04 6.02333E-03-7.15554E-15-3.98475E-13
 -1       281 1.99995E+01 1.61748E-02-1.35432E-04 7.95836E-03-2.55581E-14 9.89638E-13
 -1       282 1.99970E+01 1.98302E-02 4.17352E-05 1.74912E-03 1.82528E-13 1.00671E-13
 -1       283 1.99957E+01 1.05522E-02 1.24803E-04-1.06539E-02-2.13806E-13-2.90722E-13
 -1       284 1.99961E+01-1.45017E-02 1.18354E-04-2.40280E-02-4.35874E-13-3.69166E-13
 -1       285 1.99981E+01-5.34841E-02 4.99829E-05-3.33113E-02 2.11393E-14 6.04079E-13
 -1       286 2.00008E+01-9.80552E-02-3.07423E-05-3.44088E-02 3.21468E-13 3.40838E-13
 -1       287 2.00033E+01-1.37498E-01-9.07225E-05-2.63434E-02 2.62623E-13-5.62689E-13
 -1       288 2.00049E+01-1.61968E-01-1.10096E-04-1.11118E-02 9.13698E-14 2.12869E-13
 -1       289 2.00051E+01-1.65450E-01-8.29191E-05 7.16101E-03 3.92320E-13 1.34761E-13
 -1       290 2.00038E+01-1.47910E-01-1.37928E-05 2.32118E-02 4.24277E-13-3.40278E-13
 -1       291 2.00013E+01-1.13794E-01 1.12238E-04 3.30471E-02 9.52384E-14-2.94151E-13
 -1       292 1.99980E+01-7.24541E-02 2.74433E-04 3.32674E-02-6.11541E-13-6.75423E-13
 -1       293 1.99956E+01-3.57702E-02 2.88250E-04 2.31610E-02-6.52068E-13-9.55647E-14
 -1       294-2.32800E+00-1.31186E+01-1.02680E+00-2.05880E+00 7.07628E-14-2.16188E-13
 -1       295-8.81593E-01-1.17717E+01-1.08448E+00-1.19456E-01 1.98966E-13 3.03590E-13
 -1       296 4.96326E+00-9.38509E+00-1.16433E+00 2.25139E+00 1.72196E-13 9.85739E-14
 -1       297 1.66148E+01-6.94417E+00-1.06656E+00 4.03341E+00 8.83182E-14 8.05217E-13
 -1       298 3.43251E+01-4.93592E+00-3.27110E-01 2.89331E+00 4.62852E-13 5.43843E-13
 -1       299 5.00350E+01-5.18515E-01 8.89155E-01-6.58268E-01 5.86121E-13-1.19904E-14
 -1       300 6.07938E+01 6.43542E+00 2.35514E+00 9.76925E-01 8.26561E-14 1.35267E-13
 -1       301 5.72626E+01 2.54418E+00 1.83932E+00 4.44328E+00-1.63369E-13-1.10467E-13
 -1       302 4.58756E+01-2.26582E+00 5.08110E-01-1.25317E+00-2.25653E-14-2.83107E-13
 -1       303 2.88290E+01-5.54540E+00-6.22290E-01-3.70137E+00 2.90878E-14 5.13478E-14
 -1       304 1.18784E+01-7.55585E+00-1.20544E+00-3.46286E+00 7.86038E-14 1.65257E-13
 -1       305 2.47063E+00-1.05873E+01-1.28017E+00-1.09269E+00 1.01780E-13-2.63276E-13
 -1       306-1.77854E+00-1.29799E+01-1.16645E+00 9.92150E-01-2.17326E-13-4.22717E-13
 -1       307-2.07865E+00-1.23073E+01-9.25012E-01 2.57164E+00-3.70926E-13-1.66478E-13
 -1       308 1.03655E+00-9.81124E+00-7.49284E-01 4.54580E+00-5.48284E-13-1.32852E-13
 -1       309 6.71202E+00-5.89279E+00-5.72760E-01 6.32792E+00-6.36324E-13-5.38833E-13
 -1       310 1.53289E+01-1.10750E+00-2.29143E-01 8.59147E+00-6.74849E-13-7.16344E-13
 -1       311 2.72674E+01 2.16501E+00 1.51389E-01 9.55177E+00-8.11351E-13-5.27106E-13
 -1       312 3.84869E+01 5.31962E+00 4.91848E-01 8.58851E+00-6.32668E-13-3.05589E-13
 -1       313 4.80470E+01 7.30037E+00 8.71592E-01 6.88891E+00-4.39385E-13-1.61121E-13
 -1       314 5.14320E+01 8.30096E+00 8.74490E-01 2.26523E+00-1.63425E-13-1.64979E-13
 -1       315 5.35567E+01 7.80903E+00 1.05420E+00-2.23105E+00 1.38195E-13-1.30881E-13
 -1       316 4.91575E+01 7.40953E+00 9.28931E-01-6.45808E+00 2.10804E-14-9.66727E-14
 -1       317 4.05248E+01 6.02809E+00 6.01469E-01-8.75055E+00 1.10387E-13-1.93123E-13
 -1       318 3.03720E+01 4.07064E+00 3.10907E-01-1.01812E+01 2.00368E-13 1.39222E-13
 -1       319 1.99537E+01 7.92486E-01-5.95039E-02-9.35264E+00 2.36589E-13-2.26347E-13
 -1       320 1.08112E+01-3.43817E+00-3.99900E-01-7.51439E+00 5.42788E-13 8.86097E-14
 -1       321 3.85471E+00-7.90707E+00-6.83842E-01-5.40575E+00 2.99538E-13 7.08808E-14
 -1       322-4.98359E-01-1.03359E+01-7.34683E-01-3.98997E+00 1.90736E-13-4.26714E-13
 -1       323 1.99905E+01-2.01554E-02-3.90957E-04 1.66029E-02-4.09222E-13 6.13862E-14
 -1       324 2.01465E+01 3.01536E+00-1.79503E-02-2.10788E+00-2.64137E-13-2.94939E-13
 -1       325 2.07584E+01 2.20814E+00-1.78654E-02-2.36167E+00-2.78586E-13-1.25558E-13
 -1       326 1.95832E+01 3.69269E+00-1.51178E-02-1.31502E+00-1.37129E-13-4.48733E-13
 -1       327 1.94585E+01 3.84965E+00-1.36044E-02-9.22347E-01-8.52409E-14-4.68871E-13
 -1       328 1.93888E+01 3.94053E+00-1.26847E-02-5.43143E-01-2.16773E-14-4.39219E-13
 -1       329 1.93580E+01 3.98189E+00-1.22785E-02-1.73036E-01 3.31494E-14-4.28337E-13
 -1       330 1.93594E+01 3.98026E+00-1.23012E-02 1.94084E-01 9.71672E-14-4.18783E-13
 -1       331 1.93931E+01 3.93529E+00-1.27532E-02 5.64550E-01 1.35005E-13-4.12221E-13
 -1       332 1.94646E+01 3.84182E+00-1.37770E-02 9.38053E-01 1.91767E-13-3.83714E-13
 -1       333 1.95925E+01 3.67914E+00-1.57062E-02 1.33198E+00 2.40959E-13-3.17850E-13
 -1       334 1.98083E+01 3.41031E+00-1.90796E-02 1.73748E+00 2.93781E-13-2.40223E-13
 -1       335 2.01763E+01 2.95123E+00-2.33400E-02 2.12264E+00 3.32484E-13-1.08473E-13
 -1       336 2.07628E+01 2.10572E+00-2.95044E-02 2.30527E+00 3.29865E-13 1.14192E-13
 -1       337 2.10960E+01 1.18643E+00-2.40590E-02 1.91364E+00 2.81565E-13 3.51152E-13
 -1       338 2.03852E+01 4.92053E-01 8.68482E-03 9.20613E-01 2.26209E-13 2.47179E-13
 -1       339 2.04612E+01 6.75887E-01 1.23960E-02-1.02356E+00-2.13247E-13-8.50451E-14
 -1       340 2.00407E+01 3.37085E-01 7.15048E-03-4.55720E-01-1.71223E-13-9.45219E-14
 -1       341 1.97872E+01 1.76817E-01 4.13001E-03-1.46465E-01-1.13715E-13-1.22081E-13
 -1       342 1.96526E+01 9.09018E-02 1.89784E-03 2.51159E-02-1.04591E-13-1.65491E-13
 -1       343 1.95982E+01 4.18107E-02 7.93974E-04 1.16711E-01-1.23100E-13-1.60473E-13
 -1       344 1.95939E+01 1.28153E-02 2.75197E-04 1.60290E-01-1.11146E-13-1.31117E-13
 -1       345 1.96189E+01-4.25922E-03 1.71817E-05 1.74684E-01-8.21260E-14-1.13465E-13
 -1       346 1.96592E+01-1.38958E-02-1.19596E-04 1.71556E-01-3.50479E-14-1.01496E-13
 -1       347 1.97056E+01-1.88103E-02-1.91118E-04 1.58347E-01-7.36519E-14-1.78112E-13
 -1       348 1.97522E+01-2.07834E-02-2.24331E-04 1.39820E-01-3.96745E-14-1.24422E-13
 -1       349 1.97955E+01-2.10583E-02-2.35640E-04 1.18923E-01-3.38826E-14-8.88978E-14
 -1       350 1.98332E+01-2.05561E-02-2.36798E-04 9.73104E-02 1.43407E-14-1.12081E-13
 -1       351 1.98642E+01-2.00110E-02-2.37130E-04 7.56485E-02 8.65401E-15-1.20935E-13
 -1       352 1.98873E+01-2.00671E-02-2.44732E-04 5.37970E-02-1.33543E-14-2.04575E-13
 -1       353 1.99020E+01-2.13533E-02-2.67279E-04 3.08889E-02-1.22743E-14-1.70650E-13
 -1       354 1.99070E+01-2.45351E-02-3.12420E-04 5.34053E-03-1.34100E-13-3.02086E-13
 -1       355 1.99009E+01-3.03350E-02-3.87627E-04-2.51796E-02-1.01039E-13-3.03495E-13
 -1       356 1.98814E+01-3.94921E-02-4.99209E-04-6.37734E-02-1.19710E-13-2.27694E-13
 -1       357 1.98450E+01-5.26261E-02-6.50154E-04-1.14250E-01-2.31661E-14-2.49650E-13
 -1       358 1.97872E+01-6.99544E-02-8.36538E-04-1.80852E-01 5.81260E-14-2.90192E-13
 -1       359 1.97020E+01-9.08270E-02-1.04271E-03-2.67608E-01 1.08287E-13-1.28613E-13
 -1       360 1.95822E+01-1.13092E-01-1.23600E-03-3.77122E-01 1.48796E-13-6.89748E-14
 -1       361 1.94197E+01-1.32431E-01-1.36438E-03-5.08679E-01 6.28677E-14-1.02652E-13
 -1       362 1.92070E+01-1.42014E-01-1.35884E-03-6.55778E-01 1.92139E-14-1.31201E-13
 -1       363 1.89393E+01-1.33005E-01-1.14392E-03-8.03660E-01-1.11962E-14-9.83024E-14
 -1       364 1.86177E+01-9.65546E-02-6.67893E-04-9.27994E-01-2.71316E-14 1.03512E-14
 -1       365 1.82538E+01-2.74889E-02 7.07219E-05-9.96484E-01-6.06254E-14-7.02178E-14
 -1       366 1.78728E+01 7.10395E-02 9.95108E-04-9.74996E-01 1.21752E-14-1.07152E-13
 -1       367 1.75148E+01 1.84265E-01 1.95518E-03-8.38394E-01-1.55817E-13-2.10835E-13
 -1       368 1.72288E+01 2.87106E-01 2.76249E-03-5.83093E-01-1.97686E-13-1.18959E-13
 -1       369 1.70621E+01 3.51678E-01 3.24497E-03-2.35103E-01-2.35226E-14 2.17570E-13
 -1       370 1.70453E+01 3.58515E-01 3.29581E-03 1.52601E-01 1.29857E-13 1.69053E-13
 -1       371 1.71816E+01 3.05500E-01 2.90230E-03 5.14618E-01-6.13423E-14-1.20512E-13
 -1       372 1.74459E+01 2.08909E-01 2.15363E-03 7.93696E-01-1.64594E-14-1.61376E-13
 -1       373 1.77935E+01 9.58024E-02 1.21078E-03 9.57351E-01-1.61533E-14-1.12917E-13
 -1       374 1.81744E+01-7.32191E-03 2.65051E-04 1.00318E+00 1.31854E-13 2.77823E-13
 -1       375 1.85462E+01-8.31500E-02-5.18572E-04 9.52656E-01-9.63034E-15-9.05444E-16
 -1       376 1.88805E+01-1.26134E-01-1.04791E-03 8.39036E-01 6.60252E-14-6.14962E-14
 -1       377 1.91630E+01-1.40001E-01-1.31028E-03 6.95792E-01 9.96049E-14-9.88097E-14
 -1       378 1.93909E+01-1.33212E-01-1.35165E-03 5.49322E-01 2.09045E-13-1.64738E-14
 -1       379 1.95682E+01-1.14930E-01-1.24486E-03 4.16423E-01 2.68783E-13 2.41379E-13
 -1       380 1.97023E+01-9.26823E-02-1.06272E-03 3.05077E-01 3.57311E-13 5.20552E-13
 -1       381 1.98014E+01-7.15942E-02-8.60548E-04 2.16724E-01 2.60339E-13 1.85286E-13
 -1       382 1.98734E+01-5.45616E-02-6.77678E-04 1.48839E-01-7.45938E-14-2.67488E-14
 -1       383 1.99251E+01-4.28053E-02-5.31879E-04 9.69323E-02 1.25226E-13 3.00639E-13
 -1       384 1.99629E+01-3.58242E-02-3.53660E-04 5.61565E-02 2.14039E-13 2.82633E-13
 -1       385 7.22312E+00-4.52029E+00-1.02598E-01 5.20258E+00 2.61402E-13 1.89501E-13
 -1       386 1.98890E+01 2.34083E-01 1.10317E-02 3.98660E-01 2.02578E-13 1.67383E-13
 -1       387 1.96062E+01 1.16445E-01 5.94014E-03 1.18355E-01 1.41038E-13 9.31043E-14
 -1       388 1.94693E+01 5.54920E-02 2.70523E-03-3.65061E-02 1.37815E-13 5.85275E-14
 -1       389 1.94342E+01 2.45709E-02 1.09500E-03-1.10594E-01 1.34825E-13 2.36600E-14
 -1       390 1.94531E+01 6.66870E-03 4.15943E-04-1.44379E-01 7.59375E-14-4.68502E-14
 -1       391 1.95014E+01-3.79143E-03 8.36472E-05-1.53981E-01 3.98898E-14-9.97483E-14
 -1       392 1.95633E+01-9.63233E-03-9.64746E-05-1.49301E-01 1.00240E-13-1.44292E-13
 -1       393 1.96288E+01-1.25132E-02-1.82715E-04-1.36573E-01 9.98703E-14-1.01796E-13
 -1       394 1.96950E+01-1.36173E-02-2.37403E-04-1.18918E-01 5.14355E-14-3.38550E-14
 -1       395 1.97520E+01-1.34201E-02-2.47384E-04-1.00653E-01-2.37929E-14-2.78724E-14
 -1       396 1.98016E+01-1.25258E-02-2.36412E-04-8.26481E-02-2.30228E-14-9.90601E-14
 -1       397 1.98433E+01-1.11463E-02-2.08925E-04-6.59792E-02 2.54395E-14-8.47606E-14
 -1       398 1.98775E+01-9.30475E-03-1.57955E-04-5.14965E-02 3.05625E-14 1.87799E-14
 -1       399 1.99067E+01-6.62654E-03-8.95102E-05-3.96904E-02 3.31139E-14 3.10568E-14
 -1       400 1.99301E+01-2.75835E-03 3.54974E-05-3.32886E-02-1.62158E-14-1.49162E-13
 -1       401 1.99526E+01 3.49949E-03 2.35859E-04-3.43124E-02 1.29611E-13-2.01150E-13
 -1       402 1.99790E+01 1.41699E-02 5.78805E-04-4.76036E-02 8.49923E-14-2.33185E-13
 -1       403 2.00168E+01 3.27565E-02 1.17002E-03-8.16581E-02 3.48072E-14-2.47620E-13
 -1       404 2.00776E+01 6.51021E-02 2.18972E-03-1.50991E-01-8.71706E-14-3.12806E-13
 -1       405 2.01841E+01 1.25621E-01 3.86915E-03-2.88912E-01-1.27057E-13-1.37857E-13
 -1       406 2.03506E+01 2.26295E-01 6.41095E-03-5.26195E-01-7.38916E-14-1.89952E-13
 -1       407 2.06072E+01 3.95543E-01 9.53838E-03-9.31619E-01 7.58725E-15-1.60426E-13
 -1       408 2.09756E+01 6.67899E-01 1.24602E-02-1.60068E+00-6.47663E-14-1.52346E-13
 -1       409 2.14543E+01 1.06657E+00 1.47778E-02-2.64909E+00-5.94828E-14-6.44451E-14
 -1       410 2.20195E+01 1.51731E+00 2.69053E-02-4.22261E+00-1.47506E-13 1.15459E-13
 -1       411 2.25942E+01 1.48751E+00 8.41005E-02-5.93244E+00-2.45897E-13 2.74578E-13
 -1       412 2.34274E+01-2.34082E-02 1.77789E-01-6.91003E+00-8.89358E-14 4.78655E-13
 -1       413 4.11816E+01-4.28016E+00 1.18181E-01 2.51907E+00-2.03074E-13 1.69753E-13
 -1       414 3.02988E+01-4.02484E+00 1.07356E-01 4.49773E+00-1.03584E-13 3.23713E-13
 -1       415 2.44586E+01-5.74187E-01 2.14320E-01 7.05134E+00 1.06165E-14 1.87010E-13
 -1       416 2.30742E+01 1.38093E+00 8.32567E-02 6.06589E+00 6.11941E-14-8.70441E-14
 -1       417 2.23390E+01 1.44052E+00 3.01816E-02 4.30225E+00 5.94750E-14 2.13395E-13
 -1       418 2.16806E+01 1.04099E+00 1.69047E-02 2.76492E+00 1.78445E-13 3.87994E-13
 -1       419 2.11220E+01 6.58898E-01 1.39410E-02 1.67181E+00 5.61122E-14 1.84848E-13
 -1       420 2.07019E+01 3.91582E-01 1.05504E-02 9.70642E-01-9.57741E-14-2.46909E-13
 -1       421 2.04139E+01 2.24652E-01 6.96845E-03 5.44200E-01-1.58356E-13-1.07827E-13
 -1       422 2.02253E+01 1.21693E-01 4.34113E-03 2.85783E-01 3.92864E-14 1.06139E-14
 -1       423 2.01200E+01 6.58222E-02 2.46176E-03 1.48324E-01-1.64732E-13 7.64941E-14
 -1       424 2.00606E+01 3.43091E-02 1.39871E-03 7.31248E-02-2.74210E-13-2.65686E-13
 -1       425 2.00284E+01 1.69275E-02 6.69918E-04 3.36575E-02 1.70491E-13-1.75158E-13
 -1       426 2.00119E+01 8.71064E-03 3.37671E-04 1.40523E-02 6.07890E-13-3.52110E-13
 -1       427 2.00061E+01 8.24772E-03 8.72168E-05 9.76170E-03 3.68825E-13-6.57894E-13
 -1       428 1.99889E+01 2.91566E-02-8.41916E-05 8.95012E-03 3.09415E-14 7.49219E-13
 -1       429 2.00007E+01 1.90645E-02 6.46049E-07 1.48371E-02 4.00587E-13 4.43709E-13
 -1       430 1.99792E+01 2.71076E-02-1.97809E-04-1.27554E-02-2.27432E-13-2.53209E-13
 -1       431 1.99778E+01 9.09364E-03-2.05728E-04-4.03109E-02-2.85710E-13-3.94009E-13
 -1       432 1.99852E+01-2.46514E-02-1.30956E-04-6.38480E-02-1.51143E-14 2.69654E-13
 -1       433 1.99986E+01-6.77402E-02 9.49752E-06-7.37145E-02 7.28522E-14 7.31932E-13
 -1       434 2.00132E+01-1.10801E-01 1.63999E-04-6.55804E-02-7.17723E-14-7.24680E-14
 -1       435 2.00245E+01-1.44284E-01 2.81462E-04-4.09603E-02 1.72642E-13-2.60532E-13
 -1       436 2.00291E+01-1.61107E-01 3.27808E-04-6.26949E-03-1.16988E-15 2.89702E-13
 -1       437 2.00260E+01-1.58594E-01 2.92796E-04 2.88268E-02-8.53626E-14-9.78786E-14
 -1       438 2.00157E+01-1.38143E-01 1.95794E-04 5.62924E-02-1.42249E-13-4.69321E-13
 -1       439 2.00008E+01-1.05025E-01 9.95067E-05 6.84688E-02-2.96256E-13-8.09879E-13
 -1       440 1.99847E+01-6.67249E-02-1.18333E-04 6.21868E-02-4.46495E-13-3.95620E-13
 -1       441 3.18371E+01-5.74283E+00-1.53337E-01 2.59378E+00 9.27591E-14 6.28289E-13
 -1       442 5.70819E-01-3.12065E+00 5.34394E-02-3.05658E+00 3.70537E-14-3.02147E-13
 -1       443 1.94634E+01-5.49103E+00-1.09425E-01 6.01240E+00 1.55348E-13 6.52256E-13
 -1       444 1.97872E+01 3.44060E+00-2.06939E-02-1.72496E+00-1.95755E-13-3.97150E-13
 -1       445 2.75518E+01-6.09708E+00-1.83979E-01-4.24700E+00-2.19158E-13 2.50064E-13
 -1       446 1.42333E+01-5.83208E+00-2.21266E-01-5.80432E+00 3.00870E-14 3.21493E-13
 -1       447 4.92883E+00-4.43048E+00-8.35166E-02-4.17193E+00-1.90625E-13-5.49366E-13
 -1       448 1.05173E-01-4.07619E+00-4.75311E-02 7.14904E-02-2.17649E-13-3.85275E-13
 -1       449 1.79389E+00-3.37325E+00 6.18840E-02 5.11902E+00-1.64230E-13-1.66339E-13
 -1       450 7.46200E+00-4.83389E+00-3.17980E-02 8.33130E+00-2.84550E-13-3.62960E-13
 -1       451 1.60586E+01-4.67121E+00-1.20289E-02 9.32170E+00-2.04115E-13-4.76496E-13
 -1       452 2.51839E+01-3.71757E+00-9.61849E-03 7.81644E+00-2.57697E-13-9.80327E-14
 -1       453 3.33368E+01-2.00595E-01-1.12423E-03 4.47443E+00-3.83776E-13 2.63997E-13
 -1       454 3.77814E+01 4.74583E+00-6.58045E-03 1.18916E+00-3.92228E-13-8.09630E-14
 -1       455 3.92588E+01 8.17040E+00-2.96735E-02 1.80426E-01-2.19311E-13-2.46664E-13
 -1       456 4.18250E+01 9.97379E+00 8.30196E-02-2.66189E-04-1.56541E-14-1.35752E-13
 -1       457 4.16752E+01 8.74825E+00 1.05965E-01-6.96199E-01 1.32366E-13-2.58266E-14
 -1       458 3.90861E+01 5.61350E+00 6.09319E-02-1.74460E+00 6.44484E-14-2.73698E-13
 -1       459 3.47145E+01 1.12014E+00 2.69235E-02-4.22470E+00 2.56101E-13-3.50719E-13
 -1       460 2.85068E+01-2.03841E+00 1.65915E-02-7.04973E+00 2.35090E-13-7.17620E-14
 -1       461 2.04958E+01-4.20567E+00-6.15370E-03-8.91207E+00 5.13201E-13 1.73243E-13
 -1       462 1.16437E+01-4.87055E+00-2.82486E-02-9.07226E+00 2.55407E-13-9.72486E-15
 -1       463 5.32839E+00-3.92878E+00 5.58137E-02-7.63487E+00-1.76664E-14-1.33393E-13
 -1       464 9.15017E-01-3.65147E+00-1.08302E-02 1.00931E+00 2.24772E-13 3.23824E-13
 -1       465 2.18870E+01-2.79343E+00 1.10704E-01-6.69348E+00-6.18949E-14 5.26440E-13
 -1       466 1.97303E+01 3.10537E+00-5.37799E-03-6.32906E-01-5.43424E-14-4.13106E-13
 -1       467 1.98270E+01 2.93210E+00-5.87571E-03-9.48848E-01-1.01799E-13-4.16876E-13
 -1       468 1.96620E+01 3.22827E+00-5.01868E-03 8.75958E-03 5.53799E-14-3.70582E-13
 -1       469 1.96807E+01 3.19521E+00-5.10454E-03 3.29806E-01 1.13161E-13-3.89127E-13
 -1       470 1.97350E+01 3.09831E+00-5.43070E-03 6.44690E-01 1.55836E-13-3.74645E-13
 -1       471 1.98344E+01 2.92042E+00-5.98998E-03 9.59594E-01 2.15415E-13-3.13055E-13
 -1       472 1.99921E+01 2.63310E+00-6.77941E-03 1.25511E+00 2.42638E-13-2.58170E-13
 -1       473 2.02215E+01 2.19190E+00-6.27624E-03 1.48662E+00 2.94094E-13-1.44630E-13
 -1       474 2.04958E+01 1.53053E+00-1.83244E-03 1.53430E+00 3.07387E-13-2.29127E-14
 -1       475 2.05337E+01 9.92790E-01 3.75833E-03 1.29465E+00 2.87495E-13 7.33039E-14
 -1       476 1.99248E+01 2.42151E-01 2.27982E-03 1.50194E-01 1.64816E-13-7.49493E-14
 -1       477 1.63112E+01 2.86626E+00 7.78705E-02 4.49021E+00 8.82601E-14 2.28467E-13
 -1       478 2.01092E+01 4.39645E-01 2.86779E-03 4.55263E-01 2.11246E-13-2.02768E-14
 -1       479 2.03468E+01 9.72619E-01 2.71426E-03-9.40314E-01-1.79966E-13-2.21293E-13
 -1       480 2.03963E+01 1.77337E+00-4.88765E-03-1.54619E+00-2.44522E-13-2.51174E-13
 -1       481 2.01739E+01 5.44570E-01 2.01059E-03-4.64931E-01-1.55883E-13-1.89808E-13
 -1       482 2.00270E+01 3.04442E-01 1.08050E-03-1.63367E-01-1.35156E-13-1.88907E-13
 -1       483 1.99267E+01 1.62500E-01 4.57899E-04 1.85475E-02-1.19806E-13-1.92928E-13
 -1       484 1.98682E+01 7.61772E-02 1.59727E-04 1.21565E-01-1.14335E-13-1.74522E-13
 -1       485 1.98411E+01 2.33093E-02 2.34513E-05 1.73215E-01-1.36569E-13-2.07448E-13
 -1       486 1.98350E+01-8.49443E-03-4.55918E-05 1.91974E-01-4.69953E-14-2.72205E-13
 -1       487 1.98420E+01-2.67160E-02-8.18131E-05 1.90245E-01-6.89858E-14-2.31152E-13
 -1       488 1.98561E+01-3.61966E-02-9.91360E-05 1.76325E-01-2.94240E-14-1.53378E-13
 -1       489 1.98733E+01-4.02543E-02-1.05107E-04 1.55652E-01 2.05810E-14-1.01109E-13
 -1       490 1.98907E+01-4.12816E-02-1.05050E-04 1.31613E-01-6.01174E-14-3.72984E-14
 -1       491 1.99066E+01-4.11037E-02-1.03176E-04 1.06066E-01-4.12119E-14-1.64757E-13
 -1       492 1.99197E+01-4.12211E-02-1.03035E-04 7.96781E-02-2.44492E-14-1.81502E-13
 -1       493 1.99294E+01-4.29907E-02-1.07928E-04 5.21124E-02-8.87445E-15-1.58561E-13
 -1       494 1.99350E+01-4.77616E-02-1.21147E-04 2.21191E-02-1.40020E-13-1.96028E-13
 -1       495 1.99361E+01-5.69572E-02-1.46083E-04-1.24591E-02-1.41507E-13-2.03746E-13
 -1       496 1.99323E+01-7.20706E-02-1.86032E-04-5.47168E-02-1.09505E-13-1.81822E-13
 -1       497 1.99228E+01-9.45126E-02-2.43575E-04-1.08693E-01-5.23948E-14-1.27692E-13
 -1       498 1.99066E+01-1.25227E-01-3.19336E-04-1.79248E-01 2.06539E-14-2.37633E-13
 -1       499 1.98818E+01-1.63980E-01-4.09987E-04-2.71646E-01 1.08789E-13-1.79205E-13
 -1       500 1.98452E+01-2.08271E-01-5.05705E-04-3.90626E-01 2.38841E-13-1.02697E-13
 -1       501 1.97917E+01-2.51963E-01-5.86677E-04-5.38680E-01 9.18054E-14-4.71286E-14
 -1       502 1.97140E+01-2.84057E-01-6.24284E-04-7.13375E-01-4.64590E-14-6.42408E-14
 -1       503 1.96022E+01-2.88485E-01-5.81579E-04-9.03862E-01-3.33161E-14 1.10211E-14
 -1       504 1.94466E+01-2.46179E-01-4.12805E-04-1.08744E+00 4.67180E-14 1.19020E-13
 -1       505 1.92406E+01-1.40632E-01-1.11224E-04-1.22805E+00-5.84604E-14 1.27545E-13
 -1       506 1.89880E+01 3.30649E-02 2.95034E-04-1.27948E+00-9.09370E-15 1.75774E-13
 -1       507 1.87097E+01 2.58360E-01 7.28020E-04-1.19597E+00-1.22899E-13 1.80676E-13
 -1       508 1.84460E+01 4.92956E-01 1.09711E-03-9.50185E-01-6.58854E-14 3.04990E-13
 -1       509 1.82494E+01 6.77345E-01 1.34463E-03-5.51921E-01-2.51316E-14 3.14010E-13
 -1       510 1.81672E+01 7.56632E-01 1.44448E-03-5.58113E-02-1.84633E-13 6.40565E-14
 -1       511 1.82209E+01 7.05316E-01 1.37829E-03 4.50768E-01-1.23841E-13-1.85458E-13
 -1       512 1.83964E+01 5.40118E-01 1.16154E-03 8.76751E-01 5.19504E-14-7.00442E-14
 -1       513 1.86506E+01 3.11590E-01 8.05013E-04 1.15865E+00 1.12448E-13 2.20932E-13
 -1       514 1.89305E+01 8.04161E-02 3.70201E-04 1.27710E+00 2.36781E-13 1.41644E-13
 -1       515 1.91919E+01-1.06234E-01-4.49958E-05 1.25279E+00-2.06463E-13-6.18269E-14
 -1       516 1.94100E+01-2.26185E-01-3.61744E-04 1.12912E+00-8.76622E-14-1.04409E-13
 -1       517 1.95777E+01-2.80310E-01-5.47100E-04 9.53467E-01 9.49136E-14 3.98986E-14
 -1       518 1.96999E+01-2.83482E-01-6.11990E-04 7.64760E-01 2.05094E-13 2.22725E-13
 -1       519 1.97864E+01-2.54980E-01-5.87775E-04 5.88630E-01 2.36021E-13 1.59055E-13
 -1       520 1.98472E+01-2.11985E-01-5.16096E-04 4.38200E-01 4.13255E-13 1.78764E-13
 -1       521 1.98907E+01-1.67047E-01-4.24219E-04 3.17329E-01-4.36320E-14 1.70201E-13
 -1       522 1.99227E+01-1.27711E-01-3.20038E-04 2.23926E-01 7.73700E-14 4.55310E-14
 -1       523 1.99470E+01-9.75036E-02-3.22742E-04 1.53598E-01 1.72894E-13 1.19017E-13
 -1       524 1.99675E+01-7.92027E-02-2.63806E-04 1.02544E-01 2.32911E-13 9.76697E-14
 -1       525 2.02794E+01 6.47265E-01 5.30504E-03 7.92987E-01 2.33290E-13 7.44619E-15
 -1       526 1.98113E+01 1.27062E-01 9.70955E-04-2.57944E-02 1.66051E-13-9.07982E-14
 -1       527 1.97551E+01 5.85723E-02 3.59483E-04-1.23150E-01 1.27790E-13-9.79665E-14
 -1       528 1.97377E+01 1.72119E-02 8.51099E-05-1.70493E-01 9.40368E-14-6.50047E-14
 -1       529 1.97447E+01-7.42580E-03-5.48894E-05-1.86555E-01 8.57481E-14-6.91991E-14
 -1       530 1.97658E+01-2.14042E-02-1.24990E-04-1.83478E-01 1.22794E-13-3.51070E-14
 -1       531 1.97951E+01-2.87163E-02-1.58669E-04-1.68389E-01 7.31018E-14-5.13682E-14
 -1       532 1.98250E+01-3.11610E-02-1.69800E-04-1.48149E-01-1.52571E-14-5.88125E-14
 -1       533 1.98540E+01-3.08161E-02-1.64857E-04-1.25751E-01 9.98559E-15-4.97385E-14
 -1       534 1.98803E+01-2.86188E-02-1.50702E-04-1.03463E-01 1.67697E-14-1.53617E-13
 -1       535 1.99032E+01-2.49974E-02-1.24640E-04-8.28957E-02-6.59562E-14-2.08210E-13
 -1       536 1.99231E+01-1.94709E-02-9.24719E-05-6.47096E-02 4.05448E-14-1.55805E-13
 -1       537 1.99384E+01-1.16738E-02-3.56122E-05-5.23451E-02 5.98618E-14-1.24427E-13
 -1       538 1.99504E+01 4.48354E-04 5.05585E-05-4.74079E-02 1.18053E-13-2.20698E-13
 -1       539 1.99592E+01 2.03111E-02 1.94651E-04-5.41131E-02 1.32551E-13-2.19673E-13
 -1       540 1.99645E+01 5.37475E-02 4.43412E-04-7.95034E-02 1.75455E-14-1.11864E-13
 -1       541 1.99639E+01 1.10291E-01 8.55351E-04-1.35053E-01 3.12806E-15-1.12363E-13
 -1       542 1.99490E+01 2.12312E-01 1.63219E-03-2.45913E-01-6.26418E-14-1.25245E-13
 -1       543 1.99027E+01 3.76668E-01 2.77649E-03-4.30983E-01-1.02335E-13-1.86734E-13
 -1       544 1.97860E+01 6.44250E-01 4.52734E-03-7.33714E-01-3.27160E-14-2.28651E-13
 -1       545 1.95177E+01 1.06415E+00 7.04766E-03-1.20558E+00-7.11670E-15-1.40863E-13
 -1       546 1.89460E+01 1.67840E+00 1.12115E-02-1.90292E+00-6.07036E-14-1.27120E-13
 -1       547 1.77349E+01 2.48205E+00 2.74401E-02-2.91264E+00-2.00655E-13-1.40665E-13
 -1       548 1.56111E+01 3.03847E+00 7.83171E-02-4.08497E+00-2.50978E-13-2.21038E-13
 -1       549 1.50447E+01 1.87324E+00 1.76288E-01-6.02283E+00-2.51202E-13-2.81303E-14
 -1       550 1.21425E+01-2.87152E+00 1.56849E-01-8.90593E+00 6.28525E-14 1.00364E-13
 -1       551 6.38237E+00 6.46942E-01 2.33158E-01-5.18367E+00-6.76265E-14-1.67005E-13
 -1       552 1.36519E+01 1.77171E+00 2.30989E-01 5.86595E+00 6.64052E-14 1.48888E-13
 -1       553 1.89819E+01 1.72415E+00 1.40152E-02 2.03909E+00 1.38171E-13 4.66415E-13
 -1       554 1.95542E+01 1.09976E+00 8.17000E-03 1.29013E+00 2.01132E-13 6.76599E-14
 -1       555 1.98195E+01 6.68184E-01 5.11417E-03 7.80054E-01-2.82111E-13 2.55088E-13
 -1       556 1.99371E+01 3.81777E-01 3.09537E-03 4.39990E-01-1.62674E-13 2.24975E-13
 -1       557 1.99805E+01 2.17162E-01 1.80764E-03 2.43285E-01-9.04881E-14 2.24968E-13
 -1       558 1.99965E+01 1.18931E-01 1.00513E-03 1.28360E-01-2.25921E-14 1.12275E-13
 -1       559 2.00020E+01 6.23778E-02 7.14034E-04 6.32625E-02 2.75923E-14-2.63109E-13
 -1       560 2.00033E+01 2.36411E-02 1.56795E-04 2.21993E-02 6.99878E-13-1.32290E-13
 -1       561 1.99447E+01 5.06085E-02-1.53809E-04-4.37374E-02-2.46811E-13-5.58333E-13
 -1       562 1.99537E+01 1.76271E-02-1.62963E-04-8.70830E-02-2.79801E-13 2.67034E-13
 -1       563 1.99572E+01 5.96176E-02-6.02605E-05 1.12185E-04-2.96166E-13-9.60571E-14
 -1       564 1.99806E+01-3.30098E-02-8.74896E-05-1.13935E-01-1.37556E-13 6.87450E-13
 -1       565 2.00155E+01-8.97402E-02 4.17904E-05-1.14646E-01-1.81325E-13 2.97132E-13
 -1       566 2.00473E+01-1.40084E-01 1.27883E-04-8.81701E-02 5.62662E-14-6.54096E-14
 -1       567 2.00663E+01-1.73590E-01 1.51708E-04-4.12563E-02 1.33143E-13-1.38147E-13
 -1       568 2.00681E+01-1.84773E-01 1.57905E-04 1.28490E-02-1.66490E-13-1.27420E-13
 -1       569 2.00524E+01-1.73516E-01 1.30714E-04 6.27778E-02-3.93192E-13-3.77897E-13
 -1       570 2.00233E+01-1.43343E-01 6.31297E-05 9.49871E-02-1.90338E-13-5.01552E-13
 -1       571 1.99957E+01-1.13340E-01-2.04160E-04 1.06384E-01-9.74088E-14-9.21140E-13
 -1       572 5.97063E+00 2.69097E-01 2.11548E-01-3.53860E+00-1.86011E-13-5.75540E-13
 -1       573 3.33255E+01 6.58391E-01-1.13071E-01 1.99141E-01-2.30746E-13 9.02056E-14
 -1       574 1.78329E+01 2.48423E+00 2.65459E-02 3.05977E+00-8.69335E-14 3.49840E-13
 -1       575 1.96777E+01 3.19962E+00-5.09866E-03-3.12367E-01 5.93386E-15-3.95226E-13
 -1       576 1.43705E+01-1.02292E+00 1.99054E-01-6.79080E+00-2.08750E-13 1.81896E-13
 -1       577 7.44477E+00 9.53392E-02 2.23576E-01 4.53800E+00 1.93220E-13 2.58141E-13
 -1       578 3.50443E+01 9.30271E+00-1.88795E-01 6.13002E-01-6.02851E-14-1.78389E-13
 -1       579 4.00607E+00 1.05365E+00 2.51837E-01 1.52521E+00-8.21392E-14-1.94109E-13
 -1       580 7.73245E+00-1.37432E+00 1.89143E-01 7.37233E+00-1.12417E-13-1.33046E-13
 -1       581 1.47020E+01-3.49007E+00 1.34528E-01 9.13746E+00-4.98906E-15-3.33622E-13
 -1       582 2.16694E+01-4.80949E+00 4.35521E-02 8.31073E+00 6.95485E-14-9.68340E-14
 -1       583 2.98227E+01-3.72044E+00-2.48259E-02 4.12667E+00-2.65531E-13 2.45380E-13
 -1       584 3.31187E+01 5.46030E+00-1.83310E-01-1.67863E+00-2.19109E-13-2.62290E-13
 -1       585 3.37094E+01 9.21107E+00-2.01879E-01-7.36266E-01-2.93432E-13-1.53023E-13
 -1       586 3.53661E+01 6.98755E+00-1.42521E-01 1.04431E+00 1.85935E-13 3.30153E-14
 -1       587 3.41152E+01 1.89222E+00-1.25205E-01-1.53858E-02 2.88873E-13-1.16657E-13
 -1       588 3.09945E+01-2.80432E+00-6.75753E-02-2.98355E+00 3.16532E-13-4.05218E-13
 -1       589 2.68836E+01-4.54575E+00 1.79581E-02-6.22988E+00 3.71266E-13-8.84570E-14
 -1       590 1.88824E+01-4.47449E+00 8.09389E-02-8.94851E+00 2.35131E-13 1.22543E-13
 -1       591 4.45999E+00 1.28067E+00 2.63181E-01 5.71143E-02-3.29086E-14 2.33216E-13
 -1       592 1.99814E+01 2.66164E+00-5.90540E-03-1.25300E+00-1.51951E-13-3.86207E-13
 -1       593 1.99864E+01 4.54946E-02 7.64497E-05 2.74487E-02 1.01569E-13-6.41099E-14
 -1       594 7.37779E+00 1.53632E+00 1.81080E-01 4.30113E+00-4.36179E-14-1.42296E-13
 -1       595 1.99572E+01 2.45101E+00-1.59936E-03 3.93202E-01 1.26230E-13-3.33687E-13
 -1       596 1.99248E+01 2.52610E+00-1.51903E-03 1.35375E-01 7.73543E-14-3.55590E-13
 -1       597 2.01176E+01 2.04882E+00-1.77063E-03 8.48650E-01 2.06796E-13-2.61663E-13
 -1       598 2.02495E+01 1.67524E+00-7.35504E-04 9.97872E-01 2.44429E-13-1.70788E-13
 -1       599 2.00268E+01 1.86917E-01 2.22383E-04-2.77422E-02 1.61062E-13-9.03611E-14
 -1       600 1.99739E+01 8.63201E-02 6.95627E-05-1.24732E-01 9.16538E-14-9.36787E-14
 -1       601 2.01047E+01 3.46666E-01 4.07879E-04 1.41321E-01 1.58668E-13-8.13180E-14
 -1       602 2.02901E+01 1.12338E+00 8.61731E-04-7.58277E-01-1.25173E-13-2.69017E-13
 -1       603 1.94123E+01 7.29446E-01 1.43829E-03 3.71194E-01-2.96330E-13 1.44848E-13
 -1       604 2.02403E+01 6.74768E-01 4.19170E-04-3.90435E-01-1.34248E-13-2.17122E-13
 -1       605 2.01679E+01 3.92973E-01 2.03092E-04-1.36385E-01-1.25687E-13-1.87958E-13
 -1       606 2.01023E+01 2.13476E-01 6.66199E-05 2.57141E-02-8.70227E-14-1.80510E-13
 -1       607 2.00518E+01 9.90453E-02 6.55844E-06 1.20953E-01-1.27093E-13-2.32602E-13
 -1       608 2.00163E+01 2.69664E-02-1.47520E-05 1.69761E-01-1.29442E-13-1.91144E-13
 -1       609 1.99932E+01-1.70537E-02-2.57168E-05 1.87584E-01-4.26249E-14-2.23107E-13
 -1       610 1.99794E+01-4.24703E-02-3.15524E-05 1.85552E-01 1.09450E-14-1.84345E-13
 -1       611 1.99719E+01-5.58033E-02-3.38618E-05 1.71423E-01 2.25471E-14-1.49923E-13
 -1       612 1.99685E+01-6.17246E-02-3.39044E-05 1.50386E-01-1.71476E-14-2.20206E-13
 -1       613 1.99678E+01-6.37172E-02-3.29178E-05 1.25682E-01-5.90184E-14-1.25527E-13
 -1       614 1.99685E+01-6.45205E-02-3.19589E-05 9.90486E-02-4.03484E-14-7.99117E-15
 -1       615 1.99701E+01-6.64601E-02-3.21054E-05 7.10225E-02-2.48174E-14-7.18786E-14
 -1       616 1.99725E+01-7.17019E-02-3.43788E-05 4.11107E-02-9.42382E-14-1.66298E-13
 -1       617 1.99760E+01-8.24390E-02-3.98758E-05 7.86377E-03-1.47546E-13-1.05112E-13
 -1       618 1.99815E+01-1.00985E-01-4.97916E-05-3.11390E-02-1.22558E-13 2.17293E-14
 -1       619 1.99901E+01-1.29703E-01-6.53360E-05-7.93562E-02-6.49926E-14-8.83899E-14
 -1       620 2.00037E+01-1.70672E-01-8.75003E-05-1.41344E-01-5.65540E-14-1.47060E-13
 -1       621 2.00239E+01-2.24928E-01-1.16530E-04-2.22697E-01 7.14884E-14-1.12669E-13
 -1       622 2.00517E+01-2.91145E-01-1.50992E-04-3.29683E-01 1.85211E-13-1.08609E-13
 -1       623 2.00861E+01-3.63668E-01-1.86977E-04-4.68247E-01 1.43973E-13-1.98272E-13
 -1       624 2.01224E+01-4.30125E-01-2.12263E-04-6.41938E-01 5.87195E-14-1.74055E-13
 -1       625 2.01501E+01-4.69528E-01-2.15109E-04-8.48281E-01 5.06128E-14 5.15339E-14
 -1       626 2.01524E+01-4.52593E-01-1.74269E-04-1.07367E+00 7.40925E-14 2.32100E-13
 -1       627 2.01077E+01-3.46615E-01-2.21184E-05-1.28789E+00 3.28653E-14 2.33151E-13
 -1       628 1.99968E+01-1.27176E-01 1.88428E-04-1.44114E+00 2.20970E-14 2.62778E-13
 -1       629 1.98151E+01 2.04053E-01 3.81506E-04-1.46889E+00-1.09176E-13 2.70833E-13
 -1       630 1.95854E+01 6.01829E-01 4.60193E-04-1.30978E+00-9.71821E-15 3.30110E-13
 -1       631 1.93627E+01 9.75231E-01 4.49746E-04-9.36328E-01-9.86168E-14 2.77389E-13
 -1       632 1.92172E+01 1.21473E+00 4.18933E-04-3.83429E-01-1.58447E-13 2.91407E-13
 -1       633 1.92017E+01 1.24039E+00 3.98563E-04 2.49413E-01-3.19596E-13 3.24216E-13
 -1       634 1.93224E+01 1.04306E+00 4.40021E-04 8.30355E-01 1.26517E-14 3.27560E-13
 -1       635 1.95345E+01 6.90220E-01 4.44271E-04 1.24867E+00 1.40161E-13 2.95622E-13
 -1       636 1.97685E+01 2.89661E-01 3.35479E-04 1.45466E+00-1.09372E-14 1.38923E-13
 -1       637 1.99640E+01-6.06575E-02 1.59975E-04 1.46429E+00-2.19156E-13-2.40200E-13
 -1       638 2.00911E+01-3.05003E-01-1.54054E-05 1.33421E+00-3.76383E-14-2.63971E-13
 -1       639 2.01492E+01-4.33141E-01-1.36109E-04 1.13028E+00 6.77528E-14-7.15796E-14
 -1       640 2.01555E+01-4.65285E-01-1.97236E-04 9.06578E-01 1.78030E-13-1.39222E-13
 -1       641 2.01319E+01-4.33887E-01-2.06376E-04 6.97714E-01 1.82464E-13-1.07710E-13
 -1       642 2.00969E+01-3.69889E-01-1.92262E-04 5.20310E-01 4.31869E-13-9.62844E-14
 -1       643 2.00621E+01-2.96224E-01-1.52750E-04 3.78926E-01 2.86700E-13-4.94237E-14
 -1       644 2.00337E+01-2.28021E-01-1.42511E-04 2.70893E-01-1.99821E-13 1.12508E-13
 -1       645 2.00144E+01-1.72636E-01-6.73743E-05 1.90655E-01-2.45526E-13-2.50590E-13
 -1       646 2.00017E+01-1.38397E-01-1.98176E-04 1.44187E-01-1.13370E-13-7.31438E-13
 -1       647 1.89005E+01 1.17554E+00 2.25545E-03 5.72069E-01-4.43258E-13 2.96408E-13
 -1       648 9.62047E+00 3.24638E+00 1.92478E-01-2.22405E+00-9.97240E-14-4.26277E-13
 -1       649 1.99426E+01 2.36711E-02 3.85988E-06-1.73718E-01 7.41833E-14-8.35908E-14
 -1       650 1.99272E+01-1.43273E-02-2.96098E-05-1.91167E-01 1.07244E-13-8.20435E-14
 -1       651 1.99228E+01-3.67793E-02-3.98230E-05-1.88196E-01 8.20118E-14-8.23707E-14
 -1       652 1.99253E+01-4.72714E-02-5.44027E-05-1.73425E-01 7.76888E-14-3.74485E-14
 -1       653 1.99315E+01-5.08609E-02-5.37489E-05-1.52578E-01 1.39852E-14-4.14183E-14
 -1       654 1.99394E+01-4.99028E-02-5.19916E-05-1.29299E-01 8.88866E-14-6.11737E-14
 -1       655 1.99475E+01-4.57739E-02-4.47598E-05-1.06048E-01 1.67872E-14-6.57452E-14
 -1       656 1.99549E+01-3.84493E-02-3.61402E-05-8.36525E-02-5.54771E-15-1.50839E-13
 -1       657 1.99596E+01-2.80147E-02-2.25009E-05-6.58572E-02-3.32923E-14-8.22957E-14
 -1       658 1.99607E+01-1.22832E-02-1.27105E-06-5.33403E-02 1.09949E-13-7.05434E-14
 -1       659 1.99556E+01 1.24946E-02 3.28937E-05-4.86466E-02 1.33511E-13-7.43715E-14
 -1       660 1.99396E+01 5.27542E-02 9.23181E-05-5.55901E-02 1.19603E-13-1.96571E-13
 -1       661 1.99040E+01 1.18803E-01 1.68629E-04-7.98929E-02 1.23842E-15-3.36443E-13
 -1       662 1.98270E+01 2.34250E-01 3.75627E-04-1.32594E-01-6.37589E-14-2.07455E-13
 -1       663 1.96835E+01 4.14462E-01 6.17304E-04-2.18924E-01-2.81229E-14-1.90965E-13
 -1       664 1.94151E+01 6.98622E-01 1.02401E-03-3.49940E-01-8.01242E-14-7.67944E-14
 -1       665 1.89221E+01 1.13119E+00 1.76698E-03-5.28033E-01-9.20502E-14-5.59929E-14
 -1       666 1.80384E+01 1.75130E+00 3.48705E-03-7.38374E-01-1.17226E-13-3.39773E-14
 -1       667 1.63952E+01 2.59087E+00 1.54443E-02-9.26991E-01-6.86502E-14-5.98480E-15
 -1       668 1.37391E+01 3.42337E+00 4.75938E-02-9.75270E-01-1.06160E-13-2.00255E-13
 -1       669 1.20026E+01-2.07336E-01 1.37133E-01-6.95944E+00-2.71137E-14-1.65375E-13
 -1       670 8.71156E+00 3.05365E+00 1.61184E-01-1.14837E+00 2.81025E-13-4.78506E-14
 -1       671 3.01387E+01 1.74625E+00-1.10568E-01-1.90992E+00-4.00895E-14-1.57017E-13
 -1       672 1.79822E+01 1.81377E+00 5.54014E-03 8.10127E-01 2.84772E-13-7.41830E-14
 -1       673 1.96916E+01 4.35854E-01 8.85301E-04 2.24125E-01-2.12926E-13 2.16183E-13
 -1       674 1.98406E+01 2.49864E-01 1.58718E-04 1.22907E-01-2.12210E-14-6.97156E-14
 -1       675 1.99230E+01 1.38179E-01 6.71549E-04 6.38291E-02 1.27415E-13 1.90856E-13
 -1       676 1.99375E+01 1.02232E-01-9.46585E-05 3.56970E-02 1.94808E-13 7.54121E-14
 -1       677 1.98969E+01 8.42463E-02-2.01669E-05-1.01150E-01-1.77817E-13-4.29898E-13
 -1       678 1.98967E+01 1.12906E-01-7.77082E-05-2.79644E-02 7.73395E-14-5.92196E-13
 -1       679 1.99356E+01 2.22870E-02 4.22740E-05-1.57717E-01-7.02131E-14 9.52015E-13
 -1       680 2.00613E+01-1.34279E-01 1.39616E-04-1.58075E-01 6.56008E-14 3.24471E-13
 -1       681 2.01096E+01-1.94437E-01 4.06665E-05-1.01591E-01-1.37385E-13-3.16675E-13
 -1       682 2.01283E+01-2.25361E-01 2.21430E-05-2.70862E-02-9.21666E-14-1.02847E-13
 -1       683 2.01162E+01-2.26252E-01 1.17933E-04 5.02759E-02-2.30721E-13-5.64881E-13
 -1       684 2.00758E+01-1.99407E-01 1.87278E-04 1.12055E-01-4.57788E-13-3.98802E-13
 -1       685 1.63801E+01 2.62707E+00 1.48100E-02 1.03638E+00-3.31830E-14-2.28992E-13
 -1       686 1.37080E+01 3.45876E+00 6.15717E-02 1.51949E+00-3.32720E-14 7.63608E-14
 -1       687 3.14990E+01 3.89552E+00-1.40961E-01 1.95857E+00 2.72171E-13-3.46473E-13
 -1       688 1.02422E+01 3.32402E+00 1.80574E-01 2.41203E+00 1.92242E-13 3.23117E-13
 -1       689 1.99976E+01-5.67287E-02 2.39020E-04-1.78726E-01 2.57294E-14 5.43755E-13
 -1       690 2.02195E+01 5.90126E-01 1.77465E-03 4.10766E-01 1.99716E-13-1.03554E-13
 -1       691 1.30930E+01-1.12237E+00 1.51812E-01 7.69774E+00-1.10266E-13-2.64302E-13
 -1       692 2.00217E+01 2.29623E+00-1.71391E-03 6.36573E-01 1.72825E-13-2.91678E-13
 -1       693 2.00165E+01 2.30629E+00-1.67709E-03-6.27835E-01-9.62922E-14-3.71053E-13
 -1       694 3.00757E+01 8.49339E+00-1.82501E-01 2.26360E-01-6.82787E-14-4.21213E-13
 -1       695 1.95670E+01-3.48136E+00 8.89627E-02 7.83619E+00-8.02101E-14-1.38171E-13
 -1       696 3.09263E+01-8.67876E-01-9.87316E-02 1.24836E-01 3.09279E-13-1.71564E-14
 -1       697 2.33610E+01-4.15175E+00 5.13814E-02-6.40616E+00 1.39066E-13-6.32263E-15
 -1       698 2.57923E+01-4.38521E+00 1.63696E-02 5.39242E+00-4.52555E-14 3.05823E-14
 -1       699 2.92508E+01 6.67113E+00-1.48344E-01-1.80202E+00-1.36259E-13-3.95866E-13
 -1       700 3.08537E+01 7.55207E+00-1.71005E-01 1.50838E+00 1.34497E-13-2.71852E-13
 -1       701 2.69503E+01-4.26177E+00 4.82284E-03-4.36980E+00 1.43923E-13-1.97157E-13
 -1       702 1.76628E+01-2.71594E+00 1.09815E-01-7.92822E+00 7.44231E-14 5.74124E-14
 -1       703 2.99114E+01-1.95560E+00-7.22863E-02 4.61851E-01-2.61765E-13 2.31721E-13
 -1       704 1.99238E+01 2.52775E+00-1.50870E-03-1.26287E-01 3.59242E-14-3.44322E-13
 -1       705 2.03494E+01 1.11499E+00 3.32364E-03 9.85358E-01 2.49965E-13-7.45950E-14
 -1       706 2.02622E+01 1.67982E+00-3.87138E-03-1.11922E+00-1.76723E-13-2.83495E-13
 -1       707 2.78048E+01-3.54181E+00-3.92379E-03 2.13283E+00-1.73916E-13 1.62512E-13
 -1       708 1.13104E+01 2.19134E+00 1.06781E-01-3.79217E+00 2.18773E-13-1.45849E-13
 -1       709 2.01105E+01 2.05956E+00-2.04961E-03-8.39033E-01-1.17655E-13-3.66974E-13
 -1       710 1.99539E+01 2.45673E+00-1.56990E-03-3.83400E-01-3.15656E-14-3.42328E-13
 -1       711 2.83281E+01-3.15928E+00-2.12288E-02-1.56190E+00-1.26413E-13 1.79922E-13
 -1       712 2.02698E+01 1.29651E+00-1.70696E-03 6.26232E-01 2.02489E-13-1.94435E-13
 -1       713 2.00876E+01 2.13093E-02-5.02522E-06-1.64334E-01 1.11934E-13-1.21198E-13
 -1       714 2.01688E+01 2.20839E-01 1.51443E-05-3.83987E-02 1.17644E-13-7.64219E-14
 -1       715 2.02214E+01 4.03099E-01-4.87794E-04 1.03504E-01 1.49319E-13-1.05905E-13
 -1       716 2.69272E+01 6.84482E+00-9.73283E-02-5.28472E-01-7.34066E-14-2.53613E-13
 -1       717 2.02901E+01 7.33017E-01 1.79759E-04-2.90371E-01-1.15369E-13-3.10474E-13
 -1       718 2.02601E+01 4.34362E-01-1.20693E-05-9.12016E-02-8.11716E-14-2.41925E-13
 -1       719 2.02196E+01 2.35396E-01-1.10961E-05 3.90889E-02-1.29488E-13-2.05576E-13
 -1       720 2.01775E+01 1.04475E-01-1.13800E-05 1.16294E-01-1.27141E-13-1.64631E-13
 -1       721 2.01392E+01 2.06128E-02-9.59393E-06 1.55622E-01-8.82994E-14-1.67824E-13
 -1       722 2.01063E+01-3.09590E-02-9.16178E-06 1.68983E-01-1.82422E-14-2.07756E-13
 -1       723 2.00792E+01-6.07280E-02-9.05807E-06 1.65419E-01 1.37791E-15-1.79496E-13
 -1       724 2.00575E+01-7.63264E-02-8.86258E-06 1.51420E-01-2.12653E-14-1.66465E-13
 -1       725 2.00405E+01-8.34250E-02-8.46648E-06 1.31390E-01 3.72620E-14-1.24151E-13
 -1       726 2.00278E+01-8.63762E-02-7.76986E-06 1.08095E-01-1.30789E-15-1.28482E-13
 -1       727 2.00193E+01-8.87058E-02-7.26693E-06 8.30098E-02-6.07913E-14-9.61008E-14
 -1       728 2.00151E+01-9.34993E-02-7.18648E-06 5.65645E-02-1.58389E-13-1.09331E-13
 -1       729 2.00161E+01-1.03715E-01-7.80313E-06 2.82864E-02-1.08889E-13-7.38909E-14
 -1       730 2.00238E+01-1.22414E-01-9.47591E-06-3.16074E-03-6.14230E-14-9.08944E-14
 -1       731 2.00409E+01-1.52853E-01-1.26677E-05-4.00491E-02-1.21545E-13-5.35996E-14
 -1       732 2.00708E+01-1.98336E-01-1.80038E-05-8.57654E-02-5.76395E-14-3.86090E-14
 -1       733 2.01182E+01-2.61649E-01-2.62264E-05-1.45061E-01 8.12950E-15 3.14211E-14
 -1       734 2.01882E+01-3.43860E-01-3.78502E-05-2.24284E-01 1.04883E-13-3.38160E-14
 -1       735 2.02848E+01-4.42216E-01-5.29013E-05-3.31391E-01 2.05951E-13-1.31196E-13
 -1       736 2.04091E+01-5.46949E-01-7.36979E-05-4.75240E-01 1.38016E-13-7.07405E-14
 -1       737 2.05556E+01-6.37291E-01-8.33412E-05-6.63252E-01 1.72266E-13-8.84260E-15
 -1       738 2.07077E+01-6.78465E-01-8.80710E-05-8.96260E-01 9.49544E-14-6.31045E-14
 -1       739 2.08360E+01-6.22657E-01-6.47631E-05-1.16039E+00 5.73877E-14-1.30378E-13
 -1       740 2.09011E+01-4.18033E-01 2.43207E-04-1.41699E+00 7.41955E-14-1.05771E-13
 -1       741 2.08652E+01-3.12545E-02 5.20337E-04-1.59577E+00 2.12547E-14 6.06539E-14
 -1       742 2.07156E+01 5.19704E-01 4.84981E-04-1.60184E+00-2.42654E-14 1.65022E-13
 -1       743 2.04892E+01 1.13550E+00 3.08942E-04-1.34827E+00-5.57009E-14 3.12407E-13
 -1       744 2.02760E+01 1.64277E+00 1.34078E-04-8.13750E-01-1.06693E-13 2.70123E-13
 -1       745 2.01757E+01 1.86752E+00-4.29493E-05-8.38802E-02-1.34670E-13 2.48779E-13
 -1       746 2.02412E+01 1.72167E+00 3.51430E-05 6.68183E-01-1.30853E-13 5.11601E-13
 -1       747 2.04380E+01 1.26292E+00 2.46790E-04 1.25668E+00-1.36236E-13 1.61441E-13
 -1       748 2.06703E+01 6.55638E-01 3.42518E-04 1.57320E+00-1.09673E-13 9.87302E-14
 -1       749 2.08416E+01 8.05240E-02 3.08685E-04 1.61872E+00-3.04362E-13-1.19320E-13
 -1       750 2.09025E+01-3.44922E-01 1.82626E-04 1.47050E+00-1.10248E-13 5.68531E-14
 -1       751 2.08563E+01-5.86430E-01 6.41504E-05 1.22535E+00 4.43990E-14 1.79194E-13
 -1       752 2.07372E+01-6.68593E-01-1.77437E-05 9.60301E-01 7.78822E-14 1.84543E-13
 -1       753 2.05860E+01-6.41736E-01-4.85289E-05 7.21530E-01 5.90159E-14 8.01351E-14
 -1       754 2.04352E+01-5.56668E-01-8.36631E-05 5.27141E-01 2.18631E-13-3.66402E-13
 -1       755 2.03040E+01-4.51403E-01-7.02972E-05 3.77988E-01 3.63862E-13-7.43184E-13
 -1       756 2.01986E+01-3.48632E-01-2.04224E-05 2.69424E-01 2.82169E-13-5.43456E-13
 -1       757 2.01216E+01-2.62823E-01 1.04262E-04 1.89949E-01-2.67223E-13-4.93191E-13
 -1       758 2.00585E+01-2.79665E-02-1.41531E-05-1.79070E-01 1.10856E-13-1.38014E-13
 -1       759 1.98565E+01 1.61310E-01-1.90368E-04-1.56430E-02 8.59252E-14-5.55121E-13
 -1       760 2.01239E+01 9.88876E-02-9.19193E-06-1.21885E-01 5.54690E-14-5.50429E-14
 -1       761 2.00381E+01-5.40219E-02-1.63607E-05-1.75026E-01 4.15391E-14-1.35517E-13
 -1       762 2.00234E+01-6.67182E-02-1.52634E-05-1.60540E-01-1.33461E-14-5.97228E-14
 -1       763 2.00129E+01-7.04834E-02-1.55502E-05-1.40462E-01 3.10070E-14-8.88459E-14
 -1       764 2.00054E+01-6.82672E-02-1.30893E-05-1.18058E-01 6.20007E-14-1.11879E-14
 -1       765 1.99992E+01-6.11868E-02-1.06905E-05-9.44325E-02-1.73682E-15-9.21970E-14
 -1       766 1.99933E+01-5.01845E-02-1.00057E-05-7.33384E-02 1.11284E-14-1.90474E-13
 -1       767 1.99851E+01-3.38205E-02-7.18934E-06-5.46957E-02 3.64542E-14-2.43210E-13
 -1       768 1.99712E+01-9.05118E-03-4.13049E-06-3.93980E-02 1.58411E-13-2.32121E-13
 -1       769 1.99458E+01 2.95905E-02 1.47790E-06-2.82345E-02 1.00260E-13-6.48260E-14
 -1       770 1.98993E+01 9.07982E-02-1.16946E-05-2.18145E-02 1.31618E-13 2.31565E-14
 -1       771 1.98089E+01 1.94174E-01 2.65139E-05-1.92702E-02-6.22068E-14-1.06358E-13
 -1       772 1.96533E+01 3.50040E-01 1.77004E-05-1.67867E-02-2.12014E-14-1.76461E-13
 -1       773 1.93824E+01 5.86919E-01 1.70523E-05-2.74849E-03-4.82588E-14-1.49694E-13
 -1       774 1.89199E+01 9.32751E-01 7.63305E-05 5.06709E-02-2.24590E-13-1.72457E-13
 -1       775 1.81492E+01 1.40626E+00 2.97089E-04 1.99140E-01-1.21918E-13-2.95042E-14
 -1       776 1.68247E+01 2.01362E+00 5.53852E-03 5.82711E-01 5.86391E-15 2.10766E-15
 -1       777 1.48192E+01 2.65026E+00 2.10132E-02 1.31977E+00 3.02527E-14-1.30950E-13
 -1       778 1.98469E+01 1.36763E-01 6.70825E-05-1.11503E-01 3.32302E-13-7.65972E-13
 -1       779 1.98960E+01 6.23407E-02 7.21226E-05-1.93232E-01 3.49204E-13 9.39310E-13
 -1       780 2.02702E+01 6.93644E-01 1.21600E-03 3.24668E-01 1.45389E-13-1.41508E-13
 -1       781 2.02040E+01-2.77241E-01 1.95640E-05-9.75819E-02-3.88624E-13-7.54628E-14
 -1       782 2.01487E+01-2.13972E-01-3.70321E-05-1.95977E-01-2.55764E-13-4.58238E-13
 -1       783 2.01620E+01-2.77341E-01-3.02682E-04 1.11625E-01-3.18141E-13-6.94222E-13
 -1       784 1.67470E+01 2.07585E+00 4.31317E-03-5.25088E-01 5.61375E-14 1.85558E-14
 -1       785 1.88722E+01 9.85118E-01 3.82907E-04-4.04647E-02-1.86550E-13 3.23991E-13
 -1       786 2.02195E+01 1.67606E+00 4.12129E-07-8.39188E-01-1.19158E-13-3.28343E-13
 -1       787 2.80818E+01-6.99774E-01-3.80697E-02-1.24287E+00-1.10420E-13-1.62961E-13
 -1       788 1.43383E+01 2.80586E+00 2.24643E-02-1.19472E+00-2.20583E-14-1.55960E-13
 -1       789 1.80600E+01 1.47683E+00 1.23536E-03-1.81428E-01-2.53878E-13 3.69945E-13
 -1       790 8.96573E+00 2.76976E+00 1.44967E-01 2.14391E+00-1.04609E-13-9.68114E-14
 -1       791 2.02098E+01-2.98273E-01 9.03990E-05 1.15273E-02-3.63981E-13-3.35923E-13
 -1       792 2.30190E+01-3.61299E+00 2.89675E-02 5.64477E+00-3.79211E-15 5.47372E-14
 -1       793 1.75403E+01-1.33764E+00 6.71812E-02 6.47178E+00 1.95659E-14-2.23552E-13
 -1       794 1.93596E+01 6.23412E-01 9.03639E-05 1.62948E-03-1.12799E-13-2.14885E-13
 -1       795 1.24123E+01 1.20614E+00 1.12516E-01 5.26056E+00-9.32258E-14-2.02428E-13
 -1       796 2.91067E+01 1.18070E+00-7.92362E-02 1.86207E+00 6.68736E-14-7.73149E-14
 -1       797 2.02801E+01 1.13368E+00 6.34648E-04-5.36141E-01-1.11284E-13-3.20521E-13
 -1       798 1.96459E+01 3.75773E-01-3.59719E-04 5.45935E-03 2.20936E-14-3.94388E-13
 -1       799 2.72339E+01 3.57697E+00-5.47174E-02-2.31548E+00 6.51354E-14-1.74223E-13
 -1       800 2.74063E+01 7.02423E+00-1.10157E-01 7.39276E-01-6.47052E-14-4.19956E-13
 -1       801 2.49242E+01-3.55080E+00 2.31267E-03-3.75064E+00-1.83531E-13 1.46628E-13
 -1       802 2.01350E+01 1.89058E+00-3.48855E-04 1.98449E-01 8.87060E-14-3.21696E-13
 -1       803 2.83587E+01 4.96265E+00-1.01957E-01 2.18823E+00 2.33435E-13-2.17338E-13
 -1       804 2.01652E+01 1.78429E+00-2.48676E-04-3.73838E-01-6.78838E-14-3.14060E-13
 -1       805 1.47123E+01 4.75731E-01 8.03939E-02-5.44457E+00-6.36730E-14 2.38351E-13
 -1       806 1.83857E+01-1.56589E+00 5.53777E-02-6.27529E+00-2.92115E-13 1.04088E-13
 -1       807 2.02102E+01 1.59534E+00-7.66614E-04-5.26598E-01-1.21782E-13-3.49366E-13
 -1       808 1.99806E+01-3.61694E-02 4.47690E-04-2.29699E-01 2.34121E-13 5.45980E-13
 -1       809 2.79879E+01-1.43897E+00-1.95299E-02 6.15748E-01-3.94337E-14 1.66657E-13
 -1       810 2.54360E+01 4.77125E+00-3.13793E-02-1.64626E+00 2.44544E-14-1.59366E-13
 -1       811 2.00622E+01-1.26842E-01-2.85982E-04-2.32814E-01 1.99529E-13 1.56903E-14
 -1       812 2.02184E+01 1.58092E+00-2.27944E-04 5.32383E-01 1.57202E-13-2.51676E-13
 -1       813 2.01683E+01 1.77637E+00-3.85019E-04 3.80551E-01 1.22582E-13-2.94770E-13
 -1       814 2.01230E+01 1.92913E+00-3.11652E-04 3.22945E-03 4.86599E-14-3.08197E-13
 -1       815 2.20515E+01-3.01687E+00 2.17376E-02-5.51142E+00-1.54874E-13-1.80463E-14
 -1       816 2.02268E+01 9.39666E-02-1.01846E-05-1.13960E-01 9.52599E-14-2.01526E-13
 -1       817 2.62366E+01-2.98795E+00-1.09892E-02-1.51019E+00 4.53099E-14 9.23268E-14
 -1       818 2.03270E+01 4.31761E-01-3.07520E-05-4.33602E-02-4.17454E-14-2.43968E-13
 -1       819 2.02999E+01 2.28388E-01-2.21632E-05 5.00931E-02-6.76671E-14-1.71578E-13
 -1       820 2.02627E+01 9.22301E-02-7.12093E-06 1.05616E-01-9.85422E-14-1.22764E-13
 -1       821 2.02225E+01 4.40688E-03-4.50985E-06 1.32848E-01-6.45609E-14-1.32394E-13
 -1       822 2.01834E+01-4.94754E-02-3.04283E-06 1.40458E-01-1.67068E-14-1.75262E-13
 -1       823 2.01478E+01-8.02907E-02-2.93310E-06 1.35247E-01-2.35365E-14-2.58248E-13
 -1       824 2.01171E+01-9.62530E-02-3.12386E-06 1.22156E-01-8.68091E-15-2.52422E-13
 -1       825 2.00917E+01-1.03611E-01-2.14522E-06 1.04608E-01 7.18188E-15-2.72764E-13
 -1       826 2.00722E+01-1.07285E-01-1.36352E-06 8.48049E-02 4.47261E-15-2.74196E-13
 -1       827 2.00592E+01-1.11363E-01-7.75931E-07 6.39960E-02-6.14159E-14-1.90863E-13
 -1       828 2.00538E+01-1.19522E-01-3.51015E-07 4.26782E-02-1.54214E-13-4.25049E-14
 -1       829 2.00579E+01-1.35402E-01-1.74638E-07 2.07108E-02-1.70292E-14-1.18311E-13
 -1       830 2.00744E+01-1.62880E-01-3.31754E-07-2.69398E-03-1.36190E-13-8.92430E-14
 -1       831 2.01079E+01-2.06199E-01-1.02212E-06-2.91464E-02 7.93606E-16-3.66418E-14
 -1       832 2.01648E+01-2.69756E-01-2.81761E-06-6.14730E-02-2.74165E-14 8.57031E-14
 -1       833 2.02530E+01-3.57361E-01-6.54403E-06-1.04340E-01 3.95537E-14 4.59286E-14
 -1       834 2.03820E+01-4.70571E-01-1.20751E-05-1.65112E-01 7.37879E-14-8.18602E-15
 -1       835 2.05601E+01-6.05664E-01-2.13335E-05-2.54733E-01 2.09227E-13-4.40536E-14
 -1       836 2.07917E+01-7.48587E-01-5.95105E-05-3.87951E-01 1.07562E-13-3.79361E-14
 -1       837 2.10701E+01-8.67940E-01-7.03489E-05-5.80734E-01 1.07707E-13-1.90517E-13
 -1       838 2.13710E+01-9.10247E-01-1.56941E-04-8.42689E-01 2.95714E-14-8.40743E-14
 -1       839 2.16464E+01-8.00280E-01-3.63671E-04-1.16356E+00 1.50306E-13-1.48345E-15
 -1       840 2.18289E+01-4.56232E-01 2.93702E-04-1.49237E+00 1.51209E-13 5.94553E-14
 -1       841 2.18552E+01 1.67022E-01 3.07128E-04-1.72350E+00 8.12746E-14-2.94168E-14
 -1       842 2.16982E+01 1.02600E+00 1.21955E-04-1.70890E+00-1.89500E-15-1.22564E-13
 -1       843 2.14408E+01 1.90493E+00 3.17492E-04-1.31925E+00-6.61470E-14-8.11951E-14
 -1       844 2.12290E+01 2.50135E+00-6.18718E-04-5.65294E-01-1.76085E-13-9.88017E-14
 -1       845 2.12040E+01 2.56915E+00-4.53949E-04 3.68908E-01 4.03193E-14-2.76914E-14
 -1       846 2.13835E+01 2.07184E+00-9.97784E-05 1.18394E+00-1.83337E-13-1.00109E-14
 -1       847 2.16466E+01 1.22542E+00-4.98743E-05 1.66030E+00-1.91931E-14 8.19834E-14
 -1       848 2.18330E+01 3.44697E-01 2.89554E-04 1.75005E+00-2.38001E-13 9.90992E-14
 -1       849 2.18484E+01-3.38327E-01 3.50808E-04 1.55978E+00-4.60779E-14 2.56958E-13
 -1       850 2.16944E+01-7.40441E-01 3.39696E-04 1.24203E+00-1.34761E-14 2.00186E-13
 -1       851 2.14317E+01-8.94397E-01 1.17180E-04 9.14272E-01 1.06953E-13 1.71818E-13
 -1       852 2.11283E+01-8.74300E-01 8.78417E-05 6.39667E-01-7.52995E-14 1.26909E-13
 -1       853 2.08398E+01-7.63780E-01-4.94768E-05 4.35660E-01-6.08131E-15 1.25145E-13
 -1       854 2.05935E+01-6.20110E-01-9.48423E-05 2.94367E-01 6.22393E-14-2.04980E-14
 -1       855 2.04031E+01-4.80556E-01 2.61289E-04 1.98686E-01 2.50692E-13-2.69338E-13
 -1       856 2.02630E+01-3.69218E-01-6.74036E-04 1.46959E-01-2.52384E-14-6.53265E-13
 -1       857 2.01196E+01-7.25741E-02-1.56845E-06-1.49595E-01 2.07655E-14-1.85410E-13
 -1       858 2.00932E+01-8.55252E-02-1.89112E-06-1.35739E-01 5.07808E-14-2.49467E-13
 -1       859 2.00713E+01-8.84179E-02 9.13591E-07-1.17256E-01 2.06138E-14-2.98512E-13
 -1       860 2.00520E+01-8.41478E-02-3.77371E-08-9.55644E-02 6.78282E-14-2.24490E-13
 -1       861 2.00360E+01-7.47601E-02-2.45349E-06-7.42002E-02 8.41161E-14-2.54438E-13
 -1       862 2.00202E+01-6.02870E-02-2.50605E-06-5.27207E-02 1.53376E-14-1.94683E-13
 -1       863 2.00015E+01-3.90826E-02-3.88006E-06-3.08937E-02 6.25114E-14-1.63835E-13
 -1       864 1.99749E+01-7.55061E-03-5.47281E-06-7.50209E-03 2.42110E-14-1.10416E-13
 -1       865 1.99324E+01 4.02402E-02-2.20886E-05 2.00904E-02 3.64885E-14-7.77675E-14
 -1       866 1.98569E+01 1.17644E-01-1.04810E-05 5.98407E-02 1.16965E-13 2.82950E-16
 -1       867 1.97346E+01 2.29590E-01-3.22811E-05 1.19274E-01-8.32886E-15-1.83212E-13
 -1       868 1.95329E+01 3.92104E-01-5.65627E-05 2.20151E-01-4.80756E-14-2.96311E-13
 -1       869 1.92087E+01 6.15835E-01-5.94537E-05 3.99700E-01-9.06808E-14-2.38836E-13
 -1       870 1.87051E+01 8.98066E-01-7.65318E-06 7.21054E-01-2.09673E-13-4.12370E-13
 -1       871 1.79134E+01 1.21342E+00 2.31327E-03 1.33049E+00-9.70002E-14-2.86983E-13
 -1       872 1.68048E+01 1.40594E+00 4.18573E-03 2.36089E+00-5.59119E-14-1.99050E-13
 -1       873 2.03124E+01 9.26735E-01 4.85945E-04 3.21383E-01 1.09382E-13-1.84551E-13
 -1       874 2.02877E+01-3.33053E-01 2.81126E-04-2.15126E-01-1.83859E-13-6.53792E-13
 -1       875 2.01338E+01 1.89360E+00-3.15919E-04-1.92131E-01 1.21528E-14-2.83154E-13
 -1       876 2.02655E+01 2.25933E-01-4.04359E-05-5.05337E-02 8.00573E-14-1.33750E-13
 -1       877 2.53236E+01 4.81672E+00-4.19483E-02 1.57886E+00 3.97946E-15-2.65317E-13
 -1       878 1.64644E+01 1.54012E+00 8.93726E-03-2.41897E+00-7.45395E-14 3.10896E-13
 -1       879 2.57541E+01 1.10667E+00-1.18114E-02-2.07177E+00-4.75878E-14-1.10430E-13
 -1       880 1.95065E+01 4.28419E-01 5.51294E-04-2.39652E-01 2.66575E-13 5.81798E-13
 -1       881 2.49305E+01-3.26669E+00 6.19691E-03 3.02874E+00-2.51548E-14-1.31272E-13
 -1       882 2.08776E+01-2.08802E+00 1.68897E-02 4.96041E+00-3.52843E-15 5.90430E-14
 -1       883 1.78266E+01 1.27352E+00 1.44824E-03-1.32321E+00-3.02529E-13 6.19028E-13
 -1       884 2.63873E+01 2.67390E+00-4.25603E-02 2.25155E+00-3.14566E-14-1.45067E-13
 -1       885 2.65054E+01-2.35355E+00-4.00836E-03 3.11182E-01-2.22935E-13 1.45907E-13
 -1       886 2.03319E+01 7.26597E-01-1.65968E-04-1.88245E-01-5.13876E-14-3.04054E-13
 -1       887 1.97179E+01 2.53759E-01 1.31425E-04-1.59128E-01 4.29801E-13-4.08747E-14
 -1       888 2.02999E+01 4.21417E-01 3.22155E-04 5.67733E-02 1.01676E-13-1.32441E-13
 -1       889 2.01507E+01-4.45262E-02 1.76537E-06-1.55026E-01 2.93555E-14-1.04348E-13
 -1       890 1.62675E+01 6.40702E-01 2.22410E-02 4.38144E+00 4.32449E-14-7.09910E-14
 -1       891 2.01871E+01 7.45351E-03-5.21639E-06-1.45978E-01 1.27898E-13-1.47493E-13
 -1       892 1.86229E+01 9.59781E-01 3.23454E-04-7.43649E-01-3.33307E-13 3.93140E-13
 -1       893 1.98059E+01 1.42118E-01 9.37787E-04-2.98310E-01 5.79453E-13 5.35850E-13
 -1       894 2.51780E+01 5.80333E+00-5.01437E-02-3.03425E-02 7.99933E-14-2.10110E-13
 -1       895 1.91612E+01 6.66905E-01 1.14105E-03-4.19054E-01 2.11531E-13 4.45478E-13
 -1       896 2.02538E+01 1.36245E+00-1.35943E-03-5.42414E-01-1.17941E-13-3.88620E-13
 -1       897 1.55167E+01 1.31384E+00 2.34536E-02-3.72252E+00-1.20777E-13 5.09141E-13
 -1       898 1.77541E+01-3.21002E-01 1.89374E-02-4.81007E+00-2.73803E-13 2.41794E-13
 -1       899 2.02955E+01 1.21752E+00 7.46032E-04-3.00205E-01-1.92382E-14-2.98637E-13
 -1       900 2.03333E+01-3.88648E-01 1.78300E-04-6.51039E-02-3.32258E-13-2.79646E-13
 -1       901 2.01712E+01-2.21027E-01 5.50979E-04-3.36792E-01-1.67883E-13-3.83889E-13
 -1       902 2.02827E+01 1.34079E+00 3.12593E-04-1.94208E-01 6.07423E-15-2.42531E-13
 -1       903 2.54527E+01-7.60702E-01 4.21077E-03-1.34780E+00-7.13742E-14-2.38684E-13
 -1       904 2.62992E+01 4.01264E-01-1.10138E-02 1.87929E+00 1.37582E-14-1.38687E-13
 -1       905 1.99469E+01-1.49347E-02-1.04299E-03-3.58543E-01 2.83287E-13 6.64268E-13
 -1       906 2.44924E+01 2.43198E+00-1.56526E-02-2.07911E+00-7.23492E-14-1.09554E-13
 -1       907 2.02707E+01 1.40794E+00-4.27006E-05 6.89243E-02 5.30241E-14-2.93704E-13
 -1       908 2.39764E+01-2.71662E+00-1.81075E-03-2.53098E+00-1.35854E-13-6.00621E-14
 -1       909 2.22877E+01-2.31493E+00 8.20667E-03-3.76173E+00-2.88558E-13 8.14106E-15
 -1       910 2.02806E+01 1.33914E+00-2.42129E-04 1.95464E-01 1.06287E-13-3.11142E-13
 -1       911 2.59071E+01-1.65449E+00-6.15373E-03 5.50249E-01 2.10018E-15-1.54864E-13
 -1       912 1.96436E+01 2.53922E-01-9.00716E-04-4.67322E-01 4.48282E-13 3.42746E-13
 -1       913 1.84564E+01 4.91178E-01 4.13913E-03-2.50620E+00-1.93230E-13 2.35026E-13
 -1       914 2.03528E+01 1.97589E-01-9.69300E-06 5.24016E-02-6.28097E-14-1.89855E-13
 -1       915 2.03166E+01 6.56426E-02 9.10965E-07 8.69160E-02-7.52268E-14-1.59201E-13
 -1       916 2.02741E+01-1.91198E-02-3.53622E-07 1.02483E-01-3.22608E-14-1.50700E-13
 -1       917 2.02307E+01-7.04428E-02 1.31459E-06 1.05035E-01-5.29118E-14-1.66683E-13
 -1       918 2.01900E+01-9.92462E-02-1.80105E-06 9.91625E-02-4.04595E-14-1.40921E-13
 -1       919 2.01541E+01-1.13742E-01 7.14587E-07 8.82934E-02 2.73238E-15-1.73574E-13
 -1       920 2.01243E+01-1.20363E-01 2.29803E-06 7.49231E-02 3.64599E-14-1.28516E-13
 -1       921 2.01019E+01-1.24257E-01 3.55334E-06 6.07766E-02 7.51264E-14-8.30844E-14
 -1       922 2.00879E+01-1.29765E-01 5.02963E-06 4.70559E-02-2.44367E-14-7.61256E-14
 -1       923 2.00842E+01-1.40904E-01 7.01086E-06 3.46277E-02-1.06574E-13 3.55646E-14
 -1       924 2.00937E+01-1.61798E-01 9.65532E-06 2.41118E-02-1.35000E-13-3.67271E-14
 -1       925 2.01206E+01-1.97043E-01 1.42807E-05 1.58375E-02 3.04382E-14 2.43506E-14
 -1       926 2.01717E+01-2.51958E-01 1.98429E-05 9.51040E-03 7.32404E-15 5.66826E-14
 -1       927 2.02563E+01-3.32381E-01 2.70950E-05 3.54023E-03 5.03467E-14 5.91404E-14
 -1       928 2.03869E+01-4.43958E-01 3.42342E-05-6.20536E-03 1.22406E-13 2.33228E-13
 -1       929 2.05785E+01-5.90074E-01 4.64357E-05-2.82439E-02 4.69513E-14 1.75304E-13
 -1       930 2.08470E+01-7.68007E-01 5.28681E-05-7.81427E-02 1.43333E-13 9.19626E-15
 -1       931 2.12030E+01-9.60682E-01-1.51126E-04-1.81097E-01 1.13383E-13 1.32053E-13
 -1       932 2.16418E+01-1.12290E+00-9.94036E-05-3.67305E-01 1.67053E-13 4.91417E-14
 -1       933 2.21336E+01-1.17676E+00 4.72691E-05-6.66830E-01 1.03019E-13 5.85116E-14
 -1       934 2.26035E+01-9.97632E-01 5.68024E-04-1.09259E+00 1.02297E-13-2.52335E-13
 -1       935 2.29224E+01-4.47188E-01 1.72007E-04-1.55881E+00 3.03691E-14-2.05499E-13
 -1       936 2.29892E+01 5.34040E-01-5.20504E-03-1.88291E+00-7.92760E-14-2.48619E-13
 -1       937 2.28233E+01 1.78362E+00-2.33030E-04-1.81583E+00-8.79199E-14-2.21701E-13
 -1       938 2.24882E+01 2.98866E+00-3.98759E-03-1.19611E+00-4.99246E-14-1.84775E-13
 -1       939 2.23191E+01 3.53088E+00-2.52783E-03-1.30140E-01 1.19057E-13-6.50857E-15
 -1       940 2.24304E+01 3.16904E+00-5.69021E-03 9.94292E-01-7.44048E-14 1.66962E-14
 -1       941 2.27391E+01 2.07683E+00-4.64355E-03 1.72766E+00-3.99085E-14 4.79072E-14
 -1       942 2.29779E+01 7.77868E-01-1.38191E-03 1.89269E+00-1.27020E-13 5.23305E-14
 -1       943 2.29650E+01-2.82746E-01 3.36053E-04 1.62590E+00-8.86653E-14 1.88199E-13
 -1       944 2.26814E+01-9.13320E-01 3.20858E-04 1.17837E+00-3.30604E-14 7.26252E-14
 -1       945 2.22332E+01-1.15619E+00 1.50991E-04 7.53525E-01 1.63557E-13 3.06218E-13
 -1       946 2.17373E+01-1.13518E+00 5.58247E-04 4.25606E-01 1.54465E-14 1.95826E-13
 -1       947 2.12803E+01-9.84425E-01-8.65614E-05 2.20936E-01 4.11504E-14 3.13594E-13
 -1       948 2.09031E+01-7.91915E-01 1.29721E-04 1.05024E-01 9.06479E-14 4.31573E-13
 -1       949 2.06124E+01-6.05875E-01 6.09267E-04 4.83390E-02 3.13074E-14 1.70112E-13
 -1       950 2.01085E+01-1.03751E-01 5.70725E-06-8.67496E-02-2.54026E-14-1.41807E-13
 -1       951 2.01723E+01-9.09803E-02 8.74331E-06-1.16126E-01 9.01972E-14-2.11593E-13
 -1       952 2.02698E+01 1.40985E+00 8.37012E-06-6.51886E-02 2.64785E-14-2.83721E-13
 -1       953 2.00834E+01-9.80692E-02 6.70198E-06-6.81715E-02 3.43463E-14-3.20547E-15
 -1       954 2.00612E+01-8.73311E-02 5.52028E-06-4.76810E-02 4.53992E-14 7.15591E-14
 -1       955 2.00396E+01-7.16316E-02 3.79796E-06-2.45280E-02 6.30993E-14-2.00216E-14
 -1       956 2.00154E+01-4.95618E-02 1.92484E-06 3.38579E-03 9.60197E-18-1.29698E-13
 -1       957 1.99836E+01-1.82205E-02-6.10367E-06 4.00069E-02 3.30363E-14-5.77571E-14
 -1       958 1.99336E+01 2.96006E-02 9.35998E-06 9.58200E-02 6.32162E-15-6.07327E-14
 -1       959 1.98590E+01 9.46971E-02 1.74064E-05 1.78307E-01 1.23396E-13 3.80816E-14
 -1       960 1.97439E+01 1.83038E-01 3.92734E-05 3.09921E-01 1.33232E-13-1.20476E-14
 -1       961 1.95718E+01 2.93393E-01 9.36594E-05 5.23993E-01-7.00485E-14-3.51057E-14
 -1       962 1.93282E+01 4.11075E-01 1.76494E-04 8.71081E-01-6.38863E-14-2.81695E-14
 -1       963 1.89997E+01 4.90859E-01 1.14759E-03 1.46348E+00-1.77845E-13-7.00413E-14
 -1       964 1.86423E+01 4.17770E-01 1.91212E-03 2.35148E+00-8.03309E-14-7.27773E-14
 -1       965 2.03683E+01-3.87828E-01 3.40810E-04-3.96741E-01-2.61411E-13-7.67292E-13
 -1       966 1.90809E+01-4.31141E-01 1.17707E-03 3.71800E+00-9.75196E-14-1.25289E-13
 -1       967 2.03308E+01 2.05427E-01-3.04962E-05-5.61000E-02 1.34880E-13-2.30504E-13
 -1       968 2.03523E+01 7.54481E-01-2.23909E-04 1.52386E-01 9.70605E-14-2.43616E-13
 -1       969 2.27603E+01-2.33273E+00 5.42782E-03 3.09348E+00-4.02809E-14-7.41364E-14
 -1       970 2.46459E+01-2.53060E+00 2.51481E-04 1.28428E+00-7.55093E-14 5.66366E-15
 -1       971 2.43408E+01 2.99701E+00-1.53245E-02 1.93339E+00 9.23792E-14-1.06259E-13
 -1       972 2.03745E+01 6.71100E-01 2.21183E-05-1.01804E-01-1.45904E-14-2.44600E-13
 -1       973 1.89190E+01 5.39776E-01 3.09144E-04-1.50843E+00-7.85496E-14 1.23633E-13
 -1       974 2.02104E+01-6.41602E-02 4.67722E-06-1.22660E-01 5.71367E-14-1.78987E-13
 -1       975 2.03032E+01 1.16339E+00 3.23047E-05 2.82053E-01 1.11666E-13-2.52496E-13
 -1       976 1.80787E+01 2.54398E-01 1.48973E-02-3.53966E+00-1.02011E-13 4.05765E-13
 -1       977 2.03544E+01 4.02789E-01 9.74484E-05 1.76183E-02 8.30728E-14-2.33775E-13
 -1       978 2.47221E+01-2.25425E+00 4.91333E-03-5.84403E-01-5.92701E-14 8.25971E-14
 -1       979 2.03748E+01 3.94258E-01-2.16063E-05-8.05310E-03-3.26439E-15-1.96380E-13
 -1       980 2.01892E+01-1.51024E+00 1.84214E-02-4.60859E+00-3.08043E-13-2.23987E-14
 -1       981 2.01385E+01-1.02458E-01 1.26915E-05-1.03480E-01 5.07978E-14-1.79898E-13
 -1       982 2.01516E+01-2.02137E-01 8.16271E-04-5.44545E-01-8.90622E-14-1.15661E-13
 -1       983 1.92566E+01 4.56252E-01-1.51661E-03-9.30458E-01-1.01029E-13 2.56821E-13
 -1       984 2.39625E+01 8.11171E-01-2.02218E-02-1.94201E+00-8.47408E-14-1.62780E-13
 -1       985 2.02935E+01 7.08434E-02 4.10914E-06-9.94666E-02 7.07262E-14-2.08766E-13
 -1       986 2.45232E+01 1.31407E+00-4.70055E-03 2.05655E+00-2.59609E-14-2.68882E-13
 -1       987 2.35887E+01 4.36600E+00-1.40660E-02-7.67213E-01 9.59144E-14 2.65133E-14
 -1       988 2.03615E+01 9.74043E-01 5.57287E-04 7.88468E-02 7.67122E-14-2.34063E-13
 -1       989 2.45503E+01-1.67977E+00 1.89753E-04-4.35624E-01-1.12898E-13-1.89646E-13
 -1       990 2.32303E+01-2.11115E+00 3.68912E-04-1.52691E+00-2.08007E-13 2.31283E-13
 -1       991 2.03639E+01 9.99891E-01 1.57220E-04 2.26420E-03 3.65223E-14-2.58702E-13
 -1       992 2.37874E+01 4.47322E+00-1.60992E-02 7.98731E-01-5.69683E-15-1.14633E-13
 -1       993 2.22404E+01-1.83816E+00 9.33741E-04-2.40872E+00-2.75920E-13-1.14198E-13
 -1       994 2.02518E+01-1.36199E-02 1.88539E-06-1.18989E-01 8.09367E-14-1.27294E-13
 -1       995 2.05488E+01-5.43198E-01-5.52063E-04-2.05134E-01-2.67014E-13-4.35443E-13
 -1       996 2.01012E+01-1.10060E-01 1.66943E-05-3.72548E-02 1.15230E-14 4.97349E-14
 -1       997 2.03932E+01 3.51446E-01 2.56517E-06-8.16046E-03 7.45051E-14-2.63298E-13
 -1       998 2.00773E+01-1.00064E-01 1.45618E-05-1.72815E-02 6.92974E-14 7.02336E-14
 -1       999 2.03439E+01 2.98280E-02-2.87282E-05 5.94646E-02-4.95621E-14-1.13459E-13
 -1      1000 2.02986E+01-4.60322E-02 3.30730E-06 6.58961E-02 3.49226E-15-8.56103E-14
 -1      1001 2.02525E+01-9.10616E-02-1.33786E-05 6.55314E-02-3.33695E-14-1.57365E-14
 -1      1002 2.02092E+01-1.15368E-01 2.84938E-06 6.06845E-02-3.00235E-14 4.44077E-14
 -1      1003 2.01712E+01-1.26819E-01 8.51559E-06 5.37056E-02 6.72013E-14 7.07175E-14
 -1      1004 2.01401E+01-1.31699E-01 1.34611E-05 4.62681E-02 1.45541E-14-1.32468E-14
 -1      1005 2.01173E+01-1.34960E-01 1.81137E-05 3.98140E-02 4.05301E-14-9.65430E-14
 -1      1006 2.01043E+01-1.40832E-01 2.36989E-05 3.57926E-02-2.97997E-14-1.11955E-13
 -1      1007 2.01031E+01-1.53343E-01 3.19181E-05 3.58229E-02-1.21171E-13-9.54748E-15
 -1      1008 2.01173E+01-1.76813E-01 4.45237E-05 4.17968E-02-5.24871E-15 1.24041E-13
 -1      1009 2.01523E+01-2.16430E-01 6.53861E-05 5.59239E-02 8.40553E-14 7.71920E-14
 -1      1010 2.02167E+01-2.78641E-01 9.79208E-05 8.00558E-02 1.09200E-15 1.21012E-13
 -1      1011 2.03232E+01-3.71413E-01 1.39997E-04 1.15030E-01 1.50245E-13 1.05373E-13
 -1      1012 2.04897E+01-5.03626E-01 1.98888E-04 1.58164E-01-7.12727E-15 3.32906E-14
 -1      1013 2.07394E+01-6.83011E-01 2.58977E-04 2.00671E-01 5.43352E-14 2.39307E-14
 -1      1014 2.11017E+01-9.13103E-01 3.83790E-04 2.21766E-01 1.61058E-13-2.95906E-14
 -1      1015 2.15967E+01-1.17126E+00-2.30178E-04 1.74686E-01 1.08474E-13-2.75150E-14
 -1      1016 2.22326E+01-1.41195E+00-7.18621E-04 1.67243E-02 2.26732E-14-8.85865E-14
 -1      1017 2.29513E+01-1.50164E+00-3.24254E-03-3.11779E-01-9.69947E-14-1.82334E-13
 -1      1018 2.38549E+01-1.12563E+00-1.23726E-03 1.04970E+00-1.13794E-13-5.05376E-14
 -1      1019 2.31870E+01-1.50298E+00 5.69256E-04 4.48606E-01 1.22111E-13-1.24914E-13
 -1      1020 2.23573E+01-1.44009E+00-6.85448E-03 3.02388E-02-1.12876E-15-6.10707E-14
 -1      1021 2.17165E+01-1.21374E+00 8.41773E-06-1.47524E-01-1.49719E-14-4.20943E-14
 -1      1022 2.11836E+01-9.49257E-01 4.46612E-06-2.10463E-01 1.05845E-13-6.66006E-14
 -1      1023 2.08210E+01-7.29002E-01 7.44739E-05-2.25316E-01-4.64199E-14-2.56782E-13
 -1      1024 2.01621E+01-1.16680E-01 1.43674E-05-6.73276E-02-3.40067E-14 1.77470E-15
 -1      1025 2.04269E+01-4.40988E-01-1.73312E-03-6.66197E-01-2.94267E-13-6.07518E-13
 -1      1026 2.03625E+01 9.69990E-01-7.16424E-04-7.49211E-02-3.15051E-14-2.00438E-13
 -1      1027 2.03628E+01 8.80501E-01 1.66315E-04 1.25076E-01 1.00473E-13-2.84659E-13
 -1      1028 2.00556E+01-8.68652E-02 1.22287E-05 8.58190E-03 8.27729E-14 1.51020E-13
 -1      1029 2.00337E+01-7.00948E-02 8.84230E-06 4.43487E-02 9.90758E-14-5.77546E-14
 -1      1030 2.00070E+01-4.76348E-02 2.44543E-05 1.00075E-01-1.22305E-14-2.33795E-14
 -1      1031 1.99739E+01-2.09340E-02 3.85547E-05 1.81850E-01-3.95179E-14-1.21068E-14
 -1      1032 1.99301E+01 9.31618E-03 8.49220E-05 3.08331E-01 8.41640E-14-1.26384E-14
 -1      1033 1.98756E+01 3.57287E-02 1.72394E-04 5.04185E-01 1.89897E-15 1.28746E-13
 -1      1034 1.98194E+01 3.91273E-02 3.65757E-04 8.03751E-01-3.58675E-14-9.02314E-16
 -1      1035 1.97896E+01-2.42429E-02 7.23675E-04 1.28049E+00-2.52998E-14-1.18453E-13
 -1      1036 1.98587E+01-2.42756E-01-7.09168E-04 1.94398E+00-1.13237E-13-2.58100E-13
 -1      1037 2.06461E+01-9.88082E-01 4.00419E-04 2.70534E+00-9.29912E-14-1.52267E-13
 -1      1038 2.03826E+01 1.49662E-01-5.70711E-05 4.24040E-02-4.09492E-14-1.38069E-13
 -1      1039 2.43584E+01-2.36228E-01-4.40284E-03 1.65588E+00-8.68983E-14-1.34452E-13
 -1      1040 2.01290E+01-1.16234E-01 1.85993E-05-5.35840E-02-7.73599E-14 3.04115E-14
 -1      1041 2.30440E+01-2.05698E+00 1.98647E-03 1.59350E+00-6.68245E-14-1.44507E-13
 -1      1042 2.01999E+01-1.07911E-01 1.43600E-05-7.79962E-02 3.69084E-14 1.43576E-14
 -1      1043 2.02420E+01-8.49101E-02-8.99941E-06-8.45464E-02 7.09521E-14-2.55316E-14
 -1      1044 1.97921E+01-2.16286E-01 8.94000E-04-2.06995E+00-1.32636E-13-7.52755E-14
 -1      1045 2.03921E+01 5.78011E-01-4.99128E-05 4.73296E-02 7.79667E-14-2.77746E-13
 -1      1046 2.04063E+01 3.30702E-01 2.34208E-05 1.09241E-02-8.23353E-15-1.99635E-13
 -1      1047 1.99619E+01-8.88888E-02 2.99301E-04-9.51245E-01-4.27111E-14 1.35137E-13
 -1      1048 2.04092E+01 6.00999E-01 4.02701E-04-3.43550E-02-2.25662E-15-2.16565E-13
 -1      1049 2.10742E+01-1.37043E+00 4.54207E-03-3.12880E+00-1.73088E-13 2.00809E-14
 -1      1050 2.02873E+01-3.94921E-02 1.14771E-06-8.50144E-02 8.57820E-14-9.35808E-14
 -1      1051 2.03702E+01 1.61195E-01-5.80320E-05-5.18626E-02 8.61714E-14-1.75760E-13
 -1      1052 1.98926E+01-1.19263E-01 9.32714E-04-1.41117E+00-2.41856E-13-1.82504E-14
 -1      1053 1.99159E+01-5.42123E-01-5.06700E-03-2.76541E+00-1.82252E-13-1.51796E-13
 -1      1054 2.32419E+01-1.85869E+00-5.51181E-04 4.96023E-01-4.88071E-14-3.06352E-14
 -1      1055 2.06745E+01-6.20650E-01-1.04643E-04-4.73823E-01-3.61400E-14-4.11940E-13
 -1      1056 2.04080E+01 6.46875E-01-1.42337E-04 3.46589E-02 8.20399E-14-2.61471E-13
 -1      1057 2.20665E+01-1.54384E+00 5.45722E-04-1.48054E+00-2.46439E-15 4.39944E-14
 -1      1058 2.04201E+01 2.51837E-01-3.18636E-05 1.02753E-02 3.63705E-15-1.81659E-13
 -1      1059 2.04177E+01 6.30560E-01 1.12361E-04-4.70235E-03 5.85253E-15-1.68849E-13
 -1      1060 2.01102E+01-1.21802E-01-2.65167E-05-7.40994E-03 5.17402E-14-2.07195E-14
 -1      1061 2.03011E+01-7.22065E-02 5.20176E-06 2.52362E-02-4.82996E-14-1.25995E-13
 -1      1062 2.02533E+01-1.08097E-01 4.86626E-05 2.42389E-02-1.03000E-14-1.08463E-13
 -1      1063 2.02096E+01-1.26254E-01 4.89374E-05 2.26645E-02 1.06093E-14-1.28618E-13
 -1      1064 2.01718E+01-1.33766E-01 3.72728E-05 2.12267E-02 2.93617E-14-1.21117E-13
 -1      1065 2.01415E+01-1.36094E-01 2.96418E-05 2.11693E-02-3.21362E-14-1.02702E-13
 -1      1066 2.01197E+01-1.37637E-01 2.42624E-05 2.39737E-02 1.64190E-14-1.18299E-13
 -1      1067 2.01077E+01-1.42139E-01 2.26276E-05 3.16238E-02 1.06297E-13 4.87916E-15
 -1      1068 2.01077E+01-1.53268E-01 1.68156E-05 4.68940E-02 1.95157E-14 1.03603E-13
 -1      1069 2.01231E+01-1.75315E-01 1.84559E-06 7.34301E-02 2.23247E-14 6.70815E-14
 -1      1070 2.01601E+01-2.13623E-01 3.53629E-05 1.16044E-01 5.94211E-14 1.09599E-14
 -1      1071 2.02283E+01-2.75946E-01 5.39702E-05 1.80341E-01 8.27356E-14 1.06158E-13
 -1      1072 2.03440E+01-3.73402E-01-2.36800E-06 2.70994E-01 3.03102E-14 1.54749E-13
 -1      1073 2.05325E+01-5.20458E-01-1.26508E-04 3.88787E-01-3.29540E-14 1.42780E-13
 -1      1074 2.08298E+01-7.29262E-01 1.10545E-03 5.24752E-01 7.42808E-14 8.90443E-14
 -1      1075 2.12342E+01-1.02372E+00-8.34170E-03 6.73882E-01 7.38721E-14-6.11442E-14
 -1      1076 2.19161E+01-1.38096E+00 3.82371E-03 7.54384E-01 1.01200E-13-8.49191E-14
 -1      1077 2.20873E+01-1.45523E+00 1.64178E-03-7.39502E-01 7.38125E-14-2.25864E-13
 -1      1078 2.13611E+01-1.07004E+00-1.45214E-03-6.89205E-01 6.27650E-14-1.26909E-13
 -1      1079 2.16544E+01-1.35145E+00-2.30324E-04 1.60692E+00-9.22504E-15 8.78735E-14
 -1      1080 2.00625E+01-1.08363E-01-4.57467E-05 1.52300E-01 2.80790E-14 1.73629E-14
 -1      1081 2.00688E+01-1.18588E-01-8.32546E-05 2.54174E-01 1.79180E-13-5.06553E-15
 -1      1082 2.00923E+01-1.46946E-01-9.50363E-05 4.06724E-01-8.35833E-15-2.03378E-14
 -1      1083 2.01502E+01-2.10457E-01 7.24848E-05 6.28881E-01-5.53122E-15-2.12072E-14
 -1      1084 2.02872E+01-3.51933E-01-4.09987E-04 9.54345E-01 1.43014E-14 7.52721E-14
 -1      1085 2.05743E+01-6.12922E-01 4.15592E-03 1.38737E+00 8.42529E-14 5.37962E-14
 -1      1086 2.03907E+01 9.47608E-02 1.21796E-04 1.98643E-02-3.06382E-14-1.25710E-13
 -1      1087 2.01365E+01-1.26469E-01-2.54495E-05-2.11446E-02-6.22149E-14-7.69606E-14
 -1      1088 2.02082E+01-1.21476E-01-1.97744E-05-3.88244E-02 1.34178E-14 2.22070E-15
 -1      1089 2.02519E+01-1.03201E-01 1.57634E-05-4.36289E-02 2.01886E-14 3.31840E-14
 -1      1090 2.00898E+01-1.15944E-01-2.82029E-05 1.18986E-02 9.24557E-14-6.58722E-14
 -1      1091 2.00657E+01-1.07111E-01-1.92770E-05 8.30219E-02-6.98598E-14 1.15980E-14
 -1      1092 2.03320E+01 3.79792E-02-1.22047E-05-7.54854E-02 2.44142E-14-1.62469E-13
 -1      1093 2.03465E+01-7.30484E-03 1.04454E-05 2.41409E-02 8.50242E-15-7.81189E-14
 -1      1094 2.13967E+01-1.27343E+00 1.68468E-03-2.07833E+00-5.77311E-14-6.38002E-14
 -1      1095 2.00751E+01-1.10569E-01-3.30490E-05 4.02341E-02 9.78055E-14-1.49818E-13
 -1      1096 2.01693E+01-1.27567E-01-2.60330E-05-3.13395E-02-5.04761E-15-1.79635E-14
 -1      1097 2.04153E+01 2.77996E-01-3.54520E-05-1.43098E-02 2.18152E-14-1.81596E-13
 -1      1098 2.13194E+01-1.09816E+00-3.53564E-04-1.32995E+00 2.01291E-14-2.63439E-13
 -1      1099 2.04196E+01 4.41500E-01-3.73250E-05 5.55550E-03 3.82615E-14-2.12490E-13
 -1      1100 2.02972E+01-6.43445E-02-1.32807E-04-4.54628E-02-8.62077E-15-1.64450E-14
 -1      1101 2.09593E+01-8.22886E-01-2.54564E-03-5.89633E-01-3.74741E-14-3.53564E-13
 -1      1102 2.04281E+01 4.18250E-01-9.46761E-05-3.79785E-04 2.91811E-14-1.80521E-13
 -1      1103 2.06810E+01-7.11699E-01 7.30551E-04-1.54996E+00-1.47369E-13-1.47393E-13
 -1      1104 2.06544E+01-6.13001E-01 8.83112E-04-8.70972E-01-1.32796E-13-5.10709E-13
 -1      1105 2.03885E+01 1.10419E-01-1.23337E-05-3.28520E-02 6.79726E-14-1.27746E-13
 -1      1106 2.03287E+01-4.40836E-02 3.20525E-04-1.65538E-02-5.60520E-14-8.79457E-14
 -1      1107 2.03469E+01 1.31248E-03-4.55006E-05-4.25253E-02 1.50339E-14-1.43201E-13
 -1      1108 2.79642E+01 9.08688E+00 2.32523E+00-6.69760E+00-3.85247E-14 9.87405E-13
 -1      1109 2.05495E+01 6.22782E+00 2.09873E-01-3.90281E+00-1.93734E-14 3.16899E-14
 -1      1110 1.94362E+01 5.85352E+00 7.54510E-02-2.88646E+00-1.31284E-14-3.70613E-13
 -1      1111 1.90268E+01 5.72615E+00 6.03478E-02-2.23338E+00-8.13932E-15-5.49413E-13
 -1      1112 1.88395E+01 5.66912E+00 5.75057E-02-1.69998E+00-5.06539E-15-6.25239E-13
 -1      1113 1.87453E+01 5.64024E+00 5.55219E-02-1.23288E+00-2.54484E-15-6.54060E-13
 -1      1114 1.86956E+01 5.62481E+00 5.37155E-02-8.03407E-01-6.11490E-16-6.55993E-13
 -1      1115 1.86712E+01 5.61709E+00 5.24387E-02-3.92367E-01-1.88217E-16-6.42610E-13
 -1      1116 1.86642E+01 5.61488E+00 5.20368E-02 8.45361E-03 2.29287E-15-6.26011E-13
 -1      1117 1.86723E+01 5.61745E+00 5.25571E-02 4.09695E-01 3.54274E-15-6.15806E-13
 -1      1118 1.86978E+01 5.62553E+00 5.39613E-02 8.22103E-01 4.86590E-15-5.90728E-13
 -1      1119 1.87490E+01 5.64157E+00 5.61838E-02 1.25417E+00 6.46878E-15-5.46753E-13
 -1      1120 1.88451E+01 5.67107E+00 5.84775E-02 1.72569E+00 7.96758E-15-4.69305E-13
 -1      1121 1.90328E+01 5.72805E+00 6.07064E-02 2.26672E+00 1.25872E-14-3.34608E-13
 -1      1122 1.94330E+01 5.85076E+00 6.95239E-02 2.92727E+00 1.56403E-14-9.30957E-14
 -1      1123 2.04550E+01 6.18244E+00 1.53083E-01 3.87742E+00 1.67366E-14 3.69472E-13
 -1      1124 2.52189E+01 7.99477E+00 1.43027E+00 5.84570E+00 3.26961E-14 1.30324E-12
 -1      1125 2.88136E+01 3.61603E+00 1.27091E+00-4.21666E+00-1.46216E-13 1.59162E-12
 -1      1126 2.02306E+01-1.77753E-01-6.16343E-01-1.09783E-01-5.41164E-14 1.23299E-12
 -1      1127 1.88380E+01-9.63821E-02-2.36366E-01 6.25475E-02-1.92259E-14 7.78282E-13
 -1      1128 1.85054E+01-4.81020E-02-5.96470E-02 4.05456E-02-1.39107E-14 4.65732E-13
 -1      1129 1.84520E+01-2.46388E-02-1.52431E-02 2.68364E-02-1.13952E-14 2.51358E-13
 -1      1130 1.85357E+01-1.30880E-02-5.02358E-03 1.91151E-02-3.84697E-15 1.87975E-13
 -1      1131 1.86847E+01-6.64746E-03-1.53170E-03 1.41881E-02 1.62197E-16 3.86045E-14
 -1      1132 1.88599E+01-2.87454E-03 5.02040E-04 1.07832E-02-1.02744E-15-5.03000E-14
 -1      1133 1.90386E+01-6.32040E-04 1.82394E-03 8.27536E-03-1.13052E-14-2.54760E-13
 -1      1134 1.92079E+01 6.79317E-04 2.57993E-03 6.35673E-03-5.17232E-16-4.43053E-13
 -1      1135 1.93611E+01 1.40495E-03 2.90861E-03 4.86480E-03-1.34873E-14-5.78879E-13
 -1      1136 1.94949E+01 1.76096E-03 2.95026E-03 3.70304E-03 1.56353E-15-5.77309E-13
 -1      1137 1.96086E+01 1.89214E-03 2.82258E-03 2.80658E-03-9.64707E-15-5.47289E-13
 -1      1138 1.97028E+01 1.90179E-03 2.61806E-03 2.12691E-03-8.27092E-15-6.66513E-13
 -1      1139 1.97785E+01 1.86864E-03 2.41109E-03 1.62456E-03-2.56774E-15-7.03536E-13
 -1      1140 1.98372E+01 1.85793E-03 2.26698E-03 1.26453E-03-9.20444E-15-5.60662E-13
 -1      1141 1.98797E+01 1.92946E-03 2.25045E-03 1.01229E-03-2.22304E-14-7.10140E-13
 -1      1142 1.99059E+01 2.14351E-03 2.43302E-03 8.28742E-04 6.19641E-15-6.43314E-13
 -1      1143 1.99144E+01 2.56402E-03 2.89820E-03 6.63623E-04-1.29127E-14-5.93250E-13
 -1      1144 1.99018E+01 3.25767E-03 3.74157E-03 4.46711E-04 3.35956E-15-8.64029E-13
 -1      1145 1.98622E+01 4.28558E-03 5.06142E-03 7.77162E-05-1.74973E-14-9.91886E-13
 -1      1146 1.97861E+01 5.68416E-03 6.93305E-03-5.82729E-04 7.72792E-15-9.70596E-13
 -1      1147 1.96605E+01 7.43100E-03 9.35972E-03-1.71537E-03 3.38649E-14-6.81925E-13
 -1      1148 1.94684E+01 9.39509E-03 1.21965E-02-3.52839E-03-3.30802E-14-9.08670E-13
 -1      1149 1.91903E+01 1.12785E-02 1.50561E-02-6.21434E-03 1.43159E-14-9.18540E-13
 -1      1150 1.88066E+01 1.25714E-02 1.72287E-02-9.86691E-03-1.49153E-14-6.81124E-13
 -1      1151 1.83025E+01 1.25609E-02 1.76788E-02-1.43584E-02 6.23500E-14-5.18568E-13
 -1      1152 1.76754E+01 1.04449E-02 1.52031E-02-1.92063E-02-1.32344E-14-5.85559E-13
 -1      1153 1.69430E+01 5.59085E-03 8.81379E-03-2.34961E-02-3.03104E-14-6.56669E-13
 -1      1154 1.61503E+01-2.08759E-03-1.69174E-03-2.59586E-02-3.91885E-16-4.69562E-13
 -1      1155 1.53706E+01-1.17704E-02-1.51862E-02-2.52839E-02-2.94860E-14-3.02043E-13
 -1      1156 1.46980E+01-2.16405E-02-2.90750E-02-2.06386E-02-1.44702E-14-5.59844E-13
 -1      1157 1.42295E+01-2.92846E-02-3.98841E-02-1.21814E-02-2.77135E-14-1.06798E-12
 -1      1158 1.40404E+01-3.25447E-02-4.45022E-02-1.25901E-03 1.50938E-14-1.21812E-12
 -1      1159 1.41629E+01-3.04369E-02-4.15112E-02 9.92450E-03 5.40280E-14-9.61529E-13
 -1      1160 1.45761E+01-2.36067E-02-3.18421E-02 1.90709E-02 3.55822E-14-8.48849E-13
 -1      1161 1.52127E+01-1.40290E-02-1.83421E-02 2.46021E-02 1.33372E-14-9.85195E-13
 -1      1162 1.59785E+01-4.14462E-03-4.52617E-03 2.61039E-02 1.76882E-15-8.82103E-13
 -1      1163 1.67772E+01 4.04938E-03 6.74538E-03 2.42320E-02 3.45201E-14-6.78322E-13
 -1      1164 1.75299E+01 9.50846E-03 1.40147E-02 2.02404E-02 3.10591E-15-5.01245E-13
 -1      1165 1.81857E+01 1.21440E-02 1.72286E-02 1.54443E-02-3.33862E-14-4.10248E-13
 -1      1166 1.87219E+01 1.25053E-02 1.72559E-02 1.08547E-02-5.50883E-15-1.55096E-13
 -1      1167 1.91376E+01 1.13908E-02 1.53021E-02 7.05091E-03-5.66662E-14-1.82059E-13
 -1      1168 1.94461E+01 9.55897E-03 1.24817E-02 4.22925E-03-2.54265E-14-8.74587E-14
 -1      1169 1.96666E+01 7.58729E-03 9.62297E-03 2.32573E-03 3.08063E-14-9.36360E-15
 -1      1170 1.98190E+01 5.84189E-03 7.25507E-03 1.13163E-03 6.10113E-15 5.24110E-13
 -1      1171 1.99198E+01 4.51533E-03 5.65703E-03 3.53381E-04 2.76086E-14 8.26244E-13
 -1      1172 1.99808E+01 3.60952E-03 4.72487E-03-3.86740E-04 4.21875E-14 8.08602E-13
 -1      1173 2.00067E+01 3.37665E-03 3.05773E-03-1.92235E-03-4.26719E-14 1.06905E-12
 -1      1174 2.00041E+01-1.44621E-03-3.46307E-03-1.55972E-03 1.09521E-13 8.36835E-13
 -1      1175 2.77935E+01 5.25646E-01 3.76596E-01 1.96652E+00-2.04975E-14 2.07123E-12
 -1      1176 2.00880E+01-6.65872E-02-5.73705E-01 1.29474E-01 1.43392E-14 1.65148E-12
 -1      1177 1.89124E+01-4.09116E-02-1.92878E-01 1.92842E-02 5.13738E-15 1.27768E-12
 -1      1178 1.85346E+01-2.12974E-02-5.00281E-02 1.41627E-03 1.29436E-14 1.01816E-12
 -1      1179 1.84644E+01-1.28762E-02-1.36056E-02-3.93260E-03-1.11890E-16 8.62019E-13
 -1      1180 1.85450E+01-6.79562E-03-4.60996E-03-5.08721E-03 1.47264E-14 6.09422E-13
 -1      1181 1.86958E+01-4.25081E-03-1.87927E-03-5.75060E-03 8.64808E-15 4.56890E-13
 -1      1182 1.88696E+01-2.31245E-03-3.45212E-04-5.46336E-03-2.04930E-15 3.83081E-13
 -1      1183 1.90465E+01-1.05503E-03 7.58841E-04-4.98161E-03-2.56956E-15 3.87877E-13
 -1      1184 1.92139E+01-2.45232E-04 1.47207E-03-4.40748E-03 1.72820E-15 2.85014E-13
 -1      1185 1.93647E+01 2.09761E-04 1.83450E-03-3.79627E-03 1.57494E-14 1.18319E-13
 -1      1186 1.94988E+01 5.48313E-04 1.97647E-03-3.24406E-03 6.75595E-15-6.18108E-14
 -1      1187 1.96116E+01 7.07131E-04 2.01143E-03-2.63442E-03 1.14675E-15-3.16778E-14
 -1      1188 1.97015E+01 7.55663E-04 1.90441E-03-2.12867E-03-6.79722E-15-8.90160E-14
 -1      1189 1.97730E+01 7.26873E-04 1.74569E-03-1.65639E-03-4.58177E-15-1.34071E-13
 -1      1190 1.98282E+01 6.16042E-04 1.53737E-03-1.19356E-03 2.14968E-14-2.60716E-13
 -1      1191 1.98703E+01 3.40469E-04 1.21404E-03-7.12243E-04 3.27197E-14-2.61696E-13
 -1      1192 1.99013E+01-9.60201E-05 7.38969E-04-5.56965E-05-4.66403E-16-1.18121E-13
 -1      1193 1.99250E+01-9.46134E-04-1.07915E-04 7.79217E-04 3.33235E-15-4.39528E-14
 -1      1194 1.99494E+01-2.50758E-03-1.68869E-03 2.01941E-03 2.25335E-14-7.72273E-14
 -1      1195 1.99865E+01-5.36196E-03-4.69142E-03 3.94766E-03-3.96032E-15-2.15962E-14
 -1      1196 2.00576E+01-1.07871E-02-1.05302E-02 7.08102E-03 8.52237E-15-1.61876E-14
 -1      1197 2.02079E+01-1.96971E-02-2.15752E-02 1.22814E-02-1.13568E-14-1.04535E-13
 -1      1198 2.05088E+01-3.64849E-02-4.35006E-02 1.89225E-02-6.77878E-14 2.41419E-13
 -1      1199 2.10829E+01-6.40672E-02-8.38631E-02 2.84056E-02 9.44123E-15 2.37331E-13
 -1      1200 2.21639E+01-1.08112E-01-1.56881E-01 3.80019E-02 1.76222E-14 2.02324E-13
 -1      1201 2.41476E+01-1.75939E-01-2.75586E-01 3.90288E-02 1.16018E-14 3.39506E-13
 -1      1202 2.78198E+01-2.20509E-01-3.94656E-01-3.16706E-03 4.10644E-14 2.40280E-13
 -1      1203 3.40172E+01-1.60512E-01-3.12827E-01-1.81683E-01-6.80948E-14 3.39173E-13
 -1      1204 4.23907E+01 1.05597E-01 3.08577E-01-5.03878E-01 2.24300E-15 7.16094E-13
 -1      1205 5.08224E+01 3.98445E-01 1.45708E+00-4.16881E-01-1.03501E-13 7.36911E-13
 -1      1206 5.14071E+01-1.45612E-01 1.27975E+00 1.28094E+00 3.09336E-14 1.07514E-12
 -1      1207 3.87188E+01-5.52665E-03-1.23015E+00 2.70717E+00-1.14714E-13 1.30229E-12
 -1      1208 2.04790E+01-7.20920E-01-5.66402E+00 2.74479E+00 4.29656E-14 1.58784E-12
 -1      1209 1.28878E+01-4.82609E-01-7.41651E+00-3.74251E-02-3.27238E-14 1.49919E-12
 -1      1210 2.43656E+01-2.57533E-02-4.53812E+00-1.89899E+00 6.36435E-14 1.17750E-12
 -1      1211 4.22818E+01 3.26155E-01-2.55309E-01-1.46880E+00 6.96179E-14 1.98508E-13
 -1      1212 5.20968E+01 3.72706E-01 1.71442E+00-5.66447E-01 4.85298E-14-7.30749E-13
 -1      1213 5.11063E+01 1.40399E-01 1.43300E+00 1.18903E-01-5.17295E-14-9.36487E-13
 -1      1214 4.34579E+01-4.38954E-02 4.15732E-01 3.12443E-01-5.20591E-15-3.33344E-13
 -1      1215 3.47978E+01-9.59983E-02-1.83097E-01 2.59648E-01-2.00829E-14-1.47327E-13
 -1      1216 2.83262E+01-6.90974E-02-2.85320E-01 1.51114E-01 4.85645E-14-7.69107E-13
 -1      1217 2.45399E+01-4.35710E-02-2.02924E-01 8.17664E-02-1.09843E-14-4.37261E-13
 -1      1218 2.23899E+01-2.63993E-02-1.17105E-01 4.11197E-02 3.46912E-14-4.92703E-13
 -1      1219 2.12146E+01-1.56643E-02-6.20376E-02 1.97947E-02 3.97278E-14-1.80207E-13
 -1      1220 2.05904E+01-9.25944E-03-3.19926E-02 9.17970E-03 1.73039E-16-3.93976E-13
 -1      1221 2.02651E+01-4.46299E-03-1.55081E-02 4.43071E-03-4.56502E-14 9.90716E-14
 -1      1222 2.01065E+01-2.69198E-03-7.47671E-03 1.43117E-03-1.83200E-14 4.59754E-13
 -1      1223 2.00363E+01-1.38532E-03-3.52233E-03 4.10538E-04-1.80637E-14 1.27459E-12
 -1      1224 2.00068E+01-7.04422E-04-1.62469E-03 1.91977E-05-1.81439E-15 7.52697E-13
 -1      1225 1.99972E+01-1.35670E-04-5.18569E-04-1.55650E-04-8.89285E-14 1.85510E-13
 -1      1226 1.99983E+01-3.61466E-04 1.13070E-03-6.36789E-04-6.31468E-14 2.63179E-13
 -1      1227 1.99993E+01-1.52020E-03 9.32297E-04-6.30691E-04 2.41653E-13 2.28786E-15
 -1      1228 1.99995E+01-9.32925E-04-8.68827E-04-2.02618E-04-1.04990E-12-1.46744E-13
 -1      1229 2.00003E+01 1.04351E-02-1.65448E-04 7.28177E-04-3.59382E-13 1.95951E-13
 -1      1230 2.00011E+01 2.35181E-02 1.53618E-03 1.22998E-03 1.94112E-13 3.09121E-13
 -1      1231 2.00014E+01 2.41581E-02 2.75166E-03 1.08140E-03 4.44558E-13 5.19084E-14
 -1      1232 2.00011E+01 3.48009E-03 2.79916E-03 3.84956E-04-5.61622E-14 4.55675E-14
 -1      1233 2.00003E+01-3.86069E-02 1.64205E-03-4.75042E-04-9.65976E-13-1.71960E-14
 -1      1234 1.99992E+01-9.36629E-02-2.32219E-04-1.22836E-03 5.52513E-13 8.37213E-14
 -1      1235 1.99983E+01-1.47038E-01-2.15740E-03-1.57841E-03 1.18116E-12-2.98476E-14
 -1      1236 1.99978E+01-1.83929E-01-3.51201E-03-1.41854E-03 5.43975E-13 2.57001E-14
 -1      1237 1.99978E+01-1.93876E-01-3.87515E-03-8.04877E-04 1.08587E-12-3.61003E-14
 -1      1238 1.99983E+01-1.74249E-01-3.16231E-03 9.13167E-05 7.65680E-13 7.65038E-14
 -1      1239 1.99993E+01-1.30306E-01-1.43713E-03 9.34483E-04 4.59321E-13 5.29787E-14
 -1      1240 2.00004E+01-7.40158E-02 9.15152E-04 1.50383E-03 3.42150E-13-3.51480E-14
 -1      1241 2.00011E+01-2.24850E-02 3.06659E-03 1.68373E-03-1.74940E-12-7.68233E-14
 -1      1242 2.00016E+01 4.30266E-03 2.42142E-03-1.61082E-03-1.67460E-12 5.48795E-14
 -1      1243 1.99983E+01 4.42770E-03-3.27507E-03-1.50467E-03-8.95549E-13-4.81039E-15
 -1      1244-1.33661E+00-3.07101E+01-4.11422E+00-3.16196E+00-4.29101E-13-7.91034E-14
 -1      1245-3.58300E+00-2.71230E+01-4.36765E+00-8.12398E+00-6.04794E-13-1.62648E-14
 -1      1246-5.45567E+00-1.68796E+01-4.46803E+00-8.46379E+00 1.17906E-13-3.74145E-14
 -1      1247-1.09335E+00-4.19660E+00-3.90711E+00-1.82422E+00 1.10356E-13 1.24567E-13
 -1      1248 1.74172E+01 5.37846E+00-1.53665E+00 1.00028E+01 6.26832E-13 8.80185E-13
 -1      1249 5.74533E+01 8.04884E+00 4.81477E+00 1.91965E+01 4.48530E-14 3.11307E-13
 -1      1250 9.49467E+01 6.36668E+00 1.06039E+01 1.34029E+01 1.23068E-13-5.45342E-13
 -1      1251 1.12539E+02 4.29138E+00 1.37878E+01-3.65896E+00 8.01859E-14-1.48925E-12
 -1      1252 8.36220E+01 6.58242E+00 8.59123E+00-1.81817E+01 2.36478E-13-1.10356E-12
 -1      1253 4.11901E+01 8.26824E+00 1.93677E+00-1.76337E+01 2.59792E-13-4.51639E-13
 -1      1254 1.01505E+01 3.20247E+00-2.43728E+00-6.35548E+00 4.10338E-13-5.08482E-13
 -1      1255-3.52492E+00-7.71650E+00-4.14537E+00 4.58028E+00 5.34461E-13-3.66152E-13
 -1      1256-5.20215E+00-1.99044E+01-4.41827E+00 9.05211E+00 5.35572E-13-4.02400E-13
 -1      1257-2.74218E+00-2.88893E+01-4.27985E+00 7.06089E+00-4.67293E-13 2.74503E-14
 -1      1258-1.02577E+00-2.96413E+01-3.91943E+00 1.17220E+00-1.23757E-12-1.30174E-14
 -1      1259-1.26148E+00-2.09144E+01-3.25451E+00-3.08871E+00-1.14464E-12-1.90181E-13
 -1      1260-7.41984E-01-7.11678E+00-2.22956E+00-1.75581E+00-1.11222E-12-5.78093E-13
 -1      1261 4.89544E+00 6.19258E+00-8.02019E-01 5.55978E+00-1.47882E-12-1.03828E-12
 -1      1262 1.91104E+01 1.37364E+01 8.59195E-01 1.55373E+01-1.39444E-12-1.35447E-12
 -1      1263 4.07352E+01 1.29740E+01 2.44819E+00 2.16058E+01-6.57807E-13-1.16818E-12
 -1      1264 6.21242E+01 7.27634E+00 3.73624E+00 1.87448E+01-1.77303E-13-5.03375E-13
 -1      1265 7.45440E+01 2.71093E+00 4.31533E+00 7.62896E+00-6.78971E-14 1.12355E-13
 -1      1266 7.55499E+01 2.24993E+00 4.37485E+00-6.36458E+00 3.03924E-15 3.54494E-13
 -1      1267 6.42608E+01 6.41706E+00 3.75870E+00-1.76620E+01 1.41276E-14-1.13909E-13
 -1      1268 4.49702E+01 1.21579E+01 2.69573E+00-2.18849E+01-1.42331E-13 2.86438E-13
 -1      1269 2.49647E+01 1.45377E+01 1.34205E+00-1.83127E+01 5.95080E-14-5.77316E-14
 -1      1270 9.62685E+00 1.05180E+01-1.55628E-01-9.90697E+00-1.08802E-14-6.17284E-14
 -1      1271 1.16589E+00 1.71285E-01-1.54363E+00-1.34890E+00 1.68532E-13 6.41709E-14
 -1      1272-1.33162E+00-1.35370E+01-2.75441E+00 3.14045E+00 9.82547E-13-1.74971E-13
 -1      1273-1.14501E+00-2.52719E+01-3.57028E+00 1.93376E+00 4.50973E-13-2.90948E-13
 -1      1274 2.22688E+01 1.83831E+00-7.25819E-01-2.79002E+00-5.67046E-14 7.71050E-13
 -1      1275 2.03614E+01 4.69036E+00-4.86209E-02-3.30565E+00-1.41123E-13-1.61204E-13
 -1      1276 2.08690E+01 4.81082E+00-1.13282E-01-4.16004E+00-1.85157E-13 4.84751E-14
 -1      1277 1.95332E+01 4.99359E+00-1.96064E-02-2.65306E+00-1.35704E-13-4.50601E-13
 -1      1278 1.98316E+01 5.09057E+00 3.21008E-04-3.04417E+00-1.53252E-13-3.26190E-13
 -1      1279 2.05280E+01 3.95288E+00-2.58733E-02-3.07352E+00-2.43326E-13-1.45398E-13
 -1      1280 1.91846E+01 5.08439E+00-3.64326E-03-2.06884E+00-1.05742E-13-5.87509E-13
 -1      1281 1.93343E+01 5.13978E+00 1.06337E-02-2.36194E+00-1.22381E-13-5.27627E-13
 -1      1282 1.97554E+01 4.36632E+00-2.42525E-02-2.48804E+00-2.11709E-13-3.83402E-13
 -1      1283 1.90087E+01 5.13094E+00 3.26465E-03-1.56337E+00-7.48420E-14-6.45657E-13
 -1      1284 1.90866E+01 5.16096E+00 1.25826E-02-1.81327E+00-8.63459E-14-6.19678E-13
 -1      1285 1.93929E+01 4.55595E+00-1.95349E-02-1.92980E+00-1.59393E-13-5.07039E-13
 -1      1286 1.89145E+01 5.16065E+00 6.56926E-03-1.11586E+00-4.31404E-14-6.63006E-13
 -1      1287 1.89573E+01 5.17706E+00 1.27356E-02-1.33719E+00-5.73213E-14-6.54168E-13
 -1      1288 1.92053E+01 4.66170E+00-1.60379E-02-1.44357E+00-1.11523E-13-5.50379E-13
 -1      1289 1.88624E+01 5.18041E+00 8.16863E-03-6.93000E-01-2.05717E-14-6.59811E-13
 -1      1290 1.88857E+01 5.18935E+00 1.20128E-02-9.03002E-01-2.85674E-14-6.65103E-13
 -1      1291 1.91015E+01 4.72715E+00-1.39532E-02-1.00317E+00-6.18971E-14-5.72445E-13
 -1      1292 1.88381E+01 5.19230E+00 9.26004E-03-2.88817E-01 7.39570E-15-6.42065E-13
 -1      1293 1.88481E+01 5.19617E+00 1.10454E-02-4.90683E-01-2.42167E-15-6.48249E-13
 -1      1294 1.90451E+01 4.76613E+00-1.29132E-02-5.88107E-01-2.11123E-14-5.52516E-13
 -1      1295 1.88344E+01 5.19724E+00 1.01950E-02 1.08059E-01 3.40756E-14-6.27222E-13
 -1      1296 1.88340E+01 5.19710E+00 1.01210E-02-9.13520E-02 2.55533E-14-6.37228E-13
 -1      1297 1.90207E+01 4.78413E+00-1.24732E-02-1.88892E-01 2.91928E-14-5.44866E-13
 -1      1298 1.88499E+01 5.19580E+00 1.11403E-02 5.07993E-01 6.01802E-14-6.15143E-13
 -1      1299 1.88392E+01 5.19165E+00 9.19456E-03 3.05697E-01 5.32447E-14-6.24200E-13
 -1      1300 1.90215E+01 4.78348E+00-1.24915E-02 2.05500E-01 7.20313E-14-5.30315E-13
 -1      1301 1.88890E+01 5.18817E+00 1.20843E-02 9.21836E-01 8.12597E-14-5.87459E-13
 -1      1302 1.88649E+01 5.17906E+00 8.10375E-03 7.10859E-01 7.36503E-14-6.05786E-13
 -1      1303 1.90478E+01 4.76403E+00-1.29773E-02 6.05432E-01 1.07440E-13-5.15376E-13
 -1      1304 1.89615E+01 5.17527E+00 1.28924E-02 1.35475E+00 1.10010E-13-5.37480E-13
 -1      1305 1.89179E+01 5.15843E+00 6.42601E-03 1.13200E+00 9.78761E-14-5.65104E-13
 -1      1306 1.91058E+01 4.72357E+00-1.40006E-02 1.01838E+00 1.44007E-13-4.87679E-13
 -1      1307 1.90950E+01 5.15703E+00 1.29243E-02 1.83914E+00 1.35543E-13-4.52083E-13
 -1      1308 1.90150E+01 5.12650E+00 3.13833E-03 1.58645E+00 1.23291E-13-5.04735E-13
 -1      1309 1.92119E+01 4.65523E+00-1.61473E-02 1.46125E+00 1.94549E-13-4.26728E-13
 -1      1310 1.93454E+01 5.13352E+00 1.04679E-02 2.39613E+00 1.70700E-13-3.04611E-13
 -1      1311 1.91944E+01 5.07654E+00-4.16453E-03 2.09876E+00 1.51622E-13-3.92738E-13
 -1      1312 1.94056E+01 4.54277E+00-1.98866E-02 1.95646E+00 2.31933E-13-3.36342E-13
 -1      1313 1.98563E+01 5.09977E+00 6.06400E-03 3.08284E+00 1.89085E-13-4.12725E-14
 -1      1314 1.95449E+01 4.98479E+00-2.02515E-02 2.69557E+00 1.72320E-13-2.00107E-13
 -1      1315 1.97753E+01 4.34594E+00-2.47290E-02 2.52682E+00 2.78270E-13-1.67866E-13
 -1      1316 2.11049E+01 4.90672E+00 8.01864E-03 4.05276E+00 1.58512E-13 4.44630E-13
 -1      1317 2.03356E+01 4.73408E+00-4.80778E-02 3.41484E+00 1.56250E-13 1.48020E-13
 -1      1318 2.05646E+01 3.91592E+00-2.29173E-02 3.17744E+00 2.79641E-13 1.24456E-13
 -1      1319 2.72040E+01 3.20528E+00 9.28772E-01 4.58174E+00 7.44682E-14 1.37074E-12
 -1      1320 2.20219E+01 3.52226E+00-1.82108E-01 3.88419E+00 7.74658E-14 7.31332E-13
 -1      1321 2.21154E+01 2.56158E+00-3.24880E-02 3.45581E+00 2.56196E-13 5.72292E-13
 -1      1322 2.14289E+01 3.59537E-01-7.63640E-01 1.18330E+00 1.40846E-13 1.31578E-12
 -1      1323 2.20035E+01 1.31311E-01-4.00858E-01-1.28515E+00-1.55292E-13 8.22870E-13
 -1      1324 2.06814E+01 3.06669E-01-1.64792E-01-8.05292E-01-1.42705E-13 6.37705E-13
 -1      1325 2.00841E+01 1.53485E-01-7.35359E-02-4.01650E-01-1.12091E-13 5.74927E-13
 -1      1326 1.96149E+01 9.12108E-02-1.49328E-02-3.29498E-01-9.81090E-14 4.18589E-13
 -1      1327 2.09753E+01 3.69165E-01-1.04232E-01-1.27301E+00-2.39024E-13 2.87253E-13
 -1      1328 1.92580E+01 6.45515E-02 3.01740E-03-1.34798E-01-8.30950E-14 3.66863E-13
 -1      1329 1.91043E+01 4.13070E-02 1.32024E-02-1.16970E-01-8.32459E-14 2.38073E-13
 -1      1330 1.99254E+01 1.33898E-01-3.51910E-02-5.02984E-01-1.77750E-13 1.98216E-13
 -1      1331 1.89446E+01 3.15619E-02 1.32271E-02-2.73688E-02-4.45815E-14 1.87787E-13
 -1      1332 1.89259E+01 1.94125E-02 1.10545E-02-1.79770E-02-4.44774E-14 1.15578E-13
 -1      1333 1.94492E+01 5.55426E-02-8.53059E-03-1.68808E-01-1.27039E-13 1.00428E-13
 -1      1334 1.88705E+01 1.60541E-02 8.76824E-03 2.57444E-02-3.21360E-14 1.03381E-13
 -1      1335 1.89138E+01 9.11960E-03 6.43447E-03 3.03980E-02-3.03212E-14 6.73159E-14
 -1      1336 1.92415E+01 2.44562E-02-3.52193E-03-9.81184E-03-7.78709E-14 2.12929E-14
 -1      1337 1.89146E+01 7.91309E-03 4.66441E-03 5.16719E-02-5.28880E-14 3.66616E-14
 -1      1338 1.89860E+01 3.55552E-03 3.63908E-03 5.35937E-02-3.26524E-14-1.41605E-14
 -1      1339 1.91860E+01 1.02847E-02-2.23113E-03 6.90986E-02-9.27036E-14 3.86236E-15
 -1      1340 1.90163E+01 3.25058E-03 2.43247E-03 6.25144E-02-3.91450E-14-5.54088E-14
 -1      1341 1.90981E+01 3.81468E-04 2.20649E-03 6.28148E-02-5.98197E-14-1.24000E-13
 -1      1342 1.92137E+01 2.88297E-03-1.33553E-03 1.06212E-01-8.57159E-14-6.06234E-14
 -1      1343 1.91426E+01 5.04147E-04 1.31827E-03 6.46188E-02-5.64479E-14-1.57359E-13
 -1      1344 1.92249E+01-1.42195E-03 1.43137E-03 6.39670E-02-5.01112E-14-2.50877E-13
 -1      1345 1.92844E+01-1.19631E-03-5.69415E-04 1.19771E-01-1.14292E-13-1.58250E-13
 -1      1346 1.92745E+01-1.08875E-03 7.27486E-04 6.16805E-02-5.33046E-14-2.59762E-13
 -1      1347 1.93517E+01-2.38241E-03 9.57023E-04 6.05054E-02-5.40334E-14-3.23323E-13
 -1      1348 1.93745E+01-3.40757E-03-6.51361E-06 1.19695E-01-8.14019E-14-1.80550E-13
 -1      1349 1.94009E+01-1.95525E-03 3.82679E-04 5.59902E-02-4.58480E-14-3.33154E-13
 -1      1350 1.94702E+01-2.81325E-03 6.36661E-04 5.45703E-02-4.28799E-14-3.80018E-13
 -1      1351 1.94697E+01-4.48767E-03 3.52980E-04 1.11884E-01-7.36225E-14-1.87271E-13
 -1      1352 1.95158E+01-2.36067E-03 1.66999E-04 4.89954E-02-2.50093E-15-4.16191E-13
 -1      1353 1.95760E+01-2.91837E-03 4.08079E-04 4.75070E-02-4.25726E-15-4.13307E-13
 -1      1354 1.95615E+01-4.86909E-03 5.54971E-04 1.00013E-01-3.53046E-14-2.05968E-13
 -1      1355 1.96165E+01-2.48288E-03 2.70946E-05 4.15909E-02-3.78546E-14-3.94517E-13
 -1      1356 1.96672E+01-2.83938E-03 2.39312E-04 4.01380E-02-5.93728E-14-4.51970E-13
 -1      1357 1.96450E+01-4.83323E-03 6.50013E-04 8.63762E-02-3.04813E-14-3.08794E-13
 -1      1358 1.97017E+01-2.44875E-03-6.60111E-05 3.42852E-02-7.48089E-15-4.41277E-13
 -1      1359 1.97432E+01-2.68031E-03 1.10026E-04 3.29180E-02 1.01964E-15-4.55136E-13
 -1      1360 1.97179E+01-4.57721E-03 6.79815E-04 7.23462E-02-2.53355E-14-3.23334E-13
 -1      1361 1.97715E+01-2.35483E-03-1.30510E-04 2.73002E-02-1.48943E-14-4.35764E-13
 -1      1362 1.98044E+01-2.52323E-03 5.36638E-06 2.60266E-02 4.94686E-15-4.48182E-13
 -1      1363 1.97790E+01-4.24907E-03 6.76805E-04 5.86323E-02-2.55818E-14-2.50364E-13
 -1      1364 1.98264E+01-2.28116E-03-1.78574E-04 2.06281E-02 1.43912E-14-4.29098E-13
 -1      1365 1.98511E+01-2.43939E-03-8.62490E-05 1.94197E-02-2.45624E-14-4.22933E-13
 -1      1366 1.98279E+01-3.97014E-03 6.66959E-04 4.54356E-02 3.62545E-14-2.61820E-13
 -1      1367 1.98666E+01-2.30177E-03-2.18065E-04 1.40580E-02-3.24398E-14-4.56262E-13
 -1      1368 1.98833E+01-2.49812E-03-1.73854E-04 1.28513E-02 1.35363E-16-5.00676E-13
 -1      1369 1.98644E+01-3.85203E-03 6.72833E-04 3.25295E-02-3.81834E-14-3.03909E-13
 -1      1370 1.98920E+01-2.49309E-03-2.52873E-04 7.17818E-03 4.69310E-14-4.74328E-13
 -1      1371 1.99001E+01-2.77342E-03-2.63765E-04 5.87129E-03 3.64173E-14-3.94131E-13
 -1      1372 1.98881E+01-4.01038E-03 7.16180E-04 1.92870E-02 4.01590E-14-2.78417E-13
 -1      1373 1.99013E+01-2.93997E-03-2.82359E-04-6.39973E-04-4.80477E-14-4.34238E-13
 -1      1374 1.98996E+01-3.34730E-03-3.58611E-04-2.19287E-03-5.40627E-14-4.64365E-13
 -1      1375 1.98978E+01-4.57511E-03 8.20000E-04 4.66781E-03-5.84114E-15-3.33604E-13
 -1      1376 1.98917E+01-3.73728E-03-3.00144E-04-1.02650E-02-5.30543E-14-5.91936E-13
 -1      1377 1.98779E+01-4.30679E-03-4.55667E-04-1.22600E-02-6.12167E-14-6.52415E-13
 -1      1378 1.98913E+01-5.69429E-03 1.00965E-03-1.28180E-02-1.34416E-13-3.99143E-13
 -1      1379 1.98584E+01-4.98324E-03-2.92698E-04-2.28172E-02-3.89696E-14-7.09125E-13
 -1      1380 1.98288E+01-5.73035E-03-5.44841E-04-2.55028E-02-7.60656E-14-7.47725E-13
 -1      1381 1.98647E+01-7.52563E-03 1.31220E-03-3.51385E-02-9.50232E-14-4.69235E-13
 -1      1382 1.97942E+01-6.75895E-03-2.38610E-04-3.96375E-02-5.62170E-15-6.99236E-13
 -1      1383 1.97432E+01-7.65773E-03-6.07246E-04-4.33040E-02 8.67530E-14-6.35445E-13
 -1      1384 1.98124E+01-1.02067E-02 1.75253E-03-6.47100E-02-7.45010E-15-4.55099E-13
 -1      1385 1.96890E+01-9.08739E-03-1.10215E-04-6.21631E-02 5.91037E-14-6.77424E-13
 -1      1386 1.96093E+01-1.00380E-02-6.16077E-04-6.71076E-02-2.42490E-14-6.57947E-13
 -1      1387 1.97264E+01-1.37928E-02 2.34447E-03-1.04226E-01 6.30594E-14-4.78862E-13
 -1      1388 1.95298E+01-1.18672E-02 1.20244E-04-9.16491E-02-3.07287E-14-6.18409E-13
 -1      1389 1.94127E+01-1.26559E-02-5.42168E-04-9.81018E-02-3.47448E-14-6.68798E-13
 -1      1390 1.95968E+01-1.81547E-02 3.07474E-03-1.56238E-01-1.88291E-14-4.97123E-13
 -1      1391 1.93015E+01-1.47854E-02 4.67826E-04-1.28677E-01 7.22328E-14-5.96182E-13
 -1      1392 1.91379E+01-1.50492E-02-3.66141E-04-1.36675E-01 6.90687E-14-5.09197E-13
 -1      1393 1.94115E+01-2.28400E-02 3.87944E-03-2.22373E-01 4.66127E-14-3.08510E-13
 -1      1394 1.89890E+01-1.72334E-02 9.16197E-04-1.72437E-01 4.80857E-14-4.53854E-13
 -1      1395 1.87710E+01-1.64550E-02-9.62693E-05-1.81652E-01 6.79838E-14-3.52969E-13
 -1      1396 1.91587E+01-2.69334E-02 4.61669E-03-3.02120E-01 1.14859E-13-2.17388E-13
 -1      1397 1.85807E+01-1.82762E-02 1.39861E-03-2.19881E-01 2.80353E-14-4.03457E-13
 -1      1398 1.83046E+01-1.58460E-02 2.13441E-04-2.29436E-01 4.99683E-14-4.22896E-13
 -1      1399 1.88284E+01-2.89922E-02 5.04776E-03-3.91303E-01 1.61086E-14-2.22885E-13
 -1      1400 1.80735E+01-1.67531E-02 1.78986E-03-2.65034E-01 9.51149E-15-4.25927E-13
 -1      1401 1.77435E+01-1.21328E-02 4.58208E-04-2.73385E-01-7.24175E-14-4.32758E-13
 -1      1402 1.84169E+01-2.71765E-02 4.84715E-03-4.80624E-01 9.18384E-15-3.58390E-13
 -1      1403 1.74788E+01-1.15820E-02 1.92852E-03-2.98938E-01-1.37011E-15-5.04898E-13
 -1      1404 1.71105E+01-4.57263E-03 5.05863E-04-3.03961E-01 2.96989E-14-4.53622E-13
 -1      1405 1.79314E+01-1.96951E-02 3.66735E-03-5.55049E-01-2.27379E-15-3.64778E-13
 -1      1406 1.68286E+01-2.27649E-03 1.67694E-03-3.10793E-01-3.38071E-15-4.04909E-13
 -1      1407 1.64504E+01 6.68017E-03 2.56564E-04-3.10187E-01 2.76191E-14-3.29146E-13
 -1      1408 1.73947E+01-5.58806E-03 1.27688E-03-5.95080E-01 1.00635E-14-3.40693E-13
 -1      1409 1.61766E+01 1.04777E-02 1.00809E-03-2.90623E-01-1.68418E-14-3.01727E-13
 -1      1410 1.58285E+01 2.01269E-02-2.78850E-04-2.82643E-01-6.72580E-14-3.72829E-13
 -1      1411 1.68474E+01 1.43556E-02-2.25447E-03-5.80708E-01 2.12430E-14-3.84599E-13
 -1      1412 1.55945E+01 2.45239E-02 6.77138E-05-2.33035E-01-9.90826E-14-3.65019E-13
 -1      1413 1.53216E+01 3.29501E-02-9.33048E-04-2.17354E-01-1.24553E-13-4.53599E-13
 -1      1414 1.63458E+01 3.70461E-02-6.40644E-03-4.97863E-01-1.34334E-13-3.66242E-13
 -1      1415 1.51596E+01 3.65887E-02-8.49637E-04-1.40658E-01-1.48271E-13-5.53386E-13
 -1      1416 1.50026E+01 4.17638E-02-1.42341E-03-1.18924E-01-1.08597E-13-7.00265E-13
 -1      1417 1.59538E+01 5.74738E-02-1.02360E-02-3.45380E-01-2.53754E-13-2.91095E-13
 -1      1418 1.49375E+01 4.33630E-02-1.42537E-03-2.53006E-02-3.63203E-14-7.38114E-13
 -1      1419 1.49216E+01 4.39061E-02-1.48271E-03-9.66883E-04 1.72488E-14-8.04977E-13
 -1      1420 1.57285E+01 7.02194E-02-1.26627E-02-1.39074E-01-1.38537E-13-3.51996E-13
 -1      1421 1.49639E+01 4.28682E-02-1.47867E-03 9.44450E-02 9.83614E-14-6.87308E-13
 -1      1422 1.50918E+01 3.86308E-02-1.01003E-03 1.17094E-01 1.47988E-13-5.82929E-13
 -1      1423 1.57059E+01 7.15636E-02-1.29203E-02 9.01582E-02 1.36385E-13-3.44864E-13
 -1      1424 1.52347E+01 3.53489E-02-1.06095E-03 1.98618E-01 2.51535E-15-5.71052E-13
 -1      1425 1.54856E+01 2.74812E-02-1.40104E-04 2.15844E-01-4.73181E-14-6.71090E-13
 -1      1426 1.58895E+01 6.11067E-02-1.09251E-02 3.04565E-01 9.72313E-14-3.67651E-13
 -1      1427 1.57069E+01 2.31371E-02-4.15462E-04 2.71959E-01 4.37324E-14-6.98240E-13
 -1      1428 1.60429E+01 1.35924E-02 8.25131E-04 2.81680E-01 6.21577E-14-6.42479E-13
 -1      1429 1.62502E+01 4.19509E-02-7.31884E-03 4.70893E-01-2.20310E-15-4.58577E-13
 -1      1430 1.63114E+01 9.58070E-03 1.65320E-04 3.07836E-01 2.04369E-14-6.96986E-13
 -1      1431 1.66874E+01 3.55709E-04 1.57297E-03 3.09981E-01 3.58689E-14-7.11797E-13
 -1      1432 1.67343E+01 1.93281E-02-3.15480E-03 5.69676E-01-3.17522E-14-4.97082E-13
 -1      1433 1.69708E+01-2.29381E-03 4.83043E-04 3.08572E-01 4.47207E-14-6.36036E-13
 -1      1434 1.73452E+01-9.77493E-03 1.92063E-03 3.04646E-01 9.04348E-14-5.39886E-13
 -1      1435 1.72781E+01-1.50344E-03 5.62597E-04 5.98590E-01 4.56477E-14-5.44566E-13
 -1      1436 1.76164E+01-1.06751E-02 4.94425E-04 2.82742E-01 5.92091E-14-4.87133E-13
 -1      1437 1.79580E+01-1.57988E-02 1.86034E-03 2.75002E-01-7.36605E-14-5.06642E-13
 -1      1438 1.78231E+01-1.69645E-02 3.21164E-03 5.69464E-01 9.19787E-14-4.98383E-13
 -1      1439 1.81989E+01-1.51392E-02 2.80136E-04 2.41304E-01 9.23393E-15-3.93338E-13
 -1      1440 1.84896E+01-1.79887E-02 1.51117E-03 2.31963E-01 8.12913E-15-3.50249E-13
 -1      1441 1.83249E+01-2.57835E-02 4.63124E-03 5.01646E-01 2.35873E-14-4.05554E-13
 -1      1442 1.86911E+01-1.62798E-02-2.99641E-05 1.94313E-01-1.00551E-14-2.82082E-13
 -1      1443 1.89246E+01-1.73489E-02 1.03462E-03 1.85063E-01-2.31508E-14-2.97746E-13
 -1      1444 1.87572E+01-2.86095E-02 5.00215E-03 4.15224E-01 4.02213E-14-3.68562E-13
 -1      1445 1.90851E+01-1.51589E-02-3.22430E-04 1.49106E-01-3.47188E-14-2.16535E-13
 -1      1446 1.92638E+01-1.50676E-02 5.66768E-04 1.40967E-01-5.75321E-15-2.54084E-13
 -1      1447 1.91100E+01-2.71354E-02 4.66148E-03 3.26433E-01-2.33884E-15-2.64397E-13
 -1      1448 1.93864E+01-1.28566E-02-5.30426E-04 1.09889E-01-2.45472E-14 4.73128E-14
 -1      1449 1.95178E+01-1.21644E-02 1.90546E-04 1.03287E-01 5.48079E-14 2.00354E-14
 -1      1450 1.93853E+01-2.32647E-02 3.95045E-03 2.45808E-01 8.59768E-14-2.95336E-14
 -1      1451 1.96083E+01-1.02296E-02-6.29913E-04 7.82135E-02 1.45887E-13 7.88028E-14
 -1      1452 1.97015E+01-9.35401E-03-5.69003E-05 7.31483E-02 2.59768E-13 2.96017E-13
 -1      1453 1.95922E+01-1.85944E-02 3.13554E-03 1.78426E-01 2.00925E-13 2.24310E-13
 -1      1454 1.97661E+01-7.84892E-03-6.16368E-04 5.37760E-02 2.45631E-13 3.59045E-13
 -1      1455 1.98297E+01-7.05971E-03-1.58395E-04 4.99930E-02 1.64990E-13 6.18143E-13
 -1      1456 1.97427E+01-1.42312E-02 2.39184E-03 1.25191E-01 3.87444E-13 3.44059E-13
 -1      1457 1.98743E+01-6.05230E-03-4.75448E-04 3.51683E-02 1.70413E-14 5.24434E-13
 -1      1458 1.99153E+01-5.48375E-03-1.07892E-04 3.22689E-02-2.65952E-14 5.04187E-13
 -1      1459 1.98486E+01-1.08558E-02 1.81449E-03 8.43231E-02 1.25401E-13 3.03626E-13
 -1      1460 1.99443E+01-4.95734E-03-2.03001E-04 2.04887E-02 7.76646E-14 4.55006E-13
 -1      1461 1.99673E+01-4.51998E-03 1.02657E-05 1.79623E-02 1.23907E-13 6.22353E-13
 -1      1462 1.99202E+01-8.77074E-03 1.43236E-03 5.26228E-02 1.72351E-14 3.84059E-13
 -1      1463 1.99847E+01-5.07820E-03-1.63312E-04 8.07886E-03 1.14275E-13 8.35435E-13
 -1      1464 1.99924E+01-3.73037E-03-4.20796E-04 5.38974E-03 3.39875E-14 7.87346E-13
 -1      1465 1.99654E+01-7.90576E-03 1.03169E-03 2.69074E-02 1.98079E-13 4.22055E-13
 -1      1466 2.00010E+01 7.48259E-05-1.25341E-03-1.86709E-03-5.93047E-13 4.91954E-13
 -1      1467 1.99931E+01-4.28596E-03 6.31433E-05 4.74607E-03-5.38313E-13 2.67630E-13
 -1      1468 2.02625E+01 7.60104E-02-1.51711E-01 4.83328E-01 1.27405E-13 1.04364E-12
 -1      1469 2.15325E+01 2.16167E-01-2.29220E-01 7.20735E-01 1.12105E-13 1.24004E-12
 -1      1470 2.17313E+01 8.82224E-01-8.52628E-02 2.06456E+00 2.15418E-13 8.11240E-13
 -1      1471 1.93348E+01 3.27247E-02-2.09440E-02 1.85633E-01 7.60086E-14 8.19001E-13
 -1      1472 1.97553E+01 1.13576E-01-6.23578E-02 2.37796E-01 7.67858E-14 9.50968E-13
 -1      1473 2.03067E+01 1.88152E-01-5.47432E-02 7.85879E-01 1.77948E-13 6.26918E-13
 -1      1474 1.89547E+01 1.48695E-02 5.80599E-03 5.31430E-02 7.16562E-14 6.37206E-13
 -1      1475 1.90927E+01 5.15438E-02 1.35607E-03 7.91816E-02 5.52544E-14 7.41993E-13
 -1      1476 1.95621E+01 7.27840E-02-1.16604E-02 2.98248E-01 1.25129E-13 4.84678E-13
 -1      1477 1.88452E+01 6.93772E-03 6.71676E-03-9.75759E-03 6.14595E-14 5.15595E-13
 -1      1478 1.88594E+01 2.62118E-02 1.12612E-02 4.96161E-03 5.34412E-14 5.88862E-13
 -1      1479 1.92278E+01 3.09531E-02-2.56717E-03 8.26702E-02 1.14436E-13 3.52208E-13
 -1      1480 1.88762E+01 2.68916E-03 4.54179E-03-4.12294E-02 6.20552E-14 3.39773E-13
 -1      1481 1.88287E+01 1.37827E-02 8.47202E-03-3.23544E-02 6.41835E-14 4.58862E-13
 -1      1482 1.91121E+01 1.37108E-02-1.54216E-03-2.35965E-02 1.24051E-13 2.82851E-13
 -1      1483 1.89745E+01 9.94274E-04 3.23476E-03-5.37548E-02 2.88250E-14 2.78111E-13
 -1      1484 1.89022E+01 7.26336E-03 5.31227E-03-4.94116E-02 2.83259E-14 3.00777E-13
 -1      1485 1.91170E+01 3.97780E-03-1.77175E-03-7.59393E-02 8.92578E-14 2.00341E-13
 -1      1486 1.91014E+01-2.24858E-04 2.47553E-03-5.74311E-02 2.52268E-14 2.01867E-13
 -1      1487 1.90201E+01 3.34223E-03 3.35914E-03-5.52655E-02 3.37238E-14 2.50679E-13
 -1      1488 1.91834E+01-2.50086E-04-1.39246E-03-9.76433E-02 5.88899E-14 1.01422E-13
 -1      1489 1.92361E+01-9.20185E-04 2.02210E-03-5.57862E-02 2.79152E-14 1.82493E-13
 -1      1490 1.91550E+01 1.06428E-03 2.28582E-03-5.50109E-02 9.98604E-15 1.89517E-13
 -1      1491 1.92778E+01-2.68894E-03-1.00642E-03-1.03335E-01 2.99267E-14 4.02861E-14
 -1      1492 1.93663E+01-1.28469E-03 1.68119E-03-5.11725E-02 3.81250E-14 1.10667E-13
 -1      1493 1.92906E+01-3.20610E-04 1.62184E-03-5.12627E-02 3.53460E-14 1.61995E-13
 -1      1494 1.93816E+01-3.93022E-03-6.64883E-04-9.97761E-02 4.99972E-14 2.67100E-14
 -1      1495 1.94854E+01-1.42788E-03 1.42919E-03-4.51214E-02 6.73714E-14-2.07399E-14
 -1      1496 1.94177E+01-1.10791E-03 1.17673E-03-4.56736E-02 5.80560E-14 6.50860E-14
 -1      1497 1.94840E+01-4.45424E-03-4.04631E-04-9.10976E-02 1.08974E-13-3.38337E-14
 -1      1498 1.95943E+01-1.46816E-03 1.14506E-03-3.81326E-02-6.74347E-15-9.99678E-14
 -1      1499 1.95337E+01-1.51304E-03 8.64950E-04-3.90652E-02 2.02590E-14-6.68094E-14
 -1      1500 1.95807E+01-4.46453E-03-2.39740E-04-7.95732E-02 6.03247E-14-6.62729E-14
 -1      1501 1.96817E+01-1.36071E-03 9.41577E-04-3.14912E-02-2.12659E-14-6.62088E-14
 -1      1502 1.96335E+01-1.72333E-03 5.96793E-04-3.25164E-02-1.64326E-14-8.03524E-14
 -1      1503 1.96659E+01-4.26400E-03-7.18561E-05-6.71797E-02-2.41498E-14-1.03810E-13
 -1      1504 1.97536E+01-1.23899E-03 7.70370E-04-2.52984E-02-3.29202E-14-8.21320E-14
 -1      1505 1.97145E+01-1.74638E-03 4.24933E-04-2.63524E-02-1.66825E-14-6.72442E-14
 -1      1506 1.97364E+01-3.86346E-03 2.61144E-05-5.52432E-02-2.01098E-14-6.12060E-14
 -1      1507 1.98110E+01-1.07907E-03 6.32928E-04-1.97239E-02 4.36389E-14-1.12884E-13
 -1      1508 1.97802E+01-1.65090E-03 3.07742E-04-2.07448E-02 2.65321E-14-1.01976E-13
 -1      1509 1.97947E+01-3.41229E-03 8.75036E-05-4.41316E-02 2.87362E-14-7.91344E-14
 -1      1510 1.98557E+01-8.64342E-04 5.46601E-04-1.49480E-02 3.54161E-14-1.63287E-13
 -1      1511 1.98320E+01-1.46848E-03 2.37975E-04-1.58791E-02 2.24309E-14-1.11919E-13
 -1      1512 1.98414E+01-2.90937E-03 1.24583E-04-3.42794E-02 4.83103E-14-9.70511E-14
 -1      1513 1.98913E+01-5.70573E-04 4.53404E-04-1.10571E-02-4.39241E-14-1.67450E-13
 -1      1514 1.98729E+01-1.13913E-03 2.21229E-04-1.18832E-02 1.40345E-14-1.50607E-13
 -1      1515 1.98791E+01-2.33319E-03 1.09830E-04-2.59726E-02-4.31217E-15-4.08955E-14
 -1      1516 1.99181E+01-1.40335E-04 3.94284E-04-8.89903E-03-1.23854E-15-6.54067E-14
 -1      1517 1.99046E+01-6.25205E-04 2.47088E-04-9.38512E-03-4.71431E-14-1.43243E-13
 -1      1518 1.99093E+01-1.52793E-03 8.77020E-05-2.01137E-02-7.57692E-14-1.00831E-13
 -1      1519 1.99434E+01 5.94139E-04 3.44090E-04-9.13258E-03-4.11213E-15-7.14968E-14
 -1      1520 1.99311E+01 2.87354E-04 3.56959E-04-9.09655E-03 4.16820E-15-1.01921E-13
 -1      1521 1.99352E+01-4.11996E-04-4.29987E-05-1.81043E-02 1.35721E-14-6.81593E-14
 -1      1522 1.99761E+01 1.88069E-03 2.63423E-04-1.34344E-02 2.42364E-14-1.48924E-13
 -1      1523 1.99600E+01 1.92617E-03 5.62472E-04-1.24109E-02 4.88877E-14-1.14543E-13
 -1      1524 1.99637E+01 1.42586E-03-3.33002E-04-2.20886E-02 5.25670E-14-2.02487E-13
 -1      1525 2.00315E+01 4.16087E-03 7.12382E-05-2.48985E-02-1.02014E-14-1.16866E-13
 -1      1526 2.00030E+01 4.92137E-03 9.09351E-04-2.19943E-02-3.22583E-15-1.68197E-13
 -1      1527 2.00050E+01 4.62587E-03-9.30833E-04-3.63754E-02 1.97261E-14-2.55339E-13
 -1      1528 2.01359E+01 8.12650E-03-4.44812E-04-4.91079E-02-1.11671E-14-1.28277E-13
 -1      1529 2.00803E+01 1.05031E-02 1.50175E-03-4.26517E-02-6.69170E-15-1.44365E-13
 -1      1530 2.00756E+01 1.02025E-02-2.17614E-03-6.86855E-02-1.61835E-14-2.45089E-13
 -1      1531 2.03504E+01 1.59328E-02-2.04762E-03-9.91823E-02-3.97338E-14-2.12714E-14
 -1      1532 2.02316E+01 2.07456E-02 2.16031E-03-8.47366E-02-2.92596E-14-8.31906E-14
 -1      1533 2.02087E+01 2.12301E-02-4.44851E-03-1.34937E-01-2.67117E-14-4.08788E-14
 -1      1534 2.07418E+01 2.91156E-02-5.75151E-03-1.88923E-01-2.38971E-14 1.01081E-13
 -1      1535 2.05203E+01 3.96597E-02 2.66051E-03-1.62643E-01-6.41232E-14 3.18288E-14
 -1      1536 2.04519E+01 4.03786E-02-9.46441E-03-2.61058E-01-1.14306E-13-6.23937E-14
 -1      1537 2.14592E+01 5.16857E-02-1.53339E-02-3.50573E-01 1.89978E-14 7.42618E-14
 -1      1538 2.10423E+01 7.22044E-02 1.49909E-03-3.00797E-01 3.12250E-15 8.71395E-14
 -1      1539 2.08761E+01 7.48383E-02-1.89377E-02-4.84175E-01-1.76179E-14-1.50857E-13
 -1      1540 2.27402E+01 8.83930E-02-3.61529E-02-6.33622E-01-7.97105E-15 1.26919E-13
 -1      1541 2.19767E+01 1.28249E-01-4.11862E-03-5.41892E-01 1.36419E-14 7.73860E-14
 -1      1542 2.16057E+01 1.34433E-01-3.74557E-02-8.74630E-01 2.87964E-15-7.05031E-14
 -1      1543 2.49521E+01 1.38819E-01-6.98314E-02-1.10959E+00 1.17562E-14 1.59095E-13
 -1      1544 2.35985E+01 2.19431E-01-1.65775E-02-9.44341E-01-4.26673E-14 1.58783E-13
 -1      1545 2.28158E+01 2.29188E-01-6.97992E-02-1.53165E+00-3.40249E-14-7.38194E-14
 -1      1546 2.87835E+01 1.95398E-01-7.86173E-02-1.86697E+00-2.87964E-14 1.90736E-13
 -1      1547 2.63676E+01 3.33162E-01-3.16588E-02-1.58022E+00 4.06029E-14 2.60500E-13
 -1      1548 2.47923E+01 3.72494E-01-1.05338E-01-2.58399E+00 1.28335E-14 1.35308E-13
 -1      1549 3.41970E+01 1.71566E-01 6.22680E-02-2.69394E+00-1.07367E-13 4.64018E-13
 -1      1550 3.07168E+01 3.71471E-01 2.60391E-03-2.36320E+00-1.24711E-13 2.90379E-13
 -1      1551 2.77223E+01 4.46408E-01-9.49825E-02-3.98778E+00-1.27266E-13 3.99708E-13
 -1      1552 4.00190E+01-1.03005E-01 4.48618E-01-2.97303E+00-4.59216E-14 3.61350E-13
 -1      1553 3.62709E+01 1.01242E-01 1.83796E-01-2.78571E+00 7.68829E-15 4.21330E-13
 -1      1554 3.13433E+01 1.66741E-01 6.71723E-02-5.02063E+00 8.10463E-15 4.15140E-13
 -1      1555 4.55025E+01-1.01102E+00 9.45749E-01-8.92364E-01-9.48686E-14 6.55753E-13
 -1      1556 4.23128E+01-8.03625E-01 5.55408E-01-1.82533E+00-2.02782E-13 3.98515E-13
 -1      1557 3.54124E+01-1.22178E+00 2.83271E-01-4.16353E+00-1.97009E-13 3.24935E-13
 -1      1558 4.40381E+01-8.60608E-01 7.29451E-01 4.58670E-01-1.08247E-13 6.51035E-13
 -1      1559 3.84384E+01-3.55997E-01-1.14564E+00 4.90503E+00-1.10578E-13 9.66782E-13
 -1      1560 4.46818E+01-1.47097E+00-1.10760E-01 3.94026E+00-2.71477E-13 6.97664E-13
 -1      1561 3.23624E+01 1.51240E+00-3.12774E+00-1.28542E+00 3.20854E-14 9.63563E-13
 -1      1562 3.09266E+01 1.51080E+00-3.38366E+00 2.29890E-01 9.05942E-14 1.06282E-12
 -1      1563 3.92981E+01-3.19940E-01-1.40080E+00-4.62064E+00 2.95208E-13 4.68736E-13
 -1      1564 3.17636E+01 9.82258E-01-3.01800E+00-4.44674E+00 1.26898E-13 7.75657E-13
 -1      1565 4.68719E+01 2.93374E+00-1.15902E-01-3.93044E+00 2.65565E-13 2.86604E-13
 -1      1566 4.55962E+01-1.08617E+00 3.51341E-01-3.64388E+00 2.39767E-13-1.55764E-13
 -1      1567 3.93178E+01-4.56561E-01-9.37961E-01-4.29631E+00 3.41449E-13 2.74225E-13
 -1      1568 4.43078E+01-6.34052E-01-2.93737E-01-7.53682E+00 5.14144E-13-8.27116E-15
 -1      1569 4.72377E+01-7.96754E-01 9.97723E-01-3.23658E-01 1.47396E-13-6.88311E-13
 -1      1570 4.52512E+01-9.63631E-01 5.76609E-01-1.10162E+00 1.64591E-13-3.66818E-13
 -1      1571 4.32092E+01-2.51243E+00 1.53391E-01-4.03122E+00 3.97481E-13-2.77028E-13
 -1      1572 4.32719E+01-1.02183E-01 6.54395E-01 1.88387E+00-1.06345E-13-3.35537E-13
 -1      1573 4.56212E+01-5.69491E-01 8.43865E-01 1.47971E+00-4.60743E-15-5.47229E-13
 -1      1574 4.07506E+01-1.40243E+00 4.86435E-01 1.32351E+00 8.29892E-15-1.99125E-13
 -1      1575 3.66983E+01 2.10239E-01 1.05938E-01 2.28408E+00-3.94962E-14-1.97731E-13
 -1      1576 4.07009E+01-1.74350E-01 3.60283E-01 2.23986E+00-7.97487E-14-3.75588E-13
 -1      1577 3.67488E+01-3.03660E-01 3.11614E-01 4.01846E+00-1.19918E-13 2.26208E-15
 -1      1578 3.01143E+01 2.24156E-01-1.34263E-01 1.70869E+00 9.33273E-14-2.51105E-13
 -1      1579 3.39477E+01 3.68947E-02-3.71822E-02 1.81668E+00 1.38448E-14-2.32703E-13
 -1      1580 3.17111E+01 1.98573E-01 3.92398E-02 3.93779E+00-2.51917E-14-2.16327E-13
 -1      1581 2.58922E+01 1.31234E-01-1.32818E-01 1.06834E+00 5.59101E-14-5.43537E-13
 -1      1582 2.82910E+01 8.66771E-02-1.26750E-01 1.17535E+00 1.43920E-13-3.44114E-13
 -1      1583 2.73210E+01 2.72757E-01-7.06745E-02 2.78422E+00 2.61680E-13-2.08236E-13
 -1      1584 2.32884E+01 7.24562E-02-8.11884E-02 6.20678E-01 3.07289E-14-3.61225E-13
 -1      1585 2.47134E+01 8.13971E-02-9.02347E-02 6.99865E-01-3.03785E-14-4.75592E-13
 -1      1586 2.43610E+01 1.91572E-01-6.80569E-02 1.72139E+00 5.17295E-15-2.81775E-13
 -1      1587 2.17732E+01 3.83806E-02-4.13292E-02 3.45804E-01-6.67834E-14-3.50407E-13
 -1      1588 2.25763E+01 5.65582E-02-4.69215E-02 3.96001E-01-7.16441E-16-3.31853E-13
 -1      1589 2.24871E+01 1.14287E-01-4.20959E-02 9.96688E-01-9.75955E-15-3.39270E-13
 -1      1590 2.09225E+01 1.98529E-02-1.95618E-02 1.86901E-01 7.40380E-15-1.68700E-13
 -1      1591 2.13600E+01 3.56154E-02-2.07120E-02 2.16905E-01-5.86970E-14-2.05150E-13
 -1      1592 2.13670E+01 6.33714E-02-2.22898E-02 5.54675E-01-1.32883E-13-2.36086E-13
 -1      1593 2.04586E+01 9.90554E-03-9.27240E-03 9.78999E-02-1.13258E-13-7.13706E-14
 -1      1594 2.06909E+01 2.14725E-02-8.21069E-03 1.15342E-01 6.21365E-14-2.72221E-14
 -1      1595 2.07238E+01 3.38144E-02-1.12733E-02 2.99302E-01 1.29445E-14 1.06258E-13
 -1      1596 2.02072E+01 4.34757E-03-3.87744E-03 4.75117E-02 1.00777E-13 1.15436E-13
 -1      1597 2.03283E+01 1.22362E-02-2.83780E-03 5.77488E-02-1.73457E-13-1.04152E-14
 -1      1598 2.03619E+01 1.84602E-02-5.04070E-03 1.54584E-01-2.17845E-13 5.62658E-14
 -1      1599 2.00895E+01 2.18010E-03-1.57333E-03 2.27288E-02-1.68871E-13 5.10858E-13
 -1      1600 2.01448E+01 6.91710E-03-5.90342E-04 2.78693E-02-1.17084E-13 1.11363E-13
 -1      1601 2.01699E+01 8.52690E-03-2.67931E-03 7.55330E-02-5.60108E-14-9.27726E-14
 -1      1602 2.00334E+01 9.14379E-04-5.93897E-04 1.00088E-02-1.90228E-14 8.35213E-13
 -1      1603 2.00584E+01 3.65948E-03 3.44279E-05 1.26975E-02-6.71917E-14 8.13855E-13
 -1      1604 2.00755E+01 4.24579E-03-1.23689E-03 3.56338E-02-2.48772E-13 3.02978E-13
 -1      1605 2.00090E+01 3.90542E-04-2.14098E-04 3.83244E-03 6.45621E-15 4.81041E-13
 -1      1606 2.00190E+01 1.90829E-03 1.81021E-04 5.19799E-03 9.68035E-14 6.93313E-13
 -1      1607 2.00299E+01 2.04947E-03-5.41966E-04 1.54516E-02 1.18980E-13 3.07221E-13
 -1      1608 2.00009E+01 3.21010E-04 2.79481E-04 7.64394E-04 2.22685E-14 5.83496E-14
 -1      1609 2.00030E+01 9.04351E-04 1.12692E-04 1.37607E-03-2.41582E-14 1.78221E-13
 -1      1610 2.00094E+01 1.23224E-03-1.68873E-04 5.41553E-03 1.24609E-13 2.82126E-13
 -1      1611 2.00004E+01 2.91154E-04 1.14985E-03-1.64905E-04-8.31964E-14 9.39804E-14
 -1      1612 1.99996E+01 7.19209E-04 2.62293E-04-1.68196E-04-1.53642E-13-1.06250E-14
 -1      1613 2.00030E+01 8.03866E-04 6.41232E-05 1.18774E-03-3.06348E-14-1.93160E-13
 -1      1614 2.00005E+01-6.21868E-04-2.16967E-05-6.37218E-05-5.55976E-14-1.98028E-13
 -1      1615 2.00003E+01 5.60696E-03-5.52208E-04 3.29728E-03-7.41029E-13-2.99433E-13
 -1      1616 2.00008E+01 2.48900E-03-9.80402E-05 2.37512E-03-1.68267E-13-3.57481E-13
 -1      1617 2.00017E+01 4.04099E-03-2.81550E-05 3.05535E-03-2.34812E-14-5.33808E-13
 -1      1618 1.99993E+01 1.65790E-02-1.16426E-04 4.23435E-03 1.82367E-13 9.50437E-13
 -1      1619 2.00000E+01 1.05362E-02-2.49042E-04 4.03510E-03-4.84078E-13 4.68871E-13
 -1      1620 2.00007E+01 1.21264E-02-4.57726E-05 7.31920E-03 4.30978E-14 4.90474E-13
 -1      1621 1.99984E+01 2.22217E-02 5.34608E-04 8.06363E-04 2.52185E-13 2.17982E-13
 -1      1622 1.99986E+01 1.90343E-02 7.79593E-05 1.76600E-03 7.82972E-14 2.85758E-13
 -1      1623 1.99988E+01 1.93277E-02 4.36559E-04 5.27932E-03-3.64653E-14 5.41960E-13
 -1      1624 1.99981E+01 1.26306E-02 8.86183E-04-5.80459E-03 1.48906E-14-2.60081E-13
 -1      1625 1.99976E+01 1.78583E-02 3.97647E-04-4.03068E-03 2.06795E-14 1.15726E-13
 -1      1626 1.99974E+01 1.75016E-02 9.68195E-04-4.15089E-03-1.86587E-14-8.91989E-14
 -1      1627 1.99985E+01-1.55680E-02 8.12824E-04-1.27495E-02-5.50926E-13-1.49743E-13
 -1      1628 1.99975E+01-2.22508E-04 4.69740E-04-1.09236E-02-1.32274E-13-2.15398E-13
 -1      1629 1.99971E+01 5.07158E-04 1.10541E-03-1.73237E-02-2.53041E-13-3.17037E-13
 -1      1630 1.99995E+01-5.96833E-02 3.87708E-04-1.73781E-02-1.31283E-13 4.30904E-13
 -1      1631 1.99983E+01-3.58323E-02 3.09022E-04-1.61701E-02-4.50583E-13 8.23902E-14
 -1      1632 1.99980E+01-3.22013E-02 7.85351E-04-2.89184E-02-3.11645E-13-4.36215E-15
 -1      1633 2.00006E+01-1.09403E-01-2.02852E-04-1.76244E-02 6.95884E-13 1.77096E-13
 -1      1634 1.99997E+01-8.29486E-02 6.40639E-07-1.75718E-02 1.77118E-13 2.66556E-13
 -1      1635 1.99996E+01-7.54276E-02 1.67311E-04-3.42962E-02 1.32057E-13 5.60555E-13
 -1      1636 2.00015E+01-1.51919E-01-7.34240E-04-1.31085E-02 4.37198E-13-4.43125E-13
 -1      1637 2.00013E+01-1.29947E-01-3.11319E-04-1.43055E-02 8.54825E-13-2.23046E-13
 -1      1638 2.00015E+01-1.19129E-01-5.47073E-04-3.08524E-02 3.71764E-13-1.85128E-16
 -1      1639 2.00019E+01-1.75923E-01-1.03397E-03-4.98209E-03 3.65055E-13 1.40879E-13
 -1      1640 2.00025E+01-1.64537E-01-5.17742E-04-7.13092E-03 3.76425E-13-5.93551E-14
 -1      1641 2.00029E+01-1.52513E-01-1.13063E-03-1.90998E-02 1.92403E-13-3.04164E-13
 -1      1642 2.00018E+01-1.75026E-01-1.00454E-03 4.52926E-03 6.01653E-13 5.87776E-14
 -1      1643 2.00030E+01-1.77483E-01-5.58031E-04 2.01229E-03 6.99719E-13 5.46531E-14
 -1      1644 2.00034E+01-1.67241E-01-1.41011E-03-2.14258E-03 2.33854E-13 2.44296E-13
 -1      1645 2.00011E+01-1.50278E-01-6.59584E-04 1.26956E-02 4.76721E-13-1.69655E-13
 -1      1646 2.00026E+01-1.65524E-01-3.98320E-04 1.05166E-02 7.05862E-13-1.08344E-13
 -1      1647 2.00029E+01-1.60029E-01-1.33458E-03 1.52834E-02 4.58361E-13-4.82162E-14
 -1      1648 2.00000E+01-1.07858E-01-3.72893E-05 1.74716E-02 2.44066E-13-2.66654E-13
 -1      1649 2.00015E+01-1.32172E-01-7.62091E-05 1.61607E-02 3.75015E-13-4.28519E-15
 -1      1650 2.00015E+01-1.33259E-01-8.63123E-04 2.84588E-02 2.20234E-13-2.24728E-13
 -1      1651 1.99988E+01-6.00965E-02 7.19769E-04 1.70885E-02-6.41330E-13-4.38669E-13
 -1      1652 1.99997E+01-8.61180E-02 3.86747E-04 1.71783E-02-8.60167E-14-3.60391E-13
 -1      1653 1.99993E+01-9.39575E-02-1.50726E-04 3.36844E-02-2.47979E-13-3.85141E-13
 -1      1654 1.99974E+01-2.23976E-02 6.99421E-04 1.15241E-02-1.20674E-12-2.26609E-14
 -1      1655 1.99981E+01-4.08884E-02 8.41257E-04 1.29070E-02-9.23828E-13-5.97688E-14
 -1      1656 1.99970E+01-5.29262E-02 6.08881E-04 2.87911E-02-6.03744E-13-4.71127E-13
 -1      1657-1.72020E+00-2.04318E+01-2.04120E+00-3.57233E+00-2.78444E-13-1.85407E-13
 -1      1658-1.17756E+00-1.99432E+01-1.86071E+00-1.39696E+00-4.53526E-14-1.56541E-14
 -1      1659-1.88437E+00-1.61810E+01-2.06794E+00-4.20559E+00-6.32827E-15 1.77053E-13
 -1      1660-1.39507E+00-1.95080E+01-2.11435E+00-3.13690E+00-2.23627E-13 2.09499E-13
 -1      1661 1.31844E+00-9.09306E+00-2.01153E+00-1.68636E+00 1.74749E-13-1.01918E-13
 -1      1662 1.43939E-02-1.45962E+01-2.33753E+00-3.12589E+00 6.88338E-14 7.00065E-14
 -1      1663 1.19208E+01-2.12314E+00-1.55099E+00 3.84879E+00 2.24487E-13 7.42073E-13
 -1      1664 5.79820E+00-7.63498E+00-2.38261E+00-2.53663E-01 1.54543E-13 2.66676E-13
 -1      1665 3.28663E+01 1.65600E+00 8.04013E-02 9.11900E+00 4.99156E-13 6.27942E-13
 -1      1666 1.98201E+01-1.13165E+00-1.61316E+00 4.62634E+00 5.26246E-13 6.86118E-13
 -1      1667 5.96136E+01 1.66467E+00 2.54309E+00 7.68068E+00 2.93376E-13-7.19425E-14
 -1      1668 4.09686E+01 3.11063E+00 2.91860E-01 7.71117E+00 4.02789E-13 3.92575E-13
 -1      1669 6.85356E+01 1.71628E+00 3.26751E+00-5.31970E-01 3.28182E-13-5.23026E-13
 -1      1670 5.73080E+01 2.34591E+00 1.65439E+00 2.61598E+00 2.78499E-13-1.73639E-13
 -1      1671 7.81164E+01 4.23293E+00 5.32213E+00-4.86596E+00 5.78426E-14-7.58615E-13
 -1      1672 8.07827E+01 5.04944E+00 6.02921E+00 2.95927E+00 1.33560E-13-5.33629E-13
 -1      1673 5.86692E+01 4.12101E+00 2.56983E+00-7.92670E+00 3.57769E-14-5.32907E-13
 -1      1674 7.52392E+01 2.76250E+00 5.01612E+00-4.89598E+00-6.02296E-14-7.93143E-13
 -1      1675 3.45994E+01 2.07618E+00-2.91714E-01-7.86382E+00 1.27232E-13-3.25517E-13
 -1      1676 5.14070E+01 2.84882E+00 2.07492E+00-1.04322E+01 9.98090E-14-4.44089E-13
 -1      1677 1.50083E+01-3.22874E+00-1.93808E+00-2.99476E+00 1.82743E-13-1.97842E-13
 -1      1678 2.62808E+01 7.90306E-01-4.66515E-01-7.83204E+00 1.54765E-13-1.11688E-13
 -1      1679 3.05882E+00-9.59724E+00-2.48396E+00 1.53127E+00 3.51053E-13-1.13687E-13
 -1      1680 7.13036E+00-3.98839E+00-1.84328E+00-1.80702E+00 2.08278E-13-1.82077E-14
 -1      1681-9.36508E-01-1.65593E+01-2.39242E+00 3.75699E+00 9.89209E-14-2.87659E-13
 -1      1682-3.81178E-01-1.13957E+01-2.16422E+00 3.05814E+00 3.90799E-13-2.80304E-13
 -1      1683-1.45096E+00-2.05653E+01-2.11705E+00 2.82855E+00-5.23095E-13-1.64091E-13
 -1      1684-2.11713E+00-1.81453E+01-2.14204E+00 4.50537E+00-6.69464E-14-2.79637E-13
 -1      1685-9.74981E-01-1.83315E+01-1.70737E+00 8.18608E-01-7.34079E-13-6.80012E-14
 -1      1686-1.39885E+00-2.03115E+01-1.97309E+00 2.97921E+00-6.72129E-13-6.19504E-14
 -1      1687 5.49359E-01-1.13662E+01-1.27119E+00 8.10959E-01-7.67164E-13-2.02088E-13
 -1      1688 4.75734E-02-1.67723E+01-1.74781E+00 1.24636E+00-8.39884E-13-1.20542E-13
 -1      1689 4.33093E+00-2.67874E+00-7.53413E-01 3.63107E+00-9.27924E-13-6.50147E-13
 -1      1690 2.46194E+00-8.98401E+00-1.41623E+00 1.66127E+00-7.79821E-13-4.39676E-13
 -1      1691 1.28232E+01 5.11904E+00-6.89470E-02 9.21753E+00-1.12155E-12-9.71001E-13
 -1      1692 7.67052E+00-1.42601E-01-9.21967E-01 5.18241E+00-9.52571E-13-7.82041E-13
 -1      1693 2.73655E+01 8.19395E+00 6.67163E-01 1.40748E+01-9.74776E-13-8.15792E-13
 -1      1694 1.86184E+01 6.21861E+00-2.16219E-01 1.05146E+01-1.08447E-12-9.55347E-13
 -1      1695 4.39801E+01 7.76461E+00 1.35834E+00 1.47904E+01-5.47951E-13-6.10623E-13
 -1      1696 3.33474E+01 8.86320E+00 5.45463E-01 1.42420E+01-7.69163E-13-8.33555E-13
 -1      1697 5.70876E+01 5.52375E+00 1.77908E+00 1.05942E+01-2.26180E-13-1.67311E-13
 -1      1698 4.92462E+01 7.68204E+00 1.28748E+00 1.40014E+01-4.64628E-13-5.04041E-13
 -1      1699 6.23141E+01 4.32701E+00 1.82868E+00 1.77445E+00-1.41220E-13 7.35800E-14
 -1      1700 5.91959E+01 5.31533E+00 1.65161E+00 7.54573E+00-1.26260E-13-9.31477E-14
 -1      1701 6.10430E+01 4.86790E+00 1.80438E+00-7.01425E+00 4.36318E-14 6.87228E-14
 -1      1702 6.33897E+01 4.01779E+00 1.90407E+00-1.21507E+00 3.07532E-14 1.36016E-13
 -1      1703 5.12888E+01 7.28175E+00 1.39683E+00-1.34240E+01-2.93654E-14-2.29816E-14
 -1      1704 5.85400E+01 5.24811E+00 1.85627E+00-9.69705E+00 6.74738E-14 3.26406E-14
 -1      1705 3.69618E+01 8.99101E+00 7.62911E-01-1.48747E+01 6.90559E-14 4.68514E-14
 -1      1706 4.64451E+01 7.56881E+00 1.44367E+00-1.46330E+01-5.06262E-14 7.66054E-15
 -1      1707 2.29929E+01 8.26733E+00 1.09585E-01-1.26221E+01 1.94400E-13-3.15303E-14
 -1      1708 3.14490E+01 8.99677E+00 8.81059E-01-1.52076E+01 4.31877E-14 2.02949E-13
 -1      1709 1.18522E+01 3.53632E+00-5.68121E-01-7.72260E+00 1.61204E-13-4.55191E-14
 -1      1710 1.79743E+01 7.15934E+00 2.40015E-01-1.15354E+01 1.17018E-13-2.69562E-13
 -1      1711 4.78872E+00-4.22421E+00-1.15238E+00-3.22820E+00 5.37570E-13-1.48770E-14
 -1      1712 7.91329E+00 1.47928E+00-4.28594E-01-6.20025E+00 2.64011E-13 2.60347E-13
 -1      1713 1.16452E+00-1.26875E+01-1.57565E+00-1.04373E+00 5.29576E-13-1.81258E-13
 -1      1714 2.16982E+00-6.69929E+00-1.02273E+00-1.89062E+00 5.32241E-13 6.60583E-14
 -1      1715-5.38097E-01-1.83478E+01-1.77785E+00-1.86701E+00 8.01581E-14-2.03476E-13
 -1      1716-1.89188E-01-1.43335E+01-1.40827E+00-7.02222E-01 4.29101E-13-3.60739E-13
 -1      1717 9.98681E+00-8.76688E+00-1.49035E+00 2.97138E+00 2.26152E-13 3.39478E-13
 -1      1718 4.30230E+01 7.97014E-01-6.48487E-01 4.98445E+00-1.21791E-13 7.64222E-13
 -1      1719 4.91338E+01-4.20047E-01 3.32847E-01 5.57642E+00-1.10689E-13 1.57208E-13
 -1      1720 3.82166E+01 2.10890E+00-1.64279E+00 3.90103E+00-1.72085E-14 8.29087E-13
 -1      1721 1.38541E+00-1.15391E+01-1.55401E+00 7.84683E-01 9.04832E-14 1.07248E-13
 -1      1722-1.96338E+00-1.26993E+01-1.29912E+00-3.02043E+00 1.73916E-13-3.94629E-13
 -1      1723-2.19971E+00-1.35822E+01-1.51984E+00-1.22195E+00 1.34309E-13 1.64424E-13
 -1      1724 1.99961E+01-6.39178E-03-5.75988E-05 5.74190E-03-9.66918E-13 2.18261E-14
 -1      1725 1.99956E+01-1.37044E-02 8.07655E-04 9.19154E-03-1.02944E-12-5.76131E-14
 -1      1726 1.99947E+01-2.66450E-02 8.33651E-04 2.00364E-02-6.11963E-13-3.18211E-14
 -1      1727 2.50417E+01-5.99289E+00-8.08614E-01 3.83938E+00 1.73750E-13 8.20233E-13
 -1      1728 4.27959E+01-2.88115E+00 3.58340E-01 1.06700E+00 5.38958E-13 3.01092E-13
 -1      1729 6.08040E+01 5.73870E+00 2.91290E+00 3.30301E+00-1.39888E-13 6.67244E-14
 -1      1730 5.37627E+01 7.06134E-01 1.85080E+00 8.25283E-01-7.91034E-14-2.33369E-13
 -1      1731 3.73363E+01-3.91862E+00-4.31870E-02-2.39664E+00 2.91989E-14-1.51656E-13
 -1      1732 1.99819E+01-6.80696E+00-1.10098E+00-3.79085E+00 2.77556E-14 7.60503E-14
 -1      1733 6.45238E+00-9.74279E+00-1.61052E+00-2.04889E+00 1.50990E-13-2.91572E-14
 -1      1734-3.00432E-01-1.27386E+01-1.64753E+00 1.65355E-01-7.03881E-14-4.66849E-13
 -1      1735-2.47745E+00-1.37495E+01-1.48086E+00 1.87923E+00-3.47652E-13-3.03757E-13
 -1      1736-1.02706E+00-1.19958E+01-1.22164E+00 3.54966E+00-4.93050E-13-1.17462E-13
 -1      1737 3.50674E+00-8.58738E+00-9.53161E-01 5.30900E+00-6.01297E-13-3.44280E-13
 -1      1738 1.07868E+01-3.74595E+00-5.20719E-01 7.38855E+00-6.01630E-13-6.31939E-13
 -1      1739 2.15756E+01 8.05299E-01 1.10958E-01 9.28706E+00-7.79266E-13-6.68132E-13
 -1      1740 3.35179E+01 4.17982E+00 6.24360E-01 9.24495E+00-8.09353E-13-5.37459E-13
 -1      1741 4.42214E+01 7.04213E+00 1.16259E+00 7.92058E+00-5.41796E-13-1.85518E-13
 -1      1742 5.12617E+01 8.54782E+00 1.50040E+00 4.71374E+00-3.01870E-13-1.03695E-13
 -1      1743 5.39699E+01 8.75026E+00 1.57289E+00 8.66725E-02-8.16014E-15-1.93796E-13
 -1      1744 5.27410E+01 8.29503E+00 1.57158E+00-4.49759E+00 3.41949E-14-6.80567E-14
 -1      1745 4.58055E+01 7.37067E+00 1.22284E+00-7.79351E+00 4.18068E-14-2.27152E-13
 -1      1746 3.61915E+01 5.54933E+00 8.01856E-01-9.70129E+00 1.14075E-13-4.44089E-15
 -1      1747 2.54003E+01 2.72244E+00 2.80979E-01-9.87686E+00 2.68896E-13-2.33147E-14
 -1      1748 1.52976E+01-1.37908E+00-2.62823E-01-8.41675E+00 4.20552E-13-2.14273E-14
 -1      1749 7.00975E+00-6.13465E+00-7.55544E-01-6.35153E+00 5.17697E-13 9.96425E-14
 -1      1750 1.23786E+00-1.00780E+01-1.07959E+00-4.59989E+00 1.46771E-13-2.02255E-13
 -1      1751 2.28620E+01 1.98483E+00-2.35683E-02-2.72154E+00-1.87829E-13 6.11511E-13
 -1      1752 1.98261E+01 3.71389E+00-3.55034E-02-2.15100E+00-2.22652E-13-3.43850E-13
 -1      1753 2.00596E+01 3.56285E+00-4.02408E-02-2.44321E+00-2.60774E-13-2.64854E-13
 -1      1754 2.03656E+01 3.18152E+00-4.57990E-02-2.58322E+00-2.53678E-13-1.67609E-13
 -1      1755 2.05862E+01 2.80966E+00-1.42511E-01-2.85165E+00-2.74995E-13-3.58949E-14
 -1      1756 2.04261E+01 2.69285E+00-4.24705E-03-2.22242E+00-2.72148E-13-2.05540E-13
 -1      1757 1.93540E+01 4.18949E+00-2.00639E-02-1.26891E+00-1.13702E-13-4.66155E-13
 -1      1758 1.94287E+01 4.14991E+00-1.68401E-02-1.49313E+00-1.43288E-13-4.56395E-13
 -1      1759 1.92563E+01 4.29542E+00-1.67594E-02-8.58499E-01-6.46995E-14-4.79405E-13
 -1      1760 1.92995E+01 4.27147E+00-1.42537E-02-1.06905E+00-8.78507E-14-4.76995E-13
 -1      1761 1.95255E+01 3.78407E+00-9.00788E-03-1.11804E+00-1.13246E-13-4.61253E-13
 -1      1762 1.92042E+01 4.35588E+00-1.47892E-02-4.66159E-01-1.15206E-14-4.51701E-13
 -1      1763 1.92264E+01 4.34304E+00-1.32956E-02-6.66223E-01-3.45454E-14-4.65043E-13
 -1      1764 1.94273E+01 3.90435E+00-9.16531E-03-7.32174E-01-5.03535E-14-4.57908E-13
 -1      1765 1.91846E+01 4.38151E+00-1.36581E-02-8.35252E-02 4.68201E-14-4.40471E-13
 -1      1766 1.91911E+01 4.37759E+00-1.32038E-02-2.78724E-01 2.05308E-14-4.48121E-13
 -1      1767 1.93765E+01 3.96886E+00-9.14424E-03-3.57800E-01 3.91237E-15-4.36757E-13
 -1      1768 1.91928E+01 4.37620E+00-1.31599E-02 2.97704E-01 9.98886E-14-4.27536E-13
 -1      1769 1.91851E+01 4.38067E+00-1.37441E-02 1.02339E-01 7.49891E-14-4.34633E-13
 -1      1770 1.93616E+01 3.98829E+00-9.13597E-03 1.05117E-02 6.37371E-14-4.25158E-13
 -1      1771 1.92306E+01 4.33896E+00-1.33204E-02 6.85952E-01 1.34864E-13-4.19085E-13
 -1      1772 1.92071E+01 4.35266E+00-1.49143E-02 4.85366E-01 1.18589E-13-4.25457E-13
 -1      1773 1.93793E+01 3.96553E+00-9.18186E-03 3.79021E-01 1.16784E-13-4.17531E-13
 -1      1774 1.93048E+01 4.26547E+00-1.43970E-02 1.08322E+00 1.86645E-13-3.84127E-13
 -1      1775 1.92611E+01 4.28993E+00-1.69827E-02 8.75415E-01 1.61455E-13-4.06505E-13
 -1      1776 1.94327E+01 3.89793E+00-9.19430E-03 7.50691E-01 1.55910E-13-4.03096E-13
 -1      1777 1.94373E+01 4.13815E+00-1.74185E-02 1.51306E+00 2.37968E-13-3.22711E-13
 -1      1778 1.93604E+01 4.18067E+00-2.05227E-02 1.28362E+00 2.11560E-13-3.57794E-13
 -1      1779 1.95333E+01 3.77376E+00-9.25400E-03 1.13410E+00 2.15008E-13-3.47049E-13
 -1      1780 1.96670E+01 3.92167E+00-2.52921E-02 1.97790E+00 2.85282E-13-2.28581E-13
 -1      1781 1.95341E+01 3.99851E+00-2.69023E-02 1.72066E+00 2.54519E-13-2.85078E-13
 -1      1782 1.97073E+01 3.56632E+00-8.88840E-03 1.53375E+00 2.62166E-13-2.80191E-13
 -1      1783 2.00802E+01 3.52268E+00-4.43385E-02 2.47442E+00 3.23581E-13-6.13433E-14
 -1      1784 1.98422E+01 3.68408E+00-3.78991E-02 2.17962E+00 2.98238E-13-1.61430E-13
 -1      1785 2.00030E+01 3.22155E+00-6.52967E-03 1.93019E+00 3.05258E-13-1.74988E-13
 -1      1786 2.09216E+01 2.66924E+00-6.21786E-02 2.85384E+00 3.03584E-13 2.31412E-13
 -1      1787 2.04148E+01 3.10026E+00-4.97118E-02 2.61152E+00 3.10511E-13 5.32838E-14
 -1      1788 2.04999E+01 2.60872E+00-8.23426E-04 2.23699E+00 3.33323E-13 5.27009E-15
 -1      1789 2.17323E+01 1.21143E+00-1.23366E-01 2.32774E+00 2.50890E-13 6.05405E-13
 -1      1790 2.12800E+01 2.27258E+00 3.36355E-03 2.74049E+00 2.77804E-13 3.64209E-13
 -1      1791 2.09625E+01 1.68895E+00-1.35303E-02 2.14436E+00 3.13546E-13 2.32852E-13
 -1      1792 2.09625E+01 7.79019E-01-6.05217E-02 1.52235E+00 2.42681E-13 5.31646E-13
 -1      1793 2.18002E+01 2.45808E+00 9.08941E-02-3.04687E+00-2.43701E-13 2.06932E-13
 -1      1794 2.01087E+01 2.97931E-01-7.87224E-03 6.56200E-01 1.93488E-13 4.01758E-13
 -1      1795 2.06528E+01 4.39230E-01-1.41175E-02 1.03341E+00 2.06626E-13 4.66082E-13
 -1      1796 2.07514E+01 8.46713E-01 5.42179E-03 1.40799E+00 2.46973E-13 3.04166E-13
 -1      1797 2.15106E+01 1.74221E+00 7.94172E-02-2.33569E+00-2.55053E-13 9.91360E-14
 -1      1798 2.05251E+01 5.00814E-01 3.24066E-02-9.20171E-01-1.94386E-13 7.71466E-14
 -1      1799 2.00940E+01 3.52252E-01 7.56874E-03-6.28131E-01-1.72067E-13 1.49707E-14
 -1      1800 1.99000E+01 2.57491E-01 2.74062E-02-3.89584E-01-1.61589E-13 1.32169E-14
 -1      1801 1.97096E+01 1.78170E-01 1.04040E-02-2.51690E-01-1.36915E-13-2.38524E-14
 -1      1802 2.02034E+01 4.83977E-01-5.85296E-03-7.20557E-01-1.99264E-13-8.31952E-14
 -1      1803 1.95879E+01 1.32869E-01 1.66467E-02-1.18070E-01-1.11804E-13-3.58550E-14
 -1      1804 1.95104E+01 9.32445E-02 6.97706E-03-4.71886E-02-9.06449E-14-5.70516E-14
 -1      1805 1.98781E+01 2.44114E-01-5.79305E-03-2.93442E-01-1.49139E-13-1.14046E-13
 -1      1806 1.94460E+01 6.85825E-02 8.68188E-03 2.64605E-02-8.82948E-14-7.02862E-14
 -1      1807 1.94322E+01 4.69016E-02 4.12271E-03 6.27349E-02-9.74516E-14-8.52428E-14
 -1      1808 1.96962E+01 1.25512E-01-4.63501E-03-5.63712E-02-1.11048E-13-1.47574E-13
 -1      1809 1.94065E+01 3.25552E-02 4.23023E-03 1.01554E-01-1.17166E-13-8.63452E-14
 -1      1810 1.94271E+01 2.01033E-02 2.44156E-03 1.18416E-01-1.00707E-13-1.32618E-13
 -1      1811 1.96105E+01 6.12001E-02-3.45568E-03 7.34647E-02-1.23963E-13-1.67490E-13
 -1      1812 1.94257E+01 1.14373E-02 1.84447E-03 1.36408E-01-1.15735E-13-1.33181E-13
 -1      1813 1.94636E+01 4.22493E-03 1.45241E-03 1.41889E-01-1.02978E-13-1.41795E-13
 -1      1814 1.95871E+01 2.42700E-02-2.32936E-03 1.40056E-01-1.21866E-13-1.52954E-13
 -1      1815 1.94764E+01-1.01575E-03 5.37640E-04 1.47282E-01-8.87823E-14-1.37676E-13
 -1      1816 1.95214E+01-5.05470E-03 8.30746E-04 1.46066E-01-6.95651E-14-1.41430E-13
 -1      1817 1.96014E+01 2.63629E-03-1.42391E-03 1.68439E-01-8.89631E-14-1.01057E-13
 -1      1818 1.95416E+01-8.11912E-03-1.91962E-04 1.43944E-01-6.67586E-14-1.28181E-13
 -1      1819 1.95876E+01-1.01765E-02 4.20510E-04 1.38930E-01-4.26778E-14-1.16605E-13
 -1      1820 1.96366E+01-9.79911E-03-7.69413E-04 1.73688E-01-6.04671E-14-1.16766E-13
 -1      1821 1.96107E+01-1.18336E-02-5.90106E-04 1.32532E-01-5.49606E-14-1.42174E-13
 -1      1822 1.96542E+01-1.26585E-02 1.44294E-04 1.25557E-01-2.86136E-14-1.66292E-13
 -1      1823 1.96816E+01-1.64827E-02-3.23843E-04 1.65270E-01-6.65105E-14-1.50264E-13
 -1      1824 1.96774E+01-1.34211E-02-7.87568E-04 1.16949E-01-4.12299E-14-1.60042E-13
 -1      1825 1.97164E+01-1.35178E-02-4.52315E-05 1.09156E-01-3.41996E-14-1.93392E-13
 -1      1826 1.97292E+01-1.95577E-02-3.17484E-05 1.49241E-01-5.40650E-14-1.67095E-13
 -1      1827 1.97378E+01-1.37490E-02-8.62624E-04 9.96118E-02-9.08675E-15-1.91439E-13
 -1      1828 1.97714E+01-1.34775E-02-1.82881E-04 9.16636E-02-3.90527E-15-1.86707E-13
 -1      1829 1.97748E+01-2.04609E-02 1.54414E-04 1.29433E-01-3.39091E-14-1.11108E-13
 -1      1830 1.97900E+01-1.34492E-02-8.66355E-04 8.18900E-02-2.40162E-14-2.00681E-13
 -1      1831 1.98176E+01-1.30847E-02-2.97545E-04 7.40924E-02 7.21621E-15-1.43569E-13
 -1      1832 1.98157E+01-2.02188E-02 2.71360E-04 1.08129E-01-1.67412E-14-1.21528E-13
 -1      1833 1.98329E+01-1.30151E-02-8.33797E-04 6.43645E-02 4.24530E-15-1.62990E-13
 -1      1834 1.98543E+01-1.27874E-02-4.15569E-04 5.67400E-02 2.48383E-14-1.79545E-13
 -1      1835 1.98503E+01-1.96170E-02 3.46994E-04 8.64804E-02 9.41014E-15-1.07179E-13
 -1      1836 1.98658E+01-1.28680E-02-7.89678E-04 4.69784E-02-1.78083E-14-2.28061E-13
 -1      1837 1.98808E+01-1.29918E-02-5.63067E-04 3.93012E-02-8.49646E-15-2.18319E-13
 -1      1838 1.98775E+01-1.93112E-02 4.02976E-04 6.47444E-02-1.37277E-14-1.89733E-13
 -1      1839 1.98881E+01-1.34088E-02-7.51827E-04 2.91050E-02-3.25656E-15-2.09094E-13
 -1      1840 1.98963E+01-1.41066E-02-7.67422E-04 2.09080E-02 2.04667E-14-2.33813E-13
 -1      1841 1.98967E+01-1.99096E-02 4.56822E-04 4.24162E-02 7.82737E-15-1.78977E-13
 -1      1842 1.98989E+01-1.50556E-02-7.33276E-04 9.55730E-03-4.17479E-14-3.11414E-13
 -1      1843 1.98993E+01-1.65718E-02-1.05752E-03 1.19613E-04-1.07173E-13-3.45995E-13
 -1      1844 1.99068E+01-2.20343E-02 5.23530E-04 1.82713E-02-9.02362E-14-2.41607E-13
 -1      1845 1.98965E+01-1.82634E-02-7.43477E-04-1.34409E-02-9.82549E-14-3.42970E-13
 -1      1846 1.98875E+01-2.08633E-02-1.46183E-03-2.51124E-02-1.23733E-13-3.49259E-13
 -1      1847 1.99068E+01-2.63551E-02 6.16830E-04-9.64573E-03-1.10131E-13-3.15944E-13
 -1      1848 1.98782E+01-2.35108E-02-7.88806E-04-4.22865E-02-1.48420E-13-2.93314E-13
 -1      1849 1.98575E+01-2.74524E-02-2.00305E-03-5.74594E-02-8.52974E-14-3.07262E-13
 -1      1850 1.98946E+01-3.35799E-02 7.50006E-04-4.40513E-02-1.32980E-13-2.50886E-13
 -1      1851 1.98400E+01-3.12312E-02-8.72381E-04-7.99724E-02-1.12357E-14-3.19975E-13
 -1      1852 1.98040E+01-3.66948E-02-2.68799E-03-1.00137E-01 2.73222E-14-3.29818E-13
 -1      1853 1.98675E+01-4.43678E-02 9.36064E-04-8.84065E-02-8.07862E-14-2.45740E-13
 -1      1854 1.97761E+01-4.16579E-02-9.93259E-04-1.29914E-01 4.91509E-14-3.50939E-13
 -1      1855 1.97204E+01-4.86164E-02-3.49172E-03-1.56622E-01 3.31270E-14-4.00034E-13
 -1      1856 1.98216E+01-5.91242E-02 1.18673E-03-1.46755E-01 2.83462E-14-2.78842E-13
 -1      1857 1.96792E+01-5.45557E-02-1.14490E-03-1.95497E-01 4.46971E-14-3.29355E-13
 -1      1858 1.95983E+01-6.25783E-02-4.33727E-03-2.30028E-01 7.75174E-14-2.14115E-13
 -1      1859 1.97514E+01-7.76349E-02 1.50924E-03-2.23273E-01 7.98734E-14-2.11029E-13
 -1      1860 1.95400E+01-6.88341E-02-1.31240E-03-2.79189E-01 1.00304E-13-2.24217E-13
 -1      1861 1.94283E+01-7.68467E-02-5.07616E-03-3.21979E-01 1.44431E-13-1.25223E-13
 -1      1862 1.96504E+01-9.85297E-02 1.89907E-03-3.21346E-01 1.18811E-13-1.07176E-13
 -1      1863 1.93487E+01-8.21090E-02-1.46778E-03-3.81113E-01 8.61847E-14-1.18577E-13
 -1      1864 1.92011E+01-8.81942E-02-5.48174E-03-4.30948E-01 4.26586E-14-1.30943E-13
 -1      1865 1.95106E+01-1.18653E-01 2.32637E-03-4.42019E-01 1.39186E-13-7.36531E-14
 -1      1866 1.90963E+01-9.03965E-02-1.56144E-03-4.97120E-01 3.79874E-14-1.70464E-13
 -1      1867 1.89099E+01-9.17898E-02-5.27147E-03-5.50224E-01 2.35408E-14-1.80993E-13
 -1      1868 1.93240E+01-1.32580E-01 2.71546E-03-5.81811E-01 6.05852E-15-1.92382E-13
 -1      1869 1.87769E+01-8.82634E-02-1.50980E-03-6.16760E-01 8.33882E-15-2.10112E-13
 -1      1870 1.85534E+01-8.17612E-02-4.17691E-03-6.66088E-01 3.53038E-15-2.55154E-13
 -1      1871 1.90837E+01-1.32718E-01 2.92529E-03-7.30199E-01-9.58456E-15-4.93672E-14
 -1      1872 1.83924E+01-6.98367E-02-1.18915E-03-7.22000E-01-1.33407E-14-1.71672E-13
 -1      1873 1.81398E+01-5.27863E-02-2.06492E-03-7.57308E-01-2.53105E-14-1.65508E-13
 -1      1874 1.87873E+01-1.10540E-01 2.74207E-03-8.67657E-01-1.35579E-15-6.24767E-14
 -1      1875 1.79562E+01-3.09157E-02-4.39076E-04-7.88050E-01-3.56672E-14-2.07683E-13
 -1      1876 1.76905E+01-2.72462E-03 9.22987E-04-7.97306E-01 6.29840E-16-2.43486E-13
 -1      1877 1.84405E+01-5.93704E-02 1.90910E-03-9.65716E-01-3.99833E-14-1.87577E-14
 -1      1878 1.74969E+01 2.80967E-02 8.91570E-04-7.87571E-01 1.00018E-15-2.82296E-13
 -1      1879 1.72418E+01 6.44679E-02 4.28965E-03-7.60055E-01-1.48505E-14-2.78076E-13
 -1      1880 1.80615E+01 2.15959E-02 2.36272E-04-9.90756E-01-3.81151E-14-6.27552E-14
 -1      1881 1.70587E+01 9.96893E-02 2.84828E-03-6.98660E-01-7.86478E-14-3.40546E-13
 -1      1882 1.68428E+01 1.37271E-01 7.26445E-03-6.29179E-01-1.73852E-13-2.85511E-13
 -1      1883 1.76835E+01 1.23546E-01-2.22721E-03-9.12532E-01-4.84252E-14-1.63619E-13
 -1      1884 1.66959E+01 1.69175E-01 5.23940E-03-5.14639E-01-2.42565E-13-2.54497E-13
 -1      1885 1.65475E+01 1.98515E-01 9.07416E-03-4.07217E-01-2.53792E-13-2.23175E-13
 -1      1886 1.73524E+01 2.27257E-01-5.03187E-03-7.16103E-01-1.78424E-13-1.39872E-13
 -1      1887 1.64616E+01 2.18521E-01 7.56413E-03-2.51255E-01-1.63417E-13-8.41623E-14
 -1      1888 1.64022E+01 2.31083E-01 9.28452E-03-1.20077E-01-2.44063E-14-2.62031E-14
 -1      1889 1.71190E+01 3.07428E-01-7.36922E-03-4.12488E-01-1.37544E-13 2.09224E-14
 -1      1890 1.63935E+01 2.33199E-01 9.11462E-03 5.36131E-02 9.55160E-14-4.32041E-14
 -1      1891 1.64321E+01 2.25072E-01 8.00115E-03 1.87305E-01 2.46564E-13 3.96016E-14
 -1      1892 1.70241E+01 3.41577E-01-8.40542E-03-4.16110E-02 5.28787E-14 2.42494E-13
 -1      1893 1.65024E+01 2.08646E-01 9.26240E-03 3.49529E-01 1.02673E-13-1.45029E-13
 -1      1894 1.66332E+01 1.82396E-01 5.78834E-03 4.63726E-01-1.22359E-14-2.54708E-13
 -1      1895 1.70859E+01 3.19495E-01-7.73367E-03 3.36397E-01 4.40576E-14-1.50450E-14
 -1      1896 1.67691E+01 1.52439E-01 7.78436E-03 5.88897E-01 1.49668E-14-3.14126E-13
 -1      1897 1.69729E+01 1.15891E-01 3.36734E-03 6.67491E-01-1.99493E-15-2.79023E-13
 -1      1898 1.72926E+01 2.47883E-01-5.62038E-03 6.59202E-01-2.47751E-14-1.35315E-13
 -1      1899 1.71508E+01 8.07300E-02 5.00685E-03 7.41006E-01-1.03527E-13-2.69431E-13
 -1      1900 1.74005E+01 4.34705E-02 1.29824E-03 7.77730E-01-7.74242E-14-3.31007E-13
 -1      1901 1.76073E+01 1.47287E-01-2.84806E-03 8.81369E-01-2.27498E-14-1.62499E-13
 -1      1902 1.75943E+01 1.12568E-02 1.65881E-03 7.98393E-01 4.01229E-14-1.37278E-13
 -1      1903 1.78607E+01-1.90093E-02-1.60853E-04 7.96697E-01 1.51013E-13-5.70856E-14
 -1      1904 1.79803E+01 4.32518E-02-2.66144E-04 9.85529E-01 6.11893E-14 8.06431E-14
 -1      1905 1.80486E+01-4.29435E-02-1.46009E-03 7.74039E-01 8.98792E-14-1.88927E-13
 -1      1906 1.83069E+01-6.23596E-02-1.01168E-03 7.43823E-01 4.01771E-14-2.24909E-13
 -1      1907 1.83637E+01-4.31347E-02 1.58976E-03 9.81744E-01 6.28188E-14 1.37070E-13
 -1      1908 1.84744E+01-7.62866E-02-3.78137E-03 6.92736E-01 7.25097E-14-2.63218E-13
 -1      1909 1.87069E+01-8.47665E-02-1.39338E-03 6.46081E-01 6.84312E-14-1.87710E-13
 -1      1910 1.87213E+01-1.00700E-01 2.59146E-03 8.98004E-01 5.28600E-14-6.26770E-14
 -1      1911 1.88474E+01-8.97925E-02-5.08898E-03 5.81629E-01 6.85582E-14-2.84051E-13
 -1      1912 1.90444E+01-8.96811E-02-1.47289E-03 5.29375E-01 6.13756E-14-2.39691E-13
 -1      1913 1.90319E+01-1.28388E-01 2.88934E-03 7.68131E-01 3.33800E-14-2.18665E-14
 -1      1914 1.91568E+01-8.83572E-02-5.46742E-03 4.63474E-01 1.01563E-13-1.69929E-13
 -1      1915 1.93156E+01-8.28675E-02-1.38762E-03 4.13416E-01 1.20173E-13-1.06225E-14
 -1      1916 1.92875E+01-1.31970E-01 2.73557E-03 6.22274E-01 1.89659E-13-1.10329E-13
 -1      1917 1.94025E+01-7.79611E-02-5.16786E-03 3.53662E-01 1.73955E-13 7.81480E-14
 -1      1918 1.95253E+01-7.00518E-02-1.23287E-03 3.10219E-01 1.77206E-13 2.15110E-13
 -1      1919 1.94893E+01-1.19920E-01 2.36132E-03 4.82041E-01 2.16174E-13 1.09832E-13
 -1      1920 1.95907E+01-6.38397E-02-4.47607E-03 2.60217E-01 1.97065E-13 3.45153E-13
 -1      1921 1.96822E+01-5.57026E-02-1.06908E-03 2.24989E-01 4.93386E-13 5.88997E-13
 -1      1922 1.96436E+01-1.00331E-01 1.92079E-03 3.59730E-01 3.45969E-13 3.37833E-13
 -1      1923 1.97304E+01-4.97410E-02-3.62886E-03 1.85378E-01 4.22258E-13 4.00192E-13
 -1      1924 1.97964E+01-4.27285E-02-9.25765E-04 1.58016E-01 2.84753E-13 4.23183E-13
 -1      1925 1.97587E+01-7.93557E-02 1.50401E-03 2.59931E-01 2.90414E-13 3.96347E-13
 -1      1926 1.98313E+01-3.79164E-02-2.78094E-03 1.27617E-01-7.47070E-15 1.66705E-13
 -1      1927 1.98772E+01-3.27359E-02-8.15463E-04 1.06652E-01-3.06817E-14 1.63167E-13
 -1      1928 1.98428E+01-6.09066E-02 1.14646E-03 1.81978E-01 8.23319E-14 6.65714E-14
 -1      1929 1.99024E+01-2.94798E-02-1.99922E-03 8.33542E-02 9.22584E-14 2.42082E-13
 -1      1930 1.99328E+01-2.62016E-02-6.93103E-04 6.68648E-02 1.44832E-13 3.71924E-13
 -1      1931 1.99035E+01-4.70363E-02 8.56085E-04 1.22301E-01 2.04721E-14 2.19549E-14
 -1      1932 1.99511E+01-2.42398E-02-1.29176E-03 4.85335E-02 2.45370E-13 2.77804E-13
 -1      1933 1.99703E+01-2.13257E-02-2.14581E-04 3.51491E-02 2.14585E-13 3.68764E-13
 -1      1934 1.99467E+01-3.78509E-02 6.35436E-04 7.61625E-02 2.03613E-13 4.00117E-13
 -1      1935 6.66790E+00-6.75053E+00-3.75152E-01 3.88077E+00 2.01061E-13 2.94598E-13
 -1      1936 2.99254E+00-7.78348E+00-5.40595E-01 2.35680E+00 2.02283E-13 1.32450E-13
 -1      1937 1.96248E+01 1.39856E-01 7.45969E-03 2.56875E-01 1.69994E-13 2.85433E-13
 -1      1938 1.98916E+01 2.04422E-01 1.54269E-02 4.30128E-01 1.69014E-13 3.55015E-13
 -1      1939 2.01090E+01 3.57730E-01 2.30080E-03 6.55823E-01 2.11487E-13 2.21028E-13
 -1      1940 1.93828E+01 7.19075E-02 6.59593E-03 5.46482E-02 1.18305E-13 1.97516E-13
 -1      1941 1.94973E+01 1.02234E-01 1.40802E-02 1.43944E-01 1.35641E-13 2.43205E-13
 -1      1942 1.97174E+01 1.64380E-01-1.78174E-03 2.55686E-01 1.77721E-13 1.28274E-13
 -1      1943 1.92924E+01 3.46919E-02 4.21364E-03-5.49874E-02 1.22766E-13 1.54843E-13
 -1      1944 1.93214E+01 5.12503E-02 8.22432E-03-6.18669E-03 1.21696E-13 1.78091E-13
 -1      1945 1.95137E+01 8.05216E-02-2.72753E-03 3.91750E-02 1.32291E-13 8.85034E-14
 -1      1946 1.92955E+01 1.56059E-02 2.79970E-03-1.05327E-01 1.02696E-13 7.58944E-14
 -1      1947 1.92779E+01 2.42589E-02 4.22824E-03-8.13723E-02 1.11615E-13 1.34338E-13
 -1      1948 1.94365E+01 3.56777E-02-2.98801E-03-7.41019E-02 1.39391E-13 4.63405E-14
 -1      1949 1.93459E+01 4.26097E-03 1.95746E-03-1.26468E-01 5.52417E-14 7.81048E-15
 -1      1950 1.93059E+01 9.16337E-03 2.06152E-03-1.15424E-01 7.49816E-14 3.43553E-14
 -1      1951 1.94339E+01 1.27653E-02-2.34163E-03-1.27777E-01 1.10813E-13-9.70936E-15
 -1      1952 1.94198E+01-2.40414E-03 1.42060E-03-1.30163E-01 3.23905E-14-3.41299E-14
 -1      1953 1.93701E+01 3.00463E-04 9.02396E-04-1.26873E-01 3.35637E-14-2.00369E-14
 -1      1954 1.94713E+01-3.81322E-04-1.67924E-03-1.49243E-01 6.00643E-14-7.58311E-14
 -1      1955 1.95020E+01-6.14847E-03 1.03635E-03-1.23691E-01 8.24491E-14-7.11960E-14
 -1      1956 1.94501E+01-4.80519E-03 2.46809E-04-1.25045E-01 5.72048E-14-4.83513E-14
 -1      1957 1.95288E+01-7.79763E-03-1.14479E-03-1.51582E-01 7.38810E-14-1.07422E-13
 -1      1958 1.95837E+01-8.00099E-03 7.68671E-04-1.11711E-01 9.39657E-14-5.87206E-14
 -1      1959 1.95340E+01-7.51669E-03-1.21614E-04-1.15648E-01 9.73593E-14-6.44225E-14
 -1      1960 1.95942E+01-1.16887E-02-7.52417E-04-1.42827E-01 1.02946E-13-1.35942E-13
 -1      1961 1.96629E+01-8.72302E-03 5.40892E-04-9.62704E-02 2.38982E-14-4.57560E-14
 -1      1962 1.96160E+01-8.72764E-03-3.33476E-04-1.01913E-01 6.94529E-14-4.68113E-14
 -1      1963 1.96611E+01-1.32912E-02-4.92736E-04-1.27616E-01 7.08855E-14-6.36204E-14
 -1      1964 1.97292E+01-8.59640E-03 3.64014E-04-8.07912E-02-4.13902E-14-4.87881E-14
 -1      1965 1.96904E+01-8.97034E-03-4.38749E-04-8.67121E-02-2.33035E-14-5.31443E-14
 -1      1966 1.97234E+01-1.35184E-02-2.57580E-04-1.09633E-01 1.10737E-14-2.36205E-14
 -1      1967 1.97857E+01-8.02413E-03 2.54413E-04-6.58561E-02 1.13961E-14-8.57480E-14
 -1      1968 1.97531E+01-8.58175E-03-4.70474E-04-7.17560E-02-3.30556E-14-5.53616E-14
 -1      1969 1.97771E+01-1.28381E-02-1.21979E-04-9.15134E-02-2.74597E-14-6.10560E-14
 -1      1970 1.98324E+01-7.12999E-03 1.87805E-04-5.21815E-02 3.68151E-14-1.08617E-13
 -1      1971 1.98058E+01-7.80440E-03-4.50208E-04-5.76940E-02 2.94989E-14-9.31334E-14
 -1      1972 1.98230E+01-1.16284E-02-3.30504E-05-7.41841E-02 1.11992E-14-1.08431E-13
 -1      1973 1.98701E+01-5.90495E-03 1.92177E-04-4.03927E-02 7.65531E-15-1.25007E-14
 -1      1974 1.98488E+01-6.70313E-03-3.91622E-04-4.52150E-02 2.94614E-14-5.14797E-14
 -1      1975 1.98610E+01-9.98470E-03 2.46909E-05-5.86079E-02 3.22303E-14-2.97584E-14
 -1      1976 1.99018E+01-4.09143E-03 2.57472E-04-3.08332E-02 8.90328E-15-4.10132E-15
 -1      1977 1.98841E+01-5.12719E-03-2.88418E-04-3.47411E-02 3.00519E-14 2.17939E-14
 -1      1978 1.98926E+01-7.80133E-03 2.64000E-05-4.54259E-02 2.27508E-14 4.97946E-14
 -1      1979 1.99272E+01-1.44847E-03 4.42496E-04-2.56999E-02-5.56057E-14-1.49216E-13
 -1      1980 1.99129E+01-2.82992E-03-1.23913E-04-2.77565E-02-5.51796E-14-1.03066E-13
 -1      1981 1.99185E+01-4.55181E-03 6.28492E-05-3.62569E-02 1.05046E-14-9.19542E-14
 -1      1982 1.99521E+01 2.91322E-03 8.45759E-04-2.67089E-02 1.10236E-13-1.70965E-13
 -1      1983 1.99377E+01 7.91239E-04 1.26404E-04-2.60126E-02 4.40045E-14-1.29162E-13
 -1      1984 1.99409E+01 3.59304E-04 5.71410E-05-3.34001E-02 5.18596E-14-1.66609E-13
 -1      1985 1.99833E+01 1.04064E-02 1.60459E-03-3.79424E-02 4.83753E-14-2.63595E-13
 -1      1986 1.99645E+01 6.90955E-03 5.26988E-04-3.24958E-02 9.10008E-14-2.38703E-13
 -1      1987 1.99643E+01 8.56099E-03 4.39835E-05-4.02403E-02 1.13295E-13-2.17091E-13
 -1      1988 2.00315E+01 2.35169E-02 2.97491E-03-6.66812E-02 1.53519E-14-2.89325E-13
 -1      1989 2.00010E+01 1.75411E-02 1.17702E-03-5.28869E-02 4.53442E-14-3.07713E-13
 -1      1990 1.99948E+01 2.27426E-02 4.38755E-05-6.33283E-02 8.03652E-14-2.60118E-13
 -1      1991 2.01146E+01 4.64277E-02 5.44991E-03-1.25702E-01-5.16635E-14-2.54027E-13
 -1      1992 2.00602E+01 3.62423E-02 2.25339E-03-9.71986E-02-6.63256E-14-3.24760E-13
 -1      1993 2.00414E+01 4.75822E-02 8.62618E-05-1.14025E-01-3.65450E-14-2.90865E-13
 -1      1994 2.02697E+01 8.94369E-02 9.56738E-03-2.44190E-01-1.49584E-13-8.26444E-14
 -1      1995 2.01651E+01 7.00872E-02 3.92341E-03-1.85456E-01-4.26213E-14-1.03580E-13
 -1      1996 2.01206E+01 9.22667E-02 1.86003E-04-2.15165E-01-1.03164E-13-2.24729E-13
 -1      1997 2.05300E+01 1.60710E-01 1.59345E-02-4.50043E-01-9.72460E-14-1.99393E-13
 -1      1998 2.03494E+01 1.29002E-01 6.38991E-03-3.47529E-01-1.11226E-13-1.40156E-13
 -1      1999 2.02518E+01 1.71112E-01 6.72788E-04-4.00152E-01-9.53656E-14-1.97702E-13
 -1      2000 2.09668E+01 2.80802E-01 2.47265E-02-8.07709E-01 1.76317E-14-1.67379E-13
 -1      2001 2.06530E+01 2.27430E-01 9.08735E-03-6.26115E-01-6.99111E-14-2.07970E-13
 -1      2002 2.04559E+01 3.03037E-01 1.39476E-03-7.15814E-01-4.45512E-14-1.31278E-13
 -1      2003 2.16705E+01 4.73111E-01 3.47753E-02-1.40871E+00-6.74738E-14-1.15084E-13
 -1      2004 2.11444E+01 3.88999E-01 1.08865E-02-1.09699E+00 2.28983E-15-1.28315E-13
 -1      2005 2.07609E+01 5.19447E-01 2.08168E-03-1.24441E+00-1.64382E-14-1.61868E-13
 -1      2006 2.27446E+01 7.46446E-01 4.30542E-02-2.37208E+00-1.98227E-14-6.49411E-14
 -1      2007 2.19019E+01 6.35785E-01 9.98524E-03-1.85830E+00-4.51375E-14-6.58215E-14
 -1      2008 2.11799E+01 8.48810E-01 2.97705E-03-2.09045E+00-5.89979E-14-9.92871E-14
 -1      2009 2.43376E+01 1.03960E+00 5.44628E-02-3.84213E+00-9.24608E-14 2.25354E-13
 -1      2010 2.30287E+01 9.51546E-01 8.93582E-03-3.03094E+00-6.32168E-14 4.23654E-14
 -1      2011 2.17041E+01 1.27128E+00 8.03774E-03-3.38749E+00-1.19585E-13 3.01816E-14
 -1      2012 2.62753E+01 9.50701E-01 9.67013E-02-5.43546E+00-2.21684E-13 3.67685E-13
 -1      2013 2.46246E+01 1.10555E+00 3.19556E-02-4.54341E+00-1.84160E-13 2.52694E-13
 -1      2014 2.22702E+01 1.48461E+00 3.21642E-02-5.05334E+00-2.03016E-13 1.82378E-13
 -1      2015 2.84747E+01-2.84441E-01 1.84500E-01-6.05761E+00 1.26565E-14 5.35207E-13
 -1      2016 2.67073E+01 4.70671E-01 1.26131E-01-5.76369E+00-8.23924E-14 4.41909E-13
 -1      2017 2.29334E+01 7.72058E-01 1.05450E-01-6.46387E+00-1.52045E-13 3.65701E-13
 -1      2018 4.40888E+01-1.83754E+00 2.99190E-01 3.25424E+00-2.09957E-13 6.78402E-13
 -1      2019 3.88465E+01-3.94350E+00-5.20409E-02 2.24615E-01-1.71474E-13 2.46789E-13
 -1      2020 4.40868E+01-2.47791E+00 5.41540E-01 4.91492E+00-3.18905E-13 2.47025E-13
 -1      2021 3.49094E+01-2.15446E+00 4.03444E-01 3.87365E+00-1.55598E-13 1.04666E-13
 -1      2022 3.67385E+01-3.60719E+00 1.92579E-01 1.73325E+00-6.81677E-14-3.24532E-14
 -1      2023 2.94576E+01 1.98998E-03 2.00808E-01 5.66482E+00-5.05290E-14 6.47989E-14
 -1      2024 3.16127E+01-1.17365E+00 2.09004E-01 5.15070E+00-3.33622E-14 1.44350E-13
 -1      2025 2.62044E+01 9.37983E-01 2.00782E-02 4.72857E+00 1.00364E-13-1.91375E-13
 -1      2026 2.85928E+01 5.61467E-01 1.03223E-01 5.23756E+00-2.96568E-14-1.65222E-13
 -1      2027 2.38060E+01 4.38162E-01 1.56841E-01 6.66750E+00 7.62029E-14 3.67067E-14
 -1      2028 2.40346E+01 8.31399E-01-3.24049E-02 3.22506E+00 1.30776E-13 1.24855E-13
 -1      2029 2.58114E+01 8.76500E-01 4.36514E-02 3.86601E+00 1.14131E-13 3.59990E-14
 -1      2030 2.27638E+01 1.41476E+00 6.09273E-02 5.18561E+00 5.99833E-14-2.45012E-14
 -1      2031 2.25170E+01 5.65790E-01-2.40829E-02 2.00313E+00 7.08704E-14-8.04981E-14
 -1      2032 2.37259E+01 6.91784E-01 3.17813E-02 2.49282E+00 2.04822E-13 1.10086E-13
 -1      2033 2.20227E+01 1.23726E+00 2.28124E-02 3.51636E+00 1.60363E-13 4.15027E-13
 -1      2034 2.15058E+01 3.47886E-01-9.56187E-03 1.18017E+00-1.11786E-14-2.36173E-13
 -1      2035 2.22632E+01 4.55160E-01 2.93517E-02 1.49749E+00 4.69173E-14-1.66091E-13
 -1      2036 2.13871E+01 8.42829E-01 9.93210E-03 2.20033E+00 1.04385E-13 3.03020E-13
 -1      2037 2.08640E+01 2.03376E-01-2.09181E-03 6.70479E-01-4.57238E-14-1.99208E-13
 -1      2038 2.13149E+01 2.76311E-01 2.41148E-02 8.61514E-01-1.70161E-13-2.41927E-13
 -1      2039 2.08883E+01 5.16391E-01 4.34540E-03 1.30785E+00-2.69645E-14 3.97174E-14
 -1      2040 2.04743E+01 1.14784E-01 8.19589E-05 3.68780E-01-1.74055E-13 1.59729E-13
 -1      2041 2.07334E+01 1.60963E-01 1.73045E-02 4.79324E-01-1.10467E-14-3.19690E-14
 -1      2042 2.05362E+01 3.00823E-01 1.72550E-03 7.48884E-01-1.09856E-13-3.40459E-13
 -1      2043 2.02408E+01 6.12664E-02 7.92783E-04 1.89477E-01 4.33195E-14-6.13249E-14
 -1      2044 2.03872E+01 8.92531E-02 1.11043E-02 2.53336E-01-1.38433E-13 1.14612E-13
 -1      2045 2.03034E+01 1.69018E-01 1.07522E-03 4.09488E-01-1.05025E-13 4.23901E-14
 -1      2046 2.01203E+01 3.29662E-02 8.67101E-04 9.63310E-02-2.29956E-13 4.46019E-14
 -1      2047 2.01938E+01 4.87186E-02 6.81047E-03 1.29156E-01 1.25394E-14-1.56754E-14
 -1      2048 2.01616E+01 9.02640E-02-1.79588E-04 2.14010E-01-5.61053E-15 5.46945E-14
 -1      2049 2.00561E+01 1.69686E-02 6.18985E-04 4.62403E-02-1.10405E-13-5.55295E-14
 -1      2050 2.00934E+01 2.57575E-02 3.93047E-03 6.34828E-02-4.05224E-13-8.40452E-14
 -1      2051 2.00832E+01 4.79876E-02-2.61438E-04 1.08912E-01-2.36750E-13-6.47035E-14
 -1      2052 2.00240E+01 8.25022E-03 3.63008E-04 2.06883E-02 1.57007E-13 5.26767E-14
 -1      2053 2.00418E+01 1.28079E-02 2.08895E-03 2.90780E-02 1.52036E-13 4.98470E-14
 -1      2054 2.00405E+01 2.46020E-02-1.65608E-04 5.23480E-02-2.08020E-14-2.65605E-13
 -1      2055 2.00091E+01 4.47408E-03 4.35999E-04 7.73626E-03 3.50201E-13-2.56625E-13
 -1      2056 2.00163E+01 6.34248E-03 9.73900E-04 1.18570E-02 3.41382E-13 5.05473E-14
 -1      2057 2.00186E+01 1.32824E-02 3.41822E-04 2.35984E-02 3.47574E-13-2.07449E-13
 -1      2058 2.00042E+01 4.77794E-03 3.18513E-04 4.84065E-03 7.95389E-14-5.61264E-13
 -1      2059 2.00059E+01 4.81810E-03 2.85017E-04 5.88934E-03 2.07526E-13-3.96402E-13
 -1      2060 2.00082E+01 7.89975E-03-1.99963E-04 1.19330E-02 4.78881E-13-5.74423E-13
 -1      2061 2.00032E+01 7.34826E-03-3.75248E-04 7.80881E-03 1.86446E-13-5.64792E-13
 -1      2062 1.99915E+01 2.27586E-02-7.67867E-04 4.44999E-03 9.29746E-14 4.37341E-13
 -1      2063 1.99952E+01 2.21137E-02-1.87178E-05 8.60716E-03-8.12133E-14 7.00550E-13
 -1      2064 1.99987E+01 1.64294E-02-7.24421E-04 1.10601E-02 1.42431E-13 6.11454E-13
 -1      2065 2.00021E+01 1.33698E-02 1.58579E-04 1.04097E-02 2.38560E-13 2.34867E-13
 -1      2066 2.00038E+01 1.43326E-02 2.94773E-04 1.26192E-02 4.68476E-13 4.03804E-14
 -1      2067 1.99952E+01 2.53920E-02 3.73956E-04 1.25578E-02 2.15428E-13 5.11337E-13
 -1      2068 1.99867E+01 1.70571E-02-6.39960E-04-1.27202E-02-1.59407E-13-2.50019E-13
 -1      2069 1.99885E+01 2.20802E-02-3.66566E-04-4.95024E-03 5.17343E-14-6.79557E-14
 -1      2070 1.99854E+01 3.08568E-02 9.46614E-04-1.28433E-03-9.87423E-14 1.75984E-13
 -1      2071 1.99872E+01-3.84955E-03-2.73071E-04-3.29595E-02-2.70680E-13-3.26597E-13
 -1      2072 1.99862E+01 7.94619E-03-6.63125E-04-2.48248E-02-1.82747E-13-3.90885E-13
 -1      2073 1.99801E+01 2.11658E-02 1.08947E-03-2.64811E-02-2.74539E-13-3.31414E-13
 -1      2074 1.99929E+01-3.91527E-02 1.82106E-04-4.88618E-02 9.81051E-15 4.66395E-13
 -1      2075 1.99894E+01-2.11891E-02-7.20596E-04-4.33661E-02-2.04652E-13-1.20478E-13
 -1      2076 1.99827E+01-5.41204E-03 8.13422E-04-5.25419E-02-1.71627E-13-8.83374E-14
 -1      2077 2.00014E+01-8.18276E-02 6.01704E-04-5.37113E-02 1.93516E-13 4.66124E-13
 -1      2078 1.99967E+01-6.13779E-02-5.17130E-04-5.32644E-02 3.64244E-14 7.36743E-13
 -1      2079 1.99923E+01-4.53830E-02 2.87283E-04-6.95836E-02-4.97955E-15 6.32895E-13
 -1      2080 2.00100E+01-1.22181E-01 8.79927E-04-4.50469E-02 9.20090E-14-2.75307E-13
 -1      2081 2.00057E+01-1.04010E-01-1.17263E-04-5.01559E-02 1.23224E-13 8.08034E-14
 -1      2082 2.00054E+01-9.03134E-02-3.24562E-04-7.05112E-02 4.92780E-14 2.42518E-13
 -1      2083 2.00159E+01-1.50767E-01 9.53758E-04-2.47807E-02 1.97079E-13-9.59958E-15
 -1      2084 2.00133E+01-1.39345E-01 3.38181E-04-3.41873E-02 1.42384E-13-4.00238E-13
 -1      2085 2.00175E+01-1.30215E-01-8.53369E-04-5.39271E-02-8.92488E-15-1.31170E-13
 -1      2086 2.00175E+01-1.61128E-01 8.18766E-04 1.72457E-03 2.19711E-13 2.19060E-13
 -1      2087 2.00173E+01-1.59270E-01 7.03378E-04-9.45654E-03-3.55645E-14 3.16942E-13
 -1      2088 2.00251E+01-1.56346E-01-1.15468E-03-2.38789E-02 1.20609E-13-4.30191E-14
 -1      2089 2.00144E+01-1.51841E-01 4.99886E-04 2.70318E-02 2.00893E-13-1.96252E-13
 -1      2090 2.00166E+01-1.59590E-01 8.99541E-04 1.72189E-02 1.60551E-13 1.13501E-13
 -1      2091 2.00257E+01-1.63569E-01-1.19633E-03 1.14688E-02 1.40631E-14 1.87390E-13
 -1      2092 2.00073E+01-1.25583E-01 1.12713E-04 4.51537E-02-4.73947E-14-4.08820E-13
 -1      2093 2.00114E+01-1.41080E-01 8.78287E-04 3.90937E-02 9.66645E-14-3.65999E-13
 -1      2094 2.00194E+01-1.51438E-01-9.64624E-04 4.31695E-02-9.08933E-14-3.75861E-13
 -1      2095 1.99978E+01-8.93719E-02-2.43558E-04 5.08587E-02-4.15691E-13-6.61126E-13
 -1      2096 2.00029E+01-1.08499E-01 6.77667E-04 5.04302E-02-1.46150E-13-6.21030E-13
 -1      2097 2.00077E+01-1.23491E-01-5.20162E-04 6.31829E-02-1.92001E-13-6.52402E-13
 -1      2098 1.99890E+01-5.21710E-02-4.67415E-04 4.20310E-02-4.90354E-13-2.05820E-13
 -1      2099 1.99932E+01-6.97143E-02 4.12651E-04 4.76648E-02-4.84679E-13-6.47008E-13
 -1      2100 1.99921E+01-8.67322E-02-3.81819E-04 6.62420E-02-4.02673E-13-7.19605E-13
 -1      2101 3.27468E+01-5.42806E+00-2.39888E-01 2.44615E+00 2.60125E-13 5.38902E-13
 -1      2102 2.41220E+01-6.54284E+00-7.72763E-01 3.24231E+00 6.80567E-14 7.62168E-13
 -1      2103 1.99846E+01-1.63608E-02-8.10195E-04 1.57967E-02-7.98262E-14 3.77643E-13
 -1      2104-6.69188E-01-7.72609E+00-3.62607E-01-2.30933E+00 7.77989E-14-3.51996E-13
 -1      2105 1.31080E-01-6.33698E+00-1.83245E-01-3.73216E+00 1.98230E-13-4.52305E-13
 -1      2106 4.52917E+01-2.48244E+00 8.50258E-02 3.59004E+00-1.64632E-13 2.10942E-14
 -1      2107 5.02934E+01 2.39758E+00 1.49250E+00-4.34758E+00 5.02376E-13-1.12133E-13
 -1      2108 1.85778E+01-6.07881E+00-3.41963E-01 5.03417E+00 1.81632E-13 6.52700E-13
 -1      2109 1.18830E+01-7.21669E+00-7.29139E-01 4.19232E+00 2.27374E-13 3.81944E-13
 -1      2110 1.95190E+01 4.01591E+00-2.69611E-02-1.70132E+00-1.67146E-13-4.32836E-13
 -1      2111 1.96471E+01 3.94656E+00-2.45277E-02-1.95284E+00-2.02157E-13-3.92540E-13
 -1      2112 1.99719E+01 3.24737E+00-1.39041E-02-1.91670E+00-2.22911E-13-3.49892E-13
 -1      2113 1.96974E+01 3.58564E+00-7.15599E-03-1.51900E+00-1.60143E-13-4.19576E-13
 -1      2114 4.82710E+01-1.79099E+00 7.15759E-01-3.29321E+00 5.73229E-13-1.38223E-13
 -1      2115 3.48487E+01-5.01313E+00-4.22205E-01-6.48177E-01-5.12368E-14 6.80567E-14
 -1      2116 4.28229E+01-3.52042E+00 1.67253E-01 4.92399E-01-9.78106E-14-8.30447E-14
 -1      2117 1.97163E+01-6.81217E+00-7.66276E-01-3.88396E+00-7.70495E-14 1.93068E-13
 -1      2118 2.82176E+01-5.72782E+00-3.21153E-01-3.98954E+00-1.17684E-13 1.60705E-13
 -1      2119 8.11617E+00-7.89105E+00-7.75954E-01-3.50415E+00 6.31717E-14 5.89528E-14
 -1      2120 1.35491E+01-6.62313E+00-5.28689E-01-4.68423E+00 3.29736E-14 1.71980E-13
 -1      2121 1.45755E+00-8.18168E+00-5.45826E-01-1.51851E+00-1.82271E-13-4.62463E-13
 -1      2122 4.27370E+00-7.30473E+00-4.57512E-01-2.91513E+00-4.41869E-14-4.03233E-13
 -1      2123-9.77855E-01-7.73941E+00-3.59054E-01 1.52249E+00-2.90545E-13-2.92100E-13
 -1      2124-5.03781E-01-8.20493E+00-4.42881E-01 2.08101E-01-2.14800E-13-3.58436E-13
 -1      2125 1.57094E+00-6.34073E+00-1.97166E-01 5.12160E+00-3.69316E-13-1.23068E-13
 -1      2126-2.49068E-02-7.43472E+00-3.21104E-01 3.59477E+00-2.55129E-13-2.03393E-13
 -1      2127 7.33233E+00-5.22629E+00-1.65480E-01 7.49980E+00-4.89719E-13-4.56787E-13
 -1      2128 4.20617E+00-7.00193E+00-3.58916E-01 6.32765E+00-3.91243E-13-3.32234E-13
 -1      2129 1.58462E+01-2.93379E+00-4.03077E-02 8.97573E+00-3.98570E-13-5.34794E-13
 -1      2130 1.13027E+01-5.19923E+00-3.56480E-01 7.82002E+00-3.99236E-13-5.19598E-13
 -1      2131 2.59992E+01-8.38872E-01 6.07505E-02 8.62667E+00-5.19473E-13-2.97262E-13
 -1      2132 2.03936E+01-2.67479E+00-2.24692E-01 8.24055E+00-4.55191E-13-4.36040E-13
 -1      2133 3.55005E+01 2.57748E+00 1.92535E-01 6.53520E+00-5.60829E-13-3.59712E-14
 -1      2134 3.02422E+01 6.72840E-01-8.37416E-02 6.84203E+00-6.07847E-13-1.91402E-13
 -1      2135 4.22961E+01 6.00923E+00 3.14821E-01 4.03652E+00-3.94657E-13-1.86573E-13
 -1      2136 3.79407E+01 4.58931E+00 4.54445E-03 4.58982E+00-4.72303E-13-1.14464E-13
 -1      2137 4.46907E+01 8.17401E+00 2.45566E-01 1.47654E+00-1.60427E-13-2.39975E-13
 -1      2138 4.32685E+01 7.29632E+00 1.90054E-01 3.06377E+00-2.81775E-13-1.45106E-13
 -1      2139 3.90824E+01 6.88925E+00 2.81886E-01 6.68173E-01-3.08642E-13-1.78857E-13
 -1      2140 4.73503E+01 8.72559E+00 4.43303E-01-7.66814E-01 8.26006E-14-1.76748E-13
 -1      2141 4.60897E+01 8.88069E+00 2.51624E-01 8.46787E-01-4.31322E-14-2.00326E-13
 -1      2142 4.50498E+01 7.72649E+00 2.99477E-01-3.24849E+00 7.47180E-14-1.61371E-13
 -1      2143 4.70594E+01 8.18352E+00 4.19166E-01-1.71028E+00 1.57874E-13-1.32921E-13
 -1      2144 3.95909E+01 5.40314E+00 1.15598E-01-4.97712E+00 7.30110E-14-2.93543E-13
 -1      2145 4.36348E+01 6.53933E+00 4.13856E-01-4.19491E+00 4.56857E-14-2.94653E-13
 -1      2146 3.25117E+01 2.14842E+00-1.42436E-02-7.03905E+00 2.01394E-13-8.95950E-14
 -1      2147 3.72136E+01 3.59573E+00 2.57191E-01-6.49582E+00 1.52114E-13-1.95843E-13
 -1      2148 2.40993E+01-8.53275E-01-1.77568E-01-8.17611E+00 1.92679E-13-1.13687E-13
 -1      2149 2.92743E+01 1.07988E+00 1.88209E-01-8.56661E+00 2.14384E-13-9.10383E-15
 -1      2150 1.56090E+01-3.87359E+00-2.90321E-01-8.25412E+00 5.01266E-13 5.77038E-14
 -1      2151 2.03264E+01-1.68643E+00 5.89543E-02-9.12670E+00 3.73701E-13-6.45040E-14
 -1      2152 7.69224E+00-6.15062E+00-3.55254E-01-7.23316E+00 2.75557E-13-1.06304E-14
 -1      2153 1.14204E+01-4.01871E+00-7.92999E-02-8.38071E+00 4.04565E-13-8.94007E-14
 -1      2154 2.47930E+00-6.71428E+00-2.55529E-01-5.66780E+00 3.26406E-14-2.74114E-13
 -1      2155 4.93109E+00-5.76716E+00-1.61323E-01-6.80510E+00 1.22569E-13-8.39051E-14
 -1      2156 3.52800E-01-7.36535E+00-3.57740E-01 7.44348E-01 2.01617E-13 3.66929E-13
 -1      2157-6.72297E-01-7.85503E+00-3.87639E-01-7.25085E-01 1.92985E-13 1.62426E-13
 -1      2158 4.82034E-01-3.86627E+00-1.88697E-01-1.07287E+00 1.38778E-13 3.85247E-14
 -1      2159 4.04614E+01-3.52591E+00-7.27969E-02-2.05219E+00 5.12035E-13 1.04250E-13
 -1      2160 1.99773E+01-2.83708E-02-3.91313E-04 3.50693E-02-6.03592E-14 1.08759E-13
 -1      2161 3.89050E+01-4.27428E+00 1.19722E-01 1.20261E-01 3.00093E-13 8.13238E-14
 -1      2162 3.47347E+01-5.54832E+00-5.65516E-02-1.28732E+00-2.00728E-13 2.15050E-13
 -1      2163 3.57878E+00-4.68634E+00-2.48901E-01 2.96987E+00 1.80356E-13 1.03140E-13
 -1      2164 2.07392E+01 1.10845E+00-2.07499E-02-1.61450E+00-2.36824E-13 4.68982E-14
 -1      2165 2.06294E+01 1.33020E+00-1.86579E-02-1.67603E+00-2.50475E-13-9.25995E-14
 -1      2166 3.80407E+01-3.95784E+00 3.96964E-01 6.18271E-01 5.78426E-14 1.33338E-13
 -1      2167 1.29028E+01-5.34346E+00-2.95936E-01 5.59693E+00 2.18381E-13 4.47475E-13
 -1      2168 3.30557E+01-4.22781E+00 2.24287E-01-2.94366E+00-2.55518E-13 2.09902E-13
 -1      2169 3.11216E+01-4.90074E+00 8.17497E-03 3.61397E+00 3.46390E-14 5.56485E-13
 -1      2170 2.98500E+01-2.98461E+00 1.90243E-01-4.70228E+00-1.68643E-13 3.26753E-13
 -1      2171 2.78157E+01-1.16916E+00 2.40412E-01-5.97822E+00-1.67366E-14 5.05398E-13
 -1      2172 2.70393E+01-2.34926E+00 1.10404E-01 5.79300E+00-1.05360E-13 2.25056E-13
 -1      2173 1.99810E+01-3.68429E-02 1.20950E-04 3.94290E-02-2.34707E-13 5.83956E-14
 -1      2174 3.89541E+01 2.73312E+00-1.73350E+00 1.26876E+00 7.21645E-14 9.64867E-13
 -1      2175 1.99736E+01-5.20138E-02-4.99894E-04 6.00524E-02-1.59182E-13 1.25309E-13
 -1      2176 2.14277E+00-4.76308E+00-2.67587E-01-2.00621E+00-1.79246E-13-4.92828E-13
 -1      2177 2.55458E+01-5.87744E+00-1.85448E-01 4.35600E+00 1.78191E-13 6.89310E-13
 -1      2178 2.42951E+01-4.52087E+00-9.61878E-02-5.63878E+00-1.07025E-13 3.44627E-13
 -1      2179 5.55714E+01 4.60903E+00 1.45322E+00-3.40963E-01 8.48210E-14 3.59358E-13
 -1      2180 2.66340E+00-4.00635E+00-9.83554E-02-5.42030E+00-1.57652E-14-2.00839E-13
 -1      2181 5.40067E+01 4.97772E+00 1.51725E+00-3.27573E+00 3.46834E-13 6.72795E-14
 -1      2182 2.27065E+01-1.31208E+00 1.57440E-01-6.84983E+00-8.37108E-14 5.52863E-13
 -1      2183 8.31168E+00-4.82998E+00-1.27022E-01-8.28561E+00 1.29952E-13-1.16490E-13
 -1      2184 1.60532E+01-4.66718E+00-4.65235E-02-9.07208E+00 4.40203E-13 9.36473E-14
 -1      2185 2.46650E+01-3.12417E+00 6.63089E-02-7.98728E+00 3.34399E-13 7.07767E-14
 -1      2186 3.20312E+01-2.67230E-01 1.87465E-01-5.73582E+00 3.16691E-13-1.80078E-13
 -1      2187 3.74678E+01 3.59075E+00 2.42667E-01-3.05389E+00 1.13007E-13-3.45501E-13
 -1      2188 4.09722E+01 7.55815E+00 3.43916E-01-1.24056E+00 1.49769E-13-1.84741E-13
 -1      2189 4.13206E+01 9.45019E+00 2.90537E-01 1.26703E-01-9.74776E-14-2.88769E-13
 -1      2190 3.61944E+01 2.49439E+00 1.95140E-01 2.90962E+00-4.25736E-13 1.73750E-13
 -1      2191 2.96757E+01-1.91130E+00 1.31020E-01 6.20363E+00-3.64431E-13 6.11178E-14
 -1      2192 2.07800E+01-4.16522E+00 3.81529E-02 8.72537E+00-2.27540E-13-3.34399E-13
 -1      2193 1.16633E+01-4.97023E+00-9.64725E-02 8.87432E+00-2.70839E-13-4.18707E-13
 -1      2194 4.30799E+00-4.64383E+00-1.51773E-01 6.73899E+00-2.16271E-13-2.31370E-13
 -1      2195 5.68567E-01-4.17236E+00-1.63229E-01 2.65903E+00-2.11720E-13-3.00926E-13
 -1      2196 2.07277E+01-6.19174E+00-3.02687E-01-5.19714E+00-5.18474E-14 2.67845E-13
 -1      2197 9.18737E+00-5.58759E+00-3.41800E-01-4.94313E+00-1.00808E-13-9.44245E-14
 -1      2198 4.24666E+01 9.78815E+00 4.03991E-01-3.54934E-01 4.49640E-15 5.44009E-15
 -1      2199 1.95573E+01 3.51738E+00-1.10993E-02-5.90656E-01-3.56965E-14-4.23162E-13
 -1      2200 1.95931E+01 3.47148E+00-1.04659E-02-7.74804E-01-7.22017E-14-4.44988E-13
 -1      2201 1.96403E+01 3.38337E+00-1.26920E-02-9.38913E-01-8.86115E-14-4.43747E-13
 -1      2202 1.97017E+01 3.30242E+00-1.27113E-02-1.12821E+00-1.22059E-13-4.34262E-13
 -1      2203 1.97844E+01 3.03461E+00 1.89660E-04-7.91003E-01-7.72994E-14-4.17475E-13
 -1      2204 1.95096E+01 3.59999E+00-9.61186E-03 9.92795E-02 7.94765E-14-3.96385E-13
 -1      2205 1.95089E+01 3.60082E+00-9.61720E-03-7.99837E-02 3.77025E-14-4.02759E-13
 -1      2206 1.95360E+01 3.56052E+00-9.71852E-03 4.44872E-01 1.30367E-13-3.99778E-13
 -1      2207 1.95184E+01 3.58312E+00-1.01365E-02 2.64245E-01 1.04260E-13-4.07008E-13
 -1      2208 1.96756E+01 3.22293E+00-8.97075E-04 1.69271E-01 8.53791E-14-3.81977E-13
 -1      2209 1.95985E+01 3.46383E+00-1.06331E-02 7.88439E-01 1.74955E-13-3.84415E-13
 -1      2210 1.95618E+01 3.51094E+00-1.12181E-02 6.07171E-01 1.42149E-13-3.96536E-13
 -1      2211 1.97128E+01 3.15933E+00-5.11137E-04 4.87240E-01 1.33580E-13-3.80014E-13
 -1      2212 1.97103E+01 3.28982E+00-1.29665E-02 1.14136E+00 2.26954E-13-3.15747E-13
 -1      2213 1.96470E+01 3.37332E+00-1.29220E-02 9.52220E-01 1.98937E-13-3.53479E-13
 -1      2214 1.97905E+01 3.02560E+00 2.33790E-04 8.02430E-01 1.87477E-13-3.47537E-13
 -1      2215 1.98902E+01 3.00367E+00-1.84034E-02 1.48835E+00 2.72738E-13-2.50096E-13
 -1      2216 1.97905E+01 3.14493E+00-1.53436E-02 1.29811E+00 2.37085E-13-2.90889E-13
 -1      2217 1.99213E+01 2.80007E+00 1.96411E-03 1.10807E+00 2.25141E-13-2.88643E-13
 -1      2218 2.01698E+01 2.53678E+00-2.86176E-02 1.78655E+00 3.16744E-13-1.24506E-13
 -1      2219 2.00177E+01 2.78416E+00-1.73632E-02 1.61908E+00 2.91244E-13-1.93647E-13
 -1      2220 2.01173E+01 2.44833E+00 5.60762E-03 1.37530E+00 2.63716E-13-2.03925E-13
 -1      2221 2.05870E+01 1.78499E+00-2.97301E-02 1.88640E+00 3.16401E-13 3.92724E-14
 -1      2222 2.03643E+01 2.22681E+00-1.06963E-02 1.84988E+00 3.17487E-13-6.28490E-14
 -1      2223 2.03840E+01 1.91276E+00 1.32948E-02 1.52908E+00 3.06132E-13-7.79637E-14
 -1      2224 2.07933E+01 1.06878E+00-1.78532E-02 1.58979E+00 2.80879E-13 2.08070E-13
 -1      2225 2.06828E+01 1.54291E+00 3.31013E-03 1.79384E+00 2.99647E-13 9.96338E-14
 -1      2226 2.05337E+01 1.28561E+00 1.08300E-02 1.42553E+00 2.98081E-13 2.71653E-14
 -1      2227 2.04528E+01 7.41830E-01-2.18993E-03 1.10510E+00 2.61784E-13 1.52761E-13
 -1      2228 1.97053E+01 1.40030E-01 3.05759E-03 5.15870E-02 1.44999E-13-1.49989E-14
 -1      2229 1.97853E+01 1.96820E-01 1.20641E-02 1.41210E-01 1.52891E-13 5.58906E-15
 -1      2230 1.92508E+01 2.13399E+00 1.73014E-03 4.44284E+00 8.12683E-14 1.27415E-13
 -1      2231 1.96001E+01 2.05453E+00 8.29420E-02 5.23461E+00 1.37777E-13 1.52090E-13
 -1      2232 1.98708E+01 2.69255E-01 4.89316E-03 2.79176E-01 1.85542E-13 2.72664E-14
 -1      2233 2.00222E+01 3.63273E-01 1.60608E-02 4.41216E-01 2.08723E-13 6.97550E-14
 -1      2234 1.99924E+01 3.36057E-01-4.06946E-03 2.93419E-01 1.90690E-13-4.84526E-14
 -1      2235 2.04046E+01 8.55047E-01 1.31462E-02-9.98243E-01-1.93144E-13-1.61088E-13
 -1      2236 2.01927E+01 6.27059E-01-4.66298E-03-6.89309E-01-1.67623E-13-1.55883E-13
 -1      2237 2.05499E+01 1.95514E+00-1.37144E-02-1.89646E+00-2.47326E-13-2.01592E-13
 -1      2238 2.04131E+01 1.21500E+00-7.15282E-03-1.28539E+00-2.24856E-13-1.77429E-13
 -1      2239 2.03855E+01 1.38142E+00 8.05269E-03-1.23409E+00-2.11508E-13-2.30513E-13
 -1      2240 2.02910E+01 2.38479E+00-4.99231E-03-1.84039E+00-2.56226E-13-2.74187E-13
 -1      2241 2.01278E+01 4.69982E-01 1.62475E-02-4.72856E-01-1.57175E-13-1.38651E-13
 -1      2242 1.99868E+01 3.44993E-01 2.67190E-05-3.01096E-01-1.27634E-13-1.59358E-13
 -1      2243 2.02459E+01 7.46912E-01-1.78903E-03-6.91529E-01-1.72243E-13-1.97287E-13
 -1      2244 1.99237E+01 2.60005E-01 1.08621E-02-1.63403E-01-1.25389E-13-1.55520E-13
 -1      2245 1.98453E+01 1.88554E-01 7.08642E-04-6.60319E-02-1.21610E-13-1.70783E-13
 -1      2246 2.00827E+01 4.17059E-01-3.67999E-03-3.07557E-01-1.43414E-13-2.01103E-13
 -1      2247 1.98011E+01 1.39081E-01 6.38553E-03 1.61990E-02-1.07758E-13-1.73476E-13
 -1      2248 1.97665E+01 9.67418E-02 7.23085E-04 6.96616E-02-1.13884E-13-1.70787E-13
 -1      2249 1.99624E+01 2.27922E-01-3.63083E-03-6.82798E-02-1.27421E-13-1.89925E-13
 -1      2250 1.97407E+01 6.68038E-02 3.57276E-03 1.15508E-01-1.23357E-13-1.77525E-13
 -1      2251 1.97338E+01 4.12152E-02 6.18280E-04 1.42185E-01-1.12617E-13-1.73243E-13
 -1      2252 1.98870E+01 1.15488E-01-2.92006E-03 7.27272E-02-1.27244E-13-1.85477E-13
 -1      2253 1.97222E+01 2.28813E-02 1.84840E-03 1.64493E-01-1.09857E-13-1.70845E-13
 -1      2254 1.97317E+01 7.52547E-03 4.90325E-04 1.74663E-01-9.72300E-14-1.60972E-13
 -1      2255 1.98475E+01 4.71929E-02-2.10751E-03 1.49108E-01-1.18690E-13-1.74396E-13
 -1      2256 1.97297E+01-3.52672E-03 7.85166E-04 1.82000E-01-7.29218E-14-2.01912E-13
 -1      2257 1.97481E+01-1.23982E-02 3.61731E-04 1.82108E-01-1.72691E-14-1.99219E-13
 -1      2258 1.98334E+01 5.80962E-03-1.41270E-03 1.83680E-01-1.07426E-13-2.42042E-13
 -1      2259 1.97520E+01-1.87511E-02 1.32948E-04 1.80197E-01-6.34361E-14-1.79613E-13
 -1      2260 1.97742E+01-2.34657E-02 2.44671E-04 1.74391E-01-9.41600E-14-2.01312E-13
 -1      2261 1.98357E+01-1.85251E-02-8.82937E-04 1.91772E-01-4.71324E-14-2.61625E-13
 -1      2262 1.97814E+01-2.67869E-02-2.52875E-04 1.67047E-01-4.97246E-14-1.77989E-13
 -1      2263 1.98043E+01-2.88877E-02 1.41350E-04 1.58004E-01-7.04226E-15-1.47237E-13
 -1      2264 1.98476E+01-3.19055E-02-4.99995E-04 1.83667E-01-5.77243E-14-1.91134E-13
 -1      2265 1.98127E+01-3.03223E-02-4.62636E-04 1.47714E-01-8.08479E-15-1.14684E-13
 -1      2266 1.98342E+01-3.08896E-02 4.70046E-05 1.37110E-01-1.28214E-14-8.70767E-14
 -1      2267 1.98641E+01-3.83550E-02-2.31370E-04 1.66189E-01-4.28923E-15-1.34937E-13
 -1      2268 1.98428E+01-3.12664E-02-5.55918E-04 1.25414E-01-6.94929E-14-4.77962E-14
 -1      2269 1.98616E+01-3.10984E-02-4.73050E-05 1.14208E-01-1.21600E-14-6.36530E-14
 -1      2270 1.98821E+01-4.06838E-02-4.65759E-05 1.43725E-01-1.43387E-14-7.55429E-14
 -1      2271 1.98694E+01-3.10525E-02-5.72778E-04 1.01937E-01 3.98667E-15-1.17481E-13
 -1      2272 1.98849E+01-3.07796E-02-1.53358E-04 9.05399E-02 6.07701E-15-1.37427E-13
 -1      2273 1.98991E+01-4.09664E-02 7.90013E-05 1.18880E-01-4.90333E-14-8.96739E-14
 -1      2274 1.98913E+01-3.08358E-02-5.39733E-04 7.79724E-02-2.92577E-14-1.74821E-13
 -1      2275 1.99028E+01-3.10035E-02-2.85566E-04 6.63541E-02-1.96589E-14-1.84238E-13
 -1      2276 1.99139E+01-4.08387E-02 1.64243E-04 9.29065E-02-5.25816E-14-2.06819E-13
 -1      2277 1.99076E+01-3.16389E-02-4.73490E-04 5.33009E-02-1.27655E-14-1.75734E-13
 -1      2278 1.99148E+01-3.27696E-02-4.61254E-04 4.10358E-02 3.09992E-15-1.57065E-13
 -1      2279 1.99255E+01-4.17092E-02 2.23162E-04 6.59628E-02-7.22771E-15-1.57824E-13
 -1      2280 1.99177E+01-3.44606E-02-3.83577E-04 2.68774E-02-8.36882E-14-1.84600E-13
 -1      2281 1.99198E+01-3.70985E-02-7.00644E-04 1.31559E-02-1.37034E-13-2.22795E-13
 -1      2282 1.99333E+01-4.49151E-02 2.65926E-04 3.72549E-02-7.36475E-14-1.95262E-13
 -1      2283 1.99208E+01-4.03489E-02-2.74617E-04-3.15787E-03-1.26482E-13-2.38554E-13
 -1      2284 1.99170E+01-4.50777E-02-1.02580E-03-1.95404E-02-1.03107E-13-2.35136E-13
 -1      2285 1.99369E+01-5.18304E-02 3.00038E-04 5.08025E-03-1.51144E-13-1.92805E-13
 -1      2286 1.99158E+01-5.04156E-02-1.48937E-04-3.95089E-02-1.16401E-13-2.44721E-13
 -1      2287 1.99049E+01-5.78309E-02-1.45742E-03-6.01595E-02-9.36686E-14-2.10667E-13
 -1      2288 1.99357E+01-6.39031E-02 3.31944E-04-3.31854E-02-1.16261E-13-2.35528E-13
 -1      2289 1.99013E+01-6.57523E-02-1.01296E-05-8.57367E-02-7.21543E-14-2.10542E-13
 -1      2290 1.98814E+01-7.63589E-02-2.00825E-03-1.12628E-01-6.42343E-14-1.98095E-13
 -1      2291 1.99294E+01-8.25756E-02 3.69332E-04-8.11097E-02-9.45369E-14-1.41190E-13
 -1      2292 1.98749E+01-8.71865E-02 1.31890E-04-1.46164E-01-2.48066E-14-2.09771E-13
 -1      2293 1.98437E+01-1.01184E-01-2.67161E-03-1.81492E-01 3.87395E-14-2.57630E-13
 -1      2294 1.99169E+01-1.09014E-01 4.24300E-04-1.43151E-01-2.66203E-14-1.54776E-13
 -1      2295 1.98335E+01-1.14808E-01 2.54323E-04-2.25527E-01 8.11235E-14-2.29533E-13
 -1      2296 1.97880E+01-1.31731E-01-3.40428E-03-2.71378E-01 1.18987E-13-1.61062E-13
 -1      2297 1.98968E+01-1.43559E-01 5.17128E-04-2.24399E-01 7.11005E-14-2.54442E-13
 -1      2298 1.97723E+01-1.47217E-01 3.14745E-04-3.28187E-01 1.66849E-13-1.42026E-13
 -1      2299 1.97091E+01-1.65435E-01-4.10471E-03-3.85913E-01 1.76294E-13-7.57823E-14
 -1      2300 1.98667E+01-1.84825E-01 6.78886E-04-3.29907E-01 1.82345E-13-1.41191E-13
 -1      2301 1.96853E+01-1.80533E-01 2.49283E-04-4.56662E-01 1.35445E-13-3.87522E-14
 -1      2302 1.96007E+01-1.96710E-01-4.59399E-03-5.25913E-01 1.12858E-13-8.25486E-14
 -1      2303 1.98225E+01-2.28472E-01 9.48276E-04-4.63388E-01 1.58756E-13-4.41052E-14
 -1      2304 1.95645E+01-2.07424E-01-1.78513E-05-6.09359E-01-4.57457E-15-1.46011E-13
 -1      2305 1.94556E+01-2.16197E-01-4.61532E-03-6.86795E-01-1.81677E-14-8.65816E-14
 -1      2306 1.97578E+01-2.65923E-01 1.35368E-03-6.25013E-01-7.93793E-15-1.37220E-13
 -1      2307 1.94014E+01-2.16736E-01-5.39595E-04-7.77620E-01-1.53662E-14-8.58078E-14
 -1      2308 1.92668E+01-2.11038E-01-3.87023E-03-8.55601E-01-2.73085E-14-3.80326E-14
 -1      2309 1.96640E+01-2.83688E-01 1.87396E-03-8.08312E-01-1.20150E-14-2.22126E-16
 -1      2310 1.91888E+01-1.94594E-01-1.28063E-03-9.42812E-01 3.52267E-14-4.90558E-15
 -1      2311 1.90303E+01-1.67145E-01-2.12210E-03-1.00865E+00 1.70623E-14 4.94979E-14
 -1      2312 1.95309E+01-2.64341E-01 2.39072E-03-9.96658E-01 1.48365E-14 5.87620E-14
 -1      2313 1.89244E+01-1.27918E-01-2.05919E-03-1.07496E+00-4.30522E-14 2.07457E-14
 -1      2314 1.87487E+01-7.41479E-02 6.28949E-04-1.11166E+00-5.04871E-14 1.24723E-14
 -1      2315 1.93497E+01-1.90377E-01 2.63648E-03-1.16068E+00-3.73501E-14 1.32643E-13
 -1      2316 1.86164E+01-1.05779E-02-2.49270E-03-1.13516E+00-4.22398E-14 7.76831E-14
 -1      2317 1.84363E+01 6.75142E-02 3.97157E-03-1.12449E+00 1.25156E-14 3.43551E-14
 -1      2318 1.91182E+01-5.15302E-02 2.19427E-03-1.25896E+00-9.02367E-15 1.72137E-13
 -1      2319 1.82885E+01 1.49281E-01-2.07448E-03-1.08382E+00-4.33729E-14 1.94896E-15
 -1      2320 1.81224E+01 2.40145E-01 7.04222E-03-1.01209E+00-1.44164E-13-4.19394E-14
 -1      2321 1.88482E+01 1.45979E-01 6.91754E-04-1.24485E+00-7.81888E-14 1.52686E-13
 -1      2322 1.79810E+01 3.24841E-01-4.10591E-04-8.94841E-01-1.46479E-13 1.48529E-14
 -1      2323 1.78505E+01 4.08102E-01 8.79443E-03-7.59686E-01-9.80850E-14 8.15894E-14
 -1      2324 1.85705E+01 3.72710E-01-1.87337E-03-1.08083E+00-8.85139E-14 2.34438E-13
 -1      2325 1.77445E+01 4.74454E-01 2.42408E-03-5.70913E-01-9.82899E-14 8.42393E-14
 -1      2326 1.76692E+01 5.27022E-01 8.53153E-03-3.85970E-01-4.17487E-14 2.43597E-13
 -1      2327 1.83333E+01 5.78584E-01-4.80176E-03-7.57328E-01-4.52420E-14 3.42402E-13
 -1      2328 1.76247E+01 5.55506E-01 5.68694E-03-1.51482E-01-6.57662E-14 1.55030E-13
 -1      2329 1.76172E+01 5.61088E-01 6.35016E-03 5.48653E-02-5.18370E-14 5.06502E-14
 -1      2330 1.81890E+01 7.07851E-01-6.88636E-03-3.06611E-01-1.21349E-13 2.37518E-13
 -1      2331 1.76462E+01 5.42653E-01 8.19204E-03 2.94232E-01-3.98097E-14-7.87731E-14
 -1      2332 1.77077E+01 4.99463E-01 3.14720E-03 4.86734E-01-9.18345E-14-2.06408E-13
 -1      2333 1.81742E+01 7.21538E-01-7.12405E-03 1.99258E-01-1.54118E-13-9.68741E-14
 -1      2334 1.78024E+01 4.40043E-01 8.91409E-03 6.88470E-01-2.48701E-14-1.03551E-13
 -1      2335 1.79228E+01 3.61728E-01 1.39478E-04 8.36377E-01 1.03710E-14-1.22720E-13
 -1      2336 1.82929E+01 6.15443E-01-5.37749E-03 6.69414E-01-5.06031E-14-1.28957E-13
 -1      2337 1.80593E+01 2.79290E-01 7.55782E-03 9.70603E-01-3.93563E-14 1.62449E-14
 -1      2338 1.82199E+01 1.88329E-01-1.80408E-03 1.05676E+00 6.36835E-14 4.66222E-14
 -1      2339 1.85146E+01 4.22103E-01-2.52956E-03 1.02531E+00 9.71976E-14 8.51479E-14
 -1      2340 1.83688E+01 1.04535E-01 4.68416E-03 1.11396E+00 1.46798E-13 7.94128E-14
 -1      2341 1.85482E+01 2.25583E-02-2.46801E-03 1.13750E+00 1.41990E-13 2.33375E-13
 -1      2342 1.87885E+01 1.95638E-01 1.78477E-04 1.22527E+00 1.65735E-13 1.62400E-13
 -1      2343 1.86856E+01-4.56099E-02 1.31789E-03 1.12693E+00-2.66004E-14 1.51611E-13
 -1      2344 1.88643E+01-1.04910E-01-2.16491E-03 1.09968E+00-1.16090E-13 8.99693E-15
 -1      2345 1.90643E+01-1.09987E-02 1.92781E-03 1.27061E+00 7.64761E-15 2.47572E-14
 -1      2346 1.89769E+01-1.49305E-01-1.60819E-03 1.04152E+00-1.01040E-13-1.01320E-13
 -1      2347 1.91410E+01-1.81982E-01-1.40325E-03 9.81270E-01-1.41143E-14-1.06493E-13
 -1      2348 1.93067E+01-1.63289E-01 2.58323E-03 1.19435E+00-1.84406E-13-1.14928E-13
 -1      2349 1.92255E+01-2.02709E-01-3.58339E-03 8.97926E-01 3.07595E-14-4.05353E-14
 -1      2350 1.93670E+01-2.12213E-01-6.09678E-04 8.22350E-01 1.10388E-13 1.75745E-15
 -1      2351 1.95003E+01-2.50228E-01 2.46016E-03 1.04265E+00 6.19323E-15 1.60923E-16
 -1      2352 1.94267E+01-2.14464E-01-4.53067E-03 7.32422E-01 1.57629E-13 2.55143E-14
 -1      2353 1.95430E+01-2.07821E-01-1.93474E-05 6.55315E-01 2.31535E-13 9.63815E-14
 -1      2354 1.96447E+01-2.79250E-01 1.96963E-03 8.59011E-01 1.71224E-13 1.30470E-13
 -1      2355 1.95836E+01-1.98462E-01-4.64900E-03 5.71196E-01 2.36051E-13 6.19696E-14
 -1      2356 1.96756E+01-1.83029E-01 3.11410E-04 5.01256E-01 2.61533E-13 2.07103E-13
 -1      2357 1.97481E+01-2.67088E-01 1.42843E-03 6.75765E-01 2.46033E-13 1.84431E-13
 -1      2358 1.97031E+01-1.68250E-01-4.23456E-03 4.29365E-01 3.45139E-13 2.03624E-13
 -1      2359 1.97735E+01-1.49937E-01 4.18915E-04 3.70709E-01 3.84550E-13 2.52908E-13
 -1      2360 1.98209E+01-2.31794E-01 9.88621E-04 5.12149E-01 3.22742E-13 2.17905E-13
 -1      2361 1.97925E+01-1.34296E-01-3.55016E-03 3.12963E-01 5.18906E-14 2.13550E-13
 -1      2362 1.98452E+01-1.17054E-01 3.77983E-04 2.66328E-01 3.68271E-14 5.21870E-14
 -1      2363 1.98722E+01-1.88214E-01 6.69017E-04 3.76498E-01 1.73848E-13 1.41019E-13
 -1      2364 1.98589E+01-1.03316E-01-2.78617E-03 2.21774E-01 1.35932E-13 1.74445E-14
 -1      2365 1.98974E+01-8.92503E-02 2.72117E-04 1.85860E-01 3.29265E-14-6.82032E-15
 -1      2366 1.99092E+01-1.46366E-01 4.64953E-04 2.69558E-01 2.83953E-14 1.62697E-13
 -1      2367 1.99080E+01-7.89073E-02-2.10111E-03 1.52252E-01 7.70906E-14 5.17276E-14
 -1      2368 1.99355E+01-6.89387E-02 3.61630E-05 1.24755E-01 1.29760E-13 2.41457E-13
 -1      2369 1.99370E+01-1.11862E-01 3.10900E-04 1.87856E-01 1.00375E-13 2.91113E-14
 -1      2370 1.99448E+01-6.31506E-02-1.50504E-03 1.00718E-01 2.02629E-13 3.48070E-13
 -1      2371 1.99644E+01-5.69043E-02-2.11173E-04 7.91416E-02 2.20886E-13 3.14715E-13
 -1      2372 1.99779E+01-7.12792E-02 7.64937E-04 8.17287E-02-1.05076E-13-4.57185E-14
 -1      2373 1.99596E+01-8.71814E-02 5.92851E-04 1.27359E-01 2.33257E-13 1.39775E-13
 -1      2374 2.00979E+01 4.31621E-01 6.40510E-03 5.88900E-01 2.20055E-13 8.27663E-14
 -1      2375 2.03412E+01 5.95122E-01 1.19213E-02 8.68831E-01 2.28775E-13 1.23304E-13
 -1      2376 2.03839E+01 8.08988E-01-5.86010E-03 1.03811E+00 2.56774E-13 4.60586E-14
 -1      2377 2.01668E+01 5.20102E-01-1.06971E-02 6.14872E-01 2.28597E-13-7.18522E-15
 -1      2378 1.96278E+01 7.11597E-02 2.09117E-03-7.16146E-02 1.55420E-13-3.44037E-14
 -1      2379 1.96528E+01 1.02289E-01 6.80147E-03-2.69647E-02 1.58637E-13-1.97243E-14
 -1      2380 1.98503E+01 1.77796E-01-3.99406E-03 5.79921E-02 1.60875E-13-7.65976E-14
 -1      2381 1.96066E+01 2.99566E-02 1.33683E-03-1.36047E-01 1.01329E-13-7.20574E-14
 -1      2382 1.96019E+01 4.84700E-02 3.58745E-03-1.14441E-01 1.39784E-13-3.62509E-14
 -1      2383 1.97712E+01 8.84736E-02-3.15735E-03-7.71037E-02 1.52125E-13-1.00688E-13
 -1      2384 1.96205E+01 5.19584E-03 8.49994E-04-1.63706E-01 5.59244E-14-8.83958E-14
 -1      2385 1.95993E+01 1.62800E-02 1.75284E-03-1.56046E-01 7.59547E-14-5.41238E-14
 -1      2386 1.97387E+01 3.51528E-02-2.23297E-03-1.48479E-01 1.08787E-13-9.72589E-14
 -1      2387 1.96540E+01-9.36473E-03 5.06302E-04-1.68821E-01 1.01269E-13-1.13215E-13
 -1      2388 1.96248E+01-2.93765E-03 6.70370E-04-1.69541E-01 6.08670E-14-9.24051E-14
 -1      2389 1.97365E+01 3.27309E-03-1.45885E-03-1.79557E-01 9.26506E-14-7.54994E-14
 -1      2390 1.96968E+01-1.74078E-02 2.77327E-04-1.60537E-01 1.01871E-13-9.71620E-14
 -1      2391 1.96649E+01-1.39129E-02 3.91199E-05-1.66076E-01 1.10044E-13-9.41982E-14
 -1      2392 1.97526E+01-1.52918E-02-8.84395E-04-1.85640E-01 1.11475E-13-4.86065E-14
 -1      2393 1.97443E+01-2.13277E-02 1.12664E-04-1.43872E-01 5.62479E-14-6.02541E-14
 -1      2394 1.97118E+01-1.97240E-02-3.24676E-04-1.52423E-01 8.52527E-14-8.54313E-14
 -1      2395 1.97792E+01-2.53608E-02-4.86247E-04-1.76328E-01 9.91414E-14-4.48504E-14
 -1      2396 1.97875E+01-2.22592E-02-1.90764E-07-1.24438E-01-1.91303E-14-4.06926E-14
 -1      2397 1.97591E+01-2.20192E-02-5.36417E-04-1.33652E-01 1.86627E-14-4.00522E-14
 -1      2398 1.98098E+01-2.99446E-02-1.91433E-04-1.58420E-01 2.43070E-14-6.22776E-14
 -1      2399 1.98268E+01-2.15247E-02-5.45223E-05-1.04137E-01-9.93338E-15-5.81381E-14
 -1      2400 1.98020E+01-2.20945E-02-6.20893E-04-1.13413E-01 1.64106E-14-3.14577E-14
 -1      2401 1.98398E+01-3.07952E-02-2.01854E-05-1.36996E-01-6.58490E-15-5.29978E-14
 -1      2402 1.98609E+01-1.96407E-02-6.70118E-05-8.46144E-02-2.11907E-15-1.34900E-13
 -1      2403 1.98399E+01-2.07532E-02-6.29219E-04-9.33010E-02-5.05317E-15-1.27311E-13
 -1      2404 1.98678E+01-2.94231E-02 8.31694E-05-1.14575E-01 2.98377E-14-8.43734E-14
 -1      2405 1.98897E+01-1.67611E-02-5.85266E-06-6.70985E-02 1.52258E-14-8.32889E-14
 -1      2406 1.98722E+01-1.84039E-02-5.98154E-04-7.46870E-02-1.61096E-15-1.28186E-13
 -1      2407 1.98925E+01-2.64668E-02 1.40864E-04-9.30926E-02-4.43524E-14-1.82987E-13
 -1      2408 1.99146E+01-1.24464E-02 1.09048E-04-5.21829E-02 4.98259E-15-3.97900E-14
 -1      2409 1.98995E+01-1.48919E-02-5.41242E-04-5.83184E-02 3.85745E-14-5.44930E-14
 -1      2410 1.99138E+01-2.19707E-02 1.35805E-04-7.36430E-02 2.84847E-15-1.84567E-13
 -1      2411 1.99343E+01-6.28627E-03 3.29047E-04-4.29716E-02 3.52828E-14-9.50236E-14
 -1      2412 1.99219E+01-9.85706E-03-4.83382E-04-4.62119E-02 4.86243E-14-6.15041E-14
 -1      2413 1.99313E+01-1.52823E-02 1.79666E-04-5.82916E-02 4.64980E-14-1.50173E-13
 -1      2414 1.99521E+01 3.53512E-03 7.55783E-04-4.13261E-02 1.00063E-13-2.00404E-13
 -1      2415 1.99399E+01-2.22143E-03-4.33082E-04-4.05068E-02 6.18612E-14-1.46764E-13
 -1      2416 1.99447E+01-5.41219E-03 1.96199E-04-4.95071E-02 7.01786E-14-1.50768E-13
 -1      2417 1.99706E+01 1.98758E-02 1.49323E-03-5.18571E-02 1.10479E-13-1.74881E-13
 -1      2418 1.99559E+01 1.02126E-02-4.15795E-04-4.43524E-02 1.54908E-13-2.04757E-13
 -1      2419 1.99549E+01 1.04873E-02 2.57218E-04-5.01671E-02 1.47061E-13-2.22176E-13
 -1      2420 1.99933E+01 4.76844E-02 2.73941E-03-8.24503E-02 2.02954E-14-1.33994E-13
 -1      2421 1.99720E+01 3.11751E-02-4.65004E-04-6.37257E-02 6.61543E-14-1.68690E-13
 -1      2422 1.99617E+01 3.70515E-02 4.35580E-04-6.58467E-02 5.63612E-14-2.01275E-13
 -1      2423 2.00252E+01 9.53598E-02 4.95837E-03-1.46274E-01-4.91437E-14-1.30620E-13
 -1      2424 1.99909E+01 6.69048E-02-6.73402E-04-1.08748E-01-1.02691E-14-1.15974E-13
 -1      2425 1.99640E+01 8.21998E-02 8.89844E-04-1.05749E-01 6.42872E-15-1.21908E-13
 -1      2426 2.00722E+01 1.81388E-01 8.25844E-03-2.73109E-01-1.10376E-13-1.13051E-13
 -1      2427 2.00144E+01 1.30278E-01-1.17967E-03-1.98830E-01-7.64376E-14-1.38005E-13
 -1      2428 1.99571E+01 1.60758E-01 1.66303E-03-1.87609E-01-3.78911E-14-1.06187E-13
 -1      2429 2.01319E+01 3.19928E-01 1.26595E-02-4.87057E-01-8.21292E-14-1.75964E-13
 -1      2430 2.00433E+01 2.38151E-01-2.24396E-03-3.62105E-01-9.92617E-14-1.31556E-13
 -1      2431 1.99299E+01 2.95777E-01 4.14379E-03-3.34437E-01-8.35508E-14-1.70908E-13
 -1      2432 2.01977E+01 5.46980E-01 1.86461E-02-8.44755E-01-1.24293E-15-1.72845E-13
 -1      2433 2.00647E+01 4.14408E-01-4.55885E-03-6.34434E-01-5.73283E-14-1.81621E-13
 -1      2434 1.98570E+01 5.13861E-01 8.52935E-03-5.76095E-01-7.26021E-14-2.20287E-13
 -1      2435 2.02341E+01 9.02608E-01 2.52287E-02-1.41820E+00-4.48443E-14-1.20575E-13
 -1      2436 2.00495E+01 6.97802E-01-9.42907E-03-1.07857E+00 3.05450E-14-1.25004E-13
 -1      2437 1.96837E+01 8.63026E-01 1.69630E-02-9.60764E-01-1.49976E-14-1.55508E-13
 -1      2438 2.01600E+01 1.41251E+00 3.21367E-02-2.28816E+00-5.54660E-14-1.10794E-13
 -1      2439 1.99261E+01 1.12673E+00-1.81227E-02-1.77244E+00-7.24334E-14-1.41753E-13
 -1      2440 1.93017E+01 1.39221E+00 3.30909E-02-1.54206E+00-4.73458E-14-1.44312E-13
 -1      2441 1.97802E+01 2.02657E+00 4.81411E-02-3.57368E+00-1.64674E-13-4.00339E-14
 -1      2442 1.95337E+01 1.71990E+00-2.46823E-02-2.82241E+00-1.41398E-13-1.30659E-13
 -1      2443 1.84830E+01 2.11798E+00 6.07737E-02-2.39534E+00-1.13782E-13-1.14193E-13
 -1      2444 1.89211E+01 2.21060E+00 9.66376E-02-5.06556E+00-2.38164E-13 5.15907E-14
 -1      2445 1.87149E+01 2.25802E+00 3.16339E-03-4.26715E+00-1.95056E-13-3.52496E-14
 -1      2446 1.69017E+01 2.82245E+00 1.10994E-01-3.49055E+00-2.20029E-13-1.99118E-13
 -1      2447 1.91144E+01 7.59294E-01 1.66799E-01-6.44789E+00-1.70308E-13 2.18187E-13
 -1      2448 1.87539E+01 1.74230E+00 1.08226E-01-5.96809E+00-1.82895E-13 1.66978E-13
 -1      2449 2.48306E+01-4.74050E+00-2.74756E-02 5.31987E+00 5.44564E-14 5.92582E-13
 -1      2450 8.77744E+00-3.21878E+00 1.31765E-01-8.20866E+00 9.14824E-14-2.60347E-14
 -1      2451 1.19516E+01-3.89524E+00 7.41880E-02-9.10094E+00 1.62648E-13 1.12521E-13
 -1      2452 2.25001E+01-2.67976E+00 2.38048E-01 6.62254E+00-1.93734E-14 4.57440E-13
 -1      2453 3.63786E+00-9.73508E-01 2.14044E-01-4.04512E+00-5.47201E-14-2.97540E-14
 -1      2454 5.74626E+00-1.54303E+00 1.60505E-01-6.53435E+00-8.43769E-14-1.07581E-13
 -1      2455 1.82363E+01 1.70505E+00 1.21708E-01 6.02044E+00 1.34837E-13 1.06470E-13
 -1      2456 1.86693E+01 3.25636E-01 1.26582E-01 6.51342E+00 1.62065E-13 1.49811E-13
 -1      2457 2.00285E+01 1.13819E+00-1.98215E-02 1.87644E+00 1.06085E-13 3.63192E-13
 -1      2458 2.03148E+01 1.41941E+00 3.50425E-02 2.40051E+00 1.52614E-13 4.55518E-13
 -1      2459 2.01200E+01 7.07891E-01-1.07834E-02 1.13939E+00 1.35637E-13-1.40993E-13
 -1      2460 2.03408E+01 9.13169E-01 2.74359E-02 1.48627E+00 1.69920E-13 1.88492E-13
 -1      2461 1.93401E+01 1.43131E+00 3.43641E-02 1.65229E+00 1.98250E-13 3.10702E-13
 -1      2462 2.01144E+01 4.21465E-01-5.73659E-03 6.65426E-01-1.53606E-13-4.67115E-14
 -1      2463 2.02703E+01 5.56519E-01 2.05256E-02 8.82009E-01-1.09687E-13-8.01488E-14
 -1      2464 1.97189E+01 8.92155E-01 1.76263E-02 1.02568E+00-8.65302E-14 3.08194E-14
 -1      2465 2.00805E+01 2.36762E-01-2.80249E-03 3.63398E-01-8.02487E-14 7.70042E-14
 -1      2466 2.01838E+01 3.21640E-01 1.37740E-02 4.96644E-01-2.33288E-13 3.30257E-14
 -1      2467 1.98911E+01 5.27013E-01 8.72620E-03 6.03011E-01-2.41590E-13 3.34291E-13
 -1      2468 2.00512E+01 1.32651E-01-1.19978E-03 1.95797E-01-1.75910E-13 6.97886E-14
 -1      2469 2.01108E+01 1.81417E-01 8.84236E-03 2.68489E-01-2.73093E-14 2.16231E-14
 -1      2470 1.99615E+01 2.99801E-01 3.76006E-03 3.37416E-01-8.32741E-14 1.13855E-13
 -1      2471 2.00294E+01 7.16270E-02-5.44100E-04 1.00432E-01-1.75765E-13-1.12082E-13
 -1      2472 2.00636E+01 9.97808E-02 5.33864E-03 1.40750E-01-1.31999E-13 1.03108E-15
 -1      2473 1.99883E+01 1.67613E-01 1.65941E-03 1.82994E-01-4.42789E-14 1.61793E-13
 -1      2474 2.00160E+01 3.65480E-02-2.02257E-04 4.79372E-02 1.05388E-13-1.92812E-13
 -1      2475 2.00346E+01 5.26355E-02 3.08856E-03 6.96248E-02-9.80021E-14-2.46353E-13
 -1      2476 1.99976E+01 8.99278E-02 4.41117E-04 9.43585E-02-6.71891E-15-1.17790E-13
 -1      2477 2.00059E+01 1.58061E-02 3.30662E-04 1.62446E-02 6.70841E-13-2.26311E-13
 -1      2478 2.00076E+01 1.58103E-02-3.97541E-05 1.84232E-02 7.12679E-13-1.48551E-13
 -1      2479 2.00012E+01 2.07782E-02-3.56385E-04 1.82930E-02 5.86635E-13 1.61645E-13
 -1      2480 1.99611E+01 2.85937E-02-5.23741E-04-4.28382E-02-3.30742E-13-5.32929E-13
 -1      2481 1.99618E+01 3.73829E-02-6.67944E-04-2.73070E-02-2.81002E-13-4.14315E-13
 -1      2482 1.99711E+01-3.67519E-03 2.57157E-04-7.57196E-02-1.50254E-13 1.98963E-13
 -1      2483 1.99641E+01 1.15624E-02-1.17330E-03-6.26527E-02-2.75505E-13-1.15014E-13
 -1      2484 1.99507E+01 3.72507E-02 1.17984E-03-6.58244E-02-2.98254E-13-1.78161E-13
 -1      2485 1.99663E+01 4.14292E-02-1.12660E-03-7.50277E-03-3.43856E-13-2.95466E-13
 -1      2486 1.99744E+01 4.38697E-02 1.19710E-04 5.15908E-03-1.77850E-13 3.81960E-13
 -1      2487 1.99528E+01 5.88789E-02 1.48502E-03-2.13857E-02-2.37002E-13-4.05714E-13
 -1      2488 1.99923E+01-4.94440E-02 9.47787E-04-9.34671E-02-1.11528E-13 7.73541E-13
 -1      2489 1.99803E+01-3.03754E-02-1.24885E-03-8.81130E-02-6.60901E-14 5.45462E-13
 -1      2490 1.99678E+01-6.14480E-03 5.39229E-04-1.01568E-01-1.40998E-13 4.48948E-13
 -1      2491 2.00174E+01-9.85280E-02 1.37199E-03-8.92686E-02-1.39501E-13 5.41105E-16
 -1      2492 2.00044E+01-7.95447E-02-9.00368E-04-9.38884E-02-3.25863E-14 4.28453E-13
 -1      2493 1.99978E+01-6.17791E-02-1.69759E-04-1.15603E-01-1.73256E-13 5.83310E-13
 -1      2494 2.00383E+01-1.40082E-01 1.42312E-03-6.34418E-02-7.00648E-15-2.58566E-13
 -1      2495 2.00283E+01-1.25249E-01-2.97092E-04-7.71293E-02-1.04733E-14-1.03817E-13
 -1      2496 2.00304E+01-1.17064E-01-7.87142E-04-1.02599E-01-2.20123E-14 1.41860E-13
 -1      2497 2.00490E+01-1.65404E-01 1.13667E-03-2.27044E-02 3.46690E-14 3.44468E-14
 -1      2498 2.00449E+01-1.57802E-01 3.69071E-04-4.18687E-02 2.03113E-13-2.54418E-13
 -1      2499 2.00552E+01-1.60249E-01-1.28404E-03-6.54017E-02 7.10609E-14-1.64559E-13
 -1      2500 2.00469E+01-1.70293E-01 6.31061E-04 2.16447E-02-1.95834E-13-1.23469E-13
 -1      2501 2.00496E+01-1.71109E-01 9.35079E-04 2.26678E-03-4.07960E-14 1.54126E-13
 -1      2502 2.00654E+01-1.82981E-01-1.44796E-03-1.42597E-02-4.82110E-15 2.60087E-15
 -1      2503 2.00326E+01-1.55225E-01 2.01810E-05 5.99528E-02-2.73312E-13-4.81172E-13
 -1      2504 2.00414E+01-1.63974E-01 1.26056E-03 4.46373E-02-2.53481E-13-3.83543E-13
 -1      2505 2.00587E+01-1.82748E-01-1.32798E-03 3.83553E-02-2.91919E-13-2.75433E-13
 -1      2506 2.00102E+01-1.23783E-01-1.80532E-04 8.13534E-02-2.23351E-13-6.60972E-13
 -1      2507 2.00219E+01-1.38685E-01 1.23386E-03 7.48512E-02-1.50473E-13-4.67295E-13
 -1      2508 2.00365E+01-1.61022E-01-9.75838E-04 8.02161E-02-2.83290E-13-4.33949E-13
 -1      2509 1.99882E+01-8.92932E-02-2.77378E-04 8.39293E-02-2.95763E-13-7.44935E-13
 -1      2510 2.00003E+01-1.07405E-01 9.36198E-04 8.69741E-02-2.23022E-13-8.97338E-13
 -1      2511 2.00106E+01-1.29642E-01-1.97215E-04 1.01181E-01-1.32636E-13-6.14286E-13
 -1      2512 1.99796E+01-9.75071E-02-1.05851E-03 1.04851E-01 3.68988E-14-5.08575E-13
 -1      2513 2.96315E+00-1.74644E+00 8.27060E-02-1.63150E+00-2.02158E-13-4.88276E-13
 -1      2514 5.56443E+00-1.96907E+00 1.21510E-01-3.97204E+00-1.85685E-13-6.10179E-13
 -1      2515 1.82571E+01-4.14169E+00 1.83561E-02-6.07954E+00-4.10783E-14 4.60743E-13
 -1      2516 3.51745E+01 2.54234E+00-1.75405E-01 8.15149E-01-2.90074E-13 4.13003E-14
 -1      2517 3.34366E+01 2.89269E-01-4.79540E-02 2.14370E+00-2.40329E-13 2.12774E-13
 -1      2518 1.97110E+01 1.70160E+00-2.71055E-02 2.96521E+00 2.42376E-14 4.25229E-13
 -1      2519 2.00387E+01 1.97849E+00 5.10285E-02 3.67499E+00-2.14238E-15 3.35769E-13
 -1      2520 1.85413E+01 2.14667E+00 6.18941E-02 2.53478E+00 5.78790E-15 4.49636E-13
 -1      2521 1.95162E+01 3.58616E+00-1.00860E-02-2.44950E-01 1.93737E-14-4.14235E-13
 -1      2522 1.95324E+01 3.56547E+00-9.64893E-03-4.25453E-01-8.83061E-15-4.14017E-13
 -1      2523 1.97087E+01 3.16504E+00-5.73026E-04-4.72625E-01-2.10510E-14-3.98113E-13
 -1      2524 1.96741E+01 3.22505E+00-9.11713E-04-1.51797E-01 2.40034E-14-3.90573E-13
 -1      2525 1.80760E+01-2.06842E+00 1.17488E-01-6.63615E+00-1.35447E-13 4.25132E-13
 -1      2526 1.88430E+01-4.07649E-01 1.90812E-01-6.83532E+00-1.40415E-13 3.62599E-13
 -1      2527 1.47808E+01 4.67519E-01 1.98758E-01-6.44561E+00-2.49745E-13 8.88734E-14
 -1      2528 1.43870E+01-3.33452E+00 5.00509E-02-6.38423E+00-7.52731E-14 2.55573E-13
 -1      2529 7.45676E+00-2.46911E+00 2.02155E-02 4.76781E+00 2.07473E-13 2.04059E-13
 -1      2530 4.11108E+00-1.74200E+00 1.03696E-01 2.70275E+00 1.98036E-13 1.65590E-13
 -1      2531 9.68182E+00-2.52181E+00 7.94417E-02-5.44770E+00-2.31509E-13-2.48024E-13
 -1      2532 3.81908E+01 8.94181E+00-1.05534E-01 1.32254E-01-2.77556E-16 8.32667E-15
 -1      2533 3.80784E+01 9.54468E+00-1.59847E-01 1.71201E-01-2.72560E-14-1.01759E-13
 -1      2534 2.78910E+00-1.08048E+00 1.56404E-01 3.30687E+00-1.06720E-13-1.56819E-13
 -1      2535 2.21112E+00-1.40115E+00 1.53719E-01 6.79121E-01-1.72816E-13-2.89990E-13
 -1      2536 7.53869E+00-3.11889E+00 7.42575E-02 7.98641E+00-1.97287E-13-2.22267E-13
 -1      2537 4.79937E+00-2.17798E+00 1.45188E-01 6.25308E+00-1.21930E-13-1.76859E-13
 -1      2538 1.52313E+01-4.13339E+00 3.96551E-02 9.29206E+00-1.03084E-13-3.35856E-13
 -1      2539 1.12682E+01-3.99000E+00 8.59148E-02 8.70916E+00-1.53211E-13-2.97207E-13
 -1      2540 2.30321E+01-4.40787E+00-8.68521E-02 8.14356E+00-9.72000E-14-8.83599E-14
 -1      2541 1.90510E+01-4.66482E+00 5.19229E-02 8.69081E+00-5.55112E-14-3.29795E-13
 -1      2542 1.82698E+01-4.18360E+00 1.22930E-01 8.75335E+00 6.43929E-14-2.32217E-13
 -1      2543 3.11434E+01-2.15921E+00-1.33753E-01 4.41723E+00-2.74586E-13 3.09641E-13
 -1      2544 2.77546E+01-3.57587E+00 4.27616E-02 5.84369E+00-2.67397E-13 1.53849E-13
 -1      2545 3.58602E+01 6.63956E+00-1.91491E-01-6.29826E-01-2.64122E-13-2.31093E-13
 -1      2546 3.53550E+01 5.05488E+00-1.28168E-01-4.38355E-01-2.69812E-13-1.70336E-13
 -1      2547 3.75323E+01 9.52082E+00-1.17512E-01-2.00895E-01-1.10079E-13-1.25427E-13
 -1      2548 3.63411E+01 8.67537E+00-1.82076E-01-4.06892E-01-2.24265E-13-1.80245E-13
 -1      2549 3.71275E+01 6.27783E+00-9.36887E-02-2.00283E-01 1.47216E-13-1.90403E-14
 -1      2550 3.82380E+01 7.73658E+00-1.02163E-01 3.41995E-02 1.53266E-13 4.34652E-14
 -1      2551 3.55422E+01 8.35178E+00-2.70780E-02 8.45212E-01 4.23550E-14-1.01127E-13
 -1      2552 3.44235E+01 1.50523E+00-7.45324E-02-1.96968E+00 2.42972E-13-3.53939E-13
 -1      2553 3.62886E+01 3.61681E+00-1.18210E-01-9.88560E-01 1.66589E-13-1.94733E-13
 -1      2554 2.98560E+01-2.47000E+00-6.28040E-02-4.88851E+00 3.57991E-13-2.29206E-13
 -1      2555 3.25336E+01-1.00723E+00-1.05509E-01-3.62960E+00 2.95729E-13-3.99014E-13
 -1      2556 2.38851E+01-4.32886E+00 2.37972E-03-7.48590E+00 4.43506E-13 1.19044E-13
 -1      2557 2.75539E+01-3.42297E+00-2.50700E-02-6.64831E+00 2.92155E-13-6.20615E-14
 -1      2558 2.90937E+01-3.62562E+00 2.39555E-02-4.66695E+00 3.41144E-13-2.47469E-13
 -1      2559 1.53724E+01-4.54342E+00 4.11394E-02-8.96918E+00 2.56850E-13 1.25649E-13
 -1      2560 1.95101E+01-4.40231E+00 4.16978E-03-8.99478E+00 3.70037E-13 1.91729E-13
 -1      2561 1.55412E+01-3.77315E+00 1.07961E-01-8.94784E+00 9.97258E-14 1.18960E-13
 -1      2562 2.92019E+00-1.12120E+00 1.69466E-01 6.84159E-01 1.53058E-13 2.89602E-13
 -1      2563 2.45156E+00-7.46950E-01 1.71218E-01-1.56317E+00 4.63518E-15 8.44880E-14
 -1      2564 1.99100E+01 2.81444E+00 1.12698E-03-1.09573E+00-1.32567E-13-4.04325E-13
 -1      2565 1.97816E+01 3.16095E+00-1.47006E-02-1.28282E+00-1.40145E-13-4.25235E-13
 -1      2566 1.98779E+01 3.04000E+00-1.64102E-02-1.48192E+00-1.73390E-13-3.98767E-13
 -1      2567 1.72247E+01 2.72621E+00 9.63245E-02 3.76116E+00-4.24669E-14 2.70612E-13
 -1      2568 1.51278E+01 2.35796E+00 1.64875E-01 5.17892E+00 1.42247E-13 1.48867E-13
 -1      2569 1.53211E+01 2.52125E+00 1.36477E-01-5.09499E+00-2.26853E-13-1.32630E-13
 -1      2570 8.96919E+00-1.34403E+00 1.46247E-01-7.14697E+00-1.60982E-14-1.24067E-13
 -1      2571 5.16713E+00 7.96019E-01 1.81973E-01-2.63446E+00-5.97439E-14 6.50591E-14
 -1      2572 2.00162E+01 2.20561E-02 1.04676E-03 2.84187E-02 3.45194E-13-1.91736E-13
 -1      2573 2.00024E+01 4.12044E-02 3.42265E-04 4.06089E-02 2.15532E-13-2.73899E-13
 -1      2574 1.99731E+01 5.56613E-02 1.14498E-03 1.52403E-02-1.45420E-13 1.57255E-13
 -1      2575 1.99852E+01 3.56881E-02-1.07749E-03 1.71441E-02 7.68764E-14 4.24461E-13
 -1      2576 1.99949E+01 3.16027E-02 2.93842E-04 2.06642E-02 3.23637E-13 8.49646E-14
 -1      2577 4.77122E+00 4.35548E-01 1.69985E-01-9.04090E-01-1.29896E-13-3.95406E-13
 -1      2578 5.72851E+00 4.04597E-01 1.59099E-01 2.34798E+00 1.28009E-13 1.86517E-13
 -1      2579 1.60105E+01-2.17353E+00 9.11542E-02 6.42519E+00 1.80633E-13 2.07889E-13
 -1      2580 3.35624E+01 3.15278E+00-6.06942E-02-7.15345E-01-2.07889E-13-1.07025E-13
 -1      2581 2.30874E+01-4.60491E+00 7.73081E-02-7.70255E+00 3.46528E-13 7.05616E-14
 -1      2582 3.50572E+01 4.56738E+00-4.03498E-02 5.58017E-01 2.47441E-13 2.40086E-14
 -1      2583 3.47127E+01 9.49198E+00-6.71144E-02-5.87703E-02-1.44051E-13-2.19781E-13
 -1      2584 3.37077E+01 7.50031E+00-9.67774E-02-1.31111E+00-2.76668E-13-2.37116E-13
 -1      2585 2.60407E+01-4.28177E+00 8.13725E-02 6.37296E+00-1.34004E-13 1.28314E-13
 -1      2586 2.01135E+01 2.62009E+00-1.22598E-02-1.67633E+00-2.24596E-13-3.23276E-13
 -1      2587 1.12387E+01-2.57927E+00 1.53859E-01 8.35690E+00-1.21625E-13-2.31870E-13
 -1      2588 4.94286E+00-6.22336E-01 1.92484E-01 4.70320E+00-7.65915E-14-1.91847E-13
 -1      2589 5.81893E+00 1.31824E+00 2.35316E-01 3.01473E+00-2.62151E-14-1.27065E-13
 -1      2590 7.27893E+00-5.36661E-03 9.16228E-02 5.76950E+00-5.97161E-14-1.62315E-13
 -1      2591 1.00421E+01-6.17653E-01 1.53334E-01-5.18658E+00-2.34257E-13-2.48690E-13
 -1      2592 3.18582E+01-1.55957E+00-9.45516E-03 2.15389E+00-2.67605E-13 1.99535E-13
 -1      2593 3.28468E+01-4.72054E-01-2.42288E-02-1.49144E+00 2.53868E-13-2.05475E-13
 -1      2594 1.08746E+01-9.47738E-01 1.88850E-01 5.73802E+00 1.41304E-13 1.59261E-13
 -1      2595 1.98423E+01 2.76661E+00-6.30522E-03 5.15236E-01 1.39882E-13-3.51467E-13
 -1      2596 1.98172E+01 2.81640E+00-5.70914E-03 3.64605E-01 1.15165E-13-3.61623E-13
 -1      2597 1.98000E+01 2.85399E+00-5.61487E-03 2.29380E-01 9.35890E-14-3.71290E-13
 -1      2598 1.97914E+01 2.87090E+00-5.43562E-03 7.50228E-02 7.10200E-14-3.59026E-13
 -1      2599 1.99464E+01 2.50282E+00 3.64000E-03 2.64556E-01 9.73677E-14-3.51791E-13
 -1      2600 2.00429E+01 2.32394E+00-1.12457E-02 1.04377E+00 2.30423E-13-2.63389E-13
 -1      2601 1.99775E+01 2.47485E+00-6.41545E-03 9.08629E-01 2.10284E-13-2.85305E-13
 -1      2602 2.02032E+01 1.90491E+00-1.94630E-02 1.22560E+00 2.70527E-13-1.63279E-13
 -1      2603 2.01222E+01 2.14830E+00-5.40697E-03 1.12974E+00 2.44379E-13-2.11285E-13
 -1      2604 2.01897E+01 1.89784E+00 9.30342E-03 9.27430E-01 2.32055E-13-2.18970E-13
 -1      2605 2.04079E+01 1.07803E+00 7.28018E-03 1.15747E+00 2.63073E-13 1.82753E-15
 -1      2606 1.98935E+01 1.17212E-01-2.38575E-04-7.67835E-02 1.46622E-13-9.79196E-14
 -1      2607 1.99284E+01 1.68436E-01 5.23780E-03-2.19213E-02 1.74375E-13-8.36333E-14
 -1      2608 1.98578E+01 4.82894E-02 5.03294E-05-1.48563E-01 9.86505E-14-8.10918E-14
 -1      2609 1.98710E+01 7.99295E-02 3.12984E-03-1.20698E-01 1.13412E-13-8.07246E-14
 -1      2610 1.99921E+01 1.33595E-01-2.28402E-03-7.86632E-02 1.29083E-13-9.18486E-14
 -1      2611 1.99613E+01 2.28111E-01-8.16274E-04 5.58211E-02 1.49793E-13-8.18192E-14
 -1      2612 2.00280E+01 3.10721E-01 8.30223E-03 1.52499E-01 1.56116E-13-7.05761E-14
 -1      2613 2.00552E+01 2.62619E-01-2.83177E-03 5.29991E-02 1.61139E-13-7.74738E-14
 -1      2614 2.03202E+01 1.06178E+00 5.60549E-03-8.54261E-01-1.53413E-13-2.42208E-13
 -1      2615 2.02287E+01 8.16533E-01-5.44972E-03-6.10807E-01-1.44593E-13-2.30226E-13
 -1      2616 1.96580E+01 5.38090E-01-9.49754E-03 4.12105E-01-1.63204E-13 3.35740E-13
 -1      2617 1.96011E+01 7.07445E-01 4.14916E-03 5.69491E-01-3.13000E-13 3.24370E-13
 -1      2618 2.02176E+01 6.28337E-01 8.36429E-03-4.33936E-01-1.45907E-13-2.12106E-13
 -1      2619 2.01340E+01 4.76285E-01-3.33813E-03-2.75315E-01-1.27670E-13-2.17125E-13
 -1      2620 2.02623E+01 8.93770E-01 4.20221E-04-5.68254E-01-1.34466E-13-2.37142E-13
 -1      2621 2.01078E+01 3.63523E-01 6.59873E-03-1.55444E-01-1.23604E-13-1.83984E-13
 -1      2622 2.00489E+01 2.68860E-01-1.74743E-03-5.75300E-02-1.22635E-13-2.05584E-13
 -1      2623 2.01960E+01 5.29650E-01-1.70664E-03-2.58805E-01-1.27571E-13-1.92776E-13
 -1      2624 2.00227E+01 1.98598E-01 4.52372E-03 1.79715E-02-1.11566E-13-1.94876E-13
 -1      2625 1.99870E+01 1.39037E-01-8.32513E-04 7.47616E-02-9.58841E-14-1.86218E-13
 -1      2626 2.01270E+01 2.99902E-01-2.05916E-03-5.19061E-02-1.13040E-13-1.88629E-13
 -1      2627 1.99659E+01 9.48440E-02 2.89268E-03 1.18308E-01-1.03606E-13-1.84341E-13
 -1      2628 1.99479E+01 5.74770E-02-3.00978E-04 1.47903E-01-1.32569E-13-2.09197E-13
 -1      2629 2.00702E+01 1.53690E-01-1.88046E-03 7.57079E-02-1.04153E-13-2.03447E-13
 -1      2630 1.99327E+01 2.98910E-02 1.72962E-03 1.69477E-01-1.51580E-13-1.93084E-13
 -1      2631 1.99268E+01 6.94262E-03-1.18088E-05 1.81430E-01-1.03432E-13-2.05947E-13
 -1      2632 2.00288E+01 6.10874E-02-1.50240E-03 1.46958E-01-1.33468E-13-2.13336E-13
 -1      2633 1.99167E+01-9.78246E-03 9.26868E-04 1.88465E-01-3.77686E-14-2.47118E-13
 -1      2634 1.99184E+01-2.32443E-02 1.31228E-04 1.89277E-01-3.33661E-14-2.39078E-13
 -1      2635 2.00010E+01 3.59343E-03-1.11549E-03 1.79714E-01-8.16991E-14-2.07506E-13
 -1      2636 1.99123E+01-3.28203E-02 3.92721E-04 1.87087E-01-1.13539E-14-2.17077E-13
 -1      2637 1.99183E+01-4.00876E-02 1.86983E-04 1.81149E-01-7.67155E-15-1.66607E-13
 -1      2638 1.99837E+01-3.06871E-02-7.86989E-04 1.87217E-01-2.59399E-14-2.05980E-13
 -1      2639 1.99149E+01-4.50431E-02 5.48581E-05 1.73415E-01-1.67676E-14-1.31061E-13
 -1      2640 1.99229E+01-4.84125E-02 1.88405E-04 1.63633E-01 1.88773E-14-1.34246E-13
 -1      2641 1.99739E+01-4.97313E-02-5.29093E-04 1.78870E-01 1.93104E-14-1.36123E-13
 -1      2642 1.99213E+01-5.05491E-02-1.40861E-04 1.52801E-01 1.72482E-14-1.49093E-13
 -1      2643 1.99298E+01-5.16903E-02 1.52677E-04 1.41005E-01-1.97488E-14-1.35263E-13
 -1      2644 1.99691E+01-5.91152E-02-3.35366E-04 1.61113E-01 4.73458E-15-1.88225E-13
 -1      2645 1.99293E+01-5.23499E-02-2.33456E-04 1.28588E-01-6.81181E-14-1.00996E-13
 -1      2646 1.99372E+01-5.25370E-02 8.73469E-05 1.15807E-01-5.62266E-14-1.34691E-13
 -1      2647 1.99676E+01-6.28978E-02-1.95577E-04 1.38140E-01-4.27182E-14-1.90133E-13
 -1      2648 1.99374E+01-5.27777E-02-2.49198E-04 1.02597E-01-5.05657E-14-1.33977E-13
 -1      2649 1.99439E+01-5.30508E-02-6.46876E-06 8.92316E-02-1.69137E-14-1.24654E-13
 -1      2650 1.99679E+01-6.41752E-02-1.00499E-04 1.12425E-01-4.45762E-14-5.84504E-14
 -1      2651 1.99447E+01-5.37759E-02-2.03838E-04 7.54420E-02-2.04728E-14-1.23146E-13
 -1      2652 1.99494E+01-5.50643E-02-1.32697E-04 6.13728E-02-3.27653E-15-1.38886E-13
 -1      2653 1.99693E+01-6.54689E-02-4.37260E-05 8.50952E-02-3.76414E-14-1.02330E-14
 -1      2654 1.99507E+01-5.71205E-02-1.04434E-04 4.67197E-02-4.52192E-14-1.48751E-13
 -1      2655 1.99532E+01-6.03362E-02-2.99601E-04 3.13542E-02-9.49092E-14-1.67079E-13
 -1      2656 1.99714E+01-6.90186E-02-2.22714E-05 5.61668E-02-5.47815E-14-1.69067E-13
 -1      2657 1.99554E+01-6.45850E-02 4.88711E-05 1.50841E-02-1.54271E-13-1.50107E-13
 -1      2658 1.99554E+01-7.06832E-02-5.19367E-04-2.63096E-03-1.76918E-13-1.33372E-13
 -1      2659 1.99744E+01-7.70018E-02-3.62796E-05 2.46680E-02-9.91032E-14-1.53673E-13
 -1      2660 1.99588E+01-7.80334E-02 2.60375E-04-2.17521E-02-1.29055E-13-1.10476E-13
 -1      2661 1.99559E+01-8.80190E-02-8.07138E-04-4.33428E-02-9.28977E-14-9.86159E-14
 -1      2662 1.99788E+01-9.16733E-02-8.77130E-05-1.13341E-02-1.50426E-13-2.11882E-14
 -1      2663 1.99615E+01-9.93922E-02 5.34726E-04-6.70649E-02-9.15392E-14-1.09111E-13
 -1      2664 1.99553E+01-1.14235E-01-1.17860E-03-9.45314E-02-4.38442E-14-9.64473E-14
 -1      2665 1.99857E+01-1.15374E-01-1.77372E-04-5.47754E-02-9.60480E-14-1.67334E-14
 -1      2666 1.99638E+01-1.30421E-01 8.70043E-04-1.25147E-01-3.32307E-14-1.23995E-13
 -1      2667 1.99536E+01-1.50823E-01-1.64489E-03-1.60905E-01 1.34474E-15-1.69206E-13
 -1      2668 1.99966E+01-1.50324E-01-2.99587E-04-1.09661E-01-5.94805E-14-1.55507E-13
 -1      2669 1.99661E+01-1.72167E-01 1.24717E-03-2.01211E-01 5.31951E-14-1.90787E-13
 -1      2670 1.99509E+01-1.98120E-01-2.20271E-03-2.47894E-01 1.05410E-13-1.63571E-13
 -1      2671 2.00132E+01-1.98069E-01-4.33983E-04-1.81074E-01-4.01728E-15-1.23830E-13
 -1      2672 1.99679E+01-2.23985E-01 1.61460E-03-3.00987E-01 1.17188E-13-1.20949E-13
 -1      2673 1.99461E+01-2.54059E-01-2.81705E-03-3.60999E-01 2.05290E-13-1.22964E-13
 -1      2674 2.00369E+01-2.58430E-01-5.34339E-04-2.74966E-01 1.35275E-13-8.69355E-14
 -1      2675 1.99668E+01-2.82050E-01 1.87124E-03-4.29747E-01 2.14441E-13-1.55947E-13
 -1      2676 1.99361E+01-3.12463E-01-3.39347E-03-5.04437E-01 1.19507E-13-8.67470E-14
 -1      2677 2.00680E+01-3.27845E-01-5.18096E-04-3.97504E-01 1.97935E-13-1.86038E-13
 -1      2678 1.99579E+01-3.37516E-01 1.85957E-03-5.90405E-01 1.97029E-14-1.56918E-13
 -1      2679 1.99150E+01-3.61196E-01-3.74906E-03-6.78734E-01-2.68158E-14-1.57551E-13
 -1      2680 2.01038E+01-3.97184E-01-2.66538E-04-5.53553E-01 5.77194E-14-2.09698E-13
 -1      2681 1.99319E+01-3.74914E-01 1.37926E-03-7.80385E-01 9.21903E-15 5.95990E-15
 -1      2682 1.98730E+01-3.81154E-01-3.60356E-03-8.77160E-01-2.54701E-15 8.03759E-14
 -1      2683 2.01369E+01-4.49632E-01 3.40581E-04-7.43846E-01 7.65744E-14-7.55654E-14
 -1      2684 1.98754E+01-3.72073E-01 2.61241E-04-9.87377E-01 2.72111E-14 1.47475E-13
 -1      2685 1.97971E+01-3.47623E-01-2.60466E-03-1.08143E+00 8.56250E-14 1.79447E-13
 -1      2686 2.01539E+01-4.59967E-01 1.34353E-03-9.60600E-01 4.73286E-14 1.22523E-13
 -1      2687 1.97728E+01-3.03275E-01-1.48042E-03-1.18499E+00 1.81867E-14 1.81236E-13
 -1      2688 1.96738E+01-2.35864E-01-4.77333E-04-1.25818E+00-6.04145E-14 1.94286E-13
 -1      2689 2.01351E+01-3.97303E-01 2.60868E-03-1.18216E+00 7.97643E-14 2.33598E-13
 -1      2690 1.96120E+01-1.47427E-01-3.55790E-03-1.33065E+00-1.12817E-14 1.84618E-13
 -1      2691 1.94954E+01-3.20287E-02 2.68212E-03-1.35922E+00 3.29855E-14 2.14379E-13
 -1      2692 2.00592E+01-2.33460E-01 3.68338E-03-1.36856E+00 6.06980E-15 2.12646E-13
 -1      2693 1.93935E+01 9.89575E-02-5.24015E-03-1.36964E+00-7.66321E-14 1.76658E-13
 -1      2694 1.92696E+01 2.52570E-01 6.14775E-03-1.32939E+00-1.01819E-13 2.34234E-13
 -1      2695 1.99128E+01 4.20969E-02 3.72978E-03-1.46224E+00-4.92727E-14 2.52959E-13
 -1      2696 1.91405E+01 4.07906E-01-5.50686E-03-1.24916E+00-6.38242E-14 3.05226E-13
 -1      2697 1.90266E+01 5.70910E-01 8.56428E-03-1.12483E+00-3.34689E-14 3.24923E-13
 -1      2698 1.97035E+01 4.05018E-01 1.99275E-03-1.39907E+00-2.91635E-14 3.26006E-13
 -1      2699 1.89012E+01 7.15494E-01-3.55299E-03-9.42083E-01-9.99559E-14 3.19641E-13
 -1      2700 1.88181E+01 8.45265E-01 8.61336E-03-7.37773E-01-4.20354E-14 2.95634E-13
 -1      2701 1.94706E+01 7.87064E-01-1.44115E-03-1.13292E+00-8.16504E-14 2.79655E-13
 -1      2702 1.87362E+01 9.37535E-01 4.26903E-04-4.69974E-01-1.10832E-13 2.58733E-13
 -1      2703 1.87018E+01 9.93737E-01 5.91270E-03-2.13926E-01-2.29501E-13 1.92938E-13
 -1      2704 1.92795E+01 1.08967E+00-5.03768E-03-6.66507E-01-1.07393E-13 2.39905E-13
 -1      2705 1.86931E+01 1.00359E+00 5.00961E-03 9.15357E-02-2.69280E-13 1.54118E-13
 -1      2706 1.87155E+01 9.67194E-01 1.44780E-03 3.53152E-01-2.04038E-13 2.57478E-14
 -1      2707 1.91956E+01 1.22020E+00-6.86812E-03-6.77419E-02-2.49918E-13 3.64712E-13
 -1      2708 1.87835E+01 8.91237E-01 8.23702E-03 6.34166E-01-5.33672E-14 8.91127E-14
 -1      2709 1.88575E+01 7.74710E-01-2.81878E-03 8.53104E-01 6.79795E-16 1.30928E-13
 -1      2710 1.92504E+01 1.13571E+00-5.67479E-03 5.45397E-01-8.61050E-14 3.10520E-13
 -1      2711 1.89769E+01 6.38286E-01 8.78858E-03 1.05718E+00 1.27576E-13 1.53815E-13
 -1      2712 1.90862E+01 4.78970E-01-5.27767E-03 1.20037E+00 1.85272E-13 2.57751E-13
 -1      2713 1.94234E+01 8.64307E-01-2.28164E-03 1.04896E+00 4.68740E-14 3.51136E-13
 -1      2714 1.92177E+01 3.22877E-01 6.75989E-03 1.30314E+00 9.22259E-14 1.85466E-13
 -1      2715 1.93414E+01 1.64533E-01-5.46972E-03 1.36138E+00 1.36907E-13 1.03489E-13
 -1      2716 1.96535E+01 4.91371E-01 1.30450E-03 1.36164E+00 6.95495E-14 1.68285E-13
 -1      2717 1.94511E+01 2.64295E-02 3.39109E-03 1.36922E+00 3.07293E-14-6.99264E-14
 -1      2718 1.95709E+01-9.83753E-02-4.00278E-03 1.35439E+00-2.09785E-13-2.30432E-13
 -1      2719 1.98726E+01 1.17975E-01 3.43199E-03 1.46734E+00-1.09046E-13 3.65810E-15
 -1      2720 1.96418E+01-1.96366E-01 9.50870E-05 1.29348E+00-1.66803E-13-2.68294E-13
 -1      2721 1.97457E+01-2.73796E-01-1.90611E-03 1.22871E+00-4.92172E-14-2.26374E-13
 -1      2722 2.00347E+01-1.79240E-01 3.75279E-03 1.40397E+00-1.58056E-13-3.19498E-13
 -1      2723 1.97776E+01-3.26817E-01-2.26722E-03 1.13048E+00 7.47839E-15-5.60303E-14
 -1      2724 1.98611E+01-3.59175E-01-9.25001E-06 1.04025E+00 5.50207E-14-9.51984E-15
 -1      2725 2.01257E+01-3.66478E-01 2.88386E-03 1.23412E+00 4.91505E-14-1.24960E-13
 -1      2726 1.98635E+01-3.74354E-01-3.49707E-03 9.31091E-01 1.98854E-13-2.59832E-14
 -1      2727 1.99273E+01-3.72981E-01 1.26605E-03 8.35088E-01 2.58154E-13 2.47034E-14
 -1      2728 2.01554E+01-4.47883E-01 1.61940E-03 1.01832E+00 8.23509E-14-1.21629E-13
 -1      2729 1.99127E+01-3.62579E-01-3.80091E-03 7.32320E-01 1.67170E-13 7.64711E-14
 -1      2730 1.99599E+01-3.41043E-01 1.87569E-03 6.43212E-01 1.61821E-13-3.51774E-14
 -1      2731 2.01447E+01-4.49251E-01 5.24373E-04 8.00980E-01 2.31933E-13-1.12538E-13
 -1      2732 1.99387E+01-3.17118E-01-3.53188E-03 5.55467E-01 2.63630E-13 2.65010E-15
 -1      2733 1.99733E+01-2.86907E-01 1.98263E-03 4.79558E-01 4.15351E-13-7.86225E-15
 -1      2734 2.01141E+01-4.02121E-01-1.74789E-04 6.07479E-01 2.63430E-13-8.02099E-14
 -1      2735 1.99522E+01-2.58655E-01-2.98878E-03 4.09413E-01 3.30152E-13 1.00876E-13
 -1      2736 1.99776E+01-2.27884E-01 1.77590E-03 3.48492E-01 1.72709E-13 1.77363E-13
 -1      2737 2.00786E+01-3.33465E-01-4.82698E-04 4.48055E-01 4.18928E-13-1.31382E-13
 -1      2738 1.99603E+01-2.01437E-01-2.36457E-03 2.94807E-01-6.86095E-14 2.06034E-13
 -1      2739 1.99794E+01-1.74799E-01 1.44208E-03 2.47718E-01-8.50860E-14 1.04814E-13
 -1      2740 2.00470E+01-2.62548E-01-5.45754E-04 3.23584E-01 3.88481E-14 6.29361E-14
 -1      2741 1.99669E+01-1.52851E-01-1.67958E-03 2.07688E-01-8.89922E-14-1.23781E-13
 -1      2742 1.99810E+01-1.32790E-01 9.50801E-04 1.72663E-01-5.60264E-14-1.51016E-13
 -1      2743 2.00229E+01-2.00390E-01-5.07743E-04 2.29493E-01-1.82822E-13-5.58388E-14
 -1      2744 1.99724E+01-1.19906E-01-1.33509E-03 1.49134E-01 8.55225E-16-2.79843E-13
 -1      2745 1.99828E+01-1.07518E-01-6.03135E-05 1.23275E-01 1.31727E-14-4.13039E-13
 -1      2746 1.99983E+01-1.24837E-01-8.65072E-05 1.24569E-01-7.80153E-14-7.91766E-13
 -1      2747 2.00079E+01-1.57110E-01-6.53716E-04 1.67057E-01-2.08889E-13-5.31684E-13
 -1      2748 1.93252E+01 8.97652E-01-1.58921E-02 6.88288E-01-4.17172E-13 3.65249E-13
 -1      2749 1.91924E+01 1.14295E+00 2.07433E-03 9.16843E-01-1.60814E-13 2.70035E-13
 -1      2750 1.92080E+01 9.69573E-01 2.03717E-02 4.68914E-01-3.93971E-13 1.79813E-13
 -1      2751 1.22078E+01 2.46218E+00 1.87542E-01-4.12096E+00-1.85622E-13-2.30899E-13
 -1      2752 1.25494E+01 3.16701E+00 9.11288E-02-3.14333E+00-1.81674E-13-3.13347E-13
 -1      2753 1.98450E+01 5.99709E-03 1.74700E-04-1.80730E-01 8.02647E-14-7.07650E-14
 -1      2754 1.98445E+01 2.52484E-02 1.76067E-03-1.69991E-01 9.90504E-14-5.17779E-14
 -1      2755 1.99523E+01 5.28308E-02-1.73630E-03-1.50862E-01 7.67837E-14-1.04389E-13
 -1      2756 1.98474E+01-1.91790E-02 1.98253E-04-1.87689E-01 1.21606E-13-6.59348E-14
 -1      2757 1.98387E+01-7.85906E-03 8.77469E-04-1.87528E-01 9.13786E-14-6.24965E-14
 -1      2758 1.99308E+01 3.19808E-03-1.23113E-03-1.83483E-01 8.95730E-14-8.36932E-14
 -1      2759 1.98595E+01-3.34773E-02 1.92234E-04-1.78471E-01 8.55255E-14-4.58779E-14
 -1      2760 1.98459E+01-2.73204E-02 3.06626E-04-1.85066E-01 1.09565E-13-2.78732E-14
 -1      2761 1.99223E+01-2.63829E-02-7.87372E-04-1.90369E-01 1.03950E-13-8.53628E-14
 -1      2762 1.98754E+01-3.94840E-02 1.90201E-04-1.60828E-01 3.24949E-14-4.80010E-14
 -1      2763 1.98609E+01-3.71280E-02-7.66208E-05-1.70526E-01 8.13588E-14-2.28777E-14
 -1      2764 1.99224E+01-4.25737E-02-5.07034E-04-1.81146E-01 7.46031E-14-6.72908E-14
 -1      2765 1.98929E+01-4.08575E-02 1.68932E-04-1.39142E-01 3.68087E-16-6.44974E-14
 -1      2766 1.98785E+01-4.07386E-02-2.90013E-04-1.50244E-01 2.26319E-15-4.04945E-14
 -1      2767 1.99275E+01-4.93367E-02-2.90119E-04-1.63168E-01 4.31604E-14-3.47612E-14
 -1      2768 1.99099E+01-3.91109E-02 1.49517E-04-1.16326E-01 6.94043E-14-9.30015E-14
 -1      2769 1.98967E+01-4.04493E-02-3.98710E-04-1.27560E-01 5.88762E-14-6.92367E-14
 -1      2770 1.99351E+01-5.04788E-02-1.38764E-04-1.40984E-01 6.01927E-14-5.88500E-14
 -1      2771 1.99254E+01-3.50701E-02 1.66872E-04-9.44203E-02-6.44455E-14-1.56194E-13
 -1      2772 1.99136E+01-3.75286E-02-4.51354E-04-1.04885E-01 3.09882E-14-1.16878E-13
 -1      2773 1.99434E+01-4.78153E-02-3.16666E-05-1.17638E-01 5.95046E-14-6.33209E-14
 -1      2774 1.99391E+01-2.84811E-02 1.97312E-04-7.41399E-02 3.28198E-14-1.78081E-13
 -1      2775 1.99287E+01-3.22775E-02-4.77022E-04-8.34364E-02-6.00690E-14-2.20383E-13
 -1      2776 1.99513E+01-4.20629E-02 2.85572E-05-9.47375E-02-1.80807E-14-1.26200E-13
 -1      2777 1.99491E+01-1.91327E-02 2.74587E-04-5.91049E-02 5.97106E-15-1.39990E-13
 -1      2778 1.99409E+01-2.45299E-02-5.28515E-04-6.55010E-02 1.82503E-14-1.69123E-13
 -1      2779 1.99576E+01-3.30671E-02 1.37898E-04-7.45770E-02-4.84451E-15-1.26657E-13
 -1      2780 1.99557E+01-4.82064E-03 4.43930E-04-5.04399E-02 1.13087E-13-1.76810E-13
 -1      2781 1.99489E+01-1.31113E-02-6.18440E-04-5.31000E-02 9.70666E-14-1.24413E-13
 -1      2782 1.99607E+01-1.99247E-02 2.48675E-04-5.93321E-02 2.97492E-14-4.94643E-14
 -1      2783 1.99577E+01 1.81104E-02 7.31169E-04-5.15108E-02 1.14936E-13-1.27278E-13
 -1      2784 1.99521E+01 4.76782E-03-8.19612E-04-4.83621E-02 1.41796E-13-1.74497E-13
 -1      2785 1.99591E+01 4.48290E-04 4.43481E-04-5.05943E-02 1.25301E-13-9.60799E-14
 -1      2786 1.99523E+01 5.58988E-02 1.18580E-03-6.77046E-02 4.15257E-14-1.91515E-13
 -1      2787 1.99480E+01 3.38727E-02-1.21551E-03-5.53610E-02 9.23110E-14-2.25544E-13
 -1      2788 1.99493E+01 3.32094E-02 8.14804E-04-5.15223E-02 1.33772E-13-9.87299E-14
 -1      2789 1.99340E+01 1.18765E-01 1.94712E-03-1.07481E-01 2.71778E-14-2.72467E-13
 -1      2790 1.99316E+01 8.20153E-02-1.98780E-03-8.05737E-02 2.98935E-14-2.14588E-13
 -1      2791 1.99250E+01 8.70285E-02 1.54687E-03-6.68492E-02 6.68781E-14-3.09965E-13
 -1      2792 1.98865E+01 2.29328E-01 2.81047E-03-1.88822E-01-7.69222E-14-1.78508E-13
 -1      2793 1.98912E+01 1.65071E-01-3.31497E-03-1.35393E-01-2.28489E-14-2.00202E-13
 -1      2794 1.98722E+01 1.77995E-01 2.75464E-03-1.04807E-01-2.96682E-14-2.78826E-13
 -1      2795 1.97877E+01 4.02831E-01 3.30307E-03-3.22902E-01-7.04588E-14-1.85948E-13
 -1      2796 1.98072E+01 3.02839E-01-5.55616E-03-2.35765E-01-2.69040E-14-1.70186E-13
 -1      2797 1.97684E+01 3.28796E-01 5.60602E-03-1.73948E-01-6.78057E-14-1.97552E-13
 -1      2798 1.95866E+01 6.79274E-01 3.28537E-03-5.36117E-01-4.30897E-14-1.77146E-13
 -1      2799 1.96421E+01 5.21719E-01-9.19113E-03-3.96803E-01-7.57501E-14-1.52883E-13
 -1      2800 1.95752E+01 5.64668E-01 1.03318E-02-2.82164E-01-3.61194E-14-1.38974E-13
 -1      2801 1.91884E+01 1.10305E+00 1.48380E-03-8.53184E-01-3.94849E-14-1.12660E-13
 -1      2802 1.93230E+01 8.64796E-01-1.50449E-02-6.43165E-01-4.54975E-14-1.40237E-13
 -1      2803 1.92177E+01 9.30385E-01 1.88436E-02-4.36799E-01-1.11494E-13-4.96244E-14
 -1      2804 1.84288E+01 1.71021E+00-2.94962E-03-1.28914E+00-9.06601E-14-7.42002E-14
 -1      2805 1.87203E+01 1.37527E+00-2.40198E-02-9.94454E-01-4.67864E-14-1.15702E-13
 -1      2806 1.85702E+01 1.47071E+00 3.42280E-02-6.31674E-01-8.89881E-14-7.15782E-14
 -1      2807 1.69443E+01 2.51620E+00-7.39547E-04-1.85636E+00-1.31596E-13-2.42115E-14
 -1      2808 1.75760E+01 2.09657E+00-3.11177E-02-1.46204E+00-6.66223E-14-2.47155E-14
 -1      2809 1.73837E+01 2.21896E+00 6.16400E-02-8.38915E-01-1.10564E-13 5.69727E-15
 -1      2810 1.45816E+01 3.15959E+00 4.93422E-02-2.41657E+00-1.66762E-13-2.09097E-13
 -1      2811 1.55630E+01 2.88571E+00-2.18597E-02-2.04275E+00-1.56776E-13-1.18884E-13
 -1      2812 1.53184E+01 3.07992E+00 1.17854E-01-9.60559E-01-6.81599E-14-7.51803E-14
 -1      2813 9.16309E+00 2.13101E-01 1.67426E-01-6.11945E+00-4.08701E-14-2.08028E-13
 -1      2814 1.19742E+01-1.53760E+00 1.42379E-01-7.96341E+00 2.89768E-14-6.86118E-14
 -1      2815 6.63748E+00 2.28322E+00 2.40961E-01-5.19722E-01 4.65760E-14 4.75175E-14
 -1      2816 7.32601E+00 1.87011E+00 1.57097E-01-3.07799E+00 1.38414E-13-1.66034E-13
 -1      2817 3.13829E+01 3.39587E+00-2.39518E-01-1.71852E+00-1.25774E-13-1.79454E-13
 -1      2818 3.17778E+01 1.34525E+00-5.50641E-02-9.78118E-01-1.26801E-13-7.67997E-14
 -1      2819 1.87056E+01 1.42410E+00-2.41106E-02 1.07407E+00 2.15911E-13 1.10321E-13
 -1      2820 1.84134E+01 1.76589E+00-2.34440E-04 1.39318E+00 2.04206E-13 1.13684E-13
 -1      2821 1.85374E+01 1.52510E+00 3.67308E-02 6.90135E-01-2.84764E-14 1.75140E-13
 -1      2822 1.98278E+01 3.15406E-01-5.36103E-03 2.37037E-01-9.44399E-14 2.89181E-13
 -1      2823 1.98102E+01 4.17188E-01 4.23597E-03 3.30777E-01-1.15581E-13 1.90877E-13
 -1      2824 1.95780E+01 5.90539E-01 1.06250E-02 2.94992E-01-1.91746E-13 2.12340E-13
 -1      2825 1.99150E+01 1.76633E-01-3.40273E-03 1.28622E-01-1.35714E-14 1.58757E-13
 -1      2826 1.99099E+01 2.39342E-01 2.86050E-03 1.83472E-01-2.38461E-14 1.98776E-13
 -1      2827 1.97798E+01 3.48426E-01 6.10004E-03 1.71707E-01-1.03378E-13 1.93112E-14
 -1      2828 1.99618E+01 9.73512E-02-8.17097E-04 6.48644E-02 1.94401E-13 3.13648E-14
 -1      2829 1.99596E+01 1.33186E-01 2.25369E-03 9.60283E-02 7.98330E-14 2.79249E-13
 -1      2830 1.98867E+01 1.94703E-01 2.18829E-03 9.18065E-02-3.36120E-14 6.25403E-15
 -1      2831 1.99440E+01 7.84990E-02-1.51501E-03 1.58250E-02-2.25385E-14 1.98783E-14
 -1      2832 1.99649E+01 7.31679E-02 5.58528E-04 3.19980E-02 1.19099E-13 2.02503E-14
 -1      2833 1.99278E+01 4.97812E-02 2.78427E-04-9.41311E-02-2.60968E-13 5.35321E-15
 -1      2834 1.99200E+01 6.43363E-02-1.29015E-03-7.16248E-02-1.50454E-13-4.76191E-13
 -1      2835 1.99202E+01 7.94667E-02-8.06702E-04-3.70535E-02-6.71275E-15-4.48891E-13
 -1      2836 1.99287E+01 8.37228E-02-4.19466E-04-1.32817E-02-6.64020E-14-3.33925E-13
 -1      2837 1.98968E+01 1.01476E-01 8.57410E-04-6.52422E-02-6.92914E-15-5.65353E-13
 -1      2838 1.99624E+01-5.16947E-03 1.17902E-03-1.34843E-01-6.21266E-14 7.26998E-13
 -1      2839 1.99418E+01 1.74024E-02-1.66632E-03-1.21618E-01-1.64912E-13 7.72182E-13
 -1      2840 1.99145E+01 5.44512E-02-6.42558E-05-1.30862E-01-1.14569E-13 3.78564E-13
 -1      2841 2.00584E+01-1.34717E-01 1.95213E-03-1.21531E-01 1.69616E-13 1.46480E-13
 -1      2842 2.00350E+01-1.12432E-01-9.81030E-04-1.36024E-01-6.14314E-14 3.41100E-13
 -1      2843 2.00904E+01-1.81477E-01 1.53527E-03-7.00539E-02 3.41931E-14-2.58223E-13
 -1      2844 2.00765E+01-1.66653E-01-2.64198E-04-9.53821E-02 2.58640E-14-7.71665E-14
 -1      2845 2.00842E+01-1.68071E-01-1.38788E-03-1.31076E-01 1.71468E-15 3.06677E-14
 -1      2846 2.00988E+01-2.03210E-01 8.52207E-04-6.09552E-03-1.16027E-13-1.60609E-13
 -1      2847 2.00974E+01-1.97767E-01 5.93740E-04-3.50964E-02 1.94579E-14-4.81938E-14
 -1      2848 2.01167E+01-2.14232E-01-1.90433E-03-6.47690E-02-8.60133E-14-2.05664E-13
 -1      2849 2.00829E+01-1.98948E-01 1.31007E-04 5.70885E-02-3.10284E-13-4.07494E-13
 -1      2850 2.00941E+01-2.03182E-01 1.28315E-03 3.02388E-02-1.74429E-13-3.80850E-13
 -1      2851 2.01202E+01-2.30193E-01-1.83393E-03 1.19318E-02-2.10817E-13-3.31113E-13
 -1      2852 2.00460E+01-1.71413E-01-6.94822E-04 1.03975E-01-2.94122E-13-4.73801E-13
 -1      2853 2.00669E+01-1.83903E-01 1.59539E-03 8.61899E-02-3.73564E-13-3.88319E-13
 -1      2854 2.00946E+01-2.16312E-01-1.22847E-03 8.22003E-02-3.55953E-13-5.21522E-13
 -1      2855 1.75747E+01 2.12801E+00-3.24097E-02 1.58704E+00 2.24486E-14 1.32030E-13
 -1      2856 1.70218E+01 2.54182E+00 1.10611E-02 1.97703E+00-5.84203E-14 4.69624E-14
 -1      2857 1.73435E+01 2.27583E+00 6.57576E-02 9.25877E-01 1.01501E-13-1.76201E-13
 -1      2858 1.56181E+01 2.90731E+00-2.17152E-02 2.35502E+00-4.81899E-14 1.97828E-13
 -1      2859 1.48733E+01 3.09565E+00 5.81016E-02 2.92671E+00-7.87131E-15 2.36228E-13
 -1      2860 3.28476E+01 3.07069E+00-9.41107E-02 1.07237E+00 3.57547E-13-1.95233E-13
 -1      2861 3.32049E+01 5.27277E+00-2.19739E-01 1.41954E+00 2.79832E-13-1.39472E-13
 -1      2862 1.31233E+01 3.13209E+00 8.42935E-02 3.51128E+00 1.12813E-13 2.66745E-13
 -1      2863 1.17000E+01 2.26882E+00 1.17788E-01 4.03242E+00 9.84213E-14 1.57069E-13
 -1      2864 2.01773E+01 2.27264E+00-1.74643E-03-1.42519E+00-1.99511E-13-3.14320E-13
 -1      2865 2.00112E+01-7.18759E-02 1.76087E-03-1.45187E-01-2.26636E-14 5.29627E-13
 -1      2866 1.99852E+01-4.63828E-02-1.48475E-03-1.45718E-01-6.58940E-14 6.80660E-13
 -1      2867 1.99645E+01-1.80110E-02-6.51070E-04-1.69844E-01-9.15028E-14 6.23401E-13
 -1      2868 2.00290E+01-9.78368E-02-6.04611E-04-1.69847E-01 5.53946E-14 3.63722E-13
 -1      2869 2.00688E+01 4.11090E-01-1.34497E-03 2.78186E-01 1.91759E-13-8.30047E-14
 -1      2870 2.01782E+01 5.49020E-01 1.54676E-02 4.39660E-01 2.03645E-13-6.06952E-14
 -1      2871 2.01418E+01 4.69306E-01-3.42402E-03 2.70357E-01 1.82044E-13-9.35141E-14
 -1      2872 1.36059E+01-2.40923E+00 4.10897E-02 8.43220E+00-8.14071E-14-3.63681E-13
 -1      2873 1.06516E+01-1.15682E+00 2.43666E-01 7.47177E+00-1.10550E-13-1.23096E-13
 -1      2874 1.99215E+01 2.59744E+00-7.93797E-03 7.93034E-01 2.01693E-13-3.01084E-13
 -1      2875 1.98774E+01 2.68961E+00-6.14252E-03 6.44289E-01 1.63508E-13-3.38783E-13
 -1      2876 1.99957E+01 2.39005E+00 4.31033E-03 5.15659E-01 1.46953E-13-3.13329E-13
 -1      2877 2.00778E+01 2.19232E+00 5.53218E-03 7.44599E-01 1.86015E-13-2.74022E-13
 -1      2878 1.98724E+01 2.69805E+00-6.09964E-03-6.34006E-01-7.04641E-14-3.97424E-13
 -1      2879 1.99154E+01 2.60856E+00-7.73743E-03-7.83255E-01-1.00730E-13-3.98171E-13
 -1      2880 3.24950E+01 8.83804E+00-2.01208E-01 5.14576E-01-1.18516E-14-2.65551E-13
 -1      2881 3.17652E+01 8.90206E+00-2.13287E-01-2.79254E-01-1.66117E-13-3.01641E-13
 -1      2882 6.65043E+00 2.20469E+00 1.75728E-01-3.44710E-01-7.80348E-14-3.53939E-13
 -1      2883 7.95731E+00 1.89315E+00 2.44496E-01-2.94388E+00-1.05943E-13-4.60049E-13
 -1      2884 1.05164E+01 1.20711E+00 1.82039E-01-4.83954E+00-2.60292E-13-2.96901E-13
 -1      2885 2.02838E+01-4.26650E+00-4.88094E-02 8.14156E+00 1.39333E-14-6.77236E-14
 -1      2886 1.73362E+01-3.35044E+00 1.72428E-01 8.36581E+00-4.09950E-14-2.72601E-13
 -1      2887 3.10427E+01-1.66037E+00-5.06539E-02-1.40501E+00 3.03348E-13-2.29719E-13
 -1      2888 3.23592E+01 3.27483E-01-1.76635E-01-6.81513E-02 3.17135E-13-2.98928E-14
 -1      2889 2.13648E+01-4.23370E+00 1.07409E-01-7.61401E+00 2.54657E-13 8.58359E-14
 -1      2890 2.47969E+01-4.45168E+00-2.96392E-02-6.37069E+00 2.62193E-13-1.26484E-13
 -1      2891 2.75066E+01-4.17141E+00-7.73795E-02 4.77947E+00-1.57173E-13 1.78801E-13
 -1      2892 2.40599E+01-4.48050E+00 1.09247E-01 6.76584E+00 1.52656E-14 2.96499E-14
 -1      2893 3.13252E+01 7.73889E+00-2.40969E-01-1.17126E+00-3.05866E-13-3.00773E-13
 -1      2894 3.12053E+01 6.28640E+00-1.17572E-01-1.83876E+00-1.95427E-13-3.66610E-13
 -1      2895 3.30307E+01 7.34115E+00-1.57947E-01 1.37190E+00 8.85958E-14-1.49894E-13
 -1      2896 3.27398E+01 8.29584E+00-2.45716E-01 9.82061E-01-3.49443E-14-2.88256E-13
 -1      2897 3.06527E+01 8.09088E+00-1.09656E-01 8.98270E-01 5.38736E-14-4.08652E-13
 -1      2898 2.69336E+01-4.35805E+00 3.11924E-02-5.16059E+00 3.06380E-13-2.02387E-13
 -1      2899 2.87600E+01-3.58900E+00-4.89122E-02-3.70488E+00 2.54193E-13-3.31971E-13
 -1      2900 2.52471E+01-4.24731E+00 5.52745E-02-5.42513E+00 1.27738E-13-1.85813E-13
 -1      2901 1.49753E+01-2.71289E+00 1.32539E-01-8.31485E+00 9.57012E-14 4.62269E-14
 -1      2902 1.80319E+01-3.62988E+00 4.03145E-02-8.48273E+00 1.64729E-13 4.58938E-14
 -1      2903 2.06977E+01-3.45846E+00 1.28225E-01-7.25734E+00 1.13715E-13 1.88747E-13
 -1      2904 1.48490E+01-1.51946E+00 1.42597E-01-7.49833E+00 5.42622E-14-1.23943E-13
 -1      2905 3.13706E+01-8.46214E-01-1.65827E-01 4.43944E-01-2.49863E-13 1.87364E-13
 -1      2906 2.99458E+01-2.67866E+00-2.52403E-02 2.19737E+00-2.47843E-13 1.71377E-13
 -1      2907 3.02743E+01-1.97697E-01-5.41711E-02-6.87267E-01-1.55140E-13 9.72833E-15
 -1      2908 1.99295E+01 2.54043E+00 3.43939E-03 4.56074E-03 6.04498E-14-3.48941E-13
 -1      2909 1.97907E+01 2.87173E+00-5.48746E-03-6.17829E-02 4.77594E-14-3.61400E-13
 -1      2910 1.97983E+01 2.85706E+00-5.54696E-03-2.16233E-01 1.57955E-14-3.77887E-13
 -1      2911 2.03354E+01 9.12626E-01 1.70989E-02 8.97766E-01 2.40381E-13-3.18448E-14
 -1      2912 2.03854E+01 1.29581E+00-1.58336E-02 1.24527E+00 2.81496E-13-4.83908E-14
 -1      2913 2.03100E+01 1.64615E+00 1.84069E-03 1.25388E+00 2.75796E-13-1.06084E-13
 -1      2914 2.02365E+01 7.54029E-01 5.68228E-04 7.09588E-01 2.19239E-13-4.75777E-14
 -1      2915 1.01146E+01 1.97056E-01 1.96450E-01 6.12456E+00-9.04277E-14-1.19876E-13
 -1      2916 1.18822E+01 3.45313E+00 1.60458E-01-1.62583E+00-1.15907E-13-3.40644E-13
 -1      2917 2.03070E+01 1.73129E+00-8.00477E-03-1.31752E+00-2.14221E-13-2.65464E-13
 -1      2918 2.02924E+01 1.32713E+00-5.91204E-03-1.03815E+00-1.87291E-13-2.57093E-13
 -1      2919 2.86950E+01-2.82370E+00-9.21261E-02 1.28418E+00-2.18483E-13 2.06862E-13
 -1      2920 2.87793E+01-3.68399E+00-1.54385E-02 3.03671E+00-2.21691E-13 1.29917E-13
 -1      2921 2.69983E+01-3.81057E+00 8.69617E-02 3.72258E+00-1.30640E-13 5.70950E-14
 -1      2922 2.02800E+01 1.41457E+00 4.78441E-03-9.39397E-01-1.58350E-13-2.78678E-13
 -1      2923 9.19724E+00 1.50346E+00 2.18402E-01-4.40963E+00 1.00642E-13-9.85878E-14
 -1      2924 1.14553E+01 1.03194E+00 1.03487E-01-5.25245E+00 1.19824E-13-8.63198E-14
 -1      2925 1.00209E+01 2.56592E+00 1.30262E-01-2.61493E+00 2.40079E-13-1.13243E-13
 -1      2926 2.00702E+01 2.20292E+00 4.56309E-03-7.36074E-01-1.06387E-13-3.65135E-13
 -1      2927 1.99720E+01 2.48878E+00-5.67546E-03-9.00768E-01-1.09893E-13-3.86653E-13
 -1      2928 2.00367E+01 2.34061E+00-9.62479E-03-1.03239E+00-1.38415E-13-3.75571E-13
 -1      2929 2.02518E+01 8.21504E-01-1.02416E-02 6.73593E-01 2.20342E-13-9.41636E-14
 -1      2930 1.98140E+01 2.82151E+00-5.70652E-03-3.51041E-01-8.60711E-15-3.62328E-13
 -1      2931 1.98384E+01 2.77310E+00-6.21126E-03-5.04425E-01-4.03654E-14-3.77833E-13
 -1      2932 1.99914E+01 2.39765E+00 4.24129E-03-5.06329E-01-6.41373E-14-3.64231E-13
 -1      2933 1.99443E+01 2.50636E+00 3.63781E-03-2.55140E-01-3.05013E-16-3.41003E-13
 -1      2934 1.99712E+01 8.52118E-02 1.25718E-03 5.17411E-02 1.99366E-13-8.16383E-14
 -1      2935 1.99292E+01 1.16701E-01-1.06039E-03 4.98217E-02 1.76200E-13 1.30692E-13
 -1      2936 1.99183E+01 1.11480E-01 1.40090E-03 4.68833E-03 6.94433E-14-3.43050E-13
 -1      2937 1.99943E+01 3.45058E-02-5.37816E-05 2.46788E-02 4.47872E-13-2.60377E-13
 -1      2938 1.99914E+01 5.36750E-02-1.88893E-04 4.38186E-02-2.43127E-14-3.19277E-13
 -1      2939 3.13522E+01 5.80640E+00-1.14408E-01 1.77530E+00 1.85796E-13-2.50910E-13
 -1      2940 1.52780E+01 3.10733E+00 1.09522E-01 1.28498E+00-5.31511E-14-1.24088E-13
 -1      2941 2.00161E+01-1.39680E-01 9.95519E-04 1.19336E-01-1.12590E-13-5.97190E-13
 -1      2942 2.97583E+01 7.74545E+00-1.34646E-01-8.17239E-01-1.75165E-13-4.35471E-13
 -1      2943 2.00408E+01-1.69971E-01 3.45108E-04 1.30278E-01-2.43091E-13-4.89898E-13
 -1      2944 2.96175E+01-3.06461E+00-5.12978E-02-2.25423E+00 1.48971E-13-2.25417E-13
 -1      2945 2.95750E+01-2.04511E+00-5.11445E-02-6.82606E-01 1.49797E-13 3.64292E-14
 -1      2946 2.76996E+01-3.64636E+00 3.60598E-03-2.98277E+00-7.01713E-14-3.46129E-14
 -1      2947 1.21706E+01 3.44532E+00 1.63577E-01 1.99006E+00 1.00565E-13 3.13652E-13
 -1      2948 3.14531E+01 1.47912E+00-8.67209E-02 1.09824E+00 2.82302E-13-1.60510E-13
 -1      2949 2.99259E+01 4.34777E+00-7.94797E-02-1.98631E+00-9.52988E-14-2.45720E-13
 -1      2950 7.41601E+00 2.45857E+00 2.29874E-01 1.20620E+00 4.04681E-14 2.61291E-13
 -1      2951 9.50067E+00 2.99325E+00 1.50615E-01 6.01371E-01 2.22973E-13 1.70142E-13
 -1      2952 1.63996E+01-2.35269E+00 1.38503E-01 7.83136E+00-1.38070E-13-2.86382E-13
 -1      2953 2.03257E+01 1.42773E+00 1.49484E-02 1.00727E+00 2.49580E-13-1.18467E-13
 -1      2954 8.87263E+00 1.91671E+00 2.46458E-01 3.54111E+00 1.69746E-13 2.17326E-13
 -1      2955 2.29228E+01-4.04915E+00 9.68535E-02 6.68097E+00-8.92342E-15-5.38265E-14
 -1      2956 2.02438E+01 1.46593E+00-1.02401E-02 8.08757E-01 2.21925E-13-1.86617E-13
 -1      2957 2.02011E+01 1.66660E+00-1.04825E-03 7.44623E-01 2.01154E-13-2.26751E-13
 -1      2958 2.00083E+01 1.17476E-03-1.71478E-04-1.78274E-01 1.10971E-13-9.49099E-14
 -1      2959 2.00186E+01 2.68962E-02 1.58467E-03-1.67202E-01 8.97038E-14-9.82476E-14
 -1      2960 2.00723E+01 1.48118E-01-1.13011E-03-8.23823E-02 1.06768E-13-9.44317E-14
 -1      2961 2.01047E+01 2.13046E-01 3.76828E-03-2.97494E-02 1.33244E-13-9.02776E-14
 -1      2962 2.01230E+01 2.90723E-01-1.90668E-03 3.71085E-02 1.46968E-13-1.04802E-13
 -1      2963 2.01719E+01 3.90185E-01 5.70780E-03 1.28110E-01 1.68441E-13-8.65508E-14
 -1      2964 2.01871E+01 3.13282E-01-1.40206E-03 2.86932E-02 1.29887E-13-9.45025E-14
 -1      2965 2.01416E+01 2.17869E+00-9.82948E-05-1.20595E+00-1.57319E-13-3.23654E-13
 -1      2966 2.84633E+01 7.59470E+00-1.55512E-01-1.49110E-01-1.34878E-13-3.38684E-13
 -1      2967 2.80497E+01 6.88177E+00-1.07992E-01-1.10352E+00-1.07025E-13-2.53936E-13
 -1      2968 2.02706E+01 7.14638E-01 4.47021E-03-3.43250E-01-1.20314E-13-2.43375E-13
 -1      2969 2.02269E+01 5.52846E-01-3.20006E-03-2.11939E-01-1.18697E-13-2.43098E-13
 -1      2970 2.02205E+01 4.24092E-01 4.09460E-03-1.17150E-01-1.09587E-13-2.07320E-13
 -1      2971 2.01810E+01 3.16345E-01-2.30606E-03-3.21954E-02-8.45944E-14-2.02798E-13
 -1      2972 2.02722E+01 5.81310E-01 3.07445E-04-1.86899E-01-9.59910E-14-2.72093E-13
 -1      2973 2.01666E+01 2.32759E-01 3.20354E-03 2.95383E-02-1.17329E-13-1.76815E-13
 -1      2974 2.01361E+01 1.61981E-01-1.31969E-03 8.05304E-02-1.46682E-13-2.20121E-13
 -1      2975 2.02356E+01 3.33331E-01-7.82351E-04-2.32824E-02-1.04282E-13-2.25173E-13
 -1      2976 2.01190E+01 1.07748E-01 2.23624E-03 1.16401E-01-1.29214E-13-1.98596E-13
 -1      2977 2.00976E+01 6.22700E-02-6.47665E-04 1.43525E-01-1.10828E-13-2.02576E-13
 -1      2978 2.01944E+01 1.68319E-01-9.96246E-04 7.96016E-02-1.34995E-13-1.71398E-13
 -1      2979 2.00810E+01 2.79091E-02 1.46975E-03 1.61051E-01-1.04685E-13-1.94114E-13
 -1      2980 2.00669E+01-3.83103E-04-2.24394E-04 1.72037E-01-7.06086E-14-2.10131E-13
 -1      2981 2.01547E+01 6.11739E-02-9.49159E-04 1.37289E-01-1.03464E-13-1.70769E-13
 -1      2982 2.00520E+01-2.12985E-02 8.93538E-04 1.77118E-01-4.75792E-14-2.09894E-13
 -1      2983 2.00435E+01-3.79810E-02 2.62135E-05 1.77626E-01-2.03481E-14-2.05213E-13
 -1      2984 2.01197E+01-6.28099E-03-8.18537E-04 1.63187E-01-5.27479E-14-1.92790E-13
 -1      2985 2.00308E+01-4.99088E-02 4.86654E-04 1.74685E-01-9.60359E-16-1.80738E-13
 -1      2986 2.00261E+01-5.89375E-02 1.59902E-04 1.68704E-01 2.34837E-14-1.76264E-13
 -1      2987 2.00904E+01-4.67100E-02-6.71463E-04 1.67759E-01-1.15024E-14-1.91433E-13
 -1      2988 2.00156E+01-6.50719E-02 2.18642E-04 1.60892E-01-1.33477E-14-1.80638E-13
 -1      2989 2.00135E+01-6.93306E-02 2.14403E-04 1.51114E-01-3.76411E-14-2.07218E-13
 -1      2990 2.00665E+01-6.91883E-02-5.35554E-04 1.58751E-01-1.52471E-14-1.70548E-13
 -1      2991 2.00051E+01-7.20273E-02 6.01846E-05 1.40551E-01-1.47031E-14-1.73969E-13
 -1      2992 2.00045E+01-7.36811E-02 2.14645E-04 1.28683E-01 2.96672E-16-1.29317E-13
 -1      2993 2.00476E+01-8.03719E-02-4.22918E-04 1.41588E-01 3.14449E-15-1.38247E-13
 -1      2994 1.99982E+01-7.47450E-02-1.11606E-05 1.16680E-01-2.28044E-14-1.02555E-13
 -1      2995 1.99984E+01-7.54957E-02 1.76409E-04 1.03664E-01-2.58830E-14-2.97529E-14
 -1      2996 2.00331E+01-8.52742E-02-3.40015E-04 1.19838E-01 2.87246E-14-1.34375E-13
 -1      2997 1.99941E+01-7.63935E-02-9.79829E-06 9.08949E-02-6.15008E-14-2.50316E-14
 -1      2998 1.99949E+01-7.76751E-02 1.08515E-04 7.70636E-02-4.48915E-14-4.93755E-14
 -1      2999 2.00228E+01-8.78350E-02-2.91731E-04 9.56096E-02-2.76636E-14-1.21424E-13
 -1      3000 1.99928E+01-7.96984E-02 5.79802E-05 6.36839E-02-9.01882E-14-9.63594E-14
 -1      3001 1.99939E+01-8.28320E-02 1.45084E-05 4.88522E-02-1.25701E-13-1.70936E-13
 -1      3002 2.00165E+01-9.13633E-02-2.84376E-04 6.98457E-02-1.21859E-13-9.24993E-14
 -1      3003 1.99946E+01-8.72268E-02 1.93803E-04 3.45638E-02-1.19497E-13-1.37222E-13
 -1      3004 1.99961E+01-9.35403E-02-1.07270E-04 1.80725E-02-9.82792E-14-1.14756E-13
 -1      3005 2.00148E+01-9.88889E-02-3.27018E-04 4.25210E-02-1.20628E-13-1.17918E-13
 -1      3006 2.00005E+01-1.01597E-01 4.06244E-04 2.13656E-03-8.64857E-14-9.03949E-14
 -1      3007 2.00026E+01-1.12495E-01-2.64212E-04-1.71494E-02-1.06105E-13-2.30441E-14
 -1      3008 2.00190E+01-1.13433E-01-4.31514E-04 1.27318E-02-8.06889E-14-6.59196E-14
 -1      3009 2.00121E+01-1.25576E-01 7.08558E-04-3.59529E-02-1.50456E-13-9.93907E-15
 -1      3010 2.00155E+01-1.42525E-01-4.70286E-04-5.96752E-02-9.97539E-14-4.76185E-14
 -1      3011 2.00309E+01-1.38172E-01-6.10728E-04-2.13209E-02-1.01633E-13-8.06540E-14
 -1      3012 2.00319E+01-1.61977E-01 1.11370E-03-8.31352E-02-6.26639E-14-1.07490E-13
 -1      3013 2.00372E+01-1.86338E-01-7.46489E-04-1.13476E-01-4.91503E-14-1.07179E-13
 -1      3014 2.00538E+01-1.76398E-01-8.73391E-04-6.24565E-02-9.64534E-14-6.28299E-14
 -1      3015 2.00630E+01-2.13228E-01 1.62489E-03-1.44064E-01-4.59509E-14-4.46396E-14
 -1      3016 2.00710E+01-2.45856E-01-1.11945E-03-1.83731E-01 3.12865E-14-4.82645E-14
 -1      3017 2.00916E+01-2.31165E-01-1.21507E-03-1.14732E-01-2.58024E-14 2.16230E-14
 -1      3018 2.01088E+01-2.80424E-01 2.21944E-03-2.24692E-01 8.25254E-14-7.74861E-14
 -1      3019 2.01197E+01-3.20921E-01-1.61420E-03-2.76771E-01 1.65796E-13-8.82877E-14
 -1      3020 2.01492E+01-3.04381E-01-1.60252E-03-1.83687E-01 5.43030E-14-1.93061E-14
 -1      3021 2.01717E+01-3.61671E-01 2.82282E-03-3.32067E-01 1.97381E-13-1.21702E-13
 -1      3022 2.01849E+01-4.07205E-01-2.23350E-03-3.99586E-01 1.63324E-13-1.64247E-13
 -1      3023 2.02315E+01-3.95141E-01-1.95181E-03-2.76479E-01 1.59391E-13-4.34628E-14
 -1      3024 2.02514E+01-4.49586E-01 3.27239E-03-4.73458E-01 8.66269E-14-1.46175E-13
 -1      3025 2.02647E+01-4.93317E-01-2.90761E-03-5.58443E-01 1.19954E-13-7.73739E-14
 -1      3026 2.03413E+01-4.97037E-01-2.10347E-03-4.01559E-01 1.58870E-13-1.12876E-13
 -1      3027 2.03424E+01-5.28200E-01 3.30315E-03-6.54130E-01 1.66082E-13-3.47377E-14
 -1      3028 2.03511E+01-5.57777E-01-3.43571E-03-7.55844E-01 1.20163E-13 2.63446E-14
 -1      3029 2.04770E+01-5.94548E-01-1.81381E-03-5.67216E-01 1.76150E-13-2.57046E-14
 -1      3030 2.04307E+01-5.70491E-01 2.55007E-03-8.73000E-01 5.57851E-14-9.10798E-15
 -1      3031 2.04277E+01-5.67686E-01-3.44789E-03-9.85374E-01 5.87832E-14 8.09751E-14
 -1      3032 2.06281E+01-6.59589E-01-8.23973E-04-7.77869E-01 1.13387E-13-3.57404E-14
 -1      3033 2.04929E+01-5.38825E-01 6.85278E-04-1.11611E+00 5.53844E-14 7.60026E-14
 -1      3034 2.04698E+01-4.81833E-01-2.36742E-03-1.22481E+00 8.85844E-14 8.74574E-14
 -1      3035 2.07722E+01-6.50581E-01 1.00438E-03-1.02743E+00 7.51601E-14-1.32654E-13
 -1      3036 2.04987E+01-3.91375E-01-2.23343E-03-1.34909E+00 7.75409E-14 1.05057E-13
 -1      3037 2.04486E+01-2.61767E-01 3.03705E-04-1.42951E+00 3.98332E-14 1.18325E-13
 -1      3038 2.08744E+01-5.17862E-01 3.53349E-03-1.29014E+00 9.19320E-14-1.19553E-13
 -1      3039 2.04205E+01-9.82691E-02-5.81223E-03-1.51251E+00-3.95432E-14 1.67382E-13
 -1      3040 2.03435E+01 1.07115E-01 4.33650E-03-1.53163E+00-8.66489E-14 2.00682E-13
 -1      3041 2.08941E+01-2.19297E-01 5.98736E-03-1.51171E+00 5.30290E-14-2.93758E-14
 -1      3042 2.02520E+01 3.33944E-01-8.75624E-03-1.52794E+00-7.62477E-14 2.37868E-13
 -1      3043 2.01586E+01 5.89203E-01 8.36500E-03-1.45288E+00 4.22432E-16 2.46981E-13
 -1      3044 2.08033E+01 2.50911E-01 6.47420E-03-1.60896E+00-1.57512E-14 1.36331E-13
 -1      3045 2.00252E+01 8.38195E-01-9.10234E-03-1.32276E+00-6.50734E-14 3.14390E-13
 -1      3046 1.99373E+01 1.08367E+00 1.01438E-02-1.13697E+00-9.10580E-14 3.02967E-13
 -1      3047 2.06114E+01 8.32297E-01 3.72383E-03-1.48863E+00-2.22407E-14 2.51527E-13
 -1      3048 1.98132E+01 1.28655E+00-5.59957E-03-8.72704E-01-1.08933E-13 2.91733E-13
 -1      3049 1.97570E+01 1.44639E+00 8.01614E-03-5.92777E-01-1.02663E-13 2.89444E-13
 -1      3050 2.03827E+01 1.38879E+00-1.43130E-03-1.09331E+00-1.05122E-13 2.69523E-13
 -1      3051 1.96990E+01 1.53562E+00 6.99871E-04-2.36145E-01-7.57047E-14 3.21632E-13
 -1      3052 1.96930E+01 1.55288E+00 2.20606E-03 8.62336E-02-2.32192E-13 3.51669E-13
 -1      3053 2.02184E+01 1.75014E+00-5.87835E-03-4.54712E-01-1.00966E-13 2.27251E-13
 -1      3054 1.97309E+01 1.49503E+00 6.95556E-03 4.53198E-01-2.46301E-13 4.45020E-13
 -1      3055 1.97775E+01 1.36298E+00-4.41174E-03 7.47989E-01-5.46105E-14 3.76274E-13
 -1      3056 2.02000E+01 1.78893E+00-6.48799E-03 2.96013E-01-1.58517E-13 4.45695E-13
 -1      3057 1.98918E+01 1.17993E+00 1.00285E-02 1.03786E+00-1.10395E-13 2.69212E-13
 -1      3058 1.99751E+01 9.46957E-01-8.68044E-03 1.24705E+00-2.97715E-14 2.23725E-13
 -1      3059 2.03378E+01 1.49079E+00-2.62569E-03 9.73822E-01-1.27271E-13 3.58947E-13
 -1      3060 2.01114E+01 7.02113E-01 8.93740E-03 1.40745E+00 1.48704E-14 1.82727E-13
 -1      3061 2.02059E+01 4.43529E-01-9.18070E-03 1.50653E+00-4.41539E-14 1.36776E-13
 -1      3062 2.05614E+01 9.63100E-01 2.67437E-03 1.42866E+00-1.08726E-13 3.85653E-14
 -1      3063 2.03093E+01 2.07807E-01 5.13324E-03 1.53559E+00-1.58011E-13 4.18419E-14
 -1      3064 2.03915E+01-1.12543E-02-6.67826E-03 1.53508E+00-2.43053E-13-1.20197E-13
 -1      3065 2.07685E+01 3.74593E-01 5.97259E-03 1.60704E+00-2.08915E-13 4.22833E-14
 -1      3066 2.04335E+01-1.89867E-01 9.88055E-04 1.46771E+00-1.93862E-13-1.15727E-13
 -1      3067 2.04900E+01-3.36047E-01-3.03981E-03 1.39842E+00-9.29754E-14-1.31871E-13
 -1      3068 2.08839E+01-1.26384E-01 6.13176E-03 1.55099E+00-1.98132E-13-1.94997E-14
 -1      3069 2.04718E+01-4.41449E-01-1.94729E-03 1.28046E+00 6.08489E-15-7.76428E-14
 -1      3070 2.05006E+01-5.12365E-01 2.10537E-04 1.17640E+00 5.91007E-14-4.75959E-14
 -1      3071 2.08865E+01-4.62504E-01 4.13781E-03 1.35011E+00-2.03942E-14 1.27805E-13
 -1      3072 2.04408E+01-5.52312E-01-3.33722E-03 1.04581E+00 5.10772E-14 1.38607E-15
 -1      3073 2.04477E+01-5.64087E-01 2.33653E-03 9.33909E-01 2.68865E-14 4.07625E-14
 -1      3074 2.07983E+01-6.26989E-01 1.63389E-03 1.09227E+00 4.98855E-14 9.57904E-14
 -1      3075 2.03688E+01-5.57705E-01-3.53252E-03 8.14200E-01 3.89867E-14-5.45014E-15
 -1      3076 2.03622E+01-5.32466E-01 3.29031E-03 7.11057E-01 1.97167E-13-7.16725E-14
 -1      3077 2.06588E+01-6.56621E-01-4.46277E-04 8.39092E-01 1.39004E-14 2.20499E-13
 -1      3078 2.02823E+01-5.00153E-01-3.09185E-03 6.12329E-01 1.95636E-13-1.64700E-13
 -1      3079 2.02698E+01-4.57458E-01 3.36241E-03 5.25455E-01 2.78371E-13-2.10375E-13
 -1      3080 2.05055E+01-6.01505E-01-1.63068E-03 6.22261E-01 1.94684E-13-1.59266E-13
 -1      3081 2.01996E+01-4.15051E-01-2.44951E-03 4.49052E-01 4.06100E-13-3.42180E-13
 -1      3082 2.01865E+01-3.68240E-01 3.03643E-03 3.80056E-01 3.40959E-13-4.37793E-13
 -1      3083 2.03639E+01-5.06490E-01-2.09727E-03 4.50856E-01 2.62422E-13-6.28725E-13
 -1      3084 2.01302E+01-3.26387E-01-1.84205E-03 3.23866E-01 2.73182E-13-2.94433E-13
 -1      3085 2.01192E+01-2.84343E-01 2.34762E-03 2.71070E-01 2.56554E-14-1.70426E-13
 -1      3086 2.02463E+01-4.02275E-01-2.02329E-03 3.22014E-01 3.65325E-13-6.25601E-13
 -1      3087 2.00773E+01-2.48772E-01-1.43092E-03 2.30175E-01-2.41611E-13-1.39338E-13
 -1      3088 2.00703E+01-2.15011E-01 1.67262E-03 1.90310E-01-2.40105E-13-2.21791E-13
 -1      3089 2.01571E+01-3.06765E-01-1.03130E-03 2.28900E-01-2.84415E-15-4.79044E-13
 -1      3090 2.00478E+01-1.88369E-01-3.34410E-04 1.51837E-01-4.20531E-13-3.20510E-13
 -1      3091 1.99914E+01-3.36959E-02 4.84474E-05-1.84033E-01 9.08322E-14-1.02764E-13
 -1      3092 1.99954E+01-1.82888E-02 9.21983E-04-1.83895E-01 1.11701E-13-9.93199E-14
 -1      3093 2.00697E+01-4.52690E-03-8.95081E-04-1.72721E-01 1.22882E-13-1.50103E-13
 -1      3094 1.98957E+01 1.32935E-01-4.38982E-04 1.22324E-02 1.25750E-13-2.42722E-13
 -1      3095 1.98839E+01 1.52389E-01-4.62268E-04 2.46920E-02 3.92023E-14-1.99700E-13
 -1      3096 1.98777E+01 1.38421E-01 5.63896E-04-2.24750E-02 1.16990E-13-6.41065E-13
 -1      3097 2.00343E+01 5.77417E-02-5.04926E-04-1.48427E-01 6.13146E-14-8.48648E-14
 -1      3098 2.00539E+01 9.90340E-02 2.47748E-03-1.20808E-01 7.39015E-14-8.40960E-14
 -1      3099 2.01412E+01 1.57830E-01-1.36286E-03-8.22492E-02 8.82088E-14-7.35086E-14
 -1      3100 1.99823E+01-5.12827E-02 1.93989E-04-1.74493E-01 5.94457E-14-8.84215E-14
 -1      3101 1.99819E+01-4.37038E-02 4.42535E-04-1.80792E-01 6.00195E-14-1.22159E-13
 -1      3102 2.00459E+01-4.18450E-02-7.12208E-04-1.77599E-01 7.07102E-14-1.37459E-13
 -1      3103 1.99779E+01-5.90136E-02 2.47442E-04-1.56753E-01-3.50245E-15-4.03920E-14
 -1      3104 1.99752E+01-5.61173E-02 1.24901E-04-1.66487E-01 3.96802E-14-3.69574E-14
 -1      3105 2.00290E+01-6.10032E-02-5.24112E-04-1.68102E-01 1.26343E-14-7.33814E-14
 -1      3106 1.99765E+01-6.01606E-02 2.55615E-04-1.35017E-01 5.22257E-14-5.43216E-14
 -1      3107 1.99727E+01-6.03122E-02-6.75848E-05-1.46237E-01 2.49159E-14-5.93312E-14
 -1      3108 2.00169E+01-6.90383E-02-3.71367E-04-1.50657E-01 2.11483E-14-8.37232E-14
 -1      3109 1.99767E+01-5.68064E-02 2.57397E-04-1.12158E-01 3.56144E-14-3.57858E-14
 -1      3110 1.99726E+01-5.90658E-02-1.87932E-04-1.23545E-01 5.77749E-14-4.11753E-14
 -1      3111 2.00084E+01-6.96583E-02-2.44532E-04-1.29308E-01 4.16560E-14-5.28193E-14
 -1      3112 1.99772E+01-4.94898E-02 2.35500E-04-8.91013E-02-1.59419E-14-1.24899E-13
 -1      3113 1.99734E+01-5.37396E-02-2.72465E-04-1.00194E-01 1.28983E-14-8.14854E-14
 -1      3114 2.00018E+01-6.49091E-02-1.39793E-04-1.06210E-01 4.53230E-14-5.24064E-14
 -1      3115 1.99765E+01-3.86711E-02 2.06854E-04-6.96106E-02-1.88067E-14-9.69880E-14
 -1      3116 1.99738E+01-4.47908E-02-3.63519E-04-7.85659E-02 1.93357E-14-1.08062E-13
 -1      3117 1.99962E+01-5.57070E-02 3.46352E-06-8.38009E-02 5.66357E-16-1.31754E-13
 -1      3118 1.99728E+01-2.25122E-02 1.84750E-04-5.39710E-02 4.40144E-14-1.39660E-13
 -1      3119 1.99719E+01-3.16471E-02-4.81484E-04-6.04476E-02 4.84653E-15-1.20563E-13
 -1      3120 1.99895E+01-4.18806E-02 1.68128E-04-6.38907E-02 1.70539E-14-2.52013E-13
 -1      3121 1.99630E+01 2.38330E-03 1.45493E-04-4.38566E-02 1.37106E-13-1.38445E-13
 -1      3122 1.99651E+01-1.17445E-02-6.84290E-04-4.66897E-02 1.39324E-13-1.25659E-13
 -1      3123 1.99792E+01-2.10943E-02 4.23128E-04-4.68807E-02 9.01695E-14-2.49773E-13
 -1      3124 1.99416E+01 4.19383E-02 5.36054E-05-4.15001E-02 1.29828E-13-9.19877E-14
 -1      3125 1.99492E+01 1.94401E-02-1.03907E-03-3.90193E-02 1.33130E-13-7.91950E-14
 -1      3126 1.99606E+01 1.09810E-02 8.52449E-04-3.36153E-02 1.21084E-13-1.78318E-13
 -1      3127 1.98993E+01 1.05629E-01-1.57221E-04-4.98671E-02 7.48962E-14-1.77175E-13
 -1      3128 1.99166E+01 6.93403E-02-1.68124E-03-3.96966E-02 1.81494E-13-9.33633E-14
 -1      3129 1.99265E+01 6.16751E-02 1.61099E-03-2.47754E-02 1.42861E-13-9.11922E-15
 -1      3130 1.98129E+01 2.14485E-01-7.75264E-04-7.38480E-02-3.66222E-14-1.50110E-13
 -1      3131 1.98517E+01 1.52755E-01-2.67921E-03-5.15905E-02-3.65599E-14-2.03675E-13
 -1      3132 1.98618E+01 1.44641E-01 2.84141E-03-2.03760E-02 1.61875E-14-4.39767E-14
 -1      3133 1.96581E+01 3.80433E-01-2.38248E-03-1.13597E-01-2.48177E-14-1.83943E-13
 -1      3134 1.97311E+01 2.87273E-01-4.26451E-03-7.81614E-02-1.38936E-14-1.44954E-13
 -1      3135 1.97448E+01 2.76974E-01 5.22898E-03-1.80536E-02-4.40644E-14-1.31316E-13
 -1      3136 1.93789E+01 6.36365E-01-5.53295E-03-1.67913E-01-7.10420E-14-1.26240E-13
 -1      3137 1.95176E+01 4.94472E-01-6.49513E-03-1.17004E-01-1.59893E-14-1.62299E-13
 -1      3138 1.95422E+01 4.76710E-01 8.93600E-03-1.04969E-02-2.75805E-14-1.85045E-13
 -1      3139 1.88841E+01 1.01599E+00-1.15525E-02-2.22597E-01-1.77406E-13-6.60613E-14
 -1      3140 1.91412E+01 8.08786E-01-9.66504E-03-1.60533E-01-1.55979E-13-1.13189E-13
 -1      3141 1.91931E+01 7.74084E-01 1.50715E-02 2.15937E-02-1.40543E-13-2.00560E-13
 -1      3142 1.80266E+01 1.54329E+00-2.26151E-02-2.38689E-01-1.44030E-13 8.91182E-15
 -1      3143 1.84908E+01 1.26203E+00-1.38865E-02-1.82438E-01-1.24730E-13-4.71084E-14
 -1      3144 1.86050E+01 1.19390E+00 2.51403E-02 1.19878E-01-1.89080E-13-1.07376E-13
 -1      3145 1.64908E+01 2.23793E+00-3.32377E-02-1.17819E-01-5.60281E-14-4.87414E-14
 -1      3146 1.73578E+01 1.88529E+00-1.55711E-02-1.15905E-01-6.03575E-14-4.77899E-14
 -1      3147 1.76060E+01 1.74963E+00 4.18620E-02 3.74411E-01-5.44488E-14 8.08511E-15
 -1      3148 1.42475E+01 2.91119E+00-7.27106E-03 3.11228E-01-3.98917E-14-2.32512E-13
 -1      3149 1.54795E+01 2.56983E+00-1.22457E-02 1.48862E-01 1.13572E-14-1.23490E-13
 -1      3150 1.59984E+01 2.34730E+00 7.21561E-02 9.41275E-01 3.45477E-14-2.05504E-14
 -1      3151 1.07361E+01 1.15439E+00 2.88062E-01 5.23781E+00 3.13083E-14 2.73642E-13
 -1      3152 1.98769E+01 1.13730E-01 2.48488E-03-1.06912E-01 1.05246E-15-6.98872E-13
 -1      3153 1.98682E+01 1.21943E-01-1.99670E-03-6.93309E-02 1.32881E-13-7.67495E-13
 -1      3154 1.98509E+01 1.50613E-01 1.30885E-04-6.34370E-02 2.15205E-13-7.00131E-13
 -1      3155 1.98437E+01 2.03785E-01-1.00731E-03 4.58943E-02-3.38614E-14-2.87402E-13
 -1      3156 1.99217E+01 4.63596E-02 2.97256E-03-1.75189E-01 1.42011E-13 9.10037E-13
 -1      3157 1.98905E+01 7.06657E-02-2.44302E-03-1.47472E-01 7.24692E-14 2.81946E-13
 -1      3158 1.98666E+01 9.88878E-02-1.38983E-03-1.54814E-01 3.49652E-13 1.52226E-13
 -1      3159 2.01836E+01 5.08914E-01-3.73071E-03 2.27370E-01 1.55796E-13-1.11421E-13
 -1      3160 2.02426E+01 6.51096E-01 9.08207E-04 3.74259E-01 1.72294E-13-1.31244E-13
 -1      3161 2.02371E+01 5.35710E-01-4.60847E-03 2.06624E-01 1.44795E-13-1.16168E-13
 -1      3162 2.01677E+01-2.48593E-01 1.32493E-03-6.08252E-02-2.04113E-13-8.42758E-14
 -1      3163 2.01556E+01-2.34404E-01 1.45159E-04-1.00590E-01-3.26140E-13-2.48974E-13
 -1      3164 2.01335E+01-2.00908E-01 2.21363E-03-1.46920E-01-3.21176E-13-4.41925E-13
 -1      3165 2.01013E+01-1.74505E-01-1.02517E-03-1.77083E-01-1.29690E-13 7.57937E-14
 -1      3166 2.01741E+01-2.50872E-01-2.32017E-03-1.48326E-01-3.73560E-13-3.61453E-13
 -1      3167 2.01175E+01-2.35713E-01 5.57795E-04 1.11138E-01-3.84290E-13-4.41239E-13
 -1      3168 2.01428E+01-2.48153E-01 1.90711E-03 8.05647E-02-2.76220E-13-6.48413E-13
 -1      3169 1.72843E+01 1.93654E+00-1.80841E-02 1.76633E-01 1.53074E-13-6.64651E-14
 -1      3170 1.64588E+01 2.29179E+00-2.90744E-02 1.92829E-01 2.70946E-14-1.32225E-13
 -1      3171 1.91144E+01 8.49551E-01-1.00682E-02 1.76985E-01-2.90523E-13 1.52251E-13
 -1      3172 1.88480E+01 1.06389E+00-1.15793E-02 2.48865E-01-3.75650E-13 2.01882E-13
 -1      3173 2.02442E+01 1.67952E+00-7.83203E-04-9.79065E-01-1.43704E-13-3.01695E-13
 -1      3174 2.02501E+01 1.39927E+00-3.19894E-03-8.01536E-01-1.24082E-13-3.08269E-13
 -1      3175 2.88845E+01 2.96816E-01-1.70569E-01-1.46076E+00-9.32449E-14-1.87711E-13
 -1      3176 2.91760E+01-1.17989E+00 2.60237E-02-4.79656E-01-2.47156E-13 3.26891E-14
 -1      3177 1.52097E+01 2.69370E+00-1.62440E-02-1.05180E-02-2.40849E-14-1.69647E-13
 -1      3178 1.39601E+01 3.06731E+00 2.14823E-02 5.44091E-02-4.83988E-15-1.13885E-13
 -1      3179 1.84339E+01 1.31919E+00-1.41410E-02 2.16182E-01-4.14721E-13 2.07840E-13
 -1      3180 1.79524E+01 1.61046E+00-2.12921E-02 2.83585E-01 4.14408E-14 9.75628E-14
 -1      3181 1.75222E+01 1.81970E+00 4.50807E-02-3.41789E-01-7.46311E-14 1.33745E-13
 -1      3182 2.02609E+01 1.10222E+00 2.26906E-03 7.06166E-01 2.12562E-13-1.29674E-13
 -1      3183 6.68398E+00 1.96138E+00 2.30145E-01 1.82720E+00-7.20396E-14-1.59511E-13
 -1      3184 9.16759E+00 2.92845E+00 1.64107E-01 2.07508E-02-7.80513E-14-2.94820E-13
 -1      3185 2.01614E+01-2.61142E-01 1.65564E-04 3.17719E-02-2.54803E-13-4.72801E-13
 -1      3186 2.01695E+01-2.58475E-01 1.24054E-03-9.04886E-03-2.07905E-13-2.05290E-13
 -1      3187 2.02022E+01-2.92512E-01-2.71639E-03-4.25271E-02-3.56059E-13-2.15796E-13
 -1      3188 2.01891E+01-2.91232E-01-3.79701E-04 6.34136E-02-3.53548E-13-6.13859E-13
 -1      3189 2.41126E+01-4.20536E+00-1.02250E-01 5.60454E+00-1.10190E-14-1.50383E-14
 -1      3190 2.15155E+01-3.38483E+00 1.44593E-01 6.63927E+00-2.69576E-14-4.65530E-14
 -1      3191 1.82198E+01-2.50292E+00-3.20789E-02 7.19054E+00-4.87527E-14-1.85456E-13
 -1      3192 1.55895E+01-1.09972E+00 1.80364E-01 6.98980E+00-6.56072E-14-3.17017E-13
 -1      3193 1.12670E+01 3.21136E+00 6.11469E-02 4.81642E-01-9.37254E-14-1.93526E-13
 -1      3194 1.95091E+01 5.23146E-01-6.75802E-03 1.19073E-01-2.59126E-13 1.35037E-14
 -1      3195 1.93653E+01 6.70229E-01-5.38258E-03 1.77690E-01-3.12474E-13-1.56312E-13
 -1      3196 1.91597E+01 8.19084E-01 1.58994E-02-1.72791E-02-1.19715E-13 5.25467E-14
 -1      3197 1.11851E+01 3.29893E+00 7.43778E-02 2.41519E-01 1.15479E-13 4.86139E-14
 -1      3198 1.24888E+01-7.76091E-02 3.84157E-02 6.49288E+00-9.38694E-14-1.97953E-13
 -1      3199 1.00701E+01 1.45374E+00 2.19148E-01 4.75295E+00-8.36553E-14-1.70391E-13
 -1      3200 1.50632E+01-1.31573E-01 1.14274E-01 5.97946E+00-5.36932E-14-2.50980E-13
 -1      3201 3.00884E+01 2.95168E-01-5.62335E-02 1.04532E+00 1.44489E-13-5.09107E-14
 -1      3202 3.01632E+01 2.35191E+00-1.76898E-01 1.83582E+00 1.30618E-13-2.33438E-13
 -1      3203 2.02853E+01 1.13256E+00 1.99571E-03-6.47268E-01-1.08696E-13-2.85422E-13
 -1      3204 2.02544E+01 8.93095E-01-5.09361E-03-4.62666E-01-1.23842E-13-2.64036E-13
 -1      3205 2.02840E+01 9.34479E-01 9.44760E-04-4.10163E-01-1.20239E-13-3.17819E-13
 -1      3206 2.02536E+01 1.40341E+00 2.56934E-03-6.85205E-01-1.14197E-13-3.18242E-13
 -1      3207 1.97336E+01 3.09717E-01-4.17114E-03 6.79805E-02 6.34324E-14-2.24955E-13
 -1      3208 1.96574E+01 4.04820E-01-2.43242E-03 1.11394E-01-6.46875E-14-1.02575E-13
 -1      3209 1.95276E+01 5.08527E-01 9.10360E-03 4.65218E-03-4.69484E-14-2.92894E-13
 -1      3210 7.97184E+00 2.00798E+00 7.11339E-02 3.21868E+00-7.17759E-14-6.52256E-14
 -1      3211 2.81125E+01 4.96700E+00-1.57013E-01-2.02302E+00 2.39669E-14-3.16629E-13
 -1      3212 2.87851E+01 2.92134E+00-1.10904E-02-2.20543E+00 3.02813E-14-1.86018E-13
 -1      3213 2.91050E+01 7.36374E+00-1.19572E-01 1.15266E+00 7.73825E-14-3.52506E-13
 -1      3214 2.86459E+01 7.66925E+00-1.74557E-01 4.38766E-01-9.13991E-14-3.80318E-13
 -1      3215 2.72665E+01 6.89465E+00-9.12025E-02 8.87991E-02-7.82707E-14-2.91492E-13
 -1      3216 2.42171E+01-3.71850E+00 4.81056E-02-4.98446E+00-8.63424E-14 8.14587E-14
 -1      3217 2.58599E+01-3.98018E+00-3.63211E-02-4.11157E+00-3.70988E-14 3.05394E-14
 -1      3218 2.00415E+01 2.16237E+00-4.32479E-03 2.91821E-01 1.14066E-13-3.25743E-13
 -1      3219 2.00281E+01 2.20129E+00-3.33201E-03 1.70336E-01 8.01874E-14-3.43925E-13
 -1      3220 2.99585E+01 4.58046E+00-7.46305E-02 2.13411E+00 1.69892E-13-2.62568E-13
 -1      3221 2.94841E+01 6.14449E+00-1.87327E-01 1.78850E+00 2.36908E-13-1.76748E-13
 -1      3222 1.18373E+01 3.04524E+00 1.23407E-01-1.14865E+00 1.91890E-13-6.38101E-14
 -1      3223 2.02691E+01 9.53079E-01 5.85206E-03 5.32199E-01 1.96407E-13-1.45689E-13
 -1      3224 1.22666E+01 2.87706E+00 1.30621E-01 1.63628E+00-6.74460E-14-1.62075E-13
 -1      3225 2.00592E+01 2.11306E+00-3.06934E-03-3.82294E-01-4.75504E-14-3.32112E-13
 -1      3226 2.00844E+01 2.03513E+00-5.19483E-03-4.96095E-01-8.93656E-14-3.46341E-13
 -1      3227 2.01015E+01 5.85177E-02-1.16991E-03-1.44506E-01 8.03886E-14-7.29511E-14
 -1      3228 2.01047E+01 2.15538E+00-2.95086E-03-1.04707E+00-1.33177E-13-3.51225E-13
 -1      3229 2.80572E+01-2.07487E+00-1.80346E-02 3.93907E-01-1.87483E-13 1.76560E-14
 -1      3230 2.03688E+01-2.47387E+00 1.00499E-01 6.12240E+00-6.81399E-15-3.75047E-15
 -1      3231 1.97697E+01 2.65917E-01 4.10757E-03-6.47647E-03 7.89478E-15-5.29136E-13
 -1      3232 1.29669E+01 1.30572E+00 1.00897E-01-4.68499E+00 1.38084E-13 2.90393E-14
 -1      3233 1.35066E+01 1.70354E-01 1.36416E-01-6.15861E+00-3.56312E-14 4.22162E-14
 -1      3234 2.66609E+01-3.44742E+00-1.12234E-03-2.69817E+00-1.68350E-13 1.71269E-13
 -1      3235 2.55500E+01-3.69850E+00 2.10639E-02 3.96840E+00-6.24709E-14 8.81205E-14
 -1      3236 2.00986E+01-2.30651E-01-1.49431E-05 1.49114E-01-3.96853E-13-4.92108E-13
 -1      3237 1.65046E+01-5.14375E-01 8.18939E-02-5.88961E+00-2.18915E-13 1.15949E-13
 -1      3238 1.53337E+01-9.37938E-01 8.10822E-02-6.71596E+00-1.61544E-13-4.55191E-14
 -1      3239 1.80119E+01-2.18946E+00 5.19846E-02-7.09782E+00-1.19765E-13 1.15186E-14
 -1      3240 2.01666E+01 1.87701E+00 2.09079E-03-8.42121E-01-1.17098E-13-3.50470E-13
 -1      3241 2.01957E+01 1.70439E+00 5.03446E-03-4.52397E-01-1.03472E-13-3.30691E-13
 -1      3242 2.01172E+01 1.94337E+00-2.27597E-03-5.83218E-01-1.08630E-13-3.50153E-13
 -1      3243 2.01540E+01 1.81772E+00-5.07175E-03-6.77473E-01-1.15544E-13-3.63524E-13
 -1      3244 2.02765E+01 9.97730E-01 2.96979E-03 4.79861E-01 1.79447E-13-1.66297E-13
 -1      3245 1.99522E+01-7.99729E-03-1.63528E-03-1.94370E-01 8.36242E-14 6.67340E-13
 -1      3246 1.99331E+01 1.14500E-02-1.59154E-03-2.12326E-01 3.02444E-13 7.15265E-13
 -1      3247 1.99935E+01-4.29208E-02 2.64813E-03-2.04441E-01 7.13726E-14 4.57433E-13
 -1      3248 2.01408E+01-2.71983E-01-1.03755E-03 1.50273E-01-2.52261E-13-6.53775E-13
 -1      3249 1.57396E+01 2.47464E+00 7.48686E-02-8.32481E-01-1.33704E-14-2.81290E-14
 -1      3250 2.81804E+01-2.19475E+00-8.42689E-03-4.73795E-01-4.67612E-14 2.60816E-13
 -1      3251 2.93896E+01-1.28243E+00-8.08690E-02 3.43649E-01 1.30307E-13 9.38277E-14
 -1      3252 2.85839E+01-1.20317E-01-1.91505E-02 1.27716E+00-5.28293E-14-3.87954E-14
 -1      3253 1.85411E+01 1.25648E+00 2.69002E-02-1.04896E-01-3.13174E-13 3.76029E-13
 -1      3254 2.78146E+01 1.47607E+00-2.62689E-02-1.89820E+00-8.30933E-15-2.03441E-13
 -1      3255 2.89008E+01 3.07192E+00-6.79554E-02 2.09165E+00 1.72307E-13-1.15283E-13
 -1      3256 2.61458E+01 5.82890E+00-6.08458E-02-1.14220E+00-2.78250E-14-2.85941E-13
 -1      3257 2.72519E+01 5.59132E+00-8.45678E-02-1.71815E+00-2.43694E-14-2.25889E-13
 -1      3258 2.63205E+01 4.19563E+00-3.73605E-02-1.87915E+00 1.97585E-14-1.23323E-13
 -1      3259 2.00654E+01-1.25843E-01 2.36249E-03-1.94863E-01 3.55590E-14 2.35364E-13
 -1      3260 2.00252E+01-9.20532E-02-1.36167E-03-2.04761E-01 1.11181E-13 2.73859E-13
 -1      3261 2.00258E+01-8.11690E-02 1.36074E-03-2.31168E-01 1.97905E-13 2.24463E-13
 -1      3262 2.01034E+01-1.72054E-01-1.15988E-03-2.17629E-01-5.58108E-15-5.96868E-14
 -1      3263 2.01565E+01 1.80194E+00-7.35438E-03 6.84454E-01 1.78197E-13-2.56564E-13
 -1      3264 2.01217E+01 1.93201E+00-2.46517E-03 5.88414E-01 1.60340E-13-2.70642E-13
 -1      3265 2.02522E+01 1.45879E+00 6.24471E-03 5.82295E-01 1.83600E-13-2.25269E-13
 -1      3266 1.06730E+01 1.96583E+00 1.40404E-01 3.84914E+00-1.30077E-13-1.49158E-13
 -1      3267 2.00878E+01 2.02592E+00-5.58032E-03 5.03301E-01 1.50584E-13-2.88124E-13
 -1      3268 2.00623E+01 2.10686E+00-3.03224E-03 3.90191E-01 1.29986E-13-3.14585E-13
 -1      3269 2.01576E+01 1.84961E+00 5.34825E-03 2.90395E-01 1.09635E-13-3.10866E-13
 -1      3270 2.02003E+01 1.69748E+00 6.22820E-03 4.58273E-01 1.37164E-13-2.69069E-13
 -1      3271 2.79579E+01 6.08356E+00-9.11980E-02 1.48878E+00 8.62088E-14-3.79589E-13
 -1      3272 2.00208E+01 2.22018E+00-3.67252E-03 6.57776E-02 6.43049E-14-3.33715E-13
 -1      3273 2.00205E+01 2.22105E+00-3.62539E-03-5.79669E-02 3.96052E-14-3.21221E-13
 -1      3274 2.01347E+01 1.92439E+00 4.96055E-03 1.01066E-01 6.84322E-14-3.22858E-13
 -1      3275 1.34230E+01 2.06678E+00 1.10777E-02 3.14051E+00-5.27946E-14-1.31027E-13
 -1      3276 2.00094E+01-2.84209E+00 6.80979E-02-6.69330E+00-7.42600E-14 1.25292E-13
 -1      3277 2.25519E+01-3.65998E+00-3.13155E-02-5.95990E+00-1.45127E-14 7.53217E-15
 -1      3278 2.35795E+01-3.31972E+00 2.39386E-02-4.67064E+00-1.93734E-13 3.39468E-14
 -1      3279 2.02959E+01-2.31491E+00 6.03473E-02-5.89971E+00-2.07473E-13 5.85382E-14
 -1      3280 2.01576E+01 5.45006E-02-6.89454E-04-1.39525E-01 1.08126E-13-1.50881E-13
 -1      3281 2.01790E+01 1.01578E-01 1.85571E-03-1.16048E-01 7.87982E-14-1.12477E-13
 -1      3282 2.55757E+01-3.27747E+00-1.69722E-02-2.64674E+00-6.99258E-14 6.25466E-14
 -1      3283 2.72123E+01-3.11463E+00-3.79089E-02-1.59993E+00-5.16601E-14 2.07846E-13
 -1      3284 2.72301E+01-2.25942E+00 1.06101E-02-4.40415E-01 3.99390E-14 1.81091E-13
 -1      3285 2.02970E+01 4.40906E-01 2.55853E-03-6.92002E-02-6.18472E-14-2.51939E-13
 -1      3286 2.02720E+01 3.27763E-01-2.20291E-03-2.26756E-03-7.79910E-14-2.29922E-13
 -1      3287 2.02634E+01 2.37930E-01 2.11477E-03 4.26572E-02-8.68909E-14-2.01173E-13
 -1      3288 2.02385E+01 1.62220E-01-1.30715E-03 8.33911E-02-9.63798E-14-1.65672E-13
 -1      3289 2.03113E+01 3.29295E-01-9.74962E-05 5.09489E-03-6.46285E-14-2.11509E-13
 -1      3290 2.02232E+01 1.02921E-01 1.61869E-03 1.09342E-01-1.21998E-13-1.47607E-13
 -1      3291 2.02012E+01 5.36023E-02-6.79851E-04 1.30940E-01-8.64428E-14-1.40522E-13
 -1      3292 2.02787E+01 1.59342E-01-4.23786E-04 7.92809E-02-9.02063E-14-1.23375E-13
 -1      3293 2.01833E+01 1.57651E-02 1.14100E-03 1.42950E-01-7.81714E-14-1.35508E-13
 -1      3294 2.01649E+01-1.50278E-02-2.56097E-04 1.51283E-01-3.75877E-14-1.69554E-13
 -1      3295 2.02400E+01 4.73371E-02-5.72037E-04 1.20236E-01-7.19030E-14-1.26681E-13
 -1      3296 2.01467E+01-3.80061E-02 7.56450E-04 1.53732E-01-2.68209E-14-2.05143E-13
 -1      3297 2.01320E+01-5.60893E-02 1.23131E-05 1.53308E-01-1.91013E-14-1.94951E-13
 -1      3298 2.02005E+01-2.34479E-02-6.11877E-04 1.37323E-01-4.65797E-14-1.66544E-13
 -1      3299 2.01149E+01-6.90718E-02 4.74031E-04 1.49589E-01-1.50385E-14-2.17860E-13
 -1      3300 2.01033E+01-7.87830E-02 1.66948E-04 1.43677E-01 4.44434E-15-2.13807E-13
 -1      3301 2.01634E+01-6.56963E-02-5.95108E-04 1.38274E-01-2.47341E-14-2.12726E-13
 -1      3302 2.00883E+01-8.53923E-02 2.83522E-04 1.36237E-01-5.57630E-15-1.93781E-13
 -1      3303 2.00794E+01-8.99917E-02 2.43358E-04 1.27080E-01 1.66409E-14-2.00177E-13
 -1      3304 2.01306E+01-8.89723E-02-5.51039E-04 1.28950E-01-1.30050E-14-2.49792E-13
 -1      3305 2.00669E+01-9.29693E-02 1.71985E-04 1.17589E-01 1.52675E-14-1.94665E-13
 -1      3306 2.00604E+01-9.49676E-02 2.68442E-04 1.06620E-01-1.52192E-14-2.14038E-13
 -1      3307 2.01028E+01-1.00534E-01-5.05266E-04 1.13514E-01 7.92717E-15-2.58701E-13
 -1      3308 2.00506E+01-9.64721E-02 1.29282E-04 9.61313E-02-2.36968E-15-2.18274E-13
 -1      3309 2.00463E+01-9.78968E-02 2.60964E-04 8.41477E-02-5.48746E-15-2.08004E-13
 -1      3310 2.00806E+01-1.05979E-01-4.74768E-04 9.47676E-02-3.08603E-15-2.84387E-13
 -1      3311 2.00398E+01-9.97299E-02 1.49919E-04 7.32269E-02-6.87741E-14-1.67296E-13
 -1      3312 2.00377E+01-1.02338E-01 2.35233E-04 6.05099E-02-1.43186E-13-1.23833E-13
 -1      3313 2.00644E+01-1.09821E-01-4.75576E-04 7.44263E-02-8.73718E-15-2.63671E-13
 -1      3314 2.00351E+01-1.06134E-01 2.35599E-04 4.93341E-02-1.70436E-13-7.92192E-14
 -1      3315 2.00355E+01-1.11594E-01 2.00437E-04 3.57295E-02-1.11633E-13-5.95126E-14
 -1      3316 2.00552E+01-1.15962E-01-5.25278E-04 5.33553E-02-1.33238E-13-1.12942E-13
 -1      3317 2.00378E+01-1.18978E-01 3.95992E-04 2.41365E-02-7.62217E-14-6.25028E-14
 -1      3318 2.00415E+01-1.29013E-01 1.59695E-04 9.07981E-03-6.11920E-14-6.01157E-14
 -1      3319 2.00542E+01-1.28079E-01-6.44547E-04 3.17300E-02-5.95164E-14-1.08986E-13
 -1      3320 2.00503E+01-1.41704E-01 6.49212E-04-3.44383E-03-9.72085E-14-1.02533E-13
 -1      3321 2.00585E+01-1.58178E-01 1.07248E-04-2.09573E-02-1.07052E-13-8.08278E-14
 -1      3322 2.00640E+01-1.49956E-01-8.57755E-04 9.08908E-03-8.76504E-14-9.69415E-14
 -1      3323 2.00761E+01-1.78019E-01 1.02089E-03-3.53694E-02-7.42535E-14-7.92842E-14
 -1      3324 2.00905E+01-2.02900E-01 2.43590E-05-5.68722E-02-3.34880E-14-5.68729E-14
 -1      3325 2.00882E+01-1.85687E-01-1.19122E-03-1.57549E-02-7.67537E-14-4.51267E-14
 -1      3326 2.01204E+01-2.31715E-01 1.53946E-03-7.47674E-02-4.06574E-14 2.77639E-14
 -1      3327 2.01429E+01-2.66831E-01-1.26476E-04-1.02453E-01 2.17464E-16 4.53416E-14
 -1      3328 2.01321E+01-2.39621E-01-1.66515E-03-4.49991E-02 2.09399E-15 1.07910E-14
 -1      3329 2.01893E+01-3.06031E-01 2.22625E-03-1.26359E-01 4.16729E-14 1.81550E-14
 -1      3330 2.02223E+01-3.52490E-01-4.06374E-04-1.63229E-01 9.18067E-14 5.20693E-15
 -1      3331 2.02030E+01-3.15882E-01-2.28288E-03-8.23572E-02-4.97107E-16 9.91586E-14
 -1      3332 2.02899E+01-4.02260E-01 3.07380E-03-1.96983E-01 7.10162E-14-1.62340E-14
 -1      3333 2.03352E+01-4.59352E-01-8.98880E-04-2.46909E-01 1.52615E-13-9.49735E-14
 -1      3334 2.03097E+01-4.17137E-01-3.00208E-03-1.33802E-01 4.65467E-14 2.77068E-14
 -1      3335 2.04286E+01-5.17268E-01 4.00224E-03-2.96006E-01 2.01956E-13-9.62588E-14
 -1      3336 2.04862E+01-5.80634E-01-1.68517E-03-3.63502E-01 1.80425E-13-7.67814E-14
 -1      3337 2.04611E+01-5.42224E-01-3.70216E-03-2.08442E-01 1.72074E-13-8.21606E-15
 -1      3338 2.06073E+01-6.39548E-01 4.77485E-03-4.35013E-01 1.26866E-13-7.31949E-14
 -1      3339 2.06744E+01-6.98539E-01-2.73519E-03-5.24258E-01 1.39249E-13-5.18006E-14
 -1      3340 2.06645E+01-6.82007E-01-4.12464E-03-3.19121E-01 1.42767E-13-3.30040E-14
 -1      3341 2.08194E+01-7.43934E-01 4.99082E-03-6.25311E-01 1.19861E-13-1.45785E-13
 -1      3342 2.08881E+01-7.79132E-01-3.81646E-03-7.37660E-01 9.30180E-14-1.21170E-13
 -1      3343 2.09196E+01-8.13317E-01-3.83528E-03-4.81422E-01 1.20904E-13-1.65293E-13
 -1      3344 2.10436E+01-7.87733E-01 3.99514E-03-8.71614E-01 5.95687E-14-1.31479E-13
 -1      3345 2.11010E+01-7.70241E-01-4.38337E-03-1.00165E+00 3.36769E-14-1.31898E-13
 -1      3346 2.12122E+01-8.93191E-01-2.37807E-03-7.08510E-01 6.74828E-14-1.22116E-13
 -1      3347 2.12404E+01-7.11113E-01 1.13112E-03-1.16128E+00 8.99261E-14-1.24233E-13
 -1      3348 2.12704E+01-6.06349E-01-3.30434E-03-1.29140E+00 9.66192E-14-1.16951E-13
 -1      3349 2.15071E+01-8.56455E-01 5.34668E-04-1.00082E+00 8.91415E-14-8.12797E-14
 -1      3350 2.13568E+01-4.48272E-01-3.26292E-03-1.44984E+00 7.73635E-14-9.72787E-14
 -1      3351 2.13451E+01-2.28999E-01 4.67741E-04-1.54573E+00 1.27163E-13-7.62709E-15
 -1      3352 2.17454E+01-6.25865E-01 4.52382E-03-1.32877E+00 1.42928E-13 5.65506E-14
 -1      3353 2.13430E+01 4.19575E-02-9.16479E-03-1.65024E+00 8.66319E-14 6.33998E-15
 -1      3354 2.12880E+01 3.73530E-01 6.16169E-03-1.66322E+00 2.62733E-14 6.94750E-14
 -1      3355 2.18583E+01-1.35363E-01 8.79287E-03-1.61454E+00 1.46769E-13 2.98758E-14
 -1      3356 2.11868E+01 7.31471E-01-1.37621E-02-1.64382E+00-9.57242E-15-1.19629E-14
 -1      3357 2.11039E+01 1.11853E+00 1.13068E-02-1.52587E+00 2.70302E-14 1.37131E-13
 -1      3358 2.17990E+01 6.07153E-01 9.59958E-03-1.73300E+00 4.64391E-15-1.19653E-13
 -1      3359 2.09466E+01 1.47919E+00-1.30420E-02-1.32484E+00-5.44806E-14 4.25288E-14
 -1      3360 2.08700E+01 1.80679E+00 1.19333E-02-1.06026E+00-8.83805E-14 1.44795E-13
 -1      3361 2.15867E+01 1.47458E+00 5.96149E-03-1.53306E+00-1.79590E-14-1.19970E-13
 -1      3362 2.07454E+01 2.04742E+00-6.32379E-03-6.86918E-01-1.02847E-13 4.54446E-14
 -1      3363 2.07095E+01 2.19524E+00 5.74686E-03-3.19375E-01-1.50940E-13 7.14527E-14
 -1      3364 2.13386E+01 2.20270E+00-2.67654E-03-9.57339E-01-1.40214E-13-9.71761E-14
 -1      3365 2.06948E+01 2.22235E+00 3.72998E-03 1.37805E-01-4.52045E-14 1.16801E-13
 -1      3366 2.07180E+01 2.12611E+00-4.28966E-03 5.17626E-01-3.98263E-14 2.41038E-13
 -1      3367 2.12130E+01 2.52979E+00-7.45589E-03-1.00158E-01-4.07161E-14 3.73360E-14
 -1      3368 2.08242E+01 1.92583E+00 1.10561E-02 9.19807E-01-1.63205E-13 2.42090E-13
 -1      3369 2.08945E+01 1.62795E+00-1.22365E-02 1.21276E+00-1.71802E-13 8.11713E-14
 -1      3370 2.12961E+01 2.31971E+00-3.53639E-03 7.89346E-01-9.96105E-14-6.83223E-14
 -1      3371 2.10529E+01 1.28295E+00 1.18221E-02 1.45492E+00-9.28282E-14 8.99933E-14
 -1      3372 2.11377E+01 8.98592E-01-1.41984E-02 1.60528E+00-6.63733E-14 8.39270E-14
 -1      3373 2.15291E+01 1.65599E+00 3.84954E-03 1.44190E+00-1.12558E-13 3.75464E-14
 -1      3374 2.12561E+01 5.32024E-01 7.27870E-03 1.66135E+00-1.85109E-13 1.14905E-13
 -1      3375 2.13195E+01 1.82158E-01-1.05250E-02 1.67418E+00-2.82546E-13 3.22045E-14
 -1      3376 2.17617E+01 7.96095E-01 9.20581E-03 1.72177E+00-1.04190E-13 8.18273E-14
 -1      3377 2.13440E+01-1.11354E-01 1.45431E-03 1.59074E+00-1.96649E-13 5.60476E-14
 -1      3378 2.13653E+01-3.56312E-01-4.61895E-03 1.50921E+00-7.66451E-14 2.38355E-13
 -1      3379 2.18606E+01 1.28361E-02 9.80249E-03 1.66390E+00-1.65994E-13 1.91931E-13
 -1      3380 2.12952E+01-5.38009E-01-2.58446E-03 1.35757E+00-9.35801E-14 2.27582E-13
 -1      3381 2.12731E+01-6.65419E-01 5.51952E-04 1.23233E+00 2.89849E-14 2.33725E-13
 -1      3382 2.17823E+01-5.34690E-01 6.44064E-03 1.40296E+00-2.71183E-14 3.22150E-13
 -1      3383 2.11412E+01-7.43230E-01-4.15781E-03 1.07030E+00 5.59883E-14 2.50825E-13
 -1      3384 2.10878E+01-7.75638E-01 3.76712E-03 9.38975E-01 1.35326E-13 2.44259E-13
 -1      3385 2.15636E+01-8.17686E-01 1.96841E-03 1.07661E+00 6.31964E-14 9.92341E-14
 -1      3386 2.09315E+01-7.77404E-01-3.98404E-03 7.99286E-01-1.14389E-14 2.30415E-13
 -1      3387 2.08634E+01-7.49424E-01 5.02850E-03 6.83793E-01-7.24024E-14 1.83420E-13
 -1      3388 2.12727E+01-8.88083E-01-1.66126E-03 7.73635E-01 1.42398E-14 1.60403E-13
 -1      3389 2.07133E+01-7.08611E-01-3.00238E-03 5.77346E-01 1.05523E-14 9.12168E-14
 -1      3390 2.06444E+01-6.51730E-01 4.91214E-03 4.84789E-01 1.14082E-13-7.24541E-14
 -1      3391 2.09732E+01-8.23928E-01-3.52355E-03 5.34648E-01-7.03007E-14 9.67923E-14
 -1      3392 2.05158E+01-5.93237E-01-2.00417E-03 4.09221E-01 1.11386E-13-2.57717E-13
 -1      3393 2.04554E+01-5.29007E-01 4.19291E-03 3.39382E-01 1.81384E-13-5.00238E-13
 -1      3394 2.07056E+01-6.96837E-01-4.03517E-03 3.62398E-01 4.61923E-14 3.43202E-14
 -1      3395 2.03535E+01-4.67842E-01-9.89548E-04 2.87815E-01 3.33417E-13-5.48719E-13
 -1      3396 2.03054E+01-4.07496E-01 3.92790E-03 2.38719E-01 2.71899E-13-5.38888E-13
 -1      3397 2.04851E+01-5.54640E-01-4.51986E-03 2.44555E-01 2.34229E-13-6.47133E-14
 -1      3398 2.02322E+01-3.61242E-01-7.59580E-04 2.07409E-01 1.70151E-13-7.19174E-13
 -1      3399 2.01930E+01-3.11764E-01 1.69085E-03 1.70463E-01-1.12569E-13-6.42292E-13
 -1      3400 2.02066E+01-3.22509E-01-1.73785E-03 1.28472E-01-2.00465E-13-6.99123E-13
 -1      3401 2.03271E+01-4.30926E-01-3.45748E-03 1.72925E-01 6.75290E-14-5.91497E-13
 -1      3402 2.00722E+01-7.01313E-02 1.87762E-04-1.55398E-01-3.76955E-15-1.49266E-13
 -1      3403 2.00803E+01-6.18314E-02 4.53123E-04-1.61555E-01 3.28810E-14-1.34322E-13
 -1      3404 2.00537E+01-7.81397E-02 2.53122E-04-1.38380E-01 4.12309E-14-1.79671E-13
 -1      3405 2.00593E+01-7.52792E-02 2.16840E-04-1.47610E-01 3.10850E-14-1.85649E-13
 -1      3406 2.01046E+01-7.97227E-02-5.19615E-04-1.42927E-01 4.15310E-14-2.32322E-13
 -1      3407 2.00388E+01-7.82768E-02 2.68469E-04-1.17892E-01 3.34378E-14-1.43809E-13
 -1      3408 2.00427E+01-7.90256E-02 5.92506E-05-1.28499E-01 7.46251E-15-1.75843E-13
 -1      3409 2.00809E+01-8.75005E-02-4.17284E-04-1.26628E-01 3.97793E-14-2.90095E-13
 -1      3410 2.00260E+01-7.25025E-02 2.34388E-04-9.51603E-02 3.65904E-14-1.31891E-13
 -1      3411 2.00291E+01-7.60941E-02-5.24217E-05-1.06568E-01 6.94594E-14-1.14570E-13
 -1      3412 2.00606E+01-8.66884E-02-3.05410E-04-1.06464E-01 3.89990E-14-2.57205E-13
 -1      3413 2.00148E+01-6.22974E-02 1.59143E-04-7.38385E-02 3.98636E-14-2.28729E-13
 -1      3414 2.00177E+01-6.80432E-02-1.45085E-04-8.42152E-02 3.84850E-14-1.59698E-13
 -1      3415 2.00434E+01-7.96903E-02-1.72408E-04-8.48935E-02 8.08232E-14-2.39547E-13
 -1      3416 2.00025E+01-4.69627E-02 3.86492E-05-5.36609E-02 2.55257E-14-2.11422E-13
 -1      3417 2.00066E+01-5.54654E-02-2.38550E-04-6.30486E-02 2.28560E-14-2.15707E-13
 -1      3418 2.00280E+01-6.75991E-02-7.34895E-06-6.34601E-02 5.15035E-14-2.18135E-13
 -1      3419 1.99857E+01-2.41879E-02-1.65020E-04-3.49067E-02 1.02278E-13-1.79664E-13
 -1      3420 1.99928E+01-3.68038E-02-3.62168E-04-4.29669E-02 6.11299E-14-1.88791E-13
 -1      3421 2.00114E+01-4.95388E-02 2.29874E-04-4.18284E-02 2.62468E-14-1.89055E-13
 -1      3422 1.99588E+01 1.04670E-02-5.14535E-04-1.72970E-02 2.73231E-14-8.67704E-14
 -1      3423 1.99720E+01-8.76338E-03-5.50053E-04-2.38533E-02 9.89769E-14-1.74727E-13
 -1      3424 1.99897E+01-2.28353E-02 5.96911E-04-1.92874E-02 6.35852E-14-1.17305E-13
 -1      3425 1.99128E+01 6.41138E-02-1.15780E-03 3.55239E-04 5.14978E-14 4.80551E-15
 -1      3426 1.99371E+01 3.43379E-02-8.63793E-04-4.79030E-03 5.77066E-14-6.83992E-14
 -1      3427 1.99567E+01 1.74296E-02 1.19662E-03 6.09877E-03 2.37080E-14-1.56099E-13
 -1      3428 1.98273E+01 1.52731E-01-2.30508E-03 2.26536E-02 2.75151E-14-7.02145E-14
 -1      3429 1.98748E+01 1.03710E-01-1.27007E-03 1.73952E-02 1.11655E-13 1.78457E-14
 -1      3430 1.99006E+01 8.07459E-02 2.16184E-03 3.93532E-02 8.62313E-14-1.73030E-14
 -1      3431 1.96838E+01 2.83275E-01-4.40819E-03 5.54800E-02-2.26139E-14-1.73226E-13
 -1      3432 1.97657E+01 2.11937E-01-1.84571E-03 4.75484E-02-5.01555E-14-1.57134E-13
 -1      3433 1.98056E+01 1.77181E-01 3.70955E-03 8.84987E-02 1.83755E-14-9.98667E-14
 -1      3434 1.94401E+01 4.76833E-01-8.03609E-03 1.16236E-01-5.00564E-14-2.29737E-13
 -1      3435 1.95836E+01 3.72638E-01-2.36748E-03 9.74986E-02-2.14851E-14-2.43464E-13
 -1      3436 1.96502E+01 3.16585E-01 5.96160E-03 1.67516E-01 4.23004E-15-2.34786E-13
 -1      3437 1.90347E+01 7.50829E-01-1.41088E-02 2.38148E-01-1.60965E-13-2.50933E-13
 -1      3438 1.92805E+01 6.06391E-01-2.70314E-03 1.91635E-01-6.88543E-14-1.56331E-13
 -1      3439 1.93970E+01 5.13254E-01 9.30584E-03 3.05741E-01-8.97451E-14-2.69182E-13
 -1      3440 1.83777E+01 1.10923E+00-2.45628E-02 4.82541E-01-1.44409E-13-2.82769E-13
 -1      3441 1.87892E+01 9.26847E-01-2.30538E-03 3.75760E-01-2.28000E-13-2.97760E-13
 -1      3442 1.89969E+01 7.71205E-01 1.40081E-02 5.53242E-01-1.56374E-13-3.22392E-13
 -1      3443 1.72951E+01 1.54325E+00-3.49084E-02 9.90933E-01-4.57872E-14-1.49592E-13
 -1      3444 1.79961E+01 1.33826E+00 1.76651E-03 7.43873E-01-6.72743E-14-1.91159E-13
 -1      3445 1.83693E+01 1.07814E+00 2.09897E-02 1.00947E+00-1.45132E-13-3.53575E-13
 -1      3446 1.57056E+01 1.93523E+00-2.22672E-02 1.90243E+00 3.47075E-15-1.32179E-13
 -1      3447 1.67839E+01 1.75595E+00 1.37977E-02 1.42383E+00 6.93109E-15-8.10059E-14
 -1      3448 1.74333E+01 1.33023E+00 2.14373E-02 1.81622E+00-7.06926E-14-2.29746E-13
 -1      3449 1.27917E+01 2.54632E+00 2.90249E-02-2.42987E+00 6.62300E-14-1.69739E-13
 -1      3450 2.02995E+01 8.28263E-01 7.35536E-03 3.30317E-01 1.24773E-13-1.66259E-13
 -1      3451 2.02752E+01 1.10324E+00-6.51359E-03 4.63191E-01 1.62740E-13-1.92684E-13
 -1      3452 2.02682E+01 1.24776E+00-1.28403E-04 4.29941E-01 1.39243E-13-2.12287E-13
 -1      3453 2.02505E+01-3.00761E-01 2.79905E-03-1.53582E-01-3.01741E-13-3.87930E-13
 -1      3454 2.02152E+01-2.73814E-01-7.46916E-04-2.06521E-01-1.93253E-13-7.16821E-13
 -1      3455 2.00268E+01 2.20367E+00-3.34802E-03-1.62516E-01 2.69743E-14-3.10111E-13
 -1      3456 2.00391E+01 2.16690E+00-4.28295E-03-2.83771E-01-1.57741E-14-3.12920E-13
 -1      3457 2.01555E+01 1.85440E+00 5.31358E-03-2.84105E-01-2.51473E-14-2.91834E-13
 -1      3458 2.01947E+01 1.57812E-01-1.33161E-03-8.64489E-02 5.88836E-14-9.04609E-14
 -1      3459 2.02215E+01 2.30475E-01 2.55601E-03-4.22415E-02 9.64647E-14-8.66071E-14
 -1      3460 2.02429E+01 1.58759E-01-6.68374E-04-8.37486E-02 8.78622E-14-1.67291E-13
 -1      3461 2.02709E+01 6.50301E-01-2.57697E-03 2.15523E-01 1.15927E-13-1.48733E-13
 -1      3462 2.68079E+01 4.97687E+00-4.53430E-02 1.89781E+00 1.27322E-13-3.65867E-13
 -1      3463 2.62885E+01 5.87574E+00-9.46157E-02 1.15029E+00-3.41394E-15-4.23546E-13
 -1      3464 1.65421E+01 1.86267E+00 7.73048E-03-1.42462E+00-3.68282E-15 1.49913E-13
 -1      3465 1.52962E+01 2.07868E+00-2.03927E-02-1.88669E+00-6.96526E-14 4.01883E-14
 -1      3466 2.64193E+01 2.19355E+00-7.53495E-02-2.18854E+00 2.01263E-14-1.26800E-13
 -1      3467 2.69208E+01 3.50857E-01-6.31582E-04-1.71935E+00 2.94209E-15-1.50524E-13
 -1      3468 1.95598E+01 4.03505E-01-4.31621E-03-1.13331E-01 5.15203E-14 8.05860E-14
 -1      3469 1.94127E+01 5.14396E-01-8.02025E-03-1.24293E-01 1.35734E-13 1.93504E-13
 -1      3470 2.60462E+01-3.52486E+00-9.78283E-02 2.67010E+00-1.00390E-13 1.52690E-14
 -1      3471 2.42018E+01-3.30004E+00 9.70425E-02 4.23470E+00-4.58487E-15-4.95524E-14
 -1      3472 2.16434E+01-2.97638E+00-9.43475E-02 5.34822E+00-4.78922E-14 9.96564E-14
 -1      3473 1.93852E+01-1.63505E+00 9.83664E-02 5.65177E+00 1.76976E-14-4.42285E-14
 -1      3474 1.79047E+01 1.39620E+00-2.40749E-04-7.36747E-01-2.47405E-13 4.72015E-13
 -1      3475 1.72055E+01 1.60062E+00-3.83729E-02-9.64843E-01-1.15985E-13 2.66670E-13
 -1      3476 2.77586E+01 2.06040E+00-3.82212E-02 2.09489E+00 1.86101E-14-8.57994E-15
 -1      3477 2.72702E+01 3.70046E+00-1.13427E-01 2.18783E+00 1.17850E-13-1.81747E-13
 -1      3478 2.59344E+01 3.74756E+00-3.63021E-02 1.94145E+00 3.36536E-15-3.25667E-13
 -1      3479 2.72337E+01-1.58865E+00-3.67222E-02-4.22172E-01-1.50345E-13 6.75154E-15
 -1      3480 2.72417E+01-2.76664E+00 5.87510E-02 1.12691E+00-2.06665E-13 1.59921E-13
 -1      3481 2.03106E+01 7.31737E-01-4.19745E-04-2.41993E-01-8.48990E-14-3.27753E-13
 -1      3482 2.02914E+01 5.73718E-01-3.58222E-03-1.38971E-01-6.29494E-14-2.90882E-13
 -1      3483 2.03280E+01 5.80656E-01 8.93758E-04-1.12010E-01-4.17823E-14-2.71560E-13
 -1      3484 1.97835E+01 2.02494E-01-3.22628E-03-8.23529E-02 2.44376E-13-4.09669E-13
 -1      3485 1.96766E+01 3.10915E-01-2.20704E-03-8.38960E-02 1.80394E-13-1.83693E-13
 -1      3486 1.96283E+01 3.49854E-01 7.29838E-03-1.98508E-01 3.21594E-13 4.01963E-13
 -1      3487 1.97929E+01 1.97120E-01 3.49086E-03-1.34387E-01 4.26880E-13-4.59146E-13
 -1      3488 2.02328E+01 3.14105E-01-2.83884E-03 9.24335E-03 1.03272E-13-8.68958E-14
 -1      3489 2.02682E+01 4.22580E-01 4.43924E-03 8.13134E-02 1.25947E-13-1.08630E-13
 -1      3490 2.02791E+01 3.24170E-01-3.29883E-04 1.70400E-03 8.72458E-14-1.32620E-13
 -1      3491 2.00951E+01-5.03259E-02 3.12273E-05-1.65382E-01 3.97438E-14-1.32991E-13
 -1      3492 2.01066E+01-3.37885E-02 8.23810E-04-1.65972E-01 8.07709E-14-1.11178E-13
 -1      3493 2.01329E+01-5.93568E-02-6.12777E-04-1.52748E-01 2.09603E-14-1.21843E-13
 -1      3494 1.66273E+01-4.58582E-01-6.16129E-02 5.45731E+00 7.29469E-14-2.00423E-13
 -1      3495 1.44873E+01 9.64501E-01 8.26514E-02 4.73870E+00-1.47061E-14-1.14991E-13
 -1      3496 1.54392E+01 1.72379E+00 5.50956E-02 2.87189E+00-1.12497E-14-2.76688E-14
 -1      3497 1.85827E+01-7.00072E-01 5.92851E-02 4.80798E+00 6.74495E-14-1.01270E-13
 -1      3498 2.01233E+01-1.23314E-02-2.81803E-04-1.62972E-01 1.20429E-13-1.38523E-13
 -1      3499 2.01401E+01 1.80119E-02 1.28279E-03-1.53755E-01 1.21344E-13-1.54905E-13
 -1      3500 2.02039E+01 4.96615E-02-6.76440E-04-1.31103E-01 1.15923E-13-1.91165E-13
 -1      3501 2.01662E+01-1.95941E-02-6.85421E-04-1.51292E-01 7.85716E-14-9.99435E-14
 -1      3502 1.87236E+01 9.83607E-01-2.37854E-03-3.79847E-01-3.20157E-13 4.23242E-13
 -1      3503 1.82910E+01 1.17447E+00-2.44813E-02-4.85497E-01-3.13966E-13 5.29157E-13
 -1      3504 1.82886E+01 1.14148E+00 2.36140E-02-1.02039E+00-2.95132E-13 5.28299E-13
 -1      3505 1.98609E+01 1.05347E-01 4.09130E-03-2.43833E-01 5.02263E-13 8.01322E-13
 -1      3506 1.98166E+01 1.38109E-01-2.68012E-03-2.01035E-01 5.65301E-13-1.64106E-14
 -1      3507 1.97513E+01 1.97353E-01-2.20238E-03-2.30510E-01 5.25817E-13 1.69983E-13
 -1      3508 2.62769E+01 6.41419E+00-6.86253E-02 3.61074E-01 5.23193E-14-3.87076E-13
 -1      3509 2.60418E+01 6.29407E+00-7.83447E-02-3.20171E-01 6.07570E-14-2.85349E-13
 -1      3510 2.53589E+01 5.33223E+00-4.20210E-02-8.61752E-01 6.94098E-14-2.33750E-13
 -1      3511 2.52792E+01 5.34119E+00-4.63436E-02 7.90440E-01 6.21725E-15-2.19455E-13
 -1      3512 1.92432E+01 6.49477E-01-2.55094E-03-2.02443E-01 1.80778E-13 2.40472E-13
 -1      3513 1.89837E+01 8.02426E-01-1.40655E-02-2.42445E-01 7.53326E-14 4.70525E-13
 -1      3514 1.89359E+01 8.32599E-01 1.71839E-02-5.71251E-01-9.13740E-14 3.67106E-13
 -1      3515 1.93541E+01 5.41829E-01 4.05082E-03-3.28619E-01 2.80057E-13 5.39655E-13
 -1      3516 2.01880E+01 1.70703E+00 4.20647E-04-6.90290E-01-1.14592E-13-3.67676E-13
 -1      3517 2.02322E+01 1.51137E+00-3.22016E-03-6.86257E-01-1.14339E-13-3.54395E-13
 -1      3518 2.02655E+01 1.25075E+00-7.15022E-04-5.40944E-01-1.13701E-13-3.58716E-13
 -1      3519 2.02319E+01 1.48277E+00-1.28967E-04-5.34595E-01-1.20190E-13-3.73585E-13
 -1      3520 1.48567E+01 2.07567E+00 4.13243E-02-2.48598E+00-9.95972E-14 9.30827E-14
 -1      3521 1.34561E+01 1.74380E+00 4.48638E-02-3.73801E+00 4.81698E-14 1.52683E-13
 -1      3522 1.50504E+01 8.53899E-01 1.08878E-02-4.58814E+00-7.75803E-14 4.45997E-13
 -1      3523 1.60147E+01 1.43593E+00 2.97509E-02-3.06078E+00-1.27423E-13 3.73083E-13
 -1      3524 2.03054E+01 6.60989E-01-7.74877E-04 1.83342E-01 1.09338E-13-1.60899E-13
 -1      3525 1.62328E+01 6.04330E-02 3.27375E-02-5.08902E+00-1.95358E-13 2.36224E-13
 -1      3526 1.79605E+01-9.46577E-01 1.40706E-02-5.54028E+00-2.94237E-13 1.32082E-13
 -1      3527 1.66742E+01 5.27574E-01 5.40074E-02-4.26169E+00-2.00317E-13 4.61409E-13
 -1      3528 1.64847E+01 1.02341E+00-5.44854E-03 3.33676E+00-5.46941E-14-1.01145E-13
 -1      3529 2.02330E+01 1.49204E+00-6.87198E-04-3.41694E-01-3.66381E-14-2.92140E-13
 -1      3530 2.02488E+01 1.40361E+00-9.72966E-04-4.09171E-01-7.05278E-14-3.11104E-13
 -1      3531 2.01341E+01 1.92604E+00 5.01090E-03-9.45338E-02 3.25807E-14-2.99636E-13
 -1      3532 2.02685E+01-3.43271E-01-5.83597E-04-2.38422E-02-4.08887E-13-2.73668E-13
 -1      3533 2.02676E+01-3.28862E-01 1.20088E-03-8.13117E-02-3.86777E-13-1.14218E-13
 -1      3534 2.03033E+01-3.66992E-01-3.69210E-03-1.39344E-01-2.50670E-13-3.26914E-13
 -1      3535 2.02266E+01-2.84839E-01-2.99878E-03-2.77422E-01-1.95495E-13-5.82457E-13
 -1      3536 2.01676E+01-2.13071E-01 3.68753E-03-2.62383E-01-1.77361E-13-4.21228E-13
 -1      3537 2.02055E+01 1.61257E+00-2.07318E-03-1.95373E-01 9.13679E-15-2.65319E-13
 -1      3538 2.02155E+01 1.55347E+00-4.80587E-03-2.77425E-01-2.43985E-14-2.81845E-13
 -1      3539 2.02990E+01 1.28757E+00 6.12004E-03-2.48096E-01 2.94292E-15-2.60365E-13
 -1      3540 1.72479E+01 1.45168E+00 3.68397E-02-1.83572E+00-1.57053E-13 4.82352E-13
 -1      3541 2.58007E+01-2.90384E+00-1.29052E-02 1.68813E+00-1.59246E-13 2.52532E-14
 -1      3542 2.56567E+01 1.74888E-01 1.69857E-02-1.75457E+00-1.77757E-14-1.65928E-13
 -1      3543 2.66871E+01-8.12090E-01-2.92560E-02-1.21369E+00-3.97573E-14-1.81125E-13
 -1      3544 2.59204E+01-1.55857E+00-2.63096E-02-4.97738E-01-1.25806E-13-5.00177E-14
 -1      3545 2.02442E+01-3.30578E-01 2.35339E-03 7.73927E-02-2.35249E-13-4.02648E-13
 -1      3546 2.02960E+01 9.78777E-01-1.06267E-03-3.03208E-01-7.24695E-14-3.33218E-13
 -1      3547 2.03161E+01 9.62461E-01-1.39561E-03-2.45853E-01-3.34000E-14-2.95062E-13
 -1      3548 2.76193E+01 6.78114E-01-7.27709E-02 1.83082E+00 2.48655E-14-5.47166E-14
 -1      3549 2.63966E+01 1.55500E+00-3.42205E-03 2.10191E+00-2.97592E-14-7.27664E-14
 -1      3550 2.71330E+01-4.08943E-01-9.03577E-03 1.27457E+00-5.50410E-14-4.18450E-14
 -1      3551 2.30673E+01-2.70557E+00 5.55191E-02 4.01501E+00-2.30892E-14 1.27112E-15
 -1      3552 1.99651E+01-2.57194E-02-2.91473E-04-2.89131E-01 2.51773E-13 5.88144E-13
 -1      3553 1.99160E+01 2.52208E-02-1.56402E-03-2.69828E-01 3.33578E-13 6.98850E-13
 -1      3554 1.98866E+01 6.36466E-02 2.65200E-03-3.29984E-01 4.54410E-13 6.00953E-13
 -1      3555 2.01094E+01-1.79018E-01-3.21033E-03-2.85539E-01 5.94781E-14-1.23056E-13
 -1      3556 2.49372E+01 3.55485E+00-3.94310E-02-1.87656E+00 4.63865E-15-4.91863E-14
 -1      3557 2.58260E+01 2.92718E+00-2.91862E-02-2.18099E+00-3.37924E-14-3.68117E-14
 -1      3558 2.51552E+01 1.73681E+00-1.17037E-02-2.01624E+00-1.19375E-13-1.28614E-13
 -1      3559 2.02857E+01 1.19143E+00 1.41927E-03-4.20519E-01-8.24369E-14-3.49195E-13
 -1      3560 2.01987E+01 1.64128E+00-3.39754E-03 1.29895E-01 6.76818E-14-3.15692E-13
 -1      3561 2.01945E+01 1.66143E+00-2.64913E-03 3.95721E-02 5.46152E-14-3.11021E-13
 -1      3562 2.44768E+01-3.06289E+00 2.63973E-02-3.11593E+00-1.56451E-13-1.19215E-14
 -1      3563 2.50813E+01-2.82649E+00 5.35528E-03-2.03758E+00-4.70097E-14-3.84707E-14
 -1      3564 2.22473E+01-2.57622E+00 6.12862E-02-4.58496E+00-2.11869E-13 2.66471E-14
 -1      3565 2.34543E+01-2.92890E+00-1.64647E-02-3.77865E+00-2.38641E-13 8.90382E-14
 -1      3566 2.31175E+01-2.57633E+00-1.73782E-02-3.19034E+00-2.51721E-13-4.16579E-14
 -1      3567 2.02183E+01 1.54749E+00-4.66162E-03 2.84301E-01 1.08579E-13-3.06646E-13
 -1      3568 2.02080E+01 1.60819E+00-1.97423E-03 2.00372E-01 9.09087E-14-3.10416E-13
 -1      3569 2.02812E+01 1.38772E+00 4.85977E-03 1.32800E-01 7.03807E-14-2.91652E-13
 -1      3570 2.60821E+01-2.29921E+00-1.85010E-02-4.51432E-01 6.17987E-14 1.04104E-13
 -1      3571 2.68567E+01-1.62605E+00-5.05504E-02 5.34417E-01 2.83324E-15 6.86630E-14
 -1      3572 1.96685E+01 2.54046E-01-3.85672E-03-2.99750E-01 4.98445E-13 1.87581E-13
 -1      3573 1.95741E+01 3.44078E-01 9.79469E-04-3.54097E-01 4.22395E-13 5.35726E-13
 -1      3574 1.97320E+01 1.91129E-01-7.52049E-04-3.77736E-01 5.29130E-13 3.44686E-13
 -1      3575 1.81264E+01 9.38646E-01 2.02754E-02-1.89838E+00-2.48618E-13 4.11026E-13
 -1      3576 1.74369E+01 9.47949E-01-2.33670E-02-2.49172E+00-1.01358E-13 3.64771E-13
 -1      3577 2.03287E+01 2.17122E-01 1.33772E-03 4.99920E-02-5.84911E-14-1.73865E-13
 -1      3578 2.03075E+01 1.41840E-01-1.05652E-03 7.90909E-02-7.96064E-14-1.53102E-13
 -1      3579 2.02918E+01 8.21537E-02 1.08500E-03 9.51178E-02-7.83935E-14-1.36047E-13
 -1      3580 2.02698E+01 3.30070E-02-5.38586E-04 1.10155E-01-6.40626E-14-1.35577E-13
 -1      3581 2.03331E+01 1.31007E-01-1.05357E-04 7.06159E-02-7.40445E-14-1.75505E-13
 -1      3582 2.02501E+01-5.00121E-03 8.15690E-04 1.16674E-01-5.24435E-14-1.41114E-13
 -1      3583 2.02293E+01-3.54881E-02-1.70790E-04 1.21840E-01-1.95238E-14-1.52096E-13
 -1      3584 2.02933E+01 2.25002E-02-3.65638E-04 9.53731E-02-5.59815E-14-1.44638E-13
 -1      3585 2.02086E+01-5.83155E-02 5.89849E-04 1.21913E-01-2.00188E-14-1.59065E-13
 -1      3586 2.01900E+01-7.59760E-02 6.68011E-05 1.20547E-01-4.56123E-14-1.99967E-13
 -1      3587 2.02502E+01-4.55926E-02-5.07027E-04 1.04196E-01-3.65876E-14-1.71253E-13
 -1      3588 2.01702E+01-8.86579E-02 4.16918E-04 1.16529E-01-3.59452E-14-2.00884E-13
 -1      3589 2.01543E+01-9.79576E-02 2.10105E-04 1.11066E-01-2.04135E-14-1.90363E-13
 -1      3590 2.02083E+01-8.56228E-02-5.59546E-04 1.02375E-01-5.86333E-14-1.61048E-13
 -1      3591 2.01366E+01-1.04275E-01 2.96217E-04 1.04677E-01 5.64466E-15-2.11451E-13
 -1      3592 2.01237E+01-1.08621E-01 2.93404E-04 9.68434E-02 2.97305E-14-2.03555E-13
 -1      3593 2.01701E+01-1.07227E-01-5.74520E-04 9.38786E-02-2.16903E-14-1.59663E-13
 -1      3594 2.01089E+01-1.11523E-01 2.27390E-04 8.93129E-02 8.27283E-15-2.11923E-13
 -1      3595 2.00991E+01-1.13604E-01 3.38606E-04 8.02424E-02-6.93343E-15-1.77957E-13
 -1      3596 2.01374E+01-1.17736E-01-5.73848E-04 8.16723E-02 1.86965E-14-1.60524E-13
 -1      3597 2.00878E+01-1.15456E-01 2.06115E-04 7.23975E-02 3.85694E-14-1.41153E-13
 -1      3598 2.00814E+01-1.17486E-01 3.68616E-04 6.27653E-02 2.96380E-14-1.14046E-13
 -1      3599 2.01114E+01-1.22960E-01-5.81744E-04 6.78548E-02 6.02289E-14-1.00588E-13
 -1      3600 2.00744E+01-1.20305E-01 2.33697E-04 5.51471E-02-5.12413E-14-1.21827E-13
 -1      3601 2.00718E+01-1.24246E-01 4.02464E-04 4.52780E-02-1.15218E-13-4.48605E-14
 -1      3602 2.00932E+01-1.27667E-01-6.22729E-04 5.38787E-02 2.18817E-14-9.95054E-14
 -1      3603 2.00699E+01-1.29917E-01 3.18518E-04 3.82311E-02-1.33455E-13 7.41664E-15
 -1      3604 2.00721E+01-1.37694E-01 4.54677E-04 2.81611E-02-4.46040E-14-5.64992E-14
 -1      3605 2.00842E+01-1.36064E-01-7.22948E-04 4.07724E-02-8.07684E-14-3.69632E-14
 -1      3606 2.00769E+01-1.48155E-01 4.77989E-04 2.18704E-02-6.30156E-14-7.44228E-14
 -1      3607 2.00854E+01-1.61832E-01 5.33409E-04 1.13499E-02-1.24707E-13-5.01411E-14
 -1      3608 2.00866E+01-1.52251E-01-9.13670E-04 2.92770E-02-1.20065E-13 1.13545E-14
 -1      3609 2.00992E+01-1.79209E-01 7.42526E-04 5.80544E-03-6.73904E-14-2.73674E-14
 -1      3610 2.01161E+01-2.01110E-01 6.33448E-04-5.77512E-03 7.33900E-15 1.35747E-14
 -1      3611 2.01040E+01-1.80629E-01-1.23298E-03 1.98706E-02-3.42888E-14-1.72391E-14
 -1      3612 2.01423E+01-2.27773E-01 1.15669E-03-1.09515E-02 1.52516E-14 8.60694E-16
 -1      3613 2.01707E+01-2.60456E-01 7.28711E-04-2.47603E-02-2.23241E-15 3.08490E-14
 -1      3614 2.01417E+01-2.26207E-01-1.72486E-03 1.25957E-02-5.73800E-15 4.03077E-14
 -1      3615 2.02142E+01-2.98841E-01 1.77824E-03-3.06569E-02-8.97582E-15 7.49559E-14
 -1      3616 2.02579E+01-3.44829E-01 7.55705E-04-4.87316E-02 2.76828E-14 6.74861E-14
 -1      3617 2.02076E+01-2.94626E-01-2.43525E-03 6.54058E-03 2.76731E-14 3.66693E-14
 -1      3618 2.03252E+01-3.96974E-01 2.67103E-03-5.77459E-02 3.77410E-14 1.29660E-13
 -1      3619 2.03884E+01-4.58032E-01 6.02543E-04-8.34702E-02 8.23855E-14 1.09902E-13
 -1      3620 2.03126E+01-3.91676E-01-3.38871E-03-1.08139E-03 8.78061E-14 1.59571E-13
 -1      3621 2.04874E+01-5.24483E-01 3.87983E-03-1.00177E-01 1.00829E-13 1.26327E-13
 -1      3622 2.05738E+01-6.00183E-01 8.28405E-05-1.38781E-01 1.62498E-13 9.21610E-14
 -1      3623 2.04705E+01-5.21876E-01-4.55458E-03-1.65135E-02 8.29513E-14 2.17512E-13
 -1      3624 2.07129E+01-6.78084E-01 5.35378E-03-1.71127E-01 1.61385E-13-1.56872E-14
 -1      3625 2.08236E+01-7.63030E-01-1.04263E-03-2.30013E-01 1.56538E-13 4.97714E-14
 -1      3626 2.06969E+01-6.85518E-01-5.80281E-03-5.16229E-02 9.06491E-14 5.06711E-14
 -1      3627 2.10084E+01-8.42670E-01 6.71054E-03-2.90140E-01 1.40504E-13 5.53241E-14
 -1      3628 2.11395E+01-9.21700E-01-2.80631E-03-3.78085E-01 1.28896E-13 4.92201E-16
 -1      3629 2.10061E+01-8.72275E-01-6.79631E-03-1.26646E-01 1.59909E-13 8.56461E-14
 -1      3630 2.13671E+01-9.81499E-01 7.47528E-03-4.80146E-01 1.52940E-13-3.95010E-14
 -1      3631 2.15066E+01-1.02630E+00-5.03858E-03-6.03208E-01 1.26161E-13 4.12152E-14
 -1      3632 2.14026E+01-1.05074E+00-6.93312E-03-2.69952E-01 1.16753E-13 6.92221E-14
 -1      3633 2.17594E+01-1.03067E+00 6.45996E-03-7.59228E-01 7.40970E-14 3.36491E-14
 -1      3634 2.18854E+01-9.96847E-01-6.97407E-03-9.14429E-01 1.22503E-13 8.66905E-14
 -1      3635 2.18715E+01-1.15677E+00-4.45561E-03-5.11609E-01 1.51594E-13 6.39016E-14
 -1      3636 2.21209E+01-8.93880E-01 2.43036E-03-1.12189E+00 1.52901E-13-4.26356E-14
 -1      3637 2.22031E+01-7.27177E-01-6.85839E-03-1.28444E+00 1.40064E-13-2.33882E-14
 -1      3638 2.23561E+01-1.09725E+00-3.42248E-03-8.74274E-01 9.66389E-14-1.42432E-13
 -1      3639 2.23681E+01-4.69978E-01-3.07260E-03-1.50905E+00 9.68624E-14 2.92706E-14
 -1      3640 2.23831E+01-1.23391E-01 2.28697E-05-1.63141E+00 7.58394E-14-5.57495E-14
 -1      3641 2.27791E+01-7.16166E-01 7.56582E-03-1.32824E+00 4.79792E-14-2.08850E-13
 -1      3642 2.23983E+01 2.96383E-01-1.73769E-02-1.77214E+00-1.06549E-14-1.55595E-13
 -1      3643 2.23578E+01 8.11563E-01 9.24413E-03-1.78023E+00-4.45954E-14-1.49640E-13
 -1      3644 2.29824E+01 6.49823E-02 1.57665E-02-1.73615E+00-2.79518E-14-2.38640E-13
 -1      3645 2.22280E+01 1.34450E+00-2.09691E-02-1.74438E+00-5.64848E-14-1.53727E-13
 -1      3646 2.21367E+01 1.90187E+00 1.50817E-02-1.56798E+00-8.64324E-14-1.25674E-13
 -1      3647 2.29666E+01 1.16047E+00 1.67539E-02-1.86729E+00-4.64749E-14-2.16772E-13
 -1      3648 2.19371E+01 2.38318E+00-2.03297E-02-1.23951E+00-6.86348E-14-1.62805E-13
 -1      3649 2.18734E+01 2.76726E+00 1.08458E-02-8.69972E-01-1.20886E-13-1.87564E-13
 -1      3650 2.26738E+01 2.43529E+00 1.19302E-02-1.53831E+00-1.19454E-13-2.27816E-13
 -1      3651 2.17679E+01 2.99472E+00-4.80568E-03-3.49395E-01-7.22649E-14-7.94110E-15
 -1      3652 2.17545E+01 3.04023E+00-2.65379E-03 1.20317E-01 2.12298E-14 2.82126E-14
 -1      3653 2.24175E+01 3.23486E+00-1.01609E-02-6.76971E-01 6.43128E-14-4.19294E-14
 -1      3654 2.18322E+01 2.88885E+00 8.96411E-03 6.75973E-01-1.97789E-14 3.49598E-14
 -1      3655 2.18839E+01 2.56334E+00-1.93879E-02 1.07383E+00-9.57287E-14 5.70147E-14
 -1      3656 2.23871E+01 3.35425E+00-5.18144E-03 4.50367E-01 3.47313E-15 2.97982E-15
 -1      3657 2.20752E+01 2.12697E+00 1.48086E-02 1.45413E+00-9.85939E-14 1.44232E-14
 -1      3658 2.21637E+01 1.58691E+00-2.27228E-02 1.67507E+00-2.73607E-14 3.08805E-14
 -1      3659 2.26140E+01 2.66048E+00 8.61209E-03 1.39234E+00-4.38146E-14 4.52069E-14
 -1      3660 2.23162E+01 1.04762E+00 9.37240E-03 1.77673E+00-6.44810E-14 1.65438E-15
 -1      3661 2.23790E+01 5.14466E-01-1.68155E-02 1.80416E+00-1.83597E-13 2.45481E-14
 -1      3662 2.28980E+01 1.44836E+00 1.31774E-02 1.83508E+00-8.10411E-14 5.03547E-14
 -1      3663 2.23944E+01 5.65007E-02 1.45534E-03 1.69098E+00-1.50218E-13 1.14932E-13
 -1      3664 2.23910E+01-3.29987E-01-6.79371E-03 1.58355E+00-2.61523E-14 2.16331E-13
 -1      3665 2.30039E+01 2.62957E-01 1.42536E-02 1.77327E+00-1.51318E-13 1.10401E-13
 -1      3666 2.22583E+01-6.21173E-01-4.51417E-03 1.37227E+00-2.19186E-14 1.12110E-13
 -1      3667 2.21855E+01-8.25321E-01 1.70045E-03 1.20903E+00-2.06292E-14 1.02799E-13
 -1      3668 2.28388E+01-5.92082E-01 9.12502E-03 1.40382E+00-6.14247E-14 1.08332E-13
 -1      3669 2.19594E+01-9.54321E-01-6.13526E-03 9.98011E-01 6.96791E-14 1.08007E-13
 -1      3670 2.18395E+01-1.01414E+00 6.26497E-03 8.36947E-01 1.41061E-13 1.43535E-13
 -1      3671 2.24543E+01-1.03729E+00 1.10145E-03 9.61318E-01 5.15170E-14 1.75020E-13
 -1      3672 2.15836E+01-1.02510E+00-5.20287E-03 6.68155E-01 3.32394E-14 1.25488E-13
 -1      3673 2.14432E+01-9.90409E-01 7.79299E-03 5.38682E-01 3.37013E-14 1.63023E-13
 -1      3674 2.19717E+01-1.15413E+00-3.58910E-03 5.83410E-01 7.79435E-14 2.76722E-13
 -1      3675 2.12068E+01-9.37365E-01-3.11444E-03 4.27710E-01 4.73290E-14 1.93785E-13
 -1      3676 2.10713E+01-8.61653E-01 6.99546E-03 3.33997E-01 3.48519E-14 2.93733E-13
 -1      3677 2.14893E+01-1.06764E+00-6.11753E-03 3.18826E-01 3.92680E-14 2.31489E-13
 -1      3678 2.08747E+01-7.83711E-01-1.66178E-03 2.67520E-01 6.77018E-14 3.01190E-13
 -1      3679 2.07580E+01-6.96613E-01 5.70194E-03 2.03977E-01 9.52265E-14 2.49045E-13
 -1      3680 2.10723E+01-8.95861E-01-6.69872E-03 1.59804E-01 6.61854E-14 4.35815E-13
 -1      3681 2.06069E+01-6.17818E-01-6.38622E-04 1.68621E-01 7.85187E-14 1.89890E-13
 -1      3682 2.05178E+01-5.37684E-01 4.98869E-03 1.23266E-01 1.27623E-13 2.21080E-14
 -1      3683 2.07426E+01-7.04844E-01-5.06862E-03 7.61772E-02 8.34287E-14 3.63336E-13
 -1      3684 2.03780E+01-4.40199E-01 3.77344E-04 6.04819E-02-5.33621E-14-2.39574E-13
 -1      3685 2.03100E+01-3.83721E-01 9.06624E-04 4.36516E-02-1.94159E-13-3.49328E-13
 -1      3686 2.00808E+01-9.39299E-02 2.22002E-04-9.14282E-02 2.83532E-14-2.04207E-13
 -1      3687 2.00906E+01-9.56329E-02 1.44585E-04-1.01592E-01-2.53534E-15-2.06199E-13
 -1      3688 2.01335E+01-8.85640E-02 1.93618E-04-1.26310E-01 5.68270E-14-2.09207E-13
 -1      3689 2.01472E+01-8.05892E-02 4.16000E-04-1.32168E-01 5.94249E-14-2.09919E-13
 -1      3690 2.01940E+01 1.66224E+00-2.67563E-03-3.44841E-02 4.33702E-14-2.97627E-13
 -1      3691 2.01979E+01 1.64362E+00-3.32804E-03-1.24623E-01 2.55193E-14-2.82382E-13
 -1      3692 2.02812E+01 1.39343E+00 6.03302E-03-1.30500E-01 1.01053E-14-2.47732E-13
 -1      3693 2.02759E+01 1.42262E+00 4.99636E-03 1.76006E-03 4.55375E-14-3.01043E-13
 -1      3694 2.00600E+01-8.64241E-02 1.45344E-04-7.13457E-02 6.89703E-14-1.64571E-13
 -1      3695 2.00681E+01-9.08052E-02 6.74637E-05-8.15932E-02 7.45275E-14-1.49748E-13
 -1      3696 2.00948E+01-1.01348E-01-3.40209E-04-7.75434E-02 2.70555E-14-8.35323E-14
 -1      3697 2.00407E+01-7.39965E-02-8.04791E-07-5.02251E-02 2.77629E-14-6.41126E-14
 -1      3698 2.00488E+01-8.08315E-02 1.06137E-05-6.07736E-02 6.26816E-14-6.83458E-14
 -1      3699 2.00716E+01-9.29949E-02-2.08306E-04-5.80096E-02 1.26656E-14 3.97176E-14
 -1      3700 2.00201E+01-5.59201E-02-2.48371E-04-2.75253E-02 3.41914E-14-1.10473E-13
 -1      3701 2.00299E+01-6.57078E-02-2.73424E-05-3.85729E-02 2.99393E-14-1.03041E-13
 -1      3702 2.00502E+01-7.95871E-02-2.79191E-05-3.62412E-02 6.33437E-14 3.60405E-14
 -1      3703 1.99939E+01-2.97972E-02-6.55376E-04-1.54282E-03 1.96791E-14-8.31777E-14
 -1      3704 2.00081E+01-4.39001E-02-5.31552E-05-1.38509E-02 3.66485E-14-1.51805E-13
 -1      3705 2.00280E+01-6.04416E-02 2.32197E-04-1.08235E-02 2.68781E-14-1.03152E-13
 -1      3706 1.99555E+01 8.53159E-03-1.37399E-03 3.11467E-02 4.46368E-14-5.60285E-14
 -1      3707 1.99784E+01-1.21023E-02-6.82654E-05 1.59997E-02 4.78240E-14-8.54941E-14
 -1      3708 2.00010E+01-3.33504E-02 6.16822E-04 2.12600E-02 2.62840E-14-9.13475E-14
 -1      3709 1.98909E+01 6.90348E-02-2.48867E-03 7.99014E-02 5.21422E-14 2.81342E-15
 -1      3710 1.99316E+01 3.65417E-02 1.05130E-05 5.71253E-02 2.58104E-14-4.20326E-14
 -1      3711 1.99619E+01 6.85413E-03 1.25461E-03 6.69648E-02 8.06595E-15-7.78333E-14
 -1      3712 1.97895E+01 1.54229E-01-4.25169E-03 1.52230E-01 5.21966E-14-5.28051E-14
 -1      3713 1.98555E+01 1.09169E-01 2.08937E-04 1.17993E-01 1.00643E-13 1.80120E-14
 -1      3714 1.99016E+01 6.41715E-02 2.04911E-03 1.35606E-01 6.98749E-14 5.47151E-15
 -1      3715 1.96268E+01 2.74098E-01-7.07197E-03 2.70675E-01 5.62546E-14-1.43729E-13
 -1      3716 1.97359E+01 2.11953E-01 8.37824E-04 2.12756E-01 9.68479E-14-1.16117E-13
 -1      3717 1.98098E+01 1.41988E-01 3.10816E-03 2.41529E-01 1.30182E-13 8.85753E-15
 -1      3718 1.93726E+01 4.32474E-01-1.12961E-02 4.70695E-01-1.13742E-13-1.59978E-13
 -1      3719 1.95480E+01 3.52985E-01 2.21043E-03 3.69283E-01-8.70748E-14-1.78673E-13
 -1      3720 1.96699E+01 2.42798E-01 4.38598E-03 4.12625E-01 2.77987E-14-6.79382E-14
 -1      3721 1.89901E+01 6.18004E-01-1.80516E-02 8.09556E-01-1.18325E-13-2.43337E-13
 -1      3722 1.92640E+01 5.31137E-01 5.05456E-03 6.31938E-01-5.82768E-14-1.81379E-13
 -1      3723 1.94661E+01 3.58151E-01 5.58792E-03 6.90905E-01-7.25893E-14 4.61653E-16
 -1      3724 1.84261E+01 7.99569E-01-2.28988E-02 1.41556E+00-1.78460E-13-1.92064E-13
 -1      3725 1.88481E+01 7.28046E-01 1.14373E-02 1.08427E+00-2.23104E-13-2.79640E-13
 -1      3726 1.91814E+01 4.60296E-01 6.58222E-03 1.15386E+00-1.13007E-13-7.20042E-14
 -1      3727 1.77406E+01 8.58098E-01-1.19160E-02 2.37280E+00-6.98387E-14-1.15905E-13
 -1      3728 1.82996E+01 8.64648E-01 2.61913E-02 1.82244E+00-6.71887E-14-1.46177E-13
 -1      3729 1.88221E+01 4.54355E-01-2.36692E-03 1.88917E+00-1.26204E-13-3.13354E-14
 -1      3730 2.03377E+01-3.50795E-01 5.85211E-03-3.03870E-01-2.34663E-13-7.11921E-13
 -1      3731 2.02592E+01-3.03652E-01-2.31495E-03-3.67109E-01-2.20291E-13-6.30551E-13
 -1      3732 1.77840E+01 1.27454E-01 3.56126E-02 4.02354E+00-3.68421E-14-1.04417E-13
 -1      3733 1.79849E+01 5.68870E-01 5.00315E-02 3.06488E+00-1.17286E-13-1.30865E-13
 -1      3734 1.87504E+01-2.34547E-02-3.67805E-02 3.01520E+00-1.06890E-13-9.49484E-14
 -1      3735 2.02785E+01 1.46124E-01-1.17396E-03-8.51497E-02 1.14974E-13-2.31564E-13
 -1      3736 2.03010E+01 2.20631E-01 1.64233E-03-5.16255E-02 1.12677E-13-1.94056E-13
 -1      3737 2.03241E+01 5.80087E-01-2.60409E-03 1.04744E-01 9.39720E-14-1.95197E-13
 -1      3738 2.03307E+01 8.43688E-01 1.84547E-04 2.35096E-01 1.03789E-13-2.11138E-13
 -1      3739 2.36177E+01-2.89942E+00-7.81704E-02 3.09412E+00-3.13586E-14-1.49179E-13
 -1      3740 2.20130E+01-2.11715E+00 7.55214E-02 3.94835E+00-5.32126E-14-4.29557E-14
 -1      3741 2.54787E+01-2.50151E+00-3.32842E-02 8.38553E-01-1.62962E-13 1.19008E-13
 -1      3742 2.49099E+01-2.77462E+00 6.10744E-02 2.08656E+00-4.66033E-14 1.80828E-14
 -1      3743 2.38028E+01-2.48549E+00 1.05066E-02 2.18637E+00-1.03077E-14 1.35864E-14
 -1      3744 2.53866E+01 2.88373E+00-8.67402E-03 2.09359E+00 2.62290E-14-1.85187E-13
 -1      3745 2.47978E+01 3.83044E+00-5.43504E-02 1.73747E+00 8.92272E-14-1.01905E-13
 -1      3746 2.03581E+01 7.08841E-01 4.12534E-03-1.44554E-01-3.04730E-14-2.49342E-13
 -1      3747 2.03463E+01 5.48233E-01-2.69519E-03-7.23725E-02-2.08161E-14-2.31866E-13
 -1      3748 1.87668E+01 7.81283E-01 1.09403E-02-1.11792E+00-1.23737E-13 2.20597E-13
 -1      3749 1.83290E+01 8.45265E-01-2.97307E-02-1.43441E+00-1.48357E-13 4.33157E-13
 -1      3750 2.01657E+01-6.90966E-02 5.68265E-05-1.36511E-01 3.63705E-14-1.80828E-13
 -1      3751 2.01822E+01-5.24676E-02 6.53405E-04-1.37942E-01 4.19659E-14-1.35113E-13
 -1      3752 2.01893E+01-7.83342E-02-5.46672E-04-1.19695E-01 8.14147E-14-2.02999E-13
 -1      3753 1.97317E+01-1.36382E+00-8.25120E-02 4.38058E+00-3.41350E-14-9.48477E-14
 -1      3754 2.02527E+01 1.35879E+00-5.50834E-03 4.02313E-01 1.30591E-13-2.53156E-13
 -1      3755 2.02392E+01 1.46173E+00-1.05771E-03 3.35156E-01 1.10610E-13-2.71151E-13
 -1      3756 2.02975E+01 1.26441E+00 4.47697E-03 2.40509E-01 1.11109E-13-2.83023E-13
 -1      3757 2.03103E+01 1.05916E+00 3.53541E-03 3.03770E-01 1.07228E-13-2.16455E-13
 -1      3758 1.72898E+01 9.11893E-01 2.84420E-02-2.97219E+00-6.13759E-14 3.95092E-13
 -1      3759 1.67910E+01 7.50726E-01 1.21272E-03-3.62699E+00-9.33385E-14 5.04305E-13
 -1      3760 1.79496E+01 2.17919E-02 4.37270E-02-4.14323E+00-1.70253E-13 4.11133E-13
 -1      3761 1.82446E+01 3.49065E-01-9.00564E-03-2.99640E+00-1.26360E-13 3.97266E-13
 -1      3762 2.03089E+01 3.08907E-01-2.06873E-03-1.64432E-02 8.58734E-14-1.86120E-13
 -1      3763 2.03296E+01 4.20127E-01 2.35288E-03 3.99359E-02 9.53144E-14-1.76182E-13
 -1      3764 2.03413E+01 3.03225E-01 4.95261E-05-2.06887E-02 1.05740E-13-2.37366E-13
 -1      3765 2.43297E+01-2.53708E+00-2.90400E-02-1.56943E+00-5.03430E-14 1.49739E-13
 -1      3766 2.54745E+01-2.59810E+00 3.60635E-03-1.04371E+00 1.69435E-14 1.77121E-13
 -1      3767 2.53456E+01-1.92827E+00 2.39950E-02-2.47874E-02 2.41430E-15-5.22325E-15
 -1      3768 2.03532E+01 4.17850E-01 1.57638E-03-2.70961E-02-2.47742E-14-2.17547E-13
 -1      3769 2.03362E+01 3.07086E-01-1.68165E-03 2.09143E-02-3.61961E-14-1.91901E-13
 -1      3770 2.03720E+01 5.35492E-01 5.29591E-04-5.24976E-02-1.57855E-14-2.13557E-13
 -1      3771 2.03317E+01 9.26062E-01-2.82886E-03-1.93368E-01-1.60771E-14-2.67335E-13
 -1      3772 1.93810E+01-1.47461E+00 7.09589E-02-5.35016E+00-3.11895E-13 1.26251E-13
 -1      3773 2.09724E+01-2.26343E+00-4.26327E-03-5.05496E+00-2.55938E-13-8.55219E-15
 -1      3774 2.12986E+01-1.98059E+00 6.52045E-03-4.22745E+00-2.49859E-13-4.60569E-15
 -1      3775 1.89165E+01-9.51992E-01-4.15545E-03-4.74809E+00-2.92107E-13 9.01432E-14
 -1      3776 2.00139E+01-7.07142E-02 1.72556E-03-2.96723E-01 2.14081E-13 2.24003E-13
 -1      3777 2.01055E+01-9.55143E-02 2.44257E-04-1.10706E-01 3.83021E-14-2.59765E-13
 -1      3778 2.01168E+01-9.32415E-02 2.58266E-04-1.19077E-01 5.58065E-14-2.23803E-13
 -1      3779 2.01536E+01-9.74069E-02-5.08339E-04-1.09986E-01 7.33246E-14-2.12781E-13
 -1      3780 1.94011E+01 4.35186E-01-8.71675E-03-4.52743E-01 2.94986E-13 4.07550E-13
 -1      3781 1.87106E+01 5.39672E-01 1.24629E-02-1.98312E+00-1.37067E-13 1.22227E-13
 -1      3782 2.04621E+01-4.97097E-01-2.04408E-03-1.44398E-02-1.03929E-13-2.21180E-13
 -1      3783 2.01220E+01-1.03689E-01-4.38807E-04-9.52302E-02-3.01966E-15-1.37609E-13
 -1      3784 2.09700E+01-1.40291E+00 2.77955E-02 3.51223E+00-8.18182E-14-1.36567E-13
 -1      3785 2.02546E+01-3.03724E-01-3.91676E-03-4.69225E-01-1.44233E-13-5.43119E-13
 -1      3786 2.01809E+01-1.99618E-01 9.67603E-03-4.34853E-01-1.52668E-13-3.85997E-13
 -1      3787 2.03333E+01 9.92470E-01-9.73830E-04-1.53368E-01-4.37860E-15-2.55973E-13
 -1      3788 1.92135E+01 5.80387E-01 6.85057E-03-6.59376E-01 2.51740E-14 2.68349E-13
 -1      3789 1.89085E+01 6.64550E-01-2.24214E-02-8.48716E-01-1.33831E-13 2.49122E-13
 -1      3790 1.91170E+01 5.19963E-01 1.30484E-02-1.20872E+00-6.42429E-14 2.11552E-13
 -1      3791 2.42451E+01 1.61956E+00-3.47713E-03-2.00252E+00-8.44849E-14-1.59899E-13
 -1      3792 2.48866E+01 9.14190E-01-1.48647E-02-1.99309E+00-1.16436E-13-9.24048E-14
 -1      3793 2.02627E+01 8.61289E-02 1.29259E-03-1.05422E-01 7.30917E-14-2.34198E-13
 -1      3794 2.03102E+01 1.37377E-01-1.97607E-04-7.89337E-02 1.06961E-13-2.17385E-13
 -1      3795 2.02405E+01 3.67968E-02-6.14217E-04-1.23031E-01 9.31672E-14-1.98920E-13
 -1      3796 2.03286E+01 9.62790E-01 1.58656E-03 2.20587E-01 1.07624E-13-2.46834E-13
 -1      3797 2.03629E+01 2.95398E-01 2.92473E-04 2.34792E-02-2.78342E-14-1.87428E-13
 -1      3798 2.47978E+01 8.76873E-02 1.67214E-02-1.69810E+00-6.10683E-14-1.97166E-13
 -1      3799 2.00277E+01-1.18081E-01-7.84883E-03-4.57824E-01 5.89364E-14 3.04147E-13
 -1      3800 2.00524E+01-1.20779E-01-2.46615E-03-3.58231E-01 1.37883E-14 1.74153E-13
 -1      3801 2.62234E+01-6.44017E-01 1.97570E-02 1.24687E+00-3.70494E-15-2.20830E-13
 -1      3802 2.53843E+01 9.29224E-01 1.13146E-05 1.95588E+00 2.16407E-15-2.49335E-13
 -1      3803 2.54017E+01 1.88531E+00-4.81083E-02 2.10003E+00-5.63005E-15-1.81581E-13
 -1      3804 2.44935E+01 2.15794E+00 1.04931E-02 2.02501E+00 1.21743E-14-1.72319E-13
 -1      3805 1.98225E+01 1.21209E-01 6.92592E-03-4.21192E-01 4.22225E-13 5.83466E-13
 -1      3806 2.03540E+01 5.75296E-01 4.66716E-04 8.19885E-02 8.85001E-14-2.23224E-13
 -1      3807 2.43699E+01 5.05010E+00-3.46113E-02-3.80041E-01 5.66526E-14-2.09555E-14
 -1      3808 2.45372E+01 4.63390E+00-5.67981E-03-1.21722E+00 5.85365E-14-2.20293E-14
 -1      3809 2.40724E+01 3.49621E+00-8.55640E-03-1.48953E+00 2.40294E-14-5.20382E-14
 -1      3810 2.03171E+01 1.14790E+00-3.10012E-03 1.33772E-01 9.58913E-14-2.77913E-13
 -1      3811 2.03163E+01 1.18353E+00-1.55167E-03 7.69978E-02 6.14058E-14-2.53914E-13
 -1      3812 2.50190E+01-1.21652E+00 1.44773E-02-8.88952E-01-1.14539E-13-1.61350E-13
 -1      3813 2.55292E+01-1.98726E+00 1.04074E-02-7.18829E-02-1.95270E-13-1.23981E-14
 -1      3814 2.46000E+01-2.13397E+00-1.81203E-02 4.37736E-01-1.58433E-13-1.43244E-13
 -1      3815 2.36231E+01-2.37093E+00 1.52833E-02-2.02379E+00-1.48269E-13 1.36596E-13
 -1      3816 2.39710E+01-2.16954E+00 1.01125E-02-1.07821E+00-1.34299E-13 1.87106E-13
 -1      3817 2.03660E+01 9.97153E-01 3.54911E-03 4.20831E-02 7.04724E-14-2.40236E-13
 -1      3818 2.03138E+01 1.19701E+00-2.60095E-03 3.16449E-02 5.66407E-14-2.68242E-13
 -1      3819 2.03135E+01 1.19763E+00-2.62437E-03-2.88209E-02 1.84334E-14-2.77220E-13
 -1      3820 2.45939E+01 4.68667E+00-7.06905E-03 1.20310E+00 2.84842E-15-8.11668E-14
 -1      3821 2.44659E+01 5.13101E+00-3.48370E-02 3.77908E-01 1.03008E-14-7.79758E-14
 -1      3822 2.36822E+01 4.43911E+00-2.24312E-02 1.79433E-02 3.46286E-14-4.98163E-14
 -1      3823 2.41014E+01 3.76234E+00-1.09354E-02 1.40900E+00 6.24275E-14-9.10209E-14
 -1      3824 2.23245E+01-2.00956E+00 3.42105E-02-3.04445E+00-2.57204E-13-8.86452E-14
 -1      3825 2.30226E+01-2.27447E+00-1.46649E-02-2.48100E+00-1.55851E-13-1.07288E-13
 -1      3826 2.27218E+01-2.01042E+00-1.13542E-02-2.00458E+00-2.46097E-13-6.89672E-15
 -1      3827 2.02018E+01-3.05577E-02-2.13526E-04-1.37407E-01 5.21623E-14-1.23843E-13
 -1      3828 2.02216E+01-3.34835E-04 9.50553E-04-1.31355E-01 1.02723E-13-1.42874E-13
 -1      3829 2.02705E+01 2.78396E-02-4.20018E-04-1.10008E-01 6.99077E-14-1.48483E-13
 -1      3830 2.02289E+01-3.97605E-02-5.39613E-04-1.21374E-01 7.76739E-14-1.46051E-13
 -1      3831 2.04423E+01-4.55046E-01 4.10267E-03-1.32380E-01-3.21833E-13-4.57789E-13
 -1      3832 2.04123E+01-4.34012E-01-5.66893E-05-2.11780E-01-1.82487E-13-4.28195E-13
 -1      3833 2.04585E+01-4.73921E-01-2.93667E-03-3.04420E-01-2.55331E-13-5.09211E-13
 -1      3834 2.05789E+01-5.79916E-01-2.62696E-03-8.11761E-02-1.34638E-13-1.98258E-13
 -1      3835 2.00814E+01-9.89185E-02 4.30331E-05-4.26222E-02 3.19184E-14 5.83449E-14
 -1      3836 2.00929E+01-1.03546E-01 2.17551E-04-5.23786E-02 1.34152E-14 7.64691E-14
 -1      3837 2.03613E+01 2.74988E-01-1.29899E-03-3.20542E-02 1.02938E-13-2.36737E-13
 -1      3838 2.03746E+01 3.80109E-01 5.83749E-04 6.01098E-03 7.85571E-14-2.72905E-13
 -1      3839 2.00583E+01-8.64483E-02-1.79739E-04-2.08979E-02 7.71344E-14 3.68991E-14
 -1      3840 2.00697E+01-9.30688E-02 2.31198E-04-3.22317E-02 7.35622E-14 9.25671E-14
 -1      3841 2.00883E+01-1.05456E-01-2.97717E-04-2.74465E-02 4.32454E-14 5.80297E-14
 -1      3842 2.03317E+01 4.98096E-02 6.35467E-04 7.23483E-02-7.03158E-14-1.42033E-13
 -1      3843 2.03094E+01 4.23864E-03-3.01593E-04 8.12597E-02-3.91366E-14-1.32305E-13
 -1      3844 2.02877E+01-3.10159E-02 5.39264E-04 8.33983E-02-1.26885E-14-1.29966E-13
 -1      3845 2.02653E+01-5.87709E-02-1.69771E-05 8.58874E-02-1.99253E-14-1.03388E-13
 -1      3846 2.03194E+01-8.89562E-03-3.80341E-04 6.30296E-02-1.45495E-14-1.10648E-13
 -1      3847 2.02429E+01-7.95976E-02 4.43171E-04 8.45933E-02-4.87874E-14-9.11167E-14
 -1      3848 2.02221E+01-9.53225E-02 1.63556E-04 8.27913E-02-3.88385E-14-8.54106E-14
 -1      3849 2.02735E+01-6.92993E-02-5.18393E-04 6.59345E-02-1.76858E-14-3.36088E-14
 -1      3850 2.02007E+01-1.06500E-01 3.50487E-04 7.93118E-02-3.63090E-14-5.68416E-14
 -1      3851 2.01825E+01-1.14425E-01 2.88257E-04 7.49483E-02-2.07171E-14-6.55339E-14
 -1      3852 2.02288E+01-1.04057E-01-6.07264E-04 6.32304E-02-3.22003E-14-2.02701E-15
 -1      3853 2.01636E+01-1.19743E-01 2.87349E-04 7.04677E-02 2.20461E-14-6.74891E-14
 -1      3854 2.01487E+01-1.23268E-01 3.67174E-04 6.47719E-02 7.81156E-14-4.26987E-14
 -1      3855 2.01882E+01-1.21895E-01-6.33594E-04 5.72344E-02 1.52175E-14 6.65543E-14
 -1      3856 2.01331E+01-1.25694E-01 2.45778E-04 6.01312E-02 4.84218E-14-4.75501E-14
 -1      3857 2.01220E+01-1.27497E-01 4.31522E-04 5.39846E-02 3.32399E-14-4.64871E-14
 -1      3858 2.01537E+01-1.30018E-01-6.39242E-04 4.99702E-02 5.85774E-14 4.31859E-14
 -1      3859 2.01104E+01-1.29420E-01 2.27038E-04 4.98722E-02 3.81383E-14-1.16549E-13
 -1      3860 2.01037E+01-1.31718E-01 5.07645E-04 4.39282E-02 3.08499E-14-6.80127E-14
 -1      3861 2.01268E+01-1.34069E-01-6.57359E-04 4.29697E-02 1.00862E-14-7.75355E-14
 -1      3862 2.00970E+01-1.35217E-01 2.38166E-04 4.10039E-02 5.31321E-15-7.48863E-14
 -1      3863 2.00955E+01-1.40022E-01 6.19493E-04 3.57808E-02-5.62164E-14-2.64690E-14
 -1      3864 2.01088E+01-1.38661E-01-7.15500E-04 3.76718E-02 1.94799E-14-9.37783E-14
 -1      3865 2.00947E+01-1.47099E-01 2.91967E-04 3.47510E-02-1.21676E-13-3.04406E-14
 -1      3866 2.01000E+01-1.56463E-01 7.88867E-04 3.06865E-02-1.43467E-13-2.70957E-14
 -1      3867 2.01014E+01-1.47956E-01-8.45268E-04 3.56037E-02-8.97545E-14-9.79980E-14
 -1      3868 2.01068E+01-1.69262E-01 4.13693E-04 3.23467E-02-7.50621E-14 1.11479E-14
 -1      3869 2.01211E+01-1.85487E-01 1.03402E-03 2.97861E-02 4.27670E-14 4.43996E-14
 -1      3870 2.01073E+01-1.66175E-01-1.08839E-03 3.85198E-02-6.71587E-14 7.18039E-14
 -1      3871 2.01384E+01-2.06518E-01 6.49983E-04 3.50028E-02 4.91109E-14 3.82064E-14
 -1      3872 2.01649E+01-2.32415E-01 1.35335E-03 3.40584E-02 2.99448E-14 8.83536E-14
 -1      3873 2.01308E+01-1.98124E-01-1.50218E-03 4.84696E-02 4.69157E-14 9.39781E-14
 -1      3874 2.01971E+01-2.64629E-01 1.07051E-03 4.34493E-02-2.48946E-16 9.57545E-14
 -1      3875 2.02405E+01-3.03485E-01 1.71759E-03 4.36870E-02 4.15886E-14 8.61145E-14
 -1      3876 2.01788E+01-2.49706E-01-2.14363E-03 6.75162E-02 2.59099E-14 5.27147E-14
 -1      3877 2.02941E+01-3.50239E-01 1.78907E-03 5.72114E-02 9.06907E-14 9.74229E-14
 -1      3878 2.03604E+01-4.05758E-01 2.03046E-03 5.70187E-02 1.62229E-13 1.59555E-13
 -1      3879 2.02615E+01-3.28231E-01-3.11829E-03 9.70687E-02 7.52052E-14 1.54279E-13
 -1      3880 2.04449E+01-4.70299E-01 2.94677E-03 7.28071E-02 7.91026E-14 1.56073E-13
 -1      3881 2.05409E+01-5.45699E-01 2.13163E-03 6.84228E-02-5.57795E-15 8.64982E-14
 -1      3882 2.03942E+01-4.42289E-01-4.50127E-03 1.36329E-01 9.31843E-14 4.40546E-14
 -1      3883 2.06688E+01-6.29989E-01 4.69936E-03 8.14224E-02 2.54850E-14 4.63373E-14
 -1      3884 2.08012E+01-7.26635E-01 1.66120E-03 6.56042E-02 1.02086E-13 3.51337E-15
 -1      3885 2.05973E+01-6.00184E-01-6.30327E-03 1.79638E-01 1.29581E-15 9.36507E-15
 -1      3886 2.09876E+01-8.28997E-01 7.04700E-03 6.45889E-02 1.19880E-13 1.05294E-14
 -1      3887 2.11604E+01-9.42361E-01 6.74468E-06 2.52020E-02 1.25166E-13 3.88501E-14
 -1      3888 2.08968E+01-8.07034E-01-8.32171E-03 2.12667E-01 1.13807E-13 3.53544E-14
 -1      3889 2.14173E+01-1.04976E+00 9.32477E-03-1.15972E-02 7.58449E-14 6.04274E-14
 -1      3890 2.16254E+01-1.15769E+00-2.87119E-03-9.06314E-02 1.12785E-13 4.51115E-14
 -1      3891 2.13213E+01-1.05481E+00-1.01098E-02 2.01585E-01 1.58492E-13-4.05721E-14
 -1      3892 2.19581E+01-1.24611E+00 1.08827E-02-1.84669E-01 9.42845E-14 1.31748E-14
 -1      3893 2.21921E+01-1.30712E+00-4.61028E-03-3.25143E-01 7.10185E-14-1.32871E-14
 -1      3894 2.18836E+01-1.30649E+00-1.21528E-02 1.04917E-01 6.46715E-14-6.19405E-15
 -1      3895 2.25745E+01-1.32116E+00 1.09306E-02-4.94242E-01-1.93198E-14-1.28949E-13
 -1      3896 2.28076E+01-1.27185E+00-3.08987E-03-7.06125E-01-4.12084E-15-2.43644E-13
 -1      3897 2.25816E+01-1.44346E+00 3.47088E-04-1.48701E-01-5.57629E-14-1.70084E-13
 -1      3898 2.35426E+01-1.29648E+00 8.54802E-06-7.97667E-01 7.81319E-15-2.51378E-13
 -1      3899 2.37337E+01-1.04119E+00-1.25971E-02-1.04325E+00-1.46090E-14-2.69283E-13
 -1      3900 2.34217E+01 6.42443E-01-4.06286E-02-1.91120E+00-6.22134E-14-2.43382E-13
 -1      3901 2.33758E+01 1.32967E+00-9.93444E-03-1.87553E+00-5.11510E-14-2.28706E-13
 -1      3902 2.30080E+01 3.62614E+00-2.62455E-02-9.85127E-01 4.73424E-14-5.28800E-14
 -1      3903 2.29573E+01 3.96727E+00 4.40286E-03-4.44121E-01 1.60635E-13 1.00701E-15
 -1      3904 2.30375E+01 4.03204E+00-1.80503E-03 3.16963E-01 1.04532E-13-1.46607E-13
 -1      3905 2.30714E+01 3.75314E+00-3.10047E-02 8.86682E-01-4.69009E-14-1.32957E-13
 -1      3906 2.33758E+01 3.17033E+00 2.53871E-03 1.44972E+00 1.90594E-14-1.00068E-13
 -1      3907 2.34897E+01 2.45389E+00-3.88588E-02 1.80065E+00 5.59583E-14-1.60845E-14
 -1      3908 2.36224E+01 1.76017E+00-5.20495E-05 1.88816E+00-2.90679E-14-7.99230E-14
 -1      3909 2.37076E+01 9.92286E-01-2.68087E-02 1.96011E+00-6.21814E-14-4.85356E-14
 -1      3910 2.33986E+01-7.06542E-01-8.85972E-03 1.33135E+00-9.47856E-14 2.00005E-14
 -1      3911 2.32730E+01-1.01701E+00 5.18919E-03 1.10447E+00-2.64732E-14 6.94640E-14
 -1      3912 2.29032E+01-1.20573E+00-9.66153E-03 8.05061E-01 1.38172E-13 8.40608E-14
 -1      3913 2.27079E+01-1.28893E+00 1.45971E-02 6.07273E-01 2.53579E-13 2.06637E-13
 -1      3914 2.35001E+01-1.29815E+00 2.94801E-03 7.44731E-01-1.91219E-14-3.48747E-14
 -1      3915 2.23071E+01-1.32080E+00-9.33643E-03 3.89996E-01 7.64742E-14 1.95496E-13
 -1      3916 2.20720E+01-1.26540E+00 9.93903E-03 2.39185E-01-5.17598E-15 5.86097E-14
 -1      3917 2.27446E+01-1.48823E+00-7.28175E-03 2.02427E-01 1.07980E-13-4.51530E-14
 -1      3918 2.17337E+01-1.18302E+00-1.77104E-03 1.35704E-01-2.70639E-14 5.04163E-14
 -1      3919 2.15148E+01-1.08077E+00 9.75404E-03 4.53509E-02-5.90153E-15 5.41785E-14
 -1      3920 2.20112E+01-1.32442E+00-8.20078E-03-5.92932E-02-3.87103E-14-5.88318E-14
 -1      3921 2.12387E+01-9.74854E-01-1.24266E-03-5.67365E-04 3.31425E-14 1.03068E-13
 -1      3922 2.10586E+01-8.58449E-01 7.79898E-03-4.70139E-02 4.94926E-14 1.14022E-13
 -1      3923 2.14200E+01-1.09396E+00-1.05921E-02-1.84593E-01 7.47033E-14 1.06134E-14
 -1      3924 2.08693E+01-7.65321E-01 3.12290E-06-6.39833E-02 2.68465E-14 5.18757E-14
 -1      3925 2.07276E+01-6.58240E-01 6.02649E-03-8.13664E-02-1.20541E-14-7.36891E-14
 -1      3926 2.06713E+01-6.40701E-01-5.13447E-03-2.15491E-01-1.40603E-13-3.79943E-13
 -1      3927 2.09813E+01-8.46761E-01-7.47613E-03-2.19455E-01-2.51001E-15-1.58644E-13
 -1      3928 2.01360E+01-1.10217E-01 2.23873E-04-7.74000E-02-3.94882E-14-7.35991E-14
 -1      3929 2.01513E+01-1.08874E-01 2.95679E-04-8.48768E-02 4.63696E-15-6.61662E-14
 -1      3930 2.04123E+01-4.03355E-01 6.85446E-03-5.26970E-01-2.83742E-13-6.90402E-13
 -1      3931 2.02716E+01-3.16792E-01-4.29186E-03-6.00252E-01-2.01076E-13-3.63442E-13
 -1      3932 2.03156E+01 1.18342E+00-2.03567E-03-7.43310E-02-7.00014E-15-2.32345E-13
 -1      3933 2.03180E+01 1.14523E+00-4.09251E-03-1.34042E-01-1.03534E-14-2.18646E-13
 -1      3934 2.03687E+01 9.97112E-01 4.33123E-03-3.60614E-02-2.10867E-14-2.39577E-13
 -1      3935 2.03274E+01 1.01639E+00-3.02619E-03 2.00819E-01 1.18528E-13-2.70933E-13
 -1      3936 2.03234E+01 1.10561E+00-1.75618E-04 1.63169E-01 1.09699E-13-2.99879E-13
 -1      3937 2.03641E+01 9.34233E-01 2.52634E-03 1.01576E-01 8.43305E-14-2.58832E-13
 -1      3938 2.03571E+01 8.24431E-01 1.09614E-03 1.39519E-01 1.06098E-13-2.72276E-13
 -1      3939 2.00348E+01-6.94604E-02-5.36048E-04 6.22830E-03 3.81910E-14 1.87701E-14
 -1      3940 2.00479E+01-7.83303E-02 2.95270E-04-7.80884E-03 1.01306E-13 8.44842E-14
 -1      3941 2.00659E+01-9.37020E-02-1.53100E-04-4.65608E-03 8.02827E-14 1.03507E-13
 -1      3942 2.00070E+01-4.65411E-02-1.14979E-03 4.27455E-02 5.94101E-14-6.93248E-14
 -1      3943 2.00248E+01-5.83189E-02 4.47244E-04 2.39714E-02 5.78718E-14-8.51399E-14
 -1      3944 2.00447E+01-7.85154E-02 3.32477E-05 2.59802E-02 8.29519E-14 6.76864E-14
 -1      3945 1.99673E+01-1.31264E-02-2.01184E-03 9.91737E-02-3.02542E-15-1.04362E-13
 -1      3946 1.99953E+01-3.03308E-02 7.54830E-04 6.98878E-02 1.00651E-14-8.81081E-14
 -1      3947 2.00210E+01-5.87188E-02 2.56977E-04 7.12035E-02 3.35779E-14-7.32967E-14
 -1      3948 1.99118E+01 3.02266E-02-3.24186E-03 1.82025E-01 3.99360E-14 9.59780E-15
 -1      3949 1.99537E+01 8.45156E-03 1.27934E-03 1.38714E-01-1.23898E-14-4.86065E-14
 -1      3950 1.99919E+01-3.36840E-02 5.74543E-04 1.39501E-01-2.59051E-14 1.17208E-14
 -1      3951 1.98301E+01 8.56230E-02-5.05189E-03 3.12129E-01 8.95931E-14 7.31408E-14
 -1      3952 1.98949E+01 5.88272E-02 2.29694E-03 2.43065E-01 1.04411E-13 2.47457E-14
 -1      3953 1.99541E+01-4.92572E-03 8.06885E-04 2.42725E-01 2.77118E-14-5.49165E-14
 -1      3954 1.97142E+01 1.48414E-01-7.50070E-03 5.18348E-01-1.92418E-14 7.17231E-14
 -1      3955 1.98110E+01 1.20464E-01 4.10265E-03 4.06894E-01 5.84994E-14 1.05973E-13
 -1      3956 1.99051E+01 2.36521E-02 8.48819E-04 4.02642E-01 4.31369E-14 9.70255E-14
 -1      3957 1.95610E+01 2.00729E-01-1.09991E-02 8.43094E-01-7.94298E-14 4.26074E-14
 -1      3958 1.96993E+01 1.83812E-01 7.26671E-03 6.64485E-01-4.65044E-14 1.96050E-14
 -1      3959 1.98482E+01 3.79616E-02 2.41550E-04 6.48731E-01-1.49593E-14 3.87919E-14
 -1      3960 1.93861E+01 2.02328E-01-1.17919E-02 1.37661E+00-8.70462E-14-5.64548E-14
 -1      3961 1.95666E+01 2.21741E-01 1.27684E-02 1.07555E+00-6.81255E-14-3.85356E-14
 -1      3962 1.98002E+01 7.81129E-03-1.20791E-03 1.03343E+00-2.35150E-14-7.50474E-14
 -1      3963 1.92899E+01 7.90630E-02 5.38974E-03 2.13853E+00-1.12505E-13-1.72237E-13
 -1      3964 1.94554E+01 1.67171E-01 2.24028E-02 1.69216E+00-1.17328E-13-1.41373E-13
 -1      3965 1.97862E+01-1.40942E-01-1.53410E-02 1.59861E+00-6.22043E-14-1.93782E-13
 -1      3966 2.03742E+01 8.30673E-01 2.79256E-03-9.34166E-02-1.73340E-14-2.36252E-13
 -1      3967 2.42995E+01-1.70653E+00-1.59883E-02 2.62621E-01-1.30149E-13-8.49102E-14
 -1      3968 2.48550E+01-1.38762E+00-7.40246E-03 7.98856E-01-7.78563E-14-1.75628E-13
 -1      3969 1.94950E+01 3.68320E-01 1.27732E-02-6.78266E-01 1.04122E-13 2.24675E-13
 -1      3970 2.02676E+01 1.30101E+00-2.22976E-04-4.16976E-01-8.19175E-14-3.57968E-13
 -1      3971 2.36213E+01 2.05014E+00-2.80517E-02-1.91070E+00-6.40408E-14-2.13337E-13
 -1      3972 1.99804E+01-6.66865E-01 3.65798E-02 3.17688E+00-7.64675E-14-1.55560E-13
 -1      3973 1.96912E+01-2.44585E-01 3.19225E-02 2.55906E+00-1.10738E-13-1.69884E-13
 -1      3974 2.01513E+01-6.61700E-01-4.22818E-02 2.32254E+00-1.20074E-13-2.25627E-13
 -1      3975 2.03690E+01 1.76178E-01 6.60956E-04 4.66157E-02-5.52210E-14-1.66659E-13
 -1      3976 2.03495E+01 1.05903E-01-6.96895E-04 6.47862E-02-5.97425E-14-1.62271E-13
 -1      3977 2.03618E+01 8.91758E-02-1.41181E-04 5.14081E-02-5.02924E-14-1.23670E-13
 -1      3978 1.98825E+01 1.83534E-02-4.57435E-03-5.31465E-01 1.19419E-13 2.49450E-13
 -1      3979 2.51386E+01-8.99618E-01-6.47024E-03 1.13295E+00-1.18410E-13-2.39643E-13
 -1      3980 2.52566E+01 2.82381E-03-3.80599E-02 1.72346E+00-1.06430E-14-1.71122E-13
 -1      3981 2.45044E+01 5.37979E-01 1.72749E-02 1.88233E+00-3.51290E-14-2.88519E-13
 -1      3982 2.41303E+01-6.52220E-01 1.63269E-02 1.35970E+00-1.42774E-13-7.56717E-14
 -1      3983 2.01067E+01-1.07187E-01 1.71158E-04-6.11423E-02-2.89101E-14 4.01406E-14
 -1      3984 2.01195E+01-1.09421E-01 2.45025E-04-6.97415E-02-4.84515E-14-5.00509E-14
 -1      3985 2.01138E+01-1.13670E-01-4.09834E-04-4.55311E-02-3.29357E-14 5.03204E-14
 -1      3986 2.34939E+01 2.83936E+00 8.17480E-03-1.64543E+00-5.72008E-14-1.42026E-13
 -1      3987 2.37322E+01-2.32538E+00-3.30771E-02 1.45798E+00-4.46639E-14-1.40471E-13
 -1      3988 2.30423E+01-2.11222E+00 5.59661E-02 2.28522E+00-5.17017E-14-5.18856E-14
 -1      3989 2.01700E+01-1.05261E-01 2.17358E-04-9.11378E-02 4.73415E-14-9.83940E-14
 -1      3990 2.01873E+01-9.84847E-02 3.83660E-04-9.64353E-02 7.39181E-14-1.15152E-13
 -1      3991 2.01792E+01-1.13011E-01-5.52266E-04-7.27836E-02 3.10380E-16-1.88552E-15
 -1      3992 2.02079E+01-8.82700E-02 1.13465E-04-1.00770E-01 7.52236E-14-1.25372E-13
 -1      3993 2.02276E+01-7.32053E-02 4.95984E-04-1.02861E-01 5.71851E-14-1.14537E-13
 -1      3994 2.02189E+01-9.71598E-02-5.64310E-04-8.14890E-02 6.76545E-14 2.20333E-15
 -1      3995 1.93658E+01 1.96838E-01 1.64961E-02-1.78526E+00-1.74820E-13 5.15907E-15
 -1      3996 1.91305E+01 1.01860E-01-1.10620E-02-2.28789E+00-1.99146E-13 9.55377E-15
 -1      3997 2.03720E+01 4.89228E-01-9.36014E-04 3.28220E-02 7.55178E-14-2.69332E-13
 -1      3998 2.03712E+01 6.65850E-01-7.40464E-04 9.77142E-02 8.96816E-14-2.67316E-13
 -1      3999 2.03778E+01 7.29582E-01 7.90014E-04 8.71763E-02 8.29941E-14-2.72674E-13
 -1      4000 2.03926E+01 4.65592E-01 7.16373E-04 1.93701E-02 8.05564E-14-2.83204E-13
 -1      4001 2.03907E+01 3.64056E-01 1.08283E-04 4.16098E-04-5.36854E-15-1.94757E-13
 -1      4002 2.03786E+01 2.61500E-01-1.11267E-03 3.18089E-02-4.70203E-14-1.92152E-13
 -1      4003 2.03938E+01 2.39247E-01 2.13036E-04 2.77168E-02-2.71630E-14-1.56258E-13
 -1      4004 2.32815E+01-1.85285E+00-1.19239E-02-4.90373E-01-1.01089E-13-8.03104E-14
 -1      4005 2.39678E+01-1.85348E+00 7.51685E-03-1.97819E-02-1.08993E-13-2.01200E-13
 -1      4006 2.00889E+01-1.31812E-01 1.19329E-02-7.40627E-01-3.74484E-14 1.76421E-13
 -1      4007 1.97595E+01 1.01365E-01-5.04925E-03-7.05744E-01 1.58321E-13 1.76595E-13
 -1      4008 1.95678E+01 1.60485E-01-1.80980E-02-9.53712E-01-7.98047E-14 1.85777E-13
 -1      4009 2.02118E+01-2.85045E-01-3.01486E-03-8.18231E-01-1.82202E-13-1.70326E-13
 -1      4010 2.03894E+01 6.39022E-01-1.01191E-03-6.91572E-02-6.71257E-15-2.38938E-13
 -1      4011 2.03917E+01 4.95409E-01-1.11014E-03-2.19004E-02 1.33524E-15-2.14351E-13
 -1      4012 2.04083E+01 4.63658E-01 5.97629E-04-1.15719E-02-4.07152E-15-2.20748E-13
 -1      4013 2.03857E+01 7.86544E-01 6.88481E-04-5.68003E-02-1.19250E-14-2.02022E-13
 -1      4014 2.14859E+01-1.72788E+00-6.43786E-02 2.94574E+00-6.79929E-14-6.54130E-14
 -1      4015 2.07452E+01-1.37011E+00 5.54856E-02-3.84323E+00-2.33804E-13-3.80084E-14
 -1      4016 2.15618E+01-1.83941E+00-2.61499E-02-3.42368E+00-2.05703E-13 2.38351E-15
 -1      4017 2.16650E+01-1.62454E+00-2.61290E-03-2.76981E+00-2.18356E-13-6.26647E-14
 -1      4018 2.41333E+01-6.15145E-01-8.87475E-03-1.44329E+00-4.47841E-14-2.92693E-13
 -1      4019 2.36973E+01-1.59693E+00-3.19646E-03-3.48080E-01-4.36717E-14-1.54710E-13
 -1      4020 2.41918E+01-3.55454E-02-8.41658E-03-1.65857E+00-9.93693E-14-2.64971E-13
 -1      4021 2.36724E+01 3.01698E-01-1.89143E-03 1.77654E+00-8.35042E-14-1.22350E-14
 -1      4022 2.02626E+01-6.30828E-02-5.27425E-04-8.51036E-02 7.43855E-14-6.28607E-14
 -1      4023 2.02494E+01-5.26601E-02-9.09902E-05-1.04250E-01 6.96188E-14-1.28687E-13
 -1      4024 2.02712E+01-2.46285E-02 6.55888E-04-1.01110E-01 9.16613E-14-1.13990E-13
 -1      4025 2.36454E+01-2.83217E-01-1.07910E-02 1.62641E+00-1.05560E-13 1.05099E-13
 -1      4026 2.01440E+01-1.17095E-01-4.92752E-04-6.05655E-02-5.64030E-14-3.17061E-15
 -1      4027 2.19135E+01-1.57240E+00 1.18275E-02 2.21050E+00-1.02630E-13-6.70590E-14
 -1      4028 2.03316E+01 1.13749E-01-8.82672E-04-7.58057E-02 8.27348E-14-1.92119E-13
 -1      4029 2.03523E+01 1.86496E-01 9.38623E-04-5.30554E-02 1.01414E-13-1.95008E-13
 -1      4030 2.03812E+01 2.54796E-01 1.12033E-04-3.12282E-02 7.32151E-14-1.93823E-13
 -1      4031 1.95581E+01 1.97669E-01 7.68645E-03-1.18347E+00-2.05587E-13 1.27785E-13
 -1      4032 1.93756E+01 1.69556E-01-1.99573E-02-1.47408E+00-2.04385E-13 2.30590E-14
 -1      4033 1.98561E+01-1.55460E-01 6.65370E-03-1.72330E+00-1.77757E-13-1.18125E-14
 -1      4034 1.99408E+01-9.21085E-02 7.59081E-03-1.16744E+00-1.62621E-13 1.97388E-14
 -1      4035 1.98355E+01-3.78890E-01-6.46185E-03-2.40512E+00-1.50945E-13-1.24809E-13
 -1      4036 1.92616E+01-3.96912E-03 3.04783E-02-2.63568E+00-2.46815E-13-2.99105E-14
 -1      4037 1.91004E+01-1.38046E-01 2.58456E-02-3.14563E+00-1.96423E-13 5.31541E-15
 -1      4038 2.39194E+01-1.81253E+00 4.39109E-03 6.21235E-02-7.93120E-14-1.33031E-13
 -1      4039 2.39486E+01-2.16157E+00 1.14062E-02 8.66501E-01-8.25941E-14-1.14510E-13
 -1      4040 2.31161E+01-1.94803E+00-1.00774E-02 1.04227E+00-4.30164E-14-1.20559E-13
 -1      4041 2.30785E+01-1.68446E+00-1.09916E-02 8.30325E-02-6.74656E-14-6.38033E-14
 -1      4042 2.06238E+01-5.73927E-01 5.43666E-03-3.35355E-01-1.99453E-13-4.95508E-13
 -1      4043 2.05073E+01-5.04844E-01-3.29945E-03-4.35473E-01-1.75173E-13-6.70480E-13
 -1      4044 2.05570E+01-5.34113E-01-1.80505E-04-5.73020E-01-7.08797E-14-5.43646E-13
 -1      4045 2.07543E+01-6.76669E-01 1.00317E-03-3.53297E-01-5.82333E-14-3.19680E-13
 -1      4046 2.03845E+01 7.61306E-01-9.19273E-04 7.62284E-02 8.36109E-14-2.73073E-13
 -1      4047 2.03845E+01 8.05847E-01-6.05455E-04 5.59981E-02 8.25314E-14-2.48646E-13
 -1      4048 2.03989E+01 6.16737E-01 4.52133E-04 3.96022E-02 8.42763E-14-2.62445E-13
 -1      4049 1.89868E+01-6.38834E-01-8.79881E-03-4.10528E+00-2.10942E-13 1.54335E-13
 -1      4050 2.21947E+01-1.65038E+00 2.11204E-02-1.92757E+00-1.67408E-13 3.64121E-14
 -1      4051 2.26205E+01-1.80478E+00 6.59681E-03-1.49760E+00-1.67487E-13 1.93754E-13
 -1      4052 2.03862E+01 8.18637E-01-1.45914E-03 2.34787E-02 6.88646E-14-2.57722E-13
 -1      4053 2.04124E+01 2.91513E-01-2.55824E-04 1.01552E-02 1.37225E-14-1.67726E-13
 -1      4054 2.04011E+01 1.99534E-01-2.27825E-04 2.66628E-02-1.08709E-14-1.46423E-13
 -1      4055 2.03902E+01 8.09245E-01-8.90874E-04-4.15975E-03 2.47100E-14-2.09138E-13
 -1      4056 2.03866E+01 7.93814E-01-2.56079E-03-3.50234E-02-2.12530E-14-1.83448E-13
 -1      4057 2.04148E+01 6.23285E-01 2.57508E-03-1.86318E-02-1.38090E-14-1.84959E-13
 -1      4058 2.00935E+01-1.11019E-01-2.27807E-05-1.25271E-02 4.98789E-14 8.45116E-15
 -1      4059 2.01060E+01-1.14701E-01 4.42062E-04-2.17346E-02 2.52899E-14-2.40687E-14
 -1      4060 2.02999E+01-5.77428E-02 4.17669E-04 4.51287E-02-1.81654E-14-1.12040E-13
 -1      4061 2.02771E+01-8.11961E-02 3.56205E-04 4.64553E-02-3.06753E-14-6.63375E-14
 -1      4062 2.02532E+01-9.88095E-02 3.21281E-04 4.41970E-02-1.35622E-14-6.29763E-14
 -1      4063 2.02317E+01-1.11205E-01 4.23428E-04 4.33601E-02-1.72450E-14-2.75290E-14
 -1      4064 2.02736E+01-9.21021E-02-1.14485E-03 2.42267E-02-1.75903E-14-1.10764E-13
 -1      4065 2.02098E+01-1.20097E-01 3.45868E-04 4.10731E-02-6.13877E-15-2.35571E-14
 -1      4066 2.01909E+01-1.25826E-01 4.72709E-04 3.90157E-02 4.99327E-14-1.08887E-14
 -1      4067 2.02276E+01-1.19081E-01-1.29915E-03 2.31039E-02-1.85758E-14-1.07376E-13
 -1      4068 2.01719E+01-1.29697E-01 3.12105E-04 3.69824E-02 4.83717E-14-2.10455E-14
 -1      4069 2.01565E+01-1.31850E-01 5.17208E-04 3.45444E-02 2.70792E-14-4.40073E-14
 -1      4070 2.01870E+01-1.31758E-01-1.28513E-03 2.16253E-02 3.32458E-14-1.38134E-13
 -1      4071 2.01412E+01-1.33423E-01 2.71399E-04 3.33188E-02-1.82873E-14-6.02824E-14
 -1      4072 2.01301E+01-1.34426E-01 5.90705E-04 3.12771E-02 9.93899E-15-8.80930E-14
 -1      4073 2.01531E+01-1.36544E-01-1.27622E-03 2.08697E-02-7.42886E-15-1.00992E-13
 -1      4074 2.01188E+01-1.35927E-01 2.30364E-04 3.15312E-02 1.65526E-14-1.13082E-13
 -1      4075 2.01128E+01-1.37795E-01 7.25852E-04 3.07045E-02-3.06912E-14-1.44128E-13
 -1      4076 2.01270E+01-1.38460E-01-1.33318E-03 2.21768E-02-3.61455E-15-1.10931E-13
 -1      4077 2.01062E+01-1.41195E-01 1.94439E-04 3.33257E-02-1.36341E-14-5.58460E-14
 -1      4078 2.01065E+01-1.45782E-01 9.55986E-04 3.46589E-02-2.33542E-14 2.45408E-14
 -1      4079 2.01098E+01-1.41645E-01-1.51402E-03 2.72593E-02 6.01393E-14-5.89165E-14
 -1      4080 2.01055E+01-1.53032E-01 1.79939E-04 4.08806E-02-3.04784E-14 1.16020E-13
 -1      4081 2.01140E+01-1.62328E-01 1.30954E-03 4.55246E-02 4.40923E-15 1.44130E-13
 -1      4082 2.01030E+01-1.49879E-01-1.89900E-03 3.84717E-02 6.70162E-14 6.97936E-14
 -1      4083 2.01202E+01-1.75540E-01 2.51857E-04 5.69608E-02 4.35756E-15 1.49129E-13
 -1      4084 2.01398E+01-1.91955E-01 1.86129E-03 6.63507E-02 7.94089E-14 1.20042E-13
 -1      4085 2.01091E+01-1.67331E-01-2.64337E-03 5.90116E-02 7.46910E-15 6.93511E-14
 -1      4086 2.01561E+01-2.14190E-01 4.07189E-04 8.50355E-02 5.54644E-14 1.00586E-13
 -1      4087 2.01910E+01-2.40899E-01 2.53740E-03 1.00395E-01 8.50345E-15 1.08833E-13
 -1      4088 2.01324E+01-1.99086E-01-3.89375E-03 9.31317E-02 3.71069E-14 3.24207E-14
 -1      4089 2.02226E+01-2.75491E-01 8.40019E-04 1.28736E-01 5.02360E-14 1.54043E-13
 -1      4090 2.02792E+01-3.16877E-01 3.39622E-03 1.51093E-01 1.32064E-13 1.28811E-13
 -1      4091 2.01802E+01-2.51517E-01-5.77055E-03 1.46009E-01 7.02105E-14 3.23085E-14
 -1      4092 2.03343E+01-3.68714E-01 1.70223E-03 1.90782E-01 1.02541E-13 1.02772E-13
 -1      4093 2.04210E+01-4.30413E-01 4.21291E-03 2.19588E-01 2.34142E-14 6.09825E-14
 -1      4094 2.02650E+01-3.34666E-01-8.63654E-03 2.22923E-01 7.85330E-14 1.66825E-13
 -1      4095 2.05131E+01-5.04574E-01 3.42145E-03 2.70139E-01-4.82515E-14 8.64052E-14
 -1      4096 2.06401E+01-5.92842E-01 4.75752E-03 3.01942E-01-5.27101E-15 6.47068E-14
 -1      4097 2.04065E+01-4.61702E-01-1.28218E-02 3.26970E-01-1.57298E-14 1.70926E-13
 -1      4098 2.07884E+01-6.95082E-01 6.02114E-03 3.58011E-01 5.78169E-14 6.18201E-14
 -1      4099 2.09694E+01-8.13429E-01 5.37507E-03 3.81909E-01 1.24054E-13 5.30227E-14
 -1      4100 2.06363E+01-6.45767E-01-1.73139E-02 4.55214E-01 2.77036E-14 9.81400E-14
 -1      4101 2.11946E+01-9.55858E-01 6.92728E-03 4.36666E-01 1.35459E-13-5.07440E-14
 -1      4102 2.14387E+01-1.10509E+00 6.00961E-05 4.26949E-01 1.11735E-13-7.64038E-14
 -1      4103 2.09927E+01-8.81814E-01-1.61723E-02 5.96126E-01 8.53082E-14 6.64594E-14
 -1      4104 2.17812E+01-1.23868E+00 1.65605E-02 4.37038E-01 1.03016E-13-1.15108E-13
 -1      4105 2.20641E+01-1.40843E+00-6.39214E-03 3.89046E-01 4.91985E-14-1.29146E-13
 -1      4106 2.15439E+01-1.21296E+00-1.31897E-02 7.22459E-01 8.82150E-14-9.57027E-14
 -1      4107 2.27427E+01-1.61130E+00 8.93051E-03 2.47172E-01-1.34285E-14-9.30234E-14
 -1      4108 2.22603E+01-1.45504E+00 4.79194E-03-3.43834E-01 7.51461E-15-1.55205E-13
 -1      4109 2.19235E+01-1.31730E+00 9.50600E-03-4.19973E-01 2.60126E-14-9.27348E-14
 -1      4110 2.15538E+01-1.14994E+00 1.90158E-04-4.27710E-01 3.52267E-14-6.90903E-14
 -1      4111 2.12933E+01-9.92991E-01 8.72958E-03-4.39025E-01 1.36959E-13-9.74897E-14
 -1      4112 2.16760E+01-1.27694E+00-1.68360E-02-7.18281E-01 8.13142E-14-1.04447E-13
 -1      4113 2.22864E+01-1.74190E+00-2.19227E-02 1.60143E+00-5.15807E-14-1.83946E-14
 -1      4114 2.12660E+01-1.13813E+00 3.34512E-02 2.13574E+00-6.09768E-14-2.03396E-14
 -1      4115 2.00143E+01-6.85676E-02-2.16663E-03 1.66979E-01-1.21219E-14 5.14664E-14
 -1      4116 2.00354E+01-7.22296E-02 2.05362E-03 1.26406E-01-1.07633E-14 7.15198E-14
 -1      4117 1.99939E+01-6.03325E-02-3.12622E-03 2.80987E-01 1.15170E-13-6.72679E-14
 -1      4118 2.00223E+01-6.10766E-02 3.16730E-03 2.18310E-01 8.22501E-14-1.17307E-14
 -1      4119 2.00577E+01-1.17530E-01-3.49155E-03 2.00503E-01 1.33035E-13 1.65433E-14
 -1      4120 1.99768E+01-6.34097E-02-4.13031E-03 4.54952E-01-2.91566E-14 4.29984E-15
 -1      4121 2.00130E+01-5.59518E-02 4.99022E-03 3.58218E-01 3.89898E-14-3.63136E-14
 -1      4122 2.00678E+01-1.38727E-01-5.40669E-03 3.26414E-01 8.44739E-14 5.36639E-15
 -1      4123 1.99766E+01-9.60998E-02-4.99882E-03 7.15142E-01 1.35463E-14-8.33730E-15
 -1      4124 2.00165E+01-6.90758E-02 7.80786E-03 5.68312E-01 1.45896E-14 3.96491E-14
 -1      4125 2.01006E+01-1.87717E-01-8.42601E-03 5.12375E-01-2.52336E-14-1.60582E-14
 -1      4126 2.00362E+01-1.99785E-01-3.98746E-03 1.11652E+00-7.06314E-15 9.79642E-15
 -1      4127 2.00602E+01-1.30751E-01 1.17967E-02 8.83892E-01-1.53692E-14 3.08628E-14
 -1      4128 2.01840E+01-2.91617E-01-1.26675E-02 7.84469E-01 7.29234E-15 5.10356E-15
 -1      4129 2.02549E+01-4.06954E-01 1.68057E-02 1.66106E+00 1.20728E-14-1.03474E-13
 -1      4130 2.02036E+01-2.82400E-01 2.09886E-02 1.33402E+00 5.43040E-14-4.10958E-14
 -1      4131 2.03719E+01-4.99533E-01-2.04103E-02 1.15254E+00 6.55086E-14 7.85179E-14
 -1      4132 2.03863E+01 1.23187E-01 1.97163E-04 2.98919E-02-3.83031E-14-1.37630E-13
 -1      4133 2.03673E+01 6.17695E-02 4.88998E-05 4.01482E-02-4.12834E-14-1.25975E-13
 -1      4134 2.04029E+01 1.71001E-01-4.84682E-04 1.42855E-02-2.04403E-14-1.66381E-13
 -1      4135 2.07945E+01-8.02999E-01 1.34097E-02 1.83438E+00-6.80868E-14-6.50456E-14
 -1      4136 2.01189E+01-1.18042E-01 1.61296E-04-2.94457E-02-4.57559E-14-2.97661E-14
 -1      4137 2.01332E+01-1.20305E-01 3.97998E-04-3.66507E-02-6.89733E-14-4.59142E-14
 -1      4138 2.01202E+01-1.25547E-01-1.21327E-03-1.47383E-02-1.67767E-14-5.32789E-14
 -1      4139 2.01853E+01-1.18672E-01 2.97009E-04-5.35570E-02 1.24191E-15 2.58212E-14
 -1      4140 2.02046E+01-1.13576E-01 4.70635E-04-5.75184E-02 2.66119E-14 4.34049E-14
 -1      4141 2.02260E+01-1.05360E-01 2.44415E-04-6.15058E-02 1.53245E-14 4.86528E-14
 -1      4142 2.02477E+01-9.27603E-02 5.57825E-04-6.32573E-02 4.72401E-14 2.59418E-14
 -1      4143 2.02261E+01-1.14116E-01-1.34867E-03-4.19266E-02 2.34956E-14 8.65765E-15
 -1      4144 2.00720E+01-1.01984E-01-3.09429E-04 1.01020E-02 7.25278E-14 1.75893E-14
 -1      4145 2.00839E+01-1.06357E-01 5.69711E-04-2.20984E-03 8.14047E-14-1.00288E-14
 -1      4146 2.00970E+01-1.20305E-01-1.22026E-03 1.68131E-03 9.34536E-14-7.27302E-15
 -1      4147 2.00339E+01-8.00036E-02-1.37682E-03 9.13475E-02-6.07697E-14 3.11662E-14
 -1      4148 2.00503E+01-8.48571E-02 1.32698E-03 6.38860E-02 1.59304E-14-3.81537E-14
 -1      4149 2.00588E+01-1.10478E-01-2.31434E-03 1.15666E-01-4.44402E-14 1.13013E-14
 -1      4150 2.02922E+01 1.07857E-02-3.96086E-04-9.75070E-02 5.56614E-14-1.31821E-13
 -1      4151 2.03145E+01 5.70292E-02 8.43853E-04-8.65132E-02 6.05535E-14-1.78117E-13
 -1      4152 2.03077E+01-1.35626E-03-3.52585E-04-8.07080E-02 4.95826E-14-1.21532E-13
 -1      4153 2.26196E+01-1.77445E+00-6.75465E-03-1.11308E+00-5.33189E-14-7.24699E-14
 -1      4154 2.26856E+01-1.53282E+00 4.31489E-03-1.83615E-01 5.06220E-14-2.07464E-13
 -1      4155 2.03460E+01 1.15919E-02 2.35880E-04 4.06000E-02-1.07766E-14-1.06077E-13
 -1      4156 2.03231E+01-2.73483E-02 1.21285E-05 4.53484E-02 1.59812E-14-1.09112E-13
 -1      4157 2.03667E+01 4.14277E-02-5.87229E-04 2.16639E-02-8.68606E-15-8.39159E-14
 -1      4158 2.17654E+01-1.56256E+00-1.58480E-02-2.23186E+00-2.14900E-13-8.43922E-14
 -1      4159 2.17482E+01-1.42607E+00-9.55147E-04-1.78550E+00 8.64543E-15-3.85007E-14
 -1      4160 2.13213E+01-1.28020E+00 3.50584E-02-2.55777E+00-9.19150E-14 1.66698E-14
 -1      4161 2.04152E+01 6.47227E-01 2.03908E-03 1.69957E-02 4.33914E-14-2.19173E-13
 -1      4162 1.95898E+01-6.23136E-01 1.19130E-04-3.41914E+00-2.02166E-13 7.74693E-14
 -1      4163 2.00530E+01-9.16874E-02-7.45481E-04 4.22035E-02 1.23097E-13-1.03112E-13
 -1      4164 2.00657E+01-9.63143E-02 8.20033E-04 2.47726E-02 1.08281E-13-4.10066E-14
 -1      4165 2.00793E+01-1.14867E-01-1.34165E-03 2.52717E-02 8.34976E-14-1.19498E-13
 -1      4166 2.00667E+01-1.10861E-01-1.64642E-03 6.04377E-02 2.35773E-14-5.98737E-14
 -1      4167 2.01493E+01-1.21531E-01 2.61477E-04-4.28106E-02-3.66935E-14-1.68659E-14
 -1      4168 2.01662E+01-1.21095E-01 4.11536E-04-4.85145E-02-1.89238E-14 1.06893E-14
 -1      4169 2.01850E+01-1.26158E-01-1.34097E-03-3.56360E-02-6.09156E-15 3.64524E-15
 -1      4170 2.01495E+01-1.28512E-01-1.26789E-03-2.67110E-02-2.84225E-14-7.70884E-14
 -1      4171 2.25187E+01-1.62172E+00-8.54229E-03 6.30887E-01 3.68388E-14-1.06371E-14
 -1      4172 2.03914E+01 2.16872E-01-9.62084E-04-3.40184E-02 5.68107E-14-1.82452E-13
 -1      4173 2.04048E+01 3.15781E-01 4.41111E-04-1.13351E-02 3.58380E-14-2.10639E-13
 -1      4174 2.17158E+01-1.27478E+00 4.01123E-03-1.05092E+00 7.90106E-14-1.82223E-13
 -1      4175 2.13575E+01-1.07711E+00 4.30486E-03-9.96411E-01 6.56865E-14-1.99639E-13
 -1      4176 2.04049E+01 3.96776E-01-4.50705E-04-2.27934E-03 6.29326E-14-2.53276E-13
 -1      4177 2.04058E+01 5.08866E-01-3.18960E-04 2.48878E-02 7.11572E-14-2.46938E-13
 -1      4178 2.04122E+01 5.45421E-01 2.25387E-04 1.90640E-02 6.12224E-14-2.28489E-13
 -1      4179 2.04158E+01 3.60376E-01 1.67278E-04-5.28750E-03 2.57984E-14-1.95207E-13
 -1      4180 2.02705E+01-7.55312E-02-1.41013E-05-6.58925E-02 3.38456E-14-1.06718E-14
 -1      4181 2.02934E+01-5.11165E-02 3.51473E-04-6.47285E-02 4.35072E-14-4.76101E-14
 -1      4182 2.02722E+01-8.55423E-02-9.43115E-04-4.50871E-02 7.37676E-15 1.98517E-14
 -1      4183 2.24639E+01-1.69259E+00 7.48615E-03 1.13321E+00 4.45945E-14-7.63567E-14
 -1      4184 2.18245E+01-1.35927E+00 1.15959E-02 1.16583E+00 5.64568E-14-5.99087E-15
 -1      4185 2.10870E+01-8.89129E-01 1.39994E-03-4.01800E-01 7.97460E-14-2.62105E-13
 -1      4186 2.09062E+01-7.66981E-01 5.52746E-03-4.00646E-01-4.55300E-14-3.26873E-13
 -1      4187 2.08016E+01-7.26136E-01-6.76658E-03-5.29645E-01-3.89730E-14-2.91886E-13
 -1      4188 2.11415E+01-9.46865E-01-6.42398E-03-6.42760E-01 3.48137E-14-2.16263E-13
 -1      4189 2.04169E+01 5.05981E-01-1.06646E-03-1.50438E-02 1.33461E-14-1.86078E-13
 -1      4190 2.04176E+01 3.76656E-01 4.68289E-04 5.44933E-03 1.95522E-14-1.87814E-13
 -1      4191 2.04220E+01 3.35887E-01 2.93354E-05 2.92182E-03 2.01228E-14-1.79018E-13
 -1      4192 2.04214E+01 5.23434E-01-2.39595E-04-5.19750E-03 1.64884E-14-1.78531E-13
 -1      4193 2.03495E+01 9.90409E-02-1.59941E-04-6.44462E-02 6.13205E-14-1.78019E-13
 -1      4194 2.13753E+01-1.15654E+00 1.20492E-02-1.67777E+00-4.88802E-15-1.22614E-13
 -1      4195 2.16586E+01-1.34873E+00-1.63583E-02-1.41171E+00 4.31547E-14-1.59489E-13
 -1      4196 2.10013E+01-1.01474E+00-3.32196E-02 1.52302E+00 5.73578E-14 9.74698E-14
 -1      4197 2.03201E+01-4.07746E-02-6.04619E-04 2.48974E-02-1.71164E-14-1.08768E-13
 -1      4198 2.02964E+01-3.93164E-01 1.07930E-02-1.48018E+00-1.52119E-13-3.23629E-14
 -1      4199 2.02296E+01-4.89046E-01-1.02305E-02-1.81231E+00-1.09591E-13-4.72077E-14
 -1      4200 2.06740E+01-6.11344E-01 3.54581E-03-6.59801E-01-4.94584E-14-4.03274E-13
 -1      4201 2.05288E+01-5.28887E-01-4.15200E-03-7.66370E-01-2.08792E-13-5.70320E-13
 -1      4202 2.08130E+01-7.16438E-01 1.73057E-03-7.33852E-01-8.61412E-14-3.47341E-13
 -1      4203 2.03271E+01-3.50712E-01 6.58074E-03-9.33174E-01-1.49070E-13-2.30714E-13
 -1      4204 2.20525E+01-1.48218E+00-2.85043E-03-1.10666E+00 2.98819E-14-1.60554E-13
 -1      4205 2.04223E+01-1.00399E+00-3.00848E-02-2.97537E+00-1.74671E-13-8.42729E-15
 -1      4206 2.04192E+01 5.35446E-01-8.25891E-04 2.94684E-03 1.90875E-14-1.91088E-13
 -1      4207 2.03591E+01 7.27828E-02-5.60430E-04-5.52409E-02 3.70564E-14-1.51632E-13
 -1      4208 2.03805E+01 1.38086E-01 9.31029E-04-4.16139E-02 7.85551E-14-1.55330E-13
 -1      4209 2.03998E+01 1.91888E-01-4.31233E-04-2.53148E-02 4.83822E-14-1.49713E-13
 -1      4210 2.02349E+01-1.14559E-01 8.59663E-04-7.56345E-03-6.34073E-15-6.65997E-14
 -1      4211 2.02130E+01-1.22829E-01 9.19235E-04-7.37648E-03-1.44235E-14-9.40751E-14
 -1      4212 2.01934E+01-1.26653E-01 8.99325E-04-4.78476E-03-3.92970E-15-7.45150E-14
 -1      4213 2.01744E+01-1.29903E-01 8.83988E-04-4.45870E-03 1.08819E-14-8.48465E-14
 -1      4214 2.01578E+01-1.29921E-01 8.79253E-04-4.57055E-04-3.39198E-15-1.01930E-13
 -1      4215 2.01427E+01-1.30635E-01 8.96742E-04 5.89503E-04-3.26774E-14-9.45773E-14
 -1      4216 2.01294E+01-1.28891E-01 8.62715E-04 6.45672E-03 3.32916E-15-8.45140E-14
 -1      4217 2.01187E+01-1.29007E-01 1.00417E-03 8.95288E-03 6.44173E-14-3.79422E-14
 -1      4218 2.01085E+01-1.26974E-01 8.81373E-04 1.77035E-02 7.20892E-14-6.60451E-14
 -1      4219 2.01030E+01-1.28062E-01 1.25743E-03 2.26751E-02 1.20412E-13-4.60540E-14
 -1      4220 2.00958E+01-1.26877E-01 9.80974E-04 3.60058E-02 1.02954E-13-7.58331E-14
 -1      4221 2.00966E+01-1.30437E-01 1.72713E-03 4.49174E-02 2.82616E-14-4.53602E-14
 -1      4222 2.00925E+01-1.31097E-01 1.25406E-03 6.55111E-02-2.83761E-14 2.10660E-14
 -1      4223 2.01018E+01-1.39007E-01 2.52346E-03 8.03424E-02-2.04922E-14 1.33263E-14
 -1      4224 2.01015E+01-1.43225E-01 1.79672E-03 1.13653E-01 2.62773E-14-9.05680E-15
 -1      4225 2.01225E+01-1.58060E-01 3.75539E-03 1.37361E-01 8.08600E-14-5.54909E-14
 -1      4226 2.01279E+01-1.67627E-01 2.84220E-03 1.86259E-01 1.46309E-13-2.93069E-14
 -1      4227 2.01657E+01-1.93507E-01 5.48375E-03 2.21983E-01 1.22944E-13 2.34556E-14
 -1      4228 2.01812E+01-2.12872E-01 4.47135E-03 2.94507E-01 5.82426E-14 5.26021E-14
 -1      4229 2.02442E+01-2.55808E-01 7.84444E-03 3.45603E-01 2.14187E-14 7.37235E-14
 -1      4230 2.02793E+01-2.92213E-01 7.12425E-03 4.49644E-01-1.88896E-14 4.24618E-14
 -1      4231 2.03799E+01-3.62118E-01 1.05314E-02 5.18143E-01-1.30523E-14 4.56650E-14
 -1      4232 2.04569E+01-4.32762E-01 1.04920E-02 6.65940E-01 2.47283E-14 4.69640E-14
 -1      4233 2.06121E+01-5.42141E-01 1.26977E-02 7.51291E-01 5.73924E-14 5.76594E-14
 -1      4234 2.07574E+01-6.73084E-01 1.03279E-02 9.23704E-01 7.05576E-14 1.18525E-15
 -1      4235 2.09734E+01-8.19906E-01 1.34062E-02 1.04027E+00 5.74161E-14 2.33775E-14
 -1      4236 2.12552E+01-1.02777E+00 1.50974E-03 1.13383E+00 8.40413E-14 3.60704E-14
 -1      4237 2.02965E+01-4.05834E-01-8.30101E-03-1.15267E+00-1.80979E-13-1.86009E-13
 -1      4238 2.09954E+01-9.89607E-01-6.43540E-03-1.81600E+00-1.24614E-13-1.43892E-13
 -1      4239 2.10092E+01-9.08753E-01 2.53723E-03-1.45256E+00-1.04589E-13-2.03701E-13
 -1      4240 2.04080E+01 1.80194E-01-1.58624E-04-8.68205E-03 2.89452E-14-1.58809E-13
 -1      4241 2.03934E+01 1.06449E-01 9.50708E-04-4.87221E-03 2.51839E-14-1.30957E-13
 -1      4242 2.06825E+01-6.48976E-01 6.84400E-03-1.18834E+00-1.00017E-13-3.39471E-13
 -1      4243 2.05876E+01-7.46488E-01 7.73525E-03-2.12655E+00-1.14084E-13-5.86163E-14
 -1      4244 2.06516E+01-9.47008E-01-1.56392E-02-2.45146E+00-9.82200E-14-1.56234E-14
 -1      4245 2.03390E+01-2.53022E-02 4.05955E-04 4.19881E-03-2.51367E-14-7.30929E-14
 -1      4246 2.03149E+01-5.83215E-02-2.73417E-05 4.26718E-03-5.45603E-14-1.01257E-13
 -1      4247 2.03168E+01-1.92602E-02-6.13953E-06-6.41365E-02 3.63883E-14-1.31288E-13
 -1      4248 2.03406E+01 2.15738E-02 8.00674E-04-5.78420E-02 8.36982E-15-1.61569E-13
 -1      4249 2.03644E+01 5.40909E-02-8.46704E-04-3.93703E-02 4.48756E-14-1.44334E-13
 -1      4250 2.03186E+01-3.23711E-02-4.67912E-04-4.42835E-02-3.86552E-15-8.19692E-14
 -1      4251 2.02803E+01-8.80464E-02 5.03713E-04-9.57514E-03-1.35661E-14-5.38407E-14
 -1      4252 2.02567E+01-1.04184E-01 9.17422E-04-8.81916E-03 9.03060E-15-6.96131E-14
 -1      4253 2.04264E+01 4.34931E-01 9.50029E-04 4.18179E-03 1.95288E-14-2.01040E-13
 -1      4254 2.09345E+01-8.46407E-01-9.31457E-03-1.09250E+00-2.11519E-14-4.23241E-13
 -1      4255 2.10044E+01-8.35791E-01 3.54498E-03-7.96956E-01-4.53270E-15-2.79097E-13
 -1      4256 2.03727E+01 4.71852E-02 4.98767E-05-1.02948E-02 9.59991E-15-1.07408E-13
 -1      4257 2.03505E+01-6.13619E-04 4.89949E-04-8.37430E-03 9.50490E-15-8.03127E-14
 -1      4258 2.03033E+01-6.66725E-02 5.81214E-04-9.53693E-03-4.35915E-14-8.77420E-14
 -1      4259 2.04213E+01 2.69761E-01 9.42344E-04-6.63494E-04 8.30268E-15-1.88859E-13
 -1      4260 2.04238E+01 3.48316E-01-4.07751E-04-4.95980E-03 2.37780E-14-1.87338E-13
 -1      4261 2.03361E+01-2.15052E-02-2.98895E-04-3.00977E-02-2.56874E-14-1.17051E-13
 -1      4262 2.03127E+01-5.34838E-02 2.16540E-04-3.05876E-02-4.20465E-14-5.93015E-14
 -3
    1PSTEP                         3           1           1          
  100CL  101 1.000000000        4262                     0    1           1
 -4  TOSTRAIN    6    1
 -5  EXX         1    4    1    1
 -5  EYY         1    4    2    2
 -5  EZZ         1    4    3    3
 -5  EXY         1    4    1    2
 -5  EYZ         1    4    2    3
 -5  EZX         1    4    3    1
 -1         1 2.27159E-04-3.01971E-05-7.51108E-05 1.33907E-04-2.55126E-18-5.46252E-18
 -1         2 4.18661E-05-1.28893E-04 2.52843E-05-9.71457E-07-5.67512E-19 6.28790E-19
 -1         3 9.52320E-05-2.85765E-05-2.85593E-05-3.87006E-09 5.36496E-19 1.74806E-18
 -1         4 9.52504E-05-2.85574E-05-2.86042E-05-9.33447E-09-9.44703E-19 2.11059E-18
 -1         5 1.43347E-04-2.14778E-05-4.25303E-05 3.85289E-05-1.76977E-19 1.26550E-17
 -1         6 1.45406E-04 2.57588E-10-4.41884E-05-5.35231E-05-8.13893E-19 1.11740E-17
 -1         7 9.06160E-05-5.11713E-07-3.90704E-05-2.92466E-05-1.21232E-19 1.32524E-18
 -1         8 8.51320E-05 8.62004E-08-3.63415E-05-2.02628E-05-1.30231E-19-1.57834E-18
 -1         9 8.28203E-05 7.59426E-08-3.53529E-05-1.56296E-05-1.20610E-19-3.13044E-18
 -1        10 8.17735E-05 3.95844E-08-3.48824E-05-1.20680E-05-8.03027E-20-3.80137E-18
 -1        11 8.12518E-05 1.92979E-08-3.46527E-05-9.00466E-06-5.67578E-20-4.08163E-18
 -1        12 8.09793E-05 9.22980E-09-3.45368E-05-6.27671E-06-1.88151E-20-4.14880E-18
 -1        13 8.08353E-05 4.71061E-09-3.44782E-05-3.68070E-06-7.12285E-21-4.10555E-18
 -1        14 8.07750E-05 2.87146E-09-3.44542E-05-1.18211E-06 1.58231E-20-3.99223E-18
 -1        15 8.07771E-05 2.85055E-09-3.44549E-05 1.28703E-06 4.41576E-20-3.89687E-18
 -1        16 8.08419E-05 4.61836E-09-3.44805E-05 3.79089E-06 6.49544E-20-3.82619E-18
 -1        17 8.09908E-05 8.49227E-09-3.45406E-05 6.39918E-06 7.41601E-20-3.59942E-18
 -1        18 8.12684E-05 1.82795E-08-3.46575E-05 9.14615E-06 8.44485E-20-3.29697E-18
 -1        19 8.17991E-05 3.82772E-08-3.48903E-05 1.22467E-05 1.22012E-19-2.66755E-18
 -1        20 8.28438E-05 8.04497E-08-3.53650E-05 1.58615E-05 1.64205E-19-1.61594E-18
 -1        21 8.50950E-05 1.69728E-07-3.63796E-05 2.04742E-05 1.73801E-19 3.44268E-19
 -1        22 9.16518E-05-9.96915E-08-3.87428E-05 2.79931E-05 2.22346E-20 4.15963E-18
 -1        23 1.12986E-04-3.81302E-05-3.54003E-05-4.40070E-06-5.53933E-19 8.37906E-18
 -1        24 9.28258E-05-2.77035E-05-2.90055E-05 3.91540E-07-1.85639E-19 5.95315E-18
 -1        25 8.91486E-05-2.68609E-05-2.69381E-05 3.76038E-07-1.68927E-20 3.75430E-18
 -1        26 8.80540E-05-2.64999E-05-2.64033E-05 2.04370E-07-4.68259E-20 2.05003E-18
 -1        27 8.80903E-05-2.64812E-05-2.63984E-05 1.40175E-07-6.97830E-20 1.25766E-18
 -1        28 8.86352E-05-2.66209E-05-2.65713E-05 1.01246E-07-1.04188E-20 7.10978E-19
 -1        29 8.94029E-05-2.68374E-05-2.68078E-05 7.56960E-08 9.57396E-20 2.27640E-21
 -1        30 9.02426E-05-2.70816E-05-2.70624E-05 5.75551E-08-6.16947E-20-8.54256E-19
 -1        31 9.10692E-05-2.73251E-05-2.73117E-05 4.39855E-08-2.74183E-20-2.22983E-18
 -1        32 9.18355E-05-2.75523E-05-2.75426E-05 3.35609E-08-7.69708E-20-3.13433E-18
 -1        33 9.25177E-05-2.77553E-05-2.77483E-05 2.54848E-08-2.76793E-20-3.65236E-18
 -1        34 9.31062E-05-2.79309E-05-2.79258E-05 1.92552E-08-5.22163E-21-3.20171E-18
 -1        35 9.36004E-05-2.80785E-05-2.80750E-05 1.45183E-08-1.30309E-19-3.78433E-18
 -1        36 9.40044E-05-2.81993E-05-2.81970E-05 1.10019E-08-4.23913E-20-4.10159E-18
 -1        37 9.43241E-05-2.82949E-05-2.82936E-05 8.47948E-09 3.33248E-20-3.93191E-18
 -1        38 9.45645E-05-2.83668E-05-2.83662E-05 6.74484E-09-2.28599E-19-3.57159E-18
 -1        39 9.47276E-05-2.84153E-05-2.84153E-05 5.58490E-09 4.43237E-20-4.56002E-18
 -1        40 9.48101E-05-2.84395E-05-2.84398E-05 4.74405E-09-6.51069E-20-3.31850E-18
 -1        41 9.48005E-05-2.84358E-05-2.84361E-05 3.87516E-09-2.44425E-20-4.39307E-18
 -1        42 9.46766E-05-2.83975E-05-2.83973E-05 2.47693E-09 3.63999E-20-5.61569E-18
 -1        43 9.44018E-05-2.83137E-05-2.83122E-05-1.74800E-10-3.92642E-19-6.31424E-18
 -1        44 9.39228E-05-2.81685E-05-2.81647E-05-5.07911E-09 4.92642E-19-5.16332E-18
 -1        45 9.31683E-05-2.79406E-05-2.79333E-05-1.34986E-08-2.06500E-19-4.62329E-18
 -1        46 9.20514E-05-2.76044E-05-2.75923E-05-2.68096E-08-3.10565E-21-5.91185E-18
 -1        47 9.04786E-05-2.71321E-05-2.71145E-05-4.61246E-08-1.20397E-19-4.78552E-18
 -1        48 8.83676E-05-2.64996E-05-2.64769E-05-7.16283E-08 2.63740E-19-3.35254E-18
 -1        49 8.56760E-05-2.56947E-05-2.56693E-05-1.01691E-07 4.48844E-19-3.30393E-18
 -1        50 8.24384E-05-2.47279E-05-2.47045E-05-1.32046E-07-4.61528E-19-3.95020E-18
 -1        51 7.88024E-05-2.36433E-05-2.36287E-05-1.55599E-07-3.67712E-20-3.25731E-18
 -1        52 7.50495E-05-2.25247E-05-2.25259E-05-1.63563E-07 1.69618E-20-2.02056E-18
 -1        53 7.15797E-05-2.14911E-05-2.15125E-05-1.48246E-07-2.83735E-19-2.63908E-18
 -1        54 6.88511E-05-2.06785E-05-2.07195E-05-1.06788E-07-2.50429E-19-4.80665E-18
 -1        55 6.72776E-05-2.02100E-05-2.02636E-05-4.39164E-08-1.78400E-19-7.16154E-18
 -1        56 6.71181E-05-2.01625E-05-2.02175E-05 2.83298E-08 1.06339E-19-7.18980E-18
 -1        57 6.84001E-05-2.05442E-05-2.05887E-05 9.44629E-08 6.55584E-19-4.92747E-18
 -1        58 7.09110E-05-2.12920E-05-2.13179E-05 1.41263E-07-1.07312E-19-6.06071E-18
 -1        59 7.42623E-05-2.22903E-05-2.22956E-05 1.62279E-07 6.00492E-20-5.50290E-18
 -1        60 7.79969E-05-2.34033E-05-2.33916E-05 1.58890E-07 8.70781E-20-5.18979E-18
 -1        61 8.16963E-05-2.45066E-05-2.44846E-05 1.38048E-07 4.73066E-19-3.23645E-18
 -1        62 8.50517E-05-2.55084E-05-2.54830E-05 1.08591E-07-3.79000E-19-2.92179E-18
 -1        63 8.78885E-05-2.63565E-05-2.63331E-05 7.81637E-08-1.13800E-19-1.61821E-18
 -1        64 9.01521E-05-2.70344E-05-2.70159E-05 5.17060E-08-4.56584E-19-1.04771E-18
 -1        65 9.18733E-05-2.75510E-05-2.75381E-05 3.13943E-08-4.27196E-19-8.41172E-19
 -1        66 9.31300E-05-2.79291E-05-2.79212E-05 1.73597E-08 2.40195E-20-1.04767E-18
 -1        67 9.40157E-05-2.81963E-05-2.81920E-05 8.54523E-09 6.43902E-19 1.75316E-18
 -1        68 9.46174E-05-2.83785E-05-2.83759E-05 3.30734E-09 1.71574E-19 5.07021E-18
 -1        69 9.50029E-05-2.84958E-05-2.84928E-05-4.08409E-10 6.98823E-21 4.20048E-18
 -1        70 9.52143E-05-2.85614E-05-2.85569E-05-6.23115E-09 3.98849E-19 6.45966E-18
 -1        71 9.52705E-05-2.85808E-05-2.85822E-05-1.51807E-08 5.98406E-19 6.82929E-18
 -1        72 1.02191E-04-3.05917E-05-3.41541E-05-1.92965E-06 1.96326E-19 1.15048E-17
 -1        73 9.25809E-05-2.75201E-05-2.89120E-05-3.34372E-07 1.03090E-19 8.74787E-18
 -1        74 8.91351E-05-2.67107E-05-2.69786E-05-1.26636E-07 1.30438E-20 6.93463E-18
 -1        75 8.80843E-05-2.64514E-05-2.64459E-05-9.50234E-08 9.17976E-20 5.62718E-18
 -1        76 8.81253E-05-2.64615E-05-2.64258E-05-7.35658E-08 4.42463E-20 4.57136E-18
 -1        77 8.86988E-05-2.66235E-05-2.65977E-05-6.40331E-08 6.15443E-20 2.90181E-18
 -1        78 8.94723E-05-2.68499E-05-2.68315E-05-5.15353E-08 3.13329E-20 2.69401E-18
 -1        79 9.03074E-05-2.70971E-05-2.70828E-05-4.28519E-08-4.06390E-20 2.23972E-18
 -1        80 9.11252E-05-2.73406E-05-2.73285E-05-3.54186E-08 7.90537E-20 2.13822E-18
 -1        81 9.18797E-05-2.75657E-05-2.75553E-05-2.89777E-08-1.83807E-20 1.37841E-18
 -1        82 9.25492E-05-2.77660E-05-2.77567E-05-2.36897E-08 1.64304E-19-5.91947E-20
 -1        83 9.31462E-05-2.79446E-05-2.79367E-05-1.84337E-08-1.71664E-20-4.71234E-19
 -1        84 9.36182E-05-2.80858E-05-2.80791E-05-1.43149E-08-3.78468E-20-3.33867E-19
 -1        85 9.39995E-05-2.82001E-05-2.81943E-05-1.08200E-08-1.35022E-19-8.02607E-19
 -1        86 9.42986E-05-2.82898E-05-2.82847E-05-7.66445E-09 6.05125E-20-8.85552E-19
 -1        87 9.45263E-05-2.83584E-05-2.83536E-05-4.79489E-09 3.39167E-19-1.63909E-18
 -1        88 9.47016E-05-2.84116E-05-2.84070E-05-1.02420E-09-1.81178E-19-1.39590E-18
 -1        89 9.48268E-05-2.84501E-05-2.84454E-05 3.01907E-09 1.06946E-19-3.92726E-19
 -1        90 9.49385E-05-2.84852E-05-2.84804E-05 8.58174E-09 1.20466E-19 7.29697E-21
 -1        91 9.50816E-05-2.85308E-05-2.85262E-05 1.65977E-08 4.03273E-20-5.35740E-19
 -1        92 9.53355E-05-2.86113E-05-2.86081E-05 2.84918E-08 4.94995E-21 4.66302E-20
 -1        93 9.58415E-05-2.87706E-05-2.87715E-05 4.93509E-08-4.16514E-20-6.85255E-19
 -1        94 9.69355E-05-2.91039E-05-2.91278E-05 6.83868E-08-2.24929E-19 3.19518E-19
 -1        95 9.90093E-05-2.97348E-05-2.98059E-05 9.70457E-08-1.67473E-19 1.85040E-18
 -1        96 1.02958E-04-3.09160E-05-3.11086E-05 1.14890E-07 2.42121E-19 1.20405E-18
 -1        97 1.10287E-04-3.30767E-05-3.35369E-05 7.76314E-08-4.24509E-20 1.97417E-18
 -1        98 1.23506E-04-3.69610E-05-3.78585E-05-9.84016E-08 3.99191E-19 2.16115E-18
 -1        99 1.47462E-04-4.39873E-05-4.52638E-05-9.85027E-07-1.16930E-19 8.40892E-19
 -1       100 1.82855E-04-5.47055E-05-5.49384E-05-2.76663E-06-3.24936E-19 3.77999E-18
 -1       101 2.22256E-04-6.68433E-05-6.36462E-05-4.87655E-06-4.48074E-19 3.17637E-18
 -1       102 2.52192E-04-7.88009E-05-6.81641E-05 1.29341E-06 2.23339E-20 6.58356E-18
 -1       103 2.24787E-04-6.91692E-05-6.51265E-05 1.42550E-05-1.04370E-18 6.73349E-18
 -1       104 1.47640E-04-3.92077E-05-5.74450E-05 2.26710E-05-4.75185E-19 9.64432E-18
 -1       105 7.98790E-05-1.20406E-05-5.28562E-05 1.00326E-05 6.11981E-19 9.88636E-18
 -1       106 8.60583E-05-1.34842E-05-5.40661E-05-8.57031E-06-6.55180E-19 9.17654E-18
 -1       107 1.65624E-04-4.61650E-05-5.88905E-05-1.18194E-05 1.05074E-18 4.36815E-18
 -1       108 2.29756E-04-7.02999E-05-6.48843E-05-6.31717E-06 2.64698E-22-1.73896E-18
 -1       109 2.50022E-04-7.76625E-05-6.79156E-05-3.25327E-07 2.41126E-19-6.66678E-18
 -1       110 2.25778E-04-6.90465E-05-6.41935E-05 2.11340E-06-4.51065E-19-3.88301E-18
 -1       111 1.85577E-04-5.57369E-05-5.56163E-05 1.92471E-06-1.25966E-19-1.35366E-18
 -1       112 1.47718E-04-4.39584E-05-4.54021E-05 1.04475E-06 2.76902E-19-2.10488E-18
 -1       113 1.24506E-04-3.70870E-05-3.82567E-05 4.90903E-07-1.35256E-19-4.85657E-18
 -1       114 1.10920E-04-3.31380E-05-3.38137E-05 2.10160E-07 4.88659E-19-2.67062E-18
 -1       115 1.03355E-04-3.09476E-05-3.12859E-05 8.35596E-08-8.79409E-20-2.09249E-18
 -1       116 9.92793E-05-2.97620E-05-2.99216E-05 2.91594E-08 5.27422E-19-1.66200E-18
 -1       117 9.71430E-05-2.91358E-05-2.92103E-05 9.68234E-09-9.76853E-19-1.45204E-18
 -1       118 9.60356E-05-2.88099E-05-2.88403E-05-2.84585E-09 4.40142E-19 1.13232E-18
 -1       119 9.55429E-05-2.86638E-05-2.86762E-05-3.69297E-09-2.30634E-19 6.02776E-18
 -1       120 9.53241E-05-2.85984E-05-2.86028E-05-3.40449E-09 4.23891E-20 7.07663E-18
 -1       121 9.52393E-05-2.85725E-05-2.85743E-05-2.62375E-09-1.03015E-18 2.21815E-18
 -1       122 9.52224E-05-2.85673E-05-2.85659E-05-4.15593E-09-6.22653E-19 1.00288E-18
 -1       123 9.52415E-05-2.85847E-05-2.85682E-05-4.38929E-09-3.60698E-19-8.60770E-19
 -1       124 9.52337E-05-2.85532E-05-2.85801E-05 2.87025E-09-8.72552E-18-1.75544E-18
 -1       125 9.52134E-05-2.84873E-05-2.85957E-05 7.49438E-09 1.41608E-18 3.44395E-18
 -1       126 9.52007E-05-2.84490E-05-2.86021E-05 7.17399E-09 2.31078E-18 2.34245E-18
 -1       127 9.52138E-05-2.84961E-05-2.85856E-05 2.86616E-09 1.74818E-18-1.29522E-18
 -1       128 9.52587E-05-2.86471E-05-2.85415E-05-2.65447E-09-4.89275E-18-6.57357E-19
 -1       129 9.53300E-05-2.88848E-05-2.84743E-05-7.65555E-09-1.28989E-18 1.29782E-18
 -1       130 9.54099E-05-2.91496E-05-2.84003E-05-9.95825E-09 7.88713E-18-2.80488E-19
 -1       131 9.54765E-05-2.93695E-05-2.83390E-05-8.89541E-09 4.12678E-18-1.03708E-18
 -1       132 9.55111E-05-2.94829E-05-2.83076E-05-4.87662E-09 5.23239E-18 5.16549E-19
 -1       133 9.55037E-05-2.94573E-05-2.83149E-05 9.80425E-10 5.77627E-18 3.87850E-19
 -1       134 9.54572E-05-2.93025E-05-2.83580E-05 6.35628E-09 3.54033E-18 7.78262E-19
 -1       135 9.53830E-05-2.90569E-05-2.84259E-05 1.04159E-08 3.11740E-18-8.12939E-19
 -1       136 9.53035E-05-2.87943E-05-2.84979E-05 1.09169E-08-5.41871E-18-5.71372E-19
 -1       137 9.52435E-05-2.86012E-05-2.85524E-05 4.62998E-09-1.07896E-17-2.54519E-19
 -1       138 9.52327E-05-2.85458E-05-2.85804E-05-2.20903E-08-8.98890E-18-4.99885E-19
 -1       139 3.76084E-05-1.30747E-04 2.66889E-05-3.65334E-05-4.42809E-18-9.55744E-19
 -1       140 1.43436E-05-9.09836E-05 1.88392E-05-5.57205E-05-5.77253E-19 6.31251E-19
 -1       141-3.00593E-06-3.36560E-05 1.86970E-06-3.62783E-05 7.94093E-19-1.47807E-18
 -1       142 2.69182E-05 6.61386E-06-2.46333E-05 2.60708E-05 2.84307E-18 4.51130E-18
 -1       143 1.43614E-04-9.51584E-06-5.55657E-05 1.00542E-04 2.23871E-18 4.43930E-18
 -1       144 3.44089E-04-9.34738E-05-8.51842E-05 1.05682E-04 9.48677E-20-7.75882E-19
 -1       145 4.81511E-04-1.47329E-04-1.02039E-04 4.42702E-05 6.96685E-19-6.78728E-18
 -1       146 4.56869E-04-1.41537E-04-9.86029E-05-8.14625E-05 7.42835E-19-9.35421E-18
 -1       147 2.68852E-04-5.49731E-05-7.62469E-05-1.25499E-04 1.57379E-18-4.33766E-18
 -1       148 1.00593E-04 2.22021E-06-4.67068E-05-8.19470E-05 1.88126E-18-2.26666E-18
 -1       149 8.81085E-06-1.05755E-06-1.51998E-05-2.94102E-06 2.60971E-18-2.48223E-18
 -1       150-8.64029E-07-4.87598E-05 7.24064E-06 4.65128E-05 4.34486E-18-2.58832E-18
 -1       151 2.14546E-05-1.04794E-04 2.18699E-05 5.44073E-05 6.54545E-19-1.23685E-18
 -1       152 4.15382E-05-1.35211E-04 2.71888E-05 2.59507E-05-6.08620E-18 3.04244E-19
 -1       153 3.74093E-05-1.16410E-04 2.25081E-05-1.05553E-05-7.29825E-18-5.04223E-19
 -1       154 1.65289E-05-5.88801E-05 9.45927E-06-2.07054E-05-6.05205E-18-1.96670E-18
 -1       155 4.91456E-06 2.78655E-06-8.44600E-06 6.75149E-06-7.93924E-18-5.14255E-18
 -1       156 3.21904E-05 3.93689E-05-3.10740E-05 6.60342E-05-9.47237E-18-8.20860E-18
 -1       157 1.12717E-04 2.55604E-05-5.45559E-05 1.22132E-04-6.27651E-18-7.42848E-18
 -1       158 3.16747E-04-8.50969E-05-8.72010E-05 8.69397E-05 1.96406E-20-8.62915E-19
 -1       159 3.53868E-04-1.08986E-04-9.18526E-05 3.59054E-06-2.61124E-19 2.15978E-18
 -1       160 3.25399E-04-9.06395E-05-8.83616E-05-7.87863E-05 2.35555E-19 6.96473E-19
 -1       161 2.42406E-04-3.92392E-05-7.73314E-05-1.30403E-04-1.08875E-18 5.03561E-19
 -1       162 1.38304E-04 1.51540E-05-5.99087E-05-1.30680E-04-3.73118E-19 1.44080E-18
 -1       163 5.59230E-05 4.10864E-05-4.00896E-05-9.01366E-05 5.60312E-19-1.55261E-18
 -1       164 1.15400E-05 2.57899E-05-1.89629E-05-3.29032E-05-5.33631E-20 1.55134E-18
 -1       165 7.50072E-06-2.41783E-05 2.80382E-07 1.03880E-05 4.16444E-18-3.29496E-19
 -1       166 2.58863E-05-8.58187E-05 1.57269E-05 2.04249E-05 5.53960E-18-2.36550E-18
 -1       167 9.48802E-05-1.23509E-05-3.55725E-05-2.23402E-05-1.71443E-18-1.53392E-19
 -1       168 8.92571E-05-8.45802E-06-3.47899E-05-1.73810E-05-1.52226E-18-1.91470E-18
 -1       169 8.65517E-05-6.50488E-06-3.44175E-05-1.35738E-05-1.20522E-18-2.91874E-18
 -1       170 8.51897E-05-5.51281E-06-3.42312E-05-1.03625E-05-8.64663E-19-3.39208E-18
 -1       171 8.44423E-05-4.94190E-06-3.41405E-05-7.53848E-06-5.38320E-19-3.51512E-18
 -1       172 8.40108E-05-4.59489E-06-3.40970E-05-4.89748E-06-2.78453E-19-3.54833E-18
 -1       173 8.37903E-05-4.40982E-06-3.40782E-05-2.39215E-06 2.33333E-20-3.40640E-18
 -1       174 8.37253E-05-4.35394E-06-3.40733E-05 5.09846E-08 3.26554E-19-3.35438E-18
 -1       175 8.38005E-05-4.41848E-06-3.40791E-05 2.49628E-06 6.00833E-19-3.26179E-18
 -1       176 8.40331E-05-4.61445E-06-3.40985E-05 5.00853E-06 8.22708E-19-3.17019E-18
 -1       177 8.44692E-05-4.96858E-06-3.41413E-05 7.61592E-06 1.10431E-18-2.89521E-18
 -1       178 8.52486E-05-5.57153E-06-3.42321E-05 1.05033E-05 1.38130E-18-2.46631E-18
 -1       179 8.66523E-05-6.60933E-06-3.44194E-05 1.37684E-05 1.69093E-18-1.73677E-18
 -1       180 8.93960E-05-8.59966E-06-3.47939E-05 1.76199E-05 1.88393E-18-4.24416E-19
 -1       181 9.57920E-05-1.36179E-05-3.54299E-05 2.18830E-05 1.72799E-18 1.88552E-18
 -1       182 1.05619E-04-2.61062E-05-3.52673E-05 1.86574E-05 1.28697E-18 5.01385E-18
 -1       183 1.03414E-04-2.73068E-05-3.26149E-05-1.21208E-05-1.49980E-18 2.05593E-18
 -1       184 9.71280E-05-2.82956E-05-2.95349E-05-4.72447E-06-1.23536E-18 1.45483E-18
 -1       185 9.35324E-05-2.76439E-05-2.81900E-05-1.76124E-06-9.49196E-19 8.40885E-19
 -1       186 9.20035E-05-2.74149E-05-2.76455E-05-4.12380E-07-5.72526E-19 3.07979E-19
 -1       187 9.14344E-05-2.73417E-05-2.74500E-05 2.53003E-07-4.16620E-19 5.42597E-20
 -1       188 9.14004E-05-2.73828E-05-2.74275E-05 5.80472E-07-6.01975E-19-1.16448E-19
 -1       189 9.16529E-05-2.74882E-05-2.74951E-05 7.20964E-07-6.25409E-19-7.33593E-19
 -1       190 9.20462E-05-2.76234E-05-2.76080E-05 7.53324E-07-6.04997E-19-1.08759E-18
 -1       191 9.24930E-05-2.77669E-05-2.77392E-05 7.23204E-07-5.47226E-19-1.04856E-18
 -1       192 9.29410E-05-2.79058E-05-2.78724E-05 6.58739E-07-3.96584E-19-9.82559E-19
 -1       193 9.33596E-05-2.80327E-05-2.79978E-05 5.77638E-07-6.43795E-20-1.52002E-18
 -1       194 9.37322E-05-2.81441E-05-2.81100E-05 4.90820E-07-3.14329E-19-1.93762E-18
 -1       195 9.40508E-05-2.82383E-05-2.82062E-05 4.04475E-07-7.53839E-20-1.73743E-18
 -1       196 9.43123E-05-2.83153E-05-2.82854E-05 3.21278E-07 1.93953E-20-1.41211E-18
 -1       197 9.45154E-05-2.83752E-05-2.83468E-05 2.41086E-07 5.66738E-20-1.68097E-18
 -1       198 9.46590E-05-2.84184E-05-2.83900E-05 1.61255E-07-6.44777E-20-1.75354E-18
 -1       199 9.47395E-05-2.84444E-05-2.84135E-05 7.66654E-08 4.36772E-19-1.67383E-18
 -1       200 9.47491E-05-2.84516E-05-2.84148E-05-2.04573E-08-6.11002E-19-2.09047E-18
 -1       201 9.46738E-05-2.84366E-05-2.83894E-05-1.40794E-07-8.48697E-19-2.64511E-18
 -1       202 9.44915E-05-2.83937E-05-2.83302E-05-2.98009E-07-3.35318E-19-2.93439E-18
 -1       203 9.41701E-05-2.83138E-05-2.82273E-05-5.08248E-07 3.73513E-19-2.57341E-18
 -1       204 9.36666E-05-2.81841E-05-2.80678E-05-7.88470E-07 4.22979E-21-3.55844E-18
 -1       205 9.29283E-05-2.79874E-05-2.78363E-05-1.15285E-06-5.66933E-20-2.40196E-18
 -1       206 9.18967E-05-2.77028E-05-2.75165E-05-1.60661E-06 7.46000E-19-1.38185E-18
 -1       207 9.05167E-05-2.73075E-05-2.70944E-05-2.13729E-06 5.20077E-19-1.08491E-18
 -1       208 8.87519E-05-2.67818E-05-2.65627E-05-2.70471E-06 7.79345E-20-1.87226E-18
 -1       209 8.66057E-05-2.61160E-05-2.59267E-05-3.23346E-06-1.73440E-19-2.11474E-18
 -1       210 8.41455E-05-2.53214E-05-2.52105E-05-3.61356E-06 9.79388E-20-2.24679E-18
 -1       211 8.15209E-05-2.44410E-05-2.44601E-05-3.71604E-06 2.36075E-19-2.19629E-18
 -1       212 7.89675E-05-2.35549E-05-2.37425E-05-3.42640E-06-2.54232E-19-2.46761E-18
 -1       213 7.67818E-05-2.27752E-05-2.31372E-05-2.68970E-06-1.34511E-18-1.90211E-18
 -1       214 7.52666E-05-2.22237E-05-2.27222E-05-1.54940E-06-1.53666E-18-1.96713E-18
 -1       215 7.46568E-05-2.19994E-05-2.25562E-05-1.56685E-07-8.20729E-20-2.37032E-18
 -1       216 7.50528E-05-2.21450E-05-2.26640E-05 1.26271E-06 1.46655E-18-1.61094E-18
 -1       217 7.63897E-05-2.26327E-05-2.30296E-05 2.47500E-06-2.11583E-19-2.58253E-18
 -1       218 7.84575E-05-2.33737E-05-2.36009E-05 3.30862E-06-4.26081E-21-2.55192E-18
 -1       219 8.09624E-05-2.42482E-05-2.43027E-05 3.69631E-06-1.42199E-19-3.58311E-18
 -1       220 8.36016E-05-2.51399E-05-2.50546E-05 3.67434E-06 6.96982E-19-2.92813E-18
 -1       221 8.61240E-05-2.59609E-05-2.57862E-05 3.34832E-06 9.21665E-20-3.07564E-18
 -1       222 8.83615E-05-2.66607E-05-2.64470E-05 2.84769E-06 4.62517E-19-2.35380E-18
 -1       223 9.02313E-05-2.72221E-05-2.70086E-05 2.28880E-06-1.51374E-21-2.15597E-18
 -1       224 9.17193E-05-2.76516E-05-2.74624E-05 1.75522E-06 2.70614E-19-1.24864E-18
 -1       225 9.28562E-05-2.79681E-05-2.78137E-05 1.29404E-06 2.33128E-19 9.93397E-19
 -1       226 9.36955E-05-2.81949E-05-2.80756E-05 9.21871E-07 2.68231E-18 2.12692E-18
 -1       227 9.42960E-05-2.83538E-05-2.82641E-05 6.34223E-07 1.76919E-18 2.55124E-18
 -1       228 9.47113E-05-2.84636E-05-2.83943E-05 4.14212E-07-1.75598E-20 1.92420E-18
 -1       229 9.49852E-05-2.85379E-05-2.84791E-05 2.39390E-07 8.59647E-19 1.94969E-18
 -1       230 9.51570E-05-2.85886E-05-2.85305E-05 9.21408E-08 1.07578E-18 3.73804E-18
 -1       231 9.95200E-05-2.85572E-05-3.05922E-05 7.20801E-06 1.31262E-18 4.31565E-18
 -1       232 9.44357E-05-2.77927E-05-2.85298E-05 2.74196E-06 8.96154E-19 3.34140E-18
 -1       233 9.21254E-05-2.74113E-05-2.76896E-05 9.24204E-07 7.62439E-19 2.46676E-18
 -1       234 9.11813E-05-2.72468E-05-2.73740E-05 5.97194E-08 6.75386E-19 1.85353E-18
 -1       235 9.09819E-05-2.72472E-05-2.73018E-05-3.83369E-07 7.02704E-19 1.46387E-18
 -1       236 9.11873E-05-2.73383E-05-2.73574E-05-5.76972E-07 3.90201E-19 8.24850E-19
 -1       237 9.15867E-05-2.74757E-05-2.74727E-05-6.45973E-07 2.73327E-19 4.21288E-19
 -1       238 9.20669E-05-2.76299E-05-2.76140E-05-6.42880E-07 1.89822E-19 1.44233E-19
 -1       239 9.25613E-05-2.77837E-05-2.77609E-05-5.98734E-07 4.90810E-19-4.07304E-21
 -1       240 9.30311E-05-2.79269E-05-2.79014E-05-5.33197E-07 6.65365E-19-3.05617E-19
 -1       241 9.34737E-05-2.80603E-05-2.80343E-05-4.54639E-07 1.36573E-20-6.13960E-19
 -1       242 9.38362E-05-2.81682E-05-2.81436E-05-3.78428E-07-2.38834E-19-4.61229E-19
 -1       243 9.41401E-05-2.82580E-05-2.82354E-05-3.06034E-07-3.16654E-20-4.04021E-19
 -1       244 9.43870E-05-2.83303E-05-2.83103E-05-2.40367E-07 3.97993E-19-6.02739E-19
 -1       245 9.45833E-05-2.83870E-05-2.83700E-05-1.83812E-07 1.61960E-19-2.58100E-19
 -1       246 9.47447E-05-2.84322E-05-2.84195E-05-1.37801E-07-3.11864E-19-3.78630E-19
 -1       247 9.48709E-05-2.84656E-05-2.84589E-05-1.12084E-07-3.17574E-19-5.21772E-19
 -1       248 9.49934E-05-2.84952E-05-2.84981E-05-1.14714E-07 2.48982E-19-8.85589E-19
 -1       249 9.51487E-05-2.85291E-05-2.85491E-05-1.65064E-07 2.58956E-19-1.46638E-18
 -1       250 9.53980E-05-2.85810E-05-2.86321E-05-2.98574E-07-7.10296E-20-1.63989E-18
 -1       251 9.58442E-05-2.86744E-05-2.87806E-05-5.76714E-07 3.96658E-20-1.06833E-18
 -1       252 9.67136E-05-2.88546E-05-2.90731E-05-1.15132E-06-6.12165E-19-1.94601E-19
 -1       253 9.82308E-05-2.91701E-05-2.95853E-05-2.17372E-06-5.01351E-19-8.03022E-19
 -1       254 1.00886E-04-2.97170E-05-3.04928E-05-3.99175E-06 2.38119E-19-5.09199E-19
 -1       255 1.05393E-04-3.06383E-05-3.20506E-05-7.13450E-06-1.91840E-19-3.88514E-19
 -1       256 1.12736E-04-3.21620E-05-3.45901E-05-1.23049E-05-1.03828E-19-2.08847E-19
 -1       257 1.24689E-04-3.49495E-05-3.85330E-05-2.04457E-05-1.78360E-19 1.57895E-18
 -1       258 1.40850E-04-3.99442E-05-4.30369E-05-2.94095E-05-8.88749E-19 2.75418E-18
 -1       259 1.58941E-04-4.86582E-05-4.64200E-05-3.24650E-05 1.86506E-19 2.16851E-18
 -1       260 1.82895E-04-6.61664E-05-4.90416E-05-1.40030E-05-1.52265E-18 1.59304E-18
 -1       261 2.15435E-04-7.28635E-05-6.12172E-05 4.15647E-05-1.66897E-18 2.06639E-18
 -1       262 2.26277E-04-5.30228E-05-7.35396E-05-7.60729E-06 6.71274E-19 3.36377E-18
 -1       263 2.09374E-04-5.47513E-05-6.83438E-05-4.88665E-05 2.73507E-18 1.67501E-19
 -1       264 2.12843E-04-7.29033E-05-6.01670E-05-4.12377E-05 3.47961E-18-1.04986E-18
 -1       265 2.05785E-04-7.31927E-05-5.52110E-05-7.07480E-06 1.06726E-18-2.23479E-18
 -1       266 1.86277E-04-6.01172E-05-5.25373E-05 2.07122E-05-5.36701E-19 2.21241E-19
 -1       267 1.62704E-04-4.84576E-05-4.84808E-05 2.70506E-05-6.79638E-19-8.19293E-19
 -1       268 1.38428E-04-3.98943E-05-4.23551E-05 2.09714E-05 9.21208E-19-1.45094E-18
 -1       269 1.21690E-04-3.52281E-05-3.72317E-05 1.34568E-05 1.21224E-18-1.09353E-18
 -1       270 1.10635E-04-3.23910E-05-3.36306E-05 7.93712E-06-1.10260E-19-2.41966E-18
 -1       271 1.03859E-04-3.07062E-05-3.13870E-05 4.47217E-06-7.42560E-19-2.00841E-18
 -1       272 9.98911E-05-2.97224E-05-3.00803E-05 2.44056E-06-2.23736E-20-5.61379E-19
 -1       273 9.76474E-05-2.91637E-05-2.93494E-05 1.29204E-06-8.86878E-19 1.19626E-18
 -1       274 9.63864E-05-2.88510E-05-2.89400E-05 6.36429E-07 3.40468E-21-3.31222E-19
 -1       275 9.57703E-05-2.86984E-05-2.87422E-05 3.07839E-07-2.23808E-18 4.56116E-19
 -1       276 9.54627E-05-2.86232E-05-2.86434E-05 1.38404E-07 1.45809E-19 2.52555E-18
 -1       277 9.53185E-05-2.85880E-05-2.85975E-05 5.53973E-08 1.05357E-18 2.50486E-18
 -1       278 9.52591E-05-2.85740E-05-2.85782E-05 1.29761E-08 7.15260E-19-2.01095E-19
 -1       279 9.52443E-05-2.85691E-05-2.85744E-05 1.73483E-09-9.22970E-19-1.66901E-18
 -1       280 9.52364E-05-2.85386E-05-2.85854E-05 3.72873E-08-4.42961E-20-2.46675E-18
 -1       281 9.52127E-05-2.84935E-05-2.85944E-05 4.92661E-08-1.58217E-19 6.12633E-18
 -1       282 9.51952E-05-2.84727E-05-2.85952E-05 1.08279E-08 1.12994E-18 6.23204E-19
 -1       283 9.52022E-05-2.85152E-05-2.85797E-05-6.59528E-08-1.32356E-18-1.79971E-18
 -1       284 9.52401E-05-2.86351E-05-2.85446E-05-1.48745E-07-2.69827E-18-2.28531E-18
 -1       285 9.53053E-05-2.88234E-05-2.84920E-05-2.06213E-07 1.30863E-19 3.73954E-18
 -1       286 9.53820E-05-2.90395E-05-2.84326E-05-2.13007E-07 1.99004E-18 2.10995E-18
 -1       287 9.54506E-05-2.92308E-05-2.83802E-05-1.63078E-07 1.62576E-18-3.48332E-18
 -1       288 9.54931E-05-2.93496E-05-2.83476E-05-6.87871E-08 5.65623E-19 1.31776E-18
 -1       289 9.54987E-05-2.93664E-05-2.83427E-05 4.43301E-08 2.42865E-18 8.34235E-19
 -1       290 9.54674E-05-2.92811E-05-2.83656E-05 1.43692E-07 2.62647E-18-2.10648E-18
 -1       291 9.54065E-05-2.91153E-05-2.84101E-05 2.04577E-07 5.89571E-19-1.82093E-18
 -1       292 9.53318E-05-2.89140E-05-2.84638E-05 2.05941E-07-3.78573E-18-4.18119E-18
 -1       293 9.52679E-05-2.87359E-05-2.85127E-05 1.43378E-07-4.03661E-18-5.91591E-19
 -1       294 9.12198E-06-5.76769E-05 1.71770E-05-1.27449E-05 4.38022E-19-1.33747E-18
 -1       295 1.41679E-05-5.32471E-05 1.29120E-05-7.39492E-07 1.23190E-18 1.87946E-18
 -1       296 3.87052E-05-5.01179E-05 7.72478E-07 1.39372E-05 1.06620E-18 6.10234E-19
 -1       297 9.05620E-05-5.52792E-05-1.88940E-05 2.49687E-05 5.46336E-19 4.98437E-18
 -1       298 1.70971E-04-7.20729E-05-4.35422E-05 1.79110E-05 2.86572E-18 3.36780E-18
 -1       299 2.37732E-04-7.52179E-05-6.65037E-05-4.07499E-06 3.62864E-18-7.49624E-20
 -1       300 2.76936E-04-5.95679E-05-8.48268E-05 6.04763E-06 5.11184E-19 8.37186E-19
 -1       301 2.66417E-04-7.23162E-05-7.66796E-05 2.75060E-05-1.01220E-18-6.82709E-19
 -1       302 2.20966E-04-7.70521E-05-5.98801E-05-7.75771E-06-1.39443E-19-1.75166E-18
 -1       303 1.46092E-04-6.67019E-05-3.62256E-05-2.29132E-05 1.80206E-19 3.16579E-19
 -1       304 6.90797E-05-5.12272E-05-1.19152E-05-2.14368E-05 4.85350E-19 1.02332E-18
 -1       305 2.87184E-05-5.21162E-05 5.49917E-06-6.76428E-06 6.29981E-19-1.62980E-18
 -1       306 1.17398E-05-5.76018E-05 1.55289E-05 6.14188E-06-1.34556E-18-2.61712E-18
 -1       307 9.00488E-06-5.43150E-05 1.61465E-05 1.59197E-05-2.29652E-18-1.03063E-18
 -1       308 2.00224E-05-4.71306E-05 8.96724E-06 2.81407E-05-3.39364E-18-8.22575E-19
 -1       309 4.11985E-05-3.68313E-05-3.89775E-06 3.91728E-05-3.93955E-18-3.33567E-18
 -1       310 7.49044E-05-2.68449E-05-2.14075E-05 5.31853E-05-4.17799E-18-4.43485E-18
 -1       311 1.26535E-04-2.88601E-05-4.13254E-05 5.91300E-05-5.02269E-18-3.26277E-18
 -1       312 1.74969E-04-3.03524E-05-6.02387E-05 5.31669E-05-3.91636E-18-1.89206E-18
 -1       313 2.17121E-04-3.51200E-05-7.49172E-05 4.26456E-05-2.71977E-18-9.97381E-19
 -1       314 2.31807E-04-3.51952E-05-8.11686E-05 1.40229E-05-1.01146E-18-1.02120E-18
 -1       315 2.42370E-04-4.08298E-05-8.26454E-05-1.38113E-05 8.55080E-19-8.10187E-19
 -1       316 2.22171E-04-3.62686E-05-7.63865E-05-3.99786E-05 1.30549E-19-5.98429E-19
 -1       317 1.83504E-04-3.00466E-05-6.36399E-05-5.41701E-05 6.83423E-19-1.19495E-18
 -1       318 1.38369E-04-2.44487E-05-4.77233E-05-6.30264E-05 1.23984E-18 8.61009E-19
 -1       319 9.39707E-05-2.46466E-05-2.99208E-05-5.78973E-05 1.46537E-18-1.40142E-18
 -1       320 5.69648E-05-3.12455E-05-1.24372E-05-4.65176E-05 3.35976E-18 5.48771E-19
 -1       321 3.06285E-05-4.21825E-05 2.53269E-06-3.34642E-05 1.85437E-18 4.38790E-19
 -1       322 1.34420E-05-4.74570E-05 1.19790E-05-2.46998E-05 1.18034E-18-2.64115E-18
 -1       323 9.52223E-05-2.86533E-05-2.85310E-05 1.02780E-07-2.53328E-18 3.80010E-19
 -1       324 9.16538E-05-1.43963E-05-3.31739E-05-1.30488E-05-1.63513E-18-1.82580E-18
 -1       325 9.57205E-05-1.91144E-05-3.28944E-05-1.46198E-05-1.72458E-18-7.77252E-19
 -1       326 8.79998E-05-1.03702E-05-3.33233E-05-8.14058E-06-8.48896E-19-2.77787E-18
 -1       327 8.71793E-05-9.44670E-06-3.33621E-05-5.70977E-06-5.27682E-19-2.90254E-18
 -1       328 8.67166E-05-8.91580E-06-3.33881E-05-3.36231E-06-1.34193E-19-2.71898E-18
 -1       329 8.65101E-05-8.67538E-06-3.34012E-05-1.07118E-06 2.05211E-19-2.65161E-18
 -1       330 8.65189E-05-8.68503E-06-3.34009E-05 1.20147E-06 6.01511E-19-2.59247E-18
 -1       331 8.67446E-05-8.94679E-06-3.33870E-05 3.49484E-06 8.35746E-19-2.55185E-18
 -1       332 8.72201E-05-9.49255E-06-3.33605E-05 5.80699E-06 1.18713E-18-2.37537E-18
 -1       333 8.80641E-05-1.04471E-05-3.33200E-05 8.24557E-06 1.49165E-18-1.96765E-18
 -1       334 8.94807E-05-1.20308E-05-3.32603E-05 1.07558E-05 1.81865E-18-1.48709E-18
 -1       335 9.18947E-05-1.47364E-05-3.31504E-05 1.31401E-05 2.05824E-18-6.71505E-19
 -1       336 9.59042E-05-1.95917E-05-3.28098E-05 1.42707E-05 2.04203E-18 7.06909E-19
 -1       337 9.87967E-05-2.44531E-05-3.19466E-05 1.18464E-05 1.74305E-18 2.17380E-18
 -1       338 9.63571E-05-2.67910E-05-2.97833E-05 5.69903E-06 1.40034E-18 1.53016E-18
 -1       339 9.64512E-05-2.60295E-05-3.01369E-05-6.33631E-06-1.32011E-18-5.26472E-19
 -1       340 9.49403E-05-2.70347E-05-2.90771E-05-2.82113E-06-1.05996E-18-5.85135E-19
 -1       341 9.39662E-05-2.74313E-05-2.85003E-05-9.06685E-07-7.03947E-19-7.55743E-19
 -1       342 9.34513E-05-2.76450E-05-2.81960E-05 1.55479E-07-6.47471E-19-1.02447E-18
 -1       343 9.32639E-05-2.77995E-05-2.80534E-05 7.22495E-07-7.62047E-19-9.93403E-19
 -1       344 9.32857E-05-2.79307E-05-2.80083E-05 9.92271E-07-6.88047E-19-8.11674E-19
 -1       345 9.34295E-05-2.80473E-05-2.80209E-05 1.08138E-06-5.08399E-19-7.02400E-19
 -1       346 9.36352E-05-2.81505E-05-2.80653E-05 1.06202E-06-2.16963E-19-6.28306E-19
 -1       347 9.38631E-05-2.82401E-05-2.81248E-05 9.80245E-07-4.55940E-19-1.10260E-18
 -1       348 9.40881E-05-2.83161E-05-2.81888E-05 8.65549E-07-2.45604E-19-7.70232E-19
 -1       349 9.42947E-05-2.83792E-05-2.82503E-05 7.36191E-07-2.09749E-19-5.50320E-19
 -1       350 9.44737E-05-2.84308E-05-2.83050E-05 6.02398E-07 8.87756E-20-6.93835E-19
 -1       351 9.46201E-05-2.84723E-05-2.83499E-05 4.68300E-07 5.35724E-20-7.48645E-19
 -1       352 9.47306E-05-2.85057E-05-2.83830E-05 3.33029E-07-8.26695E-20-1.26642E-18
 -1       353 9.48022E-05-2.85327E-05-2.84022E-05 1.91217E-07-7.59838E-20-1.05640E-18
 -1       354 9.48309E-05-2.85550E-05-2.84050E-05 3.30604E-08-8.30144E-19-1.87005E-18
 -1       355 9.48103E-05-2.85738E-05-2.83884E-05-1.55874E-07-6.25477E-19-1.87878E-18
 -1       356 9.47304E-05-2.85893E-05-2.83479E-05-3.94788E-07-7.41059E-19-1.40954E-18
 -1       357 9.45762E-05-2.85997E-05-2.82779E-05-7.07261E-07-1.43410E-19-1.54545E-18
 -1       358 9.43259E-05-2.85994E-05-2.81715E-05-1.11956E-06 3.59827E-19-1.79643E-18
 -1       359 9.39503E-05-2.85767E-05-2.80209E-05-1.65662E-06 6.70349E-19-7.96178E-19
 -1       360 9.34118E-05-2.85113E-05-2.78189E-05-2.33457E-06 9.21119E-19-4.26987E-19
 -1       361 9.26659E-05-2.83711E-05-2.75597E-05-3.14896E-06 3.89181E-19-6.35467E-19
 -1       362 9.16668E-05-2.81129E-05-2.72422E-05-4.05958E-06 1.18944E-19-8.12194E-19
 -1       363 9.03787E-05-2.76878E-05-2.68716E-05-4.97504E-06-6.93086E-20-6.08539E-19
 -1       364 8.87947E-05-2.70556E-05-2.64620E-05-5.74473E-06-1.67958E-19 6.40786E-20
 -1       365 8.69619E-05-2.62078E-05-2.60372E-05-6.16871E-06-3.75300E-19-4.34681E-19
 -1       366 8.50059E-05-2.51958E-05-2.56294E-05-6.03569E-06 7.53710E-20-6.63320E-19
 -1       367 8.31376E-05-2.41464E-05-2.52750E-05-5.19006E-06-9.64579E-19-1.30517E-18
 -1       368 8.16277E-05-2.32493E-05-2.50095E-05-3.60962E-06-1.22377E-18-7.36416E-19
 -1       369 8.07409E-05-2.27044E-05-2.48613E-05-1.45540E-06-1.45615E-19 1.34686E-18
 -1       370 8.06510E-05-2.26479E-05-2.48468E-05 9.44673E-07 8.03877E-19 1.04652E-18
 -1       371 8.13767E-05-2.30946E-05-2.49678E-05 3.18573E-06-3.79740E-19-7.46027E-19
 -1       372 8.27744E-05-2.39310E-05-2.52109E-05 4.91336E-06-1.01893E-19-9.98996E-19
 -1       373 8.45922E-05-2.49648E-05-2.55503E-05 5.92646E-06-9.99966E-20-6.99007E-19
 -1       374 8.65547E-05-2.59986E-05-2.59517E-05 6.21015E-06 8.16238E-19 1.71986E-18
 -1       375 8.84348E-05-2.68898E-05-2.63783E-05 5.89739E-06-5.96159E-20-5.60498E-21
 -1       376 9.00886E-05-2.75712E-05-2.67969E-05 5.19403E-06 4.08728E-19-3.80691E-19
 -1       377 9.14542E-05-2.80405E-05-2.71819E-05 4.30728E-06 6.16601E-19-6.11679E-19
 -1       378 9.25298E-05-2.83337E-05-2.75174E-05 3.40057E-06 1.29409E-18-1.01980E-19
 -1       379 9.33478E-05-2.85001E-05-2.77963E-05 2.57786E-06 1.66390E-18 1.49425E-18
 -1       380 9.39543E-05-2.85859E-05-2.80188E-05 1.88857E-06 2.21193E-18 3.22246E-18
 -1       381 9.43961E-05-2.86275E-05-2.81896E-05 1.34163E-06 1.61162E-18 1.14701E-18
 -1       382 9.47144E-05-2.86495E-05-2.83159E-05 9.21384E-07-4.61770E-19-1.65588E-19
 -1       383 9.49434E-05-2.86675E-05-2.84058E-05 6.00057E-07 7.75207E-19 1.86110E-18
 -1       384 9.51130E-05-2.86885E-05-2.84689E-05 3.47636E-07 1.32501E-18 1.74963E-18
 -1       385 4.10000E-05-3.16974E-05-4.34975E-06 3.22064E-05 1.61826E-18 1.17335E-18
 -1       386 9.43596E-05-2.73140E-05-2.86948E-05 2.46790E-06 1.25405E-18 1.03618E-18
 -1       387 9.31880E-05-2.74628E-05-2.81469E-05 7.32671E-07 8.73091E-19 5.76362E-19
 -1       388 9.26279E-05-2.75529E-05-2.78797E-05-2.25990E-07 8.53141E-19 3.62313E-19
 -1       389 9.25072E-05-2.76477E-05-2.77930E-05-6.84626E-07 8.34634E-19 1.46467E-19
 -1       390 9.26238E-05-2.77590E-05-2.77977E-05-8.93777E-07 4.70089E-19-2.90026E-19
 -1       391 9.28692E-05-2.78774E-05-2.78534E-05-9.53214E-07 2.46937E-19-6.17490E-19
 -1       392 9.31723E-05-2.79933E-05-2.79342E-05-9.24241E-07 6.20535E-19-8.93237E-19
 -1       393 9.34889E-05-2.81005E-05-2.80242E-05-8.45450E-07 6.18245E-19-6.30166E-19
 -1       394 9.38057E-05-2.82003E-05-2.81175E-05-7.36159E-07 3.18410E-19-2.09579E-19
 -1       395 9.40766E-05-2.82807E-05-2.81991E-05-6.23088E-07-1.47289E-19-1.72543E-19
 -1       396 9.43114E-05-2.83473E-05-2.82712E-05-5.11631E-07-1.42522E-19-6.13229E-19
 -1       397 9.45079E-05-2.84003E-05-2.83326E-05-4.08443E-07 1.57483E-19-5.24708E-19
 -1       398 9.46684E-05-2.84405E-05-2.83839E-05-3.18788E-07 1.89196E-19 1.16257E-19
 -1       399 9.48034E-05-2.84696E-05-2.84291E-05-2.45702E-07 2.04991E-19 1.92257E-19
 -1       400 9.49093E-05-2.84848E-05-2.84675E-05-2.06073E-07-1.00384E-19-9.23382E-19
 -1       401 9.50070E-05-2.84874E-05-2.85076E-05-2.12410E-07 8.02351E-19-1.24522E-18
 -1       402 9.51168E-05-2.84747E-05-2.85589E-05-2.94689E-07 5.26142E-19-1.44353E-18
 -1       403 9.52696E-05-2.84411E-05-2.86367E-05-5.05503E-07 2.15473E-19-1.53288E-18
 -1       404 9.55117E-05-2.83755E-05-2.87649E-05-9.34703E-07-5.39628E-19-1.93642E-18
 -1       405 9.59297E-05-2.82418E-05-2.89955E-05-1.78851E-06-7.86540E-19-8.53399E-19
 -1       406 9.65754E-05-2.80039E-05-2.93651E-05-3.25740E-06-4.57424E-19-1.17590E-18
 -1       407 9.75508E-05-2.75689E-05-2.99585E-05-5.76716E-06 4.69640E-20-9.93111E-19
 -1       408 9.89118E-05-2.68025E-05-3.08599E-05-9.90898E-06-4.00934E-19-9.43100E-19
 -1       409 1.00619E-04-2.55913E-05-3.21024E-05-1.63991E-05-3.68231E-19-3.98952E-19
 -1       410 1.02649E-04-2.42697E-05-3.34959E-05-2.61400E-05-9.13138E-19 7.14754E-19
 -1       411 1.05346E-04-2.53142E-05-3.40020E-05-3.67246E-05-1.52221E-18 1.69976E-18
 -1       412 1.11339E-04-3.38332E-05-3.25877E-05-4.27764E-05-5.50518E-19 2.96311E-18
 -1       413 2.02049E-04-7.93814E-05-5.21536E-05 1.55943E-05-1.25726E-18 1.05074E-18
 -1       414 1.49876E-04-6.26033E-05-3.70230E-05 2.78431E-05-6.41098E-19 2.00388E-18
 -1       415 1.16984E-04-3.79813E-05-3.31000E-05 4.36512E-05 6.54333E-20 1.15766E-18
 -1       416 1.07786E-04-2.65063E-05-3.45395E-05 3.75507E-05 3.78835E-19-5.38878E-19
 -1       417 1.04275E-04-2.50964E-05-3.38271E-05 2.66330E-05 3.68178E-19 1.32102E-18
 -1       418 1.01730E-04-2.60394E-05-3.23790E-05 1.71162E-05 1.10464E-18 2.40187E-18
 -1       419 9.96199E-05-2.70566E-05-3.10492E-05 1.03493E-05 3.47379E-19 1.14430E-18
 -1       420 9.80061E-05-2.77246E-05-3.00833E-05 6.00873E-06-5.92887E-19-1.52849E-18
 -1       421 9.68782E-05-2.81029E-05-2.94505E-05 3.36885E-06-9.80300E-19-6.67499E-19
 -1       422 9.61308E-05-2.83200E-05-2.90464E-05 1.76913E-06 2.43204E-19 6.57021E-20
 -1       423 9.57120E-05-2.84329E-05-2.88252E-05 9.18198E-07-1.01977E-18 4.73535E-19
 -1       424 9.54754E-05-2.84966E-05-2.87003E-05 4.52677E-07-1.69749E-18-1.64473E-18
 -1       425 9.53484E-05-2.85324E-05-2.86330E-05 2.08356E-07 1.05542E-18-1.08431E-18
 -1       426 9.52820E-05-2.85475E-05-2.85993E-05 8.69905E-08 3.76313E-18-2.17973E-18
 -1       427 9.52551E-05-2.85409E-05-2.85915E-05 6.04296E-08 2.28320E-18-4.07268E-18
 -1       428 9.51438E-05-2.84167E-05-2.85977E-05 5.54055E-08 1.91543E-19 4.63802E-18
 -1       429 9.52141E-05-2.84816E-05-2.85996E-05 9.18485E-08 2.47982E-18 2.74677E-18
 -1       430 9.51008E-05-2.84124E-05-2.85814E-05-7.89620E-08-1.40791E-18-1.56749E-18
 -1       431 9.51199E-05-2.84962E-05-2.85538E-05-2.49543E-07-1.76868E-18-2.43910E-18
 -1       432 9.52031E-05-2.86675E-05-2.85157E-05-3.95250E-07-9.35648E-20 1.66928E-18
 -1       433 9.53280E-05-2.88919E-05-2.84725E-05-4.56328E-07 4.50990E-19 4.53101E-18
 -1       434 9.54589E-05-2.91181E-05-2.84312E-05-4.05974E-07-4.44304E-19-4.48612E-19
 -1       435 9.55603E-05-2.92939E-05-2.83989E-05-2.53564E-07 1.06874E-18-1.61281E-18
 -1       436 9.56064E-05-2.93806E-05-2.83813E-05-3.88111E-08-7.24207E-21 1.79340E-18
 -1       437 9.55880E-05-2.93642E-05-2.83806E-05 1.78452E-07-5.28435E-19-6.05915E-19
 -1       438 9.55098E-05-2.92519E-05-2.83955E-05 3.48477E-07-8.80591E-19-2.90532E-18
 -1       439 9.53917E-05-2.90728E-05-2.84220E-05 4.23855E-07-1.83397E-18-5.01353E-18
 -1       440 9.52609E-05-2.88672E-05-2.84549E-05 3.84966E-07-2.76401E-18-2.44908E-18
 -1       441 1.60028E-04-7.26093E-05-3.80077E-05 1.60567E-05 5.74288E-19 3.88926E-18
 -1       442 7.09991E-06-1.57520E-05 3.89709E-06-1.89217E-05 2.29361E-19-1.87035E-18
 -1       443 1.00684E-04-5.37963E-05-2.04816E-05 3.72196E-05 9.61594E-19 4.03781E-18
 -1       444 8.93390E-05-1.18540E-05-3.32811E-05-1.06784E-05-1.21182E-18-2.45854E-18
 -1       445 1.40172E-04-6.81307E-05-3.15257E-05-2.62909E-05-1.35674E-18 1.54811E-18
 -1       446 7.64254E-05-4.77890E-05-1.30554E-05-3.59315E-05 1.86135E-19 1.99016E-18
 -1       447 2.99192E-05-2.80194E-05-1.10963E-06-2.58263E-05-1.18013E-18-3.40147E-18
 -1       448 6.39186E-06-1.94928E-05 5.44655E-06 4.42560E-07-1.34730E-18-2.38461E-18
 -1       449 1.32729E-05-1.87142E-05 2.55091E-06 3.16892E-05-1.01655E-18-1.02936E-18
 -1       450 4.24843E-05-3.36331E-05-3.90586E-06 5.15747E-05-1.76130E-18-2.24702E-18
 -1       451 8.31597E-05-4.51675E-05-1.63249E-05 5.77058E-05-1.26377E-18-2.94971E-18
 -1       452 1.25248E-04-5.36660E-05-3.07120E-05 4.83875E-05-1.59560E-18-6.07164E-19
 -1       453 1.59035E-04-4.85776E-05-4.73427E-05 2.76989E-05-2.37572E-18 1.63435E-18
 -1       454 1.73141E-04-3.13648E-05-6.07845E-05 7.36148E-06-2.42807E-18-5.01549E-19
 -1       455 1.75317E-04-1.71349E-05-6.78972E-05 1.11692E-06-1.35737E-18-1.52678E-18
 -1       456 1.84800E-04-1.23744E-05-7.36030E-05-1.64784E-09-9.65618E-20-8.40363E-19
 -1       457 1.85804E-04-1.80290E-05-7.15289E-05-4.30980E-06 8.19398E-19-1.60195E-19
 -1       458 1.78018E-04-2.91934E-05-6.35664E-05-1.07999E-05 3.98794E-19-1.69343E-18
 -1       459 1.63668E-04-4.42966E-05-5.10641E-05-2.61529E-05 1.58547E-18-2.17116E-18
 -1       460 1.38635E-04-5.04544E-05-3.77329E-05-4.36412E-05 1.45573E-18-4.44375E-19
 -1       461 1.03616E-04-4.92979E-05-2.33009E-05-5.51699E-05 3.17743E-18 1.07256E-18
 -1       462 6.24443E-05-3.97865E-05-9.81038E-06-5.61616E-05 1.58130E-18-6.01393E-20
 -1       463 3.09061E-05-2.64002E-05-1.73366E-06-4.72635E-05-1.09373E-19-8.25539E-19
 -1       464 9.58908E-06-1.86796E-05 3.85764E-06 6.24809E-06 1.39138E-18 2.00450E-18
 -1       465 1.08056E-04-4.47274E-05-2.67494E-05-4.14358E-05-3.82965E-19 3.25885E-18
 -1       466 8.95251E-05-1.33909E-05-3.26480E-05-3.91799E-06-3.36405E-19-2.55732E-18
 -1       467 9.02338E-05-1.43535E-05-3.25409E-05-5.87382E-06-6.30184E-19-2.58066E-18
 -1       468 8.90238E-05-1.27086E-05-3.27242E-05 5.42260E-08 3.42828E-19-2.29408E-18
 -1       469 8.91602E-05-1.28927E-05-3.27041E-05 2.04166E-06 7.00519E-19-2.40888E-18
 -1       470 8.95576E-05-1.34312E-05-3.26448E-05 3.99094E-06 9.64701E-19-2.31923E-18
 -1       471 9.02860E-05-1.44196E-05-3.25354E-05 5.94035E-06 1.33352E-18-1.93796E-18
 -1       472 9.14484E-05-1.60118E-05-3.23539E-05 7.76971E-06 1.50204E-18-1.59819E-18
 -1       473 9.31706E-05-1.84413E-05-3.20490E-05 9.20288E-06 1.82058E-18-8.95325E-19
 -1       474 9.54150E-05-2.19888E-05-3.14749E-05 9.49808E-06 1.90288E-18-1.41842E-19
 -1       475 9.63557E-05-2.46116E-05-3.07342E-05 8.01449E-06 1.77973E-18 4.53784E-19
 -1       476 9.45308E-05-2.73142E-05-2.87991E-05 9.29770E-07 1.02029E-18-4.63972E-19
 -1       477 7.34665E-05-9.76410E-06-2.70256E-05 2.77966E-05 5.46343E-19 1.41432E-18
 -1       478 9.51261E-05-2.66380E-05-2.93419E-05 2.81830E-06 1.30772E-18-1.25523E-19
 -1       479 9.54959E-05-2.44391E-05-3.04433E-05-5.82099E-06-1.11408E-18-1.36991E-18
 -1       480 9.45989E-05-2.06860E-05-3.16942E-05-9.57164E-06-1.51371E-18-1.55488E-18
 -1       481 9.52853E-05-2.62295E-05-2.95882E-05-2.87814E-06-9.64993E-19-1.17500E-18
 -1       482 9.49304E-05-2.71619E-05-2.90398E-05-1.01132E-06-8.36683E-19-1.16942E-18
 -1       483 9.46561E-05-2.76935E-05-2.86966E-05 1.14818E-07-7.41654E-19-1.19431E-18
 -1       484 9.45016E-05-2.80207E-05-2.84912E-05 7.52547E-07-7.07790E-19-1.08037E-18
 -1       485 9.44479E-05-2.82334E-05-2.83776E-05 1.07228E-06-8.45428E-19-1.28420E-18
 -1       486 9.44646E-05-2.83761E-05-2.83238E-05 1.18841E-06-2.90923E-19-1.68508E-18
 -1       487 9.45239E-05-2.84728E-05-2.83079E-05 1.17771E-06-4.27055E-19-1.43094E-18
 -1       488 9.46048E-05-2.85381E-05-2.83146E-05 1.09154E-06-1.82148E-19-9.49484E-19
 -1       489 9.46923E-05-2.85819E-05-2.83334E-05 9.63562E-07 1.27406E-19-6.25916E-19
 -1       490 9.47768E-05-2.86117E-05-2.83568E-05 8.14747E-07-3.72155E-19-2.30895E-19
 -1       491 9.48521E-05-2.86336E-05-2.83798E-05 6.56602E-07-2.55121E-19-1.01992E-18
 -1       492 9.49148E-05-2.86529E-05-2.83983E-05 4.93245E-07-1.51352E-19-1.12359E-18
 -1       493 9.49633E-05-2.86751E-05-2.84096E-05 3.22601E-07-5.49371E-20-9.81569E-19
 -1       494 9.49968E-05-2.87058E-05-2.84108E-05 1.36928E-07-8.66790E-19-1.21351E-18
 -1       495 9.50153E-05-2.87511E-05-2.83994E-05-7.71275E-08-8.75994E-19-1.26129E-18
 -1       496 9.50187E-05-2.88176E-05-2.83726E-05-3.38723E-07-6.77891E-19-1.12557E-18
 -1       497 9.50058E-05-2.89108E-05-2.83273E-05-6.72863E-07-3.24349E-19-7.90476E-19
 -1       498 9.49727E-05-2.90339E-05-2.82606E-05-1.10963E-06 1.27857E-19-1.47106E-18
 -1       499 9.49100E-05-2.91828E-05-2.81702E-05-1.68162E-06 6.73458E-19-1.10936E-18
 -1       500 9.47991E-05-2.93413E-05-2.80551E-05-2.41816E-06 1.47854E-18-6.35741E-19
 -1       501 9.46071E-05-2.94729E-05-2.79167E-05-3.33469E-06 5.68319E-19-2.91748E-19
 -1       502 9.42826E-05-2.95145E-05-2.77600E-05-4.41613E-06-2.87603E-19-3.97681E-19
 -1       503 9.37570E-05-2.93761E-05-2.75939E-05-5.59533E-06-2.06242E-19 6.82260E-20
 -1       504 9.29550E-05-2.89525E-05-2.74311E-05-6.73179E-06 2.89207E-19 7.36789E-19
 -1       505 9.18228E-05-2.81560E-05-2.72861E-05-7.60224E-06-3.61898E-19 7.89562E-19
 -1       506 9.03715E-05-2.69687E-05-2.71716E-05-7.92060E-06-5.62942E-20 1.08812E-18
 -1       507 8.87237E-05-2.54989E-05-2.70938E-05-7.40365E-06-7.60802E-19 1.11847E-18
 -1       508 8.71322E-05-2.40055E-05-2.70504E-05-5.88210E-06-4.07861E-19 1.88804E-18
 -1       509 8.59325E-05-2.28471E-05-2.70318E-05-3.41665E-06-1.55576E-19 1.94387E-18
 -1       510 8.54274E-05-2.23522E-05-2.70271E-05-3.45499E-07-1.14297E-18 3.96541E-19
 -1       511 8.57565E-05-2.26731E-05-2.70309E-05 2.79047E-06-7.66633E-19-1.14807E-18
 -1       512 8.68287E-05-2.37103E-05-2.70467E-05 5.42751E-06 3.21598E-19-4.33607E-19
 -1       513 8.83663E-05-2.51612E-05-2.70851E-05 7.17262E-06 6.96104E-19 1.36768E-18
 -1       514 9.00296E-05-2.66611E-05-2.71566E-05 7.90587E-06 1.46579E-18 8.76843E-19
 -1       515 9.15419E-05-2.79228E-05-2.72655E-05 7.75537E-06-1.27810E-18-3.82738E-19
 -1       516 9.27522E-05-2.88051E-05-2.74072E-05 6.98977E-06-5.42670E-19-6.46341E-19
 -1       517 9.36283E-05-2.93022E-05-2.75703E-05 5.90242E-06 5.87561E-19 2.46992E-19
 -1       518 9.42147E-05-2.94917E-05-2.77406E-05 4.73423E-06 1.26963E-18 1.37877E-18
 -1       519 9.45858E-05-2.94796E-05-2.79048E-05 3.64390E-06 1.46108E-18 9.84624E-19
 -1       520 9.48141E-05-2.93619E-05-2.80528E-05 2.71267E-06 2.55825E-18 1.10664E-18
 -1       521 9.49567E-05-2.92101E-05-2.81786E-05 1.96442E-06-2.70103E-19 1.05362E-18
 -1       522 9.50531E-05-2.90687E-05-2.82801E-05 1.38621E-06 4.78957E-19 2.81858E-19
 -1       523 9.51252E-05-2.89595E-05-2.83579E-05 9.50842E-07 1.07030E-18 7.36770E-19
 -1       524 9.51970E-05-2.89018E-05-2.84131E-05 6.34799E-07 1.44183E-18 6.04622E-19
 -1       525 9.56363E-05-2.58959E-05-2.98700E-05 4.90897E-06 1.44417E-18 4.60951E-20
 -1       526 9.41566E-05-2.76982E-05-2.84787E-05-1.59680E-07 1.02794E-18-5.62085E-19
 -1       527 9.39879E-05-2.79432E-05-2.83036E-05-7.62359E-07 7.91084E-19-6.06459E-19
 -1       528 9.39644E-05-2.81149E-05-2.82209E-05-1.05543E-06 5.82133E-19-4.02410E-19
 -1       529 9.40331E-05-2.82420E-05-2.81964E-05-1.15487E-06 5.30822E-19-4.28375E-19
 -1       530 9.41534E-05-2.83385E-05-2.82068E-05-1.13581E-06 7.60154E-19-2.17329E-19
 -1       531 9.43038E-05-2.84153E-05-2.82385E-05-1.04241E-06 4.52535E-19-3.17994E-19
 -1       532 9.44497E-05-2.84696E-05-2.82778E-05-9.17112E-07-9.44488E-20-3.64077E-19
 -1       533 9.45872E-05-2.85094E-05-2.83196E-05-7.78460E-07 6.18156E-20-3.07905E-19
 -1       534 9.47094E-05-2.85365E-05-2.83603E-05-6.40488E-07 1.03813E-19-9.50962E-19
 -1       535 9.48130E-05-2.85520E-05-2.83980E-05-5.13164E-07-4.08301E-19-1.28892E-18
 -1       536 9.49000E-05-2.85542E-05-2.84342E-05-4.00583E-07 2.50992E-19-9.64508E-19
 -1       537 9.49614E-05-2.85389E-05-2.84669E-05-3.24041E-07 3.70573E-19-7.70264E-19
 -1       538 9.50010E-05-2.84985E-05-2.85009E-05-2.93477E-07 7.30804E-19-1.36622E-18
 -1       539 9.50147E-05-2.84167E-05-2.85413E-05-3.34986E-07 8.20554E-19-1.35988E-18
 -1       540 9.49916E-05-2.82654E-05-2.85954E-05-4.92164E-07 1.08615E-19-6.92492E-19
 -1       541 9.49075E-05-2.79959E-05-2.86734E-05-8.36043E-07 1.93641E-20-6.95582E-19
 -1       542 9.46895E-05-2.74899E-05-2.87941E-05-1.52232E-06-3.87783E-19-7.75324E-19
 -1       543 9.42328E-05-2.66428E-05-2.89573E-05-2.66799E-06-6.33500E-19-1.15597E-18
 -1       544 9.32925E-05-2.52044E-05-2.91646E-05-4.54204E-06-2.02525E-19-1.41546E-18
 -1       545 9.14113E-05-2.28251E-05-2.93691E-05-7.46314E-06-4.40606E-20-8.72010E-19
 -1       546 8.78056E-05-1.90894E-05-2.94101E-05-1.17800E-05-3.75795E-19-7.86937E-19
 -1       547 8.08668E-05-1.35555E-05-2.87507E-05-1.80306E-05-1.24215E-18-8.70783E-19
 -1       548 6.98860E-05-7.94455E-06-2.62693E-05-2.52879E-05-1.55368E-18-1.36837E-18
 -1       549 6.87133E-05-1.28240E-05-2.33290E-05-3.72842E-05-1.55502E-18-1.74118E-19
 -1       550 6.16995E-05-3.12444E-05-1.24973E-05-5.51319E-05 3.89265E-19 6.21246E-19
 -1       551 2.91350E-05-6.37008E-06-8.93160E-06-3.20894E-05-4.18593E-19-1.03359E-18
 -1       552 6.21478E-05-1.13959E-05-2.09337E-05 3.63130E-05 4.11049E-19 9.21678E-19
 -1       553 8.79068E-05-1.89267E-05-2.95133E-05 1.26229E-05 8.55359E-19 2.88733E-18
 -1       554 9.15326E-05-2.27093E-05-2.94668E-05 7.98650E-06 1.24509E-18 4.18846E-19
 -1       555 9.34169E-05-2.51391E-05-2.92438E-05 4.82891E-06-1.74640E-18 1.57912E-18
 -1       556 9.43886E-05-2.66680E-05-2.90122E-05 2.72374E-06-1.00703E-18 1.39270E-18
 -1       557 9.48324E-05-2.75120E-05-2.88452E-05 1.50605E-06-5.60164E-19 1.39266E-18
 -1       558 9.50502E-05-2.80016E-05-2.87316E-05 7.94612E-07-1.39856E-19 6.95032E-19
 -1       559 9.51576E-05-2.82783E-05-2.86600E-05 3.91625E-07 1.70809E-19-1.62877E-18
 -1       560 9.52198E-05-2.84638E-05-2.86092E-05 1.37424E-07 4.33258E-18-8.18940E-19
 -1       561 9.49025E-05-2.82511E-05-2.85654E-05-2.70756E-07-1.52788E-18-3.45635E-18
 -1       562 9.49928E-05-2.84211E-05-2.85313E-05-5.39085E-07-1.73210E-18 1.65307E-18
 -1       563 9.49494E-05-2.82264E-05-2.85958E-05 6.94480E-10-1.83341E-18-5.94639E-19
 -1       564 9.51929E-05-2.87008E-05-2.84970E-05-7.05311E-07-8.51538E-19 4.25564E-18
 -1       565 9.54401E-05-2.90210E-05-2.84652E-05-7.09713E-07-1.12249E-18 1.83939E-18
 -1       566 9.56631E-05-2.93062E-05-2.84382E-05-5.45815E-07 3.48314E-19-4.04916E-19
 -1       567 9.58016E-05-2.94930E-05-2.84174E-05-2.55396E-07 8.24217E-19-8.55194E-19
 -1       568 9.58262E-05-2.95488E-05-2.84040E-05 7.95414E-08-1.03065E-18-7.88793E-19
 -1       569 9.57353E-05-2.94727E-05-2.83978E-05 3.88624E-07-2.43404E-18-2.33936E-18
 -1       570 9.55537E-05-2.92874E-05-2.83996E-05 5.88016E-07-1.17828E-18-3.10485E-18
 -1       571 9.53796E-05-2.91046E-05-2.84043E-05 6.58568E-07-6.03007E-19-5.70230E-18
 -1       572 2.77449E-05-7.55027E-06-7.90653E-06-2.19056E-05-1.15149E-18-3.56294E-18
 -1       573 1.57914E-04-4.43112E-05-4.90869E-05 1.23278E-06-1.42839E-18 5.58248E-19
 -1       574 8.13316E-05-1.36838E-05-2.88980E-05 1.89415E-05-5.38154E-19 2.16568E-18
 -1       575 8.91399E-05-1.28675E-05-3.27062E-05-1.93370E-06 3.67334E-20-2.44664E-18
 -1       576 6.96080E-05-2.56847E-05-1.81201E-05-4.20383E-05-1.29231E-18 1.12613E-18
 -1       577 3.49957E-05-1.05008E-05-9.70694E-06 2.80924E-05 1.19612E-18 1.59846E-18
 -1       578 1.53858E-04-5.49497E-06-6.42519E-05 3.79477E-06-3.73012E-19-1.10424E-18
 -1       579 1.72116E-05-1.06535E-06-6.02895E-06 9.44177E-06-5.08471E-19-1.20152E-18
 -1       580 3.85143E-05-1.78609E-05-8.18236E-06 4.56383E-05-6.95943E-19-8.23422E-19
 -1       581 7.48030E-05-3.78144E-05-1.53764E-05 5.65652E-05-3.08638E-20-2.06520E-18
 -1       582 1.09996E-04-5.39208E-05-2.38782E-05 5.14474E-05 4.30557E-19-5.99425E-19
 -1       583 1.47363E-04-6.02847E-05-3.74071E-05 2.55461E-05-1.64372E-18 1.51884E-18
 -1       584 1.50170E-04-2.10492E-05-5.59858E-05-1.03915E-05-1.35668E-18-1.62360E-18
 -1       585 1.47651E-04-4.00567E-06-6.22763E-05-4.55784E-06-1.81646E-18-9.47261E-19
 -1       586 1.58631E-04-1.70453E-05-6.11838E-05 6.46478E-06 1.15122E-18 2.04506E-19
 -1       587 1.59929E-04-3.95465E-05-5.20353E-05-9.52457E-08 1.78809E-18-7.21990E-19
 -1       588 1.51695E-04-5.75352E-05-4.05934E-05-1.84696E-05 1.95949E-18-2.50854E-18
 -1       589 1.34485E-04-6.00772E-05-3.18256E-05-3.85659E-05 2.29816E-18-5.47713E-19
 -1       590 9.61929E-05-4.83976E-05-2.01974E-05-5.53955E-05 1.45531E-18 7.58597E-19
 -1       591 1.90325E-05-6.48976E-07-6.94769E-06 3.53565E-07-2.03705E-19 1.44377E-18
 -1       592 9.13554E-05-1.58619E-05-3.23753E-05-7.75665E-06-9.40648E-19-2.39080E-18
 -1       593 9.51084E-05-2.83355E-05-2.86167E-05 1.69921E-07 6.28762E-19-3.96871E-19
 -1       594 3.26789E-05-3.48257E-06-1.18722E-05 2.66260E-05-2.70045E-19-8.80861E-19
 -1       595 9.15349E-05-1.68365E-05-3.20193E-05 2.43411E-06 7.81421E-19-2.06568E-18
 -1       596 9.12735E-05-1.64328E-05-3.20799E-05 8.38038E-07 4.78860E-19-2.20127E-18
 -1       597 9.28738E-05-1.89806E-05-3.16748E-05 5.25355E-06 1.28016E-18-1.61982E-18
 -1       598 9.40340E-05-2.09494E-05-3.13245E-05 6.17731E-06 1.51313E-18-1.05726E-18
 -1       599 9.50983E-05-2.77199E-05-2.88757E-05-1.71738E-07 9.97049E-19-5.59378E-19
 -1       600 9.49903E-05-2.81232E-05-2.86571E-05-7.72153E-07 5.67380E-19-5.79916E-19
 -1       601 9.52411E-05-2.70709E-05-2.92144E-05 8.74844E-07 9.82229E-19-5.03397E-19
 -1       602 9.50135E-05-2.36377E-05-3.05866E-05-4.69409E-06-7.74880E-19-1.66534E-18
 -1       603 9.13952E-05-2.42603E-05-2.87670E-05 2.29787E-06-1.83442E-18 8.96681E-19
 -1       604 9.54179E-05-2.57022E-05-2.98767E-05-2.41698E-06-8.31059E-19-1.34409E-18
 -1       605 9.54758E-05-2.69402E-05-2.93717E-05-8.44289E-07-7.78062E-19-1.16355E-18
 -1       606 9.54203E-05-2.77012E-05-2.90223E-05 1.59182E-07-5.38712E-19-1.11744E-18
 -1       607 9.53430E-05-2.81737E-05-2.87868E-05 7.48756E-07-7.86765E-19-1.43992E-18
 -1       608 9.52772E-05-2.84663E-05-2.86333E-05 1.05090E-06-8.01307E-19-1.18327E-18
 -1       609 9.52303E-05-2.86429E-05-2.85375E-05 1.16123E-06-2.63868E-19-1.38114E-18
 -1       610 9.52005E-05-2.87441E-05-2.84814E-05 1.14866E-06 6.77548E-20-1.14118E-18
 -1       611 9.51838E-05-2.87969E-05-2.84517E-05 1.06119E-06 1.39577E-19-9.28096E-19
 -1       612 9.51765E-05-2.88203E-05-2.84385E-05 9.30961E-07-1.06152E-19-1.36318E-18
 -1       613 9.51756E-05-2.88287E-05-2.84345E-05 7.78029E-07-3.65352E-19-7.77070E-19
 -1       614 9.51802E-05-2.88336E-05-2.84344E-05 6.13158E-07-2.49776E-19-4.94692E-20
 -1       615 9.51907E-05-2.88452E-05-2.84339E-05 4.39663E-07-1.53631E-19-4.44963E-19
 -1       616 9.52096E-05-2.88735E-05-2.84299E-05 2.54495E-07-5.83379E-19-1.02946E-18
 -1       617 9.52417E-05-2.89297E-05-2.84196E-05 4.86805E-08-9.13379E-19-6.50694E-19
 -1       618 9.52941E-05-2.90257E-05-2.84009E-05-1.92765E-07-7.58690E-19 1.34515E-19
 -1       619 9.53765E-05-2.91749E-05-2.83724E-05-4.91253E-07-4.02335E-19-5.47176E-19
 -1       620 9.54998E-05-2.93894E-05-2.83334E-05-8.74986E-07-3.50096E-19-9.10370E-19
 -1       621 9.56735E-05-2.96765E-05-2.82848E-05-1.37860E-06 4.42547E-19-6.97475E-19
 -1       622 9.59004E-05-3.00315E-05-2.82301E-05-2.04089E-06 1.14655E-18-6.72339E-19
 -1       623 9.61679E-05-3.04259E-05-2.81758E-05-2.89867E-06 8.91262E-19-1.22740E-18
 -1       624 9.64357E-05-3.07942E-05-2.81328E-05-3.97390E-06 3.63501E-19-1.07749E-18
 -1       625 9.66240E-05-3.10214E-05-2.81162E-05-5.25126E-06 3.13317E-19 3.19019E-19
 -1       626 9.66104E-05-3.09440E-05-2.81434E-05-6.64652E-06 4.58668E-19 1.43681E-18
 -1       627 9.62460E-05-3.03757E-05-2.82302E-05-7.97263E-06 2.03452E-19 1.44331E-18
 -1       628 9.54043E-05-2.91728E-05-2.83843E-05-8.92135E-06 1.36791E-19 1.62672E-18
 -1       629 9.40655E-05-2.73361E-05-2.85969E-05-9.09315E-06-6.75850E-19 1.67658E-18
 -1       630 9.24034E-05-2.51139E-05-2.88367E-05-8.10818E-06-6.01593E-20 2.04354E-18
 -1       631 9.08094E-05-2.30177E-05-2.90520E-05-5.79632E-06-6.10485E-19 1.71717E-18
 -1       632 8.97746E-05-2.16693E-05-2.91865E-05-2.37361E-06-9.80861E-19 1.80395E-18
 -1       633 8.96642E-05-2.15250E-05-2.92011E-05 1.54398E-06-1.97845E-18 2.00705E-18
 -1       634 9.05206E-05-2.26371E-05-2.90914E-05 5.14029E-06 7.83200E-20 2.02775E-18
 -1       635 9.20349E-05-2.46203E-05-2.88904E-05 7.72984E-06 8.67661E-19 1.83004E-18
 -1       636 9.37213E-05-2.68618E-05-2.86529E-05 9.00505E-06-6.77066E-20 8.60000E-19
 -1       637 9.51532E-05-2.88091E-05-2.84326E-05 9.06465E-06-1.35668E-18-1.48695E-18
 -1       638 9.61075E-05-3.01539E-05-2.82659E-05 8.25940E-06-2.32999E-19-1.63411E-18
 -1       639 9.65674E-05-3.08469E-05-2.81664E-05 6.99699E-06 4.19422E-19-4.43112E-19
 -1       640 9.66433E-05-3.10089E-05-2.81298E-05 5.61215E-06 1.10209E-18-8.61848E-19
 -1       641 9.64864E-05-3.08257E-05-2.81410E-05 4.31918E-06 1.12954E-18-6.66775E-19
 -1       642 9.62282E-05-3.04709E-05-2.81823E-05 3.22097E-06 2.67347E-18-5.96046E-19
 -1       643 9.59571E-05-3.00705E-05-2.82377E-05 2.34573E-06 1.77481E-18-3.05956E-19
 -1       644 9.57246E-05-2.97052E-05-2.82945E-05 1.67696E-06-1.23699E-18 6.96475E-19
 -1       645 9.55534E-05-2.94140E-05-2.83457E-05 1.18025E-06-1.51992E-18-1.55127E-18
 -1       646 9.54443E-05-2.92327E-05-2.83771E-05 8.92584E-07-7.01814E-19-4.52795E-18
 -1       647 8.83200E-05-2.14062E-05-2.86694E-05 3.54138E-06-2.74398E-18 1.83491E-18
 -1       648 4.08991E-05 1.44047E-06-1.74647E-05-1.37679E-05-6.17315E-19-2.63883E-18
 -1       649 9.49308E-05-2.83767E-05-2.85232E-05-1.07540E-06 4.59230E-19-5.17467E-19
 -1       650 9.49121E-05-2.85357E-05-2.84471E-05-1.18341E-06 6.63894E-19-5.07889E-19
 -1       651 9.49229E-05-2.86362E-05-2.84087E-05-1.16503E-06 5.07692E-19-5.09914E-19
 -1       652 9.49498E-05-2.86897E-05-2.83974E-05-1.07358E-06 4.80930E-19-2.31824E-19
 -1       653 9.49848E-05-2.87157E-05-2.84012E-05-9.44531E-07 8.65753E-20-2.56399E-19
 -1       654 9.50210E-05-2.87225E-05-2.84139E-05-8.00423E-07 5.50250E-19-3.78694E-19
 -1       655 9.50536E-05-2.87144E-05-2.84313E-05-6.56489E-07 1.03921E-19-4.06994E-19
 -1       656 9.50782E-05-2.86900E-05-2.84522E-05-5.17849E-07-3.43429E-20-9.33767E-19
 -1       657 9.50859E-05-2.86471E-05-2.84738E-05-4.07688E-07-2.06095E-19-5.09450E-19
 -1       658 9.50687E-05-2.85738E-05-2.84978E-05-3.30202E-07 6.80635E-19-4.36697E-19
 -1       659 9.50089E-05-2.84486E-05-2.85257E-05-3.01146E-07 8.26496E-19-4.60395E-19
 -1       660 9.48749E-05-2.82340E-05-2.85601E-05-3.44129E-07 7.40402E-19-1.21687E-18
 -1       661 9.46108E-05-2.78687E-05-2.86031E-05-4.94575E-07 7.66658E-21-2.08274E-18
 -1       662 9.40793E-05-2.72094E-05-2.86572E-05-8.20818E-07-3.94699E-19-1.28424E-18
 -1       663 9.31380E-05-2.61465E-05-2.87084E-05-1.35524E-06-1.74094E-19-1.18216E-18
 -1       664 9.14531E-05-2.44105E-05-2.87289E-05-2.16630E-06-4.96006E-19-4.75393E-19
 -1       665 8.84869E-05-2.16475E-05-2.86392E-05-3.26878E-06-5.69834E-19-3.46623E-19
 -1       666 8.33904E-05-1.74347E-05-2.82544E-05-4.57089E-06-7.25681E-19-2.10337E-19
 -1       667 7.43490E-05-1.11063E-05-2.70494E-05-5.73852E-06-4.24979E-19-3.70519E-20
 -1       668 6.04657E-05-3.39352E-06-2.42912E-05-6.03739E-06-6.57188E-19-1.23970E-18
 -1       669 5.72555E-05-1.83298E-05-1.61974E-05-4.30823E-05-1.67871E-19-1.02364E-18
 -1       670 3.68910E-05 1.86585E-06-1.60399E-05-7.10896E-06 1.73970E-18-2.96303E-19
 -1       671 1.41181E-04-3.45818E-05-4.60764E-05-1.18233E-05-2.48128E-19-9.72023E-19
 -1       672 8.30306E-05-1.70598E-05-2.82536E-05 5.01507E-06 1.76288E-18-4.59228E-19
 -1       673 9.31455E-05-2.60566E-05-2.87492E-05 1.38744E-06-1.31811E-18 1.33828E-18
 -1       674 9.41218E-05-2.71541E-05-2.86999E-05 7.60854E-07-1.31369E-19-4.31573E-19
 -1       675 9.46730E-05-2.78044E-05-2.86556E-05 3.95132E-07 7.88760E-19 1.18149E-18
 -1       676 9.47948E-05-2.79952E-05-2.86287E-05 2.20982E-07 1.20595E-18 4.66837E-19
 -1       677 9.46268E-05-2.80229E-05-2.85446E-05-6.26169E-07-1.10077E-18-2.66127E-18
 -1       678 9.45852E-05-2.78862E-05-2.85856E-05-1.73113E-07 4.78768E-19-3.66598E-18
 -1       679 9.48996E-05-2.83734E-05-2.85111E-05-9.76346E-07-4.34653E-19 5.89343E-18
 -1       680 9.57216E-05-2.92986E-05-2.84665E-05-9.78562E-07 4.06100E-19 2.00863E-18
 -1       681 9.60375E-05-2.96539E-05-2.84500E-05-6.28894E-07-8.50480E-19-1.96037E-18
 -1       682 9.61710E-05-2.98279E-05-2.84327E-05-1.67677E-07-5.70555E-19-6.36673E-19
 -1       683 9.61143E-05-2.98149E-05-2.84136E-05 3.11232E-07-1.42827E-18-3.49688E-18
 -1       684 9.58839E-05-2.96296E-05-2.83940E-05 6.93673E-07-2.83393E-18-2.46878E-18
 -1       685 7.42264E-05-1.09115E-05-2.70826E-05 6.41571E-06-2.05416E-19-1.41757E-18
 -1       686 6.02470E-05-3.20052E-06-2.42307E-05 9.40634E-06-2.05981E-19 4.72711E-19
 -1       687 1.44632E-04-2.62471E-05-5.12349E-05 1.21245E-05 1.68485E-18-2.14485E-18
 -1       688 4.37657E-05 9.39031E-07-1.85204E-05 1.49316E-05 1.19007E-18 2.00016E-18
 -1       689 9.53074E-05-2.88385E-05-2.84858E-05-1.10640E-06 1.59277E-19 3.36610E-18
 -1       690 9.54376E-05-2.60774E-05-2.97195E-05 2.54283E-06 1.23634E-18-6.41048E-19
 -1       691 6.37342E-05-2.42658E-05-1.63780E-05 4.76527E-05-6.82603E-19-1.63626E-18
 -1       692 9.20636E-05-1.76656E-05-3.18909E-05 3.94069E-06 1.06987E-18-1.80563E-18
 -1       693 9.20241E-05-1.76102E-05-3.18976E-05-3.88660E-06-5.96095E-19-2.29699E-18
 -1       694 1.31345E-04-2.25982E-06-5.59677E-05 1.40128E-06-4.22458E-19-2.60752E-18
 -1       695 9.80223E-05-4.46578E-05-2.25558E-05 4.85097E-05-4.96494E-19-8.55371E-19
 -1       696 1.48649E-04-4.81721E-05-4.34107E-05 7.72797E-07 1.91456E-18-1.06223E-19
 -1       697 1.17100E-04-5.32165E-05-2.71971E-05-3.96572E-05 8.60943E-19-3.91455E-20
 -1       698 1.29062E-04-5.77514E-05-3.05036E-05 3.33816E-05-2.80143E-19 1.89279E-19
 -1       699 1.29971E-04-9.80768E-06-5.20235E-05-1.11553E-05-8.43512E-19-2.45063E-18
 -1       700 1.36378E-04-7.87018E-06-5.56797E-05 9.33758E-06 8.32528E-19-1.68292E-18
 -1       701 1.34416E-04-5.88015E-05-3.23893E-05-2.70512E-05 8.90946E-19-1.22050E-18
 -1       702 8.78315E-05-3.83225E-05-2.08297E-05-4.90794E-05 4.60786E-19 3.55423E-19
 -1       703 1.45332E-04-5.19397E-05-4.02811E-05 2.85908E-06-1.62048E-18 1.43444E-18
 -1       704 9.12665E-05-1.64236E-05-3.20809E-05-7.81777E-07 2.22388E-19-2.13152E-18
 -1       705 9.53042E-05-2.37658E-05-3.06476E-05 6.09984E-06 1.54741E-18-4.61780E-19
 -1       706 9.40923E-05-2.09413E-05-3.13641E-05-6.92848E-06-1.09400E-18-1.75497E-18
 -1       707 1.37469E-04-5.65813E-05-3.46800E-05 1.32032E-05-1.07661E-18 1.00605E-18
 -1       708 5.05762E-05-5.87538E-06-1.87798E-05-2.34753E-05 1.35431E-18-9.02752E-19
 -1       709 9.28250E-05-1.89189E-05-3.16813E-05-5.19402E-06-7.28340E-19-2.27175E-18
 -1       710 9.15112E-05-1.68046E-05-3.20227E-05-2.37343E-06-1.95406E-19-2.11917E-18
 -1       711 1.39439E-04-5.54825E-05-3.60565E-05-9.66888E-06-7.82548E-19 1.11374E-18
 -1       712 9.46733E-05-2.27806E-05-3.08172E-05 3.87668E-06 1.25350E-18-1.20365E-18
 -1       713 9.56247E-05-2.85951E-05-2.87270E-05-1.01730E-06 6.92922E-19-7.50272E-19
 -1       714 9.57264E-05-2.77610E-05-2.91280E-05-2.37706E-07 7.28272E-19-4.73088E-19
 -1       715 9.57174E-05-2.69675E-05-2.94659E-05 6.40738E-07 9.24354E-19-6.55600E-19
 -1       716 1.18585E-04-5.73398E-06-4.87092E-05-3.27149E-06-4.54380E-19-1.56997E-18
 -1       717 9.55722E-05-2.54956E-05-3.00322E-05-1.79754E-06-7.14192E-19-1.92198E-18
 -1       718 9.58560E-05-2.68745E-05-2.95635E-05-5.64581E-07-5.02491E-19-1.49763E-18
 -1       719 9.59477E-05-2.77642E-05-2.92215E-05 2.41979E-07-8.01592E-19-1.27261E-18
 -1       720 9.59343E-05-2.83275E-05-2.89744E-05 7.19917E-07-7.87064E-19-1.01914E-18
 -1       721 9.58713E-05-2.86721E-05-2.87997E-05 9.63371E-07-5.46615E-19-1.03891E-18
 -1       722 9.57886E-05-2.88707E-05-2.86791E-05 1.04609E-06-1.12928E-19-1.28611E-18
 -1       723 9.57020E-05-2.89738E-05-2.85979E-05 1.02402E-06 8.53000E-21-1.11116E-18
 -1       724 9.56207E-05-2.90170E-05-2.85445E-05 9.37361E-07-1.31643E-19-1.03050E-18
 -1       725 9.55501E-05-2.90265E-05-2.85101E-05 8.13364E-07 2.30669E-19-7.68552E-19
 -1       726 9.54940E-05-2.90225E-05-2.84878E-05 6.69157E-07-8.09644E-21-7.95364E-19
 -1       727 9.54567E-05-2.90214E-05-2.84723E-05 5.13870E-07-3.76327E-19-5.94910E-19
 -1       728 9.54436E-05-2.90382E-05-2.84595E-05 3.50161E-07-9.80506E-19-6.76809E-19
 -1       729 9.54628E-05-2.90883E-05-2.84463E-05 1.75106E-07-6.74077E-19-4.57420E-19
 -1       730 9.55264E-05-2.91884E-05-2.84306E-05-1.95665E-08-3.80238E-19-5.62680E-19
 -1       731 9.56510E-05-2.93577E-05-2.84115E-05-2.47923E-07-7.52424E-19-3.31807E-19
 -1       732 9.58587E-05-2.96170E-05-2.83893E-05-5.30929E-07-3.56816E-19-2.39008E-19
 -1       733 9.61750E-05-2.99863E-05-2.83667E-05-8.97994E-07 5.03255E-20 1.94512E-19
 -1       734 9.66255E-05-3.04776E-05-2.83492E-05-1.38843E-06 6.49277E-19-2.09337E-19
 -1       735 9.72261E-05-3.10840E-05-2.83468E-05-2.05147E-06 1.27493E-18-8.12166E-19
 -1       736 9.79679E-05-3.17603E-05-2.83749E-05-2.94196E-06 8.54385E-19-4.37917E-19
 -1       737 9.87942E-05-3.23997E-05-2.84551E-05-4.10585E-06 1.06641E-18-5.47394E-20
 -1       738 9.95772E-05-3.28130E-05-2.86135E-05-5.54828E-06 5.87813E-19-3.90647E-19
 -1       739 1.00109E-04-3.27307E-05-2.88765E-05-7.18339E-06 3.55257E-19-8.07100E-19
 -1       740 1.00126E-04-3.18497E-05-2.92603E-05-8.77184E-06 4.59305E-19-6.54771E-19
 -1       741 9.94022E-05-2.99571E-05-2.97603E-05-9.87856E-06 1.31576E-19 3.75477E-19
 -1       742 9.79027E-05-2.71197E-05-3.03339E-05-9.91618E-06-1.50214E-19 1.02156E-18
 -1       743 9.59449E-05-2.38635E-05-3.08909E-05-8.34642E-06-3.44815E-19 1.93395E-18
 -1       744 9.42052E-05-2.11432E-05-3.13118E-05-5.03750E-06-6.60478E-19 1.67219E-18
 -1       745 9.34071E-05-1.99295E-05-3.14906E-05-5.19258E-07-8.33673E-19 1.54006E-18
 -1       746 9.39272E-05-2.07177E-05-3.13754E-05 4.13637E-06-8.10041E-19 3.16705E-18
 -1       747 9.55191E-05-2.31835E-05-3.10001E-05 7.77942E-06-8.43364E-19 9.99395E-19
 -1       748 9.74927E-05-2.64074E-05-3.04639E-05 9.73884E-06-6.78927E-19 6.11187E-19
 -1       749 9.91302E-05-2.93907E-05-2.98873E-05 1.00207E-05-1.88415E-18-7.38651E-19
 -1       750 1.00028E-04-3.15034E-05-2.93670E-05 9.10312E-06-6.82488E-19 3.51948E-19
 -1       751 1.00153E-04-3.25874E-05-2.89567E-05 7.58548E-06 2.74851E-19 1.10930E-18
 -1       752 9.97038E-05-3.28083E-05-2.86695E-05 5.94472E-06 4.82128E-19 1.14241E-18
 -1       753 9.89454E-05-3.24644E-05-2.84920E-05 4.46661E-06 3.65337E-19 4.96075E-19
 -1       754 9.81058E-05-3.18438E-05-2.83983E-05 3.26326E-06 1.35343E-18-2.26820E-18
 -1       755 9.73308E-05-3.11552E-05-2.83612E-05 2.33993E-06 2.25248E-18-4.60066E-18
 -1       756 9.66820E-05-3.05153E-05-2.83572E-05 1.66786E-06 1.74676E-18-3.36425E-18
 -1       757 9.61923E-05-2.99968E-05-2.83692E-05 1.17587E-06-1.65424E-18-3.05309E-18
 -1       758 9.55567E-05-2.87882E-05-2.86151E-05-1.10853E-06 6.86252E-19-8.54374E-19
 -1       759 9.43248E-05-2.75981E-05-2.85978E-05-9.68378E-08 5.31918E-19-3.43646E-18
 -1       760 9.56870E-05-2.82776E-05-2.88898E-05-7.54527E-07 3.43380E-19-3.40742E-19
 -1       761 9.54967E-05-2.88831E-05-2.85487E-05-1.08350E-06 2.57147E-19-8.38914E-19
 -1       762 9.54447E-05-2.89225E-05-2.85096E-05-9.93819E-07-8.26187E-20-3.69713E-19
 -1       763 9.54003E-05-2.89255E-05-2.84893E-05-8.69528E-07 1.91948E-19-5.49999E-19
 -1       764 9.53614E-05-2.89042E-05-2.84817E-05-7.30834E-07 3.83814E-19-6.92584E-20
 -1       765 9.53218E-05-2.88617E-05-2.84830E-05-5.84582E-07-1.07517E-20-5.70743E-19
 -1       766 9.52777E-05-2.88008E-05-2.84902E-05-4.53999E-07 6.88899E-20-1.17912E-18
 -1       767 9.52155E-05-2.87112E-05-2.85019E-05-3.38592E-07 2.25669E-19-1.50558E-18
 -1       768 9.51140E-05-2.85734E-05-2.85174E-05-2.43892E-07 9.80640E-19-1.43694E-18
 -1       769 9.49379E-05-2.83532E-05-2.85363E-05-1.74785E-07 6.20655E-19-4.01304E-19
 -1       770 9.46287E-05-2.79951E-05-2.85573E-05-1.35042E-07 8.14777E-19 1.43349E-19
 -1       771 9.40508E-05-2.73739E-05-2.85757E-05-1.19292E-07-3.85090E-19-6.58409E-19
 -1       772 9.30873E-05-2.64094E-05-2.85762E-05-1.03917E-07-1.31246E-19-1.09238E-18
 -1       773 9.14589E-05-2.48944E-05-2.85276E-05-1.70145E-08-2.98745E-19-9.26678E-19
 -1       774 8.87623E-05-2.25869E-05-2.83606E-05 3.13677E-07-1.39032E-18-1.06759E-18
 -1       775 8.44156E-05-1.92314E-05-2.79350E-05 1.23277E-06-7.54736E-19-1.82639E-19
 -1       776 7.72333E-05-1.44546E-05-2.68856E-05 3.60726E-06 3.62934E-20 1.30552E-20
 -1       777 6.67516E-05-8.58003E-06-2.48563E-05 8.17000E-06 1.87290E-19-8.10629E-19
 -1       778 9.43137E-05-2.77016E-05-2.85478E-05-6.90255E-07 2.05711E-18-4.74173E-18
 -1       779 9.46538E-05-2.81261E-05-2.85116E-05-1.19620E-06 2.16174E-18 5.81477E-18
 -1       780 9.55320E-05-2.56561E-05-2.99425E-05 2.00985E-06 9.00029E-19-8.75998E-19
 -1       781 9.66054E-05-3.01830E-05-2.84667E-05-6.04079E-07-2.40577E-18-4.67151E-19
 -1       782 9.62519E-05-2.98027E-05-2.84784E-05-1.21319E-06-1.58330E-18-2.83671E-18
 -1       783 9.64061E-05-3.01231E-05-2.84081E-05 6.91010E-07-1.96945E-18-4.29756E-18
 -1       784 7.67761E-05-1.40455E-05-2.68693E-05-3.25055E-06 3.47517E-19 1.14869E-19
 -1       785 8.84597E-05-2.22698E-05-2.83658E-05-2.50495E-07-1.15483E-18 2.00566E-18
 -1       786 9.38889E-05-2.09037E-05-3.12793E-05-5.19497E-06-7.37646E-19-2.03260E-18
 -1       787 1.34777E-04-4.33947E-05-3.92985E-05-7.69395E-06-6.83572E-19-1.00878E-18
 -1       788 6.42369E-05-7.15408E-06-2.43846E-05-7.39586E-06-1.36548E-19-9.65464E-19
 -1       789 8.38885E-05-1.87692E-05-2.79039E-05-1.12312E-06-1.57163E-18 2.29013E-18
 -1       790 3.85301E-05 1.74040E-07-1.60747E-05 1.32718E-05-6.47596E-19-5.99276E-19
 -1       791 9.66633E-05-3.02917E-05-2.84447E-05 7.13592E-08-2.25322E-18-2.07952E-18
 -1       792 1.14734E-04-5.01304E-05-2.75849E-05 3.49438E-05-2.34919E-20 3.38840E-19
 -1       793 8.53403E-05-3.15233E-05-2.28268E-05 4.00634E-05 1.21152E-19-1.38392E-18
 -1       794 9.12977E-05-2.46880E-05-2.85467E-05 1.00873E-08-6.98277E-19-1.33024E-18
 -1       795 5.72223E-05-1.21490E-05-1.89191E-05 3.25654E-05-5.77121E-19-1.25324E-18
 -1       796 1.37030E-04-3.58455E-05-4.36451E-05 1.15271E-05 4.14001E-19-4.78640E-19
 -1       797 9.49515E-05-2.35740E-05-3.05881E-05-3.31897E-06-6.88901E-19-1.98418E-18
 -1       798 9.30157E-05-2.62757E-05-2.86041E-05 3.37960E-08 1.36770E-19-2.44145E-18
 -1       799 1.24654E-04-2.17943E-05-4.42761E-05-1.43339E-05 4.03227E-19-1.07853E-18
 -1       800 1.20629E-04-5.54585E-06-4.97111E-05 4.57647E-06-4.00594E-19-2.59973E-18
 -1       801 1.23756E-04-5.25179E-05-3.05224E-05-2.32183E-05-1.13614E-18 9.07697E-19
 -1       802 9.31808E-05-1.97611E-05-3.14668E-05 1.22849E-06 5.49132E-19-1.99145E-18
 -1       803 1.28097E-04-1.67350E-05-4.80874E-05 1.35462E-05 1.44509E-18-1.34549E-18
 -1       804 9.34763E-05-2.03105E-05-3.13577E-05-2.31423E-06-4.20233E-19-1.94418E-18
 -1       805 6.92640E-05-1.88670E-05-2.13143E-05-3.37045E-05-3.94122E-19 1.47549E-18
 -1       806 8.97091E-05-3.38011E-05-2.37647E-05-3.88470E-05-1.80834E-18 6.44380E-19
 -1       807 9.39609E-05-2.12737E-05-3.11544E-05-3.25989E-06-7.53889E-19-2.16274E-18
 -1       808 9.51970E-05-2.87167E-05-2.84900E-05-1.42194E-06 1.44932E-18 3.37988E-18
 -1       809 1.35359E-04-4.68071E-05-3.80201E-05 3.81177E-06-2.44123E-19 1.03171E-18
 -1       810 1.14352E-04-1.35721E-05-4.33026E-05-1.01911E-05 1.51394E-19-9.86558E-19
 -1       811 9.57158E-05-2.92639E-05-2.84804E-05-1.44123E-06 1.23518E-18 9.71304E-20
 -1       812 9.40201E-05-2.13550E-05-3.11430E-05 3.29570E-06 9.73155E-19-1.55799E-18
 -1       813 9.35025E-05-2.03524E-05-3.13514E-05 2.35579E-06 7.58842E-19-1.82477E-18
 -1       814 9.30684E-05-1.95604E-05-3.15045E-05 1.99918E-08 3.01228E-19-1.90789E-18
 -1       815 1.09286E-04-4.58993E-05-2.70889E-05-3.41183E-05-9.58735E-19-1.11729E-19
 -1       816 9.61838E-05-2.84479E-05-2.90297E-05-7.05465E-07 5.89704E-19-1.24754E-18
 -1       817 1.29221E-04-5.16936E-05-3.32648E-05-9.34881E-06 2.80495E-19 5.71543E-19
 -1       818 9.61785E-05-2.69825E-05-2.96555E-05-2.68420E-07-2.58424E-19-1.51028E-18
 -1       819 9.63399E-05-2.79123E-05-2.93262E-05 3.10100E-07-4.18892E-19-1.06215E-18
 -1       820 9.63574E-05-2.85075E-05-2.90785E-05 6.53816E-07-6.10023E-19-7.59969E-19
 -1       821 9.62911E-05-2.88682E-05-2.88955E-05 8.22390E-07-3.99663E-19-8.19582E-19
 -1       822 9.61820E-05-2.90690E-05-2.87627E-05 8.69500E-07-1.03423E-19-1.08496E-18
 -1       823 9.60568E-05-2.91650E-05-2.86679E-05 8.37241E-07-1.45702E-19-1.59868E-18
 -1       824 9.59331E-05-2.91970E-05-2.86012E-05 7.56204E-07-5.37390E-20-1.56262E-18
 -1       825 9.58228E-05-2.91958E-05-2.85544E-05 6.47570E-07 4.44593E-20-1.68854E-18
 -1       826 9.57353E-05-2.91855E-05-2.85213E-05 5.24983E-07 2.76876E-20-1.69740E-18
 -1       827 9.56792E-05-2.91863E-05-2.84970E-05 3.96166E-07-3.80193E-19-1.18153E-18
 -1       828 9.56651E-05-2.92175E-05-2.84776E-05 2.64199E-07-9.54659E-19-2.63125E-19
 -1       829 9.57070E-05-2.92989E-05-2.84607E-05 1.28210E-07-1.05419E-19-7.32400E-19
 -1       830 9.58249E-05-2.94533E-05-2.84450E-05-1.66770E-08-8.43078E-19-5.52457E-19
 -1       831 9.60465E-05-2.97075E-05-2.84310E-05-1.80430E-07 4.91283E-21-2.26830E-19
 -1       832 9.64080E-05-3.00914E-05-2.84214E-05-3.80547E-07-1.69721E-19 5.30543E-19
 -1       833 9.69536E-05-3.06346E-05-2.84224E-05-6.45915E-07 2.44857E-19 2.84320E-19
 -1       834 9.77292E-05-3.13579E-05-2.84449E-05-1.02212E-06 4.56782E-19-5.06753E-20
 -1       835 9.87705E-05-3.22557E-05-2.85064E-05-1.57692E-06 1.29521E-18-2.72713E-19
 -1       836 1.00077E-04-3.32670E-05-2.86332E-05-2.40160E-06 6.65862E-19-2.34843E-19
 -1       837 1.01574E-04-3.42331E-05-2.88606E-05-3.59502E-06 6.66760E-19-1.17939E-18
 -1       838 1.03067E-04-3.48643E-05-2.92304E-05-5.21664E-06 1.83061E-19-5.20460E-19
 -1       839 1.04222E-04-3.47337E-05-2.97819E-05-7.20296E-06 9.30468E-19-9.18295E-21
 -1       840 1.04599E-04-3.33571E-05-3.05310E-05-9.23849E-06 9.36053E-19 3.68056E-19
 -1       841 1.03833E-04-3.04268E-05-3.14588E-05-1.06693E-05 5.03129E-19-1.82104E-19
 -1       842 1.01859E-04-2.61120E-05-3.24626E-05-1.05789E-05-1.17313E-20-7.58726E-19
 -1       843 9.93774E-05-2.15591E-05-3.33496E-05-8.16680E-06-4.09481E-19-5.02638E-19
 -1       844 9.75180E-05-1.84151E-05-3.39034E-05-3.49944E-06-1.09005E-18-6.11629E-19
 -1       845 9.73018E-05-1.80567E-05-3.39638E-05 2.28372E-06 2.49594E-19-1.71422E-19
 -1       846 9.88664E-05-2.06817E-05-3.35080E-05 7.32916E-06-1.13494E-18-6.19715E-20
 -1       847 1.01328E-04-2.50883E-05-3.26745E-05 1.02780E-05-1.18815E-19 5.07515E-19
 -1       848 1.03474E-04-2.95489E-05-3.16810E-05 1.08336E-05-1.47334E-18 6.13472E-19
 -1       849 1.04523E-04-3.28236E-05-3.07270E-05 9.65576E-06-2.85244E-19 1.59069E-18
 -1       850 1.04364E-04-3.45184E-05-2.99327E-05 7.68876E-06-8.34233E-20 1.23925E-18
 -1       851 1.03333E-04-3.48759E-05-2.93384E-05 5.65978E-06 6.62091E-19 1.06363E-18
 -1       852 1.01860E-04-3.43468E-05-2.89339E-05 3.95984E-06-4.66139E-19 7.85629E-19
 -1       853 1.00328E-04-3.34081E-05-2.86803E-05 2.69695E-06-3.76462E-20 7.74708E-19
 -1       854 9.89504E-05-3.23721E-05-2.85339E-05 1.82227E-06 3.85291E-19-1.26892E-19
 -1       855 9.78437E-05-3.14360E-05-2.84595E-05 1.22996E-06 1.55190E-18-1.66733E-18
 -1       856 9.70187E-05-3.07043E-05-2.84229E-05 9.09747E-07-1.56238E-19-4.04402E-18
 -1       857 9.59113E-05-2.90879E-05-2.86386E-05-9.26066E-07 1.28548E-19-1.14777E-18
 -1       858 9.58043E-05-2.91119E-05-2.85825E-05-8.40289E-07 3.14357E-19-1.54432E-18
 -1       859 9.57038E-05-2.90943E-05-2.85469E-05-7.25870E-07 1.27609E-19-1.84793E-18
 -1       860 9.56061E-05-2.90465E-05-2.85256E-05-5.91589E-07 4.19889E-19-1.38970E-18
 -1       861 9.55163E-05-2.89789E-05-2.85161E-05-4.59334E-07 5.20719E-19-1.57510E-18
 -1       862 9.54204E-05-2.88874E-05-2.85142E-05-3.26366E-07 9.49472E-20-1.20518E-18
 -1       863 9.53010E-05-2.87596E-05-2.85177E-05-1.91246E-07 3.86975E-19-1.01422E-18
 -1       864 9.51292E-05-2.85715E-05-2.85248E-05-4.64415E-08 1.49877E-19-6.83525E-19
 -1       865 9.48589E-05-2.82833E-05-2.85325E-05 1.24369E-07 2.25881E-19-4.81418E-19
 -1       866 9.43888E-05-2.78068E-05-2.85352E-05 3.70443E-07 7.24069E-19 1.75155E-21
 -1       867 9.36463E-05-2.70989E-05-2.85204E-05 7.38362E-07-5.15593E-20-1.13417E-18
 -1       868 9.24539E-05-2.60370E-05-2.84646E-05 1.36284E-06-2.97612E-19-1.83431E-18
 -1       869 9.05904E-05-2.45084E-05-2.83211E-05 2.47433E-06-5.61356E-19-1.47851E-18
 -1       870 8.77888E-05-2.24450E-05-2.80045E-05 4.46367E-06-1.29798E-18-2.55276E-18
 -1       871 8.35650E-05-1.98156E-05-2.73130E-05 8.23639E-06-6.00479E-19-1.77656E-18
 -1       872 7.80085E-05-1.73179E-05-2.59954E-05 1.46150E-05-3.46122E-19-1.23221E-18
 -1       873 9.54013E-05-2.46054E-05-3.03394E-05 1.98952E-06 6.77128E-19-1.14246E-18
 -1       874 9.70833E-05-3.05687E-05-2.85052E-05-1.33173E-06-1.13818E-18-4.04728E-18
 -1       875 9.31706E-05-1.97450E-05-3.14692E-05-1.18938E-06 7.52315E-20-1.75286E-18
 -1       876 9.61797E-05-2.78748E-05-2.92737E-05-3.12828E-07 4.95593E-19-8.27977E-19
 -1       877 1.13767E-04-1.31798E-05-4.32573E-05 9.77390E-06 2.46235E-20-1.64246E-18
 -1       878 7.61891E-05-1.61995E-05-2.56782E-05-1.49746E-05-4.61433E-19 1.92460E-18
 -1       879 1.21074E-04-3.15048E-05-3.84287E-05-1.28252E-05-2.94582E-19-6.83597E-19
 -1       880 9.22754E-05-2.58272E-05-2.84759E-05-1.48356E-06 1.65022E-18 3.60161E-18
 -1       881 1.23375E-04-5.11796E-05-3.09188E-05 1.87493E-05-1.55721E-19-8.12642E-19
 -1       882 1.02376E-04-3.97922E-05-2.67618E-05 3.07073E-05-2.18574E-20 3.65501E-19
 -1       883 8.30673E-05-1.94043E-05-2.72790E-05-8.19131E-06-1.87280E-18 3.83208E-18
 -1       884 1.21895E-04-2.49025E-05-4.17187E-05 1.39382E-05-1.94751E-19-8.98037E-19
 -1       885 1.29584E-04-4.90666E-05-3.45217E-05 1.92636E-06-1.38008E-18 9.03235E-19
 -1       886 9.57808E-05-2.55853E-05-3.00844E-05-1.16532E-06-3.18114E-19-1.88224E-18
 -1       887 9.35320E-05-2.69602E-05-2.85303E-05-9.85080E-07 2.66067E-18-2.53034E-19
 -1       888 9.60636E-05-2.69935E-05-2.96003E-05 3.51454E-07 6.29422E-19-8.19872E-19
 -1       889 9.60191E-05-2.89987E-05-2.87230E-05-9.59685E-07 1.81724E-19-6.45966E-19
 -1       890 7.65171E-05-2.02201E-05-2.40486E-05 2.71232E-05 2.67699E-19-4.39481E-19
 -1       891 9.61184E-05-2.88032E-05-2.88494E-05-9.03675E-07 7.91748E-19-9.13053E-19
 -1       892 8.73087E-05-2.20341E-05-2.79736E-05-4.60354E-06-2.06333E-18 2.43373E-18
 -1       893 9.41094E-05-2.76187E-05-2.84927E-05-1.84668E-06 3.58709E-18 3.31717E-18
 -1       894 1.11676E-04-8.26197E-06-4.44978E-05-1.87835E-07 4.95183E-19-1.30067E-18
 -1       895 9.02897E-05-2.41991E-05-2.83205E-05-2.59414E-06 1.30948E-18 2.75772E-18
 -1       896 9.45024E-05-2.24442E-05-3.08869E-05-3.35780E-06-7.30111E-19-2.40574E-18
 -1       897 7.19787E-05-1.59439E-05-2.39320E-05-2.30442E-05-7.47665E-19 3.15183E-18
 -1       898 8.49750E-05-2.69187E-05-2.48143E-05-2.97767E-05-1.69496E-18 1.49682E-18
 -1       899 9.49049E-05-2.31970E-05-3.07294E-05-1.85841E-06-1.19094E-19-1.84871E-18
 -1       900 9.73801E-05-3.08985E-05-2.84915E-05-4.03024E-07-2.05684E-18-1.73114E-18
 -1       901 9.63683E-05-2.98693E-05-2.84976E-05-2.08491E-06-1.03927E-18-2.37646E-18
 -1       902 9.46686E-05-2.25911E-05-3.08893E-05-1.20224E-06 3.76022E-20-1.50138E-18
 -1       903 1.22284E-04-3.99894E-05-3.52543E-05-8.34353E-06-4.41836E-19-1.47757E-18
 -1       904 1.24677E-04-3.56437E-05-3.81959E-05 1.16337E-05 8.51690E-20-8.58544E-19
 -1       905 9.50083E-05-2.85653E-05-2.84793E-05-2.21955E-06 1.75368E-18 4.11214E-18
 -1       906 1.13178E-04-2.33859E-05-3.85379E-05-1.28707E-05-4.47877E-19-6.78199E-19
 -1       907 9.45159E-05-2.22536E-05-3.09697E-05 4.26674E-07 3.28244E-19-1.81817E-18
 -1       908 1.18057E-04-4.71856E-05-3.03797E-05-1.56680E-05-8.40995E-19-3.71815E-19
 -1       909 1.09427E-04-4.28748E-05-2.84934E-05-2.32869E-05-1.78631E-18 5.03943E-20
 -1       910 9.46617E-05-2.25951E-05-3.08865E-05 1.21001E-06 6.57966E-19-1.92612E-18
 -1       911 1.25739E-04-4.48798E-05-3.46759E-05 3.40630E-06 1.29983E-20-9.58679E-19
 -1       912 9.31794E-05-2.68518E-05-2.84293E-05-2.89295E-06 2.77508E-18 2.12176E-18
 -1       913 8.71802E-05-2.40333E-05-2.70483E-05-1.55146E-05-1.19619E-18 1.45492E-18
 -1       914 9.66360E-05-2.81346E-05-2.93578E-05 3.24391E-07-3.88822E-19-1.17529E-18
 -1       915 9.66521E-05-2.87112E-05-2.91175E-05 5.38052E-07-4.65690E-19-9.85531E-19
 -1       916 9.65705E-05-2.90540E-05-2.89356E-05 6.34416E-07-1.99710E-19-9.32906E-19
 -1       917 9.64371E-05-2.92364E-05-2.88003E-05 6.50219E-07-3.27549E-19-1.03185E-18
 -1       918 9.62845E-05-2.93154E-05-2.87010E-05 6.13863E-07-2.50464E-19-8.72367E-19
 -1       919 9.61342E-05-2.93332E-05-2.86290E-05 5.46578E-07 1.69147E-20-1.07451E-18
 -1       920 9.60021E-05-2.93222E-05-2.85771E-05 4.63809E-07 2.25704E-19-7.95574E-19
 -1       921 9.59008E-05-2.93087E-05-2.85395E-05 3.76236E-07 4.65068E-19-5.14332E-19
 -1       922 9.58422E-05-2.93150E-05-2.85116E-05 2.91299E-07-1.51275E-19-4.71254E-19
 -1       923 9.58405E-05-2.93628E-05-2.84905E-05 2.14362E-07-6.59743E-19 2.20162E-19
 -1       924 9.59152E-05-2.94757E-05-2.84740E-05 1.49264E-07-8.35713E-19-2.27358E-19
 -1       925 9.60938E-05-2.96820E-05-2.84621E-05 9.80415E-08 1.88427E-19 1.50742E-19
 -1       926 9.64154E-05-3.00165E-05-2.84566E-05 5.88739E-08 4.53394E-20 3.50892E-19
 -1       927 9.69332E-05-3.05203E-05-2.84626E-05 2.19157E-08 3.11670E-19 3.66107E-19
 -1       928 9.77145E-05-3.12382E-05-2.84897E-05-3.84141E-08 7.57749E-19 1.44379E-18
 -1       929 9.88358E-05-3.22078E-05-2.85547E-05-1.74843E-07 2.90652E-19 1.08522E-18
 -1       930 1.00368E-04-3.34386E-05-2.86840E-05-4.83740E-07 8.87302E-19 5.69295E-20
 -1       931 1.02339E-04-3.48644E-05-2.89183E-05-1.12107E-06 7.01896E-19 8.17470E-19
 -1       932 1.04661E-04-3.62639E-05-2.93132E-05-2.27379E-06 1.03414E-18 3.04210E-19
 -1       933 1.07079E-04-3.72231E-05-2.99381E-05-4.12799E-06 6.37738E-19 3.62215E-19
 -1       934 1.09060E-04-3.70422E-05-3.08628E-05-6.76363E-06 6.33264E-19-1.56207E-18
 -1       935 1.09793E-04-3.48761E-05-3.21067E-05-9.64977E-06 1.88001E-19-1.27214E-18
 -1       936 1.08717E-04-3.02912E-05-3.36293E-05-1.16561E-05-4.90757E-19-1.53907E-18
 -1       937 1.06135E-04-2.41109E-05-3.51538E-05-1.12409E-05-5.44267E-19-1.37244E-18
 -1       938 1.02823E-04-1.78885E-05-3.64145E-05-7.40449E-06-3.09054E-19-1.14384E-18
 -1       939 1.01241E-04-1.50672E-05-3.69406E-05-8.05630E-07 7.37017E-19-4.02907E-20
 -1       940 1.02292E-04-1.69446E-05-3.65977E-05 6.15514E-06-4.60598E-19 1.03355E-19
 -1       941 1.05321E-04-2.25882E-05-3.54735E-05 1.06950E-05-2.47055E-19 2.96566E-19
 -1       942 1.08309E-04-2.91195E-05-3.39434E-05 1.17167E-05-7.86320E-19 3.23952E-19
 -1       943 1.09761E-04-3.41540E-05-3.24016E-05 1.00651E-05-5.48881E-19 1.16504E-18
 -1       944 1.09311E-04-3.67517E-05-3.10958E-05 7.29468E-06-2.04659E-19 4.49585E-19
 -1       945 1.07524E-04-3.72676E-05-3.01093E-05 4.66468E-06 1.01249E-18 1.89564E-18
 -1       946 1.05132E-04-3.64597E-05-2.94289E-05 2.63471E-06 9.56209E-20 1.21225E-18
 -1       947 1.02741E-04-3.50881E-05-2.89946E-05 1.36770E-06 2.54738E-19 1.94130E-18
 -1       948 1.00670E-04-3.36327E-05-2.87296E-05 6.50150E-07 5.61154E-19 2.67164E-18
 -1       949 9.90191E-05-3.23323E-05-2.85779E-05 2.99242E-07 1.93808E-19 1.05307E-18
 -1       950 9.59031E-05-2.92205E-05-2.85782E-05-5.37021E-07-1.57254E-19-8.77854E-19
 -1       951 9.61887E-05-2.92509E-05-2.86876E-05-7.18873E-07 5.58364E-19-1.30986E-18
 -1       952 9.45088E-05-2.22433E-05-3.09709E-05-4.03548E-07 1.63915E-19-1.75637E-18
 -1       953 9.57754E-05-2.91576E-05-2.85504E-05-4.22014E-07 2.12620E-19-1.98434E-20
 -1       954 9.56541E-05-2.90747E-05-2.85340E-05-2.95168E-07 2.81043E-19 4.42985E-19
 -1       955 9.55291E-05-2.89691E-05-2.85257E-05-1.51840E-07 3.90615E-19-1.23943E-19
 -1       956 9.53824E-05-2.88295E-05-2.85227E-05 2.09597E-08 5.94245E-23-8.02890E-19
 -1       957 9.51859E-05-2.86347E-05-2.85220E-05 2.47662E-07 2.04510E-19-3.57544E-19
 -1       958 9.48794E-05-2.83356E-05-2.85188E-05 5.93172E-07 3.91338E-20-3.75964E-19
 -1       959 9.44312E-05-2.79190E-05-2.85052E-05 1.10381E-06 7.63882E-19 2.35743E-19
 -1       960 9.37569E-05-2.73340E-05-2.84668E-05 1.91856E-06 8.24772E-19-7.45805E-20
 -1       961 9.27800E-05-2.65628E-05-2.83785E-05 3.24376E-06-4.33634E-19-2.17321E-19
 -1       962 9.14517E-05-2.56545E-05-2.81982E-05 5.39241E-06-3.95487E-19-1.74383E-19
 -1       963 8.97721E-05-2.48067E-05-2.78383E-05 9.05965E-06-1.10095E-18-4.33588E-19
 -1       964 8.81735E-05-2.46453E-05-2.72196E-05 1.45568E-05-4.97288E-19-4.50526E-19
 -1       965 9.75454E-05-3.09449E-05-2.85419E-05-2.45601E-06-1.61826E-18-4.74990E-18
 -1       966 9.14757E-05-2.93132E-05-2.66369E-05 2.30162E-05-6.03702E-19-7.75596E-19
 -1       967 9.65198E-05-2.80657E-05-2.93376E-05-3.47286E-07 8.34969E-19-1.42693E-18
 -1       968 9.58380E-05-2.54816E-05-3.01535E-05 9.43344E-07 6.00850E-19-1.50810E-18
 -1       969 1.11707E-04-4.36307E-05-2.91563E-05 1.91501E-05-2.49356E-19-4.58951E-19
 -1       970 1.20976E-04-4.72593E-05-3.15921E-05 7.95033E-06-4.67446E-19 3.50617E-20
 -1       971 1.11649E-04-2.04792E-05-3.91270E-05 1.19686E-05 5.71853E-19-6.57794E-19
 -1       972 9.60626E-05-2.59107E-05-3.00650E-05-6.30216E-07-9.03216E-20-1.51419E-18
 -1       973 8.93188E-05-2.44572E-05-2.77967E-05-9.33790E-06-4.86261E-19 7.65351E-19
 -1       974 9.63316E-05-2.91775E-05-2.87803E-05-7.59323E-07 3.53704E-19-1.10802E-18
 -1       975 9.50200E-05-2.34647E-05-3.06665E-05 1.74604E-06 6.91265E-19-1.56307E-18
 -1       976 8.57045E-05-2.46366E-05-2.61192E-05-2.19122E-05-6.31499E-19 2.51188E-18
 -1       977 9.63500E-05-2.71598E-05-2.96526E-05 1.09066E-07 5.14261E-19-1.44718E-18
 -1       978 1.20938E-04-4.60588E-05-3.20735E-05-3.61773E-06-3.66910E-19 5.11315E-19
 -1       979 9.64598E-05-2.72295E-05-2.96702E-05-4.98525E-08-2.02082E-20-1.21568E-18
 -1       980 9.82701E-05-3.60596E-05-2.65965E-05-2.85294E-05-1.90693E-18-1.38662E-19
 -1       981 9.60439E-05-2.92572E-05-2.86228E-05-6.40592E-07 3.14463E-19-1.11365E-18
 -1       982 9.62474E-05-2.97517E-05-2.84953E-05-3.37099E-06-5.51336E-19-7.15997E-19
 -1       983 9.10483E-05-2.53346E-05-2.81684E-05-5.75998E-06-6.25418E-19 1.58985E-18
 -1       984 1.12977E-04-3.03405E-05-3.54873E-05-1.20220E-05-5.24585E-19-1.00769E-18
 -1       985 9.65347E-05-2.86534E-05-2.90920E-05-6.15745E-07 4.37829E-19-1.29236E-18
 -1       986 1.14907E-04-2.87690E-05-3.69328E-05 1.27310E-05-1.60713E-19-1.66450E-18
 -1       987 1.06110E-04-1.28876E-05-4.00022E-05-4.74941E-06 5.93752E-19 1.64132E-19
 -1       988 9.55670E-05-2.44503E-05-3.04766E-05 4.88099E-07 4.74885E-19-1.44896E-18
 -1       989 1.19306E-04-4.30710E-05-3.26713E-05-2.69672E-06-6.98892E-19-1.17400E-18
 -1       990 1.13636E-04-4.32399E-05-3.01685E-05-9.45230E-06-1.28766E-18 1.43175E-18
 -1       991 9.55423E-05-2.43301E-05-3.05190E-05 1.40165E-08 2.26090E-19-1.60149E-18
 -1       992 1.06906E-04-1.26580E-05-4.04490E-05 4.94452E-06-3.52776E-20-7.09632E-19
 -1       993 1.08531E-04-4.05265E-05-2.91416E-05-1.49111E-05-1.70807E-18-7.06937E-19
 -1       994 9.64568E-05-2.89961E-05-2.89117E-05-7.36597E-07 5.01037E-19-7.88009E-19
 -1       995 9.86283E-05-3.19413E-05-2.85821E-05-1.26988E-06-1.65295E-18-2.69560E-18
 -1       996 9.58772E-05-2.92401E-05-2.85587E-05-2.30625E-07 7.13329E-20 3.07883E-19
 -1       997 9.66084E-05-2.74596E-05-2.96352E-05-5.05171E-08 4.61222E-19-1.62994E-18
 -1       998 9.57491E-05-2.91584E-05-2.85388E-05-1.06981E-07 4.28984E-19 4.34779E-19
 -1       999 9.68331E-05-2.89206E-05-2.91055E-05 3.68114E-07-3.06813E-19-7.02365E-19
 -1      1000 9.67259E-05-2.92173E-05-2.89323E-05 4.07928E-07 2.16188E-20-5.29969E-19
 -1      1001 9.65706E-05-2.93658E-05-2.88021E-05 4.05671E-07-2.06573E-19-9.74162E-20
 -1      1002 9.63993E-05-2.94197E-05-2.87055E-05 3.75666E-07-1.85860E-19 2.74905E-19
 -1      1003 9.62345E-05-2.94199E-05-2.86348E-05 3.32463E-07 4.16008E-19 4.37775E-19
 -1      1004 9.60935E-05-2.93988E-05-2.85834E-05 2.86422E-07 9.00968E-20-8.20040E-20
 -1      1005 9.59896E-05-2.93817E-05-2.85462E-05 2.46467E-07 2.50901E-19-5.97647E-19
 -1      1006 9.59358E-05-2.93911E-05-2.85191E-05 2.21573E-07-1.84474E-19-6.93056E-19
 -1      1007 9.59481E-05-2.94490E-05-2.84995E-05 2.21761E-07-7.50104E-19-5.91034E-20
 -1      1008 9.60492E-05-2.95810E-05-2.84862E-05 2.58742E-07-3.24921E-20 7.67875E-19
 -1      1009 9.62725E-05-2.98197E-05-2.84795E-05 3.46196E-07 5.20343E-19 4.77855E-19
 -1      1010 9.66678E-05-3.02080E-05-2.84825E-05 4.95583E-07 6.75998E-21 7.49119E-19
 -1      1011 9.73074E-05-3.08019E-05-2.85018E-05 7.12093E-07 9.30086E-19 6.52312E-19
 -1      1012 9.82892E-05-3.16695E-05-2.85506E-05 9.79108E-07-4.41212E-20 2.06085E-19
 -1      1013 9.97344E-05-3.28805E-05-2.86508E-05 1.24225E-06 3.36361E-19 1.48143E-19
 -1      1014 1.01788E-04-3.44940E-05-2.88391E-05 1.37284E-06 9.97028E-19-1.83180E-19
 -1      1015 1.04515E-04-3.64295E-05-2.91802E-05 1.08139E-06 6.71505E-19-1.70331E-19
 -1      1016 1.07888E-04-3.84835E-05-2.97472E-05 1.03531E-07 1.40359E-19-5.48393E-19
 -1      1017 1.11442E-04-3.99337E-05-3.06578E-05-1.93006E-06-6.00444E-19-1.12873E-18
 -1      1018 1.15205E-04-3.94368E-05-3.24762E-05 6.49815E-06-7.04441E-19-3.12853E-19
 -1      1019 1.12561E-04-4.02821E-05-3.09745E-05 2.77708E-06 7.55925E-19-7.73275E-19
 -1      1020 1.08530E-04-3.87868E-05-2.99143E-05 1.87192E-07-6.99009E-21-3.78055E-19
 -1      1021 1.05146E-04-3.68033E-05-2.92896E-05-9.13246E-07-9.26831E-20-2.60584E-19
 -1      1022 1.02231E-04-3.47826E-05-2.89062E-05-1.30287E-06 6.55232E-19-4.12290E-19
 -1      1023 1.00189E-04-3.32159E-05-2.87025E-05-1.39482E-06-2.87362E-19-1.58961E-18
 -1      1024 9.61768E-05-2.93587E-05-2.86363E-05-4.16790E-07-2.10518E-19 1.09862E-20
 -1      1025 9.79032E-05-3.12787E-05-2.85595E-05-4.12408E-06-1.82165E-18-3.76083E-18
 -1      1026 9.55795E-05-2.44692E-05-3.04784E-05-4.63797E-07-1.95032E-19-1.24081E-18
 -1      1027 9.57078E-05-2.48971E-05-3.03468E-05 7.74278E-07 6.21974E-19-1.76217E-18
 -1      1028 9.56270E-05-2.90645E-05-2.85267E-05 5.31260E-08 5.12404E-19 9.34886E-19
 -1      1029 9.54988E-05-2.89534E-05-2.85194E-05 2.74539E-07 6.13327E-19-3.57529E-19
 -1      1030 9.53393E-05-2.88083E-05-2.85132E-05 6.19512E-07-7.57124E-20-1.44730E-19
 -1      1031 9.51436E-05-2.86339E-05-2.85040E-05 1.12574E-06-2.44634E-19-7.49472E-20
 -1      1032 9.48920E-05-2.84274E-05-2.84845E-05 1.90872E-06 5.21015E-19-7.82375E-20
 -1      1033 9.45945E-05-2.82239E-05-2.84440E-05 3.12114E-06 1.17556E-20 7.96999E-19
 -1      1034 9.43218E-05-2.81277E-05-2.83676E-05 4.97560E-06-2.22037E-19-5.58590E-21
 -1      1035 9.42698E-05-2.83873E-05-2.82328E-05 7.92685E-06-1.56618E-19-7.33277E-19
 -1      1036 9.49132E-05-2.95246E-05-2.80262E-05 1.20342E-05-7.00993E-19-1.59776E-18
 -1      1037 9.97257E-05-3.42001E-05-2.80810E-05 1.67473E-05-5.75664E-19-9.42605E-19
 -1      1038 9.68463E-05-2.84052E-05-2.93321E-05 2.62501E-07-2.53495E-19-8.54712E-19
 -1      1039 1.16336E-04-3.59163E-05-3.44812E-05 1.02507E-05-5.37942E-19-8.32327E-19
 -1      1040 9.60185E-05-2.93093E-05-2.85896E-05-3.31710E-07-4.78894E-19 1.88262E-19
 -1      1041 1.12669E-04-4.27179E-05-2.99719E-05 9.86451E-06-4.13671E-19-8.94565E-19
 -1      1042 9.63444E-05-2.93709E-05-2.87028E-05-4.82834E-07 2.28481E-19 8.88802E-20
 -1      1043 9.65120E-05-2.93215E-05-2.87959E-05-5.23383E-07 4.39227E-19-1.58053E-19
 -1      1044 9.45559E-05-2.93057E-05-2.79612E-05-1.28140E-05-8.21082E-19-4.65990E-19
 -1      1045 9.62796E-05-2.63791E-05-2.99575E-05 2.92993E-07 4.82651E-19-1.71938E-18
 -1      1046 9.67003E-05-2.75771E-05-2.96241E-05 6.76253E-08-5.09696E-20-1.23584E-18
 -1      1047 9.51830E-05-2.89406E-05-2.83885E-05-5.88866E-06-2.64402E-19 8.36566E-19
 -1      1048 9.63274E-05-2.62946E-05-3.00126E-05-2.12674E-07-1.39695E-20-1.34064E-18
 -1      1049 1.02305E-04-3.66384E-05-2.81267E-05-1.93687E-05-1.07150E-18 1.24312E-19
 -1      1050 9.66627E-05-2.91700E-05-2.89255E-05-5.26279E-07 5.31031E-19-5.79310E-19
 -1      1051 9.67708E-05-2.83326E-05-2.93308E-05-3.21054E-07 5.33442E-19-1.08804E-18
 -1      1052 9.48958E-05-2.89873E-05-2.82432E-05-8.73581E-06-1.49721E-18-1.12979E-19
 -1      1053 9.56191E-05-3.10255E-05-2.77009E-05-1.71192E-05-1.12823E-18-9.39687E-19
 -1      1054 1.13332E-04-4.20529E-05-3.05501E-05 3.07062E-06-3.02140E-19-1.89649E-19
 -1      1055 9.93368E-05-3.24903E-05-2.86488E-05-2.93319E-06-2.23724E-19-2.55011E-18
 -1      1056 9.62569E-05-2.60737E-05-3.00790E-05 2.14555E-07 5.07866E-19-1.61863E-18
 -1      1057 1.07283E-04-3.88760E-05-2.93155E-05-9.16527E-06-1.52582E-20 2.72347E-19
 -1      1058 9.68788E-05-2.79723E-05-2.95315E-05 6.36089E-08 2.25151E-20-1.12455E-18
 -1      1059 9.63260E-05-2.61656E-05-3.00684E-05-2.91098E-08 3.62300E-20-1.04526E-18
 -1      1060 9.59369E-05-2.93088E-05-2.85550E-05-4.58710E-08 3.20297E-19-1.28264E-19
 -1      1061 9.67749E-05-2.93454E-05-2.88983E-05 1.56224E-07-2.98997E-19-7.79967E-19
 -1      1062 9.65986E-05-2.94481E-05-2.87786E-05 1.50050E-07-6.37623E-20-6.71437E-19
 -1      1063 9.64164E-05-2.94721E-05-2.86902E-05 1.40304E-07 6.56767E-20-7.96208E-19
 -1      1064 9.62474E-05-2.94539E-05-2.86256E-05 1.31403E-07 1.81763E-19-7.49774E-19
 -1      1065 9.61062E-05-2.94217E-05-2.85790E-05 1.31048E-07-1.98938E-19-6.35772E-19
 -1      1066 9.60046E-05-2.93978E-05-2.85457E-05 1.48408E-07 1.01642E-19-7.32324E-19
 -1      1067 9.59541E-05-2.94022E-05-2.85222E-05 1.95766E-07 6.58027E-19 3.02043E-20
 -1      1068 9.59698E-05-2.94551E-05-2.85062E-05 2.90296E-07 1.20812E-19 6.41354E-19
 -1      1069 9.60749E-05-2.95822E-05-2.84969E-05 4.54567E-07 1.38200E-19 4.15267E-19
 -1      1070 9.63055E-05-2.98174E-05-2.84948E-05 7.18369E-07 3.67845E-19 6.78467E-20
 -1      1071 9.67196E-05-3.02117E-05-2.85032E-05 1.11639E-06 5.12172E-19 6.57168E-19
 -1      1072 9.74098E-05-3.08410E-05-2.85295E-05 1.67758E-06 1.87635E-19 9.57973E-19
 -1      1073 9.85177E-05-3.18104E-05-2.85893E-05 2.40678E-06-2.03998E-19 8.83877E-19
 -1      1074 1.00230E-04-3.32311E-05-2.87098E-05 3.24846E-06 4.59833E-19 5.51227E-19
 -1      1075 1.02589E-04-3.51974E-05-2.89118E-05 4.17165E-06 4.57301E-19-3.78512E-19
 -1      1076 1.06330E-04-3.78902E-05-2.93177E-05 4.66999E-06 6.26478E-19-5.25690E-19
 -1      1077 1.07254E-04-3.84853E-05-2.94665E-05-4.57787E-06 4.56935E-19-1.39820E-18
 -1      1078 1.03250E-04-3.56093E-05-2.89942E-05-4.26651E-06 3.88546E-19-7.85628E-19
 -1      1079 1.05047E-04-3.73700E-05-2.90053E-05 9.94758E-06-5.71102E-20 5.43974E-19
 -1      1080 9.56905E-05-2.91766E-05-2.85061E-05 9.42807E-07 1.73822E-19 1.07485E-19
 -1      1081 9.57352E-05-2.92343E-05-2.85007E-05 1.57346E-06 1.10921E-18-3.13579E-20
 -1      1082 9.58875E-05-2.94028E-05-2.84938E-05 2.51782E-06-5.17424E-20-1.25900E-19
 -1      1083 9.62538E-05-2.97883E-05-2.84850E-05 3.89307E-06-3.42413E-20-1.31283E-19
 -1      1084 9.71091E-05-3.06570E-05-2.84809E-05 5.90785E-06 8.85327E-20 4.65968E-19
 -1      1085 9.88427E-05-3.23165E-05-2.84965E-05 8.58848E-06 5.21568E-19 3.33026E-19
 -1      1086 9.69628E-05-2.86784E-05-2.92643E-05 1.22970E-07-1.89665E-19-7.78203E-19
 -1      1087 9.60690E-05-2.93687E-05-2.85859E-05-1.30895E-07-3.85140E-19-4.76423E-19
 -1      1088 9.64030E-05-2.94472E-05-2.86954E-05-2.40342E-07 8.30629E-20 1.37473E-20
 -1      1089 9.65852E-05-2.94228E-05-2.87838E-05-2.70084E-07 1.24977E-19 2.05425E-19
 -1      1090 9.58316E-05-2.92518E-05-2.85343E-05 7.36581E-08 5.72344E-19-4.07780E-19
 -1      1091 9.57038E-05-2.91753E-05-2.85123E-05 5.13945E-07-4.32466E-19 7.17968E-20
 -1      1092 9.67650E-05-2.88649E-05-2.91001E-05-4.67291E-07 1.51135E-19-1.00576E-18
 -1      1093 9.68985E-05-2.91012E-05-2.90560E-05 1.49444E-07 5.26340E-20-4.83593E-19
 -1      1094 1.03706E-04-3.66331E-05-2.87396E-05-1.28658E-05-3.57380E-19-3.94952E-19
 -1      1095 9.57536E-05-2.92051E-05-2.85209E-05 2.49069E-07 6.05463E-19-9.27443E-19
 -1      1096 9.62266E-05-2.94207E-05-2.86312E-05-1.94006E-07-3.12470E-20-1.11203E-19
 -1      1097 9.68187E-05-2.78409E-05-2.95620E-05-8.85845E-08 1.35046E-19-1.12417E-18
 -1      1098 1.03090E-04-3.56850E-05-2.88891E-05-8.23300E-06 1.24609E-19-1.63081E-18
 -1      1099 9.66053E-05-2.70684E-05-2.98017E-05 3.43912E-08 2.36857E-19-1.31542E-18
 -1      1100 9.67455E-05-2.93022E-05-2.89047E-05-2.81436E-07-5.33665E-20-1.01802E-19
 -1      1101 1.00985E-04-3.38567E-05-2.87784E-05-3.65011E-06-2.31982E-19-2.18873E-18
 -1      1102 9.66795E-05-2.71913E-05-2.97810E-05-2.35105E-09 1.80645E-19-1.11751E-18
 -1      1103 9.94966E-05-3.29344E-05-2.85241E-05-9.59497E-06-9.12285E-19-9.12431E-19
 -1      1104 9.92288E-05-3.24266E-05-2.86264E-05-5.39173E-06-8.22071E-19-3.16153E-18
 -1      1105 9.69303E-05-2.86006E-05-2.92842E-05-2.03369E-07 4.20782E-19-7.90806E-19
 -1      1106 9.68659E-05-2.92514E-05-2.89765E-05-1.02476E-07-3.46988E-19-5.44426E-19
 -1      1107 9.68881E-05-2.90607E-05-2.90691E-05-2.63252E-07 9.30667E-20-8.86484E-19
 -1      1108 1.16860E-04 2.57588E-10-4.18576E-05-4.14613E-05-2.38863E-19 6.11240E-18
 -1      1109 8.86580E-05 7.19399E-11-3.72539E-05-2.41603E-05-1.19855E-19 1.96141E-19
 -1      1110 8.40836E-05 4.14635E-11-3.57689E-05-1.78686E-05-8.12622E-20-2.29429E-18
 -1      1111 8.23374E-05 3.20234E-11-3.50740E-05-1.38257E-05-5.03985E-20-3.40115E-18
 -1      1112 8.15312E-05 2.73237E-11-3.47385E-05-1.05237E-05-3.13402E-20-3.87052E-18
 -1      1113 8.11263E-05 2.45927E-11-3.45720E-05-7.63211E-06-1.57495E-20-4.04895E-18
 -1      1114 8.09147E-05 2.29287E-11-3.44877E-05-4.97347E-06-3.78518E-21-4.06090E-18
 -1      1115 8.08111E-05 2.20304E-11-3.44478E-05-2.42894E-06-1.16632E-21-3.97806E-18
 -1      1116 8.07816E-05 2.17593E-11-3.44366E-05 5.23319E-08 1.41928E-20-3.87529E-18
 -1      1117 8.08155E-05 2.20757E-11-3.44493E-05 2.53621E-06 2.19319E-20-3.81214E-18
 -1      1118 8.09236E-05 2.30298E-11-3.44907E-05 5.08921E-06 3.01094E-20-3.65689E-18
 -1      1119 8.11415E-05 2.47510E-11-3.45762E-05 7.76393E-06 4.00289E-20-3.38465E-18
 -1      1120 8.15534E-05 2.76287E-11-3.47446E-05 1.06828E-05 4.93264E-20-2.90524E-18
 -1      1121 8.23626E-05 3.25116E-11-3.50835E-05 1.40321E-05 7.79270E-20-2.07137E-18
 -1      1122 8.40804E-05 4.19247E-11-3.57885E-05 1.81212E-05 9.68794E-20-5.76300E-19
 -1      1123 8.83540E-05 6.67670E-11-3.73245E-05 2.40031E-05 1.03550E-19 2.28709E-18
 -1      1124 1.06625E-04 1.63953E-10-4.06372E-05 3.61877E-05 2.02017E-19 8.06799E-18
 -1      1125 1.30226E-04-2.57587E-05-4.02761E-05-2.61032E-05-9.05584E-19 9.85184E-18
 -1      1126 9.74708E-05-2.88669E-05-3.15820E-05-6.79607E-07-3.34975E-19 7.63283E-18
 -1      1127 9.01800E-05-2.70327E-05-2.78993E-05 3.87199E-07-1.19008E-19 4.81795E-18
 -1      1128 8.82750E-05-2.65802E-05-2.66516E-05 2.50996E-07-8.61029E-20 2.88314E-18
 -1      1129 8.79236E-05-2.64555E-05-2.63974E-05 1.66130E-07-7.05387E-20 1.55597E-18
 -1      1130 8.82909E-05-2.65347E-05-2.64847E-05 1.18332E-07-2.38120E-20 1.16366E-18
 -1      1131 8.89866E-05-2.67220E-05-2.66903E-05 8.78310E-08 1.00420E-21 2.38982E-19
 -1      1132 8.98124E-05-2.69571E-05-2.69362E-05 6.67531E-08-6.35957E-21-3.11364E-19
 -1      1133 9.06581E-05-2.72036E-05-2.71883E-05 5.12284E-08-6.99849E-20-1.57708E-18
 -1      1134 9.14616E-05-2.74403E-05-2.74286E-05 3.93512E-08-3.20191E-21-2.74271E-18
 -1      1135 9.21894E-05-2.76561E-05-2.76468E-05 3.01154E-08-8.34925E-20-3.58354E-18
 -1      1136 9.28262E-05-2.78457E-05-2.78383E-05 2.29236E-08 9.67915E-21-3.57382E-18
 -1      1137 9.33676E-05-2.80073E-05-2.80016E-05 1.73741E-08-5.97203E-20-3.38798E-18
 -1      1138 9.38162E-05-2.81415E-05-2.81371E-05 1.31666E-08-5.12010E-20-4.12603E-18
 -1      1139 9.41774E-05-2.82496E-05-2.82463E-05 1.00568E-08-1.58956E-20-4.35522E-18
 -1      1140 9.44571E-05-2.83333E-05-2.83308E-05 7.82807E-09-5.69799E-20-3.47076E-18
 -1      1141 9.46591E-05-2.83936E-05-2.83916E-05 6.26654E-09-1.37616E-19-4.39611E-18
 -1      1142 9.47833E-05-2.84302E-05-2.84284E-05 5.13031E-09 3.83584E-20-3.98242E-18
 -1      1143 9.48225E-05-2.84410E-05-2.84390E-05 4.10814E-09-7.99356E-20-3.67250E-18
 -1      1144 9.47606E-05-2.84210E-05-2.84180E-05 2.76536E-09 2.07978E-20-5.34875E-18
 -1      1145 9.45684E-05-2.83614E-05-2.83566E-05 4.81100E-10-1.08316E-19-6.14025E-18
 -1      1146 9.42015E-05-2.82487E-05-2.82410E-05-3.60737E-09 4.78387E-20-6.00845E-18
 -1      1147 9.35974E-05-2.80644E-05-2.80525E-05-1.06190E-08 2.09639E-19-4.22144E-18
 -1      1148 9.26760E-05-2.77847E-05-2.77674E-05-2.18424E-08-2.04783E-19-5.62510E-18
 -1      1149 9.13449E-05-2.73826E-05-2.73592E-05-3.84697E-08 8.86216E-20-5.68620E-18
 -1      1150 8.95125E-05-2.68313E-05-2.68025E-05-6.10809E-08-9.23299E-20-4.21646E-18
 -1      1151 8.71114E-05-2.61118E-05-2.60801E-05-8.88853E-08 3.85978E-19-3.21016E-18
 -1      1152 8.41319E-05-2.52225E-05-2.51931E-05-1.18896E-07-8.19281E-20-3.62488E-18
 -1      1153 8.06606E-05-2.41903E-05-2.41704E-05-1.45452E-07-1.87636E-19-4.06512E-18
 -1      1154 7.69116E-05-2.30794E-05-2.30769E-05-1.60696E-07-2.42591E-21-2.90681E-18
 -1      1155 7.32317E-05-2.19923E-05-2.20135E-05-1.56519E-07-1.82532E-19-1.86980E-18
 -1      1156 7.00630E-05-2.10587E-05-2.11047E-05-1.27763E-07-8.95754E-20-3.46568E-18
 -1      1157 6.78583E-05-2.04103E-05-2.04759E-05-7.54088E-08-1.71564E-19-6.61133E-18
 -1      1158 6.69690E-05-2.01491E-05-2.02231E-05-7.79387E-09 9.34383E-20-7.54076E-18
 -1      1159 6.75451E-05-2.03183E-05-2.03869E-05 6.14374E-08 3.34457E-19-5.95232E-18
 -1      1160 6.94894E-05-2.08900E-05-2.09410E-05 1.18058E-07 2.20275E-19-5.25481E-18
 -1      1161 7.24879E-05-2.17731E-05-2.17998E-05 1.52299E-07 8.25634E-20-6.09885E-18
 -1      1162 7.61007E-05-2.28398E-05-2.28421E-05 1.61596E-07 1.09498E-20-5.46069E-18
 -1      1163 7.98758E-05-2.39577E-05-2.39410E-05 1.50008E-07 2.13696E-19-4.19919E-18
 -1      1164 8.34421E-05-2.50174E-05-2.49895E-05 1.25297E-07 1.92262E-20-3.10295E-18
 -1      1165 8.65568E-05-2.59464E-05-2.59149E-05 9.56073E-08-2.06676E-19-2.53962E-18
 -1      1166 8.91094E-05-2.67107E-05-2.66813E-05 6.71957E-08-3.40997E-20-9.60138E-19
 -1      1167 9.10935E-05-2.73071E-05-2.72829E-05 4.36485E-08-3.50793E-19-1.12704E-18
 -1      1168 9.25690E-05-2.77525E-05-2.77344E-05 2.61811E-08-1.57402E-19-5.41406E-19
 -1      1169 9.36260E-05-2.80728E-05-2.80602E-05 1.43974E-08 1.90704E-19-5.79655E-20
 -1      1170 9.43573E-05-2.82954E-05-2.82866E-05 7.00533E-09 3.77691E-20 3.24449E-18
 -1      1171 9.48419E-05-2.84435E-05-2.84364E-05 2.18759E-09 1.70910E-19 5.11485E-18
 -1      1172 9.51348E-05-2.85336E-05-2.85267E-05-2.39410E-09 2.61160E-19 5.00563E-18
 -1      1173 9.52608E-05-2.85693E-05-2.85713E-05-1.19002E-08-2.64160E-19 6.61795E-18
 -1      1174 9.52646E-05-2.85792E-05-2.85917E-05-9.65542E-09 6.77987E-19 5.18041E-18
 -1      1175 1.31061E-04-3.77399E-05-3.86625E-05 1.21737E-05-1.26817E-19 1.28215E-17
 -1      1176 9.65719E-05-2.81947E-05-3.13340E-05 8.01509E-07 8.87532E-20 1.02233E-17
 -1      1177 9.03929E-05-2.69370E-05-2.78777E-05 1.19378E-07 3.17902E-20 7.90945E-18
 -1      1178 8.83618E-05-2.65079E-05-2.66858E-05 8.76739E-09 8.01257E-20 6.30285E-18
 -1      1179 8.79634E-05-2.64196E-05-2.64241E-05-2.43447E-08-6.91523E-22 5.33633E-18
 -1      1180 8.83256E-05-2.65186E-05-2.65050E-05-3.14922E-08 9.11619E-20 3.77263E-18
 -1      1181 8.90362E-05-2.67258E-05-2.67111E-05-3.55990E-08 5.35360E-20 2.82836E-18
 -1      1182 8.98588E-05-2.69670E-05-2.69548E-05-3.38208E-08-1.26858E-20 2.37145E-18
 -1      1183 9.06982E-05-2.72154E-05-2.72042E-05-3.08385E-08-1.59068E-20 2.40118E-18
 -1      1184 9.14930E-05-2.74517E-05-2.74411E-05-2.72844E-08 1.06983E-20 1.76438E-18
 -1      1185 9.22100E-05-2.76655E-05-2.76554E-05-2.35007E-08 9.74964E-20 7.32445E-19
 -1      1186 9.28478E-05-2.78556E-05-2.78468E-05-2.00823E-08 4.18225E-20-3.82634E-19
 -1      1187 9.33848E-05-2.80161E-05-2.80080E-05-1.63083E-08 7.09886E-21-1.96101E-19
 -1      1188 9.38127E-05-2.81441E-05-2.81370E-05-1.31775E-08-4.20780E-20-5.51051E-19
 -1      1189 9.41536E-05-2.82462E-05-2.82399E-05-1.02538E-08-2.83631E-20-8.29960E-19
 -1      1190 9.44170E-05-2.83253E-05-2.83196E-05-7.38868E-09 1.33075E-19-1.61396E-18
 -1      1191 9.46184E-05-2.83863E-05-2.83809E-05-4.40913E-09 2.02551E-19-1.62003E-18
 -1      1192 9.47670E-05-2.84319E-05-2.84267E-05-3.44788E-10-2.88730E-21-7.31223E-19
 -1      1193 9.48823E-05-2.84686E-05-2.84634E-05 4.82372E-09 2.06288E-20-2.72089E-19
 -1      1194 9.50030E-05-2.85086E-05-2.85036E-05 1.25011E-08 1.39493E-19-4.78076E-19
 -1      1195 9.51881E-05-2.85709E-05-2.85668E-05 2.44379E-08-2.45164E-20-1.33689E-19
 -1      1196 9.55428E-05-2.86900E-05-2.86884E-05 4.38349E-08 5.27580E-20-1.00210E-19
 -1      1197 9.62871E-05-2.89314E-05-2.89430E-05 7.60276E-08-7.03046E-20-6.47120E-19
 -1      1198 9.77754E-05-2.94099E-05-2.94534E-05 1.17139E-07-4.19635E-19 1.49449E-18
 -1      1199 1.00606E-04-3.03037E-05-3.04262E-05 1.75844E-07 5.84453E-20 1.46922E-18
 -1      1200 1.05921E-04-3.19535E-05-3.22554E-05 2.35250E-07 1.09095E-19 1.25255E-18
 -1      1201 1.15634E-04-3.49407E-05-3.55576E-05 2.41607E-07 7.18125E-20 2.10181E-18
 -1      1202 1.33354E-04-4.02288E-05-4.13068E-05-1.96056E-08 2.54282E-19 1.48718E-18
 -1      1203 1.62663E-04-4.89134E-05-4.98563E-05-1.12470E-06-4.21505E-19 2.09979E-18
 -1      1204 2.01269E-04-6.04961E-05-5.92396E-05-3.11924E-06 1.38834E-20 4.43337E-18
 -1      1205 2.39361E-04-7.27877E-05-6.62342E-05-2.58069E-06-6.40754E-19 4.56191E-18
 -1      1206 2.43176E-04-7.59603E-05-6.71367E-05 7.92965E-06 1.91482E-19 6.65429E-18
 -1      1207 1.86140E-04-5.35815E-05-6.11625E-05 1.67586E-05-7.09814E-19 8.06121E-18
 -1      1208 1.06640E-04-2.45972E-05-5.51973E-05 1.69916E-05 2.65121E-19 9.82982E-18
 -1      1209 7.26551E-05-1.01143E-05-5.30385E-05-2.31679E-07-2.02229E-19 9.28158E-18
 -1      1210 1.22546E-04-2.84476E-05-5.63812E-05-1.17556E-05 3.94294E-19 7.29126E-18
 -1      1211 2.01240E-04-5.84847E-05-6.20842E-05-9.09259E-06 4.30928E-19 1.22820E-18
 -1      1212 2.45098E-04-7.50984E-05-6.67926E-05-3.50658E-06 3.00379E-19-4.52400E-18
 -1      1213 2.41116E-04-7.43876E-05-6.63858E-05 7.36068E-07-3.20152E-19-5.79720E-18
 -1      1214 2.06411E-04-6.28857E-05-6.00404E-05 1.93417E-06-3.22270E-20-2.06337E-18
 -1      1215 1.66103E-04-4.99067E-05-5.04459E-05 1.60734E-06-1.24312E-19-9.11831E-19
 -1      1216 1.35393E-04-4.03874E-05-4.17259E-05 9.35470E-07 3.00637E-19-4.76160E-18
 -1      1217 1.17209E-04-3.49746E-05-3.59611E-05 5.06173E-07-6.79909E-20-2.70648E-18
 -1      1218 1.06823E-04-3.19440E-05-3.25055E-05 2.54550E-07 2.14753E-19-3.05006E-18
 -1      1219 1.01133E-04-3.02925E-05-3.05796E-05 1.22538E-07 2.45933E-19-1.11554E-18
 -1      1220 9.81086E-05-2.94133E-05-2.95540E-05 5.68267E-08 1.06872E-21-2.43889E-18
 -1      1221 9.65288E-05-2.89492E-05-2.90175E-05 2.74282E-08-2.82597E-19 6.13301E-19
 -1      1222 9.57599E-05-2.87258E-05-2.87554E-05 8.85965E-09-1.13409E-19 2.84610E-18
 -1      1223 9.54178E-05-2.86248E-05-2.86380E-05 2.54143E-09-1.11823E-19 7.89034E-18
 -1      1224 9.52737E-05-2.85822E-05-2.85878E-05 1.18843E-10-1.12319E-20 4.65955E-18
 -1      1225 9.52257E-05-2.85673E-05-2.85697E-05-9.63546E-10-5.50509E-19 1.14839E-18
 -1      1226 9.52291E-05-2.85724E-05-2.85632E-05-3.94203E-09-3.90909E-19 1.62921E-18
 -1      1227 9.52355E-05-2.85790E-05-2.85638E-05-3.90428E-09 1.49595E-18 1.41631E-20
 -1      1228 9.52384E-05-2.85740E-05-2.85736E-05-1.25430E-09-6.49939E-18-9.08413E-19
 -1      1229 9.52248E-05-2.85219E-05-2.85875E-05 4.50776E-09-2.22475E-18 1.21303E-18
 -1      1230 9.52074E-05-2.84631E-05-2.85992E-05 7.61416E-09 1.20165E-18 1.91361E-18
 -1      1231 9.52061E-05-2.84623E-05-2.85948E-05 6.69440E-09 2.75202E-18 3.21338E-19
 -1      1232 9.52343E-05-2.85604E-05-2.85646E-05 2.38306E-09-3.47671E-19 2.82084E-19
 -1      1233 9.52921E-05-2.87580E-05-2.85088E-05-2.94073E-09-5.97985E-18-1.06451E-19
 -1      1234 9.53685E-05-2.90160E-05-2.84376E-05-7.60411E-09 3.42032E-18 5.18275E-19
 -1      1235 9.54432E-05-2.92661E-05-2.83692E-05-9.77114E-09 7.31197E-18-1.84771E-19
 -1      1236 9.54953E-05-2.94391E-05-2.83222E-05-8.78142E-09 3.36747E-18 1.59096E-19
 -1      1237 9.55102E-05-2.94860E-05-2.83098E-05-4.98257E-09 6.72206E-18-2.23478E-19
 -1      1238 9.54835E-05-2.93942E-05-2.83351E-05 5.65294E-10 4.73992E-18 4.73595E-19
 -1      1239 9.54228E-05-2.91888E-05-2.83911E-05 5.78489E-09 2.84342E-18 3.27963E-19
 -1      1240 9.53445E-05-2.89258E-05-2.84619E-05 9.30940E-09 2.11807E-18-2.17583E-19
 -1      1241 9.52712E-05-2.86845E-05-2.85263E-05 1.04231E-08-1.08296E-17-4.75573E-19
 -1      1242 9.52359E-05-2.85566E-05-2.85683E-05-9.97174E-09-1.03666E-17 3.39730E-19
 -1      1243 9.52284E-05-2.85433E-05-2.85910E-05-9.31462E-09-5.54388E-18-2.97783E-20
 -1      1244 4.33843E-05-1.38452E-04 2.61895E-05-1.95740E-05-2.65587E-18-4.89479E-19
 -1      1245 2.79248E-05-1.17799E-04 2.30674E-05-5.02913E-05-3.74346E-18-1.00691E-19
 -1      1246 4.51723E-06-6.62024E-05 1.06312E-05-5.23949E-05 7.30142E-19-2.32934E-19
 -1      1247 6.37028E-06-1.28403E-05-1.10482E-05-1.12928E-05 6.82709E-19 7.72494E-19
 -1      1248 7.74507E-05 2.92525E-06-3.98826E-05 6.19221E-05 3.87941E-18 5.44134E-18
 -1      1249 2.55211E-04-5.06266E-05-7.06471E-05 1.18835E-04 2.77827E-19 1.92446E-18
 -1      1250 4.27883E-04-1.20469E-04-9.42387E-05 8.29703E-05 7.62118E-19-3.37797E-18
 -1      1251 5.10071E-04-1.60031E-04-1.01244E-04-2.26507E-05 4.96150E-19-9.21995E-18
 -1      1252 3.76523E-04-1.00388E-04-8.79528E-05-1.12554E-04 1.46452E-18-6.83725E-18
 -1      1253 1.81565E-04-2.22373E-05-6.14321E-05-1.09161E-04 1.60428E-18-2.78843E-18
 -1      1254 4.72428E-05 4.23092E-06-3.06818E-05-3.93435E-05 2.54279E-18-3.14419E-18
 -1      1255 1.60221E-07-2.57877E-05-3.68070E-06 2.83541E-05 3.30851E-18-2.26666E-18
 -1      1256 9.97447E-06-8.10392E-05 1.48271E-05 5.60369E-05 3.31529E-18-2.49155E-18
 -1      1257 3.43266E-05-1.27537E-04 2.48077E-05 4.37103E-05-2.89262E-18 1.69883E-19
 -1      1258 4.30593E-05-1.34085E-04 2.51461E-05 7.25648E-06-7.65930E-18-8.06269E-20
 -1      1259 2.85200E-05-9.31410E-05 1.61822E-05-1.91206E-05-7.08628E-18-1.17716E-18
 -1      1260 9.81865E-06-2.96444E-05 6.09850E-07-1.08693E-05-6.88468E-18-3.57871E-18
 -1      1261 1.56108E-05 2.36407E-05-1.96592E-05 3.44177E-05-9.15643E-18-6.42898E-18
 -1      1262 7.01511E-05 3.68833E-05-4.28326E-05 9.61832E-05-8.63296E-18-8.38563E-18
 -1      1263 1.71945E-04 9.02958E-08-6.50693E-05 1.33750E-04-4.07169E-18-7.22858E-18
 -1      1264 2.80097E-04-5.94371E-05-8.13521E-05 1.16039E-04-1.09733E-18-3.11708E-18
 -1      1265 3.44934E-04-9.97471E-05-8.98150E-05 4.72269E-05-4.20420E-19 6.95838E-19
 -1      1266 3.50298E-04-1.03464E-04-9.03100E-05-3.93998E-05 1.88730E-20 2.19424E-18
 -1      1267 2.91467E-04-6.66134E-05-8.30698E-05-1.09336E-04 8.76679E-20-7.06425E-19
 -1      1268 1.92924E-04-1.01996E-05-6.87747E-05-1.35478E-04-8.80914E-19 1.77199E-18
 -1      1269 9.61940E-05 3.16463E-05-5.00413E-05-1.13364E-04 3.68459E-19-3.55754E-19
 -1      1270 3.10387E-05 3.65556E-05-2.95195E-05-6.13289E-05-6.60686E-20-3.84553E-19
 -1      1271 7.51234E-06 1.35527E-06-9.26086E-06-8.35035E-06 1.04693E-18 3.97258E-19
 -1      1272 1.69324E-05-5.86248E-05 8.12467E-06 1.94409E-05 6.08508E-18-1.08293E-18
 -1      1273 3.57508E-05-1.13606E-04 2.07371E-05 1.19709E-05 2.79013E-18-1.80122E-18
 -1      1274 1.04453E-04-2.20218E-05-3.78951E-05-1.72716E-05-3.51307E-19 4.77303E-18
 -1      1275 9.03280E-05-6.68321E-06-3.60198E-05-2.04636E-05-8.73609E-19-9.97964E-19
 -1      1276 9.26657E-05-6.74242E-06-3.72250E-05-2.57526E-05-1.14646E-18 3.00008E-19
 -1      1277 8.59097E-05-4.09762E-06-3.51317E-05-1.64237E-05-8.40018E-19-2.78944E-18
 -1      1278 8.71633E-05-4.09047E-06-3.56015E-05-1.88448E-05-9.48677E-19-2.01933E-18
 -1      1279 9.21423E-05-1.04655E-05-3.50959E-05-1.90266E-05-1.50626E-18-9.00290E-19
 -1      1280 8.40972E-05-3.19004E-06-3.46874E-05-1.28071E-05-6.54598E-19-3.63695E-18
 -1      1281 8.47106E-05-3.16055E-06-3.49124E-05-1.46216E-05-7.57618E-19-3.26629E-18
 -1      1282 8.78705E-05-7.39540E-06-3.45751E-05-1.54022E-05-1.31056E-18-2.37352E-18
 -1      1283 8.31830E-05-2.72688E-06-3.44696E-05-9.67803E-06-4.63294E-19-3.99691E-18
 -1      1284 8.34979E-05-2.70857E-06-3.45795E-05-1.12250E-05-5.34504E-19-3.83611E-18
 -1      1285 8.58665E-05-5.98121E-06-3.43057E-05-1.19464E-05-9.86727E-19-3.13879E-18
 -1      1286 8.26874E-05-2.45561E-06-3.43618E-05-6.90769E-06-2.67054E-19-4.10432E-18
 -1      1287 8.28587E-05-2.44732E-06-3.44170E-05-8.27785E-06-3.54834E-19-4.04961E-18
 -1      1288 8.48170E-05-5.21460E-06-3.41720E-05-8.93636E-06-6.90385E-19-3.40711E-18
 -1      1289 8.24088E-05-2.28936E-06-3.43080E-05-4.29000E-06-1.27349E-19-4.08455E-18
 -1      1290 8.25013E-05-2.28548E-06-3.43357E-05-5.59001E-06-1.76838E-19-4.11732E-18
 -1      1291 8.42264E-05-4.75769E-06-3.41074E-05-6.21009E-06-3.83172E-19-3.54369E-18
 -1      1292 8.22746E-05-2.19961E-06-3.42851E-05-1.78792E-06 4.57826E-20-3.97468E-18
 -1      1293 8.23142E-05-2.19805E-06-3.42964E-05-3.03756E-06-1.49984E-20-4.01298E-18
 -1      1294 8.39007E-05-4.49300E-06-3.40776E-05-3.64066E-06-1.30697E-19-3.42036E-18
 -1      1295 8.22483E-05-2.17204E-06-3.42823E-05 6.68936E-07 2.10944E-19-3.88279E-18
 -1      1296 8.22469E-05-2.17208E-06-3.42820E-05-5.65512E-07 1.58186E-19-3.94474E-18
 -1      1297 8.37579E-05-4.37298E-06-3.40662E-05-1.16933E-06 1.80717E-19-3.37296E-18
 -1      1298 8.23230E-05-2.20248E-06-3.42980E-05 3.14472E-06 3.72541E-19-3.80804E-18
 -1      1299 8.22805E-05-2.20410E-06-3.42859E-05 1.89241E-06 3.29610E-19-3.86408E-18
 -1      1300 8.37630E-05-4.37729E-06-3.40666E-05 1.27214E-06 4.45908E-19-3.28291E-18
 -1      1301 8.25185E-05-2.29592E-06-3.43384E-05 5.70660E-06 5.03028E-19-3.63664E-18
 -1      1302 8.24228E-05-2.29927E-06-3.43100E-05 4.40055E-06 4.55932E-19-3.75011E-18
 -1      1303 8.39166E-05-4.50677E-06-3.40787E-05 3.74791E-06 6.65104E-19-3.19046E-18
 -1      1304 8.28811E-05-2.46210E-06-3.44197E-05 8.38656E-06 6.81014E-19-3.32726E-18
 -1      1305 8.27069E-05-2.47081E-06-3.43641E-05 7.00762E-06 6.05897E-19-3.49827E-18
 -1      1306 8.42520E-05-4.78080E-06-3.41086E-05 6.30428E-06 8.91471E-19-3.01901E-18
 -1      1307 8.35430E-05-2.73978E-06-3.45842E-05 1.13851E-05 8.39079E-19-2.79861E-18
 -1      1308 8.32196E-05-2.75686E-06-3.44729E-05 9.82088E-06 7.63230E-19-3.12453E-18
 -1      1309 8.48580E-05-5.25475E-06-3.41728E-05 9.04583E-06 1.20436E-18-2.64168E-18
 -1      1310 8.47724E-05-3.20591E-06-3.49200E-05 1.48332E-05 1.05667E-18-1.88568E-18
 -1      1311 8.41557E-05-3.24062E-06-3.46926E-05 1.29923E-05 9.38618E-19-2.43126E-18
 -1      1312 8.59461E-05-6.06155E-06-3.43066E-05 1.21114E-05 1.43579E-18-2.08209E-18
 -1      1313 8.72596E-05-4.09015E-06-3.56226E-05 1.90843E-05 1.17060E-18-2.55433E-19
 -1      1314 8.59789E-05-4.15531E-06-3.51389E-05 1.66868E-05 1.06673E-18-1.23871E-18
 -1      1315 8.79947E-05-7.52008E-06-3.45766E-05 1.56422E-05 1.72261E-18-1.03920E-18
 -1      1316 9.34783E-05-6.79595E-06-3.71212E-05 2.50885E-05 9.81076E-19 2.75243E-18
 -1      1317 9.01419E-05-6.43892E-06-3.60428E-05 2.11395E-05 9.67312E-19 9.16331E-19
 -1      1318 9.23653E-05-1.06980E-05-3.50813E-05 1.96699E-05 1.73107E-18 7.70429E-19
 -1      1319 1.23637E-04-2.49265E-05-3.90192E-05 2.83632E-05 4.60998E-19 8.48558E-18
 -1      1320 1.00094E-04-1.44270E-05-3.73588E-05 2.40450E-05 4.79527E-19 4.52729E-18
 -1      1321 1.01698E-04-1.93490E-05-3.54075E-05 2.13931E-05 1.58602E-18 3.54272E-18
 -1      1322 1.02619E-04-2.78097E-05-3.47627E-05 7.32520E-06 8.71888E-19 8.14507E-18
 -1      1323 1.05164E-04-3.02356E-05-3.35300E-05-7.95570E-06-9.61171E-19 5.09384E-18
 -1      1324 9.82802E-05-2.78491E-05-3.07677E-05-4.98514E-06-8.83402E-19 3.94760E-18
 -1      1325 9.55242E-05-2.78556E-05-2.92610E-05-2.48641E-06-6.93905E-19 3.55906E-18
 -1      1326 9.32952E-05-2.75656E-05-2.82227E-05-2.03975E-06-6.07323E-19 2.59129E-18
 -1      1327 9.95039E-05-2.80579E-05-3.09884E-05-7.88055E-06-1.47971E-18 1.77821E-18
 -1      1328 9.16081E-05-2.72083E-05-2.75892E-05-8.34464E-07-5.14407E-19 2.27108E-18
 -1      1329 9.08951E-05-2.71141E-05-2.72880E-05-7.24098E-07-5.15327E-19 1.47376E-18
 -1      1330 9.47417E-05-2.77769E-05-2.88237E-05-3.11371E-06-1.10032E-18 1.22706E-18
 -1      1331 9.01482E-05-2.69323E-05-2.70458E-05-1.69426E-07-2.75974E-19 1.16245E-18
 -1      1332 9.00800E-05-2.69604E-05-2.70121E-05-1.11286E-07-2.75332E-19 7.15465E-19
 -1      1333 9.25480E-05-2.75079E-05-2.79045E-05-1.04500E-06-7.86411E-19 6.21696E-19
 -1      1334 8.98241E-05-2.68939E-05-2.69390E-05 1.59370E-07-1.98939E-19 6.39973E-19
 -1      1335 9.00435E-05-2.69855E-05-2.70021E-05 1.88178E-07-1.87702E-19 4.16714E-19
 -1      1336 9.15961E-05-2.73663E-05-2.75395E-05-6.07400E-08-4.82058E-19 1.31806E-19
 -1      1337 9.00513E-05-2.69898E-05-2.70099E-05 3.19874E-07-3.27403E-19 2.26945E-19
 -1      1338 9.03992E-05-2.71111E-05-2.71106E-05 3.31771E-07-2.02133E-19-8.76481E-20
 -1      1339 9.13503E-05-2.73564E-05-2.74338E-05 4.27753E-07-5.73885E-19 2.39088E-20
 -1      1340 9.05457E-05-2.71542E-05-2.71592E-05 3.86994E-07-2.42326E-19-3.43002E-19
 -1      1341 9.09398E-05-2.72844E-05-2.72731E-05 3.88854E-07-3.70312E-19-7.67617E-19
 -1      1342 9.14914E-05-2.74324E-05-2.74586E-05 6.57502E-07-5.30623E-19-3.75289E-19
 -1      1343 9.11528E-05-2.73461E-05-2.73411E-05 4.00021E-07-3.49440E-19-9.74134E-19
 -1      1344 9.15472E-05-2.74730E-05-2.74553E-05 3.95986E-07-3.10212E-19-1.55305E-18
 -1      1345 9.18332E-05-2.75541E-05-2.75502E-05 7.41441E-07-7.07524E-19-9.79642E-19
 -1      1346 9.17837E-05-2.75412E-05-2.75299E-05 3.81832E-07-3.29981E-19-1.60805E-18
 -1      1347 9.21530E-05-2.76580E-05-2.76373E-05 3.74557E-07-3.34493E-19-2.00153E-18
 -1      1348 9.22646E-05-2.76941E-05-2.76731E-05 7.40970E-07-5.03917E-19-1.11769E-18
 -1      1349 9.23874E-05-2.77254E-05-2.77109E-05 3.46606E-07-2.83821E-19-2.06238E-18
 -1      1350 9.27182E-05-2.78288E-05-2.78075E-05 3.37816E-07-2.65446E-19-2.35250E-18
 -1      1351 9.27188E-05-2.78357E-05-2.78058E-05 6.92618E-07-4.55758E-19-1.15930E-18
 -1      1352 9.29357E-05-2.78913E-05-2.78756E-05 3.03305E-07-1.54819E-20-2.57642E-18
 -1      1353 9.32225E-05-2.79802E-05-2.79596E-05 2.94091E-07-2.63546E-20-2.55857E-18
 -1      1354 9.31560E-05-2.79689E-05-2.79354E-05 6.19128E-07-2.18552E-19-1.27504E-18
 -1      1355 9.34152E-05-2.80354E-05-2.80198E-05 2.57467E-07-2.34338E-19-2.44225E-18
 -1      1356 9.36568E-05-2.81098E-05-2.80907E-05 2.48473E-07-3.67546E-19-2.79791E-18
 -1      1357 9.35537E-05-2.80883E-05-2.80543E-05 5.34710E-07-1.88694E-19-1.91158E-18
 -1      1358 9.38211E-05-2.81568E-05-2.81421E-05 2.12242E-07-4.63105E-20-2.73171E-18
 -1      1359 9.40191E-05-2.82175E-05-2.82003E-05 2.03778E-07 6.31222E-21-2.81751E-18
 -1      1360 9.39003E-05-2.81912E-05-2.81586E-05 4.47857E-07-1.56839E-19-2.00159E-18
 -1      1361 9.41536E-05-2.82560E-05-2.82423E-05 1.69001E-07-9.22023E-20-2.69759E-18
 -1      1362 9.43104E-05-2.83041E-05-2.82884E-05 1.61117E-07 3.06235E-20-2.77446E-18
 -1      1363 9.41907E-05-2.82769E-05-2.82464E-05 3.62962E-07-1.58363E-19-1.54987E-18
 -1      1364 9.44149E-05-2.83340E-05-2.83210E-05 1.27697E-07 8.90886E-20-2.65632E-18
 -1      1365 9.45327E-05-2.83702E-05-2.83556E-05 1.20217E-07-1.52053E-19-2.61816E-18
 -1      1366 9.44232E-05-2.83454E-05-2.83167E-05 2.81268E-07 2.24433E-19-1.62079E-18
 -1      1367 9.46067E-05-2.83916E-05-2.83787E-05 8.70258E-08-2.00817E-19-2.82448E-18
 -1      1368 9.46861E-05-2.84163E-05-2.84019E-05 7.95557E-08 8.38141E-22-3.09942E-18
 -1      1369 9.45970E-05-2.83971E-05-2.83690E-05 2.01373E-07-2.36373E-19-1.88134E-18
 -1      1370 9.47278E-05-2.84287E-05-2.84148E-05 4.44363E-08 2.90525E-19-2.93631E-18
 -1      1371 9.47669E-05-2.84416E-05-2.84261E-05 3.63461E-08 2.25441E-19-2.43986E-18
 -1      1372 9.47100E-05-2.84317E-05-2.84025E-05 1.19396E-07 2.48603E-19-1.72354E-18
 -1      1373 9.47726E-05-2.84440E-05-2.84275E-05-3.96174E-09-2.97438E-19-2.68814E-18
 -1      1374 9.47655E-05-2.84435E-05-2.84250E-05-1.35749E-08-3.34674E-19-2.87464E-18
 -1      1375 9.47569E-05-2.84484E-05-2.84150E-05 2.88959E-08-3.61594E-20-2.06517E-18
 -1      1376 9.47279E-05-2.84340E-05-2.84127E-05-6.35451E-08-3.28431E-19-3.66437E-18
 -1      1377 9.46635E-05-2.84169E-05-2.83930E-05-7.58952E-08-3.78960E-19-4.03876E-18
 -1      1378 9.47270E-05-2.84446E-05-2.84031E-05-7.93494E-08-8.32096E-19-2.47088E-18
 -1      1379 9.45713E-05-2.83925E-05-2.83634E-05-1.41250E-07-2.41241E-19-4.38982E-18
 -1      1380 9.44316E-05-2.83533E-05-2.83212E-05-1.57875E-07-4.70882E-19-4.62877E-18
 -1      1381 9.46025E-05-2.84158E-05-2.83611E-05-2.17524E-07-5.88238E-19-2.90479E-18
 -1      1382 9.42682E-05-2.83093E-05-2.82689E-05-2.45375E-07-3.48020E-20-4.32860E-18
 -1      1383 9.40270E-05-2.82402E-05-2.81965E-05-2.68072E-07 5.37043E-19-3.93371E-18
 -1      1384 9.43566E-05-2.83545E-05-2.82804E-05-4.00586E-07-4.61203E-20-2.81728E-18
 -1      1385 9.37703E-05-2.81703E-05-2.81147E-05-3.84819E-07 3.65879E-19-4.19358E-18
 -1      1386 9.33930E-05-2.80602E-05-2.80019E-05-4.15428E-07-1.50113E-19-4.07301E-18
 -1      1387 9.39517E-05-2.82496E-05-2.81497E-05-6.45208E-07 3.90369E-19-2.96438E-18
 -1      1388 9.30156E-05-2.79563E-05-2.78821E-05-5.67352E-07-1.90226E-19-3.82825E-18
 -1      1389 9.24605E-05-2.77920E-05-2.77170E-05-6.07297E-07-2.15087E-19-4.14018E-18
 -1      1390 9.33394E-05-2.80862E-05-2.79548E-05-9.67189E-07-1.16563E-19-3.07743E-18
 -1      1391 9.19322E-05-2.76446E-05-2.75502E-05-7.96573E-07 4.47156E-19-3.69064E-18
 -1      1392 9.11548E-05-2.74110E-05-2.73201E-05-8.46085E-07 4.27570E-19-3.15217E-18
 -1      1393 9.24630E-05-2.78451E-05-2.76797E-05-1.37659E-06 2.88557E-19-1.90982E-18
 -1      1394 9.04473E-05-2.72106E-05-2.70982E-05-1.06747E-06 2.97676E-19-2.80957E-18
 -1      1395 8.94094E-05-2.68940E-05-2.67927E-05-1.12451E-06 4.20853E-19-2.18505E-18
 -1      1396 9.12638E-05-2.75044E-05-2.73091E-05-1.87026E-06 7.11031E-19-1.34573E-18
 -1      1397 8.85038E-05-2.66329E-05-2.65111E-05-1.36117E-06 1.73552E-19-2.49760E-18
 -1      1398 8.71873E-05-2.62252E-05-2.61258E-05-1.42032E-06 3.09329E-19-2.61793E-18
 -1      1399 8.96932E-05-2.70430E-05-2.68323E-05-2.42235E-06 9.97199E-20-1.37976E-18
 -1      1400 8.60855E-05-2.59016E-05-2.57868E-05-1.64069E-06 5.88804E-20-2.63668E-18
 -1      1401 8.45094E-05-2.54063E-05-2.53283E-05-1.69238E-06-4.48297E-19-2.67897E-18
 -1      1402 8.77314E-05-2.64462E-05-2.62479E-05-2.97529E-06 5.68538E-20-2.21861E-18
 -1      1403 8.32463E-05-2.50277E-05-2.49440E-05-1.85057E-06-8.48232E-21-3.12556E-18
 -1      1404 8.14841E-05-2.44660E-05-2.44346E-05-1.88166E-06 1.83850E-19-2.80813E-18
 -1      1405 8.54106E-05-2.57153E-05-2.55707E-05-3.43602E-06-1.40745E-20-2.25815E-18
 -1      1406 8.01369E-05-2.40541E-05-2.40296E-05-1.92395E-06-2.09273E-20-2.50656E-18
 -1      1407 7.83251E-05-2.34691E-05-2.35088E-05-1.92020E-06 1.70976E-19-2.03756E-18
 -1      1408 8.28380E-05-2.48780E-05-2.48355E-05-3.68383E-06 6.22986E-20-2.10905E-18
 -1      1409 7.70149E-05-2.30609E-05-2.31196E-05-1.79910E-06-1.04259E-19-1.86783E-18
 -1      1410 7.53453E-05-2.25159E-05-2.26422E-05-1.74969E-06-4.16356E-19-2.30801E-18
 -1      1411 8.02082E-05-2.39961E-05-2.40989E-05-3.59486E-06 1.31504E-19-2.38085E-18
 -1      1412 7.42242E-05-2.21611E-05-2.23125E-05-1.44260E-06-6.13371E-19-2.25965E-18
 -1      1413 7.29145E-05-2.17298E-05-2.19396E-05-1.34553E-06-7.71048E-19-2.80798E-18
 -1      1414 7.77935E-05-2.31656E-05-2.34346E-05-3.08201E-06-8.31594E-19-2.26721E-18
 -1      1415 7.21376E-05-2.14812E-05-2.17129E-05-8.70739E-07-9.17866E-19-3.42571E-18
 -1      1416 7.13835E-05-2.12314E-05-2.14988E-05-7.36197E-07-6.72266E-19-4.33497E-18
 -1      1417 7.59029E-05-2.25028E-05-2.29220E-05-2.13807E-06-1.57086E-18-1.80202E-18
 -1      1418 7.10709E-05-2.11307E-05-2.14080E-05-1.56623E-07-2.24834E-19-4.56927E-18
 -1      1419 7.09946E-05-2.11054E-05-2.13863E-05-5.98547E-09 1.06779E-19-4.98319E-18
 -1      1420 7.48156E-05-2.21169E-05-2.26300E-05-8.60933E-07-8.57608E-19-2.17902E-18
 -1      1421 7.11975E-05-2.11708E-05-2.14453E-05 5.84659E-07 6.08901E-19-4.25476E-18
 -1      1422 7.18119E-05-2.13743E-05-2.16197E-05 7.24867E-07 9.16119E-19-3.60860E-18
 -1      1423 7.47061E-05-2.20777E-05-2.26007E-05 5.58122E-07 8.44273E-19-2.13487E-18
 -1      1424 7.24972E-05-2.15940E-05-2.18194E-05 1.22954E-06 1.55675E-20-3.53507E-18
 -1      1425 7.37021E-05-2.19913E-05-2.21623E-05 1.33618E-06-2.92925E-19-4.15437E-18
 -1      1426 7.55928E-05-2.23928E-05-2.28387E-05 1.88540E-06 6.01910E-19-2.27593E-18
 -1      1427 7.47625E-05-2.23277E-05-2.24735E-05 1.68356E-06 2.70723E-19-4.32245E-18
 -1      1428 7.63743E-05-2.28549E-05-2.29340E-05 1.74374E-06 3.84788E-19-3.97727E-18
 -1      1429 7.73326E-05-2.30044E-05-2.33094E-05 2.91505E-06-1.36419E-20-2.83881E-18
 -1      1430 7.76594E-05-2.32566E-05-2.33149E-05 1.90565E-06 1.26514E-19-4.31472E-18
 -1      1431 7.94611E-05-2.38397E-05-2.38322E-05 1.91893E-06 2.22045E-19-4.40638E-18
 -1      1432 7.96639E-05-2.38096E-05-2.39487E-05 3.52656E-06-1.96563E-19-3.07717E-18
 -1      1433 8.08157E-05-2.42556E-05-2.42384E-05 1.91020E-06 2.76843E-19-3.93738E-18
 -1      1434 8.26072E-05-2.48281E-05-2.47557E-05 1.88591E-06 5.59835E-19-3.34214E-18
 -1      1435 8.22782E-05-2.46910E-05-2.46782E-05 3.70556E-06 2.82581E-19-3.37112E-18
 -1      1436 8.39022E-05-2.52178E-05-2.51487E-05 1.75031E-06 3.66532E-19-3.01558E-18
 -1      1437 8.55341E-05-2.57321E-05-2.56228E-05 1.70239E-06-4.55992E-19-3.13635E-18
 -1      1438 8.48917E-05-2.55470E-05-2.54221E-05 3.52525E-06 5.69394E-19-3.08522E-18
 -1      1439 8.66828E-05-2.60710E-05-2.59755E-05 1.49379E-06 5.71615E-20-2.43496E-18
 -1      1440 8.80691E-05-2.65015E-05-2.63808E-05 1.43596E-06 5.03207E-20-2.16822E-18
 -1      1441 8.72918E-05-2.63079E-05-2.61196E-05 3.10543E-06 1.46016E-19-2.51058E-18
 -1      1442 8.90286E-05-2.67791E-05-2.66785E-05 1.20289E-06-6.22470E-20-1.74622E-18
 -1      1443 9.01404E-05-2.71192E-05-2.70054E-05 1.14563E-06-1.43316E-19-1.84319E-18
 -1      1444 8.93539E-05-2.69394E-05-2.67314E-05 2.57044E-06 2.48990E-19-2.28157E-18
 -1      1445 9.09034E-05-2.73361E-05-2.72443E-05 9.23034E-07-2.14925E-19-1.34046E-18
 -1      1446 9.17532E-05-2.75923E-05-2.74955E-05 8.72653E-07-3.56151E-20-1.57290E-18
 -1      1447 9.10323E-05-2.74359E-05-2.72391E-05 2.02078E-06-1.44790E-20-1.63674E-18
 -1      1448 9.23354E-05-2.77554E-05-2.76790E-05 6.80264E-07-1.51959E-19 2.92888E-19
 -1      1449 9.29591E-05-2.79408E-05-2.78643E-05 6.39393E-07 3.39287E-19 1.24031E-19
 -1      1450 9.23387E-05-2.78098E-05-2.76413E-05 1.52167E-06 5.32238E-19-1.82827E-19
 -1      1451 9.33882E-05-2.80596E-05-2.80002E-05 4.84179E-07 9.03112E-19 4.87826E-19
 -1      1452 9.38300E-05-2.81894E-05-2.81319E-05 4.52823E-07 1.60809E-18 1.83248E-18
 -1      1453 9.33184E-05-2.80819E-05-2.79474E-05 1.10454E-06 1.24382E-18 1.38858E-18
 -1      1454 9.41362E-05-2.82737E-05-2.82290E-05 3.32899E-07 1.52057E-18 2.22266E-18
 -1      1455 9.44377E-05-2.83616E-05-2.83189E-05 3.09480E-07 1.02137E-18 3.82660E-18
 -1      1456 9.40297E-05-2.82750E-05-2.81721E-05 7.74992E-07 2.39847E-18 2.12989E-18
 -1      1457 9.46486E-05-2.84199E-05-2.83854E-05 2.17709E-07 1.05494E-19 3.24650E-18
 -1      1458 9.48427E-05-2.84764E-05-2.84431E-05 1.99760E-07-1.64638E-19 3.12116E-18
 -1      1459 9.45301E-05-2.84094E-05-2.83310E-05 5.22000E-07 7.76288E-19 1.87959E-18
 -1      1460 9.49805E-05-2.85152E-05-2.84858E-05 1.26835E-07 4.80781E-19 2.81670E-18
 -1      1461 9.50886E-05-2.85462E-05-2.85181E-05 1.11195E-07 7.67046E-19 3.85266E-18
 -1      1462 9.48685E-05-2.85012E-05-2.84381E-05 3.25760E-07 1.06695E-19 2.37751E-18
 -1      1463 9.51728E-05-2.85736E-05-2.85431E-05 5.00120E-08 7.07417E-19 5.17174E-18
 -1      1464 9.52078E-05-2.85777E-05-2.85572E-05 3.33651E-08 2.10399E-19 4.87405E-18
 -1      1465 9.50831E-05-2.85611E-05-2.85058E-05 1.66570E-07 1.22620E-18 2.61272E-18
 -1      1466 9.52447E-05-2.85708E-05-2.85790E-05-1.15582E-08-3.67124E-18 3.04543E-18
 -1      1467 9.52114E-05-2.85821E-05-2.85552E-05 2.93804E-08-3.33241E-18 1.65675E-18
 -1      1468 9.65963E-05-2.83678E-05-2.97775E-05 2.99203E-06 7.88694E-19 6.46064E-18
 -1      1469 1.02554E-04-2.94039E-05-3.21610E-05 4.46169E-06 6.93826E-19 7.67624E-18
 -1      1470 1.02344E-04-2.67219E-05-3.27111E-05 1.27806E-05 1.33344E-18 5.02185E-18
 -1      1471 9.20536E-05-2.74354E-05-2.77676E-05 1.14916E-06 4.70514E-19 5.07002E-18
 -1      1472 9.39997E-05-2.75919E-05-2.86811E-05 1.47207E-06 4.75384E-19 5.88697E-18
 -1      1473 9.65080E-05-2.80354E-05-2.95390E-05 4.86497E-06 1.10159E-18 3.88093E-18
 -1      1474 9.02307E-05-2.70156E-05-2.70717E-05 3.28981E-07 4.43594E-19 3.94458E-18
 -1      1475 9.08422E-05-2.70318E-05-2.73425E-05 4.90172E-07 3.42049E-19 4.59330E-18
 -1      1476 9.30657E-05-2.75827E-05-2.81054E-05 1.84630E-06 7.74625E-19 3.00039E-18
 -1      1477 8.97194E-05-2.68982E-05-2.68996E-05-6.04041E-08 3.80460E-19 3.19179E-18
 -1      1478 8.97532E-05-2.68333E-05-2.69259E-05 3.07147E-08 3.30828E-19 3.64535E-18
 -1      1479 9.15206E-05-2.73173E-05-2.75248E-05 5.11768E-07 7.08411E-19 2.18033E-18
 -1      1480 8.98764E-05-2.69597E-05-2.69482E-05-2.55230E-07 3.84151E-19 2.10335E-18
 -1      1481 8.96287E-05-2.68446E-05-2.68775E-05-2.00289E-07 3.97325E-19 2.84058E-18
 -1      1482 9.09928E-05-2.72355E-05-2.73300E-05-1.46073E-07 7.67931E-19 1.75097E-18
 -1      1483 9.03485E-05-2.71063E-05-2.70924E-05-3.32768E-07 1.78441E-19 1.72163E-18
 -1      1484 8.99927E-05-2.69762E-05-2.69883E-05-3.05881E-07 1.75352E-19 1.86194E-18
 -1      1485 9.10304E-05-2.72886E-05-2.73242E-05-4.70100E-07 5.52548E-19 1.24022E-18
 -1      1486 9.09560E-05-2.72924E-05-2.72757E-05-3.55526E-07 1.56167E-19 1.24964E-18
 -1      1487 9.05623E-05-2.71605E-05-2.71603E-05-3.42120E-07 2.08767E-19 1.55180E-18
 -1      1488 9.13518E-05-2.74040E-05-2.74111E-05-6.04458E-07 3.64556E-19 6.27848E-19
 -1      1489 9.15991E-05-2.74875E-05-2.74693E-05-3.45343E-07 1.72808E-19 1.12972E-18
 -1      1490 9.12096E-05-2.73625E-05-2.73550E-05-3.40544E-07 6.18183E-20 1.17321E-18
 -1      1491 9.18042E-05-2.75510E-05-2.75406E-05-6.39693E-07 1.85260E-19 2.49390E-19
 -1      1492 9.22200E-05-2.76747E-05-2.76563E-05-3.16782E-07 2.36012E-19 6.85084E-19
 -1      1493 9.18584E-05-2.75619E-05-2.75499E-05-3.17340E-07 2.18809E-19 1.00282E-18
 -1      1494 9.23001E-05-2.77058E-05-2.76856E-05-6.17662E-07 3.09507E-19 1.65346E-19
 -1      1495 9.27874E-05-2.78451E-05-2.78274E-05-2.79323E-07 4.17061E-19-1.28388E-19
 -1      1496 9.24651E-05-2.77465E-05-2.77324E-05-2.82741E-07 3.59394E-19 4.02906E-19
 -1      1497 9.27879E-05-2.78549E-05-2.78299E-05-5.63938E-07 6.74604E-19-2.09447E-19
 -1      1498 9.33065E-05-2.80004E-05-2.79843E-05-2.36059E-07-4.17453E-20-6.18845E-19
 -1      1499 9.30183E-05-2.79137E-05-2.78989E-05-2.41832E-07 1.25413E-19-4.13580E-19
 -1      1500 9.32481E-05-2.79933E-05-2.79672E-05-4.92596E-07 3.73439E-19-4.10260E-19
 -1      1501 9.37230E-05-2.81245E-05-2.81103E-05-1.94945E-07-1.31646E-19-4.09861E-19
 -1      1502 9.34946E-05-2.80570E-05-2.80426E-05-2.01292E-07-1.01726E-19-4.97418E-19
 -1      1503 9.36534E-05-2.81144E-05-2.80884E-05-4.15874E-07-1.49499E-19-6.42635E-19
 -1      1504 9.40655E-05-2.82265E-05-2.82140E-05-1.56609E-07-2.03791E-19-5.08436E-19
 -1      1505 9.38806E-05-2.81725E-05-2.81591E-05-1.63134E-07-1.03272E-19-4.16273E-19
 -1      1506 9.39886E-05-2.82134E-05-2.81893E-05-3.41982E-07-1.24489E-19-3.78895E-19
 -1      1507 9.43388E-05-2.83075E-05-2.82969E-05-1.22101E-07 2.70145E-19-6.98808E-19
 -1      1508 9.41934E-05-2.82658E-05-2.82536E-05-1.28420E-07 1.64246E-19-6.31281E-19
 -1      1509 9.42650E-05-2.82944E-05-2.82728E-05-2.73195E-07 1.77891E-19-4.89880E-19
 -1      1510 9.45512E-05-2.83701E-05-2.83614E-05-9.25355E-08 2.19243E-19-1.01082E-18
 -1      1511 9.44400E-05-2.83388E-05-2.83283E-05-9.82992E-08 1.38858E-19-6.92833E-19
 -1      1512 9.44869E-05-2.83589E-05-2.83401E-05-2.12206E-07 2.99064E-19-6.00793E-19
 -1      1513 9.47205E-05-2.84195E-05-2.84131E-05-6.84489E-08-2.71911E-19-1.03659E-18
 -1      1514 9.46343E-05-2.83956E-05-2.83872E-05-7.35627E-08 8.68803E-20-9.32328E-19
 -1      1515 9.46657E-05-2.84100E-05-2.83949E-05-1.60783E-07-2.66946E-20-2.53163E-19
 -1      1516 9.48477E-05-2.84556E-05-2.84523E-05-5.50893E-08-7.66715E-21-4.04899E-19
 -1      1517 9.47845E-05-2.84385E-05-2.84331E-05-5.80984E-08-2.91838E-19-8.86741E-19
 -1      1518 9.48082E-05-2.84492E-05-2.84392E-05-1.24513E-07-4.69047E-19-6.24194E-19
 -1      1519 9.49674E-05-2.84883E-05-2.84898E-05-5.65350E-08-2.54560E-20-4.42599E-19
 -1      1520 9.49089E-05-2.84721E-05-2.84717E-05-5.63120E-08 2.58033E-20-6.30939E-19
 -1      1521 9.49301E-05-2.84807E-05-2.84784E-05-1.12074E-07 8.40177E-20-4.21939E-19
 -1      1522 9.51214E-05-2.85288E-05-2.85388E-05-8.31651E-08 1.50035E-19-9.21913E-19
 -1      1523 9.50440E-05-2.85059E-05-2.85143E-05-7.68295E-08 3.02637E-19-7.09076E-19
 -1      1524 9.50639E-05-2.85124E-05-2.85233E-05-1.36739E-07 3.25415E-19-1.25349E-18
 -1      1525 9.53819E-05-2.85967E-05-2.86220E-05-1.54134E-07-6.31503E-20-7.23459E-19
 -1      1526 9.52442E-05-2.85536E-05-2.85785E-05-1.36155E-07-1.99698E-20-1.04122E-18
 -1      1527 9.52565E-05-2.85552E-05-2.85896E-05-2.25181E-07 1.22114E-19-1.58067E-18
 -1      1528 9.58742E-05-2.87262E-05-2.87793E-05-3.04001E-07-6.91308E-20-7.94092E-19
 -1      1529 9.56034E-05-2.86383E-05-2.86940E-05-2.64034E-07-4.14236E-20-8.93691E-19
 -1      1530 9.55866E-05-2.86277E-05-2.87043E-05-4.25196E-07-1.00180E-19-1.51722E-18
 -1      1531 9.68867E-05-2.89932E-05-2.91045E-05-6.13986E-07-2.45972E-19-1.31682E-19
 -1      1532 9.63082E-05-2.88066E-05-2.89216E-05-5.24560E-07-1.81126E-19-5.14991E-19
 -1      1533 9.62079E-05-2.87621E-05-2.89211E-05-8.35322E-07-1.65353E-19-2.53058E-19
 -1      1534 9.87371E-05-2.94843E-05-2.97001E-05-1.16953E-06-1.47936E-19 6.25739E-19
 -1      1535 9.76555E-05-2.91297E-05-2.93588E-05-1.00684E-06-3.96947E-19 1.97033E-19
 -1      1536 9.73456E-05-2.90111E-05-2.93197E-05-1.61607E-06-7.07603E-19-3.86247E-19
 -1      1537 1.02135E-04-3.03880E-05-3.08029E-05-2.17021E-06 1.17599E-19 4.59701E-19
 -1      1538 1.00096E-04-2.97188E-05-3.01565E-05-1.86208E-06 1.93296E-20 5.39434E-19
 -1      1539 9.93300E-05-2.94395E-05-3.00201E-05-2.99728E-06-1.09042E-19-9.33867E-19
 -1      1540 1.08212E-04-3.20135E-05-3.27845E-05-3.92242E-06-4.93331E-20 7.85702E-19
 -1      1541 1.04474E-04-3.07787E-05-3.15981E-05-3.35457E-06 8.44386E-20 4.79024E-19
 -1      1542 1.02746E-04-3.01716E-05-3.12356E-05-5.41437E-06 1.78009E-20-4.36454E-19
 -1      1543 1.18721E-04-3.48851E-05-3.61767E-05-6.86887E-06 7.27919E-20 9.84888E-19
 -1      1544 1.12084E-04-3.26435E-05-3.41045E-05-5.84592E-06-2.64115E-19 9.82876E-19
 -1      1545 1.08419E-04-3.14029E-05-3.32537E-05-9.48164E-06-2.10673E-19-4.56974E-19
 -1      1546 1.36898E-04-4.00765E-05-4.17728E-05-1.15575E-05-1.78261E-19 1.18055E-18
 -1      1547 1.25129E-04-3.60363E-05-3.82947E-05-9.78234E-06 2.51383E-19 1.61264E-18
 -1      1548 1.17677E-04-3.34934E-05-3.64514E-05-1.59961E-05 7.94623E-20 8.37689E-19
 -1      1549 1.62509E-04-4.81248E-05-4.88014E-05-1.66768E-05-6.64630E-19 2.87271E-18
 -1      1550 1.45736E-04-4.21160E-05-4.43995E-05-1.46293E-05-7.71994E-19 1.79740E-18
 -1      1551 1.31509E-04-3.73418E-05-4.06933E-05-2.46863E-05-7.87795E-19 2.47439E-18
 -1      1552 1.90073E-04-5.83014E-05-5.48866E-05-1.84045E-05-2.84232E-19 2.23680E-18
 -1      1553 1.72311E-04-5.15960E-05-5.10850E-05-1.72449E-05 4.75397E-20 2.60801E-18
 -1      1554 1.48920E-04-4.40781E-05-4.46945E-05-3.10801E-05 5.01338E-20 2.56985E-18
 -1      1555 2.16772E-04-7.11690E-05-5.90557E-05-5.52416E-06-5.87417E-19 4.05919E-18
 -1      1556 2.01844E-04-6.50670E-05-5.66540E-05-1.12996E-05-1.25530E-18 2.46688E-18
 -1      1557 1.69971E-04-5.68117E-05-4.74948E-05-2.57742E-05-1.21973E-18 2.01144E-18
 -1      1558 2.09893E-04-6.80518E-05-5.82086E-05 2.83939E-06-6.70003E-19 4.02934E-18
 -1      1559 1.85185E-04-5.49706E-05-5.98588E-05 3.03645E-05-6.84614E-19 5.98429E-18
 -1      1560 2.15030E-04-7.06775E-05-6.22572E-05 2.43921E-05-1.68041E-18 4.31817E-18
 -1      1561 1.56414E-04-3.45619E-05-6.32866E-05-7.95735E-06 1.99053E-19 5.96481E-18
 -1      1562 1.49945E-04-3.21528E-05-6.24519E-05 1.42313E-06 5.60736E-19 6.57922E-18
 -1      1563 1.89592E-04-5.56625E-05-6.23535E-05-2.86040E-05 1.82705E-18 2.90193E-18
 -1      1564 1.54163E-04-3.63877E-05-6.11512E-05-2.75274E-05 7.85200E-19 4.80225E-18
 -1      1565 2.19174E-04-5.28241E-05-7.17028E-05-2.43313E-05 1.64324E-18 1.77411E-18
 -1      1566 2.18174E-04-7.08115E-05-6.19126E-05-2.25574E-05 1.48443E-18-9.64347E-19
 -1      1567 1.89220E-04-5.70025E-05-5.99826E-05-2.65962E-05 2.11377E-18 1.69745E-18
 -1      1568 2.12315E-04-6.58965E-05-6.37898E-05-4.66565E-05 3.18315E-18-5.12455E-20
 -1      1569 2.24655E-04-7.27019E-05-6.15932E-05-2.00360E-06 9.12572E-19-4.26079E-18
 -1      1570 2.16035E-04-7.00570E-05-6.05221E-05-6.81957E-06 1.01866E-18-2.27132E-18
 -1      1571 2.09128E-04-7.39106E-05-5.74079E-05-2.49552E-05 2.46042E-18-1.71503E-18
 -1      1572 2.05268E-04-6.32384E-05-5.85549E-05 1.16620E-05-6.58356E-19-2.07692E-18
 -1      1573 2.16852E-04-6.90906E-05-6.03412E-05 9.16011E-06-2.86932E-20-3.38739E-18
 -1      1574 1.95359E-04-6.55883E-05-5.38953E-05 8.19318E-06 5.12455E-20-1.23275E-18
 -1      1575 1.74302E-04-5.15763E-05-5.22220E-05 1.41395E-05-2.44581E-19-1.22439E-18
 -1      1576 1.93548E-04-5.94891E-05-5.61794E-05 1.38658E-05-4.93661E-19-2.32511E-18
 -1      1577 1.74983E-04-5.43894E-05-5.05806E-05 2.48762E-05-7.42424E-19 1.39231E-20
 -1      1578 1.43273E-04-4.17611E-05-4.39799E-05 1.05776E-05 5.77756E-19-1.55452E-18
 -1      1579 1.61656E-04-4.82680E-05-4.87265E-05 1.12461E-05 8.57091E-20-1.44038E-18
 -1      1580 1.50665E-04-4.44120E-05-4.53983E-05 2.43768E-05-1.55960E-19-1.33916E-18
 -1      1581 1.23299E-04-3.61742E-05-3.78089E-05 6.61350E-06 3.46079E-19-3.36484E-18
 -1      1582 1.34776E-04-3.98219E-05-4.11432E-05 7.27597E-06 8.90893E-19-2.13029E-18
 -1      1583 1.29811E-04-3.76302E-05-3.97562E-05 1.72356E-05 1.61996E-18-1.28897E-18
 -1      1584 1.10910E-04-3.28082E-05-3.37593E-05 3.84229E-06 1.90225E-19-2.23617E-18
 -1      1585 1.17695E-04-3.47883E-05-3.58508E-05 4.33250E-06-1.88068E-19-2.94418E-18
 -1      1586 1.15828E-04-3.37920E-05-3.53992E-05 1.06562E-05 3.20284E-20-1.74425E-18
 -1      1587 1.03686E-04-3.08628E-05-3.13562E-05 2.14069E-06-4.13412E-19-2.16921E-18
 -1      1588 1.07493E-04-3.19156E-05-3.25561E-05 2.45144E-06-4.42707E-21-2.05432E-18
 -1      1589 1.06978E-04-3.15200E-05-3.24881E-05 6.16997E-06-6.04437E-20-2.10026E-18
 -1      1590 9.96304E-05-2.97668E-05-3.00108E-05 1.15700E-06 4.58324E-20-1.04434E-18
 -1      1591 1.01693E-04-3.03151E-05-3.06638E-05 1.34274E-06-3.63364E-19-1.26999E-18
 -1      1592 1.01689E-04-3.01906E-05-3.07209E-05 3.43370E-06-8.22628E-19-1.46149E-18
 -1      1593 9.74212E-05-2.91662E-05-2.92849E-05 6.06047E-07-7.01118E-19-4.41818E-19
 -1      1594 9.85090E-05-2.94444E-05-2.96281E-05 7.14022E-07 3.84659E-19-1.68510E-19
 -1      1595 9.86528E-05-2.94284E-05-2.97075E-05 1.85282E-06 8.01240E-20 6.57789E-19
 -1      1596 9.62243E-05-2.88413E-05-2.88922E-05 2.94120E-07 6.23860E-19 7.14601E-19
 -1      1597 9.67881E-05-2.89781E-05-2.90715E-05 3.57493E-07-1.07379E-18-6.44729E-20
 -1      1598 9.69422E-05-2.89933E-05-2.91388E-05 9.56948E-07-1.34857E-18 3.48313E-19
 -1      1599 9.56636E-05-2.86867E-05-2.87099E-05 1.40702E-07-1.04539E-18 3.16246E-18
 -1      1600 9.59184E-05-2.87444E-05-2.87909E-05 1.72524E-07-7.24805E-19 6.89391E-19
 -1      1601 9.60386E-05-2.87696E-05-2.88390E-05 4.67585E-07-3.46733E-19-5.74307E-19
 -1      1602 9.53969E-05-2.86140E-05-2.86233E-05 6.19595E-08-1.17761E-19 5.17036E-18
 -1      1603 9.55109E-05-2.86375E-05-2.86599E-05 7.86033E-08-4.15949E-19 5.03815E-18
 -1      1604 9.55935E-05-2.86573E-05-2.86913E-05 2.20590E-07-1.54002E-18 1.87558E-18
 -1      1605 9.52808E-05-2.85822E-05-2.85859E-05 2.37246E-08 3.99669E-20 2.97787E-18
 -1      1606 9.53258E-05-2.85898E-05-2.86005E-05 3.21780E-08 5.99259E-19 4.29193E-18
 -1      1607 9.53783E-05-2.86036E-05-2.86197E-05 9.56530E-08 7.36545E-19 1.90184E-18
 -1      1608 9.52417E-05-2.85716E-05-2.85719E-05 4.73196E-09 1.37853E-19 3.61212E-19
 -1      1609 9.52510E-05-2.85716E-05-2.85765E-05 8.51854E-09-1.49551E-19 1.10327E-18
 -1      1610 9.52814E-05-2.85788E-05-2.85874E-05 3.35247E-08 7.71386E-19 1.74649E-18
 -1      1611 9.52378E-05-2.85722E-05-2.85669E-05-1.02084E-09-5.15026E-19 5.81783E-19
 -1      1612 9.52346E-05-2.85677E-05-2.85706E-05-1.04122E-09-9.51117E-19-6.57741E-20
 -1      1613 9.52511E-05-2.85720E-05-2.85765E-05 7.35265E-09-1.89644E-19-1.19575E-18
 -1      1614 9.52416E-05-2.85751E-05-2.85714E-05-3.94468E-10-3.44176E-19-1.22589E-18
 -1      1615 9.52322E-05-2.85443E-05-2.85825E-05 2.04117E-08-4.58732E-18-1.85364E-18
 -1      1616 9.52386E-05-2.85606E-05-2.85766E-05 1.47031E-08-1.04165E-18-2.21298E-18
 -1      1617 9.52405E-05-2.85546E-05-2.85798E-05 1.89141E-08-1.45360E-19-3.30453E-18
 -1      1618 9.52111E-05-2.84913E-05-2.85946E-05 2.62126E-08 1.12894E-18 5.88366E-18
 -1      1619 9.52234E-05-2.85209E-05-2.85877E-05 2.49792E-08-2.99668E-18 2.90254E-18
 -1      1620 9.52242E-05-2.85146E-05-2.85900E-05 4.53093E-08 2.66796E-19 3.03627E-18
 -1      1621 9.51980E-05-2.84641E-05-2.85983E-05 4.99177E-09 1.56115E-18 1.34941E-18
 -1      1622 9.52042E-05-2.84789E-05-2.85963E-05 1.09324E-08 4.84696E-19 1.76898E-18
 -1      1623 9.52040E-05-2.84783E-05-2.85952E-05 3.26815E-08-2.25738E-19 3.35499E-18
 -1      1624 9.52097E-05-2.85098E-05-2.85825E-05-3.59332E-08 9.21796E-20-1.61003E-18
 -1      1625 9.52007E-05-2.84835E-05-2.85916E-05-2.49518E-08 1.28017E-19 7.16396E-19
 -1      1626 9.51995E-05-2.84858E-05-2.85882E-05-2.56960E-08-1.15507E-19-5.52184E-19
 -1      1627 9.52520E-05-2.86446E-05-2.85432E-05-7.89254E-08-3.41050E-18-9.26982E-19
 -1      1628 9.52257E-05-2.85696E-05-2.85653E-05-6.76222E-08-8.18837E-19-1.33341E-18
 -1      1629 9.52222E-05-2.85665E-05-2.85628E-05-1.07242E-07-1.56645E-18-1.96261E-18
 -1      1630 9.53202E-05-2.88554E-05-2.84835E-05-1.07579E-07-8.12700E-19 2.66750E-18
 -1      1631 9.52807E-05-2.87401E-05-2.85163E-05-1.00101E-07-2.78932E-18 5.10034E-19
 -1      1632 9.52733E-05-2.87230E-05-2.85188E-05-1.79019E-07-1.92923E-18-2.70037E-20
 -1      1633 9.53974E-05-2.90929E-05-2.84169E-05-1.09103E-07 4.30785E-18 1.09631E-18
 -1      1634 9.53552E-05-2.89660E-05-2.84525E-05-1.08778E-07 1.09645E-18 1.65011E-18
 -1      1635 9.53438E-05-2.89303E-05-2.84623E-05-2.12310E-07 8.17494E-19 3.47010E-18
 -1      1636 9.54633E-05-2.92960E-05-2.83600E-05-8.11480E-08 2.70647E-18-2.74315E-18
 -1      1637 9.54303E-05-2.91916E-05-2.83891E-05-8.85579E-08 5.29177E-18-1.38076E-18
 -1      1638 9.54161E-05-2.91400E-05-2.84060E-05-1.90991E-07 2.30140E-18-1.14627E-21
 -1      1639 9.55002E-05-2.94105E-05-2.83278E-05-3.08415E-08 2.25986E-18 8.72107E-19
 -1      1640 9.54858E-05-2.93578E-05-2.83424E-05-4.41438E-08 2.33025E-18-3.67437E-19
 -1      1641 9.54713E-05-2.93002E-05-2.83631E-05-1.18237E-07 1.19107E-18-1.88292E-18
 -1      1642 9.54981E-05-2.94060E-05-2.83287E-05 2.80383E-08 3.72452E-18 3.63861E-19
 -1      1643 9.55067E-05-2.94201E-05-2.83248E-05 1.24570E-08 4.33160E-18 3.38328E-19
 -1      1644 9.54954E-05-2.93707E-05-2.83441E-05-1.32636E-08 1.44767E-18 1.51231E-18
 -1      1645 9.54590E-05-2.92877E-05-2.83615E-05 7.85916E-08 2.95113E-18-1.05024E-18
 -1      1646 9.54877E-05-2.93628E-05-2.83406E-05 6.51027E-08 4.36962E-18-6.70700E-19
 -1      1647 9.54823E-05-2.93357E-05-2.83533E-05 9.46118E-08 2.83747E-18-2.98481E-19
 -1      1648 9.53923E-05-2.90850E-05-2.84175E-05 1.08157E-07 1.51088E-18-1.65071E-18
 -1      1649 9.54340E-05-2.92028E-05-2.83851E-05 1.00042E-07 2.32152E-18-2.65272E-20
 -1      1650 9.54367E-05-2.92069E-05-2.83873E-05 1.76174E-07 1.36336E-18-1.39117E-18
 -1      1651 9.53172E-05-2.88569E-05-2.84804E-05 1.05786E-07-3.97014E-18-2.71557E-18
 -1      1652 9.53592E-05-2.89816E-05-2.84461E-05 1.06342E-07-5.32483E-19-2.23099E-18
 -1      1653 9.53690E-05-2.90176E-05-2.84369E-05 2.08523E-07-1.53511E-18-2.38420E-18
 -1      1654 9.52566E-05-2.86753E-05-2.85324E-05 7.13395E-08-7.47032E-18-1.40282E-19
 -1      1655 9.52864E-05-2.87647E-05-2.85063E-05 7.99005E-08-5.71894E-18-3.69997E-19
 -1      1656 9.52987E-05-2.88201E-05-2.84887E-05 1.78231E-07-3.73747E-18-2.91650E-18
 -1      1657 2.39128E-05-9.19208E-05 2.19257E-05-2.21144E-05-1.72361E-18-1.14752E-18
 -1      1658 2.55411E-05-9.06274E-05 2.13121E-05-8.64785E-06-2.79521E-19-9.63500E-20
 -1      1659 1.70967E-05-7.14062E-05 1.59603E-05-2.60346E-05-3.93870E-20 1.09606E-18
 -1      1660 2.42458E-05-8.78817E-05 1.97932E-05-1.94189E-05-1.38426E-18 1.29681E-18
 -1      1661 2.21420E-05-4.23102E-05 1.52786E-06-1.04393E-05 1.08251E-18-6.31463E-19
 -1      1662 2.42596E-05-6.61870E-05 9.70007E-06-1.93508E-05 4.26905E-19 4.33204E-19
 -1      1663 6.20144E-05-2.49242E-05-2.13823E-05 2.38259E-05 1.38575E-18 4.59346E-18
 -1      1664 4.19213E-05-4.12365E-05-8.72177E-06-1.57030E-06 9.57147E-19 1.65171E-18
 -1      1665 1.54026E-04-3.91810E-05-4.89347E-05 5.64510E-05 3.08998E-18 3.88788E-18
 -1      1666 9.83028E-05-3.13988E-05-3.43796E-05 2.86392E-05 3.25769E-18 4.24872E-18
 -1      1667 2.77863E-04-8.08683E-05-7.54305E-05 4.75470E-05 1.81604E-18-4.47233E-19
 -1      1668 1.90228E-04-4.41310E-05-6.15806E-05 4.77358E-05 2.49366E-18 2.43268E-18
 -1      1669 3.19240E-04-9.44030E-05-8.48002E-05-3.29315E-06 2.03119E-18-3.23905E-18
 -1      1670 2.67181E-04-7.30610E-05-7.73418E-05 1.61942E-05 1.72350E-18-1.07404E-18
 -1      1671 3.58333E-04-9.90411E-05-9.22984E-05-3.01226E-05 3.57448E-19-4.69680E-18
 -1      1672 3.68853E-04-9.99721E-05-9.39069E-05 1.83193E-05 8.25010E-19-3.30385E-18
 -1      1673 2.69819E-04-6.78604E-05-7.74630E-05-4.90701E-05 2.21287E-19-3.30343E-18
 -1      1674 3.47170E-04-1.01496E-04-8.75448E-05-3.03085E-05-3.73542E-19-4.90940E-18
 -1      1675 1.62210E-04-3.91244E-05-5.37827E-05-4.86808E-05 7.86047E-19-2.00916E-18
 -1      1676 2.37761E-04-6.28369E-05-6.76277E-05-6.45801E-05 6.16640E-19-2.74947E-18
 -1      1677 7.88492E-05-3.40467E-05-2.60569E-05-1.85390E-05 1.13333E-18-1.22650E-18
 -1      1678 1.24684E-04-3.31142E-05-4.08945E-05-4.84840E-05 9.58841E-19-6.89485E-19
 -1      1679 3.18247E-05-4.65224E-05-2.48779E-06 9.47927E-06 2.17095E-18-7.03461E-19
 -1      1680 4.22850E-05-2.65453E-05-1.32661E-05-1.11863E-05 1.28749E-18-1.13502E-19
 -1      1681 2.26142E-05-7.40980E-05 1.36015E-05 2.32575E-05 6.11981E-19-1.78062E-18
 -1      1682 1.75562E-05-5.06291E-05 6.51836E-06 1.89314E-05 2.41913E-18-1.73557E-18
 -1      1683 2.54941E-05-9.28330E-05 2.13707E-05 1.75101E-05-3.23810E-18-1.01517E-18
 -1      1684 1.89003E-05-8.03215E-05 1.87461E-05 2.78904E-05-4.13776E-19-1.73091E-18
 -1      1685 2.39842E-05-8.34608E-05 1.94503E-05 5.06757E-06-4.54391E-18-4.20552E-19
 -1      1686 2.51740E-05-9.19045E-05 2.16191E-05 1.84427E-05-4.16063E-18-3.83282E-19
 -1      1687 2.06694E-05-5.30936E-05 9.39937E-06 5.02022E-06-4.74931E-18-1.25070E-18
 -1      1688 2.66839E-05-7.74393E-05 1.55696E-05 7.71554E-06-5.19824E-18-7.46236E-19
 -1      1689 2.55265E-05-1.78666E-05-5.94795E-06 2.24781E-05-5.74288E-18-4.02468E-18
 -1      1690 2.65810E-05-4.42749E-05 2.57329E-06 1.02841E-05-4.82809E-18-2.72152E-18
 -1      1691 5.38485E-05 6.15601E-06-2.59601E-05 5.70609E-05-6.94313E-18-6.01055E-18
 -1      1692 3.80471E-05-1.03198E-05-1.51445E-05 3.20816E-05-5.89704E-18-4.84164E-18
 -1      1693 1.17653E-04-1.02786E-06-4.76223E-05 8.71300E-05-6.03426E-18-5.05001E-18
 -1      1694 8.00844E-05 3.32354E-06-3.65111E-05 6.50902E-05-6.71358E-18-5.91398E-18
 -1      1695 1.96396E-04-2.77949E-05-6.74527E-05 9.15594E-05-3.39194E-18-3.77861E-18
 -1      1696 1.45356E-04-6.21273E-06-5.77035E-05 8.81650E-05-4.76033E-18-5.16182E-18
 -1      1697 2.61413E-04-5.77917E-05-8.09729E-05 6.55831E-05-1.40012E-18-1.03677E-18
 -1      1698 2.21692E-04-3.56099E-05-7.51952E-05 8.66752E-05-2.87578E-18-3.11962E-18
 -1      1699 2.87940E-04-7.10278E-05-8.64936E-05 1.09847E-05-8.74138E-19 4.55068E-19
 -1      1700 2.71933E-04-6.16139E-05-8.42941E-05 4.67117E-05-7.81388E-19-5.76406E-19
 -1      1701 2.81149E-04-6.66015E-05-8.55661E-05-4.34215E-05 2.69780E-19 4.25211E-19
 -1      1702 2.93396E-04-7.41444E-05-8.72294E-05-7.52186E-06 1.90371E-19 8.41951E-19
 -1      1703 2.31835E-04-4.05902E-05-7.70207E-05-8.31009E-05-1.81265E-19-1.43149E-19
 -1      1704 2.68613E-04-6.12894E-05-8.22865E-05-6.00294E-05 4.17534E-19 2.02441E-19
 -1      1705 1.62074E-04-1.10780E-05-6.20139E-05-9.20814E-05 4.27752E-19 2.91379E-19
 -1      1706 2.08292E-04-3.23705E-05-7.02880E-05-9.05854E-05-3.13190E-19 4.65868E-20
 -1      1707 9.75228E-05 6.36474E-06-4.41356E-05-7.81370E-05 1.20279E-18-1.94818E-19
 -1      1708 1.35646E-04-3.34405E-06-5.35841E-05-9.41424E-05 2.67662E-19 1.25700E-18
 -1      1709 5.21986E-05 7.19550E-07-2.46889E-05-4.78065E-05 9.96111E-19-2.82062E-19
 -1      1710 7.50215E-05 8.07162E-06-3.47623E-05-7.14097E-05 7.24213E-19-1.66865E-18
 -1      1711 3.04843E-05-2.53101E-05-6.29397E-06-1.99841E-05 3.32799E-18-9.19031E-20
 -1      1712 3.61813E-05-3.64822E-06-1.54589E-05-3.83825E-05 1.63477E-18 1.61106E-18
 -1      1713 2.59212E-05-5.98294E-05 8.95833E-06-6.46118E-06 3.28056E-18-1.12195E-18
 -1      1714 2.13639E-05-3.35401E-05 1.60053E-06-1.17038E-05 3.29411E-18 4.08905E-19
 -1      1715 2.61886E-05-8.40620E-05 1.85139E-05-1.15577E-05 4.97208E-19-1.25933E-18
 -1      1716 2.15873E-05-6.59725E-05 1.40406E-05-4.34709E-06 2.65460E-18-2.23320E-18
 -1      1717 6.22094E-05-5.38848E-05-8.83968E-06 1.83942E-05 1.39930E-18 2.10191E-18
 -1      1718 2.04659E-04-5.67397E-05-6.56880E-05 3.08561E-05-7.53859E-19 4.73153E-18
 -1      1719 2.34095E-04-7.26668E-05-6.80060E-05 3.45207E-05-6.85673E-19 9.72394E-19
 -1      1720 1.81318E-04-4.22058E-05-6.54306E-05 2.41492E-05-1.08420E-19 5.13217E-18
 -1      1721 2.53016E-05-5.47072E-05 7.10520E-06 4.85756E-06 5.61159E-19 6.64497E-19
 -1      1722 1.06483E-05-5.58122E-05 1.47604E-05-1.86979E-05 1.07700E-18-2.44284E-18
 -1      1723 1.10996E-05-5.93635E-05 1.53083E-05-7.56445E-06 8.31575E-19 1.01813E-18
 -1      1724 9.52286E-05-2.85962E-05-2.85570E-05 3.55451E-08-5.98568E-18 1.35114E-19
 -1      1725 9.52354E-05-2.86315E-05-2.85417E-05 5.69000E-08-6.37274E-18-3.56653E-19
 -1      1726 9.52497E-05-2.86919E-05-2.85218E-05 1.24035E-07-3.78834E-18-1.96988E-19
 -1      1727 1.28963E-04-6.31563E-05-3.10631E-05 2.37676E-05 1.07573E-18 5.07796E-18
 -1      1728 2.07394E-04-7.53686E-05-5.53146E-05 6.60524E-06 3.33646E-18 1.86347E-18
 -1      1729 2.77184E-04-6.36970E-05-8.11901E-05 2.04472E-05-8.65668E-19 4.13352E-19
 -1      1730 2.52360E-04-7.60853E-05-6.89993E-05 5.10890E-06-4.89585E-19-1.44334E-18
 -1      1731 1.83452E-04-7.19360E-05-4.79452E-05-1.48363E-05 1.80418E-19-9.41054E-19
 -1      1732 1.06449E-04-5.93869E-05-2.40641E-05-2.34672E-05 1.70254E-19 4.70950E-19
 -1      1733 4.69446E-05-5.33112E-05-2.96855E-06-1.26836E-05 9.32583E-19-1.80524E-19
 -1      1734 1.91209E-05-5.78770E-05 1.07817E-05 1.02363E-06-4.36222E-19-2.89008E-18
 -1      1735 9.96022E-06-5.98189E-05 1.61296E-05 1.16333E-05-2.15220E-18-1.87957E-18
 -1      1736 1.39912E-05-5.39102E-05 1.27867E-05 2.19741E-05-3.05186E-18-7.26754E-19
 -1      1737 3.03281E-05-4.45402E-05 2.71920E-06 3.28653E-05-3.72271E-18-2.13124E-18
 -1      1738 5.74608E-05-3.25036E-05-1.25379E-05 4.57387E-05-3.72525E-18-3.91245E-18
 -1      1739 1.01432E-04-2.71461E-05-3.14444E-05 5.74913E-05-4.82470E-18-4.13649E-18
 -1      1740 1.52746E-04-2.88708E-05-5.08808E-05 5.72306E-05-5.01020E-18-3.32715E-18
 -1      1741 1.98857E-04-3.13003E-05-6.76975E-05 4.90322E-05-3.35381E-18-1.14688E-18
 -1      1742 2.29749E-04-3.46705E-05-7.82973E-05 2.91803E-05-1.86855E-18-6.42051E-19
 -1      1743 2.42252E-04-3.76789E-05-8.21102E-05 5.36544E-07-5.08220E-20-1.19945E-18
 -1      1744 2.37052E-04-3.80892E-05-7.97106E-05-2.78423E-05 2.11758E-19-4.21399E-19
 -1      1745 2.05845E-04-3.20849E-05-7.01429E-05-4.82455E-05 2.58822E-19-1.40438E-18
 -1      1746 1.63267E-04-2.64222E-05-5.58113E-05-6.00556E-05 7.05790E-19-2.71051E-20
 -1      1747 1.16663E-04-2.37235E-05-3.88373E-05-6.11424E-05 1.66442E-18-1.44843E-19
 -1      1748 7.51915E-05-2.80454E-05-2.11352E-05-5.21037E-05 2.60378E-18-1.32984E-19
 -1      1749 4.32229E-05-3.81472E-05-4.84797E-06-3.93190E-05 3.20433E-18 6.17064E-19
 -1      1750 2.18340E-05-4.82168E-05 7.48793E-06-2.84755E-05 9.08019E-19-1.25191E-18
 -1      1751 1.06065E-04-2.31747E-05-3.56076E-05-1.68476E-05-1.16270E-18 3.78518E-18
 -1      1752 8.91552E-05-1.05871E-05-3.37976E-05-1.33157E-05-1.37831E-18-2.12859E-18
 -1      1753 9.04894E-05-1.16331E-05-3.39379E-05-1.51246E-05-1.61433E-18-1.63959E-18
 -1      1754 9.24997E-05-1.38783E-05-3.38569E-05-1.59914E-05-1.57040E-18-1.03754E-18
 -1      1755 9.42194E-05-1.58259E-05-3.41013E-05-1.76531E-05-1.70235E-18-2.22240E-19
 -1      1756 9.34265E-05-1.63510E-05-3.30474E-05-1.37578E-05-1.68472E-18-1.27240E-18
 -1      1757 8.62054E-05-7.66991E-06-3.37291E-05-7.85517E-06-7.03866E-19-2.88575E-18
 -1      1758 8.66131E-05-7.96973E-06-3.37639E-05-9.24321E-06-8.87022E-19-2.82528E-18
 -1      1759 8.55843E-05-7.03069E-06-3.37251E-05-5.31452E-06-4.00523E-19-2.96775E-18
 -1      1760 8.58207E-05-7.21004E-06-3.37407E-05-6.61795E-06-5.43840E-19-2.95284E-18
 -1      1761 8.75855E-05-9.86130E-06-3.33423E-05-6.92121E-06-7.01042E-19-2.85537E-18
 -1      1762 8.52472E-05-6.67120E-06-3.37277E-05-2.88574E-06-7.13179E-20-2.79625E-18
 -1      1763 8.53690E-05-6.76615E-06-3.37340E-05-4.12424E-06-2.13852E-19-2.87883E-18
 -1      1764 8.69464E-05-9.14804E-06-3.33746E-05-4.53251E-06-3.11712E-19-2.83466E-18
 -1      1765 8.51155E-05-6.52276E-06-3.37309E-05-5.17061E-07 2.89839E-19-2.72670E-18
 -1      1766 8.51514E-05-6.55131E-06-3.37324E-05-1.72543E-06 1.27096E-19-2.77407E-18
 -1      1767 8.66125E-05-8.76834E-06-3.33941E-05-2.21495E-06 2.42198E-20-2.70375E-18
 -1      1768 8.51614E-05-6.56047E-06-3.37327E-05 1.84293E-06 6.18358E-19-2.64667E-18
 -1      1769 8.51192E-05-6.52736E-06-3.37309E-05 6.33530E-07 4.64218E-19-2.69060E-18
 -1      1770 8.65137E-05-8.65458E-06-3.34005E-05 6.50727E-08 3.94563E-19-2.63193E-18
 -1      1771 8.53946E-05-6.79151E-06-3.37342E-05 4.24637E-06 8.34873E-19-2.59434E-18
 -1      1772 8.52654E-05-6.69042E-06-3.37278E-05 3.00465E-06 7.34123E-19-2.63380E-18
 -1      1773 8.66304E-05-8.78810E-06-3.33935E-05 2.34632E-06 7.22946E-19-2.58471E-18
 -1      1774 8.58549E-05-7.24603E-06-3.37404E-05 6.70563E-06 1.15542E-18-2.37791E-18
 -1      1775 8.56151E-05-7.06331E-06-3.37251E-05 5.41923E-06 9.99490E-19-2.51646E-18
 -1      1776 8.69813E-05-9.18625E-06-3.33732E-05 4.64713E-06 9.65158E-19-2.49535E-18
 -1      1777 8.66718E-05-8.03720E-06-3.37622E-05 9.36657E-06 1.47314E-18-1.99774E-18
 -1      1778 8.62496E-05-7.72054E-06-3.37279E-05 7.94621E-06 1.30966E-18-2.21492E-18
 -1      1779 8.76378E-05-9.92117E-06-3.33399E-05 7.02063E-06 1.33100E-18-2.14841E-18
 -1      1780 8.80860E-05-9.38491E-06-3.38185E-05 1.22442E-05 1.76602E-18-1.41505E-18
 -1      1781 8.73457E-05-8.82690E-06-3.37461E-05 1.06517E-05 1.57560E-18-1.76478E-18
 -1      1782 8.87622E-05-1.11581E-05-3.32903E-05 9.49465E-06 1.62293E-18-1.73452E-18
 -1      1783 9.06509E-05-1.18480E-05-3.39295E-05 1.53178E-05 2.00313E-18-3.79762E-19
 -1      1784 8.92779E-05-1.07486E-05-3.37894E-05 1.34929E-05 1.84622E-18-9.99314E-19
 -1      1785 9.06594E-05-1.32256E-05-3.32090E-05 1.19488E-05 1.88970E-18-1.08326E-18
 -1      1786 9.59022E-05-1.70885E-05-3.39973E-05 1.76666E-05 1.87933E-18 1.43254E-18
 -1      1787 9.28552E-05-1.43298E-05-3.38296E-05 1.61665E-05 1.92222E-18 3.29840E-19
 -1      1788 9.38931E-05-1.68620E-05-3.30163E-05 1.38480E-05 2.06344E-18 3.26108E-20
 -1      1789 1.01933E-04-2.51012E-05-3.33642E-05 1.44098E-05 1.55309E-18 3.74759E-18
 -1      1790 9.80818E-05-1.95829E-05-3.36305E-05 1.69649E-05 1.71977E-18 2.25454E-18
 -1      1791 9.74278E-05-2.18844E-05-3.24236E-05 1.32746E-05 1.94103E-18 1.44149E-18
 -1      1792 9.87948E-05-2.61503E-05-3.13474E-05 9.42407E-06 1.50224E-18 3.29112E-18
 -1      1793 1.00169E-04-1.95679E-05-3.42219E-05-1.88616E-05-1.50855E-18 1.28103E-18
 -1      1794 9.53412E-05-2.72967E-05-2.91898E-05 4.06219E-06 1.19777E-18 2.48706E-18
 -1      1795 9.77392E-05-2.73922E-05-3.01986E-05 6.39730E-06 1.27907E-18 2.88528E-18
 -1      1796 9.75987E-05-2.56206E-05-3.08286E-05 8.71613E-06 1.52887E-18 1.88295E-18
 -1      1797 9.98292E-05-2.25467E-05-3.28402E-05-1.44590E-05-1.57890E-18 6.13781E-19
 -1      1798 9.69769E-05-2.69831E-05-2.98827E-05-5.69629E-06-1.20337E-18 4.77569E-19
 -1      1799 9.51715E-05-2.70391E-05-2.91728E-05-3.88843E-06-1.06517E-18 9.26641E-20
 -1      1800 9.43547E-05-2.72415E-05-2.86659E-05-2.41171E-06-1.00033E-18 8.18181E-20
 -1      1801 9.35857E-05-2.73230E-05-2.83615E-05-1.55808E-06-8.47569E-19-1.47662E-19
 -1      1802 9.55239E-05-2.65491E-05-2.95813E-05-4.46059E-06-1.23354E-18-5.15018E-19
 -1      1803 9.30621E-05-2.73738E-05-2.80933E-05-7.30907E-07-6.92119E-19-2.21962E-19
 -1      1804 9.27637E-05-2.74380E-05-2.79720E-05-2.92120E-07-5.61133E-19-3.53171E-19
 -1      1805 9.43172E-05-2.72266E-05-2.87736E-05-1.81655E-06-9.23246E-19-7.06002E-19
 -1      1806 9.24895E-05-2.74658E-05-2.78366E-05 1.63803E-07-5.46589E-19-4.35109E-19
 -1      1807 9.24613E-05-2.75428E-05-2.78076E-05 3.88359E-07-6.03273E-19-5.27695E-19
 -1      1808 9.36188E-05-2.75332E-05-2.83388E-05-3.48964E-07-6.87437E-19-9.13558E-19
 -1      1809 9.23595E-05-2.75746E-05-2.77500E-05 6.28667E-07-7.25316E-19-5.34518E-19
 -1      1810 9.24777E-05-2.76607E-05-2.77701E-05 7.33050E-07-6.23426E-19-8.20971E-19
 -1      1811 9.33010E-05-2.77187E-05-2.81189E-05 4.54781E-07-7.67391E-19-1.03684E-18
 -1      1812 9.24846E-05-2.76992E-05-2.77586E-05 8.44429E-07-7.16455E-19-8.24455E-19
 -1      1813 9.26756E-05-2.77871E-05-2.78042E-05 8.78362E-07-6.37484E-19-8.77779E-19
 -1      1814 9.32407E-05-2.78627E-05-2.80274E-05 8.67015E-07-7.54406E-19-9.46857E-19
 -1      1815 9.27455E-05-2.78291E-05-2.78194E-05 9.11743E-07-5.49605E-19-8.52279E-19
 -1      1816 9.29650E-05-2.79130E-05-2.78765E-05 9.04217E-07-4.30641E-19-8.75519E-19
 -1      1817 9.33383E-05-2.79874E-05-2.80126E-05 1.04272E-06-5.50724E-19-6.25590E-19
 -1      1818 9.30670E-05-2.79549E-05-2.79059E-05 8.91081E-07-4.13268E-19-7.93502E-19
 -1      1819 9.32883E-05-2.80314E-05-2.79658E-05 8.60046E-07-2.64195E-19-7.21840E-19
 -1      1820 9.35228E-05-2.80979E-05-2.80420E-05 1.07521E-06-3.74320E-19-7.22836E-19
 -1      1821 9.34020E-05-2.80708E-05-2.80012E-05 8.20437E-07-3.40232E-19-8.80125E-19
 -1      1822 9.36094E-05-2.81380E-05-2.80587E-05 7.77259E-07-1.77131E-19-1.02943E-18
 -1      1823 9.37460E-05-2.81946E-05-2.80946E-05 1.02310E-06-4.11732E-19-9.30204E-19
 -1      1824 9.37221E-05-2.81733E-05-2.80951E-05 7.23969E-07-2.55233E-19-9.90737E-19
 -1      1825 9.39070E-05-2.82306E-05-2.81472E-05 6.75729E-07-2.11712E-19-1.19719E-18
 -1      1826 9.39765E-05-2.82776E-05-2.81568E-05 9.23875E-07-3.34688E-19-1.03440E-18
 -1      1827 9.40106E-05-2.82611E-05-2.81814E-05 6.16645E-07-5.62510E-20-1.18510E-18
 -1      1828 9.41689E-05-2.83087E-05-2.82264E-05 5.67442E-07-2.41754E-20-1.15581E-18
 -1      1829 9.41947E-05-2.83474E-05-2.82197E-05 8.01252E-07-2.09913E-19-6.87810E-19
 -1      1830 9.42588E-05-2.83343E-05-2.82564E-05 5.06938E-07-1.48672E-19-1.24231E-18
 -1      1831 9.43888E-05-2.83728E-05-2.82936E-05 4.58667E-07 4.46715E-20-8.88759E-19
 -1      1832 9.43890E-05-2.84048E-05-2.82780E-05 6.69372E-07-1.03636E-19-7.52317E-19
 -1      1833 9.44623E-05-2.83935E-05-2.83181E-05 3.98447E-07 2.62806E-20-1.00898E-18
 -1      1834 9.45633E-05-2.84236E-05-2.83470E-05 3.51248E-07 1.53761E-19-1.11147E-18
 -1      1835 9.45527E-05-2.84515E-05-2.83279E-05 5.35355E-07 5.82532E-20-6.63489E-19
 -1      1836 9.46187E-05-2.84399E-05-2.83651E-05 2.90819E-07-1.10242E-19-1.41181E-18
 -1      1837 9.46900E-05-2.84623E-05-2.83853E-05 2.43293E-07-5.25973E-20-1.35150E-18
 -1      1838 9.46820E-05-2.84890E-05-2.83670E-05 4.00799E-07-8.49810E-20-1.17454E-18
 -1      1839 9.47257E-05-2.84744E-05-2.83961E-05 1.80174E-07-2.01596E-20-1.29439E-18
 -1      1840 9.47655E-05-2.84893E-05-2.84068E-05 1.29430E-07 1.26699E-19-1.44741E-18
 -1      1841 9.47739E-05-2.85193E-05-2.83932E-05 2.62576E-07 4.84550E-20-1.10795E-18
 -1      1842 9.47794E-05-2.84977E-05-2.84090E-05 5.91643E-08-2.58439E-19-1.92780E-18
 -1      1843 9.47837E-05-2.85050E-05-2.84089E-05 7.40460E-10-6.63450E-19-2.14187E-18
 -1      1844 9.48252E-05-2.85440E-05-2.84044E-05 1.13108E-07-5.58606E-19-1.49566E-18
 -1      1845 9.47725E-05-2.85095E-05-2.84011E-05-8.32058E-08-6.08245E-19-2.12315E-18
 -1      1846 9.47344E-05-2.85080E-05-2.83879E-05-1.55458E-07-7.65963E-19-2.16208E-18
 -1      1847 9.48309E-05-2.85646E-05-2.83977E-05-5.97116E-08-6.81763E-19-1.95584E-18
 -1      1848 9.46930E-05-2.85083E-05-2.83677E-05-2.61774E-07-9.18788E-19-1.81576E-18
 -1      1849 9.46014E-05-2.84957E-05-2.83381E-05-3.55701E-07-5.28032E-19-1.90210E-18
 -1      1850 9.47831E-05-2.85818E-05-2.83693E-05-2.72699E-07-8.23209E-19-1.55310E-18
 -1      1851 9.45221E-05-2.84904E-05-2.83024E-05-4.95067E-07-6.95543E-20-1.98080E-18
 -1      1852 9.43610E-05-2.84623E-05-2.82518E-05-6.19894E-07 1.69138E-19-2.04173E-18
 -1      1853 9.46693E-05-2.85948E-05-2.83143E-05-5.47278E-07-5.00106E-19-1.52125E-18
 -1      1854 9.42330E-05-2.84486E-05-2.81969E-05-8.04231E-07 3.04268E-19-2.17248E-18
 -1      1855 9.39811E-05-2.83985E-05-2.81192E-05-9.69567E-07 2.05073E-19-2.47640E-18
 -1      1856 9.44712E-05-2.85998E-05-2.82264E-05-9.08486E-07 1.75477E-19-1.72617E-18
 -1      1857 9.37898E-05-2.83712E-05-2.80406E-05-1.21022E-06 2.76698E-19-2.03887E-18
 -1      1858 9.34208E-05-2.82894E-05-2.79288E-05-1.42398E-06 4.79868E-19-1.32547E-18
 -1      1859 9.41632E-05-2.85882E-05-2.80982E-05-1.38217E-06 4.94455E-19-1.30637E-18
 -1      1860 9.31478E-05-2.82402E-05-2.78222E-05-1.72831E-06 6.20931E-19-1.38801E-18
 -1      1861 9.26326E-05-2.81133E-05-2.76691E-05-1.99320E-06 8.94096E-19-7.75186E-19
 -1      1862 9.37114E-05-2.85439E-05-2.79222E-05-1.98928E-06 7.35495E-19-6.63470E-19
 -1      1863 9.22562E-05-2.80299E-05-2.75307E-05-2.35927E-06 5.33525E-19-7.34047E-19
 -1      1864 9.15675E-05-2.78423E-05-2.73302E-05-2.66778E-06 2.64076E-19-8.10597E-19
 -1      1865 9.30739E-05-2.84407E-05-2.76917E-05-2.73631E-06 8.61629E-19-4.55948E-19
 -1      1866 9.10659E-05-2.77086E-05-2.71587E-05-3.07741E-06 2.35161E-19-1.05525E-18
 -1      1867 9.01857E-05-2.74437E-05-2.69081E-05-3.40615E-06 1.45728E-19-1.12044E-18
 -1      1868 9.22044E-05-2.82409E-05-2.74033E-05-3.60169E-06 3.75044E-20-1.19094E-18
 -1      1869 8.95421E-05-2.72423E-05-2.67053E-05-3.81804E-06 5.16177E-20-1.30070E-18
 -1      1870 8.84722E-05-2.68882E-05-2.64079E-05-4.12340E-06 2.18541E-20-1.57952E-18
 -1      1871 9.10601E-05-2.78986E-05-2.70589E-05-4.52028E-06-5.93337E-20-3.05607E-19
 -1      1872 8.76843E-05-2.66057E-05-2.61807E-05-4.46953E-06-8.25849E-20-1.06273E-18
 -1      1873 8.64582E-05-2.61624E-05-2.58484E-05-4.68810E-06-1.56685E-19-1.02458E-18
 -1      1874 8.96172E-05-2.73693E-05-2.66680E-05-5.37121E-06-8.39340E-21-3.86760E-19
 -1      1875 8.55504E-05-2.57983E-05-2.56096E-05-4.87840E-06-2.20798E-19-1.28566E-18
 -1      1876 8.42429E-05-2.52864E-05-2.52638E-05-4.93570E-06 3.89881E-21-1.50730E-18
 -1      1877 8.78940E-05-2.66290E-05-2.62497E-05-5.97824E-06-2.47516E-19-1.16119E-19
 -1      1878 8.32772E-05-2.48631E-05-2.50315E-05-4.87544E-06 6.19145E-21-1.74755E-18
 -1      1879 8.20056E-05-2.43303E-05-2.47028E-05-4.70510E-06-9.19329E-20-1.72143E-18
 -1      1880 8.59761E-05-2.56997E-05-2.58319E-05-6.13325E-06-2.35950E-19-3.88484E-19
 -1      1881 8.10856E-05-2.38990E-05-2.44985E-05-4.32504E-06-4.86869E-19-2.10813E-18
 -1      1882 7.99975E-05-2.34179E-05-2.42227E-05-3.89492E-06-1.07623E-18-1.76745E-18
 -1      1883 8.40337E-05-2.46706E-05-2.54492E-05-5.64901E-06-2.99775E-19-1.01288E-18
 -1      1884 7.92553E-05-2.30532E-05-2.40681E-05-3.18586E-06-1.50159E-18-1.57545E-18
 -1      1885 7.85012E-05-2.27070E-05-2.38797E-05-2.52087E-06-1.57109E-18-1.38156E-18
 -1      1886 8.23132E-05-2.36998E-05-2.51378E-05-4.43302E-06-1.10453E-18-8.65873E-19
 -1      1887 7.80658E-05-2.24869E-05-2.37928E-05-1.55539E-06-1.01163E-18-5.21002E-19
 -1      1888 7.77623E-05-2.23446E-05-2.37176E-05-7.43335E-07-1.51083E-19-1.62210E-19
 -1      1889 8.10902E-05-2.29812E-05-2.49299E-05-2.55350E-06-8.51462E-19 1.29521E-19
 -1      1890 7.77182E-05-2.23219E-05-2.37091E-05 3.31891E-07 5.91279E-19-2.67454E-19
 -1      1891 7.79153E-05-2.24141E-05-2.37579E-05 1.15951E-06 1.52635E-18 2.45152E-19
 -1      1892 8.05912E-05-2.26816E-05-2.48481E-05-2.57592E-07 3.27342E-19 1.50115E-18
 -1      1893 7.82716E-05-2.25945E-05-2.38288E-05 2.16375E-06 6.35599E-19-8.97800E-19
 -1      1894 7.89369E-05-2.29014E-05-2.39947E-05 2.87069E-06-7.57466E-20-1.57677E-18
 -1      1895 8.09160E-05-2.28759E-05-2.49016E-05 2.08246E-06 2.72735E-19-9.31356E-20
 -1      1896 7.96238E-05-2.32410E-05-2.41365E-05 3.64556E-06 9.26508E-20-1.94459E-18
 -1      1897 8.06532E-05-2.37000E-05-2.43966E-05 4.13208E-06-1.23482E-20-1.72729E-18
 -1      1898 8.19998E-05-2.35153E-05-2.50846E-05 4.08077E-06-1.53369E-19-8.37668E-19
 -1      1899 8.15480E-05-2.41239E-05-2.45926E-05 4.58718E-06-6.40883E-19-1.66790E-18
 -1      1900 8.27954E-05-2.46526E-05-2.49137E-05 4.81452E-06-4.79294E-19-2.04909E-18
 -1      1901 8.36381E-05-2.44479E-05-2.53773E-05 5.45610E-06-1.40832E-19-1.00594E-18
 -1      1902 8.37637E-05-2.50834E-05-2.51428E-05 4.94243E-06 2.48379E-19-8.49817E-19
 -1      1903 8.50784E-05-2.56056E-05-2.54889E-05 4.93193E-06 9.34846E-19-3.53386E-19
 -1      1904 8.55592E-05-2.54798E-05-2.57492E-05 6.10089E-06 3.78791E-19 4.99218E-19
 -1      1905 8.60091E-05-2.59861E-05-2.57293E-05 4.79167E-06 5.56396E-19-1.16955E-18
 -1      1906 8.72661E-05-2.64482E-05-2.60684E-05 4.60462E-06 2.48716E-19-1.39229E-18
 -1      1907 8.75057E-05-2.64416E-05-2.61647E-05 6.07746E-06 3.88879E-19 8.48528E-19
 -1      1908 8.80880E-05-2.67499E-05-2.63011E-05 4.28837E-06 4.48873E-19-1.62944E-18
 -1      1909 8.92034E-05-2.71258E-05-2.66096E-05 3.99955E-06 4.23621E-19-1.16201E-18
 -1      1910 8.92893E-05-2.72280E-05-2.65885E-05 5.55907E-06 3.27229E-19-3.88000E-19
 -1      1911 8.98851E-05-2.73452E-05-2.68208E-05 3.60056E-06 4.24407E-19-1.75841E-18
 -1      1912 9.08176E-05-2.76312E-05-2.70851E-05 3.27708E-06 3.79944E-19-1.48380E-18
 -1      1913 9.08073E-05-2.78039E-05-2.69912E-05 4.75510E-06 2.06636E-19-1.35365E-19
 -1      1914 9.13571E-05-2.77799E-05-2.72667E-05 2.86913E-06 6.28725E-19-1.05194E-18
 -1      1915 9.20996E-05-2.79864E-05-2.74820E-05 2.55924E-06 7.43930E-19-6.57579E-20
 -1      1916 9.20296E-05-2.81858E-05-2.73519E-05 3.85217E-06 1.17408E-18-6.82988E-19
 -1      1917 9.25119E-05-2.80818E-05-2.76312E-05 2.18934E-06 1.07687E-18 4.83773E-19
 -1      1918 9.30796E-05-2.82251E-05-2.77991E-05 1.92040E-06 1.09699E-18 1.33164E-18
 -1      1919 9.29739E-05-2.84162E-05-2.76592E-05 2.98407E-06 1.33822E-18 6.79913E-19
 -1      1920 9.33866E-05-2.82843E-05-2.79168E-05 1.61087E-06 1.21993E-18 2.13666E-18
 -1      1921 9.38060E-05-2.83812E-05-2.80430E-05 1.39279E-06 3.05430E-18 3.64617E-18
 -1      1922 9.36815E-05-2.85428E-05-2.79098E-05 2.22690E-06 2.14171E-18 2.09135E-18
 -1      1923 9.40305E-05-2.84179E-05-2.81325E-05 1.14758E-06 2.61398E-18 2.47738E-18
 -1      1924 9.43310E-05-2.84827E-05-2.82239E-05 9.78192E-07 1.76276E-18 2.61970E-18
 -1      1925 9.42003E-05-2.86068E-05-2.81062E-05 1.60910E-06 1.79780E-18 2.45358E-18
 -1      1926 9.44930E-05-2.85070E-05-2.82895E-05 7.90007E-07-4.62468E-20 1.03198E-18
 -1      1927 9.47014E-05-2.85508E-05-2.83532E-05 6.60226E-07-1.89936E-19 1.01008E-18
 -1      1928 9.45751E-05-2.86386E-05-2.82545E-05 1.12653E-06 5.09675E-19 4.12109E-19
 -1      1929 9.48184E-05-2.85696E-05-2.83994E-05 5.16002E-07 5.71124E-19 1.49860E-18
 -1      1930 9.49567E-05-2.85993E-05-2.84414E-05 4.13925E-07 8.96581E-19 2.30238E-18
 -1      1931 9.48443E-05-2.86587E-05-2.83622E-05 7.57102E-07 1.26733E-19 1.35911E-19
 -1      1932 9.50418E-05-2.86152E-05-2.84731E-05 3.00445E-07 1.51896E-18 1.71974E-18
 -1      1933 9.51275E-05-2.86303E-05-2.84996E-05 2.17589E-07 1.32838E-18 2.28283E-18
 -1      1934 9.50372E-05-2.86764E-05-2.84381E-05 4.71482E-07 1.26046E-18 2.47692E-18
 -1      1935 4.19315E-05-4.11350E-05-1.66840E-06 2.40238E-05 1.24599E-18 1.82387E-18
 -1      1936 2.61417E-05-4.05670E-05 4.26993E-06 1.45897E-05 1.25191E-18 8.19504E-19
 -1      1937 9.32412E-05-2.73802E-05-2.81998E-05 1.59018E-06 1.05235E-18 1.76698E-18
 -1      1938 9.44081E-05-2.74652E-05-2.86352E-05 2.66270E-06 1.04628E-18 2.19769E-18
 -1      1939 9.52427E-05-2.70269E-05-2.92272E-05 4.05986E-06 1.30920E-18 1.36828E-18
 -1      1940 9.21871E-05-2.73568E-05-2.77611E-05 3.38299E-07 7.32366E-19 1.22272E-18
 -1      1941 9.26783E-05-2.73866E-05-2.79323E-05 8.91081E-07 8.39674E-19 1.50555E-18
 -1      1942 9.36603E-05-2.73825E-05-2.84111E-05 1.58282E-06 1.10018E-18 7.94080E-19
 -1      1943 9.18128E-05-2.74013E-05-2.75900E-05-3.40398E-07 7.59977E-19 9.58552E-19
 -1      1944 9.19216E-05-2.73697E-05-2.76360E-05-3.82986E-08 7.53358E-19 1.10247E-18
 -1      1945 9.28113E-05-2.74894E-05-2.80048E-05 2.42512E-07 8.18945E-19 5.47878E-19
 -1      1946 9.18569E-05-2.74946E-05-2.75739E-05-6.52025E-07 6.35740E-19 4.69822E-19
 -1      1947 9.17591E-05-2.74304E-05-2.75544E-05-5.03733E-07 6.90947E-19 8.31614E-19
 -1      1948 9.25083E-05-2.75923E-05-2.78317E-05-4.58726E-07 8.62895E-19 2.86868E-19
 -1      1949 9.21146E-05-2.76196E-05-2.76338E-05-7.82895E-07 3.41972E-19 4.83520E-20
 -1      1950 9.19170E-05-2.75392E-05-2.75832E-05-7.14529E-07 4.64171E-19 2.12679E-19
 -1      1951 9.25277E-05-2.76986E-05-2.77922E-05-7.91002E-07 6.85985E-19-6.01063E-20
 -1      1952 9.24765E-05-2.77560E-05-2.77323E-05-8.05769E-07 2.00513E-19-2.11281E-19
 -1      1953 9.22367E-05-2.76714E-05-2.76676E-05-7.85405E-07 2.07775E-19-1.24037E-19
 -1      1954 9.27233E-05-2.78155E-05-2.78236E-05-9.23885E-07 3.71827E-19-4.69430E-19
 -1      1955 9.28740E-05-2.78908E-05-2.78463E-05-7.65707E-07 5.10399E-19-4.40737E-19
 -1      1956 9.26263E-05-2.78092E-05-2.77779E-05-7.74091E-07 3.54125E-19-2.99317E-19
 -1      1957 9.30072E-05-2.79338E-05-2.78926E-05-9.38365E-07 4.57359E-19-6.64994E-19
 -1      1958 9.32660E-05-2.80159E-05-2.79616E-05-6.91542E-07 5.81692E-19-3.63509E-19
 -1      1959 9.30299E-05-2.79413E-05-2.78955E-05-7.15914E-07 6.02700E-19-3.98806E-19
 -1      1960 9.33233E-05-2.80462E-05-2.79785E-05-8.84166E-07 6.37286E-19-8.41549E-19
 -1      1961 9.36446E-05-2.81322E-05-2.80748E-05-5.95960E-07 1.47941E-19-2.83251E-19
 -1      1962 9.34226E-05-2.80640E-05-2.80120E-05-6.30892E-07 4.29947E-19-2.89784E-19
 -1      1963 9.36440E-05-2.81499E-05-2.80706E-05-7.90002E-07 4.38814E-19-3.93841E-19
 -1      1964 9.39602E-05-2.82260E-05-2.81705E-05-5.00136E-07-2.56225E-19-3.02022E-19
 -1      1965 9.37774E-05-2.81713E-05-2.81185E-05-5.36789E-07-1.44259E-19-3.28989E-19
 -1      1966 9.39407E-05-2.82403E-05-2.81582E-05-6.78678E-07 6.85520E-20-1.46222E-19
 -1      1967 9.42287E-05-2.83039E-05-2.82526E-05-4.07681E-07 7.05475E-20-5.30821E-19
 -1      1968 9.40755E-05-2.82590E-05-2.82088E-05-4.44204E-07-2.04629E-19-3.42715E-19
 -1      1969 9.41953E-05-2.83140E-05-2.82353E-05-5.66511E-07-1.69988E-19-3.77966E-19
 -1      1970 9.44498E-05-2.83662E-05-2.83209E-05-3.23028E-07 2.27904E-19-6.72389E-19
 -1      1971 9.43251E-05-2.83305E-05-2.82850E-05-3.57154E-07 1.82612E-19-5.76540E-19
 -1      1972 9.44117E-05-2.83738E-05-2.83021E-05-4.59235E-07 6.93287E-20-6.71237E-19
 -1      1973 9.46278E-05-2.84143E-05-2.83765E-05-2.50050E-07 4.73898E-20-7.73854E-20
 -1      1974 9.45282E-05-2.83868E-05-2.83477E-05-2.79902E-07 1.82380E-19-3.18684E-19
 -1      1975 9.45902E-05-2.84204E-05-2.83584E-05-3.62811E-07 1.99521E-19-1.84219E-19
 -1      1976 9.47760E-05-2.84510E-05-2.84241E-05-1.90872E-07 5.51155E-20-2.53893E-20
 -1      1977 9.46940E-05-2.84299E-05-2.83999E-05-2.15064E-07 1.86036E-19 1.34914E-19
 -1      1978 9.47376E-05-2.84551E-05-2.84067E-05-2.81208E-07 1.40839E-19 3.08252E-19
 -1      1979 9.48927E-05-2.84749E-05-2.84632E-05-1.59094E-07-3.44226E-19-9.23718E-19
 -1      1980 9.48275E-05-2.84603E-05-2.84435E-05-1.71826E-07-3.41588E-19-6.38027E-19
 -1      1981 9.48566E-05-2.84768E-05-2.84483E-05-2.24448E-07 6.50282E-20-5.69240E-19
 -1      1982 9.50047E-05-2.84904E-05-2.85032E-05-1.65341E-07 6.82415E-19-1.05836E-18
 -1      1983 9.49403E-05-2.84789E-05-2.84830E-05-1.61030E-07 2.72409E-19-7.99576E-19
 -1      1984 9.49562E-05-2.84854E-05-2.84873E-05-2.06763E-07 3.21036E-19-1.03139E-18
 -1      1985 9.51413E-05-2.85003E-05-2.85548E-05-2.34882E-07 2.99466E-19-1.63178E-18
 -1      1986 9.50583E-05-2.84885E-05-2.85280E-05-2.01164E-07 5.63338E-19-1.47768E-18
 -1      1987 9.50560E-05-2.84798E-05-2.85325E-05-2.49107E-07 7.01348E-19-1.34390E-18
 -1      1988 9.53502E-05-2.85087E-05-2.86358E-05-4.12788E-07 9.50356E-20-1.79106E-18
 -1      1989 9.52163E-05-2.84911E-05-2.85924E-05-3.27395E-07 2.80701E-19-1.90489E-18
 -1      1990 9.51807E-05-2.84557E-05-2.85963E-05-3.92032E-07 4.97499E-19-1.61025E-18
 -1      1991 9.57095E-05-2.85218E-05-2.87755E-05-7.78158E-07-3.19818E-19-1.57255E-18
 -1      1992 9.54697E-05-2.84880E-05-2.86984E-05-6.01706E-07-4.10586E-19-2.01042E-18
 -1      1993 9.53672E-05-2.84041E-05-2.86982E-05-7.05871E-07-2.26229E-19-1.80059E-18
 -1      1994 9.63808E-05-2.85444E-05-2.90389E-05-1.51165E-06-9.25992E-19-5.11611E-19
 -1      1995 9.59185E-05-2.84791E-05-2.88887E-05-1.14806E-06-2.63847E-19-6.41211E-19
 -1      1996 9.56802E-05-2.83046E-05-2.88746E-05-1.33197E-06-6.38633E-19-1.39118E-18
 -1      1997 9.75095E-05-2.85860E-05-2.94823E-05-2.78598E-06-6.01996E-19-1.23434E-18
 -1      1998 9.67086E-05-2.84654E-05-2.92245E-05-2.15137E-06-6.88545E-19-8.67633E-19
 -1      1999 9.61916E-05-2.81172E-05-2.91723E-05-2.47713E-06-5.90352E-19-1.22388E-18
 -1      2000 9.94054E-05-2.86507E-05-3.02360E-05-5.00010E-06 1.09142E-19-1.03615E-18
 -1      2001 9.80099E-05-2.84343E-05-2.97859E-05-3.87595E-06-4.32768E-19-1.28743E-18
 -1      2002 9.69741E-05-2.77817E-05-2.96490E-05-4.43123E-06-2.75789E-19-8.12678E-19
 -1      2003 1.02467E-04-2.87546E-05-3.14681E-05-8.72056E-06-4.17720E-19-7.12428E-19
 -1      2004 1.00117E-04-2.83695E-05-3.07102E-05-6.79090E-06 1.41613E-20-7.94338E-19
 -1      2005 9.81164E-05-2.71878E-05-3.03906E-05-7.70351E-06-1.01763E-19-1.00204E-18
 -1      2006 1.07180E-04-2.89992E-05-3.33535E-05-1.46843E-05-1.22714E-19-4.02010E-19
 -1      2007 1.03372E-04-2.82752E-05-3.21492E-05-1.15038E-05-2.79468E-19-4.07463E-19
 -1      2008 9.96396E-05-2.62192E-05-3.14553E-05-1.29409E-05-3.65217E-19-6.14637E-19
 -1      2009 1.14331E-04-2.98954E-05-3.59938E-05-2.37846E-05-5.72373E-19 1.39506E-18
 -1      2010 1.08288E-04-2.83797E-05-3.42149E-05-1.87630E-05-3.91329E-19 2.62263E-19
 -1      2011 1.01525E-04-2.49636E-05-3.27837E-05-2.09702E-05-7.40294E-19 1.86837E-19
 -1      2012 1.23624E-04-3.31471E-05-3.84338E-05-3.36481E-05-1.37227E-18 2.27630E-18
 -1      2013 1.15635E-04-2.99592E-05-3.66053E-05-2.81259E-05-1.14001E-18 1.56431E-18
 -1      2014 1.03882E-04-2.47909E-05-3.37822E-05-3.12826E-05-1.25678E-18 1.12899E-18
 -1      2015 1.35737E-04-4.22962E-05-3.93933E-05-3.74995E-05 7.82447E-20 3.31320E-18
 -1      2016 1.26325E-04-3.60922E-05-3.82250E-05-3.56800E-05-5.10020E-19 2.73570E-18
 -1      2017 1.07953E-04-2.92362E-05-3.33628E-05-4.00144E-05-9.41159E-19 2.26385E-18
 -1      2018 2.12144E-04-7.21616E-05-5.89342E-05 2.01453E-05-1.29961E-18 4.19874E-18
 -1      2019 1.90691E-04-7.41993E-05-5.01093E-05 1.39047E-06-1.06133E-18 1.52762E-18
 -1      2020 2.12704E-04-7.55544E-05-5.68626E-05 3.04257E-05-1.97433E-18 1.52932E-18
 -1      2021 1.68737E-04-6.07062E-05-4.48716E-05 2.39797E-05-9.63288E-19 6.47940E-19
 -1      2022 1.79823E-04-6.99358E-05-4.64134E-05 1.07296E-05-4.21822E-19-2.00959E-19
 -1      2023 1.39984E-04-4.23596E-05-4.11289E-05 3.50679E-05-3.12767E-19 4.01176E-19
 -1      2024 1.51915E-04-5.10483E-05-4.24890E-05 3.18853E-05-2.06888E-19 8.93593E-19
 -1      2025 1.23414E-04-3.29969E-05-3.86792E-05 2.92721E-05 6.21299E-19-1.18468E-18
 -1      2026 1.35207E-04-3.83207E-05-4.11575E-05 3.24230E-05-1.83541E-19-1.02279E-18
 -1      2027 1.12512E-04-3.21461E-05-3.38876E-05 4.12750E-05 4.71903E-19 2.27217E-19
 -1      2028 1.13309E-04-3.03299E-05-3.56772E-05 1.99647E-05 8.09578E-19 7.72865E-19
 -1      2029 1.21597E-04-3.27619E-05-3.79177E-05 2.39325E-05 7.06518E-19 2.22876E-19
 -1      2030 1.06291E-04-2.58698E-05-3.42506E-05 3.21014E-05 3.71292E-19-1.51695E-19
 -1      2031 1.06450E-04-2.94384E-05-3.30900E-05 1.24004E-05 4.38710E-19-4.98307E-19
 -1      2032 1.11947E-04-3.06453E-05-3.47311E-05 1.54317E-05 1.26793E-18 6.81544E-19
 -1      2033 1.03070E-04-2.56019E-05-3.31199E-05 2.17680E-05 9.92723E-19 2.56922E-18
 -1      2034 1.01925E-04-2.90523E-05-3.12650E-05 7.30582E-06-6.91920E-20-1.46203E-18
 -1      2035 1.05323E-04-2.96791E-05-3.23150E-05 9.27020E-06 2.90413E-19-1.02818E-18
 -1      2036 1.00625E-04-2.65537E-05-3.17097E-05 1.36211E-05 6.46207E-19 1.87584E-18
 -1      2037 9.90650E-05-2.88343E-05-3.01063E-05 4.15058E-06-2.83061E-19-1.23319E-18
 -1      2038 1.01070E-04-2.91685E-05-3.07297E-05 5.33318E-06-1.05338E-18-1.49764E-18
 -1      2039 9.87240E-05-2.73876E-05-3.05574E-05 8.09619E-06-1.66918E-19 2.45871E-19
 -1      2040 9.73323E-05-2.87025E-05-2.94125E-05 2.28292E-06-1.07749E-18 9.88798E-19
 -1      2041 9.84760E-05-2.88774E-05-2.97667E-05 2.96725E-06-6.83913E-20-1.97901E-19
 -1      2042 9.73593E-05-2.79074E-05-2.97590E-05 4.63595E-06-6.80062E-19-2.10761E-18
 -1      2043 9.62959E-05-2.86248E-05-2.89991E-05 1.17295E-06 2.68169E-19-3.79628E-19
 -1      2044 9.69386E-05-2.87154E-05-2.91992E-05 1.56827E-06-8.56966E-19 7.09501E-19
 -1      2045 9.64401E-05-2.82016E-05-2.92412E-05 2.53492E-06-6.50164E-19 2.62411E-19
 -1      2046 9.57625E-05-2.85875E-05-2.87862E-05 5.96335E-07-1.42353E-18 2.76106E-19
 -1      2047 9.60816E-05-2.86260E-05-2.88855E-05 7.99540E-07 7.76259E-20-9.70366E-20
 -1      2048 9.58791E-05-2.83722E-05-2.89321E-05 1.32482E-06-3.47284E-20 3.38583E-19
 -1      2049 9.54802E-05-2.85717E-05-2.86729E-05 2.86250E-07-6.83461E-19-3.43754E-19
 -1      2050 9.56406E-05-2.85879E-05-2.87230E-05 3.92988E-07-2.50853E-18-5.20280E-19
 -1      2051 9.55661E-05-2.84614E-05-2.87601E-05 6.74217E-07-1.46560E-18-4.00546E-19
 -1      2052 9.53403E-05-2.85670E-05-2.86158E-05 1.28071E-07 9.71949E-19 3.26093E-19
 -1      2053 9.54160E-05-2.85732E-05-2.86395E-05 1.80007E-07 9.41176E-19 3.08577E-19
 -1      2054 9.53960E-05-2.85119E-05-2.86652E-05 3.24059E-07-1.28775E-19-1.64422E-18
 -1      2055 9.52746E-05-2.85638E-05-2.85888E-05 4.78911E-08 2.16791E-18-1.58863E-18
 -1      2056 9.53054E-05-2.85659E-05-2.85992E-05 7.34004E-08 2.11332E-18 3.12912E-19
 -1      2057 9.53070E-05-2.85352E-05-2.86153E-05 1.46085E-07 2.15165E-18-1.28421E-18
 -1      2058 9.52506E-05-2.85551E-05-2.85827E-05 2.99659E-08 4.92384E-19-3.47449E-18
 -1      2059 9.52588E-05-2.85573E-05-2.85853E-05 3.64578E-08 1.28469E-18-2.45392E-18
 -1      2060 9.52663E-05-2.85453E-05-2.85954E-05 7.38711E-08 2.96450E-18-3.55595E-18
 -1      2061 9.52433E-05-2.85405E-05-2.85883E-05 4.83402E-08 1.15419E-18-3.49633E-18
 -1      2062 9.51660E-05-2.84498E-05-2.85954E-05 2.75476E-08 5.75557E-19 2.70735E-18
 -1      2063 9.51837E-05-2.84593E-05-2.85963E-05 5.32824E-08-5.02749E-19 4.33674E-18
 -1      2064 9.52094E-05-2.84903E-05-2.85965E-05 6.84673E-08 8.81715E-19 3.78519E-18
 -1      2065 9.52287E-05-2.85110E-05-2.85928E-05 6.44413E-08 1.47680E-18 1.45394E-18
 -1      2066 9.52354E-05-2.85091E-05-2.85960E-05 7.81190E-08 2.90009E-18 2.49974E-19
 -1      2067 9.51783E-05-2.84441E-05-2.85990E-05 7.77388E-08 1.33360E-18 3.16542E-18
 -1      2068 9.51511E-05-2.84702E-05-2.85798E-05-7.87442E-08-9.86807E-19-1.54774E-18
 -1      2069 9.51522E-05-2.84493E-05-2.85883E-05-3.06443E-08 3.20260E-19-4.20678E-19
 -1      2070 9.51230E-05-2.84050E-05-2.85901E-05-7.95059E-09-6.11261E-19 1.08942E-18
 -1      2071 9.51832E-05-2.85711E-05-2.85490E-05-2.04035E-07-1.67564E-18-2.02179E-18
 -1      2072 9.51620E-05-2.85129E-05-2.85662E-05-1.53678E-07-1.13129E-18-2.41977E-18
 -1      2073 9.51117E-05-2.84438E-05-2.85681E-05-1.63931E-07-1.69953E-18-2.05161E-18
 -1      2074 9.52597E-05-2.87479E-05-2.85044E-05-3.02478E-07 6.07322E-20 2.88720E-18
 -1      2075 9.52188E-05-2.86561E-05-2.85294E-05-2.68457E-07-1.26690E-18-7.45819E-19
 -1      2076 9.51623E-05-2.85736E-05-2.85351E-05-3.25259E-07-1.06246E-18-5.46851E-19
 -1      2077 9.53608E-05-2.89639E-05-2.84537E-05-3.32498E-07 1.19796E-18 2.88553E-18
 -1      2078 9.53110E-05-2.88583E-05-2.84815E-05-3.29732E-07 2.25484E-19 4.56079E-18
 -1      2079 9.52658E-05-2.87769E-05-2.84942E-05-4.30755E-07-3.08257E-20 3.91792E-18
 -1      2080 9.54589E-05-2.91687E-05-2.84069E-05-2.78862E-07 5.69580E-19-1.70428E-18
 -1      2081 9.54139E-05-2.90747E-05-2.84315E-05-3.10489E-07 7.62817E-19 5.00211E-19
 -1      2082 9.53932E-05-2.90087E-05-2.84516E-05-4.36498E-07 3.05054E-19 1.50130E-18
 -1      2083 9.55278E-05-2.93134E-05-2.83742E-05-1.53405E-07 1.22001E-18-5.94255E-20
 -1      2084 9.54999E-05-2.92544E-05-2.83897E-05-2.11636E-07 8.81424E-19-2.47766E-18
 -1      2085 9.55088E-05-2.92153E-05-2.84145E-05-3.33835E-07-5.52493E-20-8.12004E-19
 -1      2086 9.55505E-05-2.93649E-05-2.83624E-05 1.06759E-08 1.36012E-18 1.35608E-18
 -1      2087 9.55468E-05-2.93555E-05-2.83652E-05-5.85405E-08-2.20161E-19 1.96202E-18
 -1      2088 9.55825E-05-2.93501E-05-2.83894E-05-1.47821E-07 7.46627E-19-2.66309E-19
 -1      2089 9.55229E-05-2.93158E-05-2.83727E-05 1.67340E-07 1.24362E-18-1.21489E-18
 -1      2090 9.55439E-05-2.93564E-05-2.83629E-05 1.06593E-07 9.93884E-19 7.02624E-19
 -1      2091 9.55960E-05-2.93854E-05-2.83802E-05 7.09971E-08 8.70576E-20 1.16003E-18
 -1      2092 9.54519E-05-2.91800E-05-2.84019E-05 2.79523E-07-2.93396E-19-2.53079E-18
 -1      2093 9.54925E-05-2.92607E-05-2.83819E-05 2.42008E-07 5.98399E-19-2.26571E-18
 -1      2094 9.55483E-05-2.93189E-05-2.83874E-05 2.67240E-07-5.62672E-19-2.32676E-18
 -1      2095 9.53556E-05-2.89935E-05-2.84418E-05 3.14839E-07-2.57333E-18-4.09268E-18
 -1      2096 9.54060E-05-2.90932E-05-2.84174E-05 3.12187E-07-9.04738E-19-3.84447E-18
 -1      2097 9.54519E-05-2.91697E-05-2.84085E-05 3.91132E-07-1.18858E-18-4.03868E-18
 -1      2098 9.52609E-05-2.88035E-05-2.84834E-05 2.60192E-07-3.03552E-18-1.27413E-18
 -1      2099 9.53046E-05-2.88942E-05-2.84601E-05 2.95068E-07-3.00039E-18-4.00529E-18
 -1      2100 9.53252E-05-2.89727E-05-2.84381E-05 4.10069E-07-2.49274E-18-4.45470E-18
 -1      2101 1.64034E-04-7.22864E-05-4.01692E-05 1.51428E-05 1.61021E-18 3.33562E-18
 -1      2102 1.25317E-04-6.45124E-05-2.87929E-05 2.00715E-05 4.20975E-19 4.71755E-18
 -1      2103 9.51892E-05-2.86261E-05-2.85299E-05 9.77888E-08-4.94163E-19 2.33779E-18
 -1      2104 8.36867E-06-3.53169E-05 1.02666E-05-1.42959E-05 4.81644E-19-2.17899E-18
 -1      2105 9.93879E-06-3.01016E-05 7.99297E-06-2.31039E-05 1.22714E-18-2.79987E-18
 -1      2106 2.19100E-04-7.66451E-05-6.07513E-05 2.22241E-05-1.01925E-18 1.30443E-19
 -1      2107 2.33935E-04-6.25629E-05-6.81657E-05-2.69136E-05 3.10988E-18-6.92873E-19
 -1      2108 9.76384E-05-5.49980E-05-1.94841E-05 3.11639E-05 1.12401E-18 4.04056E-18
 -1      2109 6.79369E-05-5.02993E-05-1.01382E-05 2.59525E-05 1.40777E-18 2.36439E-18
 -1      2110 8.72489E-05-8.72231E-06-3.37496E-05-1.05320E-05-1.03471E-18-2.67946E-18
 -1      2111 8.79548E-05-9.23912E-06-3.38221E-05-1.20890E-05-1.25145E-18-2.43001E-18
 -1      2112 9.04851E-05-1.30478E-05-3.32366E-05-1.18653E-05-1.37992E-18-2.16600E-18
 -1      2113 8.86848E-05-1.10544E-05-3.32955E-05-9.40332E-06-9.91359E-19-2.59736E-18
 -1      2114 2.31398E-04-7.85096E-05-6.29916E-05-2.03865E-05 3.54875E-18-8.55503E-19
 -1      2115 1.73711E-04-7.30528E-05-4.46328E-05-4.01253E-06-3.16790E-19 4.20975E-19
 -1      2116 2.08709E-04-7.81785E-05-5.53500E-05 3.04819E-06-6.04782E-19-5.13302E-19
 -1      2117 1.04714E-04-5.95104E-05-2.20835E-05-2.40435E-05-4.76880E-19 1.19516E-18
 -1      2118 1.43011E-04-6.71273E-05-3.36575E-05-2.46972E-05-7.28448E-19 9.93993E-19
 -1      2119 5.10299E-05-4.80624E-05-4.01663E-06-2.16924E-05 3.90482E-19 3.64859E-19
 -1      2120 7.47365E-05-5.01394E-05-1.24118E-05-2.89976E-05 2.04135E-19 1.06456E-18
 -1      2121 1.94086E-05-4.02628E-05 7.00673E-06-9.40028E-06-1.12825E-18-2.86297E-18
 -1      2122 3.14399E-05-4.02361E-05 2.15142E-06-1.80461E-05-2.73592E-19-2.49536E-18
 -1      2123 6.91279E-06-3.49445E-05 1.07435E-05 9.42493E-06-1.79857E-18-1.80842E-18
 -1      2124 9.95505E-06-3.77187E-05 1.03321E-05 1.28824E-06-1.32974E-18-2.21880E-18
 -1      2125 1.68205E-05-3.21565E-05 5.87511E-06 3.17052E-05-2.28614E-18-7.61483E-19
 -1      2126 1.09611E-05-3.49091E-05 9.12755E-06 2.22534E-05-1.57929E-18-1.25869E-18
 -1      2127 4.26184E-05-3.51254E-05-3.79663E-06 4.64273E-05-3.03153E-18-2.82761E-18
 -1      2128 3.05449E-05-3.88386E-05 2.28481E-06 3.91712E-05-2.42124E-18-2.05681E-18
 -1      2129 7.97066E-05-3.65502E-05-1.86382E-05 5.55641E-05-2.46825E-18-3.31042E-18
 -1      2130 6.17591E-05-4.03957E-05-1.04168E-05 4.84097E-05-2.47291E-18-3.21655E-18
 -1      2131 1.24917E-04-4.12232E-05-3.56541E-05 5.34032E-05-3.21618E-18-1.84060E-18
 -1      2132 1.01254E-04-4.15498E-05-2.63825E-05 5.10129E-05-2.81723E-18-2.69992E-18
 -1      2133 1.65093E-04-3.87163E-05-5.34803E-05 4.04560E-05-3.47178E-18-2.23193E-19
 -1      2134 1.43169E-04-3.98795E-05-4.45631E-05 4.23554E-05-3.76294E-18-1.18458E-18
 -1      2135 1.92375E-04-3.22573E-05-6.75084E-05 2.49880E-05-2.44284E-18-1.15578E-18
 -1      2136 1.74107E-04-3.23536E-05-6.07355E-05 2.84132E-05-2.92353E-18-7.08120E-19
 -1      2137 2.00785E-04-2.52708E-05-7.43516E-05 9.14049E-06-9.92723E-19-1.48527E-18
 -1      2138 1.95346E-04-2.73393E-05-7.13305E-05 1.89662E-05-1.74404E-18-8.98278E-19
 -1      2139 1.75862E-04-2.34288E-05-6.43315E-05 4.13631E-06-1.91048E-18-1.10707E-18
 -1      2140 2.12379E-04-2.67262E-05-7.79975E-05-4.74695E-06 5.11608E-19-1.09415E-18
 -1      2141 2.06429E-04-2.39129E-05-7.73309E-05 5.24201E-06-2.66815E-19-1.24006E-18
 -1      2142 2.03057E-04-2.79918E-05-7.39686E-05-2.01097E-05 4.62056E-19-9.98652E-19
 -1      2143 2.11803E-04-2.88573E-05-7.69224E-05-1.05874E-05 9.77476E-19-8.22893E-19
 -1      2144 1.80644E-04-3.09943E-05-6.37267E-05-3.08108E-05 4.52104E-19-1.81562E-18
 -1      2145 1.97852E-04-3.17870E-05-6.97066E-05-2.59685E-05 2.82697E-19-1.82409E-18
 -1      2146 1.51769E-04-3.61943E-05-4.95822E-05-4.35751E-05 1.24641E-18-5.55230E-19
 -1      2147 1.71703E-04-3.64071E-05-5.70743E-05-4.02122E-05 9.41795E-19-1.21295E-18
 -1      2148 1.16231E-04-3.82372E-05-3.40542E-05-5.06140E-05 1.19305E-18-7.03884E-19
 -1      2149 1.37590E-04-3.69470E-05-4.24669E-05-5.30314E-05 1.32645E-18-5.59042E-20
 -1      2150 8.02772E-05-4.03295E-05-1.81474E-05-5.10970E-05 3.10395E-18 3.57448E-19
 -1      2151 9.91172E-05-3.71525E-05-2.63478E-05-5.64986E-05 2.31409E-18-3.99800E-19
 -1      2152 4.59238E-05-3.97701E-05-3.89399E-06-4.47767E-05 1.70677E-18-6.57509E-20
 -1      2153 6.02373E-05-3.53383E-05-1.09515E-05-5.18806E-05 2.50468E-18-5.53218E-19
 -1      2154 2.17631E-05-3.51496E-05 4.83317E-06-3.50864E-05 2.02441E-19-1.69745E-18
 -1      2155 3.19507E-05-3.42766E-05 4.26173E-07-4.21268E-05 7.58518E-19-5.19443E-19
 -1      2156 1.27130E-05-3.50660E-05 8.31441E-06 4.60787E-06 1.24810E-18 2.27090E-18
 -1      2157 8.57383E-06-3.58907E-05 1.03360E-05-4.48862E-06 1.19463E-18 1.00543E-18
 -1      2158 8.08821E-06-1.88298E-05 3.93606E-06-6.64155E-06 8.59077E-19 2.38440E-19
 -1      2159 1.97814E-04-7.44880E-05-5.31116E-05-1.27040E-05 3.16960E-18 6.44169E-19
 -1      2160 9.51710E-05-2.86735E-05-2.85003E-05 2.17096E-07-3.73652E-19 6.73272E-19
 -1      2161 1.91197E-04-7.61034E-05-4.89024E-05 7.44472E-07 1.85754E-18 5.03561E-19
 -1      2162 1.73410E-04-7.59608E-05-4.19641E-05-7.96912E-06-1.24302E-18 1.33111E-18
 -1      2163 2.40922E-05-2.70729E-05 3.96992E-07 1.83849E-05 1.11639E-18 6.37816E-19
 -1      2164 9.72041E-05-2.43194E-05-3.13097E-05-9.99453E-06-1.46603E-18 2.90347E-19
 -1      2165 9.63616E-05-2.31096E-05-3.14597E-05-1.03754E-05-1.55057E-18-5.73230E-19
 -1      2166 1.86233E-04-7.37578E-05-4.67994E-05 3.82739E-06 3.57871E-19 8.25487E-19
 -1      2167 6.94982E-05-4.34549E-05-1.22083E-05 3.46477E-05 1.35186E-18 2.77022E-18
 -1      2168 1.63128E-04-6.76753E-05-4.01147E-05-1.82227E-05-1.58141E-18 1.29924E-18
 -1      2169 1.55187E-04-6.78079E-05-3.74194E-05 2.23722E-05 2.14723E-19 3.44478E-18
 -1      2170 1.46135E-04-5.71270E-05-3.74732E-05-2.91093E-05-1.04397E-18 2.02250E-18
 -1      2171 1.33782E-04-4.56475E-05-3.69216E-05-3.70081E-05-1.03338E-19 3.12865E-18
 -1      2172 1.31957E-04-4.99722E-05-3.47457E-05 3.58614E-05-6.52215E-19 1.39326E-18
 -1      2173 9.52002E-05-2.87199E-05-2.84911E-05 2.44084E-07-1.45295E-18 3.61497E-19
 -1      2174 1.84068E-04-4.01574E-05-6.78079E-05 7.85422E-06 4.46386E-19 5.97306E-18
 -1      2175 9.51875E-05-2.87807E-05-2.84618E-05 3.71753E-07-9.85412E-19 7.75722E-19
 -1      2176 1.73903E-05-2.53601E-05 2.46907E-06-1.24194E-05-1.10940E-18-3.05144E-18
 -1      2177 1.30308E-04-6.42169E-05-2.89807E-05 2.69657E-05 1.10284E-18 4.26746E-18
 -1      2178 1.22287E-04-5.60978E-05-2.87070E-05-3.49067E-05-6.61956E-19 2.13341E-18
 -1      2179 2.55965E-04-5.95160E-05-7.90519E-05-2.11072E-06 5.25160E-19 2.22457E-18
 -1      2180 1.85467E-05-2.27422E-05 1.45013E-06-3.35542E-05-9.74088E-20-1.24344E-18
 -1      2181 2.47896E-04-5.56164E-05-7.70384E-05-2.02783E-05 2.14808E-18 4.15893E-19
 -1      2182 1.09776E-04-3.89108E-05-2.98138E-05-4.24037E-05-5.18384E-19 3.42254E-18
 -1      2183 4.66608E-05-3.46923E-05-5.57872E-06-5.12919E-05 8.04681E-19-7.21037E-19
 -1      2184 8.31775E-05-4.50913E-05-1.64872E-05-5.61605E-05 2.72490E-18 5.79688E-19
 -1      2185 1.21821E-04-5.02075E-05-3.04569E-05-4.94451E-05 2.07100E-18 4.37916E-19
 -1      2186 1.52643E-04-4.72992E-05-4.44844E-05-3.55075E-05 1.96025E-18-1.11512E-18
 -1      2187 1.72942E-04-3.67733E-05-5.74995E-05-1.89051E-05 6.99649E-19-2.13749E-18
 -1      2188 1.83817E-04-2.30319E-05-6.76914E-05-7.67968E-06 9.26866E-19-1.14349E-18
 -1      2189 1.82849E-04-1.44436E-05-7.11462E-05 7.84349E-07-6.03087E-19-1.78766E-18
 -1      2190 1.68512E-04-4.01070E-05-5.43404E-05 1.80119E-05-2.63549E-18 1.07488E-18
 -1      2191 1.43856E-04-5.16824E-05-3.90395E-05 3.84034E-05-2.25650E-18 3.78624E-19
 -1      2192 1.04848E-04-4.95746E-05-2.35537E-05 5.40142E-05-1.40862E-18-2.07047E-18
 -1      2193 6.27777E-05-4.01918E-05-1.00209E-05 5.49363E-05-1.67628E-18-2.59203E-18
 -1      2194 2.73651E-05-2.80509E-05-2.42966E-07 4.17175E-05-1.33916E-18-1.43233E-18
 -1      2195 8.90116E-06-2.04474E-05 4.37099E-06 1.64607E-05-1.31036E-18-1.86263E-18
 -1      2196 1.07981E-04-5.86631E-05-2.22071E-05-3.21728E-05-3.19755E-19 1.65817E-18
 -1      2197 5.22199E-05-3.92441E-05-6.77017E-06-3.06003E-05-6.24263E-19-5.84241E-19
 -1      2198 1.87662E-04-1.46334E-05-7.27258E-05-2.19721E-06 2.79521E-20 3.34578E-20
 -1      2199 8.81212E-05-1.11738E-05-3.30167E-05-3.65644E-06-2.20979E-19-2.61958E-18
 -1      2200 8.83564E-05-1.14444E-05-3.29993E-05-4.79640E-06-4.46962E-19-2.75468E-18
 -1      2201 8.87098E-05-1.19281E-05-3.29513E-05-5.81232E-06-5.48548E-19-2.74701E-18
 -1      2202 8.91178E-05-1.24013E-05-3.29235E-05-6.98418E-06-7.55601E-19-2.68829E-18
 -1      2203 8.98759E-05-1.38132E-05-3.25977E-05-4.89669E-06-4.78521E-19-2.58437E-18
 -1      2204 8.77736E-05-1.07143E-05-3.30594E-05 6.14587E-07 4.91997E-19-2.45381E-18
 -1      2205 8.77691E-05-1.07093E-05-3.30596E-05-4.95137E-07 2.33397E-19-2.49328E-18
 -1      2206 8.79560E-05-1.09398E-05-3.30413E-05 2.75397E-06 8.07033E-19-2.47481E-18
 -1      2207 8.78403E-05-1.08064E-05-3.30504E-05 1.63580E-06 6.45417E-19-2.51957E-18
 -1      2208 8.90903E-05-1.27594E-05-3.27164E-05 1.04787E-06 5.28537E-19-2.36461E-18
 -1      2209 8.83930E-05-1.14882E-05-3.29968E-05 4.88081E-06 1.08305E-18-2.37970E-18
 -1      2210 8.81520E-05-1.12107E-05-3.30145E-05 3.75868E-06 8.79970E-19-2.45475E-18
 -1      2211 8.93578E-05-1.31159E-05-3.26769E-05 3.01625E-06 8.26925E-19-2.35246E-18
 -1      2212 8.91774E-05-1.24732E-05-3.29191E-05 7.06554E-06 1.40495E-18-1.95463E-18
 -1      2213 8.87564E-05-1.19852E-05-3.29477E-05 5.89470E-06 1.23152E-18-2.18821E-18
 -1      2214 8.99180E-05-1.38649E-05-3.25934E-05 4.96742E-06 1.16057E-18-2.15143E-18
 -1      2215 9.04504E-05-1.40851E-05-3.27931E-05 9.21360E-06 1.68838E-18-1.54820E-18
 -1      2216 8.97697E-05-1.32744E-05-3.28380E-05 8.03591E-06 1.46767E-18-1.80074E-18
 -1      2217 9.08606E-05-1.51282E-05-3.24498E-05 6.85947E-06 1.39373E-18-1.78684E-18
 -1      2218 9.24636E-05-1.66932E-05-3.25742E-05 1.10596E-05 1.96079E-18-7.70747E-19
 -1      2219 9.13697E-05-1.53140E-05-3.26567E-05 1.00229E-05 1.80294E-18-1.19875E-18
 -1      2220 9.22909E-05-1.70883E-05-3.22099E-05 8.51376E-06 1.63252E-18-1.26239E-18
 -1      2221 9.55258E-05-2.08676E-05-3.21015E-05 1.16777E-05 1.95869E-18 2.43085E-19
 -1      2222 9.38069E-05-1.84727E-05-3.23239E-05 1.14516E-05 1.96540E-18-3.89093E-19
 -1      2223 9.43153E-05-2.00307E-05-3.17892E-05 9.46572E-06 1.89511E-18-4.82637E-19
 -1      2224 9.75145E-05-2.45898E-05-3.13166E-05 9.84156E-06 1.73880E-18 1.28806E-18
 -1      2225 9.62807E-05-2.22044E-05-3.17353E-05 1.11047E-05 1.85496E-18 6.16772E-19
 -1      2226 9.59276E-05-2.32274E-05-3.11189E-05 8.82468E-06 1.84526E-18 1.68169E-19
 -1      2227 9.63377E-05-2.56827E-05-3.02885E-05 6.84111E-06 1.62059E-18 9.45663E-19
 -1      2228 9.36305E-05-2.74880E-05-2.83360E-05 3.19348E-07 8.97612E-19-9.28494E-20
 -1      2229 9.39172E-05-2.73447E-05-2.84884E-05 8.74158E-07 9.46465E-19 3.45993E-20
 -1      2230 8.86196E-05-1.73418E-05-3.05415E-05 2.75033E-05 5.03071E-19 7.88720E-19
 -1      2231 9.02804E-05-1.83352E-05-3.05403E-05 3.24047E-05 8.52896E-19 9.41424E-19
 -1      2232 9.42311E-05-2.71117E-05-2.87482E-05 1.72823E-06 1.14859E-18 1.68794E-19
 -1      2233 9.48017E-05-2.68962E-05-2.90456E-05 2.73134E-06 1.29210E-18 4.31818E-19
 -1      2234 9.47277E-05-2.69545E-05-2.90601E-05 1.81641E-06 1.18046E-18-2.99946E-19
 -1      2235 9.59244E-05-2.50965E-05-3.03083E-05-6.17960E-06-1.19565E-18-9.97213E-19
 -1      2236 9.52664E-05-2.58540E-05-2.97647E-05-4.26715E-06-1.03767E-18-9.64990E-19
 -1      2237 9.50830E-05-2.00271E-05-3.22153E-05-1.17400E-05-1.53108E-18-1.24793E-18
 -1      2238 9.54800E-05-2.33657E-05-3.09314E-05-7.95716E-06-1.39196E-18-1.09837E-18
 -1      2239 9.50890E-05-2.25555E-05-3.10573E-05-7.63959E-06-1.30933E-18-1.42698E-18
 -1      2240 9.32239E-05-1.76238E-05-3.24177E-05-1.13929E-05-1.58616E-18-1.69731E-18
 -1      2241 9.51521E-05-2.65392E-05-2.93481E-05-2.92720E-06-9.72984E-19-8.58321E-19
 -1      2242 9.46823E-05-2.69098E-05-2.90453E-05-1.86393E-06-7.90113E-19-9.86501E-19
 -1      2243 9.53447E-05-2.53635E-05-2.99983E-05-4.28090E-06-1.06627E-18-1.22130E-18
 -1      2244 9.44877E-05-2.72398E-05-2.87821E-05-1.01154E-06-7.76216E-19-9.62739E-19
 -1      2245 9.42312E-05-2.74536E-05-2.86165E-05-4.08769E-07-7.52823E-19-1.05723E-18
 -1      2246 9.50414E-05-2.66983E-05-2.93029E-05-1.90392E-06-8.87803E-19-1.24492E-18
 -1      2247 9.40832E-05-2.76341E-05-2.84556E-05 1.00279E-07-6.67071E-19-1.07390E-18
 -1      2248 9.39868E-05-2.77782E-05-2.83726E-05 4.31239E-07-7.04995E-19-1.05725E-18
 -1      2249 9.47387E-05-2.74272E-05-2.88606E-05-4.22685E-07-7.88795E-19-1.17573E-18
 -1      2250 9.39029E-05-2.78880E-05-2.82794E-05 7.15047E-07-7.63641E-19-1.09897E-18
 -1      2251 9.39107E-05-2.79958E-05-2.82471E-05 8.80193E-07-6.97153E-19-1.07246E-18
 -1      2252 9.45390E-05-2.78558E-05-2.85888E-05 4.50216E-07-7.87699E-19-1.14819E-18
 -1      2253 9.38798E-05-2.80682E-05-2.81984E-05 1.01829E-06-6.80070E-19-1.05761E-18
 -1      2254 9.39490E-05-2.81530E-05-2.81965E-05 1.08125E-06-6.01900E-19-9.96491E-19
 -1      2255 9.44476E-05-2.81259E-05-2.84310E-05 9.23048E-07-7.34748E-19-1.07959E-18
 -1      2256 9.39548E-05-2.82032E-05-2.81765E-05 1.12667E-06-4.51421E-19-1.24993E-18
 -1      2257 9.40556E-05-2.82711E-05-2.81921E-05 1.12733E-06-1.06904E-19-1.23326E-18
 -1      2258 9.44387E-05-2.83038E-05-2.83485E-05 1.13707E-06-6.65016E-19-1.49836E-18
 -1      2259 9.40837E-05-2.83066E-05-2.81897E-05 1.11551E-06-3.92699E-19-1.11189E-18
 -1      2260 9.41961E-05-2.83610E-05-2.82142E-05 1.07956E-06-5.82895E-19-1.24622E-18
 -1      2261 9.44837E-05-2.84237E-05-2.83145E-05 1.18716E-06-2.91772E-19-1.61958E-18
 -1      2262 9.42357E-05-2.83863E-05-2.82221E-05 1.03410E-06-3.07819E-19-1.10184E-18
 -1      2263 9.43471E-05-2.84296E-05-2.82499E-05 9.78118E-07-4.35949E-20-9.11467E-19
 -1      2264 9.45587E-05-2.85049E-05-2.83105E-05 1.13699E-06-3.57341E-19-1.18321E-18
 -1      2265 9.43904E-05-2.84477E-05-2.82628E-05 9.14421E-07-5.00488E-20-7.09948E-19
 -1      2266 9.44928E-05-2.84818E-05-2.82903E-05 8.48779E-07-7.93707E-20-5.39046E-19
 -1      2267 9.46463E-05-2.85597E-05-2.83237E-05 1.02879E-06-2.65523E-20-8.35327E-19
 -1      2268 9.45348E-05-2.84949E-05-2.83048E-05 7.76375E-07-4.30194E-19-2.95882E-19
 -1      2269 9.46237E-05-2.85218E-05-2.83296E-05 7.07000E-07-7.52758E-20-3.94042E-19
 -1      2270 9.47346E-05-2.85966E-05-2.83450E-05 8.89728E-07-8.87636E-20-4.67646E-19
 -1      2271 9.46612E-05-2.85319E-05-2.83432E-05 6.31039E-07 2.46792E-20-7.27263E-19
 -1      2272 9.47340E-05-2.85533E-05-2.83637E-05 5.60485E-07 3.76196E-20-8.50737E-19
 -1      2273 9.48161E-05-2.86225E-05-2.83684E-05 7.35927E-07-3.03540E-19-5.55124E-19
 -1      2274 9.47652E-05-2.85622E-05-2.83746E-05 4.82687E-07-1.81119E-19-1.08222E-18
 -1      2275 9.48201E-05-2.85799E-05-2.83897E-05 4.10763E-07-1.21698E-19-1.14052E-18
 -1      2276 9.48862E-05-2.86431E-05-2.83893E-05 5.75136E-07-3.25505E-19-1.28031E-18
 -1      2277 9.48442E-05-2.85895E-05-2.83965E-05 3.29958E-07-7.90250E-20-1.08788E-18
 -1      2278 9.48797E-05-2.86051E-05-2.84051E-05 2.54031E-07 1.91901E-20-9.72305E-19
 -1      2279 9.49426E-05-2.86639E-05-2.84044E-05 4.08341E-07-4.47429E-20-9.77006E-19
 -1      2280 9.48961E-05-2.86175E-05-2.84065E-05 1.66384E-07-5.18070E-19-1.14276E-18
 -1      2281 9.49104E-05-2.86326E-05-2.84072E-05 8.14412E-08-8.48303E-19-1.37920E-18
 -1      2282 9.49843E-05-2.86904E-05-2.84107E-05 2.30626E-07-4.55913E-19-1.20876E-18
 -1      2283 9.49191E-05-2.86501E-05-2.84020E-05-1.95487E-08-7.82983E-19-1.47676E-18
 -1      2284 9.49087E-05-2.86661E-05-2.83934E-05-1.20965E-07-6.38284E-19-1.45560E-18
 -1      2285 9.50111E-05-2.87285E-05-2.84058E-05 3.14492E-08-9.35652E-19-1.19355E-18
 -1      2286 9.49096E-05-2.86911E-05-2.83799E-05-2.44579E-07-7.20579E-19-1.51494E-18
 -1      2287 9.48698E-05-2.87088E-05-2.83598E-05-3.72416E-07-5.79853E-19-1.30413E-18
 -1      2288 9.50229E-05-2.87844E-05-2.83868E-05-2.05433E-07-7.19712E-19-1.45803E-18
 -1      2289 9.48621E-05-2.87435E-05-2.83365E-05-5.30751E-07-4.46669E-19-1.30335E-18
 -1      2290 9.47852E-05-2.87627E-05-2.83024E-05-6.97223E-07-3.97641E-19-1.22630E-18
 -1      2291 9.50192E-05-2.88643E-05-2.83508E-05-5.02108E-07-5.85228E-19-8.74036E-19
 -1      2292 9.47670E-05-2.88081E-05-2.82676E-05-9.04824E-07-1.53565E-19-1.29858E-18
 -1      2293 9.46422E-05-2.88262E-05-2.82163E-05-1.12352E-06 2.39817E-19-1.59485E-18
 -1      2294 9.49974E-05-2.89724E-05-2.82949E-05-8.86175E-07-1.64792E-19-9.58138E-19
 -1      2295 9.46089E-05-2.88806E-05-2.81683E-05-1.39612E-06 5.02193E-19-1.42092E-18
 -1      2296 9.44215E-05-2.88910E-05-2.80966E-05-1.67996E-06 7.36584E-19-9.97052E-19
 -1      2297 9.49512E-05-2.91084E-05-2.82165E-05-1.38913E-06 4.40146E-19-1.57512E-18
 -1      2298 9.43639E-05-2.89477E-05-2.80344E-05-2.03163E-06 1.03287E-18-8.79210E-19
 -1      2299 9.40951E-05-2.89378E-05-2.79391E-05-2.38899E-06 1.09134E-18-4.69129E-19
 -1      2300 9.48665E-05-2.92621E-05-2.81138E-05-2.04228E-06 1.12880E-18-8.74042E-19
 -1      2301 9.39969E-05-2.89818E-05-2.78627E-05-2.82696E-06 8.38470E-19-2.39895E-19
 -1      2302 9.36243E-05-2.89312E-05-2.77419E-05-3.25565E-06 6.98646E-19-5.11015E-19
 -1      2303 9.47177E-05-2.94071E-05-2.79869E-05-2.86859E-06 9.82774E-19-2.73032E-19
 -1      2304 9.34606E-05-2.89370E-05-2.76530E-05-3.77222E-06-2.83194E-20-9.03878E-19
 -1      2305 9.29610E-05-2.88166E-05-2.75068E-05-4.25159E-06-1.12465E-19-5.35981E-19
 -1      2306 9.44626E-05-2.94936E-05-2.78391E-05-3.86913E-06-4.91399E-20-8.49458E-19
 -1      2307 9.26982E-05-2.87476E-05-2.74093E-05-4.81384E-06-9.51233E-20-5.31191E-19
 -1      2308 9.20537E-05-2.85234E-05-2.72409E-05-5.29658E-06-1.69053E-19-2.35440E-19
 -1      2309 9.40406E-05-2.94450E-05-2.76772E-05-5.00384E-06-7.43788E-20-1.37498E-21
 -1      2310 9.16551E-05-2.83374E-05-2.71407E-05-5.83645E-06 2.18070E-19-3.03678E-20
 -1      2311 9.08622E-05-2.79790E-05-2.69575E-05-6.24403E-06 1.05624E-19 3.06415E-19
 -1      2312 9.33784E-05-2.91634E-05-2.75122E-05-6.16979E-06 9.18456E-20 3.63765E-19
 -1      2313 9.03018E-05-2.76410E-05-2.68619E-05-6.65451E-06-2.66513E-19 1.28426E-19
 -1      2314 8.93847E-05-2.71379E-05-2.66750E-05-6.88167E-06-3.12539E-19 7.72095E-20
 -1      2315 9.24094E-05-2.85527E-05-2.73578E-05-7.18516E-06-2.31214E-19 8.21123E-19
 -1      2316 8.86681E-05-2.66416E-05-2.65916E-05-7.02715E-06-2.61484E-19 4.80896E-19
 -1      2317 8.76898E-05-2.60218E-05-2.64151E-05-6.96115E-06 7.74775E-20 2.12675E-19
 -1      2318 9.11096E-05-2.75602E-05-2.72277E-05-7.79358E-06-5.58609E-20 1.06561E-18
 -1      2319 8.68776E-05-2.54125E-05-2.63495E-05-6.70939E-06-2.68498E-19 1.20648E-20
 -1      2320 8.59441E-05-2.47557E-05-2.61987E-05-6.26532E-06-8.92443E-19-2.59625E-19
 -1      2321 8.95438E-05-2.62318E-05-2.71312E-05-7.70624E-06-4.84026E-19 9.45199E-19
 -1      2322 8.51604E-05-2.41397E-05-2.61532E-05-5.53949E-06-9.06774E-19 9.19482E-20
 -1      2323 8.44067E-05-2.35699E-05-2.60418E-05-4.70282E-06-6.07190E-19 5.05077E-19
 -1      2324 8.79012E-05-2.47518E-05-2.70707E-05-6.69084E-06-5.47943E-19 1.45128E-18
 -1      2325 8.38162E-05-2.30934E-05-2.60155E-05-3.53422E-06-6.08462E-19 5.21481E-19
 -1      2326 8.33739E-05-2.27442E-05-2.59540E-05-2.38934E-06-2.58441E-19 1.50798E-18
 -1      2327 8.64817E-05-2.34284E-05-2.70398E-05-4.68822E-06-2.80069E-19 2.11963E-18
 -1      2328 8.31254E-05-2.25410E-05-2.59446E-05-9.37745E-07-4.07122E-19 9.59711E-19
 -1      2329 8.30806E-05-2.25046E-05-2.59387E-05 3.39642E-07-3.20893E-19 3.13550E-19
 -1      2330 8.56130E-05-2.26038E-05-2.70283E-05-1.89807E-06-7.51209E-19 1.47035E-18
 -1      2331 8.32425E-05-2.26365E-05-2.59450E-05 1.82144E-06-2.46439E-19-4.87643E-19
 -1      2332 8.36045E-05-2.29228E-05-2.59953E-05 3.01312E-06-5.68500E-19-1.27776E-18
 -1      2333 8.55232E-05-2.25171E-05-2.70278E-05 1.23350E-06-9.54066E-19-5.99696E-19
 -1      2334 8.41322E-05-2.33493E-05-2.60182E-05 4.26196E-06-1.53957E-19-6.41027E-19
 -1      2335 8.48297E-05-2.38817E-05-2.61201E-05 5.17757E-06 6.42000E-20-7.59694E-19
 -1      2336 8.62374E-05-2.31943E-05-2.70375E-05 4.14399E-06-3.13257E-19-7.98302E-19
 -1      2337 8.55868E-05-2.44798E-05-2.61620E-05 6.00849E-06-2.43635E-19 1.00564E-19
 -1      2338 8.64949E-05-2.51290E-05-2.63060E-05 6.54183E-06 3.94231E-19 2.88615E-19
 -1      2339 8.75653E-05-2.44358E-05-2.70645E-05 6.34716E-06 6.01700E-19 5.27106E-19
 -1      2340 8.73146E-05-2.57501E-05-2.63682E-05 6.89594E-06 9.08750E-19 4.91603E-19
 -1      2341 8.82959E-05-2.63864E-05-2.65414E-05 7.04168E-06 8.78986E-19 1.44470E-18
 -1      2342 8.91895E-05-2.59094E-05-2.71194E-05 7.58498E-06 1.02598E-18 1.00533E-18
 -1      2343 8.90423E-05-2.69128E-05-2.66223E-05 6.97626E-06-1.64670E-19 9.38546E-19
 -1      2344 8.99831E-05-2.74455E-05-2.68095E-05 6.80752E-06-7.18650E-19 5.56955E-20
 -1      2345 9.07952E-05-2.72898E-05-2.72098E-05 7.86566E-06 4.73428E-20 1.53259E-19
 -1      2346 9.05818E-05-2.78186E-05-2.69042E-05 6.44753E-06-6.25484E-19-6.27218E-19
 -1      2347 9.14096E-05-2.82089E-05-2.70910E-05 6.07453E-06-8.73738E-20-6.59240E-19
 -1      2348 9.21662E-05-2.83623E-05-2.73354E-05 7.39361E-06-1.14156E-18-7.11459E-19
 -1      2349 9.18446E-05-2.84251E-05-2.71925E-05 5.55859E-06 1.90415E-19-2.50933E-19
 -1      2350 9.25280E-05-2.86769E-05-2.73669E-05 5.09074E-06 6.83352E-19 1.08795E-20
 -1      2351 9.32124E-05-2.90526E-05-2.74883E-05 6.45448E-06 3.83398E-20 9.96236E-22
 -1      2352 9.28208E-05-2.87672E-05-2.74676E-05 4.53404E-06 9.75798E-19 1.57946E-19
 -1      2353 9.33587E-05-2.89081E-05-2.76217E-05 4.05671E-06 1.43331E-18 5.96648E-19
 -1      2354 9.39425E-05-2.93965E-05-2.76556E-05 5.31769E-06 1.05996E-18 8.07674E-19
 -1      2355 9.35455E-05-2.89150E-05-2.77152E-05 3.53598E-06 1.46127E-18 3.83621E-19
 -1      2356 9.39543E-05-2.89800E-05-2.78450E-05 3.10301E-06 1.61901E-18 1.28207E-18
 -1      2357 9.44183E-05-2.94855E-05-2.78233E-05 4.18331E-06 1.52306E-18 1.14171E-18
 -1      2358 9.40705E-05-2.89424E-05-2.79270E-05 2.65798E-06 2.13657E-18 1.26053E-18
 -1      2359 9.43733E-05-2.89625E-05-2.80317E-05 2.29487E-06 2.38055E-18 1.56562E-18
 -1      2360 9.47148E-05-2.94207E-05-2.79797E-05 3.17045E-06 1.99793E-18 1.34894E-18
 -1      2361 9.44469E-05-2.89094E-05-2.81001E-05 1.93739E-06 3.21228E-19 1.32197E-18
 -1      2362 9.46675E-05-2.89082E-05-2.81812E-05 1.64869E-06 2.27978E-19 3.23062E-19
 -1      2363 9.48973E-05-2.92860E-05-2.81167E-05 2.33070E-06 1.07620E-18 8.72976E-19
 -1      2364 9.47176E-05-2.88578E-05-2.82355E-05 1.37289E-06 8.41488E-19 1.07990E-19
 -1      2365 9.48765E-05-2.88502E-05-2.82960E-05 1.15056E-06 2.03831E-19-4.22210E-20
 -1      2366 9.50142E-05-2.91394E-05-2.82304E-05 1.66869E-06 1.75780E-19 1.00717E-18
 -1      2367 9.49156E-05-2.88127E-05-2.83372E-05 9.42514E-07 4.77228E-19 3.20218E-19
 -1      2368 9.50295E-05-2.88077E-05-2.83807E-05 7.72295E-07 8.03277E-19 1.49473E-18
 -1      2369 9.50973E-05-2.90145E-05-2.83201E-05 1.16292E-06 6.21371E-19 1.80213E-19
 -1      2370 9.50678E-05-2.87912E-05-2.84096E-05 6.23492E-07 1.25437E-18 2.15472E-18
 -1      2371 9.51503E-05-2.87913E-05-2.84403E-05 4.89924E-07 1.36739E-18 1.94824E-18
 -1      2372 9.52338E-05-2.88804E-05-2.84344E-05 5.05940E-07-6.50471E-19-2.83019E-19
 -1      2373 9.51696E-05-2.89298E-05-2.83864E-05 7.88410E-07 1.44397E-18 8.65271E-19
 -1      2374 9.50785E-05-2.66651E-05-2.92974E-05 3.64557E-06 1.36223E-18 5.12369E-19
 -1      2375 9.59957E-05-2.62420E-05-2.98523E-05 5.37848E-06 1.41624E-18 7.63319E-19
 -1      2376 9.59189E-05-2.52592E-05-3.03035E-05 6.42638E-06 1.58956E-18 2.85124E-19
 -1      2377 9.53045E-05-2.63177E-05-2.96036E-05 3.80635E-06 1.41513E-18-4.44792E-20
 -1      2378 9.33609E-05-2.77038E-05-2.81313E-05-4.43328E-07 9.62122E-19-2.12976E-19
 -1      2379 9.34288E-05-2.75980E-05-2.81891E-05-1.66924E-07 9.82040E-19-1.22103E-19
 -1      2380 9.42771E-05-2.75053E-05-2.86306E-05 3.58999E-07 9.95892E-19-4.74175E-19
 -1      2381 9.33203E-05-2.78688E-05-2.80459E-05-8.42197E-07 6.27276E-19-4.46070E-19
 -1      2382 9.32682E-05-2.77771E-05-2.80549E-05-7.08443E-07 8.65327E-19-2.24410E-19
 -1      2383 9.40266E-05-2.78187E-05-2.83860E-05-4.77309E-07 9.41728E-19-6.23309E-19
 -1      2384 9.34225E-05-2.80058E-05-2.80327E-05-1.01342E-06 3.46198E-19-5.47212E-19
 -1      2385 9.33044E-05-2.79240E-05-2.80140E-05-9.65996E-07 4.70196E-19-3.35052E-19
 -1      2386 9.39467E-05-2.80275E-05-2.82590E-05-9.19154E-07 6.73444E-19-6.02079E-19
 -1      2387 9.36030E-05-2.81224E-05-2.80613E-05-1.04508E-06 6.26903E-19-7.00855E-19
 -1      2388 9.34548E-05-2.80504E-05-2.80281E-05-1.04954E-06 3.76796E-19-5.72032E-19
 -1      2389 9.39808E-05-2.81773E-05-2.82066E-05-1.11154E-06 5.73551E-19-4.67377E-19
 -1      2390 9.38186E-05-2.82215E-05-2.81120E-05-9.93803E-07 6.30627E-19-6.01479E-19
 -1      2391 9.36623E-05-2.81591E-05-2.80727E-05-1.02809E-06 6.81225E-19-5.83132E-19
 -1      2392 9.40833E-05-2.82896E-05-2.82004E-05-1.14920E-06 6.90085E-19-3.00897E-19
 -1      2393 9.40507E-05-2.83078E-05-2.81751E-05-8.90637E-07 3.48201E-19-3.73001E-19
 -1      2394 9.38942E-05-2.82531E-05-2.81330E-05-9.43569E-07 5.27754E-19-5.28861E-19
 -1      2395 9.42234E-05-2.83760E-05-2.82220E-05-1.09156E-06 6.13732E-19-2.77646E-19
 -1      2396 9.42582E-05-2.83739E-05-2.82361E-05-7.70328E-07-1.18426E-19-2.51907E-19
 -1      2397 9.41234E-05-2.83314E-05-2.81984E-05-8.27366E-07 1.15531E-19-2.47942E-19
 -1      2398 9.43755E-05-2.84421E-05-2.82579E-05-9.80695E-07 1.50472E-19-3.85528E-19
 -1      2399 9.44444E-05-2.84265E-05-2.82936E-05-6.44661E-07-6.14922E-20-3.59902E-19
 -1      2400 9.43275E-05-2.83928E-05-2.82599E-05-7.02079E-07 1.01589E-19-1.94738E-19
 -1      2401 9.45194E-05-2.84892E-05-2.82987E-05-8.48069E-07-4.07638E-20-3.28081E-19
 -1      2402 9.46041E-05-2.84662E-05-2.83450E-05-5.23804E-07-1.31181E-20-8.35097E-19
 -1      2403 9.45061E-05-2.84406E-05-2.83160E-05-5.77577E-07-3.12811E-20-7.88114E-19
 -1      2404 9.46503E-05-2.85228E-05-2.83401E-05-7.09276E-07 1.84709E-19-5.22311E-19
 -1      2405 9.47369E-05-2.84937E-05-2.83900E-05-4.15372E-07 9.42552E-20-5.15598E-19
 -1      2406 9.46566E-05-2.84756E-05-2.83654E-05-4.62348E-07-9.97301E-21-7.93530E-19
 -1      2407 9.47636E-05-2.85440E-05-2.83793E-05-5.76288E-07-2.74563E-19-1.13278E-18
 -1      2408 9.48489E-05-2.85088E-05-2.84311E-05-3.23037E-07 3.08444E-20-2.46319E-19
 -1      2409 9.47816E-05-2.84980E-05-2.84092E-05-3.61019E-07 2.38794E-19-3.37337E-19
 -1      2410 9.48589E-05-2.85531E-05-2.84163E-05-4.55885E-07 1.76333E-20-1.14256E-18
 -1      2411 9.49338E-05-2.85080E-05-2.84670E-05-2.66015E-07 2.18417E-19-5.88241E-19
 -1      2412 9.48807E-05-2.85060E-05-2.84480E-05-2.86074E-07 3.01008E-19-3.80739E-19
 -1      2413 9.49325E-05-2.85463E-05-2.84506E-05-3.60853E-07 2.87845E-19-9.29641E-19
 -1      2414 9.50040E-05-2.84873E-05-2.85045E-05-2.55828E-07 6.19437E-19-1.24060E-18
 -1      2415 9.49555E-05-2.84955E-05-2.84844E-05-2.50756E-07 3.82951E-19-9.08539E-19
 -1      2416 9.49822E-05-2.85185E-05-2.84838E-05-3.06472E-07 4.34439E-19-9.33325E-19
 -1      2417 9.50675E-05-2.84369E-05-2.85507E-05-3.21020E-07 6.83917E-19-1.08259E-18
 -1      2418 9.50139E-05-2.84591E-05-2.85249E-05-2.74562E-07 9.58953E-19-1.26754E-18
 -1      2419 9.50077E-05-2.84574E-05-2.85207E-05-3.10558E-07 9.10380E-19-1.37538E-18
 -1      2420 9.51341E-05-2.83387E-05-2.86169E-05-5.10407E-07 1.25639E-19-8.29488E-19
 -1      2421 9.50611E-05-2.83824E-05-2.85782E-05-3.94493E-07 4.09526E-19-1.04427E-18
 -1      2422 9.50021E-05-2.83409E-05-2.85676E-05-4.07623E-07 3.48903E-19-1.24599E-18
 -1      2423 9.52148E-05-2.81604E-05-2.87200E-05-9.05506E-07-3.04224E-19-8.08604E-19
 -1      2424 9.51003E-05-2.82389E-05-2.86573E-05-6.73202E-07-6.35705E-20-7.17935E-19
 -1      2425 9.49479E-05-2.81298E-05-2.86332E-05-6.54639E-07 3.97957E-20-7.54667E-19
 -1      2426 9.53109E-05-2.78226E-05-2.88944E-05-1.69067E-06-6.83278E-19-6.99842E-19
 -1      2427 9.51222E-05-2.79699E-05-2.87837E-05-1.23085E-06-4.73187E-19-8.54316E-19
 -1      2428 9.48016E-05-2.77469E-05-2.87318E-05-1.16139E-06-2.34565E-19-6.57346E-19
 -1      2429 9.53910E-05-2.72545E-05-2.91566E-05-3.01512E-06-5.08422E-19-1.08930E-18
 -1      2430 9.51073E-05-2.74960E-05-2.89842E-05-2.24160E-06-6.14478E-19-8.14397E-19
 -1      2431 9.44759E-05-2.70688E-05-2.88741E-05-2.07032E-06-5.17221E-19-1.05800E-18
 -1      2432 9.53717E-05-2.62759E-05-2.95465E-05-5.22944E-06-7.68947E-21-1.06999E-18
 -1      2433 9.49605E-05-2.66839E-05-2.92775E-05-3.92745E-06-3.54890E-19-1.12432E-18
 -1      2434 9.38111E-05-2.59324E-05-2.90607E-05-3.56630E-06-4.49442E-19-1.36368E-18
 -1      2435 9.50275E-05-2.46438E-05-3.00752E-05-8.77934E-06-2.77628E-19-7.46425E-19
 -1      2436 9.44904E-05-2.53058E-05-2.96839E-05-6.67685E-06 1.89080E-19-7.73834E-19
 -1      2437 9.24746E-05-2.40341E-05-2.92717E-05-5.94759E-06-9.28428E-20-9.62670E-19
 -1      2438 9.39364E-05-2.21197E-05-3.06649E-05-1.41648E-05-3.43392E-19-6.85877E-19
 -1      2439 9.33026E-05-2.30746E-05-3.01618E-05-1.09722E-05-4.48405E-19-8.77526E-19
 -1      2440 8.98769E-05-2.09916E-05-2.94052E-05-9.54606E-06-2.93093E-19-8.93358E-19
 -1      2441 9.12275E-05-1.86759E-05-3.09233E-05-2.21228E-05-1.01942E-18-2.47827E-19
 -1      2442 9.05959E-05-1.96800E-05-3.04798E-05-1.74720E-05-8.75323E-19-8.08850E-19
 -1      2443 8.49019E-05-1.64055E-05-2.91406E-05-1.48283E-05-7.04377E-19-7.06910E-19
 -1      2444 8.68044E-05-1.66415E-05-2.97280E-05-3.13583E-05-1.47435E-18 3.19331E-19
 -1      2445 8.58883E-05-1.59876E-05-2.99463E-05-2.64157E-05-1.20750E-18-2.18217E-19
 -1      2446 7.62936E-05-1.08636E-05-2.76488E-05-2.16082E-05-1.36209E-18-1.23262E-18
 -1      2447 8.96978E-05-2.39288E-05-2.75967E-05-3.99155E-05-1.05445E-18 1.35091E-18
 -1      2448 8.66606E-05-1.86492E-05-2.87649E-05-3.69453E-05-1.13217E-18 1.03359E-18
 -1      2449 1.25052E-04-5.80068E-05-2.88310E-05 3.29325E-05 3.37543E-19 3.66829E-18
 -1      2450 4.62074E-05-2.80550E-05-7.31349E-06-5.08155E-05 5.66242E-19-1.60936E-19
 -1      2451 6.23709E-05-3.57284E-05-1.11558E-05-5.63391E-05 1.00670E-18 6.96473E-19
 -1      2452 1.10632E-04-4.52438E-05-2.71812E-05 4.09967E-05-1.19855E-19 2.83174E-18
 -1      2453 1.84081E-05-1.01385E-05-2.78696E-06-2.50412E-05-3.38813E-19-1.83383E-19
 -1      2454 2.93382E-05-1.57860E-05-5.24030E-06-4.04508E-05-5.22196E-19-6.65556E-19
 -1      2455 8.42300E-05-1.81065E-05-2.79081E-05 3.72694E-05 8.34539E-19 6.58992E-19
 -1      2456 8.82553E-05-2.53006E-05-2.65328E-05 4.03212E-05 1.00320E-18 9.27289E-19
 -1      2457 9.37761E-05-2.31638E-05-3.03325E-05 1.16161E-05 6.56742E-19 2.24833E-18
 -1      2458 9.46592E-05-2.23120E-05-3.08820E-05 1.48603E-05 9.44759E-19 2.81987E-18
 -1      2459 9.48135E-05-2.53565E-05-2.98054E-05 7.05334E-06 8.39668E-19-8.72808E-19
 -1      2460 9.55170E-05-2.47490E-05-3.02321E-05 9.20072E-06 1.05188E-18 1.16685E-18
 -1      2461 9.00020E-05-2.08621E-05-2.95098E-05 1.02284E-05 1.22726E-18 1.92339E-18
 -1      2462 9.51892E-05-2.67197E-05-2.93643E-05 4.11930E-06-9.50897E-19-2.89164E-19
 -1      2463 9.57009E-05-2.63368E-05-2.96549E-05 5.46006E-06-6.78990E-19-4.96158E-19
 -1      2464 9.25997E-05-2.39467E-05-2.93604E-05 6.34945E-06-5.35669E-19 1.90786E-19
 -1      2465 9.52874E-05-2.75551E-05-2.90381E-05 2.24961E-06-4.96778E-19 4.76689E-19
 -1      2466 9.56341E-05-2.73220E-05-2.92279E-05 3.07446E-06-1.44416E-18 2.04444E-19
 -1      2467 9.39543E-05-2.59188E-05-2.91272E-05 3.73293E-06-1.49556E-18 2.06942E-18
 -1      2468 9.52941E-05-2.80112E-05-2.88398E-05 1.21208E-06-1.08896E-18 4.32026E-19
 -1      2469 9.54939E-05-2.78785E-05-2.89468E-05 1.66208E-06-1.69058E-19 1.33856E-19
 -1      2470 9.46210E-05-2.70941E-05-2.89268E-05 2.08877E-06-5.15509E-19 7.04814E-19
 -1      2471 9.52764E-05-2.82715E-05-2.87183E-05 6.21725E-07-1.08807E-18-6.93843E-19
 -1      2472 9.53909E-05-2.81948E-05-2.87794E-05 8.71312E-07-8.17139E-19 6.38294E-21
 -1      2473 9.49406E-05-2.77589E-05-2.87863E-05 1.13282E-06-2.74108E-19 1.00158E-18
 -1      2474 9.52625E-05-2.84200E-05-2.86475E-05 2.96754E-07 6.52401E-19-1.19360E-18
 -1      2475 9.53231E-05-2.83746E-05-2.86813E-05 4.31011E-07-6.06681E-19-1.52504E-18
 -1      2476 9.50977E-05-2.81404E-05-2.86944E-05 5.84124E-07-4.15931E-20-7.29177E-19
 -1      2477 9.52430E-05-2.85050E-05-2.86008E-05 1.00562E-07 4.15283E-18-1.40097E-18
 -1      2478 9.52516E-05-2.85069E-05-2.86050E-05 1.14049E-07 4.41182E-18-9.19601E-19
 -1      2479 9.52144E-05-2.84736E-05-2.86045E-05 1.13242E-07 3.63155E-18 1.00066E-18
 -1      2480 9.50129E-05-2.83790E-05-2.85592E-05-2.65189E-07-2.04745E-18-3.29908E-18
 -1      2481 9.50038E-05-2.83379E-05-2.85735E-05-1.69044E-07-1.73954E-18-2.56481E-18
 -1      2482 9.51054E-05-2.85480E-05-2.85237E-05-4.68741E-07-9.30142E-19 1.23167E-18
 -1      2483 9.50522E-05-2.84634E-05-2.85422E-05-3.87850E-07-1.70551E-18-7.11990E-19
 -1      2484 9.49482E-05-2.83252E-05-2.85485E-05-4.07485E-07-1.84634E-18-1.10290E-18
 -1      2485 9.50200E-05-2.83244E-05-2.85878E-05-4.64457E-08-2.12863E-18-1.82908E-18
 -1      2486 9.50535E-05-2.83262E-05-2.85970E-05 3.19371E-08-1.10097E-18 2.36451E-18
 -1      2487 9.49269E-05-2.82257E-05-2.85810E-05-1.32388E-07-1.46715E-18-2.51157E-18
 -1      2488 9.52709E-05-2.87973E-05-2.84853E-05-5.78606E-07-6.90414E-19 4.78859E-18
 -1      2489 9.51893E-05-2.86861E-05-2.85058E-05-5.45461E-07-4.09129E-19 3.37667E-18
 -1      2490 9.50929E-05-2.85555E-05-2.85141E-05-6.28752E-07-8.72844E-19 2.77920E-18
 -1      2491 9.54597E-05-2.90674E-05-2.84490E-05-5.52615E-07-8.63580E-19 3.34962E-21
 -1      2492 9.53738E-05-2.89552E-05-2.84683E-05-5.81214E-07-2.01724E-19 2.65233E-18
 -1      2493 9.53163E-05-2.88623E-05-2.84809E-05-7.15638E-07-1.07254E-18 3.61097E-18
 -1      2494 9.56185E-05-2.92952E-05-2.84192E-05-3.92735E-07-4.33734E-20-1.60064E-18
 -1      2495 9.55524E-05-2.92079E-05-2.84344E-05-4.77467E-07-6.48342E-20-6.42674E-19
 -1      2496 9.55513E-05-2.91712E-05-2.84514E-05-6.35138E-07-1.36266E-19 8.78178E-19
 -1      2497 9.57059E-05-2.94306E-05-2.83997E-05-1.40551E-07 2.14618E-19 2.13242E-19
 -1      2498 9.56767E-05-2.93875E-05-2.84083E-05-2.59187E-07 1.25737E-18-1.57497E-18
 -1      2499 9.57316E-05-2.94115E-05-2.84274E-05-4.04868E-07 4.39901E-19-1.01870E-18
 -1      2500 9.57038E-05-2.94503E-05-2.83922E-05 1.33991E-07-1.21231E-18-7.64334E-19
 -1      2501 9.57172E-05-2.94584E-05-2.83933E-05 1.40324E-08-2.52547E-19 9.54114E-19
 -1      2502 9.58129E-05-2.95341E-05-2.84103E-05-8.82746E-08-2.98449E-20 1.61005E-20
 -1      2503 9.56148E-05-2.93571E-05-2.83961E-05 3.71136E-07-1.69193E-18-2.97869E-18
 -1      2504 9.56675E-05-2.94132E-05-2.83903E-05 2.76326E-07-1.56917E-18-2.37432E-18
 -1      2505 9.57804E-05-2.95236E-05-2.84005E-05 2.37438E-07-1.80712E-18-1.70506E-18
 -1      2506 9.54639E-05-2.91752E-05-2.84101E-05 5.03617E-07-1.38265E-18-4.09173E-18
 -1      2507 9.55388E-05-2.92649E-05-2.83987E-05 4.63365E-07-9.31498E-19-2.89278E-18
 -1      2508 9.56431E-05-2.93889E-05-2.83981E-05 4.96576E-07-1.75370E-18-2.68635E-18
 -1      2509 9.53099E-05-2.89794E-05-2.84283E-05 5.19562E-07-1.83091E-18-4.61150E-18
 -1      2510 9.53918E-05-2.90847E-05-2.84140E-05 5.38411E-07-1.38061E-18-5.55495E-18
 -1      2511 9.54741E-05-2.92036E-05-2.84023E-05 6.26360E-07-8.21081E-19-3.80272E-18
 -1      2512 9.52820E-05-2.90052E-05-2.84081E-05 6.49080E-07 2.28421E-19-3.14832E-18
 -1      2513 1.64870E-05-1.26676E-05-1.34432E-06-1.00997E-05-1.25139E-18-3.02264E-18
 -1      2514 2.91367E-05-1.74993E-05-4.55760E-06-2.45888E-05-1.14942E-18-3.77861E-18
 -1      2515 9.28289E-05-4.58301E-05-2.00774E-05-3.76353E-05-2.53686E-19 2.85249E-18
 -1      2516 1.64116E-04-3.78923E-05-5.47164E-05 5.04616E-06-1.79571E-18 2.55380E-19
 -1      2517 1.58877E-04-4.63205E-05-4.84081E-05 1.32705E-05-1.48787E-18 1.31671E-18
 -1      2518 9.14697E-05-2.00170E-05-3.07185E-05 1.83561E-05 1.50031E-19 2.63237E-18
 -1      2519 9.25230E-05-1.92782E-05-3.12101E-05 2.27499E-05-1.32481E-20 2.07857E-18
 -1      2520 8.51369E-05-1.63538E-05-2.92595E-05 1.56915E-05 3.58335E-20 2.78345E-18
 -1      2521 8.78258E-05-1.07890E-05-3.30515E-05-1.51636E-06 1.19933E-19-2.56431E-18
 -1      2522 8.79319E-05-1.09113E-05-3.30430E-05-2.63375E-06-5.46657E-20-2.56295E-18
 -1      2523 8.93304E-05-1.30829E-05-3.26795E-05-2.92577E-06-1.30315E-19-2.46451E-18
 -1      2524 8.90803E-05-1.27472E-05-3.27174E-05-9.39693E-07 1.48592E-19-2.41784E-18
 -1      2525 8.88633E-05-3.58403E-05-2.23085E-05-4.10809E-05-8.38986E-19 2.63215E-18
 -1      2526 9.00381E-05-2.91323E-05-2.54275E-05-4.23139E-05-8.69479E-19 2.24485E-18
 -1      2527 6.94330E-05-1.91731E-05-2.08369E-05-3.99014E-05-1.54584E-18 5.50571E-19
 -1      2528 7.32017E-05-3.65031E-05-1.55510E-05-3.95214E-05-4.66715E-19 1.58205E-18
 -1      2529 3.90068E-05-2.24391E-05-7.02895E-06 2.95150E-05 1.28474E-18 1.26293E-18
 -1      2530 2.19170E-05-1.43163E-05-2.89061E-06 1.67313E-05 1.22597E-18 1.02533E-18
 -1      2531 4.95930E-05-2.59533E-05-9.85029E-06-3.37238E-05-1.43339E-18-1.53525E-18
 -1      2532 1.69238E-04-1.18275E-05-6.78349E-05 8.18715E-07-2.11758E-21 5.15631E-20
 -1      2533 1.67919E-04-8.71848E-06-6.87941E-05 1.05982E-06-1.69407E-19-6.29928E-19
 -1      2534 1.46015E-05-9.35300E-06-1.69611E-06 2.04711E-05-6.60580E-19-9.70276E-19
 -1      2535 1.23112E-05-1.00505E-05-4.25107E-07 4.20408E-06-1.06976E-18-1.79486E-18
 -1      2536 4.02480E-05-2.57275E-05-5.96039E-06 4.94397E-05-1.22121E-18-1.37601E-18
 -1      2537 2.57582E-05-1.74350E-05-3.05347E-06 3.87096E-05-7.54706E-19-1.09479E-18
 -1      2538 7.83780E-05-4.14984E-05-1.56653E-05 5.75223E-05-6.38028E-19-2.07894E-18
 -1      2539 5.92354E-05-3.52202E-05-9.98832E-06 5.39138E-05-9.48677E-19-1.83976E-18
 -1      2540 1.16098E-04-5.37688E-05-2.70197E-05 5.04125E-05-6.01393E-19-5.47183E-19
 -1      2541 9.73089E-05-4.95033E-05-2.03044E-05 5.38002E-05-3.43895E-19-2.04159E-18
 -1      2542 9.27999E-05-4.61972E-05-1.95377E-05 5.41874E-05 3.98529E-19-1.43741E-18
 -1      2543 1.51578E-04-5.45815E-05-4.20430E-05 2.73448E-05-1.70000E-18 1.91705E-18
 -1      2544 1.37212E-04-5.67385E-05-3.43374E-05 3.61752E-05-1.65574E-18 9.52489E-19
 -1      2545 1.61551E-04-1.93384E-05-6.16258E-05-3.89893E-06-1.63499E-18-1.43043E-18
 -1      2546 1.61319E-04-2.62531E-05-5.83387E-05-2.71363E-06-1.67014E-18-1.05456E-18
 -1      2547 1.65292E-04-8.11243E-06-6.77783E-05-1.24364E-06-6.81438E-19-7.76465E-19
 -1      2548 1.60920E-04-1.03445E-05-6.51763E-05-2.51885E-06-1.38871E-18-1.11597E-18
 -1      2549 1.67963E-04-2.30110E-05-6.24537E-05-1.23985E-06 9.10984E-19-1.17738E-19
 -1      2550 1.71179E-04-1.76389E-05-6.61645E-05 2.11711E-07 9.48889E-19 2.69145E-19
 -1      2551 1.57356E-04-1.09656E-05-6.28347E-05 5.23226E-06 2.62368E-19-6.26063E-19
 -1      2552 1.61878E-04-4.19022E-05-5.16817E-05-1.21932E-05 1.50417E-18-2.19043E-18
 -1      2553 1.67805E-04-3.44491E-05-5.75706E-05-6.11966E-06 1.03116E-18-1.20490E-18
 -1      2554 1.45790E-04-5.43236E-05-3.94220E-05-3.02622E-05 2.21637E-18-1.41920E-18
 -1      2555 1.56512E-04-5.11222E-05-4.55402E-05-2.24690E-05 1.83081E-18-2.47016E-18
 -1      2556 1.19919E-04-5.47386E-05-2.79262E-05-4.63413E-05 2.74545E-18 7.36919E-19
 -1      2557 1.36135E-04-5.56267E-05-3.45921E-05-4.11562E-05 1.80884E-18-3.84553E-19
 -1      2558 1.43686E-04-5.88614E-05-3.62688E-05-2.88906E-05 2.11176E-18-1.53207E-18
 -1      2559 7.96337E-05-4.36546E-05-1.52740E-05-5.55235E-05 1.58967E-18 7.77894E-19
 -1      2560 9.91885E-05-4.88409E-05-2.15628E-05-5.56820E-05 2.29038E-18 1.18685E-18
 -1      2561 7.92415E-05-4.03233E-05-1.62974E-05-5.53914E-05 6.17064E-19 7.36283E-19
 -1      2562 1.52653E-05-9.75281E-06-1.76300E-06 4.23527E-06 9.47459E-19 1.79317E-18
 -1      2563 1.24966E-05-7.30373E-06-1.61984E-06-9.67674E-06 2.86403E-20 5.22619E-19
 -1      2564 9.07873E-05-1.50424E-05-3.24581E-05-6.78312E-06-8.20652E-19-2.50296E-18
 -1      2565 8.97034E-05-1.31863E-05-3.28451E-05-7.94129E-06-8.67564E-19-2.63240E-18
 -1      2566 9.03372E-05-1.38974E-05-3.28180E-05-9.17376E-06-1.07336E-18-2.46855E-18
 -1      2567 7.79900E-05-1.17623E-05-2.80426E-05 2.32833E-05-2.62898E-19 1.67519E-18
 -1      2568 6.84330E-05-1.06183E-05-2.41945E-05 3.20600E-05 8.80438E-19 9.21519E-19
 -1      2569 6.91607E-05-1.00762E-05-2.48391E-05-3.15404E-05-1.40427E-18-8.20987E-19
 -1      2570 4.44216E-05-1.94222E-05-1.01967E-05-4.42432E-05-9.96323E-20-7.68047E-19
 -1      2571 2.32083E-05-3.85101E-06-7.65225E-06-1.63086E-05-3.69730E-19 4.03188E-19
 -1      2572 9.52821E-05-2.84910E-05-2.86211E-05 1.75925E-07 2.13691E-18-1.18694E-18
 -1      2573 9.51903E-05-2.83792E-05-2.86321E-05 2.51388E-07 1.33425E-18-1.69556E-18
 -1      2574 9.50289E-05-2.82696E-05-2.86071E-05 9.43449E-08-9.00218E-19 9.73485E-19
 -1      2575 9.51180E-05-2.83787E-05-2.86063E-05 1.06130E-07 4.75902E-19 2.62762E-18
 -1      2576 9.51681E-05-2.84140E-05-2.86079E-05 1.27921E-07 2.00347E-18 5.25971E-19
 -1      2577 2.18551E-05-4.98483E-06-6.62879E-06-5.59675E-06-8.04152E-19-2.44750E-18
 -1      2578 2.64733E-05-6.48421E-06-8.00397E-06 1.45351E-05 7.92452E-19 1.15535E-18
 -1      2579 7.92154E-05-3.33525E-05-1.93330E-05 3.97750E-05 1.11830E-18 1.28707E-18
 -1      2580 1.55404E-04-3.28463E-05-5.27393E-05-4.42832E-06-1.28685E-18-6.62380E-19
 -1      2581 1.16408E-04-5.50205E-05-2.60354E-05-4.76824E-05 2.14490E-18 4.36645E-19
 -1      2582 1.60472E-04-2.82747E-05-5.67987E-05 3.45439E-06 1.53186E-18 1.49078E-19
 -1      2583 1.51834E-04-4.29376E-06-6.34691E-05-3.63816E-07-8.91290E-19-1.36052E-18
 -1      2584 1.49936E-04-1.22998E-05-5.93294E-05-8.11637E-06-1.71270E-18-1.46780E-18
 -1      2585 1.30004E-04-5.77067E-05-3.06968E-05 3.94517E-05-8.29669E-19 7.94305E-19
 -1      2586 9.20530E-05-1.62394E-05-3.25349E-05-1.03773E-05-1.39035E-18-2.00124E-18
 -1      2587 5.69826E-05-2.85573E-05-1.16380E-05 5.17332E-05-7.52801E-19-1.43509E-18
 -1      2588 2.41515E-05-1.02997E-05-5.25558E-06 2.91151E-05-4.74127E-19-1.18754E-18
 -1      2589 2.54898E-05-2.37156E-06-9.07541E-06 1.86626E-05-1.62313E-19-7.86894E-19
 -1      2590 3.45384E-05-1.05549E-05-9.95451E-06 3.57160E-05-3.69730E-19-1.00479E-18
 -1      2591 4.84828E-05-1.75061E-05-1.27333E-05-3.21074E-05-1.45012E-18-1.53927E-18
 -1      2592 1.53947E-04-5.29247E-05-4.33288E-05 1.33336E-05-1.65666E-18 1.23497E-18
 -1      2593 1.57122E-04-4.91372E-05-4.63649E-05-9.23274E-06 1.57155E-18-1.27203E-18
 -1      2594 5.28681E-05-2.03180E-05-1.32820E-05 3.55211E-05 8.74985E-19 9.85946E-19
 -1      2595 9.05438E-05-1.51628E-05-3.23285E-05 3.18956E-06 8.65936E-19-2.17574E-18
 -1      2596 9.03522E-05-1.48907E-05-3.23609E-05 2.25708E-06 7.12928E-19-2.23862E-18
 -1      2597 9.02168E-05-1.46873E-05-3.23896E-05 1.41997E-06 5.79361E-19-2.29846E-18
 -1      2598 9.01511E-05-1.45947E-05-3.24006E-05 4.64427E-07 4.39648E-19-2.22254E-18
 -1      2599 9.14021E-05-1.65819E-05-3.20530E-05 1.63773E-06 6.02752E-19-2.17775E-18
 -1      2600 9.21384E-05-1.75502E-05-3.20061E-05 6.46144E-06 1.42643E-18-1.63050E-18
 -1      2601 9.16048E-05-1.67451E-05-3.21054E-05 5.62484E-06 1.30176E-18-1.76617E-18
 -1      2602 9.35123E-05-1.97629E-05-3.16757E-05 7.58705E-06 1.67469E-18-1.01078E-18
 -1      2603 9.27587E-05-1.85083E-05-3.18407E-05 6.99364E-06 1.51282E-18-1.30795E-18
 -1      2604 9.34168E-05-1.98183E-05-3.15093E-05 5.74124E-06 1.43653E-18-1.35553E-18
 -1      2605 9.56299E-05-2.40310E-05-3.06595E-05 7.16526E-06 1.62855E-18 1.13191E-20
 -1      2606 9.45641E-05-2.78609E-05-2.85879E-05-4.75326E-07 9.07662E-19-6.06169E-19
 -1      2607 9.46491E-05-2.76746E-05-2.86848E-05-1.35703E-07 1.07946E-18-5.17730E-19
 -1      2608 9.44919E-05-2.81384E-05-2.84370E-05-9.19676E-07 6.10694E-19-5.01997E-19
 -1      2609 9.45054E-05-2.80111E-05-2.84865E-05-7.47177E-07 7.02074E-19-4.99724E-19
 -1      2610 9.50128E-05-2.79207E-05-2.87618E-05-4.86963E-07 7.99086E-19-5.68586E-19
 -1      2611 9.47292E-05-2.74288E-05-2.88459E-05 3.45559E-07 9.27292E-19-5.06500E-19
 -1      2612 9.49155E-05-2.71436E-05-2.90157E-05 9.44042E-07 9.66433E-19-4.36900E-19
 -1      2613 9.51297E-05-2.73956E-05-2.90389E-05 3.28090E-07 9.97525E-19-4.79600E-19
 -1      2614 9.52380E-05-2.39807E-05-3.05190E-05-5.28828E-06-9.49701E-19-1.49938E-18
 -1      2615 9.51687E-05-2.50022E-05-3.00906E-05-3.78119E-06-8.95101E-19-1.42521E-18
 -1      2616 9.28545E-05-2.55070E-05-2.88968E-05 2.55113E-06-1.01031E-18 2.07839E-18
 -1      2617 9.23220E-05-2.46387E-05-2.89924E-05 3.52542E-06-1.93761E-18 2.00800E-18
 -1      2618 9.53648E-05-2.59022E-05-2.97401E-05-2.68627E-06-9.03236E-19-1.31304E-18
 -1      2619 9.52007E-05-2.64901E-05-2.94592E-05-1.70433E-06-7.90341E-19-1.34411E-18
 -1      2620 9.52095E-05-2.46906E-05-3.02209E-05-3.51777E-06-8.32409E-19-1.46802E-18
 -1      2621 9.52226E-05-2.70038E-05-2.92133E-05-9.62272E-07-7.65168E-19-1.13895E-18
 -1      2622 9.50891E-05-2.73584E-05-2.90336E-05-3.56138E-07-7.59170E-19-1.27267E-18
 -1      2623 9.54174E-05-2.63269E-05-2.96163E-05-1.60212E-06-7.89729E-19-1.19337E-18
 -1      2624 9.50558E-05-2.76646E-05-2.88660E-05 1.11252E-07-6.90645E-19-1.20637E-18
 -1      2625 9.49787E-05-2.78896E-05-2.87554E-05 4.62810E-07-5.93568E-19-1.15278E-18
 -1      2626 9.54173E-05-2.73218E-05-2.91911E-05-3.21324E-07-6.99774E-19-1.16770E-18
 -1      2627 9.49361E-05-2.80752E-05-2.86444E-05 7.32380E-07-6.41372E-19-1.14116E-18
 -1      2628 9.49083E-05-2.82229E-05-2.85805E-05 9.15592E-07-8.20665E-19-1.29503E-18
 -1      2629 9.53557E-05-2.79372E-05-2.89003E-05 4.68668E-07-6.44757E-19-1.25944E-18
 -1      2630 9.48726E-05-2.83355E-05-2.85098E-05 1.04914E-06-9.38355E-19-1.19528E-18
 -1      2631 9.48797E-05-2.84338E-05-2.84768E-05 1.12314E-06-6.40291E-19-1.27491E-18
 -1      2632 9.52902E-05-2.83196E-05-2.87070E-05 9.09740E-07-8.26229E-19-1.32065E-18
 -1      2633 9.48542E-05-2.85004E-05-2.84341E-05 1.16669E-06-2.33806E-19-1.52978E-18
 -1      2634 9.48827E-05-2.85658E-05-2.84211E-05 1.17171E-06-2.06552E-19-1.48000E-18
 -1      2635 9.52393E-05-2.85542E-05-2.85833E-05 1.11252E-06-5.05757E-19-1.28456E-18
 -1      2636 9.48666E-05-2.86029E-05-2.83973E-05 1.15816E-06-7.02862E-20-1.34381E-18
 -1      2637 9.49060E-05-2.86459E-05-2.83965E-05 1.12140E-06-4.74906E-20-1.03138E-18
 -1      2638 9.52054E-05-2.86931E-05-2.85080E-05 1.15897E-06-1.60581E-19-1.27512E-18
 -1      2639 9.48969E-05-2.86644E-05-2.83852E-05 1.07352E-06-1.03799E-19-8.11332E-19
 -1      2640 9.49399E-05-2.86921E-05-2.83912E-05 1.01296E-06 1.16859E-19-8.31046E-19
 -1      2641 9.51856E-05-2.87702E-05-2.84656E-05 1.10729E-06 1.19540E-19-8.42666E-19
 -1      2642 9.49357E-05-2.86995E-05-2.83874E-05 9.45909E-07 1.06775E-19-9.22956E-19
 -1      2643 9.49773E-05-2.87175E-05-2.83965E-05 8.72890E-07-1.22254E-19-8.37343E-19
 -1      2644 9.51761E-05-2.88084E-05-2.84445E-05 9.97367E-07 2.93093E-20-1.16520E-18
 -1      2645 9.49766E-05-2.87194E-05-2.83968E-05 7.96020E-07-4.21683E-19-6.25216E-19
 -1      2646 9.50138E-05-2.87320E-05-2.84062E-05 7.16900E-07-3.48069E-19-8.33803E-19
 -1      2647 9.51739E-05-2.88244E-05-2.84362E-05 8.55154E-07-2.64446E-19-1.17701E-18
 -1      2648 9.50159E-05-2.87330E-05-2.84078E-05 6.35121E-07-3.13026E-19-8.29383E-19
 -1      2649 9.50469E-05-2.87439E-05-2.84156E-05 5.52386E-07-1.04704E-19-7.71667E-19
 -1      2650 9.51771E-05-2.88310E-05-2.84344E-05 6.95966E-07-2.75948E-19-3.61836E-19
 -1      2651 9.50520E-05-2.87482E-05-2.84166E-05 4.67022E-07-1.26737E-19-7.62330E-19
 -1      2652 9.50760E-05-2.87612E-05-2.84211E-05 3.79927E-07-2.02833E-20-8.59769E-19
 -1      2653 9.51855E-05-2.88393E-05-2.84342E-05 5.26780E-07-2.33018E-19-6.33474E-20
 -1      2654 9.50853E-05-2.87729E-05-2.84200E-05 2.89217E-07-2.79929E-19-9.20842E-19
 -1      2655 9.51020E-05-2.87915E-05-2.84199E-05 1.94098E-07-5.87533E-19-1.03430E-18
 -1      2656 9.52007E-05-2.88592E-05-2.84321E-05 3.47699E-07-3.39124E-19-1.04661E-18
 -1      2657 9.51178E-05-2.88153E-05-2.84152E-05 9.33777E-08-9.55009E-19-9.29233E-19
 -1      2658 9.51272E-05-2.88435E-05-2.84092E-05-1.62869E-08-1.09520E-18-8.25638E-19
 -1      2659 9.52263E-05-2.89015E-05-2.84250E-05 1.52707E-07-6.13496E-19-9.51308E-19
 -1      2660 9.51530E-05-2.88845E-05-2.83999E-05-1.34656E-07-7.98914E-19-6.83902E-19
 -1      2661 9.51552E-05-2.89265E-05-2.83866E-05-2.68313E-07-5.75081E-19-6.10479E-19
 -1      2662 9.52683E-05-2.89776E-05-2.84106E-05-7.01636E-08-9.31208E-19-1.31165E-19
 -1      2663 9.51958E-05-2.89904E-05-2.83718E-05-4.15164E-07-5.66671E-19-6.75450E-19
 -1      2664 9.51900E-05-2.90498E-05-2.83500E-05-5.85194E-07-2.71416E-19-5.97055E-19
 -1      2665 9.53352E-05-2.91002E-05-2.83871E-05-3.39086E-07-5.94583E-19-1.03588E-19
 -1      2666 9.52508E-05-2.91420E-05-2.83293E-05-7.74721E-07-2.05714E-19-7.67586E-19
 -1      2667 9.52351E-05-2.92210E-05-2.82976E-05-9.96078E-07 8.32433E-21-1.04747E-18
 -1      2668 9.54372E-05-2.92820E-05-2.83533E-05-6.78856E-07-3.68213E-19-9.62663E-19
 -1      2669 9.53209E-05-2.93446E-05-2.82711E-05-1.24559E-06 3.29303E-19-1.18106E-18
 -1      2670 9.52906E-05-2.94416E-05-2.82288E-05-1.53458E-06 6.52538E-19-1.01258E-18
 -1      2671 9.55846E-05-2.95329E-05-2.83094E-05-1.12093E-06-2.48689E-20-7.66569E-19
 -1      2672 9.54027E-05-2.95944E-05-2.81978E-05-1.86325E-06 7.25452E-19-7.48731E-19
 -1      2673 9.53482E-05-2.97002E-05-2.81448E-05-2.23476E-06 1.27084E-18-7.61206E-19
 -1      2674 9.57840E-05-2.98541E-05-2.82576E-05-1.70217E-06 8.37418E-19-5.38172E-19
 -1      2675 9.54803E-05-2.98698E-05-2.81122E-05-2.66034E-06 1.32749E-18-9.65386E-19
 -1      2676 9.53849E-05-2.99632E-05-2.80499E-05-3.12270E-06 7.39807E-19-5.37005E-19
 -1      2677 9.60310E-05-3.02290E-05-2.82027E-05-2.46074E-06 1.22531E-18-1.15166E-18
 -1      2678 9.55170E-05-3.01211E-05-2.80202E-05-3.65489E-06 1.21970E-19-9.71400E-19
 -1      2679 9.53546E-05-3.01646E-05-2.79518E-05-4.20169E-06-1.66003E-19-9.75315E-19
 -1      2680 9.63000E-05-3.06106E-05-2.81535E-05-3.42676E-06 3.57310E-19-1.29813E-18
 -1      2681 9.54474E-05-3.02614E-05-2.79320E-05-4.83095E-06 5.70701E-20 3.68947E-20
 -1      2682 9.51832E-05-3.01999E-05-2.78627E-05-5.43004E-06-1.57673E-20 4.97565E-19
 -1      2683 9.65319E-05-3.09086E-05-2.81231E-05-4.60476E-06 4.74032E-19-4.67786E-19
 -1      2684 9.51759E-05-3.01656E-05-2.78607E-05-6.11234E-06 1.68450E-19 9.12942E-19
 -1      2685 9.47724E-05-2.99332E-05-2.77974E-05-6.69455E-06 5.30060E-19 1.11086E-18
 -1      2686 9.66259E-05-3.09835E-05-2.81277E-05-5.94657E-06 2.92987E-19 7.58478E-19
 -1      2687 9.45917E-05-2.96890E-05-2.78207E-05-7.33567E-06 1.12585E-19 1.12194E-18
 -1      2688 9.40223E-05-2.92279E-05-2.77707E-05-7.78872E-06-3.73994E-19 1.20272E-18
 -1      2689 9.64451E-05-3.06600E-05-2.81844E-05-7.31810E-06 4.93779E-19 1.44608E-18
 -1      2690 9.36061E-05-2.87141E-05-2.78234E-05-8.23735E-06-6.98391E-20 1.14287E-18
 -1      2691 9.28774E-05-2.80070E-05-2.77921E-05-8.41420E-06 2.04196E-19 1.32711E-18
 -1      2692 9.58483E-05-2.97730E-05-2.83050E-05-8.47206E-06 3.75745E-20 1.31638E-18
 -1      2693 9.22161E-05-2.72263E-05-2.78713E-05-8.47870E-06-4.74389E-19 1.09359E-18
 -1      2694 9.13906E-05-2.63341E-05-2.78596E-05-8.22954E-06-6.30306E-19 1.45002E-18
 -1      2695 9.47573E-05-2.82517E-05-2.84892E-05-9.05197E-06-3.05022E-19 1.56594E-18
 -1      2696 9.05703E-05-2.53933E-05-2.79525E-05-7.73291E-06-3.95102E-19 1.88950E-18
 -1      2697 8.97749E-05-2.44744E-05-2.79556E-05-6.96320E-06-2.07188E-19 2.01143E-18
 -1      2698 9.32448E-05-2.62221E-05-2.87170E-05-8.66088E-06-1.80535E-19 2.01813E-18
 -1      2699 8.89886E-05-2.35895E-05-2.80408E-05-5.83194E-06-6.18774E-19 1.97873E-18
 -1      2700 8.83902E-05-2.28702E-05-2.80495E-05-4.56716E-06-2.60218E-19 1.83012E-18
 -1      2701 9.15949E-05-2.40652E-05-2.89464E-05-7.01330E-06-5.05454E-19 1.73119E-18
 -1      2702 8.78798E-05-2.23021E-05-2.81032E-05-2.90936E-06-6.86102E-19 1.60168E-18
 -1      2703 8.76282E-05-2.19932E-05-2.81083E-05-1.32431E-06-1.42072E-18 1.19438E-18
 -1      2704 9.02578E-05-2.23461E-05-2.91228E-05-4.12600E-06-6.64815E-19 1.48513E-18
 -1      2705 8.75738E-05-2.19325E-05-2.81142E-05 5.66650E-07-1.66697E-18 9.54062E-19
 -1      2706 8.77378E-05-2.21328E-05-2.81113E-05 2.18618E-06-1.26309E-18 1.59392E-19
 -1      2707 8.96741E-05-2.16020E-05-2.91981E-05-4.19355E-07-1.54711E-18 2.25774E-18
 -1      2708 8.81601E-05-2.26013E-05-2.80675E-05 3.92579E-06-3.30368E-19 5.51650E-19
 -1      2709 8.86948E-05-2.32461E-05-2.80594E-05 5.28112E-06 4.20787E-21 8.10506E-19
 -1      2710 9.00544E-05-2.20844E-05-2.91501E-05 3.37626E-06-5.33030E-19 1.92227E-18
 -1      2711 8.94416E-05-2.40829E-05-2.79798E-05 6.54444E-06 7.89759E-19 9.52189E-19
 -1      2712 9.02098E-05-2.49776E-05-2.79753E-05 7.43087E-06 1.14692E-18 1.59560E-18
 -1      2713 9.12608E-05-2.36287E-05-2.89933E-05 6.49358E-06 2.90172E-19 2.17370E-18
 -1      2714 9.10419E-05-2.59260E-05-2.78829E-05 8.06703E-06 5.70922E-19 1.14812E-18
 -1      2715 9.18748E-05-2.68393E-05-2.78917E-05 8.42762E-06 8.47519E-19 6.40645E-19
 -1      2716 9.28842E-05-2.57384E-05-2.87722E-05 8.42923E-06 4.30543E-19 1.04177E-18
 -1      2717 9.25819E-05-2.76663E-05-2.78090E-05 8.47612E-06 1.90229E-19-4.32878E-19
 -1      2718 9.33409E-05-2.84211E-05-2.78369E-05 8.38432E-06-1.29867E-18-1.42648E-18
 -1      2719 9.44580E-05-2.78325E-05-2.85416E-05 9.08350E-06-6.75044E-19 2.26453E-20
 -1      2720 9.38126E-05-2.89949E-05-2.77787E-05 8.00729E-06-1.03259E-18-1.66087E-18
 -1      2721 9.44211E-05-2.95092E-05-2.78261E-05 7.60630E-06-3.04678E-19-1.40136E-18
 -1      2722 9.56541E-05-2.94799E-05-2.83471E-05 8.69125E-06-9.78443E-19-1.97785E-18
 -1      2723 9.46490E-05-2.98067E-05-2.77976E-05 6.99818E-06 4.62952E-20-3.46854E-19
 -1      2724 9.50898E-05-3.00834E-05-2.78599E-05 6.43964E-06 3.40605E-19-5.89324E-20
 -1      2725 9.63559E-05-3.05002E-05-2.82137E-05 7.63980E-06 3.04265E-19-7.73561E-19
 -1      2726 9.51279E-05-3.01541E-05-2.78583E-05 5.76389E-06 1.23100E-18-1.60849E-19
 -1      2727 9.54228E-05-3.02454E-05-2.79287E-05 5.16959E-06 1.59810E-18 1.52926E-19
 -1      2728 9.66157E-05-3.09285E-05-2.81459E-05 6.30390E-06 5.09791E-19-7.52939E-19
 -1      2729 9.53456E-05-3.01678E-05-2.79468E-05 4.53341E-06 1.03486E-18 4.73393E-19
 -1      2730 9.55316E-05-3.01408E-05-2.80180E-05 3.98179E-06 1.00175E-18-2.17765E-19
 -1      2731 9.65680E-05-3.09181E-05-2.81338E-05 4.95845E-06 1.43578E-18-6.96665E-19
 -1      2732 9.54042E-05-2.99889E-05-2.80476E-05 3.43861E-06 1.63200E-18 1.64056E-20
 -1      2733 9.55178E-05-2.99023E-05-2.81139E-05 2.96870E-06 2.57122E-18-4.86709E-20
 -1      2734 9.63560E-05-3.06490E-05-2.81608E-05 3.76059E-06 1.63076E-18-4.96537E-19
 -1      2735 9.53841E-05-2.97305E-05-2.81478E-05 2.53446E-06 2.04380E-18 6.24472E-19
 -1      2736 9.54546E-05-2.96272E-05-2.82055E-05 2.15733E-06 1.06915E-18 1.09796E-18
 -1      2737 9.60895E-05-3.02710E-05-2.82097E-05 2.77368E-06 2.59337E-18-8.13316E-19
 -1      2738 9.53401E-05-2.94705E-05-2.82382E-05 1.82500E-06-4.24725E-19 1.27545E-18
 -1      2739 9.53876E-05-2.93764E-05-2.82854E-05 1.53349E-06-5.26723E-19 6.48851E-19
 -1      2740 9.58380E-05-2.98881E-05-2.82662E-05 2.00314E-06 2.40488E-19 3.89604E-19
 -1      2741 9.53010E-05-2.92495E-05-2.83137E-05 1.28569E-06-5.50904E-19-7.66265E-19
 -1      2742 9.53361E-05-2.91780E-05-2.83501E-05 1.06886E-06-3.46830E-19-9.34860E-19
 -1      2743 9.56342E-05-2.95577E-05-2.83203E-05 1.42067E-06-1.13176E-18-3.45669E-19
 -1      2744 9.52800E-05-2.91011E-05-2.83671E-05 9.23210E-07 5.29427E-21-1.73236E-18
 -1      2745 9.53101E-05-2.90588E-05-2.83936E-05 7.63128E-07 8.15457E-20-2.55691E-18
 -1      2746 9.54086E-05-2.91634E-05-2.83911E-05 7.71144E-07-4.82952E-19-4.90141E-18
 -1      2747 9.55011E-05-2.93299E-05-2.83614E-05 1.03416E-06-1.29312E-18-3.29138E-18
 -1      2748 9.07651E-05-2.33102E-05-2.89655E-05 4.26083E-06-2.58250E-18 2.26106E-18
 -1      2749 8.97567E-05-2.19781E-05-2.90406E-05 5.67570E-06-9.95525E-19 1.67164E-18
 -1      2750 9.00524E-05-2.28521E-05-2.87281E-05 2.90280E-06-2.43887E-18 1.11312E-18
 -1      2751 5.43470E-05-5.98293E-06-2.00640E-05-2.55107E-05-1.14911E-18-1.42916E-18
 -1      2752 5.51047E-05-2.97695E-06-2.20181E-05-1.94587E-05-1.12460E-18-1.93971E-18
 -1      2753 9.44913E-05-2.83217E-05-2.83578E-05-1.11880E-06 4.96877E-19-4.38069E-19
 -1      2754 9.44588E-05-2.82315E-05-2.83769E-05-1.05233E-06 6.13169E-19-3.20530E-19
 -1      2755 9.49379E-05-2.82492E-05-2.85870E-05-9.33908E-07 4.75328E-19-6.46218E-19
 -1      2756 9.45386E-05-2.84451E-05-2.83251E-05-1.16188E-06 7.52798E-19-4.08168E-19
 -1      2757 9.44798E-05-2.83796E-05-2.83255E-05-1.16089E-06 5.65677E-19-3.86883E-19
 -1      2758 9.49059E-05-2.84556E-05-2.84831E-05-1.13585E-06 5.54500E-19-5.18101E-19
 -1      2759 9.46165E-05-2.85304E-05-2.83220E-05-1.10482E-06 5.29444E-19-2.84006E-19
 -1      2760 9.45430E-05-2.84819E-05-2.83108E-05-1.14565E-06 6.78259E-19-1.72548E-19
 -1      2761 9.49067E-05-2.85849E-05-2.84264E-05-1.17848E-06 6.43500E-19-5.28436E-19
 -1      2762 9.47011E-05-2.85818E-05-2.83362E-05-9.95605E-07 2.01159E-19-2.97149E-19
 -1      2763 9.46289E-05-2.85494E-05-2.83200E-05-1.05564E-06 5.03649E-19-1.41624E-19
 -1      2764 9.49302E-05-2.86626E-05-2.84022E-05-1.12138E-06 4.61828E-19-4.16562E-19
 -1      2765 9.47863E-05-2.86132E-05-2.83593E-05-8.61355E-07 2.27868E-21-3.99270E-19
 -1      2766 9.47183E-05-2.85915E-05-2.83411E-05-9.30084E-07 1.40103E-20-2.50680E-19
 -1      2767 9.49638E-05-2.87024E-05-2.83988E-05-1.01009E-06 2.67184E-19-2.15188E-19
 -1      2768 9.48648E-05-2.86292E-05-2.83862E-05-7.20116E-07 4.29646E-19-5.75724E-19
 -1      2769 9.48043E-05-2.86158E-05-2.83679E-05-7.89658E-07 3.64472E-19-4.28608E-19
 -1      2770 9.50013E-05-2.87189E-05-2.84073E-05-8.72756E-07 3.72621E-19-3.64309E-19
 -1      2771 9.49326E-05-2.86321E-05-2.84139E-05-5.84507E-07-3.98948E-19-9.66918E-19
 -1      2772 9.48811E-05-2.86261E-05-2.83966E-05-6.49288E-07 1.91832E-19-7.23532E-19
 -1      2773 9.50369E-05-2.87182E-05-2.84224E-05-7.28237E-07 3.68362E-19-3.91987E-19
 -1      2774 9.49883E-05-2.86203E-05-2.84427E-05-4.58962E-07 2.03170E-19-1.10241E-18
 -1      2775 9.49454E-05-2.86226E-05-2.84258E-05-5.16511E-07-3.71856E-19-1.36427E-18
 -1      2776 9.50663E-05-2.87022E-05-2.84416E-05-5.86470E-07-1.11928E-19-7.81237E-19
 -1      2777 9.50226E-05-2.85902E-05-2.84701E-05-3.65888E-07 3.69637E-20-8.66607E-19
 -1      2778 9.49923E-05-2.86030E-05-2.84544E-05-4.05482E-07 1.12978E-19-1.04695E-18
 -1      2779 9.50831E-05-2.86685E-05-2.84629E-05-4.61667E-07-2.99898E-20-7.84068E-19
 -1      2780 9.50336E-05-2.85318E-05-2.84992E-05-3.12247E-07 7.00062E-19-1.09454E-18
 -1      2781 9.50146E-05-2.85600E-05-2.84827E-05-3.28714E-07 6.00888E-19-7.70178E-19
 -1      2782 9.50793E-05-2.86106E-05-2.84857E-05-3.67294E-07 1.84162E-19-3.06207E-19
 -1      2783 9.50097E-05-2.84258E-05-2.85334E-05-3.18877E-07 7.11506E-19-7.87910E-19
 -1      2784 9.50045E-05-2.84792E-05-2.85137E-05-2.99385E-07 8.77787E-19-1.08022E-18
 -1      2785 9.50422E-05-2.85115E-05-2.85116E-05-3.13203E-07 7.75672E-19-5.94780E-19
 -1      2786 9.49294E-05-2.82388E-05-2.85775E-05-4.19124E-07 2.57064E-19-1.18557E-18
 -1      2787 9.49438E-05-2.83341E-05-2.85513E-05-3.42711E-07 5.71449E-19-1.39623E-18
 -1      2788 9.49482E-05-2.83421E-05-2.85426E-05-3.18948E-07 8.28113E-19-6.11185E-19
 -1      2789 9.47515E-05-2.79144E-05-2.86376E-05-6.65361E-07 1.68243E-19-1.68670E-18
 -1      2790 9.47983E-05-2.80804E-05-2.86004E-05-4.98790E-07 1.85055E-19-1.32840E-18
 -1      2791 9.47544E-05-2.80521E-05-2.85812E-05-4.13828E-07 4.14008E-19-1.91883E-18
 -1      2792 9.43661E-05-2.73213E-05-2.87236E-05-1.16890E-06-4.76186E-19-1.10505E-18
 -1      2793 9.44887E-05-2.76251E-05-2.86675E-05-8.38145E-07-1.41446E-19-1.23935E-18
 -1      2794 9.43714E-05-2.75452E-05-2.86300E-05-6.48808E-07-1.83661E-19-1.72607E-18
 -1      2795 9.36468E-05-2.63546E-05-2.88279E-05-1.99891E-06-4.36172E-19-1.15111E-18
 -1      2796 9.38952E-05-2.68459E-05-2.87551E-05-1.45950E-06-1.66550E-19-1.05353E-18
 -1      2797 9.36577E-05-2.66829E-05-2.86836E-05-1.07682E-06-4.19751E-19-1.22294E-18
 -1      2798 9.22944E-05-2.47509E-05-2.89356E-05-3.31882E-06-2.66746E-19-1.09662E-18
 -1      2799 9.28018E-05-2.55627E-05-2.88493E-05-2.45640E-06-4.68929E-19-9.46423E-19
 -1      2800 9.23936E-05-2.52904E-05-2.87220E-05-1.74673E-06-2.23596E-19-8.60316E-19
 -1      2801 8.97955E-05-2.21615E-05-2.89807E-05-5.28161E-06-2.44435E-19-6.97421E-19
 -1      2802 9.08001E-05-2.34647E-05-2.89113E-05-3.98150E-06-2.81652E-19-8.68136E-19
 -1      2803 9.01569E-05-2.30504E-05-2.86933E-05-2.70400E-06-6.90200E-19-3.07197E-19
 -1      2804 8.53170E-05-1.81787E-05-2.87840E-05-7.98039E-06-5.61226E-19-4.59338E-19
 -1      2805 8.72140E-05-2.01601E-05-2.88224E-05-6.15614E-06-2.89627E-19-7.16247E-19
 -1      2806 8.62798E-05-1.95744E-05-2.84669E-05-3.91036E-06-5.50877E-19-4.43107E-19
 -1      2807 7.70937E-05-1.22232E-05-2.78043E-05-1.14917E-05-8.14634E-19-1.49885E-19
 -1      2808 8.07446E-05-1.50804E-05-2.82518E-05-9.05073E-06-4.12427E-19-1.53002E-19
 -1      2809 7.95214E-05-1.43554E-05-2.77102E-05-5.19328E-06-6.84444E-19 3.52644E-20
 -1      2810 6.48518E-05-5.85563E-06-2.51095E-05-1.49597E-05-1.03233E-18-1.29448E-18
 -1      2811 7.00184E-05-8.46018E-06-2.64594E-05-1.26456E-05-9.70521E-19-7.35966E-19
 -1      2812 6.83765E-05-7.38549E-06-2.57221E-05-5.94632E-06-4.21948E-19-4.65418E-19
 -1      2813 4.30902E-05-1.23145E-05-1.25973E-05-3.78823E-05-2.52839E-19-1.28749E-18
 -1      2814 5.90130E-05-2.46313E-05-1.42314E-05-4.92973E-05 1.79571E-19-4.24364E-19
 -1      2815 2.80011E-05 1.04615E-06-1.15964E-05-3.21733E-06 2.88372E-19 2.94132E-19
 -1      2816 3.19898E-05-1.78486E-06-1.23892E-05-1.90542E-05 8.56814E-19-1.02787E-18
 -1      2817 1.44933E-04-2.83197E-05-5.08245E-05-1.06385E-05-7.78847E-19-1.11078E-18
 -1      2818 1.49480E-04-3.89123E-05-4.75809E-05-6.05502E-06-7.84988E-19-4.75609E-19
 -1      2819 8.70744E-05-1.99065E-05-2.88716E-05 6.64898E-06 1.33659E-18 6.82940E-19
 -1      2820 8.51603E-05-1.78955E-05-2.88286E-05 8.62442E-06 1.26414E-18 7.03754E-19
 -1      2821 8.60424E-05-1.92721E-05-2.84859E-05 4.27227E-06-1.76290E-19 1.08420E-18
 -1      2822 9.39750E-05-2.68158E-05-2.88015E-05 1.46737E-06-5.84628E-19 1.79017E-18
 -1      2823 9.37325E-05-2.63198E-05-2.88762E-05 2.04766E-06-7.15500E-19 1.18162E-18
 -1      2824 9.23699E-05-2.51717E-05-2.87616E-05 1.82614E-06-1.18700E-18 1.31449E-18
 -1      2825 9.45860E-05-2.76041E-05-2.87186E-05 7.96231E-07-8.40134E-20 9.82783E-19
 -1      2826 9.44630E-05-2.73071E-05-2.87710E-05 1.13578E-06-1.47619E-19 1.23052E-18
 -1      2827 9.36831E-05-2.66064E-05-2.87256E-05 1.06295E-06-6.39960E-19 1.19545E-19
 -1      2828 9.49182E-05-2.80521E-05-2.86598E-05 4.01542E-07 1.20343E-18 1.94163E-19
 -1      2829 9.48521E-05-2.78827E-05-2.86932E-05 5.94461E-07 4.94204E-19 1.72869E-18
 -1      2830 9.44171E-05-2.74855E-05-2.86772E-05 5.68326E-07-2.08075E-19 3.87149E-20
 -1      2831 9.48614E-05-2.81155E-05-2.86108E-05 9.79640E-08-1.39524E-19 1.23056E-19
 -1      2832 9.49657E-05-2.81737E-05-2.86232E-05 1.98083E-07 7.37279E-19 1.25359E-19
 -1      2833 9.48227E-05-2.82316E-05-2.85381E-05-5.82716E-07-1.61551E-18 3.31389E-20
 -1      2834 9.47673E-05-2.81490E-05-2.85553E-05-4.43392E-07-9.31380E-19-2.94785E-18
 -1      2835 9.47458E-05-2.80779E-05-2.85748E-05-2.29379E-07-4.15550E-20-2.77885E-18
 -1      2836 9.47794E-05-2.80702E-05-2.85911E-05-8.22200E-08-4.11060E-19-2.06716E-18
 -1      2837 9.46004E-05-2.79420E-05-2.85649E-05-4.03881E-07-4.28946E-20-3.49980E-18
 -1      2838 9.50647E-05-2.85440E-05-2.85047E-05-8.34742E-07-3.84593E-19 4.50047E-18
 -1      2839 9.49387E-05-2.84031E-05-2.85211E-05-7.52875E-07-1.02088E-18 4.78018E-18
 -1      2840 9.47534E-05-2.81900E-05-2.85274E-05-8.10096E-07-7.09237E-19 2.34349E-18
 -1      2841 9.57058E-05-2.92991E-05-2.84531E-05-7.52337E-07 1.05001E-18 9.06783E-19
 -1      2842 9.55667E-05-2.91554E-05-2.84655E-05-8.42052E-07-3.80290E-19 2.11157E-18
 -1      2843 9.59256E-05-2.95669E-05-2.84340E-05-4.33667E-07 2.11671E-19-1.59853E-18
 -1      2844 9.58408E-05-2.94739E-05-2.84439E-05-5.90461E-07 1.60111E-19-4.77697E-19
 -1      2845 9.58810E-05-2.94900E-05-2.84582E-05-8.11423E-07 1.06146E-20 1.89848E-19
 -1      2846 9.59976E-05-2.96814E-05-2.84182E-05-3.77342E-08-7.18259E-19-9.94245E-19
 -1      2847 9.59838E-05-2.96532E-05-2.84253E-05-2.17264E-07 1.20454E-19-2.98342E-19
 -1      2848 9.61028E-05-2.97556E-05-2.84412E-05-4.00951E-07-5.32464E-19-1.27316E-18
 -1      2849 9.59171E-05-2.96375E-05-2.84051E-05 3.53405E-07-1.92081E-18-2.52258E-18
 -1      2850 9.59745E-05-2.96752E-05-2.84094E-05 1.87193E-07-1.07980E-18-2.35764E-18
 -1      2851 9.61419E-05-2.98367E-05-2.84230E-05 7.38635E-08-1.30505E-18-2.04975E-18
 -1      2852 9.57028E-05-2.94524E-05-2.83955E-05 6.43654E-07-1.82075E-18-2.93305E-18
 -1      2853 9.58171E-05-2.95450E-05-2.83967E-05 5.33557E-07-2.31254E-18-2.40388E-18
 -1      2854 9.59994E-05-2.97349E-05-2.84034E-05 5.08859E-07-2.20352E-18-3.22847E-18
 -1      2855 8.06952E-05-1.49270E-05-2.83010E-05 9.82454E-06 1.38970E-19 8.17321E-19
 -1      2856 7.74094E-05-1.22288E-05-2.78954E-05 1.22388E-05-3.61643E-19 2.90704E-19
 -1      2857 7.92428E-05-1.40330E-05-2.77144E-05 5.73162E-06 6.28340E-19-1.09076E-18
 -1      2858 7.02494E-05-8.43616E-06-2.65682E-05 1.45787E-05-2.98319E-19 1.22465E-18
 -1      2859 6.63198E-05-6.58936E-06-2.53932E-05 1.81177E-05-4.87044E-20 1.46235E-18
 -1      2860 1.52165E-04-3.21683E-05-5.17599E-05 6.63847E-06 2.21309E-18-1.20850E-18
 -1      2861 1.50900E-04-2.20133E-05-5.60145E-05 8.78763E-06 1.73239E-18-8.63127E-19
 -1      2862 5.78973E-05-3.95331E-06-2.28207E-05 2.17365E-05 6.98352E-19 1.65129E-18
 -1      2863 5.23050E-05-6.07872E-06-1.93946E-05 2.49626E-05 6.09281E-19 9.72076E-19
 -1      2864 9.28383E-05-1.80001E-05-3.20797E-05-8.82258E-06-1.23507E-18-1.94579E-18
 -1      2865 9.53916E-05-2.89322E-05-2.84764E-05-8.98779E-07-1.40299E-19 3.27864E-18
 -1      2866 9.52359E-05-2.87690E-05-2.84911E-05-9.02067E-07-4.07916E-19 4.21361E-18
 -1      2867 9.50957E-05-2.86055E-05-2.84981E-05-1.05141E-06-5.66446E-19 3.85915E-18
 -1      2868 9.55170E-05-2.90779E-05-2.84760E-05-1.05143E-06 3.42919E-19 2.25161E-18
 -1      2869 9.49803E-05-2.67102E-05-2.92634E-05 1.72211E-06 1.18708E-18-5.13839E-19
 -1      2870 9.52800E-05-2.62337E-05-2.95366E-05 2.72171E-06 1.26066E-18-3.75732E-19
 -1      2871 9.52477E-05-2.65343E-05-2.94607E-05 1.67364E-06 1.12694E-18-5.78897E-19
 -1      2872 6.81729E-05-3.09682E-05-1.57995E-05 5.21993E-05-5.03561E-19-2.25163E-18
 -1      2873 5.20263E-05-2.10733E-05-1.24036E-05 4.62538E-05-6.84403E-19-7.62330E-19
 -1      2874 9.11652E-05-1.60793E-05-3.22078E-05 4.90926E-06 1.24858E-18-1.86385E-18
 -1      2875 9.08206E-05-1.55798E-05-3.22678E-05 3.98845E-06 1.01219E-18-2.09722E-18
 -1      2876 9.17971E-05-1.71903E-05-3.19591E-05 3.19217E-06 9.09710E-19-1.93966E-18
 -1      2877 9.24686E-05-1.82508E-05-3.17881E-05 4.60942E-06 1.15152E-18-1.69633E-18
 -1      2878 9.07850E-05-1.55326E-05-3.22726E-05-3.92480E-06-4.36207E-19-2.46024E-18
 -1      2879 9.11198E-05-1.60178E-05-3.22139E-05-4.84872E-06-6.23566E-19-2.46487E-18
 -1      2880 1.42400E-04-4.04805E-06-6.00053E-05 3.18547E-06-7.30566E-20-1.64385E-18
 -1      2881 1.38850E-04-2.68337E-06-5.91117E-05-1.72872E-06-1.02830E-18-1.86732E-18
 -1      2882 2.82681E-05 7.46844E-07-1.18134E-05-2.13392E-06-4.83073E-19-2.19106E-18
 -1      2883 3.48382E-05-2.70185E-06-1.29078E-05-1.82240E-05-6.55868E-19-2.84815E-18
 -1      2884 4.80938E-05-9.53541E-06-1.58811E-05-2.99590E-05-1.61116E-18-1.83806E-18
 -1      2885 1.02754E-04-4.92238E-05-2.31143E-05 5.04001E-05 8.61856E-20-4.19281E-19
 -1      2886 8.70932E-05-4.09667E-05-1.91585E-05 5.17883E-05-2.53792E-19-1.68755E-18
 -1      2887 1.50267E-04-5.21809E-05-4.22160E-05-8.69766E-06 1.87782E-18-1.42206E-18
 -1      2888 1.53876E-04-4.44156E-05-4.75363E-05-4.21889E-07 1.96300E-18-1.85077E-19
 -1      2889 1.07632E-04-5.08350E-05-2.39615E-05-4.71344E-05 1.57643E-18 5.31328E-19
 -1      2890 1.24483E-04-5.65803E-05-2.92058E-05-3.94376E-05 1.62313E-18-7.83003E-19
 -1      2891 1.37054E-04-5.90485E-05-3.37045E-05 2.95872E-05-9.72923E-19 1.10681E-18
 -1      2892 1.20815E-04-5.58630E-05-2.74503E-05 4.18838E-05 9.43383E-20 1.83489E-19
 -1      2893 1.38456E-04-7.55419E-06-5.69533E-05-7.25063E-06-1.89333E-18-1.86191E-18
 -1      2894 1.39784E-04-1.44759E-05-5.41195E-05-1.13828E-05-1.20977E-18-2.26952E-18
 -1      2895 1.47027E-04-1.20032E-05-5.84261E-05 8.49272E-06 5.48454E-19-9.27819E-19
 -1      2896 1.44403E-04-6.91609E-06-5.97924E-05 6.07942E-06-2.15993E-19-1.78433E-18
 -1      2897 1.34564E-04-5.10492E-06-5.58702E-05 5.56072E-06 3.33731E-19-2.52977E-18
 -1      2898 1.34437E-04-5.92738E-05-3.21023E-05-3.19465E-05 1.89661E-18-1.25287E-18
 -1      2899 1.42150E-04-5.81064E-05-3.61915E-05-2.29350E-05 1.57355E-18-2.05501E-18
 -1      2900 1.26213E-04-5.63716E-05-2.97365E-05-3.35841E-05 7.90811E-19-1.15027E-18
 -1      2901 7.49972E-05-3.45012E-05-1.68866E-05-5.14729E-05 5.92605E-19 2.86085E-19
 -1      2902 9.09940E-05-4.31026E-05-2.03823E-05-5.25122E-05 1.01951E-18 2.84074E-19
 -1      2903 1.03318E-04-4.62202E-05-2.40170E-05-4.49264E-05 7.03990E-19 1.16842E-18
 -1      2904 7.26765E-05-2.86521E-05-1.83632E-05-4.64183E-05 3.36060E-19-7.67094E-19
 -1      2905 1.50830E-04-4.86079E-05-4.43960E-05 2.74822E-06-1.54679E-18 1.15980E-18
 -1      2906 1.46462E-04-5.54991E-05-3.90732E-05 1.36028E-05-1.53428E-18 1.06070E-18
 -1      2907 1.44523E-04-4.41130E-05-4.32245E-05-4.25451E-06-9.60403E-19 6.01393E-20
 -1      2908 9.12684E-05-1.63784E-05-3.20836E-05 2.82332E-08 3.74213E-19-2.16011E-18
 -1      2909 9.01469E-05-1.45897E-05-3.24010E-05-3.82466E-07 2.95654E-19-2.23724E-18
 -1      2910 9.02038E-05-1.46703E-05-3.23912E-05-1.33859E-06 9.77814E-20-2.33930E-18
 -1      2911 9.55069E-05-2.47291E-05-3.02728E-05 5.55760E-06 1.48808E-18-1.97136E-19
 -1      2912 9.52449E-05-2.29289E-05-3.10486E-05 7.70881E-06 1.74259E-18-2.99563E-19
 -1      2913 9.43602E-05-2.11781E-05-3.13572E-05 7.76212E-06 1.70731E-18-6.56715E-19
 -1      2914 9.52863E-05-2.53195E-05-2.99838E-05 4.39269E-06 1.35720E-18-2.94529E-19
 -1      2915 4.76028E-05-1.37918E-05-1.37955E-05 3.79139E-05-5.59889E-19-7.42001E-19
 -1      2916 5.14198E-05-7.60346E-07-2.11436E-05-1.00647E-05-7.17516E-19-2.10874E-18
 -1      2917 9.42382E-05-2.07543E-05-3.15214E-05-8.15610E-06-1.32613E-18-1.64335E-18
 -1      2918 9.47432E-05-2.26611E-05-3.09133E-05-6.42664E-06-1.15942E-18-1.59153E-18
 -1      2919 1.40808E-04-5.43075E-05-3.73977E-05 7.94969E-06-1.35251E-18 1.28055E-18
 -1      2920 1.42329E-04-5.86340E-05-3.59240E-05 1.87987E-05-1.37241E-18 8.04205E-19
 -1      2921 1.33883E-04-5.68389E-05-3.27113E-05 2.30445E-05-8.08705E-19 3.53438E-19
 -1      2922 9.45440E-05-2.22423E-05-3.09695E-05-5.81531E-06-9.80264E-19-1.72515E-18
 -1      2923 4.13366E-05-6.29156E-06-1.42467E-05-2.72977E-05 6.22940E-19-6.10287E-19
 -1      2924 5.29271E-05-1.15986E-05-1.73461E-05-3.25152E-05 7.41736E-19-5.34478E-19
 -1      2925 4.38670E-05-2.28303E-06-1.73609E-05-1.61877E-05 1.48620E-18-7.01026E-19
 -1      2926 9.24190E-05-1.81882E-05-3.17971E-05-4.55665E-06-6.58589E-19-2.26036E-18
 -1      2927 9.15573E-05-1.66719E-05-3.21138E-05-5.57618E-06-6.80291E-19-2.39356E-18
 -1      2928 9.20827E-05-1.74643E-05-3.20134E-05-6.39097E-06-8.56857E-19-2.32497E-18
 -1      2929 9.52780E-05-2.50045E-05-3.01534E-05 4.16986E-06 1.36401E-18-5.82916E-19
 -1      2930 9.03299E-05-1.48618E-05-3.23636E-05-2.17311E-06-5.32821E-20-2.24298E-18
 -1      2931 9.05160E-05-1.51265E-05-3.23318E-05-3.12263E-06-2.49881E-19-2.33896E-18
 -1      2932 9.17657E-05-1.71478E-05-3.19641E-05-3.13442E-06-3.97040E-19-2.25476E-18
 -1      2933 9.13873E-05-1.65620E-05-3.20551E-05-1.57944E-06-1.88804E-21-2.11097E-18
 -1      2934 9.49775E-05-2.81263E-05-2.86461E-05 3.20302E-07 1.23417E-18-5.05380E-19
 -1      2935 9.47359E-05-2.79131E-05-2.86421E-05 3.08420E-07 1.09076E-18 8.09046E-19
 -1      2936 9.46879E-05-2.79259E-05-2.86073E-05 2.90230E-08 4.29887E-19-2.12364E-18
 -1      2937 9.51617E-05-2.83989E-05-2.86128E-05 1.52773E-07 2.77254E-18-1.61186E-18
 -1      2938 9.51210E-05-2.83033E-05-2.86368E-05 2.71258E-07-1.50507E-19-1.97648E-18
 -1      2939 1.41165E-04-1.69759E-05-5.36285E-05 1.09899E-05 1.14995E-18-1.55325E-18
 -1      2940 6.81570E-05-7.18541E-06-2.57433E-05 7.95466E-06-3.29049E-19-7.68179E-19
 -1      2941 9.55131E-05-2.92610E-05-2.83902E-05 7.38746E-07-6.96983E-19-3.69689E-18
 -1      2942 1.30834E-04-5.43641E-06-5.42180E-05-5.05910E-06-1.08441E-18-2.69579E-18
 -1      2943 9.56746E-05-2.94396E-05-2.83852E-05 8.06481E-07-1.50485E-18-3.03270E-18
 -1      2944 1.45487E-04-5.68309E-05-3.81770E-05-1.39548E-05 9.22207E-19-1.39533E-18
 -1      2945 1.43828E-04-5.19156E-05-3.95720E-05-4.22566E-06 9.27289E-19 2.25470E-19
 -1      2946 1.37107E-04-5.69396E-05-3.43445E-05-1.84648E-05-4.34369E-19-2.14299E-19
 -1      2947 5.27995E-05-1.21393E-06-2.15295E-05 1.23194E-05 6.22543E-19 1.94151E-18
 -1      2948 1.47787E-04-3.77656E-05-4.74590E-05 6.79860E-06 1.74759E-18-9.93781E-19
 -1      2949 1.36407E-04-2.19341E-05-4.93409E-05-1.22962E-05-5.89958E-19-1.52106E-18
 -1      2950 3.14737E-05 7.84788E-07-1.30119E-05 7.46695E-06 2.50523E-19 1.61762E-18
 -1      2951 4.07501E-05 4.66015E-07-1.71312E-05 3.72278E-06 1.38032E-18 1.05307E-18
 -1      2952 8.12563E-05-3.48291E-05-1.94074E-05 4.84798E-05-8.54656E-19-1.77289E-18
 -1      2953 9.47279E-05-2.22593E-05-3.10051E-05 6.23549E-06 1.54502E-18-7.33370E-19
 -1      2954 3.91604E-05-3.90007E-06-1.42397E-05 2.19211E-05 1.05080E-18 1.34530E-18
 -1      2955 1.14802E-04-5.21669E-05-2.65012E-05 4.13584E-05-5.52689E-20-3.33246E-19
 -1      2956 9.43193E-05-2.19244E-05-3.10626E-05 5.00659E-06 1.37382E-18-1.15525E-18
 -1      2957 9.38162E-05-2.09210E-05-3.12445E-05 4.60957E-06 1.24524E-18-1.40369E-18
 -1      2958 9.52762E-05-2.85775E-05-2.85858E-05-1.10360E-06 6.86966E-19-5.87537E-19
 -1      2959 9.52861E-05-2.84722E-05-2.86289E-05-1.03506E-06 5.55309E-19-6.08199E-19
 -1      2960 9.53722E-05-2.79677E-05-2.88916E-05-5.09986E-07 6.60942E-19-5.84577E-19
 -1      2961 9.54267E-05-2.77118E-05-2.90074E-05-1.84163E-07 8.24841E-19-5.58862E-19
 -1      2962 9.54112E-05-2.73600E-05-2.91715E-05 2.29719E-07 9.09804E-19-6.48775E-19
 -1      2963 9.54912E-05-2.69671E-05-2.93472E-05 7.93060E-07 1.04273E-18-5.35791E-19
 -1      2964 9.56833E-05-2.73448E-05-2.92929E-05 1.77625E-07 8.04062E-19-5.85015E-19
 -1      2965 9.28000E-05-1.83988E-05-3.18865E-05-7.46539E-06-9.73883E-19-2.00357E-18
 -1      2966 1.24912E-04-4.27444E-06-5.22519E-05-9.23059E-07-8.34751E-19-2.09661E-18
 -1      2967 1.23893E-04-7.14645E-06-5.04164E-05-6.83129E-06-6.62592E-19-1.57197E-18
 -1      2968 9.54992E-05-2.55613E-05-2.99576E-05-2.12488E-06-7.44802E-19-1.50661E-18
 -1      2969 9.55332E-05-2.62584E-05-2.97005E-05-1.31200E-06-7.34790E-19-1.50489E-18
 -1      2970 9.56766E-05-2.68728E-05-2.94728E-05-7.25214E-07-6.78396E-19-1.28341E-18
 -1      2971 9.56515E-05-2.73203E-05-2.92929E-05-1.99305E-07-5.23680E-19-1.25542E-18
 -1      2972 9.57034E-05-2.61926E-05-2.97892E-05-1.15700E-06-5.94230E-19-1.68439E-18
 -1      2973 9.56944E-05-2.77056E-05-2.91267E-05 1.82856E-07-7.26321E-19-1.09457E-18
 -1      2974 9.56567E-05-2.79926E-05-2.90035E-05 4.98522E-07-9.08029E-19-1.36266E-18
 -1      2975 9.58851E-05-2.73197E-05-2.93880E-05-1.44129E-07-6.45552E-19-1.39393E-18
 -1      2976 9.56477E-05-2.82316E-05-2.88847E-05 7.20578E-07-7.99897E-19-1.22940E-18
 -1      2977 9.56149E-05-2.84134E-05-2.88029E-05 8.88491E-07-6.86080E-19-1.25404E-18
 -1      2978 9.59248E-05-2.80462E-05-2.90944E-05 4.92772E-07-8.35681E-19-1.06103E-18
 -1      2979 9.55817E-05-2.85563E-05-2.87200E-05 9.96982E-07-6.48050E-19-1.20166E-18
 -1      2980 9.55578E-05-2.86686E-05-2.86676E-05 1.06499E-06-4.37101E-19-1.30081E-18
 -1      2981 9.58887E-05-2.84998E-05-2.88843E-05 8.49887E-07-6.40490E-19-1.05714E-18
 -1      2982 9.55151E-05-2.87485E-05-2.86111E-05 1.09644E-06-2.94538E-19-1.29934E-18
 -1      2983 9.54996E-05-2.88145E-05-2.85792E-05 1.09959E-06-1.25965E-19-1.27036E-18
 -1      2984 9.58184E-05-2.87712E-05-2.87374E-05 1.01020E-06-3.26534E-19-1.19346E-18
 -1      2985 9.54554E-05-2.88538E-05-2.85418E-05 1.08139E-06-5.94495E-21-1.11885E-18
 -1      2986 9.54466E-05-2.88897E-05-2.85238E-05 1.04436E-06 1.45375E-19-1.09116E-18
 -1      2987 9.57363E-05-2.89220E-05-2.86370E-05 1.03851E-06-7.12052E-20-1.18506E-18
 -1      2988 9.54053E-05-2.89040E-05-2.84998E-05 9.95996E-07-8.26285E-20-1.11824E-18
 -1      2989 9.54011E-05-2.89212E-05-2.84906E-05 9.35470E-07-2.33016E-19-1.28278E-18
 -1      2990 9.56545E-05-2.89952E-05-2.85702E-05 9.82742E-07-9.43867E-20-1.05577E-18
 -1      2991 9.53653E-05-2.89218E-05-2.84756E-05 8.70076E-07-9.10190E-20-1.07695E-18
 -1      2992 9.53645E-05-2.89290E-05-2.84716E-05 7.96611E-07 1.83652E-21-8.00532E-19
 -1      2993 9.55802E-05-2.90216E-05-2.85266E-05 8.76497E-07 1.94659E-20-8.55812E-19
 -1      2994 9.53362E-05-2.89247E-05-2.84621E-05 7.22303E-07-1.41170E-19-6.34863E-19
 -1      2995 9.53382E-05-2.89289E-05-2.84605E-05 6.41731E-07-1.60228E-19-1.84185E-19
 -1      2996 9.55182E-05-2.90243E-05-2.84986E-05 7.41856E-07 1.77819E-19-8.31843E-19
 -1      2997 9.53193E-05-2.89268E-05-2.84540E-05 5.62683E-07-3.80719E-19-1.54958E-19
 -1      2998 9.53245E-05-2.89341E-05-2.84526E-05 4.77061E-07-2.77900E-19-3.05658E-19
 -1      2999 9.54723E-05-2.90218E-05-2.84798E-05 5.91869E-07-1.71251E-19-7.51670E-19
 -1      3000 9.53178E-05-2.89408E-05-2.84471E-05 3.94234E-07-5.58308E-19-5.96511E-19
 -1      3001 9.53273E-05-2.89572E-05-2.84443E-05 3.02418E-07-7.78149E-19-1.05817E-18
 -1      3002 9.54475E-05-2.90296E-05-2.84658E-05 4.32378E-07-7.54362E-19-5.72615E-19
 -1      3003 9.53368E-05-2.89794E-05-2.84382E-05 2.13967E-07-7.39746E-19-8.49467E-19
 -1      3004 9.53531E-05-2.90111E-05-2.84327E-05 1.11877E-07-6.08395E-19-7.10395E-19
 -1      3005 9.54504E-05-2.90630E-05-2.84529E-05 2.63225E-07-7.46743E-19-7.29966E-19
 -1      3006 9.53849E-05-2.90565E-05-2.84250E-05 1.32263E-08-5.35388E-19-5.59588E-19
 -1      3007 9.54116E-05-2.91105E-05-2.84157E-05-1.06163E-07-6.56841E-19-1.42654E-19
 -1      3008 9.54911E-05-2.91381E-05-2.84385E-05 7.88156E-08-4.99503E-19-4.08074E-19
 -1      3009 9.54739E-05-2.91877E-05-2.84059E-05-2.22566E-07-9.31394E-19-6.15276E-20
 -1      3010 9.55160E-05-2.92715E-05-2.83922E-05-3.69418E-07-6.17524E-19-2.94781E-19
 -1      3011 9.55837E-05-2.92727E-05-2.84212E-05-1.31986E-07-6.29157E-19-4.99287E-19
 -1      3012 9.56197E-05-2.93899E-05-2.83803E-05-5.14647E-07-3.87920E-19-6.65414E-19
 -1      3013 9.56826E-05-2.95109E-05-2.83620E-05-7.02468E-07-3.04263E-19-6.63488E-19
 -1      3014 9.57475E-05-2.94870E-05-2.84004E-05-3.86635E-07-5.97093E-19-3.88947E-19
 -1      3015 9.58406E-05-2.96792E-05-2.83491E-05-8.91827E-07-2.84458E-19-2.76340E-19
 -1      3016 9.59289E-05-2.98420E-05-2.83269E-05-1.13738E-06 1.93678E-19-2.98780E-19
 -1      3017 9.60063E-05-2.98013E-05-2.83778E-05-7.10245E-07-1.59729E-19 1.33857E-19
 -1      3018 9.61537E-05-3.00654E-05-2.83157E-05-1.39095E-06 5.10871E-19-4.79676E-19
 -1      3019 9.62689E-05-3.02683E-05-2.82917E-05-1.71334E-06 1.02635E-18-5.46543E-19
 -1      3020 9.63858E-05-3.02318E-05-2.83574E-05-1.13711E-06 3.36161E-19-1.19514E-19
 -1      3021 9.65683E-05-3.05430E-05-2.82866E-05-2.05565E-06 1.22189E-18-7.53393E-19
 -1      3022 9.67035E-05-3.07715E-05-2.82645E-05-2.47363E-06 1.01105E-18-1.01677E-18
 -1      3023 9.69076E-05-3.07809E-05-2.83469E-05-1.71154E-06 9.86704E-19-2.69056E-19
 -1      3024 9.70729E-05-3.10762E-05-2.82728E-05-2.93093E-06 5.36261E-19-9.04892E-19
 -1      3025 9.72074E-05-3.12945E-05-2.82587E-05-3.45703E-06 7.42570E-19-4.78982E-19
 -1      3026 9.75764E-05-3.14228E-05-2.83590E-05-2.48584E-06 9.83482E-19-6.98759E-19
 -1      3027 9.76184E-05-3.15805E-05-2.82903E-05-4.04937E-06 1.02813E-18-2.15043E-19
 -1      3028 9.77117E-05-3.17242E-05-2.82925E-05-4.67903E-06 7.43866E-19 1.63086E-19
 -1      3029 9.83614E-05-3.20814E-05-2.84121E-05-3.51134E-06 1.09045E-18-1.59123E-19
 -1      3030 9.81005E-05-3.19070E-05-2.83596E-05-5.40428E-06 3.45337E-19-5.63825E-20
 -1      3031 9.80907E-05-3.18808E-05-2.83879E-05-6.09994E-06 3.63896E-19 5.01274E-19
 -1      3032 9.91727E-05-3.26085E-05-2.85304E-05-4.81538E-06 7.01922E-19-2.21250E-19
 -1      3033 9.83541E-05-3.18424E-05-2.85026E-05-6.90925E-06 3.42856E-19 4.70492E-19
 -1      3034 9.81668E-05-3.15336E-05-2.85655E-05-7.58218E-06 5.48380E-19 5.41403E-19
 -1      3035 9.98434E-05-3.27741E-05-2.87404E-05-6.36028E-06 4.65277E-19-8.21194E-19
 -1      3036 9.81749E-05-3.11443E-05-2.87353E-05-8.35153E-06 4.80015E-19 6.50354E-19
 -1      3037 9.77476E-05-3.04592E-05-2.88368E-05-8.84938E-06 2.46586E-19 7.32490E-19
 -1      3038 1.00136E-04-3.22916E-05-2.90639E-05-7.98661E-06 5.69103E-19-7.40089E-19
 -1      3039 9.73894E-05-2.96319E-05-2.90595E-05-9.36318E-06-2.44792E-19 1.03617E-18
 -1      3040 9.67144E-05-2.85582E-05-2.91944E-05-9.48153E-06-5.36398E-19 1.24232E-18
 -1      3041 9.98006E-05-3.09016E-05-2.95070E-05-9.35822E-06 3.28274E-19-1.81850E-19
 -1      3042 9.59735E-05-2.73287E-05-2.94502E-05-9.45866E-06-4.72009E-19 1.47252E-18
 -1      3043 9.51398E-05-2.60043E-05-2.95999E-05-8.99403E-06 2.61575E-21 1.52893E-18
 -1      3044 9.86958E-05-2.85335E-05-3.00467E-05-9.96024E-06-9.75076E-20 8.43951E-19
 -1      3045 9.41737E-05-2.46030E-05-2.98482E-05-8.18853E-06-4.02835E-19 1.94622E-18
 -1      3046 9.33770E-05-2.33360E-05-2.99817E-05-7.03837E-06-5.63692E-19 1.87551E-18
 -1      3047 9.69550E-05-2.54868E-05-3.06161E-05-9.21534E-06-1.37681E-19 1.55707E-18
 -1      3048 9.25187E-05-2.21702E-05-3.01692E-05-5.40245E-06-6.74346E-19 1.80596E-18
 -1      3049 9.20030E-05-2.13481E-05-3.02523E-05-3.66957E-06-6.35530E-19 1.79179E-18
 -1      3050 9.50788E-05-2.25029E-05-3.11090E-05-6.76812E-06-6.50756E-19 1.66847E-18
 -1      3051 9.16098E-05-2.08299E-05-3.03318E-05-1.46185E-06-4.68648E-19 1.99106E-18
 -1      3052 9.15547E-05-2.07414E-05-3.03408E-05 5.33827E-07-1.43738E-18 2.17700E-18
 -1      3053 9.37863E-05-2.05410E-05-3.14116E-05-2.81489E-06-6.25028E-19 1.40679E-18
 -1      3054 9.18111E-05-2.10778E-05-3.02897E-05 2.80551E-06-1.52472E-18 2.75488E-18
 -1      3055 9.22377E-05-2.17569E-05-3.02217E-05 4.63041E-06-3.38064E-19 2.32932E-18
 -1      3056 9.36441E-05-2.03292E-05-3.14437E-05 1.83246E-06-9.81296E-19 2.75906E-18
 -1      3057 9.30227E-05-2.28124E-05-3.00547E-05 6.42484E-06-6.83395E-19 1.66655E-18
 -1      3058 9.37791E-05-2.40141E-05-2.99300E-05 7.71985E-06-1.84300E-19 1.38496E-18
 -1      3059 9.47206E-05-2.19512E-05-3.11961E-05 6.02842E-06-7.87866E-19 2.22205E-18
 -1      3060 9.47529E-05-2.54000E-05-2.96911E-05 8.71281E-06 9.20540E-20 1.13117E-18
 -1      3061 9.55981E-05-2.67404E-05-2.95429E-05 9.32612E-06-2.73334E-19 8.46706E-19
 -1      3062 9.65318E-05-2.47911E-05-3.07366E-05 8.84408E-06-6.73068E-19 2.38738E-19
 -1      3063 9.64069E-05-2.80311E-05-2.92858E-05 9.50601E-06-9.78165E-19 2.59021E-19
 -1      3064 9.71280E-05-2.91748E-05-2.91464E-05 9.50289E-06-1.50461E-18-7.44078E-19
 -1      3065 9.83539E-05-2.78940E-05-3.01760E-05 9.94834E-06-1.29328E-18 2.61754E-19
 -1      3066 9.75722E-05-3.00962E-05-2.89148E-05 9.08581E-06-1.20010E-18-7.16406E-19
 -1      3067 9.80557E-05-3.08673E-05-2.88058E-05 8.65688E-06-5.75562E-19-8.16344E-19
 -1      3068 9.96187E-05-3.04447E-05-2.96243E-05 9.60139E-06-1.22653E-18-1.20713E-19
 -1      3069 9.81180E-05-3.13447E-05-2.86240E-05 7.92668E-06 3.76687E-20-4.80646E-19
 -1      3070 9.83536E-05-3.17267E-05-2.85536E-05 7.28249E-06 3.65861E-19-2.94642E-19
 -1      3071 1.00114E-04-3.20461E-05-2.91574E-05 8.35780E-06-1.26249E-19 7.91177E-19
 -1      3072 9.81309E-05-3.18264E-05-2.84280E-05 6.47407E-06 3.16192E-19 8.58050E-21
 -1      3073 9.81723E-05-3.19004E-05-2.83940E-05 5.78134E-06 1.66440E-19 2.52339E-19
 -1      3074 9.99330E-05-3.26999E-05-2.88084E-05 6.76168E-06 3.08815E-19 5.92988E-19
 -1      3075 9.77959E-05-3.17489E-05-2.83183E-05 5.04028E-06 2.41346E-19-3.37390E-20
 -1      3076 9.77187E-05-3.16291E-05-2.83125E-05 4.40178E-06 1.22056E-18-4.43687E-19
 -1      3077 9.93139E-05-3.26387E-05-2.85767E-05 5.19438E-06 8.60504E-20 1.36499E-18
 -1      3078 9.73013E-05-3.13520E-05-2.82749E-05 3.79061E-06 1.21108E-18-1.01957E-18
 -1      3079 9.71718E-05-3.11401E-05-2.82874E-05 3.25281E-06 1.72325E-18-1.30232E-18
 -1      3080 9.85071E-05-3.21556E-05-2.84421E-05 3.85209E-06 1.20519E-18-9.85933E-19
 -1      3081 9.67852E-05-3.08296E-05-2.82754E-05 2.77985E-06 2.51395E-18-2.11826E-18
 -1      3082 9.66480E-05-3.05958E-05-2.82974E-05 2.35273E-06 2.11070E-18-2.71015E-18
 -1      3083 9.76974E-05-3.15001E-05-2.83777E-05 2.79101E-06 1.62452E-18-3.89211E-18
 -1      3084 9.63268E-05-3.03090E-05-2.82999E-05 2.00488E-06 1.69113E-18-1.82268E-18
 -1      3085 9.62084E-05-3.00990E-05-2.83243E-05 1.67805E-06 1.58819E-19-1.05502E-18
 -1      3086 9.69883E-05-3.08359E-05-2.83582E-05 1.99342E-06 2.26153E-18-3.87277E-18
 -1      3087 9.59637E-05-2.98645E-05-2.83333E-05 1.42489E-06-1.49569E-18-8.62568E-19
 -1      3088 9.58776E-05-2.96981E-05-2.83567E-05 1.17811E-06-1.48636E-18-1.37299E-18
 -1      3089 9.64258E-05-3.02551E-05-2.83625E-05 1.41700E-06-1.76064E-20-2.96551E-18
 -1      3090 9.57352E-05-2.95362E-05-2.83722E-05 9.39945E-07-2.60329E-18-1.98411E-18
 -1      3091 9.52450E-05-2.87196E-05-2.85107E-05-1.13925E-06 5.62294E-19-6.36156E-19
 -1      3092 9.52409E-05-2.86532E-05-2.85343E-05-1.13840E-06 6.91484E-19-6.14838E-19
 -1      3093 9.55778E-05-2.86913E-05-2.86688E-05-1.06922E-06 7.60695E-19-9.29207E-19
 -1      3094 9.45523E-05-2.77888E-05-2.86145E-05 7.57246E-08 7.78450E-19-1.50257E-18
 -1      3095 9.44680E-05-2.76792E-05-2.86254E-05 1.52855E-07 2.42681E-19-1.23624E-18
 -1      3096 9.44571E-05-2.77383E-05-2.85917E-05-1.39131E-07 7.24222E-19-3.96850E-18
 -1      3097 9.53195E-05-2.83447E-05-2.87053E-05-9.18836E-07 3.79567E-19-5.25353E-19
 -1      3098 9.53496E-05-2.81803E-05-2.87781E-05-7.47860E-07 4.57486E-19-5.20594E-19
 -1      3099 9.56869E-05-2.80196E-05-2.90051E-05-5.09162E-07 5.46054E-19-4.55053E-19
 -1      3100 9.52267E-05-2.87906E-05-2.84719E-05-1.08019E-06 3.67997E-19-5.47371E-19
 -1      3101 9.52138E-05-2.87544E-05-2.84811E-05-1.11919E-06 3.71549E-19-7.56220E-19
 -1      3102 9.55173E-05-2.88352E-05-2.85806E-05-1.09942E-06 4.37730E-19-8.50936E-19
 -1      3103 9.52170E-05-2.88213E-05-2.84544E-05-9.70377E-07-2.16818E-20-2.50046E-19
 -1      3104 9.52002E-05-2.88035E-05-2.84553E-05-1.03063E-06 2.45639E-19-2.28784E-19
 -1      3105 9.54639E-05-2.89026E-05-2.85282E-05-1.04063E-06 7.82120E-20-4.54266E-19
 -1      3106 9.52120E-05-2.88248E-05-2.84508E-05-8.35819E-07 3.23302E-19-3.36277E-19
 -1      3107 9.51944E-05-2.88195E-05-2.84466E-05-9.05275E-07 1.54241E-19-3.67288E-19
 -1      3108 9.54178E-05-2.89238E-05-2.84987E-05-9.32635E-07 1.30918E-19-5.18286E-19
 -1      3109 9.52082E-05-2.88091E-05-2.84558E-05-6.94309E-07 2.20470E-19-2.21531E-19
 -1      3110 9.51923E-05-2.88133E-05-2.84488E-05-7.64800E-07 3.57654E-19-2.54895E-19
 -1      3111 9.53777E-05-2.89147E-05-2.84850E-05-8.00477E-07 2.57870E-19-3.26977E-19
 -1      3112 9.52000E-05-2.87749E-05-2.84671E-05-5.51579E-07-9.86883E-20-7.73186E-19
 -1      3113 9.51885E-05-2.87889E-05-2.84579E-05-6.20249E-07 7.98465E-20-5.04433E-19
 -1      3114 9.53397E-05-2.88829E-05-2.84820E-05-6.57493E-07 2.80571E-19-3.24420E-19
 -1      3115 9.51811E-05-2.87223E-05-2.84816E-05-4.30923E-07-1.16422E-19-6.00402E-19
 -1      3116 9.51778E-05-2.87468E-05-2.84717E-05-4.86360E-07 1.19697E-19-6.68957E-19
 -1      3117 9.52994E-05-2.88312E-05-2.84863E-05-5.18767E-07 3.50602E-21-8.15617E-19
 -1      3118 9.51404E-05-2.86400E-05-2.84995E-05-3.34106E-07 2.72470E-19-8.64563E-19
 -1      3119 9.51500E-05-2.86812E-05-2.84883E-05-3.74200E-07 3.00023E-20-7.46343E-19
 -1      3120 9.52478E-05-2.87561E-05-2.84958E-05-3.95514E-07 1.05572E-19-1.56008E-18
 -1      3121 9.50581E-05-2.85074E-05-2.85212E-05-2.71493E-07 8.48754E-19-8.57041E-19
 -1      3122 9.50896E-05-2.85765E-05-2.85080E-05-2.89031E-07 8.62482E-19-7.77889E-19
 -1      3123 9.51684E-05-2.86427E-05-2.85095E-05-2.90214E-07 5.58192E-19-1.54622E-18
 -1      3124 9.49000E-05-2.82884E-05-2.85477E-05-2.56906E-07 8.03698E-19-5.69448E-19
 -1      3125 9.49697E-05-2.84047E-05-2.85315E-05-2.41548E-07 8.24137E-19-4.90255E-19
 -1      3126 9.50337E-05-2.84641E-05-2.85268E-05-2.08095E-07 7.49565E-19-1.10387E-18
 -1      3127 9.46077E-05-2.79243E-05-2.85792E-05-3.08701E-07 4.63643E-19-1.09680E-18
 -1      3128 9.47441E-05-2.81196E-05-2.85593E-05-2.45741E-07 1.12354E-18-5.77964E-19
 -1      3129 9.47977E-05-2.81750E-05-2.85469E-05-1.53371E-07 8.84378E-19-5.64523E-20
 -1      3130 9.40418E-05-2.72817E-05-2.86142E-05-4.57154E-07-2.26709E-19-9.29254E-19
 -1      3131 9.43175E-05-2.76283E-05-2.85906E-05-3.19370E-07-2.26323E-19-1.26085E-18
 -1      3132 9.43694E-05-2.76893E-05-2.85671E-05-1.26137E-07 1.00208E-19-2.72236E-19
 -1      3133 9.30699E-05-2.62680E-05-2.86378E-05-7.03222E-07-1.53633E-19-1.13870E-18
 -1      3134 9.35534E-05-2.68133E-05-2.86180E-05-4.83856E-07-8.60081E-20-8.97331E-19
 -1      3135 9.36195E-05-2.68954E-05-2.85776E-05-1.11760E-07-2.72781E-19-8.12908E-19
 -1      3136 9.13793E-05-2.46459E-05-2.86196E-05-1.03946E-06-4.39785E-19-7.81482E-19
 -1      3137 9.22440E-05-2.55184E-05-2.86196E-05-7.24309E-07-9.89813E-20-1.00471E-18
 -1      3138 9.23641E-05-2.56601E-05-2.85558E-05-6.49811E-08-1.70737E-19-1.14552E-18
 -1      3139 8.84894E-05-2.21227E-05-2.84837E-05-1.37798E-06-1.09823E-18-4.08950E-19
 -1      3140 9.00071E-05-2.34795E-05-2.85461E-05-9.93775E-07-9.65585E-19-7.00692E-19
 -1      3141 9.02684E-05-2.37541E-05-2.84528E-05 1.33676E-07-8.70027E-19-1.24156E-18
 -1      3142 8.36685E-05-1.83710E-05-2.80647E-05-1.47760E-06-8.91621E-19 5.51696E-20
 -1      3143 8.62685E-05-2.03860E-05-2.82845E-05-1.12938E-06-7.72138E-19-2.91622E-19
 -1      3144 8.68537E-05-2.09292E-05-2.81644E-05 7.42105E-07-1.17050E-18-6.64711E-19
 -1      3145 7.53780E-05-1.28540E-05-2.69136E-05-7.29354E-07-3.46853E-19-3.01722E-19
 -1      3146 7.99854E-05-1.57971E-05-2.75643E-05-7.17508E-07-3.73644E-19-2.95843E-19
 -1      3147 8.12790E-05-1.68797E-05-2.74516E-05 2.31778E-06-3.37068E-19 5.00577E-20
 -1      3148 6.36966E-05-6.48034E-06-2.45470E-05 1.92665E-06-2.46937E-19-1.43933E-18
 -1      3149 7.00584E-05-9.85887E-06-2.58431E-05 9.21524E-07 7.03037E-20-7.64474E-19
 -1      3150 7.27265E-05-1.17803E-05-2.58645E-05 5.82694E-06 2.13858E-19-1.27207E-19
 -1      3151 4.90636E-05-1.02517E-05-1.56147E-05 3.24245E-05 1.93759E-19 1.69428E-18
 -1      3152 9.44858E-05-2.78575E-05-2.85462E-05-6.61837E-07 6.51529E-21-4.32635E-18
 -1      3153 9.44392E-05-2.77996E-05-2.85669E-05-4.29191E-07 8.22598E-19-4.75116E-18
 -1      3154 9.43127E-05-2.76414E-05-2.85729E-05-3.92705E-07 1.33222E-18-4.33415E-18
 -1      3155 9.42042E-05-2.73763E-05-2.86441E-05 2.84108E-07-2.09619E-19-1.77916E-18
 -1      3156 9.47946E-05-2.82430E-05-2.85116E-05-1.08450E-06 8.79114E-19 5.63356E-18
 -1      3157 9.46193E-05-2.80750E-05-2.85276E-05-9.12922E-07 4.48619E-19 1.74538E-18
 -1      3158 9.44637E-05-2.79080E-05-2.85288E-05-9.58375E-07 2.16451E-18 9.42349E-19
 -1      3159 9.53905E-05-2.64049E-05-2.95784E-05 1.40753E-06 9.64451E-19-6.89750E-19
 -1      3160 9.54620E-05-2.58189E-05-2.98438E-05 2.31684E-06 1.06658E-18-8.12464E-19
 -1      3161 9.56083E-05-2.63525E-05-2.96973E-05 1.27910E-06 8.96351E-19-7.19134E-19
 -1      3162 9.63897E-05-2.99966E-05-2.84495E-05-3.76537E-07-1.26356E-18-5.21708E-19
 -1      3163 9.63135E-05-2.99101E-05-2.84581E-05-6.22698E-07-2.01896E-18-1.54126E-18
 -1      3164 9.61578E-05-2.97221E-05-2.84646E-05-9.09506E-07-1.98823E-18-2.73573E-18
 -1      3165 9.59712E-05-2.95457E-05-2.84717E-05-1.09623E-06-8.02841E-19 4.69199E-19
 -1      3166 9.64289E-05-3.00115E-05-2.84728E-05-9.18207E-07-2.31251E-18-2.23756E-18
 -1      3167 9.61335E-05-2.98625E-05-2.83999E-05 6.87996E-07-2.37894E-18-2.73148E-18
 -1      3168 9.62697E-05-2.99598E-05-2.84118E-05 4.98734E-07-1.70993E-18-4.01399E-18
 -1      3169 7.95653E-05-1.54443E-05-2.75444E-05 1.09345E-06 9.47598E-19-4.11443E-19
 -1      3170 7.51427E-05-1.25578E-05-2.69250E-05 1.19370E-06 1.67732E-19-8.18538E-19
 -1      3171 8.98217E-05-2.32464E-05-2.85679E-05 1.09562E-06-1.79848E-18 9.42509E-19
 -1      3172 8.82492E-05-2.18431E-05-2.85007E-05 1.54059E-06-2.32545E-18 1.24974E-18
 -1      3173 9.40027E-05-2.09214E-05-3.13233E-05-6.06088E-06-8.89600E-19-1.86763E-18
 -1      3174 9.44346E-05-2.22609E-05-3.09429E-05-4.96189E-06-7.68126E-19-1.90833E-18
 -1      3175 1.37365E-04-3.96064E-05-4.24998E-05-9.04278E-06-5.77253E-19-1.16200E-18
 -1      3176 1.40582E-04-4.73357E-05-3.98706E-05-2.96930E-06-1.53011E-18 2.02335E-19
 -1      3177 6.86023E-05-8.87783E-06-2.56537E-05-6.51114E-08-1.49111E-19-1.05018E-18
 -1      3178 6.20641E-05-5.36744E-06-2.42226E-05 3.36818E-07-2.99638E-20-7.04996E-19
 -1      3179 8.59160E-05-2.00320E-05-2.82860E-05 1.33827E-06-2.56732E-18 1.28663E-18
 -1      3180 8.32175E-05-1.79471E-05-2.80484E-05 1.75553E-06 2.56542E-19 6.03961E-19
 -1      3181 8.07752E-05-1.64309E-05-2.74166E-05-2.11584E-06-4.61999E-19 8.27955E-19
 -1      3182 9.49025E-05-2.36987E-05-3.05079E-05 4.37150E-06 1.31586E-18-8.02747E-19
 -1      3183 2.86977E-05-5.37413E-07-1.12546E-05 1.13112E-05-4.45936E-19-9.87429E-19
 -1      3184 3.92373E-05 6.13976E-07-1.64986E-05 1.28457E-07-4.83153E-19-1.82514E-18
 -1      3185 9.63796E-05-3.00458E-05-2.84282E-05 1.96683E-07-1.57735E-18-2.92686E-18
 -1      3186 9.64129E-05-3.00462E-05-2.84385E-05-5.60167E-08-1.28703E-18-1.27084E-18
 -1      3187 9.66225E-05-3.02493E-05-2.84553E-05-2.63263E-07-2.20417E-18-1.33588E-18
 -1      3188 9.65552E-05-3.02279E-05-2.84274E-05 3.92560E-07-2.18863E-18-3.80008E-18
 -1      3189 1.20975E-04-5.43260E-05-2.89258E-05 3.46948E-05-6.82920E-20-9.30942E-20
 -1      3190 1.07084E-04-4.70612E-05-2.52124E-05 4.11003E-05-1.66865E-19-2.88176E-19
 -1      3191 9.03823E-05-3.79011E-05-2.26054E-05 4.45128E-05-3.01861E-19-1.14805E-18
 -1      3192 7.55491E-05-2.77651E-05-1.98408E-05 4.32702E-05-4.06152E-19-1.96247E-18
 -1      3193 4.89774E-05-8.90871E-07-2.03922E-05 2.98159E-06-5.80227E-19-1.19802E-18
 -1      3194 9.21628E-05-2.53693E-05-2.86497E-05 7.37117E-07-1.60411E-18 8.35940E-20
 -1      3195 9.12658E-05-2.44654E-05-2.86478E-05 1.09999E-06-1.93437E-18-9.67648E-19
 -1      3196 9.00439E-05-2.34933E-05-2.84654E-05-1.06966E-07-7.41094E-19 3.25287E-19
 -1      3197 4.84433E-05-3.75768E-07-2.03373E-05 1.49512E-06 7.14883E-19 3.00908E-19
 -1      3198 5.95263E-05-1.82655E-05-1.75473E-05 4.01940E-05-5.81065E-19-1.22566E-18
 -1      3199 4.55628E-05-7.77631E-06-1.54190E-05 2.94230E-05-5.17855E-19-1.05477E-18
 -1      3200 7.17543E-05-2.23086E-05-2.07867E-05 3.70157E-05-3.32355E-19-1.55367E-18
 -1      3201 1.42937E-04-4.14975E-05-4.36729E-05 6.47105E-06 8.94361E-19-3.15096E-19
 -1      3202 1.40527E-04-3.16380E-05-4.72925E-05 1.13646E-05 8.08599E-19-1.44504E-18
 -1      3203 9.49757E-05-2.35887E-05-3.05874E-05-4.00690E-06-6.72883E-19-1.76690E-18
 -1      3204 9.51810E-05-2.46748E-05-3.02350E-05-2.86412E-06-7.66642E-19-1.63451E-18
 -1      3205 9.52543E-05-2.45286E-05-3.03076E-05-2.53911E-06-7.44340E-19-1.96745E-18
 -1      3206 9.44371E-05-2.22545E-05-3.09264E-05-4.24175E-06-7.06933E-19-1.97007E-18
 -1      3207 9.35331E-05-2.67101E-05-2.86532E-05 4.20832E-07 3.92677E-19-1.39258E-18
 -1      3208 9.30316E-05-2.61508E-05-2.86718E-05 6.89582E-07-4.00446E-19-6.34989E-19
 -1      3209 9.22489E-05-2.54880E-05-2.85796E-05 2.87992E-08-2.90634E-19-1.81315E-18
 -1      3210 3.49910E-05-1.92814E-06-1.39182E-05 1.99251E-05-4.44269E-19-4.03823E-19
 -1      3211 1.26998E-04-1.62841E-05-4.80041E-05-1.25234E-05 1.48390E-19-1.96009E-18
 -1      3212 1.32914E-04-2.71946E-05-4.53477E-05-1.36527E-05 1.87512E-19-1.15149E-18
 -1      3213 1.28246E-04-6.34228E-06-5.26675E-05 7.13550E-06 4.78997E-19-2.18220E-18
 -1      3214 1.25702E-04-4.15306E-06-5.27100E-05 2.71617E-06-5.65712E-19-2.35436E-18
 -1      3215 1.20121E-04-5.99018E-06-4.92360E-05 5.49709E-07-4.84503E-19-1.80448E-18
 -1      3216 1.20563E-04-5.23717E-05-2.90546E-05-3.08562E-05-5.34484E-19 5.04269E-19
 -1      3217 1.28880E-04-5.58440E-05-3.14297E-05-2.54525E-05-2.29652E-19 1.89053E-19
 -1      3218 9.23528E-05-1.83276E-05-3.17404E-05 1.80651E-06 7.06125E-19-2.01651E-18
 -1      3219 9.22319E-05-1.81245E-05-3.17721E-05 1.05446E-06 4.96398E-19-2.12906E-18
 -1      3220 1.36223E-04-2.08795E-05-4.96967E-05 1.32112E-05 1.05159E-18-1.62546E-18
 -1      3221 1.31890E-04-1.25931E-05-5.17900E-05 1.10717E-05 1.46643E-18-1.09415E-18
 -1      3222 5.18416E-05-2.58563E-06-2.06732E-05-7.11069E-06 1.18790E-18-3.95035E-19
 -1      3223 9.51496E-05-2.44257E-05-3.02895E-05 3.29456E-06 1.21585E-18-9.01886E-19
 -1      3224 5.41155E-05-4.00999E-06-2.10117E-05 1.01293E-05-4.17548E-19-1.00331E-18
 -1      3225 9.25055E-05-1.85894E-05-3.16892E-05-2.36658E-06-2.94359E-19-2.05593E-18
 -1      3226 9.27399E-05-1.89934E-05-3.16240E-05-3.07106E-06-5.53216E-19-2.14402E-18
 -1      3227 9.56396E-05-2.84361E-05-2.88056E-05-8.94560E-07 4.97644E-19-4.51602E-19
 -1      3228 9.26619E-05-1.84531E-05-3.18142E-05-6.48189E-06-8.24430E-19-2.17425E-18
 -1      3229 1.36595E-04-4.99362E-05-3.72034E-05 2.43847E-06-1.16060E-18 1.09320E-19
 -1      3230 1.00385E-04-4.10222E-05-2.50857E-05 3.79006E-05-4.21928E-20-2.32272E-20
 -1      3231 9.37558E-05-2.69821E-05-2.86028E-05-4.00925E-08 4.88721E-20-3.27560E-18
 -1      3232 5.97379E-05-1.24506E-05-1.99090E-05-2.90023E-05 8.54921E-19 1.79730E-19
 -1      3233 6.38787E-05-1.86787E-05-1.88888E-05-3.81248E-05-2.20599E-19 2.61363E-19
 -1      3234 1.31883E-04-5.45016E-05-3.31674E-05-1.67030E-05-1.04217E-18 1.06023E-18
 -1      3235 1.26920E-04-5.41420E-05-3.11161E-05 2.45663E-05-3.86776E-19 5.45542E-19
 -1      3236 9.60370E-05-2.98106E-05-2.83828E-05 9.23089E-07-2.45671E-18-3.04638E-18
 -1      3237 7.92109E-05-2.61443E-05-2.24531E-05-3.64595E-05-1.35515E-18 7.17834E-19
 -1      3238 7.42418E-05-2.64875E-05-2.01793E-05-4.15750E-05-1.00008E-18-2.81638E-19
 -1      3239 8.88243E-05-3.62315E-05-2.23559E-05-4.39389E-05-7.41366E-19 7.13625E-20
 -1      3240 9.33471E-05-1.98743E-05-3.14809E-05-5.21313E-06-7.24890E-19-2.16958E-18
 -1      3241 9.37279E-05-2.07420E-05-3.12619E-05-2.80055E-06-6.40543E-19-2.04713E-18
 -1      3242 9.30230E-05-1.94814E-05-3.15259E-05-3.61040E-06-6.72472E-19-2.16761E-18
 -1      3243 9.33821E-05-2.01284E-05-3.14124E-05-4.19388E-06-7.15269E-19-2.25039E-18
 -1      3244 9.51251E-05-2.42195E-05-3.03776E-05 2.97057E-06 1.11087E-18-1.02945E-18
 -1      3245 9.50245E-05-2.85390E-05-2.84996E-05-1.20324E-06 5.17673E-19 4.13115E-18
 -1      3246 9.49056E-05-2.84191E-05-2.84998E-05-1.31440E-06 1.87227E-18 4.42783E-18
 -1      3247 9.52645E-05-2.87703E-05-2.84882E-05-1.26559E-06 4.41830E-19 2.83173E-18
 -1      3248 9.62984E-05-3.00662E-05-2.83889E-05 9.30261E-07-1.56162E-18-4.04718E-18
 -1      3249 7.13084E-05-1.08081E-05-2.56638E-05-5.15345E-06-8.27644E-20-1.74148E-19
 -1      3250 1.37340E-04-5.06969E-05-3.71625E-05-2.93302E-06-2.89480E-19 1.61458E-18
 -1      3251 1.41898E-04-4.79765E-05-4.05383E-05 2.12735E-06 8.06653E-19 5.80853E-19
 -1      3252 1.36313E-04-4.13797E-05-4.07534E-05 7.90622E-06-3.27061E-19-2.40187E-19
 -1      3253 8.64577E-05-2.05425E-05-2.81542E-05-6.49354E-07-1.93870E-18 2.32780E-18
 -1      3254 1.30379E-04-3.26687E-05-4.19688E-05-1.17507E-05-5.14837E-20-1.25941E-18
 -1      3255 1.33332E-04-2.65616E-05-4.59990E-05 1.29483E-05 1.06657E-18-7.13731E-19
 -1      3256 1.16264E-04-9.50750E-06-4.59678E-05-7.07078E-06-1.72159E-19-1.77011E-18
 -1      3257 1.21904E-04-1.21851E-05-4.73215E-05-1.06361E-05-1.50984E-19-1.39836E-18
 -1      3258 1.19395E-04-1.75681E-05-4.37723E-05-1.16328E-05 1.22290E-19-7.63435E-19
 -1      3259 9.57258E-05-2.92675E-05-2.84738E-05-1.20630E-06 2.20127E-19 1.45702E-18
 -1      3260 9.54917E-05-2.90439E-05-2.84824E-05-1.26757E-06 6.88266E-19 1.69532E-18
 -1      3261 9.54749E-05-2.89967E-05-2.84858E-05-1.43104E-06 1.22512E-18 1.38953E-18
 -1      3262 9.59780E-05-2.95368E-05-2.84789E-05-1.34723E-06-3.45497E-20-3.69490E-19
 -1      3263 9.34194E-05-2.02038E-05-3.14042E-05 4.23710E-06 1.10313E-18-1.58825E-18
 -1      3264 9.30612E-05-1.95417E-05-3.15171E-05 3.64256E-06 9.92582E-19-1.67541E-18
 -1      3265 9.43460E-05-2.19940E-05-3.09859E-05 3.60468E-06 1.13657E-18-1.39452E-18
 -1      3266 4.78150E-05-6.08667E-06-1.73869E-05 2.38280E-05-8.05264E-19-9.23372E-19
 -1      3267 9.27700E-05-1.90417E-05-3.16176E-05 3.11567E-06 9.32187E-19-1.78362E-18
 -1      3268 9.25292E-05-1.86234E-05-3.16846E-05 2.41547E-06 8.04674E-19-1.94743E-18
 -1      3269 9.33387E-05-1.99966E-05-3.14134E-05 1.79768E-06 6.78692E-19-1.92441E-18
 -1      3270 9.37580E-05-2.07832E-05-3.12529E-05 2.83693E-06 8.49111E-19-1.66567E-18
 -1      3271 1.24572E-04-1.08402E-05-4.90650E-05 9.21626E-06 5.33631E-19-2.34983E-18
 -1      3272 9.21709E-05-1.80237E-05-3.17904E-05 4.07194E-07 3.98078E-19-2.06585E-18
 -1      3273 9.21678E-05-1.80191E-05-3.17909E-05-3.58843E-07 2.45175E-19-1.98851E-18
 -1      3274 9.31233E-05-1.96072E-05-3.14894E-05 6.25649E-07 4.23628E-19-1.99865E-18
 -1      3275 6.09509E-05-9.34979E-06-2.20756E-05 1.94413E-05-3.26809E-19-8.11193E-19
 -1      3276 9.92458E-05-4.22159E-05-2.42005E-05-4.14347E-05-4.59674E-19 7.75565E-19
 -1      3277 1.12663E-04-4.96007E-05-2.71375E-05-3.68946E-05-8.97855E-20 4.66133E-20
 -1      3278 1.16991E-04-4.95273E-05-2.88285E-05-2.89135E-05-1.19929E-18 2.10150E-19
 -1      3279 9.98680E-05-4.01037E-05-2.53998E-05-3.65220E-05-1.28437E-18 3.62345E-19
 -1      3280 9.59119E-05-2.85361E-05-2.88778E-05-8.63728E-07 6.69353E-19-9.34025E-19
 -1      3281 9.59425E-05-2.83460E-05-2.89633E-05-7.18390E-07 4.87799E-19-6.96284E-19
 -1      3282 1.26495E-04-5.21195E-05-3.19354E-05-1.63846E-05-4.32874E-19 3.87197E-19
 -1      3283 1.34086E-04-5.36522E-05-3.46058E-05-9.90433E-06-3.19795E-19 1.28664E-18
 -1      3284 1.32880E-04-4.96744E-05-3.56219E-05-2.72638E-06 2.47249E-19 1.12105E-18
 -1      3285 9.60189E-05-2.68998E-05-2.96134E-05-4.28382E-07-3.82863E-19-1.55962E-18
 -1      3286 9.60684E-05-2.73961E-05-2.94388E-05-1.40373E-08-4.82802E-19-1.42333E-18
 -1      3287 9.61493E-05-2.78177E-05-2.92775E-05 2.64068E-07-5.37897E-19-1.24535E-18
 -1      3288 9.61440E-05-2.81378E-05-2.91501E-05 5.16231E-07-5.96637E-19-1.02559E-18
 -1      3289 9.62502E-05-2.74479E-05-2.94870E-05 3.15398E-08-4.00082E-19-1.30934E-18
 -1      3290 9.61518E-05-2.84025E-05-2.90297E-05 6.76878E-07-7.55223E-19-9.13756E-19
 -1      3291 9.61207E-05-2.86027E-05-2.89387E-05 8.10579E-07-5.35122E-19-8.69899E-19
 -1      3292 9.63384E-05-2.82103E-05-2.91993E-05 4.90786E-07-5.58420E-19-7.63751E-19
 -1      3293 9.60867E-05-2.87598E-05-2.88503E-05 8.84931E-07-4.83918E-19-8.38857E-19
 -1      3294 9.60453E-05-2.88782E-05-2.87868E-05 9.36516E-07-2.32685E-19-1.04962E-18
 -1      3295 9.63140E-05-2.86880E-05-2.89846E-05 7.44321E-07-4.45114E-19-7.84218E-19
 -1      3296 9.59900E-05-2.89631E-05-2.87231E-05 9.51677E-07-1.66034E-19-1.26993E-18
 -1      3297 9.59466E-05-2.90270E-05-2.86797E-05 9.49052E-07-1.18246E-19-1.20684E-18
 -1      3298 9.62271E-05-2.89686E-05-2.88272E-05 8.50092E-07-2.88350E-19-1.03099E-18
 -1      3299 9.58834E-05-2.90652E-05-2.86347E-05 9.26029E-07-9.30956E-20-1.34865E-18
 -1      3300 9.58424E-05-2.90944E-05-2.86057E-05 8.89429E-07 2.75127E-20-1.32357E-18
 -1      3301 9.61111E-05-2.91169E-05-2.87139E-05 8.55983E-07-1.53116E-19-1.31688E-18
 -1      3302 9.57801E-05-2.91046E-05-2.85742E-05 8.43373E-07-3.45200E-20-1.19960E-18
 -1      3303 9.57445E-05-2.91138E-05-2.85552E-05 7.86683E-07 1.03015E-19-1.23919E-18
 -1      3304 9.59879E-05-2.91809E-05-2.86335E-05 7.98261E-07-8.05073E-20-1.54633E-18
 -1      3305 9.56891E-05-2.91099E-05-2.85333E-05 7.27929E-07 9.45131E-20-1.20507E-18
 -1      3306 9.56608E-05-2.91103E-05-2.85207E-05 6.60030E-07-9.42140E-20-1.32500E-18
 -1      3307 9.58719E-05-2.91963E-05-2.85771E-05 7.02705E-07 4.90729E-20-1.60148E-18
 -1      3308 9.56168E-05-2.91033E-05-2.85053E-05 5.95099E-07-1.46694E-20-1.35122E-18
 -1      3309 9.55981E-05-2.91041E-05-2.84965E-05 5.20915E-07-3.39700E-20-1.28764E-18
 -1      3310 9.57738E-05-2.91905E-05-2.85374E-05 5.86656E-07-1.91040E-20-1.76049E-18
 -1      3311 9.55700E-05-2.91034E-05-2.84851E-05 4.53309E-07-4.25744E-19-1.03564E-18
 -1      3312 9.55635E-05-2.91129E-05-2.84780E-05 3.74585E-07-8.86387E-19-7.66586E-19
 -1      3313 9.57024E-05-2.91857E-05-2.85088E-05 4.60734E-07-5.40873E-20-1.63225E-18
 -1      3314 9.55564E-05-2.91273E-05-2.84688E-05 3.05402E-07-1.05508E-18-4.90404E-19
 -1      3315 9.55663E-05-2.91538E-05-2.84618E-05 2.21183E-07-6.91059E-19-3.68412E-19
 -1      3316 9.56672E-05-2.92017E-05-2.84871E-05 3.30295E-07-8.24809E-19-6.99167E-19
 -1      3317 9.55874E-05-2.91925E-05-2.84536E-05 1.49417E-07-4.71849E-19-3.86922E-19
 -1      3318 9.56198E-05-2.92453E-05-2.84457E-05 5.62084E-08-3.78808E-19-3.72145E-19
 -1      3319 9.56802E-05-2.92579E-05-2.84690E-05 1.96424E-07-3.68435E-19-6.74675E-19
 -1      3320 9.56790E-05-2.93190E-05-2.84377E-05-2.13190E-08-6.01767E-19-6.34728E-19
 -1      3321 9.57423E-05-2.94083E-05-2.84285E-05-1.29736E-07-6.62700E-19-5.00362E-19
 -1      3322 9.57583E-05-2.93757E-05-2.84527E-05 5.62657E-08-5.42598E-19-6.00114E-19
 -1      3323 9.58535E-05-2.95294E-05-2.84210E-05-2.18953E-07-4.59665E-19-4.90807E-19
 -1      3324 9.59587E-05-2.96669E-05-2.84107E-05-3.52066E-07-2.07307E-19-3.52071E-19
 -1      3325 9.59249E-05-2.95799E-05-2.84378E-05-9.75301E-08-4.75142E-19-2.79356E-19
 -1      3326 9.61401E-05-2.98490E-05-2.84050E-05-4.62846E-07-2.51689E-19 1.71872E-19
 -1      3327 9.63001E-05-3.00461E-05-2.83950E-05-6.34235E-07 1.34626E-21 2.80686E-19
 -1      3328 9.62120E-05-2.98989E-05-2.84258E-05-2.78566E-07 1.29629E-20 6.68016E-20
 -1      3329 9.65734E-05-3.03023E-05-2.83940E-05-7.82223E-07 2.57975E-19 1.12388E-19
 -1      3330 9.68010E-05-3.05670E-05-2.83874E-05-1.01047E-06 5.68327E-19 3.22335E-20
 -1      3331 9.66595E-05-3.03624E-05-2.84211E-05-5.09830E-07-3.07732E-21 6.13839E-19
 -1      3332 9.71890E-05-3.09055E-05-2.83963E-05-1.21942E-06 4.39624E-19-1.00496E-19
 -1      3333 9.74920E-05-3.12364E-05-2.83984E-05-1.52849E-06 9.44760E-19-5.87931E-19
 -1      3334 9.73128E-05-3.09959E-05-2.84322E-05-8.28298E-07 2.88147E-19 1.71518E-19
 -1      3335 9.80121E-05-3.16525E-05-2.84256E-05-1.83242E-06 1.25021E-18-5.95888E-19
 -1      3336 9.83853E-05-3.20285E-05-2.84446E-05-2.25025E-06 1.11691E-18-4.75313E-19
 -1      3337 9.82138E-05-3.18069E-05-2.84732E-05-1.29035E-06 1.06522E-18-5.08614E-20
 -1      3338 9.90368E-05-3.24913E-05-2.85026E-05-2.69293E-06 7.85359E-19-4.53112E-19
 -1      3339 9.94511E-05-3.28573E-05-2.85499E-05-3.24541E-06 8.62018E-19-3.20669E-19
 -1      3340 9.93825E-05-3.27624E-05-2.85660E-05-1.97551E-06 8.83796E-19-2.04311E-19
 -1      3341 1.00196E-04-3.32917E-05-2.86555E-05-3.87098E-06 7.41995E-19-9.02476E-19
 -1      3342 1.00586E-04-3.35449E-05-2.87453E-05-4.56647E-06 5.75826E-19-7.50102E-19
 -1      3343 1.00784E-04-3.37526E-05-2.87415E-05-2.98023E-06 7.48457E-19-1.02324E-18
 -1      3344 1.01327E-04-3.38191E-05-2.89179E-05-5.39570E-06 3.68758E-19-8.13917E-19
 -1      3345 1.01588E-04-3.38059E-05-2.90648E-05-6.20068E-06 2.08476E-19-8.16511E-19
 -1      3346 1.02290E-04-3.45531E-05-2.90385E-05-4.38601E-06 4.17751E-19-7.55957E-19
 -1      3347 1.02159E-04-3.37313E-05-2.93222E-05-7.18886E-06 5.56685E-19-7.69060E-19
 -1      3348 1.02158E-04-3.32689E-05-2.95357E-05-7.99437E-06 5.98119E-19-7.23983E-19
 -1      3349 1.03637E-04-3.48035E-05-2.94983E-05-6.19553E-06 5.51829E-19-5.03160E-19
 -1      3350 1.02344E-04-3.26397E-05-2.98849E-05-8.97522E-06 4.78918E-19-6.02202E-19
 -1      3351 1.01970E-04-3.15842E-05-3.01637E-05-9.56878E-06 7.87200E-19-4.72159E-20
 -1      3352 1.04437E-04-3.40517E-05-3.01493E-05-8.22572E-06 8.84794E-19 3.50075E-19
 -1      3353 1.01587E-04-3.02771E-05-3.05936E-05-1.02158E-05 5.36292E-19 3.92481E-20
 -1      3354 1.00829E-04-2.86415E-05-3.09157E-05-1.02961E-05 1.62644E-19 4.30083E-19
 -1      3355 1.04268E-04-3.18833E-05-3.09909E-05-9.99475E-06 9.08568E-19 1.84945E-19
 -1      3356 9.98641E-05-2.67640E-05-3.13773E-05-1.01760E-05-5.92592E-20-7.40558E-20
 -1      3357 9.88809E-05-2.48383E-05-3.16925E-05-9.44585E-06 1.67328E-19 8.48905E-19
 -1      3358 1.02924E-04-2.82640E-05-3.19631E-05-1.07281E-05 2.87495E-20-7.40705E-19
 -1      3359 9.76513E-05-2.28613E-05-3.20989E-05-8.20140E-06-3.37261E-19 2.63274E-19
 -1      3360 9.67829E-05-2.12276E-05-3.23386E-05-6.56354E-06-5.47117E-19 8.96346E-19
 -1      3361 1.00679E-04-2.38249E-05-3.29164E-05-9.49037E-06-1.11175E-19-7.42673E-19
 -1      3362 9.58718E-05-1.98776E-05-3.25913E-05-4.25235E-06-6.36669E-19 2.81323E-19
 -1      3363 9.54725E-05-1.91397E-05-3.26937E-05-1.97709E-06-9.34392E-19 4.42326E-19
 -1      3364 9.84695E-05-1.99909E-05-3.36432E-05-5.92638E-06-8.67991E-19-6.01566E-19
 -1      3365 9.53665E-05-1.89867E-05-3.27210E-05 8.53078E-07-2.79836E-19 7.23051E-19
 -1      3366 9.56262E-05-1.94667E-05-3.26549E-05 3.20435E-06-2.46544E-19 1.49214E-18
 -1      3367 9.74107E-05-1.82470E-05-3.39537E-05-6.20026E-07-2.52053E-19 2.31127E-19
 -1      3368 9.63957E-05-2.05940E-05-3.24473E-05 5.69404E-06-1.01032E-18 1.49865E-18
 -1      3369 9.71895E-05-2.20797E-05-3.22332E-05 7.50753E-06-1.06354E-18 5.02488E-19
 -1      3370 9.81013E-05-1.93717E-05-3.37537E-05 4.88643E-06-6.16639E-19-4.22948E-19
 -1      3371 9.84021E-05-2.39831E-05-3.18520E-05 9.00663E-06-5.74651E-19 5.57100E-19
 -1      3372 9.93922E-05-2.58974E-05-3.15480E-05 9.93747E-06-4.10882E-19 5.19548E-19
 -1      3373 1.00148E-04-2.28757E-05-3.31032E-05 8.92608E-06-6.96789E-19 2.32428E-19
 -1      3374 1.00449E-04-2.78428E-05-3.10912E-05 1.02845E-05-1.14591E-18 7.11317E-19
 -1      3375 1.01276E-04-2.95740E-05-3.07668E-05 1.03640E-05-1.74910E-18 1.99361E-19
 -1      3376 1.02477E-04-2.73104E-05-3.21816E-05 1.06586E-05-6.44987E-19 5.06549E-19
 -1      3377 1.01795E-04-3.10238E-05-3.03254E-05 9.84744E-06-1.21735E-18 3.46960E-19
 -1      3378 1.02255E-04-3.22120E-05-3.00348E-05 9.34275E-06-4.74470E-19 1.47553E-18
 -1      3379 1.04066E-04-3.11823E-05-3.12010E-05 1.03003E-05-1.02758E-18 1.18814E-18
 -1      3380 1.02178E-04-3.29799E-05-2.96654E-05 8.40402E-06-5.79305E-19 1.40884E-18
 -1      3381 1.02250E-04-3.35595E-05-2.94369E-05 7.62871E-06 1.79430E-19 1.44687E-18
 -1      3382 1.04480E-04-3.36729E-05-3.03230E-05 8.68499E-06-1.67875E-19 1.99426E-18
 -1      3383 1.01740E-04-3.37349E-05-2.91597E-05 6.62564E-06 3.46594E-19 1.55272E-18
 -1      3384 1.01521E-04-3.38243E-05-2.89994E-05 5.81270E-06 8.37734E-19 1.51208E-18
 -1      3385 1.03849E-04-3.47016E-05-2.96276E-05 6.66472E-06 3.91216E-19 6.14306E-19
 -1      3386 1.00790E-04-3.35984E-05-2.88106E-05 4.94796E-06-7.08122E-20 1.42638E-18
 -1      3387 1.00413E-04-3.33807E-05-2.87103E-05 4.23300E-06-4.48205E-19 1.13545E-18
 -1      3388 1.02570E-04-3.46162E-05-2.91288E-05 4.78917E-06 8.81511E-20 9.92969E-19
 -1      3389 9.96513E-05-3.29605E-05-2.85924E-05 3.57405E-06 6.53239E-20 5.64675E-19
 -1      3390 9.92308E-05-3.26025E-05-2.85376E-05 3.00108E-06 7.06219E-19-4.48525E-19
 -1      3391 1.01054E-04-3.38801E-05-2.88014E-05 3.30973E-06-4.35194E-19 5.99190E-19
 -1      3392 9.85448E-05-3.21304E-05-2.84704E-05 2.53327E-06 6.89532E-19-1.59539E-18
 -1      3393 9.81565E-05-3.17471E-05-2.84463E-05 2.10093E-06 1.12285E-18-3.09671E-18
 -1      3394 9.95991E-05-3.28919E-05-2.86031E-05 2.24342E-06 2.85952E-19 2.12458E-19
 -1      3395 9.75910E-05-3.13028E-05-2.84127E-05 1.78171E-06 2.06401E-18-3.39683E-18
 -1      3396 9.72690E-05-3.09538E-05-2.84069E-05 1.47779E-06 1.68318E-18-3.33597E-18
 -1      3397 9.83467E-05-3.18991E-05-2.84936E-05 1.51391E-06 1.44999E-18-4.00606E-19
 -1      3398 9.68608E-05-3.06222E-05-2.83907E-05 1.28396E-06 1.05332E-18-4.45203E-18
 -1      3399 9.65999E-05-3.03341E-05-2.83937E-05 1.05525E-06-6.96856E-19-3.97609E-18
 -1      3400 9.66852E-05-3.03999E-05-2.84141E-05 7.95305E-07-1.24097E-18-4.32791E-18
 -1      3401 9.74164E-05-3.10858E-05-2.84396E-05 1.07049E-06 4.18037E-19-3.66165E-18
 -1      3402 9.56816E-05-2.90087E-05-2.85734E-05-9.61985E-07-2.33353E-20-9.24029E-19
 -1      3403 9.57080E-05-2.89812E-05-2.85956E-05-1.00010E-06 2.03549E-19-8.31516E-19
 -1      3404 9.56049E-05-2.90206E-05-2.85353E-05-8.56637E-07 2.55239E-19-1.11225E-18
 -1      3405 9.56276E-05-2.90149E-05-2.85475E-05-9.13774E-07 1.92431E-19-1.14925E-18
 -1      3406 9.58510E-05-2.90998E-05-2.86095E-05-8.84784E-07 2.57097E-19-1.43818E-18
 -1      3407 9.55345E-05-2.90000E-05-2.85138E-05-7.29806E-07 2.06996E-19-8.90245E-19
 -1      3408 9.55543E-05-2.90088E-05-2.85193E-05-7.95471E-07 4.61964E-20-1.08855E-18
 -1      3409 9.57488E-05-2.91030E-05-2.85639E-05-7.83886E-07 2.46253E-19-1.79583E-18
 -1      3410 9.54650E-05-2.89541E-05-2.85039E-05-5.89088E-07 2.26512E-19-8.16471E-19
 -1      3411 9.54856E-05-2.89753E-05-2.85046E-05-6.59704E-07 4.29987E-19-7.09243E-19
 -1      3412 9.56510E-05-2.90704E-05-2.85356E-05-6.59066E-07 2.41422E-19-1.59222E-18
 -1      3413 9.53972E-05-2.88894E-05-2.85028E-05-4.57096E-07 2.46775E-19-1.41594E-18
 -1      3414 9.54198E-05-2.89205E-05-2.85002E-05-5.21332E-07 2.38240E-19-9.88605E-19
 -1      3415 9.55589E-05-2.90127E-05-2.85204E-05-5.25531E-07 5.00334E-19-1.48291E-18
 -1      3416 9.53170E-05-2.87987E-05-2.85077E-05-3.32187E-07 1.58017E-19-1.30881E-18
 -1      3417 9.53490E-05-2.88446E-05-2.85027E-05-3.90301E-07 1.41490E-19-1.33533E-18
 -1      3418 9.54679E-05-2.89333E-05-2.85149E-05-3.92848E-07 3.18831E-19-1.35036E-18
 -1      3419 9.52047E-05-2.86659E-05-2.85172E-05-2.16089E-07 6.33150E-19-1.11220E-18
 -1      3420 9.52568E-05-2.87358E-05-2.85103E-05-2.65986E-07 3.78423E-19-1.16871E-18
 -1      3421 9.53626E-05-2.88239E-05-2.85158E-05-2.58938E-07 1.62480E-19-1.17034E-18
 -1      3422 9.50279E-05-2.84621E-05-2.85300E-05-1.07076E-07 1.69143E-19-5.37150E-19
 -1      3423 9.51179E-05-2.85723E-05-2.85215E-05-1.47664E-07 6.12714E-19-1.08164E-18
 -1      3424 9.52206E-05-2.86663E-05-2.85212E-05-1.19398E-07 3.93622E-19-7.26172E-19
 -1      3425 9.47331E-05-2.81400E-05-2.85440E-05 2.19910E-09 3.18796E-19 2.97483E-20
 -1      3426 9.48909E-05-2.83169E-05-2.85348E-05-2.96543E-08 3.57231E-19-4.23423E-19
 -1      3427 9.50053E-05-2.84283E-05-2.85288E-05 3.77543E-08 1.46764E-19-9.66329E-19
 -1      3428 9.42006E-05-2.75941E-05-2.85538E-05 1.40237E-07 1.70332E-19-4.34661E-19
 -1      3429 9.44955E-05-2.78969E-05-2.85468E-05 1.07685E-07 6.91198E-19 1.10474E-19
 -1      3430 9.46464E-05-2.80480E-05-2.85345E-05 2.43615E-07 5.33813E-19-1.07114E-19
 -1      3431 9.33340E-05-2.67645E-05-2.85454E-05 3.43448E-07-1.39991E-19-1.07235E-18
 -1      3432 9.38224E-05-2.72249E-05-2.85483E-05 2.94347E-07-3.10486E-19-9.72737E-19
 -1      3433 9.40541E-05-2.74553E-05-2.85292E-05 5.47849E-07 1.13754E-19-6.18223E-19
 -1      3434 9.19021E-05-2.54894E-05-2.84910E-05 7.19558E-07-3.09874E-19-1.42218E-18
 -1      3435 9.27264E-05-2.61987E-05-2.85202E-05 6.03563E-07-1.33003E-19-1.50716E-18
 -1      3436 9.31116E-05-2.65727E-05-2.84956E-05 1.03700E-06 2.61858E-20-1.45344E-18
 -1      3437 8.95891E-05-2.35969E-05-2.83323E-05 1.47425E-06-9.96448E-19-1.55340E-18
 -1      3438 9.09496E-05-2.46522E-05-2.84227E-05 1.18631E-06-4.26240E-19-9.67763E-19
 -1      3439 9.16202E-05-2.52792E-05-2.83989E-05 1.89268E-06-5.55565E-19-1.66636E-18
 -1      3440 8.59633E-05-2.09367E-05-2.79554E-05 2.98716E-06-8.93959E-19-1.75048E-18
 -1      3441 8.81518E-05-2.24249E-05-2.81768E-05 2.32613E-06-1.41143E-18-1.84328E-18
 -1      3442 8.93398E-05-2.34861E-05-2.81735E-05 3.42483E-06-9.68028E-19-1.99576E-18
 -1      3443 8.02031E-05-1.73087E-05-2.70782E-05 6.13435E-06-2.83445E-19-9.26042E-19
 -1      3444 8.37816E-05-1.93386E-05-2.76121E-05 4.60493E-06-4.16459E-19-1.18336E-18
 -1      3445 8.59025E-05-2.11378E-05-2.76821E-05 6.24907E-06-8.98437E-19-2.18879E-18
 -1      3446 7.20560E-05-1.31895E-05-2.53073E-05 1.17769E-05 2.14868E-20-8.18221E-19
 -1      3447 7.73953E-05-1.56351E-05-2.64199E-05 8.81418E-06 4.29075E-20-5.01453E-19
 -1      3448 8.10846E-05-1.86009E-05-2.67029E-05 1.12433E-05-4.37620E-19-1.42223E-18
 -1      3449 5.72337E-05-6.18993E-06-2.17732E-05-1.50421E-05 4.09997E-19-1.05064E-18
 -1      3450 9.54706E-05-2.50657E-05-3.01475E-05 2.04482E-06 7.72405E-19-1.02922E-18
 -1      3451 9.49820E-05-2.37018E-05-3.05717E-05 2.86737E-06 1.00744E-18-1.19281E-18
 -1      3452 9.47331E-05-2.30127E-05-3.07378E-05 2.66154E-06 8.61980E-19-1.31416E-18
 -1      3453 9.68567E-05-3.03655E-05-2.84863E-05-9.50743E-07-1.86792E-18-2.40147E-18
 -1      3454 9.66551E-05-3.01817E-05-2.84913E-05-1.27846E-06-1.19633E-18-4.43746E-18
 -1      3455 9.22224E-05-1.81113E-05-3.17738E-05-1.00605E-06 1.66984E-19-1.91974E-18
 -1      3456 9.23349E-05-1.83026E-05-3.17433E-05-1.75667E-06-9.76493E-20-1.93712E-18
 -1      3457 9.33218E-05-1.99707E-05-3.14174E-05-1.75874E-06-1.55674E-19-1.80659E-18
 -1      3458 9.59417E-05-2.80962E-05-2.90813E-05-5.35160E-07 3.64518E-19-5.59996E-19
 -1      3459 9.59598E-05-2.77939E-05-2.92049E-05-2.61495E-07 5.97163E-19-5.36139E-19
 -1      3460 9.61691E-05-2.81615E-05-2.91485E-05-5.18444E-07 5.43909E-19-1.03561E-18
 -1      3461 9.56028E-05-2.58581E-05-2.98997E-05 1.33419E-06 7.17644E-19-9.20727E-19
 -1      3462 1.20611E-04-1.45328E-05-4.56227E-05 1.17483E-05 7.88217E-19-2.26493E-18
 -1      3463 1.16924E-04-9.44005E-06-4.63994E-05 7.12087E-06-2.11758E-20-2.62196E-18
 -1      3464 7.61000E-05-1.47728E-05-2.62557E-05-8.81905E-06-2.27971E-20 9.28047E-19
 -1      3465 6.98987E-05-1.19241E-05-2.49184E-05-1.16795E-05-4.31179E-19 2.48789E-19
 -1      3466 1.22780E-04-2.71887E-05-4.12343E-05-1.35481E-05 1.24593E-19-7.84935E-19
 -1      3467 1.27694E-04-3.67866E-05-3.89625E-05-1.06436E-05 1.82112E-20-9.31789E-19
 -1      3468 9.25718E-05-2.60150E-05-2.85396E-05-7.01573E-07 3.18935E-19 4.98865E-19
 -1      3469 9.17180E-05-2.52715E-05-2.85055E-05-7.69431E-07 8.40258E-19 1.19789E-18
 -1      3470 1.29205E-04-5.38542E-05-3.26392E-05 1.65292E-05-6.21457E-19 9.45302E-20
 -1      3471 1.19822E-04-5.04271E-05-2.93975E-05 2.62148E-05-2.83756E-20-3.06772E-19
 -1      3472 1.07450E-04-4.49576E-05-2.71164E-05 3.31080E-05-2.96462E-19 6.16905E-19
 -1      3473 9.45055E-05-3.56196E-05-2.48889E-05 3.49872E-05 1.09558E-19-2.73803E-19
 -1      3474 8.32665E-05-1.89293E-05-2.75739E-05-4.56082E-06-1.53156E-18 2.92200E-18
 -1      3475 7.96994E-05-1.69025E-05-2.70487E-05-5.97284E-06-7.17999E-19 1.65081E-18
 -1      3476 1.29295E-04-2.97890E-05-4.27805E-05 1.29683E-05 1.15196E-19-5.31513E-20
 -1      3477 1.24734E-04-2.11742E-05-4.47840E-05 1.35437E-05 7.29560E-19-1.12512E-18
 -1      3478 1.18195E-04-1.91517E-05-4.25756E-05 1.20185E-05 2.08052E-20-2.01605E-18
 -1      3479 1.32006E-04-4.64177E-05-3.68106E-05-2.61344E-06-9.30717E-19 4.18090E-20
 -1      3480 1.33591E-04-5.21752E-05-3.46847E-05 6.97609E-06-1.27935E-18 9.90023E-19
 -1      3481 9.56723E-05-2.55301E-05-3.00625E-05-1.49805E-06-5.25565E-19-2.02895E-18
 -1      3482 9.58110E-05-2.62506E-05-2.98243E-05-8.60294E-07-3.89687E-19-1.80070E-18
 -1      3483 9.59693E-05-2.62763E-05-2.98653E-05-6.93393E-07-2.58652E-19-1.68108E-18
 -1      3484 9.39223E-05-2.72932E-05-2.85667E-05-5.09804E-07 1.51280E-18-2.53604E-18
 -1      3485 9.32570E-05-2.66257E-05-2.85641E-05-5.19356E-07 1.11672E-18-1.13715E-18
 -1      3486 9.29580E-05-2.63849E-05-2.85055E-05-1.22886E-06 1.99082E-18 2.48834E-18
 -1      3487 9.39654E-05-2.73419E-05-2.85406E-05-8.31920E-07 2.64259E-18-2.84233E-18
 -1      3488 9.59019E-05-2.74042E-05-2.93662E-05 5.72208E-08 6.39303E-19-5.37927E-19
 -1      3489 9.59052E-05-2.69486E-05-2.95371E-05 5.03369E-07 7.79672E-19-6.72472E-19
 -1      3490 9.61047E-05-2.74261E-05-2.94349E-05 1.05486E-08 5.40093E-19-8.20980E-19
 -1      3491 9.57627E-05-2.89469E-05-2.86352E-05-1.02379E-06 2.46033E-19-8.23277E-19
 -1      3492 9.57928E-05-2.88858E-05-2.86715E-05-1.02744E-06 5.00011E-19-6.88243E-19
 -1      3493 9.59567E-05-2.90431E-05-2.86794E-05-9.45584E-07 1.29755E-19-7.54264E-19
 -1      3494 7.99209E-05-2.58490E-05-2.33916E-05 3.37834E-05 4.51588E-19-1.24064E-18
 -1      3495 6.74911E-05-1.62213E-05-2.16804E-05 2.93348E-05-9.10560E-20-7.11931E-19
 -1      3496 7.09790E-05-1.39262E-05-2.42563E-05 1.77784E-05-6.96420E-20-1.71286E-19
 -1      3497 8.94044E-05-2.99651E-05-2.52643E-05 2.97637E-05 4.17534E-19-6.26897E-19
 -1      3498 9.58434E-05-2.88059E-05-2.87313E-05-1.00888E-06 7.45511E-19-8.57522E-19
 -1      3499 9.58778E-05-2.86877E-05-2.87912E-05-9.51816E-07 7.51176E-19-9.58936E-19
 -1      3500 9.61392E-05-2.86253E-05-2.89369E-05-8.11592E-07 7.17619E-19-1.18340E-18
 -1      3501 9.60587E-05-2.89012E-05-2.87842E-05-9.36568E-07 4.86396E-19-6.18698E-19
 -1      3502 8.77584E-05-2.20608E-05-2.81645E-05-2.35143E-06-1.98192E-18 2.62007E-18
 -1      3503 8.54570E-05-2.05023E-05-2.79243E-05-3.00546E-06-1.94360E-18 3.27573E-18
 -1      3504 8.54240E-05-2.07246E-05-2.76447E-05-6.31672E-06-1.82701E-18 3.27042E-18
 -1      3505 9.44194E-05-2.78769E-05-2.85037E-05-1.50944E-06 3.10925E-18 4.96057E-18
 -1      3506 9.41712E-05-2.76479E-05-2.85195E-05-1.24450E-06 3.49949E-18-1.01589E-19
 -1      3507 9.37749E-05-2.72732E-05-2.85085E-05-1.42696E-06 3.25506E-18 1.05227E-18
 -1      3508 1.16063E-04-6.89662E-06-4.70283E-05 2.23522E-06 3.23831E-19-2.39619E-18
 -1      3509 1.15129E-04-7.11882E-06-4.65671E-05-1.98201E-06 3.76189E-19-1.76645E-18
 -1      3510 1.13199E-04-1.07754E-05-4.40446E-05-5.33466E-06 4.29657E-19-1.44702E-18
 -1      3511 1.12813E-04-1.06127E-05-4.39641E-05 4.89320E-06 3.84871E-20-1.35853E-18
 -1      3512 9.07102E-05-2.43939E-05-2.84303E-05-1.25322E-06 1.11910E-18 1.48864E-18
 -1      3513 8.92725E-05-2.32785E-05-2.83329E-05-1.50085E-06 4.66346E-19 2.91277E-18
 -1      3514 8.89569E-05-2.31111E-05-2.81589E-05-3.53632E-06-5.65648E-19 2.27256E-18
 -1      3515 9.13827E-05-2.50744E-05-2.84035E-05-2.03431E-06 1.73369E-18 3.34072E-18
 -1      3516 9.36943E-05-2.07119E-05-3.12767E-05-4.27322E-06-7.09376E-19-2.27609E-18
 -1      3517 9.41891E-05-2.17015E-05-3.10775E-05-4.24826E-06-7.07813E-19-2.19387E-18
 -1      3518 9.47164E-05-2.29937E-05-3.07409E-05-3.34870E-06-7.03863E-19-2.22062E-18
 -1      3519 9.42244E-05-2.18417E-05-3.10216E-05-3.30940E-06-7.44031E-19-2.31267E-18
 -1      3520 6.77219E-05-1.13988E-05-2.39923E-05-1.53894E-05-6.16555E-19 5.76240E-19
 -1      3521 6.15212E-05-1.09832E-05-2.15004E-05-2.31401E-05 2.98215E-19 9.45183E-19
 -1      3522 7.04330E-05-1.74499E-05-2.26685E-05-2.84028E-05-4.80241E-19 2.76093E-18
 -1      3523 7.41669E-05-1.60830E-05-2.47879E-05-1.89477E-05-7.88811E-19 2.30957E-18
 -1      3524 9.57490E-05-2.58590E-05-2.99556E-05 1.13497E-06 6.76853E-19-9.96043E-19
 -1      3525 7.71657E-05-2.29486E-05-2.31201E-05-3.15034E-05-1.20935E-18 1.46235E-18
 -1      3526 8.68584E-05-3.01855E-05-2.42386E-05-3.42970E-05-1.82149E-18 8.17651E-19
 -1      3527 7.85704E-05-2.13853E-05-2.43169E-05-2.63819E-05-1.24005E-18 2.85635E-18
 -1      3528 7.70443E-05-1.86684E-05-2.50375E-05 2.06561E-05-3.38588E-19-6.26136E-19
 -1      3529 9.42173E-05-2.17984E-05-3.10391E-05-2.11525E-06-2.26807E-19-1.80849E-18
 -1      3530 9.44189E-05-2.22415E-05-3.09366E-05-2.53296E-06-4.36601E-19-1.92588E-18
 -1      3531 9.31179E-05-1.95985E-05-3.14906E-05-5.85209E-07 2.01690E-19-1.85489E-18
 -1      3532 9.70079E-05-3.05888E-05-2.84674E-05-1.47594E-07-2.53121E-18-1.69413E-18
 -1      3533 9.69804E-05-3.05214E-05-2.84782E-05-5.03358E-07-2.39434E-18-7.07066E-19
 -1      3534 9.72118E-05-3.07470E-05-2.84980E-05-8.62608E-07-1.55177E-18-2.02375E-18
 -1      3535 9.67282E-05-3.02472E-05-2.85025E-05-1.71738E-06-1.21021E-18-3.60568E-18
 -1      3536 9.63353E-05-2.98307E-05-2.84889E-05-1.62428E-06-1.09795E-18-2.60760E-18
 -1      3537 9.39160E-05-2.11832E-05-3.11785E-05-1.20945E-06 5.65612E-20-1.64245E-18
 -1      3538 9.40520E-05-2.14750E-05-3.11215E-05-1.71739E-06-1.51038E-19-1.74476E-18
 -1      3539 9.48136E-05-2.28760E-05-3.08088E-05-1.53583E-06 1.82180E-20-1.61179E-18
 -1      3540 8.00063E-05-1.77797E-05-2.65382E-05-1.13640E-05-9.72228E-19 2.98599E-18
 -1      3541 1.27027E-04-5.06675E-05-3.27712E-05 1.04504E-05-9.85801E-19 1.56337E-19
 -1      3542 1.21900E-04-3.58438E-05-3.68213E-05-1.08616E-05-1.10041E-19-1.02717E-18
 -1      3543 1.28283E-04-4.19497E-05-3.71036E-05-7.51332E-06-2.46119E-19-1.12124E-18
 -1      3544 1.25695E-04-4.44133E-05-3.49279E-05-3.08124E-06-7.78804E-19-3.09632E-19
 -1      3545 9.68697E-05-3.04978E-05-2.84368E-05 4.79098E-07-1.45630E-18-2.49259E-18
 -1      3546 9.52510E-05-2.43320E-05-3.03976E-05-1.87700E-06-4.48621E-19-2.06278E-18
 -1      3547 9.53702E-05-2.44378E-05-3.04045E-05-1.52195E-06-2.06761E-19-1.82657E-18
 -1      3548 1.30656E-04-3.61230E-05-4.07714E-05 1.13337E-05 1.53922E-19-3.38734E-19
 -1      3549 1.23482E-04-3.02998E-05-3.99472E-05 1.30118E-05-1.84243E-19-4.50476E-19
 -1      3550 1.29802E-04-4.06959E-05-3.82203E-05 7.89018E-06-3.40732E-19-2.59046E-19
 -1      3551 1.13630E-04-4.59163E-05-2.88239E-05 2.48548E-05-1.42937E-19 7.87145E-21
 -1      3552 9.51092E-05-2.86437E-05-2.84863E-05-1.78986E-06 1.55860E-18 3.64089E-18
 -1      3553 9.48045E-05-2.83292E-05-2.84950E-05-1.67036E-06 2.06500E-18 4.32621E-18
 -1      3554 9.46035E-05-2.81102E-05-2.84877E-05-2.04276E-06 2.81302E-18 3.72018E-18
 -1      3555 9.60195E-05-2.95756E-05-2.84873E-05-1.76762E-06 3.68197E-19-7.61778E-19
 -1      3556 1.13726E-04-1.86403E-05-4.08906E-05-1.16168E-05 2.87197E-20-3.04502E-19
 -1      3557 1.18841E-04-2.29137E-05-4.12150E-05-1.35014E-05-2.09191E-19-2.27892E-19
 -1      3558 1.17322E-04-2.76488E-05-3.84729E-05-1.24815E-05-7.38990E-19-7.96181E-19
 -1      3559 9.48944E-05-2.33081E-05-3.06748E-05-2.60322E-06-5.10324E-19-2.16168E-18
 -1      3560 9.38443E-05-2.10348E-05-3.12161E-05 8.04112E-07 4.18982E-19-1.95429E-18
 -1      3561 9.37945E-05-2.09339E-05-3.12354E-05 2.44970E-07 3.38094E-19-1.92537E-18
 -1      3562 1.20894E-04-4.95898E-05-3.04656E-05-1.92891E-05-9.68499E-19-7.38044E-20
 -1      3563 1.23465E-04-4.92976E-05-3.17671E-05-1.26136E-05-2.91010E-19-2.38153E-19
 -1      3564 1.09532E-04-4.41372E-05-2.78097E-05-2.83831E-05-1.31158E-18 1.64953E-19
 -1      3565 1.15895E-04-4.74298E-05-2.94004E-05-2.33916E-05-1.47730E-18 5.51180E-19
 -1      3566 1.13789E-04-4.52684E-05-2.94273E-05-1.97497E-05-1.55827E-18-2.57883E-19
 -1      3567 9.40736E-05-2.15076E-05-3.11162E-05 1.75996E-06 6.72154E-19-1.89829E-18
 -1      3568 9.39340E-05-2.12077E-05-3.11754E-05 1.24040E-06 5.62768E-19-1.92162E-18
 -1      3569 9.45877E-05-2.23719E-05-3.09324E-05 8.22098E-07 4.35690E-19-1.80547E-18
 -1      3570 1.27512E-04-4.81824E-05-3.40637E-05-2.79458E-06 3.82564E-19 6.44443E-19
 -1      3571 1.30284E-04-4.60376E-05-3.62845E-05 3.30830E-06 1.75329E-20 4.25052E-19
 -1      3572 9.33023E-05-2.68827E-05-2.84792E-05-1.85559E-06 3.08561E-18 1.16122E-18
 -1      3573 9.27171E-05-2.63259E-05-2.84499E-05-2.19203E-06 2.61483E-18 3.31640E-18
 -1      3574 9.36898E-05-2.72773E-05-2.84651E-05-2.33837E-06 3.27556E-18 2.13377E-18
 -1      3575 8.49465E-05-2.14541E-05-2.71393E-05-1.17519E-05-1.53907E-18 2.54445E-18
 -1      3576 8.17122E-05-2.03625E-05-2.63754E-05-1.54249E-05-6.27450E-19 2.25810E-18
 -1      3577 9.64913E-05-2.80090E-05-2.93448E-05 3.09474E-07-3.62088E-19-1.07631E-18
 -1      3578 9.65012E-05-2.83338E-05-2.92184E-05 4.89610E-07-4.92801E-19-9.47774E-19
 -1      3579 9.65088E-05-2.85987E-05-2.91005E-05 5.88825E-07-4.85293E-19-8.42194E-19
 -1      3580 9.64763E-05-2.87989E-05-2.90065E-05 6.81915E-07-3.96578E-19-8.39287E-19
 -1      3581 9.66373E-05-2.84233E-05-2.92349E-05 4.37146E-07-4.58371E-19-1.08646E-18
 -1      3582 9.64351E-05-2.89537E-05-2.89177E-05 7.22265E-07-3.24650E-19-8.73560E-19
 -1      3583 9.63808E-05-2.90677E-05-2.88491E-05 7.54249E-07-1.20862E-19-9.41544E-19
 -1      3584 9.66033E-05-2.88828E-05-2.90244E-05 5.90405E-07-3.46552E-19-8.95378E-19
 -1      3585 9.63137E-05-2.91479E-05-2.87833E-05 7.54699E-07-1.23926E-19-9.84687E-19
 -1      3586 9.62511E-05-2.92047E-05-2.87339E-05 7.46246E-07-2.82362E-19-1.23789E-18
 -1      3587 9.64956E-05-2.91453E-05-2.88662E-05 6.45022E-07-2.26494E-19-1.06014E-18
 -1      3588 9.61745E-05-2.92373E-05-2.86859E-05 7.21370E-07-2.22518E-19-1.24357E-18
 -1      3589 9.61125E-05-2.92586E-05-2.86509E-05 6.87553E-07-1.26369E-19-1.17844E-18
 -1      3590 9.63530E-05-2.92759E-05-2.87493E-05 6.33752E-07-3.62968E-19-9.96967E-19
 -1      3591 9.60371E-05-2.92635E-05-2.86162E-05 6.47998E-07 3.49431E-20-1.30898E-18
 -1      3592 9.59818E-05-2.92658E-05-2.85915E-05 5.99507E-07 1.84046E-19-1.26010E-18
 -1      3593 9.62022E-05-2.93242E-05-2.86640E-05 5.81153E-07-1.34273E-19-9.88388E-19
 -1      3594 9.59156E-05-2.92584E-05-2.85666E-05 5.52889E-07 5.12128E-20-1.31191E-18
 -1      3595 9.58717E-05-2.92544E-05-2.85491E-05 4.96738E-07-4.29213E-20-1.10164E-18
 -1      3596 9.60616E-05-2.93276E-05-2.86023E-05 5.05590E-07 1.15740E-19-9.93723E-19
 -1      3597 9.58210E-05-2.92470E-05-2.85310E-05 4.48175E-07 2.38763E-19-8.73806E-19
 -1      3598 9.57930E-05-2.92477E-05-2.85181E-05 3.88547E-07 1.83474E-19-7.05997E-19
 -1      3599 9.59452E-05-2.93153E-05-2.85577E-05 4.20053E-07 3.72846E-19-6.22690E-19
 -1      3600 9.57637E-05-2.92509E-05-2.85047E-05 3.41387E-07-3.17208E-19-7.54169E-19
 -1      3601 9.57569E-05-2.92662E-05-2.84946E-05 2.80293E-07-7.13254E-19-2.77708E-19
 -1      3602 9.58652E-05-2.93116E-05-2.85252E-05 3.33535E-07 1.35458E-19-6.15986E-19
 -1      3603 9.57563E-05-2.92904E-05-2.84842E-05 2.36669E-07-8.26153E-19 4.59126E-20
 -1      3604 9.57777E-05-2.93308E-05-2.84756E-05 1.74331E-07-2.76120E-19-3.49757E-19
 -1      3605 9.58344E-05-2.93386E-05-2.85008E-05 2.52401E-07-4.99995E-19-2.28820E-19
 -1      3606 9.58155E-05-2.93875E-05-2.84674E-05 1.35388E-07-3.90096E-19-4.60713E-19
 -1      3607 9.58753E-05-2.94648E-05-2.84597E-05 7.02616E-08-7.71993E-19-3.10397E-19
 -1      3608 9.58693E-05-2.94188E-05-2.84820E-05 1.81238E-07-7.43262E-19 7.02895E-20
 -1      3609 9.59653E-05-2.95675E-05-2.84536E-05 3.59384E-08-4.17179E-19-1.69417E-19
 -1      3610 9.60774E-05-2.96959E-05-2.84470E-05-3.57507E-08 4.54318E-20 8.40337E-20
 -1      3611 9.59929E-05-2.95783E-05-2.84678E-05 1.23008E-07-2.12264E-19-1.06718E-19
 -1      3612 9.62393E-05-2.98610E-05-2.84438E-05-6.77949E-08 9.44151E-20 5.32815E-21
 -1      3613 9.64221E-05-3.00566E-05-2.84398E-05-1.53278E-07-1.38198E-20 1.90970E-19
 -1      3614 9.62383E-05-2.98485E-05-2.84589E-05 7.79735E-08-3.55212E-20 2.49524E-19
 -1      3615 9.66823E-05-3.03030E-05-2.84420E-05-1.89781E-07-5.55646E-20 4.64013E-19
 -1      3616 9.69578E-05-3.05830E-05-2.84437E-05-3.01671E-07 1.71369E-19 4.17771E-19
 -1      3617 9.66511E-05-3.02675E-05-2.84587E-05 4.04893E-08 1.71310E-19 2.27000E-19
 -1      3618 9.73499E-05-3.09301E-05-2.84561E-05-3.57475E-07 2.33635E-19 8.02658E-19
 -1      3619 9.77412E-05-3.13083E-05-2.84691E-05-5.16720E-07 5.10005E-19 6.80346E-19
 -1      3620 9.72912E-05-3.08783E-05-2.84746E-05-6.69433E-09 5.43561E-19 9.87821E-19
 -1      3621 9.83030E-05-3.17709E-05-2.85000E-05-6.20145E-07 6.24178E-19 7.82025E-19
 -1      3622 9.88277E-05-3.22493E-05-2.85333E-05-8.59119E-07 1.00594E-18 5.70520E-19
 -1      3623 9.82306E-05-3.17222E-05-2.85197E-05-1.02227E-07 5.13509E-19 1.34650E-18
 -1      3624 9.95939E-05-3.28265E-05-2.85957E-05-1.05936E-06 9.99051E-19-9.71114E-20
 -1      3625 1.00251E-04-3.33799E-05-2.86629E-05-1.42389E-06 9.69044E-19 3.08109E-19
 -1      3626 9.95443E-05-3.28231E-05-2.86153E-05-3.19571E-07 5.61162E-19 3.13678E-19
 -1      3627 1.01234E-04-3.40343E-05-2.87762E-05-1.79611E-06 8.69789E-19 3.42483E-19
 -1      3628 1.01985E-04-3.45843E-05-2.88959E-05-2.34052E-06 7.97930E-19 3.04754E-21
 -1      3629 1.01285E-04-3.41527E-05-2.87950E-05-7.83999E-07 9.89916E-19 5.30190E-19
 -1      3630 1.03140E-04-3.52089E-05-2.90867E-05-2.97233E-06 9.46771E-19-2.44529E-19
 -1      3631 1.03886E-04-3.56036E-05-2.92815E-05-3.73414E-06 7.80995E-19 2.55142E-19
 -1      3632 1.03428E-04-3.55688E-05-2.91071E-05-1.67113E-06 7.22756E-19 4.28518E-19
 -1      3633 1.05079E-04-3.60020E-05-2.95817E-05-4.69998E-06 4.58696E-19 2.08306E-19
 -1      3634 1.05650E-04-3.60018E-05-2.98740E-05-5.66075E-06 7.58355E-19 5.36656E-19
 -1      3635 1.05809E-04-3.67471E-05-2.96137E-05-3.16710E-06 9.38437E-19 3.95582E-19
 -1      3636 1.06611E-04-3.58614E-05-3.03128E-05-6.94502E-06 9.46530E-19-2.63933E-19
 -1      3637 1.06778E-04-3.51717E-05-3.07126E-05-7.95128E-06 8.67062E-19-1.44780E-19
 -1      3638 1.08030E-04-3.71575E-05-3.03862E-05-5.41217E-06 5.98241E-19-8.81718E-19
 -1      3639 1.07190E-04-3.41880E-05-3.12976E-05-9.34174E-06 5.99625E-19 1.81199E-19
 -1      3640 1.06762E-04-3.25634E-05-3.17994E-05-1.00992E-05 4.69483E-19-3.45115E-19
 -1      3641 1.09484E-04-3.59627E-05-3.14824E-05-8.22246E-06 2.97015E-19-1.29288E-18
 -1      3642 1.06260E-04-3.05614E-05-3.25037E-05-1.09704E-05-6.59569E-20-9.63210E-19
 -1      3643 1.05293E-04-2.80883E-05-3.30550E-05-1.10205E-05-2.76065E-19-9.26338E-19
 -1      3644 1.09325E-04-3.25451E-05-3.28498E-05-1.07476E-05-1.73030E-19-1.47729E-18
 -1      3645 1.03957E-04-2.53219E-05-3.37748E-05-1.07985E-05-3.49666E-19-9.51640E-19
 -1      3646 1.02674E-04-2.25889E-05-3.42690E-05-9.70655E-06-5.35056E-19-7.77984E-19
 -1      3647 1.07683E-04-2.73073E-05-3.43875E-05-1.15594E-05-2.87703E-19-1.34192E-18
 -1      3648 1.01087E-04-1.99612E-05-3.48400E-05-7.67317E-06-4.24883E-19-1.00784E-18
 -1      3649 1.00191E-04-1.80858E-05-3.51494E-05-5.38554E-06-7.48345E-19-1.16111E-18
 -1      3650 1.04474E-04-2.08115E-05-3.58133E-05-9.52286E-06-7.39475E-19-1.41029E-18
 -1      3651 9.93851E-05-1.68295E-05-3.53980E-05-2.16292E-06-4.47355E-19-4.91573E-20
 -1      3652 9.92534E-05-1.65968E-05-3.54337E-05 7.44822E-07 1.31422E-19 1.74649E-19
 -1      3653 1.02143E-04-1.66064E-05-3.66947E-05-4.19078E-06 3.98124E-19-2.59562E-19
 -1      3654 9.98231E-05-1.74452E-05-3.52731E-05 4.18459E-06-1.22443E-19 2.16419E-19
 -1      3655 1.00575E-04-1.90287E-05-3.50170E-05 6.64753E-06-5.92606E-19 3.52950E-19
 -1      3656 1.01821E-04-1.60016E-05-3.67981E-05 2.78799E-06 2.15017E-20 1.84461E-20
 -1      3657 1.02061E-04-2.14288E-05-3.45041E-05 9.00177E-06-6.10342E-19 8.92848E-20
 -1      3658 1.03307E-04-2.40733E-05-3.40377E-05 1.03695E-05-1.69375E-19 1.91163E-19
 -1      3659 1.03873E-04-1.96491E-05-3.60654E-05 8.61923E-06-2.71231E-19 2.79852E-19
 -1      3660 1.04758E-04-2.69050E-05-3.33323E-05 1.09988E-05-3.99171E-19 1.02405E-20
 -1      3661 1.05856E-04-2.94962E-05-3.27851E-05 1.11686E-05-1.13655E-18 1.51964E-19
 -1      3662 1.06950E-04-2.58333E-05-3.47178E-05 1.13600E-05-5.01692E-19 3.11715E-19
 -1      3663 1.06557E-04-3.17250E-05-3.20657E-05 1.04680E-05-9.29925E-19 7.11485E-19
 -1      3664 1.07105E-04-3.35488E-05-3.15481E-05 9.80290E-06-1.61893E-19 1.33919E-18
 -1      3665 1.09147E-04-3.16310E-05-3.31705E-05 1.09774E-05-9.36730E-19 6.83436E-19
 -1      3666 1.06886E-04-3.47491E-05-3.09316E-05 8.49503E-06-1.35686E-19 6.94012E-19
 -1      3667 1.06822E-04-3.56261E-05-3.05064E-05 7.48446E-06-1.27704E-19 6.36375E-19
 -1      3668 1.09589E-04-3.54594E-05-3.17376E-05 8.69029E-06-3.80249E-19 6.70623E-19
 -1      3669 1.05940E-04-3.59061E-05-3.00364E-05 6.17816E-06 4.31346E-19 6.68613E-19
 -1      3670 1.05437E-04-3.60374E-05-2.97206E-05 5.18110E-06 8.73237E-19 8.88548E-19
 -1      3671 1.08406E-04-3.70186E-05-3.05905E-05 5.95102E-06 3.18915E-19 1.08346E-18
 -1      3672 1.04251E-04-3.57077E-05-2.93940E-05 4.13620E-06 2.05767E-19 7.76831E-19
 -1      3673 1.03514E-04-3.53606E-05-2.91812E-05 3.33470E-06 2.08627E-19 1.00919E-18
 -1      3674 1.06281E-04-3.68789E-05-2.97565E-05 3.61158E-06 4.82507E-19 1.71304E-18
 -1      3675 1.02329E-04-3.47547E-05-2.89712E-05 2.64773E-06 2.92989E-19 1.19962E-18
 -1      3676 1.01561E-04-3.42150E-05-2.88376E-05 2.06760E-06 2.15750E-19 1.81835E-18
 -1      3677 1.03864E-04-3.57743E-05-2.92030E-05 1.97369E-06 2.43085E-19 1.43303E-18
 -1      3678 1.00525E-04-3.35506E-05-2.87094E-05 1.65608E-06 4.19107E-19 1.86451E-18
 -1      3679 9.98345E-05-3.29796E-05-2.86319E-05 1.26272E-06 5.89496E-19 1.54171E-18
 -1      3680 1.01634E-04-3.43597E-05-2.88554E-05 9.89262E-07 4.09719E-19 2.69790E-18
 -1      3681 9.90116E-05-3.23795E-05-2.85589E-05 1.04385E-06 4.86068E-19 1.17551E-18
 -1      3682 9.84646E-05-3.18786E-05-2.85192E-05 7.63078E-07 7.90045E-19 1.36859E-19
 -1      3683 9.97883E-05-3.29814E-05-2.86495E-05 4.71573E-07 5.16463E-19 2.24922E-18
 -1      3684 9.76662E-05-3.12081E-05-2.84807E-05 3.74412E-07-3.30337E-19-1.48308E-18
 -1      3685 9.72611E-05-3.08428E-05-2.84618E-05 2.70224E-07-1.20194E-18-2.16251E-18
 -1      3686 9.57565E-05-2.91344E-05-2.85515E-05-5.65984E-07 1.75520E-19-1.26414E-18
 -1      3687 9.58059E-05-2.91565E-05-2.85635E-05-6.28903E-07-1.56950E-20-1.27647E-18
 -1      3688 9.60000E-05-2.91841E-05-2.86347E-05-7.81921E-07 3.51786E-19-1.29509E-18
 -1      3689 9.60538E-05-2.91661E-05-2.86647E-05-8.18184E-07 3.67869E-19-1.29950E-18
 -1      3690 9.37912E-05-2.09294E-05-3.12360E-05-2.13473E-07 2.68482E-19-1.84245E-18
 -1      3691 9.38371E-05-2.10226E-05-3.12180E-05-7.71475E-07 1.57977E-19-1.74808E-18
 -1      3692 9.45777E-05-2.23463E-05-3.09350E-05-8.07859E-07 6.25569E-20-1.53358E-18
 -1      3693 9.45123E-05-2.21983E-05-3.09741E-05 1.08956E-08 2.81899E-19-1.86360E-18
 -1      3694 9.56470E-05-2.90689E-05-2.85330E-05-4.41664E-07 4.26959E-19-1.01877E-18
 -1      3695 9.56922E-05-2.91013E-05-2.85387E-05-5.05101E-07 4.61361E-19-9.27009E-19
 -1      3696 9.58350E-05-2.91890E-05-2.85638E-05-4.80031E-07 1.67486E-19-5.17105E-19
 -1      3697 9.55374E-05-2.89819E-05-2.85238E-05-3.10917E-07 1.71865E-19-3.96888E-19
 -1      3698 9.55859E-05-2.90261E-05-2.85256E-05-3.76218E-07 3.88029E-19-4.23093E-19
 -1      3699 9.57120E-05-2.91162E-05-2.85418E-05-3.59107E-07 7.84059E-20 2.45871E-19
 -1      3700 9.54139E-05-2.88660E-05-2.85214E-05-1.70395E-07 2.11661E-19-6.83878E-19
 -1      3701 9.54743E-05-2.89270E-05-2.85204E-05-2.38785E-07 1.85338E-19-6.37874E-19
 -1      3702 9.55908E-05-2.90221E-05-2.85296E-05-2.24350E-07 3.92127E-19 2.23108E-19
 -1      3703 9.52527E-05-2.87037E-05-2.85233E-05-9.55080E-09 1.21823E-19-5.14910E-19
 -1      3704 9.53395E-05-2.87920E-05-2.85206E-05-8.57438E-08 2.26871E-19-9.39747E-19
 -1      3705 9.54576E-05-2.88996E-05-2.85240E-05-6.70024E-08 1.66388E-19-6.38561E-19
 -1      3706 9.50161E-05-2.84653E-05-2.85266E-05 1.92813E-07 2.76323E-19-3.46843E-19
 -1      3707 9.51527E-05-2.85981E-05-2.85236E-05 9.90455E-08 2.96053E-19-5.29249E-19
 -1      3708 9.52898E-05-2.87326E-05-2.85223E-05 1.31610E-07 1.62711E-19-5.65484E-19
 -1      3709 9.46233E-05-2.80832E-05-2.85260E-05 4.94628E-07 3.22785E-19 1.74163E-20
 -1      3710 9.48602E-05-2.82997E-05-2.85259E-05 3.53633E-07 1.59779E-19-2.60202E-19
 -1      3711 9.50449E-05-2.84861E-05-2.85208E-05 4.14544E-07 4.99319E-20-4.81825E-19
 -1      3712 9.40214E-05-2.75302E-05-2.85113E-05 9.42379E-07 3.23122E-19-3.26888E-19
 -1      3713 9.43939E-05-2.78455E-05-2.85200E-05 7.30435E-07 6.23030E-19 1.11503E-19
 -1      3714 9.46750E-05-2.81282E-05-2.85128E-05 8.39469E-07 4.32559E-19 3.38713E-20
 -1      3715 9.30793E-05-2.67229E-05-2.84635E-05 1.67561E-06 3.48242E-19-8.89749E-19
 -1      3716 9.36764E-05-2.71860E-05-2.84929E-05 1.31706E-06 5.99535E-19-7.18820E-19
 -1      3717 9.41251E-05-2.76280E-05-2.84878E-05 1.49518E-06 8.05886E-19 5.48324E-20
 -1      3718 9.16487E-05-2.55996E-05-2.83467E-05 2.91383E-06-7.04119E-19-9.90342E-19
 -1      3719 9.25784E-05-2.62480E-05-2.84195E-05 2.28604E-06-5.39034E-19-1.10607E-18
 -1      3720 9.33133E-05-2.69500E-05-2.84259E-05 2.55435E-06 1.72087E-19-4.20570E-19
 -1      3721 8.95720E-05-2.41601E-05-2.80975E-05 5.01154E-06-7.32487E-19-1.50637E-18
 -1      3722 9.09672E-05-2.49980E-05-2.82547E-05 3.91199E-06-3.60762E-19-1.12282E-18
 -1      3723 9.21760E-05-2.61112E-05-2.82937E-05 4.27703E-06-4.49363E-19 2.85791E-21
 -1      3724 8.66339E-05-2.24829E-05-2.75743E-05 8.76297E-06-1.10475E-18-1.18896E-18
 -1      3725 8.86966E-05-2.34753E-05-2.79115E-05 6.71212E-06-1.38112E-18-1.73110E-18
 -1      3726 9.06732E-05-2.52196E-05-2.80283E-05 7.14292E-06-6.99565E-19-4.45741E-19
 -1      3727 8.32701E-05-2.12405E-05-2.66263E-05 1.46888E-05-4.32338E-19-7.17503E-19
 -1      3728 8.58682E-05-2.20623E-05-2.72527E-05 1.12817E-05-4.15930E-19-9.04899E-19
 -1      3729 8.89832E-05-2.47217E-05-2.75490E-05 1.16949E-05-7.81256E-19-1.93980E-19
 -1      3730 9.73390E-05-3.07327E-05-2.85249E-05-1.88110E-06-1.45268E-18-4.40713E-18
 -1      3731 9.69095E-05-3.03844E-05-2.85189E-05-2.27258E-06-1.36371E-18-3.90341E-18
 -1      3732 8.44525E-05-2.48496E-05-2.54181E-05 2.49077E-05-2.28077E-19-6.46399E-19
 -1      3733 8.47584E-05-2.30553E-05-2.62672E-05 1.89731E-05-7.26061E-19-8.10112E-19
 -1      3734 8.93736E-05-2.68454E-05-2.69279E-05 1.86655E-05-6.61701E-19-5.87778E-19
 -1      3735 9.63574E-05-2.82719E-05-2.91837E-05-5.27117E-07 7.11746E-19-1.43349E-18
 -1      3736 9.63541E-05-2.79532E-05-2.93088E-05-3.19587E-07 6.97527E-19-1.20130E-18
 -1      3737 9.59565E-05-2.62684E-05-2.98755E-05 6.48416E-07 5.81731E-19-1.20836E-18
 -1      3738 9.56071E-05-2.50265E-05-3.02482E-05 1.45535E-06 6.42501E-19-1.30704E-18
 -1      3739 1.16719E-04-4.74346E-05-2.99697E-05 1.91540E-05-1.94123E-19-9.23484E-19
 -1      3740 1.07741E-04-4.16368E-05-2.80631E-05 2.44422E-05-3.29418E-19-2.65929E-19
 -1      3741 1.24948E-04-4.82626E-05-3.29831E-05 5.19104E-06-1.00882E-18 7.36715E-19
 -1      3742 1.22495E-04-4.88854E-05-3.13311E-05 1.29168E-05-2.88501E-19 1.11961E-19
 -1      3743 1.16883E-04-4.58548E-05-3.04033E-05 1.35346E-05-6.38120E-20 8.41127E-20
 -1      3744 1.16781E-04-2.25222E-05-4.04275E-05 1.29603E-05 1.62339E-19-1.14640E-18
 -1      3745 1.12691E-04-1.71077E-05-4.11564E-05 1.07558E-05 5.52332E-19-6.30848E-19
 -1      3746 9.59246E-05-2.57134E-05-3.00759E-05-8.94861E-07-1.88642E-19-1.54354E-18
 -1      3747 9.61080E-05-2.64517E-05-2.98622E-05-4.48020E-07-1.28862E-19-1.43536E-18
 -1      3748 8.82341E-05-2.31050E-05-2.78738E-05-6.92048E-06-7.65989E-19 1.36560E-18
 -1      3749 8.61160E-05-2.21168E-05-2.75334E-05-8.87967E-06-9.18402E-19 2.68145E-18
 -1      3750 9.61257E-05-2.91372E-05-2.87092E-05-8.45066E-07 2.25151E-19-1.11941E-18
 -1      3751 9.61797E-05-2.90825E-05-2.87536E-05-8.53929E-07 2.59789E-19-8.36411E-19
 -1      3752 9.62523E-05-2.92141E-05-2.87326E-05-7.40972E-07 5.03996E-19-1.25666E-18
 -1      3753 9.60268E-05-3.45647E-05-2.66328E-05 2.71179E-05-2.11328E-19-5.87153E-19
 -1      3754 9.45081E-05-2.24541E-05-3.08998E-05 2.49051E-06 8.08418E-19-1.56716E-18
 -1      3755 9.42903E-05-2.19510E-05-3.10063E-05 2.07478E-06 6.84726E-19-1.67856E-18
 -1      3756 9.48420E-05-2.29818E-05-3.07814E-05 1.48887E-06 6.87820E-19-1.75205E-18
 -1      3757 9.51974E-05-2.39761E-05-3.05109E-05 1.88048E-06 6.63790E-19-1.33996E-18
 -1      3758 8.09892E-05-2.03980E-05-2.58670E-05-1.83993E-05-3.79948E-19 2.44581E-18
 -1      3759 7.88830E-05-2.04140E-05-2.50538E-05-2.24528E-05-5.77806E-19 3.12189E-18
 -1      3760 8.53808E-05-2.56010E-05-2.54652E-05-2.56486E-05-1.05395E-18 2.54510E-18
 -1      3761 8.63935E-05-2.43887E-05-2.66053E-05-1.85492E-05-7.82225E-19 2.45927E-18
 -1      3762 9.62707E-05-2.75388E-05-2.94639E-05-1.01791E-07 5.31597E-19-1.15217E-18
 -1      3763 9.62039E-05-2.70450E-05-2.96312E-05 2.47222E-07 5.90041E-19-1.09065E-18
 -1      3764 9.64302E-05-2.76152E-05-2.94920E-05-1.28073E-07 6.54579E-19-1.46941E-18
 -1      3765 1.19522E-04-4.67965E-05-3.12706E-05-9.71550E-06-3.11655E-19 9.26950E-19
 -1      3766 1.25013E-04-4.87692E-05-3.26634E-05-6.46108E-06 1.04886E-19 1.09646E-18
 -1      3767 1.23414E-04-4.54245E-05-3.33390E-05-1.53446E-07 1.49488E-20-3.23328E-20
 -1      3768 9.63210E-05-2.70885E-05-2.96655E-05-1.67738E-07-1.53364E-19-1.34672E-18
 -1      3769 9.64029E-05-2.75870E-05-2.94985E-05 1.29469E-07-2.24071E-19-1.18796E-18
 -1      3770 9.62436E-05-2.65536E-05-2.98653E-05-3.24985E-07-9.77197E-20-1.32202E-18
 -1      3771 9.54987E-05-2.46314E-05-3.03817E-05-1.19704E-06-9.95251E-20-1.65493E-18
 -1      3772 9.42958E-05-3.48105E-05-2.52427E-05-3.31200E-05-1.93076E-18 7.81533E-19
 -1      3773 1.03108E-04-4.07328E-05-2.67475E-05-3.12926E-05-1.58437E-18-5.29660E-20
 -1      3774 1.04242E-04-3.98673E-05-2.75661E-05-2.61699E-05-1.54675E-18-2.85278E-20
 -1      3775 9.14445E-05-3.15509E-05-2.56834E-05-2.93929E-05-1.80828E-18 5.58023E-19
 -1      3776 9.54028E-05-2.89305E-05-2.84820E-05-1.83685E-06 1.32526E-18 1.38668E-18
 -1      3777 9.58767E-05-2.91774E-05-2.85846E-05-6.85322E-07 2.37109E-19-1.60807E-18
 -1      3778 9.59273E-05-2.91827E-05-2.86039E-05-7.37144E-07 3.45469E-19-1.38545E-18
 -1      3779 9.61095E-05-2.92540E-05-2.86542E-05-6.80867E-07 4.53914E-19-1.31721E-18
 -1      3780 9.17772E-05-2.56312E-05-2.83791E-05-2.80269E-06 1.82611E-18 2.52293E-18
 -1      3781 8.83093E-05-2.41774E-05-2.74410E-05-1.22764E-05-8.48514E-19 7.56642E-19
 -1      3782 9.81516E-05-3.15958E-05-2.85312E-05-8.93892E-08-6.43367E-19-1.36921E-18
 -1      3783 9.59678E-05-2.92389E-05-2.85997E-05-5.89520E-07-1.86932E-20-8.51864E-19
 -1      3784 1.01822E-04-3.66774E-05-2.78207E-05 2.17424E-05-5.06506E-19-8.45420E-19
 -1      3785 9.68900E-05-3.03759E-05-2.85199E-05-2.90472E-06-8.92870E-19-3.36217E-18
 -1      3786 9.63709E-05-2.97942E-05-2.84986E-05-2.69195E-06-9.45089E-19-2.38951E-18
 -1      3787 9.54087E-05-2.43201E-05-3.04700E-05-9.49418E-07-2.71058E-20-1.58460E-18
 -1      3788 9.06540E-05-2.46939E-05-2.82444E-05-4.08185E-06 1.55838E-19 1.66121E-18
 -1      3789 8.91231E-05-2.38156E-05-2.80682E-05-5.25396E-06-8.28475E-19 1.54218E-18
 -1      3790 9.02720E-05-2.48526E-05-2.79907E-05-7.48252E-06-3.97692E-19 1.30961E-18
 -1      3791 1.13144E-04-2.69187E-05-3.69661E-05-1.23966E-05-5.23000E-19-9.89849E-19
 -1      3792 1.17223E-04-3.11778E-05-3.69291E-05-1.23382E-05-7.20812E-19-5.72032E-19
 -1      3793 9.63642E-05-2.85384E-05-2.90636E-05-6.52614E-07 4.52473E-19-1.44980E-18
 -1      3794 9.65193E-05-2.83601E-05-2.92118E-05-4.88637E-07 6.62137E-19-1.34572E-18
 -1      3795 9.63318E-05-2.87390E-05-2.89705E-05-7.61623E-07 5.76750E-19-1.23141E-18
 -1      3796 9.54250E-05-2.44583E-05-3.04087E-05 1.36554E-06 6.66246E-19-1.52802E-18
 -1      3797 9.65437E-05-2.76836E-05-2.95104E-05 1.45347E-07-1.72307E-19-1.16027E-18
 -1      3798 1.17936E-04-3.50318E-05-3.54711E-05-1.05120E-05-3.78041E-19-1.22055E-18
 -1      3799 9.55499E-05-2.91621E-05-2.84797E-05-2.83415E-06 3.64846E-19 1.88282E-18
 -1      3800 9.56636E-05-2.92179E-05-2.84855E-05-2.21762E-06 8.53559E-20 1.07809E-18
 -1      3801 1.25765E-04-4.05569E-05-3.64479E-05 7.71874E-06-2.29344E-20-1.36703E-18
 -1      3802 1.19550E-04-3.18384E-05-3.75907E-05 1.21079E-05 1.33937E-20-1.54350E-18
 -1      3803 1.18336E-04-2.72417E-05-3.92105E-05 1.30002E-05-3.48475E-20-1.12407E-18
 -1      3804 1.13538E-04-2.47298E-05-3.80235E-05 1.25358E-05 7.53396E-20-1.06673E-18
 -1      3805 9.42099E-05-2.77506E-05-2.84581E-05-2.60738E-06 2.61377E-18 3.61193E-18
 -1      3806 9.61015E-05-2.63384E-05-2.98968E-05 5.07548E-07 5.47858E-19-1.38186E-18
 -1      3807 1.08882E-04-1.07166E-05-4.21934E-05-2.35263E-06 3.50685E-19-1.29728E-19
 -1      3808 1.10232E-04-1.29789E-05-4.17001E-05-7.53516E-06 3.62371E-19-1.36372E-19
 -1      3809 1.09648E-04-1.77283E-05-3.94244E-05-9.22089E-06 1.48754E-19-3.22137E-19
 -1      3810 9.51126E-05-2.35538E-05-3.06790E-05 8.28113E-07 5.93613E-19-1.72041E-18
 -1      3811 9.50556E-05-2.33852E-05-3.07214E-05 4.76653E-07 3.80131E-19-1.57185E-18
 -1      3812 1.20855E-04-4.15551E-05-3.39346E-05-5.50304E-06-7.09048E-19-9.98834E-19
 -1      3813 1.24392E-04-4.59482E-05-3.35817E-05-4.44989E-07-1.20882E-18-7.67508E-20
 -1      3814 1.20217E-04-4.52787E-05-3.21806E-05 2.70979E-06-9.80778E-19-8.86749E-19
 -1      3815 1.15856E-04-4.50593E-05-3.02875E-05-1.25282E-05-9.17857E-19 8.45593E-19
 -1      3816 1.17232E-04-4.45899E-05-3.10968E-05-6.67461E-06-8.31377E-19 1.15827E-18
 -1      3817 9.55515E-05-2.43511E-05-3.05019E-05 2.60514E-07 4.36258E-19-1.48718E-18
 -1      3818 9.50261E-05-2.33159E-05-3.07421E-05 1.95897E-07 3.50633E-19-1.66055E-18
 -1      3819 9.50238E-05-2.33126E-05-3.07427E-05-1.78415E-07 1.14112E-19-1.71613E-18
 -1      3820 1.10429E-04-1.28066E-05-4.18630E-05 7.44777E-06 1.76818E-20-5.02476E-19
 -1      3821 1.09224E-04-1.04682E-05-4.24472E-05 2.33943E-06 6.37392E-20-4.82706E-19
 -1      3822 1.06463E-04-1.26611E-05-4.02802E-05 1.11078E-07 2.14366E-19-3.08383E-19
 -1      3823 1.09410E-04-1.64991E-05-3.98575E-05 8.72239E-06 3.86446E-19-5.63462E-19
 -1      3824 1.09129E-04-4.15104E-05-2.88584E-05-1.88466E-05-1.59222E-18-5.48751E-19
 -1      3825 1.12901E-04-4.36993E-05-2.97100E-05-1.53586E-05-9.64780E-19-6.64166E-19
 -1      3826 1.11087E-04-4.20170E-05-2.96418E-05-1.24093E-05-1.52345E-18-4.26958E-20
 -1      3827 9.62429E-05-2.90049E-05-2.88170E-05-8.50616E-07 3.22910E-19-7.66647E-19
 -1      3828 9.62924E-05-2.88909E-05-2.88830E-05-8.13147E-07 6.35903E-19-8.84457E-19
 -1      3829 9.64868E-05-2.88246E-05-2.89996E-05-6.81003E-07 4.32762E-19-9.19178E-19
 -1      3830 9.63856E-05-2.90870E-05-2.88442E-05-7.51361E-07 4.80838E-19-9.04125E-19
 -1      3831 9.79885E-05-3.13760E-05-2.85337E-05-8.19492E-07-1.99230E-18-2.83393E-18
 -1      3832 9.78217E-05-3.12271E-05-2.85407E-05-1.31102E-06-1.12968E-18-2.65073E-18
 -1      3833 9.81024E-05-3.14789E-05-2.85633E-05-1.88451E-06-1.58062E-18-3.15226E-18
 -1      3834 9.88269E-05-3.21562E-05-2.85825E-05-5.02519E-07-8.33471E-19-1.22731E-18
 -1      3835 9.57671E-05-2.91588E-05-2.85462E-05-2.63852E-07 1.97590E-19 3.61183E-19
 -1      3836 9.58282E-05-2.91975E-05-2.85552E-05-3.24249E-07 8.30465E-20 4.73380E-19
 -1      3837 9.65677E-05-2.77763E-05-2.94866E-05-1.98431E-07 6.37232E-19-1.46551E-18
 -1      3838 9.64783E-05-2.72974E-05-2.96469E-05 3.72108E-08 4.86306E-19-1.68941E-18
 -1      3839 9.56395E-05-2.90661E-05-2.85321E-05-1.29368E-07 4.77499E-19 2.28423E-19
 -1      3840 9.57026E-05-2.91145E-05-2.85369E-05-1.99529E-07 4.55385E-19 5.73034E-19
 -1      3841 9.58097E-05-2.91993E-05-2.85483E-05-1.69907E-07 2.67710E-19 3.59232E-19
 -1      3842 9.67455E-05-2.88090E-05-2.91134E-05 4.47870E-07-4.35288E-19-8.79253E-19
 -1      3843 9.67056E-05-2.89928E-05-2.90209E-05 5.03036E-07-2.42274E-19-8.19033E-19
 -1      3844 9.66517E-05-2.91309E-05-2.89356E-05 5.16275E-07-7.85480E-20-8.04553E-19
 -1      3845 9.65853E-05-2.92302E-05-2.88665E-05 5.31684E-07-1.23347E-19-6.40020E-19
 -1      3846 9.67722E-05-2.90695E-05-2.90168E-05 3.90183E-07-9.00685E-20-6.84967E-19
 -1      3847 9.65076E-05-2.92980E-05-2.88025E-05 5.23673E-07-3.02017E-19-5.64056E-19
 -1      3848 9.64315E-05-2.93428E-05-2.87517E-05 5.12518E-07-2.40429E-19-5.28732E-19
 -1      3849 9.66401E-05-2.92914E-05-2.88656E-05 4.08166E-07-1.09484E-19-2.08055E-19
 -1      3850 9.63455E-05-2.93658E-05-2.87043E-05 4.90978E-07-2.24770E-19-3.51876E-19
 -1      3851 9.62704E-05-2.93775E-05-2.86674E-05 4.63965E-07-1.28249E-19-4.05686E-19
 -1      3852 9.64772E-05-2.93929E-05-2.87525E-05 3.91426E-07-1.99335E-19-1.25481E-20
 -1      3853 9.61878E-05-2.93758E-05-2.86327E-05 4.36228E-07 1.36476E-19-4.17790E-19
 -1      3854 9.61218E-05-2.93714E-05-2.86060E-05 4.00969E-07 4.83573E-19-2.64325E-19
 -1      3855 9.63093E-05-2.94198E-05-2.86692E-05 3.54308E-07 9.42034E-20 4.12003E-19
 -1      3856 9.60512E-05-2.93605E-05-2.85809E-05 3.72241E-07 2.99754E-19-2.94358E-19
 -1      3857 9.60005E-05-2.93534E-05-2.85615E-05 3.34191E-07 2.05771E-19-2.87778E-19
 -1      3858 9.61568E-05-2.94093E-05-2.86084E-05 3.09340E-07 3.62622E-19 2.67341E-19
 -1      3859 9.59486E-05-2.93458E-05-2.85432E-05 3.08733E-07 2.36094E-19-7.21496E-19
 -1      3860 9.59193E-05-2.93475E-05-2.85290E-05 2.71937E-07 1.90976E-19-4.21031E-19
 -1      3861 9.60346E-05-2.93901E-05-2.85642E-05 2.66003E-07 6.24386E-20-4.79982E-19
 -1      3862 9.58926E-05-2.93542E-05-2.85156E-05 2.53833E-07 3.28913E-20-4.63582E-19
 -1      3863 9.58921E-05-2.93755E-05-2.85049E-05 2.21500E-07-3.48007E-19-1.63855E-19
 -1      3864 9.59554E-05-2.93862E-05-2.85322E-05 2.33206E-07 1.20590E-19-5.80533E-19
 -1      3865 9.58987E-05-2.94076E-05-2.84952E-05 2.15125E-07-7.53230E-19-1.88442E-19
 -1      3866 9.59366E-05-2.94605E-05-2.84870E-05 1.89964E-07-8.88131E-19-1.67735E-19
 -1      3867 9.59336E-05-2.94196E-05-2.85090E-05 2.20404E-07-5.55623E-19-6.06654E-19
 -1      3868 9.59879E-05-2.95306E-05-2.84802E-05 2.00241E-07-4.64670E-19 6.90108E-20
 -1      3869 9.60782E-05-2.96292E-05-2.84745E-05 1.84390E-07 2.64748E-19 2.74855E-19
 -1      3870 9.59880E-05-2.95145E-05-2.84925E-05 2.38456E-07-4.15745E-19 4.44501E-19
 -1      3871 9.61910E-05-2.97534E-05-2.84710E-05 2.16684E-07 3.04020E-19 2.36516E-19
 -1      3872 9.63536E-05-2.99157E-05-2.84686E-05 2.10838E-07 1.85372E-19 5.46951E-19
 -1      3873 9.61461E-05-2.96996E-05-2.84824E-05 3.00050E-07 2.90430E-19 5.81769E-19
 -1      3874 9.65530E-05-3.01146E-05-2.84698E-05 2.68972E-07-1.54088E-21 5.92766E-19
 -1      3875 9.68144E-05-3.03626E-05-2.84733E-05 2.70443E-07 2.57453E-19 5.33090E-19
 -1      3876 9.64491E-05-3.00128E-05-2.84803E-05 4.17957E-07 1.60395E-19 3.26329E-19
 -1      3877 9.71365E-05-3.06620E-05-2.84827E-05 3.54166E-07 5.61419E-19 6.03094E-19
 -1      3878 9.75309E-05-3.10213E-05-2.84969E-05 3.52973E-07 1.00428E-18 9.87721E-19
 -1      3879 9.69567E-05-3.05036E-05-2.84910E-05 6.00901E-07 4.65556E-19 9.55061E-19
 -1      3880 9.80245E-05-3.14508E-05-2.85212E-05 4.50710E-07 4.89683E-19 9.66166E-19
 -1      3881 9.85902E-05-3.19457E-05-2.85544E-05 4.23570E-07-3.45300E-20 5.35465E-19
 -1      3882 9.77535E-05-3.12343E-05-2.85242E-05 8.43944E-07 5.76855E-19 2.72719E-19
 -1      3883 9.93161E-05-3.25335E-05-2.86045E-05 5.04044E-07 1.57765E-19 2.86851E-19
 -1      3884 1.00089E-04-3.31785E-05-2.86700E-05 4.06121E-07 6.31964E-19 2.17498E-20
 -1      3885 9.89488E-05-3.22737E-05-2.85973E-05 1.11204E-06 8.02179E-21 5.79746E-20
 -1      3886 1.01115E-04-3.39399E-05-2.87644E-05 3.99836E-07 7.42113E-19 6.51828E-20
 -1      3887 1.02110E-04-3.47165E-05-2.88828E-05 1.56012E-07 7.74839E-19 2.40500E-19
 -1      3888 1.00673E-04-3.36837E-05-2.87393E-05 1.31651E-06 7.04520E-19 2.18861E-19
 -1      3889 1.03474E-04-3.56084E-05-2.90521E-05-7.17920E-08 4.69516E-19 3.74074E-19
 -1      3890 1.04636E-04-3.64022E-05-2.92533E-05-5.61051E-07 6.98191E-19 2.79262E-19
 -1      3891 1.03051E-04-3.54675E-05-2.90003E-05 1.24791E-06 9.81140E-19-2.51160E-19
 -1      3892 1.06327E-04-3.73181E-05-2.95367E-05-1.14319E-06 5.83666E-19 8.15584E-20
 -1      3893 1.07550E-04-3.79207E-05-2.98576E-05-2.01279E-06 4.39637E-19-8.22532E-20
 -1      3894 1.06091E-04-3.74663E-05-2.94537E-05 6.49485E-07 4.00347E-19-3.83438E-20
 -1      3895 1.09369E-04-3.85561E-05-3.03098E-05-3.05959E-06-1.19600E-19-7.98253E-19
 -1      3896 1.10429E-04-3.86343E-05-3.07800E-05-4.37125E-06-2.55119E-20-1.50827E-18
 -1      3897 1.09593E-04-3.91336E-05-3.01957E-05-9.20529E-07-3.45199E-19-1.05290E-18
 -1      3898 1.13960E-04-3.98060E-05-3.17801E-05-4.93794E-06 4.83702E-20-1.55615E-18
 -1      3899 1.14523E-04-3.88453E-05-3.24778E-05-6.45819E-06-9.04340E-20-1.66699E-18
 -1      3900 1.10672E-04-3.03423E-05-3.45709E-05-1.18312E-05-3.85134E-19-1.50663E-18
 -1      3901 1.09428E-04-2.70480E-05-3.53408E-05-1.16105E-05-3.16650E-19-1.41580E-18
 -1      3902 1.04419E-04-1.55638E-05-3.81738E-05-6.09841E-06 2.93070E-19-3.27348E-19
 -1      3903 1.03647E-04-1.39107E-05-3.84427E-05-2.74932E-06 9.94403E-19 6.23363E-21
 -1      3904 1.03945E-04-1.37079E-05-3.86793E-05 1.96215E-06 6.47100E-19-9.07571E-19
 -1      3905 1.04547E-04-1.50428E-05-3.84684E-05 5.48898E-06-2.90337E-19-8.23071E-19
 -1      3906 1.06781E-04-1.83008E-05-3.79110E-05 8.97444E-06 1.17996E-19-6.19472E-19
 -1      3907 1.08406E-04-2.18160E-05-3.72473E-05 1.11469E-05 3.46408E-19-9.95743E-20
 -1      3908 1.09973E-04-2.53645E-05-3.62611E-05 1.16886E-05-1.79945E-19-4.94760E-19
 -1      3909 1.11514E-04-2.91045E-05-3.54132E-05 1.21340E-05-3.84938E-19-3.00455E-19
 -1      3910 1.12444E-04-3.67784E-05-3.24594E-05 8.24171E-06-5.86768E-19 1.23809E-19
 -1      3911 1.12269E-04-3.80975E-05-3.17695E-05 6.83720E-06-1.63882E-19 4.30012E-19
 -1      3912 1.10799E-04-3.84467E-05-3.10424E-05 4.98371E-06 8.55353E-19 5.20376E-19
 -1      3913 1.09953E-04-3.85984E-05-3.05290E-05 3.75931E-06 1.56977E-18 1.27918E-18
 -1      3914 1.13755E-04-3.97574E-05-3.17030E-05 4.61024E-06-1.18374E-19-2.15891E-19
 -1      3915 1.08125E-04-3.81435E-05-3.00249E-05 2.41426E-06 4.73409E-19 1.21021E-18
 -1      3916 1.06898E-04-3.75713E-05-2.96763E-05 1.48067E-06-3.20425E-20 3.62824E-19
 -1      3917 1.10444E-04-3.95688E-05-3.04010E-05 1.25312E-06 6.68448E-19-2.79517E-19
 -1      3918 1.05186E-04-3.66790E-05-2.93665E-05 8.40072E-07-1.67538E-19 3.12101E-19
 -1      3919 1.03981E-04-3.58958E-05-2.91450E-05 2.80744E-07-3.65366E-20 3.35390E-19
 -1      3920 1.06719E-04-3.77397E-05-2.95916E-05-3.67053E-07-2.39636E-19-3.64198E-19
 -1      3921 1.02531E-04-3.49814E-05-2.89543E-05-3.51226E-09 2.05167E-19 6.38040E-19
 -1      3922 1.01494E-04-3.41827E-05-2.88202E-05-2.91038E-07 3.06383E-19 7.05850E-19
 -1      3923 1.03578E-04-3.57941E-05-2.90876E-05-1.14272E-06 4.62447E-19 6.57013E-20
 -1      3924 1.00471E-04-3.34576E-05-2.87199E-05-3.96087E-07 1.66192E-19 3.21135E-19
 -1      3925 9.96347E-05-3.27540E-05-2.86419E-05-5.03697E-07-7.46206E-20-4.56171E-19
 -1      3926 9.93576E-05-3.25741E-05-2.86396E-05-1.33399E-06-8.70399E-19-2.35203E-18
 -1      3927 1.01131E-04-3.39947E-05-2.87992E-05-1.35853E-06-1.55384E-20-9.82081E-19
 -1      3928 9.60427E-05-2.92908E-05-2.86071E-05-4.79143E-07-2.44451E-19-4.55614E-19
 -1      3929 9.61135E-05-2.93064E-05-2.86306E-05-5.25428E-07 2.87050E-20-4.09600E-19
 -1      3930 9.77677E-05-3.10909E-05-2.85515E-05-3.26220E-06-1.75650E-18-4.27392E-18
 -1      3931 9.69900E-05-3.04618E-05-2.85273E-05-3.71584E-06-1.24475E-18-2.24988E-18
 -1      3932 9.50531E-05-2.33840E-05-3.07225E-05-4.60144E-07-4.33343E-20-1.43832E-18
 -1      3933 9.51224E-05-2.35665E-05-3.06813E-05-8.29782E-07-6.40926E-20-1.35352E-18
 -1      3934 9.55629E-05-2.43561E-05-3.05019E-05-2.23237E-07-1.30537E-19-1.48309E-18
 -1      3935 9.53496E-05-2.41949E-05-3.05056E-05 1.24317E-06 7.33746E-19-1.67721E-18
 -1      3936 9.51987E-05-2.37683E-05-3.06136E-05 1.01010E-06 6.79090E-19-1.85640E-18
 -1      3937 9.56336E-05-2.46464E-05-3.04141E-05 6.28802E-07 5.22046E-19-1.60229E-18
 -1      3938 9.57592E-05-2.51573E-05-3.02541E-05 8.63690E-07 6.56795E-19-1.68551E-18
 -1      3939 9.55039E-05-2.89512E-05-2.85245E-05 3.85562E-08 2.36421E-19 1.16196E-19
 -1      3940 9.55779E-05-2.90133E-05-2.85266E-05-4.83405E-08 6.27134E-19 5.22997E-19
 -1      3941 9.56862E-05-2.91116E-05-2.85325E-05-2.88234E-08 4.96988E-19 6.40757E-19
 -1      3942 9.53394E-05-2.88014E-05-2.85204E-05 2.64615E-07 3.67777E-19-4.29153E-19
 -1      3943 9.54386E-05-2.88851E-05-2.85213E-05 1.48395E-07 3.58254E-19-5.27056E-19
 -1      3944 9.55630E-05-2.90092E-05-2.85229E-05 1.60830E-07 5.13512E-19 4.19011E-19
 -1      3945 9.51040E-05-2.85844E-05-2.85156E-05 6.13933E-07-1.87289E-20-6.46052E-19
 -1      3946 9.52581E-05-2.87103E-05-2.85178E-05 4.32639E-07 6.23078E-20-5.45431E-19
 -1      3947 9.54218E-05-2.88815E-05-2.85164E-05 4.40784E-07 2.07863E-19-4.53742E-19
 -1      3948 9.47795E-05-2.82969E-05-2.85040E-05 1.12682E-06 2.47223E-19 5.94150E-20
 -1      3949 9.50039E-05-2.84669E-05-2.85113E-05 8.58704E-07-7.66988E-20-3.00897E-19
 -1      3950 9.52467E-05-2.87210E-05-2.85090E-05 8.63579E-07-1.60365E-19 7.25576E-20
 -1      3951 9.43139E-05-2.79137E-05-2.84751E-05 1.93223E-06 5.54624E-19 4.52776E-19
 -1      3952 9.46502E-05-2.81444E-05-2.84943E-05 1.50469E-06 6.46356E-19 1.53188E-19
 -1      3953 9.50256E-05-2.85305E-05-2.84950E-05 1.50258E-06 1.71549E-19-3.39959E-19
 -1      3954 9.36757E-05-2.74457E-05-2.84108E-05 3.20882E-06-1.19116E-19 4.44000E-19
 -1      3955 9.41601E-05-2.77336E-05-2.84540E-05 2.51886E-06 3.62139E-19 6.56026E-19
 -1      3956 9.47511E-05-2.83244E-05-2.84656E-05 2.49254E-06 2.67038E-19 6.00634E-19
 -1      3957 9.28767E-05-2.69728E-05-2.82835E-05 5.21916E-06-4.91708E-19 2.63759E-19
 -1      3958 9.35331E-05-2.72769E-05-2.83698E-05 4.11348E-06-2.87884E-19 1.21364E-19
 -1      3959 9.44609E-05-2.81742E-05-2.84077E-05 4.01596E-06-9.26048E-20 2.40140E-19
 -1      3960 9.20426E-05-2.67141E-05-2.80396E-05 8.52186E-06-5.38858E-19-3.49481E-19
 -1      3961 9.28394E-05-2.69146E-05-2.82083E-05 6.65816E-06-4.21729E-19-2.38554E-19
 -1      3962 9.42773E-05-2.82471E-05-2.83029E-05 6.39741E-06-1.45570E-19-4.64579E-19
 -1      3963 9.17359E-05-2.71882E-05-2.76443E-05 1.32385E-05-6.96458E-19-1.06623E-18
 -1      3964 9.23737E-05-2.70293E-05-2.79255E-05 1.04752E-05-7.26317E-19-8.75163E-19
 -1      3965 9.44432E-05-2.89152E-05-2.81377E-05 9.89613E-06-3.85073E-19-1.19960E-18
 -1      3966 9.58295E-05-2.51544E-05-3.02794E-05-5.78293E-07-1.07306E-19-1.46251E-18
 -1      3967 1.18172E-04-4.28170E-05-3.23518E-05 1.62575E-06-8.05682E-19-5.25635E-19
 -1      3968 1.20350E-04-4.21042E-05-3.35601E-05 4.94530E-06-4.81966E-19-1.08722E-18
 -1      3969 9.22889E-05-2.61143E-05-2.83153E-05-4.19879E-06 6.44565E-19 1.39085E-18
 -1      3970 9.46540E-05-2.27581E-05-3.08133E-05-2.58128E-06-5.07109E-19-2.21599E-18
 -1      3971 1.09594E-04-2.39421E-05-3.68071E-05-1.18281E-05-3.96440E-19-1.32066E-18
 -1      3972 9.60450E-05-3.17712E-05-2.74165E-05 1.96664E-05-4.73359E-19-9.62992E-19
 -1      3973 9.40716E-05-2.93406E-05-2.76289E-05 1.58418E-05-6.85518E-19-1.05166E-18
 -1      3974 9.69641E-05-3.18781E-05-2.80436E-05 1.43776E-05-7.43316E-19-1.39673E-18
 -1      3975 9.67426E-05-2.82606E-05-2.93471E-05 2.88573E-07-3.41845E-19-1.03170E-18
 -1      3976 9.67520E-05-2.85654E-05-2.92253E-05 4.01057E-07-3.69834E-19-1.00454E-18
 -1      3977 9.68336E-05-2.86634E-05-2.92163E-05 3.18241E-07-3.11334E-19-7.65574E-19
 -1      3978 9.46588E-05-2.83096E-05-2.84515E-05-3.29002E-06 7.39261E-19 1.54421E-18
 -1      3979 1.21002E-04-4.01869E-05-3.46579E-05 7.01349E-06-7.33028E-19-1.48350E-18
 -1      3980 1.20320E-04-3.60130E-05-3.62661E-05 1.06691E-05-6.58800E-20-1.05933E-18
 -1      3981 1.15894E-04-3.24691E-05-3.56925E-05 1.16525E-05-2.17462E-19-1.78607E-18
 -1      3982 1.15815E-04-3.76010E-05-3.34623E-05 8.41722E-06-8.83842E-19-4.68446E-19
 -1      3983 9.58991E-05-2.92345E-05-2.85699E-05-3.78500E-07-1.78967E-19 2.48489E-19
 -1      3984 9.59632E-05-2.92636E-05-2.85847E-05-4.31733E-07-2.99938E-19-3.09839E-19
 -1      3985 9.59430E-05-2.92747E-05-2.85736E-05-2.81859E-07-2.03888E-19 3.11507E-19
 -1      3986 1.07808E-04-2.00536E-05-3.75800E-05-1.01860E-05-3.54099E-19-8.79207E-19
 -1      3987 1.16380E-04-4.49292E-05-3.07387E-05 9.02557E-06-2.76490E-19-8.69582E-19
 -1      3988 1.12663E-04-4.30557E-05-2.96335E-05 1.41466E-05-3.20059E-19-3.21198E-19
 -1      3989 9.61975E-05-2.93158E-05-2.86628E-05-5.64186E-07 2.93066E-19-6.09106E-19
 -1      3990 9.62701E-05-2.93085E-05-2.86965E-05-5.96980E-07 4.57588E-19-7.12847E-19
 -1      3991 9.62535E-05-2.93647E-05-2.86686E-05-4.50565E-07 1.92145E-21-1.16723E-20
 -1      3992 9.63541E-05-2.92890E-05-2.87418E-05-6.23815E-07 4.65670E-19-7.76115E-19
 -1      3993 9.64259E-05-2.92459E-05-2.87897E-05-6.36757E-07 3.54003E-19-7.09037E-19
 -1      3994 9.64203E-05-2.93461E-05-2.87481E-05-5.04455E-07 4.18813E-19 1.36396E-20
 -1      3995 9.19132E-05-2.67516E-05-2.78680E-05-1.10516E-05-1.08222E-18 3.19374E-20
 -1      3996 9.09679E-05-2.68284E-05-2.75275E-05-1.41631E-05-1.23281E-18 5.91442E-20
 -1      3997 9.63120E-05-2.67719E-05-2.98062E-05 2.03184E-07 4.67491E-19-1.66729E-18
 -1      3998 9.60554E-05-2.59299E-05-3.00564E-05 6.04898E-07 5.55172E-19-1.65481E-18
 -1      3999 9.59938E-05-2.56381E-05-3.01497E-05 5.39663E-07 5.13773E-19-1.68798E-18
 -1      4000 9.64416E-05-2.69163E-05-2.97941E-05 1.19910E-07 4.98682E-19-1.75317E-18
 -1      4001 9.65783E-05-2.73961E-05-2.96491E-05 2.57584E-09-3.32338E-20-1.20564E-18
 -1      4002 9.66692E-05-2.78655E-05-2.94912E-05 1.96912E-07-2.91078E-19-1.18951E-18
 -1      4003 9.67712E-05-2.79950E-05-2.94748E-05 1.71580E-07-1.68152E-19-9.67310E-19
 -1      4004 1.13528E-04-4.20653E-05-3.06691E-05-3.03564E-06-6.25793E-19-4.97157E-19
 -1      4005 1.16769E-04-4.30765E-05-3.15560E-05-1.22460E-07-6.74715E-19-1.24552E-18
 -1      4006 9.58327E-05-2.93432E-05-2.84533E-05-4.58484E-06-2.31821E-19 1.09213E-18
 -1      4007 9.39552E-05-2.77379E-05-2.83967E-05-4.36889E-06 9.80081E-19 1.09321E-18
 -1      4008 9.29768E-05-2.71640E-05-2.82695E-05-5.90393E-06-4.94029E-19 1.15005E-18
 -1      4009 9.66581E-05-3.02270E-05-2.84811E-05-5.06524E-06-1.12792E-18-1.05440E-18
 -1      4010 9.61808E-05-2.60833E-05-3.00454E-05-4.28116E-07-4.15539E-20-1.47914E-18
 -1      4011 9.63972E-05-2.67703E-05-2.98440E-05-1.35574E-07 8.26571E-21-1.32693E-18
 -1      4012 9.65193E-05-2.69477E-05-2.98143E-05-7.16354E-08-2.52046E-20-1.36654E-18
 -1      4013 9.59503E-05-2.53780E-05-3.02428E-05-3.51621E-07-7.38213E-20-1.25061E-18
 -1      4014 1.04874E-04-3.88302E-05-2.85323E-05 1.82355E-05-4.20913E-19-4.04948E-19
 -1      4015 1.00665E-04-3.62397E-05-2.74145E-05-2.37914E-05-1.44735E-18-2.35285E-19
 -1      4016 1.05340E-04-3.95243E-05-2.82993E-05-2.11942E-05-1.27340E-18 1.47569E-20
 -1      4017 1.05491E-04-3.86821E-05-2.86416E-05-1.71465E-05-1.35173E-18-3.87923E-19
 -1      4018 1.15812E-04-3.73928E-05-3.36397E-05-8.93462E-06-2.77233E-19-1.81191E-18
 -1      4019 1.15130E-04-4.14531E-05-3.15872E-05-2.15478E-06-2.70350E-19-9.57723E-19
 -1      4020 1.15262E-04-3.47169E-05-3.45490E-05-1.02673E-05-6.15138E-19-1.64029E-18
 -1      4021 1.12297E-04-3.23784E-05-3.42577E-05 1.09976E-05-5.16932E-19-7.57400E-20
 -1      4022 9.65794E-05-2.92462E-05-2.88590E-05-5.26832E-07 4.60482E-19-3.89138E-19
 -1      4023 9.65012E-05-2.91784E-05-2.88529E-05-6.45355E-07 4.30973E-19-7.96634E-19
 -1      4024 9.65636E-05-2.90770E-05-2.89205E-05-6.25918E-07 5.67427E-19-7.05653E-19
 -1      4025 1.13017E-04-3.51123E-05-3.34259E-05 1.00683E-05-6.53465E-19 6.50609E-19
 -1      4026 9.60916E-05-2.93340E-05-2.86121E-05-3.74929E-07-3.49161E-19-1.96276E-20
 -1      4027 1.06579E-04-3.88095E-05-2.90024E-05 1.36840E-05-6.35338E-19-4.15129E-19
 -1      4028 9.66557E-05-2.85022E-05-2.92118E-05-4.69273E-07 5.12168E-19-1.18931E-18
 -1      4029 9.66478E-05-2.81879E-05-2.93366E-05-3.28438E-07 6.27801E-19-1.20719E-18
 -1      4030 9.66890E-05-2.79028E-05-2.94794E-05-1.93317E-07 4.53236E-19-1.19986E-18
 -1      4031 9.28403E-05-2.70098E-05-2.81859E-05-7.32623E-06-1.27268E-18 7.91048E-19
 -1      4032 9.20512E-05-2.68435E-05-2.80167E-05-9.12528E-06-1.26524E-18 1.42746E-19
 -1      4033 9.47655E-05-2.91157E-05-2.81121E-05-1.06680E-05-1.10040E-18-7.31248E-20
 -1      4034 9.50769E-05-2.89363E-05-2.83191E-05-7.22703E-06-1.00670E-18 1.22193E-19
 -1      4035 9.50055E-05-3.01315E-05-2.78260E-05-1.48888E-05-9.34425E-19-7.72626E-19
 -1      4036 9.16839E-05-2.75790E-05-2.73657E-05-1.63161E-05-1.52790E-18-1.85157E-19
 -1      4037 9.11145E-05-2.79805E-05-2.69660E-05-1.94729E-05-1.21595E-18 3.29069E-20
 -1      4038 1.16485E-04-4.28079E-05-3.15603E-05 3.84574E-07-4.90976E-19-8.23528E-19
 -1      4039 1.17113E-04-4.45218E-05-3.10700E-05 5.36405E-06-5.11294E-19-7.08869E-19
 -1      4040 1.12874E-04-4.22849E-05-3.02881E-05 6.45214E-06-2.66293E-19-7.46318E-19
 -1      4041 1.12320E-04-4.09748E-05-3.06153E-05 5.14011E-07-4.17642E-19-3.94975E-19
 -1      4042 9.90207E-05-3.22033E-05-2.86168E-05-2.07601E-06-1.23471E-18-3.06743E-18
 -1      4043 9.83796E-05-3.16954E-05-2.85906E-05-2.69578E-06-1.08440E-18-4.15059E-18
 -1      4044 9.86537E-05-3.19103E-05-2.86050E-05-3.54727E-06-4.38779E-19-3.36543E-18
 -1      4045 9.97950E-05-3.28726E-05-2.86775E-05-2.18707E-06-3.60492E-19-1.97897E-18
 -1      4046 9.59829E-05-2.54942E-05-3.02127E-05 4.71890E-07 5.17592E-19-1.69045E-18
 -1      4047 9.59187E-05-2.52825E-05-3.02748E-05 3.46655E-07 5.10909E-19-1.53923E-18
 -1      4048 9.62558E-05-2.62050E-05-3.00201E-05 2.45157E-07 5.21710E-19-1.62466E-18
 -1      4049 9.13383E-05-3.01534E-05-2.62532E-05-2.54136E-05-1.30583E-18 9.55427E-19
 -1      4050 1.08017E-04-3.95958E-05-2.92484E-05-1.19326E-05-1.03633E-18 2.25412E-19
 -1      4051 1.10285E-04-4.09185E-05-2.97053E-05-9.27084E-06-1.03682E-18 1.19943E-18
 -1      4052 9.59099E-05-2.52228E-05-3.02996E-05 1.45345E-07 4.26305E-19-1.59542E-18
 -1      4053 9.67856E-05-2.77720E-05-2.95782E-05 6.28655E-08 8.49486E-20-1.03830E-18
 -1      4054 9.68635E-05-2.81940E-05-2.94306E-05 1.65056E-07-6.72960E-20-9.06429E-19
 -1      4055 9.59416E-05-2.52741E-05-3.02892E-05-2.57508E-08 1.52967E-19-1.29466E-18
 -1      4056 9.59485E-05-2.53399E-05-3.02699E-05-2.16812E-07-1.31566E-19-1.13563E-18
 -1      4057 9.63191E-05-2.61996E-05-3.00421E-05-1.15340E-07-8.54843E-20-1.14499E-18
 -1      4058 9.58419E-05-2.92336E-05-2.85465E-05-7.75489E-08 3.08774E-19 5.23167E-20
 -1      4059 9.59063E-05-2.92697E-05-2.85569E-05-1.34547E-07 1.56556E-19-1.48997E-19
 -1      4060 9.67482E-05-2.92755E-05-2.89154E-05 2.79368E-07-1.12452E-19-6.93582E-19
 -1      4061 9.66731E-05-2.93544E-05-2.88496E-05 2.87581E-07-1.89895E-19-4.10661E-19
 -1      4062 9.65846E-05-2.94042E-05-2.87905E-05 2.73600E-07-8.39566E-20-3.89853E-19
 -1      4063 9.64999E-05-2.94326E-05-2.87416E-05 2.68420E-07-1.06755E-19-1.70417E-19
 -1      4064 9.66739E-05-2.93992E-05-2.88361E-05 1.49975E-07-1.08893E-19-6.85684E-19
 -1      4065 9.64083E-05-2.94435E-05-2.86979E-05 2.54262E-07-3.80019E-20-1.45830E-19
 -1      4066 9.63262E-05-2.94440E-05-2.86621E-05 2.41526E-07 3.09107E-19-6.74065E-20
 -1      4067 9.64938E-05-2.94617E-05-2.87326E-05 1.43024E-07-1.14993E-19-6.64711E-19
 -1      4068 9.62416E-05-2.94351E-05-2.86302E-05 2.28939E-07 2.99444E-19-1.30281E-19
 -1      4069 9.61712E-05-2.94237E-05-2.86042E-05 2.13846E-07 1.67633E-19-2.72426E-19
 -1      4070 9.63188E-05-2.94642E-05-2.86565E-05 1.33871E-07 2.05807E-19-8.55115E-19
 -1      4071 9.61005E-05-2.94088E-05-2.85812E-05 2.06259E-07-1.13207E-19-3.73177E-19
 -1      4072 9.60486E-05-2.93982E-05-2.85624E-05 1.93620E-07 6.15271E-20-5.45338E-19
 -1      4073 9.61642E-05-2.94386E-05-2.86012E-05 1.29193E-07-4.59880E-20-6.25189E-19
 -1      4074 9.59976E-05-2.93887E-05-2.85458E-05 1.95193E-07 1.02468E-19-7.00029E-19
 -1      4075 9.59710E-05-2.93898E-05-2.85322E-05 1.90075E-07-1.89993E-19-8.92223E-19
 -1      4076 9.60428E-05-2.94103E-05-2.85615E-05 1.37285E-07-2.23757E-20-6.86715E-19
 -1      4077 9.59452E-05-2.93958E-05-2.85205E-05 2.06302E-07-8.44018E-20-3.45713E-19
 -1      4078 9.59521E-05-2.94191E-05-2.85108E-05 2.14555E-07-1.44574E-19 1.51919E-19
 -1      4079 9.59656E-05-2.94007E-05-2.85332E-05 1.68748E-07 3.72291E-19-3.64721E-19
 -1      4080 9.59588E-05-2.94511E-05-2.85027E-05 2.53071E-07-1.88676E-19 7.18217E-19
 -1      4081 9.60108E-05-2.95091E-05-2.84961E-05 2.81819E-07 2.72953E-20 8.92234E-19
 -1      4082 9.59455E-05-2.94296E-05-2.85135E-05 2.38158E-07 4.14863E-19 4.32055E-19
 -1      4083 9.60609E-05-2.95794E-05-2.84912E-05 3.52614E-07 2.69754E-20 9.23177E-19
 -1      4084 9.61752E-05-2.96878E-05-2.84880E-05 4.10743E-07 4.91579E-19 7.43119E-19
 -1      4085 9.60002E-05-2.95203E-05-2.85008E-05 3.65310E-07 4.62368E-20 4.29317E-19
 -1      4086 9.62870E-05-2.98150E-05-2.84866E-05 5.26410E-07 3.43351E-19 6.22677E-19
 -1      4087 9.64883E-05-2.99951E-05-2.84881E-05 6.21493E-07 5.26404E-20 6.73729E-19
 -1      4088 9.61584E-05-2.97030E-05-2.84947E-05 5.76529E-07 2.29710E-19 2.00700E-19
 -1      4089 9.66905E-05-3.02025E-05-2.84919E-05 7.96940E-07 3.10985E-19 9.53598E-19
 -1      4090 9.70155E-05-3.04841E-05-2.85014E-05 9.35335E-07 8.17536E-19 7.97404E-19
 -1      4091 9.64639E-05-3.00184E-05-2.84971E-05 9.03867E-07 4.34636E-19 2.00005E-19
 -1      4092 9.73543E-05-3.08072E-05-2.85142E-05 1.18103E-06 6.34779E-19 6.36205E-19
 -1      4093 9.78518E-05-3.12285E-05-2.85380E-05 1.35935E-06 1.44945E-19 3.77512E-19
 -1      4094 9.69906E-05-3.05314E-05-2.85131E-05 1.38000E-06 4.86156E-19 1.03272E-18
 -1      4095 9.83976E-05-3.17121E-05-2.85674E-05 1.67229E-06-2.98699E-19 5.34889E-19
 -1      4096 9.91263E-05-3.23157E-05-2.86163E-05 1.86917E-06-3.26294E-20 4.00566E-19
 -1      4097 9.78517E-05-3.13324E-05-2.85536E-05 2.02410E-06-9.73761E-20 1.05811E-18
 -1      4098 9.99766E-05-3.30162E-05-2.86760E-05 2.21626E-06 3.57914E-19 3.82695E-19
 -1      4099 1.01009E-04-3.38374E-05-2.87686E-05 2.36420E-06 7.67954E-19 3.28235E-19
 -1      4100 9.92153E-05-3.25308E-05-2.86403E-05 2.81799E-06 1.71500E-19 6.07532E-19
 -1      4101 1.02282E-04-3.48396E-05-2.88795E-05 2.70317E-06 8.38555E-19-3.14130E-19
 -1      4102 1.03668E-04-3.58892E-05-2.90478E-05 2.64302E-06 6.91692E-19-4.72975E-19
 -1      4103 1.01248E-04-3.41655E-05-2.88068E-05 3.69030E-06 5.28098E-19 4.11416E-19
 -1      4104 1.05466E-04-3.70381E-05-2.92675E-05 2.70547E-06 6.37717E-19-7.12576E-19
 -1      4105 1.07089E-04-3.82179E-05-2.95386E-05 2.40838E-06 3.04561E-19-7.99480E-19
 -1      4106 1.04342E-04-3.65341E-05-2.91070E-05 4.47237E-06 5.46091E-19-5.92440E-19
 -1      4107 1.10588E-04-4.01752E-05-3.01452E-05 1.53012E-06-8.31317E-20-5.75859E-19
 -1      4108 1.08073E-04-3.87360E-05-2.96989E-05-2.12849E-06 4.65190E-20-9.60795E-19
 -1      4109 1.06266E-04-3.76057E-05-2.93921E-05-2.59983E-06 1.61027E-19-5.74073E-19
 -1      4110 1.04279E-04-3.62672E-05-2.91474E-05-2.64773E-06 2.18070E-19-4.27702E-19
 -1      4111 1.02803E-04-3.51600E-05-2.89589E-05-2.71777E-06 8.47843E-19-6.03508E-19
 -1      4112 1.05067E-04-3.70224E-05-2.92217E-05-4.44650E-06 5.03374E-19-6.46581E-19
 -1      4113 1.08646E-04-4.01012E-05-2.94537E-05 9.91363E-06-3.19310E-19-1.13880E-19
 -1      4114 1.02845E-04-3.58475E-05-2.85949E-05 1.32212E-05-3.77479E-19-1.25913E-19
 -1      4115 9.54072E-05-2.89153E-05-2.85042E-05 1.03368E-06-7.50404E-20 3.18601E-19
 -1      4116 9.55069E-05-2.89689E-05-2.85090E-05 7.82514E-07-6.66300E-20 4.42741E-19
 -1      4117 9.52998E-05-2.88456E-05-2.84914E-05 1.73944E-06 7.12957E-19-4.16420E-19
 -1      4118 9.54270E-05-2.88986E-05-2.85009E-05 1.35144E-06 5.09167E-19-7.26181E-20
 -1      4119 9.56859E-05-2.92086E-05-2.85026E-05 1.24121E-06 8.23548E-19 1.02411E-19
 -1      4120 9.52241E-05-2.88343E-05-2.84674E-05 2.81637E-06-1.80493E-19 2.66183E-20
 -1      4121 9.53727E-05-2.88635E-05-2.84863E-05 2.21754E-06 2.41365E-19-2.24798E-19
 -1      4122 9.57671E-05-2.93212E-05-2.84959E-05 2.02066E-06 5.22933E-19 3.32204E-20
 -1      4123 9.52712E-05-2.89885E-05-2.84246E-05 4.42707E-06 8.38580E-20-5.16119E-20
 -1      4124 9.54041E-05-2.89351E-05-2.84591E-05 3.51812E-06 9.03176E-20 2.45447E-19
 -1      4125 9.59971E-05-2.95969E-05-2.84870E-05 3.17184E-06-1.56210E-19-9.94073E-20
 -1      4126 9.57018E-05-2.95689E-05-2.83568E-05 6.91177E-06-4.37239E-20 6.06435E-20
 -1      4127 9.56947E-05-2.92969E-05-2.84145E-05 5.47171E-06-9.51436E-20 1.91054E-19
 -1      4128 9.65490E-05-3.02049E-05-2.84780E-05 4.85624E-06 4.51421E-20 3.15917E-20
 -1      4129 9.70093E-05-3.08975E-05-2.82742E-05 1.02827E-05 7.47374E-20-6.40550E-19
 -1      4130 9.65812E-05-3.02371E-05-2.83590E-05 8.25823E-06 3.36169E-19-2.54403E-19
 -1      4131 9.77520E-05-3.14523E-05-2.84863E-05 7.13479E-06 4.05530E-19 4.86062E-19
 -1      4132 9.69012E-05-2.85369E-05-2.92983E-05 1.85045E-07-2.37114E-19-8.51996E-19
 -1      4133 9.68988E-05-2.88021E-05-2.91841E-05 2.48536E-07-2.55564E-19-7.79844E-19
 -1      4134 9.69130E-05-2.83320E-05-2.93936E-05 8.84342E-08-1.26535E-19-1.02998E-18
 -1      4135 1.00149E-04-3.35494E-05-2.84955E-05 1.13557E-05-4.21488E-19-4.02661E-19
 -1      4136 9.59726E-05-2.93036E-05-2.85719E-05-1.82283E-07-2.83251E-19-1.84266E-19
 -1      4137 9.60435E-05-2.93351E-05-2.85879E-05-2.26885E-07-4.26978E-19-2.84231E-19
 -1      4138 9.59918E-05-2.93393E-05-2.85696E-05-9.12369E-08-1.03856E-19-3.29822E-19
 -1      4139 9.62897E-05-2.94017E-05-2.86652E-05-3.31543E-07 7.68804E-21 1.59846E-19
 -1      4140 9.63741E-05-2.94053E-05-2.86993E-05-3.56066E-07 1.64740E-19 2.68697E-19
 -1      4141 9.64645E-05-2.93964E-05-2.87426E-05-3.80750E-07 9.48656E-20 3.01184E-19
 -1      4142 9.65494E-05-2.93678E-05-2.87901E-05-3.91593E-07 2.92439E-19 1.60592E-19
 -1      4143 9.64797E-05-2.94359E-05-2.87378E-05-2.59546E-07 1.45449E-19 5.35951E-20
 -1      4144 9.57271E-05-2.91595E-05-2.85301E-05 6.25364E-08 4.48982E-19 1.08886E-19
 -1      4145 9.57887E-05-2.91985E-05-2.85366E-05-1.36800E-08 5.03934E-19-6.20830E-20
 -1      4146 9.58737E-05-2.92812E-05-2.85440E-05 1.04081E-08 5.78522E-19-4.50235E-20
 -1      4147 9.55157E-05-2.89988E-05-2.85121E-05 5.65485E-07-3.76193E-19 1.92934E-19
 -1      4148 9.55967E-05-2.90492E-05-2.85157E-05 3.95485E-07 9.86168E-20-2.36190E-19
 -1      4149 9.56792E-05-2.91782E-05-2.85086E-05 7.16027E-07-2.75107E-19 6.99605E-20
 -1      4150 9.66146E-05-2.89369E-05-2.90061E-05-6.03615E-07 3.44570E-19-8.16033E-19
 -1      4151 9.66532E-05-2.87504E-05-2.90982E-05-5.35558E-07 3.74855E-19-1.10263E-18
 -1      4152 9.67056E-05-2.90169E-05-2.90107E-05-4.99621E-07 3.06940E-19-7.52342E-19
 -1      4153 1.10257E-04-4.07538E-05-2.98109E-05-6.89049E-06-3.30068E-19-4.48621E-19
 -1      4154 1.10210E-04-3.97133E-05-3.01977E-05-1.13666E-06 3.13374E-19-1.28429E-18
 -1      4155 9.68689E-05-2.90109E-05-2.90812E-05 2.51334E-07-6.67123E-20-6.56669E-19
 -1      4156 9.68155E-05-2.91632E-05-2.89938E-05 2.80728E-07 9.89312E-20-6.75454E-19
 -1      4157 9.69257E-05-2.88971E-05-2.91572E-05 1.34110E-07-5.37710E-20-5.19479E-19
 -1      4158 1.05899E-04-3.85115E-05-2.89366E-05-1.38163E-05-1.33033E-18-5.22428E-19
 -1      4159 1.05602E-04-3.78583E-05-2.90362E-05-1.10531E-05 5.35219E-20-2.38338E-19
 -1      4160 1.03309E-04-3.66052E-05-2.84632E-05-1.58338E-05-5.68994E-19 1.03196E-19
 -1      4161 9.62877E-05-2.60854E-05-3.00795E-05 1.05211E-07 2.68614E-19-1.35678E-18
 -1      4162 9.41747E-05-3.09529E-05-2.70946E-05-2.11661E-05-1.25150E-18 4.79570E-19
 -1      4163 9.56224E-05-2.90826E-05-2.85197E-05 2.61260E-07 7.62029E-19-6.38314E-19
 -1      4164 9.56874E-05-2.91251E-05-2.85238E-05 1.53354E-07 6.70311E-19-2.53850E-19
 -1      4165 9.57818E-05-2.92298E-05-2.85270E-05 1.56444E-07 5.16890E-19-7.39749E-19
 -1      4166 9.57162E-05-2.91922E-05-2.85161E-05 3.74138E-07 1.45954E-19-3.70647E-19
 -1      4167 9.61223E-05-2.93638E-05-2.86098E-05-2.65018E-07-2.27150E-19-1.04408E-19
 -1      4168 9.62018E-05-2.93861E-05-2.86339E-05-3.00328E-07-1.17148E-19 6.61721E-20
 -1      4169 9.63011E-05-2.94345E-05-2.86619E-05-2.20604E-07-3.77096E-20 2.25659E-20
 -1      4170 9.61354E-05-2.93952E-05-2.86075E-05-1.65354E-07-1.75949E-19-4.77214E-19
 -1      4171 1.09561E-04-3.98798E-05-2.98935E-05 3.90549E-06 2.28047E-19-6.58482E-20
 -1      4172 9.67934E-05-2.80964E-05-2.94449E-05-2.10590E-07 3.51685E-19-1.12946E-18
 -1      4173 9.67141E-05-2.76467E-05-2.95988E-05-7.01699E-08 2.21854E-19-1.30396E-18
 -1      4174 1.05224E-04-3.70986E-05-2.91823E-05-6.50567E-06 4.89110E-19-1.12805E-18
 -1      4175 1.03235E-04-3.56459E-05-2.89514E-05-6.16826E-06 4.06632E-19-1.23586E-18
 -1      4176 9.66001E-05-2.72598E-05-2.97189E-05-1.41102E-08 3.89582E-19-1.56790E-18
 -1      4177 9.64438E-05-2.67275E-05-2.98796E-05 1.54068E-07 4.40497E-19-1.52866E-18
 -1      4178 9.64215E-05-2.65634E-05-2.99384E-05 1.18015E-07 3.78996E-19-1.41445E-18
 -1      4179 9.67028E-05-2.74495E-05-2.96794E-05-3.27322E-08 1.59705E-19-1.20843E-18
 -1      4180 9.66341E-05-2.93175E-05-2.88500E-05-4.07906E-07 2.09521E-19-6.60633E-20
 -1      4181 9.67079E-05-2.92345E-05-2.89159E-05-4.00700E-07 2.69330E-19-2.94729E-19
 -1      4182 9.66579E-05-2.93663E-05-2.88426E-05-2.79110E-07 4.56657E-20 1.22892E-19
 -1      4183 1.09378E-04-4.01619E-05-2.96376E-05 7.01510E-06 2.76060E-19-4.72685E-19
 -1      4184 1.05852E-04-3.76672E-05-2.91809E-05 7.21706E-06 3.49492E-19-3.70941E-20
 -1      4185 1.01683E-04-3.43603E-05-2.88475E-05-2.48734E-06 4.93666E-19-1.62256E-18
 -1      4186 1.00641E-04-3.35262E-05-2.87440E-05-2.48019E-06-2.81852E-19-2.02350E-18
 -1      4187 1.00102E-04-3.31647E-05-2.87115E-05-3.27876E-06-2.41261E-19-1.80692E-18
 -1      4188 1.02036E-04-3.47019E-05-2.88801E-05-3.97899E-06 2.15514E-19-1.33877E-18
 -1      4189 9.65018E-05-2.67560E-05-2.98948E-05-9.31283E-08 8.26189E-20-1.15191E-18
 -1      4190 9.66881E-05-2.73751E-05-2.97039E-05 3.37340E-08 1.21037E-19-1.16266E-18
 -1      4191 9.67677E-05-2.75748E-05-2.96540E-05 1.80875E-08 1.24570E-19-1.10820E-18
 -1      4192 9.64973E-05-2.66805E-05-2.99223E-05-3.21750E-08 1.02071E-19-1.10519E-18
 -1      4193 9.67610E-05-2.85988E-05-2.92129E-05-3.98953E-07 3.79603E-19-1.10202E-18
 -1      4194 1.03422E-04-3.60607E-05-2.88266E-05-1.03862E-05-3.02616E-20-7.59042E-19
 -1      4195 1.05086E-04-3.73399E-05-2.90919E-05-8.73918E-06 2.67146E-19-9.87313E-19
 -1      4196 1.01503E-04-3.47865E-05-2.87104E-05 9.42823E-06 3.55072E-19 6.03392E-19
 -1      4197 9.68213E-05-2.92220E-05-2.89733E-05 1.54127E-07-1.05959E-19-6.73323E-19
 -1      4198 9.71958E-05-3.08825E-05-2.83818E-05-9.16300E-06-9.41686E-19-2.00341E-19
 -1      4199 9.70447E-05-3.12136E-05-2.82495E-05-1.12191E-05-6.78420E-19-2.92237E-19
 -1      4200 9.93161E-05-3.24506E-05-2.86441E-05-4.08448E-06-3.06172E-19-2.49646E-18
 -1      4201 9.85179E-05-3.18395E-05-2.85911E-05-4.74419E-06-1.29252E-18-3.53056E-18
 -1      4202 1.00131E-04-3.31469E-05-2.87011E-05-4.54290E-06-5.33254E-19-2.15021E-18
 -1      4203 9.72872E-05-3.07181E-05-2.85063E-05-5.77679E-06-9.22816E-19-1.42823E-18
 -1      4204 1.07133E-04-3.85575E-05-2.93997E-05-6.85076E-06 1.84981E-19-9.93905E-19
 -1      4205 9.87264E-05-3.39127E-05-2.78837E-05-1.84190E-05-1.08129E-18-5.21686E-20
 -1      4206 9.64707E-05-2.66194E-05-2.99392E-05 1.82423E-08 1.18161E-19-1.18293E-18
 -1      4207 9.68448E-05-2.87370E-05-2.91910E-05-3.41968E-07 2.29397E-19-9.38675E-19
 -1      4208 9.68513E-05-2.84587E-05-2.93078E-05-2.57610E-07 4.86293E-19-9.61565E-19
 -1      4209 9.68686E-05-2.82283E-05-2.94188E-05-1.56711E-07 2.99509E-19-9.26793E-19
 -1      4210 9.65191E-05-2.94537E-05-2.87392E-05-4.68214E-08-3.92521E-20-4.12284E-19
 -1      4211 9.64265E-05-2.94619E-05-2.86958E-05-4.56639E-08-8.92884E-20-5.82369E-19
 -1      4212 9.63386E-05-2.94521E-05-2.86625E-05-2.96199E-08-2.43268E-20-4.61283E-19
 -1      4213 9.62530E-05-2.94405E-05-2.86308E-05-2.76015E-08 6.73643E-20-5.25240E-19
 -1      4214 9.61741E-05-2.94168E-05-2.86071E-05-2.82939E-09-2.09980E-20-6.30998E-19
 -1      4215 9.61029E-05-2.93986E-05-2.85844E-05 3.64930E-09-2.02289E-19-5.85478E-19
 -1      4216 9.60371E-05-2.93712E-05-2.85680E-05 3.99702E-08 2.06089E-20-5.23182E-19
 -1      4217 9.59861E-05-2.93567E-05-2.85519E-05 5.54226E-08 3.98774E-19-2.34880E-19
 -1      4218 9.59347E-05-2.93323E-05-2.85408E-05 1.09593E-07 4.46266E-19-4.08851E-19
 -1      4219 9.59096E-05-2.93301E-05-2.85296E-05 1.40370E-07 7.45409E-19-2.85096E-19
 -1      4220 9.58740E-05-2.93138E-05-2.85223E-05 2.22893E-07 6.37336E-19-4.69443E-19
 -1      4221 9.58822E-05-2.93331E-05-2.85149E-05 2.78060E-07 1.74953E-19-2.80801E-19
 -1      4222 9.58641E-05-2.93296E-05-2.85103E-05 4.05545E-07-1.75662E-19 1.30408E-19
 -1      4223 9.59178E-05-2.93824E-05-2.85062E-05 4.97358E-07-1.26857E-19 8.24958E-20
 -1      4224 9.59236E-05-2.94011E-05-2.85033E-05 7.03569E-07 1.62668E-19-5.60660E-20
 -1      4225 9.60419E-05-2.95045E-05-2.85028E-05 8.50330E-07 5.00562E-19-3.43516E-19
 -1      4226 9.60826E-05-2.95565E-05-2.85012E-05 1.15303E-06 9.05723E-19-1.81424E-19
 -1      4227 9.62955E-05-2.97374E-05-2.85055E-05 1.37418E-06 7.61083E-19 1.45201E-19
 -1      4228 9.63987E-05-2.98504E-05-2.85049E-05 1.82314E-06 3.60549E-19 3.25632E-19
 -1      4229 9.67551E-05-3.01496E-05-2.85175E-05 2.13945E-06 1.32592E-19 4.56384E-19
 -1      4230 9.69752E-05-3.03721E-05-2.85190E-05 2.78351E-06-1.16936E-19 2.62858E-19
 -1      4231 9.75496E-05-3.08536E-05-2.85467E-05 3.20755E-06-8.07994E-20 2.82686E-19
 -1      4232 9.80172E-05-3.13000E-05-2.85560E-05 4.12249E-06 1.53083E-19 2.90729E-19
 -1      4233 9.89093E-05-3.20457E-05-2.86109E-05 4.65085E-06 3.55286E-19 3.56939E-19
 -1      4234 9.97914E-05-3.28733E-05-2.86426E-05 5.71817E-06 4.36784E-19 7.33875E-21
 -1      4235 1.01025E-04-3.38854E-05-2.87268E-05 6.43977E-06 3.55434E-19 1.44719E-19
 -1      4236 1.02681E-04-3.52608E-05-2.88891E-05 7.01894E-06 5.20257E-19 2.23294E-19
 -1      4237 9.72418E-05-3.09157E-05-2.84548E-05-7.13560E-06-1.12035E-18-1.15148E-18
 -1      4238 1.01401E-04-3.46967E-05-2.86104E-05-1.12419E-05-7.71423E-19-8.90759E-19
 -1      4239 1.01338E-04-3.43441E-05-2.87028E-05-8.99201E-06-6.47456E-19-1.26101E-18
 -1      4240 9.69236E-05-2.82960E-05-2.94124E-05-5.37460E-08 1.79185E-19-9.83101E-19
 -1      4241 9.69580E-05-2.86279E-05-2.92810E-05-3.01613E-08 1.55900E-19-8.10684E-19
 -1      4242 9.94053E-05-3.26465E-05-2.85867E-05-7.35639E-06-6.19151E-19-2.10149E-18
 -1      4243 9.90916E-05-3.29766E-05-2.83076E-05-1.31644E-05-7.06236E-19-3.62862E-19
 -1      4244 9.97162E-05-3.39895E-05-2.82239E-05-1.51757E-05-6.08029E-19-9.67140E-20
 -1      4245 9.68879E-05-2.91768E-05-2.90176E-05 2.59926E-08-1.55608E-19-4.52480E-19
 -1      4246 9.68209E-05-2.92990E-05-2.89381E-05 2.64159E-08-3.37754E-19-6.26827E-19
 -1      4247 9.67740E-05-2.91156E-05-2.89964E-05-3.97036E-07 2.25261E-19-8.12735E-19
 -1      4248 9.68278E-05-2.89564E-05-2.90849E-05-3.58070E-07 5.18132E-20-1.00019E-18
 -1      4249 9.68975E-05-2.88333E-05-2.91734E-05-2.43721E-07 2.77801E-19-8.93495E-19
 -1      4250 9.68024E-05-2.91801E-05-2.89826E-05-2.74136E-07-2.39294E-20-5.07428E-19
 -1      4251 9.66978E-05-2.93918E-05-2.88436E-05-5.92747E-08-8.39804E-20-3.33300E-19
 -1      4252 9.66081E-05-2.94356E-05-2.87850E-05-5.45948E-08 5.59036E-20-4.30939E-19
 -1      4253 9.66460E-05-2.71109E-05-2.97974E-05 2.58873E-08 1.20893E-19-1.24453E-18
 -1      4254 1.00910E-04-3.39236E-05-2.87416E-05-6.76307E-06-1.30939E-19-2.62006E-18
 -1      4255 1.01210E-04-3.39913E-05-2.87954E-05-4.93354E-06-2.80599E-20-1.72774E-18
 -1      4256 9.69453E-05-2.88792E-05-2.91710E-05-6.37294E-08 5.94279E-20-6.64904E-19
 -1      4257 9.69072E-05-2.90757E-05-2.90689E-05-5.18409E-08 5.88398E-20-4.97174E-19
 -1      4258 9.67770E-05-2.93231E-05-2.89068E-05-5.90381E-08-2.69852E-19-5.43165E-19
 -1      4259 9.68573E-05-2.78900E-05-2.95541E-05-4.10734E-09 5.13976E-20-1.16912E-18
 -1      4260 9.67594E-05-2.75177E-05-2.96764E-05-3.07035E-08 1.47197E-19-1.15971E-18
 -1      4261 9.68699E-05-2.91536E-05-2.90223E-05-1.86319E-07-1.59017E-19-7.24600E-19
 -1      4262 9.68034E-05-2.92732E-05-2.89407E-05-1.89352E-07-2.60288E-19-3.67104E-19
 -3
    1PSTEP                         4           1           1          
  100CL  101 1.000000000        4262                     0    1           1
 -4  ERROR       1    1
 -5  STR(%)      1    1    0    0
 -1         1 1.18516E+01
 -1         2 2.51993E+01
 -1         3 6.19692E-03
 -1         4 1.37896E-02
 -1         5 1.40378E+01
 -1         6 1.31417E+01
 -1         7 1.31417E+01
 -1         8 3.66343E+00
 -1         9 1.82435E+00
 -1        10 1.29165E+00
 -1        11 1.04636E+00
 -1        12 8.99349E-01
 -1        13 8.08690E-01
 -1        14 7.53308E-01
 -1        15 7.55294E-01
 -1        16 8.12959E-01
 -1        17 9.00837E-01
 -1        18 1.05305E+00
 -1        19 1.30676E+00
 -1        20 1.83195E+00
 -1        21 3.50849E+00
 -1        22 8.64025E+00
 -1        23 1.31417E+01
 -1        24 4.31697E+00
 -1        25 3.33948E+00
 -1        26 2.10964E+00
 -1        27 1.36048E+00
 -1        28 1.01350E+00
 -1        29 7.74275E-01
 -1        30 5.94001E-01
 -1        31 4.52971E-01
 -1        32 3.43991E-01
 -1        33 2.63572E-01
 -1        34 1.98044E-01
 -1        35 1.45157E-01
 -1        36 1.03164E-01
 -1        37 8.32745E-02
 -1        38 6.47321E-02
 -1        39 4.70933E-02
 -1        40 4.53773E-02
 -1        41 6.91059E-02
 -1        42 9.48220E-02
 -1        43 1.39155E-01
 -1        44 2.12021E-01
 -1        45 3.07538E-01
 -1        46 4.27774E-01
 -1        47 5.70804E-01
 -1        48 7.53051E-01
 -1        49 1.07439E+00
 -1        50 1.45585E+00
 -1        51 1.90865E+00
 -1        52 2.38449E+00
 -1        53 2.76189E+00
 -1        54 2.94668E+00
 -1        55 2.94668E+00
 -1        56 2.95492E+00
 -1        57 2.95492E+00
 -1        58 2.82245E+00
 -1        59 2.48006E+00
 -1        60 2.01796E+00
 -1        61 1.54617E+00
 -1        62 1.15512E+00
 -1        63 8.19438E-01
 -1        64 6.09686E-01
 -1        65 4.64592E-01
 -1        66 3.41585E-01
 -1        67 2.43637E-01
 -1        68 1.68785E-01
 -1        69 1.23231E-01
 -1        70 9.73333E-02
 -1        71 5.65364E-02
 -1        72 1.40378E+01
 -1        73 3.39546E+00
 -1        74 2.41316E+00
 -1        75 1.66451E+00
 -1        76 1.14491E+00
 -1        77 9.04040E-01
 -1        78 7.23840E-01
 -1        79 5.81263E-01
 -1        80 4.62229E-01
 -1        81 3.62800E-01
 -1        82 2.88648E-01
 -1        83 2.31131E-01
 -1        84 1.71207E-01
 -1        85 1.28975E-01
 -1        86 9.52536E-02
 -1        87 6.93874E-02
 -1        88 5.27845E-02
 -1        89 4.48593E-02
 -1        90 7.03479E-02
 -1        91 1.22576E-01
 -1        92 2.16315E-01
 -1        93 3.88016E-01
 -1        94 6.34869E-01
 -1        95 1.03893E+00
 -1        96 1.73654E+00
 -1        97 2.67660E+00
 -1        98 3.89241E+00
 -1        99 4.52235E+00
 -1       100 6.37112E+00
 -1       101 8.09155E+00
 -1       102 8.09155E+00
 -1       103 8.38801E+00
 -1       104 2.30383E+01
 -1       105 2.51117E+01
 -1       106 2.51117E+01
 -1       107 1.86270E+01
 -1       108 6.48724E+00
 -1       109 7.24231E+00
 -1       110 7.24231E+00
 -1       111 6.86696E+00
 -1       112 5.99129E+00
 -1       113 4.02799E+00
 -1       114 2.87093E+00
 -1       115 1.87604E+00
 -1       116 1.13224E+00
 -1       117 6.43115E-01
 -1       118 3.54588E-01
 -1       119 1.71276E-01
 -1       120 8.26041E-02
 -1       121 4.24040E-02
 -1       122 1.97439E-02
 -1       123 4.74761E-03
 -1       124 4.74761E-03
 -1       125 6.90012E-03
 -1       126 1.03242E-02
 -1       127 1.03242E-02
 -1       128 1.01690E-02
 -1       129 5.78833E-03
 -1       130 8.27351E-03
 -1       131 1.27181E-02
 -1       132 1.39573E-02
 -1       133 1.39573E-02
 -1       134 1.15895E-02
 -1       135 5.50151E-03
 -1       136 9.46004E-03
 -1       137 1.69907E-02
 -1       138 2.75425E-02
 -1       139 2.58566E+01
 -1       140 2.77708E+01
 -1       141 4.87035E+01
 -1       142 4.87035E+01
 -1       143 2.12745E+01
 -1       144 2.12868E+01
 -1       145 2.12868E+01
 -1       146 1.66892E+01
 -1       147 1.57783E+01
 -1       148 2.95227E+01
 -1       149 2.99332E+01
 -1       150 2.68257E+01
 -1       151 2.68257E+01
 -1       152 2.43262E+01
 -1       153 2.47993E+01
 -1       154 2.86137E+01
 -1       155 3.03307E+01
 -1       156 2.92969E+01
 -1       157 1.26189E+01
 -1       158 1.22434E+01
 -1       159 1.22434E+01
 -1       160 1.16622E+01
 -1       161 1.16622E+01
 -1       162 1.14876E+01
 -1       163 1.77923E+01
 -1       164 4.46100E+01
 -1       165 4.46100E+01
 -1       166 2.51993E+01
 -1       167 6.07719E+00
 -1       168 2.29845E+00
 -1       169 1.50860E+00
 -1       170 1.15780E+00
 -1       171 9.73429E-01
 -1       172 8.64019E-01
 -1       173 7.95686E-01
 -1       174 7.55294E-01
 -1       175 7.99098E-01
 -1       176 8.67048E-01
 -1       177 9.81129E-01
 -1       178 1.17193E+00
 -1       179 1.52772E+00
 -1       180 2.25961E+00
 -1       181 3.93305E+00
 -1       182 1.40378E+01
 -1       183 4.31697E+00
 -1       184 3.33948E+00
 -1       185 2.10964E+00
 -1       186 1.44525E+00
 -1       187 1.02320E+00
 -1       188 7.74275E-01
 -1       189 5.94001E-01
 -1       190 4.65310E-01
 -1       191 3.64137E-01
 -1       192 2.84615E-01
 -1       193 2.26199E-01
 -1       194 1.75938E-01
 -1       195 1.33590E-01
 -1       196 9.84691E-02
 -1       197 6.97226E-02
 -1       198 4.70933E-02
 -1       199 4.20463E-02
 -1       200 4.53773E-02
 -1       201 6.91059E-02
 -1       202 1.00875E-01
 -1       203 1.52362E-01
 -1       204 2.28386E-01
 -1       205 3.47543E-01
 -1       206 5.06195E-01
 -1       207 7.06780E-01
 -1       208 9.45716E-01
 -1       209 1.21054E+00
 -1       210 1.53809E+00
 -1       211 1.91320E+00
 -1       212 2.38449E+00
 -1       213 2.76189E+00
 -1       214 2.94668E+00
 -1       215 2.87854E+00
 -1       216 2.95492E+00
 -1       217 2.82245E+00
 -1       218 2.48006E+00
 -1       219 2.01796E+00
 -1       220 1.62279E+00
 -1       221 1.27569E+00
 -1       222 1.00204E+00
 -1       223 7.55557E-01
 -1       224 5.45248E-01
 -1       225 3.76334E-01
 -1       226 2.47423E-01
 -1       227 1.76601E-01
 -1       228 1.24134E-01
 -1       229 9.73333E-02
 -1       230 5.65364E-02
 -1       231 3.39546E+00
 -1       232 2.41316E+00
 -1       233 1.66451E+00
 -1       234 1.14491E+00
 -1       235 9.04040E-01
 -1       236 7.23840E-01
 -1       237 5.81263E-01
 -1       238 4.62229E-01
 -1       239 3.62800E-01
 -1       240 2.88648E-01
 -1       241 2.31131E-01
 -1       242 1.74760E-01
 -1       243 1.34565E-01
 -1       244 1.01840E-01
 -1       245 7.60366E-02
 -1       246 5.79921E-02
 -1       247 4.33434E-02
 -1       248 5.79652E-02
 -1       249 8.93733E-02
 -1       250 1.48245E-01
 -1       251 2.85425E-01
 -1       252 5.01507E-01
 -1       253 8.69413E-01
 -1       254 1.43894E+00
 -1       255 2.22707E+00
 -1       256 3.58545E+00
 -1       257 5.22209E+00
 -1       258 6.66284E+00
 -1       259 9.60513E+00
 -1       260 1.26932E+01
 -1       261 9.57677E+00
 -1       262 2.51117E+01
 -1       263 2.12868E+01
 -1       264 8.79264E+00
 -1       265 9.12789E+00
 -1       266 1.03082E+01
 -1       267 8.55769E+00
 -1       268 7.75378E+00
 -1       269 5.76571E+00
 -1       270 3.90082E+00
 -1       271 2.39805E+00
 -1       272 1.36665E+00
 -1       273 7.36520E-01
 -1       274 4.23589E-01
 -1       275 2.16448E-01
 -1       276 1.10827E-01
 -1       277 5.36834E-02
 -1       278 2.31483E-02
 -1       279 1.11310E-02
 -1       280 9.96694E-03
 -1       281 1.94370E-02
 -1       282 2.70313E-02
 -1       283 2.74747E-02
 -1       284 2.74747E-02
 -1       285 2.10151E-02
 -1       286 2.07040E-02
 -1       287 3.15893E-02
 -1       288 3.45408E-02
 -1       289 3.45408E-02
 -1       290 3.32940E-02
 -1       291 2.43124E-02
 -1       292 2.16837E-02
 -1       293 4.60978E-02
 -1       294 3.38329E+01
 -1       295 3.38329E+01
 -1       296 3.96367E+01
 -1       297 4.87035E+01
 -1       298 2.24260E+01
 -1       299 1.50336E+01
 -1       300 2.35499E+01
 -1       301 2.30383E+01
 -1       302 1.54421E+01
 -1       303 2.99332E+01
 -1       304 3.42820E+01
 -1       305 3.42820E+01
 -1       306 3.27489E+01
 -1       307 3.27489E+01
 -1       308 2.47993E+01
 -1       309 3.03307E+01
 -1       310 3.03307E+01
 -1       311 1.26189E+01
 -1       312 1.16912E+01
 -1       313 1.18516E+01
 -1       314 1.22434E+01
 -1       315 1.15705E+01
 -1       316 1.16622E+01
 -1       317 1.14876E+01
 -1       318 1.01107E+01
 -1       319 1.88136E+01
 -1       320 4.46100E+01
 -1       321 3.81597E+01
 -1       322 2.96517E+01
 -1       323 4.60978E-02
 -1       324 1.04785E+00
 -1       325 2.48013E+00
 -1       326 7.92259E-01
 -1       327 6.94192E-01
 -1       328 6.31695E-01
 -1       329 5.87342E-01
 -1       330 5.90617E-01
 -1       331 6.34489E-01
 -1       332 7.01439E-01
 -1       333 7.96628E-01
 -1       334 9.30870E-01
 -1       335 1.14578E+00
 -1       336 1.33204E+00
 -1       337 2.19623E+00
 -1       338 1.91456E+00
 -1       339 1.72764E+00
 -1       340 1.26544E+00
 -1       341 9.04604E-01
 -1       342 6.52898E-01
 -1       343 5.36644E-01
 -1       344 4.38758E-01
 -1       345 3.52115E-01
 -1       346 2.85151E-01
 -1       347 2.28304E-01
 -1       348 1.78867E-01
 -1       349 1.42978E-01
 -1       350 1.12019E-01
 -1       351 8.59270E-02
 -1       352 6.48074E-02
 -1       353 4.87578E-02
 -1       354 4.47407E-02
 -1       355 6.01650E-02
 -1       356 9.21815E-02
 -1       357 1.41347E-01
 -1       358 2.12269E-01
 -1       359 3.09570E-01
 -1       360 4.36823E-01
 -1       361 5.95069E-01
 -1       362 7.81073E-01
 -1       363 1.00053E+00
 -1       364 1.26767E+00
 -1       365 1.52321E+00
 -1       366 1.80305E+00
 -1       367 2.04676E+00
 -1       368 2.17993E+00
 -1       369 2.17659E+00
 -1       370 2.15801E+00
 -1       371 2.19175E+00
 -1       372 2.08733E+00
 -1       373 1.86446E+00
 -1       374 1.57390E+00
 -1       375 1.32589E+00
 -1       376 1.05782E+00
 -1       377 8.22699E-01
 -1       378 6.30517E-01
 -1       379 4.64298E-01
 -1       380 3.28430E-01
 -1       381 2.22731E-01
 -1       382 1.44197E-01
 -1       383 8.84015E-02
 -1       384 5.23521E-02
 -1       385 3.29924E+01
 -1       386 1.12616E+00
 -1       387 8.75357E-01
 -1       388 6.99227E-01
 -1       389 5.36788E-01
 -1       390 4.32433E-01
 -1       391 3.64269E-01
 -1       392 2.99333E-01
 -1       393 2.43510E-01
 -1       394 2.01293E-01
 -1       395 1.56565E-01
 -1       396 1.23216E-01
 -1       397 9.53314E-02
 -1       398 7.28397E-02
 -1       399 5.70934E-02
 -1       400 4.28280E-02
 -1       401 3.95689E-02
 -1       402 6.93796E-02
 -1       403 1.49251E-01
 -1       404 3.05887E-01
 -1       405 5.87671E-01
 -1       406 1.07929E+00
 -1       407 1.91766E+00
 -1       408 3.28689E+00
 -1       409 5.48009E+00
 -1       410 8.31529E+00
 -1       411 8.99723E+00
 -1       412 1.10336E+01
 -1       413 1.12027E+01
 -1       414 1.22115E+01
 -1       415 2.25651E+01
 -1       416 1.18767E+01
 -1       417 8.00999E+00
 -1       418 5.64542E+00
 -1       419 3.50433E+00
 -1       420 2.05207E+00
 -1       421 1.15581E+00
 -1       422 6.30135E-01
 -1       423 3.19434E-01
 -1       424 1.60688E-01
 -1       425 7.62554E-02
 -1       426 3.92613E-02
 -1       427 1.58451E-02
 -1       428 4.72258E-02
 -1       429 2.52260E-02
 -1       430 4.72258E-02
 -1       431 4.65660E-02
 -1       432 4.52549E-02
 -1       433 2.91934E-02
 -1       434 4.87950E-02
 -1       435 5.60863E-02
 -1       436 5.60863E-02
 -1       437 5.59269E-02
 -1       438 5.18548E-02
 -1       439 3.41680E-02
 -1       440 3.50285E-02
 -1       441 1.70487E+01
 -1       442 5.15516E+01
 -1       443 2.93151E+01
 -1       444 9.17710E-01
 -1       445 1.98273E+01
 -1       446 3.42820E+01
 -1       447 3.79383E+01
 -1       448 4.41831E+01
 -1       449 4.41831E+01
 -1       450 2.43251E+01
 -1       451 2.05867E+01
 -1       452 1.19046E+01
 -1       453 7.06029E+00
 -1       454 9.28637E+00
 -1       455 1.02672E+01
 -1       456 1.01562E+01
 -1       457 9.92138E+00
 -1       458 8.99971E+00
 -1       459 6.41199E+00
 -1       460 9.12623E+00
 -1       461 1.53664E+01
 -1       462 2.61986E+01
 -1       463 2.85315E+01
 -1       464 5.15516E+01
 -1       465 1.31966E+01
 -1       466 4.86534E-01
 -1       467 5.10989E-01
 -1       468 4.31378E-01
 -1       469 4.57463E-01
 -1       470 4.87360E-01
 -1       471 5.11644E-01
 -1       472 5.11644E-01
 -1       473 5.05246E-01
 -1       474 6.79118E-01
 -1       475 1.31709E+00
 -1       476 6.99227E-01
 -1       477 1.13743E+01
 -1       478 8.75357E-01
 -1       479 8.02313E-01
 -1       480 8.72524E-01
 -1       481 7.00069E-01
 -1       482 5.86074E-01
 -1       483 4.73112E-01
 -1       484 3.73657E-01
 -1       485 3.19177E-01
 -1       486 2.67952E-01
 -1       487 2.19134E-01
 -1       488 1.79746E-01
 -1       489 1.44655E-01
 -1       490 1.13898E-01
 -1       491 9.06258E-02
 -1       492 7.29685E-02
 -1       493 5.96180E-02
 -1       494 5.14579E-02
 -1       495 6.09143E-02
 -1       496 8.32930E-02
 -1       497 1.19036E-01
 -1       498 1.71646E-01
 -1       499 2.44909E-01
 -1       500 3.42250E-01
 -1       501 4.65740E-01
 -1       502 6.30698E-01
 -1       503 8.35550E-01
 -1       504 1.05765E+00
 -1       505 1.27186E+00
 -1       506 1.44333E+00
 -1       507 1.60714E+00
 -1       508 1.70379E+00
 -1       509 1.70814E+00
 -1       510 1.63378E+00
 -1       511 1.69807E+00
 -1       512 1.71293E+00
 -1       513 1.63613E+00
 -1       514 1.47534E+00
 -1       515 1.31350E+00
 -1       516 1.10500E+00
 -1       517 8.81225E-01
 -1       518 6.69850E-01
 -1       519 4.90628E-01
 -1       520 3.59435E-01
 -1       521 2.54091E-01
 -1       522 1.72984E-01
 -1       523 1.13119E-01
 -1       524 6.29418E-02
 -1       525 9.37601E-01
 -1       526 5.36788E-01
 -1       527 4.32433E-01
 -1       528 3.64269E-01
 -1       529 2.99333E-01
 -1       530 2.44701E-01
 -1       531 2.00547E-01
 -1       532 1.57770E-01
 -1       533 1.25199E-01
 -1       534 1.00216E-01
 -1       535 7.85144E-02
 -1       536 6.02584E-02
 -1       537 4.16398E-02
 -1       538 2.85488E-02
 -1       539 4.23029E-02
 -1       540 9.45190E-02
 -1       541 1.88010E-01
 -1       542 3.63336E-01
 -1       543 6.70504E-01
 -1       544 1.20464E+00
 -1       545 2.14115E+00
 -1       546 4.02670E+00
 -1       547 7.17424E+00
 -1       548 1.15244E+01
 -1       549 1.79507E+01
 -1       550 1.78823E+01
 -1       551 2.85315E+01
 -1       552 1.74513E+01
 -1       553 4.07736E+00
 -1       554 2.26056E+00
 -1       555 1.28075E+00
 -1       556 7.14671E-01
 -1       557 3.88013E-01
 -1       558 2.08178E-01
 -1       559 1.08422E-01
 -1       560 4.16634E-02
 -1       561 7.85685E-02
 -1       562 7.43599E-02
 -1       563 7.85685E-02
 -1       564 6.08477E-02
 -1       565 6.52589E-02
 -1       566 8.37702E-02
 -1       567 8.37702E-02
 -1       568 8.40248E-02
 -1       569 8.40248E-02
 -1       570 7.06196E-02
 -1       571 4.83245E-02
 -1       572 3.79383E+01
 -1       573 4.24937E+00
 -1       574 6.70721E+00
 -1       575 4.57340E-01
 -1       576 2.26411E+01
 -1       577 3.29924E+01
 -1       578 7.95995E+00
 -1       579 4.41831E+01
 -1       580 2.43251E+01
 -1       581 1.52092E+01
 -1       582 9.34438E+00
 -1       583 8.21035E+00
 -1       584 6.50954E+00
 -1       585 8.53841E+00
 -1       586 6.80444E+00
 -1       587 4.76568E+00
 -1       588 4.43287E+00
 -1       589 8.57110E+00
 -1       590 1.23734E+01
 -1       591 5.15516E+01
 -1       592 7.17398E-01
 -1       593 7.20152E-02
 -1       594 1.92628E+01
 -1       595 3.58241E-01
 -1       596 3.42465E-01
 -1       597 3.61042E-01
 -1       598 3.38086E-01
 -1       599 3.91215E-01
 -1       600 3.22474E-01
 -1       601 4.58757E-01
 -1       602 4.05441E-01
 -1       603 9.98058E-01
 -1       604 3.94890E-01
 -1       605 3.81408E-01
 -1       606 3.39986E-01
 -1       607 2.89734E-01
 -1       608 2.39881E-01
 -1       609 2.08363E-01
 -1       610 1.75329E-01
 -1       611 1.43904E-01
 -1       612 1.15771E-01
 -1       613 9.17629E-02
 -1       614 7.31677E-02
 -1       615 6.08796E-02
 -1       616 5.46660E-02
 -1       617 5.94372E-02
 -1       618 7.38651E-02
 -1       619 9.94299E-02
 -1       620 1.40987E-01
 -1       621 2.04994E-01
 -1       622 2.93627E-01
 -1       623 4.07413E-01
 -1       624 5.43243E-01
 -1       625 6.91664E-01
 -1       626 8.61526E-01
 -1       627 1.07096E+00
 -1       628 1.25617E+00
 -1       629 1.37457E+00
 -1       630 1.43932E+00
 -1       631 1.44774E+00
 -1       632 1.39930E+00
 -1       633 1.38144E+00
 -1       634 1.43897E+00
 -1       635 1.44857E+00
 -1       636 1.38694E+00
 -1       637 1.28807E+00
 -1       638 1.11320E+00
 -1       639 9.04822E-01
 -1       640 7.20283E-01
 -1       641 5.69150E-01
 -1       642 4.27248E-01
 -1       643 3.05379E-01
 -1       644 2.07411E-01
 -1       645 1.33342E-01
 -1       646 1.00684E-01
 -1       647 1.75268E+00
 -1       648 2.03899E+01
 -1       649 2.68776E-01
 -1       650 2.28284E-01
 -1       651 1.90614E-01
 -1       652 1.54982E-01
 -1       653 1.26650E-01
 -1       654 1.01569E-01
 -1       655 7.99204E-02
 -1       656 6.13781E-02
 -1       657 4.41418E-02
 -1       658 3.25965E-02
 -1       659 2.98432E-02
 -1       660 6.58588E-02
 -1       661 1.48253E-01
 -1       662 2.84988E-01
 -1       663 5.26494E-01
 -1       664 9.43628E-01
 -1       665 1.66355E+00
 -1       666 3.04144E+00
 -1       667 5.40032E+00
 -1       668 1.10447E+01
 -1       669 1.45568E+01
 -1       670 1.79752E+01
 -1       671 3.63434E+00
 -1       672 3.10183E+00
 -1       673 5.73627E-01
 -1       674 3.13973E-01
 -1       675 1.69737E-01
 -1       676 9.93026E-02
 -1       677 7.64671E-02
 -1       678 9.93026E-02
 -1       679 9.62138E-02
 -1       680 1.17159E-01
 -1       681 1.24715E-01
 -1       682 1.24715E-01
 -1       683 1.19559E-01
 -1       684 1.20227E-01
 -1       685 5.77306E+00
 -1       686 1.11954E+01
 -1       687 4.05250E+00
 -1       688 1.86188E+01
 -1       689 9.62138E-02
 -1       690 5.12542E-01
 -1       691 1.45188E+01
 -1       692 3.61042E-01
 -1       693 3.60732E-01
 -1       694 6.51844E+00
 -1       695 9.12121E+00
 -1       696 3.10222E+00
 -1       697 6.84230E+00
 -1       698 6.96810E+00
 -1       699 5.35565E+00
 -1       700 5.80834E+00
 -1       701 4.51763E+00
 -1       702 9.18752E+00
 -1       703 3.09726E+00
 -1       704 3.42028E-01
 -1       705 5.79746E-01
 -1       706 4.28336E-01
 -1       707 5.07072E+00
 -1       708 9.43144E+00
 -1       709 3.60732E-01
 -1       710 3.57534E-01
 -1       711 4.07043E+00
 -1       712 2.49265E-01
 -1       713 2.12651E-01
 -1       714 2.83280E-01
 -1       715 3.06437E-01
 -1       716 4.13942E+00
 -1       717 2.31581E-01
 -1       718 2.53216E-01
 -1       719 2.45631E-01
 -1       720 2.23424E-01
 -1       721 1.94657E-01
 -1       722 1.68377E-01
 -1       723 1.46913E-01
 -1       724 1.24530E-01
 -1       725 1.03266E-01
 -1       726 8.43381E-02
 -1       727 6.84646E-02
 -1       728 5.60981E-02
 -1       729 5.37874E-02
 -1       730 6.61834E-02
 -1       731 8.97653E-02
 -1       732 1.28449E-01
 -1       733 1.86232E-01
 -1       734 2.67530E-01
 -1       735 3.75622E-01
 -1       736 5.10535E-01
 -1       737 6.65740E-01
 -1       738 8.26062E-01
 -1       739 9.67341E-01
 -1       740 1.10165E+00
 -1       741 1.26632E+00
 -1       742 1.37019E+00
 -1       743 1.48429E+00
 -1       744 1.50136E+00
 -1       745 1.36087E+00
 -1       746 1.48516E+00
 -1       747 1.50168E+00
 -1       748 1.39175E+00
 -1       749 1.29327E+00
 -1       750 1.12761E+00
 -1       751 9.89479E-01
 -1       752 8.57151E-01
 -1       753 6.96792E-01
 -1       754 5.36861E-01
 -1       755 3.94545E-01
 -1       756 2.78404E-01
 -1       757 1.88486E-01
 -1       758 1.84222E-01
 -1       759 2.60297E-01
 -1       760 2.49963E-01
 -1       761 1.57359E-01
 -1       762 1.31477E-01
 -1       763 1.07602E-01
 -1       764 8.65993E-02
 -1       765 6.85440E-02
 -1       766 5.35697E-02
 -1       767 4.36590E-02
 -1       768 4.01571E-02
 -1       769 5.47504E-02
 -1       770 1.07197E-01
 -1       771 1.86963E-01
 -1       772 3.32171E-01
 -1       773 5.98267E-01
 -1       774 1.06080E+00
 -1       775 1.94524E+00
 -1       776 3.10984E+00
 -1       777 1.10447E+01
 -1       778 1.66000E-01
 -1       779 1.35422E-01
 -1       780 2.99473E-01
 -1       781 1.87176E-01
 -1       782 1.87176E-01
 -1       783 1.50877E-01
 -1       784 3.77171E+00
 -1       785 1.12036E+00
 -1       786 3.19725E-01
 -1       787 2.82746E+00
 -1       788 1.11954E+01
 -1       789 1.95359E+00
 -1       790 1.57453E+01
 -1       791 1.66235E-01
 -1       792 6.34870E+00
 -1       793 8.30085E+00
 -1       794 6.29144E-01
 -1       795 1.16321E+01
 -1       796 2.92860E+00
 -1       797 1.94433E-01
 -1       798 3.50070E-01
 -1       799 3.45799E+00
 -1       800 4.88601E+00
 -1       801 3.51513E+00
 -1       802 2.88455E-01
 -1       803 3.85112E+00
 -1       804 2.88546E-01
 -1       805 7.88373E+00
 -1       806 8.13289E+00
 -1       807 2.79255E-01
 -1       808 1.57200E-01
 -1       809 3.10222E+00
 -1       810 4.06093E+00
 -1       811 2.07974E-01
 -1       812 2.81173E-01
 -1       813 2.88455E-01
 -1       814 2.81114E-01
 -1       815 5.42503E+00
 -1       816 1.93319E-01
 -1       817 3.32059E+00
 -1       818 1.72421E-01
 -1       819 1.80237E-01
 -1       820 1.72706E-01
 -1       821 1.56779E-01
 -1       822 1.37032E-01
 -1       823 1.20760E-01
 -1       824 1.04380E-01
 -1       825 8.80162E-02
 -1       826 7.28464E-02
 -1       827 5.95517E-02
 -1       828 4.90080E-02
 -1       829 5.37874E-02
 -1       830 6.99531E-02
 -1       831 9.86218E-02
 -1       832 1.43212E-01
 -1       833 2.09029E-01
 -1       834 3.01960E-01
 -1       835 4.26766E-01
 -1       836 5.84222E-01
 -1       837 7.65547E-01
 -1       838 9.48562E-01
 -1       839 1.10165E+00
 -1       840 1.30645E+00
 -1       841 1.33272E+00
 -1       842 1.49657E+00
 -1       843 1.70132E+00
 -1       844 1.70688E+00
 -1       845 1.67834E+00
 -1       846 1.74459E+00
 -1       847 1.52798E+00
 -1       848 1.35397E+00
 -1       849 1.29834E+00
 -1       850 1.13819E+00
 -1       851 9.85986E-01
 -1       852 8.04239E-01
 -1       853 6.17953E-01
 -1       854 4.53051E-01
 -1       855 3.52218E-01
 -1       856 2.26798E-01
 -1       857 1.30503E-01
 -1       858 1.11700E-01
 -1       859 9.34139E-02
 -1       860 7.66388E-02
 -1       861 6.22179E-02
 -1       862 5.12376E-02
 -1       863 4.67252E-02
 -1       864 5.16725E-02
 -1       865 9.06111E-02
 -1       866 1.51869E-01
 -1       867 2.59434E-01
 -1       868 4.31475E-01
 -1       869 7.51200E-01
 -1       870 1.37658E+00
 -1       871 2.46566E+00
 -1       872 3.75228E+00
 -1       873 2.06458E-01
 -1       874 3.34304E-01
 -1       875 2.88546E-01
 -1       876 2.06686E-01
 -1       877 3.84025E+00
 -1       878 3.95418E+00
 -1       879 2.43678E+00
 -1       880 6.13437E-01
 -1       881 4.45585E+00
 -1       882 5.99581E+00
 -1       883 2.50388E+00
 -1       884 2.92860E+00
 -1       885 3.03475E+00
 -1       886 1.48826E-01
 -1       887 2.80845E-01
 -1       888 2.06126E-01
 -1       889 1.49182E-01
 -1       890 6.05184E+00
 -1       891 1.72403E-01
 -1       892 1.38790E+00
 -1       893 4.04787E-01
 -1       894 3.40596E+00
 -1       895 7.58706E-01
 -1       896 2.10760E-01
 -1       897 6.74965E+00
 -1       898 5.08432E+00
 -1       899 2.07854E-01
 -1       900 3.52218E-01
 -1       901 3.43375E-01
 -1       902 2.16851E-01
 -1       903 2.82746E+00
 -1       904 2.84191E+00
 -1       905 4.50780E-01
 -1       906 2.88060E+00
 -1       907 2.17636E-01
 -1       908 3.05790E+00
 -1       909 3.05790E+00
 -1       910 2.17636E-01
 -1       911 2.44353E+00
 -1       912 8.04394E-01
 -1       913 2.50388E+00
 -1       914 1.34390E-01
 -1       915 1.33622E-01
 -1       916 1.24759E-01
 -1       917 1.11523E-01
 -1       918 9.65626E-02
 -1       919 8.38542E-02
 -1       920 7.08752E-02
 -1       921 5.82790E-02
 -1       922 4.64722E-02
 -1       923 4.10816E-02
 -1       924 4.90894E-02
 -1       925 6.37428E-02
 -1       926 1.00300E-01
 -1       927 1.56765E-01
 -1       928 2.33080E-01
 -1       929 3.31261E-01
 -1       930 4.46290E-01
 -1       931 6.28734E-01
 -1       932 8.49541E-01
 -1       933 1.06941E+00
 -1       934 1.87069E+00
 -1       935 2.69562E+00
 -1       936 2.58257E+00
 -1       937 1.91902E+00
 -1       938 2.51420E+00
 -1       939 1.97656E+00
 -1       940 2.46358E+00
 -1       941 2.02159E+00
 -1       942 1.71307E+00
 -1       943 1.59271E+00
 -1       944 1.35644E+00
 -1       945 1.13819E+00
 -1       946 9.04717E-01
 -1       947 6.73161E-01
 -1       948 4.76824E-01
 -1       949 3.63316E-01
 -1       950 7.75717E-02
 -1       951 1.05635E-01
 -1       952 2.16851E-01
 -1       953 6.55141E-02
 -1       954 5.53675E-02
 -1       955 4.86710E-02
 -1       956 5.48538E-02
 -1       957 7.98156E-02
 -1       958 1.28097E-01
 -1       959 2.13745E-01
 -1       960 3.60126E-01
 -1       961 5.98429E-01
 -1       962 9.74948E-01
 -1       963 1.53708E+00
 -1       964 2.95299E+00
 -1       965 3.94438E-01
 -1       966 4.62029E+00
 -1       967 1.53682E-01
 -1       968 1.11159E-01
 -1       969 4.33969E+00
 -1       970 2.45368E+00
 -1       971 2.48120E+00
 -1       972 1.67328E-01
 -1       973 1.57469E+00
 -1       974 1.20973E-01
 -1       975 2.17026E-01
 -1       976 3.87988E+00
 -1       977 1.43246E-01
 -1       978 2.49968E+00
 -1       979 1.21812E-01
 -1       980 3.87988E+00
 -1       981 9.15818E-02
 -1       982 8.04394E-01
 -1       983 1.10138E+00
 -1       984 2.58257E+00
 -1       985 1.49672E-01
 -1       986 2.02159E+00
 -1       987 2.55499E+00
 -1       988 1.52797E-01
 -1       989 2.69562E+00
 -1       990 2.05927E+00
 -1       991 1.55262E-01
 -1       992 2.46358E+00
 -1       993 2.05927E+00
 -1       994 1.37802E-01
 -1       995 3.85444E-01
 -1       996 5.20238E-02
 -1       997 1.02882E-01
 -1       998 4.66642E-02
 -1       999 1.02269E-01
 -1      1000 9.68185E-02
 -1      1001 8.74400E-02
 -1      1002 7.62380E-02
 -1      1003 6.44475E-02
 -1      1004 5.28605E-02
 -1      1005 4.17591E-02
 -1      1006 3.10366E-02
 -1      1007 3.11728E-02
 -1      1008 4.39641E-02
 -1      1009 7.89274E-02
 -1      1010 1.28940E-01
 -1      1011 1.99408E-01
 -1      1012 2.96250E-01
 -1      1013 4.34013E-01
 -1      1014 6.01272E-01
 -1      1015 7.87584E-01
 -1      1016 1.56171E+00
 -1      1017 1.85700E+00
 -1      1018 2.26459E+00
 -1      1019 1.73949E+00
 -1      1020 1.05185E+00
 -1      1021 8.15812E-01
 -1      1022 6.52181E-01
 -1      1023 4.48716E-01
 -1      1024 7.17440E-02
 -1      1025 7.39880E-01
 -1      1026 1.67328E-01
 -1      1027 1.47083E-01
 -1      1028 4.96612E-02
 -1      1029 6.88838E-02
 -1      1030 1.03933E-01
 -1      1031 1.64945E-01
 -1      1032 2.61556E-01
 -1      1033 4.03489E-01
 -1      1034 6.23473E-01
 -1      1035 1.02580E+00
 -1      1036 2.30250E+00
 -1      1037 3.03788E+00
 -1      1038 1.00959E-01
 -1      1039 2.13354E+00
 -1      1040 6.14122E-02
 -1      1041 3.03788E+00
 -1      1042 8.34448E-02
 -1      1043 9.60348E-02
 -1      1044 1.74497E+00
 -1      1045 8.24239E-02
 -1      1046 8.87730E-02
 -1      1047 9.48384E-01
 -1      1048 1.03929E-01
 -1      1049 3.87988E+00
 -1      1050 1.07775E-01
 -1      1051 1.15198E-01
 -1      1052 1.22529E+00
 -1      1053 2.60371E+00
 -1      1054 1.87902E+00
 -1      1055 3.85444E-01
 -1      1056 1.02644E-01
 -1      1057 1.53776E+00
 -1      1058 6.91798E-02
 -1      1059 1.03929E-01
 -1      1060 5.62726E-02
 -1      1061 8.34288E-02
 -1      1062 7.90165E-02
 -1      1063 7.09167E-02
 -1      1064 6.26192E-02
 -1      1065 5.62726E-02
 -1      1066 5.42786E-02
 -1      1067 5.92423E-02
 -1      1068 7.47757E-02
 -1      1069 1.07070E-01
 -1      1070 1.64535E-01
 -1      1071 2.62405E-01
 -1      1072 4.04864E-01
 -1      1073 5.99609E-01
 -1      1074 8.27552E-01
 -1      1075 1.23411E+00
 -1      1076 1.85946E+00
 -1      1077 1.53776E+00
 -1      1078 8.89614E-01
 -1      1079 2.30250E+00
 -1      1080 1.64535E-01
 -1      1081 2.62405E-01
 -1      1082 4.04864E-01
 -1      1083 5.99609E-01
 -1      1084 8.27552E-01
 -1      1085 1.85946E+00
 -1      1086 8.24825E-02
 -1      1087 6.26192E-02
 -1      1088 7.90165E-02
 -1      1089 8.34288E-02
 -1      1090 5.92423E-02
 -1      1091 1.07070E-01
 -1      1092 1.15206E-01
 -1      1093 7.54320E-02
 -1      1094 1.86052E+00
 -1      1095 7.47757E-02
 -1      1096 7.09167E-02
 -1      1097 7.68215E-02
 -1      1098 9.74514E-01
 -1      1099 5.77799E-02
 -1      1100 8.34288E-02
 -1      1101 7.74081E-01
 -1      1102 4.91188E-02
 -1      1103 1.74497E+00
 -1      1104 9.59526E-01
 -1      1105 8.68818E-02
 -1      1106 6.85929E-02
 -1      1107 8.75388E-02
 -1      1108 1.31417E+01
 -1      1109 8.40259E+00
 -1      1110 2.74389E+00
 -1      1111 1.55800E+00
 -1      1112 1.16901E+00
 -1      1113 9.72854E-01
 -1      1114 8.54020E-01
 -1      1115 7.80999E-01
 -1      1116 7.54301E-01
 -1      1117 7.84126E-01
 -1      1118 8.56898E-01
 -1      1119 9.76942E-01
 -1      1120 1.17990E+00
 -1      1121 1.56935E+00
 -1      1122 2.67022E+00
 -1      1123 6.07437E+00
 -1      1124 1.13390E+01
 -1      1125 1.31417E+01
 -1      1126 8.72936E+00
 -1      1127 3.82823E+00
 -1      1128 2.72456E+00
 -1      1129 1.73506E+00
 -1      1130 1.18699E+00
 -1      1131 8.93885E-01
 -1      1132 6.84138E-01
 -1      1133 5.23486E-01
 -1      1134 3.98481E-01
 -1      1135 3.03781E-01
 -1      1136 2.30808E-01
 -1      1137 1.71601E-01
 -1      1138 1.24160E-01
 -1      1139 9.32190E-02
 -1      1140 7.40033E-02
 -1      1141 5.59127E-02
 -1      1142 4.62353E-02
 -1      1143 5.72416E-02
 -1      1144 8.19640E-02
 -1      1145 1.16989E-01
 -1      1146 1.75588E-01
 -1      1147 2.59780E-01
 -1      1148 3.67656E-01
 -1      1149 4.99289E-01
 -1      1150 6.61927E-01
 -1      1151 9.13719E-01
 -1      1152 1.26512E+00
 -1      1153 1.68225E+00
 -1      1154 2.14657E+00
 -1      1155 2.57319E+00
 -1      1156 2.85429E+00
 -1      1157 2.94668E+00
 -1      1158 2.95080E+00
 -1      1159 2.95492E+00
 -1      1160 2.88869E+00
 -1      1161 2.65126E+00
 -1      1162 2.24901E+00
 -1      1163 1.78206E+00
 -1      1164 1.35064E+00
 -1      1165 9.87277E-01
 -1      1166 7.14562E-01
 -1      1167 5.37139E-01
 -1      1168 4.03088E-01
 -1      1169 2.92611E-01
 -1      1170 2.06211E-01
 -1      1171 1.46008E-01
 -1      1172 1.10282E-01
 -1      1173 7.69349E-02
 -1      1174 3.51630E-02
 -1      1175 1.40378E+01
 -1      1176 8.71663E+00
 -1      1177 2.90431E+00
 -1      1178 2.03884E+00
 -1      1179 1.40471E+00
 -1      1180 1.02448E+00
 -1      1181 8.13940E-01
 -1      1182 6.52551E-01
 -1      1183 5.21746E-01
 -1      1184 4.12515E-01
 -1      1185 3.25724E-01
 -1      1186 2.59889E-01
 -1      1187 2.01169E-01
 -1      1188 1.50091E-01
 -1      1189 1.12115E-01
 -1      1190 8.23205E-02
 -1      1191 6.10860E-02
 -1      1192 4.88219E-02
 -1      1193 5.76036E-02
 -1      1194 9.64619E-02
 -1      1195 1.69446E-01
 -1      1196 3.02166E-01
 -1      1197 5.11442E-01
 -1      1198 8.36899E-01
 -1      1199 1.38773E+00
 -1      1200 2.20657E+00
 -1      1201 3.28450E+00
 -1      1202 4.20738E+00
 -1      1203 5.44673E+00
 -1      1204 7.23133E+00
 -1      1205 8.09155E+00
 -1      1206 8.23978E+00
 -1      1207 1.57132E+01
 -1      1208 2.40750E+01
 -1      1209 2.51117E+01
 -1      1210 2.18694E+01
 -1      1211 1.25571E+01
 -1      1212 6.86477E+00
 -1      1213 7.24231E+00
 -1      1214 7.05464E+00
 -1      1215 6.42912E+00
 -1      1216 5.00964E+00
 -1      1217 3.44946E+00
 -1      1218 2.37349E+00
 -1      1219 1.50414E+00
 -1      1220 8.87675E-01
 -1      1221 4.98851E-01
 -1      1222 2.62932E-01
 -1      1223 1.26940E-01
 -1      1224 6.25040E-02
 -1      1225 3.10739E-02
 -1      1226 1.29704E-02
 -1      1227 5.47226E-03
 -1      1228 4.74761E-03
 -1      1229 5.82386E-03
 -1      1230 8.61216E-03
 -1      1231 1.03242E-02
 -1      1232 1.02466E-02
 -1      1233 7.97869E-03
 -1      1234 7.03092E-03
 -1      1235 1.04958E-02
 -1      1236 1.33377E-02
 -1      1237 1.39573E-02
 -1      1238 1.27734E-02
 -1      1239 8.54549E-03
 -1      1240 7.48078E-03
 -1      1241 1.32254E-02
 -1      1242 2.22666E-02
 -1      1243 2.06660E-02
 -1      1244 2.55279E+01
 -1      1245 2.68137E+01
 -1      1246 3.82371E+01
 -1      1247 4.87035E+01
 -1      1248 3.49890E+01
 -1      1249 2.12807E+01
 -1      1250 2.12868E+01
 -1      1251 1.89880E+01
 -1      1252 1.62337E+01
 -1      1253 2.26505E+01
 -1      1254 2.97280E+01
 -1      1255 2.83795E+01
 -1      1256 2.68257E+01
 -1      1257 2.55760E+01
 -1      1258 2.45627E+01
 -1      1259 2.67065E+01
 -1      1260 2.94722E+01
 -1      1261 2.98138E+01
 -1      1262 2.09579E+01
 -1      1263 1.22352E+01
 -1      1264 1.20475E+01
 -1      1265 1.22434E+01
 -1      1266 1.19528E+01
 -1      1267 1.16622E+01
 -1      1268 1.15749E+01
 -1      1269 1.46400E+01
 -1      1270 3.12011E+01
 -1      1271 4.46100E+01
 -1      1272 3.49046E+01
 -1      1273 2.51993E+01
 -1      1274 1.31417E+01
 -1      1275 4.87031E+00
 -1      1276 9.60947E+00
 -1      1277 2.06140E+00
 -1      1278 2.98094E+00
 -1      1279 4.18782E+00
 -1      1280 1.40013E+00
 -1      1281 1.66648E+00
 -1      1282 1.90353E+00
 -1      1283 1.10208E+00
 -1      1284 1.22473E+00
 -1      1285 1.33320E+00
 -1      1286 9.36389E-01
 -1      1287 1.00989E+00
 -1      1288 1.06562E+00
 -1      1289 8.36355E-01
 -1      1290 8.81684E-01
 -1      1291 9.18724E-01
 -1      1292 7.74497E-01
 -1      1293 8.02188E-01
 -1      1294 8.29852E-01
 -1      1295 7.55294E-01
 -1      1296 7.54301E-01
 -1      1297 7.75490E-01
 -1      1298 8.06029E-01
 -1      1299 7.77196E-01
 -1      1300 7.77196E-01
 -1      1301 8.83942E-01
 -1      1302 8.40003E-01
 -1      1303 8.33073E-01
 -1      1304 1.01709E+00
 -1      1305 9.40983E-01
 -1      1306 9.24089E-01
 -1      1307 1.23934E+00
 -1      1308 1.11249E+00
 -1      1309 1.07653E+00
 -1      1310 1.67983E+00
 -1      1311 1.41724E+00
 -1      1312 1.34983E+00
 -1      1313 2.88405E+00
 -1      1314 2.04578E+00
 -1      1315 1.89367E+00
 -1      1316 6.28665E+00
 -1      1317 3.72077E+00
 -1      1318 3.09633E+00
 -1      1319 1.40378E+01
 -1      1320 1.13390E+01
 -1      1321 8.98542E+00
 -1      1322 1.40378E+01
 -1      1323 8.72936E+00
 -1      1324 4.31697E+00
 -1      1325 3.82823E+00
 -1      1326 3.33948E+00
 -1      1327 3.82823E+00
 -1      1328 2.72456E+00
 -1      1329 2.10964E+00
 -1      1330 2.72456E+00
 -1      1331 1.77745E+00
 -1      1332 1.40286E+00
 -1      1333 1.77745E+00
 -1      1334 1.19184E+00
 -1      1335 1.01835E+00
 -1      1336 1.23422E+00
 -1      1337 8.93885E-01
 -1      1338 7.74275E-01
 -1      1339 8.98736E-01
 -1      1340 6.84138E-01
 -1      1341 5.94001E-01
 -1      1342 6.84138E-01
 -1      1343 5.29655E-01
 -1      1344 4.59140E-01
 -1      1345 5.29655E-01
 -1      1346 4.08554E-01
 -1      1347 3.54064E-01
 -1      1348 4.14723E-01
 -1      1349 3.14303E-01
 -1      1350 2.74093E-01
 -1      1351 3.24376E-01
 -1      1352 2.44885E-01
 -1      1353 2.12122E-01
 -1      1354 2.55407E-01
 -1      1355 1.86991E-01
 -1      1356 1.60547E-01
 -1      1357 2.01068E-01
 -1      1358 1.39373E-01
 -1      1359 1.18377E-01
 -1      1360 1.54764E-01
 -1      1361 1.00816E-01
 -1      1362 9.08718E-02
 -1      1363 1.16029E-01
 -1      1364 7.64985E-02
 -1      1365 6.72273E-02
 -1      1366 8.40958E-02
 -1      1367 5.59127E-02
 -1      1368 4.70933E-02
 -1      1369 5.84079E-02
 -1      1370 4.45698E-02
 -1      1371 4.37118E-02
 -1      1372 4.45698E-02
 -1      1373 4.53773E-02
 -1      1374 5.72416E-02
 -1      1375 4.37118E-02
 -1      1376 6.91059E-02
 -1      1377 8.19640E-02
 -1      1378 5.72416E-02
 -1      1379 9.78485E-02
 -1      1380 1.20015E-01
 -1      1381 8.49904E-02
 -1      1382 1.45759E-01
 -1      1383 1.82192E-01
 -1      1384 1.26618E-01
 -1      1385 2.20204E-01
 -1      1386 2.67962E-01
 -1      1387 1.90374E-01
 -1      1388 3.27541E-01
 -1      1389 3.87659E-01
 -1      1390 2.87965E-01
 -1      1391 4.66985E-01
 -1      1392 5.38500E-01
 -1      1393 4.26869E-01
 -1      1394 6.38792E-01
 -1      1395 7.29915E-01
 -1      1396 6.06488E-01
 -1      1397 8.49383E-01
 -1      1398 1.01005E+00
 -1      1399 8.26248E-01
 -1      1400 1.14246E+00
 -1      1401 1.33319E+00
 -1      1402 1.07813E+00
 -1      1403 1.49697E+00
 -1      1404 1.72337E+00
 -1      1405 1.37432E+00
 -1      1406 1.91092E+00
 -1      1407 2.14884E+00
 -1      1408 1.72564E+00
 -1      1409 2.38449E+00
 -1      1410 2.57319E+00
 -1      1411 2.14884E+00
 -1      1412 2.76189E+00
 -1      1413 2.85429E+00
 -1      1414 2.57319E+00
 -1      1415 2.94668E+00
 -1      1416 2.94668E+00
 -1      1417 2.85429E+00
 -1      1418 2.91261E+00
 -1      1419 2.91673E+00
 -1      1420 2.91261E+00
 -1      1421 2.95492E+00
 -1      1422 2.95492E+00
 -1      1423 2.91673E+00
 -1      1424 2.88869E+00
 -1      1425 2.82245E+00
 -1      1426 2.88869E+00
 -1      1427 2.65126E+00
 -1      1428 2.48006E+00
 -1      1429 2.65126E+00
 -1      1430 2.24901E+00
 -1      1431 2.01796E+00
 -1      1432 2.24901E+00
 -1      1433 1.82038E+00
 -1      1434 1.58448E+00
 -1      1435 1.82038E+00
 -1      1436 1.41093E+00
 -1      1437 1.21540E+00
 -1      1438 1.44924E+00
 -1      1439 1.07858E+00
 -1      1440 9.10740E-01
 -1      1441 1.13887E+00
 -1      1442 7.87498E-01
 -1      1443 6.82622E-01
 -1      1444 8.78800E-01
 -1      1445 5.77467E-01
 -1      1446 5.04920E-01
 -1      1447 6.50403E-01
 -1      1448 4.20463E-01
 -1      1449 3.58959E-01
 -1      1450 4.60791E-01
 -1      1451 2.94504E-01
 -1      1452 2.45530E-01
 -1      1453 3.11879E-01
 -1      1454 2.10119E-01
 -1      1455 1.72693E-01
 -1      1456 2.12012E-01
 -1      1457 1.46459E-01
 -1      1458 1.23683E-01
 -1      1459 1.50368E-01
 -1      1460 1.10282E-01
 -1      1461 9.73333E-02
 -1      1462 1.10734E-01
 -1      1463 7.69349E-02
 -1      1464 5.65364E-02
 -1      1465 7.69349E-02
 -1      1466 4.20395E-02
 -1      1467 4.20395E-02
 -1      1468 3.39546E+00
 -1      1469 8.71663E+00
 -1      1470 8.71663E+00
 -1      1471 2.41316E+00
 -1      1472 2.90431E+00
 -1      1473 2.90431E+00
 -1      1474 1.66451E+00
 -1      1475 2.03884E+00
 -1      1476 2.03884E+00
 -1      1477 1.14491E+00
 -1      1478 1.40471E+00
 -1      1479 1.40471E+00
 -1      1480 9.04040E-01
 -1      1481 1.02448E+00
 -1      1482 1.02448E+00
 -1      1483 7.23840E-01
 -1      1484 8.13940E-01
 -1      1485 8.13940E-01
 -1      1486 5.81263E-01
 -1      1487 6.52551E-01
 -1      1488 6.52551E-01
 -1      1489 4.62229E-01
 -1      1490 5.21746E-01
 -1      1491 5.21746E-01
 -1      1492 3.62800E-01
 -1      1493 4.12515E-01
 -1      1494 4.12515E-01
 -1      1495 2.88648E-01
 -1      1496 3.25724E-01
 -1      1497 3.25724E-01
 -1      1498 2.31131E-01
 -1      1499 2.59889E-01
 -1      1500 2.59889E-01
 -1      1501 1.72983E-01
 -1      1502 2.02945E-01
 -1      1503 2.02945E-01
 -1      1504 1.31770E-01
 -1      1505 1.52886E-01
 -1      1506 1.54662E-01
 -1      1507 9.85470E-02
 -1      1508 1.15408E-01
 -1      1509 1.18202E-01
 -1      1510 7.27120E-02
 -1      1511 8.56451E-02
 -1      1512 8.89385E-02
 -1      1513 5.53883E-02
 -1      1514 6.36898E-02
 -1      1515 6.70144E-02
 -1      1516 4.41013E-02
 -1      1517 4.80639E-02
 -1      1518 5.06678E-02
 -1      1519 6.41566E-02
 -1      1520 5.14123E-02
 -1      1521 5.06543E-02
 -1      1522 1.05975E-01
 -1      1523 7.98606E-02
 -1      1524 7.36693E-02
 -1      1525 1.82280E-01
 -1      1526 1.35410E-01
 -1      1527 1.18809E-01
 -1      1528 3.36721E-01
 -1      1529 2.50870E-01
 -1      1530 2.16835E-01
 -1      1531 5.68188E-01
 -1      1532 4.44762E-01
 -1      1533 3.93466E-01
 -1      1534 9.54171E-01
 -1      1535 7.52141E-01
 -1      1536 6.85460E-01
 -1      1537 1.58774E+00
 -1      1538 1.23894E+00
 -1      1539 1.15418E+00
 -1      1540 2.45184E+00
 -1      1541 1.98181E+00
 -1      1542 1.83301E+00
 -1      1543 3.73893E+00
 -1      1544 3.13102E+00
 -1      1545 2.90626E+00
 -1      1546 4.87222E+00
 -1      1547 4.55725E+00
 -1      1548 4.40377E+00
 -1      1549 6.51698E+00
 -1      1550 5.59260E+00
 -1      1551 5.94246E+00
 -1      1552 8.84834E+00
 -1      1553 7.98812E+00
 -1      1554 8.13399E+00
 -1      1555 1.03924E+01
 -1      1556 1.03924E+01
 -1      1557 1.11491E+01
 -1      1558 1.05406E+01
 -1      1559 1.63075E+01
 -1      1560 8.98239E+00
 -1      1561 2.51117E+01
 -1      1562 2.51117E+01
 -1      1563 1.99569E+01
 -1      1564 2.31993E+01
 -1      1565 2.31993E+01
 -1      1566 7.63994E+00
 -1      1567 1.37098E+01
 -1      1568 1.50397E+01
 -1      1569 8.18510E+00
 -1      1570 7.80756E+00
 -1      1571 8.96027E+00
 -1      1572 8.77528E+00
 -1      1573 8.77528E+00
 -1      1574 9.71807E+00
 -1      1575 7.71232E+00
 -1      1576 7.90000E+00
 -1      1577 9.43297E+00
 -1      1578 6.87253E+00
 -1      1579 7.31037E+00
 -1      1580 8.15573E+00
 -1      1581 4.89685E+00
 -1      1582 5.87850E+00
 -1      1583 6.75975E+00
 -1      1584 3.38588E+00
 -1      1585 3.96441E+00
 -1      1586 4.83327E+00
 -1      1587 2.13705E+00
 -1      1588 2.63449E+00
 -1      1589 3.14944E+00
 -1      1590 1.24944E+00
 -1      1591 1.62135E+00
 -1      1592 1.88235E+00
 -1      1593 6.89817E-01
 -1      1594 9.34378E-01
 -1      1595 1.05158E+00
 -1      1596 3.89089E-01
 -1      1597 5.33352E-01
 -1      1598 5.80054E-01
 -1      1599 1.93862E-01
 -1      1600 2.85518E-01
 -1      1601 3.20019E-01
 -1      1602 9.67157E-02
 -1      1603 1.41052E-01
 -1      1604 1.63638E-01
 -1      1605 4.80437E-02
 -1      1606 6.81437E-02
 -1      1607 8.22554E-02
 -1      1608 2.14461E-02
 -1      1609 3.27761E-02
 -1      1610 3.84158E-02
 -1      1611 8.66397E-03
 -1      1612 1.54374E-02
 -1      1613 1.71396E-02
 -1      1614 7.93931E-03
 -1      1615 7.35727E-03
 -1      1616 7.35727E-03
 -1      1617 1.05490E-02
 -1      1618 1.31686E-02
 -1      1619 1.20923E-02
 -1      1620 1.47020E-02
 -1      1621 1.86777E-02
 -1      1622 1.69657E-02
 -1      1623 2.32341E-02
 -1      1624 1.88995E-02
 -1      1625 1.88995E-02
 -1      1626 2.72530E-02
 -1      1627 1.88219E-02
 -1      1628 1.88995E-02
 -1      1629 2.74747E-02
 -1      1630 1.34017E-02
 -1      1631 1.55921E-02
 -1      1632 2.42449E-02
 -1      1633 1.44887E-02
 -1      1634 1.32461E-02
 -1      1635 2.08595E-02
 -1      1636 2.21537E-02
 -1      1637 1.99314E-02
 -1      1638 2.61466E-02
 -1      1639 2.42491E-02
 -1      1640 2.36294E-02
 -1      1641 3.30650E-02
 -1      1642 2.42491E-02
 -1      1643 2.42491E-02
 -1      1644 3.45408E-02
 -1      1645 2.24418E-02
 -1      1646 2.36257E-02
 -1      1647 3.39174E-02
 -1      1648 1.49070E-02
 -1      1649 1.79510E-02
 -1      1650 2.88032E-02
 -1      1651 1.55719E-02
 -1      1652 1.35926E-02
 -1      1653 2.29981E-02
 -1      1654 3.15443E-02
 -1      1655 2.77789E-02
 -1      1656 3.38908E-02
 -1      1657 2.98447E+01
 -1      1658 2.95161E+01
 -1      1659 3.08018E+01
 -1      1660 2.98447E+01
 -1      1661 4.41701E+01
 -1      1662 3.37037E+01
 -1      1663 4.87035E+01
 -1      1664 4.87035E+01
 -1      1665 2.18503E+01
 -1      1666 3.55648E+01
 -1      1667 1.81602E+01
 -1      1668 1.81541E+01
 -1      1669 2.12868E+01
 -1      1670 2.12868E+01
 -1      1671 2.01195E+01
 -1      1672 2.24184E+01
 -1      1673 1.94083E+01
 -1      1674 1.98638E+01
 -1      1675 2.24824E+01
 -1      1676 1.56102E+01
 -1      1677 2.99332E+01
 -1      1678 2.97280E+01
 -1      1679 3.05539E+01
 -1      1680 3.21076E+01
 -1      1681 3.05539E+01
 -1      1682 3.05539E+01
 -1      1683 2.85376E+01
 -1      1684 2.97873E+01
 -1      1685 2.87741E+01
 -1      1686 2.85376E+01
 -1      1687 2.67065E+01
 -1      1688 2.47993E+01
 -1      1689 3.03307E+01
 -1      1690 2.94722E+01
 -1      1691 2.98138E+01
 -1      1692 3.03307E+01
 -1      1693 1.26189E+01
 -1      1694 2.09579E+01
 -1      1695 1.17714E+01
 -1      1696 1.21551E+01
 -1      1697 1.20475E+01
 -1      1698 1.18516E+01
 -1      1699 1.22434E+01
 -1      1700 1.22434E+01
 -1      1701 1.16164E+01
 -1      1702 1.19070E+01
 -1      1703 1.16622E+01
 -1      1704 1.16622E+01
 -1      1705 1.14876E+01
 -1      1706 1.15749E+01
 -1      1707 1.39515E+01
 -1      1708 1.07991E+01
 -1      1709 3.17118E+01
 -1      1710 1.83030E+01
 -1      1711 4.46100E+01
 -1      1712 4.46100E+01
 -1      1713 3.16795E+01
 -1      1714 4.13849E+01
 -1      1715 2.74255E+01
 -1      1716 2.74255E+01
 -1      1717 4.41701E+01
 -1      1718 2.30383E+01
 -1      1719 1.63075E+01
 -1      1720 2.40750E+01
 -1      1721 3.67348E+01
 -1      1722 3.17423E+01
 -1      1723 3.38329E+01
 -1      1724 3.68202E-02
 -1      1725 3.15443E-02
 -1      1726 4.60978E-02
 -1      1727 3.55648E+01
 -1      1728 1.87298E+01
 -1      1729 2.32941E+01
 -1      1730 1.92402E+01
 -1      1731 2.26876E+01
 -1      1732 3.21076E+01
 -1      1733 3.42820E+01
 -1      1734 3.35155E+01
 -1      1735 3.27489E+01
 -1      1736 2.87741E+01
 -1      1737 2.75650E+01
 -1      1738 3.03307E+01
 -1      1739 2.14748E+01
 -1      1740 1.21551E+01
 -1      1741 1.17714E+01
 -1      1742 1.20475E+01
 -1      1743 1.19070E+01
 -1      1744 1.16164E+01
 -1      1745 1.15749E+01
 -1      1746 1.07991E+01
 -1      1747 1.44621E+01
 -1      1748 3.17118E+01
 -1      1749 4.13849E+01
 -1      1750 3.39057E+01
 -1      1751 9.60947E+00
 -1      1752 1.27822E+00
 -1      1753 1.67315E+00
 -1      1754 2.38929E+00
 -1      1755 4.27866E+00
 -1      1756 1.76399E+00
 -1      1757 8.82844E-01
 -1      1758 9.75030E-01
 -1      1759 7.79105E-01
 -1      1760 8.33811E-01
 -1      1761 7.43226E-01
 -1      1762 7.13691E-01
 -1      1763 7.47857E-01
 -1      1764 6.62944E-01
 -1      1765 6.71318E-01
 -1      1766 6.91514E-01
 -1      1767 6.09518E-01
 -1      1768 6.94858E-01
 -1      1769 6.72956E-01
 -1      1770 5.88979E-01
 -1      1771 7.50768E-01
 -1      1772 7.16793E-01
 -1      1773 6.12553E-01
 -1      1774 8.41284E-01
 -1      1775 7.84243E-01
 -1      1776 6.67964E-01
 -1      1777 9.84277E-01
 -1      1778 8.88879E-01
 -1      1779 7.49034E-01
 -1      1780 1.22930E+00
 -1      1781 1.05140E+00
 -1      1782 8.63749E-01
 -1      1783 1.70270E+00
 -1      1784 1.33675E+00
 -1      1785 1.03832E+00
 -1      1786 2.63255E+00
 -1      1787 1.79583E+00
 -1      1788 1.23891E+00
 -1      1789 8.11701E+00
 -1      1790 3.06464E+00
 -1      1791 1.76413E+00
 -1      1792 2.79584E+00
 -1      1793 5.19708E+00
 -1      1794 2.16386E+00
 -1      1795 2.65501E+00
 -1      1796 2.05539E+00
 -1      1797 3.39855E+00
 -1      1798 2.53356E+00
 -1      1799 1.91864E+00
 -1      1800 1.68754E+00
 -1      1801 1.35534E+00
 -1      1802 1.49654E+00
 -1      1803 1.17493E+00
 -1      1804 9.63901E-01
 -1      1805 1.08502E+00
 -1      1806 8.38048E-01
 -1      1807 7.13587E-01
 -1      1808 7.78751E-01
 -1      1809 6.55460E-01
 -1      1810 5.65323E-01
 -1      1811 5.94771E-01
 -1      1812 5.16379E-01
 -1      1813 4.52034E-01
 -1      1814 4.87701E-01
 -1      1815 4.08713E-01
 -1      1816 3.58126E-01
 -1      1817 3.95437E-01
 -1      1818 3.24644E-01
 -1      1819 2.84883E-01
 -1      1820 3.18633E-01
 -1      1821 2.56459E-01
 -1      1822 2.27251E-01
 -1      1823 2.56728E-01
 -1      1824 2.02533E-01
 -1      1825 1.77403E-01
 -1      1826 2.03586E-01
 -1      1827 1.59458E-01
 -1      1828 1.38284E-01
 -1      1829 1.60923E-01
 -1      1830 1.22804E-01
 -1      1831 1.05244E-01
 -1      1832 1.27499E-01
 -1      1833 9.21981E-02
 -1      1834 7.78248E-02
 -1      1835 9.89731E-02
 -1      1836 6.72650E-02
 -1      1837 5.59503E-02
 -1      1838 7.53672E-02
 -1      1839 4.79256E-02
 -1      1840 4.54021E-02
 -1      1841 5.67826E-02
 -1      1842 4.33935E-02
 -1      1843 4.50590E-02
 -1      1844 4.67493E-02
 -1      1845 5.27711E-02
 -1      1846 6.46354E-02
 -1      1847 5.24528E-02
 -1      1848 8.06437E-02
 -1      1849 9.65282E-02
 -1      1850 7.61732E-02
 -1      1851 1.21111E-01
 -1      1852 1.46854E-01
 -1      1853 1.16764E-01
 -1      1854 1.82315E-01
 -1      1855 2.20328E-01
 -1      1856 1.76808E-01
 -1      1857 2.68978E-01
 -1      1858 3.28557E-01
 -1      1859 2.60919E-01
 -1      1860 3.92183E-01
 -1      1861 4.71509E-01
 -1      1862 3.73196E-01
 -1      1863 5.50632E-01
 -1      1864 6.50925E-01
 -1      1865 5.15946E-01
 -1      1866 7.43927E-01
 -1      1867 8.63394E-01
 -1      1868 6.88071E-01
 -1      1869 9.73121E-01
 -1      1870 1.10553E+00
 -1      1871 8.90800E-01
 -1      1872 1.23910E+00
 -1      1873 1.40288E+00
 -1      1874 1.13410E+00
 -1      1875 1.53065E+00
 -1      1876 1.71820E+00
 -1      1877 1.39544E+00
 -1      1878 1.85813E+00
 -1      1879 2.09377E+00
 -1      1880 1.66313E+00
 -1      1881 2.21563E+00
 -1      1882 2.40433E+00
 -1      1883 1.92491E+00
 -1      1884 2.47091E+00
 -1      1885 2.56330E+00
 -1      1886 2.11335E+00
 -1      1887 2.56163E+00
 -1      1888 2.52756E+00
 -1      1889 2.17826E+00
 -1      1890 2.51827E+00
 -1      1891 2.55647E+00
 -1      1892 2.16730E+00
 -1      1893 2.57334E+00
 -1      1894 2.50710E+00
 -1      1895 2.17488E+00
 -1      1896 2.45489E+00
 -1      1897 2.28370E+00
 -1      1898 2.13954E+00
 -1      1899 2.17226E+00
 -1      1900 1.94121E+00
 -1      1901 1.97589E+00
 -1      1902 1.79593E+00
 -1      1903 1.59835E+00
 -1      1904 1.71918E+00
 -1      1905 1.47434E+00
 -1      1906 1.30079E+00
 -1      1907 1.44989E+00
 -1      1908 1.16675E+00
 -1      1909 1.02993E+00
 -1      1910 1.19185E+00
 -1      1911 9.12371E-01
 -1      1912 7.89128E-01
 -1      1913 9.40257E-01
 -1      1914 6.93037E-01
 -1      1915 5.87882E-01
 -1      1916 7.26608E-01
 -1      1917 5.04773E-01
 -1      1918 4.20316E-01
 -1      1919 5.47408E-01
 -1      1920 3.52382E-01
 -1      1921 2.87927E-01
 -1      1922 3.96364E-01
 -1      1923 2.35077E-01
 -1      1924 1.99666E-01
 -1      1925 2.75581E-01
 -1      1926 1.60399E-01
 -1      1927 1.34165E-01
 -1      1928 1.83464E-01
 -1      1929 1.06268E-01
 -1      1930 9.28674E-02
 -1      1931 1.16299E-01
 -1      1932 7.48427E-02
 -1      1933 5.44443E-02
 -1      1934 7.03768E-02
 -1      1935 3.63145E+01
 -1      1936 3.34127E+01
 -1      1937 1.39533E+00
 -1      1938 1.76966E+00
 -1      1939 1.52036E+00
 -1      1940 1.01013E+00
 -1      1941 1.26993E+00
 -1      1942 1.00076E+00
 -1      1943 8.01634E-01
 -1      1944 9.22070E-01
 -1      1945 7.87292E-01
 -1      1946 6.30314E-01
 -1      1947 7.20414E-01
 -1      1948 6.18008E-01
 -1      1949 5.06848E-01
 -1      1950 5.78137E-01
 -1      1951 4.84611E-01
 -1      1952 4.13249E-01
 -1      1953 4.72766E-01
 -1      1954 3.98351E-01
 -1      1955 3.31067E-01
 -1      1956 3.80781E-01
 -1      1957 3.31801E-01
 -1      1958 2.66079E-01
 -1      1959 3.03155E-01
 -1      1960 2.71422E-01
 -1      1961 2.16212E-01
 -1      1962 2.44971E-01
 -1      1963 2.22402E-01
 -1      1964 1.65663E-01
 -1      1965 1.93848E-01
 -1      1966 1.78929E-01
 -1      1967 1.28890E-01
 -1      1968 1.48988E-01
 -1      1969 1.39890E-01
 -1      1970 9.85859E-02
 -1      1971 1.14948E-01
 -1      1972 1.09274E-01
 -1      1973 7.44382E-02
 -1      1974 8.73400E-02
 -1      1975 8.40855E-02
 -1      1976 5.75428E-02
 -1      1977 6.65650E-02
 -1      1978 6.49665E-02
 -1      1979 4.30857E-02
 -1      1980 5.04101E-02
 -1      1981 4.99607E-02
 -1      1982 4.87671E-02
 -1      1983 4.14561E-02
 -1      1984 4.11984E-02
 -1      1985 7.93765E-02
 -1      1986 6.36724E-02
 -1      1987 5.44743E-02
 -1      1988 1.48748E-01
 -1      1989 1.19312E-01
 -1      1990 1.09315E-01
 -1      1991 2.95656E-01
 -1      1992 2.27066E-01
 -1      1993 2.27569E-01
 -1      1994 5.44589E-01
 -1      1995 4.36548E-01
 -1      1996 4.46779E-01
 -1      1997 9.74354E-01
 -1      1998 7.90401E-01
 -1      1999 8.33482E-01
 -1      2000 1.67830E+00
 -1      2001 1.39354E+00
 -1      2002 1.49848E+00
 -1      2003 2.75698E+00
 -1      2004 2.36292E+00
 -1      2005 2.60227E+00
 -1      2006 4.53277E+00
 -1      2007 3.85358E+00
 -1      2008 4.38349E+00
 -1      2009 6.76869E+00
 -1      2010 5.95037E+00
 -1      2011 6.89769E+00
 -1      2012 7.83004E+00
 -1      2013 7.10966E+00
 -1      2014 8.65626E+00
 -1      2015 1.03193E+01
 -1      2016 8.84820E+00
 -1      2017 1.00154E+01
 -1      2018 9.79534E+00
 -1      2019 1.19479E+01
 -1      2020 1.03897E+01
 -1      2021 1.12599E+01
 -1      2022 1.06697E+01
 -1      2023 1.55614E+01
 -1      2024 1.64367E+01
 -1      2025 9.81522E+00
 -1      2026 1.02172E+01
 -1      2027 1.72209E+01
 -1      2028 6.88785E+00
 -1      2029 7.88188E+00
 -1      2030 9.94333E+00
 -1      2031 4.77312E+00
 -1      2032 5.70557E+00
 -1      2033 6.82771E+00
 -1      2034 2.95119E+00
 -1      2035 3.70258E+00
 -1      2036 4.57488E+00
 -1      2037 1.70936E+00
 -1      2038 2.22506E+00
 -1      2039 2.77820E+00
 -1      2040 9.46166E-01
 -1      2041 1.26123E+00
 -1      2042 1.60394E+00
 -1      2043 5.26862E-01
 -1      2044 6.83327E-01
 -1      2045 8.92974E-01
 -1      2046 2.67941E-01
 -1      2047 3.71511E-01
 -1      2048 4.74784E-01
 -1      2049 1.35758E-01
 -1      2050 1.88568E-01
 -1      2051 2.40061E-01
 -1      2052 6.49694E-02
 -1      2053 9.35414E-02
 -1      2054 1.18472E-01
 -1      2055 3.12048E-02
 -1      2056 4.64723E-02
 -1      2057 5.77583E-02
 -1      2058 1.34880E-02
 -1      2059 1.94967E-02
 -1      2060 2.75532E-02
 -1      2061 1.29060E-02
 -1      2062 3.71285E-02
 -1      2063 3.33314E-02
 -1      2064 2.23315E-02
 -1      2065 1.75964E-02
 -1      2066 2.05355E-02
 -1      2067 3.62259E-02
 -1      2068 3.73503E-02
 -1      2069 3.71285E-02
 -1      2070 4.72258E-02
 -1      2071 3.70204E-02
 -1      2072 3.70204E-02
 -1      2073 4.68959E-02
 -1      2074 3.31350E-02
 -1      2075 3.63648E-02
 -1      2076 4.59105E-02
 -1      2077 2.49487E-02
 -1      2078 2.51043E-02
 -1      2079 3.72242E-02
 -1      2080 4.01921E-02
 -1      2081 3.47495E-02
 -1      2082 3.89942E-02
 -1      2083 4.53135E-02
 -1      2084 4.38378E-02
 -1      2085 5.24406E-02
 -1      2086 4.53135E-02
 -1      2087 4.53135E-02
 -1      2088 5.60863E-02
 -1      2089 4.46105E-02
 -1      2090 4.52338E-02
 -1      2091 5.60066E-02
 -1      2092 3.80836E-02
 -1      2093 4.25744E-02
 -1      2094 5.38909E-02
 -1      2095 2.79259E-02
 -1      2096 2.92402E-02
 -1      2097 4.30114E-02
 -1      2098 4.05632E-02
 -1      2099 2.83561E-02
 -1      2100 3.45982E-02
 -1      2101 1.97374E+01
 -1      2102 3.28761E+01
 -1      2103 5.13171E-02
 -1      2104 4.26922E+01
 -1      2105 4.06016E+01
 -1      2106 1.25094E+01
 -1      2107 1.81602E+01
 -1      2108 3.90093E+01
 -1      2109 3.44759E+01
 -1      2110 1.03776E+00
 -1      2111 1.21316E+00
 -1      2112 9.82778E-01
 -1      2113 8.54985E-01
 -1      2114 1.19131E+01
 -1      2115 2.05680E+01
 -1      2116 1.33224E+01
 -1      2117 2.70546E+01
 -1      2118 2.48802E+01
 -1      2119 3.42820E+01
 -1      2120 3.42820E+01
 -1      2121 3.53436E+01
 -1      2122 3.61102E+01
 -1      2123 3.84660E+01
 -1      2124 3.84660E+01
 -1      2125 3.44912E+01
 -1      2126 3.84660E+01
 -1      2127 2.73279E+01
 -1      2128 2.45622E+01
 -1      2129 2.54587E+01
 -1      2130 2.54587E+01
 -1      2131 1.22618E+01
 -1      2132 2.11177E+01
 -1      2133 9.37575E+00
 -1      2134 9.83959E+00
 -1      2135 1.05690E+01
 -1      2136 1.04888E+01
 -1      2137 1.12553E+01
 -1      2138 1.10594E+01
 -1      2139 9.77677E+00
 -1      2140 1.08633E+01
 -1      2141 1.11998E+01
 -1      2142 1.07918E+01
 -1      2143 1.07459E+01
 -1      2144 1.02437E+01
 -1      2145 1.03310E+01
 -1      2146 8.26133E+00
 -1      2147 8.94980E+00
 -1      2148 1.39699E+01
 -1      2149 9.61844E+00
 -1      2150 2.99882E+01
 -1      2151 1.70900E+01
 -1      2152 3.21792E+01
 -1      2153 3.54043E+01
 -1      2154 2.90916E+01
 -1      2155 3.33456E+01
 -1      2156 4.26922E+01
 -1      2157 4.26922E+01
 -1      2158 5.15516E+01
 -1      2159 1.56093E+01
 -1      2160 4.92250E-02
 -1      2161 1.57770E+01
 -1      2162 1.55150E+01
 -1      2163 4.22720E+01
 -1      2164 2.90981E+00
 -1      2165 2.10388E+00
 -1      2166 1.30883E+01
 -1      2167 3.11538E+01
 -1      2168 1.62602E+01
 -1      2169 1.46301E+01
 -1      2170 1.29449E+01
 -1      2171 1.14009E+01
 -1      2172 1.73883E+01
 -1      2173 4.92250E-02
 -1      2174 2.43308E+01
 -1      2175 4.36903E-02
 -1      2176 4.10607E+01
 -1      2177 2.31819E+01
 -1      2178 1.65119E+01
 -1      2179 2.43308E+01
 -1      2180 4.00416E+01
 -1      2181 2.24184E+01
 -1      2182 1.21151E+01
 -1      2183 2.73651E+01
 -1      2184 2.07825E+01
 -1      2185 1.22463E+01
 -1      2186 7.76911E+00
 -1      2187 7.70585E+00
 -1      2188 9.46054E+00
 -1      2189 1.02117E+01
 -1      2190 8.17333E+00
 -1      2191 9.48246E+00
 -1      2192 1.62456E+01
 -1      2193 2.24559E+01
 -1      2194 3.42541E+01
 -1      2195 4.41831E+01
 -1      2196 2.70546E+01
 -1      2197 3.61102E+01
 -1      2198 1.00388E+01
 -1      2199 5.59115E-01
 -1      2200 5.90363E-01
 -1      2201 6.02590E-01
 -1      2202 6.51624E-01
 -1      2203 4.98761E-01
 -1      2204 5.10998E-01
 -1      2205 5.09360E-01
 -1      2206 5.45976E-01
 -1      2207 5.24040E-01
 -1      2208 4.44421E-01
 -1      2209 5.94400E-01
 -1      2210 5.60924E-01
 -1      2211 4.72411E-01
 -1      2212 6.54136E-01
 -1      2213 6.06542E-01
 -1      2214 4.99502E-01
 -1      2215 7.21257E-01
 -1      2216 6.54136E-01
 -1      2217 5.11644E-01
 -1      2218 8.25512E-01
 -1      2219 7.18058E-01
 -1      2220 5.08445E-01
 -1      2221 1.00558E+00
 -1      2222 9.12449E-01
 -1      2223 5.92182E-01
 -1      2224 1.75666E+00
 -1      2225 1.32456E+00
 -1      2226 9.98104E-01
 -1      2227 1.61582E+00
 -1      2228 6.99227E-01
 -1      2229 7.87292E-01
 -1      2230 9.69216E+00
 -1      2231 1.16255E+01
 -1      2232 8.75357E-01
 -1      2233 1.00076E+00
 -1      2234 7.87292E-01
 -1      2235 1.26497E+00
 -1      2236 1.03388E+00
 -1      2237 1.67633E+00
 -1      2238 1.30008E+00
 -1      2239 8.37418E-01
 -1      2240 9.60185E-01
 -1      2241 9.82756E-01
 -1      2242 8.02337E-01
 -1      2243 7.51191E-01
 -1      2244 7.45339E-01
 -1      2245 6.19486E-01
 -1      2246 6.43072E-01
 -1      2247 5.63005E-01
 -1      2248 5.04878E-01
 -1      2249 5.29593E-01
 -1      2250 4.55151E-01
 -1      2251 4.06208E-01
 -1      2252 4.23385E-01
 -1      2253 3.78968E-01
 -1      2254 3.35646E-01
 -1      2255 3.46417E-01
 -1      2256 3.10034E-01
 -1      2257 2.76552E-01
 -1      2258 2.93565E-01
 -1      2259 2.52143E-01
 -1      2260 2.23719E-01
 -1      2261 2.43543E-01
 -1      2262 2.04025E-01
 -1      2263 1.79306E-01
 -1      2264 1.99440E-01
 -1      2265 1.61761E-01
 -1      2266 1.43816E-01
 -1      2267 1.62200E-01
 -1      2268 1.28438E-01
 -1      2269 1.12959E-01
 -1      2270 1.29276E-01
 -1      2271 1.01323E-01
 -1      2272 8.82764E-02
 -1      2273 1.02262E-01
 -1      2274 7.94477E-02
 -1      2275 6.88879E-02
 -1      2276 8.17971E-02
 -1      2277 6.22127E-02
 -1      2278 5.41879E-02
 -1      2279 6.62932E-02
 -1      2280 5.01079E-02
 -1      2281 4.80993E-02
 -1      2282 5.55379E-02
 -1      2283 5.28275E-02
 -1      2284 6.05396E-02
 -1      2285 5.61861E-02
 -1      2286 7.17290E-02
 -1      2287 8.77373E-02
 -1      2288 7.21037E-02
 -1      2289 1.05609E-01
 -1      2290 1.30191E-01
 -1      2291 1.01164E-01
 -1      2292 1.56496E-01
 -1      2293 1.91958E-01
 -1      2294 1.45341E-01
 -1      2295 2.28589E-01
 -1      2296 2.77239E-01
 -1      2297 2.08277E-01
 -1      2298 3.25910E-01
 -1      2299 3.89536E-01
 -1      2300 2.93579E-01
 -1      2301 4.51281E-01
 -1      2302 5.30404E-01
 -1      2303 4.03995E-01
 -1      2304 6.12883E-01
 -1      2305 7.05885E-01
 -1      2306 5.48219E-01
 -1      2307 8.08311E-01
 -1      2308 9.18038E-01
 -1      2309 7.33124E-01
 -1      2310 1.02909E+00
 -1      2311 1.16266E+00
 -1      2312 9.46600E-01
 -1      2313 1.26976E+00
 -1      2314 1.39753E+00
 -1      2315 1.16475E+00
 -1      2316 1.48327E+00
 -1      2317 1.62319E+00
 -1      2318 1.35759E+00
 -1      2319 1.70510E+00
 -1      2320 1.82695E+00
 -1      2321 1.52524E+00
 -1      2322 1.87528E+00
 -1      2323 1.94186E+00
 -1      2324 1.65547E+00
 -1      2325 1.94404E+00
 -1      2326 1.94237E+00
 -1      2327 1.70597E+00
 -1      2328 1.90518E+00
 -1      2329 1.89589E+00
 -1      2330 1.67096E+00
 -1      2331 1.92804E+00
 -1      2332 1.94491E+00
 -1      2333 1.66593E+00
 -1      2334 1.95234E+00
 -1      2335 1.90013E+00
 -1      2336 1.70550E+00
 -1      2337 1.86173E+00
 -1      2338 1.75030E+00
 -1      2339 1.67453E+00
 -1      2340 1.66990E+00
 -1      2341 1.52462E+00
 -1      2342 1.55573E+00
 -1      2343 1.44370E+00
 -1      2344 1.31969E+00
 -1      2345 1.39442E+00
 -1      2346 1.21544E+00
 -1      2347 1.08141E+00
 -1      2348 1.20925E+00
 -1      2349 9.69520E-01
 -1      2350 8.51962E-01
 -1      2351 9.93112E-01
 -1      2352 7.46274E-01
 -1      2353 6.50183E-01
 -1      2354 7.75537E-01
 -1      2355 5.60573E-01
 -1      2356 4.77463E-01
 -1      2357 5.80239E-01
 -1      2358 4.11867E-01
 -1      2359 3.43933E-01
 -1      2360 4.25032E-01
 -1      2361 2.91261E-01
 -1      2362 2.38411E-01
 -1      2363 3.06763E-01
 -1      2364 1.97857E-01
 -1      2365 1.58590E-01
 -1      2366 2.13537E-01
 -1      2367 1.28658E-01
 -1      2368 1.00760E-01
 -1      2369 1.43051E-01
 -1      2370 7.56717E-02
 -1      2371 5.76470E-02
 -1      2372 4.89852E-02
 -1      2373 8.80305E-02
 -1      2374 1.03188E+00
 -1      2375 1.42608E+00
 -1      2376 1.12735E+00
 -1      2377 9.06479E-01
 -1      2378 5.36788E-01
 -1      2379 6.18008E-01
 -1      2380 6.18008E-01
 -1      2381 4.32433E-01
 -1      2382 4.84611E-01
 -1      2383 4.84611E-01
 -1      2384 3.64269E-01
 -1      2385 3.98351E-01
 -1      2386 3.98351E-01
 -1      2387 2.99333E-01
 -1      2388 3.31801E-01
 -1      2389 3.31801E-01
 -1      2390 2.44105E-01
 -1      2391 2.72017E-01
 -1      2392 2.72017E-01
 -1      2393 2.00920E-01
 -1      2394 2.22028E-01
 -1      2395 2.22624E-01
 -1      2396 1.57167E-01
 -1      2397 1.79532E-01
 -1      2398 1.79158E-01
 -1      2399 1.24207E-01
 -1      2400 1.40882E-01
 -1      2401 1.41484E-01
 -1      2402 9.77739E-02
 -1      2403 1.11716E-01
 -1      2404 1.12707E-01
 -1      2405 7.56770E-02
 -1      2406 8.69229E-02
 -1      2407 8.93654E-02
 -1      2408 5.86759E-02
 -1      2409 6.65490E-02
 -1      2410 6.93864E-02
 -1      2411 4.22339E-02
 -1      2412 4.93666E-02
 -1      2413 5.09491E-02
 -1      2414 3.40589E-02
 -1      2415 3.56884E-02
 -1      2416 3.50943E-02
 -1      2417 5.58413E-02
 -1      2418 4.09359E-02
 -1      2419 3.54259E-02
 -1      2420 1.21885E-01
 -1      2421 8.19493E-02
 -1      2422 6.84110E-02
 -1      2423 2.46949E-01
 -1      2424 1.68630E-01
 -1      2425 1.41265E-01
 -1      2426 4.75503E-01
 -1      2427 3.34612E-01
 -1      2428 2.75673E-01
 -1      2429 8.74899E-01
 -1      2430 6.29087E-01
 -1      2431 5.16920E-01
 -1      2432 1.56115E+00
 -1      2433 1.14197E+00
 -1      2434 9.37572E-01
 -1      2435 2.71402E+00
 -1      2436 2.02940E+00
 -1      2437 1.67289E+00
 -1      2438 4.75339E+00
 -1      2439 3.65679E+00
 -1      2440 3.08392E+00
 -1      2441 7.74476E+00
 -1      2442 6.32717E+00
 -1      2443 5.60047E+00
 -1      2444 1.02608E+01
 -1      2445 9.91985E+00
 -1      2446 9.34932E+00
 -1      2447 1.44921E+01
 -1      2448 1.34740E+01
 -1      2449 2.07633E+01
 -1      2450 2.32069E+01
 -1      2451 2.20404E+01
 -1      2452 2.59401E+01
 -1      2453 4.00416E+01
 -1      2454 2.85315E+01
 -1      2455 1.46640E+01
 -1      2456 2.00082E+01
 -1      2457 3.79084E+00
 -1      2458 4.86139E+00
 -1      2459 2.15631E+00
 -1      2460 2.88244E+00
 -1      2461 3.16896E+00
 -1      2462 1.21828E+00
 -1      2463 1.66641E+00
 -1      2464 1.77065E+00
 -1      2465 6.72403E-01
 -1      2466 9.35242E-01
 -1      2467 9.97710E-01
 -1      2468 3.53723E-01
 -1      2469 5.09074E-01
 -1      2470 5.51342E-01
 -1      2471 1.84433E-01
 -1      2472 2.63806E-01
 -1      2473 2.98095E-01
 -1      2474 9.23389E-02
 -1      2475 1.34555E-01
 -1      2476 1.58300E-01
 -1      2477 2.87542E-02
 -1      2478 4.04623E-02
 -1      2479 3.34447E-02
 -1      2480 6.25673E-02
 -1      2481 6.28972E-02
 -1      2482 5.98074E-02
 -1      2483 6.04630E-02
 -1      2484 7.64642E-02
 -1      2485 6.28972E-02
 -1      2486 6.28972E-02
 -1      2487 7.85685E-02
 -1      2488 4.50206E-02
 -1      2489 5.30513E-02
 -1      2490 6.76038E-02
 -1      2491 5.70269E-02
 -1      2492 4.72262E-02
 -1      2493 6.30533E-02
 -1      2494 6.99283E-02
 -1      2495 6.62826E-02
 -1      2496 7.45146E-02
 -1      2497 6.99283E-02
 -1      2498 6.99283E-02
 -1      2499 8.37702E-02
 -1      2500 6.99759E-02
 -1      2501 7.00556E-02
 -1      2502 8.38975E-02
 -1      2503 6.79398E-02
 -1      2504 6.99759E-02
 -1      2505 8.40248E-02
 -1      2506 5.23938E-02
 -1      2507 6.12372E-02
 -1      2508 7.73222E-02
 -1      2509 4.16765E-02
 -1      2510 4.12463E-02
 -1      2511 5.94721E-02
 -1      2512 5.56332E-02
 -1      2513 4.10607E+01
 -1      2514 3.79383E+01
 -1      2515 2.37393E+01
 -1      2516 6.76787E+00
 -1      2517 5.65483E+00
 -1      2518 6.17632E+00
 -1      2519 7.35860E+00
 -1      2520 5.39228E+00
 -1      2521 5.22341E-01
 -1      2522 5.44518E-01
 -1      2523 4.71937E-01
 -1      2524 4.44359E-01
 -1      2525 1.79188E+01
 -1      2526 1.68373E+01
 -1      2527 2.02959E+01
 -1      2528 2.84616E+01
 -1      2529 3.29924E+01
 -1      2530 4.22720E+01
 -1      2531 3.02897E+01
 -1      2532 8.94066E+00
 -1      2533 9.05806E+00
 -1      2534 4.41831E+01
 -1      2535 4.41831E+01
 -1      2536 2.43251E+01
 -1      2537 3.42541E+01
 -1      2538 1.78980E+01
 -1      2539 1.97672E+01
 -1      2540 1.06245E+01
 -1      2541 1.49655E+01
 -1      2542 1.22768E+01
 -1      2543 7.63532E+00
 -1      2544 1.00575E+01
 -1      2545 8.38836E+00
 -1      2546 7.89795E+00
 -1      2547 9.34729E+00
 -1      2548 9.40280E+00
 -1      2549 7.90207E+00
 -1      2550 8.36291E+00
 -1      2551 7.38219E+00
 -1      2552 5.58884E+00
 -1      2553 6.88269E+00
 -1      2554 6.77955E+00
 -1      2555 5.42243E+00
 -1      2556 1.19688E+01
 -1      2557 8.84867E+00
 -1      2558 6.50199E+00
 -1      2559 1.92860E+01
 -1      2560 1.38699E+01
 -1      2561 1.51278E+01
 -1      2562 5.15516E+01
 -1      2563 5.15516E+01
 -1      2564 6.14193E-01
 -1      2565 7.54829E-01
 -1      2566 8.17554E-01
 -1      2567 9.04077E+00
 -1      2568 1.44128E+01
 -1      2569 1.47376E+01
 -1      2570 2.32069E+01
 -1      2571 4.00416E+01
 -1      2572 5.89594E-02
 -1      2573 7.50429E-02
 -1      2574 7.52919E-02
 -1      2575 5.96205E-02
 -1      2576 4.86206E-02
 -1      2577 4.10607E+01
 -1      2578 4.22720E+01
 -1      2579 2.77788E+01
 -1      2580 5.37945E+00
 -1      2581 1.04722E+01
 -1      2582 5.78506E+00
 -1      2583 8.24918E+00
 -1      2584 7.52398E+00
 -1      2585 8.77737E+00
 -1      2586 8.95117E-01
 -1      2587 1.97672E+01
 -1      2588 3.17230E+01
 -1      2589 3.17230E+01
 -1      2590 2.17940E+01
 -1      2591 3.02897E+01
 -1      2592 6.22986E+00
 -1      2593 4.59928E+00
 -1      2594 2.52219E+01
 -1      2595 4.22800E-01
 -1      2596 4.07852E-01
 -1      2597 3.99964E-01
 -1      2598 3.86922E-01
 -1      2599 3.50353E-01
 -1      2600 4.36343E-01
 -1      2601 4.36343E-01
 -1      2602 4.21666E-01
 -1      2603 4.24865E-01
 -1      2604 3.49564E-01
 -1      2605 8.08359E-01
 -1      2606 4.11824E-01
 -1      2607 4.64002E-01
 -1      2608 3.43372E-01
 -1      2609 3.77454E-01
 -1      2610 3.56845E-01
 -1      2611 4.97773E-01
 -1      2612 5.78992E-01
 -1      2613 4.24986E-01
 -1      2614 6.03877E-01
 -1      2615 5.52755E-01
 -1      2616 8.56364E-01
 -1      2617 1.13940E+00
 -1      2618 5.47480E-01
 -1      2619 4.90482E-01
 -1      2620 4.00166E-01
 -1      2621 4.83741E-01
 -1      2622 4.27260E-01
 -1      2623 3.88149E-01
 -1      2624 4.06549E-01
 -1      2625 3.56822E-01
 -1      2626 3.60697E-01
 -1      2627 3.31695E-01
 -1      2628 3.04455E-01
 -1      2629 3.14860E-01
 -1      2630 2.79529E-01
 -1      2631 2.53917E-01
 -1      2632 2.64807E-01
 -1      2633 2.38158E-01
 -1      2634 2.13749E-01
 -1      2635 2.24122E-01
 -1      2636 1.97232E-01
 -1      2637 1.77537E-01
 -1      2638 1.91846E-01
 -1      2639 1.61825E-01
 -1      2640 1.44279E-01
 -1      2641 1.59617E-01
 -1      2642 1.30213E-01
 -1      2643 1.14834E-01
 -1      2644 1.29837E-01
 -1      2645 1.02830E-01
 -1      2646 9.11943E-02
 -1      2647 1.03767E-01
 -1      2648 8.18967E-02
 -1      2649 7.30681E-02
 -1      2650 8.24653E-02
 -1      2651 6.69240E-02
 -1      2652 6.02488E-02
 -1      2653 6.70236E-02
 -1      2654 5.71420E-02
 -1      2655 5.30620E-02
 -1      2656 5.77728E-02
 -1      2657 5.54475E-02
 -1      2658 6.01758E-02
 -1      2659 5.70516E-02
 -1      2660 6.73897E-02
 -1      2661 7.85791E-02
 -1      2662 6.66512E-02
 -1      2663 9.13615E-02
 -1      2664 1.09233E-01
 -1      2665 8.66475E-02
 -1      2666 1.30011E-01
 -1      2667 1.56317E-01
 -1      2668 1.20209E-01
 -1      2669 1.88320E-01
 -1      2670 2.24951E-01
 -1      2671 1.72991E-01
 -1      2672 2.69268E-01
 -1      2673 3.17939E-01
 -1      2674 2.49311E-01
 -1      2675 3.74832E-01
 -1      2676 4.36577E-01
 -1      2677 3.50520E-01
 -1      2678 5.04492E-01
 -1      2679 5.86971E-01
 -1      2680 4.75328E-01
 -1      2681 6.61181E-01
 -1      2682 7.63607E-01
 -1      2683 6.17454E-01
 -1      2684 8.48538E-01
 -1      2685 9.59588E-01
 -1      2686 7.76595E-01
 -1      2687 1.06431E+00
 -1      2688 1.17141E+00
 -1      2689 9.66244E-01
 -1      2690 1.26401E+00
 -1      2691 1.34975E+00
 -1      2692 1.16357E+00
 -1      2693 1.40895E+00
 -1      2694 1.49086E+00
 -1      2695 1.31537E+00
 -1      2696 1.52323E+00
 -1      2697 1.57156E+00
 -1      2698 1.40695E+00
 -1      2699 1.57577E+00
 -1      2700 1.57794E+00
 -1      2701 1.44353E+00
 -1      2702 1.55372E+00
 -1      2703 1.51654E+00
 -1      2704 1.42352E+00
 -1      2705 1.50761E+00
 -1      2706 1.53975E+00
 -1      2707 1.39037E+00
 -1      2708 1.56852E+00
 -1      2709 1.57595E+00
 -1      2710 1.41020E+00
 -1      2711 1.58075E+00
 -1      2712 1.54235E+00
 -1      2713 1.44377E+00
 -1      2714 1.51154E+00
 -1      2715 1.43114E+00
 -1      2716 1.41776E+00
 -1      2717 1.38171E+00
 -1      2718 1.30079E+00
 -1      2719 1.33751E+00
 -1      2720 1.21335E+00
 -1      2721 1.10910E+00
 -1      2722 1.20064E+00
 -1      2723 1.00491E+00
 -1      2724 8.93023E-01
 -1      2725 1.00901E+00
 -1      2726 8.00754E-01
 -1      2727 6.95066E-01
 -1      2728 8.12552E-01
 -1      2729 6.19500E-01
 -1      2730 5.29889E-01
 -1      2731 6.44716E-01
 -1      2732 4.58938E-01
 -1      2733 3.93342E-01
 -1      2734 4.98199E-01
 -1      2735 3.32407E-01
 -1      2736 2.79735E-01
 -1      2737 3.66313E-01
 -1      2738 2.30751E-01
 -1      2739 1.90197E-01
 -1      2740 2.56395E-01
 -1      2741 1.53163E-01
 -1      2742 1.23231E-01
 -1      2743 1.70376E-01
 -1      2744 1.06902E-01
 -1      2745 8.18131E-02
 -1      2746 7.45044E-02
 -1      2747 1.17013E-01
 -1      2748 1.51672E+00
 -1      2749 2.00662E+00
 -1      2750 1.37537E+00
 -1      2751 1.91703E+01
 -1      2752 1.59571E+01
 -1      2753 2.84054E-01
 -1      2754 3.16522E-01
 -1      2755 2.95625E-01
 -1      2756 2.36492E-01
 -1      2757 2.63808E-01
 -1      2758 2.48530E-01
 -1      2759 1.95581E-01
 -1      2760 2.17658E-01
 -1      2761 2.09449E-01
 -1      2762 1.56376E-01
 -1      2763 1.77765E-01
 -1      2764 1.72798E-01
 -1      2765 1.25924E-01
 -1      2766 1.42210E-01
 -1      2767 1.40816E-01
 -1      2768 1.00893E-01
 -1      2769 1.13384E-01
 -1      2770 1.14109E-01
 -1      2771 7.92174E-02
 -1      2772 9.00685E-02
 -1      2773 9.07445E-02
 -1      2774 6.08182E-02
 -1      2775 6.99462E-02
 -1      2776 7.06492E-02
 -1      2777 4.28908E-02
 -1      2778 5.22001E-02
 -1      2779 5.27599E-02
 -1      2780 3.05727E-02
 -1      2781 3.71182E-02
 -1      2782 3.83692E-02
 -1      2783 3.60731E-02
 -1      2784 2.91960E-02
 -1      2785 3.12199E-02
 -1      2786 8.01889E-02
 -1      2787 5.40808E-02
 -1      2788 4.78510E-02
 -1      2789 1.68132E-01
 -1      2790 1.21386E-01
 -1      2791 1.07056E-01
 -1      2792 3.24162E-01
 -1      2793 2.36499E-01
 -1      2794 2.16621E-01
 -1      2795 5.98499E-01
 -1      2796 4.44915E-01
 -1      2797 4.05741E-01
 -1      2798 1.07413E+00
 -1      2799 8.07066E-01
 -1      2800 7.35061E-01
 -1      2801 1.90235E+00
 -1      2802 1.43409E+00
 -1      2803 1.30359E+00
 -1      2804 3.53407E+00
 -1      2805 2.59130E+00
 -1      2806 2.35250E+00
 -1      2807 6.28728E+00
 -1      2808 4.71351E+00
 -1      2809 4.22088E+00
 -1      2810 1.12846E+01
 -1      2811 9.10949E+00
 -1      2812 8.22254E+00
 -1      2813 2.15442E+01
 -1      2814 1.62196E+01
 -1      2815 3.47634E+01
 -1      2816 2.32534E+01
 -1      2817 5.07194E+00
 -1      2818 3.94186E+00
 -1      2819 2.68119E+00
 -1      2820 3.58959E+00
 -1      2821 2.42725E+00
 -1      2822 4.80820E-01
 -1      2823 6.44149E-01
 -1      2824 7.85842E-01
 -1      2825 2.61075E-01
 -1      2826 3.50993E-01
 -1      2827 4.43800E-01
 -1      2828 1.39080E-01
 -1      2829 1.88958E-01
 -1      2830 2.41855E-01
 -1      2831 8.89356E-02
 -1      2832 8.56589E-02
 -1      2833 7.54135E-02
 -1      2834 7.75178E-02
 -1      2835 8.89356E-02
 -1      2836 8.89356E-02
 -1      2837 8.78849E-02
 -1      2838 7.85307E-02
 -1      2839 8.52868E-02
 -1      2840 8.63405E-02
 -1      2841 1.00465E-01
 -1      2842 9.12090E-02
 -1      2843 1.04243E-01
 -1      2844 1.04243E-01
 -1      2845 1.20937E-01
 -1      2846 1.04370E-01
 -1      2847 1.04243E-01
 -1      2848 1.24715E-01
 -1      2849 1.01792E-01
 -1      2850 1.01792E-01
 -1      2851 1.22137E-01
 -1      2852 9.54233E-02
 -1      2853 1.02126E-01
 -1      2854 1.19893E-01
 -1      2855 4.92521E+00
 -1      2856 6.24014E+00
 -1      2857 4.43744E+00
 -1      2858 8.95129E+00
 -1      2859 1.12849E+01
 -1      2860 4.40909E+00
 -1      2861 5.42847E+00
 -1      2862 1.49966E+01
 -1      2863 1.80350E+01
 -1      2864 7.94961E-01
 -1      2865 8.07363E-02
 -1      2866 7.85307E-02
 -1      2867 9.62138E-02
 -1      2868 1.06686E-01
 -1      2869 6.05884E-01
 -1      2870 6.93949E-01
 -1      2871 4.85650E-01
 -1      2872 1.48640E+01
 -1      2873 1.94219E+01
 -1      2874 4.36343E-01
 -1      2875 4.24201E-01
 -1      2876 3.59642E-01
 -1      2877 3.61042E-01
 -1      2878 4.23633E-01
 -1      2879 4.35860E-01
 -1      2880 7.23919E+00
 -1      2881 7.52843E+00
 -1      2882 3.22865E+01
 -1      2883 2.91641E+01
 -1      2884 2.79445E+01
 -1      2885 9.23280E+00
 -1      2886 1.21652E+01
 -1      2887 3.76754E+00
 -1      2888 3.93395E+00
 -1      2889 9.60783E+00
 -1      2890 7.70670E+00
 -1      2891 7.58923E+00
 -1      2892 8.15624E+00
 -1      2893 6.94703E+00
 -1      2894 5.93259E+00
 -1      2895 6.30639E+00
 -1      2896 6.88414E+00
 -1      2897 6.16339E+00
 -1      2898 6.54436E+00
 -1      2899 4.47525E+00
 -1      2900 5.67996E+00
 -1      2901 1.35349E+01
 -1      2902 1.07804E+01
 -1      2903 8.01491E+00
 -1      2904 1.18722E+01
 -1      2905 3.67332E+00
 -1      2906 5.65381E+00
 -1      2907 3.36580E+00
 -1      2908 3.42247E-01
 -1      2909 3.86703E-01
 -1      2910 3.99684E-01
 -1      2911 7.58673E-01
 -1      2912 6.29432E-01
 -1      2913 5.42496E-01
 -1      2914 7.27552E-01
 -1      2915 1.68908E+01
 -1      2916 1.57173E+01
 -1      2917 6.50430E-01
 -1      2918 6.15324E-01
 -1      2919 4.08399E+00
 -1      2920 6.64054E+00
 -1      2921 6.01941E+00
 -1      2922 4.16889E-01
 -1      2923 1.89815E+01
 -1      2924 1.19941E+01
 -1      2925 1.37033E+01
 -1      2926 3.60732E-01
 -1      2927 4.35860E-01
 -1      2928 5.39065E-01
 -1      2929 5.46144E-01
 -1      2930 4.07437E-01
 -1      2931 4.22034E-01
 -1      2932 3.59133E-01
 -1      2933 3.49781E-01
 -1      2934 1.03862E-01
 -1      2935 1.34520E-01
 -1      2936 9.93026E-02
 -1      2937 5.68393E-02
 -1      2938 9.02188E-02
 -1      2939 4.93042E+00
 -1      2940 8.48422E+00
 -1      2941 8.56520E-02
 -1      2942 5.93704E+00
 -1      2943 1.10456E-01
 -1      2944 4.25165E+00
 -1      2945 3.58633E+00
 -1      2946 4.29403E+00
 -1      2947 1.49071E+01
 -1      2948 3.57736E+00
 -1      2949 4.49500E+00
 -1      2950 3.50852E+01
 -1      2951 1.82970E+01
 -1      2952 1.18200E+01
 -1      2953 4.58916E-01
 -1      2954 2.58056E+01
 -1      2955 8.04466E+00
 -1      2956 2.93675E-01
 -1      2957 3.05154E-01
 -1      2958 2.20467E-01
 -1      2959 2.40713E-01
 -1      2960 3.02877E-01
 -1      2961 3.37248E-01
 -1      2962 3.48826E-01
 -1      2963 3.82597E-01
 -1      2964 2.94858E-01
 -1      2965 5.72867E-01
 -1      2966 5.32893E+00
 -1      2967 4.74753E+00
 -1      2968 3.13236E-01
 -1      2969 3.06495E-01
 -1      2970 3.17312E-01
 -1      2971 2.96601E-01
 -1      2972 2.42399E-01
 -1      2973 2.92809E-01
 -1      2974 2.67682E-01
 -1      2975 2.49424E-01
 -1      2976 2.56579E-01
 -1      2977 2.31653E-01
 -1      2978 2.34527E-01
 -1      2979 2.17269E-01
 -1      2980 2.01510E-01
 -1      2981 2.09040E-01
 -1      2982 1.88370E-01
 -1      2983 1.71853E-01
 -1      2984 1.81517E-01
 -1      2985 1.61121E-01
 -1      2986 1.45409E-01
 -1      2987 1.57645E-01
 -1      2988 1.34217E-01
 -1      2989 1.20150E-01
 -1      2990 1.35722E-01
 -1      2991 1.09518E-01
 -1      2992 9.75142E-02
 -1      2993 1.13898E-01
 -1      2994 8.80505E-02
 -1      2995 7.87529E-02
 -1      2996 9.38018E-02
 -1      2997 7.08161E-02
 -1      2998 6.46721E-02
 -1      2999 7.64013E-02
 -1      3000 5.84889E-02
 -1      3001 5.53821E-02
 -1      3002 6.22813E-02
 -1      3003 5.42267E-02
 -1      3004 5.66123E-02
 -1      3005 5.49428E-02
 -1      3006 6.28103E-02
 -1      3007 7.00243E-02
 -1      3008 5.99854E-02
 -1      3009 8.18152E-02
 -1      3010 9.45976E-02
 -1      3011 7.79743E-02
 -1      3012 1.13939E-01
 -1      3013 1.34718E-01
 -1      3014 1.09107E-01
 -1      3015 1.63610E-01
 -1      3016 1.95613E-01
 -1      3017 1.57340E-01
 -1      3018 2.36262E-01
 -1      3019 2.80579E-01
 -1      3020 2.26881E-01
 -1      3021 3.34625E-01
 -1      3022 3.91518E-01
 -1      3023 3.21576E-01
 -1      3024 4.58974E-01
 -1      3025 5.26889E-01
 -1      3026 4.43079E-01
 -1      3027 6.04492E-01
 -1      3028 6.78702E-01
 -1      3029 5.88138E-01
 -1      3030 7.58863E-01
 -1      3031 8.43794E-01
 -1      3032 7.45901E-01
 -1      3033 9.14433E-01
 -1      3034 1.01915E+00
 -1      3035 8.96702E-01
 -1      3036 1.08631E+00
 -1      3037 1.17891E+00
 -1      3038 1.03450E+00
 -1      3039 1.26124E+00
 -1      3040 1.32045E+00
 -1      3041 1.18399E+00
 -1      3042 1.37238E+00
 -1      3043 1.40475E+00
 -1      3044 1.31825E+00
 -1      3045 1.46181E+00
 -1      3046 1.46602E+00
 -1      3047 1.42724E+00
 -1      3048 1.47455E+00
 -1      3049 1.45033E+00
 -1      3050 1.49283E+00
 -1      3051 1.38008E+00
 -1      3052 1.37115E+00
 -1      3053 1.43111E+00
 -1      3054 1.43330E+00
 -1      3055 1.46206E+00
 -1      3056 1.42301E+00
 -1      3057 1.47033E+00
 -1      3058 1.47513E+00
 -1      3059 1.49342E+00
 -1      3060 1.42016E+00
 -1      3061 1.38934E+00
 -1      3062 1.44671E+00
 -1      3063 1.34011E+00
 -1      3064 1.29067E+00
 -1      3065 1.34251E+00
 -1      3066 1.20784E+00
 -1      3067 1.12041E+00
 -1      3068 1.21044E+00
 -1      3069 1.05134E+00
 -1      3070 9.47150E-01
 -1      3071 1.05854E+00
 -1      3072 8.80986E-01
 -1      3073 7.88717E-01
 -1      3074 9.23315E-01
 -1      3075 7.08537E-01
 -1      3076 6.32971E-01
 -1      3077 7.76971E-01
 -1      3078 5.53005E-01
 -1      3079 4.82055E-01
 -1      3080 6.16826E-01
 -1      3081 4.10897E-01
 -1      3082 3.49962E-01
 -1      3083 4.65703E-01
 -1      3084 2.91891E-01
 -1      3085 2.42908E-01
 -1      3086 3.36475E-01
 -1      3087 1.97949E-01
 -1      3088 1.60914E-01
 -1      3089 2.33445E-01
 -1      3090 1.26784E-01
 -1      3091 1.87418E-01
 -1      3092 2.06253E-01
 -1      3093 1.98436E-01
 -1      3094 1.79800E-01
 -1      3095 2.15017E-01
 -1      3096 1.79800E-01
 -1      3097 2.59370E-01
 -1      3098 2.86219E-01
 -1      3099 2.66622E-01
 -1      3100 1.56171E-01
 -1      3101 1.73987E-01
 -1      3102 1.70791E-01
 -1      3103 1.29064E-01
 -1      3104 1.43230E-01
 -1      3105 1.44418E-01
 -1      3106 1.04585E-01
 -1      3107 1.17126E-01
 -1      3108 1.19539E-01
 -1      3109 8.32599E-02
 -1      3110 9.40840E-02
 -1      3111 9.71005E-02
 -1      3112 6.49610E-02
 -1      3113 7.42322E-02
 -1      3114 7.75717E-02
 -1      3115 4.88558E-02
 -1      3116 5.74739E-02
 -1      3117 6.10569E-02
 -1      3118 3.81278E-02
 -1      3119 4.39004E-02
 -1      3120 4.86144E-02
 -1      3121 3.50002E-02
 -1      3122 3.63768E-02
 -1      3123 4.19081E-02
 -1      3124 6.03046E-02
 -1      3125 4.22968E-02
 -1      3126 4.74538E-02
 -1      3127 1.27725E-01
 -1      3128 8.65278E-02
 -1      3129 8.09736E-02
 -1      3130 2.35976E-01
 -1      3131 1.67608E-01
 -1      3132 1.47080E-01
 -1      3133 4.29333E-01
 -1      3134 3.08580E-01
 -1      3135 2.59567E-01
 -1      3136 7.70947E-01
 -1      3137 5.62381E-01
 -1      3138 4.65219E-01
 -1      3139 1.36217E+00
 -1      3140 1.00221E+00
 -1      3141 8.29533E-01
 -1      3142 2.49334E+00
 -1      3143 1.80440E+00
 -1      3144 1.50302E+00
 -1      3145 4.25508E+00
 -1      3146 3.07564E+00
 -1      3147 2.52754E+00
 -1      3148 1.10447E+01
 -1      3149 8.22254E+00
 -1      3150 7.07729E+00
 -1      3151 2.52219E+01
 -1      3152 1.21234E-01
 -1      3153 1.32651E-01
 -1      3154 2.13148E-01
 -1      3155 2.87135E-01
 -1      3156 1.15818E-01
 -1      3157 1.05945E-01
 -1      3158 1.50711E-01
 -1      3159 3.79115E-01
 -1      3160 4.06007E-01
 -1      3161 3.02955E-01
 -1      3162 1.55945E-01
 -1      3163 1.55945E-01
 -1      3164 1.55945E-01
 -1      3165 1.52168E-01
 -1      3166 1.87176E-01
 -1      3167 1.35552E-01
 -1      3168 1.35218E-01
 -1      3169 3.43677E+00
 -1      3170 4.77239E+00
 -1      3171 1.05921E+00
 -1      3172 1.43652E+00
 -1      3173 3.74030E-01
 -1      3174 3.62583E-01
 -1      3175 3.23090E+00
 -1      3176 2.96236E+00
 -1      3177 8.48422E+00
 -1      3178 1.11954E+01
 -1      3179 1.85314E+00
 -1      3180 2.52771E+00
 -1      3181 2.86265E+00
 -1      3182 4.25314E-01
 -1      3183 2.99642E+01
 -1      3184 1.80676E+01
 -1      3185 1.42897E-01
 -1      3186 1.45475E-01
 -1      3187 1.76705E-01
 -1      3188 1.58556E-01
 -1      3189 6.65840E+00
 -1      3190 7.73496E+00
 -1      3191 8.71103E+00
 -1      3192 1.14098E+01
 -1      3193 1.33950E+01
 -1      3194 6.01385E-01
 -1      3195 8.13601E-01
 -1      3196 8.74751E-01
 -1      3197 1.45853E+01
 -1      3198 1.30754E+01
 -1      3199 1.54475E+01
 -1      3200 9.96647E+00
 -1      3201 3.01541E+00
 -1      3202 3.49055E+00
 -1      3203 2.99937E-01
 -1      3204 2.94662E-01
 -1      3205 2.13007E-01
 -1      3206 2.57079E-01
 -1      3207 3.32021E-01
 -1      3208 4.61848E-01
 -1      3209 4.89607E-01
 -1      3210 1.75041E+01
 -1      3211 4.40682E+00
 -1      3212 3.54617E+00
 -1      3213 5.34717E+00
 -1      3214 5.70222E+00
 -1      3215 4.51272E+00
 -1      3216 5.17871E+00
 -1      3217 4.01638E+00
 -1      3218 3.23348E-01
 -1      3219 3.15460E-01
 -1      3220 3.95181E+00
 -1      3221 4.82973E+00
 -1      3222 1.45853E+01
 -1      3223 3.80903E-01
 -1      3224 1.33950E+01
 -1      3225 3.23040E-01
 -1      3226 3.24639E-01
 -1      3227 2.31307E-01
 -1      3228 5.18561E-01
 -1      3229 3.94909E+00
 -1      3230 7.32477E+00
 -1      3231 3.05183E-01
 -1      3232 8.65758E+00
 -1      3233 1.12203E+01
 -1      3234 3.79278E+00
 -1      3235 5.70971E+00
 -1      3236 1.54357E-01
 -1      3237 8.00831E+00
 -1      3238 1.13449E+01
 -1      3239 8.66020E+00
 -1      3240 3.40229E-01
 -1      3241 2.83901E-01
 -1      3242 3.19994E-01
 -1      3243 3.19994E-01
 -1      3244 2.74369E-01
 -1      3245 1.26707E-01
 -1      3246 1.46311E-01
 -1      3247 1.26707E-01
 -1      3248 1.69681E-01
 -1      3249 7.48354E+00
 -1      3250 3.58633E+00
 -1      3251 3.10222E+00
 -1      3252 3.01541E+00
 -1      3253 1.53697E+00
 -1      3254 3.14272E+00
 -1      3255 3.38986E+00
 -1      3256 4.10017E+00
 -1      3257 4.70829E+00
 -1      3258 3.75946E+00
 -1      3259 1.62567E-01
 -1      3260 1.52094E-01
 -1      3261 1.82587E-01
 -1      3262 1.97575E-01
 -1      3263 3.21108E-01
 -1      3264 3.21108E-01
 -1      3265 2.65219E-01
 -1      3266 1.36887E+01
 -1      3267 3.24749E-01
 -1      3268 3.23348E-01
 -1      3269 2.88455E-01
 -1      3270 2.84814E-01
 -1      3271 4.36856E+00
 -1      3272 3.11789E-01
 -1      3273 3.11571E-01
 -1      3274 2.84784E-01
 -1      3275 1.13384E+01
 -1      3276 7.30627E+00
 -1      3277 6.13366E+00
 -1      3278 4.47008E+00
 -1      3279 6.77896E+00
 -1      3280 2.02985E-01
 -1      3281 2.21641E-01
 -1      3282 3.41786E+00
 -1      3283 3.69551E+00
 -1      3284 3.21141E+00
 -1      3285 2.12818E-01
 -1      3286 2.09026E-01
 -1      3287 2.12934E-01
 -1      3288 2.01831E-01
 -1      3289 1.76329E-01
 -1      3290 1.98065E-01
 -1      3291 1.83681E-01
 -1      3292 1.76472E-01
 -1      3293 1.75718E-01
 -1      3294 1.62578E-01
 -1      3295 1.64743E-01
 -1      3296 1.52705E-01
 -1      3297 1.41973E-01
 -1      3298 1.46906E-01
 -1      3299 1.33837E-01
 -1      3300 1.22645E-01
 -1      3301 1.28896E-01
 -1      3302 1.14455E-01
 -1      3303 1.03823E-01
 -1      3304 1.12570E-01
 -1      3305 9.56409E-02
 -1      3306 8.61771E-02
 -1      3307 9.61980E-02
 -1      3308 7.85922E-02
 -1      3309 7.06555E-02
 -1      3310 8.04313E-02
 -1      3311 6.40082E-02
 -1      3312 5.78249E-02
 -1      3313 6.61990E-02
 -1      3314 5.25531E-02
 -1      3315 5.13977E-02
 -1      3316 5.42799E-02
 -1      3317 5.37874E-02
 -1      3318 5.99854E-02
 -1      3319 5.13977E-02
 -1      3320 6.80683E-02
 -1      3321 7.98592E-02
 -1      3322 6.18702E-02
 -1      3323 9.41935E-02
 -1      3324 1.13535E-01
 -1      3325 8.42874E-02
 -1      3326 1.35830E-01
 -1      3327 1.64722E-01
 -1      3328 1.20917E-01
 -1      3329 1.97631E-01
 -1      3330 2.38280E-01
 -1      3331 1.76121E-01
 -1      3332 2.84745E-01
 -1      3333 3.38791E-01
 -1      3334 2.55495E-01
 -1      3335 4.01194E-01
 -1      3336 4.68650E-01
 -1      3337 3.64363E-01
 -1      3338 5.47378E-01
 -1      3339 6.24981E-01
 -1      3340 5.05494E-01
 -1      3341 7.15644E-01
 -1      3342 7.95805E-01
 -1      3343 6.74884E-01
 -1      3344 8.87312E-01
 -1      3345 9.57952E-01
 -1      3346 8.57055E-01
 -1      3347 1.03450E+00
 -1      3348 1.10165E+00
 -1      3349 1.02511E+00
 -1      3350 1.20405E+00
 -1      3351 1.28638E+00
 -1      3352 1.20405E+00
 -1      3353 1.29952E+00
 -1      3354 1.35145E+00
 -1      3355 1.31958E+00
 -1      3356 1.43338E+00
 -1      3357 1.49043E+00
 -1      3358 1.41464E+00
 -1      3359 1.59280E+00
 -1      3360 1.60134E+00
 -1      3361 1.59895E+00
 -1      3362 1.60412E+00
 -1      3363 1.53387E+00
 -1      3364 1.70410E+00
 -1      3365 1.51960E+00
 -1      3366 1.58175E+00
 -1      3367 1.69261E+00
 -1      3368 1.61487E+00
 -1      3369 1.62314E+00
 -1      3370 1.71146E+00
 -1      3371 1.51483E+00
 -1      3372 1.45986E+00
 -1      3373 1.63628E+00
 -1      3374 1.37286E+00
 -1      3375 1.32362E+00
 -1      3376 1.44098E+00
 -1      3377 1.29581E+00
 -1      3378 1.21298E+00
 -1      3379 1.32616E+00
 -1      3380 1.13290E+00
 -1      3381 1.06384E+00
 -1      3382 1.21827E+00
 -1      3383 9.87732E-01
 -1      3384 9.21569E-01
 -1      3385 1.06209E+00
 -1      3386 8.30695E-01
 -1      3387 7.50515E-01
 -1      3388 8.95113E-01
 -1      3389 6.57372E-01
 -1      3390 5.77407E-01
 -1      3391 7.11096E-01
 -1      3392 4.94956E-01
 -1      3393 4.23798E-01
 -1      3394 5.35502E-01
 -1      3395 3.73381E-01
 -1      3396 3.15311E-01
 -1      3397 4.02635E-01
 -1      3398 2.52601E-01
 -1      3399 2.07642E-01
 -1      3400 1.88837E-01
 -1      3401 2.89508E-01
 -1      3402 1.30990E-01
 -1      3403 1.43931E-01
 -1      3404 1.09651E-01
 -1      3405 1.21588E-01
 -1      3406 1.21101E-01
 -1      3407 9.00066E-02
 -1      3408 1.00508E-01
 -1      3409 1.02557E-01
 -1      3410 7.25914E-02
 -1      3411 8.16190E-02
 -1      3412 8.50263E-02
 -1      3413 5.78938E-02
 -1      3414 6.53809E-02
 -1      3415 6.94283E-02
 -1      3416 4.74483E-02
 -1      3417 5.24037E-02
 -1      3418 5.67277E-02
 -1      3419 4.34412E-02
 -1      3420 4.51921E-02
 -1      3421 4.89814E-02
 -1      3422 5.32114E-02
 -1      3423 4.59148E-02
 -1      3424 4.91989E-02
 -1      3425 9.89039E-02
 -1      3426 7.26807E-02
 -1      3427 7.11418E-02
 -1      3428 1.69416E-01
 -1      3429 1.29533E-01
 -1      3430 1.21240E-01
 -1      3431 2.95802E-01
 -1      3432 2.23198E-01
 -1      3433 2.05652E-01
 -1      3434 5.14871E-01
 -1      3435 3.81823E-01
 -1      3436 3.45454E-01
 -1      3437 9.05999E-01
 -1      3438 6.74734E-01
 -1      3439 5.91337E-01
 -1      3440 1.66091E+00
 -1      3441 1.21869E+00
 -1      3442 1.06389E+00
 -1      3443 2.78775E+00
 -1      3444 2.20545E+00
 -1      3445 1.92112E+00
 -1      3446 7.39851E+00
 -1      3447 3.43106E+00
 -1      3448 3.10897E+00
 -1      3449 1.03134E+01
 -1      3450 2.52965E-01
 -1      3451 2.27862E-01
 -1      3452 2.43815E-01
 -1      3453 2.60740E-01
 -1      3454 2.60740E-01
 -1      3455 3.15287E-01
 -1      3456 3.23040E-01
 -1      3457 2.88546E-01
 -1      3458 2.28325E-01
 -1      3459 2.44983E-01
 -1      3460 2.00003E-01
 -1      3461 2.56447E-01
 -1      3462 3.84569E+00
 -1      3463 4.36313E+00
 -1      3464 3.86295E+00
 -1      3465 7.57478E+00
 -1      3466 2.94739E+00
 -1      3467 2.63212E+00
 -1      3468 4.81754E-01
 -1      3469 6.21291E-01
 -1      3470 4.76328E+00
 -1      3471 5.40227E+00
 -1      3472 6.17225E+00
 -1      3473 7.14833E+00
 -1      3474 2.22874E+00
 -1      3475 3.13780E+00
 -1      3476 2.92860E+00
 -1      3477 3.38986E+00
 -1      3478 3.38442E+00
 -1      3479 2.93111E+00
 -1      3480 4.05273E+00
 -1      3481 1.90204E-01
 -1      3482 2.01021E-01
 -1      3483 1.60623E-01
 -1      3484 2.70571E-01
 -1      3485 3.15457E-01
 -1      3486 4.47141E-01
 -1      3487 2.23422E-01
 -1      3488 2.44703E-01
 -1      3489 2.56281E-01
 -1      3490 2.06406E-01
 -1      3491 1.53271E-01
 -1      3492 1.66702E-01
 -1      3493 1.39843E-01
 -1      3494 7.17634E+00
 -1      3495 8.84196E+00
 -1      3496 8.54829E+00
 -1      3497 6.02382E+00
 -1      3498 1.78313E-01
 -1      3499 1.92527E-01
 -1      3500 1.82861E-01
 -1      3501 1.60793E-01
 -1      3502 1.25413E+00
 -1      3503 1.67075E+00
 -1      3504 1.94589E+00
 -1      3505 2.70104E-01
 -1      3506 2.85394E-01
 -1      3507 3.42816E-01
 -1      3508 4.14598E+00
 -1      3509 3.77269E+00
 -1      3510 3.73344E+00
 -1      3511 3.62311E+00
 -1      3512 6.93925E-01
 -1      3513 9.39532E-01
 -1      3514 1.07330E+00
 -1      3515 6.86072E-01
 -1      3516 2.85746E-01
 -1      3517 2.65242E-01
 -1      3518 2.02597E-01
 -1      3519 2.45008E-01
 -1      3520 8.97251E+00
 -1      3521 8.09055E+00
 -1      3522 7.31669E+00
 -1      3523 5.35192E+00
 -1      3524 2.06292E-01
 -1      3525 6.48402E+00
 -1      3526 6.60860E+00
 -1      3527 5.91699E+00
 -1      3528 4.90206E+00
 -1      3529 2.48200E-01
 -1      3530 2.43555E-01
 -1      3531 2.84830E-01
 -1      3532 2.59226E-01
 -1      3533 2.69697E-01
 -1      3534 3.43261E-01
 -1      3535 3.38840E-01
 -1      3536 2.65276E-01
 -1      3537 2.52699E-01
 -1      3538 2.52699E-01
 -1      3539 2.12353E-01
 -1      3540 3.22903E+00
 -1      3541 3.74530E+00
 -1      3542 2.63212E+00
 -1      3543 2.82746E+00
 -1      3544 2.93111E+00
 -1      3545 1.96516E-01
 -1      3546 2.19718E-01
 -1      3547 1.78340E-01
 -1      3548 2.88525E+00
 -1      3549 2.88525E+00
 -1      3550 2.97206E+00
 -1      3551 5.22583E+00
 -1      3552 3.03990E-01
 -1      3553 2.93101E-01
 -1      3554 4.27783E-01
 -1      3555 2.75675E-01
 -1      3556 3.47076E+00
 -1      3557 3.16929E+00
 -1      3558 2.65869E+00
 -1      3559 2.01144E-01
 -1      3560 2.53045E-01
 -1      3561 2.49375E-01
 -1      3562 3.28652E+00
 -1      3563 3.18925E+00
 -1      3564 4.24146E+00
 -1      3565 3.28652E+00
 -1      3566 3.05790E+00
 -1      3567 2.53045E-01
 -1      3568 2.53045E-01
 -1      3569 2.17636E-01
 -1      3570 2.88206E+00
 -1      3571 2.77287E+00
 -1      3572 5.42619E-01
 -1      3573 7.08916E-01
 -1      3574 6.04590E-01
 -1      3575 2.50388E+00
 -1      3576 3.22903E+00
 -1      3577 1.57314E-01
 -1      3578 1.53548E-01
 -1      3579 1.53164E-01
 -1      3580 1.45201E-01
 -1      3581 1.34006E-01
 -1      3582 1.40769E-01
 -1      3583 1.30896E-01
 -1      3584 1.29191E-01
 -1      3585 1.24278E-01
 -1      3586 1.16141E-01
 -1      3587 1.18141E-01
 -1      3588 1.08661E-01
 -1      3589 1.00471E-01
 -1      3590 1.04043E-01
 -1      3591 9.41170E-02
 -1      3592 8.59352E-02
 -1      3593 9.02084E-02
 -1      3594 7.94457E-02
 -1      3595 7.18608E-02
 -1      3596 7.73647E-02
 -1      3597 6.55627E-02
 -1      3598 5.89154E-02
 -1      3599 6.45771E-02
 -1      3600 5.30120E-02
 -1      3601 4.77401E-02
 -1      3602 5.23756E-02
 -1      3603 4.50448E-02
 -1      3604 4.74345E-02
 -1      3605 4.37769E-02
 -1      3606 5.14384E-02
 -1      3607 5.95212E-02
 -1      3608 4.50855E-02
 -1      3609 6.68479E-02
 -1      3610 8.11823E-02
 -1      3611 5.64161E-02
 -1      3612 9.94610E-02
 -1      3613 1.21756E-01
 -1      3614 8.20215E-02
 -1      3615 1.49989E-01
 -1      3616 1.82897E-01
 -1      3617 1.28533E-01
 -1      3618 2.21054E-01
 -1      3619 2.67520E-01
 -1      3620 1.94922E-01
 -1      3621 3.16610E-01
 -1      3622 3.79013E-01
 -1      3623 2.82170E-01
 -1      3624 4.36528E-01
 -1      3625 5.15256E-01
 -1      3626 3.88775E-01
 -1      3627 6.06478E-01
 -1      3628 6.97141E-01
 -1      3629 5.37512E-01
 -1      3630 8.07544E-01
 -1      3631 8.99051E-01
 -1      3632 7.39137E-01
 -1      3633 1.00899E+00
 -1      3634 1.08553E+00
 -1      3635 9.59475E-01
 -1      3636 1.48617E+00
 -1      3637 1.58857E+00
 -1      3638 1.47005E+00
 -1      3639 2.00103E+00
 -1      3640 2.01417E+00
 -1      3641 2.28315E+00
 -1      3642 1.95764E+00
 -1      3643 2.03957E+00
 -1      3644 2.63910E+00
 -1      3645 1.70780E+00
 -1      3646 1.81017E+00
 -1      3647 2.25080E+00
 -1      3648 2.10776E+00
 -1      3649 2.11054E+00
 -1      3650 2.21661E+00
 -1      3651 1.84172E+00
 -1      3652 1.82745E+00
 -1      3653 2.24538E+00
 -1      3654 2.07096E+00
 -1      3655 2.10409E+00
 -1      3656 2.22007E+00
 -1      3657 1.88309E+00
 -1      3658 1.77478E+00
 -1      3659 2.24258E+00
 -1      3660 1.62053E+00
 -1      3661 1.53352E+00
 -1      3662 1.86733E+00
 -1      3663 1.47334E+00
 -1      3664 1.44553E+00
 -1      3665 1.65289E+00
 -1      3666 1.32739E+00
 -1      3667 1.24731E+00
 -1      3668 1.47457E+00
 -1      3669 1.13819E+00
 -1      3670 1.06209E+00
 -1      3671 1.24731E+00
 -1      3672 9.45352E-01
 -1      3673 8.54478E-01
 -1      3674 1.02145E+00
 -1      3675 7.38700E-01
 -1      3676 6.45557E-01
 -1      3677 7.88939E-01
 -1      3678 5.47389E-01
 -1      3679 4.64938E-01
 -1      3680 5.74993E-01
 -1      3681 4.08184E-01
 -1      3682 3.57767E-01
 -1      3683 4.20070E-01
 -1      3684 3.52218E-01
 -1      3685 2.89508E-01
 -1      3686 7.71052E-02
 -1      3687 8.54928E-02
 -1      3688 1.08667E-01
 -1      3689 1.18069E-01
 -1      3690 2.48982E-01
 -1      3691 2.52699E-01
 -1      3692 2.16851E-01
 -1      3693 2.17244E-01
 -1      3694 6.38660E-02
 -1      3695 7.10764E-02
 -1      3696 7.15429E-02
 -1      3697 5.33026E-02
 -1      3698 5.87927E-02
 -1      3699 6.04408E-02
 -1      3700 4.76981E-02
 -1      3701 4.99543E-02
 -1      3702 5.20193E-02
 -1      3703 5.32632E-02
 -1      3704 5.07895E-02
 -1      3705 5.17624E-02
 -1      3706 8.52133E-02
 -1      3707 6.57441E-02
 -1      3708 6.73347E-02
 -1      3709 1.39983E-01
 -1      3710 1.09354E-01
 -1      3711 1.03956E-01
 -1      3712 2.36590E-01
 -1      3713 1.82807E-01
 -1      3714 1.70921E-01
 -1      3715 3.95801E-01
 -1      3716 3.09780E-01
 -1      3717 2.86936E-01
 -1      3718 6.74815E-01
 -1      3719 5.14952E-01
 -1      3720 4.79278E-01
 -1      3721 1.17576E+00
 -1      3722 8.63074E-01
 -1      3723 7.86688E-01
 -1      3724 2.00137E+00
 -1      3725 1.45683E+00
 -1      3726 1.25602E+00
 -1      3727 3.35263E+00
 -1      3728 2.70933E+00
 -1      3729 2.24504E+00
 -1      3730 3.64371E-01
 -1      3731 3.68907E-01
 -1      3732 5.33606E+00
 -1      3733 4.18629E+00
 -1      3734 3.78664E+00
 -1      3735 1.73501E-01
 -1      3736 1.80184E-01
 -1      3737 1.58643E-01
 -1      3738 1.58809E-01
 -1      3739 4.39777E+00
 -1      3740 5.16775E+00
 -1      3741 2.74422E+00
 -1      3742 3.45476E+00
 -1      3743 3.39669E+00
 -1      3744 2.70490E+00
 -1      3745 3.16073E+00
 -1      3746 1.58077E-01
 -1      3747 1.69874E-01
 -1      3748 1.48129E+00
 -1      3749 2.03928E+00
 -1      3750 1.25738E-01
 -1      3751 1.35078E-01
 -1      3752 1.13304E-01
 -1      3753 5.30805E+00
 -1      3754 2.49099E-01
 -1      3755 2.52740E-01
 -1      3756 2.17331E-01
 -1      3757 2.11742E-01
 -1      3758 3.91703E+00
 -1      3759 5.31477E+00
 -1      3760 4.48210E+00
 -1      3761 3.19188E+00
 -1      3762 1.74966E-01
 -1      3763 1.74686E-01
 -1      3764 1.48464E-01
 -1      3765 2.77879E+00
 -1      3766 2.91014E+00
 -1      3767 2.47161E+00
 -1      3768 1.47116E-01
 -1      3769 1.51025E-01
 -1      3770 1.44570E-01
 -1      3771 1.87591E-01
 -1      3772 6.00638E+00
 -1      3773 4.65245E+00
 -1      3774 3.46889E+00
 -1      3775 4.48210E+00
 -1      3776 3.29377E-01
 -1      3777 9.24979E-02
 -1      3778 1.01641E-01
 -1      3779 9.86085E-02
 -1      3780 7.81550E-01
 -1      3781 2.03928E+00
 -1      3782 3.57767E-01
 -1      3783 8.45767E-02
 -1      3784 4.47999E+00
 -1      3785 5.99416E-01
 -1      3786 5.73885E-01
 -1      3787 1.92090E-01
 -1      3788 9.30042E-01
 -1      3789 1.24464E+00
 -1      3790 1.33803E+00
 -1      3791 2.73158E+00
 -1      3792 2.50968E+00
 -1      3793 1.71496E-01
 -1      3794 1.51677E-01
 -1      3795 1.61038E-01
 -1      3796 1.64092E-01
 -1      3797 1.28101E-01
 -1      3798 2.70502E+00
 -1      3799 6.27587E-01
 -1      3800 3.97078E-01
 -1      3801 2.64272E+00
 -1      3802 2.43175E+00
 -1      3803 2.47509E+00
 -1      3804 2.25139E+00
 -1      3805 6.27587E-01
 -1      3806 1.27202E-01
 -1      3807 2.98048E+00
 -1      3808 3.30796E+00
 -1      3809 2.71779E+00
 -1      3810 1.85217E-01
 -1      3811 1.85217E-01
 -1      3812 2.76154E+00
 -1      3813 2.86519E+00
 -1      3814 2.57465E+00
 -1      3815 2.55859E+00
 -1      3816 2.27948E+00
 -1      3817 1.54029E-01
 -1      3818 1.86449E-01
 -1      3819 1.86056E-01
 -1      3820 3.15192E+00
 -1      3821 2.93477E+00
 -1      3822 2.50929E+00
 -1      3823 2.47239E+00
 -1      3824 2.55859E+00
 -1      3825 2.55859E+00
 -1      3826 2.05927E+00
 -1      3827 1.43492E-01
 -1      3828 1.55103E-01
 -1      3829 1.43737E-01
 -1      3830 1.29388E-01
 -1      3831 3.68831E-01
 -1      3832 3.59874E-01
 -1      3833 3.89941E-01
 -1      3834 3.74380E-01
 -1      3835 5.36957E-02
 -1      3836 5.87689E-02
 -1      3837 1.28282E-01
 -1      3838 1.23064E-01
 -1      3839 4.76676E-02
 -1      3840 5.10158E-02
 -1      3841 4.93440E-02
 -1      3842 1.17946E-01
 -1      3843 1.13514E-01
 -1      3844 1.10789E-01
 -1      3845 1.04171E-01
 -1      3846 9.95440E-02
 -1      3847 9.94813E-02
 -1      3848 9.20013E-02
 -1      3849 9.21292E-02
 -1      3850 8.64003E-02
 -1      3851 8.00461E-02
 -1      3852 8.18390E-02
 -1      3853 7.41509E-02
 -1      3854 6.76613E-02
 -1      3855 7.03428E-02
 -1      3856 6.18678E-02
 -1      3857 5.55698E-02
 -1      3858 5.86540E-02
 -1      3859 5.00191E-02
 -1      3860 4.41157E-02
 -1      3861 4.73098E-02
 -1      3862 3.87544E-02
 -1      3863 3.60591E-02
 -1      3864 3.63978E-02
 -1      3865 3.61272E-02
 -1      3866 4.01311E-02
 -1      3867 3.11047E-02
 -1      3868 4.65268E-02
 -1      3869 5.38535E-02
 -1      3870 3.75685E-02
 -1      3871 7.13351E-02
 -1      3872 8.96138E-02
 -1      3873 6.14458E-02
 -1      3874 1.14620E-01
 -1      3875 1.42853E-01
 -1      3876 1.03934E-01
 -1      3877 1.78087E-01
 -1      3878 2.16244E-01
 -1      3879 1.64174E-01
 -1      3880 2.64665E-01
 -1      3881 3.13755E-01
 -1      3882 2.47829E-01
 -1      3883 3.82637E-01
 -1      3884 4.40151E-01
 -1      3885 3.65132E-01
 -1      3886 5.23781E-01
 -1      3887 6.15003E-01
 -1      3888 5.17643E-01
 -1      3889 7.08159E-01
 -1      3890 8.18563E-01
 -1      3891 6.94428E-01
 -1      3892 1.20563E+00
 -1      3893 1.31556E+00
 -1      3894 1.17465E+00
 -1      3895 1.46321E+00
 -1      3896 1.86385E+00
 -1      3897 1.70936E+00
 -1      3898 2.28315E+00
 -1      3899 2.69562E+00
 -1      3900 2.58257E+00
 -1      3901 2.25080E+00
 -1      3902 2.53460E+00
 -1      3903 2.26577E+00
 -1      3904 2.22007E+00
 -1      3905 2.46358E+00
 -1      3906 2.47239E+00
 -1      3907 2.25139E+00
 -1      3908 2.02159E+00
 -1      3909 1.86733E+00
 -1      3910 1.92865E+00
 -1      3911 1.81051E+00
 -1      3912 1.54797E+00
 -1      3913 1.43884E+00
 -1      3914 2.00204E+00
 -1      3915 1.09502E+00
 -1      3916 9.78285E-01
 -1      3917 1.39567E+00
 -1      3918 8.60265E-01
 -1      3919 7.44487E-01
 -1      3920 9.33832E-01
 -1      3921 6.62671E-01
 -1      3922 5.64503E-01
 -1      3923 7.33997E-01
 -1      3924 4.62770E-01
 -1      3925 4.06016E-01
 -1      3926 4.17080E-01
 -1      3927 5.50449E-01
 -1      3928 7.46578E-02
 -1      3929 8.16629E-02
 -1      3930 5.67159E-01
 -1      3931 7.72137E-01
 -1      3932 1.92090E-01
 -1      3933 1.92090E-01
 -1      3934 1.61295E-01
 -1      3935 1.82054E-01
 -1      3936 1.82360E-01
 -1      3937 1.49940E-01
 -1      3938 1.29121E-01
 -1      3939 5.22575E-02
 -1      3940 4.91661E-02
 -1      3941 4.81627E-02
 -1      3942 7.43497E-02
 -1      3943 6.18688E-02
 -1      3944 5.92725E-02
 -1      3945 1.16015E-01
 -1      3946 9.18744E-02
 -1      3947 8.64085E-02
 -1      3948 1.89345E-01
 -1      3949 1.46521E-01
 -1      3950 1.34439E-01
 -1      3951 3.10841E-01
 -1      3952 2.37650E-01
 -1      3953 2.13250E-01
 -1      3954 5.00959E-01
 -1      3955 3.81808E-01
 -1      3956 3.32522E-01
 -1      3957 7.99210E-01
 -1      3958 6.10951E-01
 -1      3959 5.13481E-01
 -1      3960 1.28144E+00
 -1      3961 1.00037E+00
 -1      3962 8.24634E-01
 -1      3963 2.62774E+00
 -1      3964 1.91979E+00
 -1      3965 1.66415E+00
 -1      3966 1.67328E-01
 -1      3967 2.38214E+00
 -1      3968 2.35406E+00
 -1      3969 9.52886E-01
 -1      3970 2.09307E-01
 -1      3971 2.39981E+00
 -1      3972 3.82909E+00
 -1      3973 2.99544E+00
 -1      3974 2.67019E+00
 -1      3975 1.17675E-01
 -1      3976 1.17291E-01
 -1      3977 1.01614E-01
 -1      3978 8.04394E-01
 -1      3979 2.28853E+00
 -1      3980 2.48772E+00
 -1      3981 2.07756E+00
 -1      3982 2.19906E+00
 -1      3983 6.34632E-02
 -1      3984 6.94919E-02
 -1      3985 5.67180E-02
 -1      3986 2.69740E+00
 -1      3987 2.74578E+00
 -1      3988 3.68879E+00
 -1      3989 8.75133E-02
 -1      3990 9.45400E-02
 -1      3991 7.75944E-02
 -1      3992 1.00835E-01
 -1      3993 1.08504E-01
 -1      3994 8.97398E-02
 -1      3995 1.65983E+00
 -1      3996 2.12442E+00
 -1      3997 1.12835E-01
 -1      3998 9.67915E-02
 -1      3999 1.14754E-01
 -1      4000 9.26528E-02
 -1      4001 1.05293E-01
 -1      4002 1.11582E-01
 -1      4003 9.48663E-02
 -1      4004 1.89938E+00
 -1      4005 2.11959E+00
 -1      4006 8.76389E-01
 -1      4007 8.76389E-01
 -1      4008 1.02488E+00
 -1      4009 8.44132E-01
 -1      4010 1.35628E-01
 -1      4011 1.12870E-01
 -1      4012 9.63508E-02
 -1      4013 1.35628E-01
 -1      4014 3.68879E+00
 -1      4015 3.87988E+00
 -1      4016 3.46889E+00
 -1      4017 2.96957E+00
 -1      4018 2.76154E+00
 -1      4019 2.27631E+00
 -1      4020 2.70502E+00
 -1      4021 1.92331E+00
 -1      4022 1.01905E-01
 -1      4023 1.14374E-01
 -1      4024 1.22789E-01
 -1      4025 1.86313E+00
 -1      4026 6.65781E-02
 -1      4027 3.03788E+00
 -1      4028 1.32435E-01
 -1      4029 1.34440E-01
 -1      4030 1.09040E-01
 -1      4031 1.16334E+00
 -1      4032 1.39999E+00
 -1      4033 1.48513E+00
 -1      4034 1.08684E+00
 -1      4035 2.17434E+00
 -1      4036 2.55380E+00
 -1      4037 3.24180E+00
 -1      4038 2.28732E+00
 -1      4039 2.16635E+00
 -1      4040 2.45845E+00
 -1      4041 1.86801E+00
 -1      4042 3.85444E-01
 -1      4043 3.89941E-01
 -1      4044 5.62662E-01
 -1      4045 4.17080E-01
 -1      4046 1.24864E-01
 -1      4047 1.27721E-01
 -1      4048 9.25341E-02
 -1      4049 3.87988E+00
 -1      4050 1.79852E+00
 -1      4051 1.79852E+00
 -1      4052 1.28953E-01
 -1      4053 7.89764E-02
 -1      4054 8.50696E-02
 -1      4055 1.29595E-01
 -1      4056 1.35628E-01
 -1      4057 1.03929E-01
 -1      4058 5.14684E-02
 -1      4059 5.41482E-02
 -1      4060 9.01236E-02
 -1      4061 8.54344E-02
 -1      4062 8.32282E-02
 -1      4063 7.76273E-02
 -1      4064 8.12226E-02
 -1      4065 7.35774E-02
 -1      4066 6.76821E-02
 -1      4067 7.49666E-02
 -1      4068 6.35333E-02
 -1      4069 5.77398E-02
 -1      4070 6.67679E-02
 -1      4071 5.45666E-02
 -1      4072 4.90159E-02
 -1      4073 5.94459E-02
 -1      4074 4.80189E-02
 -1      4075 4.26576E-02
 -1      4076 5.52756E-02
 -1      4077 4.51394E-02
 -1      4078 4.52075E-02
 -1      4079 5.67604E-02
 -1      4080 5.29743E-02
 -1      4081 5.93699E-02
 -1      4082 6.70090E-02
 -1      4083 7.55172E-02
 -1      4084 9.29988E-02
 -1      4085 9.09230E-02
 -1      4086 1.21731E-01
 -1      4087 1.46738E-01
 -1      4088 1.35803E-01
 -1      4089 1.95673E-01
 -1      4090 2.30907E-01
 -1      4091 2.13470E-01
 -1      4092 3.02136E-01
 -1      4093 3.50557E-01
 -1      4094 3.33635E-01
 -1      4095 4.47930E-01
 -1      4096 5.16811E-01
 -1      4097 5.02237E-01
 -1      4098 6.30783E-01
 -1      4099 7.14412E-01
 -1      4100 7.13581E-01
 -1      4101 9.17691E-01
 -1      4102 1.01085E+00
 -1      4103 1.03083E+00
 -1      4104 1.32352E+00
 -1      4105 1.71059E+00
 -1      4106 1.54679E+00
 -1      4107 1.72037E+00
 -1      4108 1.29481E+00
 -1      4109 1.17679E+00
 -1      4110 8.52713E-01
 -1      4111 7.70897E-01
 -1      4112 1.21369E+00
 -1      4113 2.67019E+00
 -1      4114 2.67019E+00
 -1      4115 1.64740E-01
 -1      4116 1.34234E-01
 -1      4117 2.61980E-01
 -1      4118 2.13675E-01
 -1      4119 2.13470E-01
 -1      4120 4.04177E-01
 -1      4121 3.33210E-01
 -1      4122 3.33635E-01
 -1      4123 6.11541E-01
 -1      4124 5.01549E-01
 -1      4125 5.02237E-01
 -1      4126 9.26674E-01
 -1      4127 7.25512E-01
 -1      4128 7.13581E-01
 -1      4129 2.08098E+00
 -1      4130 1.44263E+00
 -1      4131 1.34351E+00
 -1      4132 9.17210E-02
 -1      4133 9.23760E-02
 -1      4134 7.58311E-02
 -1      4135 2.30250E+00
 -1      4136 5.73215E-02
 -1      4137 6.20157E-02
 -1      4138 5.94459E-02
 -1      4139 7.53803E-02
 -1      4140 8.12307E-02
 -1      4141 8.34368E-02
 -1      4142 8.97318E-02
 -1      4143 8.12226E-02
 -1      4144 5.44517E-02
 -1      4145 5.29532E-02
 -1      4146 5.77574E-02
 -1      4147 1.05502E-01
 -1      4148 8.79771E-02
 -1      4149 1.35803E-01
 -1      4150 1.26504E-01
 -1      4151 1.32439E-01
 -1      4152 1.11491E-01
 -1      4153 1.79852E+00
 -1      4154 1.63863E+00
 -1      4155 8.88507E-02
 -1      4156 8.61253E-02
 -1      4157 7.89572E-02
 -1      4158 1.95990E+00
 -1      4159 1.69914E+00
 -1      4160 2.87020E+00
 -1      4161 1.03287E-01
 -1      4162 3.87988E+00
 -1      4163 7.18298E-02
 -1      4164 6.22185E-02
 -1      4165 6.70090E-02
 -1      4166 9.09230E-02
 -1      4167 6.61645E-02
 -1      4168 7.13303E-02
 -1      4169 7.49666E-02
 -1      4170 6.67679E-02
 -1      4171 1.86924E+00
 -1      4172 9.60096E-02
 -1      4173 8.98516E-02
 -1      4174 1.25614E+00
 -1      4175 9.32064E-01
 -1      4176 8.03308E-02
 -1      4177 7.01019E-02
 -1      4178 8.02122E-02
 -1      4179 6.73007E-02
 -1      4180 8.97318E-02
 -1      4181 9.56018E-02
 -1      4182 8.34288E-02
 -1      4183 2.44867E+00
 -1      4184 2.08098E+00
 -1      4185 7.13131E-01
 -1      4186 6.11399E-01
 -1      4187 5.79763E-01
 -1      4188 8.31847E-01
 -1      4189 7.65237E-02
 -1      4190 6.89459E-02
 -1      4191 5.91493E-02
 -1      4192 7.65237E-02
 -1      4193 1.15202E-01
 -1      4194 1.41752E+00
 -1      4195 1.25614E+00
 -1      4196 2.08098E+00
 -1      4197 7.94304E-02
 -1      4198 1.48513E+00
 -1      4199 1.74497E+00
 -1      4200 6.72485E-01
 -1      4201 8.49703E-01
 -1      4202 8.66804E-01
 -1      4203 9.53955E-01
 -1      4204 1.53776E+00
 -1      4205 3.24180E+00
 -1      4206 8.08543E-02
 -1      4207 1.01044E-01
 -1      4208 1.01040E-01
 -1      4209 8.18517E-02
 -1      4210 7.90165E-02
 -1      4211 7.49666E-02
 -1      4212 7.09167E-02
 -1      4213 6.67679E-02
 -1      4214 6.26192E-02
 -1      4215 5.94459E-02
 -1      4216 5.62726E-02
 -1      4217 5.52756E-02
 -1      4218 5.67604E-02
 -1      4219 5.92423E-02
 -1      4220 6.70090E-02
 -1      4221 7.47757E-02
 -1      4222 9.09230E-02
 -1      4223 1.07070E-01
 -1      4224 1.35803E-01
 -1      4225 1.64535E-01
 -1      4226 2.13470E-01
 -1      4227 2.62405E-01
 -1      4228 3.33635E-01
 -1      4229 4.04864E-01
 -1      4230 5.02237E-01
 -1      4231 5.99609E-01
 -1      4232 7.13581E-01
 -1      4233 8.27552E-01
 -1      4234 1.34351E+00
 -1      4235 1.54679E+00
 -1      4236 1.85946E+00
 -1      4237 1.09241E+00
 -1      4238 1.80274E+00
 -1      4239 1.35974E+00
 -1      4240 7.80308E-02
 -1      4241 8.46822E-02
 -1      4242 1.35225E+00
 -1      4243 1.80274E+00
 -1      4244 2.23212E+00
 -1      4245 7.20124E-02
 -1      4246 7.60108E-02
 -1      4247 9.76568E-02
 -1      4248 1.01373E-01
 -1      4249 8.72103E-02
 -1      4250 8.54838E-02
 -1      4251 8.34288E-02
 -1      4252 8.12226E-02
 -1      4253 5.34494E-02
 -1      4254 9.67020E-01
 -1      4255 9.24570E-01
 -1      4256 8.50106E-02
 -1      4257 8.14854E-02
 -1      4258 8.34288E-02
 -1      4259 7.30006E-02
 -1      4260 6.29702E-02
 -1      4261 7.80658E-02
 -1      4262 7.60108E-02
 -3
 9999
