    1C
    1UUSER                                                              
    1UDATE              27.october.2022                                 
    1UTIME              01:02:50                                        
    1UHOST                                                              
    1UPGM               CalculiX                                        
    1UVERSION           Version 2.17                             
    1UCOMPILETIME       Thu Jul 23 21:43:50 CEST 2020                    
    1UDIR                                                               
    1UDBN                                                               
    1UMAT    1SOLIDMATERIAL                                             
    2C                          4259                                     1
 -1         1 9.64531E+01 1.72728E+01 0.00000E+00
 -1         2 1.09256E+02 1.33580E+01 0.00000E+00
 -1         3 1.50000E+02 0.00000E+00 0.00000E+00
 -1         4 1.50000E+02 5.00000E+01 0.00000E+00
 -1         5 0.00000E+00 0.00000E+00 0.00000E+00
 -1         6 0.00000E+00 5.00000E+01 0.00000E+00
 -1         7 0.00000E+00 4.70500E+01 0.00000E+00
 -1         8 0.00000E+00 4.41000E+01 0.00000E+00
 -1         9 0.00000E+00 4.11500E+01 0.00000E+00
 -1        10 0.00000E+00 3.82000E+01 0.00000E+00
 -1        11 0.00000E+00 3.52500E+01 0.00000E+00
 -1        12 0.00000E+00 3.23500E+01 0.00000E+00
 -1        13 0.00000E+00 2.94000E+01 0.00000E+00
 -1        14 0.00000E+00 2.64500E+01 0.00000E+00
 -1        15 0.00000E+00 2.35000E+01 0.00000E+00
 -1        16 0.00000E+00 2.05500E+01 0.00000E+00
 -1        17 0.00000E+00 1.76000E+01 0.00000E+00
 -1        18 0.00000E+00 1.47000E+01 0.00000E+00
 -1        19 0.00000E+00 1.17500E+01 0.00000E+00
 -1        20 0.00000E+00 8.80000E+00 0.00000E+00
 -1        21 0.00000E+00 5.85000E+00 0.00000E+00
 -1        22 0.00000E+00 2.90000E+00 0.00000E+00
 -1        23 3.15000E+00 5.00000E+01 0.00000E+00
 -1        24 6.15000E+00 5.00000E+01 0.00000E+00
 -1        25 9.15000E+00 5.00000E+01 0.00000E+00
 -1        26 1.21500E+01 5.00000E+01 0.00000E+00
 -1        27 1.51500E+01 5.00000E+01 0.00000E+00
 -1        28 1.81500E+01 5.00000E+01 0.00000E+00
 -1        29 2.11500E+01 5.00000E+01 0.00000E+00
 -1        30 2.41500E+01 5.00000E+01 0.00000E+00
 -1        31 2.71500E+01 5.00000E+01 0.00000E+00
 -1        32 3.01500E+01 5.00000E+01 0.00000E+00
 -1        33 3.31500E+01 5.00000E+01 0.00000E+00
 -1        34 3.61500E+01 5.00000E+01 0.00000E+00
 -1        35 3.91500E+01 5.00000E+01 0.00000E+00
 -1        36 4.21500E+01 5.00000E+01 0.00000E+00
 -1        37 4.51500E+01 5.00000E+01 0.00000E+00
 -1        38 4.81500E+01 5.00000E+01 0.00000E+00
 -1        39 5.11500E+01 5.00000E+01 0.00000E+00
 -1        40 5.41500E+01 5.00000E+01 0.00000E+00
 -1        41 5.71500E+01 5.00000E+01 0.00000E+00
 -1        42 6.01500E+01 5.00000E+01 0.00000E+00
 -1        43 6.31500E+01 5.00000E+01 0.00000E+00
 -1        44 6.61500E+01 5.00000E+01 0.00000E+00
 -1        45 6.91500E+01 5.00000E+01 0.00000E+00
 -1        46 7.21500E+01 5.00000E+01 0.00000E+00
 -1        47 7.51500E+01 5.00000E+01 0.00000E+00
 -1        48 7.81500E+01 5.00000E+01 0.00000E+00
 -1        49 8.11500E+01 5.00000E+01 0.00000E+00
 -1        50 8.41500E+01 5.00000E+01 0.00000E+00
 -1        51 8.71500E+01 5.00000E+01 0.00000E+00
 -1        52 9.01500E+01 5.00000E+01 0.00000E+00
 -1        53 9.31500E+01 5.00000E+01 0.00000E+00
 -1        54 9.61500E+01 5.00000E+01 0.00000E+00
 -1        55 9.91500E+01 5.00000E+01 0.00000E+00
 -1        56 1.02150E+02 5.00000E+01 0.00000E+00
 -1        57 1.05150E+02 5.00000E+01 0.00000E+00
 -1        58 1.08150E+02 5.00000E+01 0.00000E+00
 -1        59 1.11150E+02 5.00000E+01 0.00000E+00
 -1        60 1.14150E+02 5.00000E+01 0.00000E+00
 -1        61 1.17150E+02 5.00000E+01 0.00000E+00
 -1        62 1.20150E+02 5.00000E+01 0.00000E+00
 -1        63 1.23150E+02 5.00000E+01 0.00000E+00
 -1        64 1.26150E+02 5.00000E+01 0.00000E+00
 -1        65 1.29150E+02 5.00000E+01 0.00000E+00
 -1        66 1.32150E+02 5.00000E+01 0.00000E+00
 -1        67 1.35150E+02 5.00000E+01 0.00000E+00
 -1        68 1.38150E+02 5.00000E+01 0.00000E+00
 -1        69 1.41150E+02 5.00000E+01 0.00000E+00
 -1        70 1.44150E+02 5.00000E+01 0.00000E+00
 -1        71 1.47150E+02 5.00000E+01 0.00000E+00
 -1        72 3.15000E+00 0.00000E+00 0.00000E+00
 -1        73 6.15000E+00 0.00000E+00 0.00000E+00
 -1        74 9.15000E+00 0.00000E+00 0.00000E+00
 -1        75 1.21500E+01 0.00000E+00 0.00000E+00
 -1        76 1.51500E+01 0.00000E+00 0.00000E+00
 -1        77 1.83000E+01 0.00000E+00 0.00000E+00
 -1        78 2.13000E+01 0.00000E+00 0.00000E+00
 -1        79 2.43000E+01 0.00000E+00 0.00000E+00
 -1        80 2.73000E+01 0.00000E+00 0.00000E+00
 -1        81 3.03000E+01 0.00000E+00 0.00000E+00
 -1        82 3.34500E+01 0.00000E+00 0.00000E+00
 -1        83 3.64500E+01 0.00000E+00 0.00000E+00
 -1        84 3.94500E+01 0.00000E+00 0.00000E+00
 -1        85 4.24500E+01 0.00000E+00 0.00000E+00
 -1        86 4.54500E+01 0.00000E+00 0.00000E+00
 -1        87 4.86000E+01 0.00000E+00 0.00000E+00
 -1        88 5.16000E+01 0.00000E+00 0.00000E+00
 -1        89 5.46000E+01 0.00000E+00 0.00000E+00
 -1        90 5.76000E+01 0.00000E+00 0.00000E+00
 -1        91 6.06000E+01 0.00000E+00 0.00000E+00
 -1        92 6.37500E+01 0.00000E+00 0.00000E+00
 -1        93 6.67500E+01 0.00000E+00 0.00000E+00
 -1        94 6.97500E+01 0.00000E+00 0.00000E+00
 -1        95 7.27500E+01 0.00000E+00 0.00000E+00
 -1        96 7.57500E+01 0.00000E+00 0.00000E+00
 -1        97 7.87500E+01 0.00000E+00 0.00000E+00
 -1        98 8.19000E+01 0.00000E+00 0.00000E+00
 -1        99 8.49000E+01 0.00000E+00 0.00000E+00
 -1       100 8.79000E+01 0.00000E+00 0.00000E+00
 -1       101 9.09000E+01 0.00000E+00 0.00000E+00
 -1       102 9.39000E+01 0.00000E+00 0.00000E+00
 -1       103 9.69000E+01 0.00000E+00 0.00000E+00
 -1       104 9.93000E+01 0.00000E+00 0.00000E+00
 -1       105 1.01700E+02 0.00000E+00 0.00000E+00
 -1       106 1.03650E+02 0.00000E+00 0.00000E+00
 -1       107 1.06200E+02 0.00000E+00 0.00000E+00
 -1       108 1.08450E+02 0.00000E+00 0.00000E+00
 -1       109 1.11000E+02 0.00000E+00 0.00000E+00
 -1       110 1.13700E+02 0.00000E+00 0.00000E+00
 -1       111 1.16700E+02 0.00000E+00 0.00000E+00
 -1       112 1.19850E+02 0.00000E+00 0.00000E+00
 -1       113 1.22850E+02 0.00000E+00 0.00000E+00
 -1       114 1.25850E+02 0.00000E+00 0.00000E+00
 -1       115 1.28850E+02 0.00000E+00 0.00000E+00
 -1       116 1.31850E+02 0.00000E+00 0.00000E+00
 -1       117 1.35000E+02 0.00000E+00 0.00000E+00
 -1       118 1.38000E+02 0.00000E+00 0.00000E+00
 -1       119 1.41000E+02 0.00000E+00 0.00000E+00
 -1       120 1.44000E+02 0.00000E+00 0.00000E+00
 -1       121 1.47000E+02 0.00000E+00 0.00000E+00
 -1       122 1.50000E+02 2.95000E+00 0.00000E+00
 -1       123 1.50000E+02 5.90000E+00 0.00000E+00
 -1       124 1.50000E+02 8.85000E+00 0.00000E+00
 -1       125 1.50000E+02 1.18000E+01 0.00000E+00
 -1       126 1.50000E+02 1.47500E+01 0.00000E+00
 -1       127 1.50000E+02 1.76500E+01 0.00000E+00
 -1       128 1.50000E+02 2.06000E+01 0.00000E+00
 -1       129 1.50000E+02 2.35500E+01 0.00000E+00
 -1       130 1.50000E+02 2.65000E+01 0.00000E+00
 -1       131 1.50000E+02 2.94500E+01 0.00000E+00
 -1       132 1.50000E+02 3.24000E+01 0.00000E+00
 -1       133 1.50000E+02 3.53000E+01 0.00000E+00
 -1       134 1.50000E+02 3.82500E+01 0.00000E+00
 -1       135 1.50000E+02 4.12000E+01 0.00000E+00
 -1       136 1.50000E+02 4.41500E+01 0.00000E+00
 -1       137 1.50000E+02 4.71000E+01 0.00000E+00
 -1       138 1.09110E+02 1.19379E+01 0.00000E+00
 -1       139 1.08629E+02 1.04617E+01 0.00000E+00
 -1       140 1.07896E+02 9.21142E+00 0.00000E+00
 -1       141 1.06934E+02 8.15025E+00 0.00000E+00
 -1       142 1.05734E+02 7.28325E+00 0.00000E+00
 -1       143 1.04478E+02 6.72018E+00 0.00000E+00
 -1       144 1.02967E+02 6.39421E+00 0.00000E+00
 -1       145 1.01580E+02 6.39077E+00 0.00000E+00
 -1       146 1.00094E+02 6.70016E+00 0.00000E+00
 -1       147 9.88309E+01 7.25324E+00 0.00000E+00
 -1       148 9.76212E+01 8.11220E+00 0.00000E+00
 -1       149 9.66639E+01 9.14763E+00 0.00000E+00
 -1       150 9.59254E+01 1.03710E+01 0.00000E+00
 -1       151 9.54427E+01 1.17521E+01 0.00000E+00
 -1       152 9.52575E+01 1.32153E+01 0.00000E+00
 -1       153 9.53737E+01 1.46362E+01 0.00000E+00
 -1       154 9.57587E+01 1.59627E+01 0.00000E+00
 -1       155 9.74091E+01 1.84085E+01 0.00000E+00
 -1       156 9.86307E+01 1.93461E+01 0.00000E+00
 -1       157 9.99572E+01 1.99698E+01 0.00000E+00
 -1       158 1.01512E+02 2.03184E+01 0.00000E+00
 -1       159 1.02976E+02 2.03209E+01 0.00000E+00
 -1       160 1.04439E+02 2.00090E+01 0.00000E+00
 -1       161 1.05750E+02 1.94237E+01 0.00000E+00
 -1       162 1.06988E+02 1.85162E+01 0.00000E+00
 -1       163 1.07995E+02 1.73665E+01 0.00000E+00
 -1       164 1.08688E+02 1.61206E+01 0.00000E+00
 -1       165 1.09112E+02 1.47690E+01 0.00000E+00
 -1       166 2.59800E+00 4.55750E+01 0.00000E+00
 -1       167 2.59800E+00 4.26250E+01 0.00000E+00
 -1       168 2.59800E+00 3.96750E+01 0.00000E+00
 -1       169 2.59800E+00 3.67250E+01 0.00000E+00
 -1       170 2.59800E+00 3.38250E+01 0.00000E+00
 -1       171 2.59800E+00 3.08750E+01 0.00000E+00
 -1       172 2.59800E+00 2.79250E+01 0.00000E+00
 -1       173 2.59800E+00 2.49750E+01 0.00000E+00
 -1       174 2.59800E+00 2.20250E+01 0.00000E+00
 -1       175 2.59800E+00 1.90750E+01 0.00000E+00
 -1       176 2.59800E+00 1.61750E+01 0.00000E+00
 -1       177 2.59800E+00 1.32250E+01 0.00000E+00
 -1       178 2.59800E+00 1.02750E+01 0.00000E+00
 -1       179 2.59800E+00 7.32500E+00 0.00000E+00
 -1       180 2.59800E+00 4.37500E+00 0.00000E+00
 -1       181 2.87400E+00 2.18750E+00 0.00000E+00
 -1       182 4.65000E+00 4.74020E+01 0.00000E+00
 -1       183 7.65000E+00 4.74020E+01 0.00000E+00
 -1       184 1.06500E+01 4.74020E+01 0.00000E+00
 -1       185 1.36500E+01 4.74020E+01 0.00000E+00
 -1       186 1.66500E+01 4.74020E+01 0.00000E+00
 -1       187 1.96500E+01 4.74020E+01 0.00000E+00
 -1       188 2.26500E+01 4.74020E+01 0.00000E+00
 -1       189 2.56500E+01 4.74020E+01 0.00000E+00
 -1       190 2.86500E+01 4.74020E+01 0.00000E+00
 -1       191 3.16500E+01 4.74020E+01 0.00000E+00
 -1       192 3.46500E+01 4.74020E+01 0.00000E+00
 -1       193 3.76500E+01 4.74020E+01 0.00000E+00
 -1       194 4.06500E+01 4.74020E+01 0.00000E+00
 -1       195 4.36500E+01 4.74020E+01 0.00000E+00
 -1       196 4.66500E+01 4.74020E+01 0.00000E+00
 -1       197 4.96500E+01 4.74020E+01 0.00000E+00
 -1       198 5.26500E+01 4.74020E+01 0.00000E+00
 -1       199 5.56500E+01 4.74020E+01 0.00000E+00
 -1       200 5.86500E+01 4.74020E+01 0.00000E+00
 -1       201 6.16500E+01 4.74020E+01 0.00000E+00
 -1       202 6.46500E+01 4.74020E+01 0.00000E+00
 -1       203 6.76500E+01 4.74020E+01 0.00000E+00
 -1       204 7.06500E+01 4.74020E+01 0.00000E+00
 -1       205 7.36500E+01 4.74020E+01 0.00000E+00
 -1       206 7.66500E+01 4.74020E+01 0.00000E+00
 -1       207 7.96500E+01 4.74020E+01 0.00000E+00
 -1       208 8.26500E+01 4.74020E+01 0.00000E+00
 -1       209 8.56500E+01 4.74020E+01 0.00000E+00
 -1       210 8.86500E+01 4.74020E+01 0.00000E+00
 -1       211 9.16500E+01 4.74020E+01 0.00000E+00
 -1       212 9.46500E+01 4.74020E+01 0.00000E+00
 -1       213 9.76500E+01 4.74020E+01 0.00000E+00
 -1       214 1.00650E+02 4.74020E+01 0.00000E+00
 -1       215 1.03650E+02 4.74020E+01 0.00000E+00
 -1       216 1.06650E+02 4.74020E+01 0.00000E+00
 -1       217 1.09650E+02 4.74020E+01 0.00000E+00
 -1       218 1.12650E+02 4.74020E+01 0.00000E+00
 -1       219 1.15650E+02 4.74020E+01 0.00000E+00
 -1       220 1.18650E+02 4.74020E+01 0.00000E+00
 -1       221 1.21650E+02 4.74020E+01 0.00000E+00
 -1       222 1.24650E+02 4.74020E+01 0.00000E+00
 -1       223 1.27650E+02 4.74020E+01 0.00000E+00
 -1       224 1.30650E+02 4.74020E+01 0.00000E+00
 -1       225 1.33650E+02 4.74020E+01 0.00000E+00
 -1       226 1.36650E+02 4.74020E+01 0.00000E+00
 -1       227 1.39650E+02 4.74020E+01 0.00000E+00
 -1       228 1.42650E+02 4.74020E+01 0.00000E+00
 -1       229 1.45650E+02 4.74020E+01 0.00000E+00
 -1       230 5.87400E+00 2.18750E+00 0.00000E+00
 -1       231 8.87400E+00 2.18750E+00 0.00000E+00
 -1       232 1.18740E+01 2.18750E+00 0.00000E+00
 -1       233 1.48740E+01 2.18750E+00 0.00000E+00
 -1       234 1.80240E+01 2.18750E+00 0.00000E+00
 -1       235 2.10240E+01 2.18750E+00 0.00000E+00
 -1       236 2.40240E+01 2.18750E+00 0.00000E+00
 -1       237 2.70240E+01 2.18750E+00 0.00000E+00
 -1       238 3.00240E+01 2.18750E+00 0.00000E+00
 -1       239 3.31740E+01 2.18750E+00 0.00000E+00
 -1       240 3.61740E+01 2.18750E+00 0.00000E+00
 -1       241 3.91740E+01 2.18750E+00 0.00000E+00
 -1       242 4.21740E+01 2.18750E+00 0.00000E+00
 -1       243 4.51740E+01 2.18750E+00 0.00000E+00
 -1       244 4.83240E+01 2.18750E+00 0.00000E+00
 -1       245 5.13240E+01 2.18750E+00 0.00000E+00
 -1       246 5.43240E+01 2.18750E+00 0.00000E+00
 -1       247 5.73240E+01 2.18750E+00 0.00000E+00
 -1       248 6.03240E+01 2.18750E+00 0.00000E+00
 -1       249 6.34740E+01 2.18750E+00 0.00000E+00
 -1       250 6.64740E+01 2.18750E+00 0.00000E+00
 -1       251 6.94740E+01 2.18750E+00 0.00000E+00
 -1       252 7.24740E+01 2.18750E+00 0.00000E+00
 -1       253 7.54740E+01 2.18750E+00 0.00000E+00
 -1       254 7.84740E+01 2.18750E+00 0.00000E+00
 -1       255 8.16240E+01 2.18750E+00 0.00000E+00
 -1       256 8.46240E+01 2.18750E+00 0.00000E+00
 -1       257 8.76240E+01 2.18750E+00 0.00000E+00
 -1       258 9.06240E+01 2.18750E+00 0.00000E+00
 -1       259 9.36240E+01 2.18750E+00 0.00000E+00
 -1       260 9.66240E+01 2.18750E+00 0.00000E+00
 -1       261 9.90240E+01 2.18750E+00 0.00000E+00
 -1       262 1.01424E+02 2.18750E+00 0.00000E+00
 -1       263 1.03374E+02 2.18750E+00 0.00000E+00
 -1       264 1.05924E+02 2.18750E+00 0.00000E+00
 -1       265 1.08174E+02 2.18750E+00 0.00000E+00
 -1       266 1.10724E+02 2.18750E+00 0.00000E+00
 -1       267 1.13424E+02 2.18750E+00 0.00000E+00
 -1       268 1.16424E+02 2.18750E+00 0.00000E+00
 -1       269 1.19574E+02 2.18750E+00 0.00000E+00
 -1       270 1.22574E+02 2.18750E+00 0.00000E+00
 -1       271 1.25574E+02 2.18750E+00 0.00000E+00
 -1       272 1.28574E+02 2.18750E+00 0.00000E+00
 -1       273 1.31574E+02 2.18750E+00 0.00000E+00
 -1       274 1.34724E+02 2.18750E+00 0.00000E+00
 -1       275 1.37724E+02 2.18750E+00 0.00000E+00
 -1       276 1.40724E+02 2.18750E+00 0.00000E+00
 -1       277 1.43724E+02 2.18750E+00 0.00000E+00
 -1       278 1.46724E+02 2.18750E+00 0.00000E+00
 -1       279 1.47402E+02 4.42500E+00 0.00000E+00
 -1       280 1.47402E+02 7.37500E+00 0.00000E+00
 -1       281 1.47402E+02 1.03250E+01 0.00000E+00
 -1       282 1.47402E+02 1.32750E+01 0.00000E+00
 -1       283 1.47402E+02 1.61750E+01 0.00000E+00
 -1       284 1.47402E+02 1.91250E+01 0.00000E+00
 -1       285 1.47402E+02 2.20750E+01 0.00000E+00
 -1       286 1.47402E+02 2.50250E+01 0.00000E+00
 -1       287 1.47402E+02 2.79750E+01 0.00000E+00
 -1       288 1.47402E+02 3.09250E+01 0.00000E+00
 -1       289 1.47402E+02 3.38250E+01 0.00000E+00
 -1       290 1.47402E+02 3.67750E+01 0.00000E+00
 -1       291 1.47402E+02 3.97250E+01 0.00000E+00
 -1       292 1.47402E+02 4.26750E+01 0.00000E+00
 -1       293 1.46526E+02 4.50385E+01 0.00000E+00
 -1       294 1.10389E+02 1.25243E+01 0.00000E+00
 -1       295 1.10181E+02 1.07717E+01 0.00000E+00
 -1       296 1.09308E+02 9.22336E+00 0.00000E+00
 -1       297 1.08313E+02 7.86647E+00 0.00000E+00
 -1       298 1.07240E+02 6.46257E+00 0.00000E+00
 -1       299 1.05602E+02 5.89545E+00 0.00000E+00
 -1       300 1.04014E+02 5.20824E+00 0.00000E+00
 -1       301 1.02276E+02 5.18009E+00 0.00000E+00
 -1       302 1.00573E+02 5.27651E+00 0.00000E+00
 -1       303 9.89765E+01 5.86604E+00 0.00000E+00
 -1       304 9.74756E+01 6.62587E+00 0.00000E+00
 -1       305 9.62524E+01 7.80682E+00 0.00000E+00
 -1       306 9.51849E+01 9.08942E+00 0.00000E+00
 -1       307 9.44604E+01 1.06340E+01 0.00000E+00
 -1       308 9.39811E+01 1.23104E+01 0.00000E+00
 -1       309 9.40237E+01 1.40314E+01 0.00000E+00
 -1       310 9.44018E+01 1.56374E+01 0.00000E+00
 -1       311 9.48866E+01 1.72640E+01 0.00000E+00
 -1       312 9.60036E+01 1.86214E+01 0.00000E+00
 -1       313 9.71797E+01 1.99720E+01 0.00000E+00
 -1       314 9.87781E+01 2.07551E+01 0.00000E+00
 -1       315 1.00451E+02 2.14089E+01 0.00000E+00
 -1       316 1.02242E+02 2.15320E+01 0.00000E+00
 -1       317 1.03960E+02 2.13507E+01 0.00000E+00
 -1       318 1.05589E+02 2.08235E+01 0.00000E+00
 -1       319 1.07086E+02 1.99479E+01 0.00000E+00
 -1       320 1.08530E+02 1.88504E+01 0.00000E+00
 -1       321 1.09401E+02 1.73330E+01 0.00000E+00
 -1       322 1.10057E+02 1.58081E+01 0.00000E+00
 -1       323 1.10390E+02 1.41864E+01 0.00000E+00
 -1       324 5.19600E+00 4.11500E+01 0.00000E+00
 -1       325 5.19600E+00 4.41000E+01 0.00000E+00
 -1       326 5.19600E+00 3.52750E+01 0.00000E+00
 -1       327 5.19600E+00 3.23250E+01 0.00000E+00
 -1       328 5.19600E+00 2.93750E+01 0.00000E+00
 -1       329 5.19600E+00 2.64250E+01 0.00000E+00
 -1       330 5.19600E+00 2.34750E+01 0.00000E+00
 -1       331 5.19600E+00 2.05250E+01 0.00000E+00
 -1       332 5.19600E+00 1.76250E+01 0.00000E+00
 -1       333 5.19600E+00 1.46750E+01 0.00000E+00
 -1       334 5.19600E+00 1.17250E+01 0.00000E+00
 -1       335 5.19600E+00 8.77500E+00 0.00000E+00
 -1       336 5.19600E+00 5.82500E+00 0.00000E+00
 -1       337 5.53500E+00 4.00625E+00 0.00000E+00
 -1       338 8.53500E+00 4.00625E+00 0.00000E+00
 -1       339 9.15000E+00 4.48040E+01 0.00000E+00
 -1       340 1.21500E+01 4.48040E+01 0.00000E+00
 -1       341 1.51500E+01 4.48040E+01 0.00000E+00
 -1       342 1.81500E+01 4.48040E+01 0.00000E+00
 -1       343 2.11500E+01 4.48040E+01 0.00000E+00
 -1       344 2.41500E+01 4.48040E+01 0.00000E+00
 -1       345 2.71500E+01 4.48040E+01 0.00000E+00
 -1       346 3.01500E+01 4.48040E+01 0.00000E+00
 -1       347 3.31500E+01 4.48040E+01 0.00000E+00
 -1       348 3.61500E+01 4.48040E+01 0.00000E+00
 -1       349 3.91500E+01 4.48040E+01 0.00000E+00
 -1       350 4.21500E+01 4.48040E+01 0.00000E+00
 -1       351 4.51500E+01 4.48040E+01 0.00000E+00
 -1       352 4.81500E+01 4.48040E+01 0.00000E+00
 -1       353 5.11500E+01 4.48040E+01 0.00000E+00
 -1       354 5.41500E+01 4.48040E+01 0.00000E+00
 -1       355 5.71500E+01 4.48040E+01 0.00000E+00
 -1       356 6.01500E+01 4.48040E+01 0.00000E+00
 -1       357 6.31500E+01 4.48040E+01 0.00000E+00
 -1       358 6.61500E+01 4.48040E+01 0.00000E+00
 -1       359 6.91500E+01 4.48040E+01 0.00000E+00
 -1       360 7.21500E+01 4.48040E+01 0.00000E+00
 -1       361 7.51500E+01 4.48040E+01 0.00000E+00
 -1       362 7.81500E+01 4.48040E+01 0.00000E+00
 -1       363 8.11500E+01 4.48040E+01 0.00000E+00
 -1       364 8.41500E+01 4.48040E+01 0.00000E+00
 -1       365 8.71500E+01 4.48040E+01 0.00000E+00
 -1       366 9.01500E+01 4.48040E+01 0.00000E+00
 -1       367 9.31500E+01 4.48040E+01 0.00000E+00
 -1       368 9.61500E+01 4.48040E+01 0.00000E+00
 -1       369 9.91500E+01 4.48040E+01 0.00000E+00
 -1       370 1.02150E+02 4.48040E+01 0.00000E+00
 -1       371 1.05150E+02 4.48040E+01 0.00000E+00
 -1       372 1.08150E+02 4.48040E+01 0.00000E+00
 -1       373 1.11150E+02 4.48040E+01 0.00000E+00
 -1       374 1.14150E+02 4.48040E+01 0.00000E+00
 -1       375 1.17150E+02 4.48040E+01 0.00000E+00
 -1       376 1.20150E+02 4.48040E+01 0.00000E+00
 -1       377 1.23150E+02 4.48040E+01 0.00000E+00
 -1       378 1.26150E+02 4.48040E+01 0.00000E+00
 -1       379 1.29150E+02 4.48040E+01 0.00000E+00
 -1       380 1.32150E+02 4.48040E+01 0.00000E+00
 -1       381 1.35150E+02 4.48040E+01 0.00000E+00
 -1       382 1.38150E+02 4.48040E+01 0.00000E+00
 -1       383 1.41150E+02 4.48040E+01 0.00000E+00
 -1       384 1.43838E+02 4.49212E+01 0.00000E+00
 -1       385 1.15350E+01 4.00625E+00 0.00000E+00
 -1       386 1.45350E+01 4.00625E+00 0.00000E+00
 -1       387 1.76850E+01 4.00625E+00 0.00000E+00
 -1       388 2.06850E+01 4.00625E+00 0.00000E+00
 -1       389 2.36850E+01 4.00625E+00 0.00000E+00
 -1       390 2.66850E+01 4.00625E+00 0.00000E+00
 -1       391 2.96850E+01 4.00625E+00 0.00000E+00
 -1       392 3.28350E+01 4.00625E+00 0.00000E+00
 -1       393 3.58350E+01 4.00625E+00 0.00000E+00
 -1       394 3.88350E+01 4.00625E+00 0.00000E+00
 -1       395 4.18350E+01 4.00625E+00 0.00000E+00
 -1       396 4.48350E+01 4.00625E+00 0.00000E+00
 -1       397 4.79850E+01 4.00625E+00 0.00000E+00
 -1       398 5.09850E+01 4.00625E+00 0.00000E+00
 -1       399 5.39850E+01 4.00625E+00 0.00000E+00
 -1       400 5.69850E+01 4.00625E+00 0.00000E+00
 -1       401 5.99850E+01 4.00625E+00 0.00000E+00
 -1       402 6.31350E+01 4.00625E+00 0.00000E+00
 -1       403 6.61350E+01 4.00625E+00 0.00000E+00
 -1       404 6.91350E+01 4.00625E+00 0.00000E+00
 -1       405 7.21350E+01 4.00625E+00 0.00000E+00
 -1       406 7.51350E+01 4.00625E+00 0.00000E+00
 -1       407 7.81350E+01 4.00625E+00 0.00000E+00
 -1       408 8.12850E+01 4.00625E+00 0.00000E+00
 -1       409 8.42850E+01 4.00625E+00 0.00000E+00
 -1       410 8.72850E+01 4.00625E+00 0.00000E+00
 -1       411 9.02850E+01 4.00625E+00 0.00000E+00
 -1       412 9.32850E+01 4.00625E+00 0.00000E+00
 -1       413 9.62850E+01 4.00625E+00 0.00000E+00
 -1       414 1.02399E+02 3.73504E+00 0.00000E+00
 -1       415 1.04649E+02 3.81882E+00 0.00000E+00
 -1       416 1.07049E+02 3.90261E+00 0.00000E+00
 -1       417 1.09599E+02 3.90261E+00 0.00000E+00
 -1       418 1.12299E+02 3.90261E+00 0.00000E+00
 -1       419 1.15299E+02 3.90261E+00 0.00000E+00
 -1       420 1.18449E+02 3.90261E+00 0.00000E+00
 -1       421 1.21449E+02 3.90261E+00 0.00000E+00
 -1       422 1.24449E+02 3.90261E+00 0.00000E+00
 -1       423 1.27449E+02 3.90261E+00 0.00000E+00
 -1       424 1.30449E+02 3.90261E+00 0.00000E+00
 -1       425 1.33599E+02 3.90261E+00 0.00000E+00
 -1       426 1.36599E+02 3.90261E+00 0.00000E+00
 -1       427 1.39599E+02 3.90261E+00 0.00000E+00
 -1       428 1.42599E+02 3.90261E+00 0.00000E+00
 -1       429 1.45001E+02 4.16380E+00 0.00000E+00
 -1       430 1.44804E+02 1.18000E+01 0.00000E+00
 -1       431 1.44804E+02 8.85000E+00 0.00000E+00
 -1       432 1.44902E+02 6.50690E+00 0.00000E+00
 -1       433 1.44804E+02 1.47000E+01 0.00000E+00
 -1       434 1.44804E+02 1.76500E+01 0.00000E+00
 -1       435 1.44804E+02 2.06000E+01 0.00000E+00
 -1       436 1.44804E+02 2.35500E+01 0.00000E+00
 -1       437 1.44804E+02 2.65000E+01 0.00000E+00
 -1       438 1.44804E+02 2.94500E+01 0.00000E+00
 -1       439 1.44804E+02 3.23500E+01 0.00000E+00
 -1       440 1.44804E+02 3.53000E+01 0.00000E+00
 -1       441 1.44804E+02 3.82500E+01 0.00000E+00
 -1       442 1.44804E+02 4.12000E+01 0.00000E+00
 -1       443 1.11093E+02 9.23722E+00 0.00000E+00
 -1       444 1.11937E+02 1.33544E+01 0.00000E+00
 -1       445 1.11730E+02 1.16018E+01 0.00000E+00
 -1       446 1.10097E+02 7.88033E+00 0.00000E+00
 -1       447 1.08873E+02 6.32685E+00 0.00000E+00
 -1       448 5.19600E+00 3.82125E+01 0.00000E+00
 -1       449 1.00695E+02 3.83146E+00 0.00000E+00
 -1       450 9.90991E+01 4.42099E+00 0.00000E+00
 -1       451 9.75983E+01 5.18082E+00 0.00000E+00
 -1       452 9.59055E+01 6.22353E+00 0.00000E+00
 -1       453 9.46579E+01 7.56537E+00 0.00000E+00
 -1       454 9.36492E+01 9.31121E+00 0.00000E+00
 -1       455 9.27328E+01 1.10467E+01 0.00000E+00
 -1       456 9.27066E+01 1.32030E+01 0.00000E+00
 -1       457 9.27880E+01 1.51699E+01 0.00000E+00
 -1       458 9.32727E+01 1.67965E+01 0.00000E+00
 -1       459 9.43795E+01 1.88195E+01 0.00000E+00
 -1       460 9.55556E+01 2.01701E+01 0.00000E+00
 -1       461 9.73718E+01 2.16028E+01 0.00000E+00
 -1       462 9.91428E+01 2.22893E+01 0.00000E+00
 -1       463 1.01240E+02 2.30143E+01 0.00000E+00
 -1       464 1.03246E+02 2.28137E+01 0.00000E+00
 -1       465 1.05225E+02 2.24796E+01 0.00000E+00
 -1       466 1.07118E+02 2.17215E+01 0.00000E+00
 -1       467 1.08693E+02 2.05645E+01 0.00000E+00
 -1       468 1.10307E+02 1.88621E+01 0.00000E+00
 -1       469 1.10996E+02 1.71159E+01 0.00000E+00
 -1       470 1.11575E+02 1.52752E+01 0.00000E+00
 -1       471 1.00350E+01 6.60425E+00 0.00000E+00
 -1       472 7.79400E+00 3.08500E+01 0.00000E+00
 -1       473 7.79400E+00 3.38000E+01 0.00000E+00
 -1       474 7.79400E+00 2.49500E+01 0.00000E+00
 -1       475 7.79400E+00 2.20000E+01 0.00000E+00
 -1       476 7.79400E+00 1.91000E+01 0.00000E+00
 -1       477 7.79400E+00 1.61500E+01 0.00000E+00
 -1       478 7.79400E+00 1.32000E+01 0.00000E+00
 -1       479 7.79400E+00 1.02500E+01 0.00000E+00
 -1       480 1.10949E+02 6.12042E+00 0.00000E+00
 -1       481 1.13949E+02 6.12042E+00 0.00000E+00
 -1       482 1.30350E+01 6.60425E+00 0.00000E+00
 -1       483 1.06500E+01 4.22060E+01 0.00000E+00
 -1       484 1.36500E+01 4.22060E+01 0.00000E+00
 -1       485 1.66500E+01 4.22060E+01 0.00000E+00
 -1       486 1.96500E+01 4.22060E+01 0.00000E+00
 -1       487 2.26500E+01 4.22060E+01 0.00000E+00
 -1       488 2.56500E+01 4.22060E+01 0.00000E+00
 -1       489 2.86500E+01 4.22060E+01 0.00000E+00
 -1       490 3.16500E+01 4.22060E+01 0.00000E+00
 -1       491 3.46500E+01 4.22060E+01 0.00000E+00
 -1       492 3.76500E+01 4.22060E+01 0.00000E+00
 -1       493 4.06500E+01 4.22060E+01 0.00000E+00
 -1       494 4.36500E+01 4.22060E+01 0.00000E+00
 -1       495 4.66500E+01 4.22060E+01 0.00000E+00
 -1       496 4.96500E+01 4.22060E+01 0.00000E+00
 -1       497 5.26500E+01 4.22060E+01 0.00000E+00
 -1       498 5.56500E+01 4.22060E+01 0.00000E+00
 -1       499 5.86500E+01 4.22060E+01 0.00000E+00
 -1       500 6.16500E+01 4.22060E+01 0.00000E+00
 -1       501 6.46500E+01 4.22060E+01 0.00000E+00
 -1       502 6.76500E+01 4.22060E+01 0.00000E+00
 -1       503 7.06500E+01 4.22060E+01 0.00000E+00
 -1       504 7.36500E+01 4.22060E+01 0.00000E+00
 -1       505 7.66500E+01 4.22060E+01 0.00000E+00
 -1       506 7.96500E+01 4.22060E+01 0.00000E+00
 -1       507 8.26500E+01 4.22060E+01 0.00000E+00
 -1       508 8.56500E+01 4.22060E+01 0.00000E+00
 -1       509 8.86500E+01 4.22060E+01 0.00000E+00
 -1       510 9.16500E+01 4.22060E+01 0.00000E+00
 -1       511 9.46500E+01 4.22060E+01 0.00000E+00
 -1       512 9.76500E+01 4.22060E+01 0.00000E+00
 -1       513 1.00650E+02 4.22060E+01 0.00000E+00
 -1       514 1.03650E+02 4.22060E+01 0.00000E+00
 -1       515 1.06650E+02 4.22060E+01 0.00000E+00
 -1       516 1.09650E+02 4.22060E+01 0.00000E+00
 -1       517 1.12650E+02 4.22060E+01 0.00000E+00
 -1       518 1.15650E+02 4.22060E+01 0.00000E+00
 -1       519 1.18650E+02 4.22060E+01 0.00000E+00
 -1       520 1.21650E+02 4.22060E+01 0.00000E+00
 -1       521 1.24650E+02 4.22060E+01 0.00000E+00
 -1       522 1.27650E+02 4.22060E+01 0.00000E+00
 -1       523 1.30650E+02 4.22060E+01 0.00000E+00
 -1       524 1.33650E+02 4.22060E+01 0.00000E+00
 -1       525 1.36650E+02 4.22060E+01 0.00000E+00
 -1       526 1.39650E+02 4.22060E+01 0.00000E+00
 -1       527 1.91850E+01 6.60425E+00 0.00000E+00
 -1       528 2.21850E+01 6.60425E+00 0.00000E+00
 -1       529 2.51850E+01 6.60425E+00 0.00000E+00
 -1       530 2.81850E+01 6.60425E+00 0.00000E+00
 -1       531 3.13350E+01 6.60425E+00 0.00000E+00
 -1       532 3.43350E+01 6.60425E+00 0.00000E+00
 -1       533 3.73350E+01 6.60425E+00 0.00000E+00
 -1       534 4.03350E+01 6.60425E+00 0.00000E+00
 -1       535 4.33350E+01 6.60425E+00 0.00000E+00
 -1       536 4.64850E+01 6.60425E+00 0.00000E+00
 -1       537 4.94850E+01 6.60425E+00 0.00000E+00
 -1       538 5.24850E+01 6.60425E+00 0.00000E+00
 -1       539 5.54850E+01 6.60425E+00 0.00000E+00
 -1       540 5.84850E+01 6.60425E+00 0.00000E+00
 -1       541 6.16350E+01 6.60425E+00 0.00000E+00
 -1       542 6.46350E+01 6.60425E+00 0.00000E+00
 -1       543 6.76350E+01 6.60425E+00 0.00000E+00
 -1       544 7.06350E+01 6.60425E+00 0.00000E+00
 -1       545 7.36350E+01 6.60425E+00 0.00000E+00
 -1       546 7.66350E+01 6.60425E+00 0.00000E+00
 -1       547 7.97850E+01 6.60425E+00 0.00000E+00
 -1       548 8.27850E+01 6.60425E+00 0.00000E+00
 -1       549 8.57850E+01 6.60425E+00 0.00000E+00
 -1       550 8.87850E+01 6.60425E+00 0.00000E+00
 -1       551 9.17850E+01 6.60425E+00 0.00000E+00
 -1       552 1.17099E+02 6.12042E+00 0.00000E+00
 -1       553 1.20099E+02 6.12042E+00 0.00000E+00
 -1       554 1.23099E+02 6.12042E+00 0.00000E+00
 -1       555 1.26099E+02 6.12042E+00 0.00000E+00
 -1       556 1.29099E+02 6.12042E+00 0.00000E+00
 -1       557 1.32249E+02 6.12042E+00 0.00000E+00
 -1       558 1.35249E+02 6.12042E+00 0.00000E+00
 -1       559 1.38249E+02 6.12042E+00 0.00000E+00
 -1       560 1.41249E+02 6.12042E+00 0.00000E+00
 -1       561 1.43076E+02 6.31366E+00 0.00000E+00
 -1       562 1.42206E+02 1.61750E+01 0.00000E+00
 -1       563 1.42206E+02 1.91250E+01 0.00000E+00
 -1       564 1.42206E+02 1.03250E+01 0.00000E+00
 -1       565 1.42206E+02 1.32500E+01 0.00000E+00
 -1       566 1.42206E+02 2.20750E+01 0.00000E+00
 -1       567 1.42206E+02 2.50250E+01 0.00000E+00
 -1       568 1.42206E+02 2.79750E+01 0.00000E+00
 -1       569 1.42206E+02 3.08750E+01 0.00000E+00
 -1       570 1.42206E+02 3.38250E+01 0.00000E+00
 -1       571 1.42206E+02 3.67750E+01 0.00000E+00
 -1       572 1.42206E+02 3.97250E+01 0.00000E+00
 -1       573 1.61100E+01 6.60425E+00 0.00000E+00
 -1       574 1.13703E+02 1.22564E+01 0.00000E+00
 -1       575 1.13606E+02 1.46636E+01 0.00000E+00
 -1       576 7.92300E+00 4.16780E+01 0.00000E+00
 -1       577 1.12602E+02 1.66096E+01 0.00000E+00
 -1       578 9.12011E+01 1.42504E+01 0.00000E+00
 -1       579 7.79400E+00 2.79000E+01 0.00000E+00
 -1       580 1.13229E+02 9.92986E+00 0.00000E+00
 -1       581 9.42097E+01 5.89776E+00 0.00000E+00
 -1       582 9.76374E+01 2.35452E+01 0.00000E+00
 -1       583 9.28862E+01 7.70598E+00 0.00000E+00
 -1       584 9.19698E+01 9.44150E+00 0.00000E+00
 -1       585 9.10885E+01 1.21051E+01 0.00000E+00
 -1       586 9.13867E+01 1.64730E+01 0.00000E+00
 -1       587 9.24684E+01 1.85508E+01 0.00000E+00
 -1       588 9.36741E+01 2.06212E+01 0.00000E+00
 -1       589 9.54903E+01 2.20539E+01 0.00000E+00
 -1       590 9.97350E+01 2.42703E+01 0.00000E+00
 -1       591 1.02397E+02 2.44539E+01 0.00000E+00
 -1       592 1.04493E+02 2.41726E+01 0.00000E+00
 -1       593 1.06810E+02 2.36928E+01 0.00000E+00
 -1       594 1.08921E+02 2.25252E+01 0.00000E+00
 -1       595 1.10684E+02 2.08356E+01 0.00000E+00
 -1       596 1.12247E+02 1.86185E+01 0.00000E+00
 -1       597 7.61550E+00 6.21462E+00 0.00000E+00
 -1       598 7.79400E+00 3.67375E+01 0.00000E+00
 -1       599 9.03255E+01 1.04998E+01 0.00000E+00
 -1       600 1.12248E+02 7.34613E+00 0.00000E+00
 -1       601 1.41678E+02 4.22645E+01 0.00000E+00
 -1       602 1.41727E+02 8.22271E+00 0.00000E+00
 -1       603 1.03920E+01 2.05500E+01 0.00000E+00
 -1       604 1.03920E+01 2.35000E+01 0.00000E+00
 -1       605 1.03920E+01 1.46750E+01 0.00000E+00
 -1       606 1.03920E+01 1.17250E+01 0.00000E+00
 -1       607 1.15350E+01 9.20225E+00 0.00000E+00
 -1       608 1.51500E+01 3.96080E+01 0.00000E+00
 -1       609 1.81500E+01 3.96080E+01 0.00000E+00
 -1       610 2.11500E+01 3.96080E+01 0.00000E+00
 -1       611 2.41500E+01 3.96080E+01 0.00000E+00
 -1       612 2.71500E+01 3.96080E+01 0.00000E+00
 -1       613 3.01500E+01 3.96080E+01 0.00000E+00
 -1       614 3.31500E+01 3.96080E+01 0.00000E+00
 -1       615 3.61500E+01 3.96080E+01 0.00000E+00
 -1       616 3.91500E+01 3.96080E+01 0.00000E+00
 -1       617 4.21500E+01 3.96080E+01 0.00000E+00
 -1       618 4.51500E+01 3.96080E+01 0.00000E+00
 -1       619 4.81500E+01 3.96080E+01 0.00000E+00
 -1       620 5.11500E+01 3.96080E+01 0.00000E+00
 -1       621 5.41500E+01 3.96080E+01 0.00000E+00
 -1       622 5.71500E+01 3.96080E+01 0.00000E+00
 -1       623 6.01500E+01 3.96080E+01 0.00000E+00
 -1       624 6.31500E+01 3.96080E+01 0.00000E+00
 -1       625 6.61500E+01 3.96080E+01 0.00000E+00
 -1       626 6.91500E+01 3.96080E+01 0.00000E+00
 -1       627 7.21500E+01 3.96080E+01 0.00000E+00
 -1       628 7.51500E+01 3.96080E+01 0.00000E+00
 -1       629 7.81500E+01 3.96080E+01 0.00000E+00
 -1       630 8.11500E+01 3.96080E+01 0.00000E+00
 -1       631 8.41500E+01 3.96080E+01 0.00000E+00
 -1       632 8.71500E+01 3.96080E+01 0.00000E+00
 -1       633 9.01500E+01 3.96080E+01 0.00000E+00
 -1       634 9.31500E+01 3.96080E+01 0.00000E+00
 -1       635 9.61500E+01 3.96080E+01 0.00000E+00
 -1       636 9.91500E+01 3.96080E+01 0.00000E+00
 -1       637 1.02150E+02 3.96080E+01 0.00000E+00
 -1       638 1.05150E+02 3.96080E+01 0.00000E+00
 -1       639 1.08150E+02 3.96080E+01 0.00000E+00
 -1       640 1.11150E+02 3.96080E+01 0.00000E+00
 -1       641 1.14150E+02 3.96080E+01 0.00000E+00
 -1       642 1.17150E+02 3.96080E+01 0.00000E+00
 -1       643 1.20150E+02 3.96080E+01 0.00000E+00
 -1       644 1.23150E+02 3.96080E+01 0.00000E+00
 -1       645 1.26150E+02 3.96080E+01 0.00000E+00
 -1       646 1.29150E+02 3.96080E+01 0.00000E+00
 -1       647 1.32150E+02 3.96080E+01 0.00000E+00
 -1       648 1.35150E+02 3.96080E+01 0.00000E+00
 -1       649 1.38150E+02 3.96080E+01 0.00000E+00
 -1       650 2.36850E+01 9.20225E+00 0.00000E+00
 -1       651 9.04063E+01 1.83039E+01 0.00000E+00
 -1       652 2.06850E+01 9.20225E+00 0.00000E+00
 -1       653 2.97600E+01 9.20225E+00 0.00000E+00
 -1       654 3.27600E+01 9.20225E+00 0.00000E+00
 -1       655 3.57600E+01 9.20225E+00 0.00000E+00
 -1       656 3.87600E+01 9.20225E+00 0.00000E+00
 -1       657 4.17600E+01 9.20225E+00 0.00000E+00
 -1       658 4.49100E+01 9.20225E+00 0.00000E+00
 -1       659 4.79100E+01 9.20225E+00 0.00000E+00
 -1       660 5.09100E+01 9.20225E+00 0.00000E+00
 -1       661 5.39100E+01 9.20225E+00 0.00000E+00
 -1       662 5.69100E+01 9.20225E+00 0.00000E+00
 -1       663 6.00600E+01 9.20225E+00 0.00000E+00
 -1       664 6.30600E+01 9.20225E+00 0.00000E+00
 -1       665 6.60600E+01 9.20225E+00 0.00000E+00
 -1       666 6.90600E+01 9.20225E+00 0.00000E+00
 -1       667 7.20600E+01 9.20225E+00 0.00000E+00
 -1       668 7.50600E+01 9.20225E+00 0.00000E+00
 -1       669 7.82100E+01 9.20225E+00 0.00000E+00
 -1       670 8.12100E+01 9.20225E+00 0.00000E+00
 -1       671 8.42100E+01 9.20225E+00 0.00000E+00
 -1       672 8.72100E+01 9.20225E+00 0.00000E+00
 -1       673 9.00481E+01 8.45411E+00 0.00000E+00
 -1       674 1.21599E+02 8.71842E+00 0.00000E+00
 -1       675 1.24599E+02 8.71842E+00 0.00000E+00
 -1       676 1.27599E+02 8.71842E+00 0.00000E+00
 -1       677 1.30749E+02 8.71842E+00 0.00000E+00
 -1       678 1.33749E+02 8.71842E+00 0.00000E+00
 -1       679 1.36749E+02 8.71842E+00 0.00000E+00
 -1       680 1.39238E+02 8.47057E+00 0.00000E+00
 -1       681 1.40178E+02 3.96665E+01 0.00000E+00
 -1       682 1.03662E+02 2.59301E+01 0.00000E+00
 -1       683 1.39608E+02 2.35500E+01 0.00000E+00
 -1       684 1.39608E+02 1.76500E+01 0.00000E+00
 -1       685 1.39608E+02 2.65000E+01 0.00000E+00
 -1       686 1.39608E+02 2.06000E+01 0.00000E+00
 -1       687 1.15536E+02 1.35355E+01 0.00000E+00
 -1       688 1.39608E+02 2.94000E+01 0.00000E+00
 -1       689 1.39608E+02 3.23500E+01 0.00000E+00
 -1       690 1.39608E+02 3.53000E+01 0.00000E+00
 -1       691 1.15475E+02 1.06838E+01 0.00000E+00
 -1       692 1.00948E+02 2.60731E+01 0.00000E+00
 -1       693 9.80711E+01 2.56871E+01 0.00000E+00
 -1       694 2.66850E+01 9.20225E+00 0.00000E+00
 -1       695 1.21500E+01 3.96080E+01 0.00000E+00
 -1       696 1.13005E+02 2.08119E+01 0.00000E+00
 -1       697 8.95847E+01 1.55044E+01 0.00000E+00
 -1       698 1.03920E+01 1.76125E+01 0.00000E+00
 -1       699 1.03920E+01 3.23250E+01 0.00000E+00
 -1       700 9.14444E+01 2.05334E+01 0.00000E+00
 -1       701 1.18599E+02 8.71842E+00 0.00000E+00
 -1       702 1.14444E+02 1.79708E+01 0.00000E+00
 -1       703 8.94721E+01 1.33591E+01 0.00000E+00
 -1       704 9.34162E+01 2.28157E+01 0.00000E+00
 -1       705 9.55633E+01 2.43070E+01 0.00000E+00
 -1       706 1.05999E+02 2.56121E+01 0.00000E+00
 -1       707 1.08776E+02 2.47566E+01 0.00000E+00
 -1       708 1.11106E+02 2.30396E+01 0.00000E+00
 -1       709 1.14990E+02 1.57531E+01 0.00000E+00
 -1       710 1.03920E+01 3.52625E+01 0.00000E+00
 -1       711 1.03920E+01 2.64500E+01 0.00000E+00
 -1       712 1.46100E+01 9.20225E+00 0.00000E+00
 -1       713 1.03920E+01 2.93875E+01 0.00000E+00
 -1       714 8.86043E+01 1.73354E+01 0.00000E+00
 -1       715 8.87091E+01 1.17538E+01 0.00000E+00
 -1       716 1.39608E+02 1.47250E+01 0.00000E+00
 -1       717 1.39608E+02 1.18000E+01 0.00000E+00
 -1       718 1.76475E+01 9.20225E+00 0.00000E+00
 -1       719 1.38879E+02 3.74540E+01 0.00000E+00
 -1       720 1.05210E+01 3.87342E+01 0.00000E+00
 -1       721 1.29900E+01 1.32000E+01 0.00000E+00
 -1       722 1.02413E+02 2.80490E+01 0.00000E+00
 -1       723 1.96500E+01 3.70100E+01 0.00000E+00
 -1       724 2.26500E+01 3.70100E+01 0.00000E+00
 -1       725 2.56500E+01 3.70100E+01 0.00000E+00
 -1       726 2.86500E+01 3.70100E+01 0.00000E+00
 -1       727 3.16500E+01 3.70100E+01 0.00000E+00
 -1       728 3.46500E+01 3.70100E+01 0.00000E+00
 -1       729 3.76500E+01 3.70100E+01 0.00000E+00
 -1       730 4.06500E+01 3.70100E+01 0.00000E+00
 -1       731 4.36500E+01 3.70100E+01 0.00000E+00
 -1       732 4.66500E+01 3.70100E+01 0.00000E+00
 -1       733 4.96500E+01 3.70100E+01 0.00000E+00
 -1       734 5.26500E+01 3.70100E+01 0.00000E+00
 -1       735 5.56500E+01 3.70100E+01 0.00000E+00
 -1       736 5.86500E+01 3.70100E+01 0.00000E+00
 -1       737 6.16500E+01 3.70100E+01 0.00000E+00
 -1       738 6.46500E+01 3.70100E+01 0.00000E+00
 -1       739 6.76500E+01 3.70100E+01 0.00000E+00
 -1       740 7.06500E+01 3.70100E+01 0.00000E+00
 -1       741 7.36500E+01 3.70100E+01 0.00000E+00
 -1       742 7.66500E+01 3.70100E+01 0.00000E+00
 -1       743 7.96500E+01 3.70100E+01 0.00000E+00
 -1       744 8.26500E+01 3.70100E+01 0.00000E+00
 -1       745 8.56500E+01 3.70100E+01 0.00000E+00
 -1       746 8.86500E+01 3.70100E+01 0.00000E+00
 -1       747 9.16500E+01 3.70100E+01 0.00000E+00
 -1       748 9.46500E+01 3.70100E+01 0.00000E+00
 -1       749 9.76500E+01 3.70100E+01 0.00000E+00
 -1       750 1.00650E+02 3.70100E+01 0.00000E+00
 -1       751 1.03650E+02 3.70100E+01 0.00000E+00
 -1       752 1.06650E+02 3.70100E+01 0.00000E+00
 -1       753 1.09650E+02 3.70100E+01 0.00000E+00
 -1       754 1.12650E+02 3.70100E+01 0.00000E+00
 -1       755 1.15650E+02 3.70100E+01 0.00000E+00
 -1       756 1.18650E+02 3.70100E+01 0.00000E+00
 -1       757 1.21650E+02 3.70100E+01 0.00000E+00
 -1       758 1.24650E+02 3.70100E+01 0.00000E+00
 -1       759 1.27650E+02 3.70100E+01 0.00000E+00
 -1       760 1.30650E+02 3.70100E+01 0.00000E+00
 -1       761 1.33650E+02 3.70100E+01 0.00000E+00
 -1       762 1.36264E+02 3.72320E+01 0.00000E+00
 -1       763 1.36500E+01 3.70100E+01 0.00000E+00
 -1       764 1.18660E+02 1.15701E+01 0.00000E+00
 -1       765 3.42600E+01 1.18003E+01 0.00000E+00
 -1       766 3.12600E+01 1.18003E+01 0.00000E+00
 -1       767 4.02600E+01 1.18003E+01 0.00000E+00
 -1       768 4.34100E+01 1.18003E+01 0.00000E+00
 -1       769 4.64100E+01 1.18003E+01 0.00000E+00
 -1       770 4.94100E+01 1.18003E+01 0.00000E+00
 -1       771 5.24100E+01 1.18003E+01 0.00000E+00
 -1       772 5.54100E+01 1.18003E+01 0.00000E+00
 -1       773 5.85600E+01 1.18003E+01 0.00000E+00
 -1       774 6.15600E+01 1.18003E+01 0.00000E+00
 -1       775 6.45600E+01 1.18003E+01 0.00000E+00
 -1       776 6.75600E+01 1.18003E+01 0.00000E+00
 -1       777 7.05600E+01 1.18003E+01 0.00000E+00
 -1       778 7.35600E+01 1.18003E+01 0.00000E+00
 -1       779 7.67100E+01 1.18003E+01 0.00000E+00
 -1       780 7.97100E+01 1.18003E+01 0.00000E+00
 -1       781 8.27100E+01 1.18003E+01 0.00000E+00
 -1       782 8.57100E+01 1.18003E+01 0.00000E+00
 -1       783 1.26099E+02 1.13164E+01 0.00000E+00
 -1       784 1.29249E+02 1.13164E+01 0.00000E+00
 -1       785 1.11158E+02 2.55484E+01 0.00000E+00
 -1       786 3.72600E+01 1.18003E+01 0.00000E+00
 -1       787 1.23099E+02 1.13164E+01 0.00000E+00
 -1       788 1.32249E+02 1.13164E+01 0.00000E+00
 -1       789 1.35249E+02 1.13164E+01 0.00000E+00
 -1       790 1.37428E+02 1.15582E+01 0.00000E+00
 -1       791 8.90667E+01 2.02841E+01 0.00000E+00
 -1       792 1.07942E+02 2.69836E+01 0.00000E+00
 -1       793 1.29900E+01 2.20250E+01 0.00000E+00
 -1       794 1.20210E+01 3.61362E+01 0.00000E+00
 -1       795 1.05062E+02 2.74706E+01 0.00000E+00
 -1       796 1.37010E+02 2.50250E+01 0.00000E+00
 -1       797 1.37010E+02 3.38250E+01 0.00000E+00
 -1       798 1.37010E+02 2.79250E+01 0.00000E+00
 -1       799 2.81850E+01 1.18003E+01 0.00000E+00
 -1       800 2.51850E+01 1.18003E+01 0.00000E+00
 -1       801 1.38000E+01 1.12011E+01 0.00000E+00
 -1       802 1.37010E+02 3.08750E+01 0.00000E+00
 -1       803 9.59903E+01 2.64997E+01 0.00000E+00
 -1       804 2.21850E+01 1.18003E+01 0.00000E+00
 -1       805 1.66500E+01 3.70100E+01 0.00000E+00
 -1       806 8.78157E+01 1.45216E+01 0.00000E+00
 -1       807 9.92370E+01 2.79122E+01 0.00000E+00
 -1       808 9.33202E+01 2.52453E+01 0.00000E+00
 -1       809 1.13615E+02 2.32558E+01 0.00000E+00
 -1       810 9.08789E+01 2.30149E+01 0.00000E+00
 -1       811 1.15553E+02 2.03178E+01 0.00000E+00
 -1       812 1.29900E+01 2.49750E+01 0.00000E+00
 -1       813 1.18279E+02 1.44301E+01 0.00000E+00
 -1       814 1.16852E+02 1.82681E+01 0.00000E+00
 -1       815 1.10323E+02 2.77754E+01 0.00000E+00
 -1       816 1.37010E+02 1.61875E+01 0.00000E+00
 -1       817 1.37010E+02 1.91375E+01 0.00000E+00
 -1       818 1.37010E+02 2.20812E+01 0.00000E+00
 -1       819 1.91475E+01 1.18003E+01 0.00000E+00
 -1       820 1.29900E+01 1.61375E+01 0.00000E+00
 -1       821 8.68353E+01 1.63525E+01 0.00000E+00
 -1       822 1.29900E+01 1.90812E+01 0.00000E+00
 -1       823 9.71561E+01 2.87247E+01 0.00000E+00
 -1       824 1.20210E+01 3.31987E+01 0.00000E+00
 -1       825 1.20210E+01 3.02612E+01 0.00000E+00
 -1       826 1.36637E+02 3.55285E+01 0.00000E+00
 -1       827 1.25055E+01 2.76181E+01 0.00000E+00
 -1       828 2.41500E+01 3.44120E+01 0.00000E+00
 -1       829 2.71500E+01 3.44120E+01 0.00000E+00
 -1       830 3.01500E+01 3.44120E+01 0.00000E+00
 -1       831 3.31500E+01 3.44120E+01 0.00000E+00
 -1       832 3.61500E+01 3.44120E+01 0.00000E+00
 -1       833 3.91500E+01 3.44120E+01 0.00000E+00
 -1       834 4.21500E+01 3.44120E+01 0.00000E+00
 -1       835 4.51500E+01 3.44120E+01 0.00000E+00
 -1       836 4.81500E+01 3.44120E+01 0.00000E+00
 -1       837 5.11500E+01 3.44120E+01 0.00000E+00
 -1       838 5.41500E+01 3.44120E+01 0.00000E+00
 -1       839 5.71500E+01 3.44120E+01 0.00000E+00
 -1       840 6.01500E+01 3.44120E+01 0.00000E+00
 -1       841 6.31500E+01 3.44120E+01 0.00000E+00
 -1       842 6.61500E+01 3.44120E+01 0.00000E+00
 -1       843 6.91500E+01 3.44120E+01 0.00000E+00
 -1       844 7.21500E+01 3.44120E+01 0.00000E+00
 -1       845 7.51500E+01 3.44120E+01 0.00000E+00
 -1       846 7.81500E+01 3.44120E+01 0.00000E+00
 -1       847 8.11500E+01 3.44120E+01 0.00000E+00
 -1       848 8.41500E+01 3.44120E+01 0.00000E+00
 -1       849 8.71500E+01 3.44120E+01 0.00000E+00
 -1       850 9.01500E+01 3.44120E+01 0.00000E+00
 -1       851 9.31500E+01 3.44120E+01 0.00000E+00
 -1       852 9.61500E+01 3.44120E+01 0.00000E+00
 -1       853 9.91500E+01 3.44120E+01 0.00000E+00
 -1       854 1.02150E+02 3.44120E+01 0.00000E+00
 -1       855 1.05150E+02 3.44120E+01 0.00000E+00
 -1       856 1.08150E+02 3.44120E+01 0.00000E+00
 -1       857 1.11150E+02 3.44120E+01 0.00000E+00
 -1       858 1.14150E+02 3.44120E+01 0.00000E+00
 -1       859 1.17150E+02 3.44120E+01 0.00000E+00
 -1       860 1.20150E+02 3.44120E+01 0.00000E+00
 -1       861 1.23150E+02 3.44120E+01 0.00000E+00
 -1       862 1.26150E+02 3.44120E+01 0.00000E+00
 -1       863 1.29150E+02 3.44120E+01 0.00000E+00
 -1       864 1.32150E+02 3.44120E+01 0.00000E+00
 -1       865 1.22718E+02 1.41763E+01 0.00000E+00
 -1       866 1.81500E+01 3.44120E+01 0.00000E+00
 -1       867 4.49100E+01 1.43982E+01 0.00000E+00
 -1       868 4.17600E+01 1.43982E+01 0.00000E+00
 -1       869 5.09100E+01 1.43982E+01 0.00000E+00
 -1       870 5.39100E+01 1.43982E+01 0.00000E+00
 -1       871 5.70600E+01 1.43982E+01 0.00000E+00
 -1       872 6.00600E+01 1.43982E+01 0.00000E+00
 -1       873 6.30600E+01 1.43982E+01 0.00000E+00
 -1       874 6.60600E+01 1.43982E+01 0.00000E+00
 -1       875 6.90600E+01 1.43982E+01 0.00000E+00
 -1       876 7.20600E+01 1.43982E+01 0.00000E+00
 -1       877 7.52100E+01 1.43982E+01 0.00000E+00
 -1       878 7.82100E+01 1.43982E+01 0.00000E+00
 -1       879 8.12100E+01 1.43982E+01 0.00000E+00
 -1       880 8.42100E+01 1.43982E+01 0.00000E+00
 -1       881 3.87600E+01 1.43982E+01 0.00000E+00
 -1       882 1.19487E+02 1.70635E+01 0.00000E+00
 -1       883 1.33749E+02 1.39144E+01 0.00000E+00
 -1       884 1.43355E+01 3.51044E+01 0.00000E+00
 -1       885 8.81248E+01 2.28758E+01 0.00000E+00
 -1       886 1.18076E+02 2.04802E+01 0.00000E+00
 -1       887 1.25718E+02 1.41763E+01 0.00000E+00
 -1       888 1.64737E+01 1.15007E+01 0.00000E+00
 -1       889 1.14014E+02 2.61464E+01 0.00000E+00
 -1       890 1.00744E+02 2.98615E+01 0.00000E+00
 -1       891 1.06844E+02 2.92487E+01 0.00000E+00
 -1       892 1.34412E+02 2.64750E+01 0.00000E+00
 -1       893 2.97225E+01 1.43982E+01 0.00000E+00
 -1       894 2.67225E+01 1.43982E+01 0.00000E+00
 -1       895 3.57600E+01 1.43982E+01 0.00000E+00
 -1       896 4.79100E+01 1.43982E+01 0.00000E+00
 -1       897 1.28868E+02 1.41763E+01 0.00000E+00
 -1       898 1.31309E+02 1.40454E+01 0.00000E+00
 -1       899 2.37225E+01 1.43982E+01 0.00000E+00
 -1       900 9.37122E+01 2.78798E+01 0.00000E+00
 -1       901 9.06036E+01 2.57675E+01 0.00000E+00
 -1       902 8.68100E+01 1.91273E+01 0.00000E+00
 -1       903 1.04195E+02 2.98271E+01 0.00000E+00
 -1       904 3.27600E+01 1.43982E+01 0.00000E+00
 -1       905 2.11500E+01 3.44120E+01 0.00000E+00
 -1       906 1.16436E+02 2.30079E+01 0.00000E+00
 -1       907 1.34394E+02 3.49702E+01 0.00000E+00
 -1       908 1.33894E+02 1.71823E+01 0.00000E+00
 -1       909 1.13179E+02 2.83734E+01 0.00000E+00
 -1       910 2.06850E+01 1.43982E+01 0.00000E+00
 -1       911 9.86631E+01 3.06741E+01 0.00000E+00
 -1       912 1.34412E+02 2.35313E+01 0.00000E+00
 -1       913 1.34412E+02 2.94250E+01 0.00000E+00
 -1       914 1.55880E+01 2.35000E+01 0.00000E+00
 -1       915 1.55880E+01 1.46687E+01 0.00000E+00
 -1       916 8.58681E+01 2.17190E+01 0.00000E+00
 -1       917 1.09225E+02 3.00405E+01 0.00000E+00
 -1       918 1.60309E+01 1.30847E+01 0.00000E+00
 -1       919 1.55880E+01 2.05562E+01 0.00000E+00
 -1       920 1.48296E+01 3.21459E+01 0.00000E+00
 -1       921 1.34580E+02 3.26435E+01 0.00000E+00
 -1       922 2.52225E+01 1.69963E+01 0.00000E+00
 -1       923 1.22692E+02 1.73986E+01 0.00000E+00
 -1       924 1.53141E+01 2.95028E+01 0.00000E+00
 -1       925 2.86500E+01 3.18140E+01 0.00000E+00
 -1       926 3.16500E+01 3.18140E+01 0.00000E+00
 -1       927 3.46500E+01 3.18140E+01 0.00000E+00
 -1       928 3.76500E+01 3.18140E+01 0.00000E+00
 -1       929 4.06500E+01 3.18140E+01 0.00000E+00
 -1       930 4.36500E+01 3.18140E+01 0.00000E+00
 -1       931 4.66500E+01 3.18140E+01 0.00000E+00
 -1       932 4.96500E+01 3.18140E+01 0.00000E+00
 -1       933 5.26500E+01 3.18140E+01 0.00000E+00
 -1       934 5.56500E+01 3.18140E+01 0.00000E+00
 -1       935 5.86500E+01 3.18140E+01 0.00000E+00
 -1       936 6.16500E+01 3.18140E+01 0.00000E+00
 -1       937 6.46500E+01 3.18140E+01 0.00000E+00
 -1       938 6.76500E+01 3.18140E+01 0.00000E+00
 -1       939 7.06500E+01 3.18140E+01 0.00000E+00
 -1       940 7.36500E+01 3.18140E+01 0.00000E+00
 -1       941 7.66500E+01 3.18140E+01 0.00000E+00
 -1       942 7.96500E+01 3.18140E+01 0.00000E+00
 -1       943 8.26500E+01 3.18140E+01 0.00000E+00
 -1       944 8.56500E+01 3.18140E+01 0.00000E+00
 -1       945 8.86500E+01 3.18140E+01 0.00000E+00
 -1       946 9.16500E+01 3.18140E+01 0.00000E+00
 -1       947 9.46500E+01 3.18140E+01 0.00000E+00
 -1       948 1.03650E+02 3.18140E+01 0.00000E+00
 -1       949 1.12650E+02 3.18140E+01 0.00000E+00
 -1       950 1.15650E+02 3.18140E+01 0.00000E+00
 -1       951 1.18650E+02 3.18140E+01 0.00000E+00
 -1       952 1.21650E+02 3.18140E+01 0.00000E+00
 -1       953 1.24650E+02 3.18140E+01 0.00000E+00
 -1       954 1.27650E+02 3.18140E+01 0.00000E+00
 -1       955 1.30650E+02 3.18140E+01 0.00000E+00
 -1       956 1.27293E+02 1.67743E+01 0.00000E+00
 -1       957 9.06977E+01 2.89725E+01 0.00000E+00
 -1       958 5.54850E+01 1.69963E+01 0.00000E+00
 -1       959 5.24850E+01 1.69963E+01 0.00000E+00
 -1       960 6.15600E+01 1.69963E+01 0.00000E+00
 -1       961 6.45600E+01 1.69963E+01 0.00000E+00
 -1       962 6.75600E+01 1.69963E+01 0.00000E+00
 -1       963 7.05600E+01 1.69963E+01 0.00000E+00
 -1       964 7.37100E+01 1.69963E+01 0.00000E+00
 -1       965 7.67100E+01 1.69963E+01 0.00000E+00
 -1       966 7.97100E+01 1.69963E+01 0.00000E+00
 -1       967 8.27100E+01 1.69963E+01 0.00000E+00
 -1       968 4.02600E+01 1.69963E+01 0.00000E+00
 -1       969 1.21281E+02 2.08152E+01 0.00000E+00
 -1       970 1.24993E+02 1.70865E+01 0.00000E+00
 -1       971 1.19641E+02 2.33430E+01 0.00000E+00
 -1       972 1.34071E+02 2.03606E+01 0.00000E+00
 -1       973 2.82225E+01 1.69963E+01 0.00000E+00
 -1       974 2.26500E+01 3.18140E+01 0.00000E+00
 -1       975 4.34100E+01 1.69963E+01 0.00000E+00
 -1       976 3.72600E+01 1.69963E+01 0.00000E+00
 -1       977 1.17218E+02 2.64815E+01 0.00000E+00
 -1       978 1.55717E+01 2.64968E+01 0.00000E+00
 -1       979 8.47725E+01 1.77212E+01 0.00000E+00
 -1       980 1.55880E+01 1.76125E+01 0.00000E+00
 -1       981 3.12600E+01 1.69963E+01 0.00000E+00
 -1       982 3.42600E+01 1.69963E+01 0.00000E+00
 -1       983 2.56500E+01 3.18140E+01 0.00000E+00
 -1       984 5.85600E+01 1.69963E+01 0.00000E+00
 -1       985 1.96500E+01 3.18140E+01 0.00000E+00
 -1       986 8.73917E+01 2.60125E+01 0.00000E+00
 -1       987 1.74820E+01 3.06584E+01 0.00000E+00
 -1       988 1.30596E+02 1.72662E+01 0.00000E+00
 -1       989 1.81860E+01 2.20281E+01 0.00000E+00
 -1       990 1.16384E+02 2.87085E+01 0.00000E+00
 -1       991 4.94850E+01 1.69963E+01 0.00000E+00
 -1       992 1.30774E+02 2.04445E+01 0.00000E+00
 -1       993 2.21850E+01 1.69963E+01 0.00000E+00
 -1       994 1.83579E+01 1.37415E+01 0.00000E+00
 -1       995 1.31814E+02 2.50031E+01 0.00000E+00
 -1       996 8.51351E+01 2.48557E+01 0.00000E+00
 -1       997 4.64100E+01 1.69963E+01 0.00000E+00
 -1       998 8.38306E+01 2.03130E+01 0.00000E+00
 -1       999 1.81697E+01 2.50249E+01 0.00000E+00
 -1      1000 1.31814E+02 2.79531E+01 0.00000E+00
 -1      1001 1.83579E+01 1.66852E+01 0.00000E+00
 -1      1002 2.71500E+01 2.92160E+01 0.00000E+00
 -1      1003 1.27470E+02 1.99526E+01 0.00000E+00
 -1      1004 3.31500E+01 2.92160E+01 0.00000E+00
 -1      1005 3.61500E+01 2.92160E+01 0.00000E+00
 -1      1006 3.91500E+01 2.92160E+01 0.00000E+00
 -1      1007 4.21500E+01 2.92160E+01 0.00000E+00
 -1      1008 4.51500E+01 2.92160E+01 0.00000E+00
 -1      1009 4.81500E+01 2.92160E+01 0.00000E+00
 -1      1010 5.11500E+01 2.92160E+01 0.00000E+00
 -1      1011 5.41500E+01 2.92160E+01 0.00000E+00
 -1      1012 5.71500E+01 2.92160E+01 0.00000E+00
 -1      1013 6.01500E+01 2.92160E+01 0.00000E+00
 -1      1014 6.31500E+01 2.92160E+01 0.00000E+00
 -1      1015 6.61500E+01 2.92160E+01 0.00000E+00
 -1      1016 6.91500E+01 2.92160E+01 0.00000E+00
 -1      1017 7.21500E+01 2.92160E+01 0.00000E+00
 -1      1018 7.51500E+01 2.92160E+01 0.00000E+00
 -1      1019 7.81500E+01 2.92160E+01 0.00000E+00
 -1      1020 8.11500E+01 2.92160E+01 0.00000E+00
 -1      1021 8.41500E+01 2.92160E+01 0.00000E+00
 -1      1022 1.20150E+02 2.92160E+01 0.00000E+00
 -1      1023 1.23150E+02 2.92160E+01 0.00000E+00
 -1      1024 1.26150E+02 2.92160E+01 0.00000E+00
 -1      1025 1.29150E+02 2.92160E+01 0.00000E+00
 -1      1026 2.11500E+01 2.92160E+01 0.00000E+00
 -1      1027 6.60600E+01 1.95942E+01 0.00000E+00
 -1      1028 6.30600E+01 1.95942E+01 0.00000E+00
 -1      1029 7.21350E+01 1.95942E+01 0.00000E+00
 -1      1030 7.51350E+01 1.95942E+01 0.00000E+00
 -1      1031 7.81350E+01 1.95942E+01 0.00000E+00
 -1      1032 1.22640E+02 2.34933E+01 0.00000E+00
 -1      1033 2.41500E+01 2.92160E+01 0.00000E+00
 -1      1034 8.73117E+01 2.94280E+01 0.00000E+00
 -1      1035 1.24388E+02 2.00988E+01 0.00000E+00
 -1      1036 1.82720E+01 1.93567E+01 0.00000E+00
 -1      1037 6.90600E+01 1.95942E+01 0.00000E+00
 -1      1038 5.39850E+01 1.95942E+01 0.00000E+00
 -1      1039 2.67225E+01 1.95942E+01 0.00000E+00
 -1      1040 4.18350E+01 1.95942E+01 0.00000E+00
 -1      1041 3.88350E+01 1.95942E+01 0.00000E+00
 -1      1042 1.20486E+02 2.64995E+01 0.00000E+00
 -1      1043 1.31294E+02 2.27238E+01 0.00000E+00
 -1      1044 1.78259E+01 2.78416E+01 0.00000E+00
 -1      1045 2.97600E+01 1.95942E+01 0.00000E+00
 -1      1046 5.70600E+01 1.95942E+01 0.00000E+00
 -1      1047 3.01500E+01 2.92160E+01 0.00000E+00
 -1      1048 6.00600E+01 1.95942E+01 0.00000E+00
 -1      1049 5.09850E+01 1.95942E+01 0.00000E+00
 -1      1050 8.12100E+01 1.95942E+01 0.00000E+00
 -1      1051 1.29150E+02 2.62660E+01 0.00000E+00
 -1      1052 2.36850E+01 1.95942E+01 0.00000E+00
 -1      1053 3.27600E+01 1.95942E+01 0.00000E+00
 -1      1054 2.08256E+01 2.07760E+01 0.00000E+00
 -1      1055 4.48350E+01 1.95942E+01 0.00000E+00
 -1      1056 8.30975E+01 2.34496E+01 0.00000E+00
 -1      1057 3.58350E+01 1.95942E+01 0.00000E+00
 -1      1058 2.08093E+01 2.37727E+01 0.00000E+00
 -1      1059 1.28630E+02 2.39867E+01 0.00000E+00
 -1      1060 3.76500E+01 2.66180E+01 0.00000E+00
 -1      1061 4.06500E+01 2.66180E+01 0.00000E+00
 -1      1062 4.36500E+01 2.66180E+01 0.00000E+00
 -1      1063 4.66500E+01 2.66180E+01 0.00000E+00
 -1      1064 4.96500E+01 2.66180E+01 0.00000E+00
 -1      1065 5.26500E+01 2.66180E+01 0.00000E+00
 -1      1066 5.56500E+01 2.66180E+01 0.00000E+00
 -1      1067 5.86500E+01 2.66180E+01 0.00000E+00
 -1      1068 6.16500E+01 2.66180E+01 0.00000E+00
 -1      1069 6.46500E+01 2.66180E+01 0.00000E+00
 -1      1070 6.76500E+01 2.66180E+01 0.00000E+00
 -1      1071 7.06500E+01 2.66180E+01 0.00000E+00
 -1      1072 7.36500E+01 2.66180E+01 0.00000E+00
 -1      1073 7.66500E+01 2.66180E+01 0.00000E+00
 -1      1074 7.96500E+01 2.66180E+01 0.00000E+00
 -1      1075 1.25824E+02 2.29852E+01 0.00000E+00
 -1      1076 1.24650E+02 2.66180E+01 0.00000E+00
 -1      1077 1.26900E+02 2.64420E+01 0.00000E+00
 -1      1078 7.66350E+01 2.21922E+01 0.00000E+00
 -1      1079 7.36350E+01 2.21922E+01 0.00000E+00
 -1      1080 2.56500E+01 2.66180E+01 0.00000E+00
 -1      1081 6.45600E+01 2.21922E+01 0.00000E+00
 -1      1082 2.26500E+01 2.66180E+01 0.00000E+00
 -1      1083 3.16500E+01 2.66180E+01 0.00000E+00
 -1      1084 7.97100E+01 2.21922E+01 0.00000E+00
 -1      1085 8.21238E+01 2.63328E+01 0.00000E+00
 -1      1086 4.03350E+01 2.21922E+01 0.00000E+00
 -1      1087 2.82412E+01 2.21922E+01 0.00000E+00
 -1      1088 7.05600E+01 2.21922E+01 0.00000E+00
 -1      1089 3.46500E+01 2.66180E+01 0.00000E+00
 -1      1090 2.86500E+01 2.66180E+01 0.00000E+00
 -1      1091 6.75600E+01 2.21922E+01 0.00000E+00
 -1      1092 5.55225E+01 2.21922E+01 0.00000E+00
 -1      1093 4.79100E+01 1.95942E+01 0.00000E+00
 -1      1094 5.85225E+01 2.21922E+01 0.00000E+00
 -1      1095 3.12412E+01 2.21922E+01 0.00000E+00
 -1      1096 3.73350E+01 2.21922E+01 0.00000E+00
 -1      1097 2.04098E+01 2.58214E+01 0.00000E+00
 -1      1098 5.25225E+01 2.21922E+01 0.00000E+00
 -1      1099 6.15600E+01 2.21922E+01 0.00000E+00
 -1      1100 2.52038E+01 2.21922E+01 0.00000E+00
 -1      1101 4.33350E+01 2.21922E+01 0.00000E+00
 -1      1102 2.30065E+01 2.29825E+01 0.00000E+00
 -1      1103 4.81500E+01 2.40200E+01 0.00000E+00
 -1      1104 3.42881E+01 2.21922E+01 0.00000E+00
 -1      1105 4.51500E+01 2.40200E+01 0.00000E+00
 -1      1106 4.63725E+01 2.21922E+01 0.00000E+00
 -1      1107 0.00000E+00 4.85250E+01 0.00000E+00
 -1      1108 0.00000E+00 4.55750E+01 0.00000E+00
 -1      1109 0.00000E+00 4.26250E+01 0.00000E+00
 -1      1110 0.00000E+00 3.96750E+01 0.00000E+00
 -1      1111 0.00000E+00 3.67250E+01 0.00000E+00
 -1      1112 0.00000E+00 3.38000E+01 0.00000E+00
 -1      1113 0.00000E+00 3.08750E+01 0.00000E+00
 -1      1114 0.00000E+00 2.79250E+01 0.00000E+00
 -1      1115 0.00000E+00 2.49750E+01 0.00000E+00
 -1      1116 0.00000E+00 2.20250E+01 0.00000E+00
 -1      1117 0.00000E+00 1.90750E+01 0.00000E+00
 -1      1118 0.00000E+00 1.61500E+01 0.00000E+00
 -1      1119 0.00000E+00 1.32250E+01 0.00000E+00
 -1      1120 0.00000E+00 1.02750E+01 0.00000E+00
 -1      1121 0.00000E+00 7.32500E+00 0.00000E+00
 -1      1122 0.00000E+00 4.37500E+00 0.00000E+00
 -1      1123 0.00000E+00 1.45000E+00 0.00000E+00
 -1      1124 1.57500E+00 5.00000E+01 0.00000E+00
 -1      1125 4.65000E+00 5.00000E+01 0.00000E+00
 -1      1126 7.65000E+00 5.00000E+01 0.00000E+00
 -1      1127 1.06500E+01 5.00000E+01 0.00000E+00
 -1      1128 1.36500E+01 5.00000E+01 0.00000E+00
 -1      1129 1.66500E+01 5.00000E+01 0.00000E+00
 -1      1130 1.96500E+01 5.00000E+01 0.00000E+00
 -1      1131 2.26500E+01 5.00000E+01 0.00000E+00
 -1      1132 2.56500E+01 5.00000E+01 0.00000E+00
 -1      1133 2.86500E+01 5.00000E+01 0.00000E+00
 -1      1134 3.16500E+01 5.00000E+01 0.00000E+00
 -1      1135 3.46500E+01 5.00000E+01 0.00000E+00
 -1      1136 3.76500E+01 5.00000E+01 0.00000E+00
 -1      1137 4.06500E+01 5.00000E+01 0.00000E+00
 -1      1138 4.36500E+01 5.00000E+01 0.00000E+00
 -1      1139 4.66500E+01 5.00000E+01 0.00000E+00
 -1      1140 4.96500E+01 5.00000E+01 0.00000E+00
 -1      1141 5.26500E+01 5.00000E+01 0.00000E+00
 -1      1142 5.56500E+01 5.00000E+01 0.00000E+00
 -1      1143 5.86500E+01 5.00000E+01 0.00000E+00
 -1      1144 6.16500E+01 5.00000E+01 0.00000E+00
 -1      1145 6.46500E+01 5.00000E+01 0.00000E+00
 -1      1146 6.76500E+01 5.00000E+01 0.00000E+00
 -1      1147 7.06500E+01 5.00000E+01 0.00000E+00
 -1      1148 7.36500E+01 5.00000E+01 0.00000E+00
 -1      1149 7.66500E+01 5.00000E+01 0.00000E+00
 -1      1150 7.96500E+01 5.00000E+01 0.00000E+00
 -1      1151 8.26500E+01 5.00000E+01 0.00000E+00
 -1      1152 8.56500E+01 5.00000E+01 0.00000E+00
 -1      1153 8.86500E+01 5.00000E+01 0.00000E+00
 -1      1154 9.16500E+01 5.00000E+01 0.00000E+00
 -1      1155 9.46500E+01 5.00000E+01 0.00000E+00
 -1      1156 9.76500E+01 5.00000E+01 0.00000E+00
 -1      1157 1.00650E+02 5.00000E+01 0.00000E+00
 -1      1158 1.03650E+02 5.00000E+01 0.00000E+00
 -1      1159 1.06650E+02 5.00000E+01 0.00000E+00
 -1      1160 1.09650E+02 5.00000E+01 0.00000E+00
 -1      1161 1.12650E+02 5.00000E+01 0.00000E+00
 -1      1162 1.15650E+02 5.00000E+01 0.00000E+00
 -1      1163 1.18650E+02 5.00000E+01 0.00000E+00
 -1      1164 1.21650E+02 5.00000E+01 0.00000E+00
 -1      1165 1.24650E+02 5.00000E+01 0.00000E+00
 -1      1166 1.27650E+02 5.00000E+01 0.00000E+00
 -1      1167 1.30650E+02 5.00000E+01 0.00000E+00
 -1      1168 1.33650E+02 5.00000E+01 0.00000E+00
 -1      1169 1.36650E+02 5.00000E+01 0.00000E+00
 -1      1170 1.39650E+02 5.00000E+01 0.00000E+00
 -1      1171 1.42650E+02 5.00000E+01 0.00000E+00
 -1      1172 1.45650E+02 5.00000E+01 0.00000E+00
 -1      1173 1.48575E+02 5.00000E+01 0.00000E+00
 -1      1174 1.57500E+00 0.00000E+00 0.00000E+00
 -1      1175 4.65000E+00 0.00000E+00 0.00000E+00
 -1      1176 7.65000E+00 0.00000E+00 0.00000E+00
 -1      1177 1.06500E+01 0.00000E+00 0.00000E+00
 -1      1178 1.36500E+01 0.00000E+00 0.00000E+00
 -1      1179 1.67250E+01 0.00000E+00 0.00000E+00
 -1      1180 1.98000E+01 0.00000E+00 0.00000E+00
 -1      1181 2.28000E+01 0.00000E+00 0.00000E+00
 -1      1182 2.58000E+01 0.00000E+00 0.00000E+00
 -1      1183 2.88000E+01 0.00000E+00 0.00000E+00
 -1      1184 3.18750E+01 0.00000E+00 0.00000E+00
 -1      1185 3.49500E+01 0.00000E+00 0.00000E+00
 -1      1186 3.79500E+01 0.00000E+00 0.00000E+00
 -1      1187 4.09500E+01 0.00000E+00 0.00000E+00
 -1      1188 4.39500E+01 0.00000E+00 0.00000E+00
 -1      1189 4.70250E+01 0.00000E+00 0.00000E+00
 -1      1190 5.01000E+01 0.00000E+00 0.00000E+00
 -1      1191 5.31000E+01 0.00000E+00 0.00000E+00
 -1      1192 5.61000E+01 0.00000E+00 0.00000E+00
 -1      1193 5.91000E+01 0.00000E+00 0.00000E+00
 -1      1194 6.21750E+01 0.00000E+00 0.00000E+00
 -1      1195 6.52500E+01 0.00000E+00 0.00000E+00
 -1      1196 6.82500E+01 0.00000E+00 0.00000E+00
 -1      1197 7.12500E+01 0.00000E+00 0.00000E+00
 -1      1198 7.42500E+01 0.00000E+00 0.00000E+00
 -1      1199 7.72500E+01 0.00000E+00 0.00000E+00
 -1      1200 8.03250E+01 0.00000E+00 0.00000E+00
 -1      1201 8.34000E+01 0.00000E+00 0.00000E+00
 -1      1202 8.64000E+01 0.00000E+00 0.00000E+00
 -1      1203 8.94000E+01 0.00000E+00 0.00000E+00
 -1      1204 9.24000E+01 0.00000E+00 0.00000E+00
 -1      1205 9.54000E+01 0.00000E+00 0.00000E+00
 -1      1206 9.81000E+01 0.00000E+00 0.00000E+00
 -1      1207 1.00500E+02 0.00000E+00 0.00000E+00
 -1      1208 1.02675E+02 0.00000E+00 0.00000E+00
 -1      1209 1.04925E+02 0.00000E+00 0.00000E+00
 -1      1210 1.07325E+02 0.00000E+00 0.00000E+00
 -1      1211 1.09725E+02 0.00000E+00 0.00000E+00
 -1      1212 1.12350E+02 0.00000E+00 0.00000E+00
 -1      1213 1.15200E+02 0.00000E+00 0.00000E+00
 -1      1214 1.18275E+02 0.00000E+00 0.00000E+00
 -1      1215 1.21350E+02 0.00000E+00 0.00000E+00
 -1      1216 1.24350E+02 0.00000E+00 0.00000E+00
 -1      1217 1.27350E+02 0.00000E+00 0.00000E+00
 -1      1218 1.30350E+02 0.00000E+00 0.00000E+00
 -1      1219 1.33425E+02 0.00000E+00 0.00000E+00
 -1      1220 1.36500E+02 0.00000E+00 0.00000E+00
 -1      1221 1.39500E+02 0.00000E+00 0.00000E+00
 -1      1222 1.42500E+02 0.00000E+00 0.00000E+00
 -1      1223 1.45500E+02 0.00000E+00 0.00000E+00
 -1      1224 1.48500E+02 0.00000E+00 0.00000E+00
 -1      1225 1.50000E+02 1.47500E+00 0.00000E+00
 -1      1226 1.50000E+02 4.42500E+00 0.00000E+00
 -1      1227 1.50000E+02 7.37500E+00 0.00000E+00
 -1      1228 1.50000E+02 1.03250E+01 0.00000E+00
 -1      1229 1.50000E+02 1.32750E+01 0.00000E+00
 -1      1230 1.50000E+02 1.62000E+01 0.00000E+00
 -1      1231 1.50000E+02 1.91250E+01 0.00000E+00
 -1      1232 1.50000E+02 2.20750E+01 0.00000E+00
 -1      1233 1.50000E+02 2.50250E+01 0.00000E+00
 -1      1234 1.50000E+02 2.79750E+01 0.00000E+00
 -1      1235 1.50000E+02 3.09250E+01 0.00000E+00
 -1      1236 1.50000E+02 3.38500E+01 0.00000E+00
 -1      1237 1.50000E+02 3.67750E+01 0.00000E+00
 -1      1238 1.50000E+02 3.97250E+01 0.00000E+00
 -1      1239 1.50000E+02 4.26750E+01 0.00000E+00
 -1      1240 1.50000E+02 4.56250E+01 0.00000E+00
 -1      1241 1.50000E+02 4.85500E+01 0.00000E+00
 -1      1242 1.09220E+02 1.26442E+01 0.00000E+00
 -1      1243 1.08911E+02 1.11864E+01 0.00000E+00
 -1      1244 1.08295E+02 9.81755E+00 0.00000E+00
 -1      1245 1.07442E+02 8.65616E+00 0.00000E+00
 -1      1246 1.06357E+02 7.68496E+00 0.00000E+00
 -1      1247 1.05120E+02 6.97078E+00 0.00000E+00
 -1      1248 1.03732E+02 6.51533E+00 0.00000E+00
 -1      1249 1.02273E+02 6.35805E+00 0.00000E+00
 -1      1250 1.00829E+02 6.50510E+00 0.00000E+00
 -1      1251 9.94490E+01 6.94550E+00 0.00000E+00
 -1      1252 9.82033E+01 7.65058E+00 0.00000E+00
 -1      1253 9.71164E+01 8.60575E+00 0.00000E+00
 -1      1254 9.62633E+01 9.74040E+00 0.00000E+00
 -1      1255 9.56479E+01 1.10489E+01 0.00000E+00
 -1      1256 9.53115E+01 1.24788E+01 0.00000E+00
 -1      1257 9.52793E+01 1.39287E+01 0.00000E+00
 -1      1258 9.55334E+01 1.53090E+01 0.00000E+00
 -1      1259 9.60711E+01 1.66362E+01 0.00000E+00
 -1      1260 9.69009E+01 1.78660E+01 0.00000E+00
 -1      1261 9.79940E+01 1.89110E+01 0.00000E+00
 -1      1262 9.92776E+01 1.96928E+01 0.00000E+00
 -1      1263 1.00725E+02 2.01885E+01 0.00000E+00
 -1      1264 1.02244E+02 2.03580E+01 0.00000E+00
 -1      1265 1.03716E+02 2.02041E+01 0.00000E+00
 -1      1266 1.05109E+02 1.97501E+01 0.00000E+00
 -1      1267 1.06394E+02 1.90040E+01 0.00000E+00
 -1      1268 1.07523E+02 1.79689E+01 0.00000E+00
 -1      1269 1.08373E+02 1.67612E+01 0.00000E+00
 -1      1270 1.08934E+02 1.54556E+01 0.00000E+00
 -1      1271 1.09220E+02 1.40672E+01 0.00000E+00
 -1      1272 1.57500E+00 4.85250E+01 0.00000E+00
 -1      1273 1.29900E+00 4.48375E+01 0.00000E+00
 -1      1274 1.29900E+00 4.63125E+01 0.00000E+00
 -1      1275 1.29900E+00 4.18875E+01 0.00000E+00
 -1      1276 1.29900E+00 4.33625E+01 0.00000E+00
 -1      1277 2.59800E+00 4.41000E+01 0.00000E+00
 -1      1278 1.29900E+00 3.89375E+01 0.00000E+00
 -1      1279 1.29900E+00 4.04125E+01 0.00000E+00
 -1      1280 2.59800E+00 4.11500E+01 0.00000E+00
 -1      1281 1.29900E+00 3.59875E+01 0.00000E+00
 -1      1282 1.29900E+00 3.74625E+01 0.00000E+00
 -1      1283 2.59800E+00 3.82000E+01 0.00000E+00
 -1      1284 1.29900E+00 3.30875E+01 0.00000E+00
 -1      1285 1.29900E+00 3.45375E+01 0.00000E+00
 -1      1286 2.59800E+00 3.52750E+01 0.00000E+00
 -1      1287 1.29900E+00 3.01375E+01 0.00000E+00
 -1      1288 1.29900E+00 3.16125E+01 0.00000E+00
 -1      1289 2.59800E+00 3.23500E+01 0.00000E+00
 -1      1290 1.29900E+00 2.71875E+01 0.00000E+00
 -1      1291 1.29900E+00 2.86625E+01 0.00000E+00
 -1      1292 2.59800E+00 2.94000E+01 0.00000E+00
 -1      1293 1.29900E+00 2.42375E+01 0.00000E+00
 -1      1294 1.29900E+00 2.57125E+01 0.00000E+00
 -1      1295 2.59800E+00 2.64500E+01 0.00000E+00
 -1      1296 1.29900E+00 2.12875E+01 0.00000E+00
 -1      1297 1.29900E+00 2.27625E+01 0.00000E+00
 -1      1298 2.59800E+00 2.35000E+01 0.00000E+00
 -1      1299 1.29900E+00 1.83375E+01 0.00000E+00
 -1      1300 1.29900E+00 1.98125E+01 0.00000E+00
 -1      1301 2.59800E+00 2.05500E+01 0.00000E+00
 -1      1302 1.29900E+00 1.54375E+01 0.00000E+00
 -1      1303 1.29900E+00 1.68875E+01 0.00000E+00
 -1      1304 2.59800E+00 1.76250E+01 0.00000E+00
 -1      1305 1.29900E+00 1.24875E+01 0.00000E+00
 -1      1306 1.29900E+00 1.39625E+01 0.00000E+00
 -1      1307 2.59800E+00 1.47000E+01 0.00000E+00
 -1      1308 1.29900E+00 9.53750E+00 0.00000E+00
 -1      1309 1.29900E+00 1.10125E+01 0.00000E+00
 -1      1310 2.59800E+00 1.17500E+01 0.00000E+00
 -1      1311 1.29900E+00 6.58750E+00 0.00000E+00
 -1      1312 1.29900E+00 8.06250E+00 0.00000E+00
 -1      1313 2.59800E+00 8.80000E+00 0.00000E+00
 -1      1314 1.29900E+00 3.63750E+00 0.00000E+00
 -1      1315 1.29900E+00 5.11250E+00 0.00000E+00
 -1      1316 2.59800E+00 5.85000E+00 0.00000E+00
 -1      1317 1.43700E+00 1.09375E+00 0.00000E+00
 -1      1318 1.43700E+00 2.54375E+00 0.00000E+00
 -1      1319 2.73600E+00 3.28125E+00 0.00000E+00
 -1      1320 3.01200E+00 1.09375E+00 0.00000E+00
 -1      1321 3.90000E+00 4.87010E+01 0.00000E+00
 -1      1322 5.40000E+00 4.87010E+01 0.00000E+00
 -1      1323 6.90000E+00 4.87010E+01 0.00000E+00
 -1      1324 8.40000E+00 4.87010E+01 0.00000E+00
 -1      1325 6.15000E+00 4.74020E+01 0.00000E+00
 -1      1326 9.90000E+00 4.87010E+01 0.00000E+00
 -1      1327 1.14000E+01 4.87010E+01 0.00000E+00
 -1      1328 9.15000E+00 4.74020E+01 0.00000E+00
 -1      1329 1.29000E+01 4.87010E+01 0.00000E+00
 -1      1330 1.44000E+01 4.87010E+01 0.00000E+00
 -1      1331 1.21500E+01 4.74020E+01 0.00000E+00
 -1      1332 1.59000E+01 4.87010E+01 0.00000E+00
 -1      1333 1.74000E+01 4.87010E+01 0.00000E+00
 -1      1334 1.51500E+01 4.74020E+01 0.00000E+00
 -1      1335 1.89000E+01 4.87010E+01 0.00000E+00
 -1      1336 2.04000E+01 4.87010E+01 0.00000E+00
 -1      1337 1.81500E+01 4.74020E+01 0.00000E+00
 -1      1338 2.19000E+01 4.87010E+01 0.00000E+00
 -1      1339 2.34000E+01 4.87010E+01 0.00000E+00
 -1      1340 2.11500E+01 4.74020E+01 0.00000E+00
 -1      1341 2.49000E+01 4.87010E+01 0.00000E+00
 -1      1342 2.64000E+01 4.87010E+01 0.00000E+00
 -1      1343 2.41500E+01 4.74020E+01 0.00000E+00
 -1      1344 2.79000E+01 4.87010E+01 0.00000E+00
 -1      1345 2.94000E+01 4.87010E+01 0.00000E+00
 -1      1346 2.71500E+01 4.74020E+01 0.00000E+00
 -1      1347 3.09000E+01 4.87010E+01 0.00000E+00
 -1      1348 3.24000E+01 4.87010E+01 0.00000E+00
 -1      1349 3.01500E+01 4.74020E+01 0.00000E+00
 -1      1350 3.39000E+01 4.87010E+01 0.00000E+00
 -1      1351 3.54000E+01 4.87010E+01 0.00000E+00
 -1      1352 3.31500E+01 4.74020E+01 0.00000E+00
 -1      1353 3.69000E+01 4.87010E+01 0.00000E+00
 -1      1354 3.84000E+01 4.87010E+01 0.00000E+00
 -1      1355 3.61500E+01 4.74020E+01 0.00000E+00
 -1      1356 3.99000E+01 4.87010E+01 0.00000E+00
 -1      1357 4.14000E+01 4.87010E+01 0.00000E+00
 -1      1358 3.91500E+01 4.74020E+01 0.00000E+00
 -1      1359 4.29000E+01 4.87010E+01 0.00000E+00
 -1      1360 4.44000E+01 4.87010E+01 0.00000E+00
 -1      1361 4.21500E+01 4.74020E+01 0.00000E+00
 -1      1362 4.59000E+01 4.87010E+01 0.00000E+00
 -1      1363 4.74000E+01 4.87010E+01 0.00000E+00
 -1      1364 4.51500E+01 4.74020E+01 0.00000E+00
 -1      1365 4.89000E+01 4.87010E+01 0.00000E+00
 -1      1366 5.04000E+01 4.87010E+01 0.00000E+00
 -1      1367 4.81500E+01 4.74020E+01 0.00000E+00
 -1      1368 5.19000E+01 4.87010E+01 0.00000E+00
 -1      1369 5.34000E+01 4.87010E+01 0.00000E+00
 -1      1370 5.11500E+01 4.74020E+01 0.00000E+00
 -1      1371 5.49000E+01 4.87010E+01 0.00000E+00
 -1      1372 5.64000E+01 4.87010E+01 0.00000E+00
 -1      1373 5.41500E+01 4.74020E+01 0.00000E+00
 -1      1374 5.79000E+01 4.87010E+01 0.00000E+00
 -1      1375 5.94000E+01 4.87010E+01 0.00000E+00
 -1      1376 5.71500E+01 4.74020E+01 0.00000E+00
 -1      1377 6.09000E+01 4.87010E+01 0.00000E+00
 -1      1378 6.24000E+01 4.87010E+01 0.00000E+00
 -1      1379 6.01500E+01 4.74020E+01 0.00000E+00
 -1      1380 6.39000E+01 4.87010E+01 0.00000E+00
 -1      1381 6.54000E+01 4.87010E+01 0.00000E+00
 -1      1382 6.31500E+01 4.74020E+01 0.00000E+00
 -1      1383 6.69000E+01 4.87010E+01 0.00000E+00
 -1      1384 6.84000E+01 4.87010E+01 0.00000E+00
 -1      1385 6.61500E+01 4.74020E+01 0.00000E+00
 -1      1386 6.99000E+01 4.87010E+01 0.00000E+00
 -1      1387 7.14000E+01 4.87010E+01 0.00000E+00
 -1      1388 6.91500E+01 4.74020E+01 0.00000E+00
 -1      1389 7.29000E+01 4.87010E+01 0.00000E+00
 -1      1390 7.44000E+01 4.87010E+01 0.00000E+00
 -1      1391 7.21500E+01 4.74020E+01 0.00000E+00
 -1      1392 7.59000E+01 4.87010E+01 0.00000E+00
 -1      1393 7.74000E+01 4.87010E+01 0.00000E+00
 -1      1394 7.51500E+01 4.74020E+01 0.00000E+00
 -1      1395 7.89000E+01 4.87010E+01 0.00000E+00
 -1      1396 8.04000E+01 4.87010E+01 0.00000E+00
 -1      1397 7.81500E+01 4.74020E+01 0.00000E+00
 -1      1398 8.19000E+01 4.87010E+01 0.00000E+00
 -1      1399 8.34000E+01 4.87010E+01 0.00000E+00
 -1      1400 8.11500E+01 4.74020E+01 0.00000E+00
 -1      1401 8.49000E+01 4.87010E+01 0.00000E+00
 -1      1402 8.64000E+01 4.87010E+01 0.00000E+00
 -1      1403 8.41500E+01 4.74020E+01 0.00000E+00
 -1      1404 8.79000E+01 4.87010E+01 0.00000E+00
 -1      1405 8.94000E+01 4.87010E+01 0.00000E+00
 -1      1406 8.71500E+01 4.74020E+01 0.00000E+00
 -1      1407 9.09000E+01 4.87010E+01 0.00000E+00
 -1      1408 9.24000E+01 4.87010E+01 0.00000E+00
 -1      1409 9.01500E+01 4.74020E+01 0.00000E+00
 -1      1410 9.39000E+01 4.87010E+01 0.00000E+00
 -1      1411 9.54000E+01 4.87010E+01 0.00000E+00
 -1      1412 9.31500E+01 4.74020E+01 0.00000E+00
 -1      1413 9.69000E+01 4.87010E+01 0.00000E+00
 -1      1414 9.84000E+01 4.87010E+01 0.00000E+00
 -1      1415 9.61500E+01 4.74020E+01 0.00000E+00
 -1      1416 9.99000E+01 4.87010E+01 0.00000E+00
 -1      1417 1.01400E+02 4.87010E+01 0.00000E+00
 -1      1418 9.91500E+01 4.74020E+01 0.00000E+00
 -1      1419 1.02900E+02 4.87010E+01 0.00000E+00
 -1      1420 1.04400E+02 4.87010E+01 0.00000E+00
 -1      1421 1.02150E+02 4.74020E+01 0.00000E+00
 -1      1422 1.05900E+02 4.87010E+01 0.00000E+00
 -1      1423 1.07400E+02 4.87010E+01 0.00000E+00
 -1      1424 1.05150E+02 4.74020E+01 0.00000E+00
 -1      1425 1.08900E+02 4.87010E+01 0.00000E+00
 -1      1426 1.10400E+02 4.87010E+01 0.00000E+00
 -1      1427 1.08150E+02 4.74020E+01 0.00000E+00
 -1      1428 1.11900E+02 4.87010E+01 0.00000E+00
 -1      1429 1.13400E+02 4.87010E+01 0.00000E+00
 -1      1430 1.11150E+02 4.74020E+01 0.00000E+00
 -1      1431 1.14900E+02 4.87010E+01 0.00000E+00
 -1      1432 1.16400E+02 4.87010E+01 0.00000E+00
 -1      1433 1.14150E+02 4.74020E+01 0.00000E+00
 -1      1434 1.17900E+02 4.87010E+01 0.00000E+00
 -1      1435 1.19400E+02 4.87010E+01 0.00000E+00
 -1      1436 1.17150E+02 4.74020E+01 0.00000E+00
 -1      1437 1.20900E+02 4.87010E+01 0.00000E+00
 -1      1438 1.22400E+02 4.87010E+01 0.00000E+00
 -1      1439 1.20150E+02 4.74020E+01 0.00000E+00
 -1      1440 1.23900E+02 4.87010E+01 0.00000E+00
 -1      1441 1.25400E+02 4.87010E+01 0.00000E+00
 -1      1442 1.23150E+02 4.74020E+01 0.00000E+00
 -1      1443 1.26900E+02 4.87010E+01 0.00000E+00
 -1      1444 1.28400E+02 4.87010E+01 0.00000E+00
 -1      1445 1.26150E+02 4.74020E+01 0.00000E+00
 -1      1446 1.29900E+02 4.87010E+01 0.00000E+00
 -1      1447 1.31400E+02 4.87010E+01 0.00000E+00
 -1      1448 1.29150E+02 4.74020E+01 0.00000E+00
 -1      1449 1.32900E+02 4.87010E+01 0.00000E+00
 -1      1450 1.34400E+02 4.87010E+01 0.00000E+00
 -1      1451 1.32150E+02 4.74020E+01 0.00000E+00
 -1      1452 1.35900E+02 4.87010E+01 0.00000E+00
 -1      1453 1.37400E+02 4.87010E+01 0.00000E+00
 -1      1454 1.35150E+02 4.74020E+01 0.00000E+00
 -1      1455 1.38900E+02 4.87010E+01 0.00000E+00
 -1      1456 1.40400E+02 4.87010E+01 0.00000E+00
 -1      1457 1.38150E+02 4.74020E+01 0.00000E+00
 -1      1458 1.41900E+02 4.87010E+01 0.00000E+00
 -1      1459 1.43400E+02 4.87010E+01 0.00000E+00
 -1      1460 1.41150E+02 4.74020E+01 0.00000E+00
 -1      1461 1.44900E+02 4.87010E+01 0.00000E+00
 -1      1462 1.46400E+02 4.87010E+01 0.00000E+00
 -1      1463 1.44150E+02 4.74020E+01 0.00000E+00
 -1      1464 1.48575E+02 4.85500E+01 0.00000E+00
 -1      1465 1.47825E+02 4.72510E+01 0.00000E+00
 -1      1466 6.01200E+00 1.09375E+00 0.00000E+00
 -1      1467 4.51200E+00 1.09375E+00 0.00000E+00
 -1      1468 4.37400E+00 2.18750E+00 0.00000E+00
 -1      1469 9.01200E+00 1.09375E+00 0.00000E+00
 -1      1470 7.51200E+00 1.09375E+00 0.00000E+00
 -1      1471 7.37400E+00 2.18750E+00 0.00000E+00
 -1      1472 1.20120E+01 1.09375E+00 0.00000E+00
 -1      1473 1.05120E+01 1.09375E+00 0.00000E+00
 -1      1474 1.03740E+01 2.18750E+00 0.00000E+00
 -1      1475 1.50120E+01 1.09375E+00 0.00000E+00
 -1      1476 1.35120E+01 1.09375E+00 0.00000E+00
 -1      1477 1.33740E+01 2.18750E+00 0.00000E+00
 -1      1478 1.81620E+01 1.09375E+00 0.00000E+00
 -1      1479 1.65870E+01 1.09375E+00 0.00000E+00
 -1      1480 1.64490E+01 2.18750E+00 0.00000E+00
 -1      1481 2.11620E+01 1.09375E+00 0.00000E+00
 -1      1482 1.96620E+01 1.09375E+00 0.00000E+00
 -1      1483 1.95240E+01 2.18750E+00 0.00000E+00
 -1      1484 2.41620E+01 1.09375E+00 0.00000E+00
 -1      1485 2.26620E+01 1.09375E+00 0.00000E+00
 -1      1486 2.25240E+01 2.18750E+00 0.00000E+00
 -1      1487 2.71620E+01 1.09375E+00 0.00000E+00
 -1      1488 2.56620E+01 1.09375E+00 0.00000E+00
 -1      1489 2.55240E+01 2.18750E+00 0.00000E+00
 -1      1490 3.01620E+01 1.09375E+00 0.00000E+00
 -1      1491 2.86620E+01 1.09375E+00 0.00000E+00
 -1      1492 2.85240E+01 2.18750E+00 0.00000E+00
 -1      1493 3.33120E+01 1.09375E+00 0.00000E+00
 -1      1494 3.17370E+01 1.09375E+00 0.00000E+00
 -1      1495 3.15990E+01 2.18750E+00 0.00000E+00
 -1      1496 3.63120E+01 1.09375E+00 0.00000E+00
 -1      1497 3.48120E+01 1.09375E+00 0.00000E+00
 -1      1498 3.46740E+01 2.18750E+00 0.00000E+00
 -1      1499 3.93120E+01 1.09375E+00 0.00000E+00
 -1      1500 3.78120E+01 1.09375E+00 0.00000E+00
 -1      1501 3.76740E+01 2.18750E+00 0.00000E+00
 -1      1502 4.23120E+01 1.09375E+00 0.00000E+00
 -1      1503 4.08120E+01 1.09375E+00 0.00000E+00
 -1      1504 4.06740E+01 2.18750E+00 0.00000E+00
 -1      1505 4.53120E+01 1.09375E+00 0.00000E+00
 -1      1506 4.38120E+01 1.09375E+00 0.00000E+00
 -1      1507 4.36740E+01 2.18750E+00 0.00000E+00
 -1      1508 4.84620E+01 1.09375E+00 0.00000E+00
 -1      1509 4.68870E+01 1.09375E+00 0.00000E+00
 -1      1510 4.67490E+01 2.18750E+00 0.00000E+00
 -1      1511 5.14620E+01 1.09375E+00 0.00000E+00
 -1      1512 4.99620E+01 1.09375E+00 0.00000E+00
 -1      1513 4.98240E+01 2.18750E+00 0.00000E+00
 -1      1514 5.44620E+01 1.09375E+00 0.00000E+00
 -1      1515 5.29620E+01 1.09375E+00 0.00000E+00
 -1      1516 5.28240E+01 2.18750E+00 0.00000E+00
 -1      1517 5.74620E+01 1.09375E+00 0.00000E+00
 -1      1518 5.59620E+01 1.09375E+00 0.00000E+00
 -1      1519 5.58240E+01 2.18750E+00 0.00000E+00
 -1      1520 6.04620E+01 1.09375E+00 0.00000E+00
 -1      1521 5.89620E+01 1.09375E+00 0.00000E+00
 -1      1522 5.88240E+01 2.18750E+00 0.00000E+00
 -1      1523 6.36120E+01 1.09375E+00 0.00000E+00
 -1      1524 6.20370E+01 1.09375E+00 0.00000E+00
 -1      1525 6.18990E+01 2.18750E+00 0.00000E+00
 -1      1526 6.66120E+01 1.09375E+00 0.00000E+00
 -1      1527 6.51120E+01 1.09375E+00 0.00000E+00
 -1      1528 6.49740E+01 2.18750E+00 0.00000E+00
 -1      1529 6.96120E+01 1.09375E+00 0.00000E+00
 -1      1530 6.81120E+01 1.09375E+00 0.00000E+00
 -1      1531 6.79740E+01 2.18750E+00 0.00000E+00
 -1      1532 7.26120E+01 1.09375E+00 0.00000E+00
 -1      1533 7.11120E+01 1.09375E+00 0.00000E+00
 -1      1534 7.09740E+01 2.18750E+00 0.00000E+00
 -1      1535 7.56120E+01 1.09375E+00 0.00000E+00
 -1      1536 7.41120E+01 1.09375E+00 0.00000E+00
 -1      1537 7.39740E+01 2.18750E+00 0.00000E+00
 -1      1538 7.86120E+01 1.09375E+00 0.00000E+00
 -1      1539 7.71120E+01 1.09375E+00 0.00000E+00
 -1      1540 7.69740E+01 2.18750E+00 0.00000E+00
 -1      1541 8.17620E+01 1.09375E+00 0.00000E+00
 -1      1542 8.01870E+01 1.09375E+00 0.00000E+00
 -1      1543 8.00490E+01 2.18750E+00 0.00000E+00
 -1      1544 8.47620E+01 1.09375E+00 0.00000E+00
 -1      1545 8.32620E+01 1.09375E+00 0.00000E+00
 -1      1546 8.31240E+01 2.18750E+00 0.00000E+00
 -1      1547 8.77620E+01 1.09375E+00 0.00000E+00
 -1      1548 8.62620E+01 1.09375E+00 0.00000E+00
 -1      1549 8.61240E+01 2.18750E+00 0.00000E+00
 -1      1550 9.07620E+01 1.09375E+00 0.00000E+00
 -1      1551 8.92620E+01 1.09375E+00 0.00000E+00
 -1      1552 8.91240E+01 2.18750E+00 0.00000E+00
 -1      1553 9.37620E+01 1.09375E+00 0.00000E+00
 -1      1554 9.22620E+01 1.09375E+00 0.00000E+00
 -1      1555 9.21240E+01 2.18750E+00 0.00000E+00
 -1      1556 9.67620E+01 1.09375E+00 0.00000E+00
 -1      1557 9.52620E+01 1.09375E+00 0.00000E+00
 -1      1558 9.51240E+01 2.18750E+00 0.00000E+00
 -1      1559 9.91620E+01 1.09375E+00 0.00000E+00
 -1      1560 9.79620E+01 1.09375E+00 0.00000E+00
 -1      1561 9.78240E+01 2.18750E+00 0.00000E+00
 -1      1562 1.01562E+02 1.09375E+00 0.00000E+00
 -1      1563 1.00362E+02 1.09375E+00 0.00000E+00
 -1      1564 1.00224E+02 2.18750E+00 0.00000E+00
 -1      1565 1.03512E+02 1.09375E+00 0.00000E+00
 -1      1566 1.02537E+02 1.09375E+00 0.00000E+00
 -1      1567 1.02399E+02 2.18750E+00 0.00000E+00
 -1      1568 1.06062E+02 1.09375E+00 0.00000E+00
 -1      1569 1.04787E+02 1.09375E+00 0.00000E+00
 -1      1570 1.04649E+02 2.18750E+00 0.00000E+00
 -1      1571 1.08312E+02 1.09375E+00 0.00000E+00
 -1      1572 1.07187E+02 1.09375E+00 0.00000E+00
 -1      1573 1.07049E+02 2.18750E+00 0.00000E+00
 -1      1574 1.10862E+02 1.09375E+00 0.00000E+00
 -1      1575 1.09587E+02 1.09375E+00 0.00000E+00
 -1      1576 1.09449E+02 2.18750E+00 0.00000E+00
 -1      1577 1.13562E+02 1.09375E+00 0.00000E+00
 -1      1578 1.12212E+02 1.09375E+00 0.00000E+00
 -1      1579 1.12074E+02 2.18750E+00 0.00000E+00
 -1      1580 1.16562E+02 1.09375E+00 0.00000E+00
 -1      1581 1.15062E+02 1.09375E+00 0.00000E+00
 -1      1582 1.14924E+02 2.18750E+00 0.00000E+00
 -1      1583 1.19712E+02 1.09375E+00 0.00000E+00
 -1      1584 1.18137E+02 1.09375E+00 0.00000E+00
 -1      1585 1.17999E+02 2.18750E+00 0.00000E+00
 -1      1586 1.22712E+02 1.09375E+00 0.00000E+00
 -1      1587 1.21212E+02 1.09375E+00 0.00000E+00
 -1      1588 1.21074E+02 2.18750E+00 0.00000E+00
 -1      1589 1.25712E+02 1.09375E+00 0.00000E+00
 -1      1590 1.24212E+02 1.09375E+00 0.00000E+00
 -1      1591 1.24074E+02 2.18750E+00 0.00000E+00
 -1      1592 1.28712E+02 1.09375E+00 0.00000E+00
 -1      1593 1.27212E+02 1.09375E+00 0.00000E+00
 -1      1594 1.27074E+02 2.18750E+00 0.00000E+00
 -1      1595 1.31712E+02 1.09375E+00 0.00000E+00
 -1      1596 1.30212E+02 1.09375E+00 0.00000E+00
 -1      1597 1.30074E+02 2.18750E+00 0.00000E+00
 -1      1598 1.34862E+02 1.09375E+00 0.00000E+00
 -1      1599 1.33287E+02 1.09375E+00 0.00000E+00
 -1      1600 1.33149E+02 2.18750E+00 0.00000E+00
 -1      1601 1.37862E+02 1.09375E+00 0.00000E+00
 -1      1602 1.36362E+02 1.09375E+00 0.00000E+00
 -1      1603 1.36224E+02 2.18750E+00 0.00000E+00
 -1      1604 1.40862E+02 1.09375E+00 0.00000E+00
 -1      1605 1.39362E+02 1.09375E+00 0.00000E+00
 -1      1606 1.39224E+02 2.18750E+00 0.00000E+00
 -1      1607 1.43862E+02 1.09375E+00 0.00000E+00
 -1      1608 1.42362E+02 1.09375E+00 0.00000E+00
 -1      1609 1.42224E+02 2.18750E+00 0.00000E+00
 -1      1610 1.46862E+02 1.09375E+00 0.00000E+00
 -1      1611 1.45362E+02 1.09375E+00 0.00000E+00
 -1      1612 1.45224E+02 2.18750E+00 0.00000E+00
 -1      1613 1.48500E+02 1.47500E+00 0.00000E+00
 -1      1614 1.48701E+02 5.16250E+00 0.00000E+00
 -1      1615 1.48701E+02 3.68750E+00 0.00000E+00
 -1      1616 1.48701E+02 8.11250E+00 0.00000E+00
 -1      1617 1.48701E+02 6.63750E+00 0.00000E+00
 -1      1618 1.47402E+02 5.90000E+00 0.00000E+00
 -1      1619 1.48701E+02 1.10625E+01 0.00000E+00
 -1      1620 1.48701E+02 9.58750E+00 0.00000E+00
 -1      1621 1.47402E+02 8.85000E+00 0.00000E+00
 -1      1622 1.48701E+02 1.40125E+01 0.00000E+00
 -1      1623 1.48701E+02 1.25375E+01 0.00000E+00
 -1      1624 1.47402E+02 1.18000E+01 0.00000E+00
 -1      1625 1.48701E+02 1.69125E+01 0.00000E+00
 -1      1626 1.48701E+02 1.54625E+01 0.00000E+00
 -1      1627 1.47402E+02 1.47250E+01 0.00000E+00
 -1      1628 1.48701E+02 1.98625E+01 0.00000E+00
 -1      1629 1.48701E+02 1.83875E+01 0.00000E+00
 -1      1630 1.47402E+02 1.76500E+01 0.00000E+00
 -1      1631 1.48701E+02 2.28125E+01 0.00000E+00
 -1      1632 1.48701E+02 2.13375E+01 0.00000E+00
 -1      1633 1.47402E+02 2.06000E+01 0.00000E+00
 -1      1634 1.48701E+02 2.57625E+01 0.00000E+00
 -1      1635 1.48701E+02 2.42875E+01 0.00000E+00
 -1      1636 1.47402E+02 2.35500E+01 0.00000E+00
 -1      1637 1.48701E+02 2.87125E+01 0.00000E+00
 -1      1638 1.48701E+02 2.72375E+01 0.00000E+00
 -1      1639 1.47402E+02 2.65000E+01 0.00000E+00
 -1      1640 1.48701E+02 3.16625E+01 0.00000E+00
 -1      1641 1.48701E+02 3.01875E+01 0.00000E+00
 -1      1642 1.47402E+02 2.94500E+01 0.00000E+00
 -1      1643 1.48701E+02 3.45625E+01 0.00000E+00
 -1      1644 1.48701E+02 3.31125E+01 0.00000E+00
 -1      1645 1.47402E+02 3.23750E+01 0.00000E+00
 -1      1646 1.48701E+02 3.75125E+01 0.00000E+00
 -1      1647 1.48701E+02 3.60375E+01 0.00000E+00
 -1      1648 1.47402E+02 3.53000E+01 0.00000E+00
 -1      1649 1.48701E+02 4.04625E+01 0.00000E+00
 -1      1650 1.48701E+02 3.89875E+01 0.00000E+00
 -1      1651 1.47402E+02 3.82500E+01 0.00000E+00
 -1      1652 1.48701E+02 4.34125E+01 0.00000E+00
 -1      1653 1.48701E+02 4.19375E+01 0.00000E+00
 -1      1654 1.47402E+02 4.12000E+01 0.00000E+00
 -1      1655 1.48263E+02 4.60692E+01 0.00000E+00
 -1      1656 1.48263E+02 4.45942E+01 0.00000E+00
 -1      1657 1.46964E+02 4.38568E+01 0.00000E+00
 -1      1658 1.46088E+02 4.62202E+01 0.00000E+00
 -1      1659 1.09750E+02 1.22311E+01 0.00000E+00
 -1      1660 1.09823E+02 1.29412E+01 0.00000E+00
 -1      1661 1.09405E+02 1.06167E+01 0.00000E+00
 -1      1662 1.09646E+02 1.13548E+01 0.00000E+00
 -1      1663 1.08602E+02 9.21739E+00 0.00000E+00
 -1      1664 1.08968E+02 9.84255E+00 0.00000E+00
 -1      1665 1.07623E+02 8.00836E+00 0.00000E+00
 -1      1666 1.08104E+02 8.53894E+00 0.00000E+00
 -1      1667 1.06487E+02 6.87291E+00 0.00000E+00
 -1      1668 1.07087E+02 7.30641E+00 0.00000E+00
 -1      1669 1.05040E+02 6.30781E+00 0.00000E+00
 -1      1670 1.05668E+02 6.58935E+00 0.00000E+00
 -1      1671 1.03490E+02 5.80123E+00 0.00000E+00
 -1      1672 1.04246E+02 5.96421E+00 0.00000E+00
 -1      1673 1.01928E+02 5.78543E+00 0.00000E+00
 -1      1674 1.02622E+02 5.78715E+00 0.00000E+00
 -1      1675 1.00334E+02 5.98833E+00 0.00000E+00
 -1      1676 1.01076E+02 5.83364E+00 0.00000E+00
 -1      1677 9.89037E+01 6.55964E+00 0.00000E+00
 -1      1678 9.95354E+01 6.28310E+00 0.00000E+00
 -1      1679 9.75484E+01 7.36903E+00 0.00000E+00
 -1      1680 9.81533E+01 6.93955E+00 0.00000E+00
 -1      1681 9.64581E+01 8.47722E+00 0.00000E+00
 -1      1682 9.69368E+01 7.95951E+00 0.00000E+00
 -1      1683 9.55552E+01 9.73019E+00 0.00000E+00
 -1      1684 9.59244E+01 9.11853E+00 0.00000E+00
 -1      1685 9.49516E+01 1.11930E+01 0.00000E+00
 -1      1686 9.51929E+01 1.05025E+01 0.00000E+00
 -1      1687 9.46193E+01 1.27629E+01 0.00000E+00
 -1      1688 9.47119E+01 1.20313E+01 0.00000E+00
 -1      1689 9.46987E+01 1.43338E+01 0.00000E+00
 -1      1690 9.46406E+01 1.36234E+01 0.00000E+00
 -1      1691 9.50803E+01 1.58000E+01 0.00000E+00
 -1      1692 9.48878E+01 1.51368E+01 0.00000E+00
 -1      1693 9.56698E+01 1.72684E+01 0.00000E+00
 -1      1694 9.53226E+01 1.66133E+01 0.00000E+00
 -1      1695 9.67063E+01 1.85149E+01 0.00000E+00
 -1      1696 9.62283E+01 1.79471E+01 0.00000E+00
 -1      1697 9.79052E+01 1.96591E+01 0.00000E+00
 -1      1698 9.72944E+01 1.91902E+01 0.00000E+00
 -1      1699 9.93677E+01 2.03625E+01 0.00000E+00
 -1      1700 9.87044E+01 2.00506E+01 0.00000E+00
 -1      1701 1.00982E+02 2.08636E+01 0.00000E+00
 -1      1702 1.00204E+02 2.06893E+01 0.00000E+00
 -1      1703 1.02609E+02 2.09265E+01 0.00000E+00
 -1      1704 1.01877E+02 2.09252E+01 0.00000E+00
 -1      1705 1.04200E+02 2.06798E+01 0.00000E+00
 -1      1706 1.03468E+02 2.08358E+01 0.00000E+00
 -1      1707 1.05669E+02 2.01236E+01 0.00000E+00
 -1      1708 1.05014E+02 2.04162E+01 0.00000E+00
 -1      1709 1.07037E+02 1.92320E+01 0.00000E+00
 -1      1710 1.06418E+02 1.96858E+01 0.00000E+00
 -1      1711 1.08262E+02 1.81084E+01 0.00000E+00
 -1      1712 1.07759E+02 1.86833E+01 0.00000E+00
 -1      1713 1.09044E+02 1.67268E+01 0.00000E+00
 -1      1714 1.08698E+02 1.73498E+01 0.00000E+00
 -1      1715 1.09585E+02 1.52886E+01 0.00000E+00
 -1      1716 1.09372E+02 1.59643E+01 0.00000E+00
 -1      1717 1.09823E+02 1.37722E+01 0.00000E+00
 -1      1718 1.09751E+02 1.44777E+01 0.00000E+00
 -1      1719 1.07777E+02 7.16452E+00 0.00000E+00
 -1      1720 1.08810E+02 8.54492E+00 0.00000E+00
 -1      1721 1.48362E+02 2.56875E+00 0.00000E+00
 -1      1722 1.47063E+02 3.30625E+00 0.00000E+00
 -1      1723 1.10285E+02 1.16480E+01 0.00000E+00
 -1      1724 1.09745E+02 9.99753E+00 0.00000E+00
 -1      1725 1.10390E+02 1.33553E+01 0.00000E+00
 -1      1726 1.06421E+02 6.17901E+00 0.00000E+00
 -1      1727 1.04808E+02 5.55184E+00 0.00000E+00
 -1      1728 1.03145E+02 5.19417E+00 0.00000E+00
 -1      1729 1.01425E+02 5.22830E+00 0.00000E+00
 -1      1730 9.97746E+01 5.57127E+00 0.00000E+00
 -1      1731 9.82260E+01 6.24595E+00 0.00000E+00
 -1      1732 9.68640E+01 7.21634E+00 0.00000E+00
 -1      1733 9.57187E+01 8.44812E+00 0.00000E+00
 -1      1734 9.48227E+01 9.86169E+00 0.00000E+00
 -1      1735 9.42207E+01 1.14722E+01 0.00000E+00
 -1      1736 9.40024E+01 1.31709E+01 0.00000E+00
 -1      1737 9.42128E+01 1.48344E+01 0.00000E+00
 -1      1738 9.46442E+01 1.64507E+01 0.00000E+00
 -1      1739 9.54451E+01 1.79427E+01 0.00000E+00
 -1      1740 9.65916E+01 1.92967E+01 0.00000E+00
 -1      1741 9.79789E+01 2.03636E+01 0.00000E+00
 -1      1742 9.96146E+01 2.10820E+01 0.00000E+00
 -1      1743 1.01347E+02 2.14705E+01 0.00000E+00
 -1      1744 1.03101E+02 2.14414E+01 0.00000E+00
 -1      1745 1.04774E+02 2.10871E+01 0.00000E+00
 -1      1746 1.06337E+02 2.03857E+01 0.00000E+00
 -1      1747 1.07808E+02 1.93991E+01 0.00000E+00
 -1      1748 1.08965E+02 1.80917E+01 0.00000E+00
 -1      1749 1.09729E+02 1.65705E+01 0.00000E+00
 -1      1750 1.10224E+02 1.49972E+01 0.00000E+00
 -1      1751 2.87400E+00 4.77875E+01 0.00000E+00
 -1      1752 3.89700E+00 4.04125E+01 0.00000E+00
 -1      1753 3.89700E+00 4.18875E+01 0.00000E+00
 -1      1754 3.89700E+00 4.33625E+01 0.00000E+00
 -1      1755 3.89700E+00 4.48375E+01 0.00000E+00
 -1      1756 5.19600E+00 4.26250E+01 0.00000E+00
 -1      1757 3.89700E+00 3.45500E+01 0.00000E+00
 -1      1758 3.89700E+00 3.60000E+01 0.00000E+00
 -1      1759 3.89700E+00 3.16000E+01 0.00000E+00
 -1      1760 3.89700E+00 3.30750E+01 0.00000E+00
 -1      1761 5.19600E+00 3.38000E+01 0.00000E+00
 -1      1762 3.89700E+00 2.86500E+01 0.00000E+00
 -1      1763 3.89700E+00 3.01250E+01 0.00000E+00
 -1      1764 5.19600E+00 3.08500E+01 0.00000E+00
 -1      1765 3.89700E+00 2.57000E+01 0.00000E+00
 -1      1766 3.89700E+00 2.71750E+01 0.00000E+00
 -1      1767 5.19600E+00 2.79000E+01 0.00000E+00
 -1      1768 3.89700E+00 2.27500E+01 0.00000E+00
 -1      1769 3.89700E+00 2.42250E+01 0.00000E+00
 -1      1770 5.19600E+00 2.49500E+01 0.00000E+00
 -1      1771 3.89700E+00 1.98000E+01 0.00000E+00
 -1      1772 3.89700E+00 2.12750E+01 0.00000E+00
 -1      1773 5.19600E+00 2.20000E+01 0.00000E+00
 -1      1774 3.89700E+00 1.69000E+01 0.00000E+00
 -1      1775 3.89700E+00 1.83500E+01 0.00000E+00
 -1      1776 5.19600E+00 1.90750E+01 0.00000E+00
 -1      1777 3.89700E+00 1.39500E+01 0.00000E+00
 -1      1778 3.89700E+00 1.54250E+01 0.00000E+00
 -1      1779 5.19600E+00 1.61500E+01 0.00000E+00
 -1      1780 3.89700E+00 1.10000E+01 0.00000E+00
 -1      1781 3.89700E+00 1.24750E+01 0.00000E+00
 -1      1782 5.19600E+00 1.32000E+01 0.00000E+00
 -1      1783 3.89700E+00 8.05000E+00 0.00000E+00
 -1      1784 3.89700E+00 9.52500E+00 0.00000E+00
 -1      1785 5.19600E+00 1.02500E+01 0.00000E+00
 -1      1786 3.89700E+00 5.10000E+00 0.00000E+00
 -1      1787 3.89700E+00 6.57500E+00 0.00000E+00
 -1      1788 5.19600E+00 7.30000E+00 0.00000E+00
 -1      1789 4.20450E+00 3.09687E+00 0.00000E+00
 -1      1790 4.06650E+00 4.19063E+00 0.00000E+00
 -1      1791 5.36550E+00 4.91563E+00 0.00000E+00
 -1      1792 5.70450E+00 3.09687E+00 0.00000E+00
 -1      1793 3.62400E+00 4.64885E+01 0.00000E+00
 -1      1794 8.70450E+00 3.09687E+00 0.00000E+00
 -1      1795 7.20450E+00 3.09687E+00 0.00000E+00
 -1      1796 7.03500E+00 4.00625E+00 0.00000E+00
 -1      1797 4.92300E+00 4.57510E+01 0.00000E+00
 -1      1798 8.40000E+00 4.61030E+01 0.00000E+00
 -1      1799 9.90000E+00 4.61030E+01 0.00000E+00
 -1      1800 1.14000E+01 4.61030E+01 0.00000E+00
 -1      1801 1.29000E+01 4.61030E+01 0.00000E+00
 -1      1802 1.06500E+01 4.48040E+01 0.00000E+00
 -1      1803 1.44000E+01 4.61030E+01 0.00000E+00
 -1      1804 1.59000E+01 4.61030E+01 0.00000E+00
 -1      1805 1.36500E+01 4.48040E+01 0.00000E+00
 -1      1806 1.74000E+01 4.61030E+01 0.00000E+00
 -1      1807 1.89000E+01 4.61030E+01 0.00000E+00
 -1      1808 1.66500E+01 4.48040E+01 0.00000E+00
 -1      1809 2.04000E+01 4.61030E+01 0.00000E+00
 -1      1810 2.19000E+01 4.61030E+01 0.00000E+00
 -1      1811 1.96500E+01 4.48040E+01 0.00000E+00
 -1      1812 2.34000E+01 4.61030E+01 0.00000E+00
 -1      1813 2.49000E+01 4.61030E+01 0.00000E+00
 -1      1814 2.26500E+01 4.48040E+01 0.00000E+00
 -1      1815 2.64000E+01 4.61030E+01 0.00000E+00
 -1      1816 2.79000E+01 4.61030E+01 0.00000E+00
 -1      1817 2.56500E+01 4.48040E+01 0.00000E+00
 -1      1818 2.94000E+01 4.61030E+01 0.00000E+00
 -1      1819 3.09000E+01 4.61030E+01 0.00000E+00
 -1      1820 2.86500E+01 4.48040E+01 0.00000E+00
 -1      1821 3.24000E+01 4.61030E+01 0.00000E+00
 -1      1822 3.39000E+01 4.61030E+01 0.00000E+00
 -1      1823 3.16500E+01 4.48040E+01 0.00000E+00
 -1      1824 3.54000E+01 4.61030E+01 0.00000E+00
 -1      1825 3.69000E+01 4.61030E+01 0.00000E+00
 -1      1826 3.46500E+01 4.48040E+01 0.00000E+00
 -1      1827 3.84000E+01 4.61030E+01 0.00000E+00
 -1      1828 3.99000E+01 4.61030E+01 0.00000E+00
 -1      1829 3.76500E+01 4.48040E+01 0.00000E+00
 -1      1830 4.14000E+01 4.61030E+01 0.00000E+00
 -1      1831 4.29000E+01 4.61030E+01 0.00000E+00
 -1      1832 4.06500E+01 4.48040E+01 0.00000E+00
 -1      1833 4.44000E+01 4.61030E+01 0.00000E+00
 -1      1834 4.59000E+01 4.61030E+01 0.00000E+00
 -1      1835 4.36500E+01 4.48040E+01 0.00000E+00
 -1      1836 4.74000E+01 4.61030E+01 0.00000E+00
 -1      1837 4.89000E+01 4.61030E+01 0.00000E+00
 -1      1838 4.66500E+01 4.48040E+01 0.00000E+00
 -1      1839 5.04000E+01 4.61030E+01 0.00000E+00
 -1      1840 5.19000E+01 4.61030E+01 0.00000E+00
 -1      1841 4.96500E+01 4.48040E+01 0.00000E+00
 -1      1842 5.34000E+01 4.61030E+01 0.00000E+00
 -1      1843 5.49000E+01 4.61030E+01 0.00000E+00
 -1      1844 5.26500E+01 4.48040E+01 0.00000E+00
 -1      1845 5.64000E+01 4.61030E+01 0.00000E+00
 -1      1846 5.79000E+01 4.61030E+01 0.00000E+00
 -1      1847 5.56500E+01 4.48040E+01 0.00000E+00
 -1      1848 5.94000E+01 4.61030E+01 0.00000E+00
 -1      1849 6.09000E+01 4.61030E+01 0.00000E+00
 -1      1850 5.86500E+01 4.48040E+01 0.00000E+00
 -1      1851 6.24000E+01 4.61030E+01 0.00000E+00
 -1      1852 6.39000E+01 4.61030E+01 0.00000E+00
 -1      1853 6.16500E+01 4.48040E+01 0.00000E+00
 -1      1854 6.54000E+01 4.61030E+01 0.00000E+00
 -1      1855 6.69000E+01 4.61030E+01 0.00000E+00
 -1      1856 6.46500E+01 4.48040E+01 0.00000E+00
 -1      1857 6.84000E+01 4.61030E+01 0.00000E+00
 -1      1858 6.99000E+01 4.61030E+01 0.00000E+00
 -1      1859 6.76500E+01 4.48040E+01 0.00000E+00
 -1      1860 7.14000E+01 4.61030E+01 0.00000E+00
 -1      1861 7.29000E+01 4.61030E+01 0.00000E+00
 -1      1862 7.06500E+01 4.48040E+01 0.00000E+00
 -1      1863 7.44000E+01 4.61030E+01 0.00000E+00
 -1      1864 7.59000E+01 4.61030E+01 0.00000E+00
 -1      1865 7.36500E+01 4.48040E+01 0.00000E+00
 -1      1866 7.74000E+01 4.61030E+01 0.00000E+00
 -1      1867 7.89000E+01 4.61030E+01 0.00000E+00
 -1      1868 7.66500E+01 4.48040E+01 0.00000E+00
 -1      1869 8.04000E+01 4.61030E+01 0.00000E+00
 -1      1870 8.19000E+01 4.61030E+01 0.00000E+00
 -1      1871 7.96500E+01 4.48040E+01 0.00000E+00
 -1      1872 8.34000E+01 4.61030E+01 0.00000E+00
 -1      1873 8.49000E+01 4.61030E+01 0.00000E+00
 -1      1874 8.26500E+01 4.48040E+01 0.00000E+00
 -1      1875 8.64000E+01 4.61030E+01 0.00000E+00
 -1      1876 8.79000E+01 4.61030E+01 0.00000E+00
 -1      1877 8.56500E+01 4.48040E+01 0.00000E+00
 -1      1878 8.94000E+01 4.61030E+01 0.00000E+00
 -1      1879 9.09000E+01 4.61030E+01 0.00000E+00
 -1      1880 8.86500E+01 4.48040E+01 0.00000E+00
 -1      1881 9.24000E+01 4.61030E+01 0.00000E+00
 -1      1882 9.39000E+01 4.61030E+01 0.00000E+00
 -1      1883 9.16500E+01 4.48040E+01 0.00000E+00
 -1      1884 9.54000E+01 4.61030E+01 0.00000E+00
 -1      1885 9.69000E+01 4.61030E+01 0.00000E+00
 -1      1886 9.46500E+01 4.48040E+01 0.00000E+00
 -1      1887 9.84000E+01 4.61030E+01 0.00000E+00
 -1      1888 9.99000E+01 4.61030E+01 0.00000E+00
 -1      1889 9.76500E+01 4.48040E+01 0.00000E+00
 -1      1890 1.01400E+02 4.61030E+01 0.00000E+00
 -1      1891 1.02900E+02 4.61030E+01 0.00000E+00
 -1      1892 1.00650E+02 4.48040E+01 0.00000E+00
 -1      1893 1.04400E+02 4.61030E+01 0.00000E+00
 -1      1894 1.05900E+02 4.61030E+01 0.00000E+00
 -1      1895 1.03650E+02 4.48040E+01 0.00000E+00
 -1      1896 1.07400E+02 4.61030E+01 0.00000E+00
 -1      1897 1.08900E+02 4.61030E+01 0.00000E+00
 -1      1898 1.06650E+02 4.48040E+01 0.00000E+00
 -1      1899 1.10400E+02 4.61030E+01 0.00000E+00
 -1      1900 1.11900E+02 4.61030E+01 0.00000E+00
 -1      1901 1.09650E+02 4.48040E+01 0.00000E+00
 -1      1902 1.13400E+02 4.61030E+01 0.00000E+00
 -1      1903 1.14900E+02 4.61030E+01 0.00000E+00
 -1      1904 1.12650E+02 4.48040E+01 0.00000E+00
 -1      1905 1.16400E+02 4.61030E+01 0.00000E+00
 -1      1906 1.17900E+02 4.61030E+01 0.00000E+00
 -1      1907 1.15650E+02 4.48040E+01 0.00000E+00
 -1      1908 1.19400E+02 4.61030E+01 0.00000E+00
 -1      1909 1.20900E+02 4.61030E+01 0.00000E+00
 -1      1910 1.18650E+02 4.48040E+01 0.00000E+00
 -1      1911 1.22400E+02 4.61030E+01 0.00000E+00
 -1      1912 1.23900E+02 4.61030E+01 0.00000E+00
 -1      1913 1.21650E+02 4.48040E+01 0.00000E+00
 -1      1914 1.25400E+02 4.61030E+01 0.00000E+00
 -1      1915 1.26900E+02 4.61030E+01 0.00000E+00
 -1      1916 1.24650E+02 4.48040E+01 0.00000E+00
 -1      1917 1.28400E+02 4.61030E+01 0.00000E+00
 -1      1918 1.29900E+02 4.61030E+01 0.00000E+00
 -1      1919 1.27650E+02 4.48040E+01 0.00000E+00
 -1      1920 1.31400E+02 4.61030E+01 0.00000E+00
 -1      1921 1.32900E+02 4.61030E+01 0.00000E+00
 -1      1922 1.30650E+02 4.48040E+01 0.00000E+00
 -1      1923 1.34400E+02 4.61030E+01 0.00000E+00
 -1      1924 1.35900E+02 4.61030E+01 0.00000E+00
 -1      1925 1.33650E+02 4.48040E+01 0.00000E+00
 -1      1926 1.37400E+02 4.61030E+01 0.00000E+00
 -1      1927 1.38900E+02 4.61030E+01 0.00000E+00
 -1      1928 1.36650E+02 4.48040E+01 0.00000E+00
 -1      1929 1.40400E+02 4.61030E+01 0.00000E+00
 -1      1930 1.41900E+02 4.61030E+01 0.00000E+00
 -1      1931 1.39650E+02 4.48040E+01 0.00000E+00
 -1      1932 1.43244E+02 4.61616E+01 0.00000E+00
 -1      1933 1.44744E+02 4.61616E+01 0.00000E+00
 -1      1934 1.45182E+02 4.49799E+01 0.00000E+00
 -1      1935 1.42494E+02 4.48626E+01 0.00000E+00
 -1      1936 1.17045E+01 3.09687E+00 0.00000E+00
 -1      1937 1.02045E+01 3.09687E+00 0.00000E+00
 -1      1938 1.00350E+01 4.00625E+00 0.00000E+00
 -1      1939 1.47045E+01 3.09687E+00 0.00000E+00
 -1      1940 1.32045E+01 3.09687E+00 0.00000E+00
 -1      1941 1.30350E+01 4.00625E+00 0.00000E+00
 -1      1942 1.78545E+01 3.09687E+00 0.00000E+00
 -1      1943 1.62795E+01 3.09687E+00 0.00000E+00
 -1      1944 1.61100E+01 4.00625E+00 0.00000E+00
 -1      1945 2.08545E+01 3.09687E+00 0.00000E+00
 -1      1946 1.93545E+01 3.09687E+00 0.00000E+00
 -1      1947 1.91850E+01 4.00625E+00 0.00000E+00
 -1      1948 2.38545E+01 3.09687E+00 0.00000E+00
 -1      1949 2.23545E+01 3.09687E+00 0.00000E+00
 -1      1950 2.21850E+01 4.00625E+00 0.00000E+00
 -1      1951 2.68545E+01 3.09687E+00 0.00000E+00
 -1      1952 2.53545E+01 3.09687E+00 0.00000E+00
 -1      1953 2.51850E+01 4.00625E+00 0.00000E+00
 -1      1954 2.98545E+01 3.09687E+00 0.00000E+00
 -1      1955 2.83545E+01 3.09687E+00 0.00000E+00
 -1      1956 2.81850E+01 4.00625E+00 0.00000E+00
 -1      1957 3.30045E+01 3.09687E+00 0.00000E+00
 -1      1958 3.14295E+01 3.09687E+00 0.00000E+00
 -1      1959 3.12600E+01 4.00625E+00 0.00000E+00
 -1      1960 3.60045E+01 3.09687E+00 0.00000E+00
 -1      1961 3.45045E+01 3.09687E+00 0.00000E+00
 -1      1962 3.43350E+01 4.00625E+00 0.00000E+00
 -1      1963 3.90045E+01 3.09687E+00 0.00000E+00
 -1      1964 3.75045E+01 3.09687E+00 0.00000E+00
 -1      1965 3.73350E+01 4.00625E+00 0.00000E+00
 -1      1966 4.20045E+01 3.09687E+00 0.00000E+00
 -1      1967 4.05045E+01 3.09687E+00 0.00000E+00
 -1      1968 4.03350E+01 4.00625E+00 0.00000E+00
 -1      1969 4.50045E+01 3.09687E+00 0.00000E+00
 -1      1970 4.35045E+01 3.09687E+00 0.00000E+00
 -1      1971 4.33350E+01 4.00625E+00 0.00000E+00
 -1      1972 4.81545E+01 3.09687E+00 0.00000E+00
 -1      1973 4.65795E+01 3.09687E+00 0.00000E+00
 -1      1974 4.64100E+01 4.00625E+00 0.00000E+00
 -1      1975 5.11545E+01 3.09687E+00 0.00000E+00
 -1      1976 4.96545E+01 3.09687E+00 0.00000E+00
 -1      1977 4.94850E+01 4.00625E+00 0.00000E+00
 -1      1978 5.41545E+01 3.09687E+00 0.00000E+00
 -1      1979 5.26545E+01 3.09687E+00 0.00000E+00
 -1      1980 5.24850E+01 4.00625E+00 0.00000E+00
 -1      1981 5.71545E+01 3.09687E+00 0.00000E+00
 -1      1982 5.56545E+01 3.09687E+00 0.00000E+00
 -1      1983 5.54850E+01 4.00625E+00 0.00000E+00
 -1      1984 6.01545E+01 3.09687E+00 0.00000E+00
 -1      1985 5.86545E+01 3.09687E+00 0.00000E+00
 -1      1986 5.84850E+01 4.00625E+00 0.00000E+00
 -1      1987 6.33045E+01 3.09687E+00 0.00000E+00
 -1      1988 6.17295E+01 3.09687E+00 0.00000E+00
 -1      1989 6.15600E+01 4.00625E+00 0.00000E+00
 -1      1990 6.63045E+01 3.09687E+00 0.00000E+00
 -1      1991 6.48045E+01 3.09687E+00 0.00000E+00
 -1      1992 6.46350E+01 4.00625E+00 0.00000E+00
 -1      1993 6.93045E+01 3.09687E+00 0.00000E+00
 -1      1994 6.78045E+01 3.09687E+00 0.00000E+00
 -1      1995 6.76350E+01 4.00625E+00 0.00000E+00
 -1      1996 7.23045E+01 3.09687E+00 0.00000E+00
 -1      1997 7.08045E+01 3.09687E+00 0.00000E+00
 -1      1998 7.06350E+01 4.00625E+00 0.00000E+00
 -1      1999 7.53045E+01 3.09687E+00 0.00000E+00
 -1      2000 7.38045E+01 3.09687E+00 0.00000E+00
 -1      2001 7.36350E+01 4.00625E+00 0.00000E+00
 -1      2002 7.83045E+01 3.09687E+00 0.00000E+00
 -1      2003 7.68045E+01 3.09687E+00 0.00000E+00
 -1      2004 7.66350E+01 4.00625E+00 0.00000E+00
 -1      2005 8.14545E+01 3.09687E+00 0.00000E+00
 -1      2006 7.98795E+01 3.09687E+00 0.00000E+00
 -1      2007 7.97100E+01 4.00625E+00 0.00000E+00
 -1      2008 8.44545E+01 3.09687E+00 0.00000E+00
 -1      2009 8.29545E+01 3.09687E+00 0.00000E+00
 -1      2010 8.27850E+01 4.00625E+00 0.00000E+00
 -1      2011 8.74545E+01 3.09687E+00 0.00000E+00
 -1      2012 8.59545E+01 3.09687E+00 0.00000E+00
 -1      2013 8.57850E+01 4.00625E+00 0.00000E+00
 -1      2014 9.04545E+01 3.09687E+00 0.00000E+00
 -1      2015 8.89545E+01 3.09687E+00 0.00000E+00
 -1      2016 8.87850E+01 4.00625E+00 0.00000E+00
 -1      2017 9.34545E+01 3.09687E+00 0.00000E+00
 -1      2018 9.19545E+01 3.09687E+00 0.00000E+00
 -1      2019 9.17850E+01 4.00625E+00 0.00000E+00
 -1      2020 9.64545E+01 3.09687E+00 0.00000E+00
 -1      2021 9.49545E+01 3.09687E+00 0.00000E+00
 -1      2022 9.47850E+01 4.00625E+00 0.00000E+00
 -1      2023 1.02886E+02 2.96127E+00 0.00000E+00
 -1      2024 1.01911E+02 2.96127E+00 0.00000E+00
 -1      2025 1.05286E+02 3.00316E+00 0.00000E+00
 -1      2026 1.04011E+02 3.00316E+00 0.00000E+00
 -1      2027 1.07612E+02 3.04505E+00 0.00000E+00
 -1      2028 1.06487E+02 3.04505E+00 0.00000E+00
 -1      2029 1.10161E+02 3.04505E+00 0.00000E+00
 -1      2030 1.08886E+02 3.04505E+00 0.00000E+00
 -1      2031 1.08324E+02 3.90261E+00 0.00000E+00
 -1      2032 1.12862E+02 3.04505E+00 0.00000E+00
 -1      2033 1.11511E+02 3.04505E+00 0.00000E+00
 -1      2034 1.10949E+02 3.90261E+00 0.00000E+00
 -1      2035 1.15862E+02 3.04505E+00 0.00000E+00
 -1      2036 1.14362E+02 3.04505E+00 0.00000E+00
 -1      2037 1.13799E+02 3.90261E+00 0.00000E+00
 -1      2038 1.19011E+02 3.04505E+00 0.00000E+00
 -1      2039 1.17437E+02 3.04505E+00 0.00000E+00
 -1      2040 1.16874E+02 3.90261E+00 0.00000E+00
 -1      2041 1.22011E+02 3.04505E+00 0.00000E+00
 -1      2042 1.20511E+02 3.04505E+00 0.00000E+00
 -1      2043 1.19949E+02 3.90261E+00 0.00000E+00
 -1      2044 1.25011E+02 3.04505E+00 0.00000E+00
 -1      2045 1.23511E+02 3.04505E+00 0.00000E+00
 -1      2046 1.22949E+02 3.90261E+00 0.00000E+00
 -1      2047 1.28012E+02 3.04505E+00 0.00000E+00
 -1      2048 1.26511E+02 3.04505E+00 0.00000E+00
 -1      2049 1.25949E+02 3.90261E+00 0.00000E+00
 -1      2050 1.31012E+02 3.04505E+00 0.00000E+00
 -1      2051 1.29512E+02 3.04505E+00 0.00000E+00
 -1      2052 1.28949E+02 3.90261E+00 0.00000E+00
 -1      2053 1.34161E+02 3.04505E+00 0.00000E+00
 -1      2054 1.32587E+02 3.04505E+00 0.00000E+00
 -1      2055 1.32024E+02 3.90261E+00 0.00000E+00
 -1      2056 1.37161E+02 3.04505E+00 0.00000E+00
 -1      2057 1.35661E+02 3.04505E+00 0.00000E+00
 -1      2058 1.35099E+02 3.90261E+00 0.00000E+00
 -1      2059 1.40161E+02 3.04505E+00 0.00000E+00
 -1      2060 1.38661E+02 3.04505E+00 0.00000E+00
 -1      2061 1.38099E+02 3.90261E+00 0.00000E+00
 -1      2062 1.43161E+02 3.04505E+00 0.00000E+00
 -1      2063 1.41661E+02 3.04505E+00 0.00000E+00
 -1      2064 1.41099E+02 3.90261E+00 0.00000E+00
 -1      2065 1.45862E+02 3.17565E+00 0.00000E+00
 -1      2066 1.44362E+02 3.17565E+00 0.00000E+00
 -1      2067 1.43800E+02 4.03321E+00 0.00000E+00
 -1      2068 1.46201E+02 4.29440E+00 0.00000E+00
 -1      2069 1.46103E+02 1.25375E+01 0.00000E+00
 -1      2070 1.46103E+02 1.10625E+01 0.00000E+00
 -1      2071 1.46103E+02 9.58750E+00 0.00000E+00
 -1      2072 1.46103E+02 8.11250E+00 0.00000E+00
 -1      2073 1.44804E+02 1.03250E+01 0.00000E+00
 -1      2074 1.46152E+02 6.94095E+00 0.00000E+00
 -1      2075 1.46152E+02 5.46595E+00 0.00000E+00
 -1      2076 1.44951E+02 5.33535E+00 0.00000E+00
 -1      2077 1.44853E+02 7.67845E+00 0.00000E+00
 -1      2078 1.46103E+02 1.54375E+01 0.00000E+00
 -1      2079 1.46103E+02 1.39875E+01 0.00000E+00
 -1      2080 1.44804E+02 1.32500E+01 0.00000E+00
 -1      2081 1.46103E+02 1.83875E+01 0.00000E+00
 -1      2082 1.46103E+02 1.69125E+01 0.00000E+00
 -1      2083 1.44804E+02 1.61750E+01 0.00000E+00
 -1      2084 1.46103E+02 2.13375E+01 0.00000E+00
 -1      2085 1.46103E+02 1.98625E+01 0.00000E+00
 -1      2086 1.44804E+02 1.91250E+01 0.00000E+00
 -1      2087 1.46103E+02 2.42875E+01 0.00000E+00
 -1      2088 1.46103E+02 2.28125E+01 0.00000E+00
 -1      2089 1.44804E+02 2.20750E+01 0.00000E+00
 -1      2090 1.46103E+02 2.72375E+01 0.00000E+00
 -1      2091 1.46103E+02 2.57625E+01 0.00000E+00
 -1      2092 1.44804E+02 2.50250E+01 0.00000E+00
 -1      2093 1.46103E+02 3.01875E+01 0.00000E+00
 -1      2094 1.46103E+02 2.87125E+01 0.00000E+00
 -1      2095 1.44804E+02 2.79750E+01 0.00000E+00
 -1      2096 1.46103E+02 3.30875E+01 0.00000E+00
 -1      2097 1.46103E+02 3.16375E+01 0.00000E+00
 -1      2098 1.44804E+02 3.09000E+01 0.00000E+00
 -1      2099 1.46103E+02 3.60375E+01 0.00000E+00
 -1      2100 1.46103E+02 3.45625E+01 0.00000E+00
 -1      2101 1.44804E+02 3.38250E+01 0.00000E+00
 -1      2102 1.46103E+02 3.89875E+01 0.00000E+00
 -1      2103 1.46103E+02 3.75125E+01 0.00000E+00
 -1      2104 1.44804E+02 3.67750E+01 0.00000E+00
 -1      2105 1.46103E+02 4.19375E+01 0.00000E+00
 -1      2106 1.46103E+02 4.04625E+01 0.00000E+00
 -1      2107 1.44804E+02 3.97250E+01 0.00000E+00
 -1      2108 1.10200E+02 9.23030E+00 0.00000E+00
 -1      2109 1.10637E+02 1.00045E+01 0.00000E+00
 -1      2110 1.11163E+02 1.29394E+01 0.00000E+00
 -1      2111 1.11164E+02 1.37704E+01 0.00000E+00
 -1      2112 1.10956E+02 1.11867E+01 0.00000E+00
 -1      2113 1.11059E+02 1.20630E+01 0.00000E+00
 -1      2114 1.11833E+02 1.24781E+01 0.00000E+00
 -1      2115 1.09205E+02 7.87340E+00 0.00000E+00
 -1      2116 1.09703E+02 8.55185E+00 0.00000E+00
 -1      2117 1.10595E+02 8.55878E+00 0.00000E+00
 -1      2118 1.08057E+02 6.39471E+00 0.00000E+00
 -1      2119 1.08593E+02 7.09666E+00 0.00000E+00
 -1      2120 3.89700E+00 3.74688E+01 0.00000E+00
 -1      2121 3.89700E+00 3.89437E+01 0.00000E+00
 -1      2122 5.19600E+00 3.96813E+01 0.00000E+00
 -1      2123 5.19600E+00 3.67438E+01 0.00000E+00
 -1      2124 1.04331E+02 4.51353E+00 0.00000E+00
 -1      2125 1.05126E+02 4.85713E+00 0.00000E+00
 -1      2126 1.02338E+02 4.45757E+00 0.00000E+00
 -1      2127 1.03206E+02 4.47164E+00 0.00000E+00
 -1      2128 1.00634E+02 4.55398E+00 0.00000E+00
 -1      2129 1.01486E+02 4.50577E+00 0.00000E+00
 -1      2130 1.01547E+02 3.78325E+00 0.00000E+00
 -1      2131 9.90378E+01 5.14351E+00 0.00000E+00
 -1      2132 9.98360E+01 4.84875E+00 0.00000E+00
 -1      2133 9.98973E+01 4.12622E+00 0.00000E+00
 -1      2134 9.75369E+01 5.90334E+00 0.00000E+00
 -1      2135 9.82874E+01 5.52343E+00 0.00000E+00
 -1      2136 9.83487E+01 4.80090E+00 0.00000E+00
 -1      2137 9.60789E+01 7.01517E+00 0.00000E+00
 -1      2138 9.66906E+01 6.42470E+00 0.00000E+00
 -1      2139 9.49214E+01 8.32740E+00 0.00000E+00
 -1      2140 9.54552E+01 7.68609E+00 0.00000E+00
 -1      2141 9.40548E+01 9.97259E+00 0.00000E+00
 -1      2142 9.44171E+01 9.20032E+00 0.00000E+00
 -1      2143 9.33569E+01 1.16786E+01 0.00000E+00
 -1      2144 9.35966E+01 1.08403E+01 0.00000E+00
 -1      2145 9.33652E+01 1.36172E+01 0.00000E+00
 -1      2146 9.33438E+01 1.27567E+01 0.00000E+00
 -1      2147 9.35949E+01 1.54036E+01 0.00000E+00
 -1      2148 9.34059E+01 1.46007E+01 0.00000E+00
 -1      2149 9.40797E+01 1.70303E+01 0.00000E+00
 -1      2150 9.38373E+01 1.62169E+01 0.00000E+00
 -1      2151 9.30304E+01 1.59832E+01 0.00000E+00
 -1      2152 9.51915E+01 1.87205E+01 0.00000E+00
 -1      2153 9.46330E+01 1.80418E+01 0.00000E+00
 -1      2154 9.63677E+01 2.00711E+01 0.00000E+00
 -1      2155 9.57796E+01 1.93958E+01 0.00000E+00
 -1      2156 9.49676E+01 1.94948E+01 0.00000E+00
 -1      2157 9.80749E+01 2.11790E+01 0.00000E+00
 -1      2158 9.72757E+01 2.07874E+01 0.00000E+00
 -1      2159 9.97969E+01 2.18491E+01 0.00000E+00
 -1      2160 9.89605E+01 2.15222E+01 0.00000E+00
 -1      2161 1.01741E+02 2.22732E+01 0.00000E+00
 -1      2162 1.00846E+02 2.22116E+01 0.00000E+00
 -1      2163 1.03603E+02 2.20822E+01 0.00000E+00
 -1      2164 1.02744E+02 2.21729E+01 0.00000E+00
 -1      2165 1.05407E+02 2.16516E+01 0.00000E+00
 -1      2166 1.04593E+02 2.19152E+01 0.00000E+00
 -1      2167 1.07102E+02 2.08347E+01 0.00000E+00
 -1      2168 1.06354E+02 2.12725E+01 0.00000E+00
 -1      2169 1.08612E+02 1.97074E+01 0.00000E+00
 -1      2170 1.07890E+02 2.02562E+01 0.00000E+00
 -1      2171 1.09854E+02 1.80975E+01 0.00000E+00
 -1      2172 1.09419E+02 1.88562E+01 0.00000E+00
 -1      2173 1.10527E+02 1.64620E+01 0.00000E+00
 -1      2174 1.10199E+02 1.72244E+01 0.00000E+00
 -1      2175 1.10983E+02 1.47308E+01 0.00000E+00
 -1      2176 1.10816E+02 1.55417E+01 0.00000E+00
 -1      2177 1.06326E+02 4.89903E+00 0.00000E+00
 -1      2178 1.07145E+02 5.18259E+00 0.00000E+00
 -1      2179 6.42300E+00 4.57510E+01 0.00000E+00
 -1      2180 1.05849E+02 3.86072E+00 0.00000E+00
 -1      2181 7.17300E+00 4.44520E+01 0.00000E+00
 -1      2182 1.01060E+02 3.00948E+00 0.00000E+00
 -1      2183 1.03524E+02 3.77693E+00 0.00000E+00
 -1      2184 9.98597E+01 3.00948E+00 0.00000E+00
 -1      2185 9.90616E+01 3.30424E+00 0.00000E+00
 -1      2186 1.11411E+02 1.04195E+01 0.00000E+00
 -1      2187 1.45665E+02 4.31193E+01 0.00000E+00
 -1      2188 1.09485E+02 7.10359E+00 0.00000E+00
 -1      2189 1.11756E+02 1.43148E+01 0.00000E+00
 -1      2190 1.11286E+02 1.61956E+01 0.00000E+00
 -1      2191 1.10652E+02 1.79890E+01 0.00000E+00
 -1      2192 1.09500E+02 1.97133E+01 0.00000E+00
 -1      2193 1.07906E+02 2.11430E+01 0.00000E+00
 -1      2194 1.06172E+02 2.21006E+01 0.00000E+00
 -1      2195 1.04236E+02 2.26467E+01 0.00000E+00
 -1      2196 1.02243E+02 2.29140E+01 0.00000E+00
 -1      2197 1.00192E+02 2.26518E+01 0.00000E+00
 -1      2198 9.64637E+01 2.08865E+01 0.00000E+00
 -1      2199 9.38261E+01 1.78080E+01 0.00000E+00
 -1      2200 9.27473E+01 1.41865E+01 0.00000E+00
 -1      2201 9.27197E+01 1.21249E+01 0.00000E+00
 -1      2202 9.31910E+01 1.01790E+01 0.00000E+00
 -1      2203 9.41536E+01 8.43829E+00 0.00000E+00
 -1      2204 9.67519E+01 5.70217E+00 0.00000E+00
 -1      2205 9.52817E+01 6.89445E+00 0.00000E+00
 -1      2206 9.82573E+01 2.19460E+01 0.00000E+00
 -1      2207 9.76921E+01 4.21362E+00 0.00000E+00
 -1      2208 9.76545E+01 3.09687E+00 0.00000E+00
 -1      2209 1.07850E+01 5.30525E+00 0.00000E+00
 -1      2210 9.28500E+00 5.30525E+00 0.00000E+00
 -1      2211 6.49500E+00 3.01125E+01 0.00000E+00
 -1      2212 6.49500E+00 3.15875E+01 0.00000E+00
 -1      2213 6.49500E+00 3.30625E+01 0.00000E+00
 -1      2214 6.49500E+00 3.45375E+01 0.00000E+00
 -1      2215 7.79400E+00 3.23250E+01 0.00000E+00
 -1      2216 6.49500E+00 2.42125E+01 0.00000E+00
 -1      2217 6.49500E+00 2.56875E+01 0.00000E+00
 -1      2218 6.49500E+00 2.12625E+01 0.00000E+00
 -1      2219 6.49500E+00 2.27375E+01 0.00000E+00
 -1      2220 7.79400E+00 2.34750E+01 0.00000E+00
 -1      2221 6.49500E+00 1.83625E+01 0.00000E+00
 -1      2222 6.49500E+00 1.98125E+01 0.00000E+00
 -1      2223 7.79400E+00 2.05500E+01 0.00000E+00
 -1      2224 6.49500E+00 1.54125E+01 0.00000E+00
 -1      2225 6.49500E+00 1.68875E+01 0.00000E+00
 -1      2226 7.79400E+00 1.76250E+01 0.00000E+00
 -1      2227 6.49500E+00 1.24625E+01 0.00000E+00
 -1      2228 6.49500E+00 1.39375E+01 0.00000E+00
 -1      2229 7.79400E+00 1.46750E+01 0.00000E+00
 -1      2230 6.49500E+00 9.51250E+00 0.00000E+00
 -1      2231 6.49500E+00 1.09875E+01 0.00000E+00
 -1      2232 7.79400E+00 1.17250E+01 0.00000E+00
 -1      2233 1.11624E+02 5.01152E+00 0.00000E+00
 -1      2234 1.10274E+02 5.01152E+00 0.00000E+00
 -1      2235 1.14624E+02 5.01152E+00 0.00000E+00
 -1      2236 1.13124E+02 5.01152E+00 0.00000E+00
 -1      2237 1.12449E+02 6.12042E+00 0.00000E+00
 -1      2238 1.37850E+01 5.30525E+00 0.00000E+00
 -1      2239 1.22850E+01 5.30525E+00 0.00000E+00
 -1      2240 1.15350E+01 6.60425E+00 0.00000E+00
 -1      2241 9.90000E+00 4.35050E+01 0.00000E+00
 -1      2242 1.14000E+01 4.35050E+01 0.00000E+00
 -1      2243 1.29000E+01 4.35050E+01 0.00000E+00
 -1      2244 1.44000E+01 4.35050E+01 0.00000E+00
 -1      2245 1.21500E+01 4.22060E+01 0.00000E+00
 -1      2246 1.59000E+01 4.35050E+01 0.00000E+00
 -1      2247 1.74000E+01 4.35050E+01 0.00000E+00
 -1      2248 1.51500E+01 4.22060E+01 0.00000E+00
 -1      2249 1.89000E+01 4.35050E+01 0.00000E+00
 -1      2250 2.04000E+01 4.35050E+01 0.00000E+00
 -1      2251 1.81500E+01 4.22060E+01 0.00000E+00
 -1      2252 2.19000E+01 4.35050E+01 0.00000E+00
 -1      2253 2.34000E+01 4.35050E+01 0.00000E+00
 -1      2254 2.11500E+01 4.22060E+01 0.00000E+00
 -1      2255 2.49000E+01 4.35050E+01 0.00000E+00
 -1      2256 2.64000E+01 4.35050E+01 0.00000E+00
 -1      2257 2.41500E+01 4.22060E+01 0.00000E+00
 -1      2258 2.79000E+01 4.35050E+01 0.00000E+00
 -1      2259 2.94000E+01 4.35050E+01 0.00000E+00
 -1      2260 2.71500E+01 4.22060E+01 0.00000E+00
 -1      2261 3.09000E+01 4.35050E+01 0.00000E+00
 -1      2262 3.24000E+01 4.35050E+01 0.00000E+00
 -1      2263 3.01500E+01 4.22060E+01 0.00000E+00
 -1      2264 3.39000E+01 4.35050E+01 0.00000E+00
 -1      2265 3.54000E+01 4.35050E+01 0.00000E+00
 -1      2266 3.31500E+01 4.22060E+01 0.00000E+00
 -1      2267 3.69000E+01 4.35050E+01 0.00000E+00
 -1      2268 3.84000E+01 4.35050E+01 0.00000E+00
 -1      2269 3.61500E+01 4.22060E+01 0.00000E+00
 -1      2270 3.99000E+01 4.35050E+01 0.00000E+00
 -1      2271 4.14000E+01 4.35050E+01 0.00000E+00
 -1      2272 3.91500E+01 4.22060E+01 0.00000E+00
 -1      2273 4.29000E+01 4.35050E+01 0.00000E+00
 -1      2274 4.44000E+01 4.35050E+01 0.00000E+00
 -1      2275 4.21500E+01 4.22060E+01 0.00000E+00
 -1      2276 4.59000E+01 4.35050E+01 0.00000E+00
 -1      2277 4.74000E+01 4.35050E+01 0.00000E+00
 -1      2278 4.51500E+01 4.22060E+01 0.00000E+00
 -1      2279 4.89000E+01 4.35050E+01 0.00000E+00
 -1      2280 5.04000E+01 4.35050E+01 0.00000E+00
 -1      2281 4.81500E+01 4.22060E+01 0.00000E+00
 -1      2282 5.19000E+01 4.35050E+01 0.00000E+00
 -1      2283 5.34000E+01 4.35050E+01 0.00000E+00
 -1      2284 5.11500E+01 4.22060E+01 0.00000E+00
 -1      2285 5.49000E+01 4.35050E+01 0.00000E+00
 -1      2286 5.64000E+01 4.35050E+01 0.00000E+00
 -1      2287 5.41500E+01 4.22060E+01 0.00000E+00
 -1      2288 5.79000E+01 4.35050E+01 0.00000E+00
 -1      2289 5.94000E+01 4.35050E+01 0.00000E+00
 -1      2290 5.71500E+01 4.22060E+01 0.00000E+00
 -1      2291 6.09000E+01 4.35050E+01 0.00000E+00
 -1      2292 6.24000E+01 4.35050E+01 0.00000E+00
 -1      2293 6.01500E+01 4.22060E+01 0.00000E+00
 -1      2294 6.39000E+01 4.35050E+01 0.00000E+00
 -1      2295 6.54000E+01 4.35050E+01 0.00000E+00
 -1      2296 6.31500E+01 4.22060E+01 0.00000E+00
 -1      2297 6.69000E+01 4.35050E+01 0.00000E+00
 -1      2298 6.84000E+01 4.35050E+01 0.00000E+00
 -1      2299 6.61500E+01 4.22060E+01 0.00000E+00
 -1      2300 6.99000E+01 4.35050E+01 0.00000E+00
 -1      2301 7.14000E+01 4.35050E+01 0.00000E+00
 -1      2302 6.91500E+01 4.22060E+01 0.00000E+00
 -1      2303 7.29000E+01 4.35050E+01 0.00000E+00
 -1      2304 7.44000E+01 4.35050E+01 0.00000E+00
 -1      2305 7.21500E+01 4.22060E+01 0.00000E+00
 -1      2306 7.59000E+01 4.35050E+01 0.00000E+00
 -1      2307 7.74000E+01 4.35050E+01 0.00000E+00
 -1      2308 7.51500E+01 4.22060E+01 0.00000E+00
 -1      2309 7.89000E+01 4.35050E+01 0.00000E+00
 -1      2310 8.04000E+01 4.35050E+01 0.00000E+00
 -1      2311 7.81500E+01 4.22060E+01 0.00000E+00
 -1      2312 8.19000E+01 4.35050E+01 0.00000E+00
 -1      2313 8.34000E+01 4.35050E+01 0.00000E+00
 -1      2314 8.11500E+01 4.22060E+01 0.00000E+00
 -1      2315 8.49000E+01 4.35050E+01 0.00000E+00
 -1      2316 8.64000E+01 4.35050E+01 0.00000E+00
 -1      2317 8.41500E+01 4.22060E+01 0.00000E+00
 -1      2318 8.79000E+01 4.35050E+01 0.00000E+00
 -1      2319 8.94000E+01 4.35050E+01 0.00000E+00
 -1      2320 8.71500E+01 4.22060E+01 0.00000E+00
 -1      2321 9.09000E+01 4.35050E+01 0.00000E+00
 -1      2322 9.24000E+01 4.35050E+01 0.00000E+00
 -1      2323 9.01500E+01 4.22060E+01 0.00000E+00
 -1      2324 9.39000E+01 4.35050E+01 0.00000E+00
 -1      2325 9.54000E+01 4.35050E+01 0.00000E+00
 -1      2326 9.31500E+01 4.22060E+01 0.00000E+00
 -1      2327 9.69000E+01 4.35050E+01 0.00000E+00
 -1      2328 9.84000E+01 4.35050E+01 0.00000E+00
 -1      2329 9.61500E+01 4.22060E+01 0.00000E+00
 -1      2330 9.99000E+01 4.35050E+01 0.00000E+00
 -1      2331 1.01400E+02 4.35050E+01 0.00000E+00
 -1      2332 9.91500E+01 4.22060E+01 0.00000E+00
 -1      2333 1.02900E+02 4.35050E+01 0.00000E+00
 -1      2334 1.04400E+02 4.35050E+01 0.00000E+00
 -1      2335 1.02150E+02 4.22060E+01 0.00000E+00
 -1      2336 1.05900E+02 4.35050E+01 0.00000E+00
 -1      2337 1.07400E+02 4.35050E+01 0.00000E+00
 -1      2338 1.05150E+02 4.22060E+01 0.00000E+00
 -1      2339 1.08900E+02 4.35050E+01 0.00000E+00
 -1      2340 1.10400E+02 4.35050E+01 0.00000E+00
 -1      2341 1.08150E+02 4.22060E+01 0.00000E+00
 -1      2342 1.11900E+02 4.35050E+01 0.00000E+00
 -1      2343 1.13400E+02 4.35050E+01 0.00000E+00
 -1      2344 1.11150E+02 4.22060E+01 0.00000E+00
 -1      2345 1.14900E+02 4.35050E+01 0.00000E+00
 -1      2346 1.16400E+02 4.35050E+01 0.00000E+00
 -1      2347 1.14150E+02 4.22060E+01 0.00000E+00
 -1      2348 1.17900E+02 4.35050E+01 0.00000E+00
 -1      2349 1.19400E+02 4.35050E+01 0.00000E+00
 -1      2350 1.17150E+02 4.22060E+01 0.00000E+00
 -1      2351 1.20900E+02 4.35050E+01 0.00000E+00
 -1      2352 1.22400E+02 4.35050E+01 0.00000E+00
 -1      2353 1.20150E+02 4.22060E+01 0.00000E+00
 -1      2354 1.23900E+02 4.35050E+01 0.00000E+00
 -1      2355 1.25400E+02 4.35050E+01 0.00000E+00
 -1      2356 1.23150E+02 4.22060E+01 0.00000E+00
 -1      2357 1.26900E+02 4.35050E+01 0.00000E+00
 -1      2358 1.28400E+02 4.35050E+01 0.00000E+00
 -1      2359 1.26150E+02 4.22060E+01 0.00000E+00
 -1      2360 1.29900E+02 4.35050E+01 0.00000E+00
 -1      2361 1.31400E+02 4.35050E+01 0.00000E+00
 -1      2362 1.29150E+02 4.22060E+01 0.00000E+00
 -1      2363 1.32900E+02 4.35050E+01 0.00000E+00
 -1      2364 1.34400E+02 4.35050E+01 0.00000E+00
 -1      2365 1.32150E+02 4.22060E+01 0.00000E+00
 -1      2366 1.35900E+02 4.35050E+01 0.00000E+00
 -1      2367 1.37400E+02 4.35050E+01 0.00000E+00
 -1      2368 1.35150E+02 4.22060E+01 0.00000E+00
 -1      2369 1.38900E+02 4.35050E+01 0.00000E+00
 -1      2370 1.40400E+02 4.35050E+01 0.00000E+00
 -1      2371 1.38150E+02 4.22060E+01 0.00000E+00
 -1      2372 1.99350E+01 5.30525E+00 0.00000E+00
 -1      2373 1.84350E+01 5.30525E+00 0.00000E+00
 -1      2374 2.29350E+01 5.30525E+00 0.00000E+00
 -1      2375 2.14350E+01 5.30525E+00 0.00000E+00
 -1      2376 2.06850E+01 6.60425E+00 0.00000E+00
 -1      2377 2.59350E+01 5.30525E+00 0.00000E+00
 -1      2378 2.44350E+01 5.30525E+00 0.00000E+00
 -1      2379 2.36850E+01 6.60425E+00 0.00000E+00
 -1      2380 2.89350E+01 5.30525E+00 0.00000E+00
 -1      2381 2.74350E+01 5.30525E+00 0.00000E+00
 -1      2382 2.66850E+01 6.60425E+00 0.00000E+00
 -1      2383 3.20850E+01 5.30525E+00 0.00000E+00
 -1      2384 3.05100E+01 5.30525E+00 0.00000E+00
 -1      2385 2.97600E+01 6.60425E+00 0.00000E+00
 -1      2386 3.50850E+01 5.30525E+00 0.00000E+00
 -1      2387 3.35850E+01 5.30525E+00 0.00000E+00
 -1      2388 3.28350E+01 6.60425E+00 0.00000E+00
 -1      2389 3.80850E+01 5.30525E+00 0.00000E+00
 -1      2390 3.65850E+01 5.30525E+00 0.00000E+00
 -1      2391 3.58350E+01 6.60425E+00 0.00000E+00
 -1      2392 4.10850E+01 5.30525E+00 0.00000E+00
 -1      2393 3.95850E+01 5.30525E+00 0.00000E+00
 -1      2394 3.88350E+01 6.60425E+00 0.00000E+00
 -1      2395 4.40850E+01 5.30525E+00 0.00000E+00
 -1      2396 4.25850E+01 5.30525E+00 0.00000E+00
 -1      2397 4.18350E+01 6.60425E+00 0.00000E+00
 -1      2398 4.72350E+01 5.30525E+00 0.00000E+00
 -1      2399 4.56600E+01 5.30525E+00 0.00000E+00
 -1      2400 4.49100E+01 6.60425E+00 0.00000E+00
 -1      2401 5.02350E+01 5.30525E+00 0.00000E+00
 -1      2402 4.87350E+01 5.30525E+00 0.00000E+00
 -1      2403 4.79850E+01 6.60425E+00 0.00000E+00
 -1      2404 5.32350E+01 5.30525E+00 0.00000E+00
 -1      2405 5.17350E+01 5.30525E+00 0.00000E+00
 -1      2406 5.09850E+01 6.60425E+00 0.00000E+00
 -1      2407 5.62350E+01 5.30525E+00 0.00000E+00
 -1      2408 5.47350E+01 5.30525E+00 0.00000E+00
 -1      2409 5.39850E+01 6.60425E+00 0.00000E+00
 -1      2410 5.92350E+01 5.30525E+00 0.00000E+00
 -1      2411 5.77350E+01 5.30525E+00 0.00000E+00
 -1      2412 5.69850E+01 6.60425E+00 0.00000E+00
 -1      2413 6.23850E+01 5.30525E+00 0.00000E+00
 -1      2414 6.08100E+01 5.30525E+00 0.00000E+00
 -1      2415 6.00600E+01 6.60425E+00 0.00000E+00
 -1      2416 6.53850E+01 5.30525E+00 0.00000E+00
 -1      2417 6.38850E+01 5.30525E+00 0.00000E+00
 -1      2418 6.31350E+01 6.60425E+00 0.00000E+00
 -1      2419 6.83850E+01 5.30525E+00 0.00000E+00
 -1      2420 6.68850E+01 5.30525E+00 0.00000E+00
 -1      2421 6.61350E+01 6.60425E+00 0.00000E+00
 -1      2422 7.13850E+01 5.30525E+00 0.00000E+00
 -1      2423 6.98850E+01 5.30525E+00 0.00000E+00
 -1      2424 6.91350E+01 6.60425E+00 0.00000E+00
 -1      2425 7.43850E+01 5.30525E+00 0.00000E+00
 -1      2426 7.28850E+01 5.30525E+00 0.00000E+00
 -1      2427 7.21350E+01 6.60425E+00 0.00000E+00
 -1      2428 7.73850E+01 5.30525E+00 0.00000E+00
 -1      2429 7.58850E+01 5.30525E+00 0.00000E+00
 -1      2430 7.51350E+01 6.60425E+00 0.00000E+00
 -1      2431 8.05350E+01 5.30525E+00 0.00000E+00
 -1      2432 7.89600E+01 5.30525E+00 0.00000E+00
 -1      2433 7.82100E+01 6.60425E+00 0.00000E+00
 -1      2434 8.35350E+01 5.30525E+00 0.00000E+00
 -1      2435 8.20350E+01 5.30525E+00 0.00000E+00
 -1      2436 8.12850E+01 6.60425E+00 0.00000E+00
 -1      2437 8.65350E+01 5.30525E+00 0.00000E+00
 -1      2438 8.50350E+01 5.30525E+00 0.00000E+00
 -1      2439 8.42850E+01 6.60425E+00 0.00000E+00
 -1      2440 8.95350E+01 5.30525E+00 0.00000E+00
 -1      2441 8.80350E+01 5.30525E+00 0.00000E+00
 -1      2442 8.72850E+01 6.60425E+00 0.00000E+00
 -1      2443 9.25350E+01 5.30525E+00 0.00000E+00
 -1      2444 9.10350E+01 5.30525E+00 0.00000E+00
 -1      2445 9.02850E+01 6.60425E+00 0.00000E+00
 -1      2446 1.17774E+02 5.01152E+00 0.00000E+00
 -1      2447 1.16199E+02 5.01152E+00 0.00000E+00
 -1      2448 1.15524E+02 6.12042E+00 0.00000E+00
 -1      2449 1.20774E+02 5.01152E+00 0.00000E+00
 -1      2450 1.19274E+02 5.01152E+00 0.00000E+00
 -1      2451 1.18599E+02 6.12042E+00 0.00000E+00
 -1      2452 1.23774E+02 5.01152E+00 0.00000E+00
 -1      2453 1.22274E+02 5.01152E+00 0.00000E+00
 -1      2454 1.21599E+02 6.12042E+00 0.00000E+00
 -1      2455 1.26774E+02 5.01152E+00 0.00000E+00
 -1      2456 1.25274E+02 5.01152E+00 0.00000E+00
 -1      2457 1.24599E+02 6.12042E+00 0.00000E+00
 -1      2458 1.29774E+02 5.01152E+00 0.00000E+00
 -1      2459 1.28274E+02 5.01152E+00 0.00000E+00
 -1      2460 1.27599E+02 6.12042E+00 0.00000E+00
 -1      2461 1.32924E+02 5.01152E+00 0.00000E+00
 -1      2462 1.31349E+02 5.01152E+00 0.00000E+00
 -1      2463 1.30674E+02 6.12042E+00 0.00000E+00
 -1      2464 1.35924E+02 5.01152E+00 0.00000E+00
 -1      2465 1.34424E+02 5.01152E+00 0.00000E+00
 -1      2466 1.33749E+02 6.12042E+00 0.00000E+00
 -1      2467 1.38924E+02 5.01152E+00 0.00000E+00
 -1      2468 1.37424E+02 5.01152E+00 0.00000E+00
 -1      2469 1.36749E+02 6.12042E+00 0.00000E+00
 -1      2470 1.41924E+02 5.01152E+00 0.00000E+00
 -1      2471 1.40424E+02 5.01152E+00 0.00000E+00
 -1      2472 1.39749E+02 6.12042E+00 0.00000E+00
 -1      2473 1.44038E+02 5.23873E+00 0.00000E+00
 -1      2474 1.42837E+02 5.10814E+00 0.00000E+00
 -1      2475 1.42162E+02 6.21704E+00 0.00000E+00
 -1      2476 1.43989E+02 6.41028E+00 0.00000E+00
 -1      2477 1.43505E+02 1.69125E+01 0.00000E+00
 -1      2478 1.43505E+02 1.54375E+01 0.00000E+00
 -1      2479 1.43505E+02 1.98625E+01 0.00000E+00
 -1      2480 1.43505E+02 1.83875E+01 0.00000E+00
 -1      2481 1.42206E+02 1.76500E+01 0.00000E+00
 -1      2482 1.43505E+02 1.10625E+01 0.00000E+00
 -1      2483 1.43505E+02 9.58750E+00 0.00000E+00
 -1      2484 1.43505E+02 1.39750E+01 0.00000E+00
 -1      2485 1.43505E+02 1.25250E+01 0.00000E+00
 -1      2486 1.42206E+02 1.17875E+01 0.00000E+00
 -1      2487 1.42206E+02 1.47125E+01 0.00000E+00
 -1      2488 1.43505E+02 2.28125E+01 0.00000E+00
 -1      2489 1.43505E+02 2.13375E+01 0.00000E+00
 -1      2490 1.42206E+02 2.06000E+01 0.00000E+00
 -1      2491 1.43505E+02 2.57625E+01 0.00000E+00
 -1      2492 1.43505E+02 2.42875E+01 0.00000E+00
 -1      2493 1.42206E+02 2.35500E+01 0.00000E+00
 -1      2494 1.43505E+02 2.87125E+01 0.00000E+00
 -1      2495 1.43505E+02 2.72375E+01 0.00000E+00
 -1      2496 1.42206E+02 2.65000E+01 0.00000E+00
 -1      2497 1.43505E+02 3.16125E+01 0.00000E+00
 -1      2498 1.43505E+02 3.01625E+01 0.00000E+00
 -1      2499 1.42206E+02 2.94250E+01 0.00000E+00
 -1      2500 1.43505E+02 3.45625E+01 0.00000E+00
 -1      2501 1.43505E+02 3.30875E+01 0.00000E+00
 -1      2502 1.42206E+02 3.23500E+01 0.00000E+00
 -1      2503 1.43505E+02 3.75125E+01 0.00000E+00
 -1      2504 1.43505E+02 3.60375E+01 0.00000E+00
 -1      2505 1.42206E+02 3.53000E+01 0.00000E+00
 -1      2506 1.43505E+02 4.04625E+01 0.00000E+00
 -1      2507 1.43505E+02 3.89875E+01 0.00000E+00
 -1      2508 1.42206E+02 3.82500E+01 0.00000E+00
 -1      2509 1.09911E+02 6.22364E+00 0.00000E+00
 -1      2510 1.10523E+02 7.00038E+00 0.00000E+00
 -1      2511 1.68975E+01 5.30525E+00 0.00000E+00
 -1      2512 1.53225E+01 5.30525E+00 0.00000E+00
 -1      2513 1.45725E+01 6.60425E+00 0.00000E+00
 -1      2514 1.76475E+01 6.60425E+00 0.00000E+00
 -1      2515 1.12716E+02 1.19291E+01 0.00000E+00
 -1      2516 1.12820E+02 1.28054E+01 0.00000E+00
 -1      2517 1.12772E+02 1.40090E+01 0.00000E+00
 -1      2518 1.12591E+02 1.49694E+01 0.00000E+00
 -1      2519 1.07961E+02 5.11473E+00 0.00000E+00
 -1      2520 6.55950E+00 4.28890E+01 0.00000E+00
 -1      2521 8.53650E+00 4.32410E+01 0.00000E+00
 -1      2522 9.28650E+00 4.19420E+01 0.00000E+00
 -1      2523 6.55950E+00 4.14140E+01 0.00000E+00
 -1      2524 1.12089E+02 1.59424E+01 0.00000E+00
 -1      2525 1.11799E+02 1.68627E+01 0.00000E+00
 -1      2526 9.19945E+01 1.47101E+01 0.00000E+00
 -1      2527 9.19538E+01 1.37267E+01 0.00000E+00
 -1      2528 1.44321E+02 4.30606E+01 0.00000E+00
 -1      2529 6.49500E+00 2.71625E+01 0.00000E+00
 -1      2530 6.49500E+00 2.86375E+01 0.00000E+00
 -1      2531 7.79400E+00 2.93750E+01 0.00000E+00
 -1      2532 7.79400E+00 2.64250E+01 0.00000E+00
 -1      2533 1.12161E+02 9.58354E+00 0.00000E+00
 -1      2534 1.12479E+02 1.07658E+01 0.00000E+00
 -1      2535 9.44338E+01 6.73157E+00 0.00000E+00
 -1      2536 9.50576E+01 6.06064E+00 0.00000E+00
 -1      2537 9.83901E+01 2.29172E+01 0.00000E+00
 -1      2538 9.75046E+01 2.25740E+01 0.00000E+00
 -1      2539 9.32677E+01 8.50860E+00 0.00000E+00
 -1      2540 9.37721E+01 7.63568E+00 0.00000E+00
 -1      2541 9.23513E+01 1.02441E+01 0.00000E+00
 -1      2542 9.28095E+01 9.37636E+00 0.00000E+00
 -1      2543 9.24280E+01 8.57374E+00 0.00000E+00
 -1      2544 9.18976E+01 1.26541E+01 0.00000E+00
 -1      2545 9.19107E+01 1.15759E+01 0.00000E+00
 -1      2546 9.23297E+01 1.66348E+01 0.00000E+00
 -1      2547 9.20873E+01 1.58214E+01 0.00000E+00
 -1      2548 9.34240E+01 1.86852E+01 0.00000E+00
 -1      2549 9.28706E+01 1.76736E+01 0.00000E+00
 -1      2550 9.46149E+01 2.03957E+01 0.00000E+00
 -1      2551 9.40268E+01 1.97204E+01 0.00000E+00
 -1      2552 9.64310E+01 2.18283E+01 0.00000E+00
 -1      2553 9.55229E+01 2.11120E+01 0.00000E+00
 -1      2554 9.45822E+01 2.13375E+01 0.00000E+00
 -1      2555 1.00488E+02 2.36423E+01 0.00000E+00
 -1      2556 9.94389E+01 2.32798E+01 0.00000E+00
 -1      2557 9.86862E+01 2.39077E+01 0.00000E+00
 -1      2558 1.02822E+02 2.36338E+01 0.00000E+00
 -1      2559 1.01819E+02 2.37341E+01 0.00000E+00
 -1      2560 1.04859E+02 2.33261E+01 0.00000E+00
 -1      2561 1.03870E+02 2.34932E+01 0.00000E+00
 -1      2562 1.06964E+02 2.27071E+01 0.00000E+00
 -1      2563 1.06017E+02 2.30862E+01 0.00000E+00
 -1      2564 1.08807E+02 2.15448E+01 0.00000E+00
 -1      2565 1.08020E+02 2.21234E+01 0.00000E+00
 -1      2566 1.10496E+02 1.98489E+01 0.00000E+00
 -1      2567 1.09689E+02 2.07000E+01 0.00000E+00
 -1      2568 1.11622E+02 1.78672E+01 0.00000E+00
 -1      2569 1.11277E+02 1.87403E+01 0.00000E+00
 -1      2570 8.07525E+00 5.11044E+00 0.00000E+00
 -1      2571 6.57525E+00 5.11044E+00 0.00000E+00
 -1      2572 6.40575E+00 6.01981E+00 0.00000E+00
 -1      2573 8.82525E+00 6.40944E+00 0.00000E+00
 -1      2574 1.09236E+02 5.11473E+00 0.00000E+00
 -1      2575 1.13466E+02 1.10931E+01 0.00000E+00
 -1      2576 7.79400E+00 3.52687E+01 0.00000E+00
 -1      2577 6.49500E+00 3.60062E+01 0.00000E+00
 -1      2578 6.49500E+00 3.74750E+01 0.00000E+00
 -1      2579 6.40575E+00 7.49481E+00 0.00000E+00
 -1      2580 1.13104E+02 1.56366E+01 0.00000E+00
 -1      2581 1.01066E+02 2.43621E+01 0.00000E+00
 -1      2582 9.07070E+01 1.13024E+01 0.00000E+00
 -1      2583 9.15292E+01 1.07733E+01 0.00000E+00
 -1      2584 9.11476E+01 9.97066E+00 0.00000E+00
 -1      2585 9.52474E+01 4.95200E+00 0.00000E+00
 -1      2586 9.37474E+01 4.95200E+00 0.00000E+00
 -1      2587 1.43940E+02 7.58183E+00 0.00000E+00
 -1      2588 1.11173E+02 7.61323E+00 0.00000E+00
 -1      2589 1.11670E+02 8.29168E+00 0.00000E+00
 -1      2590 1.11599E+02 6.73328E+00 0.00000E+00
 -1      2591 1.13655E+02 1.34600E+01 0.00000E+00
 -1      2592 6.55950E+00 3.99453E+01 0.00000E+00
 -1      2593 9.12939E+01 1.53617E+01 0.00000E+00
 -1      2594 9.11448E+01 1.31777E+01 0.00000E+00
 -1      2595 1.12425E+02 1.76140E+01 0.00000E+00
 -1      2596 1.11466E+02 1.97271E+01 0.00000E+00
 -1      2597 1.09803E+02 2.16804E+01 0.00000E+00
 -1      2598 1.07865E+02 2.31090E+01 0.00000E+00
 -1      2599 1.05651E+02 2.39327E+01 0.00000E+00
 -1      2600 9.65639E+01 2.27995E+01 0.00000E+00
 -1      2601 9.30713E+01 1.95860E+01 0.00000E+00
 -1      2602 1.42758E+02 4.35929E+01 0.00000E+00
 -1      2603 1.43241E+02 4.17323E+01 0.00000E+00
 -1      2604 1.41942E+02 4.09948E+01 0.00000E+00
 -1      2605 1.41414E+02 4.35342E+01 0.00000E+00
 -1      2606 9.19276E+01 1.75119E+01 0.00000E+00
 -1      2607 9.29974E+01 6.25100E+00 0.00000E+00
 -1      2608 9.69416E+01 4.59353E+00 0.00000E+00
 -1      2609 7.70475E+00 8.23231E+00 0.00000E+00
 -1      2610 9.35479E+01 6.80187E+00 0.00000E+00
 -1      2611 9.60953E+01 5.11489E+00 0.00000E+00
 -1      2612 1.12739E+02 8.63799E+00 0.00000E+00
 -1      2613 1.03445E+02 2.43133E+01 0.00000E+00
 -1      2614 1.43266E+02 8.53636E+00 0.00000E+00
 -1      2615 1.42402E+02 7.26819E+00 0.00000E+00
 -1      2616 1.41488E+02 7.17157E+00 0.00000E+00
 -1      2617 1.41967E+02 9.27386E+00 0.00000E+00
 -1      2618 1.40664E+02 4.22352E+01 0.00000E+00
 -1      2619 9.09300E+00 1.98250E+01 0.00000E+00
 -1      2620 9.09300E+00 2.12750E+01 0.00000E+00
 -1      2621 9.09300E+00 2.27500E+01 0.00000E+00
 -1      2622 9.09300E+00 2.42250E+01 0.00000E+00
 -1      2623 1.03920E+01 2.20250E+01 0.00000E+00
 -1      2624 9.09300E+00 1.39375E+01 0.00000E+00
 -1      2625 9.09300E+00 1.54125E+01 0.00000E+00
 -1      2626 9.09300E+00 1.09875E+01 0.00000E+00
 -1      2627 9.09300E+00 1.24625E+01 0.00000E+00
 -1      2628 1.03920E+01 1.32000E+01 0.00000E+00
 -1      2629 9.23356E+01 7.15511E+00 0.00000E+00
 -1      2630 1.22850E+01 7.90325E+00 0.00000E+00
 -1      2631 1.07850E+01 7.90325E+00 0.00000E+00
 -1      2632 1.44000E+01 4.09070E+01 0.00000E+00
 -1      2633 1.59000E+01 4.09070E+01 0.00000E+00
 -1      2634 1.74000E+01 4.09070E+01 0.00000E+00
 -1      2635 1.89000E+01 4.09070E+01 0.00000E+00
 -1      2636 1.66500E+01 3.96080E+01 0.00000E+00
 -1      2637 2.04000E+01 4.09070E+01 0.00000E+00
 -1      2638 2.19000E+01 4.09070E+01 0.00000E+00
 -1      2639 1.96500E+01 3.96080E+01 0.00000E+00
 -1      2640 2.34000E+01 4.09070E+01 0.00000E+00
 -1      2641 2.49000E+01 4.09070E+01 0.00000E+00
 -1      2642 2.26500E+01 3.96080E+01 0.00000E+00
 -1      2643 2.64000E+01 4.09070E+01 0.00000E+00
 -1      2644 2.79000E+01 4.09070E+01 0.00000E+00
 -1      2645 2.56500E+01 3.96080E+01 0.00000E+00
 -1      2646 2.94000E+01 4.09070E+01 0.00000E+00
 -1      2647 3.09000E+01 4.09070E+01 0.00000E+00
 -1      2648 2.86500E+01 3.96080E+01 0.00000E+00
 -1      2649 3.24000E+01 4.09070E+01 0.00000E+00
 -1      2650 3.39000E+01 4.09070E+01 0.00000E+00
 -1      2651 3.16500E+01 3.96080E+01 0.00000E+00
 -1      2652 3.54000E+01 4.09070E+01 0.00000E+00
 -1      2653 3.69000E+01 4.09070E+01 0.00000E+00
 -1      2654 3.46500E+01 3.96080E+01 0.00000E+00
 -1      2655 3.84000E+01 4.09070E+01 0.00000E+00
 -1      2656 3.99000E+01 4.09070E+01 0.00000E+00
 -1      2657 3.76500E+01 3.96080E+01 0.00000E+00
 -1      2658 4.14000E+01 4.09070E+01 0.00000E+00
 -1      2659 4.29000E+01 4.09070E+01 0.00000E+00
 -1      2660 4.06500E+01 3.96080E+01 0.00000E+00
 -1      2661 4.44000E+01 4.09070E+01 0.00000E+00
 -1      2662 4.59000E+01 4.09070E+01 0.00000E+00
 -1      2663 4.36500E+01 3.96080E+01 0.00000E+00
 -1      2664 4.74000E+01 4.09070E+01 0.00000E+00
 -1      2665 4.89000E+01 4.09070E+01 0.00000E+00
 -1      2666 4.66500E+01 3.96080E+01 0.00000E+00
 -1      2667 5.04000E+01 4.09070E+01 0.00000E+00
 -1      2668 5.19000E+01 4.09070E+01 0.00000E+00
 -1      2669 4.96500E+01 3.96080E+01 0.00000E+00
 -1      2670 5.34000E+01 4.09070E+01 0.00000E+00
 -1      2671 5.49000E+01 4.09070E+01 0.00000E+00
 -1      2672 5.26500E+01 3.96080E+01 0.00000E+00
 -1      2673 5.64000E+01 4.09070E+01 0.00000E+00
 -1      2674 5.79000E+01 4.09070E+01 0.00000E+00
 -1      2675 5.56500E+01 3.96080E+01 0.00000E+00
 -1      2676 5.94000E+01 4.09070E+01 0.00000E+00
 -1      2677 6.09000E+01 4.09070E+01 0.00000E+00
 -1      2678 5.86500E+01 3.96080E+01 0.00000E+00
 -1      2679 6.24000E+01 4.09070E+01 0.00000E+00
 -1      2680 6.39000E+01 4.09070E+01 0.00000E+00
 -1      2681 6.16500E+01 3.96080E+01 0.00000E+00
 -1      2682 6.54000E+01 4.09070E+01 0.00000E+00
 -1      2683 6.69000E+01 4.09070E+01 0.00000E+00
 -1      2684 6.46500E+01 3.96080E+01 0.00000E+00
 -1      2685 6.84000E+01 4.09070E+01 0.00000E+00
 -1      2686 6.99000E+01 4.09070E+01 0.00000E+00
 -1      2687 6.76500E+01 3.96080E+01 0.00000E+00
 -1      2688 7.14000E+01 4.09070E+01 0.00000E+00
 -1      2689 7.29000E+01 4.09070E+01 0.00000E+00
 -1      2690 7.06500E+01 3.96080E+01 0.00000E+00
 -1      2691 7.44000E+01 4.09070E+01 0.00000E+00
 -1      2692 7.59000E+01 4.09070E+01 0.00000E+00
 -1      2693 7.36500E+01 3.96080E+01 0.00000E+00
 -1      2694 7.74000E+01 4.09070E+01 0.00000E+00
 -1      2695 7.89000E+01 4.09070E+01 0.00000E+00
 -1      2696 7.66500E+01 3.96080E+01 0.00000E+00
 -1      2697 8.04000E+01 4.09070E+01 0.00000E+00
 -1      2698 8.19000E+01 4.09070E+01 0.00000E+00
 -1      2699 7.96500E+01 3.96080E+01 0.00000E+00
 -1      2700 8.34000E+01 4.09070E+01 0.00000E+00
 -1      2701 8.49000E+01 4.09070E+01 0.00000E+00
 -1      2702 8.26500E+01 3.96080E+01 0.00000E+00
 -1      2703 8.64000E+01 4.09070E+01 0.00000E+00
 -1      2704 8.79000E+01 4.09070E+01 0.00000E+00
 -1      2705 8.56500E+01 3.96080E+01 0.00000E+00
 -1      2706 8.94000E+01 4.09070E+01 0.00000E+00
 -1      2707 9.09000E+01 4.09070E+01 0.00000E+00
 -1      2708 8.86500E+01 3.96080E+01 0.00000E+00
 -1      2709 9.24000E+01 4.09070E+01 0.00000E+00
 -1      2710 9.39000E+01 4.09070E+01 0.00000E+00
 -1      2711 9.16500E+01 3.96080E+01 0.00000E+00
 -1      2712 9.54000E+01 4.09070E+01 0.00000E+00
 -1      2713 9.69000E+01 4.09070E+01 0.00000E+00
 -1      2714 9.46500E+01 3.96080E+01 0.00000E+00
 -1      2715 9.84000E+01 4.09070E+01 0.00000E+00
 -1      2716 9.99000E+01 4.09070E+01 0.00000E+00
 -1      2717 9.76500E+01 3.96080E+01 0.00000E+00
 -1      2718 1.01400E+02 4.09070E+01 0.00000E+00
 -1      2719 1.02900E+02 4.09070E+01 0.00000E+00
 -1      2720 1.00650E+02 3.96080E+01 0.00000E+00
 -1      2721 1.04400E+02 4.09070E+01 0.00000E+00
 -1      2722 1.05900E+02 4.09070E+01 0.00000E+00
 -1      2723 1.03650E+02 3.96080E+01 0.00000E+00
 -1      2724 1.07400E+02 4.09070E+01 0.00000E+00
 -1      2725 1.08900E+02 4.09070E+01 0.00000E+00
 -1      2726 1.06650E+02 3.96080E+01 0.00000E+00
 -1      2727 1.10400E+02 4.09070E+01 0.00000E+00
 -1      2728 1.11900E+02 4.09070E+01 0.00000E+00
 -1      2729 1.09650E+02 3.96080E+01 0.00000E+00
 -1      2730 1.13400E+02 4.09070E+01 0.00000E+00
 -1      2731 1.14900E+02 4.09070E+01 0.00000E+00
 -1      2732 1.12650E+02 3.96080E+01 0.00000E+00
 -1      2733 1.16400E+02 4.09070E+01 0.00000E+00
 -1      2734 1.17900E+02 4.09070E+01 0.00000E+00
 -1      2735 1.15650E+02 3.96080E+01 0.00000E+00
 -1      2736 1.19400E+02 4.09070E+01 0.00000E+00
 -1      2737 1.20900E+02 4.09070E+01 0.00000E+00
 -1      2738 1.18650E+02 3.96080E+01 0.00000E+00
 -1      2739 1.22400E+02 4.09070E+01 0.00000E+00
 -1      2740 1.23900E+02 4.09070E+01 0.00000E+00
 -1      2741 1.21650E+02 3.96080E+01 0.00000E+00
 -1      2742 1.25400E+02 4.09070E+01 0.00000E+00
 -1      2743 1.26900E+02 4.09070E+01 0.00000E+00
 -1      2744 1.24650E+02 3.96080E+01 0.00000E+00
 -1      2745 1.28400E+02 4.09070E+01 0.00000E+00
 -1      2746 1.29900E+02 4.09070E+01 0.00000E+00
 -1      2747 1.27650E+02 3.96080E+01 0.00000E+00
 -1      2748 1.31400E+02 4.09070E+01 0.00000E+00
 -1      2749 1.32900E+02 4.09070E+01 0.00000E+00
 -1      2750 1.30650E+02 3.96080E+01 0.00000E+00
 -1      2751 1.34400E+02 4.09070E+01 0.00000E+00
 -1      2752 1.35900E+02 4.09070E+01 0.00000E+00
 -1      2753 1.33650E+02 3.96080E+01 0.00000E+00
 -1      2754 1.37400E+02 4.09070E+01 0.00000E+00
 -1      2755 1.38900E+02 4.09070E+01 0.00000E+00
 -1      2756 1.36650E+02 3.96080E+01 0.00000E+00
 -1      2757 2.44350E+01 7.90325E+00 0.00000E+00
 -1      2758 2.29350E+01 7.90325E+00 0.00000E+00
 -1      2759 9.14374E+01 1.84273E+01 0.00000E+00
 -1      2760 9.08965E+01 1.73885E+01 0.00000E+00
 -1      2761 2.14350E+01 7.90325E+00 0.00000E+00
 -1      2762 1.99350E+01 7.90325E+00 0.00000E+00
 -1      2763 2.21850E+01 9.20225E+00 0.00000E+00
 -1      2764 3.05475E+01 7.90325E+00 0.00000E+00
 -1      2765 2.89725E+01 7.90325E+00 0.00000E+00
 -1      2766 3.35475E+01 7.90325E+00 0.00000E+00
 -1      2767 3.20475E+01 7.90325E+00 0.00000E+00
 -1      2768 3.12600E+01 9.20225E+00 0.00000E+00
 -1      2769 3.65475E+01 7.90325E+00 0.00000E+00
 -1      2770 3.50475E+01 7.90325E+00 0.00000E+00
 -1      2771 3.42600E+01 9.20225E+00 0.00000E+00
 -1      2772 3.95475E+01 7.90325E+00 0.00000E+00
 -1      2773 3.80475E+01 7.90325E+00 0.00000E+00
 -1      2774 3.72600E+01 9.20225E+00 0.00000E+00
 -1      2775 4.25475E+01 7.90325E+00 0.00000E+00
 -1      2776 4.10475E+01 7.90325E+00 0.00000E+00
 -1      2777 4.02600E+01 9.20225E+00 0.00000E+00
 -1      2778 4.56975E+01 7.90325E+00 0.00000E+00
 -1      2779 4.41225E+01 7.90325E+00 0.00000E+00
 -1      2780 4.33350E+01 9.20225E+00 0.00000E+00
 -1      2781 4.86975E+01 7.90325E+00 0.00000E+00
 -1      2782 4.71975E+01 7.90325E+00 0.00000E+00
 -1      2783 4.64100E+01 9.20225E+00 0.00000E+00
 -1      2784 5.16975E+01 7.90325E+00 0.00000E+00
 -1      2785 5.01975E+01 7.90325E+00 0.00000E+00
 -1      2786 4.94100E+01 9.20225E+00 0.00000E+00
 -1      2787 5.46975E+01 7.90325E+00 0.00000E+00
 -1      2788 5.31975E+01 7.90325E+00 0.00000E+00
 -1      2789 5.24100E+01 9.20225E+00 0.00000E+00
 -1      2790 5.76975E+01 7.90325E+00 0.00000E+00
 -1      2791 5.61975E+01 7.90325E+00 0.00000E+00
 -1      2792 5.54100E+01 9.20225E+00 0.00000E+00
 -1      2793 6.08475E+01 7.90325E+00 0.00000E+00
 -1      2794 5.92725E+01 7.90325E+00 0.00000E+00
 -1      2795 5.84850E+01 9.20225E+00 0.00000E+00
 -1      2796 6.38475E+01 7.90325E+00 0.00000E+00
 -1      2797 6.23475E+01 7.90325E+00 0.00000E+00
 -1      2798 6.15600E+01 9.20225E+00 0.00000E+00
 -1      2799 6.68475E+01 7.90325E+00 0.00000E+00
 -1      2800 6.53475E+01 7.90325E+00 0.00000E+00
 -1      2801 6.45600E+01 9.20225E+00 0.00000E+00
 -1      2802 6.98475E+01 7.90325E+00 0.00000E+00
 -1      2803 6.83475E+01 7.90325E+00 0.00000E+00
 -1      2804 6.75600E+01 9.20225E+00 0.00000E+00
 -1      2805 7.28475E+01 7.90325E+00 0.00000E+00
 -1      2806 7.13475E+01 7.90325E+00 0.00000E+00
 -1      2807 7.05600E+01 9.20225E+00 0.00000E+00
 -1      2808 7.58475E+01 7.90325E+00 0.00000E+00
 -1      2809 7.43475E+01 7.90325E+00 0.00000E+00
 -1      2810 7.35600E+01 9.20225E+00 0.00000E+00
 -1      2811 7.89975E+01 7.90325E+00 0.00000E+00
 -1      2812 7.74225E+01 7.90325E+00 0.00000E+00
 -1      2813 7.66350E+01 9.20225E+00 0.00000E+00
 -1      2814 8.19975E+01 7.90325E+00 0.00000E+00
 -1      2815 8.04975E+01 7.90325E+00 0.00000E+00
 -1      2816 7.97100E+01 9.20225E+00 0.00000E+00
 -1      2817 8.49975E+01 7.90325E+00 0.00000E+00
 -1      2818 8.34975E+01 7.90325E+00 0.00000E+00
 -1      2819 8.27100E+01 9.20225E+00 0.00000E+00
 -1      2820 8.79975E+01 7.90325E+00 0.00000E+00
 -1      2821 8.64975E+01 7.90325E+00 0.00000E+00
 -1      2822 8.57100E+01 9.20225E+00 0.00000E+00
 -1      2823 9.09165E+01 7.52918E+00 0.00000E+00
 -1      2824 8.94165E+01 7.52918E+00 0.00000E+00
 -1      2825 8.86290E+01 8.82818E+00 0.00000E+00
 -1      2826 9.14671E+01 8.08005E+00 0.00000E+00
 -1      2827 1.22349E+02 7.41943E+00 0.00000E+00
 -1      2828 1.20849E+02 7.41943E+00 0.00000E+00
 -1      2829 1.25349E+02 7.41943E+00 0.00000E+00
 -1      2830 1.23849E+02 7.41943E+00 0.00000E+00
 -1      2831 1.23099E+02 8.71842E+00 0.00000E+00
 -1      2832 1.28349E+02 7.41943E+00 0.00000E+00
 -1      2833 1.26849E+02 7.41943E+00 0.00000E+00
 -1      2834 1.26099E+02 8.71842E+00 0.00000E+00
 -1      2835 1.31499E+02 7.41943E+00 0.00000E+00
 -1      2836 1.29924E+02 7.41943E+00 0.00000E+00
 -1      2837 1.29174E+02 8.71842E+00 0.00000E+00
 -1      2838 1.34499E+02 7.41943E+00 0.00000E+00
 -1      2839 1.32999E+02 7.41943E+00 0.00000E+00
 -1      2840 1.32249E+02 8.71842E+00 0.00000E+00
 -1      2841 1.37499E+02 7.41943E+00 0.00000E+00
 -1      2842 1.35999E+02 7.41943E+00 0.00000E+00
 -1      2843 1.35249E+02 8.71842E+00 0.00000E+00
 -1      2844 1.40244E+02 7.29550E+00 0.00000E+00
 -1      2845 1.38744E+02 7.29550E+00 0.00000E+00
 -1      2846 1.37994E+02 8.59450E+00 0.00000E+00
 -1      2847 1.40483E+02 8.34664E+00 0.00000E+00
 -1      2848 1.39914E+02 4.09362E+01 0.00000E+00
 -1      2849 1.40928E+02 4.09655E+01 0.00000E+00
 -1      2850 1.39164E+02 3.96372E+01 0.00000E+00
 -1      2851 1.04078E+02 2.50514E+01 0.00000E+00
 -1      2852 1.03030E+02 2.51920E+01 0.00000E+00
 -1      2853 1.40907E+02 2.42875E+01 0.00000E+00
 -1      2854 1.40907E+02 2.28125E+01 0.00000E+00
 -1      2855 1.40907E+02 1.83875E+01 0.00000E+00
 -1      2856 1.40907E+02 1.69125E+01 0.00000E+00
 -1      2857 1.40907E+02 2.72375E+01 0.00000E+00
 -1      2858 1.40907E+02 2.57625E+01 0.00000E+00
 -1      2859 1.39608E+02 2.50250E+01 0.00000E+00
 -1      2860 1.40907E+02 2.13375E+01 0.00000E+00
 -1      2861 1.40907E+02 1.98625E+01 0.00000E+00
 -1      2862 1.39608E+02 1.91250E+01 0.00000E+00
 -1      2863 1.39608E+02 2.20750E+01 0.00000E+00
 -1      2864 1.14619E+02 1.28959E+01 0.00000E+00
 -1      2865 1.14571E+02 1.40995E+01 0.00000E+00
 -1      2866 1.40907E+02 3.01375E+01 0.00000E+00
 -1      2867 1.40907E+02 2.86875E+01 0.00000E+00
 -1      2868 1.39608E+02 2.79500E+01 0.00000E+00
 -1      2869 1.40907E+02 3.30875E+01 0.00000E+00
 -1      2870 1.40907E+02 3.16125E+01 0.00000E+00
 -1      2871 1.39608E+02 3.08750E+01 0.00000E+00
 -1      2872 1.40907E+02 3.60375E+01 0.00000E+00
 -1      2873 1.40907E+02 3.45625E+01 0.00000E+00
 -1      2874 1.39608E+02 3.38250E+01 0.00000E+00
 -1      2875 1.14352E+02 1.03068E+01 0.00000E+00
 -1      2876 1.14589E+02 1.14701E+01 0.00000E+00
 -1      2877 1.01673E+02 2.52635E+01 0.00000E+00
 -1      2878 1.00342E+02 2.51717E+01 0.00000E+00
 -1      2879 8.91450E+00 8.42712E+00 0.00000E+00
 -1      2880 9.89030E+01 2.49787E+01 0.00000E+00
 -1      2881 9.78543E+01 2.46162E+01 0.00000E+00
 -1      2882 2.74350E+01 7.90325E+00 0.00000E+00
 -1      2883 2.59350E+01 7.90325E+00 0.00000E+00
 -1      2884 2.51850E+01 9.20225E+00 0.00000E+00
 -1      2885 1.14000E+01 4.09070E+01 0.00000E+00
 -1      2886 1.29000E+01 4.09070E+01 0.00000E+00
 -1      2887 1.36500E+01 3.96080E+01 0.00000E+00
 -1      2888 1.12626E+02 1.97152E+01 0.00000E+00
 -1      2889 1.11844E+02 2.08237E+01 0.00000E+00
 -1      2890 9.04857E+01 1.59887E+01 0.00000E+00
 -1      2891 9.03929E+01 1.48774E+01 0.00000E+00
 -1      2892 9.09300E+00 1.68813E+01 0.00000E+00
 -1      2893 9.09300E+00 1.83563E+01 0.00000E+00
 -1      2894 1.03920E+01 1.90812E+01 0.00000E+00
 -1      2895 1.03920E+01 1.61437E+01 0.00000E+00
 -1      2896 9.09300E+00 3.15875E+01 0.00000E+00
 -1      2897 9.09300E+00 3.30625E+01 0.00000E+00
 -1      2898 9.25593E+01 2.05773E+01 0.00000E+00
 -1      2899 9.19564E+01 1.95421E+01 0.00000E+00
 -1      2900 7.85850E+00 3.92077E+01 0.00000E+00
 -1      2901 1.19349E+02 7.41943E+00 0.00000E+00
 -1      2902 1.17849E+02 7.41943E+00 0.00000E+00
 -1      2903 1.20099E+02 8.71842E+00 0.00000E+00
 -1      2904 9.10089E+01 8.94781E+00 0.00000E+00
 -1      2905 1.13523E+02 1.72902E+01 0.00000E+00
 -1      2906 1.13346E+02 1.82947E+01 0.00000E+00
 -1      2907 9.03366E+01 1.38047E+01 0.00000E+00
 -1      2908 9.02803E+01 1.27321E+01 0.00000E+00
 -1      2909 8.95284E+01 1.44318E+01 0.00000E+00
 -1      2910 1.41192E+02 3.96958E+01 0.00000E+00
 -1      2911 9.44532E+01 2.24348E+01 0.00000E+00
 -1      2912 9.35452E+01 2.17184E+01 0.00000E+00
 -1      2913 1.16287E+02 8.40210E+00 0.00000E+00
 -1      2914 1.14712E+02 8.40210E+00 0.00000E+00
 -1      2915 9.66004E+01 2.39261E+01 0.00000E+00
 -1      2916 9.55268E+01 2.31804E+01 0.00000E+00
 -1      2917 9.44898E+01 2.35613E+01 0.00000E+00
 -1      2918 1.06404E+02 2.46524E+01 0.00000E+00
 -1      2919 1.05246E+02 2.48924E+01 0.00000E+00
 -1      2920 1.08849E+02 2.36409E+01 0.00000E+00
 -1      2921 1.07793E+02 2.42247E+01 0.00000E+00
 -1      2922 1.10895E+02 2.19376E+01 0.00000E+00
 -1      2923 1.10013E+02 2.27824E+01 0.00000E+00
 -1      2924 1.14298E+02 1.52084E+01 0.00000E+00
 -1      2925 1.13796E+02 1.61813E+01 0.00000E+00
 -1      2926 1.14717E+02 1.68620E+01 0.00000E+00
 -1      2927 1.15263E+02 1.46443E+01 0.00000E+00
 -1      2928 9.09300E+00 3.45313E+01 0.00000E+00
 -1      2929 9.09300E+00 3.60000E+01 0.00000E+00
 -1      2930 1.03920E+01 3.37938E+01 0.00000E+00
 -1      2931 1.03920E+01 2.49750E+01 0.00000E+00
 -1      2932 9.09300E+00 2.57000E+01 0.00000E+00
 -1      2933 9.09300E+00 2.71750E+01 0.00000E+00
 -1      2934 9.01868E+01 9.47697E+00 0.00000E+00
 -1      2935 1.12055E+02 2.19258E+01 0.00000E+00
 -1      2936 1.38225E+01 7.90325E+00 0.00000E+00
 -1      2937 1.30725E+01 9.20225E+00 0.00000E+00
 -1      2938 1.53600E+01 7.90325E+00 0.00000E+00
 -1      2939 2.82225E+01 9.20225E+00 0.00000E+00
 -1      2940 1.13099E+02 6.73328E+00 0.00000E+00
 -1      2941 1.17037E+02 9.70110E+00 0.00000E+00
 -1      2942 9.09300E+00 2.86437E+01 0.00000E+00
 -1      2943 9.09300E+00 3.01187E+01 0.00000E+00
 -1      2944 1.03920E+01 3.08563E+01 0.00000E+00
 -1      2945 1.03920E+01 2.79188E+01 0.00000E+00
 -1      2946 1.02305E+02 2.60016E+01 0.00000E+00
 -1      2947 8.95053E+01 1.78196E+01 0.00000E+00
 -1      2948 8.99955E+01 1.69042E+01 0.00000E+00
 -1      2949 8.90945E+01 1.64199E+01 0.00000E+00
 -1      2950 8.98988E+01 1.19295E+01 0.00000E+00
 -1      2951 8.95173E+01 1.11268E+01 0.00000E+00
 -1      2952 8.90906E+01 1.25565E+01 0.00000E+00
 -1      2953 1.13589E+02 8.02514E+00 0.00000E+00
 -1      2954 9.66450E+00 9.72612E+00 0.00000E+00
 -1      2955 1.09635E+01 1.04636E+01 0.00000E+00
 -1      2956 1.40907E+02 1.54500E+01 0.00000E+00
 -1      2957 1.40907E+02 1.39875E+01 0.00000E+00
 -1      2958 1.39608E+02 1.61875E+01 0.00000E+00
 -1      2959 1.04831E+02 2.57711E+01 0.00000E+00
 -1      2960 1.40907E+02 1.25250E+01 0.00000E+00
 -1      2961 1.40907E+02 1.10625E+01 0.00000E+00
 -1      2962 1.39608E+02 1.32625E+01 0.00000E+00
 -1      2963 1.84163E+01 7.90325E+00 0.00000E+00
 -1      2964 1.68787E+01 7.90325E+00 0.00000E+00
 -1      2965 1.61287E+01 9.20225E+00 0.00000E+00
 -1      2966 1.91663E+01 9.20225E+00 0.00000E+00
 -1      2967 1.15505E+02 1.21096E+01 0.00000E+00
 -1      2968 1.41192E+02 3.82207E+01 0.00000E+00
 -1      2969 9.68172E+01 2.49971E+01 0.00000E+00
 -1      2970 9.95096E+01 2.58801E+01 0.00000E+00
 -1      2971 1.09941E+02 2.38981E+01 0.00000E+00
 -1      2972 9.24303E+01 2.16745E+01 0.00000E+00
 -1      2973 1.39529E+02 3.85602E+01 0.00000E+00
 -1      2974 1.40542E+02 3.71145E+01 0.00000E+00
 -1      2975 1.39243E+02 3.63770E+01 0.00000E+00
 -1      2976 1.38514E+02 3.85310E+01 0.00000E+00
 -1      2977 9.09253E+01 1.94187E+01 0.00000E+00
 -1      2978 9.15750E+00 3.77359E+01 0.00000E+00
 -1      2979 9.22200E+00 4.02061E+01 0.00000E+00
 -1      2980 1.05855E+01 4.04701E+01 0.00000E+00
 -1      2981 1.04565E+01 3.69984E+01 0.00000E+00
 -1      2982 1.13355E+01 3.91711E+01 0.00000E+00
 -1      2983 1.40722E+02 9.39778E+00 0.00000E+00
 -1      2984 1.07388E+02 2.51844E+01 0.00000E+00
 -1      2985 1.39423E+02 1.01353E+01 0.00000E+00
 -1      2986 1.16910E+01 1.24625E+01 0.00000E+00
 -1      2987 1.16910E+01 1.39375E+01 0.00000E+00
 -1      2988 1.03038E+02 2.69896E+01 0.00000E+00
 -1      2989 1.01681E+02 2.70611E+01 0.00000E+00
 -1      2990 1.89000E+01 3.83090E+01 0.00000E+00
 -1      2991 2.04000E+01 3.83090E+01 0.00000E+00
 -1      2992 2.19000E+01 3.83090E+01 0.00000E+00
 -1      2993 2.34000E+01 3.83090E+01 0.00000E+00
 -1      2994 2.11500E+01 3.70100E+01 0.00000E+00
 -1      2995 2.49000E+01 3.83090E+01 0.00000E+00
 -1      2996 2.64000E+01 3.83090E+01 0.00000E+00
 -1      2997 2.41500E+01 3.70100E+01 0.00000E+00
 -1      2998 2.79000E+01 3.83090E+01 0.00000E+00
 -1      2999 2.94000E+01 3.83090E+01 0.00000E+00
 -1      3000 2.71500E+01 3.70100E+01 0.00000E+00
 -1      3001 3.09000E+01 3.83090E+01 0.00000E+00
 -1      3002 3.24000E+01 3.83090E+01 0.00000E+00
 -1      3003 3.01500E+01 3.70100E+01 0.00000E+00
 -1      3004 3.39000E+01 3.83090E+01 0.00000E+00
 -1      3005 3.54000E+01 3.83090E+01 0.00000E+00
 -1      3006 3.31500E+01 3.70100E+01 0.00000E+00
 -1      3007 3.69000E+01 3.83090E+01 0.00000E+00
 -1      3008 3.84000E+01 3.83090E+01 0.00000E+00
 -1      3009 3.61500E+01 3.70100E+01 0.00000E+00
 -1      3010 3.99000E+01 3.83090E+01 0.00000E+00
 -1      3011 4.14000E+01 3.83090E+01 0.00000E+00
 -1      3012 3.91500E+01 3.70100E+01 0.00000E+00
 -1      3013 4.29000E+01 3.83090E+01 0.00000E+00
 -1      3014 4.44000E+01 3.83090E+01 0.00000E+00
 -1      3015 4.21500E+01 3.70100E+01 0.00000E+00
 -1      3016 4.59000E+01 3.83090E+01 0.00000E+00
 -1      3017 4.74000E+01 3.83090E+01 0.00000E+00
 -1      3018 4.51500E+01 3.70100E+01 0.00000E+00
 -1      3019 4.89000E+01 3.83090E+01 0.00000E+00
 -1      3020 5.04000E+01 3.83090E+01 0.00000E+00
 -1      3021 4.81500E+01 3.70100E+01 0.00000E+00
 -1      3022 5.19000E+01 3.83090E+01 0.00000E+00
 -1      3023 5.34000E+01 3.83090E+01 0.00000E+00
 -1      3024 5.11500E+01 3.70100E+01 0.00000E+00
 -1      3025 5.49000E+01 3.83090E+01 0.00000E+00
 -1      3026 5.64000E+01 3.83090E+01 0.00000E+00
 -1      3027 5.41500E+01 3.70100E+01 0.00000E+00
 -1      3028 5.79000E+01 3.83090E+01 0.00000E+00
 -1      3029 5.94000E+01 3.83090E+01 0.00000E+00
 -1      3030 5.71500E+01 3.70100E+01 0.00000E+00
 -1      3031 6.09000E+01 3.83090E+01 0.00000E+00
 -1      3032 6.24000E+01 3.83090E+01 0.00000E+00
 -1      3033 6.01500E+01 3.70100E+01 0.00000E+00
 -1      3034 6.39000E+01 3.83090E+01 0.00000E+00
 -1      3035 6.54000E+01 3.83090E+01 0.00000E+00
 -1      3036 6.31500E+01 3.70100E+01 0.00000E+00
 -1      3037 6.69000E+01 3.83090E+01 0.00000E+00
 -1      3038 6.84000E+01 3.83090E+01 0.00000E+00
 -1      3039 6.61500E+01 3.70100E+01 0.00000E+00
 -1      3040 6.99000E+01 3.83090E+01 0.00000E+00
 -1      3041 7.14000E+01 3.83090E+01 0.00000E+00
 -1      3042 6.91500E+01 3.70100E+01 0.00000E+00
 -1      3043 7.29000E+01 3.83090E+01 0.00000E+00
 -1      3044 7.44000E+01 3.83090E+01 0.00000E+00
 -1      3045 7.21500E+01 3.70100E+01 0.00000E+00
 -1      3046 7.59000E+01 3.83090E+01 0.00000E+00
 -1      3047 7.74000E+01 3.83090E+01 0.00000E+00
 -1      3048 7.51500E+01 3.70100E+01 0.00000E+00
 -1      3049 7.89000E+01 3.83090E+01 0.00000E+00
 -1      3050 8.04000E+01 3.83090E+01 0.00000E+00
 -1      3051 7.81500E+01 3.70100E+01 0.00000E+00
 -1      3052 8.19000E+01 3.83090E+01 0.00000E+00
 -1      3053 8.34000E+01 3.83090E+01 0.00000E+00
 -1      3054 8.11500E+01 3.70100E+01 0.00000E+00
 -1      3055 8.49000E+01 3.83090E+01 0.00000E+00
 -1      3056 8.64000E+01 3.83090E+01 0.00000E+00
 -1      3057 8.41500E+01 3.70100E+01 0.00000E+00
 -1      3058 8.79000E+01 3.83090E+01 0.00000E+00
 -1      3059 8.94000E+01 3.83090E+01 0.00000E+00
 -1      3060 8.71500E+01 3.70100E+01 0.00000E+00
 -1      3061 9.09000E+01 3.83090E+01 0.00000E+00
 -1      3062 9.24000E+01 3.83090E+01 0.00000E+00
 -1      3063 9.01500E+01 3.70100E+01 0.00000E+00
 -1      3064 9.39000E+01 3.83090E+01 0.00000E+00
 -1      3065 9.54000E+01 3.83090E+01 0.00000E+00
 -1      3066 9.31500E+01 3.70100E+01 0.00000E+00
 -1      3067 9.69000E+01 3.83090E+01 0.00000E+00
 -1      3068 9.84000E+01 3.83090E+01 0.00000E+00
 -1      3069 9.61500E+01 3.70100E+01 0.00000E+00
 -1      3070 9.99000E+01 3.83090E+01 0.00000E+00
 -1      3071 1.01400E+02 3.83090E+01 0.00000E+00
 -1      3072 9.91500E+01 3.70100E+01 0.00000E+00
 -1      3073 1.02900E+02 3.83090E+01 0.00000E+00
 -1      3074 1.04400E+02 3.83090E+01 0.00000E+00
 -1      3075 1.02150E+02 3.70100E+01 0.00000E+00
 -1      3076 1.05900E+02 3.83090E+01 0.00000E+00
 -1      3077 1.07400E+02 3.83090E+01 0.00000E+00
 -1      3078 1.05150E+02 3.70100E+01 0.00000E+00
 -1      3079 1.08900E+02 3.83090E+01 0.00000E+00
 -1      3080 1.10400E+02 3.83090E+01 0.00000E+00
 -1      3081 1.08150E+02 3.70100E+01 0.00000E+00
 -1      3082 1.11900E+02 3.83090E+01 0.00000E+00
 -1      3083 1.13400E+02 3.83090E+01 0.00000E+00
 -1      3084 1.11150E+02 3.70100E+01 0.00000E+00
 -1      3085 1.14900E+02 3.83090E+01 0.00000E+00
 -1      3086 1.16400E+02 3.83090E+01 0.00000E+00
 -1      3087 1.14150E+02 3.70100E+01 0.00000E+00
 -1      3088 1.17900E+02 3.83090E+01 0.00000E+00
 -1      3089 1.19400E+02 3.83090E+01 0.00000E+00
 -1      3090 1.17150E+02 3.70100E+01 0.00000E+00
 -1      3091 1.20900E+02 3.83090E+01 0.00000E+00
 -1      3092 1.22400E+02 3.83090E+01 0.00000E+00
 -1      3093 1.20150E+02 3.70100E+01 0.00000E+00
 -1      3094 1.23900E+02 3.83090E+01 0.00000E+00
 -1      3095 1.25400E+02 3.83090E+01 0.00000E+00
 -1      3096 1.23150E+02 3.70100E+01 0.00000E+00
 -1      3097 1.26900E+02 3.83090E+01 0.00000E+00
 -1      3098 1.28400E+02 3.83090E+01 0.00000E+00
 -1      3099 1.26150E+02 3.70100E+01 0.00000E+00
 -1      3100 1.29900E+02 3.83090E+01 0.00000E+00
 -1      3101 1.31400E+02 3.83090E+01 0.00000E+00
 -1      3102 1.29150E+02 3.70100E+01 0.00000E+00
 -1      3103 1.32900E+02 3.83090E+01 0.00000E+00
 -1      3104 1.34400E+02 3.83090E+01 0.00000E+00
 -1      3105 1.32150E+02 3.70100E+01 0.00000E+00
 -1      3106 1.35707E+02 3.84200E+01 0.00000E+00
 -1      3107 1.37207E+02 3.84200E+01 0.00000E+00
 -1      3108 1.37572E+02 3.73430E+01 0.00000E+00
 -1      3109 1.34957E+02 3.71210E+01 0.00000E+00
 -1      3110 1.29000E+01 3.83090E+01 0.00000E+00
 -1      3111 1.44000E+01 3.83090E+01 0.00000E+00
 -1      3112 1.17067E+02 1.11270E+01 0.00000E+00
 -1      3113 1.17098E+02 1.25528E+01 0.00000E+00
 -1      3114 1.18629E+02 1.01443E+01 0.00000E+00
 -1      3115 3.50100E+01 1.05013E+01 0.00000E+00
 -1      3116 3.35100E+01 1.05013E+01 0.00000E+00
 -1      3117 3.20100E+01 1.05013E+01 0.00000E+00
 -1      3118 3.05100E+01 1.05013E+01 0.00000E+00
 -1      3119 3.27600E+01 1.18003E+01 0.00000E+00
 -1      3120 4.10100E+01 1.05013E+01 0.00000E+00
 -1      3121 3.95100E+01 1.05013E+01 0.00000E+00
 -1      3122 4.41600E+01 1.05013E+01 0.00000E+00
 -1      3123 4.25850E+01 1.05013E+01 0.00000E+00
 -1      3124 4.18350E+01 1.18003E+01 0.00000E+00
 -1      3125 4.71600E+01 1.05013E+01 0.00000E+00
 -1      3126 4.56600E+01 1.05013E+01 0.00000E+00
 -1      3127 4.49100E+01 1.18003E+01 0.00000E+00
 -1      3128 5.01600E+01 1.05013E+01 0.00000E+00
 -1      3129 4.86600E+01 1.05013E+01 0.00000E+00
 -1      3130 4.79100E+01 1.18003E+01 0.00000E+00
 -1      3131 5.31600E+01 1.05013E+01 0.00000E+00
 -1      3132 5.16600E+01 1.05013E+01 0.00000E+00
 -1      3133 5.09100E+01 1.18003E+01 0.00000E+00
 -1      3134 5.61600E+01 1.05013E+01 0.00000E+00
 -1      3135 5.46600E+01 1.05013E+01 0.00000E+00
 -1      3136 5.39100E+01 1.18003E+01 0.00000E+00
 -1      3137 5.93100E+01 1.05013E+01 0.00000E+00
 -1      3138 5.77350E+01 1.05013E+01 0.00000E+00
 -1      3139 5.69850E+01 1.18003E+01 0.00000E+00
 -1      3140 6.23100E+01 1.05013E+01 0.00000E+00
 -1      3141 6.08100E+01 1.05013E+01 0.00000E+00
 -1      3142 6.00600E+01 1.18003E+01 0.00000E+00
 -1      3143 6.53100E+01 1.05013E+01 0.00000E+00
 -1      3144 6.38100E+01 1.05013E+01 0.00000E+00
 -1      3145 6.30600E+01 1.18003E+01 0.00000E+00
 -1      3146 6.83100E+01 1.05013E+01 0.00000E+00
 -1      3147 6.68100E+01 1.05013E+01 0.00000E+00
 -1      3148 6.60600E+01 1.18003E+01 0.00000E+00
 -1      3149 7.13100E+01 1.05013E+01 0.00000E+00
 -1      3150 6.98100E+01 1.05013E+01 0.00000E+00
 -1      3151 6.90600E+01 1.18003E+01 0.00000E+00
 -1      3152 7.43100E+01 1.05013E+01 0.00000E+00
 -1      3153 7.28100E+01 1.05013E+01 0.00000E+00
 -1      3154 7.20600E+01 1.18003E+01 0.00000E+00
 -1      3155 7.74600E+01 1.05013E+01 0.00000E+00
 -1      3156 7.58850E+01 1.05013E+01 0.00000E+00
 -1      3157 7.51350E+01 1.18003E+01 0.00000E+00
 -1      3158 8.04600E+01 1.05013E+01 0.00000E+00
 -1      3159 7.89600E+01 1.05013E+01 0.00000E+00
 -1      3160 7.82100E+01 1.18003E+01 0.00000E+00
 -1      3161 8.34600E+01 1.05013E+01 0.00000E+00
 -1      3162 8.19600E+01 1.05013E+01 0.00000E+00
 -1      3163 8.12100E+01 1.18003E+01 0.00000E+00
 -1      3164 8.64600E+01 1.05013E+01 0.00000E+00
 -1      3165 8.49600E+01 1.05013E+01 0.00000E+00
 -1      3166 8.42100E+01 1.18003E+01 0.00000E+00
 -1      3167 8.87677E+01 9.85104E+00 0.00000E+00
 -1      3168 1.26849E+02 1.00174E+01 0.00000E+00
 -1      3169 1.25349E+02 1.00174E+01 0.00000E+00
 -1      3170 1.13724E+02 1.93913E+01 0.00000E+00
 -1      3171 1.29999E+02 1.00174E+01 0.00000E+00
 -1      3172 1.28424E+02 1.00174E+01 0.00000E+00
 -1      3173 1.27674E+02 1.13164E+01 0.00000E+00
 -1      3174 1.11132E+02 2.42940E+01 0.00000E+00
 -1      3175 1.09967E+02 2.51525E+01 0.00000E+00
 -1      3176 3.80100E+01 1.05013E+01 0.00000E+00
 -1      3177 3.65100E+01 1.05013E+01 0.00000E+00
 -1      3178 3.87600E+01 1.18003E+01 0.00000E+00
 -1      3179 1.23849E+02 1.00174E+01 0.00000E+00
 -1      3180 1.22349E+02 1.00174E+01 0.00000E+00
 -1      3181 1.24599E+02 1.13164E+01 0.00000E+00
 -1      3182 1.32999E+02 1.00174E+01 0.00000E+00
 -1      3183 1.31499E+02 1.00174E+01 0.00000E+00
 -1      3184 1.30749E+02 1.13164E+01 0.00000E+00
 -1      3185 1.35999E+02 1.00174E+01 0.00000E+00
 -1      3186 1.34499E+02 1.00174E+01 0.00000E+00
 -1      3187 1.33749E+02 1.13164E+01 0.00000E+00
 -1      3188 1.38333E+02 1.00144E+01 0.00000E+00
 -1      3189 1.37089E+02 1.01383E+01 0.00000E+00
 -1      3190 1.36339E+02 1.14373E+01 0.00000E+00
 -1      3191 1.38518E+02 1.16791E+01 0.00000E+00
 -1      3192 9.02555E+01 2.04087E+01 0.00000E+00
 -1      3193 8.97365E+01 1.92940E+01 0.00000E+00
 -1      3194 1.08359E+02 2.58701E+01 0.00000E+00
 -1      3195 1.06971E+02 2.62979E+01 0.00000E+00
 -1      3196 1.16910E+01 2.12875E+01 0.00000E+00
 -1      3197 1.16910E+01 2.27625E+01 0.00000E+00
 -1      3198 1.12710E+01 3.74352E+01 0.00000E+00
 -1      3199 1.20855E+01 3.78721E+01 0.00000E+00
 -1      3200 1.12065E+01 3.56994E+01 0.00000E+00
 -1      3201 1.05531E+02 2.65414E+01 0.00000E+00
 -1      3202 1.04362E+02 2.67003E+01 0.00000E+00
 -1      3203 1.38309E+02 2.57625E+01 0.00000E+00
 -1      3204 1.38309E+02 2.42875E+01 0.00000E+00
 -1      3205 1.38309E+02 3.45625E+01 0.00000E+00
 -1      3206 1.38309E+02 3.30875E+01 0.00000E+00
 -1      3207 1.38309E+02 2.86625E+01 0.00000E+00
 -1      3208 1.38309E+02 2.72125E+01 0.00000E+00
 -1      3209 1.37010E+02 2.64750E+01 0.00000E+00
 -1      3210 2.89725E+01 1.05013E+01 0.00000E+00
 -1      3211 2.74350E+01 1.05013E+01 0.00000E+00
 -1      3212 2.97225E+01 1.18003E+01 0.00000E+00
 -1      3213 2.59350E+01 1.05013E+01 0.00000E+00
 -1      3214 2.44350E+01 1.05013E+01 0.00000E+00
 -1      3215 2.66850E+01 1.18003E+01 0.00000E+00
 -1      3216 1.26675E+01 1.02017E+01 0.00000E+00
 -1      3217 1.20960E+01 1.14631E+01 0.00000E+00
 -1      3218 1.33950E+01 1.22006E+01 0.00000E+00
 -1      3219 1.42050E+01 1.02017E+01 0.00000E+00
 -1      3220 1.38309E+02 3.16125E+01 0.00000E+00
 -1      3221 1.38309E+02 3.01375E+01 0.00000E+00
 -1      3222 1.37010E+02 2.94000E+01 0.00000E+00
 -1      3223 1.37010E+02 3.23500E+01 0.00000E+00
 -1      3224 9.70307E+01 2.60934E+01 0.00000E+00
 -1      3225 9.57768E+01 2.54033E+01 0.00000E+00
 -1      3226 2.29350E+01 1.05013E+01 0.00000E+00
 -1      3227 2.14350E+01 1.05013E+01 0.00000E+00
 -1      3228 2.36850E+01 1.18003E+01 0.00000E+00
 -1      3229 1.59000E+01 3.83090E+01 0.00000E+00
 -1      3230 1.74000E+01 3.83090E+01 0.00000E+00
 -1      3231 1.81500E+01 3.70100E+01 0.00000E+00
 -1      3232 1.20129E+02 1.01443E+01 0.00000E+00
 -1      3233 8.87002E+01 1.50130E+01 0.00000E+00
 -1      3234 8.86439E+01 1.39403E+01 0.00000E+00
 -1      3235 1.00093E+02 2.69926E+01 0.00000E+00
 -1      3236 9.86540E+01 2.67996E+01 0.00000E+00
 -1      3237 9.44417E+01 2.47761E+01 0.00000E+00
 -1      3238 9.33682E+01 2.40305E+01 0.00000E+00
 -1      3239 1.13310E+02 2.20338E+01 0.00000E+00
 -1      3240 1.12360E+02 2.31477E+01 0.00000E+00
 -1      3241 9.21475E+01 2.29153E+01 0.00000E+00
 -1      3242 9.11616E+01 2.17742E+01 0.00000E+00
 -1      3243 8.79596E+01 1.04780E+01 0.00000E+00
 -1      3244 1.14998E+02 1.91443E+01 0.00000E+00
 -1      3245 1.14279E+02 2.05648E+01 0.00000E+00
 -1      3246 1.16910E+01 2.42375E+01 0.00000E+00
 -1      3247 1.16910E+01 2.57125E+01 0.00000E+00
 -1      3248 1.29900E+01 2.35000E+01 0.00000E+00
 -1      3249 1.00825E+02 2.79806E+01 0.00000E+00
 -1      3250 1.51500E+01 3.70100E+01 0.00000E+00
 -1      3251 8.88355E+01 1.88097E+01 0.00000E+00
 -1      3252 8.82624E+01 1.31377E+01 0.00000E+00
 -1      3253 1.18469E+02 1.30001E+01 0.00000E+00
 -1      3254 1.16907E+02 1.39828E+01 0.00000E+00
 -1      3255 1.16634E+02 1.50916E+01 0.00000E+00
 -1      3256 3.57600E+01 1.18003E+01 0.00000E+00
 -1      3257 1.15648E+02 1.81195E+01 0.00000E+00
 -1      3258 1.16203E+02 1.92930E+01 0.00000E+00
 -1      3259 8.72096E+01 1.17770E+01 0.00000E+00
 -1      3260 1.10740E+02 2.66619E+01 0.00000E+00
 -1      3261 1.09550E+02 2.62660E+01 0.00000E+00
 -1      3262 1.09133E+02 2.73795E+01 0.00000E+00
 -1      3263 1.12386E+02 2.44021E+01 0.00000E+00
 -1      3264 1.38309E+02 1.69188E+01 0.00000E+00
 -1      3265 1.38309E+02 1.54563E+01 0.00000E+00
 -1      3266 8.99728E+01 2.16495E+01 0.00000E+00
 -1      3267 1.38518E+02 1.31416E+01 0.00000E+00
 -1      3268 1.06502E+02 2.72271E+01 0.00000E+00
 -1      3269 1.38309E+02 1.98687E+01 0.00000E+00
 -1      3270 1.38309E+02 1.83937E+01 0.00000E+00
 -1      3271 1.37010E+02 1.76625E+01 0.00000E+00
 -1      3272 1.28355E+01 3.65731E+01 0.00000E+00
 -1      3273 9.46552E+01 2.58725E+01 0.00000E+00
 -1      3274 1.38309E+02 2.28156E+01 0.00000E+00
 -1      3275 1.38309E+02 2.13406E+01 0.00000E+00
 -1      3276 1.37010E+02 2.06094E+01 0.00000E+00
 -1      3277 1.37010E+02 2.35531E+01 0.00000E+00
 -1      3278 1.99163E+01 1.05013E+01 0.00000E+00
 -1      3279 1.83975E+01 1.05013E+01 0.00000E+00
 -1      3280 2.06663E+01 1.18003E+01 0.00000E+00
 -1      3281 1.20879E+02 1.14433E+01 0.00000E+00
 -1      3282 1.14584E+02 2.17868E+01 0.00000E+00
 -1      3283 1.16910E+01 1.54063E+01 0.00000E+00
 -1      3284 1.16910E+01 1.68750E+01 0.00000E+00
 -1      3285 1.29900E+01 1.46687E+01 0.00000E+00
 -1      3286 8.77198E+01 1.68440E+01 0.00000E+00
 -1      3287 8.82100E+01 1.59285E+01 0.00000E+00
 -1      3288 8.73255E+01 1.54371E+01 0.00000E+00
 -1      3289 1.16910E+01 1.83469E+01 0.00000E+00
 -1      3290 1.16910E+01 1.98156E+01 0.00000E+00
 -1      3291 1.29900E+01 2.05531E+01 0.00000E+00
 -1      3292 1.29900E+01 1.76094E+01 0.00000E+00
 -1      3293 9.76136E+01 2.72059E+01 0.00000E+00
 -1      3294 9.65732E+01 2.76122E+01 0.00000E+00
 -1      3295 9.81965E+01 2.83184E+01 0.00000E+00
 -1      3296 1.03737E+02 2.77598E+01 0.00000E+00
 -1      3297 1.12065E+01 3.27619E+01 0.00000E+00
 -1      3298 1.12065E+01 3.42306E+01 0.00000E+00
 -1      3299 1.20210E+01 3.46675E+01 0.00000E+00
 -1      3300 1.12065E+01 2.98244E+01 0.00000E+00
 -1      3301 1.12065E+01 3.12931E+01 0.00000E+00
 -1      3302 1.20210E+01 3.17300E+01 0.00000E+00
 -1      3303 9.20995E+01 2.41301E+01 0.00000E+00
 -1      3304 1.37758E+02 3.64912E+01 0.00000E+00
 -1      3305 1.38123E+02 3.54142E+01 0.00000E+00
 -1      3306 1.36824E+02 3.46768E+01 0.00000E+00
 -1      3307 1.36451E+02 3.63802E+01 0.00000E+00
 -1      3308 1.15921E+02 1.70106E+01 0.00000E+00
 -1      3309 1.14487E+01 2.70341E+01 0.00000E+00
 -1      3310 1.14487E+01 2.85028E+01 0.00000E+00
 -1      3311 1.22633E+01 2.89397E+01 0.00000E+00
 -1      3312 1.27478E+01 2.62966E+01 0.00000E+00
 -1      3313 1.17565E+02 1.63491E+01 0.00000E+00
 -1      3314 2.34000E+01 3.57110E+01 0.00000E+00
 -1      3315 2.49000E+01 3.57110E+01 0.00000E+00
 -1      3316 2.64000E+01 3.57110E+01 0.00000E+00
 -1      3317 2.79000E+01 3.57110E+01 0.00000E+00
 -1      3318 2.56500E+01 3.44120E+01 0.00000E+00
 -1      3319 2.94000E+01 3.57110E+01 0.00000E+00
 -1      3320 3.09000E+01 3.57110E+01 0.00000E+00
 -1      3321 2.86500E+01 3.44120E+01 0.00000E+00
 -1      3322 3.24000E+01 3.57110E+01 0.00000E+00
 -1      3323 3.39000E+01 3.57110E+01 0.00000E+00
 -1      3324 3.16500E+01 3.44120E+01 0.00000E+00
 -1      3325 3.54000E+01 3.57110E+01 0.00000E+00
 -1      3326 3.69000E+01 3.57110E+01 0.00000E+00
 -1      3327 3.46500E+01 3.44120E+01 0.00000E+00
 -1      3328 3.84000E+01 3.57110E+01 0.00000E+00
 -1      3329 3.99000E+01 3.57110E+01 0.00000E+00
 -1      3330 3.76500E+01 3.44120E+01 0.00000E+00
 -1      3331 4.14000E+01 3.57110E+01 0.00000E+00
 -1      3332 4.29000E+01 3.57110E+01 0.00000E+00
 -1      3333 4.06500E+01 3.44120E+01 0.00000E+00
 -1      3334 4.44000E+01 3.57110E+01 0.00000E+00
 -1      3335 4.59000E+01 3.57110E+01 0.00000E+00
 -1      3336 4.36500E+01 3.44120E+01 0.00000E+00
 -1      3337 4.74000E+01 3.57110E+01 0.00000E+00
 -1      3338 4.89000E+01 3.57110E+01 0.00000E+00
 -1      3339 4.66500E+01 3.44120E+01 0.00000E+00
 -1      3340 5.04000E+01 3.57110E+01 0.00000E+00
 -1      3341 5.19000E+01 3.57110E+01 0.00000E+00
 -1      3342 4.96500E+01 3.44120E+01 0.00000E+00
 -1      3343 5.34000E+01 3.57110E+01 0.00000E+00
 -1      3344 5.49000E+01 3.57110E+01 0.00000E+00
 -1      3345 5.26500E+01 3.44120E+01 0.00000E+00
 -1      3346 5.64000E+01 3.57110E+01 0.00000E+00
 -1      3347 5.79000E+01 3.57110E+01 0.00000E+00
 -1      3348 5.56500E+01 3.44120E+01 0.00000E+00
 -1      3349 5.94000E+01 3.57110E+01 0.00000E+00
 -1      3350 6.09000E+01 3.57110E+01 0.00000E+00
 -1      3351 5.86500E+01 3.44120E+01 0.00000E+00
 -1      3352 6.24000E+01 3.57110E+01 0.00000E+00
 -1      3353 6.39000E+01 3.57110E+01 0.00000E+00
 -1      3354 6.16500E+01 3.44120E+01 0.00000E+00
 -1      3355 6.54000E+01 3.57110E+01 0.00000E+00
 -1      3356 6.69000E+01 3.57110E+01 0.00000E+00
 -1      3357 6.46500E+01 3.44120E+01 0.00000E+00
 -1      3358 6.84000E+01 3.57110E+01 0.00000E+00
 -1      3359 6.99000E+01 3.57110E+01 0.00000E+00
 -1      3360 6.76500E+01 3.44120E+01 0.00000E+00
 -1      3361 7.14000E+01 3.57110E+01 0.00000E+00
 -1      3362 7.29000E+01 3.57110E+01 0.00000E+00
 -1      3363 7.06500E+01 3.44120E+01 0.00000E+00
 -1      3364 7.44000E+01 3.57110E+01 0.00000E+00
 -1      3365 7.59000E+01 3.57110E+01 0.00000E+00
 -1      3366 7.36500E+01 3.44120E+01 0.00000E+00
 -1      3367 7.74000E+01 3.57110E+01 0.00000E+00
 -1      3368 7.89000E+01 3.57110E+01 0.00000E+00
 -1      3369 7.66500E+01 3.44120E+01 0.00000E+00
 -1      3370 8.04000E+01 3.57110E+01 0.00000E+00
 -1      3371 8.19000E+01 3.57110E+01 0.00000E+00
 -1      3372 7.96500E+01 3.44120E+01 0.00000E+00
 -1      3373 8.34000E+01 3.57110E+01 0.00000E+00
 -1      3374 8.49000E+01 3.57110E+01 0.00000E+00
 -1      3375 8.26500E+01 3.44120E+01 0.00000E+00
 -1      3376 8.64000E+01 3.57110E+01 0.00000E+00
 -1      3377 8.79000E+01 3.57110E+01 0.00000E+00
 -1      3378 8.56500E+01 3.44120E+01 0.00000E+00
 -1      3379 8.94000E+01 3.57110E+01 0.00000E+00
 -1      3380 9.09000E+01 3.57110E+01 0.00000E+00
 -1      3381 8.86500E+01 3.44120E+01 0.00000E+00
 -1      3382 9.24000E+01 3.57110E+01 0.00000E+00
 -1      3383 9.39000E+01 3.57110E+01 0.00000E+00
 -1      3384 9.16500E+01 3.44120E+01 0.00000E+00
 -1      3385 9.54000E+01 3.57110E+01 0.00000E+00
 -1      3386 9.69000E+01 3.57110E+01 0.00000E+00
 -1      3387 9.46500E+01 3.44120E+01 0.00000E+00
 -1      3388 9.84000E+01 3.57110E+01 0.00000E+00
 -1      3389 9.99000E+01 3.57110E+01 0.00000E+00
 -1      3390 9.76500E+01 3.44120E+01 0.00000E+00
 -1      3391 1.01400E+02 3.57110E+01 0.00000E+00
 -1      3392 1.02900E+02 3.57110E+01 0.00000E+00
 -1      3393 1.00650E+02 3.44120E+01 0.00000E+00
 -1      3394 1.04400E+02 3.57110E+01 0.00000E+00
 -1      3395 1.05900E+02 3.57110E+01 0.00000E+00
 -1      3396 1.03650E+02 3.44120E+01 0.00000E+00
 -1      3397 1.07400E+02 3.57110E+01 0.00000E+00
 -1      3398 1.08900E+02 3.57110E+01 0.00000E+00
 -1      3399 1.06650E+02 3.44120E+01 0.00000E+00
 -1      3400 1.10400E+02 3.57110E+01 0.00000E+00
 -1      3401 1.11900E+02 3.57110E+01 0.00000E+00
 -1      3402 1.09650E+02 3.44120E+01 0.00000E+00
 -1      3403 1.13400E+02 3.57110E+01 0.00000E+00
 -1      3404 1.14900E+02 3.57110E+01 0.00000E+00
 -1      3405 1.12650E+02 3.44120E+01 0.00000E+00
 -1      3406 1.16400E+02 3.57110E+01 0.00000E+00
 -1      3407 1.17900E+02 3.57110E+01 0.00000E+00
 -1      3408 1.15650E+02 3.44120E+01 0.00000E+00
 -1      3409 1.19400E+02 3.57110E+01 0.00000E+00
 -1      3410 1.20900E+02 3.57110E+01 0.00000E+00
 -1      3411 1.18650E+02 3.44120E+01 0.00000E+00
 -1      3412 1.22400E+02 3.57110E+01 0.00000E+00
 -1      3413 1.23900E+02 3.57110E+01 0.00000E+00
 -1      3414 1.21650E+02 3.44120E+01 0.00000E+00
 -1      3415 1.25400E+02 3.57110E+01 0.00000E+00
 -1      3416 1.26900E+02 3.57110E+01 0.00000E+00
 -1      3417 1.24650E+02 3.44120E+01 0.00000E+00
 -1      3418 1.28400E+02 3.57110E+01 0.00000E+00
 -1      3419 1.29900E+02 3.57110E+01 0.00000E+00
 -1      3420 1.27650E+02 3.44120E+01 0.00000E+00
 -1      3421 1.31400E+02 3.57110E+01 0.00000E+00
 -1      3422 1.32900E+02 3.57110E+01 0.00000E+00
 -1      3423 1.30650E+02 3.44120E+01 0.00000E+00
 -1      3424 1.20689E+02 1.28732E+01 0.00000E+00
 -1      3425 1.20498E+02 1.43032E+01 0.00000E+00
 -1      3426 1.22909E+02 1.27464E+01 0.00000E+00
 -1      3427 1.74000E+01 3.57110E+01 0.00000E+00
 -1      3428 1.89000E+01 3.57110E+01 0.00000E+00
 -1      3429 4.56600E+01 1.30992E+01 0.00000E+00
 -1      3430 4.41600E+01 1.30992E+01 0.00000E+00
 -1      3431 4.25850E+01 1.30992E+01 0.00000E+00
 -1      3432 4.10100E+01 1.30992E+01 0.00000E+00
 -1      3433 4.33350E+01 1.43982E+01 0.00000E+00
 -1      3434 5.16600E+01 1.30992E+01 0.00000E+00
 -1      3435 5.01600E+01 1.30992E+01 0.00000E+00
 -1      3436 5.46600E+01 1.30992E+01 0.00000E+00
 -1      3437 5.31600E+01 1.30992E+01 0.00000E+00
 -1      3438 5.24100E+01 1.43982E+01 0.00000E+00
 -1      3439 5.78100E+01 1.30992E+01 0.00000E+00
 -1      3440 5.62350E+01 1.30992E+01 0.00000E+00
 -1      3441 5.54850E+01 1.43982E+01 0.00000E+00
 -1      3442 6.08100E+01 1.30992E+01 0.00000E+00
 -1      3443 5.93100E+01 1.30992E+01 0.00000E+00
 -1      3444 5.85600E+01 1.43982E+01 0.00000E+00
 -1      3445 6.38100E+01 1.30992E+01 0.00000E+00
 -1      3446 6.23100E+01 1.30992E+01 0.00000E+00
 -1      3447 6.15600E+01 1.43982E+01 0.00000E+00
 -1      3448 6.68100E+01 1.30992E+01 0.00000E+00
 -1      3449 6.53100E+01 1.30992E+01 0.00000E+00
 -1      3450 6.45600E+01 1.43982E+01 0.00000E+00
 -1      3451 6.98100E+01 1.30992E+01 0.00000E+00
 -1      3452 6.83100E+01 1.30992E+01 0.00000E+00
 -1      3453 6.75600E+01 1.43982E+01 0.00000E+00
 -1      3454 7.28100E+01 1.30992E+01 0.00000E+00
 -1      3455 7.13100E+01 1.30992E+01 0.00000E+00
 -1      3456 7.05600E+01 1.43982E+01 0.00000E+00
 -1      3457 7.59600E+01 1.30992E+01 0.00000E+00
 -1      3458 7.43850E+01 1.30992E+01 0.00000E+00
 -1      3459 7.36350E+01 1.43982E+01 0.00000E+00
 -1      3460 7.89600E+01 1.30992E+01 0.00000E+00
 -1      3461 7.74600E+01 1.30992E+01 0.00000E+00
 -1      3462 7.67100E+01 1.43982E+01 0.00000E+00
 -1      3463 8.19600E+01 1.30992E+01 0.00000E+00
 -1      3464 8.04600E+01 1.30992E+01 0.00000E+00
 -1      3465 7.97100E+01 1.43982E+01 0.00000E+00
 -1      3466 8.49600E+01 1.30992E+01 0.00000E+00
 -1      3467 8.34600E+01 1.30992E+01 0.00000E+00
 -1      3468 8.27100E+01 1.43982E+01 0.00000E+00
 -1      3469 8.67628E+01 1.31609E+01 0.00000E+00
 -1      3470 3.95100E+01 1.30992E+01 0.00000E+00
 -1      3471 3.80100E+01 1.30992E+01 0.00000E+00
 -1      3472 4.02600E+01 1.43982E+01 0.00000E+00
 -1      3473 1.18883E+02 1.57468E+01 0.00000E+00
 -1      3474 1.18170E+02 1.76658E+01 0.00000E+00
 -1      3475 1.34499E+02 1.26154E+01 0.00000E+00
 -1      3476 1.32999E+02 1.26154E+01 0.00000E+00
 -1      3477 1.31783E+01 3.56203E+01 0.00000E+00
 -1      3478 1.39928E+01 3.60572E+01 0.00000E+00
 -1      3479 1.54928E+01 3.60572E+01 0.00000E+00
 -1      3480 1.31783E+01 3.41516E+01 0.00000E+00
 -1      3481 8.95018E+01 2.29454E+01 0.00000E+00
 -1      3482 8.85957E+01 2.15799E+01 0.00000E+00
 -1      3483 1.17464E+02 1.93741E+01 0.00000E+00
 -1      3484 1.16815E+02 2.03990E+01 0.00000E+00
 -1      3485 1.25909E+02 1.27464E+01 0.00000E+00
 -1      3486 1.24409E+02 1.27464E+01 0.00000E+00
 -1      3487 1.24218E+02 1.41763E+01 0.00000E+00
 -1      3488 1.70606E+01 1.03515E+01 0.00000E+00
 -1      3489 1.55419E+01 1.03515E+01 0.00000E+00
 -1      3490 1.51369E+01 1.13509E+01 0.00000E+00
 -1      3491 1.78106E+01 1.16505E+01 0.00000E+00
 -1      3492 1.13814E+02 2.47011E+01 0.00000E+00
 -1      3493 1.12586E+02 2.58474E+01 0.00000E+00
 -1      3494 1.01578E+02 2.89553E+01 0.00000E+00
 -1      3495 9.99904E+01 2.88868E+01 0.00000E+00
 -1      3496 1.07393E+02 2.81161E+01 0.00000E+00
 -1      3497 1.05953E+02 2.83596E+01 0.00000E+00
 -1      3498 1.35711E+02 2.72000E+01 0.00000E+00
 -1      3499 1.35711E+02 2.57500E+01 0.00000E+00
 -1      3500 3.04912E+01 1.30992E+01 0.00000E+00
 -1      3501 2.89538E+01 1.30992E+01 0.00000E+00
 -1      3502 2.74538E+01 1.30992E+01 0.00000E+00
 -1      3503 2.59538E+01 1.30992E+01 0.00000E+00
 -1      3504 2.82225E+01 1.43982E+01 0.00000E+00
 -1      3505 3.65100E+01 1.30992E+01 0.00000E+00
 -1      3506 3.50100E+01 1.30992E+01 0.00000E+00
 -1      3507 3.72600E+01 1.43982E+01 0.00000E+00
 -1      3508 4.86600E+01 1.30992E+01 0.00000E+00
 -1      3509 4.71600E+01 1.30992E+01 0.00000E+00
 -1      3510 4.64100E+01 1.43982E+01 0.00000E+00
 -1      3511 4.94100E+01 1.43982E+01 0.00000E+00
 -1      3512 1.29059E+02 1.27464E+01 0.00000E+00
 -1      3513 1.27483E+02 1.27464E+01 0.00000E+00
 -1      3514 1.27293E+02 1.41763E+01 0.00000E+00
 -1      3515 1.31779E+02 1.26809E+01 0.00000E+00
 -1      3516 1.30279E+02 1.26809E+01 0.00000E+00
 -1      3517 1.30088E+02 1.41109E+01 0.00000E+00
 -1      3518 1.32529E+02 1.39799E+01 0.00000E+00
 -1      3519 2.44538E+01 1.30992E+01 0.00000E+00
 -1      3520 2.29538E+01 1.30992E+01 0.00000E+00
 -1      3521 2.52225E+01 1.43982E+01 0.00000E+00
 -1      3522 9.48512E+01 2.71897E+01 0.00000E+00
 -1      3523 9.35162E+01 2.65625E+01 0.00000E+00
 -1      3524 9.19619E+01 2.55064E+01 0.00000E+00
 -1      3525 9.07412E+01 2.43912E+01 0.00000E+00
 -1      3526 8.79383E+01 1.97057E+01 0.00000E+00
 -1      3527 8.77072E+01 1.82313E+01 0.00000E+00
 -1      3528 1.04628E+02 2.86488E+01 0.00000E+00
 -1      3529 1.03304E+02 2.89381E+01 0.00000E+00
 -1      3530 1.05519E+02 2.95379E+01 0.00000E+00
 -1      3531 3.35100E+01 1.30992E+01 0.00000E+00
 -1      3532 3.20100E+01 1.30992E+01 0.00000E+00
 -1      3533 3.42600E+01 1.43982E+01 0.00000E+00
 -1      3534 2.04000E+01 3.57110E+01 0.00000E+00
 -1      3535 2.19000E+01 3.57110E+01 0.00000E+00
 -1      3536 2.26500E+01 3.44120E+01 0.00000E+00
 -1      3537 1.37219E+02 1.38729E+01 0.00000E+00
 -1      3538 1.15994E+02 2.16629E+01 0.00000E+00
 -1      3539 1.15025E+02 2.31319E+01 0.00000E+00
 -1      3540 8.60128E+01 1.44599E+01 0.00000E+00
 -1      3541 1.35380E+02 1.50510E+01 0.00000E+00
 -1      3542 1.35589E+02 1.27363E+01 0.00000E+00
 -1      3543 1.21103E+02 1.56199E+01 0.00000E+00
 -1      3544 1.34022E+02 3.59901E+01 0.00000E+00
 -1      3545 1.35329E+02 3.61011E+01 0.00000E+00
 -1      3546 1.35515E+02 3.52494E+01 0.00000E+00
 -1      3547 1.33272E+02 3.46911E+01 0.00000E+00
 -1      3548 1.62428E+01 3.47582E+01 0.00000E+00
 -1      3549 1.18782E+02 1.87718E+01 0.00000E+00
 -1      3550 1.35452E+02 1.66849E+01 0.00000E+00
 -1      3551 1.33821E+02 1.55484E+01 0.00000E+00
 -1      3552 1.12168E+02 2.69609E+01 0.00000E+00
 -1      3553 1.11751E+02 2.80744E+01 0.00000E+00
 -1      3554 1.13596E+02 2.72599E+01 0.00000E+00
 -1      3555 2.22038E+01 1.43982E+01 0.00000E+00
 -1      3556 2.14350E+01 1.30992E+01 0.00000E+00
 -1      3557 1.99163E+01 1.30992E+01 0.00000E+00
 -1      3558 1.17256E+02 2.17440E+01 0.00000E+00
 -1      3559 1.02469E+02 2.98443E+01 0.00000E+00
 -1      3560 9.97035E+01 3.02678E+01 0.00000E+00
 -1      3561 9.89500E+01 2.92931E+01 0.00000E+00
 -1      3562 9.79096E+01 2.96994E+01 0.00000E+00
 -1      3563 3.12412E+01 1.43982E+01 0.00000E+00
 -1      3564 1.34412E+02 2.50031E+01 0.00000E+00
 -1      3565 1.35711E+02 2.42781E+01 0.00000E+00
 -1      3566 1.35711E+02 2.28062E+01 0.00000E+00
 -1      3567 1.35452E+02 1.81599E+01 0.00000E+00
 -1      3568 9.21579E+01 2.68236E+01 0.00000E+00
 -1      3569 1.35711E+02 2.86750E+01 0.00000E+00
 -1      3570 1.34412E+02 2.79500E+01 0.00000E+00
 -1      3571 1.35711E+02 3.01500E+01 0.00000E+00
 -1      3572 1.42890E+01 2.27625E+01 0.00000E+00
 -1      3573 1.42890E+01 2.42375E+01 0.00000E+00
 -1      3574 1.15225E+02 2.45772E+01 0.00000E+00
 -1      3575 1.42890E+01 1.39344E+01 0.00000E+00
 -1      3576 1.42890E+01 1.54031E+01 0.00000E+00
 -1      3577 8.68226E+01 1.77399E+01 0.00000E+00
 -1      3578 9.54342E+01 2.83023E+01 0.00000E+00
 -1      3579 8.74674E+01 2.10016E+01 0.00000E+00
 -1      3580 8.63391E+01 2.04232E+01 0.00000E+00
 -1      3581 8.69965E+01 2.22974E+01 0.00000E+00
 -1      3582 1.96500E+01 3.44120E+01 0.00000E+00
 -1      3583 1.08584E+02 2.85121E+01 0.00000E+00
 -1      3584 1.08034E+02 2.96446E+01 0.00000E+00
 -1      3585 1.09774E+02 2.89080E+01 0.00000E+00
 -1      3586 8.93642E+01 2.43216E+01 0.00000E+00
 -1      3587 1.49154E+01 1.21429E+01 0.00000E+00
 -1      3588 1.45104E+01 1.31424E+01 0.00000E+00
 -1      3589 1.58094E+01 1.38767E+01 0.00000E+00
 -1      3590 1.62523E+01 1.22927E+01 0.00000E+00
 -1      3591 1.42890E+01 1.98188E+01 0.00000E+00
 -1      3592 1.42890E+01 2.12906E+01 0.00000E+00
 -1      3593 1.55880E+01 2.20281E+01 0.00000E+00
 -1      3594 1.34253E+01 3.26723E+01 0.00000E+00
 -1      3595 1.45825E+01 3.36251E+01 0.00000E+00
 -1      3596 8.55226E+01 1.53754E+01 0.00000E+00
 -1      3597 1.35702E+02 3.43976E+01 0.00000E+00
 -1      3598 1.34487E+02 3.38069E+01 0.00000E+00
 -1      3599 1.35795E+02 3.32342E+01 0.00000E+00
 -1      3600 1.35795E+02 3.17593E+01 0.00000E+00
 -1      3601 1.33365E+02 3.35277E+01 0.00000E+00
 -1      3602 1.34253E+01 3.12036E+01 0.00000E+00
 -1      3603 2.59725E+01 1.56973E+01 0.00000E+00
 -1      3604 2.44725E+01 1.56973E+01 0.00000E+00
 -1      3605 1.22705E+02 1.57875E+01 0.00000E+00
 -1      3606 1.21090E+02 1.72310E+01 0.00000E+00
 -1      3607 1.36675E+01 2.98820E+01 0.00000E+00
 -1      3608 1.50718E+01 3.08243E+01 0.00000E+00
 -1      3609 1.39098E+01 2.85605E+01 0.00000E+00
 -1      3610 2.79000E+01 3.31130E+01 0.00000E+00
 -1      3611 2.94000E+01 3.31130E+01 0.00000E+00
 -1      3612 3.09000E+01 3.31130E+01 0.00000E+00
 -1      3613 3.24000E+01 3.31130E+01 0.00000E+00
 -1      3614 3.01500E+01 3.18140E+01 0.00000E+00
 -1      3615 3.39000E+01 3.31130E+01 0.00000E+00
 -1      3616 3.54000E+01 3.31130E+01 0.00000E+00
 -1      3617 3.31500E+01 3.18140E+01 0.00000E+00
 -1      3618 3.69000E+01 3.31130E+01 0.00000E+00
 -1      3619 3.84000E+01 3.31130E+01 0.00000E+00
 -1      3620 3.61500E+01 3.18140E+01 0.00000E+00
 -1      3621 3.99000E+01 3.31130E+01 0.00000E+00
 -1      3622 4.14000E+01 3.31130E+01 0.00000E+00
 -1      3623 3.91500E+01 3.18140E+01 0.00000E+00
 -1      3624 4.29000E+01 3.31130E+01 0.00000E+00
 -1      3625 4.44000E+01 3.31130E+01 0.00000E+00
 -1      3626 4.21500E+01 3.18140E+01 0.00000E+00
 -1      3627 4.59000E+01 3.31130E+01 0.00000E+00
 -1      3628 4.74000E+01 3.31130E+01 0.00000E+00
 -1      3629 4.51500E+01 3.18140E+01 0.00000E+00
 -1      3630 4.89000E+01 3.31130E+01 0.00000E+00
 -1      3631 5.04000E+01 3.31130E+01 0.00000E+00
 -1      3632 4.81500E+01 3.18140E+01 0.00000E+00
 -1      3633 5.19000E+01 3.31130E+01 0.00000E+00
 -1      3634 5.34000E+01 3.31130E+01 0.00000E+00
 -1      3635 5.11500E+01 3.18140E+01 0.00000E+00
 -1      3636 5.49000E+01 3.31130E+01 0.00000E+00
 -1      3637 5.64000E+01 3.31130E+01 0.00000E+00
 -1      3638 5.41500E+01 3.18140E+01 0.00000E+00
 -1      3639 5.79000E+01 3.31130E+01 0.00000E+00
 -1      3640 5.94000E+01 3.31130E+01 0.00000E+00
 -1      3641 5.71500E+01 3.18140E+01 0.00000E+00
 -1      3642 6.09000E+01 3.31130E+01 0.00000E+00
 -1      3643 6.24000E+01 3.31130E+01 0.00000E+00
 -1      3644 6.01500E+01 3.18140E+01 0.00000E+00
 -1      3645 6.39000E+01 3.31130E+01 0.00000E+00
 -1      3646 6.54000E+01 3.31130E+01 0.00000E+00
 -1      3647 6.31500E+01 3.18140E+01 0.00000E+00
 -1      3648 6.69000E+01 3.31130E+01 0.00000E+00
 -1      3649 6.84000E+01 3.31130E+01 0.00000E+00
 -1      3650 6.61500E+01 3.18140E+01 0.00000E+00
 -1      3651 6.99000E+01 3.31130E+01 0.00000E+00
 -1      3652 7.14000E+01 3.31130E+01 0.00000E+00
 -1      3653 6.91500E+01 3.18140E+01 0.00000E+00
 -1      3654 7.29000E+01 3.31130E+01 0.00000E+00
 -1      3655 7.44000E+01 3.31130E+01 0.00000E+00
 -1      3656 7.21500E+01 3.18140E+01 0.00000E+00
 -1      3657 7.59000E+01 3.31130E+01 0.00000E+00
 -1      3658 7.74000E+01 3.31130E+01 0.00000E+00
 -1      3659 7.51500E+01 3.18140E+01 0.00000E+00
 -1      3660 7.89000E+01 3.31130E+01 0.00000E+00
 -1      3661 8.04000E+01 3.31130E+01 0.00000E+00
 -1      3662 7.81500E+01 3.18140E+01 0.00000E+00
 -1      3663 8.19000E+01 3.31130E+01 0.00000E+00
 -1      3664 8.34000E+01 3.31130E+01 0.00000E+00
 -1      3665 8.11500E+01 3.18140E+01 0.00000E+00
 -1      3666 8.49000E+01 3.31130E+01 0.00000E+00
 -1      3667 8.64000E+01 3.31130E+01 0.00000E+00
 -1      3668 8.41500E+01 3.18140E+01 0.00000E+00
 -1      3669 8.79000E+01 3.31130E+01 0.00000E+00
 -1      3670 8.94000E+01 3.31130E+01 0.00000E+00
 -1      3671 8.71500E+01 3.18140E+01 0.00000E+00
 -1      3672 9.09000E+01 3.31130E+01 0.00000E+00
 -1      3673 9.24000E+01 3.31130E+01 0.00000E+00
 -1      3674 9.01500E+01 3.18140E+01 0.00000E+00
 -1      3675 9.39000E+01 3.31130E+01 0.00000E+00
 -1      3676 9.54000E+01 3.31130E+01 0.00000E+00
 -1      3677 9.31500E+01 3.18140E+01 0.00000E+00
 -1      3678 9.74066E+01 3.25430E+01 0.00000E+00
 -1      3679 9.89066E+01 3.25430E+01 0.00000E+00
 -1      3680 1.00407E+02 3.25430E+01 0.00000E+00
 -1      3681 1.02900E+02 3.31130E+01 0.00000E+00
 -1      3682 1.04400E+02 3.31130E+01 0.00000E+00
 -1      3683 1.05997E+02 3.18303E+01 0.00000E+00
 -1      3684 1.07497E+02 3.18303E+01 0.00000E+00
 -1      3685 1.11900E+02 3.31130E+01 0.00000E+00
 -1      3686 1.13400E+02 3.31130E+01 0.00000E+00
 -1      3687 1.14900E+02 3.31130E+01 0.00000E+00
 -1      3688 1.16400E+02 3.31130E+01 0.00000E+00
 -1      3689 1.14150E+02 3.18140E+01 0.00000E+00
 -1      3690 1.17900E+02 3.31130E+01 0.00000E+00
 -1      3691 1.19400E+02 3.31130E+01 0.00000E+00
 -1      3692 1.17150E+02 3.18140E+01 0.00000E+00
 -1      3693 1.20900E+02 3.31130E+01 0.00000E+00
 -1      3694 1.22400E+02 3.31130E+01 0.00000E+00
 -1      3695 1.20150E+02 3.18140E+01 0.00000E+00
 -1      3696 1.23900E+02 3.31130E+01 0.00000E+00
 -1      3697 1.25400E+02 3.31130E+01 0.00000E+00
 -1      3698 1.23150E+02 3.18140E+01 0.00000E+00
 -1      3699 1.26900E+02 3.31130E+01 0.00000E+00
 -1      3700 1.28400E+02 3.31130E+01 0.00000E+00
 -1      3701 1.26150E+02 3.18140E+01 0.00000E+00
 -1      3702 1.29900E+02 3.31130E+01 0.00000E+00
 -1      3703 1.31400E+02 3.31130E+01 0.00000E+00
 -1      3704 1.29150E+02 3.18140E+01 0.00000E+00
 -1      3705 1.64898E+01 3.32789E+01 0.00000E+00
 -1      3706 1.28080E+02 1.54753E+01 0.00000E+00
 -1      3707 1.26506E+02 1.54753E+01 0.00000E+00
 -1      3708 9.22050E+01 2.84261E+01 0.00000E+00
 -1      3709 9.06507E+01 2.73700E+01 0.00000E+00
 -1      3710 5.62725E+01 1.56973E+01 0.00000E+00
 -1      3711 5.46975E+01 1.56973E+01 0.00000E+00
 -1      3712 5.31975E+01 1.56973E+01 0.00000E+00
 -1      3713 5.16975E+01 1.56973E+01 0.00000E+00
 -1      3714 5.39850E+01 1.69963E+01 0.00000E+00
 -1      3715 6.23100E+01 1.56973E+01 0.00000E+00
 -1      3716 6.08100E+01 1.56973E+01 0.00000E+00
 -1      3717 6.53100E+01 1.56973E+01 0.00000E+00
 -1      3718 6.38100E+01 1.56973E+01 0.00000E+00
 -1      3719 6.30600E+01 1.69963E+01 0.00000E+00
 -1      3720 6.83100E+01 1.56973E+01 0.00000E+00
 -1      3721 6.68100E+01 1.56973E+01 0.00000E+00
 -1      3722 6.60600E+01 1.69963E+01 0.00000E+00
 -1      3723 7.13100E+01 1.56973E+01 0.00000E+00
 -1      3724 6.98100E+01 1.56973E+01 0.00000E+00
 -1      3725 6.90600E+01 1.69963E+01 0.00000E+00
 -1      3726 7.44600E+01 1.56973E+01 0.00000E+00
 -1      3727 7.28850E+01 1.56973E+01 0.00000E+00
 -1      3728 7.21350E+01 1.69963E+01 0.00000E+00
 -1      3729 7.74600E+01 1.56973E+01 0.00000E+00
 -1      3730 7.59600E+01 1.56973E+01 0.00000E+00
 -1      3731 7.52100E+01 1.69963E+01 0.00000E+00
 -1      3732 8.04600E+01 1.56973E+01 0.00000E+00
 -1      3733 7.89600E+01 1.56973E+01 0.00000E+00
 -1      3734 7.82100E+01 1.69963E+01 0.00000E+00
 -1      3735 8.34600E+01 1.56973E+01 0.00000E+00
 -1      3736 8.19600E+01 1.56973E+01 0.00000E+00
 -1      3737 8.12100E+01 1.69963E+01 0.00000E+00
 -1      3738 4.10100E+01 1.56973E+01 0.00000E+00
 -1      3739 3.95100E+01 1.56973E+01 0.00000E+00
 -1      3740 1.20384E+02 1.89394E+01 0.00000E+00
 -1      3741 1.19678E+02 2.06477E+01 0.00000E+00
 -1      3742 1.21986E+02 1.91069E+01 0.00000E+00
 -1      3743 1.32601E+02 1.56138E+01 0.00000E+00
 -1      3744 1.25355E+02 1.56314E+01 0.00000E+00
 -1      3745 1.23855E+02 1.56314E+01 0.00000E+00
 -1      3746 1.23842E+02 1.72425E+01 0.00000E+00
 -1      3747 1.26143E+02 1.69304E+01 0.00000E+00
 -1      3748 1.18858E+02 2.19116E+01 0.00000E+00
 -1      3749 1.18038E+02 2.31754E+01 0.00000E+00
 -1      3750 1.20461E+02 2.20791E+01 0.00000E+00
 -1      3751 1.35541E+02 1.97490E+01 0.00000E+00
 -1      3752 1.33982E+02 1.87714E+01 0.00000E+00
 -1      3753 2.89725E+01 1.56973E+01 0.00000E+00
 -1      3754 2.74725E+01 1.56973E+01 0.00000E+00
 -1      3755 2.67225E+01 1.69963E+01 0.00000E+00
 -1      3756 2.19000E+01 3.31130E+01 0.00000E+00
 -1      3757 2.34000E+01 3.31130E+01 0.00000E+00
 -1      3758 4.41600E+01 1.56973E+01 0.00000E+00
 -1      3759 4.25850E+01 1.56973E+01 0.00000E+00
 -1      3760 4.18350E+01 1.69963E+01 0.00000E+00
 -1      3761 3.80100E+01 1.56973E+01 0.00000E+00
 -1      3762 3.65100E+01 1.56973E+01 0.00000E+00
 -1      3763 3.87600E+01 1.69963E+01 0.00000E+00
 -1      3764 1.16827E+02 2.47447E+01 0.00000E+00
 -1      3765 1.15616E+02 2.63140E+01 0.00000E+00
 -1      3766 1.18429E+02 2.49122E+01 0.00000E+00
 -1      3767 1.55798E+01 2.49984E+01 0.00000E+00
 -1      3768 1.42808E+01 2.57359E+01 0.00000E+00
 -1      3769 8.57912E+01 1.84243E+01 0.00000E+00
 -1      3770 8.58039E+01 1.70369E+01 0.00000E+00
 -1      3771 1.35541E+02 2.12209E+01 0.00000E+00
 -1      3772 1.42890E+01 1.68750E+01 0.00000E+00
 -1      3773 1.42890E+01 1.83469E+01 0.00000E+00
 -1      3774 1.55880E+01 1.90844E+01 0.00000E+00
 -1      3775 9.59031E+01 3.02694E+01 0.00000E+00
 -1      3776 9.41811E+01 2.98469E+01 0.00000E+00
 -1      3777 3.20100E+01 1.56973E+01 0.00000E+00
 -1      3778 3.04912E+01 1.56973E+01 0.00000E+00
 -1      3779 2.97412E+01 1.69963E+01 0.00000E+00
 -1      3780 3.50100E+01 1.56973E+01 0.00000E+00
 -1      3781 3.35100E+01 1.56973E+01 0.00000E+00
 -1      3782 3.27600E+01 1.69963E+01 0.00000E+00
 -1      3783 3.57600E+01 1.69963E+01 0.00000E+00
 -1      3784 2.49000E+01 3.31130E+01 0.00000E+00
 -1      3785 2.64000E+01 3.31130E+01 0.00000E+00
 -1      3786 2.41500E+01 3.18140E+01 0.00000E+00
 -1      3787 1.03922E+02 3.08206E+01 0.00000E+00
 -1      3788 1.02197E+02 3.08378E+01 0.00000E+00
 -1      3789 1.55880E+01 1.61406E+01 0.00000E+00
 -1      3790 5.93100E+01 1.56973E+01 0.00000E+00
 -1      3791 5.78100E+01 1.56973E+01 0.00000E+00
 -1      3792 6.00600E+01 1.69963E+01 0.00000E+00
 -1      3793 1.89000E+01 3.31130E+01 0.00000E+00
 -1      3794 2.04000E+01 3.31130E+01 0.00000E+00
 -1      3795 2.11500E+01 3.18140E+01 0.00000E+00
 -1      3796 8.89977E+01 2.58900E+01 0.00000E+00
 -1      3797 8.77583E+01 2.44441E+01 0.00000E+00
 -1      3798 1.61558E+01 3.14021E+01 0.00000E+00
 -1      3799 1.78160E+01 3.25352E+01 0.00000E+00
 -1      3800 1.85660E+01 3.12362E+01 0.00000E+00
 -1      3801 1.63981E+01 3.00806E+01 0.00000E+00
 -1      3802 1.32245E+02 1.72242E+01 0.00000E+00
 -1      3803 1.30952E+02 1.56558E+01 0.00000E+00
 -1      3804 2.71500E+01 3.18140E+01 0.00000E+00
 -1      3805 9.66566E+01 3.12440E+01 0.00000E+00
 -1      3806 1.01447E+02 3.21368E+01 0.00000E+00
 -1      3807 1.08687E+02 3.22262E+01 0.00000E+00
 -1      3808 1.32615E+02 3.22287E+01 0.00000E+00
 -1      3809 1.10187E+02 3.22262E+01 0.00000E+00
 -1      3810 9.26739E+01 3.03932E+01 0.00000E+00
 -1      3811 1.68870E+01 2.12922E+01 0.00000E+00
 -1      3812 1.68870E+01 2.27641E+01 0.00000E+00
 -1      3813 1.15199E+02 2.74275E+01 0.00000E+00
 -1      3814 1.14782E+02 2.85410E+01 0.00000E+00
 -1      3815 1.16801E+02 2.75950E+01 0.00000E+00
 -1      3816 8.90447E+01 2.74925E+01 0.00000E+00
 -1      3817 5.09850E+01 1.69963E+01 0.00000E+00
 -1      3818 5.01975E+01 1.56973E+01 0.00000E+00
 -1      3819 4.86975E+01 1.56973E+01 0.00000E+00
 -1      3820 8.44912E+01 1.60597E+01 0.00000E+00
 -1      3821 8.37412E+01 1.73587E+01 0.00000E+00
 -1      3822 1.12915E+02 3.00937E+01 0.00000E+00
 -1      3823 1.11487E+02 2.97947E+01 0.00000E+00
 -1      3824 1.40386E+01 2.70574E+01 0.00000E+00
 -1      3825 1.32422E+02 2.04025E+01 0.00000E+00
 -1      3826 1.32334E+02 1.88134E+01 0.00000E+00
 -1      3827 1.30685E+02 1.88553E+01 0.00000E+00
 -1      3828 2.29538E+01 1.56973E+01 0.00000E+00
 -1      3829 2.14350E+01 1.56973E+01 0.00000E+00
 -1      3830 2.37038E+01 1.69963E+01 0.00000E+00
 -1      3831 1.34496E+02 3.10343E+01 0.00000E+00
 -1      3832 1.87527E+01 1.27709E+01 0.00000E+00
 -1      3833 1.74158E+01 1.26211E+01 0.00000E+00
 -1      3834 1.71944E+01 1.34131E+01 0.00000E+00
 -1      3835 1.95215E+01 1.40699E+01 0.00000E+00
 -1      3836 1.33113E+02 2.57391E+01 0.00000E+00
 -1      3837 1.33113E+02 2.42672E+01 0.00000E+00
 -1      3838 8.62634E+01 2.54341E+01 0.00000E+00
 -1      3839 8.66299E+01 2.38658E+01 0.00000E+00
 -1      3840 8.55016E+01 2.32874E+01 0.00000E+00
 -1      3841 1.34242E+02 2.19459E+01 0.00000E+00
 -1      3842 4.56600E+01 1.56973E+01 0.00000E+00
 -1      3843 4.49100E+01 1.69963E+01 0.00000E+00
 -1      3844 4.71600E+01 1.56973E+01 0.00000E+00
 -1      3845 8.53203E+01 1.97201E+01 0.00000E+00
 -1      3846 8.43015E+01 1.90171E+01 0.00000E+00
 -1      3847 8.48494E+01 2.10160E+01 0.00000E+00
 -1      3848 1.68788E+01 2.42624E+01 0.00000E+00
 -1      3849 1.68707E+01 2.57608E+01 0.00000E+00
 -1      3850 1.81778E+01 2.35265E+01 0.00000E+00
 -1      3851 5.70225E+01 1.69963E+01 0.00000E+00
 -1      3852 1.33113E+02 2.86891E+01 0.00000E+00
 -1      3853 1.33113E+02 2.72141E+01 0.00000E+00
 -1      3854 1.31814E+02 2.64781E+01 0.00000E+00
 -1      3855 1.10937E+02 3.09272E+01 0.00000E+00
 -1      3856 1.29732E+02 1.57213E+01 0.00000E+00
 -1      3857 1.69730E+01 1.42051E+01 0.00000E+00
 -1      3858 1.69730E+01 1.56770E+01 0.00000E+00
 -1      3859 1.69730E+01 1.71489E+01 0.00000E+00
 -1      3860 1.83579E+01 1.52134E+01 0.00000E+00
 -1      3861 1.28945E+02 1.70203E+01 0.00000E+00
 -1      3862 2.64000E+01 3.05150E+01 0.00000E+00
 -1      3863 2.79000E+01 3.05150E+01 0.00000E+00
 -1      3864 1.29033E+02 1.86094E+01 0.00000E+00
 -1      3865 1.27382E+02 1.83635E+01 0.00000E+00
 -1      3866 1.29122E+02 2.01985E+01 0.00000E+00
 -1      3867 3.24000E+01 3.05150E+01 0.00000E+00
 -1      3868 3.39000E+01 3.05150E+01 0.00000E+00
 -1      3869 3.54000E+01 3.05150E+01 0.00000E+00
 -1      3870 3.69000E+01 3.05150E+01 0.00000E+00
 -1      3871 3.46500E+01 2.92160E+01 0.00000E+00
 -1      3872 3.84000E+01 3.05150E+01 0.00000E+00
 -1      3873 3.99000E+01 3.05150E+01 0.00000E+00
 -1      3874 3.76500E+01 2.92160E+01 0.00000E+00
 -1      3875 4.14000E+01 3.05150E+01 0.00000E+00
 -1      3876 4.29000E+01 3.05150E+01 0.00000E+00
 -1      3877 4.06500E+01 2.92160E+01 0.00000E+00
 -1      3878 4.44000E+01 3.05150E+01 0.00000E+00
 -1      3879 4.59000E+01 3.05150E+01 0.00000E+00
 -1      3880 4.36500E+01 2.92160E+01 0.00000E+00
 -1      3881 4.74000E+01 3.05150E+01 0.00000E+00
 -1      3882 4.89000E+01 3.05150E+01 0.00000E+00
 -1      3883 4.66500E+01 2.92160E+01 0.00000E+00
 -1      3884 5.04000E+01 3.05150E+01 0.00000E+00
 -1      3885 5.19000E+01 3.05150E+01 0.00000E+00
 -1      3886 4.96500E+01 2.92160E+01 0.00000E+00
 -1      3887 5.34000E+01 3.05150E+01 0.00000E+00
 -1      3888 5.49000E+01 3.05150E+01 0.00000E+00
 -1      3889 5.26500E+01 2.92160E+01 0.00000E+00
 -1      3890 5.64000E+01 3.05150E+01 0.00000E+00
 -1      3891 5.79000E+01 3.05150E+01 0.00000E+00
 -1      3892 5.56500E+01 2.92160E+01 0.00000E+00
 -1      3893 5.94000E+01 3.05150E+01 0.00000E+00
 -1      3894 6.09000E+01 3.05150E+01 0.00000E+00
 -1      3895 5.86500E+01 2.92160E+01 0.00000E+00
 -1      3896 6.24000E+01 3.05150E+01 0.00000E+00
 -1      3897 6.39000E+01 3.05150E+01 0.00000E+00
 -1      3898 6.16500E+01 2.92160E+01 0.00000E+00
 -1      3899 6.54000E+01 3.05150E+01 0.00000E+00
 -1      3900 6.69000E+01 3.05150E+01 0.00000E+00
 -1      3901 6.46500E+01 2.92160E+01 0.00000E+00
 -1      3902 6.84000E+01 3.05150E+01 0.00000E+00
 -1      3903 6.99000E+01 3.05150E+01 0.00000E+00
 -1      3904 6.76500E+01 2.92160E+01 0.00000E+00
 -1      3905 7.14000E+01 3.05150E+01 0.00000E+00
 -1      3906 7.29000E+01 3.05150E+01 0.00000E+00
 -1      3907 7.06500E+01 2.92160E+01 0.00000E+00
 -1      3908 7.44000E+01 3.05150E+01 0.00000E+00
 -1      3909 7.59000E+01 3.05150E+01 0.00000E+00
 -1      3910 7.36500E+01 2.92160E+01 0.00000E+00
 -1      3911 7.74000E+01 3.05150E+01 0.00000E+00
 -1      3912 7.89000E+01 3.05150E+01 0.00000E+00
 -1      3913 7.66500E+01 2.92160E+01 0.00000E+00
 -1      3914 8.04000E+01 3.05150E+01 0.00000E+00
 -1      3915 8.19000E+01 3.05150E+01 0.00000E+00
 -1      3916 7.96500E+01 2.92160E+01 0.00000E+00
 -1      3917 8.34000E+01 3.05150E+01 0.00000E+00
 -1      3918 8.49000E+01 3.05150E+01 0.00000E+00
 -1      3919 8.26500E+01 2.92160E+01 0.00000E+00
 -1      3920 1.14415E+02 3.00937E+01 0.00000E+00
 -1      3921 1.16017E+02 3.02612E+01 0.00000E+00
 -1      3922 1.17517E+02 3.02612E+01 0.00000E+00
 -1      3923 1.19400E+02 3.05150E+01 0.00000E+00
 -1      3924 1.20900E+02 3.05150E+01 0.00000E+00
 -1      3925 1.22400E+02 3.05150E+01 0.00000E+00
 -1      3926 1.23900E+02 3.05150E+01 0.00000E+00
 -1      3927 1.21650E+02 2.92160E+01 0.00000E+00
 -1      3928 1.25400E+02 3.05150E+01 0.00000E+00
 -1      3929 1.26900E+02 3.05150E+01 0.00000E+00
 -1      3930 1.24650E+02 2.92160E+01 0.00000E+00
 -1      3931 1.28400E+02 3.05150E+01 0.00000E+00
 -1      3932 1.29900E+02 3.05150E+01 0.00000E+00
 -1      3933 1.27650E+02 2.92160E+01 0.00000E+00
 -1      3934 2.04000E+01 3.05150E+01 0.00000E+00
 -1      3935 2.19000E+01 3.05150E+01 0.00000E+00
 -1      3936 6.68100E+01 1.82952E+01 0.00000E+00
 -1      3937 6.53100E+01 1.82952E+01 0.00000E+00
 -1      3938 6.38100E+01 1.82952E+01 0.00000E+00
 -1      3939 6.23100E+01 1.82952E+01 0.00000E+00
 -1      3940 6.45600E+01 1.95942E+01 0.00000E+00
 -1      3941 7.29225E+01 1.82952E+01 0.00000E+00
 -1      3942 7.13475E+01 1.82952E+01 0.00000E+00
 -1      3943 7.59225E+01 1.82952E+01 0.00000E+00
 -1      3944 7.44225E+01 1.82952E+01 0.00000E+00
 -1      3945 7.36350E+01 1.95942E+01 0.00000E+00
 -1      3946 7.89225E+01 1.82952E+01 0.00000E+00
 -1      3947 7.74225E+01 1.82952E+01 0.00000E+00
 -1      3948 7.66350E+01 1.95942E+01 0.00000E+00
 -1      3949 1.54429E+01 2.79998E+01 0.00000E+00
 -1      3950 1.21960E+02 2.21543E+01 0.00000E+00
 -1      3951 1.21140E+02 2.34181E+01 0.00000E+00
 -1      3952 1.95215E+01 1.55417E+01 0.00000E+00
 -1      3953 2.34000E+01 3.05150E+01 0.00000E+00
 -1      3954 2.49000E+01 3.05150E+01 0.00000E+00
 -1      3955 2.26500E+01 2.92160E+01 0.00000E+00
 -1      3956 8.90047E+01 2.92003E+01 0.00000E+00
 -1      3957 8.73517E+01 2.77203E+01 0.00000E+00
 -1      3958 1.23540E+02 1.87487E+01 0.00000E+00
 -1      3959 1.22834E+02 2.04570E+01 0.00000E+00
 -1      3960 1.69300E+01 1.84846E+01 0.00000E+00
 -1      3961 1.69300E+01 1.99565E+01 0.00000E+00
 -1      3962 1.82290E+01 2.06924E+01 0.00000E+00
 -1      3963 1.83150E+01 1.80210E+01 0.00000E+00
 -1      3964 1.04672E+02 3.21196E+01 0.00000E+00
 -1      3965 6.98100E+01 1.82952E+01 0.00000E+00
 -1      3966 6.83100E+01 1.82952E+01 0.00000E+00
 -1      3967 6.75600E+01 1.95942E+01 0.00000E+00
 -1      3968 5.47350E+01 1.82952E+01 0.00000E+00
 -1      3969 5.32350E+01 1.82952E+01 0.00000E+00
 -1      3970 2.74725E+01 1.82952E+01 0.00000E+00
 -1      3971 2.59725E+01 1.82952E+01 0.00000E+00
 -1      3972 4.26225E+01 1.82952E+01 0.00000E+00
 -1      3973 4.10475E+01 1.82952E+01 0.00000E+00
 -1      3974 3.95475E+01 1.82952E+01 0.00000E+00
 -1      3975 3.80475E+01 1.82952E+01 0.00000E+00
 -1      3976 4.03350E+01 1.95942E+01 0.00000E+00
 -1      3977 1.20063E+02 2.49212E+01 0.00000E+00
 -1      3978 1.18852E+02 2.64905E+01 0.00000E+00
 -1      3979 8.32703E+01 1.86546E+01 0.00000E+00
 -1      3980 1.32853E+02 2.31275E+01 0.00000E+00
 -1      3981 1.32682E+02 2.15422E+01 0.00000E+00
 -1      3982 1.31034E+02 2.15841E+01 0.00000E+00
 -1      3983 1.31554E+02 2.38635E+01 0.00000E+00
 -1      3984 1.66988E+01 2.71692E+01 0.00000E+00
 -1      3985 1.65700E+01 2.86722E+01 0.00000E+00
 -1      3986 1.76540E+01 2.92500E+01 0.00000E+00
 -1      3987 1.79978E+01 2.64333E+01 0.00000E+00
 -1      3988 3.05100E+01 1.82952E+01 0.00000E+00
 -1      3989 2.89912E+01 1.82952E+01 0.00000E+00
 -1      3990 2.82412E+01 1.95942E+01 0.00000E+00
 -1      3991 1.32531E+02 3.06195E+01 0.00000E+00
 -1      3992 5.78100E+01 1.82952E+01 0.00000E+00
 -1      3993 5.62725E+01 1.82952E+01 0.00000E+00
 -1      3994 5.55225E+01 1.95942E+01 0.00000E+00
 -1      3995 2.94000E+01 3.05150E+01 0.00000E+00
 -1      3996 3.09000E+01 3.05150E+01 0.00000E+00
 -1      3997 3.16500E+01 2.92160E+01 0.00000E+00
 -1      3998 6.08100E+01 1.82952E+01 0.00000E+00
 -1      3999 5.93100E+01 1.82952E+01 0.00000E+00
 -1      4000 5.85600E+01 1.95942E+01 0.00000E+00
 -1      4001 6.15600E+01 1.95942E+01 0.00000E+00
 -1      4002 1.25929E+02 2.00257E+01 0.00000E+00
 -1      4003 1.25840E+02 1.84365E+01 0.00000E+00
 -1      4004 8.57309E+01 2.93220E+01 0.00000E+00
 -1      4005 8.64809E+01 3.06210E+01 0.00000E+00
 -1      4006 1.18267E+02 2.89622E+01 0.00000E+00
 -1      4007 8.79809E+01 3.06210E+01 0.00000E+00
 -1      4008 8.96739E+01 3.03932E+01 0.00000E+00
 -1      4009 9.11739E+01 3.03932E+01 0.00000E+00
 -1      4010 1.18684E+02 2.78487E+01 0.00000E+00
 -1      4011 8.57709E+01 2.76142E+01 0.00000E+00
 -1      4012 1.30482E+02 2.85846E+01 0.00000E+00
 -1      4013 1.31232E+02 2.98836E+01 0.00000E+00
 -1      4014 1.93160E+01 2.99372E+01 0.00000E+00
 -1      4015 2.86500E+01 2.92160E+01 0.00000E+00
 -1      4016 5.17350E+01 1.82952E+01 0.00000E+00
 -1      4017 5.02350E+01 1.82952E+01 0.00000E+00
 -1      4018 5.24850E+01 1.95942E+01 0.00000E+00
 -1      4019 7.05975E+01 1.95942E+01 0.00000E+00
 -1      4020 8.19600E+01 1.82952E+01 0.00000E+00
 -1      4021 8.04600E+01 1.82952E+01 0.00000E+00
 -1      4022 1.30482E+02 2.71096E+01 0.00000E+00
 -1      4023 1.30482E+02 2.56346E+01 0.00000E+00
 -1      4024 1.29150E+02 2.77410E+01 0.00000E+00
 -1      4025 1.23514E+02 2.17960E+01 0.00000E+00
 -1      4026 2.02715E+01 1.68407E+01 0.00000E+00
 -1      4027 2.44538E+01 1.82952E+01 0.00000E+00
 -1      4028 2.29350E+01 1.82952E+01 0.00000E+00
 -1      4029 2.52038E+01 1.95942E+01 0.00000E+00
 -1      4030 8.46425E+01 2.70359E+01 0.00000E+00
 -1      4031 3.35100E+01 1.82952E+01 0.00000E+00
 -1      4032 3.20100E+01 1.82952E+01 0.00000E+00
 -1      4033 3.12600E+01 1.95942E+01 0.00000E+00
 -1      4034 1.95488E+01 2.00663E+01 0.00000E+00
 -1      4035 1.95058E+01 2.14020E+01 0.00000E+00
 -1      4036 4.41225E+01 1.82952E+01 0.00000E+00
 -1      4037 4.33350E+01 1.95942E+01 0.00000E+00
 -1      4038 4.56225E+01 1.82952E+01 0.00000E+00
 -1      4039 8.41163E+01 2.41527E+01 0.00000E+00
 -1      4040 8.44828E+01 2.25843E+01 0.00000E+00
 -1      4041 8.34641E+01 2.18813E+01 0.00000E+00
 -1      4042 7.96725E+01 1.95942E+01 0.00000E+00
 -1      4043 1.20318E+02 2.78577E+01 0.00000E+00
 -1      4044 4.79475E+01 1.69963E+01 0.00000E+00
 -1      4045 3.73350E+01 1.95942E+01 0.00000E+00
 -1      4046 3.65475E+01 1.82952E+01 0.00000E+00
 -1      4047 3.50475E+01 1.82952E+01 0.00000E+00
 -1      4048 1.21563E+02 2.49964E+01 0.00000E+00
 -1      4049 1.94977E+01 2.29004E+01 0.00000E+00
 -1      4050 1.94895E+01 2.43988E+01 0.00000E+00
 -1      4051 2.08175E+01 2.22744E+01 0.00000E+00
 -1      4052 8.25203E+01 1.99536E+01 0.00000E+00
 -1      4053 1.30222E+02 2.44949E+01 0.00000E+00
 -1      4054 1.29962E+02 2.33552E+01 0.00000E+00
 -1      4055 1.28890E+02 2.51263E+01 0.00000E+00
 -1      4056 2.56500E+01 2.92160E+01 0.00000E+00
 -1      4057 3.69000E+01 2.79170E+01 0.00000E+00
 -1      4058 3.84000E+01 2.79170E+01 0.00000E+00
 -1      4059 3.99000E+01 2.79170E+01 0.00000E+00
 -1      4060 4.14000E+01 2.79170E+01 0.00000E+00
 -1      4061 3.91500E+01 2.66180E+01 0.00000E+00
 -1      4062 4.29000E+01 2.79170E+01 0.00000E+00
 -1      4063 4.44000E+01 2.79170E+01 0.00000E+00
 -1      4064 4.21500E+01 2.66180E+01 0.00000E+00
 -1      4065 4.59000E+01 2.79170E+01 0.00000E+00
 -1      4066 4.74000E+01 2.79170E+01 0.00000E+00
 -1      4067 4.51500E+01 2.66180E+01 0.00000E+00
 -1      4068 4.89000E+01 2.79170E+01 0.00000E+00
 -1      4069 5.04000E+01 2.79170E+01 0.00000E+00
 -1      4070 4.81500E+01 2.66180E+01 0.00000E+00
 -1      4071 5.19000E+01 2.79170E+01 0.00000E+00
 -1      4072 5.34000E+01 2.79170E+01 0.00000E+00
 -1      4073 5.11500E+01 2.66180E+01 0.00000E+00
 -1      4074 5.49000E+01 2.79170E+01 0.00000E+00
 -1      4075 5.64000E+01 2.79170E+01 0.00000E+00
 -1      4076 5.41500E+01 2.66180E+01 0.00000E+00
 -1      4077 5.79000E+01 2.79170E+01 0.00000E+00
 -1      4078 5.94000E+01 2.79170E+01 0.00000E+00
 -1      4079 5.71500E+01 2.66180E+01 0.00000E+00
 -1      4080 6.09000E+01 2.79170E+01 0.00000E+00
 -1      4081 6.24000E+01 2.79170E+01 0.00000E+00
 -1      4082 6.01500E+01 2.66180E+01 0.00000E+00
 -1      4083 6.39000E+01 2.79170E+01 0.00000E+00
 -1      4084 6.54000E+01 2.79170E+01 0.00000E+00
 -1      4085 6.31500E+01 2.66180E+01 0.00000E+00
 -1      4086 6.69000E+01 2.79170E+01 0.00000E+00
 -1      4087 6.84000E+01 2.79170E+01 0.00000E+00
 -1      4088 6.61500E+01 2.66180E+01 0.00000E+00
 -1      4089 6.99000E+01 2.79170E+01 0.00000E+00
 -1      4090 7.14000E+01 2.79170E+01 0.00000E+00
 -1      4091 6.91500E+01 2.66180E+01 0.00000E+00
 -1      4092 7.29000E+01 2.79170E+01 0.00000E+00
 -1      4093 7.44000E+01 2.79170E+01 0.00000E+00
 -1      4094 7.21500E+01 2.66180E+01 0.00000E+00
 -1      4095 7.59000E+01 2.79170E+01 0.00000E+00
 -1      4096 7.74000E+01 2.79170E+01 0.00000E+00
 -1      4097 7.51500E+01 2.66180E+01 0.00000E+00
 -1      4098 7.89000E+01 2.79170E+01 0.00000E+00
 -1      4099 8.04000E+01 2.79170E+01 0.00000E+00
 -1      4100 7.81500E+01 2.66180E+01 0.00000E+00
 -1      4101 1.24690E+02 1.85926E+01 0.00000E+00
 -1      4102 1.25106E+02 2.15420E+01 0.00000E+00
 -1      4103 1.24232E+02 2.32393E+01 0.00000E+00
 -1      4104 1.94879E+01 2.85288E+01 0.00000E+00
 -1      4105 1.23900E+02 2.79170E+01 0.00000E+00
 -1      4106 1.25400E+02 2.79170E+01 0.00000E+00
 -1      4107 1.26525E+02 2.78290E+01 0.00000E+00
 -1      4108 1.28025E+02 2.78290E+01 0.00000E+00
 -1      4109 1.28025E+02 2.63540E+01 0.00000E+00
 -1      4110 1.25775E+02 2.65300E+01 0.00000E+00
 -1      4111 1.26647E+02 2.14689E+01 0.00000E+00
 -1      4112 7.73850E+01 2.08932E+01 0.00000E+00
 -1      4113 7.58850E+01 2.08932E+01 0.00000E+00
 -1      4114 7.43850E+01 2.08932E+01 0.00000E+00
 -1      4115 7.28850E+01 2.08932E+01 0.00000E+00
 -1      4116 7.51350E+01 2.21922E+01 0.00000E+00
 -1      4117 1.21818E+02 2.78577E+01 0.00000E+00
 -1      4118 2.49000E+01 2.79170E+01 0.00000E+00
 -1      4119 2.64000E+01 2.79170E+01 0.00000E+00
 -1      4120 6.53100E+01 2.08932E+01 0.00000E+00
 -1      4121 6.38100E+01 2.08932E+01 0.00000E+00
 -1      4122 2.19000E+01 2.79170E+01 0.00000E+00
 -1      4123 2.34000E+01 2.79170E+01 0.00000E+00
 -1      4124 2.41500E+01 2.66180E+01 0.00000E+00
 -1      4125 2.02285E+01 1.81765E+01 0.00000E+00
 -1      4126 2.15053E+01 1.88861E+01 0.00000E+00
 -1      4127 3.09000E+01 2.79170E+01 0.00000E+00
 -1      4128 3.24000E+01 2.79170E+01 0.00000E+00
 -1      4129 8.04600E+01 2.08932E+01 0.00000E+00
 -1      4130 7.89225E+01 2.08932E+01 0.00000E+00
 -1      4131 7.81725E+01 2.21922E+01 0.00000E+00
 -1      4132 8.31369E+01 2.77744E+01 0.00000E+00
 -1      4133 8.36294E+01 2.55943E+01 0.00000E+00
 -1      4134 8.26106E+01 2.48912E+01 0.00000E+00
 -1      4135 8.16369E+01 2.77744E+01 0.00000E+00
 -1      4136 4.10850E+01 2.08932E+01 0.00000E+00
 -1      4137 3.95850E+01 2.08932E+01 0.00000E+00
 -1      4138 2.22553E+01 2.01851E+01 0.00000E+00
 -1      4139 2.90006E+01 2.08932E+01 0.00000E+00
 -1      4140 2.74819E+01 2.08932E+01 0.00000E+00
 -1      4141 7.13475E+01 2.08932E+01 0.00000E+00
 -1      4142 6.98100E+01 2.08932E+01 0.00000E+00
 -1      4143 7.20975E+01 2.21922E+01 0.00000E+00
 -1      4144 3.39000E+01 2.79170E+01 0.00000E+00
 -1      4145 3.54000E+01 2.79170E+01 0.00000E+00
 -1      4146 3.31500E+01 2.66180E+01 0.00000E+00
 -1      4147 2.79000E+01 2.79170E+01 0.00000E+00
 -1      4148 2.94000E+01 2.79170E+01 0.00000E+00
 -1      4149 2.71500E+01 2.66180E+01 0.00000E+00
 -1      4150 6.83100E+01 2.08932E+01 0.00000E+00
 -1      4151 6.68100E+01 2.08932E+01 0.00000E+00
 -1      4152 6.90600E+01 2.21922E+01 0.00000E+00
 -1      4153 1.23645E+02 2.50557E+01 0.00000E+00
 -1      4154 1.22568E+02 2.65587E+01 0.00000E+00
 -1      4155 8.21538E+01 2.15219E+01 0.00000E+00
 -1      4156 5.62912E+01 2.08932E+01 0.00000E+00
 -1      4157 5.47537E+01 2.08932E+01 0.00000E+00
 -1      4158 4.86975E+01 1.82952E+01 0.00000E+00
 -1      4159 4.71600E+01 1.82952E+01 0.00000E+00
 -1      4160 4.94475E+01 1.95942E+01 0.00000E+00
 -1      4161 5.92912E+01 2.08932E+01 0.00000E+00
 -1      4162 5.77912E+01 2.08932E+01 0.00000E+00
 -1      4163 5.70225E+01 2.21922E+01 0.00000E+00
 -1      4164 8.14038E+01 2.28209E+01 0.00000E+00
 -1      4165 3.20006E+01 2.08932E+01 0.00000E+00
 -1      4166 3.05006E+01 2.08932E+01 0.00000E+00
 -1      4167 2.97412E+01 2.21922E+01 0.00000E+00
 -1      4168 6.60600E+01 2.21922E+01 0.00000E+00
 -1      4169 3.88350E+01 2.21922E+01 0.00000E+00
 -1      4170 3.80850E+01 2.08932E+01 0.00000E+00
 -1      4171 3.65850E+01 2.08932E+01 0.00000E+00
 -1      4172 4.63725E+01 1.95942E+01 0.00000E+00
 -1      4173 1.91179E+01 2.68315E+01 0.00000E+00
 -1      4174 2.07799E+01 2.75187E+01 0.00000E+00
 -1      4175 2.15299E+01 2.62197E+01 0.00000E+00
 -1      4176 1.92898E+01 2.54232E+01 0.00000E+00
 -1      4177 1.27765E+02 2.52143E+01 0.00000E+00
 -1      4178 5.32537E+01 2.08932E+01 0.00000E+00
 -1      4179 5.17537E+01 2.08932E+01 0.00000E+00
 -1      4180 5.40225E+01 2.21922E+01 0.00000E+00
 -1      4181 3.61500E+01 2.66180E+01 0.00000E+00
 -1      4182 6.30600E+01 2.21922E+01 0.00000E+00
 -1      4183 6.23100E+01 2.08932E+01 0.00000E+00
 -1      4184 6.08100E+01 2.08932E+01 0.00000E+00
 -1      4185 2.59631E+01 2.08932E+01 0.00000E+00
 -1      4186 2.44444E+01 2.08932E+01 0.00000E+00
 -1      4187 2.67225E+01 2.21922E+01 0.00000E+00
 -1      4188 1.25237E+02 2.48016E+01 0.00000E+00
 -1      4189 3.42975E+01 1.95942E+01 0.00000E+00
 -1      4190 3.01500E+01 2.66180E+01 0.00000E+00
 -1      4191 4.40850E+01 2.08932E+01 0.00000E+00
 -1      4192 4.25850E+01 2.08932E+01 0.00000E+00
 -1      4193 4.18350E+01 2.21922E+01 0.00000E+00
 -1      4194 1.28050E+02 2.19696E+01 0.00000E+00
 -1      4195 1.27227E+02 2.34860E+01 0.00000E+00
 -1      4196 8.08869E+01 2.64754E+01 0.00000E+00
 -1      4197 2.33458E+01 2.12884E+01 0.00000E+00
 -1      4198 2.19161E+01 2.18792E+01 0.00000E+00
 -1      4199 2.19079E+01 2.33776E+01 0.00000E+00
 -1      4200 2.41051E+01 2.25874E+01 0.00000E+00
 -1      4201 1.29702E+02 2.22156E+01 0.00000E+00
 -1      4202 2.06096E+01 2.47971E+01 0.00000E+00
 -1      4203 4.19925E+01 2.44051E+01 0.00000E+00
 -1      4204 4.34925E+01 2.44051E+01 0.00000E+00
 -1      4205 4.74000E+01 2.53190E+01 0.00000E+00
 -1      4206 4.89000E+01 2.53190E+01 0.00000E+00
 -1      4207 5.10863E+01 2.44051E+01 0.00000E+00
 -1      4208 5.25863E+01 2.44051E+01 0.00000E+00
 -1      4209 5.40863E+01 2.44051E+01 0.00000E+00
 -1      4210 5.55863E+01 2.44051E+01 0.00000E+00
 -1      4211 5.70863E+01 2.44051E+01 0.00000E+00
 -1      4212 5.85863E+01 2.44051E+01 0.00000E+00
 -1      4213 6.01050E+01 2.44051E+01 0.00000E+00
 -1      4214 6.16050E+01 2.44051E+01 0.00000E+00
 -1      4215 6.31050E+01 2.44051E+01 0.00000E+00
 -1      4216 6.46050E+01 2.44051E+01 0.00000E+00
 -1      4217 6.61050E+01 2.44051E+01 0.00000E+00
 -1      4218 6.76050E+01 2.44051E+01 0.00000E+00
 -1      4219 6.91050E+01 2.44051E+01 0.00000E+00
 -1      4220 7.06050E+01 2.44051E+01 0.00000E+00
 -1      4221 7.21425E+01 2.44051E+01 0.00000E+00
 -1      4222 7.36425E+01 2.44051E+01 0.00000E+00
 -1      4223 7.51425E+01 2.44051E+01 0.00000E+00
 -1      4224 7.66425E+01 2.44051E+01 0.00000E+00
 -1      4225 7.81425E+01 2.44051E+01 0.00000E+00
 -1      4226 1.26362E+02 2.47136E+01 0.00000E+00
 -1      4227 8.09169E+01 2.42625E+01 0.00000E+00
 -1      4228 2.28283E+01 2.48002E+01 0.00000E+00
 -1      4229 2.43283E+01 2.48002E+01 0.00000E+00
 -1      4230 2.17297E+01 2.51954E+01 0.00000E+00
 -1      4231 4.95675E+01 2.18071E+01 0.00000E+00
 -1      4232 4.80300E+01 2.18071E+01 0.00000E+00
 -1      4233 3.89925E+01 2.44051E+01 0.00000E+00
 -1      4234 4.04925E+01 2.44051E+01 0.00000E+00
 -1      4235 3.59925E+01 2.44051E+01 0.00000E+00
 -1      4236 3.74925E+01 2.44051E+01 0.00000E+00
 -1      4237 2.69456E+01 2.44051E+01 0.00000E+00
 -1      4238 2.84456E+01 2.44051E+01 0.00000E+00
 -1      4239 3.50616E+01 2.08932E+01 0.00000E+00
 -1      4240 3.35241E+01 2.08932E+01 0.00000E+00
 -1      4241 3.27647E+01 2.21922E+01 0.00000E+00
 -1      4242 3.58116E+01 2.21922E+01 0.00000E+00
 -1      4243 7.96800E+01 2.44051E+01 0.00000E+00
 -1      4244 2.99456E+01 2.44051E+01 0.00000E+00
 -1      4245 3.14456E+01 2.44051E+01 0.00000E+00
 -1      4246 5.03363E+01 2.31061E+01 0.00000E+00
 -1      4247 4.44000E+01 2.53190E+01 0.00000E+00
 -1      4248 4.59000E+01 2.53190E+01 0.00000E+00
 -1      4249 4.66500E+01 2.40200E+01 0.00000E+00
 -1      4250 3.29691E+01 2.44051E+01 0.00000E+00
 -1      4251 3.44691E+01 2.44051E+01 0.00000E+00
 -1      4252 4.71413E+01 2.08932E+01 0.00000E+00
 -1      4253 4.56037E+01 2.08932E+01 0.00000E+00
 -1      4254 6.00412E+01 2.21922E+01 0.00000E+00
 -1      4255 2.54269E+01 2.44051E+01 0.00000E+00
 -1      4256 4.48537E+01 2.21922E+01 0.00000E+00
 -1      4257 4.42425E+01 2.31061E+01 0.00000E+00
 -1      4258 4.57612E+01 2.31061E+01 0.00000E+00
 -1      4259 4.72612E+01 2.31061E+01 0.00000E+00
 -3
    3C                          2047                                     1
 -1       166    8    0    1
 -2         6         7        23      1107      1272      1124
 -1       167    8    0    1
 -2         7         8       166      1108      1273      1274
 -1       168    8    0    1
 -2         8         9       167      1109      1275      1276
 -1       169    8    0    1
 -2         8       167       166      1276      1277      1273
 -1       170    8    0    1
 -2         9        10       168      1110      1278      1279
 -1       171    8    0    1
 -2         9       168       167      1279      1280      1275
 -1       172    8    0    1
 -2        10        11       169      1111      1281      1282
 -1       173    8    0    1
 -2        10       169       168      1282      1283      1278
 -1       174    8    0    1
 -2        11        12       170      1112      1284      1285
 -1       175    8    0    1
 -2        11       170       169      1285      1286      1281
 -1       176    8    0    1
 -2        12        13       171      1113      1287      1288
 -1       177    8    0    1
 -2        12       171       170      1288      1289      1284
 -1       178    8    0    1
 -2        13        14       172      1114      1290      1291
 -1       179    8    0    1
 -2        13       172       171      1291      1292      1287
 -1       180    8    0    1
 -2        14        15       173      1115      1293      1294
 -1       181    8    0    1
 -2        14       173       172      1294      1295      1290
 -1       182    8    0    1
 -2        15        16       174      1116      1296      1297
 -1       183    8    0    1
 -2        15       174       173      1297      1298      1293
 -1       184    8    0    1
 -2        16        17       175      1117      1299      1300
 -1       185    8    0    1
 -2        16       175       174      1300      1301      1296
 -1       186    8    0    1
 -2        17        18       176      1118      1302      1303
 -1       187    8    0    1
 -2        17       176       175      1303      1304      1299
 -1       188    8    0    1
 -2        18        19       177      1119      1305      1306
 -1       189    8    0    1
 -2        18       177       176      1306      1307      1302
 -1       190    8    0    1
 -2        19        20       178      1120      1308      1309
 -1       191    8    0    1
 -2        19       178       177      1309      1310      1305
 -1       192    8    0    1
 -2        20        21       179      1121      1311      1312
 -1       193    8    0    1
 -2        20       179       178      1312      1313      1308
 -1       194    8    0    1
 -2        21        22       180      1122      1314      1315
 -1       195    8    0    1
 -2        21       180       179      1315      1316      1311
 -1       196    8    0    1
 -2        22         5       181      1123      1317      1318
 -1       197    8    0    1
 -2       180        22       181      1314      1318      1319
 -1       198    8    0    1
 -2         5        72       181      1174      1320      1317
 -1       199    8    0    1
 -2        24        23       182      1125      1321      1322
 -1       200    8    0    1
 -2        25        24       183      1126      1323      1324
 -1       201    8    0    1
 -2        24       182       183      1322      1325      1323
 -1       202    8    0    1
 -2        26        25       184      1127      1326      1327
 -1       203    8    0    1
 -2        25       183       184      1324      1328      1326
 -1       204    8    0    1
 -2        27        26       185      1128      1329      1330
 -1       205    8    0    1
 -2        26       184       185      1327      1331      1329
 -1       206    8    0    1
 -2        28        27       186      1129      1332      1333
 -1       207    8    0    1
 -2        27       185       186      1330      1334      1332
 -1       208    8    0    1
 -2        29        28       187      1130      1335      1336
 -1       209    8    0    1
 -2        28       186       187      1333      1337      1335
 -1       210    8    0    1
 -2        30        29       188      1131      1338      1339
 -1       211    8    0    1
 -2        29       187       188      1336      1340      1338
 -1       212    8    0    1
 -2        31        30       189      1132      1341      1342
 -1       213    8    0    1
 -2        30       188       189      1339      1343      1341
 -1       214    8    0    1
 -2        32        31       190      1133      1344      1345
 -1       215    8    0    1
 -2        31       189       190      1342      1346      1344
 -1       216    8    0    1
 -2        33        32       191      1134      1347      1348
 -1       217    8    0    1
 -2        32       190       191      1345      1349      1347
 -1       218    8    0    1
 -2        34        33       192      1135      1350      1351
 -1       219    8    0    1
 -2        33       191       192      1348      1352      1350
 -1       220    8    0    1
 -2        35        34       193      1136      1353      1354
 -1       221    8    0    1
 -2        34       192       193      1351      1355      1353
 -1       222    8    0    1
 -2        36        35       194      1137      1356      1357
 -1       223    8    0    1
 -2        35       193       194      1354      1358      1356
 -1       224    8    0    1
 -2        37        36       195      1138      1359      1360
 -1       225    8    0    1
 -2        36       194       195      1357      1361      1359
 -1       226    8    0    1
 -2        38        37       196      1139      1362      1363
 -1       227    8    0    1
 -2        37       195       196      1360      1364      1362
 -1       228    8    0    1
 -2        39        38       197      1140      1365      1366
 -1       229    8    0    1
 -2        38       196       197      1363      1367      1365
 -1       230    8    0    1
 -2        40        39       198      1141      1368      1369
 -1       231    8    0    1
 -2        39       197       198      1366      1370      1368
 -1       232    8    0    1
 -2        41        40       199      1142      1371      1372
 -1       233    8    0    1
 -2        40       198       199      1369      1373      1371
 -1       234    8    0    1
 -2        42        41       200      1143      1374      1375
 -1       235    8    0    1
 -2        41       199       200      1372      1376      1374
 -1       236    8    0    1
 -2        43        42       201      1144      1377      1378
 -1       237    8    0    1
 -2        42       200       201      1375      1379      1377
 -1       238    8    0    1
 -2        44        43       202      1145      1380      1381
 -1       239    8    0    1
 -2        43       201       202      1378      1382      1380
 -1       240    8    0    1
 -2        45        44       203      1146      1383      1384
 -1       241    8    0    1
 -2        44       202       203      1381      1385      1383
 -1       242    8    0    1
 -2        46        45       204      1147      1386      1387
 -1       243    8    0    1
 -2        45       203       204      1384      1388      1386
 -1       244    8    0    1
 -2        47        46       205      1148      1389      1390
 -1       245    8    0    1
 -2        46       204       205      1387      1391      1389
 -1       246    8    0    1
 -2        48        47       206      1149      1392      1393
 -1       247    8    0    1
 -2        47       205       206      1390      1394      1392
 -1       248    8    0    1
 -2        49        48       207      1150      1395      1396
 -1       249    8    0    1
 -2        48       206       207      1393      1397      1395
 -1       250    8    0    1
 -2        50        49       208      1151      1398      1399
 -1       251    8    0    1
 -2        49       207       208      1396      1400      1398
 -1       252    8    0    1
 -2        51        50       209      1152      1401      1402
 -1       253    8    0    1
 -2        50       208       209      1399      1403      1401
 -1       254    8    0    1
 -2        52        51       210      1153      1404      1405
 -1       255    8    0    1
 -2        51       209       210      1402      1406      1404
 -1       256    8    0    1
 -2        53        52       211      1154      1407      1408
 -1       257    8    0    1
 -2        52       210       211      1405      1409      1407
 -1       258    8    0    1
 -2        54        53       212      1155      1410      1411
 -1       259    8    0    1
 -2        53       211       212      1408      1412      1410
 -1       260    8    0    1
 -2        55        54       213      1156      1413      1414
 -1       261    8    0    1
 -2        54       212       213      1411      1415      1413
 -1       262    8    0    1
 -2        56        55       214      1157      1416      1417
 -1       263    8    0    1
 -2        55       213       214      1414      1418      1416
 -1       264    8    0    1
 -2        57        56       215      1158      1419      1420
 -1       265    8    0    1
 -2        56       214       215      1417      1421      1419
 -1       266    8    0    1
 -2        58        57       216      1159      1422      1423
 -1       267    8    0    1
 -2        57       215       216      1420      1424      1422
 -1       268    8    0    1
 -2        59        58       217      1160      1425      1426
 -1       269    8    0    1
 -2        58       216       217      1423      1427      1425
 -1       270    8    0    1
 -2        60        59       218      1161      1428      1429
 -1       271    8    0    1
 -2        59       217       218      1426      1430      1428
 -1       272    8    0    1
 -2        61        60       219      1162      1431      1432
 -1       273    8    0    1
 -2        60       218       219      1429      1433      1431
 -1       274    8    0    1
 -2        62        61       220      1163      1434      1435
 -1       275    8    0    1
 -2        61       219       220      1432      1436      1434
 -1       276    8    0    1
 -2        63        62       221      1164      1437      1438
 -1       277    8    0    1
 -2        62       220       221      1435      1439      1437
 -1       278    8    0    1
 -2        64        63       222      1165      1440      1441
 -1       279    8    0    1
 -2        63       221       222      1438      1442      1440
 -1       280    8    0    1
 -2        65        64       223      1166      1443      1444
 -1       281    8    0    1
 -2        64       222       223      1441      1445      1443
 -1       282    8    0    1
 -2        66        65       224      1167      1446      1447
 -1       283    8    0    1
 -2        65       223       224      1444      1448      1446
 -1       284    8    0    1
 -2        67        66       225      1168      1449      1450
 -1       285    8    0    1
 -2        66       224       225      1447      1451      1449
 -1       286    8    0    1
 -2        68        67       226      1169      1452      1453
 -1       287    8    0    1
 -2        67       225       226      1450      1454      1452
 -1       288    8    0    1
 -2        69        68       227      1170      1455      1456
 -1       289    8    0    1
 -2        68       226       227      1453      1457      1455
 -1       290    8    0    1
 -2        70        69       228      1171      1458      1459
 -1       291    8    0    1
 -2        69       227       228      1456      1460      1458
 -1       292    8    0    1
 -2        71        70       229      1172      1461      1462
 -1       293    8    0    1
 -2        70       228       229      1459      1463      1461
 -1       294    8    0    1
 -2         4        71       137      1173      1464      1241
 -1       295    8    0    1
 -2       137        71       229      1464      1462      1465
 -1       296    8    0    1
 -2        72        73       230      1175      1466      1467
 -1       297    8    0    1
 -2        72       230       181      1467      1468      1320
 -1       298    8    0    1
 -2        73        74       231      1176      1469      1470
 -1       299    8    0    1
 -2        73       231       230      1470      1471      1466
 -1       300    8    0    1
 -2        74        75       232      1177      1472      1473
 -1       301    8    0    1
 -2        74       232       231      1473      1474      1469
 -1       302    8    0    1
 -2        75        76       233      1178      1475      1476
 -1       303    8    0    1
 -2        75       233       232      1476      1477      1472
 -1       304    8    0    1
 -2        76        77       234      1179      1478      1479
 -1       305    8    0    1
 -2        76       234       233      1479      1480      1475
 -1       306    8    0    1
 -2        77        78       235      1180      1481      1482
 -1       307    8    0    1
 -2        77       235       234      1482      1483      1478
 -1       308    8    0    1
 -2        78        79       236      1181      1484      1485
 -1       309    8    0    1
 -2        78       236       235      1485      1486      1481
 -1       310    8    0    1
 -2        79        80       237      1182      1487      1488
 -1       311    8    0    1
 -2        79       237       236      1488      1489      1484
 -1       312    8    0    1
 -2        80        81       238      1183      1490      1491
 -1       313    8    0    1
 -2        80       238       237      1491      1492      1487
 -1       314    8    0    1
 -2        81        82       239      1184      1493      1494
 -1       315    8    0    1
 -2        81       239       238      1494      1495      1490
 -1       316    8    0    1
 -2        82        83       240      1185      1496      1497
 -1       317    8    0    1
 -2        82       240       239      1497      1498      1493
 -1       318    8    0    1
 -2        83        84       241      1186      1499      1500
 -1       319    8    0    1
 -2        83       241       240      1500      1501      1496
 -1       320    8    0    1
 -2        84        85       242      1187      1502      1503
 -1       321    8    0    1
 -2        84       242       241      1503      1504      1499
 -1       322    8    0    1
 -2        85        86       243      1188      1505      1506
 -1       323    8    0    1
 -2        85       243       242      1506      1507      1502
 -1       324    8    0    1
 -2        86        87       244      1189      1508      1509
 -1       325    8    0    1
 -2        86       244       243      1509      1510      1505
 -1       326    8    0    1
 -2        87        88       245      1190      1511      1512
 -1       327    8    0    1
 -2        87       245       244      1512      1513      1508
 -1       328    8    0    1
 -2        88        89       246      1191      1514      1515
 -1       329    8    0    1
 -2        88       246       245      1515      1516      1511
 -1       330    8    0    1
 -2        89        90       247      1192      1517      1518
 -1       331    8    0    1
 -2        89       247       246      1518      1519      1514
 -1       332    8    0    1
 -2        90        91       248      1193      1520      1521
 -1       333    8    0    1
 -2        90       248       247      1521      1522      1517
 -1       334    8    0    1
 -2        91        92       249      1194      1523      1524
 -1       335    8    0    1
 -2        91       249       248      1524      1525      1520
 -1       336    8    0    1
 -2        92        93       250      1195      1526      1527
 -1       337    8    0    1
 -2        92       250       249      1527      1528      1523
 -1       338    8    0    1
 -2        93        94       251      1196      1529      1530
 -1       339    8    0    1
 -2        93       251       250      1530      1531      1526
 -1       340    8    0    1
 -2        94        95       252      1197      1532      1533
 -1       341    8    0    1
 -2        94       252       251      1533      1534      1529
 -1       342    8    0    1
 -2        95        96       253      1198      1535      1536
 -1       343    8    0    1
 -2        95       253       252      1536      1537      1532
 -1       344    8    0    1
 -2        96        97       254      1199      1538      1539
 -1       345    8    0    1
 -2        96       254       253      1539      1540      1535
 -1       346    8    0    1
 -2        97        98       255      1200      1541      1542
 -1       347    8    0    1
 -2        97       255       254      1542      1543      1538
 -1       348    8    0    1
 -2        98        99       256      1201      1544      1545
 -1       349    8    0    1
 -2        98       256       255      1545      1546      1541
 -1       350    8    0    1
 -2        99       100       257      1202      1547      1548
 -1       351    8    0    1
 -2        99       257       256      1548      1549      1544
 -1       352    8    0    1
 -2       100       101       258      1203      1550      1551
 -1       353    8    0    1
 -2       100       258       257      1551      1552      1547
 -1       354    8    0    1
 -2       101       102       259      1204      1553      1554
 -1       355    8    0    1
 -2       101       259       258      1554      1555      1550
 -1       356    8    0    1
 -2       102       103       260      1205      1556      1557
 -1       357    8    0    1
 -2       102       260       259      1557      1558      1553
 -1       358    8    0    1
 -2       103       104       261      1206      1559      1560
 -1       359    8    0    1
 -2       103       261       260      1560      1561      1556
 -1       360    8    0    1
 -2       104       105       262      1207      1562      1563
 -1       361    8    0    1
 -2       104       262       261      1563      1564      1559
 -1       362    8    0    1
 -2       105       106       263      1208      1565      1566
 -1       363    8    0    1
 -2       105       263       262      1566      1567      1562
 -1       364    8    0    1
 -2       106       107       264      1209      1568      1569
 -1       365    8    0    1
 -2       106       264       263      1569      1570      1565
 -1       366    8    0    1
 -2       107       108       265      1210      1571      1572
 -1       367    8    0    1
 -2       107       265       264      1572      1573      1568
 -1       368    8    0    1
 -2       108       109       266      1211      1574      1575
 -1       369    8    0    1
 -2       108       266       265      1575      1576      1571
 -1       370    8    0    1
 -2       109       110       267      1212      1577      1578
 -1       371    8    0    1
 -2       109       267       266      1578      1579      1574
 -1       372    8    0    1
 -2       110       111       268      1213      1580      1581
 -1       373    8    0    1
 -2       110       268       267      1581      1582      1577
 -1       374    8    0    1
 -2       111       112       269      1214      1583      1584
 -1       375    8    0    1
 -2       111       269       268      1584      1585      1580
 -1       376    8    0    1
 -2       112       113       270      1215      1586      1587
 -1       377    8    0    1
 -2       112       270       269      1587      1588      1583
 -1       378    8    0    1
 -2       113       114       271      1216      1589      1590
 -1       379    8    0    1
 -2       113       271       270      1590      1591      1586
 -1       380    8    0    1
 -2       114       115       272      1217      1592      1593
 -1       381    8    0    1
 -2       114       272       271      1593      1594      1589
 -1       382    8    0    1
 -2       115       116       273      1218      1595      1596
 -1       383    8    0    1
 -2       115       273       272      1596      1597      1592
 -1       384    8    0    1
 -2       116       117       274      1219      1598      1599
 -1       385    8    0    1
 -2       116       274       273      1599      1600      1595
 -1       386    8    0    1
 -2       117       118       275      1220      1601      1602
 -1       387    8    0    1
 -2       117       275       274      1602      1603      1598
 -1       388    8    0    1
 -2       118       119       276      1221      1604      1605
 -1       389    8    0    1
 -2       118       276       275      1605      1606      1601
 -1       390    8    0    1
 -2       119       120       277      1222      1607      1608
 -1       391    8    0    1
 -2       119       277       276      1608      1609      1604
 -1       392    8    0    1
 -2       120       121       278      1223      1610      1611
 -1       393    8    0    1
 -2       120       278       277      1611      1612      1607
 -1       394    8    0    1
 -2       121         3       122      1224      1225      1613
 -1       395    8    0    1
 -2       122       123       279      1226      1614      1615
 -1       396    8    0    1
 -2       123       124       280      1227      1616      1617
 -1       397    8    0    1
 -2       123       280       279      1617      1618      1614
 -1       398    8    0    1
 -2       124       125       281      1228      1619      1620
 -1       399    8    0    1
 -2       124       281       280      1620      1621      1616
 -1       400    8    0    1
 -2       125       126       282      1229      1622      1623
 -1       401    8    0    1
 -2       125       282       281      1623      1624      1619
 -1       402    8    0    1
 -2       126       127       283      1230      1625      1626
 -1       403    8    0    1
 -2       126       283       282      1626      1627      1622
 -1       404    8    0    1
 -2       127       128       284      1231      1628      1629
 -1       405    8    0    1
 -2       127       284       283      1629      1630      1625
 -1       406    8    0    1
 -2       128       129       285      1232      1631      1632
 -1       407    8    0    1
 -2       128       285       284      1632      1633      1628
 -1       408    8    0    1
 -2       129       130       286      1233      1634      1635
 -1       409    8    0    1
 -2       129       286       285      1635      1636      1631
 -1       410    8    0    1
 -2       130       131       287      1234      1637      1638
 -1       411    8    0    1
 -2       130       287       286      1638      1639      1634
 -1       412    8    0    1
 -2       131       132       288      1235      1640      1641
 -1       413    8    0    1
 -2       131       288       287      1641      1642      1637
 -1       414    8    0    1
 -2       132       133       289      1236      1643      1644
 -1       415    8    0    1
 -2       132       289       288      1644      1645      1640
 -1       416    8    0    1
 -2       133       134       290      1237      1646      1647
 -1       417    8    0    1
 -2       133       290       289      1647      1648      1643
 -1       418    8    0    1
 -2       134       135       291      1238      1649      1650
 -1       419    8    0    1
 -2       134       291       290      1650      1651      1646
 -1       420    8    0    1
 -2       135       136       292      1239      1652      1653
 -1       421    8    0    1
 -2       135       292       291      1653      1654      1649
 -1       422    8    0    1
 -2       136       137       293      1240      1655      1656
 -1       423    8    0    1
 -2       292       136       293      1652      1656      1657
 -1       424    8    0    1
 -2       137       229       293      1465      1658      1655
 -1       425    8    0    1
 -2         2       138       294      1242      1659      1660
 -1       426    8    0    1
 -2       138       139       295      1243      1661      1662
 -1       427    8    0    1
 -2       139       140       296      1244      1663      1664
 -1       428    8    0    1
 -2       140       141       297      1245      1665      1666
 -1       429    8    0    1
 -2       141       142       298      1246      1667      1668
 -1       430    8    0    1
 -2       142       143       299      1247      1669      1670
 -1       431    8    0    1
 -2       143       144       300      1248      1671      1672
 -1       432    8    0    1
 -2       144       145       301      1249      1673      1674
 -1       433    8    0    1
 -2       145       146       302      1250      1675      1676
 -1       434    8    0    1
 -2       146       147       303      1251      1677      1678
 -1       435    8    0    1
 -2       147       148       304      1252      1679      1680
 -1       436    8    0    1
 -2       148       149       305      1253      1681      1682
 -1       437    8    0    1
 -2       149       150       306      1254      1683      1684
 -1       438    8    0    1
 -2       150       151       307      1255      1685      1686
 -1       439    8    0    1
 -2       151       152       308      1256      1687      1688
 -1       440    8    0    1
 -2       152       153       309      1257      1689      1690
 -1       441    8    0    1
 -2       153       154       310      1258      1691      1692
 -1       442    8    0    1
 -2       154         1       311      1259      1693      1694
 -1       443    8    0    1
 -2         1       155       312      1260      1695      1696
 -1       444    8    0    1
 -2       155       156       313      1261      1697      1698
 -1       445    8    0    1
 -2       156       157       314      1262      1699      1700
 -1       446    8    0    1
 -2       157       158       315      1263      1701      1702
 -1       447    8    0    1
 -2       158       159       316      1264      1703      1704
 -1       448    8    0    1
 -2       159       160       317      1265      1705      1706
 -1       449    8    0    1
 -2       160       161       318      1266      1707      1708
 -1       450    8    0    1
 -2       161       162       319      1267      1709      1710
 -1       451    8    0    1
 -2       162       163       320      1268      1711      1712
 -1       452    8    0    1
 -2       163       164       321      1269      1713      1714
 -1       453    8    0    1
 -2       164       165       322      1270      1715      1716
 -1       454    8    0    1
 -2       165         2       323      1271      1717      1718
 -1       455    8    0    1
 -2       297       141       298      1665      1668      1719
 -1       456    8    0    1
 -2       296       140       297      1663      1666      1720
 -1       457    8    0    1
 -2       121       122       278      1613      1721      1610
 -1       458    8    0    1
 -2       122       279       278      1615      1722      1721
 -1       459    8    0    1
 -2       294       138       295      1659      1662      1723
 -1       460    8    0    1
 -2       295       139       296      1661      1664      1724
 -1       461    8    0    1
 -2         2       294       323      1660      1725      1717
 -1       462    8    0    1
 -2       142       299       298      1670      1726      1667
 -1       463    8    0    1
 -2       143       300       299      1672      1727      1669
 -1       464    8    0    1
 -2       144       301       300      1674      1728      1671
 -1       465    8    0    1
 -2       145       302       301      1676      1729      1673
 -1       466    8    0    1
 -2       146       303       302      1678      1730      1675
 -1       467    8    0    1
 -2       147       304       303      1680      1731      1677
 -1       468    8    0    1
 -2       148       305       304      1682      1732      1679
 -1       469    8    0    1
 -2       149       306       305      1684      1733      1681
 -1       470    8    0    1
 -2       150       307       306      1686      1734      1683
 -1       471    8    0    1
 -2       151       308       307      1688      1735      1685
 -1       472    8    0    1
 -2       152       309       308      1690      1736      1687
 -1       473    8    0    1
 -2       153       310       309      1692      1737      1689
 -1       474    8    0    1
 -2       154       311       310      1694      1738      1691
 -1       475    8    0    1
 -2         1       312       311      1696      1739      1693
 -1       476    8    0    1
 -2       155       313       312      1698      1740      1695
 -1       477    8    0    1
 -2       156       314       313      1700      1741      1697
 -1       478    8    0    1
 -2       157       315       314      1702      1742      1699
 -1       479    8    0    1
 -2       158       316       315      1704      1743      1701
 -1       480    8    0    1
 -2       159       317       316      1706      1744      1703
 -1       481    8    0    1
 -2       160       318       317      1708      1745      1705
 -1       482    8    0    1
 -2       161       319       318      1710      1746      1707
 -1       483    8    0    1
 -2       162       320       319      1712      1747      1709
 -1       484    8    0    1
 -2       163       321       320      1714      1748      1711
 -1       485    8    0    1
 -2       164       322       321      1716      1749      1713
 -1       486    8    0    1
 -2       165       323       322      1718      1750      1715
 -1       487    8    0    1
 -2        23         7       166      1272      1274      1751
 -1       488    8    0    1
 -2       167       168       324      1280      1752      1753
 -1       489    8    0    1
 -2       166       167       325      1277      1754      1755
 -1       490    8    0    1
 -2       167       324       325      1753      1756      1754
 -1       491    8    0    1
 -2       169       170       326      1286      1757      1758
 -1       492    8    0    1
 -2       170       171       327      1289      1759      1760
 -1       493    8    0    1
 -2       170       327       326      1760      1761      1757
 -1       494    8    0    1
 -2       171       172       328      1292      1762      1763
 -1       495    8    0    1
 -2       171       328       327      1763      1764      1759
 -1       496    8    0    1
 -2       172       173       329      1295      1765      1766
 -1       497    8    0    1
 -2       172       329       328      1766      1767      1762
 -1       498    8    0    1
 -2       173       174       330      1298      1768      1769
 -1       499    8    0    1
 -2       173       330       329      1769      1770      1765
 -1       500    8    0    1
 -2       174       175       331      1301      1771      1772
 -1       501    8    0    1
 -2       174       331       330      1772      1773      1768
 -1       502    8    0    1
 -2       175       176       332      1304      1774      1775
 -1       503    8    0    1
 -2       175       332       331      1775      1776      1771
 -1       504    8    0    1
 -2       176       177       333      1307      1777      1778
 -1       505    8    0    1
 -2       176       333       332      1778      1779      1774
 -1       506    8    0    1
 -2       177       178       334      1310      1780      1781
 -1       507    8    0    1
 -2       177       334       333      1781      1782      1777
 -1       508    8    0    1
 -2       178       179       335      1313      1783      1784
 -1       509    8    0    1
 -2       178       335       334      1784      1785      1780
 -1       510    8    0    1
 -2       179       180       336      1316      1786      1787
 -1       511    8    0    1
 -2       179       336       335      1787      1788      1783
 -1       512    8    0    1
 -2       180       181       337      1319      1789      1790
 -1       513    8    0    1
 -2       336       180       337      1786      1790      1791
 -1       514    8    0    1
 -2       181       230       337      1468      1792      1789
 -1       515    8    0    1
 -2       182        23       166      1321      1751      1793
 -1       516    8    0    1
 -2       230       231       338      1471      1794      1795
 -1       517    8    0    1
 -2       230       338       337      1795      1796      1792
 -1       518    8    0    1
 -2       182       166       325      1793      1755      1797
 -1       519    8    0    1
 -2       184       183       339      1328      1798      1799
 -1       520    8    0    1
 -2       185       184       340      1331      1800      1801
 -1       521    8    0    1
 -2       184       339       340      1799      1802      1800
 -1       522    8    0    1
 -2       186       185       341      1334      1803      1804
 -1       523    8    0    1
 -2       185       340       341      1801      1805      1803
 -1       524    8    0    1
 -2       187       186       342      1337      1806      1807
 -1       525    8    0    1
 -2       186       341       342      1804      1808      1806
 -1       526    8    0    1
 -2       188       187       343      1340      1809      1810
 -1       527    8    0    1
 -2       187       342       343      1807      1811      1809
 -1       528    8    0    1
 -2       189       188       344      1343      1812      1813
 -1       529    8    0    1
 -2       188       343       344      1810      1814      1812
 -1       530    8    0    1
 -2       190       189       345      1346      1815      1816
 -1       531    8    0    1
 -2       189       344       345      1813      1817      1815
 -1       532    8    0    1
 -2       191       190       346      1349      1818      1819
 -1       533    8    0    1
 -2       190       345       346      1816      1820      1818
 -1       534    8    0    1
 -2       192       191       347      1352      1821      1822
 -1       535    8    0    1
 -2       191       346       347      1819      1823      1821
 -1       536    8    0    1
 -2       193       192       348      1355      1824      1825
 -1       537    8    0    1
 -2       192       347       348      1822      1826      1824
 -1       538    8    0    1
 -2       194       193       349      1358      1827      1828
 -1       539    8    0    1
 -2       193       348       349      1825      1829      1827
 -1       540    8    0    1
 -2       195       194       350      1361      1830      1831
 -1       541    8    0    1
 -2       194       349       350      1828      1832      1830
 -1       542    8    0    1
 -2       196       195       351      1364      1833      1834
 -1       543    8    0    1
 -2       195       350       351      1831      1835      1833
 -1       544    8    0    1
 -2       197       196       352      1367      1836      1837
 -1       545    8    0    1
 -2       196       351       352      1834      1838      1836
 -1       546    8    0    1
 -2       198       197       353      1370      1839      1840
 -1       547    8    0    1
 -2       197       352       353      1837      1841      1839
 -1       548    8    0    1
 -2       199       198       354      1373      1842      1843
 -1       549    8    0    1
 -2       198       353       354      1840      1844      1842
 -1       550    8    0    1
 -2       200       199       355      1376      1845      1846
 -1       551    8    0    1
 -2       199       354       355      1843      1847      1845
 -1       552    8    0    1
 -2       201       200       356      1379      1848      1849
 -1       553    8    0    1
 -2       200       355       356      1846      1850      1848
 -1       554    8    0    1
 -2       202       201       357      1382      1851      1852
 -1       555    8    0    1
 -2       201       356       357      1849      1853      1851
 -1       556    8    0    1
 -2       203       202       358      1385      1854      1855
 -1       557    8    0    1
 -2       202       357       358      1852      1856      1854
 -1       558    8    0    1
 -2       204       203       359      1388      1857      1858
 -1       559    8    0    1
 -2       203       358       359      1855      1859      1857
 -1       560    8    0    1
 -2       205       204       360      1391      1860      1861
 -1       561    8    0    1
 -2       204       359       360      1858      1862      1860
 -1       562    8    0    1
 -2       206       205       361      1394      1863      1864
 -1       563    8    0    1
 -2       205       360       361      1861      1865      1863
 -1       564    8    0    1
 -2       207       206       362      1397      1866      1867
 -1       565    8    0    1
 -2       206       361       362      1864      1868      1866
 -1       566    8    0    1
 -2       208       207       363      1400      1869      1870
 -1       567    8    0    1
 -2       207       362       363      1867      1871      1869
 -1       568    8    0    1
 -2       209       208       364      1403      1872      1873
 -1       569    8    0    1
 -2       208       363       364      1870      1874      1872
 -1       570    8    0    1
 -2       210       209       365      1406      1875      1876
 -1       571    8    0    1
 -2       209       364       365      1873      1877      1875
 -1       572    8    0    1
 -2       211       210       366      1409      1878      1879
 -1       573    8    0    1
 -2       210       365       366      1876      1880      1878
 -1       574    8    0    1
 -2       212       211       367      1412      1881      1882
 -1       575    8    0    1
 -2       211       366       367      1879      1883      1881
 -1       576    8    0    1
 -2       213       212       368      1415      1884      1885
 -1       577    8    0    1
 -2       212       367       368      1882      1886      1884
 -1       578    8    0    1
 -2       214       213       369      1418      1887      1888
 -1       579    8    0    1
 -2       213       368       369      1885      1889      1887
 -1       580    8    0    1
 -2       215       214       370      1421      1890      1891
 -1       581    8    0    1
 -2       214       369       370      1888      1892      1890
 -1       582    8    0    1
 -2       216       215       371      1424      1893      1894
 -1       583    8    0    1
 -2       215       370       371      1891      1895      1893
 -1       584    8    0    1
 -2       217       216       372      1427      1896      1897
 -1       585    8    0    1
 -2       216       371       372      1894      1898      1896
 -1       586    8    0    1
 -2       218       217       373      1430      1899      1900
 -1       587    8    0    1
 -2       217       372       373      1897      1901      1899
 -1       588    8    0    1
 -2       219       218       374      1433      1902      1903
 -1       589    8    0    1
 -2       218       373       374      1900      1904      1902
 -1       590    8    0    1
 -2       220       219       375      1436      1905      1906
 -1       591    8    0    1
 -2       219       374       375      1903      1907      1905
 -1       592    8    0    1
 -2       221       220       376      1439      1908      1909
 -1       593    8    0    1
 -2       220       375       376      1906      1910      1908
 -1       594    8    0    1
 -2       222       221       377      1442      1911      1912
 -1       595    8    0    1
 -2       221       376       377      1909      1913      1911
 -1       596    8    0    1
 -2       223       222       378      1445      1914      1915
 -1       597    8    0    1
 -2       222       377       378      1912      1916      1914
 -1       598    8    0    1
 -2       224       223       379      1448      1917      1918
 -1       599    8    0    1
 -2       223       378       379      1915      1919      1917
 -1       600    8    0    1
 -2       225       224       380      1451      1920      1921
 -1       601    8    0    1
 -2       224       379       380      1918      1922      1920
 -1       602    8    0    1
 -2       226       225       381      1454      1923      1924
 -1       603    8    0    1
 -2       225       380       381      1921      1925      1923
 -1       604    8    0    1
 -2       227       226       382      1457      1926      1927
 -1       605    8    0    1
 -2       226       381       382      1924      1928      1926
 -1       606    8    0    1
 -2       228       227       383      1460      1929      1930
 -1       607    8    0    1
 -2       227       382       383      1927      1931      1929
 -1       608    8    0    1
 -2       229       228       384      1463      1932      1933
 -1       609    8    0    1
 -2       293       229       384      1658      1933      1934
 -1       610    8    0    1
 -2       228       383       384      1930      1935      1932
 -1       611    8    0    1
 -2       231       232       385      1474      1936      1937
 -1       612    8    0    1
 -2       231       385       338      1937      1938      1794
 -1       613    8    0    1
 -2       232       233       386      1477      1939      1940
 -1       614    8    0    1
 -2       232       386       385      1940      1941      1936
 -1       615    8    0    1
 -2       233       234       387      1480      1942      1943
 -1       616    8    0    1
 -2       233       387       386      1943      1944      1939
 -1       617    8    0    1
 -2       234       235       388      1483      1945      1946
 -1       618    8    0    1
 -2       234       388       387      1946      1947      1942
 -1       619    8    0    1
 -2       235       236       389      1486      1948      1949
 -1       620    8    0    1
 -2       235       389       388      1949      1950      1945
 -1       621    8    0    1
 -2       236       237       390      1489      1951      1952
 -1       622    8    0    1
 -2       236       390       389      1952      1953      1948
 -1       623    8    0    1
 -2       237       238       391      1492      1954      1955
 -1       624    8    0    1
 -2       237       391       390      1955      1956      1951
 -1       625    8    0    1
 -2       238       239       392      1495      1957      1958
 -1       626    8    0    1
 -2       238       392       391      1958      1959      1954
 -1       627    8    0    1
 -2       239       240       393      1498      1960      1961
 -1       628    8    0    1
 -2       239       393       392      1961      1962      1957
 -1       629    8    0    1
 -2       240       241       394      1501      1963      1964
 -1       630    8    0    1
 -2       240       394       393      1964      1965      1960
 -1       631    8    0    1
 -2       241       242       395      1504      1966      1967
 -1       632    8    0    1
 -2       241       395       394      1967      1968      1963
 -1       633    8    0    1
 -2       242       243       396      1507      1969      1970
 -1       634    8    0    1
 -2       242       396       395      1970      1971      1966
 -1       635    8    0    1
 -2       243       244       397      1510      1972      1973
 -1       636    8    0    1
 -2       243       397       396      1973      1974      1969
 -1       637    8    0    1
 -2       244       245       398      1513      1975      1976
 -1       638    8    0    1
 -2       244       398       397      1976      1977      1972
 -1       639    8    0    1
 -2       245       246       399      1516      1978      1979
 -1       640    8    0    1
 -2       245       399       398      1979      1980      1975
 -1       641    8    0    1
 -2       246       247       400      1519      1981      1982
 -1       642    8    0    1
 -2       246       400       399      1982      1983      1978
 -1       643    8    0    1
 -2       247       248       401      1522      1984      1985
 -1       644    8    0    1
 -2       247       401       400      1985      1986      1981
 -1       645    8    0    1
 -2       248       249       402      1525      1987      1988
 -1       646    8    0    1
 -2       248       402       401      1988      1989      1984
 -1       647    8    0    1
 -2       249       250       403      1528      1990      1991
 -1       648    8    0    1
 -2       249       403       402      1991      1992      1987
 -1       649    8    0    1
 -2       250       251       404      1531      1993      1994
 -1       650    8    0    1
 -2       250       404       403      1994      1995      1990
 -1       651    8    0    1
 -2       251       252       405      1534      1996      1997
 -1       652    8    0    1
 -2       251       405       404      1997      1998      1993
 -1       653    8    0    1
 -2       252       253       406      1537      1999      2000
 -1       654    8    0    1
 -2       252       406       405      2000      2001      1996
 -1       655    8    0    1
 -2       253       254       407      1540      2002      2003
 -1       656    8    0    1
 -2       253       407       406      2003      2004      1999
 -1       657    8    0    1
 -2       254       255       408      1543      2005      2006
 -1       658    8    0    1
 -2       254       408       407      2006      2007      2002
 -1       659    8    0    1
 -2       255       256       409      1546      2008      2009
 -1       660    8    0    1
 -2       255       409       408      2009      2010      2005
 -1       661    8    0    1
 -2       256       257       410      1549      2011      2012
 -1       662    8    0    1
 -2       256       410       409      2012      2013      2008
 -1       663    8    0    1
 -2       257       258       411      1552      2014      2015
 -1       664    8    0    1
 -2       257       411       410      2015      2016      2011
 -1       665    8    0    1
 -2       258       259       412      1555      2017      2018
 -1       666    8    0    1
 -2       258       412       411      2018      2019      2014
 -1       667    8    0    1
 -2       259       260       413      1558      2020      2021
 -1       668    8    0    1
 -2       259       413       412      2021      2022      2017
 -1       669    8    0    1
 -2       262       263       414      1567      2023      2024
 -1       670    8    0    1
 -2       263       264       415      1570      2025      2026
 -1       671    8    0    1
 -2       264       265       416      1573      2027      2028
 -1       672    8    0    1
 -2       265       266       417      1576      2029      2030
 -1       673    8    0    1
 -2       265       417       416      2030      2031      2027
 -1       674    8    0    1
 -2       266       267       418      1579      2032      2033
 -1       675    8    0    1
 -2       266       418       417      2033      2034      2029
 -1       676    8    0    1
 -2       267       268       419      1582      2035      2036
 -1       677    8    0    1
 -2       267       419       418      2036      2037      2032
 -1       678    8    0    1
 -2       268       269       420      1585      2038      2039
 -1       679    8    0    1
 -2       268       420       419      2039      2040      2035
 -1       680    8    0    1
 -2       269       270       421      1588      2041      2042
 -1       681    8    0    1
 -2       269       421       420      2042      2043      2038
 -1       682    8    0    1
 -2       270       271       422      1591      2044      2045
 -1       683    8    0    1
 -2       270       422       421      2045      2046      2041
 -1       684    8    0    1
 -2       271       272       423      1594      2047      2048
 -1       685    8    0    1
 -2       271       423       422      2048      2049      2044
 -1       686    8    0    1
 -2       272       273       424      1597      2050      2051
 -1       687    8    0    1
 -2       272       424       423      2051      2052      2047
 -1       688    8    0    1
 -2       273       274       425      1600      2053      2054
 -1       689    8    0    1
 -2       273       425       424      2054      2055      2050
 -1       690    8    0    1
 -2       274       275       426      1603      2056      2057
 -1       691    8    0    1
 -2       274       426       425      2057      2058      2053
 -1       692    8    0    1
 -2       275       276       427      1606      2059      2060
 -1       693    8    0    1
 -2       275       427       426      2060      2061      2056
 -1       694    8    0    1
 -2       276       277       428      1609      2062      2063
 -1       695    8    0    1
 -2       276       428       427      2063      2064      2059
 -1       696    8    0    1
 -2       277       278       429      1612      2065      2066
 -1       697    8    0    1
 -2       428       277       429      2062      2066      2067
 -1       698    8    0    1
 -2       278       279       429      1722      2068      2065
 -1       699    8    0    1
 -2       281       282       430      1624      2069      2070
 -1       700    8    0    1
 -2       280       281       431      1621      2071      2072
 -1       701    8    0    1
 -2       281       430       431      2070      2073      2071
 -1       702    8    0    1
 -2       279       280       432      1618      2074      2075
 -1       703    8    0    1
 -2       429       279       432      2068      2075      2076
 -1       704    8    0    1
 -2       280       431       432      2072      2077      2074
 -1       705    8    0    1
 -2       282       283       433      1627      2078      2079
 -1       706    8    0    1
 -2       282       433       430      2079      2080      2069
 -1       707    8    0    1
 -2       283       284       434      1630      2081      2082
 -1       708    8    0    1
 -2       283       434       433      2082      2083      2078
 -1       709    8    0    1
 -2       284       285       435      1633      2084      2085
 -1       710    8    0    1
 -2       284       435       434      2085      2086      2081
 -1       711    8    0    1
 -2       285       286       436      1636      2087      2088
 -1       712    8    0    1
 -2       285       436       435      2088      2089      2084
 -1       713    8    0    1
 -2       286       287       437      1639      2090      2091
 -1       714    8    0    1
 -2       286       437       436      2091      2092      2087
 -1       715    8    0    1
 -2       287       288       438      1642      2093      2094
 -1       716    8    0    1
 -2       287       438       437      2094      2095      2090
 -1       717    8    0    1
 -2       288       289       439      1645      2096      2097
 -1       718    8    0    1
 -2       288       439       438      2097      2098      2093
 -1       719    8    0    1
 -2       289       290       440      1648      2099      2100
 -1       720    8    0    1
 -2       289       440       439      2100      2101      2096
 -1       721    8    0    1
 -2       290       291       441      1651      2102      2103
 -1       722    8    0    1
 -2       290       441       440      2103      2104      2099
 -1       723    8    0    1
 -2       291       292       442      1654      2105      2106
 -1       724    8    0    1
 -2       291       442       441      2106      2107      2102
 -1       725    8    0    1
 -2       295       296       443      1724      2108      2109
 -1       726    8    0    1
 -2       323       294       444      1725      2110      2111
 -1       727    8    0    1
 -2       294       295       445      1723      2112      2113
 -1       728    8    0    1
 -2       294       445       444      2113      2114      2110
 -1       729    8    0    1
 -2       296       297       446      1720      2115      2116
 -1       730    8    0    1
 -2       296       446       443      2116      2117      2108
 -1       731    8    0    1
 -2       297       298       447      1719      2118      2119
 -1       732    8    0    1
 -2       168       169       448      1283      2120      2121
 -1       733    8    0    1
 -2       324       168       448      1752      2121      2122
 -1       734    8    0    1
 -2       169       326       448      1758      2123      2120
 -1       735    8    0    1
 -2       299       300       415      1727      2124      2125
 -1       736    8    0    1
 -2       300       301       414      1728      2126      2127
 -1       737    8    0    1
 -2       301       302       449      1729      2128      2129
 -1       738    8    0    1
 -2       301       449       414      2129      2130      2126
 -1       739    8    0    1
 -2       302       303       450      1730      2131      2132
 -1       740    8    0    1
 -2       302       450       449      2132      2133      2128
 -1       741    8    0    1
 -2       303       304       451      1731      2134      2135
 -1       742    8    0    1
 -2       303       451       450      2135      2136      2131
 -1       743    8    0    1
 -2       304       305       452      1732      2137      2138
 -1       744    8    0    1
 -2       305       306       453      1733      2139      2140
 -1       745    8    0    1
 -2       306       307       454      1734      2141      2142
 -1       746    8    0    1
 -2       307       308       455      1735      2143      2144
 -1       747    8    0    1
 -2       308       309       456      1736      2145      2146
 -1       748    8    0    1
 -2       309       310       457      1737      2147      2148
 -1       749    8    0    1
 -2       310       311       458      1738      2149      2150
 -1       750    8    0    1
 -2       310       458       457      2150      2151      2147
 -1       751    8    0    1
 -2       311       312       459      1739      2152      2153
 -1       752    8    0    1
 -2       312       313       460      1740      2154      2155
 -1       753    8    0    1
 -2       312       460       459      2155      2156      2152
 -1       754    8    0    1
 -2       313       314       461      1741      2157      2158
 -1       755    8    0    1
 -2       314       315       462      1742      2159      2160
 -1       756    8    0    1
 -2       315       316       463      1743      2161      2162
 -1       757    8    0    1
 -2       316       317       464      1744      2163      2164
 -1       758    8    0    1
 -2       317       318       465      1745      2165      2166
 -1       759    8    0    1
 -2       318       319       466      1746      2167      2168
 -1       760    8    0    1
 -2       319       320       467      1747      2169      2170
 -1       761    8    0    1
 -2       320       321       468      1748      2171      2172
 -1       762    8    0    1
 -2       321       322       469      1749      2173      2174
 -1       763    8    0    1
 -2       322       323       470      1750      2175      2176
 -1       764    8    0    1
 -2       298       299       416      1726      2177      2178
 -1       765    8    0    1
 -2       182       325       183      1797      2179      1325
 -1       766    8    0    1
 -2       299       415       416      2125      2180      2177
 -1       767    8    0    1
 -2       339       183       325      1798      2179      2181
 -1       768    8    0    1
 -2       415       264       416      2025      2028      2180
 -1       769    8    0    1
 -2       262       414       449      2024      2130      2182
 -1       770    8    0    1
 -2       414       263       415      2023      2026      2183
 -1       771    8    0    1
 -2       261       262       449      1564      2182      2184
 -1       772    8    0    1
 -2       261       449       450      2184      2133      2185
 -1       773    8    0    1
 -2       295       443       445      2109      2186      2112
 -1       774    8    0    1
 -2       442       292       293      2105      1657      2187
 -1       775    8    0    1
 -2       297       447       446      2119      2188      2115
 -1       776    8    0    1
 -2       323       444       470      2111      2189      2175
 -1       777    8    0    1
 -2       469       322       470      2173      2176      2190
 -1       778    8    0    1
 -2       468       321       469      2171      2174      2191
 -1       779    8    0    1
 -2       467       320       468      2169      2172      2192
 -1       780    8    0    1
 -2       466       319       467      2167      2170      2193
 -1       781    8    0    1
 -2       465       318       466      2165      2168      2194
 -1       782    8    0    1
 -2       464       317       465      2163      2166      2195
 -1       783    8    0    1
 -2       463       316       464      2161      2164      2196
 -1       784    8    0    1
 -2       462       315       463      2159      2162      2197
 -1       785    8    0    1
 -2       460       313       461      2154      2158      2198
 -1       786    8    0    1
 -2       458       311       459      2149      2153      2199
 -1       787    8    0    1
 -2       456       309       457      2145      2148      2200
 -1       788    8    0    1
 -2       455       308       456      2143      2146      2201
 -1       789    8    0    1
 -2       454       307       455      2141      2144      2202
 -1       790    8    0    1
 -2       453       306       454      2139      2142      2203
 -1       791    8    0    1
 -2       415       300       414      2124      2127      2183
 -1       792    8    0    1
 -2       304       452       451      2138      2204      2134
 -1       793    8    0    1
 -2       452       305       453      2137      2140      2205
 -1       794    8    0    1
 -2       461       314       462      2157      2160      2206
 -1       795    8    0    1
 -2       261       450       413      2185      2207      2208
 -1       796    8    0    1
 -2       338       385       471      1938      2209      2210
 -1       797    8    0    1
 -2       327       328       472      1764      2211      2212
 -1       798    8    0    1
 -2       326       327       473      1761      2213      2214
 -1       799    8    0    1
 -2       327       472       473      2212      2215      2213
 -1       800    8    0    1
 -2       329       330       474      1770      2216      2217
 -1       801    8    0    1
 -2       330       331       475      1773      2218      2219
 -1       802    8    0    1
 -2       330       475       474      2219      2220      2216
 -1       803    8    0    1
 -2       331       332       476      1776      2221      2222
 -1       804    8    0    1
 -2       331       476       475      2222      2223      2218
 -1       805    8    0    1
 -2       332       333       477      1779      2224      2225
 -1       806    8    0    1
 -2       332       477       476      2225      2226      2221
 -1       807    8    0    1
 -2       333       334       478      1782      2227      2228
 -1       808    8    0    1
 -2       333       478       477      2228      2229      2224
 -1       809    8    0    1
 -2       334       335       479      1785      2230      2231
 -1       810    8    0    1
 -2       334       479       478      2231      2232      2227
 -1       811    8    0    1
 -2       417       418       480      2034      2233      2234
 -1       812    8    0    1
 -2       418       419       481      2037      2235      2236
 -1       813    8    0    1
 -2       418       481       480      2236      2237      2233
 -1       814    8    0    1
 -2       385       386       482      1941      2238      2239
 -1       815    8    0    1
 -2       385       482       471      2239      2240      2209
 -1       816    8    0    1
 -2       340       339       483      1802      2241      2242
 -1       817    8    0    1
 -2       341       340       484      1805      2243      2244
 -1       818    8    0    1
 -2       340       483       484      2242      2245      2243
 -1       819    8    0    1
 -2       342       341       485      1808      2246      2247
 -1       820    8    0    1
 -2       341       484       485      2244      2248      2246
 -1       821    8    0    1
 -2       343       342       486      1811      2249      2250
 -1       822    8    0    1
 -2       342       485       486      2247      2251      2249
 -1       823    8    0    1
 -2       344       343       487      1814      2252      2253
 -1       824    8    0    1
 -2       343       486       487      2250      2254      2252
 -1       825    8    0    1
 -2       345       344       488      1817      2255      2256
 -1       826    8    0    1
 -2       344       487       488      2253      2257      2255
 -1       827    8    0    1
 -2       346       345       489      1820      2258      2259
 -1       828    8    0    1
 -2       345       488       489      2256      2260      2258
 -1       829    8    0    1
 -2       347       346       490      1823      2261      2262
 -1       830    8    0    1
 -2       346       489       490      2259      2263      2261
 -1       831    8    0    1
 -2       348       347       491      1826      2264      2265
 -1       832    8    0    1
 -2       347       490       491      2262      2266      2264
 -1       833    8    0    1
 -2       349       348       492      1829      2267      2268
 -1       834    8    0    1
 -2       348       491       492      2265      2269      2267
 -1       835    8    0    1
 -2       350       349       493      1832      2270      2271
 -1       836    8    0    1
 -2       349       492       493      2268      2272      2270
 -1       837    8    0    1
 -2       351       350       494      1835      2273      2274
 -1       838    8    0    1
 -2       350       493       494      2271      2275      2273
 -1       839    8    0    1
 -2       352       351       495      1838      2276      2277
 -1       840    8    0    1
 -2       351       494       495      2274      2278      2276
 -1       841    8    0    1
 -2       353       352       496      1841      2279      2280
 -1       842    8    0    1
 -2       352       495       496      2277      2281      2279
 -1       843    8    0    1
 -2       354       353       497      1844      2282      2283
 -1       844    8    0    1
 -2       353       496       497      2280      2284      2282
 -1       845    8    0    1
 -2       355       354       498      1847      2285      2286
 -1       846    8    0    1
 -2       354       497       498      2283      2287      2285
 -1       847    8    0    1
 -2       356       355       499      1850      2288      2289
 -1       848    8    0    1
 -2       355       498       499      2286      2290      2288
 -1       849    8    0    1
 -2       357       356       500      1853      2291      2292
 -1       850    8    0    1
 -2       356       499       500      2289      2293      2291
 -1       851    8    0    1
 -2       358       357       501      1856      2294      2295
 -1       852    8    0    1
 -2       357       500       501      2292      2296      2294
 -1       853    8    0    1
 -2       359       358       502      1859      2297      2298
 -1       854    8    0    1
 -2       358       501       502      2295      2299      2297
 -1       855    8    0    1
 -2       360       359       503      1862      2300      2301
 -1       856    8    0    1
 -2       359       502       503      2298      2302      2300
 -1       857    8    0    1
 -2       361       360       504      1865      2303      2304
 -1       858    8    0    1
 -2       360       503       504      2301      2305      2303
 -1       859    8    0    1
 -2       362       361       505      1868      2306      2307
 -1       860    8    0    1
 -2       361       504       505      2304      2308      2306
 -1       861    8    0    1
 -2       363       362       506      1871      2309      2310
 -1       862    8    0    1
 -2       362       505       506      2307      2311      2309
 -1       863    8    0    1
 -2       364       363       507      1874      2312      2313
 -1       864    8    0    1
 -2       363       506       507      2310      2314      2312
 -1       865    8    0    1
 -2       365       364       508      1877      2315      2316
 -1       866    8    0    1
 -2       364       507       508      2313      2317      2315
 -1       867    8    0    1
 -2       366       365       509      1880      2318      2319
 -1       868    8    0    1
 -2       365       508       509      2316      2320      2318
 -1       869    8    0    1
 -2       367       366       510      1883      2321      2322
 -1       870    8    0    1
 -2       366       509       510      2319      2323      2321
 -1       871    8    0    1
 -2       368       367       511      1886      2324      2325
 -1       872    8    0    1
 -2       367       510       511      2322      2326      2324
 -1       873    8    0    1
 -2       369       368       512      1889      2327      2328
 -1       874    8    0    1
 -2       368       511       512      2325      2329      2327
 -1       875    8    0    1
 -2       370       369       513      1892      2330      2331
 -1       876    8    0    1
 -2       369       512       513      2328      2332      2330
 -1       877    8    0    1
 -2       371       370       514      1895      2333      2334
 -1       878    8    0    1
 -2       370       513       514      2331      2335      2333
 -1       879    8    0    1
 -2       372       371       515      1898      2336      2337
 -1       880    8    0    1
 -2       371       514       515      2334      2338      2336
 -1       881    8    0    1
 -2       373       372       516      1901      2339      2340
 -1       882    8    0    1
 -2       372       515       516      2337      2341      2339
 -1       883    8    0    1
 -2       374       373       517      1904      2342      2343
 -1       884    8    0    1
 -2       373       516       517      2340      2344      2342
 -1       885    8    0    1
 -2       375       374       518      1907      2345      2346
 -1       886    8    0    1
 -2       374       517       518      2343      2347      2345
 -1       887    8    0    1
 -2       376       375       519      1910      2348      2349
 -1       888    8    0    1
 -2       375       518       519      2346      2350      2348
 -1       889    8    0    1
 -2       377       376       520      1913      2351      2352
 -1       890    8    0    1
 -2       376       519       520      2349      2353      2351
 -1       891    8    0    1
 -2       378       377       521      1916      2354      2355
 -1       892    8    0    1
 -2       377       520       521      2352      2356      2354
 -1       893    8    0    1
 -2       379       378       522      1919      2357      2358
 -1       894    8    0    1
 -2       378       521       522      2355      2359      2357
 -1       895    8    0    1
 -2       380       379       523      1922      2360      2361
 -1       896    8    0    1
 -2       379       522       523      2358      2362      2360
 -1       897    8    0    1
 -2       381       380       524      1925      2363      2364
 -1       898    8    0    1
 -2       380       523       524      2361      2365      2363
 -1       899    8    0    1
 -2       382       381       525      1928      2366      2367
 -1       900    8    0    1
 -2       381       524       525      2364      2368      2366
 -1       901    8    0    1
 -2       383       382       526      1931      2369      2370
 -1       902    8    0    1
 -2       382       525       526      2367      2371      2369
 -1       903    8    0    1
 -2       387       388       527      1947      2372      2373
 -1       904    8    0    1
 -2       388       389       528      1950      2374      2375
 -1       905    8    0    1
 -2       388       528       527      2375      2376      2372
 -1       906    8    0    1
 -2       389       390       529      1953      2377      2378
 -1       907    8    0    1
 -2       389       529       528      2378      2379      2374
 -1       908    8    0    1
 -2       390       391       530      1956      2380      2381
 -1       909    8    0    1
 -2       390       530       529      2381      2382      2377
 -1       910    8    0    1
 -2       391       392       531      1959      2383      2384
 -1       911    8    0    1
 -2       391       531       530      2384      2385      2380
 -1       912    8    0    1
 -2       392       393       532      1962      2386      2387
 -1       913    8    0    1
 -2       392       532       531      2387      2388      2383
 -1       914    8    0    1
 -2       393       394       533      1965      2389      2390
 -1       915    8    0    1
 -2       393       533       532      2390      2391      2386
 -1       916    8    0    1
 -2       394       395       534      1968      2392      2393
 -1       917    8    0    1
 -2       394       534       533      2393      2394      2389
 -1       918    8    0    1
 -2       395       396       535      1971      2395      2396
 -1       919    8    0    1
 -2       395       535       534      2396      2397      2392
 -1       920    8    0    1
 -2       396       397       536      1974      2398      2399
 -1       921    8    0    1
 -2       396       536       535      2399      2400      2395
 -1       922    8    0    1
 -2       397       398       537      1977      2401      2402
 -1       923    8    0    1
 -2       397       537       536      2402      2403      2398
 -1       924    8    0    1
 -2       398       399       538      1980      2404      2405
 -1       925    8    0    1
 -2       398       538       537      2405      2406      2401
 -1       926    8    0    1
 -2       399       400       539      1983      2407      2408
 -1       927    8    0    1
 -2       399       539       538      2408      2409      2404
 -1       928    8    0    1
 -2       400       401       540      1986      2410      2411
 -1       929    8    0    1
 -2       400       540       539      2411      2412      2407
 -1       930    8    0    1
 -2       401       402       541      1989      2413      2414
 -1       931    8    0    1
 -2       401       541       540      2414      2415      2410
 -1       932    8    0    1
 -2       402       403       542      1992      2416      2417
 -1       933    8    0    1
 -2       402       542       541      2417      2418      2413
 -1       934    8    0    1
 -2       403       404       543      1995      2419      2420
 -1       935    8    0    1
 -2       403       543       542      2420      2421      2416
 -1       936    8    0    1
 -2       404       405       544      1998      2422      2423
 -1       937    8    0    1
 -2       404       544       543      2423      2424      2419
 -1       938    8    0    1
 -2       405       406       545      2001      2425      2426
 -1       939    8    0    1
 -2       405       545       544      2426      2427      2422
 -1       940    8    0    1
 -2       406       407       546      2004      2428      2429
 -1       941    8    0    1
 -2       406       546       545      2429      2430      2425
 -1       942    8    0    1
 -2       407       408       547      2007      2431      2432
 -1       943    8    0    1
 -2       407       547       546      2432      2433      2428
 -1       944    8    0    1
 -2       408       409       548      2010      2434      2435
 -1       945    8    0    1
 -2       408       548       547      2435      2436      2431
 -1       946    8    0    1
 -2       409       410       549      2013      2437      2438
 -1       947    8    0    1
 -2       409       549       548      2438      2439      2434
 -1       948    8    0    1
 -2       410       411       550      2016      2440      2441
 -1       949    8    0    1
 -2       410       550       549      2441      2442      2437
 -1       950    8    0    1
 -2       411       412       551      2019      2443      2444
 -1       951    8    0    1
 -2       411       551       550      2444      2445      2440
 -1       952    8    0    1
 -2       413       260       261      2020      1561      2208
 -1       953    8    0    1
 -2       419       420       552      2040      2446      2447
 -1       954    8    0    1
 -2       419       552       481      2447      2448      2235
 -1       955    8    0    1
 -2       420       421       553      2043      2449      2450
 -1       956    8    0    1
 -2       420       553       552      2450      2451      2446
 -1       957    8    0    1
 -2       421       422       554      2046      2452      2453
 -1       958    8    0    1
 -2       421       554       553      2453      2454      2449
 -1       959    8    0    1
 -2       422       423       555      2049      2455      2456
 -1       960    8    0    1
 -2       422       555       554      2456      2457      2452
 -1       961    8    0    1
 -2       423       424       556      2052      2458      2459
 -1       962    8    0    1
 -2       423       556       555      2459      2460      2455
 -1       963    8    0    1
 -2       424       425       557      2055      2461      2462
 -1       964    8    0    1
 -2       424       557       556      2462      2463      2458
 -1       965    8    0    1
 -2       425       426       558      2058      2464      2465
 -1       966    8    0    1
 -2       425       558       557      2465      2466      2461
 -1       967    8    0    1
 -2       426       427       559      2061      2467      2468
 -1       968    8    0    1
 -2       426       559       558      2468      2469      2464
 -1       969    8    0    1
 -2       427       428       560      2064      2470      2471
 -1       970    8    0    1
 -2       427       560       559      2471      2472      2467
 -1       971    8    0    1
 -2       428       429       561      2067      2473      2474
 -1       972    8    0    1
 -2       560       428       561      2470      2474      2475
 -1       973    8    0    1
 -2       429       432       561      2076      2476      2473
 -1       974    8    0    1
 -2       433       434       562      2083      2477      2478
 -1       975    8    0    1
 -2       434       435       563      2086      2479      2480
 -1       976    8    0    1
 -2       434       563       562      2480      2481      2477
 -1       977    8    0    1
 -2       431       430       564      2073      2482      2483
 -1       978    8    0    1
 -2       430       433       565      2080      2484      2485
 -1       979    8    0    1
 -2       564       430       565      2482      2485      2486
 -1       980    8    0    1
 -2       433       562       565      2478      2487      2484
 -1       981    8    0    1
 -2       435       436       566      2089      2488      2489
 -1       982    8    0    1
 -2       435       566       563      2489      2490      2479
 -1       983    8    0    1
 -2       436       437       567      2092      2491      2492
 -1       984    8    0    1
 -2       436       567       566      2492      2493      2488
 -1       985    8    0    1
 -2       437       438       568      2095      2494      2495
 -1       986    8    0    1
 -2       437       568       567      2495      2496      2491
 -1       987    8    0    1
 -2       438       439       569      2098      2497      2498
 -1       988    8    0    1
 -2       438       569       568      2498      2499      2494
 -1       989    8    0    1
 -2       439       440       570      2101      2500      2501
 -1       990    8    0    1
 -2       439       570       569      2501      2502      2497
 -1       991    8    0    1
 -2       440       441       571      2104      2503      2504
 -1       992    8    0    1
 -2       440       571       570      2504      2505      2500
 -1       993    8    0    1
 -2       441       442       572      2107      2506      2507
 -1       994    8    0    1
 -2       441       572       571      2507      2508      2503
 -1       995    8    0    1
 -2       446       447       480      2188      2509      2510
 -1       996    8    0    1
 -2       386       387       573      1944      2511      2512
 -1       997    8    0    1
 -2       482       386       573      2238      2512      2513
 -1       998    8    0    1
 -2       387       527       573      2373      2514      2511
 -1       999    8    0    1
 -2       444       445       574      2114      2515      2516
 -1      1000    8    0    1
 -2       470       444       575      2189      2517      2518
 -1      1001    8    0    1
 -2       447       298       416      2118      2178      2519
 -1      1002    8    0    1
 -2       339       325       576      2181      2520      2521
 -1      1003    8    0    1
 -2       483       339       576      2241      2521      2522
 -1      1004    8    0    1
 -2       325       324       576      1756      2523      2520
 -1      1005    8    0    1
 -2       469       470       577      2190      2524      2525
 -1      1006    8    0    1
 -2       456       457       578      2200      2526      2527
 -1      1007    8    0    1
 -2       442       293       384      2187      1934      2528
 -1      1008    8    0    1
 -2       328       329       579      1767      2529      2530
 -1      1009    8    0    1
 -2       472       328       579      2211      2530      2531
 -1      1010    8    0    1
 -2       329       474       579      2217      2532      2529
 -1      1011    8    0    1
 -2       445       443       580      2186      2533      2534
 -1      1012    8    0    1
 -2       452       453       581      2205      2535      2536
 -1      1013    8    0    1
 -2       461       462       582      2206      2537      2538
 -1      1014    8    0    1
 -2       453       454       583      2203      2539      2540
 -1      1015    8    0    1
 -2       454       455       584      2202      2541      2542
 -1      1016    8    0    1
 -2       454       584       583      2542      2543      2539
 -1      1017    8    0    1
 -2       455       456       585      2201      2544      2545
 -1      1018    8    0    1
 -2       457       458       586      2151      2546      2547
 -1      1019    8    0    1
 -2       458       459       587      2199      2548      2549
 -1      1020    8    0    1
 -2       459       460       588      2156      2550      2551
 -1      1021    8    0    1
 -2       460       461       589      2198      2552      2553
 -1      1022    8    0    1
 -2       460       589       588      2553      2554      2550
 -1      1023    8    0    1
 -2       462       463       590      2197      2555      2556
 -1      1024    8    0    1
 -2       462       590       582      2556      2557      2537
 -1      1025    8    0    1
 -2       463       464       591      2196      2558      2559
 -1      1026    8    0    1
 -2       464       465       592      2195      2560      2561
 -1      1027    8    0    1
 -2       465       466       593      2194      2562      2563
 -1      1028    8    0    1
 -2       466       467       594      2193      2564      2565
 -1      1029    8    0    1
 -2       467       468       595      2192      2566      2567
 -1      1030    8    0    1
 -2       468       469       596      2191      2568      2569
 -1      1031    8    0    1
 -2       337       338       597      1796      2570      2571
 -1      1032    8    0    1
 -2       336       337       597      1791      2571      2572
 -1      1033    8    0    1
 -2       338       471       597      2210      2573      2570
 -1      1034    8    0    1
 -2       447       416       417      2519      2031      2574
 -1      1035    8    0    1
 -2       447       417       480      2574      2234      2509
 -1      1036    8    0    1
 -2       445       580       574      2534      2575      2515
 -1      1037    8    0    1
 -2       326       473       598      2214      2576      2577
 -1      1038    8    0    1
 -2       326       598       448      2577      2578      2123
 -1      1039    8    0    1
 -2       335       336       597      1788      2572      2579
 -1      1040    8    0    1
 -2       577       470       575      2524      2518      2580
 -1      1041    8    0    1
 -2       463       591       590      2559      2581      2555
 -1      1042    8    0    1
 -2       455       585       599      2545      2582      2583
 -1      1043    8    0    1
 -2       455       599       584      2583      2584      2541
 -1      1044    8    0    1
 -2       412       413       581      2022      2585      2586
 -1      1045    8    0    1
 -2       432       431       561      2077      2587      2476
 -1      1046    8    0    1
 -2       443       446       600      2117      2588      2589
 -1      1047    8    0    1
 -2       446       480       600      2510      2590      2588
 -1      1048    8    0    1
 -2       575       444       574      2517      2516      2591
 -1      1049    8    0    1
 -2       576       324       448      2523      2122      2592
 -1      1050    8    0    1
 -2       578       457       586      2526      2547      2593
 -1      1051    8    0    1
 -2       456       578       585      2527      2594      2544
 -1      1052    8    0    1
 -2       596       469       577      2568      2525      2595
 -1      1053    8    0    1
 -2       595       468       596      2566      2569      2596
 -1      1054    8    0    1
 -2       594       467       595      2564      2567      2597
 -1      1055    8    0    1
 -2       593       466       594      2562      2565      2598
 -1      1056    8    0    1
 -2       592       465       593      2560      2563      2599
 -1      1057    8    0    1
 -2       589       461       582      2552      2538      2600
 -1      1058    8    0    1
 -2       587       459       588      2548      2551      2601
 -1      1059    8    0    1
 -2       442       384       601      2528      2602      2603
 -1      1060    8    0    1
 -2       572       442       601      2506      2603      2604
 -1      1061    8    0    1
 -2       384       383       601      1935      2605      2602
 -1      1062    8    0    1
 -2       586       458       587      2546      2549      2606
 -1      1063    8    0    1
 -2       412       581       551      2586      2607      2443
 -1      1064    8    0    1
 -2       450       451       413      2136      2608      2207
 -1      1065    8    0    1
 -2       335       597       479      2579      2609      2230
 -1      1066    8    0    1
 -2       581       453       583      2535      2540      2610
 -1      1067    8    0    1
 -2       452       581       413      2536      2585      2611
 -1      1068    8    0    1
 -2       451       452       413      2204      2611      2608
 -1      1069    8    0    1
 -2       580       443       600      2533      2589      2612
 -1      1070    8    0    1
 -2       591       464       592      2558      2561      2613
 -1      1071    8    0    1
 -2       561       431       602      2587      2614      2615
 -1      1072    8    0    1
 -2       560       561       602      2475      2615      2616
 -1      1073    8    0    1
 -2       431       564       602      2483      2617      2614
 -1      1074    8    0    1
 -2       601       383       526      2605      2370      2618
 -1      1075    8    0    1
 -2       475       476       603      2223      2619      2620
 -1      1076    8    0    1
 -2       474       475       604      2220      2621      2622
 -1      1077    8    0    1
 -2       475       603       604      2620      2623      2621
 -1      1078    8    0    1
 -2       477       478       605      2229      2624      2625
 -1      1079    8    0    1
 -2       478       479       606      2232      2626      2627
 -1      1080    8    0    1
 -2       478       606       605      2627      2628      2624
 -1      1081    8    0    1
 -2       581       583       551      2610      2629      2607
 -1      1082    8    0    1
 -2       471       482       607      2240      2630      2631
 -1      1083    8    0    1
 -2       485       484       608      2248      2632      2633
 -1      1084    8    0    1
 -2       486       485       609      2251      2634      2635
 -1      1085    8    0    1
 -2       485       608       609      2633      2636      2634
 -1      1086    8    0    1
 -2       487       486       610      2254      2637      2638
 -1      1087    8    0    1
 -2       486       609       610      2635      2639      2637
 -1      1088    8    0    1
 -2       488       487       611      2257      2640      2641
 -1      1089    8    0    1
 -2       487       610       611      2638      2642      2640
 -1      1090    8    0    1
 -2       489       488       612      2260      2643      2644
 -1      1091    8    0    1
 -2       488       611       612      2641      2645      2643
 -1      1092    8    0    1
 -2       490       489       613      2263      2646      2647
 -1      1093    8    0    1
 -2       489       612       613      2644      2648      2646
 -1      1094    8    0    1
 -2       491       490       614      2266      2649      2650
 -1      1095    8    0    1
 -2       490       613       614      2647      2651      2649
 -1      1096    8    0    1
 -2       492       491       615      2269      2652      2653
 -1      1097    8    0    1
 -2       491       614       615      2650      2654      2652
 -1      1098    8    0    1
 -2       493       492       616      2272      2655      2656
 -1      1099    8    0    1
 -2       492       615       616      2653      2657      2655
 -1      1100    8    0    1
 -2       494       493       617      2275      2658      2659
 -1      1101    8    0    1
 -2       493       616       617      2656      2660      2658
 -1      1102    8    0    1
 -2       495       494       618      2278      2661      2662
 -1      1103    8    0    1
 -2       494       617       618      2659      2663      2661
 -1      1104    8    0    1
 -2       496       495       619      2281      2664      2665
 -1      1105    8    0    1
 -2       495       618       619      2662      2666      2664
 -1      1106    8    0    1
 -2       497       496       620      2284      2667      2668
 -1      1107    8    0    1
 -2       496       619       620      2665      2669      2667
 -1      1108    8    0    1
 -2       498       497       621      2287      2670      2671
 -1      1109    8    0    1
 -2       497       620       621      2668      2672      2670
 -1      1110    8    0    1
 -2       499       498       622      2290      2673      2674
 -1      1111    8    0    1
 -2       498       621       622      2671      2675      2673
 -1      1112    8    0    1
 -2       500       499       623      2293      2676      2677
 -1      1113    8    0    1
 -2       499       622       623      2674      2678      2676
 -1      1114    8    0    1
 -2       501       500       624      2296      2679      2680
 -1      1115    8    0    1
 -2       500       623       624      2677      2681      2679
 -1      1116    8    0    1
 -2       502       501       625      2299      2682      2683
 -1      1117    8    0    1
 -2       501       624       625      2680      2684      2682
 -1      1118    8    0    1
 -2       503       502       626      2302      2685      2686
 -1      1119    8    0    1
 -2       502       625       626      2683      2687      2685
 -1      1120    8    0    1
 -2       504       503       627      2305      2688      2689
 -1      1121    8    0    1
 -2       503       626       627      2686      2690      2688
 -1      1122    8    0    1
 -2       505       504       628      2308      2691      2692
 -1      1123    8    0    1
 -2       504       627       628      2689      2693      2691
 -1      1124    8    0    1
 -2       506       505       629      2311      2694      2695
 -1      1125    8    0    1
 -2       505       628       629      2692      2696      2694
 -1      1126    8    0    1
 -2       507       506       630      2314      2697      2698
 -1      1127    8    0    1
 -2       506       629       630      2695      2699      2697
 -1      1128    8    0    1
 -2       508       507       631      2317      2700      2701
 -1      1129    8    0    1
 -2       507       630       631      2698      2702      2700
 -1      1130    8    0    1
 -2       509       508       632      2320      2703      2704
 -1      1131    8    0    1
 -2       508       631       632      2701      2705      2703
 -1      1132    8    0    1
 -2       510       509       633      2323      2706      2707
 -1      1133    8    0    1
 -2       509       632       633      2704      2708      2706
 -1      1134    8    0    1
 -2       511       510       634      2326      2709      2710
 -1      1135    8    0    1
 -2       510       633       634      2707      2711      2709
 -1      1136    8    0    1
 -2       512       511       635      2329      2712      2713
 -1      1137    8    0    1
 -2       511       634       635      2710      2714      2712
 -1      1138    8    0    1
 -2       513       512       636      2332      2715      2716
 -1      1139    8    0    1
 -2       512       635       636      2713      2717      2715
 -1      1140    8    0    1
 -2       514       513       637      2335      2718      2719
 -1      1141    8    0    1
 -2       513       636       637      2716      2720      2718
 -1      1142    8    0    1
 -2       515       514       638      2338      2721      2722
 -1      1143    8    0    1
 -2       514       637       638      2719      2723      2721
 -1      1144    8    0    1
 -2       516       515       639      2341      2724      2725
 -1      1145    8    0    1
 -2       515       638       639      2722      2726      2724
 -1      1146    8    0    1
 -2       517       516       640      2344      2727      2728
 -1      1147    8    0    1
 -2       516       639       640      2725      2729      2727
 -1      1148    8    0    1
 -2       518       517       641      2347      2730      2731
 -1      1149    8    0    1
 -2       517       640       641      2728      2732      2730
 -1      1150    8    0    1
 -2       519       518       642      2350      2733      2734
 -1      1151    8    0    1
 -2       518       641       642      2731      2735      2733
 -1      1152    8    0    1
 -2       520       519       643      2353      2736      2737
 -1      1153    8    0    1
 -2       519       642       643      2734      2738      2736
 -1      1154    8    0    1
 -2       521       520       644      2356      2739      2740
 -1      1155    8    0    1
 -2       520       643       644      2737      2741      2739
 -1      1156    8    0    1
 -2       522       521       645      2359      2742      2743
 -1      1157    8    0    1
 -2       521       644       645      2740      2744      2742
 -1      1158    8    0    1
 -2       523       522       646      2362      2745      2746
 -1      1159    8    0    1
 -2       522       645       646      2743      2747      2745
 -1      1160    8    0    1
 -2       524       523       647      2365      2748      2749
 -1      1161    8    0    1
 -2       523       646       647      2746      2750      2748
 -1      1162    8    0    1
 -2       525       524       648      2368      2751      2752
 -1      1163    8    0    1
 -2       524       647       648      2749      2753      2751
 -1      1164    8    0    1
 -2       526       525       649      2371      2754      2755
 -1      1165    8    0    1
 -2       525       648       649      2752      2756      2754
 -1      1166    8    0    1
 -2       528       529       650      2379      2757      2758
 -1      1167    8    0    1
 -2       586       587       651      2606      2759      2760
 -1      1168    8    0    1
 -2       527       528       652      2376      2761      2762
 -1      1169    8    0    1
 -2       528       650       652      2758      2763      2761
 -1      1170    8    0    1
 -2       530       531       653      2385      2764      2765
 -1      1171    8    0    1
 -2       531       532       654      2388      2766      2767
 -1      1172    8    0    1
 -2       531       654       653      2767      2768      2764
 -1      1173    8    0    1
 -2       532       533       655      2391      2769      2770
 -1      1174    8    0    1
 -2       532       655       654      2770      2771      2766
 -1      1175    8    0    1
 -2       533       534       656      2394      2772      2773
 -1      1176    8    0    1
 -2       533       656       655      2773      2774      2769
 -1      1177    8    0    1
 -2       534       535       657      2397      2775      2776
 -1      1178    8    0    1
 -2       534       657       656      2776      2777      2772
 -1      1179    8    0    1
 -2       535       536       658      2400      2778      2779
 -1      1180    8    0    1
 -2       535       658       657      2779      2780      2775
 -1      1181    8    0    1
 -2       536       537       659      2403      2781      2782
 -1      1182    8    0    1
 -2       536       659       658      2782      2783      2778
 -1      1183    8    0    1
 -2       537       538       660      2406      2784      2785
 -1      1184    8    0    1
 -2       537       660       659      2785      2786      2781
 -1      1185    8    0    1
 -2       538       539       661      2409      2787      2788
 -1      1186    8    0    1
 -2       538       661       660      2788      2789      2784
 -1      1187    8    0    1
 -2       539       540       662      2412      2790      2791
 -1      1188    8    0    1
 -2       539       662       661      2791      2792      2787
 -1      1189    8    0    1
 -2       540       541       663      2415      2793      2794
 -1      1190    8    0    1
 -2       540       663       662      2794      2795      2790
 -1      1191    8    0    1
 -2       541       542       664      2418      2796      2797
 -1      1192    8    0    1
 -2       541       664       663      2797      2798      2793
 -1      1193    8    0    1
 -2       542       543       665      2421      2799      2800
 -1      1194    8    0    1
 -2       542       665       664      2800      2801      2796
 -1      1195    8    0    1
 -2       543       544       666      2424      2802      2803
 -1      1196    8    0    1
 -2       543       666       665      2803      2804      2799
 -1      1197    8    0    1
 -2       544       545       667      2427      2805      2806
 -1      1198    8    0    1
 -2       544       667       666      2806      2807      2802
 -1      1199    8    0    1
 -2       545       546       668      2430      2808      2809
 -1      1200    8    0    1
 -2       545       668       667      2809      2810      2805
 -1      1201    8    0    1
 -2       546       547       669      2433      2811      2812
 -1      1202    8    0    1
 -2       546       669       668      2812      2813      2808
 -1      1203    8    0    1
 -2       547       548       670      2436      2814      2815
 -1      1204    8    0    1
 -2       547       670       669      2815      2816      2811
 -1      1205    8    0    1
 -2       548       549       671      2439      2817      2818
 -1      1206    8    0    1
 -2       548       671       670      2818      2819      2814
 -1      1207    8    0    1
 -2       549       550       672      2442      2820      2821
 -1      1208    8    0    1
 -2       549       672       671      2821      2822      2817
 -1      1209    8    0    1
 -2       550       551       673      2445      2823      2824
 -1      1210    8    0    1
 -2       672       550       673      2820      2824      2825
 -1      1211    8    0    1
 -2       551       583       673      2629      2826      2823
 -1      1212    8    0    1
 -2       553       554       674      2454      2827      2828
 -1      1213    8    0    1
 -2       554       555       675      2457      2829      2830
 -1      1214    8    0    1
 -2       554       675       674      2830      2831      2827
 -1      1215    8    0    1
 -2       555       556       676      2460      2832      2833
 -1      1216    8    0    1
 -2       555       676       675      2833      2834      2829
 -1      1217    8    0    1
 -2       556       557       677      2463      2835      2836
 -1      1218    8    0    1
 -2       556       677       676      2836      2837      2832
 -1      1219    8    0    1
 -2       557       558       678      2466      2838      2839
 -1      1220    8    0    1
 -2       557       678       677      2839      2840      2835
 -1      1221    8    0    1
 -2       558       559       679      2469      2841      2842
 -1      1222    8    0    1
 -2       558       679       678      2842      2843      2838
 -1      1223    8    0    1
 -2       559       560       680      2472      2844      2845
 -1      1224    8    0    1
 -2       679       559       680      2841      2845      2846
 -1      1225    8    0    1
 -2       560       602       680      2616      2847      2844
 -1      1226    8    0    1
 -2       601       526       681      2618      2848      2849
 -1      1227    8    0    1
 -2       526       649       681      2755      2850      2848
 -1      1228    8    0    1
 -2       591       592       682      2613      2851      2852
 -1      1229    8    0    1
 -2       566       567       683      2493      2853      2854
 -1      1230    8    0    1
 -2       562       563       684      2481      2855      2856
 -1      1231    8    0    1
 -2       567       568       685      2496      2857      2858
 -1      1232    8    0    1
 -2       567       685       683      2858      2859      2853
 -1      1233    8    0    1
 -2       563       566       686      2490      2860      2861
 -1      1234    8    0    1
 -2       684       563       686      2855      2861      2862
 -1      1235    8    0    1
 -2       566       683       686      2854      2863      2860
 -1      1236    8    0    1
 -2       575       574       687      2591      2864      2865
 -1      1237    8    0    1
 -2       568       569       688      2499      2866      2867
 -1      1238    8    0    1
 -2       568       688       685      2867      2868      2857
 -1      1239    8    0    1
 -2       569       570       689      2502      2869      2870
 -1      1240    8    0    1
 -2       569       689       688      2870      2871      2866
 -1      1241    8    0    1
 -2       570       571       690      2505      2872      2873
 -1      1242    8    0    1
 -2       570       690       689      2873      2874      2869
 -1      1243    8    0    1
 -2       574       580       691      2575      2875      2876
 -1      1244    8    0    1
 -2       590       591       692      2581      2877      2878
 -1      1245    8    0    1
 -2       597       471       479      2573      2879      2609
 -1      1246    8    0    1
 -2       582       590       693      2557      2880      2881
 -1      1247    8    0    1
 -2       529       530       694      2382      2882      2883
 -1      1248    8    0    1
 -2       529       694       650      2883      2884      2757
 -1      1249    8    0    1
 -2       484       483       695      2245      2885      2886
 -1      1250    8    0    1
 -2       484       695       608      2886      2887      2632
 -1      1251    8    0    1
 -2       595       596       696      2596      2888      2889
 -1      1252    8    0    1
 -2       578       586       697      2593      2890      2891
 -1      1253    8    0    1
 -2       476       477       698      2226      2892      2893
 -1      1254    8    0    1
 -2       603       476       698      2619      2893      2894
 -1      1255    8    0    1
 -2       477       605       698      2625      2895      2892
 -1      1256    8    0    1
 -2       473       472       699      2215      2896      2897
 -1      1257    8    0    1
 -2       587       588       700      2601      2898      2899
 -1      1258    8    0    1
 -2       576       448       598      2592      2578      2900
 -1      1259    8    0    1
 -2       552       553       701      2451      2901      2902
 -1      1260    8    0    1
 -2       553       674       701      2828      2903      2901
 -1      1261    8    0    1
 -2       583       584       673      2543      2904      2826
 -1      1262    8    0    1
 -2       596       577       702      2595      2905      2906
 -1      1263    8    0    1
 -2       585       578       703      2594      2907      2908
 -1      1264    8    0    1
 -2       578       697       703      2891      2909      2907
 -1      1265    8    0    1
 -2       572       601       681      2604      2849      2910
 -1      1266    8    0    1
 -2       588       589       704      2554      2911      2912
 -1      1267    8    0    1
 -2       481       552       691      2448      2913      2914
 -1      1268    8    0    1
 -2       589       582       705      2600      2915      2916
 -1      1269    8    0    1
 -2       589       705       704      2916      2917      2911
 -1      1270    8    0    1
 -2       592       593       706      2599      2918      2919
 -1      1271    8    0    1
 -2       593       594       707      2598      2920      2921
 -1      1272    8    0    1
 -2       594       595       708      2597      2922      2923
 -1      1273    8    0    1
 -2       577       575       709      2580      2924      2925
 -1      1274    8    0    1
 -2       702       577       709      2905      2925      2926
 -1      1275    8    0    1
 -2       575       687       709      2865      2927      2924
 -1      1276    8    0    1
 -2       598       473       710      2576      2928      2929
 -1      1277    8    0    1
 -2       473       699       710      2897      2930      2928
 -1      1278    8    0    1
 -2       474       604       711      2622      2931      2932
 -1      1279    8    0    1
 -2       474       711       579      2932      2933      2532
 -1      1280    8    0    1
 -2       673       584       599      2904      2584      2934
 -1      1281    8    0    1
 -2       595       696       708      2889      2935      2922
 -1      1282    8    0    1
 -2       607       482       712      2630      2936      2937
 -1      1283    8    0    1
 -2       482       573       712      2513      2938      2936
 -1      1284    8    0    1
 -2       530       653       694      2765      2939      2882
 -1      1285    8    0    1
 -2       480       481       600      2237      2940      2590
 -1      1286    8    0    1
 -2       552       701       691      2902      2941      2913
 -1      1287    8    0    1
 -2       472       579       713      2531      2942      2943
 -1      1288    8    0    1
 -2       699       472       713      2896      2943      2944
 -1      1289    8    0    1
 -2       579       711       713      2933      2945      2942
 -1      1290    8    0    1
 -2       591       682       692      2852      2946      2877
 -1      1291    8    0    1
 -2       586       651       714      2760      2947      2948
 -1      1292    8    0    1
 -2       586       714       697      2948      2949      2890
 -1      1293    8    0    1
 -2       599       585       715      2582      2950      2951
 -1      1294    8    0    1
 -2       585       703       715      2908      2952      2950
 -1      1295    8    0    1
 -2       580       600       481      2612      2940      2953
 -1      1296    8    0    1
 -2       606       479       607      2626      2954      2955
 -1      1297    8    0    1
 -2       565       562       716      2487      2956      2957
 -1      1298    8    0    1
 -2       562       684       716      2856      2958      2956
 -1      1299    8    0    1
 -2       682       592       706      2851      2919      2959
 -1      1300    8    0    1
 -2       564       565       717      2486      2960      2961
 -1      1301    8    0    1
 -2       565       716       717      2957      2962      2960
 -1      1302    8    0    1
 -2       573       527       718      2514      2963      2964
 -1      1303    8    0    1
 -2       712       573       718      2938      2964      2965
 -1      1304    8    0    1
 -2       527       652       718      2762      2966      2963
 -1      1305    8    0    1
 -2       574       691       687      2876      2967      2864
 -1      1306    8    0    1
 -2       571       572       681      2508      2910      2968
 -1      1307    8    0    1
 -2       705       582       693      2915      2881      2969
 -1      1308    8    0    1
 -2       590       692       693      2878      2970      2880
 -1      1309    8    0    1
 -2       479       471       607      2879      2631      2954
 -1      1310    8    0    1
 -2       707       594       708      2920      2923      2971
 -1      1311    8    0    1
 -2       700       588       704      2898      2912      2972
 -1      1312    8    0    1
 -2       571       681       719      2968      2973      2974
 -1      1313    8    0    1
 -2       690       571       719      2872      2974      2975
 -1      1314    8    0    1
 -2       681       649       719      2850      2976      2973
 -1      1315    8    0    1
 -2       587       700       651      2899      2977      2759
 -1      1316    8    0    1
 -2       576       598       720      2900      2978      2979
 -1      1317    8    0    1
 -2       483       576       720      2522      2979      2980
 -1      1318    8    0    1
 -2       598       710       720      2929      2981      2978
 -1      1319    8    0    1
 -2       483       720       695      2980      2982      2885
 -1      1320    8    0    1
 -2       580       481       691      2953      2914      2875
 -1      1321    8    0    1
 -2       602       564       680      2617      2983      2847
 -1      1322    8    0    1
 -2       706       593       707      2918      2921      2984
 -1      1323    8    0    1
 -2       680       564       717      2983      2961      2985
 -1      1324    8    0    1
 -2       605       606       721      2628      2986      2987
 -1      1325    8    0    1
 -2       692       682       722      2946      2988      2989
 -1      1326    8    0    1
 -2       610       609       723      2639      2990      2991
 -1      1327    8    0    1
 -2       611       610       724      2642      2992      2993
 -1      1328    8    0    1
 -2       610       723       724      2991      2994      2992
 -1      1329    8    0    1
 -2       612       611       725      2645      2995      2996
 -1      1330    8    0    1
 -2       611       724       725      2993      2997      2995
 -1      1331    8    0    1
 -2       613       612       726      2648      2998      2999
 -1      1332    8    0    1
 -2       612       725       726      2996      3000      2998
 -1      1333    8    0    1
 -2       614       613       727      2651      3001      3002
 -1      1334    8    0    1
 -2       613       726       727      2999      3003      3001
 -1      1335    8    0    1
 -2       615       614       728      2654      3004      3005
 -1      1336    8    0    1
 -2       614       727       728      3002      3006      3004
 -1      1337    8    0    1
 -2       616       615       729      2657      3007      3008
 -1      1338    8    0    1
 -2       615       728       729      3005      3009      3007
 -1      1339    8    0    1
 -2       617       616       730      2660      3010      3011
 -1      1340    8    0    1
 -2       616       729       730      3008      3012      3010
 -1      1341    8    0    1
 -2       618       617       731      2663      3013      3014
 -1      1342    8    0    1
 -2       617       730       731      3011      3015      3013
 -1      1343    8    0    1
 -2       619       618       732      2666      3016      3017
 -1      1344    8    0    1
 -2       618       731       732      3014      3018      3016
 -1      1345    8    0    1
 -2       620       619       733      2669      3019      3020
 -1      1346    8    0    1
 -2       619       732       733      3017      3021      3019
 -1      1347    8    0    1
 -2       621       620       734      2672      3022      3023
 -1      1348    8    0    1
 -2       620       733       734      3020      3024      3022
 -1      1349    8    0    1
 -2       622       621       735      2675      3025      3026
 -1      1350    8    0    1
 -2       621       734       735      3023      3027      3025
 -1      1351    8    0    1
 -2       623       622       736      2678      3028      3029
 -1      1352    8    0    1
 -2       622       735       736      3026      3030      3028
 -1      1353    8    0    1
 -2       624       623       737      2681      3031      3032
 -1      1354    8    0    1
 -2       623       736       737      3029      3033      3031
 -1      1355    8    0    1
 -2       625       624       738      2684      3034      3035
 -1      1356    8    0    1
 -2       624       737       738      3032      3036      3034
 -1      1357    8    0    1
 -2       626       625       739      2687      3037      3038
 -1      1358    8    0    1
 -2       625       738       739      3035      3039      3037
 -1      1359    8    0    1
 -2       627       626       740      2690      3040      3041
 -1      1360    8    0    1
 -2       626       739       740      3038      3042      3040
 -1      1361    8    0    1
 -2       628       627       741      2693      3043      3044
 -1      1362    8    0    1
 -2       627       740       741      3041      3045      3043
 -1      1363    8    0    1
 -2       629       628       742      2696      3046      3047
 -1      1364    8    0    1
 -2       628       741       742      3044      3048      3046
 -1      1365    8    0    1
 -2       630       629       743      2699      3049      3050
 -1      1366    8    0    1
 -2       629       742       743      3047      3051      3049
 -1      1367    8    0    1
 -2       631       630       744      2702      3052      3053
 -1      1368    8    0    1
 -2       630       743       744      3050      3054      3052
 -1      1369    8    0    1
 -2       632       631       745      2705      3055      3056
 -1      1370    8    0    1
 -2       631       744       745      3053      3057      3055
 -1      1371    8    0    1
 -2       633       632       746      2708      3058      3059
 -1      1372    8    0    1
 -2       632       745       746      3056      3060      3058
 -1      1373    8    0    1
 -2       634       633       747      2711      3061      3062
 -1      1374    8    0    1
 -2       633       746       747      3059      3063      3061
 -1      1375    8    0    1
 -2       635       634       748      2714      3064      3065
 -1      1376    8    0    1
 -2       634       747       748      3062      3066      3064
 -1      1377    8    0    1
 -2       636       635       749      2717      3067      3068
 -1      1378    8    0    1
 -2       635       748       749      3065      3069      3067
 -1      1379    8    0    1
 -2       637       636       750      2720      3070      3071
 -1      1380    8    0    1
 -2       636       749       750      3068      3072      3070
 -1      1381    8    0    1
 -2       638       637       751      2723      3073      3074
 -1      1382    8    0    1
 -2       637       750       751      3071      3075      3073
 -1      1383    8    0    1
 -2       639       638       752      2726      3076      3077
 -1      1384    8    0    1
 -2       638       751       752      3074      3078      3076
 -1      1385    8    0    1
 -2       640       639       753      2729      3079      3080
 -1      1386    8    0    1
 -2       639       752       753      3077      3081      3079
 -1      1387    8    0    1
 -2       641       640       754      2732      3082      3083
 -1      1388    8    0    1
 -2       640       753       754      3080      3084      3082
 -1      1389    8    0    1
 -2       642       641       755      2735      3085      3086
 -1      1390    8    0    1
 -2       641       754       755      3083      3087      3085
 -1      1391    8    0    1
 -2       643       642       756      2738      3088      3089
 -1      1392    8    0    1
 -2       642       755       756      3086      3090      3088
 -1      1393    8    0    1
 -2       644       643       757      2741      3091      3092
 -1      1394    8    0    1
 -2       643       756       757      3089      3093      3091
 -1      1395    8    0    1
 -2       645       644       758      2744      3094      3095
 -1      1396    8    0    1
 -2       644       757       758      3092      3096      3094
 -1      1397    8    0    1
 -2       646       645       759      2747      3097      3098
 -1      1398    8    0    1
 -2       645       758       759      3095      3099      3097
 -1      1399    8    0    1
 -2       647       646       760      2750      3100      3101
 -1      1400    8    0    1
 -2       646       759       760      3098      3102      3100
 -1      1401    8    0    1
 -2       648       647       761      2753      3103      3104
 -1      1402    8    0    1
 -2       647       760       761      3101      3105      3103
 -1      1403    8    0    1
 -2       649       648       762      2756      3106      3107
 -1      1404    8    0    1
 -2       719       649       762      2976      3107      3108
 -1      1405    8    0    1
 -2       648       761       762      3104      3109      3106
 -1      1406    8    0    1
 -2       608       695       763      2887      3110      3111
 -1      1407    8    0    1
 -2       687       691       764      2967      3112      3113
 -1      1408    8    0    1
 -2       691       701       764      2941      3114      3112
 -1      1409    8    0    1
 -2       654       655       765      2771      3115      3116
 -1      1410    8    0    1
 -2       653       654       766      2768      3117      3118
 -1      1411    8    0    1
 -2       654       765       766      3116      3119      3117
 -1      1412    8    0    1
 -2       656       657       767      2777      3120      3121
 -1      1413    8    0    1
 -2       657       658       768      2780      3122      3123
 -1      1414    8    0    1
 -2       657       768       767      3123      3124      3120
 -1      1415    8    0    1
 -2       658       659       769      2783      3125      3126
 -1      1416    8    0    1
 -2       658       769       768      3126      3127      3122
 -1      1417    8    0    1
 -2       659       660       770      2786      3128      3129
 -1      1418    8    0    1
 -2       659       770       769      3129      3130      3125
 -1      1419    8    0    1
 -2       660       661       771      2789      3131      3132
 -1      1420    8    0    1
 -2       660       771       770      3132      3133      3128
 -1      1421    8    0    1
 -2       661       662       772      2792      3134      3135
 -1      1422    8    0    1
 -2       661       772       771      3135      3136      3131
 -1      1423    8    0    1
 -2       662       663       773      2795      3137      3138
 -1      1424    8    0    1
 -2       662       773       772      3138      3139      3134
 -1      1425    8    0    1
 -2       663       664       774      2798      3140      3141
 -1      1426    8    0    1
 -2       663       774       773      3141      3142      3137
 -1      1427    8    0    1
 -2       664       665       775      2801      3143      3144
 -1      1428    8    0    1
 -2       664       775       774      3144      3145      3140
 -1      1429    8    0    1
 -2       665       666       776      2804      3146      3147
 -1      1430    8    0    1
 -2       665       776       775      3147      3148      3143
 -1      1431    8    0    1
 -2       666       667       777      2807      3149      3150
 -1      1432    8    0    1
 -2       666       777       776      3150      3151      3146
 -1      1433    8    0    1
 -2       667       668       778      2810      3152      3153
 -1      1434    8    0    1
 -2       667       778       777      3153      3154      3149
 -1      1435    8    0    1
 -2       668       669       779      2813      3155      3156
 -1      1436    8    0    1
 -2       668       779       778      3156      3157      3152
 -1      1437    8    0    1
 -2       669       670       780      2816      3158      3159
 -1      1438    8    0    1
 -2       669       780       779      3159      3160      3155
 -1      1439    8    0    1
 -2       670       671       781      2819      3161      3162
 -1      1440    8    0    1
 -2       670       781       780      3162      3163      3158
 -1      1441    8    0    1
 -2       671       672       782      2822      3164      3165
 -1      1442    8    0    1
 -2       671       782       781      3165      3166      3161
 -1      1443    8    0    1
 -2       672       673       599      2825      2934      3167
 -1      1444    8    0    1
 -2       675       676       783      2834      3168      3169
 -1      1445    8    0    1
 -2       596       702       696      2906      3170      2888
 -1      1446    8    0    1
 -2       676       677       784      2837      3171      3172
 -1      1447    8    0    1
 -2       676       784       783      3172      3173      3168
 -1      1448    8    0    1
 -2       707       708       785      2971      3174      3175
 -1      1449    8    0    1
 -2       655       656       786      2774      3176      3177
 -1      1450    8    0    1
 -2       656       767       786      3121      3178      3176
 -1      1451    8    0    1
 -2       674       675       787      2831      3179      3180
 -1      1452    8    0    1
 -2       675       783       787      3169      3181      3179
 -1      1453    8    0    1
 -2       677       678       788      2840      3182      3183
 -1      1454    8    0    1
 -2       677       788       784      3183      3184      3171
 -1      1455    8    0    1
 -2       678       679       789      2843      3185      3186
 -1      1456    8    0    1
 -2       678       789       788      3186      3187      3182
 -1      1457    8    0    1
 -2       679       680       790      2846      3188      3189
 -1      1458    8    0    1
 -2       789       679       790      3185      3189      3190
 -1      1459    8    0    1
 -2       680       717       790      2985      3191      3188
 -1      1460    8    0    1
 -2       651       700       791      2977      3192      3193
 -1      1461    8    0    1
 -2       706       707       792      2984      3194      3195
 -1      1462    8    0    1
 -2       604       603       793      2623      3196      3197
 -1      1463    8    0    1
 -2       695       720       794      2982      3198      3199
 -1      1464    8    0    1
 -2       720       710       794      2981      3200      3198
 -1      1465    8    0    1
 -2       682       706       795      2959      3201      3202
 -1      1466    8    0    1
 -2       683       685       796      2859      3203      3204
 -1      1467    8    0    1
 -2       689       690       797      2874      3205      3206
 -1      1468    8    0    1
 -2       685       688       798      2868      3207      3208
 -1      1469    8    0    1
 -2       685       798       796      3208      3209      3203
 -1      1470    8    0    1
 -2       694       653       799      2939      3210      3211
 -1      1471    8    0    1
 -2       653       766       799      3118      3212      3210
 -1      1472    8    0    1
 -2       650       694       800      2884      3213      3214
 -1      1473    8    0    1
 -2       694       799       800      3211      3215      3213
 -1      1474    8    0    1
 -2       606       607       801      2955      3216      3217
 -1      1475    8    0    1
 -2       721       606       801      2986      3217      3218
 -1      1476    8    0    1
 -2       607       712       801      2937      3219      3216
 -1      1477    8    0    1
 -2       688       689       802      2871      3220      3221
 -1      1478    8    0    1
 -2       798       688       802      3207      3221      3222
 -1      1479    8    0    1
 -2       689       797       802      3206      3223      3220
 -1      1480    8    0    1
 -2       705       693       803      2969      3224      3225
 -1      1481    8    0    1
 -2       652       650       804      2763      3226      3227
 -1      1482    8    0    1
 -2       650       800       804      3214      3228      3226
 -1      1483    8    0    1
 -2       609       608       805      2636      3229      3230
 -1      1484    8    0    1
 -2       609       805       723      3230      3231      2990
 -1      1485    8    0    1
 -2       701       674       764      2903      3232      3114
 -1      1486    8    0    1
 -2       703       697       806      2909      3233      3234
 -1      1487    8    0    1
 -2       693       692       807      2970      3235      3236
 -1      1488    8    0    1
 -2       704       705       808      2917      3237      3238
 -1      1489    8    0    1
 -2       708       696       809      2935      3239      3240
 -1      1490    8    0    1
 -2       700       704       810      2972      3241      3242
 -1      1491    8    0    1
 -2       672       599       715      3167      2951      3243
 -1      1492    8    0    1
 -2       696       702       811      3170      3244      3245
 -1      1493    8    0    1
 -2       711       604       812      2931      3246      3247
 -1      1494    8    0    1
 -2       604       793       812      3197      3248      3246
 -1      1495    8    0    1
 -2       692       722       807      2989      3249      3235
 -1      1496    8    0    1
 -2       608       763       805      3111      3250      3229
 -1      1497    8    0    1
 -2       714       651       791      2947      3193      3251
 -1      1498    8    0    1
 -2       703       806       715      3234      3252      2952
 -1      1499    8    0    1
 -2       687       764       813      3113      3253      3254
 -1      1500    8    0    1
 -2       687       813       709      3254      3255      2927
 -1      1501    8    0    1
 -2       765       655       786      3115      3177      3256
 -1      1502    8    0    1
 -2       811       702       814      3244      3257      3258
 -1      1503    8    0    1
 -2       782       672       715      3164      3243      3259
 -1      1504    8    0    1
 -2       707       785       815      3175      3260      3261
 -1      1505    8    0    1
 -2       707       815       792      3261      3262      3194
 -1      1506    8    0    1
 -2       785       708       809      3174      3240      3263
 -1      1507    8    0    1
 -2       716       684       816      2958      3264      3265
 -1      1508    8    0    1
 -2       791       700       810      3192      3242      3266
 -1      1509    8    0    1
 -2       790       717       716      3191      2962      3267
 -1      1510    8    0    1
 -2       706       792       795      3195      3268      3201
 -1      1511    8    0    1
 -2       684       686       817      2862      3269      3270
 -1      1512    8    0    1
 -2       684       817       816      3270      3271      3264
 -1      1513    8    0    1
 -2       695       794       763      3199      3272      3110
 -1      1514    8    0    1
 -2       705       803       808      3225      3273      3237
 -1      1515    8    0    1
 -2       686       683       818      2863      3274      3275
 -1      1516    8    0    1
 -2       817       686       818      3269      3275      3276
 -1      1517    8    0    1
 -2       683       796       818      3204      3277      3274
 -1      1518    8    0    1
 -2       718       652       819      2966      3278      3279
 -1      1519    8    0    1
 -2       652       804       819      3227      3280      3278
 -1      1520    8    0    1
 -2       674       787       764      3180      3281      3232
 -1      1521    8    0    1
 -2       809       696       811      3239      3245      3282
 -1      1522    8    0    1
 -2       698       605       820      2895      3283      3284
 -1      1523    8    0    1
 -2       605       721       820      2987      3285      3283
 -1      1524    8    0    1
 -2       697       714       821      2949      3286      3287
 -1      1525    8    0    1
 -2       697       821       806      3287      3288      3233
 -1      1526    8    0    1
 -2       603       698       822      2894      3289      3290
 -1      1527    8    0    1
 -2       793       603       822      3196      3290      3291
 -1      1528    8    0    1
 -2       698       820       822      3284      3292      3289
 -1      1529    8    0    1
 -2       803       693       823      3224      3293      3294
 -1      1530    8    0    1
 -2       693       807       823      3236      3295      3293
 -1      1531    8    0    1
 -2       682       795       722      3202      3296      2988
 -1      1532    8    0    1
 -2       710       699       824      2930      3297      3298
 -1      1533    8    0    1
 -2       710       824       794      3298      3299      3200
 -1      1534    8    0    1
 -2       699       713       825      2944      3300      3301
 -1      1535    8    0    1
 -2       699       825       824      3301      3302      3297
 -1      1536    8    0    1
 -2       810       704       808      3241      3238      3303
 -1      1537    8    0    1
 -2       690       719       826      2975      3304      3305
 -1      1538    8    0    1
 -2       797       690       826      3205      3305      3306
 -1      1539    8    0    1
 -2       719       762       826      3108      3307      3304
 -1      1540    8    0    1
 -2       702       709       814      2926      3308      3257
 -1      1541    8    0    1
 -2       713       711       827      2945      3309      3310
 -1      1542    8    0    1
 -2       825       713       827      3300      3310      3311
 -1      1543    8    0    1
 -2       711       812       827      3247      3312      3309
 -1      1544    8    0    1
 -2       814       709       813      3308      3255      3313
 -1      1545    8    0    1
 -2       725       724       828      2997      3314      3315
 -1      1546    8    0    1
 -2       726       725       829      3000      3316      3317
 -1      1547    8    0    1
 -2       725       828       829      3315      3318      3316
 -1      1548    8    0    1
 -2       727       726       830      3003      3319      3320
 -1      1549    8    0    1
 -2       726       829       830      3317      3321      3319
 -1      1550    8    0    1
 -2       728       727       831      3006      3322      3323
 -1      1551    8    0    1
 -2       727       830       831      3320      3324      3322
 -1      1552    8    0    1
 -2       729       728       832      3009      3325      3326
 -1      1553    8    0    1
 -2       728       831       832      3323      3327      3325
 -1      1554    8    0    1
 -2       730       729       833      3012      3328      3329
 -1      1555    8    0    1
 -2       729       832       833      3326      3330      3328
 -1      1556    8    0    1
 -2       731       730       834      3015      3331      3332
 -1      1557    8    0    1
 -2       730       833       834      3329      3333      3331
 -1      1558    8    0    1
 -2       732       731       835      3018      3334      3335
 -1      1559    8    0    1
 -2       731       834       835      3332      3336      3334
 -1      1560    8    0    1
 -2       733       732       836      3021      3337      3338
 -1      1561    8    0    1
 -2       732       835       836      3335      3339      3337
 -1      1562    8    0    1
 -2       734       733       837      3024      3340      3341
 -1      1563    8    0    1
 -2       733       836       837      3338      3342      3340
 -1      1564    8    0    1
 -2       735       734       838      3027      3343      3344
 -1      1565    8    0    1
 -2       734       837       838      3341      3345      3343
 -1      1566    8    0    1
 -2       736       735       839      3030      3346      3347
 -1      1567    8    0    1
 -2       735       838       839      3344      3348      3346
 -1      1568    8    0    1
 -2       737       736       840      3033      3349      3350
 -1      1569    8    0    1
 -2       736       839       840      3347      3351      3349
 -1      1570    8    0    1
 -2       738       737       841      3036      3352      3353
 -1      1571    8    0    1
 -2       737       840       841      3350      3354      3352
 -1      1572    8    0    1
 -2       739       738       842      3039      3355      3356
 -1      1573    8    0    1
 -2       738       841       842      3353      3357      3355
 -1      1574    8    0    1
 -2       740       739       843      3042      3358      3359
 -1      1575    8    0    1
 -2       739       842       843      3356      3360      3358
 -1      1576    8    0    1
 -2       741       740       844      3045      3361      3362
 -1      1577    8    0    1
 -2       740       843       844      3359      3363      3361
 -1      1578    8    0    1
 -2       742       741       845      3048      3364      3365
 -1      1579    8    0    1
 -2       741       844       845      3362      3366      3364
 -1      1580    8    0    1
 -2       743       742       846      3051      3367      3368
 -1      1581    8    0    1
 -2       742       845       846      3365      3369      3367
 -1      1582    8    0    1
 -2       744       743       847      3054      3370      3371
 -1      1583    8    0    1
 -2       743       846       847      3368      3372      3370
 -1      1584    8    0    1
 -2       745       744       848      3057      3373      3374
 -1      1585    8    0    1
 -2       744       847       848      3371      3375      3373
 -1      1586    8    0    1
 -2       746       745       849      3060      3376      3377
 -1      1587    8    0    1
 -2       745       848       849      3374      3378      3376
 -1      1588    8    0    1
 -2       747       746       850      3063      3379      3380
 -1      1589    8    0    1
 -2       746       849       850      3377      3381      3379
 -1      1590    8    0    1
 -2       748       747       851      3066      3382      3383
 -1      1591    8    0    1
 -2       747       850       851      3380      3384      3382
 -1      1592    8    0    1
 -2       749       748       852      3069      3385      3386
 -1      1593    8    0    1
 -2       748       851       852      3383      3387      3385
 -1      1594    8    0    1
 -2       750       749       853      3072      3388      3389
 -1      1595    8    0    1
 -2       749       852       853      3386      3390      3388
 -1      1596    8    0    1
 -2       751       750       854      3075      3391      3392
 -1      1597    8    0    1
 -2       750       853       854      3389      3393      3391
 -1      1598    8    0    1
 -2       752       751       855      3078      3394      3395
 -1      1599    8    0    1
 -2       751       854       855      3392      3396      3394
 -1      1600    8    0    1
 -2       753       752       856      3081      3397      3398
 -1      1601    8    0    1
 -2       752       855       856      3395      3399      3397
 -1      1602    8    0    1
 -2       754       753       857      3084      3400      3401
 -1      1603    8    0    1
 -2       753       856       857      3398      3402      3400
 -1      1604    8    0    1
 -2       755       754       858      3087      3403      3404
 -1      1605    8    0    1
 -2       754       857       858      3401      3405      3403
 -1      1606    8    0    1
 -2       756       755       859      3090      3406      3407
 -1      1607    8    0    1
 -2       755       858       859      3404      3408      3406
 -1      1608    8    0    1
 -2       757       756       860      3093      3409      3410
 -1      1609    8    0    1
 -2       756       859       860      3407      3411      3409
 -1      1610    8    0    1
 -2       758       757       861      3096      3412      3413
 -1      1611    8    0    1
 -2       757       860       861      3410      3414      3412
 -1      1612    8    0    1
 -2       759       758       862      3099      3415      3416
 -1      1613    8    0    1
 -2       758       861       862      3413      3417      3415
 -1      1614    8    0    1
 -2       760       759       863      3102      3418      3419
 -1      1615    8    0    1
 -2       759       862       863      3416      3420      3418
 -1      1616    8    0    1
 -2       761       760       864      3105      3421      3422
 -1      1617    8    0    1
 -2       760       863       864      3419      3423      3421
 -1      1618    8    0    1
 -2       813       764       865      3253      3424      3425
 -1      1619    8    0    1
 -2       764       787       865      3281      3426      3424
 -1      1620    8    0    1
 -2       723       805       866      3231      3427      3428
 -1      1621    8    0    1
 -2       768       769       867      3127      3429      3430
 -1      1622    8    0    1
 -2       767       768       868      3124      3431      3432
 -1      1623    8    0    1
 -2       768       867       868      3430      3433      3431
 -1      1624    8    0    1
 -2       770       771       869      3133      3434      3435
 -1      1625    8    0    1
 -2       771       772       870      3136      3436      3437
 -1      1626    8    0    1
 -2       771       870       869      3437      3438      3434
 -1      1627    8    0    1
 -2       772       773       871      3139      3439      3440
 -1      1628    8    0    1
 -2       772       871       870      3440      3441      3436
 -1      1629    8    0    1
 -2       773       774       872      3142      3442      3443
 -1      1630    8    0    1
 -2       773       872       871      3443      3444      3439
 -1      1631    8    0    1
 -2       774       775       873      3145      3445      3446
 -1      1632    8    0    1
 -2       774       873       872      3446      3447      3442
 -1      1633    8    0    1
 -2       775       776       874      3148      3448      3449
 -1      1634    8    0    1
 -2       775       874       873      3449      3450      3445
 -1      1635    8    0    1
 -2       776       777       875      3151      3451      3452
 -1      1636    8    0    1
 -2       776       875       874      3452      3453      3448
 -1      1637    8    0    1
 -2       777       778       876      3154      3454      3455
 -1      1638    8    0    1
 -2       777       876       875      3455      3456      3451
 -1      1639    8    0    1
 -2       778       779       877      3157      3457      3458
 -1      1640    8    0    1
 -2       778       877       876      3458      3459      3454
 -1      1641    8    0    1
 -2       779       780       878      3160      3460      3461
 -1      1642    8    0    1
 -2       779       878       877      3461      3462      3457
 -1      1643    8    0    1
 -2       780       781       879      3163      3463      3464
 -1      1644    8    0    1
 -2       780       879       878      3464      3465      3460
 -1      1645    8    0    1
 -2       781       782       880      3166      3466      3467
 -1      1646    8    0    1
 -2       781       880       879      3467      3468      3463
 -1      1647    8    0    1
 -2       782       715       806      3259      3252      3469
 -1      1648    8    0    1
 -2       786       767       881      3178      3470      3471
 -1      1649    8    0    1
 -2       767       868       881      3432      3472      3470
 -1      1650    8    0    1
 -2       814       813       882      3313      3473      3474
 -1      1651    8    0    1
 -2       788       789       883      3187      3475      3476
 -1      1652    8    0    1
 -2       763       794       884      3272      3477      3478
 -1      1653    8    0    1
 -2       805       763       884      3250      3478      3479
 -1      1654    8    0    1
 -2       794       824       884      3299      3480      3477
 -1      1655    8    0    1
 -2       791       810       885      3266      3481      3482
 -1      1656    8    0    1
 -2       811       814       886      3258      3483      3484
 -1      1657    8    0    1
 -2       787       783       887      3181      3485      3486
 -1      1658    8    0    1
 -2       787       887       865      3486      3487      3426
 -1      1659    8    0    1
 -2       712       718       888      2965      3488      3489
 -1      1660    8    0    1
 -2       801       712       888      3219      3489      3490
 -1      1661    8    0    1
 -2       718       819       888      3279      3491      3488
 -1      1662    8    0    1
 -2       785       809       889      3263      3492      3493
 -1      1663    8    0    1
 -2       807       722       890      3249      3494      3495
 -1      1664    8    0    1
 -2       795       792       891      3268      3496      3497
 -1      1665    8    0    1
 -2       796       798       892      3209      3498      3499
 -1      1666    8    0    1
 -2       799       766       893      3212      3500      3501
 -1      1667    8    0    1
 -2       800       799       894      3215      3502      3503
 -1      1668    8    0    1
 -2       799       893       894      3501      3504      3502
 -1      1669    8    0    1
 -2       765       786       895      3256      3505      3506
 -1      1670    8    0    1
 -2       786       881       895      3471      3507      3505
 -1      1671    8    0    1
 -2       769       770       896      3130      3508      3509
 -1      1672    8    0    1
 -2       867       769       896      3429      3509      3510
 -1      1673    8    0    1
 -2       770       869       896      3435      3511      3508
 -1      1674    8    0    1
 -2       783       784       897      3173      3512      3513
 -1      1675    8    0    1
 -2       783       897       887      3513      3514      3485
 -1      1676    8    0    1
 -2       784       788       898      3184      3515      3516
 -1      1677    8    0    1
 -2       897       784       898      3512      3516      3517
 -1      1678    8    0    1
 -2       788       883       898      3476      3518      3515
 -1      1679    8    0    1
 -2       804       800       899      3228      3519      3520
 -1      1680    8    0    1
 -2       800       894       899      3503      3521      3519
 -1      1681    8    0    1
 -2       808       803       900      3273      3522      3523
 -1      1682    8    0    1
 -2       810       808       901      3303      3524      3525
 -1      1683    8    0    1
 -2       714       791       902      3251      3526      3527
 -1      1684    8    0    1
 -2       722       795       903      3296      3528      3529
 -1      1685    8    0    1
 -2       795       891       903      3497      3530      3528
 -1      1686    8    0    1
 -2       766       765       904      3119      3531      3532
 -1      1687    8    0    1
 -2       765       895       904      3506      3533      3531
 -1      1688    8    0    1
 -2       724       723       905      2994      3534      3535
 -1      1689    8    0    1
 -2       724       905       828      3535      3536      3314
 -1      1690    8    0    1
 -2       716       816       790      3265      3537      3267
 -1      1691    8    0    1
 -2       809       811       906      3282      3538      3539
 -1      1692    8    0    1
 -2       782       806       880      3469      3540      3466
 -1      1693    8    0    1
 -2       790       816       883      3537      3541      3542
 -1      1694    8    0    1
 -2       813       865       882      3425      3543      3473
 -1      1695    8    0    1
 -2       762       761       907      3109      3544      3545
 -1      1696    8    0    1
 -2       826       762       907      3307      3545      3546
 -1      1697    8    0    1
 -2       761       864       907      3422      3547      3544
 -1      1698    8    0    1
 -2       866       805       884      3427      3479      3548
 -1      1699    8    0    1
 -2       814       882       886      3474      3549      3483
 -1      1700    8    0    1
 -2       883       816       908      3541      3550      3551
 -1      1701    8    0    1
 -2       815       785       909      3260      3552      3553
 -1      1702    8    0    1
 -2       785       889       909      3493      3554      3552
 -1      1703    8    0    1
 -2       804       899       910      3520      3555      3556
 -1      1704    8    0    1
 -2       804       910       819      3556      3557      3280
 -1      1705    8    0    1
 -2       811       886       906      3484      3558      3538
 -1      1706    8    0    1
 -2       890       722       903      3494      3529      3559
 -1      1707    8    0    1
 -2       807       890       911      3495      3560      3561
 -1      1708    8    0    1
 -2       807       911       823      3561      3562      3295
 -1      1709    8    0    1
 -2       766       904       893      3532      3563      3500
 -1      1710    8    0    1
 -2       796       892       912      3499      3564      3565
 -1      1711    8    0    1
 -2       796       912       818      3565      3566      3277
 -1      1712    8    0    1
 -2       816       817       908      3271      3567      3550
 -1      1713    8    0    1
 -2       808       900       901      3523      3568      3524
 -1      1714    8    0    1
 -2       892       798       913      3498      3569      3570
 -1      1715    8    0    1
 -2       798       802       913      3222      3571      3569
 -1      1716    8    0    1
 -2       812       793       914      3248      3572      3573
 -1      1717    8    0    1
 -2       889       809       906      3492      3539      3574
 -1      1718    8    0    1
 -2       820       721       915      3285      3575      3576
 -1      1719    8    0    1
 -2       821       714       902      3286      3527      3577
 -1      1720    8    0    1
 -2       803       823       900      3294      3578      3522
 -1      1721    8    0    1
 -2       902       791       916      3526      3579      3580
 -1      1722    8    0    1
 -2       791       885       916      3482      3581      3579
 -1      1723    8    0    1
 -2       723       866       905      3428      3582      3534
 -1      1724    8    0    1
 -2       891       792       917      3496      3583      3584
 -1      1725    8    0    1
 -2       792       815       917      3262      3585      3583
 -1      1726    8    0    1
 -2       810       901       885      3525      3586      3481
 -1      1727    8    0    1
 -2       721       801       918      3218      3587      3588
 -1      1728    8    0    1
 -2       915       721       918      3575      3588      3589
 -1      1729    8    0    1
 -2       801       888       918      3490      3590      3587
 -1      1730    8    0    1
 -2       793       822       919      3291      3591      3592
 -1      1731    8    0    1
 -2       793       919       914      3592      3593      3572
 -1      1732    8    0    1
 -2       884       824       920      3480      3594      3595
 -1      1733    8    0    1
 -2       806       821       880      3288      3596      3540
 -1      1734    8    0    1
 -2       797       826       907      3306      3546      3597
 -1      1735    8    0    1
 -2       797       907       921      3597      3598      3599
 -1      1736    8    0    1
 -2       802       797       921      3223      3599      3600
 -1      1737    8    0    1
 -2       907       864       921      3547      3601      3598
 -1      1738    8    0    1
 -2       824       825       920      3302      3602      3594
 -1      1739    8    0    1
 -2       899       894       922      3521      3603      3604
 -1      1740    8    0    1
 -2       882       865       923      3543      3605      3606
 -1      1741    8    0    1
 -2       920       825       924      3602      3607      3608
 -1      1742    8    0    1
 -2       825       827       924      3311      3609      3607
 -1      1743    8    0    1
 -2       830       829       925      3321      3610      3611
 -1      1744    8    0    1
 -2       831       830       926      3324      3612      3613
 -1      1745    8    0    1
 -2       830       925       926      3611      3614      3612
 -1      1746    8    0    1
 -2       832       831       927      3327      3615      3616
 -1      1747    8    0    1
 -2       831       926       927      3613      3617      3615
 -1      1748    8    0    1
 -2       833       832       928      3330      3618      3619
 -1      1749    8    0    1
 -2       832       927       928      3616      3620      3618
 -1      1750    8    0    1
 -2       834       833       929      3333      3621      3622
 -1      1751    8    0    1
 -2       833       928       929      3619      3623      3621
 -1      1752    8    0    1
 -2       835       834       930      3336      3624      3625
 -1      1753    8    0    1
 -2       834       929       930      3622      3626      3624
 -1      1754    8    0    1
 -2       836       835       931      3339      3627      3628
 -1      1755    8    0    1
 -2       835       930       931      3625      3629      3627
 -1      1756    8    0    1
 -2       837       836       932      3342      3630      3631
 -1      1757    8    0    1
 -2       836       931       932      3628      3632      3630
 -1      1758    8    0    1
 -2       838       837       933      3345      3633      3634
 -1      1759    8    0    1
 -2       837       932       933      3631      3635      3633
 -1      1760    8    0    1
 -2       839       838       934      3348      3636      3637
 -1      1761    8    0    1
 -2       838       933       934      3634      3638      3636
 -1      1762    8    0    1
 -2       840       839       935      3351      3639      3640
 -1      1763    8    0    1
 -2       839       934       935      3637      3641      3639
 -1      1764    8    0    1
 -2       841       840       936      3354      3642      3643
 -1      1765    8    0    1
 -2       840       935       936      3640      3644      3642
 -1      1766    8    0    1
 -2       842       841       937      3357      3645      3646
 -1      1767    8    0    1
 -2       841       936       937      3643      3647      3645
 -1      1768    8    0    1
 -2       843       842       938      3360      3648      3649
 -1      1769    8    0    1
 -2       842       937       938      3646      3650      3648
 -1      1770    8    0    1
 -2       844       843       939      3363      3651      3652
 -1      1771    8    0    1
 -2       843       938       939      3649      3653      3651
 -1      1772    8    0    1
 -2       845       844       940      3366      3654      3655
 -1      1773    8    0    1
 -2       844       939       940      3652      3656      3654
 -1      1774    8    0    1
 -2       846       845       941      3369      3657      3658
 -1      1775    8    0    1
 -2       845       940       941      3655      3659      3657
 -1      1776    8    0    1
 -2       847       846       942      3372      3660      3661
 -1      1777    8    0    1
 -2       846       941       942      3658      3662      3660
 -1      1778    8    0    1
 -2       848       847       943      3375      3663      3664
 -1      1779    8    0    1
 -2       847       942       943      3661      3665      3663
 -1      1780    8    0    1
 -2       849       848       944      3378      3666      3667
 -1      1781    8    0    1
 -2       848       943       944      3664      3668      3666
 -1      1782    8    0    1
 -2       850       849       945      3381      3669      3670
 -1      1783    8    0    1
 -2       849       944       945      3667      3671      3669
 -1      1784    8    0    1
 -2       851       850       946      3384      3672      3673
 -1      1785    8    0    1
 -2       850       945       946      3670      3674      3672
 -1      1786    8    0    1
 -2       852       851       947      3387      3675      3676
 -1      1787    8    0    1
 -2       851       946       947      3673      3677      3675
 -1      1788    8    0    1
 -2       853       852       911      3390      3678      3679
 -1      1789    8    0    1
 -2       854       853       911      3393      3679      3680
 -1      1790    8    0    1
 -2       855       854       948      3396      3681      3682
 -1      1791    8    0    1
 -2       856       855       891      3399      3683      3684
 -1      1792    8    0    1
 -2       858       857       949      3405      3685      3686
 -1      1793    8    0    1
 -2       859       858       950      3408      3687      3688
 -1      1794    8    0    1
 -2       858       949       950      3686      3689      3687
 -1      1795    8    0    1
 -2       860       859       951      3411      3690      3691
 -1      1796    8    0    1
 -2       859       950       951      3688      3692      3690
 -1      1797    8    0    1
 -2       861       860       952      3414      3693      3694
 -1      1798    8    0    1
 -2       860       951       952      3691      3695      3693
 -1      1799    8    0    1
 -2       862       861       953      3417      3696      3697
 -1      1800    8    0    1
 -2       861       952       953      3694      3698      3696
 -1      1801    8    0    1
 -2       863       862       954      3420      3699      3700
 -1      1802    8    0    1
 -2       862       953       954      3697      3701      3699
 -1      1803    8    0    1
 -2       864       863       955      3423      3702      3703
 -1      1804    8    0    1
 -2       863       954       955      3700      3704      3702
 -1      1805    8    0    1
 -2       866       884       920      3548      3595      3705
 -1      1806    8    0    1
 -2       887       897       956      3514      3706      3707
 -1      1807    8    0    1
 -2       901       900       957      3568      3708      3709
 -1      1808    8    0    1
 -2       870       871       958      3441      3710      3711
 -1      1809    8    0    1
 -2       869       870       959      3438      3712      3713
 -1      1810    8    0    1
 -2       870       958       959      3711      3714      3712
 -1      1811    8    0    1
 -2       872       873       960      3447      3715      3716
 -1      1812    8    0    1
 -2       873       874       961      3450      3717      3718
 -1      1813    8    0    1
 -2       873       961       960      3718      3719      3715
 -1      1814    8    0    1
 -2       874       875       962      3453      3720      3721
 -1      1815    8    0    1
 -2       874       962       961      3721      3722      3717
 -1      1816    8    0    1
 -2       875       876       963      3456      3723      3724
 -1      1817    8    0    1
 -2       875       963       962      3724      3725      3720
 -1      1818    8    0    1
 -2       876       877       964      3459      3726      3727
 -1      1819    8    0    1
 -2       876       964       963      3727      3728      3723
 -1      1820    8    0    1
 -2       877       878       965      3462      3729      3730
 -1      1821    8    0    1
 -2       877       965       964      3730      3731      3726
 -1      1822    8    0    1
 -2       878       879       966      3465      3732      3733
 -1      1823    8    0    1
 -2       878       966       965      3733      3734      3729
 -1      1824    8    0    1
 -2       879       880       967      3468      3735      3736
 -1      1825    8    0    1
 -2       879       967       966      3736      3737      3732
 -1      1826    8    0    1
 -2       881       868       968      3472      3738      3739
 -1      1827    8    0    1
 -2       886       882       969      3549      3740      3741
 -1      1828    8    0    1
 -2       882       923       969      3606      3742      3740
 -1      1829    8    0    1
 -2       883       908       898      3551      3743      3518
 -1      1830    8    0    1
 -2       865       887       970      3487      3744      3745
 -1      1831    8    0    1
 -2       923       865       970      3605      3745      3746
 -1      1832    8    0    1
 -2       887       956       970      3707      3747      3744
 -1      1833    8    0    1
 -2       789       790       883      3190      3542      3475
 -1      1834    8    0    1
 -2       906       886       971      3558      3748      3749
 -1      1835    8    0    1
 -2       886       969       971      3741      3750      3748
 -1      1836    8    0    1
 -2       908       817       972      3567      3751      3752
 -1      1837    8    0    1
 -2       894       893       973      3504      3753      3754
 -1      1838    8    0    1
 -2       894       973       922      3754      3755      3603
 -1      1839    8    0    1
 -2       828       905       974      3536      3756      3757
 -1      1840    8    0    1
 -2       868       867       975      3433      3758      3759
 -1      1841    8    0    1
 -2       868       975       968      3759      3760      3738
 -1      1842    8    0    1
 -2       895       881       976      3507      3761      3762
 -1      1843    8    0    1
 -2       881       968       976      3739      3763      3761
 -1      1844    8    0    1
 -2       889       906       977      3574      3764      3765
 -1      1845    8    0    1
 -2       906       971       977      3749      3766      3764
 -1      1846    8    0    1
 -2       812       914       978      3573      3767      3768
 -1      1847    8    0    1
 -2       821       902       979      3577      3769      3770
 -1      1848    8    0    1
 -2       817       818       972      3276      3771      3751
 -1      1849    8    0    1
 -2       822       820       980      3292      3772      3773
 -1      1850    8    0    1
 -2       822       980       919      3773      3774      3591
 -1      1851    8    0    1
 -2       900       823       947      3578      3775      3776
 -1      1852    8    0    1
 -2       893       904       981      3563      3777      3778
 -1      1853    8    0    1
 -2       893       981       973      3778      3779      3753
 -1      1854    8    0    1
 -2       904       895       982      3533      3780      3781
 -1      1855    8    0    1
 -2       981       904       982      3777      3781      3782
 -1      1856    8    0    1
 -2       895       976       982      3762      3783      3780
 -1      1857    8    0    1
 -2       829       828       983      3318      3784      3785
 -1      1858    8    0    1
 -2       828       974       983      3757      3786      3784
 -1      1859    8    0    1
 -2       890       903       948      3559      3787      3788
 -1      1860    8    0    1
 -2       820       915       980      3576      3789      3772
 -1      1861    8    0    1
 -2       871       872       984      3444      3790      3791
 -1      1862    8    0    1
 -2       872       960       984      3716      3792      3790
 -1      1863    8    0    1
 -2       905       866       985      3582      3793      3794
 -1      1864    8    0    1
 -2       905       985       974      3794      3795      3756
 -1      1865    8    0    1
 -2       885       901       986      3586      3796      3797
 -1      1866    8    0    1
 -2       866       920       987      3705      3798      3799
 -1      1867    8    0    1
 -2       985       866       987      3793      3799      3800
 -1      1868    8    0    1
 -2       920       924       987      3608      3801      3798
 -1      1869    8    0    1
 -2       898       908       988      3743      3802      3803
 -1      1870    8    0    1
 -2       925       829       983      3610      3785      3804
 -1      1871    8    0    1
 -2       911       852       947      3678      3676      3805
 -1      1872    8    0    1
 -2       948       854       890      3681      3806      3788
 -1      1873    8    0    1
 -2       856       891       917      3684      3584      3807
 -1      1874    8    0    1
 -2       864       955       921      3703      3808      3601
 -1      1875    8    0    1
 -2       857       856       917      3402      3807      3809
 -1      1876    8    0    1
 -2       957       900       947      3708      3776      3810
 -1      1877    8    0    1
 -2       914       919       989      3593      3811      3812
 -1      1878    8    0    1
 -2       909       889       990      3554      3813      3814
 -1      1879    8    0    1
 -2       889       977       990      3765      3815      3813
 -1      1880    8    0    1
 -2       890       854       911      3806      3680      3560
 -1      1881    8    0    1
 -2       901       957       986      3709      3816      3796
 -1      1882    8    0    1
 -2       869       959       991      3713      3817      3818
 -1      1883    8    0    1
 -2       869       991       896      3818      3819      3511
 -1      1884    8    0    1
 -2       967       880       979      3735      3820      3821
 -1      1885    8    0    1
 -2       815       909       949      3553      3822      3823
 -1      1886    8    0    1
 -2       812       978       827      3768      3824      3312
 -1      1887    8    0    1
 -2       908       972       992      3752      3825      3826
 -1      1888    8    0    1
 -2       908       992       988      3826      3827      3802
 -1      1889    8    0    1
 -2       910       899       993      3555      3828      3829
 -1      1890    8    0    1
 -2       899       922       993      3604      3830      3828
 -1      1891    8    0    1
 -2       802       921       913      3600      3831      3571
 -1      1892    8    0    1
 -2       888       819       994      3491      3832      3833
 -1      1893    8    0    1
 -2       918       888       994      3590      3833      3834
 -1      1894    8    0    1
 -2       819       910       994      3557      3835      3832
 -1      1895    8    0    1
 -2       912       892       995      3564      3836      3837
 -1      1896    8    0    1
 -2       885       986       996      3797      3838      3839
 -1      1897    8    0    1
 -2       885       996       916      3839      3840      3581
 -1      1898    8    0    1
 -2       818       912       972      3566      3841      3771
 -1      1899    8    0    1
 -2       975       867       997      3758      3842      3843
 -1      1900    8    0    1
 -2       867       896       997      3510      3844      3842
 -1      1901    8    0    1
 -2       979       902       998      3769      3845      3846
 -1      1902    8    0    1
 -2       902       916       998      3580      3847      3845
 -1      1903    8    0    1
 -2       978       914       999      3767      3848      3849
 -1      1904    8    0    1
 -2       914       989       999      3812      3850      3848
 -1      1905    8    0    1
 -2       821       979       880      3770      3820      3596
 -1      1906    8    0    1
 -2       958       871       984      3710      3791      3851
 -1      1907    8    0    1
 -2       947       823       911      3775      3562      3805
 -1      1908    8    0    1
 -2       892       913      1000      3570      3852      3853
 -1      1909    8    0    1
 -2       892      1000       995      3853      3854      3836
 -1      1910    8    0    1
 -2       917       815       949      3585      3823      3855
 -1      1911    8    0    1
 -2       949       857       917      3685      3809      3855
 -1      1912    8    0    1
 -2       897       898       988      3517      3803      3856
 -1      1913    8    0    1
 -2       915       918       994      3589      3834      3857
 -1      1914    8    0    1
 -2       980       915      1001      3789      3858      3859
 -1      1915    8    0    1
 -2       915       994      1001      3857      3860      3858
 -1      1916    8    0    1
 -2       897       988       956      3856      3861      3706
 -1      1917    8    0    1
 -2       925       983      1002      3804      3862      3863
 -1      1918    8    0    1
 -2       956       988      1003      3861      3864      3865
 -1      1919    8    0    1
 -2       988       992      1003      3827      3866      3864
 -1      1920    8    0    1
 -2       927       926      1004      3617      3867      3868
 -1      1921    8    0    1
 -2       928       927      1005      3620      3869      3870
 -1      1922    8    0    1
 -2       927      1004      1005      3868      3871      3869
 -1      1923    8    0    1
 -2       929       928      1006      3623      3872      3873
 -1      1924    8    0    1
 -2       928      1005      1006      3870      3874      3872
 -1      1925    8    0    1
 -2       930       929      1007      3626      3875      3876
 -1      1926    8    0    1
 -2       929      1006      1007      3873      3877      3875
 -1      1927    8    0    1
 -2       931       930      1008      3629      3878      3879
 -1      1928    8    0    1
 -2       930      1007      1008      3876      3880      3878
 -1      1929    8    0    1
 -2       932       931      1009      3632      3881      3882
 -1      1930    8    0    1
 -2       931      1008      1009      3879      3883      3881
 -1      1931    8    0    1
 -2       933       932      1010      3635      3884      3885
 -1      1932    8    0    1
 -2       932      1009      1010      3882      3886      3884
 -1      1933    8    0    1
 -2       934       933      1011      3638      3887      3888
 -1      1934    8    0    1
 -2       933      1010      1011      3885      3889      3887
 -1      1935    8    0    1
 -2       935       934      1012      3641      3890      3891
 -1      1936    8    0    1
 -2       934      1011      1012      3888      3892      3890
 -1      1937    8    0    1
 -2       936       935      1013      3644      3893      3894
 -1      1938    8    0    1
 -2       935      1012      1013      3891      3895      3893
 -1      1939    8    0    1
 -2       937       936      1014      3647      3896      3897
 -1      1940    8    0    1
 -2       936      1013      1014      3894      3898      3896
 -1      1941    8    0    1
 -2       938       937      1015      3650      3899      3900
 -1      1942    8    0    1
 -2       937      1014      1015      3897      3901      3899
 -1      1943    8    0    1
 -2       939       938      1016      3653      3902      3903
 -1      1944    8    0    1
 -2       938      1015      1016      3900      3904      3902
 -1      1945    8    0    1
 -2       940       939      1017      3656      3905      3906
 -1      1946    8    0    1
 -2       939      1016      1017      3903      3907      3905
 -1      1947    8    0    1
 -2       941       940      1018      3659      3908      3909
 -1      1948    8    0    1
 -2       940      1017      1018      3906      3910      3908
 -1      1949    8    0    1
 -2       942       941      1019      3662      3911      3912
 -1      1950    8    0    1
 -2       941      1018      1019      3909      3913      3911
 -1      1951    8    0    1
 -2       943       942      1020      3665      3914      3915
 -1      1952    8    0    1
 -2       942      1019      1020      3912      3916      3914
 -1      1953    8    0    1
 -2       944       943      1021      3668      3917      3918
 -1      1954    8    0    1
 -2       943      1020      1021      3915      3919      3917
 -1      1955    8    0    1
 -2       949       909       950      3822      3920      3689
 -1      1956    8    0    1
 -2       951       950       990      3692      3921      3922
 -1      1957    8    0    1
 -2       952       951      1022      3695      3923      3924
 -1      1958    8    0    1
 -2       953       952      1023      3698      3925      3926
 -1      1959    8    0    1
 -2       952      1022      1023      3924      3927      3925
 -1      1960    8    0    1
 -2       954       953      1024      3701      3928      3929
 -1      1961    8    0    1
 -2       953      1023      1024      3926      3930      3928
 -1      1962    8    0    1
 -2       955       954      1025      3704      3931      3932
 -1      1963    8    0    1
 -2       954      1024      1025      3929      3933      3931
 -1      1964    8    0    1
 -2       974       985      1026      3795      3934      3935
 -1      1965    8    0    1
 -2       961       962      1027      3722      3936      3937
 -1      1966    8    0    1
 -2       960       961      1028      3719      3938      3939
 -1      1967    8    0    1
 -2       961      1027      1028      3937      3940      3938
 -1      1968    8    0    1
 -2       963       964      1029      3728      3941      3942
 -1      1969    8    0    1
 -2       964       965      1030      3731      3943      3944
 -1      1970    8    0    1
 -2       964      1030      1029      3944      3945      3941
 -1      1971    8    0    1
 -2       965       966      1031      3734      3946      3947
 -1      1972    8    0    1
 -2       965      1031      1030      3947      3948      3943
 -1      1973    8    0    1
 -2       827       978       924      3824      3949      3609
 -1      1974    8    0    1
 -2       971       969      1032      3750      3950      3951
 -1      1975    8    0    1
 -2       994       910      1001      3835      3952      3860
 -1      1976    8    0    1
 -2       983       974      1033      3786      3953      3954
 -1      1977    8    0    1
 -2       974      1026      1033      3935      3955      3953
 -1      1978    8    0    1
 -2       986       957      1034      3816      3956      3957
 -1      1979    8    0    1
 -2       969       923      1035      3742      3958      3959
 -1      1980    8    0    1
 -2       919       980      1036      3774      3960      3961
 -1      1981    8    0    1
 -2       989       919      1036      3811      3961      3962
 -1      1982    8    0    1
 -2       980      1001      1036      3859      3963      3960
 -1      1983    8    0    1
 -2       903       891       855      3530      3683      3964
 -1      1984    8    0    1
 -2       962       963      1037      3725      3965      3966
 -1      1985    8    0    1
 -2       962      1037      1027      3966      3967      3936
 -1      1986    8    0    1
 -2       959       958      1038      3714      3968      3969
 -1      1987    8    0    1
 -2       922       973      1039      3755      3970      3971
 -1      1988    8    0    1
 -2       968       975      1040      3760      3972      3973
 -1      1989    8    0    1
 -2       976       968      1041      3763      3974      3975
 -1      1990    8    0    1
 -2       968      1040      1041      3973      3976      3974
 -1      1991    8    0    1
 -2       977       971      1042      3766      3977      3978
 -1      1992    8    0    1
 -2       967       979       998      3821      3846      3979
 -1      1993    8    0    1
 -2       972       912      1043      3841      3980      3981
 -1      1994    8    0    1
 -2       992       972      1043      3825      3981      3982
 -1      1995    8    0    1
 -2       912       995      1043      3837      3983      3980
 -1      1996    8    0    1
 -2       924       978      1044      3949      3984      3985
 -1      1997    8    0    1
 -2       987       924      1044      3801      3985      3986
 -1      1998    8    0    1
 -2       978       999      1044      3849      3987      3984
 -1      1999    8    0    1
 -2       973       981      1045      3779      3988      3989
 -1      2000    8    0    1
 -2       973      1045      1039      3989      3990      3970
 -1      2001    8    0    1
 -2       913       921       955      3831      3808      3991
 -1      2002    8    0    1
 -2       958       984      1046      3851      3992      3993
 -1      2003    8    0    1
 -2       958      1046      1038      3993      3994      3968
 -1      2004    8    0    1
 -2       926       925      1047      3614      3995      3996
 -1      2005    8    0    1
 -2       926      1047      1004      3996      3997      3867
 -1      2006    8    0    1
 -2       984       960      1048      3792      3998      3999
 -1      2007    8    0    1
 -2      1046       984      1048      3992      3999      4000
 -1      2008    8    0    1
 -2       960      1028      1048      3939      4001      3998
 -1      2009    8    0    1
 -2       950       909       990      3920      3814      3921
 -1      2010    8    0    1
 -2       956      1003      1035      3865      4002      4003
 -1      2011    8    0    1
 -2       944      1021      1034      3918      4004      4005
 -1      2012    8    0    1
 -2      1022       951       990      3923      3922      4006
 -1      2013    8    0    1
 -2       945       944      1034      3671      4005      4007
 -1      2014    8    0    1
 -2       946       945       957      3674      4008      4009
 -1      2015    8    0    1
 -2       947       946       957      3677      4009      3810
 -1      2016    8    0    1
 -2       990       977      1022      3815      4010      4006
 -1      2017    8    0    1
 -2       986      1034      1021      3957      4004      4011
 -1      2018    8    0    1
 -2       955      1025      1000      3932      4012      4013
 -1      2019    8    0    1
 -2      1026       985       987      3934      3800      4014
 -1      2020    8    0    1
 -2       913       955      1000      3991      4013      3852
 -1      2021    8    0    1
 -2       925      1002      1047      3863      4015      3995
 -1      2022    8    0    1
 -2       991       959      1049      3817      4016      4017
 -1      2023    8    0    1
 -2       959      1038      1049      3969      4018      4016
 -1      2024    8    0    1
 -2       963      1029      1037      3942      4019      3965
 -1      2025    8    0    1
 -2       966       967      1050      3737      4020      4021
 -1      2026    8    0    1
 -2       995      1000      1051      3854      4022      4023
 -1      2027    8    0    1
 -2      1000      1025      1051      4012      4024      4022
 -1      2028    8    0    1
 -2      1032       969      1035      3950      3959      4025
 -1      2029    8    0    1
 -2      1001       910       993      3952      3829      4026
 -1      2030    8    0    1
 -2       993       922      1052      3830      4027      4028
 -1      2031    8    0    1
 -2       922      1039      1052      3971      4029      4027
 -1      2032    8    0    1
 -2      1034       957       945      3956      4008      4007
 -1      2033    8    0    1
 -2       996       986      1021      3838      4011      4030
 -1      2034    8    0    1
 -2       981       982      1053      3782      4031      4032
 -1      2035    8    0    1
 -2       981      1053      1045      4032      4033      3988
 -1      2036    8    0    1
 -2       989      1036      1054      3962      4034      4035
 -1      2037    8    0    1
 -2      1040       975      1055      3972      4036      4037
 -1      2038    8    0    1
 -2       975       997      1055      3843      4038      4036
 -1      2039    8    0    1
 -2       916       996      1056      3840      4039      4040
 -1      2040    8    0    1
 -2       916      1056       998      4040      4041      3847
 -1      2041    8    0    1
 -2       966      1050      1031      4021      4042      3946
 -1      2042    8    0    1
 -2       977      1042      1022      3978      4043      4010
 -1      2043    8    0    1
 -2       997       896       991      3844      3819      4044
 -1      2044    8    0    1
 -2       976      1041      1057      3975      4045      4046
 -1      2045    8    0    1
 -2       976      1057       982      4046      4047      3783
 -1      2046    8    0    1
 -2      1042       971      1032      3977      3951      4048
 -1      2047    8    0    1
 -2       999       989      1058      3850      4049      4050
 -1      2048    8    0    1
 -2       989      1054      1058      4035      4051      4049
 -1      2049    8    0    1
 -2       967       998      1050      3979      4052      4020
 -1      2050    8    0    1
 -2      1043       995      1059      3983      4053      4054
 -1      2051    8    0    1
 -2       995      1051      1059      4023      4055      4053
 -1      2052    8    0    1
 -2      1002       983      1033      3862      3954      4056
 -1      2053    8    0    1
 -2      1006      1005      1060      3874      4057      4058
 -1      2054    8    0    1
 -2      1007      1006      1061      3877      4059      4060
 -1      2055    8    0    1
 -2      1006      1060      1061      4058      4061      4059
 -1      2056    8    0    1
 -2      1008      1007      1062      3880      4062      4063
 -1      2057    8    0    1
 -2      1007      1061      1062      4060      4064      4062
 -1      2058    8    0    1
 -2      1009      1008      1063      3883      4065      4066
 -1      2059    8    0    1
 -2      1008      1062      1063      4063      4067      4065
 -1      2060    8    0    1
 -2      1010      1009      1064      3886      4068      4069
 -1      2061    8    0    1
 -2      1009      1063      1064      4066      4070      4068
 -1      2062    8    0    1
 -2      1011      1010      1065      3889      4071      4072
 -1      2063    8    0    1
 -2      1010      1064      1065      4069      4073      4071
 -1      2064    8    0    1
 -2      1012      1011      1066      3892      4074      4075
 -1      2065    8    0    1
 -2      1011      1065      1066      4072      4076      4074
 -1      2066    8    0    1
 -2      1013      1012      1067      3895      4077      4078
 -1      2067    8    0    1
 -2      1012      1066      1067      4075      4079      4077
 -1      2068    8    0    1
 -2      1014      1013      1068      3898      4080      4081
 -1      2069    8    0    1
 -2      1013      1067      1068      4078      4082      4080
 -1      2070    8    0    1
 -2      1015      1014      1069      3901      4083      4084
 -1      2071    8    0    1
 -2      1014      1068      1069      4081      4085      4083
 -1      2072    8    0    1
 -2      1016      1015      1070      3904      4086      4087
 -1      2073    8    0    1
 -2      1015      1069      1070      4084      4088      4086
 -1      2074    8    0    1
 -2      1017      1016      1071      3907      4089      4090
 -1      2075    8    0    1
 -2      1016      1070      1071      4087      4091      4089
 -1      2076    8    0    1
 -2      1018      1017      1072      3910      4092      4093
 -1      2077    8    0    1
 -2      1017      1071      1072      4090      4094      4092
 -1      2078    8    0    1
 -2      1019      1018      1073      3913      4095      4096
 -1      2079    8    0    1
 -2      1018      1072      1073      4093      4097      4095
 -1      2080    8    0    1
 -2      1020      1019      1074      3916      4098      4099
 -1      2081    8    0    1
 -2      1019      1073      1074      4096      4100      4098
 -1      2082    8    0    1
 -2       956      1035       970      4003      4101      3747
 -1      2083    8    0    1
 -2      1032      1035      1075      4025      4102      4103
 -1      2084    8    0    1
 -2      1026       987      1044      4014      3986      4104
 -1      2085    8    0    1
 -2      1024      1023      1076      3930      4105      4106
 -1      2086    8    0    1
 -2      1025      1024      1077      3933      4107      4108
 -1      2087    8    0    1
 -2      1051      1025      1077      4024      4108      4109
 -1      2088    8    0    1
 -2      1024      1076      1077      4106      4110      4107
 -1      2089    8    0    1
 -2      1035      1003      1075      4002      4111      4102
 -1      2090    8    0    1
 -2      1030      1031      1078      3948      4112      4113
 -1      2091    8    0    1
 -2      1029      1030      1079      3945      4114      4115
 -1      2092    8    0    1
 -2      1030      1078      1079      4113      4116      4114
 -1      2093    8    0    1
 -2      1022      1042      1023      4043      4117      3927
 -1      2094    8    0    1
 -2      1035       923       970      3958      3746      4101
 -1      2095    8    0    1
 -2      1002      1033      1080      4056      4118      4119
 -1      2096    8    0    1
 -2      1028      1027      1081      3940      4120      4121
 -1      2097    8    0    1
 -2      1033      1026      1082      3955      4122      4123
 -1      2098    8    0    1
 -2      1033      1082      1080      4123      4124      4118
 -1      2099    8    0    1
 -2      1001       993      1036      4026      4125      3963
 -1      2100    8    0    1
 -2      1054      1036       993      4034      4125      4126
 -1      2101    8    0    1
 -2      1004      1047      1083      3997      4127      4128
 -1      2102    8    0    1
 -2       903       855       948      3964      3682      3787
 -1      2103    8    0    1
 -2      1031      1050      1084      4042      4129      4130
 -1      2104    8    0    1
 -2      1031      1084      1078      4130      4131      4112
 -1      2105    8    0    1
 -2       996      1021      1085      4030      4132      4133
 -1      2106    8    0    1
 -2      1056       996      1085      4039      4133      4134
 -1      2107    8    0    1
 -2      1021      1020      1085      3919      4135      4132
 -1      2108    8    0    1
 -2      1041      1040      1086      3976      4136      4137
 -1      2109    8    0    1
 -2      1054       993      1052      4126      4028      4138
 -1      2110    8    0    1
 -2      1039      1045      1087      3990      4139      4140
 -1      2111    8    0    1
 -2      1037      1029      1088      4019      4141      4142
 -1      2112    8    0    1
 -2      1029      1079      1088      4115      4143      4141
 -1      2113    8    0    1
 -2      1005      1004      1089      3871      4144      4145
 -1      2114    8    0    1
 -2      1004      1083      1089      4128      4146      4144
 -1      2115    8    0    1
 -2      1047      1002      1090      4015      4147      4148
 -1      2116    8    0    1
 -2      1002      1080      1090      4119      4149      4147
 -1      2117    8    0    1
 -2      1027      1037      1091      3967      4150      4151
 -1      2118    8    0    1
 -2      1037      1088      1091      4142      4152      4150
 -1      2119    8    0    1
 -2      1042      1032      1076      4048      4153      4154
 -1      2120    8    0    1
 -2      1050       998      1056      4052      4041      4155
 -1      2121    8    0    1
 -2      1038      1046      1092      3994      4156      4157
 -1      2122    8    0    1
 -2       997       991      1093      4044      4158      4159
 -1      2123    8    0    1
 -2       991      1049      1093      4017      4160      4158
 -1      2124    8    0    1
 -2      1023      1042      1076      4117      4154      4105
 -1      2125    8    0    1
 -2      1046      1048      1094      4000      4161      4162
 -1      2126    8    0    1
 -2      1046      1094      1092      4162      4163      4156
 -1      2127    8    0    1
 -2      1084      1050      1056      4129      4155      4164
 -1      2128    8    0    1
 -2      1045      1053      1095      4033      4165      4166
 -1      2129    8    0    1
 -2      1045      1095      1087      4166      4167      4139
 -1      2130    8    0    1
 -2      1027      1091      1081      4151      4168      4120
 -1      2131    8    0    1
 -2      1041      1086      1096      4137      4169      4170
 -1      2132    8    0    1
 -2      1041      1096      1057      4170      4171      4045
 -1      2133    8    0    1
 -2      1055       997      1093      4038      4159      4172
 -1      2134    8    0    1
 -2      1026      1044      1097      4104      4173      4174
 -1      2135    8    0    1
 -2      1082      1026      1097      4122      4174      4175
 -1      2136    8    0    1
 -2      1044       999      1097      3987      4176      4173
 -1      2137    8    0    1
 -2      1051      1077      1059      4109      4177      4055
 -1      2138    8    0    1
 -2      1049      1038      1098      4018      4178      4179
 -1      2139    8    0    1
 -2      1038      1092      1098      4157      4180      4178
 -1      2140    8    0    1
 -2      1005      1089      1060      4145      4181      4057
 -1      2141    8    0    1
 -2      1028      1081      1099      4121      4182      4183
 -1      2142    8    0    1
 -2      1028      1099      1048      4183      4184      4001
 -1      2143    8    0    1
 -2      1052      1039      1100      4029      4185      4186
 -1      2144    8    0    1
 -2      1039      1087      1100      4140      4187      4185
 -1      2145    8    0    1
 -2      1032      1075      1076      4103      4188      4153
 -1      2146    8    0    1
 -2      1053       982      1057      4031      4047      4189
 -1      2147    8    0    1
 -2      1083      1047      1090      4127      4148      4190
 -1      2148    8    0    1
 -2      1040      1055      1101      4037      4191      4192
 -1      2149    8    0    1
 -2      1040      1101      1086      4192      4193      4136
 -1      2150    8    0    1
 -2      1075      1003      1059      4111      4194      4195
 -1      2151    8    0    1
 -2      1085      1020      1074      4135      4099      4196
 -1      2152    8    0    1
 -2      1054      1052      1102      4138      4197      4198
 -1      2153    8    0    1
 -2      1058      1054      1102      4051      4198      4199
 -1      2154    8    0    1
 -2      1052      1100      1102      4186      4200      4197
 -1      2155    8    0    1
 -2      1003       992      1059      3866      4201      4194
 -1      2156    8    0    1
 -2       999      1058      1097      4050      4202      4176
 -1      2157    8    0    1
 -2       992      1043      1059      3982      4054      4201
 -1      2158    8    0    1
 -2      1062      1061      1101      4064      4203      4204
 -1      2159    8    0    1
 -2      1064      1063      1103      4070      4205      4206
 -1      2160    8    0    1
 -2      1065      1064      1098      4073      4207      4208
 -1      2161    8    0    1
 -2      1066      1065      1092      4076      4209      4210
 -1      2162    8    0    1
 -2      1067      1066      1094      4079      4211      4212
 -1      2163    8    0    1
 -2      1068      1067      1099      4082      4213      4214
 -1      2164    8    0    1
 -2      1069      1068      1081      4085      4215      4216
 -1      2165    8    0    1
 -2      1070      1069      1091      4088      4217      4218
 -1      2166    8    0    1
 -2      1071      1070      1088      4091      4219      4220
 -1      2167    8    0    1
 -2      1072      1071      1079      4094      4221      4222
 -1      2168    8    0    1
 -2      1073      1072      1078      4097      4223      4224
 -1      2169    8    0    1
 -2      1074      1073      1078      4100      4224      4225
 -1      2170    8    0    1
 -2      1077      1076      1075      4110      4188      4226
 -1      2171    8    0    1
 -2      1056      1085      1084      4134      4227      4164
 -1      2172    8    0    1
 -2      1078      1072      1079      4223      4222      4116
 -1      2173    8    0    1
 -2      1080      1082      1102      4124      4228      4229
 -1      2174    8    0    1
 -2      1079      1071      1088      4221      4220      4143
 -1      2175    8    0    1
 -2      1059      1077      1075      4177      4226      4195
 -1      2176    8    0    1
 -2      1088      1070      1091      4219      4218      4152
 -1      2177    8    0    1
 -2      1091      1069      1081      4217      4216      4168
 -1      2178    8    0    1
 -2      1097      1058      1082      4202      4230      4175
 -1      2179    8    0    1
 -2      1093      1049      1103      4160      4231      4232
 -1      2180    8    0    1
 -2      1061      1060      1086      4061      4233      4234
 -1      2181    8    0    1
 -2      1060      1089      1096      4181      4235      4236
 -1      2182    8    0    1
 -2      1081      1068      1099      4215      4214      4182
 -1      2183    8    0    1
 -2      1082      1058      1102      4230      4199      4228
 -1      2184    8    0    1
 -2      1090      1080      1087      4149      4237      4238
 -1      2185    8    0    1
 -2      1053      1057      1104      4189      4239      4240
 -1      2186    8    0    1
 -2      1095      1053      1104      4165      4240      4241
 -1      2187    8    0    1
 -2      1057      1096      1104      4171      4242      4239
 -1      2188    8    0    1
 -2      1078      1084      1074      4131      4243      4225
 -1      2189    8    0    1
 -2      1092      1065      1098      4209      4208      4180
 -1      2190    8    0    1
 -2      1083      1090      1095      4190      4244      4245
 -1      2191    8    0    1
 -2      1086      1060      1096      4233      4236      4169
 -1      2192    8    0    1
 -2      1064      1103      1098      4206      4246      4207
 -1      2193    8    0    1
 -2      1063      1062      1105      4067      4247      4248
 -1      2194    8    0    1
 -2      1095      1090      1087      4244      4238      4167
 -1      2195    8    0    1
 -2      1066      1092      1094      4210      4163      4211
 -1      2196    8    0    1
 -2      1063      1105      1103      4248      4249      4205
 -1      2197    8    0    1
 -2      1083      1095      1104      4245      4241      4250
 -1      2198    8    0    1
 -2      1101      1061      1086      4203      4234      4193
 -1      2199    8    0    1
 -2      1074      1084      1085      4243      4227      4196
 -1      2200    8    0    1
 -2      1096      1089      1104      4235      4251      4242
 -1      2201    8    0    1
 -2      1103      1049      1098      4231      4179      4246
 -1      2202    8    0    1
 -2      1055      1093      1106      4172      4252      4253
 -1      2203    8    0    1
 -2      1094      1048      1099      4161      4184      4254
 -1      2204    8    0    1
 -2      1089      1083      1104      4146      4250      4251
 -1      2205    8    0    1
 -2      1087      1080      1100      4237      4255      4187
 -1      2206    8    0    1
 -2      1055      1106      1101      4253      4256      4191
 -1      2207    8    0    1
 -2      1105      1062      1101      4247      4204      4257
 -1      2208    8    0    1
 -2      1067      1094      1099      4212      4254      4213
 -1      2209    8    0    1
 -2      1080      1102      1100      4229      4200      4255
 -1      2210    8    0    1
 -2      1101      1106      1105      4256      4258      4257
 -1      2211    8    0    1
 -2      1106      1093      1103      4252      4232      4259
 -1      2212    8    0    1
 -2      1103      1105      1106      4249      4258      4259
 -3
    1PSTEP                         1           1           1          
  100CL  101 1.000000000        4259                     0    1           1
 -4  DISP        4    1
 -5  D1          1    2    1    0
 -5  D2          1    2    2    0
 -5  D3          1    2    3    0
 -5  ALL         1    2    0    0    1ALL
 -1         1 8.48801E-03 2.19955E-04-2.01603E-14
 -1         2 1.30775E-02 1.10449E-03-2.39441E-14
 -1         3 1.68621E-02 3.65889E-03-3.65457E-14
 -1         4 1.37443E-02 2.30166E-03-4.22656E-14
 -1         5 0.00000E+00 0.00000E+00 0.00000E+00
 -1         6 0.00000E+00 0.00000E+00 0.00000E+00
 -1         7 0.00000E+00 0.00000E+00 0.00000E+00
 -1         8 0.00000E+00 0.00000E+00 0.00000E+00
 -1         9 0.00000E+00 0.00000E+00 0.00000E+00
 -1        10 0.00000E+00 0.00000E+00 0.00000E+00
 -1        11 0.00000E+00 0.00000E+00 0.00000E+00
 -1        12 0.00000E+00 0.00000E+00 0.00000E+00
 -1        13 0.00000E+00 0.00000E+00 0.00000E+00
 -1        14 0.00000E+00 0.00000E+00 0.00000E+00
 -1        15 0.00000E+00 0.00000E+00 0.00000E+00
 -1        16 0.00000E+00 0.00000E+00 0.00000E+00
 -1        17 0.00000E+00 0.00000E+00 0.00000E+00
 -1        18 0.00000E+00 0.00000E+00 0.00000E+00
 -1        19 0.00000E+00 0.00000E+00 0.00000E+00
 -1        20 0.00000E+00 0.00000E+00 0.00000E+00
 -1        21 0.00000E+00 0.00000E+00 0.00000E+00
 -1        22 0.00000E+00 0.00000E+00 0.00000E+00
 -1        23 4.11370E-04-2.60729E-04 1.11266E-17
 -1        24 7.03347E-04-4.00966E-04-3.94345E-17
 -1        25 9.73408E-04-4.98330E-04-1.48424E-16
 -1        26 1.23789E-03-5.67051E-04-3.15079E-16
 -1        27 1.50141E-03-6.16269E-04-5.35826E-16
 -1        28 1.76608E-03-6.51367E-04-8.08994E-16
 -1        29 2.03283E-03-6.76053E-04-1.13504E-15
 -1        30 2.30206E-03-6.93018E-04-1.51192E-15
 -1        31 2.57380E-03-7.04275E-04-1.93991E-15
 -1        32 2.84793E-03-7.11348E-04-2.41792E-15
 -1        33 3.12425E-03-7.15385E-04-2.94255E-15
 -1        34 3.40249E-03-7.17247E-04-3.50626E-15
 -1        35 3.68240E-03-7.17571E-04-4.11352E-15
 -1        36 3.96375E-03-7.16824E-04-4.75825E-15
 -1        37 4.24635E-03-7.15344E-04-5.44046E-15
 -1        38 4.53007E-03-7.13387E-04-6.16542E-15
 -1        39 4.81480E-03-7.11153E-04-6.92597E-15
 -1        40 5.10049E-03-7.08824E-04-7.72181E-15
 -1        41 5.38713E-03-7.06590E-04-8.54755E-15
 -1        42 5.67472E-03-7.04679E-04-9.40286E-15
 -1        43 5.96322E-03-7.03373E-04-1.02926E-14
 -1        44 6.25253E-03-7.03015E-04-1.12156E-14
 -1        45 6.54239E-03-7.03996E-04-1.21674E-14
 -1        46 6.83232E-03-7.06694E-04-1.31539E-14
 -1        47 7.12149E-03-7.11369E-04-1.41643E-14
 -1        48 7.40866E-03-7.17983E-04-1.51918E-14
 -1        49 7.69214E-03-7.25944E-04-1.62337E-14
 -1        50 7.96988E-03-7.33807E-04-1.72890E-14
 -1        51 8.23967E-03-7.38987E-04-1.83611E-14
 -1        52 8.49959E-03-7.37618E-04-1.94479E-14
 -1        53 8.74855E-03-7.24690E-04-2.05393E-14
 -1        54 8.98688E-03-6.94591E-04-2.16303E-14
 -1        55 9.21662E-03-6.42040E-04-2.27294E-14
 -1        56 9.44147E-03-5.63202E-04-2.38326E-14
 -1        57 9.66611E-03-4.56610E-04-2.49420E-14
 -1        58 9.89526E-03-3.23549E-04-2.60408E-14
 -1        59 1.01327E-02-1.67709E-04-2.71350E-14
 -1        60 1.03805E-02 5.70709E-06-2.82210E-14
 -1        61 1.06392E-02 1.91102E-04-2.93118E-14
 -1        62 1.09077E-02 3.83441E-04-3.04210E-14
 -1        63 1.11841E-02 5.78825E-04-3.15387E-14
 -1        64 1.14660E-02 7.74665E-04-3.26722E-14
 -1        65 1.17515E-02 9.69553E-04-3.38198E-14
 -1        66 1.20388E-02 1.16299E-03-3.49883E-14
 -1        67 1.23266E-02 1.35506E-03-3.61735E-14
 -1        68 1.26141E-02 1.54622E-03-3.73788E-14
 -1        69 1.29010E-02 1.73701E-03-3.85926E-14
 -1        70 1.31872E-02 1.92796E-03-3.98139E-14
 -1        71 1.34729E-02 2.11940E-03-4.10648E-14
 -1        72 4.13816E-04 2.61435E-04 2.44488E-17
 -1        73 7.03170E-04 4.03675E-04-2.90024E-18
 -1        74 9.73943E-04 5.00105E-04-7.98210E-17
 -1        75 1.23872E-03 5.68767E-04-2.07171E-16
 -1        76 1.50237E-03 6.18036E-04-3.86325E-16
 -1        77 1.78038E-03 6.54691E-04-6.29478E-16
 -1        78 2.04728E-03 6.79045E-04-9.15070E-16
 -1        79 2.31663E-03 6.95803E-04-1.25106E-15
 -1        80 2.58849E-03 7.06943E-04-1.63801E-15
 -1        81 2.86271E-03 7.13959E-04-2.07296E-15
 -1        82 3.15295E-03 7.18112E-04-2.58175E-15
 -1        83 3.43130E-03 7.19869E-04-3.11265E-15
 -1        84 3.71125E-03 7.20089E-04-3.68501E-15
 -1        85 3.99259E-03 7.19190E-04-4.30113E-15
 -1        86 4.27514E-03 7.17446E-04-4.95454E-15
 -1        87 4.57297E-03 7.14882E-04-5.67938E-15
 -1        88 4.85767E-03 7.11822E-04-6.40899E-15
 -1        89 5.14348E-03 7.08166E-04-7.17493E-15
 -1        90 5.43059E-03 7.03872E-04-7.97531E-15
 -1        91 5.71938E-03 6.98876E-04-8.80448E-15
 -1        92 6.02516E-03 6.92811E-04-9.70339E-15
 -1        93 6.31993E-03 6.86281E-04-1.05819E-14
 -1        94 6.61995E-03 6.79245E-04-1.14845E-14
 -1        95 6.92796E-03 6.72404E-04-1.24050E-14
 -1        96 7.24821E-03 6.67445E-04-1.33334E-14
 -1        97 7.58717E-03 6.68074E-04-1.42617E-14
 -1        98 7.97366E-03 6.83165E-04-1.52420E-14
 -1        99 8.38407E-03 7.27148E-04-1.61758E-14
 -1       100 8.84934E-03 8.28056E-04-1.71021E-14
 -1       101 9.37370E-03 1.02877E-03-1.80215E-14
 -1       102 9.93102E-03 1.37458E-03-1.89239E-14
 -1       103 1.04439E-02 1.85841E-03-1.97816E-14
 -1       104 1.07554E-02 2.25107E-03-2.04383E-14
 -1       105 1.09701E-02 2.50025E-03-2.10660E-14
 -1       106 1.11219E-02 2.52667E-03-2.15556E-14
 -1       107 1.13830E-02 2.34835E-03-2.21964E-14
 -1       108 1.17107E-02 2.10601E-03-2.27739E-14
 -1       109 1.21623E-02 1.87135E-03-2.34558E-14
 -1       110 1.26639E-02 1.73943E-03-2.42300E-14
 -1       111 1.31864E-02 1.72914E-03-2.51180E-14
 -1       112 1.36709E-02 1.82374E-03-2.60685E-14
 -1       113 1.40765E-02 1.97019E-03-2.69629E-14
 -1       114 1.44414E-02 2.14406E-03-2.78675E-14
 -1       115 1.47780E-02 2.33051E-03-2.87941E-14
 -1       116 1.50958E-02 2.52185E-03-2.97677E-14
 -1       117 1.54159E-02 2.72385E-03-3.08441E-14
 -1       118 1.57123E-02 2.91529E-03-3.19209E-14
 -1       119 1.60033E-02 3.10480E-03-3.30338E-14
 -1       120 1.62908E-02 3.29181E-03-3.41780E-14
 -1       121 1.65766E-02 3.47622E-03-3.53432E-14
 -1       122 1.66828E-02 3.57438E-03-3.69007E-14
 -1       123 1.65052E-02 3.49018E-03-3.72609E-14
 -1       124 1.63295E-02 3.40764E-03-3.76233E-14
 -1       125 1.61547E-02 3.32767E-03-3.79756E-14
 -1       126 1.59792E-02 3.25034E-03-3.83090E-14
 -1       127 1.58047E-02 3.17629E-03-3.86233E-14
 -1       128 1.56244E-02 3.10197E-03-3.89348E-14
 -1       129 1.54410E-02 3.02760E-03-3.92445E-14
 -1       130 1.52548E-02 2.95227E-03-3.95464E-14
 -1       131 1.50665E-02 2.87538E-03-3.98386E-14
 -1       132 1.48767E-02 2.79670E-03-4.01611E-14
 -1       133 1.46895E-02 2.71766E-03-4.05135E-14
 -1       134 1.44990E-02 2.63576E-03-4.08812E-14
 -1       135 1.43087E-02 2.55270E-03-4.12257E-14
 -1       136 1.41190E-02 2.46883E-03-4.15865E-14
 -1       137 1.39298E-02 2.38457E-03-4.19340E-14
 -1       138 1.31131E-02 1.29251E-03-2.38063E-14
 -1       139 1.30362E-02 1.49825E-03-2.35695E-14
 -1       140 1.28531E-02 1.69487E-03-2.32677E-14
 -1       141 1.25639E-02 1.88774E-03-2.29122E-14
 -1       142 1.21593E-02 2.07177E-03-2.25058E-14
 -1       143 1.16941E-02 2.20501E-03-2.21044E-14
 -1       144 1.11013E-02 2.27143E-03-2.16446E-14
 -1       145 1.05357E-02 2.22873E-03-2.12332E-14
 -1       146 9.93172E-03 2.07346E-03-2.08081E-14
 -1       147 9.42811E-03 1.86277E-03-2.04652E-14
 -1       148 8.96401E-03 1.60302E-03-2.01442E-14
 -1       149 8.61080E-03 1.35311E-03-1.98976E-14
 -1       150 8.34722E-03 1.11349E-03-1.97191E-14
 -1       151 8.17865E-03 8.87612E-04-1.96185E-14
 -1       152 8.11257E-03 6.82849E-04-1.96129E-14
 -1       153 8.14654E-03 5.05653E-04-1.97060E-14
 -1       154 8.26760E-03 3.54895E-04-1.98826E-14
 -1       155 8.79349E-03 1.14226E-04-2.05222E-14
 -1       156 9.18562E-03 4.02284E-05-2.09613E-14
 -1       157 9.61715E-03 6.87827E-06-2.14203E-14
 -1       158 1.01284E-02 1.34560E-05-2.19383E-14
 -1       159 1.06194E-02 5.91636E-05-2.24052E-14
 -1       160 1.11209E-02 1.42830E-04-2.28454E-14
 -1       161 1.15837E-02 2.54493E-04-2.32217E-14
 -1       162 1.20390E-02 4.02213E-04-2.35573E-14
 -1       163 1.24317E-02 5.71102E-04-2.38112E-14
 -1       164 1.27294E-02 7.42547E-04-2.39554E-14
 -1       165 1.29471E-02 9.21105E-04-2.39993E-14
 -1       166 2.40403E-04-1.25515E-04-1.40235E-17
 -1       167 2.25275E-04-9.46156E-05-2.20195E-17
 -1       168 2.19522E-04-7.27730E-05-2.62208E-17
 -1       169 2.16711E-04-5.51041E-05-2.83722E-17
 -1       170 2.15224E-04-3.99646E-05-2.93717E-17
 -1       171 2.14389E-04-2.59127E-05-2.96258E-17
 -1       172 2.13970E-04-1.26431E-05-2.92735E-17
 -1       173 2.13848E-04 2.72189E-07-2.89956E-17
 -1       174 2.13989E-04 1.32001E-05-2.82231E-17
 -1       175 2.14430E-04 2.65100E-05-2.72880E-17
 -1       176 2.15273E-04 4.03897E-05-2.59124E-17
 -1       177 2.16821E-04 5.59102E-05-2.34289E-17
 -1       178 2.19675E-04 7.38135E-05-1.98748E-17
 -1       179 2.25445E-04 9.60158E-05-1.42539E-17
 -1       180 2.39333E-04 1.27594E-04-4.86536E-18
 -1       181 2.97703E-04 1.85498E-04 5.06187E-18
 -1       182 4.68616E-04-2.63542E-04-3.66698E-17
 -1       183 7.66755E-04-3.82122E-04-1.27299E-16
 -1       184 1.05060E-03-4.64985E-04-2.72114E-16
 -1       185 1.32799E-03-5.23725E-04-4.70822E-16
 -1       186 1.60259E-03-5.65364E-04-7.21320E-16
 -1       187 1.87648E-03-5.94586E-04-1.02339E-15
 -1       188 2.15081E-03-6.14691E-04-1.37587E-15
 -1       189 2.42615E-03-6.28096E-04-1.77745E-15
 -1       190 2.70280E-03-6.36606E-04-2.22814E-15
 -1       191 2.98082E-03-6.41576E-04-2.72593E-15
 -1       192 3.26017E-03-6.44015E-04-3.26665E-15
 -1       193 3.54077E-03-6.44670E-04-3.84723E-15
 -1       194 3.82250E-03-6.44085E-04-4.46906E-15
 -1       195 4.10526E-03-6.42649E-04-5.12778E-15
 -1       196 4.38893E-03-6.40647E-04-5.82698E-15
 -1       197 4.67345E-03-6.38293E-04-6.56468E-15
 -1       198 4.95878E-03-6.35763E-04-7.33613E-15
 -1       199 5.24488E-03-6.33234E-04-8.13944E-15
 -1       200 5.53174E-03-6.30910E-04-8.97447E-15
 -1       201 5.81932E-03-6.29048E-04-9.84120E-15
 -1       202 6.10757E-03-6.27980E-04-1.07411E-14
 -1       203 6.39633E-03-6.28106E-04-1.16707E-14
 -1       204 6.68532E-03-6.29873E-04-1.26324E-14
 -1       205 6.97407E-03-6.33689E-04-1.36225E-14
 -1       206 7.26185E-03-6.39785E-04-1.46311E-14
 -1       207 7.54765E-03-6.47982E-04-1.56554E-14
 -1       208 7.83022E-03-6.57386E-04-1.66919E-14
 -1       209 8.10811E-03-6.66052E-04-1.77465E-14
 -1       210 8.37996E-03-6.70708E-04-1.88153E-14
 -1       211 8.64475E-03-6.66694E-04-1.98942E-14
 -1       212 8.90223E-03-6.48291E-04-2.09724E-14
 -1       213 9.15319E-03-6.09518E-04-2.20551E-14
 -1       214 9.39957E-03-5.45294E-04-2.31450E-14
 -1       215 9.64420E-03-4.52639E-04-2.42366E-14
 -1       216 9.89029E-03-3.31452E-04-2.53278E-14
 -1       217 1.01407E-02-1.84534E-04-2.64148E-14
 -1       218 1.03975E-02-1.68472E-05-2.74968E-14
 -1       219 1.06614E-02 1.65667E-04-2.85775E-14
 -1       220 1.09323E-02 3.57272E-04-2.96694E-14
 -1       221 1.12092E-02 5.53263E-04-3.07766E-14
 -1       222 1.14906E-02 7.50339E-04-3.18927E-14
 -1       223 1.17752E-02 9.46566E-04-3.30221E-14
 -1       224 1.20617E-02 1.14112E-03-3.41676E-14
 -1       225 1.23489E-02 1.33393E-03-3.53334E-14
 -1       226 1.26363E-02 1.52541E-03-3.65176E-14
 -1       227 1.29234E-02 1.71615E-03-3.77174E-14
 -1       228 1.32100E-02 1.90680E-03-3.89270E-14
 -1       229 1.34961E-02 2.09785E-03-4.01545E-14
 -1       230 6.04553E-04 3.31026E-04-3.06457E-17
 -1       231 8.93640E-04 4.32627E-04-1.13292E-16
 -1       232 1.17252E-03 5.04348E-04-2.44809E-16
 -1       233 1.44686E-03 5.55396E-04-4.26671E-16
 -1       234 1.73331E-03 5.93085E-04-6.72141E-16
 -1       235 2.00624E-03 6.17937E-04-9.56659E-16
 -1       236 2.28013E-03 6.34896E-04-1.29134E-15
 -1       237 2.55538E-03 6.46056E-04-1.67612E-15
 -1       238 2.83211E-03 6.52987E-04-2.10793E-15
 -1       239 3.12428E-03 6.56992E-04-2.61264E-15
 -1       240 3.40394E-03 6.58583E-04-3.14110E-15
 -1       241 3.68485E-03 6.58633E-04-3.71137E-15
 -1       242 3.96689E-03 6.57568E-04-4.32405E-15
 -1       243 4.24995E-03 6.55665E-04-4.97393E-15
 -1       244 4.54818E-03 6.52940E-04-5.69486E-15
 -1       245 4.83319E-03 6.49718E-04-6.41833E-15
 -1       246 5.11922E-03 6.45877E-04-7.17831E-15
 -1       247 5.40645E-03 6.41350E-04-7.97127E-15
 -1       248 5.69523E-03 6.36030E-04-8.79178E-15
 -1       249 6.00070E-03 6.29458E-04-9.68285E-15
 -1       250 6.29465E-03 6.22181E-04-1.05572E-14
 -1       251 6.59286E-03 6.13974E-04-1.14535E-14
 -1       252 6.89727E-03 6.05274E-04-1.23682E-14
 -1       253 7.21068E-03 5.97343E-04-1.32947E-14
 -1       254 7.53707E-03 5.93207E-04-1.42229E-14
 -1       255 7.89969E-03 6.00245E-04-1.52014E-14
 -1       256 8.27106E-03 6.32142E-04-1.61342E-14
 -1       257 8.67504E-03 7.15191E-04-1.70569E-14
 -1       258 9.11630E-03 8.92832E-04-1.79753E-14
 -1       259 9.59156E-03 1.21815E-03-1.88732E-14
 -1       260 1.00823E-02 1.70550E-03-1.97356E-14
 -1       261 1.04625E-02 2.12855E-03-2.04037E-14
 -1       262 1.08218E-02 2.42135E-03-2.10574E-14
 -1       263 1.11063E-02 2.46879E-03-2.15746E-14
 -1       264 1.14912E-02 2.28567E-03-2.22505E-14
 -1       265 1.18507E-02 2.02452E-03-2.28564E-14
 -1       266 1.22674E-02 1.77256E-03-2.35625E-14
 -1       267 1.26972E-02 1.63351E-03-2.43433E-14
 -1       268 1.31437E-02 1.62405E-03-2.52386E-14
 -1       269 1.35722E-02 1.72327E-03-2.61913E-14
 -1       270 1.39459E-02 1.87462E-03-2.71032E-14
 -1       271 1.42932E-02 2.05282E-03-2.80259E-14
 -1       272 1.46207E-02 2.24270E-03-2.89686E-14
 -1       273 1.49343E-02 2.43665E-03-2.99479E-14
 -1       274 1.52529E-02 2.64069E-03-3.10248E-14
 -1       275 1.55495E-02 2.83357E-03-3.20983E-14
 -1       276 1.58413E-02 3.02417E-03-3.32079E-14
 -1       277 1.61301E-02 3.21198E-03-3.43507E-14
 -1       278 1.64169E-02 3.39688E-03-3.55117E-14
 -1       279 1.63464E-02 3.37475E-03-3.60577E-14
 -1       280 1.61702E-02 3.29212E-03-3.64194E-14
 -1       281 1.59958E-02 3.21128E-03-3.67713E-14
 -1       282 1.58215E-02 3.13235E-03-3.71106E-14
 -1       283 1.56486E-02 3.05631E-03-3.74293E-14
 -1       284 1.54700E-02 2.97994E-03-3.77452E-14
 -1       285 1.52881E-02 2.90379E-03-3.80636E-14
 -1       286 1.51030E-02 2.82716E-03-3.83767E-14
 -1       287 1.49153E-02 2.74952E-03-3.86872E-14
 -1       288 1.47257E-02 2.67058E-03-3.90024E-14
 -1       289 1.45383E-02 2.59166E-03-3.93213E-14
 -1       290 1.43474E-02 2.51014E-03-3.96594E-14
 -1       291 1.41567E-02 2.42759E-03-4.00023E-14
 -1       292 1.39665E-02 2.34427E-03-4.03413E-14
 -1       293 1.37311E-02 2.22115E-03-4.02531E-14
 -1       294 1.31393E-02 1.21130E-03-2.42433E-14
 -1       295 1.30927E-02 1.31668E-03-2.40525E-14
 -1       296 1.28957E-02 1.46633E-03-2.36812E-14
 -1       297 1.25859E-02 1.65405E-03-2.32899E-14
 -1       298 1.21602E-02 1.87701E-03-2.28795E-14
 -1       299 1.17551E-02 2.13186E-03-2.23745E-14
 -1       300 1.12989E-02 2.32567E-03-2.18874E-14
 -1       301 1.08546E-02 2.36045E-03-2.13963E-14
 -1       302 1.04065E-02 2.22091E-03-2.09142E-14
 -1       303 9.91963E-03 1.93591E-03-2.04783E-14
 -1       304 9.44428E-03 1.59602E-03-2.00696E-14
 -1       305 8.96506E-03 1.28643E-03-1.97441E-14
 -1       306 8.57756E-03 1.02609E-03-1.94643E-14
 -1       307 8.27853E-03 8.40513E-04-1.92927E-14
 -1       308 8.11002E-03 7.04837E-04-1.92010E-14
 -1       309 8.09050E-03 6.09317E-04-1.92752E-14
 -1       310 8.20310E-03 5.14344E-04-1.94544E-14
 -1       311 8.43306E-03 4.13505E-04-1.96772E-14
 -1       312 8.74791E-03 2.72942E-04-2.00912E-14
 -1       313 9.13690E-03 1.36085E-04-2.05348E-14
 -1       314 9.52165E-03 1.14606E-05-2.10856E-14
 -1       315 9.93009E-03-6.09248E-05-2.16574E-14
 -1       316 1.03366E-02-4.76908E-05-2.22385E-14
 -1       317 1.07441E-02 4.71188E-05-2.27768E-14
 -1       318 1.11664E-02 2.11275E-04-2.32657E-14
 -1       319 1.16136E-02 4.21121E-04-2.36933E-14
 -1       320 1.20584E-02 6.62088E-04-2.40924E-14
 -1       321 1.24865E-02 8.41276E-04-2.42709E-14
 -1       322 1.28152E-02 9.93132E-04-2.43733E-14
 -1       323 1.30410E-02 1.11140E-03-2.43631E-14
 -1       324 4.55398E-04-1.64781E-04-8.64550E-17
 -1       325 4.74255E-04-2.12967E-04-7.39358E-17
 -1       326 4.40456E-04-9.40040E-05-9.78154E-17
 -1       327 4.37492E-04-6.49024E-05-9.94620E-17
 -1       328 4.35869E-04-3.79014E-05-9.99262E-17
 -1       329 4.35160E-04-1.20171E-05-9.90283E-17
 -1       330 4.35191E-04 1.35327E-05-9.75037E-17
 -1       331 4.35968E-04 3.94753E-05-9.49151E-17
 -1       332 4.37634E-04 6.61298E-05-9.12661E-17
 -1       333 4.40689E-04 9.54040E-05-8.61297E-17
 -1       334 4.46073E-04 1.28316E-04-7.84048E-17
 -1       335 4.55903E-04 1.67296E-04-6.72849E-17
 -1       336 4.75889E-04 2.17038E-04-5.07474E-17
 -1       337 5.32010E-04 2.69963E-04-4.35375E-17
 -1       338 8.24486E-04 3.73482E-04-1.29545E-16
 -1       339 8.63267E-04-3.57372E-04-2.24870E-16
 -1       340 1.14962E-03-4.26098E-04-4.02852E-16
 -1       341 1.43241E-03-4.75222E-04-6.32083E-16
 -1       342 1.71314E-03-5.09893E-04-9.11428E-16
 -1       343 1.99293E-03-5.33904E-04-1.24069E-15
 -1       344 2.27255E-03-5.50069E-04-1.61800E-15
 -1       345 2.55248E-03-5.60499E-04-2.04226E-15
 -1       346 2.83297E-03-5.66775E-04-2.51359E-15
 -1       347 3.11416E-03-5.70080E-04-3.03009E-15
 -1       348 3.39609E-03-5.71288E-04-3.58743E-15
 -1       349 3.67874E-03-5.71038E-04-4.18432E-15
 -1       350 3.96208E-03-5.69787E-04-4.82088E-15
 -1       351 4.24607E-03-5.67861E-04-5.49469E-15
 -1       352 4.53068E-03-5.65495E-04-6.20879E-15
 -1       353 4.81587E-03-5.62872E-04-6.95784E-15
 -1       354 5.10165E-03-5.60155E-04-7.73969E-15
 -1       355 5.38801E-03-5.57521E-04-8.55115E-15
 -1       356 5.67496E-03-5.55190E-04-9.39564E-15
 -1       357 5.96251E-03-5.53454E-04-1.02759E-14
 -1       358 6.25064E-03-5.52683E-04-1.11855E-14
 -1       359 6.53929E-03-5.53327E-04-1.21229E-14
 -1       360 6.82829E-03-5.55868E-04-1.30911E-14
 -1       361 7.11737E-03-5.60718E-04-1.40823E-14
 -1       362 7.40603E-03-5.68042E-04-1.50891E-14
 -1       363 7.69358E-03-5.77484E-04-1.61088E-14
 -1       364 7.97906E-03-5.87813E-04-1.71447E-14
 -1       365 8.26135E-03-5.96550E-04-1.81989E-14
 -1       366 8.53930E-03-5.99698E-04-1.92594E-14
 -1       367 8.81206E-03-5.91787E-04-2.03246E-14
 -1       368 9.07947E-03-5.66401E-04-2.13911E-14
 -1       369 9.34236E-03-5.17281E-04-2.24690E-14
 -1       370 9.60259E-03-4.39762E-04-2.35489E-14
 -1       371 9.86270E-03-3.32044E-04-2.46273E-14
 -1       372 1.01253E-02-1.95711E-04-2.57037E-14
 -1       373 1.03922E-02-3.52593E-05-2.67758E-14
 -1       374 1.06643E-02 1.43129E-04-2.78504E-14
 -1       375 1.09417E-02 3.33031E-04-2.89285E-14
 -1       376 1.12233E-02 5.28919E-04-3.00219E-14
 -1       377 1.15081E-02 7.26746E-04-3.11227E-14
 -1       378 1.17949E-02 9.24015E-04-3.22370E-14
 -1       379 1.20827E-02 1.11953E-03-3.33667E-14
 -1       380 1.23708E-02 1.31303E-03-3.45088E-14
 -1       381 1.26588E-02 1.50484E-03-3.56716E-14
 -1       382 1.29463E-02 1.69555E-03-3.68532E-14
 -1       383 1.32333E-02 1.88587E-03-3.80457E-14
 -1       384 1.34824E-02 2.05324E-03-3.91405E-14
 -1       385 1.10996E-03 4.47776E-04-2.63007E-16
 -1       386 1.39071E-03 5.00801E-04-4.45621E-16
 -1       387 1.68291E-03 5.39906E-04-6.90471E-16
 -1       388 1.96030E-03 5.65630E-04-9.73363E-16
 -1       389 2.23776E-03 5.83132E-04-1.30540E-15
 -1       390 2.51581E-03 5.94608E-04-1.68698E-15
 -1       391 2.79473E-03 6.01702E-04-2.11564E-15
 -1       392 3.08863E-03 6.05771E-04-2.61579E-15
 -1       393 3.36954E-03 6.07362E-04-3.13980E-15
 -1       394 3.65139E-03 6.07377E-04-3.70646E-15
 -1       395 3.93412E-03 6.06259E-04-4.31458E-15
 -1       396 4.21766E-03 6.04295E-04-4.96127E-15
 -1       397 4.51623E-03 6.01503E-04-5.67783E-15
 -1       398 4.80140E-03 5.98217E-04-6.39639E-15
 -1       399 5.08743E-03 5.94306E-04-7.15001E-15
 -1       400 5.37444E-03 5.89696E-04-7.93526E-15
 -1       401 5.66268E-03 5.84267E-04-8.74941E-15
 -1       402 5.96703E-03 5.77530E-04-9.63405E-15
 -1       403 6.25907E-03 5.70004E-04-1.05020E-14
 -1       404 6.55401E-03 5.61395E-04-1.13943E-14
 -1       405 6.85288E-03 5.52023E-04-1.23040E-14
 -1       406 7.15708E-03 5.42929E-04-1.32271E-14
 -1       407 7.46846E-03 5.36702E-04-1.41563E-14
 -1       408 7.80573E-03 5.39541E-04-1.51359E-14
 -1       409 8.14015E-03 5.63583E-04-1.60666E-14
 -1       410 8.49260E-03 6.31459E-04-1.69885E-14
 -1       411 8.87219E-03 7.82030E-04-1.79046E-14
 -1       412 9.29423E-03 1.06966E-03-1.88023E-14
 -1       413 9.77239E-03 1.53316E-03-1.96730E-14
 -1       414 1.09213E-02 2.42174E-03-2.13756E-14
 -1       415 1.13451E-02 2.33934E-03-2.19926E-14
 -1       416 1.17860E-02 2.06271E-03-2.26579E-14
 -1       417 1.22166E-02 1.76861E-03-2.33734E-14
 -1       418 1.26271E-02 1.58340E-03-2.41545E-14
 -1       419 1.30348E-02 1.53781E-03-2.50508E-14
 -1       420 1.34240E-02 1.61491E-03-2.60083E-14
 -1       421 1.37702E-02 1.75570E-03-2.69304E-14
 -1       422 1.40999E-02 1.92938E-03-2.78597E-14
 -1       423 1.44172E-02 2.11799E-03-2.88084E-14
 -1       424 1.47254E-02 2.31225E-03-2.97808E-14
 -1       425 1.50414E-02 2.51736E-03-3.08457E-14
 -1       426 1.53372E-02 2.71155E-03-3.19042E-14
 -1       427 1.56292E-02 2.90355E-03-3.30016E-14
 -1       428 1.59184E-02 3.09282E-03-3.41338E-14
 -1       429 1.61329E-02 3.23475E-03-3.50916E-14
 -1       430 1.56630E-02 3.01244E-03-3.59182E-14
 -1       431 1.58362E-02 3.09209E-03-3.55774E-14
 -1       432 1.59837E-02 3.16282E-03-3.53382E-14
 -1       433 1.54917E-02 2.93574E-03-3.62424E-14
 -1       434 1.53149E-02 2.85874E-03-3.65615E-14
 -1       435 1.51347E-02 2.78201E-03-3.68803E-14
 -1       436 1.49508E-02 2.70485E-03-3.72016E-14
 -1       437 1.47638E-02 2.62674E-03-3.75200E-14
 -1       438 1.45745E-02 2.54741E-03-3.78356E-14
 -1       439 1.43871E-02 2.46818E-03-3.81472E-14
 -1       440 1.41959E-02 2.38646E-03-3.84655E-14
 -1       441 1.40047E-02 2.30381E-03-3.87904E-14
 -1       442 1.38141E-02 2.22048E-03-3.91210E-14
 -1       443 1.29937E-02 1.34892E-03-2.42135E-14
 -1       444 1.31257E-02 1.21732E-03-2.47887E-14
 -1       445 1.31593E-02 1.25840E-03-2.45888E-14
 -1       446 1.27555E-02 1.46722E-03-2.38138E-14
 -1       447 1.23803E-02 1.67530E-03-2.33402E-14
 -1       448 4.45604E-04-1.26473E-04-9.36818E-17
 -1       449 1.05929E-02 2.29821E-03-2.09084E-14
 -1       450 1.02171E-02 2.03524E-03-2.04793E-14
 -1       451 9.80392E-03 1.70657E-03-2.00722E-14
 -1       452 9.30779E-03 1.31352E-03-1.96086E-14
 -1       453 8.86331E-03 1.02640E-03-1.92726E-14
 -1       454 8.45187E-03 8.12896E-04-1.90173E-14
 -1       455 8.18662E-03 6.76489E-04-1.87906E-14
 -1       456 8.06699E-03 6.17505E-04-1.88495E-14
 -1       457 8.12193E-03 5.64601E-04-1.89448E-14
 -1       458 8.28451E-03 5.05636E-04-1.91591E-14
 -1       459 8.63126E-03 3.78175E-04-1.95932E-14
 -1       460 8.95591E-03 2.45466E-04-2.00309E-14
 -1       461 9.39426E-03 6.36121E-05-2.06818E-14
 -1       462 9.74098E-03-5.11960E-05-2.12864E-14
 -1       463 1.01209E-02-1.03030E-04-2.20015E-14
 -1       464 1.04739E-02-3.75183E-05-2.26364E-14
 -1       465 1.08449E-02 1.24524E-04-2.32574E-14
 -1       466 1.12593E-02 3.62636E-04-2.38252E-14
 -1       467 1.16967E-02 6.13166E-04-2.42666E-14
 -1       468 1.22270E-02 8.89185E-04-2.46762E-14
 -1       469 1.26207E-02 1.03593E-03-2.47721E-14
 -1       470 1.29377E-02 1.14666E-03-2.48187E-14
 -1       471 9.31254E-04 3.45996E-04-2.27367E-16
 -1       472 6.65852E-04-7.51269E-05-2.09400E-16
 -1       473 6.69813E-04-1.15880E-04-2.07296E-16
 -1       474 6.63186E-04 1.10193E-06-2.07039E-16
 -1       475 6.63906E-04 3.87592E-05-2.03027E-16
 -1       476 6.66044E-04 7.68089E-05-1.97108E-16
 -1       477 6.70131E-04 1.17718E-04-1.88922E-16
 -1       478 6.77132E-04 1.62334E-04-1.77281E-16
 -1       479 6.89035E-04 2.12697E-04-1.61472E-16
 -1       480 1.26338E-02 1.51949E-03-2.39329E-14
 -1       481 1.29833E-02 1.44185E-03-2.48316E-14
 -1       482 1.21714E-03 4.06452E-04-3.94728E-16
 -1       483 9.76297E-04-3.28606E-04-3.32826E-16
 -1       484 1.26223E-03-3.83425E-04-5.41484E-16
 -1       485 1.54725E-03-4.23122E-04-7.98681E-16
 -1       486 1.83138E-03-4.51106E-04-1.10580E-15
 -1       487 2.11494E-03-4.70270E-04-1.46019E-15
 -1       488 2.39823E-03-4.82900E-04-1.86056E-15
 -1       489 2.68151E-03-4.90756E-04-2.30639E-15
 -1       490 2.96495E-03-4.95175E-04-2.79722E-15
 -1       491 3.24864E-03-4.97154E-04-3.33185E-15
 -1       492 3.53263E-03-4.97429E-04-3.90588E-15
 -1       493 3.81695E-03-4.96528E-04-4.51909E-15
 -1       494 4.10160E-03-4.94827E-04-5.17001E-15
 -1       495 4.38658E-03-4.92589E-04-5.85818E-15
 -1       496 4.67190E-03-4.90005E-04-6.58417E-15
 -1       497 4.95757E-03-4.87229E-04-7.34398E-15
 -1       498 5.24363E-03-4.84409E-04-8.13507E-15
 -1       499 5.53012E-03-4.81717E-04-8.95672E-15
 -1       500 5.81713E-03-4.79381E-04-9.81550E-15
 -1       501 6.10475E-03-4.77707E-04-1.07080E-14
 -1       502 6.39310E-03-4.77093E-04-1.16258E-14
 -1       503 6.68231E-03-4.78015E-04-1.25716E-14
 -1       504 6.97246E-03-4.80982E-04-1.35429E-14
 -1       505 7.26355E-03-4.86420E-04-1.45356E-14
 -1       506 7.55539E-03-4.94470E-04-1.55394E-14
 -1       507 7.84750E-03-5.04669E-04-1.65589E-14
 -1       508 8.13901E-03-5.15529E-04-1.75943E-14
 -1       509 8.42867E-03-5.24078E-04-1.86381E-14
 -1       510 8.71506E-03-5.25534E-04-1.96893E-14
 -1       511 8.99698E-03-5.13408E-04-2.07420E-14
 -1       512 9.27412E-03-4.80310E-04-2.18025E-14
 -1       513 9.54749E-03-4.19539E-04-2.28701E-14
 -1       514 9.81935E-03-3.27003E-04-2.39366E-14
 -1       515 1.00925E-02-2.02576E-04-2.50019E-14
 -1       516 1.03693E-02-5.01097E-05-2.60660E-14
 -1       517 1.06508E-02 1.23837E-04-2.71295E-14
 -1       518 1.09368E-02 3.11880E-04-2.81946E-14
 -1       519 1.12261E-02 5.07453E-04-2.92723E-14
 -1       520 1.15172E-02 7.05686E-04-3.03603E-14
 -1       521 1.18090E-02 9.03554E-04-3.14611E-14
 -1       522 1.21005E-02 1.09958E-03-3.25713E-14
 -1       523 1.23912E-02 1.29336E-03-3.36985E-14
 -1       524 1.26808E-02 1.48516E-03-3.48393E-14
 -1       525 1.29694E-02 1.67560E-03-3.59987E-14
 -1       526 1.32570E-02 1.86539E-03-3.71701E-14
 -1       527 1.79812E-03 4.82161E-04-8.86949E-16
 -1       528 2.08011E-03 5.03009E-04-1.20003E-15
 -1       529 2.36187E-03 5.16893E-04-1.56148E-15
 -1       530 2.64377E-03 5.25688E-04-1.96981E-15
 -1       531 2.94011E-03 5.30984E-04-2.44816E-15
 -1       532 3.22280E-03 5.33366E-04-2.95026E-15
 -1       533 3.50598E-03 5.33919E-04-3.49798E-15
 -1       534 3.78967E-03 5.33174E-04-4.08578E-15
 -1       535 4.07385E-03 5.31486E-04-4.71417E-15
 -1       536 4.37278E-03 5.28937E-04-5.41290E-15
 -1       537 4.65797E-03 5.25883E-04-6.11339E-15
 -1       538 4.94367E-03 5.22241E-04-6.84807E-15
 -1       539 5.22992E-03 5.17968E-04-7.61528E-15
 -1       540 5.51676E-03 5.12977E-04-8.41225E-15
 -1       541 5.81866E-03 5.06838E-04-9.27726E-15
 -1       542 6.10692E-03 5.00035E-04-1.01280E-14
 -1       543 6.39594E-03 4.92287E-04-1.10055E-14
 -1       544 6.68562E-03 4.83809E-04-1.19044E-14
 -1       545 6.97566E-03 4.75310E-04-1.28198E-14
 -1       546 7.26543E-03 4.68486E-04-1.37470E-14
 -1       547 7.56819E-03 4.67066E-04-1.47269E-14
 -1       548 7.85377E-03 4.78509E-04-1.56592E-14
 -1       549 8.13636E-03 5.15472E-04-1.65844E-14
 -1       550 8.42062E-03 6.00623E-04-1.75006E-14
 -1       551 8.72304E-03 7.73325E-04-1.84047E-14
 -1       552 1.33085E-02 1.49691E-03-2.57946E-14
 -1       553 1.36041E-02 1.62365E-03-2.67294E-14
 -1       554 1.38968E-02 1.78788E-03-2.76680E-14
 -1       555 1.41897E-02 1.97112E-03-2.86218E-14
 -1       556 1.44824E-02 2.16286E-03-2.95942E-14
 -1       557 1.47890E-02 2.36724E-03-3.06477E-14
 -1       558 1.50798E-02 2.56177E-03-3.16907E-14
 -1       559 1.53692E-02 2.75474E-03-3.27736E-14
 -1       560 1.56574E-02 2.94535E-03-3.38902E-14
 -1       561 1.58208E-02 3.05465E-03-3.46110E-14
 -1       562 1.51599E-02 2.73716E-03-3.53972E-14
 -1       563 1.49815E-02 2.66092E-03-3.57176E-14
 -1       564 1.55036E-02 2.89053E-03-3.47448E-14
 -1       565 1.53330E-02 2.81316E-03-3.50766E-14
 -1       566 1.47990E-02 2.58416E-03-3.60349E-14
 -1       567 1.46127E-02 2.50620E-03-3.63552E-14
 -1       568 1.44235E-02 2.42673E-03-3.66719E-14
 -1       569 1.42358E-02 2.34713E-03-3.69736E-14
 -1       570 1.40442E-02 2.26488E-03-3.72827E-14
 -1       571 1.38526E-02 2.18167E-03-3.75968E-14
 -1       572 1.36615E-02 2.09787E-03-3.79151E-14
 -1       573 1.50834E-03 4.50985E-04-6.15624E-16
 -1       574 1.31991E-02 1.28628E-03-2.52550E-14
 -1       575 1.30615E-02 1.25539E-03-2.54191E-14
 -1       576 7.12633E-04-2.51807E-04-1.89918E-16
 -1       577 1.27915E-02 1.16627E-03-2.52515E-14
 -1       578 8.04535E-03 5.57022E-04-1.84309E-14
 -1       579 6.63793E-04-3.65195E-05-2.09468E-16
 -1       580 1.31526E-02 1.31376E-03-2.49202E-14
 -1       581 9.12988E-03 1.06945E-03-1.91087E-14
 -1       582 9.56377E-03-2.37489E-05-2.08691E-14
 -1       583 8.66367E-03 8.13651E-04-1.87544E-14
 -1       584 8.34076E-03 6.75224E-04-1.85221E-14
 -1       585 8.07253E-03 5.79979E-04-1.83300E-14
 -1       586 8.15900E-03 5.15910E-04-1.85668E-14
 -1       587 8.42314E-03 4.42016E-04-1.89847E-14
 -1       588 8.77355E-03 3.07450E-04-1.94562E-14
 -1       589 9.15317E-03 1.49660E-04-2.01050E-14
 -1       590 9.88816E-03-1.09814E-04-2.15841E-14
 -1       591 1.02689E-02-9.22504E-05-2.24594E-14
 -1       592 1.05855E-02 2.73636E-05-2.31262E-14
 -1       593 1.09664E-02 2.53862E-04-2.38545E-14
 -1       594 1.14142E-02 5.37700E-04-2.44749E-14
 -1       595 1.19097E-02 8.18469E-04-2.49417E-14
 -1       596 1.24495E-02 1.06697E-03-2.52890E-14
 -1       597 7.03812E-04 2.90877E-04-1.22776E-16
 -1       598 6.76635E-04-1.60037E-04-2.02688E-16
 -1       599 8.15220E-03 5.72171E-04-1.80562E-14
 -1       600 1.29020E-02 1.40460E-03-2.44135E-14
 -1       601 1.34471E-02 1.99202E-03-3.79824E-14
 -1       602 1.55804E-02 2.91740E-03-3.43203E-14
 -1       603 8.99809E-04 7.40983E-05-3.42540E-16
 -1       604 8.97722E-04 2.51726E-05-3.50441E-16
 -1       605 9.11866E-04 1.78206E-04-3.16919E-16
 -1       606 9.24221E-04 2.36768E-04-2.96753E-16
 -1       607 1.04889E-03 3.13880E-04-3.38058E-16
 -1       608 1.38332E-03-3.36956E-04-6.87208E-16
 -1       609 1.66951E-03-3.67821E-04-9.71648E-16
 -1       610 1.95573E-03-3.89515E-04-1.30415E-15
 -1       611 2.24177E-03-4.04194E-04-1.68181E-15
 -1       612 2.52763E-03-4.13642E-04-2.10337E-15
 -1       613 2.81335E-03-4.19265E-04-2.56986E-15
 -1       614 3.09897E-03-4.22144E-04-3.07997E-15
 -1       615 3.38455E-03-4.23087E-04-3.63160E-15
 -1       616 3.67012E-03-4.22685E-04-4.22262E-15
 -1       617 3.95571E-03-4.21356E-04-4.85179E-15
 -1       618 4.24133E-03-4.19393E-04-5.51657E-15
 -1       619 4.52701E-03-4.17000E-04-6.21823E-15
 -1       620 4.81279E-03-4.14320E-04-6.95512E-15
 -1       621 5.09873E-03-4.11473E-04-7.72625E-15
 -1       622 5.38489E-03-4.08579E-04-8.52707E-15
 -1       623 5.67142E-03-4.05791E-04-9.36379E-15
 -1       624 5.95848E-03-4.03321E-04-1.02366E-14
 -1       625 6.24633E-03-4.01466E-04-1.11373E-14
 -1       626 6.53529E-03-4.00623E-04-1.20626E-14
 -1       627 6.82577E-03-4.01290E-04-1.30143E-14
 -1       628 7.11819E-03-4.04029E-04-1.39872E-14
 -1       629 7.41288E-03-4.09357E-04-1.49794E-14
 -1       630 7.70995E-03-4.17534E-04-1.59841E-14
 -1       631 8.00901E-03-4.28183E-04-1.70023E-14
 -1       632 8.30901E-03-4.39727E-04-1.80304E-14
 -1       633 8.60817E-03-4.48711E-04-1.90653E-14
 -1       634 8.90429E-03-4.49288E-04-2.01063E-14
 -1       635 9.19558E-03-4.33345E-04-2.11506E-14
 -1       636 9.48170E-03-3.91833E-04-2.22033E-14
 -1       637 9.76438E-03-3.17347E-04-2.32549E-14
 -1       638 1.00469E-02-2.06931E-04-2.43077E-14
 -1       639 1.03328E-02-6.32314E-05-2.53588E-14
 -1       640 1.06237E-02 1.06632E-04-2.64117E-14
 -1       641 1.09195E-02 2.93652E-04-2.74680E-14
 -1       642 1.12185E-02 4.89596E-04-2.85293E-14
 -1       643 1.15185E-02 6.88461E-04-2.96028E-14
 -1       644 1.18176E-02 8.86691E-04-3.06894E-14
 -1       645 1.21148E-02 1.08268E-03-3.17865E-14
 -1       646 1.24095E-02 1.27609E-03-3.28964E-14
 -1       647 1.27019E-02 1.46728E-03-3.40231E-14
 -1       648 1.29922E-02 1.65693E-03-3.51612E-14
 -1       649 1.32808E-02 1.84579E-03-3.63125E-14
 -1       650 2.20496E-03 4.37779E-04-1.43424E-15
 -1       651 8.23338E-03 4.45383E-04-1.83338E-14
 -1       652 1.91996E-03 4.21471E-04-1.09212E-15
 -1       653 2.78157E-03 4.54983E-04-2.26885E-15
 -1       654 3.06630E-03 4.58394E-04-2.74956E-15
 -1       655 3.35112E-03 4.59698E-04-3.27462E-15
 -1       656 3.63607E-03 4.59515E-04-3.84263E-15
 -1       657 3.92118E-03 4.58273E-04-4.45009E-15
 -1       658 4.22072E-03 4.56135E-04-5.12973E-15
 -1       659 4.50617E-03 4.53473E-04-5.81343E-15
 -1       660 4.79177E-03 4.50277E-04-6.53044E-15
 -1       661 5.07749E-03 4.46556E-04-7.27964E-15
 -1       662 5.36327E-03 4.42281E-04-8.05880E-15
 -1       663 5.66328E-03 4.37150E-04-8.90717E-15
 -1       664 5.94870E-03 4.31635E-04-9.74052E-15
 -1       665 6.23344E-03 4.25586E-04-1.06009E-14
 -1       666 6.51677E-03 4.19285E-04-1.14872E-14
 -1       667 6.79753E-03 4.13399E-04-1.23927E-14
 -1       668 7.07384E-03 4.09285E-04-1.33154E-14
 -1       669 7.35602E-03 4.09659E-04-1.42941E-14
 -1       670 7.61292E-03 4.19002E-04-1.52295E-14
 -1       671 7.85302E-03 4.44158E-04-1.61601E-14
 -1       672 8.07118E-03 4.95843E-04-1.70806E-14
 -1       673 8.33408E-03 6.01947E-04-1.79223E-14
 -1       674 1.37065E-02 1.65013E-03-2.74540E-14
 -1       675 1.39606E-02 1.82145E-03-2.84138E-14
 -1       676 1.42272E-02 2.00503E-03-2.93899E-14
 -1       677 1.45160E-02 2.20425E-03-3.04347E-14
 -1       678 1.47962E-02 2.39626E-03-3.14664E-14
 -1       679 1.50792E-02 2.58831E-03-3.25308E-14
 -1       680 1.53293E-02 2.75343E-03-3.34147E-14
 -1       681 1.34714E-02 1.97171E-03-3.71094E-14
 -1       682 1.03818E-02-4.51018E-05-2.29625E-14
 -1       683 1.44625E-02 2.38730E-03-3.52095E-14
 -1       684 1.48292E-02 2.53964E-03-3.45753E-14
 -1       685 1.42731E-02 2.30822E-03-3.55236E-14
 -1       686 1.46482E-02 2.46427E-03-3.48953E-14
 -1       687 1.32072E-02 1.33585E-03-2.59426E-14
 -1       688 1.40848E-02 2.22841E-03-3.58223E-14
 -1       689 1.38924E-02 2.14549E-03-3.61239E-14
 -1       690 1.37002E-02 2.06136E-03-3.64290E-14
 -1       691 1.32777E-02 1.35510E-03-2.56813E-14
 -1       692 1.00327E-02-1.33454E-04-2.20798E-14
 -1       693 9.66253E-03-1.00812E-04-2.11197E-14
 -1       694 2.48974E-03 4.48400E-04-1.82269E-15
 -1       695 1.09773E-03-2.94600E-04-4.50561E-16
 -1       696 1.21881E-02 1.00904E-03-2.57005E-14
 -1       697 8.02330E-03 4.98969E-04-1.79808E-14
 -1       698 9.04254E-04 1.24598E-04-3.31769E-16
 -1       699 9.03888E-04-1.22197E-04-3.55622E-16
 -1       700 8.50818E-03 3.50474E-04-1.87474E-14
 -1       701 1.34692E-02 1.50142E-03-2.64984E-14
 -1       702 1.27190E-02 1.21538E-03-2.59552E-14
 -1       703 7.99172E-03 5.18437E-04-1.78789E-14
 -1       704 8.91981E-03 1.87762E-04-1.94762E-14
 -1       705 9.29134E-03 3.36673E-05-2.02376E-14
 -1       706 1.07035E-02 1.24826E-04-2.37103E-14
 -1       707 1.11490E-02 4.15502E-04-2.45754E-14
 -1       708 1.16542E-02 7.29740E-04-2.52341E-14
 -1       709 1.30108E-02 1.29159E-03-2.59535E-14
 -1       710 9.11301E-04-1.75606E-04-3.50665E-16
 -1       711 8.97661E-04-2.31612E-05-3.55269E-16
 -1       712 1.34178E-03 3.62488E-04-5.43019E-16
 -1       713 8.99604E-04-7.18214E-05-3.56994E-16
 -1       714 8.04647E-03 4.41415E-04-1.77398E-14
 -1       715 8.00612E-03 5.07691E-04-1.76018E-14
 -1       716 1.50035E-02 2.61386E-03-3.42561E-14
 -1       717 1.51735E-02 2.68882E-03-3.39344E-14
 -1       718 1.63106E-03 3.97158E-04-7.93673E-16
 -1       719 1.34903E-02 1.95391E-03-3.63716E-14
 -1       720 9.38253E-04-2.47122E-04-3.47073E-16
 -1       721 1.16158E-03 2.43594E-04-4.72265E-16
 -1       722 1.01543E-02-1.15496E-04-2.26760E-14
 -1       723 1.79732E-03-3.09320E-04-1.15057E-15
 -1       724 2.08498E-03-3.25306E-04-1.50589E-15
 -1       725 2.37276E-03-3.35955E-04-1.90505E-15
 -1       726 2.66044E-03-3.42607E-04-2.34746E-15
 -1       727 2.94789E-03-3.46340E-04-2.83447E-15
 -1       728 3.23510E-03-3.47984E-04-3.36306E-15
 -1       729 3.52203E-03-3.48159E-04-3.93133E-15
 -1       730 3.80872E-03-3.47312E-04-4.53823E-15
 -1       731 4.09517E-03-3.45755E-04-5.18132E-15
 -1       732 4.38142E-03-3.43698E-04-5.86197E-15
 -1       733 4.66750E-03-3.41279E-04-6.57703E-15
 -1       734 4.95349E-03-3.38590E-04-7.32452E-15
 -1       735 5.23946E-03-3.35704E-04-8.10728E-15
 -1       736 5.52555E-03-3.32695E-04-8.92207E-15
 -1       737 5.81198E-03-3.29669E-04-9.77257E-15
 -1       738 6.09905E-03-3.26789E-04-1.06549E-14
 -1       739 6.38721E-03-3.24310E-04-1.15638E-14
 -1       740 6.67706E-03-3.22610E-04-1.24968E-14
 -1       741 6.96935E-03-3.22220E-04-1.34519E-14
 -1       742 7.26490E-03-3.23828E-04-1.44300E-14
 -1       743 7.56447E-03-3.28205E-04-1.54216E-14
 -1       744 7.86848E-03-3.35994E-04-1.64246E-14
 -1       745 8.17656E-03-3.47228E-04-1.74342E-14
 -1       746 8.48718E-03-3.60475E-04-1.84552E-14
 -1       747 8.79758E-03-3.71667E-04-1.94815E-14
 -1       748 9.10433E-03-3.73195E-04-2.05122E-14
 -1       749 9.40491E-03-3.53986E-04-2.15504E-14
 -1       750 9.69941E-03-3.02293E-04-2.25880E-14
 -1       751 9.99130E-03-2.09994E-04-2.36228E-14
 -1       752 1.02855E-02-7.70181E-05-2.46612E-14
 -1       753 1.05856E-02 8.92194E-05-2.57019E-14
 -1       754 1.08921E-02 2.77011E-04-2.67463E-14
 -1       755 1.12025E-02 4.75180E-04-2.77961E-14
 -1       756 1.15134E-02 6.75797E-04-2.88565E-14
 -1       757 1.18219E-02 8.74622E-04-2.99268E-14
 -1       758 1.21264E-02 1.07015E-03-3.10102E-14
 -1       759 1.24264E-02 1.26241E-03-3.21052E-14
 -1       760 1.27224E-02 1.45214E-03-3.32167E-14
 -1       761 1.30149E-02 1.64024E-03-3.43422E-14
 -1       762 1.32534E-02 1.79698E-03-3.53505E-14
 -1       763 1.22457E-03-2.54967E-04-5.77449E-16
 -1       764 1.34348E-02 1.47108E-03-2.67745E-14
 -1       765 3.20157E-03 3.84654E-04-3.06696E-15
 -1       766 2.91501E-03 3.82566E-04-2.56283E-15
 -1       767 3.77422E-03 3.84401E-04-4.20354E-15
 -1       768 4.07463E-03 3.82781E-04-4.86432E-15
 -1       769 4.36059E-03 3.80619E-04-5.53046E-15
 -1       770 4.64638E-03 3.77977E-04-6.23233E-15
 -1       771 4.93194E-03 3.74921E-04-6.96507E-15
 -1       772 5.21716E-03 3.71485E-04-7.72834E-15
 -1       773 5.51606E-03 3.67508E-04-8.56099E-15
 -1       774 5.79979E-03 3.63454E-04-9.37984E-15
 -1       775 6.08206E-03 3.59337E-04-1.02260E-14
 -1       776 6.36195E-03 3.55556E-04-1.10993E-14
 -1       777 6.63805E-03 3.52864E-04-1.19947E-14
 -1       778 6.90820E-03 3.52578E-04-1.29094E-14
 -1       779 7.18194E-03 3.57263E-04-1.38827E-14
 -1       780 7.42834E-03 3.69917E-04-1.48206E-14
 -1       781 7.65415E-03 3.95288E-04-1.57585E-14
 -1       782 7.85047E-03 4.38918E-04-1.66876E-14
 -1       783 1.39851E-02 1.86387E-03-2.91737E-14
 -1       784 1.42536E-02 2.05289E-03-3.02197E-14
 -1       785 1.14009E-02 6.00148E-04-2.54216E-14
 -1       786 3.48797E-03 3.85105E-04-3.61492E-15
 -1       787 1.37465E-02 1.69406E-03-2.81910E-14
 -1       788 1.45207E-02 2.23862E-03-3.12398E-14
 -1       789 1.47951E-02 2.42696E-03-3.22888E-14
 -1       790 1.49837E-02 2.55814E-03-3.31033E-14
 -1       791 8.24983E-03 3.52811E-04-1.79893E-14
 -1       792 1.08713E-02 2.55510E-04-2.44427E-14
 -1       793 1.13832E-03 5.90355E-05-5.26228E-16
 -1       794 1.06664E-03-2.14905E-04-4.57608E-16
 -1       795 1.04875E-02 2.17480E-05-2.35185E-14
 -1       796 1.41242E-02 2.19171E-03-3.43962E-14
 -1       797 1.35472E-02 1.94311E-03-3.52907E-14
 -1       798 1.39346E-02 2.11205E-03-3.46960E-14
 -1       799 2.62110E-03 3.78019E-04-2.09085E-15
 -1       800 2.33418E-03 3.70300E-04-1.67573E-15
 -1       801 1.24981E-03 3.01280E-04-5.09368E-16
 -1       802 1.37408E-02 2.02846E-03-3.49948E-14
 -1       803 9.39169E-03-6.97933E-05-2.04821E-14
 -1       804 2.04713E-03 3.58132E-04-1.30615E-15
 -1       805 1.51025E-03-2.86418E-04-8.40382E-16
 -1       806 7.92201E-03 4.65724E-04-1.74090E-14
 -1       807 9.78766E-03-1.60049E-04-2.16170E-14
 -1       808 9.01563E-03 5.91513E-05-1.95540E-14
 -1       809 1.19504E-02 9.20503E-04-2.60817E-14
 -1       810 8.60786E-03 2.22277E-04-1.86715E-14
 -1       811 1.25153E-02 1.18284E-03-2.65031E-14
 -1       812 1.13694E-03 1.18897E-06-5.34796E-16
 -1       813 1.32837E-02 1.43269E-03-2.69078E-14
 -1       814 1.28608E-02 1.31246E-03-2.67683E-14
 -1       815 1.11219E-02 4.29230E-04-2.52921E-14
 -1       816 1.46773E-02 2.41730E-03-3.34573E-14
 -1       817 1.44985E-02 2.34434E-03-3.37780E-14
 -1       818 1.43138E-02 2.26951E-03-3.40890E-14
 -1       819 1.75648E-03 3.39738E-04-9.79258E-16
 -1       820 1.14985E-03 1.79071E-04-4.95735E-16
 -1       821 7.89918E-03 4.20256E-04-1.71621E-14
 -1       822 1.14243E-03 1.17904E-04-5.13400E-16
 -1       823 9.52804E-03-1.60072E-04-2.09737E-14
 -1       824 1.05681E-03-1.54440E-04-4.64916E-16
 -1       825 1.05083E-03-9.73036E-05-4.67806E-16
 -1       826 1.34001E-02 1.87027E-03-3.53216E-14
 -1       827 1.09285E-03-4.91600E-05-5.02484E-16
 -1       828 2.21834E-03-2.58585E-04-1.71125E-15
 -1       829 2.50737E-03-2.65752E-04-2.13126E-15
 -1       830 2.79631E-03-2.70051E-04-2.59448E-15
 -1       831 3.08497E-03-2.72260E-04-3.10024E-15
 -1       832 3.37323E-03-2.72978E-04-3.64663E-15
 -1       833 3.66106E-03-2.72644E-04-4.23132E-15
 -1       834 3.94844E-03-2.71571E-04-4.85329E-15
 -1       835 4.23539E-03-2.69965E-04-5.51256E-15
 -1       836 4.52194E-03-2.67956E-04-6.20720E-15
 -1       837 4.80813E-03-2.65613E-04-6.93522E-15
 -1       838 5.09404E-03-2.62967E-04-7.69555E-15
 -1       839 5.37980E-03-2.60025E-04-8.48995E-15
 -1       840 5.66559E-03-2.56789E-04-9.31971E-15
 -1       841 5.95171E-03-2.53282E-04-1.01820E-14
 -1       842 6.23861E-03-2.49578E-04-1.10724E-14
 -1       843 6.52696E-03-2.45853E-04-1.19902E-14
 -1       844 6.81766E-03-2.42446E-04-1.29291E-14
 -1       845 7.11188E-03-2.39953E-04-1.38880E-14
 -1       846 7.41098E-03-2.39307E-04-1.48666E-14
 -1       847 7.71627E-03-2.41792E-04-1.58582E-14
 -1       848 8.02860E-03-2.48856E-04-1.68571E-14
 -1       849 8.34764E-03-2.61446E-04-1.78602E-14
 -1       850 8.67110E-03-2.78619E-04-1.88724E-14
 -1       851 8.99468E-03-2.95186E-04-1.98896E-14
 -1       852 9.31295E-03-3.00471E-04-2.09103E-14
 -1       853 9.62326E-03-2.77645E-04-2.19335E-14
 -1       854 9.92614E-03-2.10968E-04-2.29548E-14
 -1       855 1.02297E-02-9.35375E-05-2.39773E-14
 -1       856 1.05388E-02 6.83230E-05-2.50044E-14
 -1       857 1.08568E-02 2.59548E-04-2.60365E-14
 -1       858 1.11805E-02 4.63251E-04-2.70730E-14
 -1       859 1.15044E-02 6.67948E-04-2.81223E-14
 -1       860 1.18242E-02 8.68281E-04-2.91801E-14
 -1       861 1.21373E-02 1.06311E-03-3.02470E-14
 -1       862 1.24435E-02 1.25337E-03-3.13272E-14
 -1       863 1.27434E-02 1.44059E-03-3.24192E-14
 -1       864 1.30384E-02 1.62616E-03-3.35332E-14
 -1       865 1.35848E-02 1.63749E-03-2.83441E-14
 -1       866 1.64165E-03-2.31638E-04-1.00086E-15
 -1       867 4.21440E-03 3.07227E-04-5.24797E-15
 -1       868 3.91339E-03 3.08881E-04-4.56709E-15
 -1       869 4.78639E-03 3.02884E-04-6.65190E-15
 -1       870 5.07152E-03 3.00327E-04-7.39985E-15
 -1       871 5.37000E-03 2.97507E-04-8.21556E-15
 -1       872 5.65306E-03 2.94859E-04-9.02065E-15
 -1       873 5.93439E-03 2.92532E-04-9.85428E-15
 -1       874 6.21313E-03 2.91014E-04-1.07162E-14
 -1       875 6.48804E-03 2.91119E-04-1.16000E-14
 -1       876 6.75730E-03 2.94146E-04-1.25061E-14
 -1       877 7.03106E-03 3.02660E-04-1.34762E-14
 -1       878 7.27944E-03 3.18796E-04-1.44122E-14
 -1       879 7.51069E-03 3.46562E-04-1.53547E-14
 -1       880 7.71778E-03 3.90044E-04-1.62917E-14
 -1       881 3.62630E-03 3.09849E-04-3.95739E-15
 -1       882 1.31648E-02 1.44892E-03-2.75390E-14
 -1       883 1.45132E-02 2.27193E-03-3.20474E-14
 -1       884 1.28090E-03-2.18263E-04-6.40611E-16
 -1       885 8.28599E-03 2.32357E-04-1.77861E-14
 -1       886 1.27302E-02 1.29987E-03-2.73580E-14
 -1       887 1.38122E-02 1.79524E-03-2.93383E-14
 -1       888 1.50278E-03 3.24759E-04-7.25358E-16
 -1       889 1.17122E-02 7.98980E-04-2.64206E-14
 -1       890 9.91376E-03-1.75650E-04-2.22234E-14
 -1       891 1.06166E-02 1.09398E-04-2.42240E-14
 -1       892 1.37844E-02 1.99761E-03-3.35913E-14
 -1       893 2.75923E-03 3.06076E-04-2.37073E-15
 -1       894 2.47081E-03 3.00881E-04-1.92982E-15
 -1       895 3.33884E-03 3.09975E-04-3.38765E-15
 -1       896 4.50064E-03 3.05213E-04-5.93291E-15
 -1       897 1.40711E-02 1.97355E-03-3.03983E-14
 -1       898 1.42889E-02 2.12082E-03-3.12135E-14
 -1       899 2.18229E-03 2.92405E-04-1.53322E-15
 -1       900 9.10915E-03-7.02651E-05-1.97998E-14
 -1       901 8.68306E-03 8.14624E-05-1.86951E-14
 -1       902 7.99349E-03 3.57919E-04-1.72419E-14
 -1       903 1.02934E-02-6.07586E-05-2.33741E-14
 -1       904 3.05100E-03 3.08901E-04-2.86082E-15
 -1       905 1.92957E-03-2.47585E-04-1.33404E-15
 -1       906 1.23022E-02 1.11348E-03-2.70050E-14
 -1       907 1.32199E-02 1.74784E-03-3.44271E-14
 -1       908 1.43348E-02 2.20501E-03-3.24509E-14
 -1       909 1.14339E-02 6.31276E-04-2.62963E-14
 -1       910 1.89037E-03 2.79344E-04-1.17797E-15
 -1       911 9.66532E-03-2.09485E-04-2.15726E-14
 -1       912 1.39792E-02 2.07779E-03-3.32929E-14
 -1       913 1.35879E-02 1.91338E-03-3.38866E-14
 -1       914 1.38110E-03 3.40864E-05-7.45748E-16
 -1       915 1.40133E-03 2.36975E-04-6.87079E-16
 -1       916 8.01074E-03 2.58511E-04-1.70276E-14
 -1       917 1.08555E-02 2.61562E-04-2.50765E-14
 -1       918 1.45121E-03 2.80070E-04-7.07594E-16
 -1       919 1.38426E-03 9.99334E-05-7.31982E-16
 -1       920 1.31792E-03-1.55017E-04-6.89448E-16
 -1       921 1.33908E-02 1.82881E-03-3.42683E-14
 -1       922 2.31760E-03 2.24100E-04-1.76360E-15
 -1       923 1.33751E-02 1.58708E-03-2.86389E-14
 -1       924 1.35823E-03-9.85301E-05-7.33466E-16
 -1       925 2.64516E-03-1.93794E-04-2.36007E-15
 -1       926 2.93494E-03-1.96228E-04-2.84259E-15
 -1       927 3.22434E-03-1.97302E-04-3.36725E-15
 -1       928 3.51323E-03-1.97404E-04-3.93043E-15
 -1       929 3.80154E-03-1.96812E-04-4.53191E-15
 -1       930 4.08924E-03-1.95714E-04-5.16962E-15
 -1       931 4.37635E-03-1.94221E-04-5.84545E-15
 -1       932 4.66288E-03-1.92381E-04-6.55339E-15
 -1       933 4.94890E-03-1.90194E-04-7.29465E-15
 -1       934 5.23447E-03-1.87614E-04-8.06867E-15
 -1       935 5.51972E-03-1.84562E-04-8.87637E-15
 -1       936 5.80489E-03-1.80937E-04-9.71852E-15
 -1       937 6.09034E-03-1.76637E-04-1.05901E-14
 -1       938 6.37664E-03-1.71597E-04-1.14898E-14
 -1       939 6.66467E-03-1.65862E-04-1.24151E-14
 -1       940 6.95568E-03-1.59709E-04-1.33604E-14
 -1       941 7.25133E-03-1.53830E-04-1.43226E-14
 -1       942 7.55367E-03-1.49562E-04-1.53009E-14
 -1       943 7.86487E-03-1.49063E-04-1.62889E-14
 -1       944 8.18653E-03-1.55213E-04-1.72804E-14
 -1       945 8.51864E-03-1.70690E-04-1.82765E-14
 -1       946 8.85776E-03-1.95958E-04-1.92799E-14
 -1       947 9.19728E-03-2.23213E-04-2.02873E-14
 -1       948 1.01645E-02-1.14417E-04-2.33116E-14
 -1       949 1.11555E-02 4.51989E-04-2.63649E-14
 -1       950 1.14952E-02 6.64871E-04-2.73990E-14
 -1       951 1.18282E-02 8.68498E-04-2.84445E-14
 -1       952 1.21512E-02 1.06258E-03-2.94968E-14
 -1       953 1.24636E-02 1.24985E-03-3.05629E-14
 -1       954 1.27671E-02 1.43327E-03-3.16401E-14
 -1       955 1.30638E-02 1.61514E-03-3.27346E-14
 -1       956 1.37863E-02 1.83462E-03-3.01283E-14
 -1       957 8.74694E-03-7.05480E-05-1.88534E-14
 -1       958 5.21791E-03 2.26795E-04-7.85346E-15
 -1       959 4.93350E-03 2.28472E-04-7.08910E-15
 -1       960 5.78957E-03 2.24447E-04-9.48355E-15
 -1       961 6.06868E-03 2.24649E-04-1.03346E-14
 -1       962 6.34453E-03 2.26725E-04-1.12087E-14
 -1       963 6.61589E-03 2.31879E-04-1.21043E-14
 -1       964 6.89411E-03 2.42517E-04-1.30690E-14
 -1       965 7.15046E-03 2.60085E-04-1.40035E-14
 -1       966 7.39574E-03 2.87891E-04-1.49465E-14
 -1       967 7.62682E-03 3.28934E-04-1.58943E-14
 -1       968 3.76605E-03 2.34227E-04-4.30353E-15
 -1       969 1.29846E-02 1.44121E-03-2.84671E-14
 -1       970 1.35784E-02 1.70690E-03-2.93811E-14
 -1       971 1.26033E-02 1.27507E-03-2.81173E-14
 -1       972 1.41532E-02 2.13908E-03-3.28471E-14
 -1       973 2.60717E-03 2.29531E-04-2.18578E-15
 -1       974 2.06558E-03-1.82669E-04-1.52231E-15
 -1       975 4.06792E-03 2.33189E-04-4.96545E-15
 -1       976 3.47796E-03 2.34652E-04-3.71346E-15
 -1       977 1.20626E-02 1.00178E-03-2.75311E-14
 -1       978 1.37948E-03-3.24026E-05-7.52907E-16
 -1       979 7.79181E-03 3.51933E-04-1.65615E-14
 -1       980 1.39079E-03 1.67255E-04-7.12521E-16
 -1       981 2.90023E-03 2.32740E-04-2.65653E-15
 -1       982 3.18933E-03 2.34272E-04-3.16379E-15
 -1       983 2.35524E-03-1.89487E-04-1.91988E-15
 -1       984 5.50814E-03 2.25320E-04-8.66330E-15
 -1       985 1.77681E-03-1.72581E-04-1.16717E-15
 -1       986 8.30889E-03 8.74965E-05-1.76623E-14
 -1       987 1.56639E-03-1.34660E-04-9.38800E-16
 -1       988 1.40376E-02 2.00972E-03-3.13088E-14
 -1       989 1.62934E-03 7.32060E-05-9.86251E-16
 -1       990 1.17896E-02 8.46715E-04-2.74147E-14
 -1       991 4.64812E-03 2.30182E-04-6.35540E-15
 -1       992 1.38499E-02 1.94681E-03-3.16927E-14
 -1       993 2.02466E-03 2.15528E-04-1.38249E-15
 -1       994 1.67028E-03 2.82556E-04-9.28226E-16
 -1       995 1.36387E-02 1.88692E-03-3.25067E-14
 -1       996 8.03352E-03 1.30467E-04-1.68948E-14
 -1       997 4.35479E-03 2.31822E-04-5.63455E-15
 -1       998 7.78176E-03 2.73583E-04-1.63372E-14
 -1       999 1.62603E-03 2.61195E-07-9.98950E-16
 -1      1000 1.34380E-02 1.80227E-03-3.27912E-14
 -1      1001 1.65794E-03 2.06753E-04-9.61701E-16
 -1      1002 2.49528E-03-1.18232E-04-2.13174E-15
 -1      1003 1.35907E-02 1.77622E-03-3.04969E-14
 -1      1004 3.07600E-03-1.21418E-04-3.09289E-15
 -1      1005 3.36575E-03-1.21748E-04-3.63558E-15
 -1      1006 3.65487E-03-1.21538E-04-4.21558E-15
 -1      1007 3.94330E-03-1.20924E-04-4.83359E-15
 -1      1008 4.23100E-03-1.19986E-04-5.48917E-15
 -1      1009 4.51797E-03-1.18749E-04-6.17907E-15
 -1      1010 4.80422E-03-1.17186E-04-6.90233E-15
 -1      1011 5.08979E-03-1.15221E-04-7.65712E-15
 -1      1012 5.37472E-03-1.12723E-04-8.44540E-15
 -1      1013 5.65914E-03-1.09504E-04-9.26484E-15
 -1      1014 5.94326E-03-1.05324E-04-1.01164E-14
 -1      1015 6.22745E-03-9.99050E-05-1.09996E-14
 -1      1016 6.51237E-03-9.29811E-05-1.19073E-14
 -1      1017 6.79905E-03-8.43970E-05-1.28381E-14
 -1      1018 7.08906E-03-7.43009E-05-1.37863E-14
 -1      1019 7.38467E-03-6.35245E-05-1.47514E-14
 -1      1020 7.68881E-03-5.38997E-05-1.57297E-14
 -1      1021 8.00509E-03-4.90426E-05-1.67103E-14
 -1      1022 1.21732E-02 1.06964E-03-2.87582E-14
 -1      1023 1.24910E-02 1.25251E-03-2.98103E-14
 -1      1024 1.27966E-02 1.43051E-03-3.08723E-14
 -1      1025 1.30935E-02 1.60720E-03-3.19480E-14
 -1      1026 1.91539E-03-1.09426E-04-1.33889E-15
 -1      1027 6.20473E-03 1.59336E-04-1.08169E-14
 -1      1028 5.92693E-03 1.56142E-04-9.95094E-15
 -1      1029 6.75674E-03 1.76076E-04-1.26398E-14
 -1      1030 7.02246E-03 1.92688E-04-1.35715E-14
 -1      1031 7.28268E-03 2.17559E-04-1.45158E-14
 -1      1032 1.28842E-02 1.42704E-03-2.91551E-14
 -1      1033 2.20495E-03-1.14735E-04-1.71383E-15
 -1      1034 8.35670E-03-6.38729E-05-1.77540E-14
 -1      1035 1.33132E-02 1.61227E-03-2.94555E-14
 -1      1036 1.64210E-03 1.39210E-04-9.76822E-16
 -1      1037 6.47937E-03 1.65404E-04-1.17055E-14
 -1      1038 5.07374E-03 1.55063E-04-7.50830E-15
 -1      1039 2.45618E-03 1.53591E-04-2.00149E-15
 -1      1040 3.91428E-03 1.58505E-04-4.67001E-15
 -1      1041 3.62597E-03 1.58967E-04-4.05850E-15
 -1      1042 1.24192E-02 1.19895E-03-2.86591E-14
 -1      1043 1.37449E-02 1.91873E-03-3.21008E-14
 -1      1044 1.59466E-03-6.75327E-05-9.71496E-16
 -1      1045 2.75009E-03 1.56639E-04-2.45359E-15
 -1      1046 5.36451E-03 1.54592E-04-8.30635E-15
 -1      1047 2.78576E-03-1.20339E-04-2.59144E-15
 -1      1048 5.64667E-03 1.54798E-04-9.11422E-15
 -1      1049 4.78886E-03 1.55867E-04-6.76056E-15
 -1      1050 7.54355E-03 2.53496E-04-1.54881E-14
 -1      1051 1.32994E-02 1.69791E-03-3.16766E-14
 -1      1052 2.16245E-03 1.48668E-04-1.59458E-15
 -1      1053 3.04014E-03 1.58288E-04-2.94251E-15
 -1      1054 1.88441E-03 1.10839E-04-1.26194E-15
 -1      1055 4.20186E-03 1.57754E-04-5.31967E-15
 -1      1056 7.79306E-03 1.65990E-04-1.61951E-14
 -1      1057 3.33698E-03 1.58976E-04-3.48630E-15
 -1      1058 1.87954E-03 3.27788E-05-1.27988E-15
 -1      1059 1.34112E-02 1.73476E-03-3.12764E-14
 -1      1060 3.50888E-03-4.58985E-05-3.90594E-15
 -1      1061 3.79791E-03-4.56534E-05-4.50283E-15
 -1      1062 4.08616E-03-4.52270E-05-5.13855E-15
 -1      1063 4.37359E-03-4.46140E-05-5.81008E-15
 -1      1064 4.66018E-03-4.37639E-05-6.51573E-15
 -1      1065 4.94592E-03-4.25832E-05-7.25372E-15
 -1      1066 5.23079E-03-4.09191E-05-8.02242E-15
 -1      1067 5.51480E-03-3.85460E-05-8.82325E-15
 -1      1068 5.79798E-03-3.51480E-05-9.65388E-15
 -1      1069 6.08048E-03-3.03106E-05-1.05163E-14
 -1      1070 6.36259E-03-2.35262E-05-1.14074E-14
 -1      1071 6.64491E-03-1.42476E-05-1.23220E-14
 -1      1072 6.92853E-03-2.00310E-06-1.32579E-14
 -1      1073 7.21523E-03 1.33960E-05-1.42093E-14
 -1      1074 7.50775E-03 3.09351E-05-1.51742E-14
 -1      1075 1.32236E-02 1.61004E-03-3.02067E-14
 -1      1076 1.28359E-02 1.43193E-03-3.01173E-14
 -1      1077 1.30701E-02 1.56477E-03-3.08929E-14
 -1      1078 7.17295E-03 1.40186E-04-1.41038E-14
 -1      1079 6.90086E-03 1.19627E-04-1.31612E-14
 -1      1080 2.34735E-03-4.41139E-05-1.90793E-15
 -1      1081 6.06654E-03 8.92700E-05-1.04224E-14
 -1      1082 2.05715E-03-4.24509E-05-1.51333E-15
 -1      1083 2.92880E-03-4.57205E-05-2.82485E-15
 -1      1084 7.45158E-03 1.68317E-04-1.50783E-14
 -1      1085 7.75210E-03 5.56040E-05-1.59676E-14
 -1      1086 3.76823E-03 8.32147E-05-4.39437E-15
 -1      1087 2.59949E-03 8.11808E-05-2.24971E-15
 -1      1088 6.62037E-03 1.04906E-04-1.22095E-14
 -1      1089 3.21913E-03-4.59397E-05-3.34541E-15
 -1      1090 2.63808E-03-4.51524E-05-2.34573E-15
 -1      1091 6.34454E-03 9.53492E-05-1.13044E-14
 -1      1092 5.21818E-03 8.26402E-05-7.93857E-15
 -1      1093 4.49582E-03 1.56824E-04-6.02261E-15
 -1      1094 5.50135E-03 8.35909E-05-8.73418E-15
 -1      1095 2.89013E-03 8.24326E-05-2.71965E-15
 -1      1096 3.47921E-03 8.32906E-05-3.80070E-15
 -1      1097 1.84090E-03-2.02037E-05-1.24419E-15
 -1      1098 4.93377E-03 8.23342E-05-7.17455E-15
 -1      1099 5.78657E-03 8.56228E-05-9.56871E-15
 -1      1100 2.30524E-03 7.90496E-05-1.81738E-15
 -1      1101 4.05647E-03 8.29758E-05-5.02451E-15
 -1      1102 2.09197E-03 5.54562E-05-1.53824E-15
 -1      1103 4.51687E-03 3.02057E-05-6.13422E-15
 -1      1104 3.18496E-03 8.30808E-05-3.23920E-15
 -1      1105 4.22991E-03 3.00623E-05-5.44562E-15
 -1      1106 4.34746E-03 8.26668E-05-5.70144E-15
 -1      1107 0.00000E+00 0.00000E+00 0.00000E+00
 -1      1108 0.00000E+00 0.00000E+00 0.00000E+00
 -1      1109 0.00000E+00 0.00000E+00 0.00000E+00
 -1      1110 0.00000E+00 0.00000E+00 0.00000E+00
 -1      1111 0.00000E+00 0.00000E+00 0.00000E+00
 -1      1112 0.00000E+00 0.00000E+00 0.00000E+00
 -1      1113 0.00000E+00 0.00000E+00 0.00000E+00
 -1      1114 0.00000E+00 0.00000E+00 0.00000E+00
 -1      1115 0.00000E+00 0.00000E+00 0.00000E+00
 -1      1116 0.00000E+00 0.00000E+00 0.00000E+00
 -1      1117 0.00000E+00 0.00000E+00 0.00000E+00
 -1      1118 0.00000E+00 0.00000E+00 0.00000E+00
 -1      1119 0.00000E+00 0.00000E+00 0.00000E+00
 -1      1120 0.00000E+00 0.00000E+00 0.00000E+00
 -1      1121 0.00000E+00 0.00000E+00 0.00000E+00
 -1      1122 0.00000E+00 0.00000E+00 0.00000E+00
 -1      1123 0.00000E+00 0.00000E+00 0.00000E+00
 -1      1124 2.11658E-04-1.48327E-04 4.52654E-18
 -1      1125 5.51612E-04-3.37496E-04-2.22126E-17
 -1      1126 8.33420E-04-4.58972E-04-1.00546E-16
 -1      1127 1.10298E-03-5.40628E-04-2.38606E-16
 -1      1128 1.36839E-03-5.97839E-04-4.33098E-16
 -1      1129 1.63320E-03-6.38495E-04-6.79998E-16
 -1      1130 1.89926E-03-6.67244E-04-9.79265E-16
 -1      1131 2.16743E-03-6.87201E-04-1.33063E-15
 -1      1132 2.43800E-03-7.00647E-04-1.73260E-15
 -1      1133 2.71099E-03-7.09300E-04-2.18452E-15
 -1      1134 2.98624E-03-7.14462E-04-2.68572E-15
 -1      1135 3.26352E-03-7.17113E-04-3.23109E-15
 -1      1136 3.54259E-03-7.17981E-04-3.81615E-15
 -1      1137 3.82322E-03-7.17599E-04-4.44208E-15
 -1      1138 4.10518E-03-7.16357E-04-5.10467E-15
 -1      1139 4.38834E-03-7.14538E-04-5.80769E-15
 -1      1140 4.67255E-03-7.12357E-04-6.55025E-15
 -1      1141 4.95775E-03-7.09994E-04-7.32812E-15
 -1      1142 5.24391E-03-7.07627E-04-8.13835E-15
 -1      1143 5.53101E-03-7.05458E-04-8.97812E-15
 -1      1144 5.81903E-03-7.03741E-04-9.85297E-15
 -1      1145 6.10790E-03-7.02794E-04-1.07615E-14
 -1      1146 6.39743E-03-7.03002E-04-1.16971E-14
 -1      1147 6.68724E-03-7.04782E-04-1.26638E-14
 -1      1148 6.97669E-03-7.08510E-04-1.36624E-14
 -1      1149 7.26474E-03-7.14370E-04-1.46800E-14
 -1      1150 7.54996E-03-7.22138E-04-1.57148E-14
 -1      1151 7.83047E-03-7.30880E-04-1.67621E-14
 -1      1152 8.10417E-03-7.38633E-04-1.78281E-14
 -1      1153 8.36902E-03-7.42148E-04-1.89081E-14
 -1      1154 8.62352E-03-7.36853E-04-1.99934E-14
 -1      1155 8.86728E-03-7.17188E-04-2.10844E-14
 -1      1156 9.10147E-03-6.77382E-04-2.21772E-14
 -1      1157 9.32894E-03-6.12560E-04-2.32792E-14
 -1      1158 9.55387E-03-5.19876E-04-2.43857E-14
 -1      1159 9.78094E-03-3.99233E-04-2.54907E-14
 -1      1160 1.00144E-02-2.53305E-04-2.65865E-14
 -1      1161 1.02571E-02-8.68496E-05-2.76792E-14
 -1      1162 1.05105E-02 9.44047E-05-2.87678E-14
 -1      1163 1.07741E-02 2.84883E-04-2.98666E-14
 -1      1164 1.10464E-02 4.79977E-04-3.09791E-14
 -1      1165 1.13255E-02 6.76409E-04-3.21067E-14
 -1      1166 1.16091E-02 8.72229E-04-3.32521E-14
 -1      1167 1.18954E-02 1.06657E-03-3.44112E-14
 -1      1168 1.21828E-02 1.25931E-03-3.55861E-14
 -1      1169 1.24704E-02 1.45081E-03-3.67772E-14
 -1      1170 1.27576E-02 1.64164E-03-3.79893E-14
 -1      1171 1.30441E-02 1.83239E-03-3.92063E-14
 -1      1172 1.33300E-02 2.02354E-03-4.04412E-14
 -1      1173 1.36085E-02 2.21042E-03-4.16701E-14
 -1      1174 2.28416E-04 1.60705E-04 1.26445E-17
 -1      1175 5.53784E-04 3.42130E-04 4.98733E-18
 -1      1176 8.34348E-04 4.61142E-04-4.72441E-17
 -1      1177 1.10388E-03 5.42318E-04-1.50216E-16
 -1      1178 1.36929E-03 5.99523E-04-3.04308E-16
 -1      1179 1.64077E-03 6.41126E-04-5.14400E-16
 -1      1180 1.91360E-03 6.70323E-04-7.79135E-16
 -1      1181 2.18192E-03 6.90026E-04-1.09015E-15
 -1      1182 2.45262E-03 7.03322E-04-1.45100E-15
 -1      1183 2.72572E-03 7.11900E-04-1.86212E-15
 -1      1184 3.00795E-03 7.17129E-04-2.33445E-15
 -1      1185 3.29227E-03 7.19763E-04-2.85529E-15
 -1      1186 3.57142E-03 7.20547E-04-3.40387E-15
 -1      1187 3.85207E-03 7.20062E-04-3.99764E-15
 -1      1188 4.13401E-03 7.18642E-04-4.63341E-15
 -1      1189 4.42418E-03 7.16432E-04-5.32177E-15
 -1      1190 4.71548E-03 7.13576E-04-6.04882E-15
 -1      1191 5.00077E-03 7.10197E-04-6.79670E-15
 -1      1192 5.28727E-03 7.06204E-04-7.57914E-15
 -1      1193 5.57530E-03 7.01526E-04-8.39316E-15
 -1      1194 5.87267E-03 6.95920E-04-9.25773E-15
 -1      1195 6.17317E-03 6.89424E-04-1.01470E-14
 -1      1196 6.47082E-03 6.82243E-04-1.10370E-14
 -1      1197 6.77517E-03 6.74504E-04-1.19452E-14
 -1      1198 7.08971E-03 6.67056E-04-1.28687E-14
 -1      1199 7.41972E-03 6.62001E-04-1.37988E-14
 -1      1200 7.78215E-03 6.64305E-04-1.47509E-14
 -1      1201 8.18039E-03 6.85481E-04-1.57088E-14
 -1      1202 8.61669E-03 7.46066E-04-1.66371E-14
 -1      1203 9.11047E-03 8.84966E-04-1.75588E-14
 -1      1204 9.65504E-03 1.15624E-03-1.84692E-14
 -1      1205 1.02018E-02 1.59602E-03-1.93524E-14
 -1      1206 1.06161E-02 2.08256E-03-2.01151E-14
 -1      1207 1.08732E-02 2.44581E-03-2.07562E-14
 -1      1208 1.10438E-02 2.58462E-03-2.13116E-14
 -1      1209 1.12374E-02 2.49511E-03-2.18783E-14
 -1      1210 1.15338E-02 2.23699E-03-2.24877E-14
 -1      1211 1.19277E-02 1.96174E-03-2.31155E-14
 -1      1212 1.24103E-02 1.76080E-03-2.38391E-14
 -1      1213 1.29255E-02 1.69054E-03-2.46739E-14
 -1      1214 1.34289E-02 1.74520E-03-2.55949E-14
 -1      1215 1.38721E-02 1.87890E-03-2.65206E-14
 -1      1216 1.42569E-02 2.04714E-03-2.74182E-14
 -1      1217 1.46078E-02 2.23219E-03-2.83369E-14
 -1      1218 1.49353E-02 2.42384E-03-2.92870E-14
 -1      1219 1.52547E-02 2.62206E-03-3.03089E-14
 -1      1220 1.55632E-02 2.81963E-03-3.13848E-14
 -1      1221 1.58572E-02 3.01055E-03-3.24810E-14
 -1      1222 1.61467E-02 3.19902E-03-3.36124E-14
 -1      1223 1.64334E-02 3.38471E-03-3.47691E-14
 -1      1224 1.67189E-02 3.56799E-03-3.59473E-14
 -1      1225 1.67720E-02 3.61698E-03-3.67284E-14
 -1      1226 1.65934E-02 3.53250E-03-3.70733E-14
 -1      1227 1.64169E-02 3.44905E-03-3.74377E-14
 -1      1228 1.62421E-02 3.36777E-03-3.77942E-14
 -1      1229 1.60674E-02 3.28910E-03-3.81381E-14
 -1      1230 1.58927E-02 3.21339E-03-3.84677E-14
 -1      1231 1.57156E-02 3.13916E-03-3.87819E-14
 -1      1232 1.55337E-02 3.06476E-03-3.90896E-14
 -1      1233 1.53488E-02 2.98986E-03-3.94017E-14
 -1      1234 1.51614E-02 2.91371E-03-3.96897E-14
 -1      1235 1.49720E-02 2.83591E-03-3.99892E-14
 -1      1236 1.47833E-02 2.75703E-03-4.03332E-14
 -1      1237 1.45943E-02 2.67657E-03-4.07011E-14
 -1      1238 1.44037E-02 2.59412E-03-4.10547E-14
 -1      1239 1.42137E-02 2.51068E-03-4.14023E-14
 -1      1240 1.40242E-02 2.42662E-03-4.17640E-14
 -1      1241 1.38370E-02 2.34302E-03-4.21091E-14
 -1      1242 1.31570E-02 1.18594E-03-2.38856E-14
 -1      1243 1.31260E-02 1.35586E-03-2.37062E-14
 -1      1244 1.29694E-02 1.54281E-03-2.34384E-14
 -1      1245 1.27040E-02 1.74452E-03-2.31100E-14
 -1      1246 1.23340E-02 1.96118E-03-2.27349E-14
 -1      1247 1.18911E-02 2.16167E-03-2.23269E-14
 -1      1248 1.13754E-02 2.30201E-03-2.18788E-14
 -1      1249 1.08192E-02 2.32868E-03-2.14302E-14
 -1      1250 1.02581E-02 2.21542E-03-2.10041E-14
 -1      1251 9.71716E-03 1.99284E-03-2.06172E-14
 -1      1252 9.22575E-03 1.71570E-03-2.02823E-14
 -1      1253 8.79514E-03 1.43089E-03-2.00051E-14
 -1      1254 8.45715E-03 1.17735E-03-1.98011E-14
 -1      1255 8.21465E-03 9.56493E-04-1.96646E-14
 -1      1256 8.08394E-03 7.67050E-04-1.96119E-14
 -1      1257 8.07166E-03 6.05209E-04-1.96554E-14
 -1      1258 8.16773E-03 4.63465E-04-1.97910E-14
 -1      1259 8.36498E-03 3.29013E-04-2.00170E-14
 -1      1260 8.65608E-03 2.00611E-04-2.03364E-14
 -1      1261 9.02367E-03 8.83898E-05-2.07385E-14
 -1      1262 9.43920E-03 6.54405E-06-2.11906E-14
 -1      1263 9.89576E-03-3.05663E-05-2.16818E-14
 -1      1264 1.03729E-02-1.33077E-05-2.21781E-14
 -1      1265 1.08451E-02 5.96667E-05-2.26377E-14
 -1      1266 1.13128E-02 1.80143E-04-2.30473E-14
 -1      1267 1.17740E-02 3.38026E-04-2.33991E-14
 -1      1268 1.22164E-02 5.20800E-04-2.36889E-14
 -1      1269 1.25892E-02 7.00685E-04-2.38915E-14
 -1      1270 1.28749E-02 8.68695E-04-2.39904E-14
 -1      1271 1.30687E-02 1.02865E-03-2.39839E-14
 -1      1272 1.66693E-04-1.10338E-04-3.80826E-18
 -1      1273 1.12539E-04-5.69743E-05-1.31188E-17
 -1      1274 1.17619E-04-6.75816E-05-1.04490E-17
 -1      1275 1.08424E-04-4.34927E-05-1.75641E-17
 -1      1276 1.10285E-04-4.96069E-05-1.62495E-17
 -1      1277 2.26328E-04-1.07623E-04-3.79877E-17
 -1      1278 1.06842E-04-3.36090E-05-1.98273E-17
 -1      1279 1.07690E-04-3.83326E-05-1.91497E-17
 -1      1280 2.19111E-04-8.24573E-05-4.56585E-17
 -1      1281 1.06062E-04-2.53548E-05-2.11826E-17
 -1      1282 1.06492E-04-2.93859E-05-2.08573E-17
 -1      1283 2.15864E-04-6.32752E-05-4.99817E-17
 -1      1284 1.05664E-04-1.80922E-05-2.16976E-17
 -1      1285 1.05893E-04-2.16607E-05-2.15621E-17
 -1      1286 2.14213E-04-4.71914E-05-5.23670E-17
 -1      1287 1.05442E-04-1.12396E-05-2.20635E-17
 -1      1288 1.05565E-04-1.46249E-05-2.20771E-17
 -1      1289 2.13302E-04-3.27530E-05-5.35054E-17
 -1      1290 1.05343E-04-4.68949E-06-2.17925E-17
 -1      1291 1.05395E-04-7.94270E-06-2.18738E-17
 -1      1292 2.12803E-04-1.91901E-05-5.36545E-17
 -1      1293 1.05331E-04 1.74262E-06-2.15756E-17
 -1      1294 1.05329E-04-1.47072E-06-2.17111E-17
 -1      1295 2.12589E-04-6.16083E-06-5.32614E-17
 -1      1296 1.05404E-04 8.22455E-06-2.10064E-17
 -1      1297 1.05347E-04 4.96473E-06-2.11826E-17
 -1      1298 2.12597E-04 6.70776E-06-5.24618E-17
 -1      1299 1.05581E-04 1.49322E-05-2.03559E-17
 -1      1300 1.05454E-04 1.15321E-05-2.05321E-17
 -1      1301 2.12829E-04 1.97635E-05-5.09575E-17
 -1      1302 1.05914E-04 2.19516E-05-1.92175E-17
 -1      1303 1.05679E-04 1.83602E-05-1.95834E-17
 -1      1304 2.13340E-04 3.32663E-05-4.90466E-17
 -1      1305 1.06538E-04 2.98191E-05-1.75370E-17
 -1      1306 1.06098E-04 2.57419E-05-1.81333E-17
 -1      1307 2.14280E-04 4.77950E-05-4.61057E-17
 -1      1308 1.07726E-04 3.89186E-05-1.51111E-17
 -1      1309 1.06876E-04 3.41248E-05-1.60055E-17
 -1      1310 2.15982E-04 6.42089E-05-4.18231E-17
 -1      1311 1.10264E-04 5.03458E-05-1.13570E-17
 -1      1312 1.08427E-04 4.41621E-05-1.30104E-17
 -1      1313 2.19206E-04 8.37077E-05-3.57380E-17
 -1      1314 1.16935E-04 6.76182E-05-5.16351E-18
 -1      1315 1.12186E-04 5.77741E-05-8.10441E-18
 -1      1316 2.26316E-04 1.09443E-04-2.64681E-17
 -1      1317 1.57573E-04 1.09856E-04 4.28260E-18
 -1      1318 1.35658E-04 8.60888E-05-1.58565E-18
 -1      1319 2.56033E-04 1.52088E-04-1.54499E-17
 -1      1320 3.35071E-04 2.20729E-04 2.84603E-19
 -1      1321 4.21524E-04-2.61725E-04-2.71457E-17
 -1      1322 5.74615E-04-3.36777E-04-5.39797E-17
 -1      1323 7.21798E-04-3.97370E-04-9.66566E-17
 -1      1324 8.64961E-04-4.46655E-04-1.53523E-16
 -1      1325 6.12055E-04-3.30868E-04-9.03818E-17
 -1      1326 1.00498E-03-4.87715E-04-2.23901E-16
 -1      1327 1.14282E-03-5.21687E-04-3.08456E-16
 -1      1328 9.05282E-04-4.31544E-04-2.07760E-16
 -1      1329 1.27931E-03-5.50441E-04-4.06508E-16
 -1      1330 1.41495E-03-5.74454E-04-5.18154E-16
 -1      1331 1.18770E-03-5.00933E-04-3.79498E-16
 -1      1332 1.55020E-03-5.94791E-04-6.42580E-16
 -1      1333 1.68529E-03-6.11786E-04-7.79677E-16
 -1      1334 1.46464E-03-5.49657E-04-6.04172E-16
 -1      1335 1.82048E-03-6.26066E-04-9.30015E-16
 -1      1336 1.95587E-03-6.37924E-04-1.09301E-15
 -1      1337 1.73933E-03-5.83896E-04-8.80345E-16
 -1      1338 2.09159E-03-6.47761E-04-1.26860E-15
 -1      1339 2.22769E-03-6.55826E-04-1.45749E-15
 -1      1340 2.01365E-03-6.07626E-04-1.20727E-15
 -1      1341 2.36421E-03-6.62392E-04-1.65833E-15
 -1      1342 2.50117E-03-6.67665E-04-1.87129E-15
 -1      1343 2.28859E-03-6.23655E-04-1.58390E-15
 -1      1344 2.63858E-03-6.71839E-04-2.09723E-15
 -1      1345 2.77645E-03-6.75077E-04-2.33445E-15
 -1      1346 2.56464E-03-6.34048E-04-2.00981E-15
 -1      1347 2.91475E-03-6.77516E-04-2.58382E-15
 -1      1348 3.05348E-03-6.79287E-04-2.84491E-15
 -1      1349 2.84199E-03-6.40351E-04-2.48372E-15
 -1      1350 3.19262E-03-6.80487E-04-3.11570E-15
 -1      1351 3.33215E-03-6.81215E-04-3.39716E-15
 -1      1352 3.12068E-03-6.43720E-04-3.00217E-15
 -1      1353 3.47205E-03-6.81539E-04-3.68916E-15
 -1      1354 3.61229E-03-6.81535E-04-3.99081E-15
 -1      1355 3.40065E-03-6.45013E-04-3.56276E-15
 -1      1356 3.75286E-03-6.81249E-04-4.30248E-15
 -1      1357 3.89373E-03-6.80739E-04-4.62346E-15
 -1      1358 3.68180E-03-6.44855E-04-4.16407E-15
 -1      1359 4.03489E-03-6.80035E-04-4.95434E-15
 -1      1360 4.17633E-03-6.79182E-04-5.29495E-15
 -1      1361 3.96403E-03-6.43699E-04-4.80476E-15
 -1      1362 4.31802E-03-6.78199E-04-5.64507E-15
 -1      1363 4.45996E-03-6.77121E-04-6.00531E-15
 -1      1364 4.24723E-03-6.41869E-04-5.48337E-15
 -1      1365 4.60213E-03-6.75964E-04-6.37473E-15
 -1      1366 4.74454E-03-6.74756E-04-6.75312E-15
 -1      1367 4.53132E-03-6.39599E-04-6.20057E-15
 -1      1368 4.88716E-03-6.73511E-04-7.14022E-15
 -1      1369 5.03001E-03-6.72257E-04-7.53587E-15
 -1      1370 4.81624E-03-6.37076E-04-6.95448E-15
 -1      1371 5.17307E-03-6.71011E-04-7.93917E-15
 -1      1372 5.31635E-03-6.69803E-04-8.35059E-15
 -1      1373 5.10194E-03-6.34466E-04-7.74191E-15
 -1      1374 5.45983E-03-6.68657E-04-8.76927E-15
 -1      1375 5.60352E-03-6.67606E-04-9.19576E-15
 -1      1376 5.38841E-03-6.31951E-04-8.56058E-15
 -1      1377 5.74740E-03-6.66689E-04-9.63097E-15
 -1      1378 5.89148E-03-6.65941E-04-1.00763E-14
 -1      1379 5.67562E-03-6.29759E-04-9.41220E-15
 -1      1380 6.03573E-03-6.65416E-04-1.05284E-14
 -1      1381 6.18013E-03-6.65153E-04-1.09864E-14
 -1      1382 5.96351E-03-6.28184E-04-1.02962E-14
 -1      1383 6.32465E-03-6.65223E-04-1.14543E-14
 -1      1384 6.46924E-03-6.65660E-04-1.19282E-14
 -1      1385 6.25196E-03-6.27604E-04-1.12127E-14
 -1      1386 6.61385E-03-6.66548E-04-1.24097E-14
 -1      1387 6.75841E-03-6.67908E-04-1.28989E-14
 -1      1388 6.54077E-03-6.28466E-04-1.21574E-14
 -1      1389 6.90283E-03-6.69824E-04-1.33943E-14
 -1      1390 7.04699E-03-6.72283E-04-1.38970E-14
 -1      1391 6.82953E-03-6.31241E-04-1.31312E-14
 -1      1392 7.19077E-03-6.75346E-04-1.44043E-14
 -1      1393 7.33401E-03-6.78943E-04-1.49138E-14
 -1      1394 7.11767E-03-6.36311E-04-1.41293E-14
 -1      1395 7.47655E-03-6.83070E-04-1.54285E-14
 -1      1396 7.61818E-03-6.87568E-04-1.59463E-14
 -1      1397 7.40431E-03-6.43785E-04-1.51458E-14
 -1      1398 7.75870E-03-6.92319E-04-1.64682E-14
 -1      1399 7.89791E-03-6.97038E-04-1.69949E-14
 -1      1400 7.68834E-03-6.53217E-04-1.61770E-14
 -1      1401 8.03559E-03-7.01442E-04-1.75240E-14
 -1      1402 8.17153E-03-7.05097E-04-1.80580E-14
 -1      1403 7.96844E-03-6.63266E-04-1.72233E-14
 -1      1404 8.30555E-03-7.07515E-04-1.85947E-14
 -1      1405 8.43750E-03-7.08111E-04-1.91330E-14
 -1      1406 8.24324E-03-6.71345E-04-1.82839E-14
 -1      1407 8.56730E-03-7.06203E-04-1.96732E-14
 -1      1408 8.69491E-03-7.01098E-04-2.02145E-14
 -1      1409 8.51156E-03-6.73421E-04-1.93558E-14
 -1      1410 8.82037E-03-6.91989E-04-2.07579E-14
 -1      1411 8.94381E-03-6.78170E-04-2.13007E-14
 -1      1412 8.77279E-03-6.64115E-04-2.04339E-14
 -1      1413 9.06543E-03-6.58855E-04-2.18451E-14
 -1      1414 9.18552E-03-6.33452E-04-2.23911E-14
 -1      1415 9.02719E-03-6.37277E-04-2.15145E-14
 -1      1416 9.30446E-03-6.01378E-04-2.29377E-14
 -1      1417 9.42265E-03-5.62290E-04-2.34869E-14
 -1      1418 9.27610E-03-5.87031E-04-2.26004E-14
 -1      1419 9.54057E-03-5.15962E-04-2.40368E-14
 -1      1420 9.65867E-03-4.62383E-04-2.45860E-14
 -1      1421 9.52187E-03-5.09066E-04-2.36910E-14
 -1      1422 9.77744E-03-4.01750E-04-2.51345E-14
 -1      1423 9.89729E-03-3.34387E-04-2.56808E-14
 -1      1424 9.76750E-03-4.01732E-04-2.47820E-14
 -1      1425 1.00186E-02-2.60855E-04-2.62278E-14
 -1      1426 1.01417E-02-1.81732E-04-2.67727E-14
 -1      1427 1.00160E-02-2.66477E-04-2.58707E-14
 -1      1428 1.02667E-02-9.77945E-05-2.73161E-14
 -1      1429 1.03938E-02-9.74192E-06-2.78612E-14
 -1      1430 1.02698E-02-1.07457E-04-2.69567E-14
 -1      1431 1.05231E-02 8.16165E-05-2.84036E-14
 -1      1432 1.06546E-02 1.75589E-04-2.89471E-14
 -1      1433 1.05302E-02 6.95350E-05-2.80384E-14
 -1      1434 1.07880E-02 2.71484E-04-2.94959E-14
 -1      1435 1.09234E-02 3.68715E-04-3.00463E-14
 -1      1436 1.07976E-02 2.58351E-04-2.91251E-14
 -1      1437 1.10605E-02 4.66784E-04-3.06006E-14
 -1      1438 1.11991E-02 5.65258E-04-3.11582E-14
 -1      1439 1.10714E-02 4.53571E-04-3.02244E-14
 -1      1440 1.13390E-02 6.63846E-04-3.17190E-14
 -1      1441 1.14799E-02 7.62268E-04-3.22848E-14
 -1      1442 1.13505E-02 6.51115E-04-3.13347E-14
 -1      1443 1.16218E-02 8.60411E-04-3.28536E-14
 -1      1444 1.17643E-02 9.58121E-04-3.34280E-14
 -1      1445 1.16334E-02 8.48383E-04-3.24598E-14
 -1      1446 1.19073E-02 1.05541E-03-3.40048E-14
 -1      1447 1.20506E-02 1.15222E-03-3.45836E-14
 -1      1448 1.19187E-02 1.04407E-03-3.36000E-14
 -1      1449 1.21941E-02 1.24862E-03-3.51688E-14
 -1      1450 1.23378E-02 1.34464E-03-3.57591E-14
 -1      1451 1.22055E-02 1.23782E-03-3.47561E-14
 -1      1452 1.24815E-02 1.44038E-03-3.63526E-14
 -1      1453 1.26251E-02 1.53587E-03-3.69477E-14
 -1      1454 1.24927E-02 1.42989E-03-3.59286E-14
 -1      1455 1.27686E-02 1.63124E-03-3.75495E-14
 -1      1456 1.29120E-02 1.72654E-03-3.81575E-14
 -1      1457 1.27798E-02 1.62086E-03-3.71183E-14
 -1      1458 1.30553E-02 1.82187E-03-3.87662E-14
 -1      1459 1.31984E-02 1.91728E-03-3.93746E-14
 -1      1460 1.30667E-02 1.81142E-03-3.83236E-14
 -1      1461 1.33415E-02 2.01282E-03-3.99904E-14
 -1      1462 1.34844E-02 2.10853E-03-4.06129E-14
 -1      1463 1.33530E-02 2.00217E-03-3.95429E-14
 -1      1464 1.37012E-02 2.25185E-03-4.15057E-14
 -1      1465 1.37129E-02 2.24098E-03-4.10465E-14
 -1      1466 6.43053E-04 3.71990E-04-3.04390E-17
 -1      1467 4.92933E-04 3.03675E-04-8.74138E-18
 -1      1468 4.44868E-04 2.65881E-04-2.04508E-17
 -1      1469 9.28627E-04 4.71932E-04-1.10589E-16
 -1      1470 7.87769E-04 4.26453E-04-6.42932E-17
 -1      1471 7.44719E-04 3.90684E-04-7.87537E-17
 -1      1472 1.20351E-03 5.41322E-04-2.41181E-16
 -1      1473 1.06685E-03 5.09659E-04-1.69542E-16
 -1      1474 1.03076E-03 4.76099E-04-1.86415E-16
 -1      1475 1.47404E-03 5.90471E-04-4.21538E-16
 -1      1476 1.33900E-03 5.68039E-04-3.24881E-16
 -1      1477 1.30866E-03 5.35886E-04-3.43326E-16
 -1      1478 1.75705E-03 6.26755E-04-6.65172E-16
 -1      1479 1.61549E-03 6.10306E-04-5.36355E-16
 -1      1480 1.58971E-03 5.79004E-04-5.55762E-16
 -1      1481 2.02731E-03 6.50686E-04-9.50791E-16
 -1      1482 1.89201E-03 6.39837E-04-8.01686E-16
 -1      1483 1.86971E-03 6.09000E-04-8.21608E-16
 -1      1484 2.29908E-03 6.67023E-04-1.28585E-15
 -1      1485 2.16297E-03 6.59675E-04-1.11205E-15
 -1      1486 2.14326E-03 6.29064E-04-1.13158E-15
 -1      1487 2.57267E-03 6.77765E-04-1.66993E-15
 -1      1488 2.43564E-03 6.72994E-04-1.47175E-15
 -1      1489 2.41790E-03 6.42472E-04-1.49056E-15
 -1      1490 2.84812E-03 6.84422E-04-2.10473E-15
 -1      1491 2.71016E-03 6.81529E-04-1.88136E-15
 -1      1492 2.69393E-03 6.51014E-04-1.89903E-15
 -1      1493 3.13927E-03 6.88248E-04-2.61255E-15
 -1      1494 2.99346E-03 6.86677E-04-2.35188E-15
 -1      1495 2.97836E-03 6.56121E-04-2.36764E-15
 -1      1496 3.41820E-03 6.89741E-04-3.13951E-15
 -1      1497 3.27854E-03 6.89214E-04-2.87095E-15
 -1      1498 3.26429E-03 6.58591E-04-2.88486E-15
 -1      1499 3.69857E-03 6.89744E-04-3.70979E-15
 -1      1500 3.55822E-03 6.89900E-04-3.41941E-15
 -1      1501 3.54457E-03 6.59200E-04-3.43261E-15
 -1      1502 3.98021E-03 6.88665E-04-4.32278E-15
 -1      1503 3.83925E-03 6.89320E-04-4.01098E-15
 -1      1504 3.82603E-03 6.58540E-04-4.02323E-15
 -1      1505 4.26298E-03 6.86775E-04-4.97460E-15
 -1      1506 4.12147E-03 6.87809E-04-4.64400E-15
 -1      1507 4.10857E-03 6.56951E-04-4.65371E-15
 -1      1508 4.56101E-03 6.84081E-04-5.69735E-15
 -1      1509 4.41186E-03 6.85510E-04-5.33118E-15
 -1      1510 4.39921E-03 6.54573E-04-5.33888E-15
 -1      1511 4.84591E-03 6.80907E-04-6.42406E-15
 -1      1512 4.70333E-03 6.82564E-04-6.05611E-15
 -1      1513 4.69085E-03 6.51547E-04-6.06160E-15
 -1      1514 5.13191E-03 6.77127E-04-7.18640E-15
 -1      1515 4.98877E-03 6.79090E-04-6.80054E-15
 -1      1516 4.97640E-03 6.47988E-04-6.80363E-15
 -1      1517 5.41924E-03 6.72675E-04-7.98083E-15
 -1      1518 5.27540E-03 6.74981E-04-7.58006E-15
 -1      1519 5.26308E-03 6.43777E-04-7.57943E-15
 -1      1520 5.70829E-03 6.67444E-04-8.80659E-15
 -1      1521 5.56353E-03 6.70148E-04-8.39030E-15
 -1      1522 5.55117E-03 6.38811E-04-8.38607E-15
 -1      1523 6.01434E-03 6.60980E-04-9.70051E-15
 -1      1524 5.86094E-03 6.64314E-04-9.24976E-15
 -1      1525 5.84839E-03 6.32784E-04-9.24196E-15
 -1      1526 6.30934E-03 6.53803E-04-1.05771E-14
 -1      1527 6.16134E-03 6.57471E-04-1.01362E-14
 -1      1528 6.14833E-03 6.25655E-04-1.01242E-14
 -1      1529 6.60939E-03 6.45669E-04-1.14747E-14
 -1      1530 6.45862E-03 6.49769E-04-1.10231E-14
 -1      1531 6.44470E-03 6.17523E-04-1.10093E-14
 -1      1532 6.91695E-03 6.36953E-04-1.23873E-14
 -1      1533 6.76206E-03 6.41218E-04-1.19299E-14
 -1      1534 6.74642E-03 6.08313E-04-1.19125E-14
 -1      1535 7.23565E-03 6.28804E-04-1.33148E-14
 -1      1536 7.07465E-03 6.32501E-04-1.28492E-14
 -1      1537 7.05587E-03 5.98569E-04-1.28315E-14
 -1      1538 7.57072E-03 6.24078E-04-1.42435E-14
 -1      1539 7.40075E-03 6.25464E-04-1.37789E-14
 -1      1540 7.37640E-03 5.89922E-04-1.37587E-14
 -1      1541 7.94789E-03 6.30040E-04-1.52212E-14
 -1      1542 7.75544E-03 6.24565E-04-1.47321E-14
 -1      1543 7.72116E-03 5.86419E-04-1.47126E-14
 -1      1544 8.34032E-03 6.60734E-04-1.61525E-14
 -1      1545 8.13935E-03 6.40620E-04-1.56865E-14
 -1      1546 8.08842E-03 5.98273E-04-1.56669E-14
 -1      1547 8.77373E-03 7.44322E-04-1.70784E-14
 -1      1548 8.55135E-03 6.93343E-04-1.66164E-14
 -1      1549 8.47499E-03 6.44426E-04-1.65949E-14
 -1      1550 9.25132E-03 9.28549E-04-1.79915E-14
 -1      1551 9.00735E-03 8.20703E-04-1.75365E-14
 -1      1552 8.89578E-03 7.61583E-04-1.75147E-14
 -1      1553 9.76047E-03 1.27123E-03-1.88883E-14
 -1      1554 9.50451E-03 1.07883E-03-1.84429E-14
 -1      1555 9.35422E-03 1.00599E-03-1.84196E-14
 -1      1556 1.02587E-02 1.78279E-03-1.97554E-14
 -1      1557 1.00154E-02 1.51259E-03-1.93258E-14
 -1      1558 9.84257E-03 1.42895E-03-1.93026E-14
 -1      1559 1.06073E-02 2.22582E-03-2.04206E-14
 -1      1560 1.04402E-02 2.01244E-03-2.00900E-14
 -1      1561 1.02824E-02 1.93356E-03-2.00696E-14
 -1      1562 1.08992E-02 2.51854E-03-2.10569E-14
 -1      1563 1.07577E-02 2.40045E-03-2.07412E-14
 -1      1564 1.06509E-02 2.34427E-03-2.07294E-14
 -1      1565 1.11206E-02 2.55171E-03-2.15668E-14
 -1      1566 1.10084E-02 2.55796E-03-2.13136E-14
 -1      1567 1.09630E-02 2.52277E-03-2.13157E-14
 -1      1568 1.14447E-02 2.34375E-03-2.22319E-14
 -1      1569 1.12752E-02 2.47228E-03-2.18996E-14
 -1      1570 1.12879E-02 2.44384E-03-2.19174E-14
 -1      1571 1.17852E-02 2.06212E-03-2.28234E-14
 -1      1572 1.16098E-02 2.20423E-03-2.25254E-14
 -1      1573 1.16601E-02 2.16861E-03-2.25598E-14
 -1      1574 1.22122E-02 1.79581E-03-2.35189E-14
 -1      1575 1.19962E-02 1.91677E-03-2.31673E-14
 -1      1576 1.20537E-02 1.87180E-03-2.32136E-14
 -1      1577 1.26700E-02 1.65362E-03-2.42889E-14
 -1      1578 1.24427E-02 1.70760E-03-2.38987E-14
 -1      1579 1.24816E-02 1.65723E-03-2.39527E-14
 -1      1580 1.31500E-02 1.64868E-03-2.51804E-14
 -1      1581 1.29151E-02 1.63504E-03-2.47324E-14
 -1      1582 1.29207E-02 1.58340E-03-2.47894E-14
 -1      1583 1.36065E-02 1.75486E-03-2.61318E-14
 -1      1584 1.33844E-02 1.69149E-03-2.56542E-14
 -1      1585 1.33567E-02 1.64095E-03-2.57143E-14
 -1      1586 1.39987E-02 1.91106E-03-2.70399E-14
 -1      1587 1.38074E-02 1.82829E-03-2.65865E-14
 -1      1588 1.37561E-02 1.77973E-03-2.66509E-14
 -1      1589 1.43578E-02 2.09204E-03-2.79524E-14
 -1      1590 1.41818E-02 1.99942E-03-2.74922E-14
 -1      1591 1.41164E-02 1.95286E-03-2.75671E-14
 -1      1592 1.46926E-02 2.28322E-03-2.88921E-14
 -1      1593 1.45277E-02 2.18681E-03-2.84199E-14
 -1      1594 1.44543E-02 2.14201E-03-2.84994E-14
 -1      1595 1.50103E-02 2.47762E-03-2.98717E-14
 -1      1596 1.48532E-02 2.38023E-03-2.93755E-14
 -1      1597 1.47755E-02 2.33688E-03-2.94622E-14
 -1      1598 1.53312E-02 2.68169E-03-3.09462E-14
 -1      1599 1.51720E-02 2.57978E-03-3.04025E-14
 -1      1600 1.50923E-02 2.53757E-03-3.04908E-14
 -1      1601 1.56287E-02 2.87441E-03-3.20164E-14
 -1      1602 1.54808E-02 2.77830E-03-3.14757E-14
 -1      1603 1.54002E-02 2.73698E-03-3.15656E-14
 -1      1604 1.59209E-02 3.06477E-03-3.31301E-14
 -1      1605 1.57754E-02 2.96991E-03-3.25673E-14
 -1      1606 1.56947E-02 2.92923E-03-3.26545E-14
 -1      1607 1.62096E-02 3.25231E-03-3.42700E-14
 -1      1608 1.60656E-02 3.15890E-03-3.36977E-14
 -1      1609 1.59853E-02 3.11872E-03-3.37812E-14
 -1      1610 1.64963E-02 3.43692E-03-3.54384E-14
 -1      1611 1.63531E-02 3.34495E-03-3.48512E-14
 -1      1612 1.62732E-02 3.30514E-03-3.49346E-14
 -1      1613 1.66291E-02 3.52586E-03-3.61289E-14
 -1      1614 1.64254E-02 3.43320E-03-3.66608E-14
 -1      1615 1.65142E-02 3.47499E-03-3.64760E-14
 -1      1616 1.62497E-02 3.35076E-03-3.70177E-14
 -1      1617 1.63373E-02 3.39176E-03-3.68393E-14
 -1      1618 1.62577E-02 3.33361E-03-3.62418E-14
 -1      1619 1.60754E-02 3.27030E-03-3.73651E-14
 -1      1620 1.61625E-02 3.31026E-03-3.71940E-14
 -1      1621 1.60827E-02 3.25186E-03-3.65950E-14
 -1      1622 1.59008E-02 3.19191E-03-3.77055E-14
 -1      1623 1.59882E-02 3.23085E-03-3.75363E-14
 -1      1624 1.59088E-02 3.17197E-03-3.69396E-14
 -1      1625 1.57273E-02 3.11651E-03-3.80290E-14
 -1      1626 1.58144E-02 3.15404E-03-3.78688E-14
 -1      1627 1.57357E-02 3.09446E-03-3.72718E-14
 -1      1628 1.55480E-02 3.04078E-03-3.83421E-14
 -1      1629 1.56381E-02 3.07857E-03-3.81877E-14
 -1      1630 1.55602E-02 3.01820E-03-3.75925E-14
 -1      1631 1.53653E-02 2.96520E-03-3.86559E-14
 -1      1632 1.54571E-02 3.00302E-03-3.84960E-14
 -1      1633 1.53801E-02 2.94187E-03-3.79063E-14
 -1      1634 1.51795E-02 2.88902E-03-3.89635E-14
 -1      1635 1.52728E-02 2.92723E-03-3.88128E-14
 -1      1636 1.51965E-02 2.86541E-03-3.82206E-14
 -1      1637 1.49913E-02 2.81168E-03-3.92621E-14
 -1      1638 1.50857E-02 2.85052E-03-3.91146E-14
 -1      1639 1.50099E-02 2.78822E-03-3.85327E-14
 -1      1640 1.48015E-02 2.73290E-03-3.95776E-14
 -1      1641 1.48965E-02 2.77248E-03-3.94145E-14
 -1      1642 1.48210E-02 2.70990E-03-3.88402E-14
 -1      1643 1.46140E-02 2.65402E-03-3.99127E-14
 -1      1644 1.47078E-02 2.69363E-03-3.97440E-14
 -1      1645 1.46323E-02 2.63095E-03-3.91560E-14
 -1      1646 1.44232E-02 2.57245E-03-4.02708E-14
 -1      1647 1.45186E-02 2.61339E-03-4.00919E-14
 -1      1648 1.44430E-02 2.55074E-03-3.94907E-14
 -1      1649 1.42326E-02 2.48980E-03-4.06125E-14
 -1      1650 1.43278E-02 2.53124E-03-4.04438E-14
 -1      1651 1.42520E-02 2.46873E-03-3.98339E-14
 -1      1652 1.40426E-02 2.40635E-03-4.09605E-14
 -1      1653 1.41375E-02 2.44815E-03-4.07854E-14
 -1      1654 1.40614E-02 2.38582E-03-4.01729E-14
 -1      1655 1.38303E-02 2.30270E-03-4.10925E-14
 -1      1656 1.39250E-02 2.34471E-03-4.09189E-14
 -1      1657 1.38486E-02 2.28260E-03-4.02994E-14
 -1      1658 1.36135E-02 2.15942E-03-4.02086E-14
 -1      1659 1.31788E-02 1.21559E-03-2.40253E-14
 -1      1660 1.31661E-02 1.16703E-03-2.40935E-14
 -1      1661 1.30926E-02 1.33633E-03-2.38183E-14
 -1      1662 1.31534E-02 1.27625E-03-2.39378E-14
 -1      1663 1.28693E-02 1.50388E-03-2.34849E-14
 -1      1664 1.29879E-02 1.42454E-03-2.36368E-14
 -1      1665 1.25364E-02 1.71218E-03-2.31151E-14
 -1      1666 1.27021E-02 1.60924E-03-2.32914E-14
 -1      1667 1.20940E-02 1.95327E-03-2.27127E-14
 -1      1668 1.22951E-02 1.82963E-03-2.29105E-14
 -1      1669 1.16766E-02 2.20341E-03-2.22546E-14
 -1      1670 1.18780E-02 2.09898E-03-2.24600E-14
 -1      1671 1.11916E-02 2.37616E-03-2.17687E-14
 -1      1672 1.14157E-02 2.31095E-03-2.20017E-14
 -1      1673 1.07324E-02 2.37531E-03-2.13073E-14
 -1      1674 1.09402E-02 2.39641E-03-2.15116E-14
 -1      1675 1.02456E-02 2.19481E-03-2.08531E-14
 -1      1676 1.04783E-02 2.30235E-03-2.10631E-14
 -1      1677 9.75321E-03 1.89824E-03-2.04565E-14
 -1      1678 9.97300E-03 2.04141E-03-2.06305E-14
 -1      1679 9.26445E-03 1.55390E-03-2.00933E-14
 -1      1680 9.49533E-03 1.71482E-03-2.02537E-14
 -1      1681 8.80759E-03 1.25482E-03-1.98162E-14
 -1      1682 9.00474E-03 1.38718E-03-1.99364E-14
 -1      1683 8.44336E-03 1.00900E-03-1.95959E-14
 -1      1684 8.60283E-03 1.11122E-03-1.96823E-14
 -1      1685 8.17952E-03 8.31675E-04-1.94622E-14
 -1      1686 8.28557E-03 9.06136E-04-1.95123E-14
 -1      1687 8.05275E-03 7.00204E-04-1.94151E-14
 -1      1688 8.09307E-03 7.53187E-04-1.94182E-14
 -1      1689 8.07204E-03 5.98737E-04-1.94959E-14
 -1      1690 8.04587E-03 6.43824E-04-1.94513E-14
 -1      1691 8.21547E-03 4.95376E-04-1.96739E-14
 -1      1692 8.13532E-03 5.42778E-04-1.95863E-14
 -1      1693 8.47713E-03 3.82798E-04-1.99232E-14
 -1      1694 8.34341E-03 4.40773E-04-1.97855E-14
 -1      1695 8.81251E-03 2.35844E-04-2.03096E-14
 -1      1696 8.64707E-03 3.01438E-04-2.01306E-14
 -1      1697 9.21692E-03 9.67449E-05-2.07490E-14
 -1      1698 9.02992E-03 1.63701E-04-2.05298E-14
 -1      1699 9.61060E-03-1.89746E-05-2.12552E-14
 -1      1700 9.42655E-03 2.73416E-05-2.10259E-14
 -1      1701 1.00366E-02-7.65068E-05-2.17995E-14
 -1      1702 9.83792E-03-5.88342E-05-2.15411E-14
 -1      1703 1.04493E-02-4.82492E-05-2.23265E-14
 -1      1704 1.02622E-02-7.06854E-05-2.20907E-14
 -1      1705 1.08722E-02 6.08397E-05-2.28211E-14
 -1      1706 1.06739E-02 3.84432E-07-2.25973E-14
 -1      1707 1.13024E-02 2.31261E-04-2.32504E-14
 -1      1708 1.11037E-02 1.46745E-04-2.30619E-14
 -1      1709 1.17638E-02 4.44440E-04-2.36245E-14
 -1      1710 1.15465E-02 3.41282E-04-2.34592E-14
 -1      1711 1.22094E-02 6.74380E-04-2.39448E-14
 -1      1712 1.20014E-02 5.74556E-04-2.38199E-14
 -1      1713 1.26129E-02 8.47124E-04-2.41100E-14
 -1      1714 1.24423E-02 7.67849E-04-2.40368E-14
 -1      1715 1.29180E-02 9.92737E-04-2.41870E-14
 -1      1716 1.27886E-02 9.29977E-04-2.41641E-14
 -1      1717 1.31138E-02 1.10957E-03-2.41516E-14
 -1      1718 1.30382E-02 1.05867E-03-2.41824E-14
 -1      1719 1.23470E-02 1.72133E-03-2.30975E-14
 -1      1720 1.27479E-02 1.50026E-03-2.34971E-14
 -1      1721 1.65496E-02 3.48625E-03-3.62053E-14
 -1      1722 1.63811E-02 3.38612E-03-3.57916E-14
 -1      1723 1.31741E-02 1.23774E-03-2.41521E-14
 -1      1724 1.30313E-02 1.33572E-03-2.38764E-14
 -1      1725 1.31501E-02 1.16394E-03-2.43027E-14
 -1      1726 1.19184E-02 1.99885E-03-2.26407E-14
 -1      1727 1.14830E-02 2.27129E-03-2.21398E-14
 -1      1728 1.10654E-02 2.42234E-03-2.16399E-14
 -1      1729 1.06442E-02 2.36973E-03-2.11471E-14
 -1      1730 1.02039E-02 2.12260E-03-2.06847E-14
 -1      1731 9.72297E-03 1.76330E-03-2.02609E-14
 -1      1732 9.22973E-03 1.39945E-03-1.98985E-14
 -1      1733 8.76694E-03 1.09569E-03-1.96033E-14
 -1      1734 8.39290E-03 8.78369E-04-1.93833E-14
 -1      1735 8.13798E-03 7.39214E-04-1.92534E-14
 -1      1736 8.03930E-03 6.57692E-04-1.92435E-14
 -1      1737 8.09864E-03 5.90935E-04-1.93683E-14
 -1      1738 8.29450E-03 5.07891E-04-1.95688E-14
 -1      1739 8.59658E-03 3.89846E-04-1.98858E-14
 -1      1740 8.97598E-03 2.34259E-04-2.03135E-14
 -1      1741 9.37117E-03 7.39563E-05-2.08097E-14
 -1      1742 9.76441E-03-5.28640E-05-2.13726E-14
 -1      1743 1.01458E-02-1.01068E-04-2.19506E-14
 -1      1744 1.05266E-02-4.72107E-05-2.25149E-14
 -1      1745 1.09190E-02 9.96288E-05-2.30297E-14
 -1      1746 1.13456E-02 3.14428E-04-2.34825E-14
 -1      1747 1.18034E-02 5.68291E-04-2.38900E-14
 -1      1748 1.22627E-02 7.96906E-04-2.41769E-14
 -1      1749 1.26717E-02 9.63207E-04-2.43208E-14
 -1      1750 1.29743E-02 1.08228E-03-2.43674E-14
 -1      1751 2.85231E-04-1.76222E-04-2.39338E-17
 -1      1752 3.32194E-04-1.16761E-04-7.21808E-17
 -1      1753 3.36330E-04-1.33006E-04-6.81286E-17
 -1      1754 3.42208E-04-1.51995E-04-6.30193E-17
 -1      1755 3.51757E-04-1.73997E-04-5.57144E-17
 -1      1756 4.58334E-04-1.88055E-04-9.84456E-17
 -1      1757 3.24576E-04-6.53676E-05-8.04478E-17
 -1      1758 3.25712E-04-7.66662E-05-7.93365E-17
 -1      1759 3.23083E-04-4.38792E-05-8.17217E-17
 -1      1760 3.23736E-04-5.43668E-05-8.11796E-17
 -1      1761 4.36524E-04-7.92660E-05-1.18774E-16
 -1      1762 3.22300E-04-2.37664E-05-8.16540E-17
 -1      1763 3.22631E-04-3.36774E-05-8.19115E-17
 -1      1764 4.34525E-04-5.13039E-05-1.20048E-16
 -1      1765 3.22008E-04-4.33701E-06-8.09899E-17
 -1      1766 3.22104E-04-1.39869E-05-8.13423E-17
 -1      1767 4.33508E-04-2.49182E-05-1.19818E-16
 -1      1768 3.22130E-04 1.49763E-05-7.94585E-17
 -1      1769 3.22017E-04 5.31612E-06-8.03936E-17
 -1      1770 4.33212E-04 7.55760E-07-1.18490E-16
 -1      1771 3.22694E-04 3.47211E-05-7.71545E-17
 -1      1772 3.22344E-04 2.47772E-05-7.84285E-17
 -1      1773 4.33568E-04 2.64590E-05-1.16132E-16
 -1      1774 3.23820E-04 5.51552E-05-7.39290E-17
 -1      1775 3.23159E-04 4.47941E-05-7.57180E-17
 -1      1776 4.34641E-04 5.27085E-05-1.12391E-16
 -1      1777 3.25872E-04 7.78039E-05-6.91721E-17
 -1      1778 3.24677E-04 6.62241E-05-7.19233E-17
 -1      1779 4.36690E-04 8.05832E-05-1.07526E-16
 -1      1780 3.29554E-04 1.03640E-04-6.22197E-17
 -1      1781 3.27409E-04 9.02908E-05-6.60415E-17
 -1      1782 4.40331E-04 1.11549E-04-1.00248E-16
 -1      1783 3.36579E-04 1.35098E-04-5.22179E-17
 -1      1784 3.32402E-04 1.18600E-04-5.78286E-17
 -1      1785 4.46792E-04 1.47316E-04-8.97855E-17
 -1      1786 3.52296E-04 1.77590E-04-3.71881E-17
 -1      1787 3.42806E-04 1.54745E-04-4.55636E-17
 -1      1788 4.59315E-04 1.91436E-04-7.48371E-17
 -1      1789 4.07687E-04 2.33670E-04-2.68476E-17
 -1      1790 3.78081E-04 2.02647E-04-3.36103E-17
 -1      1791 4.95847E-04 2.43973E-04-6.14472E-17
 -1      1792 5.58531E-04 3.02478E-04-5.08491E-17
 -1      1793 3.40014E-04-1.90896E-04-4.09015E-17
 -1      1794 8.53546E-04 4.07065E-04-1.35403E-16
 -1      1795 7.07144E-04 3.59339E-04-8.71970E-17
 -1      1796 6.73386E-04 3.28773E-04-9.40545E-17
 -1      1797 4.58946E-04-2.36696E-04-7.22079E-17
 -1      1798 8.07216E-04-3.74063E-04-1.90074E-16
 -1      1799 9.52482E-04-4.15232E-04-2.64166E-16
 -1      1800 1.09532E-03-4.49901E-04-3.51322E-16
 -1      1801 1.23699E-03-4.78772E-04-4.51841E-16
 -1      1802 1.00392E-03-3.97842E-04-3.22686E-16
 -1      1803 1.37740E-03-5.03225E-04-5.65113E-16
 -1      1804 1.51709E-03-5.23564E-04-6.91409E-16
 -1      1805 1.28960E-03-4.55753E-04-5.25879E-16
 -1      1806 1.65626E-03-5.40705E-04-8.30390E-16
 -1      1807 1.79511E-03-5.54885E-04-9.81772E-16
 -1      1808 1.57202E-03-4.96631E-04-7.79948E-16
 -1      1809 1.93383E-03-5.66713E-04-1.14566E-15
 -1      1810 2.07250E-03-5.76389E-04-1.32185E-15
 -1      1811 1.85266E-03-5.25087E-04-1.08408E-15
 -1      1812 2.21127E-03-5.84333E-04-1.51024E-15
 -1      1813 2.35013E-03-5.90712E-04-1.71071E-15
 -1      1814 2.13258E-03-5.44449E-04-1.43693E-15
 -1      1815 2.48919E-03-5.95824E-04-1.92293E-15
 -1      1816 2.62844E-03-5.99805E-04-2.14753E-15
 -1      1817 2.41248E-03-5.57164E-04-1.83738E-15
 -1      1818 2.76794E-03-6.02869E-04-2.38409E-15
 -1      1819 2.90766E-03-6.05126E-04-2.63153E-15
 -1      1820 2.69277E-03-5.65056E-04-2.28498E-15
 -1      1821 3.04765E-03-6.06728E-04-2.88981E-15
 -1      1822 3.18787E-03-6.07760E-04-3.15843E-15
 -1      1823 2.97365E-03-5.69486E-04-2.77854E-15
 -1      1824 3.32835E-03-6.08330E-04-3.43803E-15
 -1      1825 3.46906E-03-6.08504E-04-3.72800E-15
 -1      1826 3.25523E-03-5.71464E-04-3.31476E-15
 -1      1827 3.61001E-03-6.08357E-04-4.02797E-15
 -1      1828 3.75118E-03-6.07939E-04-4.33722E-15
 -1      1829 3.53753E-03-5.71729E-04-3.89249E-15
 -1      1830 3.89257E-03-6.07300E-04-4.65550E-15
 -1      1831 4.03415E-03-6.06479E-04-4.98442E-15
 -1      1832 3.82053E-03-5.70816E-04-4.50893E-15
 -1      1833 4.17595E-03-6.05510E-04-5.32360E-15
 -1      1834 4.31793E-03-6.04421E-04-5.67118E-15
 -1      1835 4.10419E-03-5.69102E-04-5.16397E-15
 -1      1836 4.46010E-03-6.03237E-04-6.02849E-15
 -1      1837 4.60244E-03-6.01980E-04-6.39504E-15
 -1      1838 4.38849E-03-5.66856E-04-5.85805E-15
 -1      1839 4.74497E-03-6.00671E-04-6.77067E-15
 -1      1840 4.88766E-03-5.99330E-04-7.15487E-15
 -1      1841 4.67338E-03-5.64277E-04-6.58866E-15
 -1      1842 5.03053E-03-5.97978E-04-7.54668E-15
 -1      1843 5.17356E-03-5.96635E-04-7.94606E-15
 -1      1844 4.95886E-03-5.61529E-04-7.35277E-15
 -1      1845 5.31676E-03-5.95330E-04-8.35517E-15
 -1      1846 5.46013E-03-5.94084E-04-8.77090E-15
 -1      1847 5.24491E-03-5.58773E-04-8.15015E-15
 -1      1848 5.60366E-03-5.92937E-04-9.19450E-15
 -1      1849 5.74735E-03-5.91917E-04-9.62713E-15
 -1      1850 5.53155E-03-5.56203E-04-8.97925E-15
 -1      1851 5.89119E-03-5.91077E-04-1.00674E-14
 -1      1852 6.03517E-03-5.90451E-04-1.05165E-14
 -1      1853 5.81877E-03-5.54074E-04-9.84040E-15
 -1      1854 6.17929E-03-5.90110E-04-1.09729E-14
 -1      1855 6.32351E-03-5.90091E-04-1.14371E-14
 -1      1856 6.10657E-03-5.52722E-04-1.07362E-14
 -1      1857 6.46783E-03-5.90479E-04-1.19088E-14
 -1      1858 6.61218E-03-5.91311E-04-1.23860E-14
 -1      1859 6.39491E-03-5.52574E-04-1.16602E-14
 -1      1860 6.75657E-03-5.92675E-04-1.28702E-14
 -1      1861 6.90087E-03-5.94596E-04-1.33606E-14
 -1      1862 6.68366E-03-5.54126E-04-1.26123E-14
 -1      1863 7.04510E-03-5.97146E-04-1.38577E-14
 -1      1864 7.18907E-03-6.00319E-04-1.43604E-14
 -1      1865 6.97262E-03-5.57873E-04-1.35897E-14
 -1      1866 7.33281E-03-6.04134E-04-1.48657E-14
 -1      1867 7.47606E-03-6.08528E-04-1.53738E-14
 -1      1868 7.26140E-03-5.64172E-04-1.45880E-14
 -1      1869 7.61887E-03-6.13418E-04-1.58879E-14
 -1      1870 7.76091E-03-6.18647E-04-1.64049E-14
 -1      1871 7.54945E-03-5.73012E-04-1.56021E-14
 -1      1872 7.90223E-03-6.23972E-04-1.69258E-14
 -1      1873 8.04248E-03-6.29103E-04-1.74505E-14
 -1      1874 7.83595E-03-5.83683E-04-1.66308E-14
 -1      1875 8.18169E-03-6.33590E-04-1.79780E-14
 -1      1876 8.31957E-03-6.36982E-04-1.85088E-14
 -1      1877 8.11987E-03-5.94390E-04-1.76753E-14
 -1      1878 8.45612E-03-6.38603E-04-1.90413E-14
 -1      1879 8.59118E-03-6.37847E-04-1.95750E-14
 -1      1880 8.40009E-03-6.01888E-04-1.87297E-14
 -1      1881 8.72472E-03-6.33857E-04-2.01118E-14
 -1      1882 8.85678E-03-6.25927E-04-2.06477E-14
 -1      1883 8.67557E-03-6.01330E-04-1.97927E-14
 -1      1884 8.98733E-03-6.13142E-04-2.11863E-14
 -1      1885 9.11668E-03-5.94816E-04-2.17264E-14
 -1      1886 8.94577E-03-5.86535E-04-2.08606E-14
 -1      1887 9.24477E-03-5.70160E-04-2.22651E-14
 -1      1888 9.37218E-03-5.38663E-04-2.28065E-14
 -1      1889 9.21096E-03-5.50827E-04-2.19327E-14
 -1      1890 9.49885E-03-4.99861E-04-2.33479E-14
 -1      1891 9.62553E-03-4.53557E-04-2.38906E-14
 -1      1892 9.47250E-03-4.88405E-04-2.30094E-14
 -1      1893 9.75213E-03-3.99735E-04-2.44336E-14
 -1      1894 9.87943E-03-3.38568E-04-2.49755E-14
 -1      1895 9.73261E-03-3.95819E-04-2.40866E-14
 -1      1896 1.00073E-02-2.70495E-04-2.55162E-14
 -1      1897 1.01364E-02-1.96007E-04-2.60578E-14
 -1      1898 9.99392E-03-2.72953E-04-2.51661E-14
 -1      1899 1.02667E-02-1.15875E-04-2.65969E-14
 -1      1900 1.03985E-02-3.07769E-05-2.71364E-14
 -1      1901 1.02587E-02-1.23056E-04-2.62409E-14
 -1      1902 1.05317E-02 5.83775E-05-2.76744E-14
 -1      1903 1.06664E-02 1.50881E-04-2.82144E-14
 -1      1904 1.05283E-02 4.81964E-05-2.73133E-14
 -1      1905 1.08025E-02 2.45873E-04-2.87578E-14
 -1      1906 1.09400E-02 3.42740E-04-2.93024E-14
 -1      1907 1.08032E-02 2.34163E-04-2.83906E-14
 -1      1908 1.10788E-02 4.40798E-04-2.98490E-14
 -1      1909 1.12186E-02 5.39590E-04-3.04000E-14
 -1      1910 1.10828E-02 4.28618E-04-2.94762E-14
 -1      1911 1.13595E-02 6.38661E-04-3.09526E-14
 -1      1912 1.15011E-02 7.37718E-04-3.15090E-14
 -1      1913 1.13660E-02 6.26652E-04-3.05729E-14
 -1      1914 1.16434E-02 8.36519E-04-3.20693E-14
 -1      1915 1.17862E-02 9.34912E-04-3.26340E-14
 -1      1916 1.16518E-02 8.24976E-04-3.16820E-14
 -1      1917 1.19294E-02 1.03282E-03-3.32010E-14
 -1      1918 1.20728E-02 1.13020E-03-3.37712E-14
 -1      1919 1.19391E-02 1.02180E-03-3.28048E-14
 -1      1920 1.22165E-02 1.22707E-03-3.43472E-14
 -1      1921 1.23602E-02 1.32346E-03-3.49267E-14
 -1      1922 1.22270E-02 1.21649E-03-3.39415E-14
 -1      1923 1.25039E-02 1.41946E-03-3.55090E-14
 -1      1924 1.26476E-02 1.51511E-03-3.60972E-14
 -1      1925 1.25150E-02 1.40914E-03-3.50931E-14
 -1      1926 1.27912E-02 1.61054E-03-3.66905E-14
 -1      1927 1.29348E-02 1.70580E-03-3.72856E-14
 -1      1928 1.28027E-02 1.60031E-03-3.62643E-14
 -1      1929 1.30782E-02 1.80102E-03-3.78873E-14
 -1      1930 1.32215E-02 1.89624E-03-3.84925E-14
 -1      1931 1.30898E-02 1.79070E-03-3.74541E-14
 -1      1932 1.33460E-02 1.97997E-03-3.90401E-14
 -1      1933 1.34891E-02 2.07542E-03-3.96505E-14
 -1      1934 1.36067E-02 2.13701E-03-3.96978E-14
 -1      1935 1.33578E-02 1.96943E-03-3.85970E-14
 -1      1936 1.13859E-03 4.79993E-04-2.68760E-16
 -1      1937 9.96825E-04 4.46761E-04-1.95861E-16
 -1      1938 9.64450E-04 4.17309E-04-2.03966E-16
 -1      1939 1.41771E-03 5.31422E-04-4.50472E-16
 -1      1940 1.27855E-03 5.08002E-04-3.53396E-16
 -1      1941 1.24892E-03 4.79869E-04-3.61934E-16
 -1      1942 1.70787E-03 5.69143E-04-6.95218E-16
 -1      1943 1.56296E-03 5.52092E-04-5.66076E-16
 -1      1944 1.53616E-03 5.24941E-04-5.74627E-16
 -1      1945 1.98344E-03 5.93871E-04-9.79699E-16
 -1      1946 1.84566E-03 5.82698E-04-8.31271E-16
 -1      1947 1.82133E-03 5.56193E-04-8.39457E-16
 -1      1948 2.25932E-03 6.10639E-04-1.31327E-15
 -1      1949 2.12130E-03 6.03127E-04-1.14028E-15
 -1      1950 2.09896E-03 5.77020E-04-1.14741E-15
 -1      1951 2.53606E-03 6.21584E-04-1.69461E-15
 -1      1952 2.39757E-03 6.16748E-04-1.49783E-15
 -1      1953 2.37683E-03 5.90883E-04-1.50383E-15
 -1      1954 2.81391E-03 6.28299E-04-2.12566E-15
 -1      1955 2.67485E-03 6.25402E-04-1.90436E-15
 -1      1956 2.65537E-03 5.99676E-04-1.90871E-15
 -1      1957 3.10693E-03 6.32093E-04-2.62869E-15
 -1      1958 2.96026E-03 6.30557E-04-2.37022E-15
 -1      1959 2.94179E-03 6.04901E-04-2.37253E-15
 -1      1960 3.38719E-03 6.33507E-04-3.15283E-15
 -1      1961 3.24692E-03 6.33031E-04-2.88555E-15
 -1      1962 3.22923E-03 6.07400E-04-2.88474E-15
 -1      1963 3.66853E-03 6.33405E-04-3.72108E-15
 -1      1964 3.52773E-03 6.33620E-04-3.43204E-15
 -1      1965 3.51061E-03 6.07987E-04-3.42974E-15
 -1      1966 3.95088E-03 6.32212E-04-4.32983E-15
 -1      1967 3.80959E-03 6.32928E-04-4.02056E-15
 -1      1968 3.79290E-03 6.07278E-04-4.01678E-15
 -1      1969 4.23417E-03 6.30204E-04-4.97681E-15
 -1      1970 4.09242E-03 6.31300E-04-4.64829E-15
 -1      1971 4.07603E-03 6.05625E-04-4.64274E-15
 -1      1972 4.53258E-03 6.27386E-04-5.69594E-15
 -1      1973 4.38325E-03 6.28880E-04-5.33179E-15
 -1      1974 4.36709E-03 6.03176E-04-5.32343E-15
 -1      1975 4.81769E-03 6.24086E-04-6.41853E-15
 -1      1976 4.67502E-03 6.25809E-04-6.05303E-15
 -1      1977 4.65898E-03 6.00075E-04-6.04253E-15
 -1      1978 5.10379E-03 6.20163E-04-7.17300E-15
 -1      1979 4.96061E-03 6.22202E-04-6.79071E-15
 -1      1980 4.94461E-03 5.96439E-04-6.77859E-15
 -1      1981 5.39104E-03 6.15532E-04-7.96140E-15
 -1      1982 5.24725E-03 6.17936E-04-7.56400E-15
 -1      1983 5.23117E-03 5.92142E-04-7.54712E-15
 -1      1984 5.67973E-03 6.10057E-04-8.77930E-15
 -1      1985 5.53518E-03 6.12898E-04-8.36664E-15
 -1      1986 5.51888E-03 5.87069E-04-8.34750E-15
 -1      1987 5.98495E-03 6.03222E-04-9.66589E-15
 -1      1988 5.83203E-03 6.06771E-04-9.21940E-15
 -1      1989 5.81527E-03 5.80895E-04-9.19596E-15
 -1      1990 6.27838E-03 5.95507E-04-1.05378E-14
 -1      1991 6.13126E-03 5.99492E-04-1.00987E-14
 -1      1992 6.11367E-03 5.73551E-04-1.00730E-14
 -1      1993 6.57558E-03 5.86548E-04-1.14292E-14
 -1      1994 6.42640E-03 5.91140E-04-1.09807E-14
 -1      1995 6.40740E-03 5.65102E-04-1.09525E-14
 -1      1996 6.87807E-03 5.76547E-04-1.23390E-14
 -1      1997 6.72600E-03 5.81589E-04-1.18826E-14
 -1      1998 6.70463E-03 5.55396E-04-1.18514E-14
 -1      1999 7.18796E-03 5.66373E-04-1.32619E-14
 -1      2000 7.03184E-03 5.71308E-04-1.27997E-14
 -1      2001 7.00659E-03 5.44849E-04-1.27677E-14
 -1      2002 7.50808E-03 5.58408E-04-1.41907E-14
 -1      2003 7.34637E-03 5.61781E-04-1.37248E-14
 -1      2004 7.31481E-03 5.34827E-04-1.36923E-14
 -1      2005 7.85909E-03 5.58689E-04-1.51682E-14
 -1      2006 7.68110E-03 5.56705E-04-1.46791E-14
 -1      2007 7.63922E-03 5.28712E-04-1.46456E-14
 -1      2008 8.21211E-03 5.80098E-04-1.60964E-14
 -1      2009 8.03265E-03 5.65535E-04-1.56332E-14
 -1      2010 7.97480E-03 5.35240E-04-1.55993E-14
 -1      2011 8.58903E-03 6.47570E-04-1.70227E-14
 -1      2012 8.39699E-03 6.05823E-04-1.65610E-14
 -1      2013 8.31667E-03 5.70493E-04-1.65270E-14
 -1      2014 8.99800E-03 8.05378E-04-1.79350E-14
 -1      2015 8.78946E-03 7.11534E-04-1.74803E-14
 -1      2016 8.68026E-03 6.65562E-04-1.74458E-14
 -1      2017 9.45038E-03 1.11470E-03-1.88282E-14
 -1      2018 9.22051E-03 9.37214E-04-1.83842E-14
 -1      2019 9.08121E-03 8.72187E-04-1.83510E-14
 -1      2020 9.94797E-03 1.61290E-03-1.96997E-14
 -1      2021 9.69785E-03 1.34264E-03-1.92679E-14
 -1      2022 9.54083E-03 1.25547E-03-1.92348E-14
 -1      2023 1.10196E-02 2.50706E-03-2.14751E-14
 -1      2024 1.08623E-02 2.48501E-03-2.12097E-14
 -1      2025 1.14068E-02 2.34767E-03-2.21328E-14
 -1      2026 1.11953E-02 2.46216E-03-2.17857E-14
 -1      2027 1.18005E-02 2.04160E-03-2.27687E-14
 -1      2028 1.16094E-02 2.19333E-03-2.24617E-14
 -1      2029 1.22298E-02 1.74435E-03-2.34792E-14
 -1      2030 1.20202E-02 1.88025E-03-2.31209E-14
 -1      2031 1.19859E-02 1.89184E-03-2.30248E-14
 -1      2032 1.26522E-02 1.57527E-03-2.42536E-14
 -1      2033 1.24475E-02 1.64131E-03-2.38632E-14
 -1      2034 1.24190E-02 1.62773E-03-2.37699E-14
 -1      2035 1.30785E-02 1.55162E-03-2.51482E-14
 -1      2036 1.28714E-02 1.54565E-03-2.46977E-14
 -1      2037 1.28337E-02 1.51126E-03-2.46051E-14
 -1      2038 1.34869E-02 1.64862E-03-2.61021E-14
 -1      2039 1.32871E-02 1.58874E-03-2.56227E-14
 -1      2040 1.32307E-02 1.53975E-03-2.55306E-14
 -1      2041 1.38482E-02 1.80201E-03-2.70228E-14
 -1      2042 1.36704E-02 1.72012E-03-2.65612E-14
 -1      2043 1.35958E-02 1.66301E-03-2.64714E-14
 -1      2044 1.41887E-02 1.98326E-03-2.79481E-14
 -1      2045 1.40206E-02 1.89031E-03-2.74850E-14
 -1      2046 1.39328E-02 1.82933E-03-2.73976E-14
 -1      2047 1.45132E-02 2.17592E-03-2.88956E-14
 -1      2048 1.43525E-02 2.07872E-03-2.84183E-14
 -1      2049 1.42563E-02 2.01631E-03-2.83375E-14
 -1      2050 1.48257E-02 2.37212E-03-2.98756E-14
 -1      2051 1.46706E-02 2.27384E-03-2.93811E-14
 -1      2052 1.45694E-02 2.21124E-03-2.92975E-14
 -1      2053 1.51444E-02 2.57799E-03-3.09454E-14
 -1      2054 1.49860E-02 2.47520E-03-3.04040E-14
 -1      2055 1.48820E-02 2.41301E-03-3.03177E-14
 -1      2056 1.54415E-02 2.77224E-03-3.20069E-14
 -1      2057 1.52935E-02 2.67540E-03-3.14715E-14
 -1      2058 1.51883E-02 2.61385E-03-3.13769E-14
 -1      2059 1.57340E-02 2.96396E-03-3.31101E-14
 -1      2060 1.55882E-02 2.86846E-03-3.25543E-14
 -1      2061 1.54825E-02 2.80762E-03-3.24547E-14
 -1      2062 1.60235E-02 3.15272E-03-3.42470E-14
 -1      2063 1.58791E-02 3.05874E-03-3.36751E-14
 -1      2064 1.57733E-02 2.99866E-03-3.35686E-14
 -1      2065 1.62743E-02 3.31624E-03-3.53049E-14
 -1      2066 1.61308E-02 3.22367E-03-3.47230E-14
 -1      2067 1.60253E-02 3.16429E-03-3.46133E-14
 -1      2068 1.62393E-02 3.30533E-03-3.55752E-14
 -1      2069 1.57425E-02 3.07291E-03-3.65166E-14
 -1      2070 1.58293E-02 3.11238E-03-3.63475E-14
 -1      2071 1.59160E-02 3.15230E-03-3.61736E-14
 -1      2072 1.60029E-02 3.19266E-03-3.60010E-14
 -1      2073 1.57495E-02 3.05223E-03-3.57559E-14
 -1      2074 1.60768E-02 3.22810E-03-3.58782E-14
 -1      2075 1.61645E-02 3.26927E-03-3.57015E-14
 -1      2076 1.60577E-02 3.19893E-03-3.52171E-14
 -1      2077 1.59096E-02 3.12754E-03-3.54623E-14
 -1      2078 1.55706E-02 2.99634E-03-3.68406E-14
 -1      2079 1.56568E-02 3.03448E-03-3.66764E-14
 -1      2080 1.55777E-02 2.97408E-03-3.60909E-14
 -1      2081 1.53930E-02 2.91939E-03-3.71607E-14
 -1      2082 1.54822E-02 2.95781E-03-3.70022E-14
 -1      2083 1.54041E-02 2.89725E-03-3.64113E-14
 -1      2084 1.52120E-02 2.84268E-03-3.74750E-14
 -1      2085 1.53030E-02 2.88107E-03-3.73186E-14
 -1      2086 1.52258E-02 2.82039E-03-3.67305E-14
 -1      2087 1.50275E-02 2.76557E-03-3.77936E-14
 -1      2088 1.51202E-02 2.80423E-03-3.76335E-14
 -1      2089 1.50438E-02 2.74344E-03-3.70484E-14
 -1      2090 1.48400E-02 2.68756E-03-3.81063E-14
 -1      2091 1.49341E-02 2.72671E-03-3.79500E-14
 -1      2092 1.48582E-02 2.66578E-03-3.73656E-14
 -1      2093 1.46504E-02 2.60837E-03-3.84181E-14
 -1      2094 1.47454E-02 2.64812E-03-3.82634E-14
 -1      2095 1.46698E-02 2.58703E-03-3.76805E-14
 -1      2096 1.44629E-02 2.52933E-03-3.87337E-14
 -1      2097 1.45568E-02 2.56899E-03-3.85734E-14
 -1      2098 1.44812E-02 2.50771E-03-3.79929E-14
 -1      2099 1.42717E-02 2.44779E-03-3.90661E-14
 -1      2100 1.43673E-02 2.48869E-03-3.88977E-14
 -1      2101 1.42917E-02 2.42722E-03-3.83083E-14
 -1      2102 1.40807E-02 2.36531E-03-3.93963E-14
 -1      2103 1.41762E-02 2.40665E-03-3.92301E-14
 -1      2104 1.41004E-02 2.34503E-03-3.86317E-14
 -1      2105 1.38902E-02 2.28209E-03-3.97302E-14
 -1      2106 1.39854E-02 2.32377E-03-3.95647E-14
 -1      2107 1.39093E-02 2.26205E-03-3.89581E-14
 -1      2108 1.29537E-02 1.33802E-03-2.39559E-14
 -1      2109 1.30687E-02 1.28824E-03-2.41431E-14
 -1      2110 1.31782E-02 1.20145E-03-2.45160E-14
 -1      2111 1.31273E-02 1.18496E-03-2.45771E-14
 -1      2112 1.31656E-02 1.24260E-03-2.43251E-14
 -1      2113 1.31931E-02 1.22203E-03-2.44184E-14
 -1      2114 1.31945E-02 1.22654E-03-2.46909E-14
 -1      2115 1.26563E-02 1.49185E-03-2.35619E-14
 -1      2116 1.28209E-02 1.40608E-03-2.37579E-14
 -1      2117 1.28915E-02 1.35131E-03-2.40218E-14
 -1      2118 1.22355E-02 1.73451E-03-2.31244E-14
 -1      2119 1.24434E-02 1.61077E-03-2.33285E-14
 -1      2120 3.27136E-04-8.89728E-05-7.75340E-17
 -1      2121 3.29246E-04-1.02115E-04-7.50810E-17
 -1      2122 4.46320E-04-1.45083E-04-1.09044E-16
 -1      2123 4.40006E-04-1.09926E-04-1.15332E-16
 -1      2124 1.12900E-02 2.37937E-03-2.19474E-14
 -1      2125 1.14737E-02 2.26957E-03-2.21915E-14
 -1      2126 1.08889E-02 2.45834E-03-2.13789E-14
 -1      2127 1.10616E-02 2.44984E-03-2.16270E-14
 -1      2128 1.05367E-02 2.31235E-03-2.09061E-14
 -1      2129 1.07099E-02 2.40752E-03-2.11434E-14
 -1      2130 1.07662E-02 2.43471E-03-2.11385E-14
 -1      2131 1.01294E-02 2.00412E-03-2.04681E-14
 -1      2132 1.03363E-02 2.17432E-03-2.06884E-14
 -1      2133 1.04368E-02 2.21625E-03-2.06885E-14
 -1      2134 9.68264E-03 1.63211E-03-2.00604E-14
 -1      2135 9.90706E-03 1.82488E-03-2.02647E-14
 -1      2136 1.00504E-02 1.88339E-03-2.02688E-14
 -1      2137 9.17703E-03 1.24768E-03-1.96703E-14
 -1      2138 9.41705E-03 1.41481E-03-1.98306E-14
 -1      2139 8.72725E-03 9.66101E-04-1.93691E-14
 -1      2140 8.93523E-03 1.09050E-03-1.95060E-14
 -1      2141 8.33999E-03 7.80289E-04-1.91590E-14
 -1      2142 8.50398E-03 8.52676E-04-1.92445E-14
 -1      2143 8.10471E-03 6.72953E-04-1.90017E-14
 -1      2144 8.19835E-03 7.08806E-04-1.90475E-14
 -1      2145 8.03388E-03 6.29972E-04-1.90679E-14
 -1      2146 8.04227E-03 6.46061E-04-1.90331E-14
 -1      2147 8.13370E-03 5.84643E-04-1.92046E-14
 -1      2148 8.06807E-03 6.05371E-04-1.91157E-14
 -1      2149 8.35256E-03 5.15634E-04-1.94219E-14
 -1      2150 8.22800E-03 5.52999E-04-1.93124E-14
 -1      2151 8.17216E-03 5.70268E-04-1.90561E-14
 -1      2152 8.71668E-03 3.77651E-04-1.98463E-14
 -1      2153 8.54733E-03 4.46060E-04-1.96398E-14
 -1      2154 9.08807E-03 2.19608E-04-2.02821E-14
 -1      2155 8.89789E-03 3.01742E-04-2.00627E-14
 -1      2156 8.81531E-03 3.49520E-04-1.98132E-14
 -1      2157 9.50508E-03 3.41440E-05-2.08844E-14
 -1      2158 9.32688E-03 1.14815E-04-2.06075E-14
 -1      2159 9.86245E-03-8.69782E-05-2.14734E-14
 -1      2160 9.69172E-03-3.46827E-05-2.11877E-14
 -1      2161 1.02234E-02-1.21198E-04-2.21212E-14
 -1      2162 1.00651E-02-1.20459E-04-2.18291E-14
 -1      2163 1.05714E-02-3.48424E-05-2.27146E-14
 -1      2164 1.04106E-02-8.84701E-05-2.24407E-14
 -1      2165 1.09446E-02 1.50898E-04-2.32673E-14
 -1      2166 1.07680E-02 5.28602E-05-2.30232E-14
 -1      2167 1.13696E-02 4.05694E-04-2.37612E-14
 -1      2168 1.11669E-02 2.81533E-04-2.35482E-14
 -1      2169 1.18295E-02 6.76168E-04-2.41745E-14
 -1      2170 1.16077E-02 5.43324E-04-2.39780E-14
 -1      2171 1.23362E-02 9.18737E-04-2.44680E-14
 -1      2172 1.21171E-02 8.26753E-04-2.43783E-14
 -1      2173 1.27312E-02 1.05905E-03-2.45704E-14
 -1      2174 1.25543E-02 9.96352E-04-2.45190E-14
 -1      2175 1.30264E-02 1.14946E-03-2.45907E-14
 -1      2176 1.29041E-02 1.11593E-03-2.45973E-14
 -1      2177 1.17119E-02 2.10170E-03-2.25310E-14
 -1      2178 1.19008E-02 1.95275E-03-2.27794E-14
 -1      2179 6.07868E-04-2.98096E-04-1.16362E-16
 -1      2180 1.15425E-02 2.23312E-03-2.23341E-14
 -1      2181 6.63594E-04-2.92375E-04-1.55068E-16
 -1      2182 1.07287E-02 2.41664E-03-2.09795E-14
 -1      2183 1.11202E-02 2.46134E-03-2.16855E-14
 -1      2184 1.05311E-02 2.26183E-03-2.06513E-14
 -1      2185 1.03717E-02 2.11074E-03-2.04364E-14
 -1      2186 1.31298E-02 1.26213E-03-2.44065E-14
 -1      2187 1.37724E-02 2.22069E-03-3.96866E-14
 -1      2188 1.25613E-02 1.51698E-03-2.35872E-14
 -1      2189 1.30825E-02 1.19922E-03-2.48057E-14
 -1      2190 1.28111E-02 1.12899E-03-2.47962E-14
 -1      2191 1.24265E-02 1.00657E-03-2.47205E-14
 -1      2192 1.19418E-02 7.87904E-04-2.44672E-14
 -1      2193 1.14376E-02 5.00154E-04-2.40450E-14
 -1      2194 1.10123E-02 2.28020E-04-2.35439E-14
 -1      2195 1.06352E-02 5.19206E-06-2.29514E-14
 -1      2196 1.02945E-02-1.16578E-04-2.23205E-14
 -1      2197 9.96158E-03-1.15958E-04-2.16435E-14
 -1      2198 9.21413E-03 1.69388E-04-2.03550E-14
 -1      2199 8.44647E-03 4.88462E-04-1.93793E-14
 -1      2200 8.04260E-03 6.04944E-04-1.89022E-14
 -1      2201 8.06793E-03 6.32760E-04-1.88246E-14
 -1      2202 8.27663E-03 6.98727E-04-1.89072E-14
 -1      2203 8.63882E-03 8.60824E-04-1.91460E-14
 -1      2204 9.58587E-03 1.48320E-03-1.98348E-14
 -1      2205 9.09685E-03 1.11701E-03-1.94383E-14
 -1      2206 9.60767E-03-6.76070E-06-2.09837E-14
 -1      2207 1.00158E-02 1.79005E-03-2.00712E-14
 -1      2208 1.01504E-02 1.85109E-03-2.00388E-14
 -1      2209 1.01657E-03 3.99741E-04-2.60100E-16
 -1      2210 8.72111E-04 3.63375E-04-1.90413E-16
 -1      2211 5.47799E-04-5.52920E-05-1.69705E-16
 -1      2212 5.48835E-04-7.20045E-05-1.69339E-16
 -1      2213 5.50254E-04-8.93223E-05-1.68363E-16
 -1      2214 5.52128E-04-1.07293E-04-1.66940E-16
 -1      2215 6.65303E-04-9.54758E-05-2.27710E-16
 -1      2216 5.46420E-04 8.85301E-06-1.66710E-16
 -1      2217 5.46400E-04-6.98194E-06-1.68065E-16
 -1      2218 5.47175E-04 4.08594E-05-1.63023E-16
 -1      2219 5.46675E-04 2.47871E-05-1.65192E-16
 -1      2220 6.61360E-04 1.99243E-05-2.24064E-16
 -1      2221 5.49001E-04 7.34771E-05-1.57765E-16
 -1      2222 5.47939E-04 5.69866E-05-1.60679E-16
 -1      2223 6.62686E-04 5.77737E-05-2.18887E-16
 -1      2224 5.52391E-04 1.08947E-04-1.50569E-16
 -1      2225 5.50468E-04 9.08732E-05-1.54431E-16
 -1      2226 6.65547E-04 9.72370E-05-2.11447E-16
 -1      2227 5.58266E-04 1.48279E-04-1.39659E-16
 -1      2228 5.54950E-04 1.28055E-04-1.45513E-16
 -1      2229 6.70635E-04 1.40003E-04-2.00930E-16
 -1      2230 5.68588E-04 1.93875E-04-1.25009E-16
 -1      2231 5.62753E-04 1.70158E-04-1.33072E-16
 -1      2232 6.79279E-04 1.87544E-04-1.86266E-16
 -1      2233 1.26110E-02 1.51423E-03-2.40524E-14
 -1      2234 1.24135E-02 1.60322E-03-2.36602E-14
 -1      2235 1.29997E-02 1.45724E-03-2.49475E-14
 -1      2236 1.28144E-02 1.46740E-03-2.44974E-14
 -1      2237 1.28138E-02 1.42325E-03-2.43858E-14
 -1      2238 1.30203E-03 4.56633E-04-4.34738E-16
 -1      2239 1.15971E-03 4.30719E-04-3.41510E-16
 -1      2240 1.07176E-03 3.81253E-04-3.19026E-16
 -1      2241 9.15171E-04-3.46322E-04-2.93250E-16
 -1      2242 1.05926E-03-3.79623E-04-3.83415E-16
 -1      2243 1.20253E-03-4.07971E-04-4.86088E-16
 -1      2244 1.34534E-03-4.31813E-04-6.01529E-16
 -1      2245 1.11697E-03-3.60417E-04-4.46203E-16
 -1      2246 1.48751E-03-4.51997E-04-7.29424E-16
 -1      2247 1.62930E-03-4.68795E-04-8.69964E-16
 -1      2248 1.40330E-03-4.07121E-04-6.78887E-16
 -1      2249 1.77072E-03-4.82878E-04-1.02266E-15
 -1      2250 1.91191E-03-4.94462E-04-1.18738E-15
 -1      2251 1.68843E-03-4.40278E-04-9.60928E-16
 -1      2252 2.05294E-03-5.04039E-04-1.36378E-15
 -1      2253 2.19387E-03-5.11784E-04-1.55216E-15
 -1      2254 1.97263E-03-4.63212E-04-1.29115E-15
 -1      2255 2.33478E-03-5.18057E-04-1.75206E-15
 -1      2256 2.47568E-03-5.22999E-04-1.96384E-15
 -1      2257 2.25628E-03-4.78560E-04-1.66754E-15
 -1      2258 2.61665E-03-5.26874E-04-2.18728E-15
 -1      2259 2.75767E-03-5.29793E-04-2.42234E-15
 -1      2260 2.53971E-03-4.88350E-04-2.09075E-15
 -1      2261 2.89880E-03-5.31948E-04-2.66826E-15
 -1      2262 3.04001E-03-5.33427E-04-2.92504E-15
 -1      2263 2.82317E-03-4.94122E-04-2.55895E-15
 -1      2264 3.18136E-03-5.34366E-04-3.19207E-15
 -1      2265 3.32281E-03-5.34833E-04-3.47006E-15
 -1      2266 3.10679E-03-4.97031E-04-3.07117E-15
 -1      2267 3.46441E-03-5.34925E-04-3.75816E-15
 -1      2268 3.60611E-03-5.34693E-04-4.05612E-15
 -1      2269 3.39067E-03-4.97932E-04-3.62506E-15
 -1      2270 3.74795E-03-5.34202E-04-4.36341E-15
 -1      2271 3.88990E-03-5.33492E-04-4.68003E-15
 -1      2272 3.67485E-03-4.97445E-04-4.21887E-15
 -1      2273 4.03199E-03-5.32607E-04-5.00607E-15
 -1      2274 4.17418E-03-5.31575E-04-5.34283E-15
 -1      2275 3.95935E-03-4.96008E-04-4.85094E-15
 -1      2276 4.31651E-03-5.30428E-04-5.68924E-15
 -1      2277 4.45894E-03-5.29185E-04-6.04374E-15
 -1      2278 4.24417E-03-4.93932E-04-5.52055E-15
 -1      2279 4.60149E-03-5.27872E-04-6.40693E-15
 -1      2280 4.74416E-03-5.26504E-04-6.77941E-15
 -1      2281 4.52932E-03-4.91435E-04-6.22764E-15
 -1      2282 4.88695E-03-5.25102E-04-7.16036E-15
 -1      2283 5.02985E-03-5.23684E-04-7.54914E-15
 -1      2284 4.81481E-03-4.88679E-04-6.96867E-15
 -1      2285 5.17288E-03-5.22272E-04-7.94579E-15
 -1      2286 5.31602E-03-5.20885E-04-8.35169E-15
 -1      2287 5.10067E-03-4.85808E-04-7.74448E-15
 -1      2288 5.45930E-03-5.19554E-04-8.76565E-15
 -1      2289 5.60271E-03-5.18304E-04-9.18636E-15
 -1      2290 5.38692E-03-4.82976E-04-8.55197E-15
 -1      2291 5.74626E-03-5.17177E-04-9.61639E-15
 -1      2292 5.88995E-03-5.16206E-04-1.00548E-14
 -1      2293 5.67364E-03-4.80381E-04-9.39341E-15
 -1      2294 6.03379E-03-5.15446E-04-1.04996E-14
 -1      2295 6.17778E-03-5.14940E-04-1.09538E-14
 -1      2296 5.96091E-03-4.78290E-04-1.02670E-14
 -1      2297 6.32194E-03-5.14759E-04-1.14153E-14
 -1      2298 6.46623E-03-5.14952E-04-1.18828E-14
 -1      2299 6.24885E-03-4.77064E-04-1.11718E-14
 -1      2300 6.61071E-03-5.15598E-04-1.23578E-14
 -1      2301 6.75529E-03-5.16752E-04-1.28373E-14
 -1      2302 6.53757E-03-4.77159E-04-1.21038E-14
 -1      2303 6.90005E-03-5.18486E-04-1.33239E-14
 -1      2304 7.04488E-03-5.20846E-04-1.38169E-14
 -1      2305 6.82719E-03-4.79100E-04-1.30620E-14
 -1      2306 7.18983E-03-5.23874E-04-1.43140E-14
 -1      2307 7.33475E-03-5.27582E-04-1.48147E-14
 -1      2308 7.11777E-03-4.83406E-04-1.40418E-14
 -1      2309 7.47972E-03-5.31945E-04-1.53197E-14
 -1      2310 7.62449E-03-5.36904E-04-1.58292E-14
 -1      2311 7.40924E-03-4.90432E-04-1.50408E-14
 -1      2312 7.76915E-03-5.42315E-04-1.63404E-14
 -1      2313 7.91339E-03-5.47999E-04-1.68566E-14
 -1      2314 7.70130E-03-5.00106E-04-1.60531E-14
 -1      2315 8.05727E-03-5.53636E-04-1.73755E-14
 -1      2316 8.20045E-03-5.58871E-04-1.78974E-14
 -1      2317 7.99329E-03-5.11542E-04-1.70785E-14
 -1      2318 8.34295E-03-5.63169E-04-1.84236E-14
 -1      2319 8.48447E-03-5.65956E-04-1.89486E-14
 -1      2320 8.28413E-03-5.22568E-04-1.81182E-14
 -1      2321 8.62496E-03-5.66483E-04-1.94772E-14
 -1      2322 8.76428E-03-5.63970E-04-2.00076E-14
 -1      2323 8.57244E-03-5.29288E-04-1.91656E-14
 -1      2324 8.90232E-03-5.57522E-04-2.05359E-14
 -1      2325 9.03918E-03-5.46251E-04-2.10692E-14
 -1      2326 8.85679E-03-5.25913E-04-2.02176E-14
 -1      2327 9.17476E-03-5.29270E-04-2.16027E-14
 -1      2328 9.30944E-03-5.05777E-04-2.21367E-14
 -1      2329 9.13631E-03-5.05190E-04-2.12736E-14
 -1      2330 9.44314E-03-4.75102E-04-2.26720E-14
 -1      2331 9.57650E-03-4.36756E-04-2.32072E-14
 -1      2332 9.41128E-03-4.59657E-04-2.23374E-14
 -1      2333 9.70946E-03-3.90481E-04-2.37442E-14
 -1      2334 9.84277E-03-3.36261E-04-2.42803E-14
 -1      2335 9.68343E-03-3.83544E-04-2.34030E-14
 -1      2336 9.97635E-03-2.74325E-04-2.48162E-14
 -1      2337 1.01109E-02-2.05132E-04-2.53516E-14
 -1      2338 9.95547E-03-2.74592E-04-2.44695E-14
 -1      2339 1.02463E-02-1.29327E-04-2.58854E-14
 -1      2340 1.03829E-02-4.76990E-05-2.64197E-14
 -1      2341 1.02301E-02-1.34799E-04-2.55327E-14
 -1      2342 1.05207E-02 3.88765E-05-2.69538E-14
 -1      2343 1.06598E-02 1.29514E-04-2.74879E-14
 -1      2344 1.05092E-02 3.02676E-05-2.65950E-14
 -1      2345 1.08000E-02 2.23315E-04-2.80242E-14
 -1      2346 1.09413E-02 3.19490E-04-2.85636E-14
 -1      2347 1.07932E-02 2.13218E-04-2.76607E-14
 -1      2348 1.10835E-02 4.17281E-04-2.91055E-14
 -1      2349 1.12264E-02 5.16102E-04-2.96491E-14
 -1      2350 1.10811E-02 4.06753E-04-2.87341E-14
 -1      2351 1.13701E-02 6.15412E-04-3.01948E-14
 -1      2352 1.15141E-02 7.14847E-04-3.07433E-14
 -1      2353 1.13716E-02 6.04986E-04-2.98183E-14
 -1      2354 1.16585E-02 8.14086E-04-3.12953E-14
 -1      2355 1.18030E-02 9.12950E-04-3.18511E-14
 -1      2356 1.16633E-02 8.03942E-04-3.09114E-14
 -1      2357 1.19476E-02 1.01130E-03-3.24108E-14
 -1      2358 1.20923E-02 1.10908E-03-3.29737E-14
 -1      2359 1.19550E-02 1.00142E-03-3.20180E-14
 -1      2360 1.22369E-02 1.20629E-03-3.35366E-14
 -1      2361 1.23814E-02 1.30294E-03-3.41068E-14
 -1      2362 1.22461E-02 1.19658E-03-3.31377E-14
 -1      2363 1.25258E-02 1.39911E-03-3.46827E-14
 -1      2364 1.26700E-02 1.49485E-03-3.52582E-14
 -1      2365 1.25362E-02 1.38943E-03-3.42707E-14
 -1      2366 1.28140E-02 1.59028E-03-3.58411E-14
 -1      2367 1.29579E-02 1.68546E-03-3.64271E-14
 -1      2368 1.28252E-02 1.58050E-03-3.54209E-14
 -1      2369 1.31016E-02 1.78051E-03-3.70183E-14
 -1      2370 1.32451E-02 1.87551E-03-3.76152E-14
 -1      2371 1.31133E-02 1.77051E-03-3.65873E-14
 -1      2372 1.87921E-03 5.26109E-04-9.44584E-16
 -1      2373 1.73900E-03 5.13654E-04-8.01198E-16
 -1      2374 2.15928E-03 5.44863E-04-1.26726E-15
 -1      2375 2.01929E-03 5.36453E-04-1.09979E-15
 -1      2376 1.93866E-03 4.95345E-04-1.05143E-15
 -1      2377 2.43936E-03 5.57174E-04-1.63781E-15
 -1      2378 2.29931E-03 5.51720E-04-1.44688E-15
 -1      2379 2.22076E-03 5.12098E-04-1.38870E-15
 -1      2380 2.71983E-03 5.64808E-04-2.05624E-15
 -1      2381 2.57955E-03 5.61496E-04-1.84083E-15
 -1      2382 2.50272E-03 5.22939E-04-1.77340E-15
 -1      2383 3.01496E-03 5.69228E-04-2.54483E-15
 -1      2384 2.86732E-03 5.67411E-04-2.29416E-15
 -1      2385 2.79192E-03 5.29619E-04-2.21595E-15
 -1      2386 3.29673E-03 5.71014E-04-3.05736E-15
 -1      2387 3.15577E-03 5.70370E-04-2.79564E-15
 -1      2388 3.08150E-03 5.33103E-04-2.70629E-15
 -1      2389 3.57921E-03 5.71140E-04-3.61352E-15
 -1      2390 3.43789E-03 5.71252E-04-3.32972E-15
 -1      2391 3.36447E-03 5.34335E-04-3.23064E-15
 -1      2392 3.86237E-03 5.70086E-04-4.21122E-15
 -1      2393 3.72071E-03 5.70738E-04-3.90770E-15
 -1      2394 3.64792E-03 5.34061E-04-3.79780E-15
 -1      2395 4.14620E-03 5.68163E-04-4.84667E-15
 -1      2396 4.00421E-03 5.69217E-04-4.52431E-15
 -1      2397 3.93187E-03 5.32714E-04-4.40561E-15
 -1      2398 4.44493E-03 5.65411E-04-5.55463E-15
 -1      2399 4.29548E-03 5.66871E-04-5.19589E-15
 -1      2400 4.22343E-03 5.30507E-04-5.06779E-15
 -1      2401 4.73011E-03 5.62173E-04-6.26482E-15
 -1      2402 4.58744E-03 5.63862E-04-5.90459E-15
 -1      2403 4.51552E-03 5.27627E-04-5.76816E-15
 -1      2404 5.01600E-03 5.58325E-04-7.00717E-15
 -1      2405 4.87296E-03 5.60323E-04-6.63239E-15
 -1      2406 4.80099E-03 5.24225E-04-6.48537E-15
 -1      2407 5.30268E-03 5.53796E-04-7.78289E-15
 -1      2408 5.15923E-03 5.56146E-04-7.39099E-15
 -1      2409 5.08700E-03 5.20217E-04-7.23648E-15
 -1      2410 5.59030E-03 5.48457E-04-8.58848E-15
 -1      2411 5.44635E-03 5.51229E-04-8.18234E-15
 -1      2412 5.37361E-03 5.15521E-04-8.01812E-15
 -1      2413 5.89355E-03 5.41803E-04-9.46243E-15
 -1      2414 5.74173E-03 5.45265E-04-9.02177E-15
 -1      2415 5.66805E-03 5.09863E-04-8.84950E-15
 -1      2416 6.18384E-03 5.34294E-04-1.03231E-14
 -1      2417 6.03846E-03 5.38188E-04-9.88947E-15
 -1      2418 5.96326E-03 5.03198E-04-9.70795E-15
 -1      2419 6.47595E-03 5.25542E-04-1.12054E-14
 -1      2420 6.32959E-03 5.30061E-04-1.07619E-14
 -1      2421 6.25206E-03 4.95603E-04-1.05719E-14
 -1      2422 6.77029E-03 5.15657E-04-1.21085E-14
 -1      2423 6.62272E-03 5.20711E-04-1.16544E-14
 -1      2424 6.54160E-03 4.86927E-04-1.14592E-14
 -1      2425 7.06727E-03 5.05263E-04-1.30256E-14
 -1      2426 6.91827E-03 5.10458E-04-1.25654E-14
 -1      2427 6.83166E-03 4.77459E-04-1.23651E-14
 -1      2428 7.36722E-03 4.96109E-04-1.39534E-14
 -1      2429 7.21662E-03 5.00393E-04-1.34885E-14
 -1      2430 7.12171E-03 4.68128E-04-1.32849E-14
 -1      2431 7.68557E-03 4.92345E-04-1.49299E-14
 -1      2432 7.52559E-03 4.93126E-04-1.44405E-14
 -1      2433 7.41786E-03 4.61010E-04-1.42372E-14
 -1      2434 7.99246E-03 5.03399E-04-1.58598E-14
 -1      2435 7.83806E-03 4.95403E-04-1.53966E-14
 -1      2436 7.71123E-03 4.61422E-04-1.51923E-14
 -1      2437 8.30547E-03 5.46133E-04-1.67858E-14
 -1      2438 8.14740E-03 5.19333E-04-1.63230E-14
 -1      2439 7.99333E-03 4.78350E-04-1.61222E-14
 -1      2440 8.63413E-03 6.51969E-04-1.76995E-14
 -1      2441 8.46656E-03 5.88117E-04-1.72442E-14
 -1      2442 8.27326E-03 5.28289E-04-1.70428E-14
 -1      2443 9.00346E-03 8.73420E-04-1.85978E-14
 -1      2444 8.81219E-03 7.41957E-04-1.81521E-14
 -1      2445 8.56362E-03 6.40577E-04-1.79526E-14
 -1      2446 1.33577E-02 1.53221E-03-2.59063E-14
 -1      2447 1.31822E-02 1.48275E-03-2.54250E-14
 -1      2448 1.31518E-02 1.42920E-03-2.53165E-14
 -1      2449 1.36791E-02 1.67315E-03-2.68352E-14
 -1      2450 1.35198E-02 1.59681E-03-2.63690E-14
 -1      2451 1.34588E-02 1.53561E-03-2.62649E-14
 -1      2452 1.39913E-02 1.84797E-03-2.77696E-14
 -1      2453 1.38357E-02 1.75767E-03-2.72997E-14
 -1      2454 1.37506E-02 1.69039E-03-2.72008E-14
 -1      2455 1.42977E-02 2.03800E-03-2.87215E-14
 -1      2456 1.41449E-02 1.94175E-03-2.82443E-14
 -1      2457 1.40422E-02 1.87040E-03-2.81463E-14
 -1      2458 1.45996E-02 2.23371E-03-2.96983E-14
 -1      2459 1.44490E-02 2.13548E-03-2.92061E-14
 -1      2460 1.43347E-02 2.06182E-03-2.91115E-14
 -1      2461 1.49121E-02 2.44024E-03-3.07569E-14
 -1      2462 1.47562E-02 2.33703E-03-3.02219E-14
 -1      2463 1.46345E-02 2.26232E-03-3.01253E-14
 -1      2464 1.52063E-02 2.63565E-03-3.18043E-14
 -1      2465 1.50595E-02 2.53819E-03-3.12757E-14
 -1      2466 1.49334E-02 2.46326E-03-3.11722E-14
 -1      2467 1.54977E-02 2.82880E-03-3.28948E-14
 -1      2468 1.53523E-02 2.73257E-03-3.23456E-14
 -1      2469 1.52238E-02 2.65787E-03-3.22356E-14
 -1      2470 1.57869E-02 3.01914E-03-3.40181E-14
 -1      2471 1.56425E-02 2.92435E-03-3.34521E-14
 -1      2472 1.55128E-02 2.85020E-03-3.33353E-14
 -1      2473 1.59761E-02 3.14499E-03-3.48529E-14
 -1      2474 1.58689E-02 3.07376E-03-3.43765E-14
 -1      2475 1.57387E-02 3.00021E-03-3.42547E-14
 -1      2476 1.59020E-02 3.10909E-03-3.49761E-14
 -1      2477 1.52378E-02 2.79805E-03-3.59870E-14
 -1      2478 1.53260E-02 2.83645E-03-3.58257E-14
 -1      2479 1.50586E-02 2.72139E-03-3.63051E-14
 -1      2480 1.51487E-02 2.75975E-03-3.61461E-14
 -1      2481 1.50716E-02 2.69899E-03-3.55677E-14
 -1      2482 1.55834E-02 2.95181E-03-3.53366E-14
 -1      2483 1.56695E-02 2.99153E-03-3.51635E-14
 -1      2484 1.54126E-02 2.87469E-03-3.56646E-14
 -1      2485 1.54979E-02 2.91290E-03-3.55039E-14
 -1      2486 1.54185E-02 2.85158E-03-3.49194E-14
 -1      2487 1.52471E-02 2.77500E-03-3.52474E-14
 -1      2488 1.48754E-02 2.64426E-03-3.66238E-14
 -1      2489 1.49674E-02 2.68294E-03-3.64656E-14
 -1      2490 1.48913E-02 2.62258E-03-3.58872E-14
 -1      2491 1.46887E-02 2.56610E-03-3.69416E-14
 -1      2492 1.47824E-02 2.60535E-03-3.67829E-14
 -1      2493 1.47068E-02 2.54527E-03-3.62054E-14
 -1      2494 1.44994E-02 2.48661E-03-3.72564E-14
 -1      2495 1.45943E-02 2.52653E-03-3.70990E-14
 -1      2496 1.45188E-02 2.46656E-03-3.65211E-14
 -1      2497 1.43117E-02 2.40718E-03-3.75636E-14
 -1      2498 1.44057E-02 2.44705E-03-3.74109E-14
 -1      2499 1.43302E-02 2.38698E-03-3.68297E-14
 -1      2500 1.41202E-02 2.32522E-03-3.78806E-14
 -1      2501 1.42160E-02 2.36633E-03-3.77206E-14
 -1      2502 1.41403E-02 2.30601E-03-3.71380E-14
 -1      2503 1.39288E-02 2.24236E-03-3.81986E-14
 -1      2504 1.40245E-02 2.28388E-03-3.80405E-14
 -1      2505 1.39485E-02 2.22324E-03-3.74513E-14
 -1      2506 1.37378E-02 2.15889E-03-3.85204E-14
 -1      2507 1.38332E-02 2.20068E-03-3.83572E-14
 -1      2508 1.37571E-02 2.13970E-03-3.77658E-14
 -1      2509 1.24922E-02 1.54386E-03-2.36464E-14
 -1      2510 1.26776E-02 1.44449E-03-2.38819E-14
 -1      2511 1.59500E-03 4.98137E-04-6.67245E-16
 -1      2512 1.44704E-03 4.79104E-04-5.43280E-16
 -1      2513 1.36134E-03 4.33141E-04-5.13058E-16
 -1      2514 1.65243E-03 4.70142E-04-7.59077E-16
 -1      2515 1.32129E-02 1.25039E-03-2.49238E-14
 -1      2516 1.31979E-02 1.25086E-03-2.50247E-14
 -1      2517 1.31272E-02 1.24050E-03-2.51043E-14
 -1      2518 1.30287E-02 1.22651E-03-2.51224E-14
 -1      2519 1.20422E-02 1.84684E-03-2.30056E-14
 -1      2520 5.88503E-04-2.37946E-04-1.42640E-16
 -1      2521 7.81301E-04-3.04776E-04-2.24742E-16
 -1      2522 8.40737E-04-2.93546E-04-2.72839E-16
 -1      2523 5.78975E-04-2.10149E-04-1.50691E-16
 -1      2524 1.28854E-02 1.18423E-03-2.50358E-14
 -1      2525 1.27210E-02 1.14275E-03-2.50111E-14
 -1      2526 8.05007E-03 5.83692E-04-1.86923E-14
 -1      2527 8.02122E-03 5.89561E-04-1.86467E-14
 -1      2528 1.36480E-02 2.13684E-03-3.91353E-14
 -1      2529 5.46613E-04-2.28993E-05-1.69027E-16
 -1      2530 5.47070E-04-3.89373E-05-1.69596E-16
 -1      2531 6.62534E-04-5.58080E-05-2.28794E-16
 -1      2532 6.61307E-04-1.77048E-05-2.27439E-16
 -1      2533 1.30983E-02 1.28006E-03-2.45724E-14
 -1      2534 1.31842E-02 1.26082E-03-2.47610E-14
 -1      2535 9.01590E-03 9.99686E-04-1.91860E-14
 -1      2536 9.23932E-03 1.14321E-03-1.93529E-14
 -1      2537 9.68545E-03-5.06886E-05-2.10778E-14
 -1      2538 9.53107E-03 1.60450E-05-2.07745E-14
 -1      2539 8.55184E-03 7.65667E-04-1.88863E-14
 -1      2540 8.76290E-03 8.61094E-04-1.90139E-14
 -1      2541 8.23455E-03 6.44423E-04-1.86581E-14
 -1      2542 8.37825E-03 6.94528E-04-1.87713E-14
 -1      2543 8.47840E-03 6.98287E-04-1.86379E-14
 -1      2544 8.03332E-03 5.96230E-04-1.85953E-14
 -1      2545 8.09152E-03 6.01814E-04-1.85659E-14
 -1      2546 8.20553E-03 5.49831E-04-1.88672E-14
 -1      2547 8.12016E-03 5.66046E-04-1.87609E-14
 -1      2548 8.53269E-03 4.56164E-04-1.92940E-14
 -1      2549 8.35382E-03 5.12195E-04-1.90780E-14
 -1      2550 8.89282E-03 3.12145E-04-1.97448E-14
 -1      2551 8.73141E-03 3.80244E-04-1.95292E-14
 -1      2552 9.30959E-03 1.18725E-04-2.03903E-14
 -1      2553 9.10155E-03 2.19881E-04-2.00651E-14
 -1      2554 8.98782E-03 2.52101E-04-1.97779E-14
 -1      2555 1.00154E-02-1.38445E-04-2.17925E-14
 -1      2556 9.85834E-03-1.05666E-04-2.14348E-14
 -1      2557 9.75578E-03-9.12056E-05-2.12247E-14
 -1      2558 1.03557E-02-1.01287E-04-2.25498E-14
 -1      2559 1.02095E-02-1.34219E-04-2.22283E-14
 -1      2560 1.06766E-02 4.93484E-05-2.31953E-14
 -1      2561 1.05189E-02-3.80392E-05-2.28836E-14
 -1      2562 1.10611E-02 3.03032E-04-2.38436E-14
 -1      2563 1.08749E-02 1.74641E-04-2.35593E-14
 -1      2564 1.15070E-02 5.93797E-04-2.43684E-14
 -1      2565 1.12999E-02 4.60283E-04-2.41502E-14
 -1      2566 1.20394E-02 8.89349E-04-2.48018E-14
 -1      2567 1.17755E-02 7.48622E-04-2.45985E-14
 -1      2568 1.25303E-02 1.09153E-03-2.50280E-14
 -1      2569 1.23333E-02 1.02255E-03-2.49789E-14
 -1      2570 7.57871E-04 3.34182E-04-1.40879E-16
 -1      2571 6.11459E-04 2.84833E-04-9.30788E-17
 -1      2572 5.84741E-04 2.58066E-04-9.68464E-17
 -1      2573 8.13703E-04 3.22849E-04-1.84978E-16
 -1      2574 1.22567E-02 1.68893E-03-2.33697E-14
 -1      2575 1.32222E-02 1.27619E-03-2.50930E-14
 -1      2576 6.70259E-04-1.37931E-04-2.23888E-16
 -1      2577 5.54633E-04-1.26190E-04-1.64636E-16
 -1      2578 5.57786E-04-1.46186E-04-1.61478E-16
 -1      2579 5.72248E-04 2.27871E-04-1.08949E-16
 -1      2580 1.29633E-02 1.23614E-03-2.53391E-14
 -1      2581 1.00895E-02-1.44710E-04-2.20200E-14
 -1      2582 8.08071E-03 5.59547E-04-1.81954E-14
 -1      2583 8.14840E-03 5.94356E-04-1.84272E-14
 -1      2584 8.21718E-03 5.88859E-04-1.82902E-14
 -1      2585 9.46631E-03 1.26193E-03-1.93867E-14
 -1      2586 9.23157E-03 1.03315E-03-1.89476E-14
 -1      2587 1.58283E-02 3.07351E-03-3.50965E-14
 -1      2588 1.28257E-02 1.37692E-03-2.41241E-14
 -1      2589 1.29502E-02 1.33033E-03-2.43257E-14
 -1      2590 1.27743E-02 1.41381E-03-2.41829E-14
 -1      2591 1.31796E-02 1.27264E-03-2.53409E-14
 -1      2592 5.71829E-04-1.85177E-04-1.56776E-16
 -1      2593 8.06350E-03 5.56725E-04-1.85022E-14
 -1      2594 8.01178E-03 5.68201E-04-1.83848E-14
 -1      2595 1.26342E-02 1.15043E-03-2.52706E-14
 -1      2596 1.21759E-02 9.79757E-04-2.51126E-14
 -1      2597 1.16340E-02 6.97580E-04-2.47052E-14
 -1      2598 1.11552E-02 3.91863E-04-2.41655E-14
 -1      2599 1.07490E-02 1.14328E-04-2.34918E-14
 -1      2600 9.39703E-03 6.02281E-05-2.04820E-14
 -1      2601 8.60428E-03 4.10679E-04-1.92230E-14
 -1      2602 1.34647E-02 2.02245E-03-3.85634E-14
 -1      2603 1.36307E-02 2.10609E-03-3.85538E-14
 -1      2604 1.35543E-02 2.04489E-03-3.79541E-14
 -1      2605 1.33401E-02 1.93891E-03-3.80208E-14
 -1      2606 8.26946E-03 5.15160E-04-1.87789E-14
 -1      2607 8.91961E-03 8.63938E-04-1.87532E-14
 -1      2608 9.82345E-03 1.60745E-03-1.98654E-14
 -1      2609 6.89534E-04 2.51214E-04-1.58727E-16
 -1      2610 8.89122E-03 8.89148E-04-1.89275E-14
 -1      2611 9.58248E-03 1.39643E-03-1.96351E-14
 -1      2612 1.30606E-02 1.31218E-03-2.46759E-14
 -1      2613 1.04154E-02-7.08562E-05-2.27924E-14
 -1      2614 1.57082E-02 3.00522E-03-3.49490E-14
 -1      2615 1.57000E-02 2.98600E-03-3.44705E-14
 -1      2616 1.56184E-02 2.93121E-03-3.41139E-14
 -1      2617 1.55418E-02 2.90381E-03-3.45406E-14
 -1      2618 1.33521E-02 1.92862E-03-3.75803E-14
 -1      2619 7.80226E-04 7.73173E-05-2.82814E-16
 -1      2620 7.78966E-04 5.54591E-05-2.86731E-16
 -1      2621 7.78120E-04 3.35508E-05-2.90119E-16
 -1      2622 7.77697E-04 1.18905E-05-2.92829E-16
 -1      2623 8.96535E-04 4.96660E-05-3.64387E-16
 -1      2624 7.91557E-04 1.73105E-04-2.58569E-16
 -1      2625 7.87555E-04 1.47692E-04-2.66321E-16
 -1      2626 8.03406E-04 2.28299E-04-2.39771E-16
 -1      2627 7.96791E-04 1.99910E-04-2.49881E-16
 -1      2628 9.14858E-04 2.07789E-04-3.23458E-16
 -1      2629 8.69476E-03 7.51503E-04-1.85780E-14
 -1      2630 1.12980E-03 3.61882E-04-3.81449E-16
 -1      2631 9.86200E-04 3.32836E-04-2.95594E-16
 -1      2632 1.32014E-03-3.62652E-04-6.28431E-16
 -1      2633 1.46336E-03-3.81601E-04-7.58047E-16
 -1      2634 1.60640E-03-3.97645E-04-8.99291E-16
 -1      2635 1.74934E-03-4.11009E-04-1.05314E-15
 -1      2636 1.52498E-03-3.55261E-04-8.38414E-16
 -1      2637 1.89211E-03-4.22162E-04-1.21870E-15
 -1      2638 2.03477E-03-4.31291E-04-1.39553E-15
 -1      2639 1.81166E-03-3.81076E-04-1.14638E-15
 -1      2640 2.17732E-03-4.38769E-04-1.58387E-15
 -1      2641 2.31979E-03-4.44750E-04-1.78359E-15
 -1      2642 2.09812E-03-3.98804E-04-1.50085E-15
 -1      2643 2.46221E-03-4.49521E-04-1.99478E-15
 -1      2644 2.60458E-03-4.53201E-04-2.21734E-15
 -1      2645 2.38430E-03-4.10460E-04-1.89992E-15
 -1      2646 2.74695E-03-4.56008E-04-2.45115E-15
 -1      2647 2.88929E-03-4.58035E-04-2.69572E-15
 -1      2648 2.67025E-03-4.17650E-04-2.34411E-15
 -1      2649 3.03166E-03-4.59442E-04-2.95109E-15
 -1      2650 3.17402E-03-4.60299E-04-3.21683E-15
 -1      2651 2.95603E-03-4.21618E-04-2.83232E-15
 -1      2652 3.31642E-03-4.60723E-04-3.49316E-15
 -1      2653 3.45884E-03-4.60766E-04-3.78006E-15
 -1      2654 3.24171E-03-4.23303E-04-3.36298E-15
 -1      2655 3.60130E-03-4.60510E-04-4.07558E-15
 -1      2656 3.74379E-03-4.59993E-04-4.38111E-15
 -1      2657 3.52734E-03-4.23395E-04-3.93380E-15
 -1      2658 3.88633E-03-4.59273E-04-4.69655E-15
 -1      2659 4.02890E-03-4.58375E-04-5.02066E-15
 -1      2660 3.81294E-03-4.22391E-04-4.54306E-15
 -1      2661 4.17152E-03-4.57340E-04-5.35424E-15
 -1      2662 4.31418E-03-4.56186E-04-5.69824E-15
 -1      2663 4.09857E-03-4.20636E-04-5.19037E-15
 -1      2664 4.45690E-03-4.54941E-04-6.05058E-15
 -1      2665 4.59966E-03-4.53618E-04-6.41049E-15
 -1      2666 4.38423E-03-4.18372E-04-5.87452E-15
 -1      2667 4.74248E-03-4.52239E-04-6.78051E-15
 -1      2668 4.88536E-03-4.50816E-04-7.15835E-15
 -1      2669 4.66996E-03-4.15763E-04-6.59394E-15
 -1      2670 5.02831E-03-4.49368E-04-7.54448E-15
 -1      2671 5.17133E-03-4.47909E-04-7.93899E-15
 -1      2672 4.95581E-03-4.12934E-04-7.34738E-15
 -1      2673 5.31443E-03-4.46462E-04-8.34155E-15
 -1      2674 5.45763E-03-4.45045E-04-8.75308E-15
 -1      2675 5.24185E-03-4.10000E-04-8.13393E-15
 -1      2676 5.60094E-03-4.43687E-04-9.17246E-15
 -1      2677 5.74437E-03-4.42414E-04-9.60060E-15
 -1      2678 5.52816E-03-4.07092E-04-8.95349E-15
 -1      2679 5.88795E-03-4.41267E-04-1.00361E-14
 -1      2680 6.03169E-03-4.40283E-04-1.04785E-14
 -1      2681 5.81491E-03-4.04391E-04-9.80678E-15
 -1      2682 6.17564E-03-4.39515E-04-1.09302E-14
 -1      2683 6.31980E-03-4.39013E-04-1.13893E-14
 -1      2684 6.10231E-03-4.02153E-04-1.06919E-14
 -1      2685 6.46423E-03-4.38841E-04-1.18534E-14
 -1      2686 6.60892E-03-4.39067E-04-1.23243E-14
 -1      2687 6.39065E-03-4.00734E-04-1.16053E-14
 -1      2688 6.75396E-03-4.39754E-04-1.28023E-14
 -1      2689 6.89933E-03-4.40985E-04-1.32845E-14
 -1      2690 6.68031E-03-4.00598E-04-1.25434E-14
 -1      2691 7.04511E-03-4.42810E-04-1.37728E-14
 -1      2692 7.19124E-03-4.45312E-04-1.42655E-14
 -1      2693 6.97173E-03-4.02309E-04-1.35062E-14
 -1      2694 7.33784E-03-4.48504E-04-1.47621E-14
 -1      2695 7.48476E-03-4.52438E-04-1.52635E-14
 -1      2696 7.26531E-03-4.06458E-04-1.44881E-14
 -1      2697 7.63212E-03-4.57055E-04-1.57679E-14
 -1      2698 7.77969E-03-4.62321E-04-1.62758E-14
 -1      2699 7.56132E-03-4.13513E-04-1.54856E-14
 -1      2700 7.92755E-03-4.68055E-04-1.67861E-14
 -1      2701 8.07539E-03-4.74059E-04-1.72992E-14
 -1      2702 7.85966E-03-4.23521E-04-1.64963E-14
 -1      2703 8.22320E-03-4.79974E-04-1.78169E-14
 -1      2704 8.37062E-03-4.85346E-04-1.83364E-14
 -1      2705 8.15962E-03-4.35628E-04-1.75190E-14
 -1      2706 8.51756E-03-4.89593E-04-1.88566E-14
 -1      2707 8.66368E-03-4.91936E-04-1.93787E-14
 -1      2708 8.45973E-03-4.47412E-04-1.85513E-14
 -1      2709 8.80881E-03-4.91571E-04-1.99019E-14
 -1      2710 8.95278E-03-4.87426E-04-2.04251E-14
 -1      2711 8.75784E-03-4.54208E-04-1.95894E-14
 -1      2712 9.09540E-03-4.78559E-04-2.09495E-14
 -1      2713 9.23683E-03-4.63788E-04-2.14774E-14
 -1      2714 9.05171E-03-4.48811E-04-2.06300E-14
 -1      2715 9.37692E-03-4.42238E-04-2.20058E-14
 -1      2716 9.51623E-03-4.12950E-04-2.25334E-14
 -1      2717 9.34007E-03-4.22167E-04-2.16770E-14
 -1      2718 9.65468E-03-3.75388E-04-2.30641E-14
 -1      2719 9.79312E-03-3.29155E-04-2.35947E-14
 -1      2720 9.62361E-03-3.65459E-04-2.27283E-14
 -1      2721 9.93152E-03-2.74242E-04-2.41248E-14
 -1      2722 1.00707E-02-2.10996E-04-2.46544E-14
 -1      2723 9.90515E-03-2.73052E-04-2.37820E-14
 -1      2724 1.02106E-02-1.39917E-04-2.51822E-14
 -1      2725 1.03519E-02-6.19383E-05-2.57101E-14
 -1      2726 1.01885E-02-1.44789E-04-2.48342E-14
 -1      2727 1.04943E-02 2.20866E-05-2.62389E-14
 -1      2728 1.06381E-02 1.10981E-04-2.67692E-14
 -1      2729 1.04764E-02 1.40334E-05-2.58845E-14
 -1      2730 1.07830E-02 2.03806E-04-2.73003E-14
 -1      2731 1.09290E-02 2.99471E-04-2.78317E-14
 -1      2732 1.07699E-02 1.94757E-04-2.69399E-14
 -1      2733 1.10758E-02 3.97159E-04-2.83656E-14
 -1      2734 1.12231E-02 4.96073E-04-2.89036E-14
 -1      2735 1.10678E-02 3.88275E-04-2.79997E-14
 -1      2736 1.13708E-02 5.95619E-04-2.94431E-14
 -1      2737 1.15186E-02 6.95329E-04-2.99843E-14
 -1      2738 1.13678E-02 5.87221E-04-2.90693E-14
 -1      2739 1.16664E-02 7.94837E-04-3.05289E-14
 -1      2740 1.18139E-02 8.93941E-04-3.10760E-14
 -1      2741 1.16679E-02 7.86789E-04-3.01477E-14
 -1      2742 1.19612E-02 9.92460E-04-3.16271E-14
 -1      2743 1.21081E-02 1.09036E-03-3.21821E-14
 -1      2744 1.19663E-02 9.84489E-04-3.12398E-14
 -1      2745 1.22546E-02 1.18761E-03-3.27400E-14
 -1      2746 1.24006E-02 1.28425E-03-3.33004E-14
 -1      2747 1.22624E-02 1.17947E-03-3.23434E-14
 -1      2748 1.25463E-02 1.38032E-03-3.38645E-14
 -1      2749 1.26915E-02 1.47592E-03-3.44345E-14
 -1      2750 1.25560E-02 1.37185E-03-3.34633E-14
 -1      2751 1.28364E-02 1.57113E-03-3.50072E-14
 -1      2752 1.29808E-02 1.66605E-03-3.55817E-14
 -1      2753 1.28473E-02 1.56223E-03-3.45951E-14
 -1      2754 1.31250E-02 1.76077E-03-3.61619E-14
 -1      2755 1.32689E-02 1.85541E-03-3.67479E-14
 -1      2756 1.31367E-02 1.75138E-03-3.57418E-14
 -1      2757 2.28336E-03 4.78698E-04-1.51188E-15
 -1      2758 2.14154E-03 4.72083E-04-1.33018E-15
 -1      2759 8.32281E-03 4.76377E-04-1.86631E-14
 -1      2760 8.18746E-03 5.05016E-04-1.84540E-14
 -1      2761 1.99963E-03 4.63856E-04-1.16039E-15
 -1      2762 1.85759E-03 4.53859E-04-1.00230E-15
 -1      2763 2.06189E-03 4.31787E-04-1.27129E-15
 -1      2764 2.86113E-03 4.93883E-04-2.37145E-15
 -1      2765 2.71224E-03 4.91436E-04-2.13162E-15
 -1      2766 3.14489E-03 4.96591E-04-2.86259E-15
 -1      2767 3.00299E-03 4.95530E-04-2.61138E-15
 -1      2768 2.92384E-03 4.57688E-04-2.51676E-15
 -1      2769 3.42891E-03 4.97364E-04-3.39809E-15
 -1      2770 3.28687E-03 4.97183E-04-3.12524E-15
 -1      2771 3.20869E-03 4.59801E-04-3.01968E-15
 -1      2772 3.71322E-03 4.96771E-04-3.97539E-15
 -1      2773 3.57103E-03 4.97212E-04-3.68126E-15
 -1      2774 3.49362E-03 4.60171E-04-3.56585E-15
 -1      2775 3.99786E-03 4.95201E-04-4.59210E-15
 -1      2776 3.85551E-03 4.96091E-04-4.27932E-15
 -1      2777 3.77869E-03 4.59314E-04-4.15264E-15
 -1      2778 4.29708E-03 4.92766E-04-5.28078E-15
 -1      2779 4.14743E-03 4.94073E-04-4.93117E-15
 -1      2780 4.07104E-03 4.57521E-04-4.79543E-15
 -1      2781 4.58239E-03 4.89831E-04-5.97225E-15
 -1      2782 4.43969E-03 4.91368E-04-5.62208E-15
 -1      2783 4.36357E-03 4.55028E-04-5.47632E-15
 -1      2784 4.86803E-03 4.86336E-04-6.69775E-15
 -1      2785 4.72517E-03 4.88152E-04-6.33110E-15
 -1      2786 4.64912E-03 4.52032E-04-6.17662E-15
 -1      2787 5.15402E-03 4.82253E-04-7.45556E-15
 -1      2788 5.01098E-03 4.84369E-04-7.07296E-15
 -1      2789 4.93481E-03 4.48511E-04-6.90992E-15
 -1      2790 5.44033E-03 4.77507E-04-8.24266E-15
 -1      2791 5.29712E-03 4.79966E-04-7.84483E-15
 -1      2792 5.22061E-03 4.44441E-04-7.67348E-15
 -1      2793 5.74127E-03 4.71698E-04-9.09930E-15
 -1      2794 5.59075E-03 4.74713E-04-8.66753E-15
 -1      2795 5.51357E-03 4.39642E-04-8.48636E-15
 -1      2796 6.02806E-03 4.65283E-04-9.94207E-15
 -1      2797 5.88463E-03 4.68603E-04-9.51789E-15
 -1      2798 5.80637E-03 4.34149E-04-9.32864E-15
 -1      2799 6.31479E-03 4.57980E-04-1.08111E-14
 -1      2800 6.17142E-03 4.61745E-04-1.03736E-14
 -1      2801 6.09156E-03 4.28107E-04-1.01767E-14
 -1      2802 6.60097E-03 4.49946E-04-1.17016E-14
 -1      2803 6.45793E-03 4.54051E-04-1.12541E-14
 -1      2804 6.37570E-03 4.21504E-04-1.10505E-14
 -1      2805 6.88571E-03 4.41721E-04-1.26107E-14
 -1      2806 6.74351E-03 4.45842E-04-1.21540E-14
 -1      2807 6.65785E-03 4.14713E-04-1.19448E-14
 -1      2808 7.16747E-03 4.34605E-04-1.35339E-14
 -1      2809 7.02695E-03 4.37985E-04-1.30708E-14
 -1      2810 6.93639E-03 4.08599E-04-1.28581E-14
 -1      2811 7.45742E-03 4.31260E-04-1.45114E-14
 -1      2812 7.31319E-03 4.32297E-04-1.40229E-14
 -1      2813 7.21547E-03 4.04837E-04-1.38068E-14
 -1      2814 7.72444E-03 4.37332E-04-1.54434E-14
 -1      2815 7.59197E-03 4.32979E-04-1.49768E-14
 -1      2816 7.48402E-03 4.06993E-04-1.47631E-14
 -1      2817 7.97909E-03 4.61402E-04-1.63705E-14
 -1      2818 7.85299E-03 4.46764E-04-1.59074E-14
 -1      2819 7.73049E-03 4.20199E-04-1.56934E-14
 -1      2820 8.22117E-03 5.18086E-04-1.72887E-14
 -1      2821 8.10063E-03 4.84745E-04-1.68312E-14
 -1      2822 7.95578E-03 4.52211E-04-1.66202E-14
 -1      2823 8.50460E-03 6.42194E-04-1.81621E-14
 -1      2824 8.37328E-03 5.72430E-04-1.77116E-14
 -1      2825 8.18473E-03 5.18107E-04-1.75023E-14
 -1      2826 8.47795E-03 6.53269E-04-1.83403E-14
 -1      2827 1.37994E-02 1.70608E-03-2.75645E-14
 -1      2828 1.36661E-02 1.62123E-03-2.70915E-14
 -1      2829 1.40722E-02 1.88771E-03-2.85231E-14
 -1      2830 1.39344E-02 1.79506E-03-2.80418E-14
 -1      2831 1.38347E-02 1.72588E-03-2.79333E-14
 -1      2832 1.43519E-02 2.07841E-03-2.94996E-14
 -1      2833 1.42111E-02 1.98219E-03-2.90083E-14
 -1      2834 1.40937E-02 1.90717E-03-2.89031E-14
 -1      2835 1.46500E-02 2.28239E-03-3.05525E-14
 -1      2836 1.45004E-02 2.18010E-03-3.00232E-14
 -1      2837 1.43708E-02 2.10102E-03-2.99167E-14
 -1      2838 1.49360E-02 2.47706E-03-3.15877E-14
 -1      2839 1.47928E-02 2.37977E-03-3.10652E-14
 -1      2840 1.46554E-02 2.29832E-03-3.09560E-14
 -1      2841 1.52228E-02 2.67049E-03-3.26606E-14
 -1      2842 1.50793E-02 2.57399E-03-3.21193E-14
 -1      2843 1.49371E-02 2.49135E-03-3.20023E-14
 -1      2844 1.54923E-02 2.84904E-03-3.36603E-14
 -1      2845 1.53488E-02 2.75356E-03-3.31031E-14
 -1      2846 1.52037E-02 2.67047E-03-3.29782E-14
 -1      2847 1.54545E-02 2.83543E-03-3.38733E-14
 -1      2848 1.33641E-02 1.91853E-03-3.71473E-14
 -1      2849 1.34592E-02 1.98168E-03-3.75487E-14
 -1      2850 1.33762E-02 1.90868E-03-3.67188E-14
 -1      2851 1.04638E-02-3.61599E-05-2.30445E-14
 -1      2852 1.03249E-02-9.78600E-05-2.27084E-14
 -1      2853 1.45379E-02 2.44651E-03-3.57891E-14
 -1      2854 1.46314E-02 2.48552E-03-3.56314E-14
 -1      2855 1.49057E-02 2.60024E-03-3.51544E-14
 -1      2856 1.49948E-02 2.63806E-03-3.49942E-14
 -1      2857 1.43486E-02 2.36715E-03-3.61012E-14
 -1      2858 1.44436E-02 2.40707E-03-3.59469E-14
 -1      2859 1.43687E-02 2.34800E-03-3.53764E-14
 -1      2860 1.47239E-02 2.52407E-03-3.54714E-14
 -1      2861 1.48154E-02 2.56230E-03-3.53119E-14
 -1      2862 1.47398E-02 2.50198E-03-3.47441E-14
 -1      2863 1.45564E-02 2.42597E-03-3.50611E-14
 -1      2864 1.32318E-02 1.30357E-03-2.56022E-14
 -1      2865 1.31615E-02 1.30206E-03-2.56865E-14
 -1      2866 1.41606E-02 2.28740E-03-3.64036E-14
 -1      2867 1.42548E-02 2.32748E-03-3.62520E-14
 -1      2868 1.41796E-02 2.26852E-03-3.56832E-14
 -1      2869 1.39686E-02 2.20481E-03-3.67108E-14
 -1      2870 1.40646E-02 2.24626E-03-3.65570E-14
 -1      2871 1.39890E-02 2.18709E-03-3.59831E-14
 -1      2872 1.37766E-02 2.12118E-03-3.70213E-14
 -1      2873 1.38725E-02 2.16309E-03-3.68657E-14
 -1      2874 1.37964E-02 2.10348E-03-3.62887E-14
 -1      2875 1.32400E-02 1.30494E-03-2.53063E-14
 -1      2876 1.32631E-02 1.30630E-03-2.54742E-14
 -1      2877 1.01488E-02-1.42843E-04-2.22705E-14
 -1      2878 9.98228E-03-1.50081E-04-2.18308E-14
 -1      2879 8.03081E-04 2.78205E-04-2.10091E-16
 -1      2880 9.79280E-03-1.23874E-04-2.13507E-14
 -1      2881 9.64833E-03-7.70567E-05-2.09925E-14
 -1      2882 2.56691E-03 4.88161E-04-1.90994E-15
 -1      2883 2.42515E-03 4.84015E-04-1.70521E-15
 -1      2884 2.34700E-03 4.44791E-04-1.63659E-15
 -1      2885 1.03371E-03-3.14178E-04-4.06400E-16
 -1      2886 1.17694E-03-3.40274E-04-5.11161E-16
 -1      2887 1.23841E-03-3.18988E-04-5.78435E-16
 -1      2888 1.23059E-02 1.06592E-03-2.54909E-14
 -1      2889 1.20388E-02 9.44665E-04-2.53142E-14
 -1      2890 8.06696E-03 5.28880E-04-1.82761E-14
 -1      2891 8.01193E-03 5.38090E-04-1.82103E-14
 -1      2892 7.84412E-04 1.23438E-04-2.72704E-16
 -1      2893 7.82028E-04 1.00004E-04-2.78111E-16
 -1      2894 8.99645E-04 9.94251E-05-3.54588E-16
 -1      2895 9.05377E-04 1.51558E-04-3.41348E-16
 -1      2896 7.81758E-04-9.79553E-05-2.96597E-16
 -1      2897 7.84066E-04-1.21309E-04-2.95079E-16
 -1      2898 8.64976E-03 3.60464E-04-1.91050E-14
 -1      2899 8.47897E-03 4.25228E-04-1.88720E-14
 -1      2900 6.88550E-04-2.03982E-04-2.15892E-16
 -1      2901 1.35366E-02 1.54373E-03-2.66197E-14
 -1      2902 1.34081E-02 1.47424E-03-2.61487E-14
 -1      2903 1.35921E-02 1.55975E-03-2.69775E-14
 -1      2904 8.32764E-03 6.03372E-04-1.82234E-14
 -1      2905 1.27601E-02 1.21662E-03-2.56029E-14
 -1      2906 1.25948E-02 1.17329E-03-2.56207E-14
 -1      2907 7.99112E-03 5.42914E-04-1.81577E-14
 -1      2908 8.00164E-03 5.40551E-04-1.81078E-14
 -1      2909 7.97364E-03 5.15817E-04-1.79303E-14
 -1      2910 1.35666E-02 2.03466E-03-3.75175E-14
 -1      2911 9.06149E-03 1.87831E-04-1.97876E-14
 -1      2912 8.87703E-03 2.67798E-04-1.94674E-14
 -1      2913 1.33039E-02 1.39678E-03-2.57485E-14
 -1      2914 1.31876E-02 1.34892E-03-2.52607E-14
 -1      2915 9.45347E-03 3.90352E-06-2.05524E-14
 -1      2916 9.26395E-03 9.65001E-05-2.01678E-14
 -1      2917 9.13080E-03 1.18425E-04-1.98543E-14
 -1      2918 1.08010E-02 1.72565E-04-2.37857E-14
 -1      2919 1.06279E-02 5.60481E-05-2.34192E-14
 -1      2920 1.12429E-02 4.77961E-04-2.45258E-14
 -1      2921 1.10326E-02 3.32098E-04-2.42166E-14
 -1      2922 1.17504E-02 7.92944E-04-2.50826E-14
 -1      2923 1.15113E-02 6.50310E-04-2.48522E-14
 -1      2924 1.30567E-02 1.28472E-03-2.56906E-14
 -1      2925 1.29238E-02 1.25491E-03-2.56061E-14
 -1      2926 1.28889E-02 1.27421E-03-2.59586E-14
 -1      2927 1.31423E-02 1.32149E-03-2.59546E-14
 -1      2928 7.87125E-04-1.45458E-04-2.92816E-16
 -1      2929 7.91035E-04-1.70636E-04-2.89604E-16
 -1      2930 9.04902E-04-1.49050E-04-3.71177E-16
 -1      2931 8.95511E-04 1.00492E-06-3.70906E-16
 -1      2932 7.77668E-04-9.72365E-06-2.94781E-16
 -1      2933 7.78031E-04-3.13680E-05-2.96380E-16
 -1      2934 8.21893E-03 5.59974E-04-1.79895E-14
 -1      2935 1.19080E-02 8.92260E-04-2.54651E-14
 -1      2936 1.27657E-03 3.87294E-04-4.81386E-16
 -1      2937 1.19324E-03 3.42008E-04-4.49077E-16
 -1      2938 1.42318E-03 4.08685E-04-5.94197E-16
 -1      2939 2.63546E-03 4.53027E-04-2.05349E-15
 -1      2940 1.29413E-02 1.38339E-03-2.46334E-14
 -1      2941 1.33750E-02 1.40569E-03-2.60961E-14
 -1      2942 7.78807E-04-5.31477E-05-2.97031E-16
 -1      2943 7.80023E-04-7.53345E-05-2.97126E-16
 -1      2944 8.99353E-04-9.70841E-05-3.74456E-16
 -1      2945 8.96401E-04-4.75228E-05-3.74212E-16
 -1      2946 1.02061E-02-1.27120E-04-2.25207E-14
 -1      2947 8.12579E-03 4.63999E-04-1.80389E-14
 -1      2948 8.09650E-03 4.99124E-04-1.81583E-14
 -1      2949 8.01922E-03 4.83831E-04-1.78634E-14
 -1      2950 8.01959E-03 5.30631E-04-1.79687E-14
 -1      2951 8.05112E-03 5.21085E-04-1.78293E-14
 -1      2952 7.97145E-03 5.07233E-04-1.77395E-14
 -1      2953 1.30833E-02 1.33814E-03-2.48840E-14
 -1      2954 8.64851E-04 2.66519E-04-2.57349E-16
 -1      2955 9.82950E-04 2.75743E-04-3.33392E-16
 -1      2956 1.50820E-02 2.67552E-03-3.48351E-14
 -1      2957 1.51682E-02 2.71317E-03-3.46725E-14
 -1      2958 1.49173E-02 2.57652E-03-3.44259E-14
 -1      2959 1.05272E-02 1.11242E-05-2.33366E-14
 -1      2960 1.52535E-02 2.75106E-03-3.45102E-14
 -1      2961 1.53382E-02 2.78943E-03-3.43465E-14
 -1      2962 1.50892E-02 2.65087E-03-3.41066E-14
 -1      2963 1.71362E-03 4.41513E-04-8.54527E-16
 -1      2964 1.56762E-03 4.26515E-04-7.17430E-16
 -1      2965 1.48504E-03 3.83123E-04-6.76596E-16
 -1      2966 1.77461E-03 4.12036E-04-9.51049E-16
 -1      2967 1.32837E-02 1.33523E-03-2.58196E-14
 -1      2968 1.36621E-02 2.07679E-03-3.73628E-14
 -1      2969 9.50668E-03-4.81215E-05-2.06756E-14
 -1      2970 9.86412E-03-1.49212E-04-2.15974E-14
 -1      2971 1.13754E-02 5.77455E-04-2.49047E-14
 -1      2972 8.72560E-03 2.94077E-04-1.91113E-14
 -1      2973 1.34809E-02 1.96263E-03-3.67491E-14
 -1      2974 1.36717E-02 2.06766E-03-3.69932E-14
 -1      2975 1.35953E-02 2.00767E-03-3.64125E-14
 -1      2976 1.33856E-02 1.89987E-03-3.63536E-14
 -1      2977 8.36532E-03 4.26265E-04-1.85428E-14
 -1      2978 8.03082E-04-2.03300E-04-2.87896E-16
 -1      2979 8.21685E-04-2.53822E-04-2.80334E-16
 -1      2980 9.52811E-04-2.88207E-04-3.57570E-16
 -1      2981 9.21167E-04-2.11233E-04-3.66677E-16
 -1      2982 1.01522E-03-2.72346E-04-4.13433E-16
 -1      2983 1.54166E-02 2.82212E-03-3.40859E-14
 -1      2984 1.09008E-02 2.54274E-04-2.41441E-14
 -1      2985 1.52515E-02 2.72045E-03-3.36857E-14
 -1      2986 1.04029E-03 2.43222E-04-3.95110E-16
 -1      2987 1.03368E-03 2.11499E-04-4.07009E-16
 -1      2988 1.02592E-02-1.04209E-04-2.28202E-14
 -1      2989 1.01013E-02-1.48980E-04-2.23776E-14
 -1      2990 1.73168E-03-3.40273E-04-1.07497E-15
 -1      2991 1.87535E-03-3.50429E-04-1.24110E-15
 -1      2992 2.01900E-03-3.58859E-04-1.41820E-15
 -1      2993 2.16265E-03-3.65717E-04-1.60661E-15
 -1      2994 1.94017E-03-3.19101E-04-1.33658E-15
 -1      2995 2.30624E-03-3.71278E-04-1.80617E-15
 -1      2996 2.44978E-03-3.75666E-04-2.01667E-15
 -1      2997 2.22820E-03-3.32091E-04-1.71335E-15
 -1      2998 2.59327E-03-3.79102E-04-2.23876E-15
 -1      2999 2.73670E-03-3.81684E-04-2.47178E-15
 -1      3000 2.51615E-03-3.40443E-04-2.13431E-15
 -1      3001 2.88007E-03-3.83581E-04-2.71498E-15
 -1      3002 3.02338E-03-3.84868E-04-2.96928E-15
 -1      3003 2.80388E-03-3.45379E-04-2.59918E-15
 -1      3004 3.16665E-03-3.85672E-04-3.23390E-15
 -1      3005 3.30987E-03-3.86047E-04-3.50903E-15
 -1      3006 3.09133E-03-3.47855E-04-3.10656E-15
 -1      3007 3.45304E-03-3.86087E-04-3.79349E-15
 -1      3008 3.59617E-03-3.85829E-04-4.08731E-15
 -1      3009 3.37848E-03-3.48595E-04-3.65462E-15
 -1      3010 3.73927E-03-3.85341E-04-4.39132E-15
 -1      3011 3.88233E-03-3.84649E-04-4.70483E-15
 -1      3012 3.66535E-03-3.48124E-04-4.24122E-15
 -1      3013 4.02537E-03-3.83798E-04-5.02740E-15
 -1      3014 4.16838E-03-3.82806E-04-5.35985E-15
 -1      3015 3.95196E-03-3.46816E-04-4.86635E-15
 -1      3016 4.31137E-03-3.81705E-04-5.70044E-15
 -1      3017 4.45434E-03-3.80506E-04-6.05065E-15
 -1      3018 4.23833E-03-3.44926E-04-5.52850E-15
 -1      3019 4.59730E-03-3.79230E-04-6.40872E-15
 -1      3020 4.74026E-03-3.77885E-04-6.77561E-15
 -1      3021 4.52451E-03-3.42622E-04-6.22622E-15
 -1      3022 4.88322E-03-3.76489E-04-7.15260E-15
 -1      3023 5.02619E-03-3.75047E-04-7.53583E-15
 -1      3024 4.81054E-03-3.40012E-04-6.95852E-15
 -1      3025 5.16920E-03-3.73576E-04-7.92735E-15
 -1      3026 5.31224E-03-3.72084E-04-8.32850E-15
 -1      3027 5.09650E-03-3.37173E-04-7.72474E-15
 -1      3028 5.45534E-03-3.70591E-04-8.73699E-15
 -1      3029 5.59853E-03-3.69111E-04-9.15404E-15
 -1      3030 5.38251E-03-3.34173E-04-8.52238E-15
 -1      3031 5.74182E-03-3.67667E-04-9.58016E-15
 -1      3032 5.88526E-03-3.66287E-04-1.00130E-14
 -1      3033 5.66872E-03-3.31100E-04-9.35463E-15
 -1      3034 6.02888E-03-3.65000E-04-1.04544E-14
 -1      3035 6.17273E-03-3.63850E-04-1.09036E-14
 -1      3036 5.95541E-03-3.28085E-04-1.02202E-14
 -1      3037 6.31688E-03-3.62874E-04-1.13588E-14
 -1      3038 6.46136E-03-3.62141E-04-1.18205E-14
 -1      3039 6.24296E-03-3.25336E-04-1.11143E-14
 -1      3040 6.60627E-03-3.61692E-04-1.22885E-14
 -1      3041 6.75166E-03-3.61626E-04-1.27621E-14
 -1      3042 6.53189E-03-3.23174E-04-1.20357E-14
 -1      3043 6.89764E-03-3.61986E-04-1.32420E-14
 -1      3044 7.04425E-03-3.62897E-04-1.37262E-14
 -1      3045 6.82291E-03-3.22065E-04-1.29802E-14
 -1      3046 7.19163E-03-3.64395E-04-1.42151E-14
 -1      3047 7.33975E-03-3.66621E-04-1.47088E-14
 -1      3048 7.11682E-03-3.22647E-04-1.39449E-14
 -1      3049 7.48879E-03-3.69582E-04-1.52054E-14
 -1      3050 7.63862E-03-3.73398E-04-1.57063E-14
 -1      3051 7.41450E-03-3.25702E-04-1.49288E-14
 -1      3052 7.78939E-03-3.78010E-04-1.62103E-14
 -1      3053 7.94085E-03-3.83444E-04-1.67154E-14
 -1      3054 7.71658E-03-3.32035E-04-1.59259E-14
 -1      3055 8.09307E-03-3.89523E-04-1.72232E-14
 -1      3056 8.24564E-03-3.96040E-04-1.77346E-14
 -1      3057 8.02316E-03-3.42138E-04-1.69323E-14
 -1      3058 8.39851E-03-4.02627E-04-1.82477E-14
 -1      3059 8.55116E-03-4.08690E-04-1.87627E-14
 -1      3060 8.33328E-03-3.55518E-04-1.79477E-14
 -1      3061 8.70341E-03-4.13601E-04-1.92784E-14
 -1      3062 8.85473E-03-4.16240E-04-1.97956E-14
 -1      3063 8.64466E-03-3.69611E-04-1.89711E-14
 -1      3064 9.00484E-03-4.15703E-04-2.03142E-14
 -1      3065 9.15350E-03-4.10425E-04-2.08334E-14
 -1      3066 8.95389E-03-3.78576E-04-2.00005E-14
 -1      3067 9.30047E-03-3.99335E-04-2.13524E-14
 -1      3068 9.44606E-03-3.80804E-04-2.18747E-14
 -1      3069 9.25751E-03-3.72685E-04-2.10328E-14
 -1      3070 9.59007E-03-3.53949E-04-2.23974E-14
 -1      3071 9.73349E-03-3.17611E-04-2.29192E-14
 -1      3072 9.55403E-03-3.39721E-04-2.20697E-14
 -1      3073 9.87629E-03-2.71451E-04-2.34413E-14
 -1      3074 1.00196E-02-2.15441E-04-2.39647E-14
 -1      3075 9.84540E-03-2.68730E-04-2.31046E-14
 -1      3076 1.01636E-02-1.49890E-04-2.44875E-14
 -1      3077 1.03089E-02-7.58824E-05-2.50087E-14
 -1      3078 1.01367E-02-1.55189E-04-2.41431E-14
 -1      3079 1.04557E-02 5.72658E-06-2.55332E-14
 -1      3080 1.06041E-02 9.33509E-05-2.60569E-14
 -1      3081 1.04327E-02-3.22302E-06-2.51828E-14
 -1      3082 1.07541E-02 1.85925E-04-2.65809E-14
 -1      3083 1.09053E-02 2.81834E-04-2.71078E-14
 -1      3084 1.07359E-02 1.76738E-04-2.62260E-14
 -1      3085 1.10574E-02 3.80164E-04-2.76353E-14
 -1      3086 1.12101E-02 4.79765E-04-2.81648E-14
 -1      3087 1.10450E-02 3.72379E-04-2.72731E-14
 -1      3088 1.13630E-02 5.79990E-04-2.86981E-14
 -1      3089 1.15157E-02 6.80212E-04-2.92330E-14
 -1      3090 1.13565E-02 5.73686E-04-2.83293E-14
 -1      3091 1.16680E-02 7.80056E-04-2.97705E-14
 -1      3092 1.18196E-02 8.79300E-04-3.03097E-14
 -1      3093 1.16669E-02 7.74574E-04-2.93961E-14
 -1      3094 1.19705E-02 9.77770E-04-3.08526E-14
 -1      3095 1.21205E-02 1.07549E-03-3.14000E-14
 -1      3096 1.19740E-02 9.72348E-04-3.04709E-14
 -1      3097 1.22697E-02 1.17240E-03-3.19505E-14
 -1      3098 1.24179E-02 1.26863E-03-3.25043E-14
 -1      3099 1.22766E-02 1.16648E-03-3.15595E-14
 -1      3100 1.25654E-02 1.36422E-03-3.30627E-14
 -1      3101 1.27121E-02 1.45930E-03-3.36229E-14
 -1      3102 1.25747E-02 1.35751E-03-3.26631E-14
 -1      3103 1.28582E-02 1.55395E-03-3.41862E-14
 -1      3104 1.30036E-02 1.64830E-03-3.47535E-14
 -1      3105 1.28690E-02 1.54636E-03-3.37815E-14
 -1      3106 1.31227E-02 1.72706E-03-3.52623E-14
 -1      3107 1.32672E-02 1.82113E-03-3.58359E-14
 -1      3108 1.33721E-02 1.87537E-03-3.58675E-14
 -1      3109 1.31344E-02 1.71862E-03-3.48504E-14
 -1      3110 1.15851E-03-2.76858E-04-5.29036E-16
 -1      3111 1.30138E-03-2.96624E-04-6.47811E-16
 -1      3112 1.33712E-02 1.39628E-03-2.62303E-14
 -1      3113 1.33361E-02 1.39551E-03-2.63639E-14
 -1      3114 1.34720E-02 1.47194E-03-2.66398E-14
 -1      3115 3.27648E-03 4.22743E-04-3.18384E-15
 -1      3116 3.13360E-03 4.22196E-04-2.92119E-15
 -1      3117 2.99070E-03 4.21180E-04-2.66895E-15
 -1      3118 2.84779E-03 4.19633E-04-2.42795E-15
 -1      3119 3.05815E-03 3.84384E-04-2.82245E-15
 -1      3120 3.84790E-03 4.21688E-04-4.33765E-15
 -1      3121 3.70506E-03 4.22341E-04-4.03386E-15
 -1      3122 4.14789E-03 4.19719E-04-5.00678E-15
 -1      3123 3.99790E-03 4.20798E-04-4.66706E-15
 -1      3124 3.92448E-03 3.83921E-04-4.53877E-15
 -1      3125 4.43359E-03 4.17230E-04-5.68084E-15
 -1      3126 4.29074E-03 4.18542E-04-5.33968E-15
 -1      3127 4.21770E-03 3.81929E-04-5.20286E-15
 -1      3128 4.71928E-03 4.14237E-04-6.39019E-15
 -1      3129 4.57644E-03 4.15793E-04-6.03104E-15
 -1      3130 4.50361E-03 3.79453E-04-5.88605E-15
 -1      3131 5.00490E-03 4.10771E-04-7.13031E-15
 -1      3132 4.86210E-03 4.12563E-04-6.75619E-15
 -1      3133 4.78932E-03 3.76536E-04-6.60322E-15
 -1      3134 5.29037E-03 4.06823E-04-7.90070E-15
 -1      3135 5.14766E-03 4.08858E-04-7.51230E-15
 -1      3136 5.07475E-03 3.73216E-04-7.35080E-15
 -1      3137 5.58976E-03 4.02139E-04-8.74062E-15
 -1      3138 5.44012E-03 4.04552E-04-8.31687E-15
 -1      3139 5.36687E-03 3.69416E-04-8.14813E-15
 -1      3140 5.87422E-03 3.97182E-04-9.56857E-15
 -1      3141 5.73208E-03 3.99723E-04-9.15118E-15
 -1      3142 5.65824E-03 3.65255E-04-8.97473E-15
 -1      3143 6.15750E-03 3.91845E-04-1.04222E-14
 -1      3144 6.01603E-03 3.94560E-04-9.99202E-15
 -1      3145 5.94131E-03 3.60960E-04-9.80823E-15
 -1      3146 6.43871E-03 3.86427E-04-1.13013E-14
 -1      3147 6.29840E-03 3.89141E-04-1.08590E-14
 -1      3148 6.22245E-03 3.56690E-04-1.06683E-14
 -1      3149 6.71641E-03 3.81571E-04-1.22003E-14
 -1      3150 6.57806E-03 3.83917E-04-1.17483E-14
 -1      3151 6.50048E-03 3.52964E-04-1.15525E-14
 -1      3152 6.98837E-03 3.78524E-04-1.31167E-14
 -1      3153 6.85322E-03 3.79799E-04-1.26569E-14
 -1      3154 6.77355E-03 3.50749E-04-1.24567E-14
 -1      3155 7.26396E-03 3.79659E-04-1.40915E-14
 -1      3156 7.12764E-03 3.78497E-04-1.36031E-14
 -1      3157 7.04534E-03 3.51781E-04-1.33997E-14
 -1      3158 7.51170E-03 3.88635E-04-1.50254E-14
 -1      3159 7.38989E-03 3.83179E-04-1.45582E-14
 -1      3160 7.30449E-03 3.59027E-04-1.43538E-14
 -1      3161 7.73806E-03 4.10674E-04-1.59564E-14
 -1      3162 7.62783E-03 3.98101E-04-1.54919E-14
 -1      3163 7.53891E-03 3.76150E-04-1.52902E-14
 -1      3164 7.93459E-03 4.52525E-04-1.68823E-14
 -1      3165 7.84023E-03 4.29500E-04-1.64204E-14
 -1      3166 7.74678E-03 4.08418E-04-1.62221E-14
 -1      3167 8.10580E-03 5.09353E-04-1.75698E-14
 -1      3168 1.41069E-02 1.92857E-03-2.92865E-14
 -1      3169 1.39795E-02 1.83744E-03-2.87952E-14
 -1      3170 1.24647E-02 1.14372E-03-2.58269E-14
 -1      3171 1.43845E-02 2.12464E-03-3.03358E-14
 -1      3172 1.42441E-02 2.02573E-03-2.98076E-14
 -1      3173 1.41193E-02 1.95438E-03-2.96971E-14
 -1      3174 1.15004E-02 6.70460E-04-2.53283E-14
 -1      3175 1.12582E-02 5.13007E-04-2.50009E-14
 -1      3176 3.56220E-03 4.22761E-04-3.74052E-15
 -1      3177 3.41935E-03 4.22917E-04-3.45710E-15
 -1      3178 3.63110E-03 3.85191E-04-3.91598E-15
 -1      3179 1.38566E-02 1.74935E-03-2.83066E-14
 -1      3180 1.37384E-02 1.66371E-03-2.78216E-14
 -1      3181 1.38671E-02 1.77304E-03-2.86829E-14
 -1      3182 1.46578E-02 2.31491E-03-3.13607E-14
 -1      3183 1.45202E-02 2.21945E-03-3.08453E-14
 -1      3184 1.43869E-02 2.14332E-03-3.07322E-14
 -1      3185 1.49365E-02 2.50607E-03-3.24186E-14
 -1      3186 1.47966E-02 2.41045E-03-3.18853E-14
 -1      3187 1.46575E-02 2.33142E-03-3.17687E-14
 -1      3188 1.51558E-02 2.65459E-03-3.32692E-14
 -1      3189 1.50318E-02 2.57230E-03-3.28275E-14
 -1      3190 1.48893E-02 2.49179E-03-3.27042E-14
 -1      3191 1.50786E-02 2.62314E-03-3.35278E-14
 -1      3192 8.37731E-03 3.74457E-04-1.83711E-14
 -1      3193 8.24452E-03 4.18113E-04-1.81641E-14
 -1      3194 1.09823E-02 3.25589E-04-2.45126E-14
 -1      3195 1.07718E-02 1.79991E-04-2.40799E-14
 -1      3196 1.01661E-03 6.81837E-05-4.46447E-16
 -1      3197 1.01544E-03 4.12091E-05-4.51218E-16
 -1      3198 9.99598E-04-2.33043E-04-4.17608E-16
 -1      3199 1.07878E-03-2.54998E-04-4.71709E-16
 -1      3200 9.86379E-04-1.95961E-04-4.19505E-16
 -1      3201 1.05759E-02 5.35926E-05-2.36174E-14
 -1      3202 1.04275E-02-3.21380E-05-2.32398E-14
 -1      3203 1.41989E-02 2.24973E-03-3.49650E-14
 -1      3204 1.42942E-02 2.28937E-03-3.48101E-14
 -1      3205 1.36239E-02 2.00194E-03-3.58668E-14
 -1      3206 1.37203E-02 2.04443E-03-3.57157E-14
 -1      3207 1.40100E-02 2.16995E-03-3.52653E-14
 -1      3208 1.41046E-02 2.21014E-03-3.51154E-14
 -1      3209 1.40301E-02 2.15230E-03-3.45549E-14
 -1      3210 2.70126E-03 4.17356E-04-2.19287E-15
 -1      3211 2.55470E-03 4.14290E-04-1.96962E-15
 -1      3212 2.76780E-03 3.81323E-04-2.33395E-15
 -1      3213 2.41166E-03 4.10352E-04-1.76295E-15
 -1      3214 2.26857E-03 4.05369E-04-1.56774E-15
 -1      3215 2.47723E-03 3.75466E-04-1.89108E-15
 -1      3216 1.14680E-03 3.10796E-04-4.34670E-16
 -1      3217 1.08415E-03 2.71870E-04-4.11441E-16
 -1      3218 1.20324E-03 2.73225E-04-5.06404E-16
 -1      3219 1.29355E-03 3.33209E-04-5.41383E-16
 -1      3220 1.38168E-02 2.08666E-03-3.55656E-14
 -1      3221 1.39134E-02 2.12853E-03-3.54149E-14
 -1      3222 1.38380E-02 2.07059E-03-3.48531E-14
 -1      3223 1.36441E-02 1.98597E-03-3.51508E-14
 -1      3224 9.54386E-03-9.40112E-05-2.07991E-14
 -1      3225 9.37053E-03-2.36468E-05-2.03572E-14
 -1      3226 2.12541E-03 3.99097E-04-1.38412E-15
 -1      3227 1.98219E-03 3.91401E-04-1.21200E-15
 -1      3228 2.19002E-03 3.65864E-04-1.49881E-15
 -1      3229 1.44460E-03-3.13623E-04-7.78105E-16
 -1      3230 1.58810E-03-3.28063E-04-9.20569E-16
 -1      3231 1.65239E-03-2.99986E-04-1.00445E-15
 -1      3232 1.35730E-02 1.54536E-03-2.71202E-14
 -1      3233 7.95180E-03 4.89732E-04-1.76947E-14
 -1      3234 7.93654E-03 4.91950E-04-1.76436E-14
 -1      3235 9.91606E-03-1.66643E-04-2.18507E-14
 -1      3236 9.74687E-03-1.50954E-04-2.13668E-14
 -1      3237 9.17189E-03 5.30712E-05-1.98958E-14
 -1      3238 8.99499E-03 1.30215E-04-1.95145E-14
 -1      3239 1.20517E-02 9.80984E-04-2.58883E-14
 -1      3240 1.17918E-02 8.42815E-04-2.56549E-14
 -1      3241 8.77429E-03 2.23915E-04-1.90745E-14
 -1      3242 8.57539E-03 3.03631E-04-1.87143E-14
 -1      3243 8.01949E-03 4.84961E-04-1.73396E-14
 -1      3244 1.26152E-02 1.21809E-03-2.62297E-14
 -1      3245 1.23545E-02 1.11977E-03-2.60999E-14
 -1      3246 1.01484E-03 1.44435E-05-4.55229E-16
 -1      3247 1.01480E-03-1.22198E-05-4.58075E-16
 -1      3248 1.13553E-03 3.01503E-05-5.47305E-16
 -1      3249 9.97704E-03-1.69178E-04-2.21470E-14
 -1      3250 1.36546E-03-2.73018E-04-7.18745E-16
 -1      3251 8.13606E-03 4.17852E-04-1.78651E-14
 -1      3252 7.92889E-03 4.82756E-04-1.75038E-14
 -1      3253 1.33847E-02 1.44893E-03-2.68444E-14
 -1      3254 1.32586E-02 1.38269E-03-2.64273E-14
 -1      3255 1.31668E-02 1.36813E-03-2.64336E-14
 -1      3256 3.34471E-03 3.85465E-04-3.34819E-15
 -1      3257 1.27970E-02 1.28054E-03-2.63614E-14
 -1      3258 1.26994E-02 1.26585E-03-2.66392E-14
 -1      3259 7.91737E-03 4.61391E-04-1.71450E-14
 -1      3260 1.12411E-02 5.11882E-04-2.53625E-14
 -1      3261 1.11123E-02 4.21952E-04-2.49367E-14
 -1      3262 1.09840E-02 3.38643E-04-2.48727E-14
 -1      3263 1.16595E-02 7.71388E-04-2.57550E-14
 -1      3264 1.47536E-02 2.47835E-03-3.40254E-14
 -1      3265 1.48405E-02 2.51483E-03-3.38662E-14
 -1      3266 8.42961E-03 3.09468E-04-1.83301E-14
 -1      3267 1.49947E-02 2.58587E-03-3.36898E-14
 -1      3268 1.06630E-02 1.17890E-04-2.39838E-14
 -1      3269 1.45737E-02 2.40418E-03-3.43434E-14
 -1      3270 1.46644E-02 2.44144E-03-3.41851E-14
 -1      3271 1.45893E-02 2.38073E-03-3.36320E-14
 -1      3272 1.14329E-03-2.35960E-04-5.32533E-16
 -1      3273 9.22418E-03-7.59824E-06-2.00152E-14
 -1      3274 1.43884E-02 2.32824E-03-3.46567E-14
 -1      3275 1.44818E-02 2.36656E-03-3.44995E-14
 -1      3276 1.44075E-02 2.30718E-03-3.39467E-14
 -1      3277 1.42201E-02 2.23103E-03-3.42525E-14
 -1      3278 1.83712E-03 3.81843E-04-1.04995E-15
 -1      3279 1.69197E-03 3.70327E-04-8.99264E-16
 -1      3280 1.90086E-03 3.50984E-04-1.15073E-15
 -1      3281 1.35898E-02 1.57040E-03-2.74841E-14
 -1      3282 1.22319E-02 1.07441E-03-2.62951E-14
 -1      3283 1.02835E-03 1.81124E-04-4.17431E-16
 -1      3284 1.02418E-03 1.51799E-04-4.26620E-16
 -1      3285 1.15310E-03 2.11758E-04-5.00441E-16
 -1      3286 7.95774E-03 4.41155E-04-1.74507E-14
 -1      3287 7.95249E-03 4.67534E-04-1.75723E-14
 -1      3288 7.89396E-03 4.48320E-04-1.72832E-14
 -1      3289 1.02088E-03 1.23262E-04-4.34291E-16
 -1      3290 1.01841E-03 9.54966E-05-4.41026E-16
 -1      3291 1.13819E-03 8.85891E-05-5.36477E-16
 -1      3292 1.14379E-03 1.48723E-04-5.21271E-16
 -1      3293 9.61365E-03-1.40473E-04-2.10468E-14
 -1      3294 9.48038E-03-1.27138E-04-2.07254E-14
 -1      3295 9.66734E-03-1.74118E-04-2.12972E-14
 -1      3296 1.03129E-02-7.54415E-05-2.30995E-14
 -1      3297 9.77952E-04-1.38606E-04-4.25997E-16
 -1      3298 9.81651E-04-1.66789E-04-4.23205E-16
 -1      3299 1.05910E-03-1.84973E-04-4.78635E-16
 -1      3300 9.72953E-04-8.45239E-05-4.28070E-16
 -1      3301 9.75083E-04-1.11241E-04-4.27623E-16
 -1      3302 1.05147E-03-1.26031E-04-4.83879E-16
 -1      3303 8.82725E-03 1.52948E-04-1.91117E-14
 -1      3304 1.34453E-02 1.91181E-03-3.58525E-14
 -1      3305 1.35505E-02 1.96574E-03-3.58823E-14
 -1      3306 1.34738E-02 1.90676E-03-3.53143E-14
 -1      3307 1.33268E-02 1.83366E-03-3.53429E-14
 -1      3308 1.29454E-02 1.31583E-03-2.63627E-14
 -1      3309 9.92896E-04-3.55840E-05-4.43059E-16
 -1      3310 9.93905E-04-6.19509E-05-4.44225E-16
 -1      3311 1.06972E-03-7.37231E-05-5.02270E-16
 -1      3312 1.11284E-03-2.43854E-05-5.35420E-16
 -1      3313 1.31089E-02 1.38744E-03-2.68440E-14
 -1      3314 2.15040E-03-2.93071E-04-1.62156E-15
 -1      3315 2.29474E-03-2.97907E-04-1.82086E-15
 -1      3316 2.43907E-03-3.01778E-04-2.03116E-15
 -1      3317 2.58337E-03-3.04779E-04-2.25277E-15
 -1      3318 2.36217E-03-2.63212E-04-1.92946E-15
 -1      3319 2.72761E-03-3.07072E-04-2.48430E-15
 -1      3320 2.87178E-03-3.08732E-04-2.72670E-15
 -1      3321 2.65137E-03-2.68733E-04-2.37070E-15
 -1      3322 3.01586E-03-3.09885E-04-2.97990E-15
 -1      3323 3.15985E-03-3.10585E-04-3.24353E-15
 -1      3324 2.94034E-03-2.71805E-04-2.85465E-15
 -1      3325 3.30375E-03-3.10930E-04-3.51757E-15
 -1      3326 3.44755E-03-3.10956E-04-3.80044E-15
 -1      3327 3.22892E-03-2.73117E-04-3.38091E-15
 -1      3328 3.59126E-03-3.10736E-04-4.09303E-15
 -1      3329 3.73487E-03-3.10293E-04-4.39519E-15
 -1      3330 3.51705E-03-2.73188E-04-3.94648E-15
 -1      3331 3.87839E-03-3.09680E-04-4.70689E-15
 -1      3332 4.02182E-03-3.08910E-04-5.02819E-15
 -1      3333 3.80472E-03-2.72388E-04-4.54929E-15
 -1      3334 4.16517E-03-3.08019E-04-5.35871E-15
 -1      3335 4.30844E-03-3.07014E-04-5.69781E-15
 -1      3336 4.09192E-03-2.70974E-04-5.19039E-15
 -1      3337 4.45163E-03-3.05920E-04-6.04506E-15
 -1      3338 4.59475E-03-3.04738E-04-6.40166E-15
 -1      3339 4.37869E-03-2.69109E-04-5.86674E-15
 -1      3340 4.73782E-03-3.03485E-04-6.76747E-15
 -1      3341 4.88083E-03-3.02159E-04-7.14153E-15
 -1      3342 4.66507E-03-2.66887E-04-6.57837E-15
 -1      3343 5.02380E-03-3.00773E-04-7.52295E-15
 -1      3344 5.16675E-03-2.99325E-04-7.91243E-15
 -1      3345 4.95112E-03-2.64354E-04-7.32364E-15
 -1      3346 5.30969E-03-2.97825E-04-8.31098E-15
 -1      3347 5.45265E-03-2.96274E-04-8.71774E-15
 -1      3348 5.23693E-03-2.61524E-04-8.10132E-15
 -1      3349 5.59566E-03-2.94682E-04-9.13225E-15
 -1      3350 5.73874E-03-2.93058E-04-9.55602E-15
 -1      3351 5.52267E-03-2.58398E-04-8.91240E-15
 -1      3352 5.88195E-03-2.91412E-04-9.98752E-15
 -1      3353 6.02534E-03-2.89768E-04-1.04259E-14
 -1      3354 5.80856E-03-2.54983E-04-9.75755E-15
 -1      3355 6.16897E-03-2.88140E-04-1.08735E-14
 -1      3356 6.31291E-03-2.86576E-04-1.13262E-14
 -1      3357 6.09500E-03-2.51323E-04-1.06338E-14
 -1      3358 6.45727E-03-2.85091E-04-1.17843E-14
 -1      3359 6.60212E-03-2.83771E-04-1.22503E-14
 -1      3360 6.38253E-03-2.47534E-04-1.15370E-14
 -1      3361 6.74762E-03-2.82636E-04-1.27214E-14
 -1      3362 6.89385E-03-2.81820E-04-1.31974E-14
 -1      3363 6.67197E-03-2.43871E-04-1.24650E-14
 -1      3364 7.04100E-03-2.81349E-04-1.36786E-14
 -1      3365 7.18915E-03-2.81418E-04-1.41639E-14
 -1      3366 6.96438E-03-2.40799E-04-1.34140E-14
 -1      3367 7.33852E-03-2.82054E-04-1.46535E-14
 -1      3368 7.48913E-03-2.83508E-04-1.51473E-14
 -1      3369 7.26107E-03-2.39099E-04-1.43818E-14
 -1      3370 7.64122E-03-2.85799E-04-1.56440E-14
 -1      3371 7.79469E-03-2.89184E-04-1.61442E-14
 -1      3372 7.56348E-03-2.39935E-04-1.53649E-14
 -1      3373 7.94975E-03-2.93644E-04-1.66443E-14
 -1      3374 8.10605E-03-2.99332E-04-1.71466E-14
 -1      3375 7.87279E-03-2.44803E-04-1.63592E-14
 -1      3376 8.26371E-03-3.06125E-04-1.76528E-14
 -1      3377 8.42210E-03-3.13829E-04-1.81606E-14
 -1      3378 8.18936E-03-2.55156E-04-1.73606E-14
 -1      3379 8.58114E-03-3.22073E-04-1.86673E-14
 -1      3380 8.73997E-03-3.30054E-04-1.91772E-14
 -1      3381 8.51189E-03-2.71379E-04-1.83689E-14
 -1      3382 8.89836E-03-3.37060E-04-1.96895E-14
 -1      3383 9.05542E-03-3.41368E-04-2.02031E-14
 -1      3384 8.83676E-03-2.90785E-04-1.93825E-14
 -1      3385 9.21071E-03-3.41839E-04-2.07159E-14
 -1      3386 9.36403E-03-3.36009E-04-2.12282E-14
 -1      3387 9.15861E-03-3.05542E-04-2.04014E-14
 -1      3388 9.51496E-03-3.22688E-04-2.17435E-14
 -1      3389 9.66440E-03-2.99460E-04-2.22583E-14
 -1      3390 9.47205E-03-3.00870E-04-2.14217E-14
 -1      3391 9.81197E-03-2.65153E-04-2.27735E-14
 -1      3392 9.95967E-03-2.19123E-04-2.32885E-14
 -1      3393 9.77640E-03-2.59580E-04-2.24445E-14
 -1      3394 1.01075E-02-1.61160E-04-2.38030E-14
 -1      3395 1.02567E-02-9.21734E-05-2.43188E-14
 -1      3396 1.00764E-02-1.67258E-04-2.34682E-14
 -1      3397 1.04073E-02-1.32968E-05-2.48354E-14
 -1      3398 1.05603E-02 7.36026E-05-2.53542E-14
 -1      3399 1.03803E-02-2.49333E-05-2.44933E-14
 -1      3400 1.07154E-02 1.67027E-04-2.58738E-14
 -1      3401 1.08723E-02 2.64540E-04-2.63933E-14
 -1      3402 1.06932E-02 1.55965E-04-2.55226E-14
 -1      3403 1.10306E-02 3.65002E-04-2.69148E-14
 -1      3404 1.11895E-02 4.66575E-04-2.74382E-14
 -1      3405 1.10148E-02 3.57234E-04-2.65590E-14
 -1      3406 1.13487E-02 5.68531E-04-2.79630E-14
 -1      3407 1.15073E-02 6.69998E-04-2.84924E-14
 -1      3408 1.13399E-02 5.64088E-04-2.76007E-14
 -1      3409 1.16652E-02 7.70613E-04-2.90241E-14
 -1      3410 1.18218E-02 8.70142E-04-2.95572E-14
 -1      3411 1.16630E-02 7.68010E-04-2.86539E-14
 -1      3412 1.19772E-02 9.68466E-04-3.00933E-14
 -1      3413 1.21310E-02 1.06573E-03-3.06301E-14
 -1      3414 1.19804E-02 9.66148E-04-2.97173E-14
 -1      3415 1.22835E-02 1.16191E-03-3.11738E-14
 -1      3416 1.24344E-02 1.25728E-03-3.17203E-14
 -1      3417 1.22906E-02 1.15879E-03-3.07917E-14
 -1      3418 1.25841E-02 1.35188E-03-3.22688E-14
 -1      3419 1.27326E-02 1.44596E-03-3.28225E-14
 -1      3420 1.25939E-02 1.34742E-03-3.18788E-14
 -1      3421 1.28800E-02 1.53956E-03-3.33790E-14
 -1      3422 1.30265E-02 1.63291E-03-3.39393E-14
 -1      3423 1.28914E-02 1.53366E-03-3.29800E-14
 -1      3424 1.35210E-02 1.54855E-03-2.75548E-14
 -1      3425 1.34361E-02 1.52941E-03-2.76258E-14
 -1      3426 1.36771E-02 1.66189E-03-2.82682E-14
 -1      3427 1.57403E-03-2.60587E-04-9.34840E-16
 -1      3428 1.71784E-03-2.71006E-04-1.08995E-15
 -1      3429 4.28760E-03 3.44130E-04-5.39878E-15
 -1      3430 4.14448E-03 3.45167E-04-5.06568E-15
 -1      3431 3.99411E-03 3.46115E-04-4.72570E-15
 -1      3432 3.84367E-03 3.46908E-04-4.39565E-15
 -1      3433 4.06395E-03 3.08286E-04-4.91283E-15
 -1      3434 4.85926E-03 3.38980E-04-6.81582E-15
 -1      3435 4.71649E-03 3.40402E-04-6.44970E-15
 -1      3436 5.14439E-03 3.35914E-04-7.57162E-15
 -1      3437 5.00190E-03 3.37485E-04-7.19017E-15
 -1      3438 4.92912E-03 3.01615E-04-7.02925E-15
 -1      3439 5.44301E-03 3.32427E-04-8.39445E-15
 -1      3440 5.29382E-03 3.34203E-04-7.97891E-15
 -1      3441 5.22098E-03 2.98840E-04-7.81080E-15
 -1      3442 5.72628E-03 3.28972E-04-9.20845E-15
 -1      3443 5.58481E-03 3.30713E-04-8.79835E-15
 -1      3444 5.51178E-03 2.95986E-04-8.62213E-15
 -1      3445 6.00786E-03 3.25611E-04-1.00491E-14
 -1      3446 5.86732E-03 3.27272E-04-9.62499E-15
 -1      3447 5.79401E-03 2.93334E-04-9.44257E-15
 -1      3448 6.28682E-03 3.22776E-04-1.09151E-14
 -1      3449 6.14773E-03 3.24115E-04-1.04784E-14
 -1      3450 6.07408E-03 2.91174E-04-1.02902E-14
 -1      3451 6.56172E-03 3.21236E-04-1.18053E-14
 -1      3452 6.42487E-03 3.21822E-04-1.13579E-14
 -1      3453 6.35090E-03 2.90129E-04-1.11631E-14
 -1      3454 6.83043E-03 3.22287E-04-1.27133E-14
 -1      3455 6.69699E-03 3.21404E-04-1.22569E-14
 -1      3456 6.62291E-03 2.91233E-04-1.20579E-14
 -1      3457 7.10241E-03 3.28430E-04-1.36843E-14
 -1      3458 6.96797E-03 3.24664E-04-1.31968E-14
 -1      3459 6.89428E-03 2.96299E-04-1.29946E-14
 -1      3460 7.34699E-03 3.42328E-04-1.46179E-14
 -1      3461 7.22683E-03 3.34382E-04-1.41499E-14
 -1      3462 7.15461E-03 3.07969E-04-1.39469E-14
 -1      3463 7.57082E-03 3.68313E-04-1.55553E-14
 -1      3464 7.46204E-03 3.53918E-04-1.50872E-14
 -1      3465 7.39320E-03 3.29270E-04-1.48834E-14
 -1      3466 7.76480E-03 4.11231E-04-1.64875E-14
 -1      3467 7.67231E-03 3.88016E-04-1.60220E-14
 -1      3468 7.61010E-03 3.64660E-04-1.58226E-14
 -1      3469 7.86147E-03 4.48557E-04-1.70451E-14
 -1      3470 3.70031E-03 3.47479E-04-4.09185E-15
 -1      3471 3.55689E-03 3.47854E-04-3.79769E-15
 -1      3472 3.76984E-03 3.09682E-04-4.26884E-15
 -1      3473 1.32391E-02 1.44544E-03-2.72237E-14
 -1      3474 1.30259E-02 1.38944E-03-2.71537E-14
 -1      3475 1.46547E-02 2.34778E-03-3.21759E-14
 -1      3476 1.45189E-02 2.25434E-03-3.16502E-14
 -1      3477 1.17155E-03-2.18673E-04-5.61956E-16
 -1      3478 1.25063E-03-2.37781E-04-6.25246E-16
 -1      3479 1.39339E-03-2.53030E-04-7.53236E-16
 -1      3480 1.16619E-03-1.86335E-04-5.66238E-16
 -1      3481 8.44848E-03 2.42581E-04-1.82296E-14
 -1      3482 8.27635E-03 3.04910E-04-1.78888E-14
 -1      3483 1.27980E-02 1.31740E-03-2.70624E-14
 -1      3484 1.26260E-02 1.25418E-03-2.69290E-14
 -1      3485 1.39052E-02 1.82636E-03-2.92595E-14
 -1      3486 1.37884E-02 1.74199E-03-2.87625E-14
 -1      3487 1.37006E-02 1.71285E-03-2.88396E-14
 -1      3488 1.56527E-03 3.62263E-04-7.74242E-16
 -1      3489 1.42011E-03 3.46077E-04-6.46171E-16
 -1      3490 1.37451E-03 3.15647E-04-6.27496E-16
 -1      3491 1.62829E-03 3.34528E-04-8.61995E-16
 -1      3492 1.18133E-02 8.66308E-04-2.62511E-14
 -1      3493 1.15478E-02 7.08677E-04-2.59225E-14
 -1      3494 1.00331E-02-1.64021E-04-2.24509E-14
 -1      3495 9.86092E-03-1.86904E-04-2.19198E-14
 -1      3496 1.07258E-02 1.68553E-04-2.43375E-14
 -1      3497 1.05439E-02 5.30542E-05-2.38713E-14
 -1      3498 1.38597E-02 2.05462E-03-3.41476E-14
 -1      3499 1.39553E-02 2.09475E-03-3.40002E-14
 -1      3500 2.83688E-03 3.44945E-04-2.47952E-15
 -1      3501 2.68942E-03 3.42887E-04-2.24338E-15
 -1      3502 2.54549E-03 3.40157E-04-2.02383E-15
 -1      3503 2.40151E-03 3.36631E-04-1.81547E-15
 -1      3504 2.61458E-03 3.04436E-04-2.15840E-15
 -1      3505 3.41339E-03 3.47977E-04-3.51349E-15
 -1      3506 3.26983E-03 3.47820E-04-3.24012E-15
 -1      3507 3.48249E-03 3.10341E-04-3.68000E-15
 -1      3508 4.57362E-03 3.41737E-04-6.09187E-15
 -1      3509 4.43065E-03 3.42985E-04-5.74124E-15
 -1      3510 4.35761E-03 3.06369E-04-5.59576E-15
 -1      3511 4.64364E-03 3.04129E-04-6.29710E-15
 -1      3512 1.41659E-02 2.01077E-03-3.03118E-14
 -1      3513 1.40334E-02 1.91714E-03-2.97824E-14
 -1      3514 1.39422E-02 1.88141E-03-2.98667E-14
 -1      3515 1.44064E-02 2.17759E-03-3.12354E-14
 -1      3516 1.42745E-02 2.08566E-03-3.07219E-14
 -1      3517 1.41805E-02 2.04532E-03-3.08070E-14
 -1      3518 1.44013E-02 2.19495E-03-3.16349E-14
 -1      3519 2.25748E-03 3.32125E-04-1.61840E-15
 -1      3520 2.11343E-03 3.26531E-04-1.43265E-15
 -1      3521 2.32589E-03 2.97847E-04-1.73990E-15
 -1      3522 9.26328E-03-7.08084E-05-2.01399E-14
 -1      3523 9.08388E-03-7.68658E-06-1.96761E-14
 -1      3524 8.85880E-03 7.92731E-05-1.91251E-14
 -1      3525 8.66310E-03 1.59268E-04-1.86852E-14
 -1      3526 8.11162E-03 3.71434E-04-1.76130E-14
 -1      3527 8.01675E-03 4.11277E-04-1.74919E-14
 -1      3528 1.03799E-02-3.65664E-05-2.34480E-14
 -1      3529 1.02233E-02-1.06722E-04-2.30250E-14
 -1      3530 1.04462E-02 5.07776E-06-2.37997E-14
 -1      3531 3.12618E-03 3.47305E-04-2.97665E-15
 -1      3532 2.98247E-03 3.46389E-04-2.72375E-15
 -1      3533 3.19476E-03 3.10007E-04-3.13179E-15
 -1      3534 1.86188E-03-2.79788E-04-1.25586E-15
 -1      3535 2.00610E-03-2.87070E-04-1.43307E-15
 -1      3536 2.07299E-03-2.54361E-04-1.53089E-15
 -1      3537 1.48324E-02 2.48667E-03-3.32960E-14
 -1      3538 1.24001E-02 1.16072E-03-2.67581E-14
 -1      3539 1.21251E-02 1.03232E-03-2.65441E-14
 -1      3540 7.81363E-03 4.24834E-04-1.68505E-14
 -1      3541 1.45960E-02 2.34449E-03-3.27587E-14
 -1      3542 1.47475E-02 2.41285E-03-3.25782E-14
 -1      3543 1.33907E-02 1.54271E-03-2.79444E-14
 -1      3544 1.31173E-02 1.69418E-03-3.43861E-14
 -1      3545 1.32367E-02 1.77214E-03-3.48905E-14
 -1      3546 1.33102E-02 1.80898E-03-3.48773E-14
 -1      3547 1.31294E-02 1.68699E-03-3.39807E-14
 -1      3548 1.45922E-03-2.27679E-04-8.26758E-16
 -1      3549 1.29648E-02 1.38855E-03-2.74501E-14
 -1      3550 1.45062E-02 2.31007E-03-3.29631E-14
 -1      3551 1.44264E-02 2.23800E-03-3.22583E-14
 -1      3552 1.14023E-02 6.18676E-04-2.58601E-14
 -1      3553 1.12696E-02 5.31917E-04-2.57978E-14
 -1      3554 1.15601E-02 7.16618E-04-2.63608E-14
 -1      3555 2.03538E-03 2.87368E-04-1.36401E-15
 -1      3556 1.96760E-03 3.19525E-04-1.25576E-15
 -1      3557 1.82181E-03 3.11028E-04-1.09122E-15
 -1      3558 1.25206E-02 1.22141E-03-2.71848E-14
 -1      3559 1.01025E-02-1.45985E-04-2.27992E-14
 -1      3560 9.79349E-03-2.07668E-04-2.18989E-14
 -1      3561 9.73481E-03-1.96222E-04-2.15973E-14
 -1      3562 9.60870E-03-1.99283E-04-2.12720E-14
 -1      3563 2.90484E-03 3.08240E-04-2.62342E-15
 -1      3564 1.38827E-02 2.03841E-03-3.34503E-14
 -1      3565 1.40519E-02 2.13457E-03-3.38499E-14
 -1      3566 1.41475E-02 2.17346E-03-3.36993E-14
 -1      3567 1.44169E-02 2.27456E-03-3.31202E-14
 -1      3568 8.91145E-03 8.04289E-06-1.92442E-14
 -1      3569 1.37621E-02 2.01299E-03-3.42951E-14
 -1      3570 1.36866E-02 1.95612E-03-3.37439E-14
 -1      3571 1.36645E-02 1.97067E-03-3.44443E-14
 -1      3572 1.25752E-03 4.78244E-05-6.47472E-16
 -1      3573 1.25678E-03 1.67696E-05-6.52595E-16
 -1      3574 1.19992E-02 9.69725E-04-2.67186E-14
 -1      3575 1.27932E-03 2.42809E-04-5.90050E-16
 -1      3576 1.27319E-03 2.08623E-04-6.03440E-16
 -1      3577 7.93225E-03 4.01253E-04-1.71982E-14
 -1      3578 9.33377E-03-1.25670E-04-2.03849E-14
 -1      3579 8.13366E-03 3.16239E-04-1.75110E-14
 -1      3580 8.00220E-03 3.18191E-04-1.71330E-14
 -1      3581 8.14496E-03 2.57020E-04-1.74057E-14
 -1      3582 1.78428E-03-2.41109E-04-1.17643E-15
 -1      3583 1.08494E-02 2.53298E-04-2.47626E-14
 -1      3584 1.07278E-02 1.76809E-04-2.46533E-14
 -1      3585 1.09732E-02 3.37406E-04-2.51899E-14
 -1      3586 8.49145E-03 1.70852E-04-1.82373E-14
 -1      3587 1.34844E-03 2.93212E-04-6.19798E-16
 -1      3588 1.30428E-03 2.64118E-04-5.99333E-16
 -1      3589 1.42447E-03 2.59381E-04-7.12551E-16
 -1      3590 1.47528E-03 3.03520E-04-7.31647E-16
 -1      3591 1.26119E-03 1.10573E-04-6.34055E-16
 -1      3592 1.25898E-03 7.90303E-05-6.41333E-16
 -1      3593 1.38069E-03 6.71242E-05-7.55106E-16
 -1      3594 1.18507E-03-1.56690E-04-5.88668E-16
 -1      3595 1.29717E-03-1.87359E-04-6.81692E-16
 -1      3596 7.79184E-03 4.06565E-04-1.67240E-14
 -1      3597 1.33839E-02 1.84570E-03-3.48631E-14
 -1      3598 1.33053E-02 1.78849E-03-3.43476E-14
 -1      3599 1.34692E-02 1.88575E-03-3.47822E-14
 -1      3600 1.35663E-02 1.92899E-03-3.46352E-14
 -1      3601 1.32149E-02 1.72801E-03-3.39036E-14
 -1      3602 1.18169E-03-1.25639E-04-5.90511E-16
 -1      3603 2.39341E-03 2.62983E-04-1.86057E-15
 -1      3604 2.24876E-03 2.59208E-04-1.66185E-15
 -1      3605 1.34931E-02 1.61472E-03-2.84906E-14
 -1      3606 1.32734E-02 1.51829E-03-2.80861E-14
 -1      3607 1.20206E-03-9.94566E-05-6.10365E-16
 -1      3608 1.33608E-03-1.27365E-04-7.28042E-16
 -1      3609 1.22303E-03-7.29663E-05-6.29420E-16
 -1      3610 2.57532E-03-2.30456E-04-2.25891E-15
 -1      3611 2.72014E-03-2.32308E-04-2.48940E-15
 -1      3612 2.86489E-03-2.33676E-04-2.73136E-15
 -1      3613 3.00955E-03-2.34606E-04-2.98358E-15
 -1      3614 2.78960E-03-1.95559E-04-2.60927E-15
 -1      3615 3.15410E-03-2.35192E-04-3.24594E-15
 -1      3616 3.29852E-03-2.35464E-04-3.51862E-15
 -1      3617 3.07935E-03-1.97192E-04-3.11260E-15
 -1      3618 3.44282E-03-2.35495E-04-3.80059E-15
 -1      3619 3.58698E-03-2.35304E-04-4.09171E-15
 -1      3620 3.36861E-03-1.97681E-04-3.65593E-15
 -1      3621 3.73100E-03-2.34945E-04-4.39338E-15
 -1      3622 3.87489E-03-2.34426E-04-4.70343E-15
 -1      3623 3.65729E-03-1.97358E-04-4.23827E-15
 -1      3624 4.01864E-03-2.33786E-04-5.02308E-15
 -1      3625 4.16225E-03-2.33027E-04-5.35238E-15
 -1      3626 3.94536E-03-1.96452E-04-4.85784E-15
 -1      3627 4.30574E-03-2.32176E-04-5.69011E-15
 -1      3628 4.44910E-03-2.31229E-04-6.03597E-15
 -1      3629 4.23280E-03-1.95111E-04-5.51443E-15
 -1      3630 4.59234E-03-2.30202E-04-6.39064E-15
 -1      3631 4.73547E-03-2.29088E-04-6.75489E-15
 -1      3632 4.51965E-03-1.93411E-04-6.20592E-15
 -1      3633 4.87849E-03-2.27896E-04-7.12706E-15
 -1      3634 5.02142E-03-2.26615E-04-7.50661E-15
 -1      3635 4.80593E-03-1.91372E-04-6.93145E-15
 -1      3636 5.16426E-03-2.25249E-04-7.89456E-15
 -1      3637 5.30705E-03-2.23787E-04-8.29093E-15
 -1      3638 5.09171E-03-1.88969E-04-7.69016E-15
 -1      3639 5.44980E-03-2.22227E-04-8.69597E-15
 -1      3640 5.59254E-03-2.20561E-04-9.10871E-15
 -1      3641 5.37709E-03-1.86137E-04-8.48169E-15
 -1      3642 5.73531E-03-2.18782E-04-9.53026E-15
 -1      3643 5.87816E-03-2.16890E-04-9.95868E-15
 -1      3644 5.66225E-03-1.82779E-04-9.30499E-15
 -1      3645 6.02114E-03-2.14876E-04-1.03962E-14
 -1      3646 6.16433E-03-2.12756E-04-1.08411E-14
 -1      3647 5.94749E-03-1.78786E-04-1.01613E-14
 -1      3648 6.30781E-03-2.10519E-04-1.12909E-14
 -1      3649 6.45170E-03-2.08213E-04-1.17467E-14
 -1      3650 6.23327E-03-1.74063E-04-1.10465E-14
 -1      3651 6.59612E-03-2.05827E-04-1.22098E-14
 -1      3652 6.74122E-03-2.03462E-04-1.26788E-14
 -1      3653 6.52032E-03-1.68584E-04-1.19571E-14
 -1      3654 6.88717E-03-2.01115E-04-1.31520E-14
 -1      3655 7.03415E-03-1.98969E-04-1.36298E-14
 -1      3656 6.80972E-03-1.62488E-04-1.28913E-14
 -1      3657 7.18241E-03-1.97034E-04-1.41127E-14
 -1      3658 7.33212E-03-1.95612E-04-1.45982E-14
 -1      3659 7.10298E-03-1.56232E-04-1.38454E-14
 -1      3660 7.48357E-03-1.94734E-04-1.50888E-14
 -1      3661 7.63690E-03-1.94831E-04-1.55827E-14
 -1      3662 7.40204E-03-1.50827E-04-1.48149E-14
 -1      3663 7.79244E-03-1.95969E-04-1.60759E-14
 -1      3664 7.95009E-03-1.98651E-04-1.65725E-14
 -1      3665 7.70913E-03-1.48068E-04-1.57967E-14
 -1      3666 8.11018E-03-2.02944E-04-1.70706E-14
 -1      3667 8.27228E-03-2.09263E-04-1.75711E-14
 -1      3668 8.02633E-03-1.50691E-04-1.67840E-14
 -1      3669 8.43660E-03-2.17563E-04-1.80732E-14
 -1      3670 8.60210E-03-2.27814E-04-1.85737E-14
 -1      3671 8.35462E-03-1.61852E-04-1.77784E-14
 -1      3672 8.76866E-03-2.39514E-04-1.90783E-14
 -1      3673 8.93482E-03-2.51414E-04-1.95850E-14
 -1      3674 8.69244E-03-1.83824E-04-1.87780E-14
 -1      3675 9.10054E-03-2.63138E-04-2.00897E-14
 -1      3676 9.26395E-03-2.71309E-04-2.05948E-14
 -1      3677 9.03363E-03-2.13302E-04-1.97816E-14
 -1      3678 9.49148E-03-2.60552E-04-2.12476E-14
 -1      3679 9.65000E-03-2.52747E-04-2.17526E-14
 -1      3680 9.80637E-03-2.32263E-04-2.22605E-14
 -1      3681 1.00427E-02-1.73981E-04-2.31357E-14
 -1      3682 1.01962E-02-1.13283E-04-2.36426E-14
 -1      3683 1.04081E-02-7.74695E-06-2.41050E-14
 -1      3684 1.05704E-02 8.39195E-05-2.46134E-14
 -1      3685 1.09975E-02 3.49369E-04-2.62056E-14
 -1      3686 1.11637E-02 4.55157E-04-2.67228E-14
 -1      3687 1.13306E-02 5.60724E-04-2.72427E-14
 -1      3688 1.14963E-02 6.64834E-04-2.77633E-14
 -1      3689 1.13210E-02 5.57678E-04-2.68865E-14
 -1      3690 1.16610E-02 7.67110E-04-2.82864E-14
 -1      3691 1.18236E-02 8.67400E-04-2.88144E-14
 -1      3692 1.16596E-02 7.67650E-04-2.79250E-14
 -1      3693 1.19842E-02 9.65647E-04-2.93452E-14
 -1      3694 1.21424E-02 1.06223E-03-2.98760E-14
 -1      3695 1.19891E-02 9.66970E-04-2.89733E-14
 -1      3696 1.22985E-02 1.15726E-03-3.04111E-14
 -1      3697 1.24524E-02 1.25123E-03-3.09495E-14
 -1      3698 1.23075E-02 1.15744E-03-3.00347E-14
 -1      3699 1.26044E-02 1.34422E-03-3.14909E-14
 -1      3700 1.27546E-02 1.43668E-03-3.20363E-14
 -1      3701 1.26159E-02 1.34240E-03-3.11060E-14
 -1      3702 1.29033E-02 1.52866E-03-3.25831E-14
 -1      3703 1.30507E-02 1.62048E-03-3.31358E-14
 -1      3704 1.29161E-02 1.52467E-03-3.21909E-14
 -1      3705 1.47741E-03-1.93414E-04-8.54243E-16
 -1      3706 1.39329E-02 1.90253E-03-3.02655E-14
 -1      3707 1.38041E-02 1.81496E-03-2.97350E-14
 -1      3708 8.93519E-03-6.79803E-05-1.93270E-14
 -1      3709 8.73133E-03 5.64366E-06-1.87750E-14
 -1      3710 5.29389E-03 2.62164E-04-8.04112E-15
 -1      3711 5.14478E-03 2.63339E-04-7.63375E-15
 -1      3712 5.00250E-03 2.64455E-04-7.25235E-15
 -1      3713 4.85998E-03 2.65565E-04-6.87795E-15
 -1      3714 5.07587E-03 2.27568E-04-7.47511E-15
 -1      3715 5.86165E-03 2.58376E-04-9.67852E-15
 -1      3716 5.72130E-03 2.59139E-04-9.26097E-15
 -1      3717 6.14031E-03 2.57651E-04-1.05327E-14
 -1      3718 6.00135E-03 2.57874E-04-1.01020E-14
 -1      3719 5.92935E-03 2.24089E-04-9.91439E-15
 -1      3720 6.41527E-03 2.58678E-04-1.14122E-14
 -1      3721 6.27834E-03 2.57911E-04-1.09694E-14
 -1      3722 6.20680E-03 2.25000E-04-1.07764E-14
 -1      3723 6.68493E-03 2.62736E-04-1.23118E-14
 -1      3724 6.55089E-03 2.60279E-04-1.18596E-14
 -1      3725 6.48031E-03 2.28325E-04-1.16615E-14
 -1      3726 6.95985E-03 2.72344E-04-1.32788E-14
 -1      3727 6.82365E-03 2.66779E-04-1.27935E-14
 -1      3728 6.75496E-03 2.35802E-04-1.25917E-14
 -1      3729 7.21061E-03 2.89428E-04-1.42114E-14
 -1      3730 7.08688E-03 2.79851E-04-1.37437E-14
 -1      3731 7.02170E-03 2.49675E-04-1.35408E-14
 -1      3732 7.44642E-03 3.17858E-04-1.51519E-14
 -1      3733 7.33084E-03 3.02202E-04-1.46806E-14
 -1      3734 7.27165E-03 2.72304E-04-1.44775E-14
 -1      3735 7.66208E-03 3.61644E-04-1.60908E-14
 -1      3736 7.55744E-03 3.38000E-04-1.56218E-14
 -1      3737 7.50841E-03 3.07444E-04-1.54206E-14
 -1      3738 3.83967E-03 2.71821E-04-4.44645E-15
 -1      3739 3.69591E-03 2.72286E-04-4.14229E-15
 -1      3740 1.30774E-02 1.45294E-03-2.80004E-14
 -1      3741 1.28603E-02 1.37630E-03-2.79073E-14
 -1      3742 1.31922E-02 1.52122E-03-2.85520E-14
 -1      3743 1.43139E-02 2.16309E-03-3.18378E-14
 -1      3744 1.37033E-02 1.75079E-03-2.93627E-14
 -1      3745 1.35882E-02 1.67322E-03-2.88605E-14
 -1      3746 1.34806E-02 1.64671E-03-2.90082E-14
 -1      3747 1.36849E-02 1.76989E-03-2.97542E-14
 -1      3748 1.26622E-02 1.29484E-03-2.77349E-14
 -1      3749 1.24539E-02 1.20300E-03-2.75610E-14
 -1      3750 1.27991E-02 1.36674E-03-2.82902E-14
 -1      3751 1.43266E-02 2.24103E-03-3.33197E-14
 -1      3752 1.42462E-02 2.17242E-03-3.26585E-14
 -1      3753 2.68266E-03 2.68279E-04-2.29134E-15
 -1      3754 2.53805E-03 2.65982E-04-2.07050E-15
 -1      3755 2.46174E-03 2.27644E-04-1.98286E-15
 -1      3756 1.99614E-03-2.16164E-04-1.44141E-15
 -1      3757 2.14082E-03-2.20968E-04-1.62962E-15
 -1      3758 4.14116E-03 2.70418E-04-5.11738E-15
 -1      3759 3.99049E-03 2.71188E-04-4.77678E-15
 -1      3760 3.91699E-03 2.33919E-04-4.64105E-15
 -1      3761 3.55202E-03 2.72573E-04-3.84743E-15
 -1      3762 3.40800E-03 2.72665E-04-3.56292E-15
 -1      3763 3.62193E-03 2.34728E-04-4.01625E-15
 -1      3764 1.21697E-02 1.06349E-03-2.72737E-14
 -1      3765 1.18849E-02 9.09087E-04-2.69776E-14
 -1      3766 1.23322E-02 1.14952E-03-2.78295E-14
 -1      3767 1.37832E-03 8.28392E-07-7.65704E-16
 -1      3768 1.25598E-03-1.47128E-05-6.55671E-16
 -1      3769 7.88100E-03 3.63980E-04-1.68975E-14
 -1      3770 7.83943E-03 3.91247E-04-1.68601E-14
 -1      3771 1.42336E-02 2.20412E-03-3.34724E-14
 -1      3772 1.26818E-03 1.75240E-04-6.14987E-16
 -1      3773 1.26424E-03 1.42599E-04-6.25178E-16
 -1      3774 1.38545E-03 1.33847E-04-7.38287E-16
 -1      3775 9.36960E-03-1.95768E-04-2.06316E-14
 -1      3776 9.17259E-03-1.56735E-04-2.00399E-14
 -1      3777 2.97526E-03 2.71253E-04-2.77113E-15
 -1      3778 2.82901E-03 2.70027E-04-2.52585E-15
 -1      3779 2.75326E-03 2.31799E-04-2.42869E-15
 -1      3780 3.26387E-03 2.72503E-04-3.28887E-15
 -1      3781 3.11962E-03 2.72059E-04-3.02482E-15
 -1      3782 3.04450E-03 2.34016E-04-2.91809E-15
 -1      3783 3.33348E-03 2.34850E-04-3.44646E-15
 -1      3784 2.28561E-03-2.24887E-04-1.82856E-15
 -1      3785 2.43047E-03-2.28004E-04-2.03857E-15
 -1      3786 2.20949E-03-1.86921E-04-1.72934E-15
 -1      3787 1.02249E-02-1.00318E-04-2.33424E-14
 -1      3788 1.00431E-02-1.65974E-04-2.27646E-14
 -1      3789 1.39387E-03 2.02559E-04-7.15614E-16
 -1      3790 5.58043E-03 2.60038E-04-8.85038E-15
 -1      3791 5.43912E-03 2.61063E-04-8.44688E-15
 -1      3792 5.64907E-03 2.24596E-04-9.07873E-15
 -1      3793 1.70751E-03-2.03329E-04-1.09809E-15
 -1      3794 1.85168E-03-2.10316E-04-1.26417E-15
 -1      3795 1.91995E-03-1.78630E-04-1.35327E-15
 -1      3796 8.49862E-03 9.33131E-05-1.81799E-14
 -1      3797 8.30927E-03 1.66086E-04-1.77258E-14
 -1      3798 1.44022E-03-1.46567E-04-8.25796E-16
 -1      3799 1.60176E-03-1.83009E-04-9.86231E-16
 -1      3800 1.67003E-03-1.53938E-04-1.06512E-15
 -1      3801 1.46045E-03-1.16702E-04-8.48944E-16
 -1      3802 1.41863E-02 2.10616E-03-3.18825E-14
 -1      3803 1.41668E-02 2.06447E-03-3.12666E-14
 -1      3804 2.49954E-03-1.92329E-04-2.14798E-15
 -1      3805 9.43712E-03-2.28037E-04-2.09298E-14
 -1      3806 9.92542E-03-2.04615E-04-2.25888E-14
 -1      3807 1.06839E-02 1.53603E-04-2.50441E-14
 -1      3808 1.32280E-02 1.72172E-03-3.34991E-14
 -1      3809 1.08501E-02 2.57236E-04-2.55555E-14
 -1      3810 8.99039E-03-1.55737E-04-1.95631E-14
 -1      3811 1.50493E-03 8.78324E-05-8.70059E-16
 -1      3812 1.50329E-03 5.31795E-05-8.77824E-16
 -1      3813 1.17424E-02 8.26116E-04-2.69172E-14
 -1      3814 1.16078E-02 7.43198E-04-2.68581E-14
 -1      3815 1.19191E-02 9.27394E-04-2.74790E-14
 -1      3816 8.53809E-03 1.48254E-05-1.82549E-14
 -1      3817 4.79094E-03 2.29336E-04-6.72701E-15
 -1      3818 4.71727E-03 2.66638E-04-6.51150E-15
 -1      3819 4.57437E-03 2.67677E-04-6.15327E-15
 -1      3820 7.73472E-03 3.76912E-04-1.64229E-14
 -1      3821 7.70188E-03 3.43219E-04-1.62246E-14
 -1      3822 1.12806E-02 5.37054E-04-2.63342E-14
 -1      3823 1.11279E-02 4.39487E-04-2.58288E-14
 -1      3824 1.23380E-03-4.20034E-05-6.38121E-16
 -1      3825 1.40020E-02 2.04207E-03-3.22692E-14
 -1      3826 1.40956E-02 2.07493E-03-3.20770E-14
 -1      3827 1.39468E-02 1.97912E-03-3.15015E-14
 -1      3828 2.10235E-03 2.54433E-04-1.47179E-15
 -1      3829 1.95604E-03 2.48593E-04-1.29287E-15
 -1      3830 2.17021E-03 2.20840E-04-1.58136E-15
 -1      3831 1.34893E-02 1.87147E-03-3.40784E-14
 -1      3832 1.71197E-03 3.12095E-04-9.68220E-16
 -1      3833 1.58471E-03 3.05609E-04-8.38983E-16
 -1      3834 1.55920E-03 2.83198E-04-8.28859E-16
 -1      3835 1.77905E-03 2.82533E-04-1.06360E-15
 -1      3836 1.37116E-02 1.94213E-03-3.30513E-14
 -1      3837 1.38103E-02 1.98251E-03-3.29061E-14
 -1      3838 8.17190E-03 1.15952E-04-1.72788E-14
 -1      3839 8.16522E-03 1.87376E-04-1.73431E-14
 -1      3840 8.02725E-03 2.01259E-04-1.69614E-14
 -1      3841 1.40676E-02 2.10915E-03-3.30782E-14
 -1      3842 4.28452E-03 2.69592E-04-5.45054E-15
 -1      3843 4.21140E-03 2.32641E-04-5.30642E-15
 -1      3844 4.42773E-03 2.68678E-04-5.79345E-15
 -1      3845 7.88714E-03 3.21601E-04-1.67913E-14
 -1      3846 7.78174E-03 3.19781E-04-1.64494E-14
 -1      3847 7.88984E-03 2.74175E-04-1.66821E-14
 -1      3848 1.50166E-03 1.80769E-05-8.83300E-16
 -1      3849 1.50085E-03-1.69428E-05-8.87406E-16
 -1      3850 1.62588E-03 3.67932E-05-1.00848E-15
 -1      3851 5.36322E-03 2.25894E-04-8.26273E-15
 -1      3852 1.35130E-02 1.85768E-03-3.33413E-14
 -1      3853 1.36123E-02 1.90042E-03-3.31979E-14
 -1      3854 1.35388E-02 1.84562E-03-3.26544E-14
 -1      3855 1.10008E-02 3.55028E-04-2.57211E-14
 -1      3856 1.40578E-02 1.99192E-03-3.08520E-14
 -1      3857 1.53410E-03 2.61141E-04-8.17963E-16
 -1      3858 1.52773E-03 2.24150E-04-8.33738E-16
 -1      3859 1.52252E-03 1.87774E-04-8.47629E-16
 -1      3860 1.66227E-03 2.45265E-04-9.60400E-16
 -1      3861 1.39122E-02 1.92080E-03-3.07184E-14
 -1      3862 2.42417E-03-1.54466E-04-2.03827E-15
 -1      3863 2.56939E-03-1.56201E-04-2.25808E-15
 -1      3864 1.38185E-02 1.89208E-03-3.09077E-14
 -1      3865 1.36933E-02 1.80710E-03-3.03154E-14
 -1      3866 1.37208E-02 1.86065E-03-3.10929E-14
 -1      3867 3.00478E-03-1.59174E-04-2.98070E-15
 -1      3868 3.14972E-03-1.59580E-04-3.24199E-15
 -1      3869 3.29452E-03-1.59780E-04-3.51314E-15
 -1      3870 3.43917E-03-1.59786E-04-3.79407E-15
 -1      3871 3.22061E-03-1.21823E-04-3.37194E-15
 -1      3872 3.58366E-03-1.59647E-04-4.08480E-15
 -1      3873 3.72798E-03-1.59366E-04-4.38508E-15
 -1      3874 3.51015E-03-1.21829E-04-3.93302E-15
 -1      3875 3.87213E-03-1.58980E-04-4.69451E-15
 -1      3876 4.01611E-03-1.58486E-04-5.01307E-15
 -1      3877 3.79901E-03-1.21376E-04-4.53220E-15
 -1      3878 4.15992E-03-1.57911E-04-5.34077E-15
 -1      3879 4.30356E-03-1.57244E-04-5.67734E-15
 -1      3880 4.08713E-03-1.20570E-04-5.16850E-15
 -1      3881 4.44703E-03-1.56503E-04-6.02269E-15
 -1      3882 4.59033E-03-1.55674E-04-6.37622E-15
 -1      3883 4.37450E-03-1.19464E-04-5.84079E-15
 -1      3884 4.73347E-03-1.54766E-04-6.73775E-15
 -1      3885 4.87646E-03-1.53761E-04-7.10863E-15
 -1      3886 4.66114E-03-1.18053E-04-6.54702E-15
 -1      3887 5.01930E-03-1.52660E-04-7.48764E-15
 -1      3888 5.16200E-03-1.51440E-04-7.87415E-15
 -1      3889 4.94705E-03-1.16286E-04-7.28660E-15
 -1      3890 5.30458E-03-1.50095E-04-8.26863E-15
 -1      3891 5.44705E-03-1.48599E-04-8.67186E-15
 -1      3892 5.23228E-03-1.14057E-04-8.05850E-15
 -1      3893 5.58944E-03-1.46937E-04-9.08243E-15
 -1      3894 5.73179E-03-1.45084E-04-9.50069E-15
 -1      3895 5.51692E-03-1.11204E-04-8.86212E-15
 -1      3896 5.87413E-03-1.43015E-04-9.92817E-15
 -1      3897 6.01652E-03-1.40711E-04-1.03633E-14
 -1      3898 5.80113E-03-1.07505E-04-9.69775E-15
 -1      3899 6.15901E-03-1.38138E-04-1.08047E-14
 -1      3900 6.30173E-03-1.35295E-04-1.12526E-14
 -1      3901 6.08519E-03-1.02690E-04-1.05646E-14
 -1      3902 6.44474E-03-1.32140E-04-1.17076E-14
 -1      3903 6.58822E-03-1.28713E-04-1.21678E-14
 -1      3904 6.36963E-03-9.64660E-05-1.14593E-14
 -1      3905 6.73230E-03-1.24966E-04-1.26328E-14
 -1      3906 6.87720E-03-1.21018E-04-1.31041E-14
 -1      3907 6.65527E-03-8.85898E-05-1.23768E-14
 -1      3908 7.02314E-03-1.16835E-04-1.35793E-14
 -1      3909 7.17041E-03-1.12657E-04-1.40585E-14
 -1      3910 6.94346E-03-7.90124E-05-1.33149E-14
 -1      3911 7.31930E-03-1.08481E-04-1.45433E-14
 -1      3912 7.47014E-03-1.04768E-04-1.50305E-14
 -1      3913 7.23616E-03-6.81302E-05-1.42714E-14
 -1      3914 7.62335E-03-1.01531E-04-1.55183E-14
 -1      3915 7.77920E-03-9.95452E-05-1.60077E-14
 -1      3916 7.53609E-03-5.72546E-05-1.52415E-14
 -1      3917 7.93819E-03-9.89772E-05-1.64994E-14
 -1      3918 8.10029E-03-1.00683E-04-1.69930E-14
 -1      3919 7.84671E-03-4.91194E-05-1.62177E-14
 -1      3920 1.14573E-02 6.47822E-04-2.68477E-14
 -1      3921 1.16329E-02 7.54695E-04-2.74129E-14
 -1      3922 1.18038E-02 8.57311E-04-2.79303E-14
 -1      3923 1.19961E-02 9.70465E-04-2.86056E-14
 -1      3924 1.21590E-02 1.06617E-03-2.91319E-14
 -1      3925 1.23187E-02 1.15942E-03-2.96604E-14
 -1      3926 1.24753E-02 1.25131E-03-3.01915E-14
 -1      3927 1.23323E-02 1.16340E-03-2.92889E-14
 -1      3928 1.26291E-02 1.34194E-03-3.07222E-14
 -1      3929 1.27807E-02 1.43201E-03-3.12605E-14
 -1      3930 1.26445E-02 1.34297E-03-3.03442E-14
 -1      3931 1.29302E-02 1.52162E-03-3.17997E-14
 -1      3932 1.30781E-02 1.61123E-03-3.23405E-14
 -1      3933 1.29458E-02 1.51959E-03-3.14102E-14
 -1      3934 1.84451E-03-1.41959E-04-1.26669E-15
 -1      3935 1.98908E-03-1.46059E-04-1.44338E-15
 -1      3936 6.27396E-03 1.93064E-04-1.10197E-14
 -1      3937 6.13610E-03 1.91459E-04-1.05822E-14
 -1      3938 5.99738E-03 1.90405E-04-1.01508E-14
 -1      3939 5.85794E-03 1.89855E-04-9.72612E-15
 -1      3940 6.06593E-03 1.57250E-04-1.03883E-14
 -1      3941 6.82393E-03 2.09618E-04-1.28611E-14
 -1      3942 6.68444E-03 2.03404E-04-1.23778E-14
 -1      3943 7.08430E-03 2.27140E-04-1.37926E-14
 -1      3944 6.95514E-03 2.17420E-04-1.33255E-14
 -1      3945 6.88907E-03 1.83476E-04-1.31090E-14
 -1      3946 7.33617E-03 2.54329E-04-1.47327E-14
 -1      3947 7.21153E-03 2.39444E-04-1.42617E-14
 -1      3948 7.15144E-03 2.04397E-04-1.40457E-14
 -1      3949 1.36685E-03-6.57587E-05-7.59795E-16
 -1      3950 1.29335E-02 1.43831E-03-2.88081E-14
 -1      3951 1.27456E-02 1.35521E-03-2.86357E-14
 -1      3952 1.77259E-03 2.43493E-04-1.08220E-15
 -1      3953 2.13394E-03-1.49467E-04-1.63101E-15
 -1      3954 2.27900E-03-1.52237E-04-1.82952E-15
 -1      3955 2.05902E-03-1.12645E-04-1.53443E-15
 -1      3956 8.55474E-03-6.30566E-05-1.83030E-14
 -1      3957 8.34392E-03 1.32793E-05-1.77094E-14
 -1      3958 1.33472E-02 1.60257E-03-2.90465E-14
 -1      3959 1.31535E-02 1.52909E-03-2.89602E-14
 -1      3960 1.51457E-03 1.55031E-04-8.54799E-16
 -1      3961 1.51126E-03 1.19694E-04-8.65627E-16
 -1      3962 1.63400E-03 1.06412E-04-9.97344E-16
 -1      3963 1.64830E-03 1.73375E-04-9.84767E-16
 -1      3964 1.02583E-02-8.46661E-05-2.36748E-14
 -1      3965 6.54660E-03 1.98756E-04-1.19125E-14
 -1      3966 6.41086E-03 1.95475E-04-1.14638E-14
 -1      3967 6.34206E-03 1.61708E-04-1.12652E-14
 -1      3968 5.14574E-03 1.90992E-04-7.68824E-15
 -1      3969 5.00357E-03 1.91611E-04-7.30660E-15
 -1      3970 2.53087E-03 1.91836E-04-2.10712E-15
 -1      3971 2.38579E-03 1.89547E-04-1.89604E-15
 -1      3972 3.99100E-03 1.96041E-04-4.82900E-15
 -1      3973 3.83990E-03 1.96497E-04-4.49844E-15
 -1      3974 3.69582E-03 1.96818E-04-4.19336E-15
 -1      3975 3.55158E-03 1.97023E-04-3.89794E-15
 -1      3976 3.77006E-03 1.58901E-04-4.37183E-15
 -1      3977 1.25057E-02 1.24136E-03-2.83882E-14
 -1      3978 1.22414E-02 1.10636E-03-2.80986E-14
 -1      3979 7.69152E-03 3.08966E-04-1.61141E-14
 -1      3980 1.38622E-02 1.99782E-03-3.26977E-14
 -1      3981 1.39512E-02 2.02880E-03-3.24776E-14
 -1      3982 1.37987E-02 1.93353E-03-3.18963E-14
 -1      3983 1.36925E-02 1.90360E-03-3.23057E-14
 -1      3984 1.48522E-03-4.96087E-05-8.74517E-16
 -1      3985 1.47454E-03-8.43658E-05-8.64502E-16
 -1      3986 1.57872E-03-1.01489E-04-9.71161E-16
 -1      3987 1.60858E-03-3.38868E-05-1.00089E-15
 -1      3988 2.82457E-03 1.94978E-04-2.56778E-15
 -1      3989 2.67775E-03 1.93641E-04-2.33186E-15
 -1      3990 2.60253E-03 1.55629E-04-2.23576E-15
 -1      3991 1.33273E-02 1.76548E-03-3.33143E-14
 -1      3992 5.43617E-03 1.89991E-04-8.49341E-15
 -1      3993 5.29114E-03 1.90442E-04-8.08727E-15
 -1      3994 5.21927E-03 1.54699E-04-7.91145E-15
 -1      3995 2.71459E-03-1.57534E-04-2.48873E-15
 -1      3996 2.85973E-03-1.58499E-04-2.72949E-15
 -1      3997 2.93047E-03-1.21186E-04-2.85007E-15
 -1      3998 5.71786E-03 1.89638E-04-9.30886E-15
 -1      3999 5.57725E-03 1.89721E-04-8.89707E-15
 -1      4000 5.50574E-03 1.54475E-04-8.71556E-15
 -1      4001 5.78694E-03 1.55130E-04-9.53766E-15
 -1      4002 1.34538E-02 1.69396E-03-2.99759E-14
 -1      4003 1.35587E-02 1.72455E-03-2.97965E-14
 -1      4004 8.18187E-03-5.29971E-05-1.72290E-14
 -1      4005 8.27588E-03-1.09450E-04-1.75181E-14
 -1      4006 1.19813E-02 9.62237E-04-2.80897E-14
 -1      4007 8.44481E-03-1.17243E-04-1.80148E-14
 -1      4008 8.63927E-03-1.20966E-04-1.85680E-14
 -1      4009 8.81449E-03-1.37065E-04-1.90663E-14
 -1      4010 1.21130E-02 1.03740E-03-2.81481E-14
 -1      4011 8.16347E-03 2.03741E-05-1.71886E-14
 -1      4012 1.32668E-02 1.70554E-03-3.23720E-14
 -1      4013 1.32509E-02 1.71017E-03-3.27700E-14
 -1      4014 1.73911E-03-1.23733E-04-1.14566E-15
 -1      4015 2.63992E-03-1.19673E-04-2.36913E-15
 -1      4016 4.86112E-03 1.92262E-04-6.93229E-15
 -1      4017 4.71842E-03 1.92942E-04-6.56585E-15
 -1      4018 4.93142E-03 1.55412E-04-7.13835E-15
 -1      4019 6.61790E-03 1.69874E-04-1.21766E-14
 -1      4020 7.58127E-03 2.94734E-04-1.56910E-14
 -1      4021 7.46177E-03 2.73094E-04-1.52192E-14
 -1      4022 1.33684E-02 1.75002E-03-3.22361E-14
 -1      4023 1.34705E-02 1.79307E-03-3.20947E-14
 -1      4024 1.31962E-02 1.65384E-03-3.18144E-14
 -1      4025 1.31053E-02 1.52605E-03-2.93116E-14
 -1      4026 1.83986E-03 2.12853E-04-1.17710E-15
 -1      4027 2.23894E-03 1.86606E-04-1.69270E-15
 -1      4028 2.09221E-03 1.82965E-04-1.50089E-15
 -1      4029 2.30846E-03 1.51762E-04-1.80628E-15
 -1      4030 8.02918E-03 4.27568E-05-1.68040E-14
 -1      4031 3.11432E-03 1.96558E-04-3.06599E-15
 -1      4032 2.96950E-03 1.95933E-04-2.81127E-15
 -1      4033 2.89470E-03 1.57864E-04-2.70568E-15
 -1      4034 1.76172E-03 1.26200E-04-1.12964E-15
 -1      4035 1.75530E-03 9.19921E-05-1.13498E-15
 -1      4036 4.13472E-03 1.95531E-04-5.15380E-15
 -1      4037 4.05808E-03 1.58239E-04-5.00170E-15
 -1      4038 4.27826E-03 1.94949E-04-5.48720E-15
 -1      4039 7.91112E-03 1.54482E-04-1.65466E-14
 -1      4040 7.90414E-03 2.16383E-04-1.66139E-14
 -1      4041 7.78733E-03 2.26242E-04-1.62685E-14
 -1      4042 7.41107E-03 2.35584E-04-1.50031E-14
 -1      4043 1.22920E-02 1.13697E-03-2.87122E-14
 -1      4044 4.50155E-03 2.31076E-04-5.99954E-15
 -1      4045 3.48133E-03 1.59201E-04-3.77992E-15
 -1      4046 3.40718E-03 1.97066E-04-3.61233E-15
 -1      4047 3.26263E-03 1.96935E-04-3.33732E-15
 -1      4048 1.26535E-02 1.32014E-03-2.89116E-14
 -1      4049 1.75281E-03 5.39723E-05-1.14343E-15
 -1      4050 1.75119E-03 1.60845E-05-1.15003E-15
 -1      4051 1.88036E-03 7.19420E-05-1.28573E-15
 -1      4052 7.65754E-03 2.66753E-04-1.59143E-14
 -1      4053 1.35251E-02 1.81058E-03-3.18944E-14
 -1      4054 1.35799E-02 1.82719E-03-3.16922E-14
 -1      4055 1.33555E-02 1.71750E-03-3.14812E-14
 -1      4056 2.34927E-03-1.16962E-04-1.93016E-15
 -1      4057 3.43685E-03-8.39379E-05-3.78200E-15
 -1      4058 3.58154E-03-8.38332E-05-4.07169E-15
 -1      4059 3.72605E-03-8.36584E-05-4.37142E-15
 -1      4060 3.87036E-03-8.34073E-05-4.67992E-15
 -1      4061 3.65327E-03-4.58392E-05-4.21112E-15
 -1      4062 4.01448E-03-8.30991E-05-4.99768E-15
 -1      4063 4.15840E-03-8.27230E-05-5.32434E-15
 -1      4064 3.94199E-03-4.54980E-05-4.82753E-15
 -1      4065 4.30212E-03-8.22920E-05-5.66057E-15
 -1      4066 4.44563E-03-8.17887E-05-6.00523E-15
 -1      4067 4.22988E-03-4.49814E-05-5.48146E-15
 -1      4068 4.58895E-03-8.12214E-05-6.35730E-15
 -1      4069 4.73207E-03-8.05669E-05-6.71837E-15
 -1      4070 4.51692E-03-4.42528E-05-6.16958E-15
 -1      4071 4.87498E-03-7.98251E-05-7.08775E-15
 -1      4072 5.01770E-03-7.89696E-05-7.46538E-15
 -1      4073 4.80311E-03-4.32452E-05-6.89073E-15
 -1      4074 5.16023E-03-7.79886E-05-7.85098E-15
 -1      4075 5.30256E-03-7.68495E-05-8.24419E-15
 -1      4076 5.08842E-03-4.18415E-05-7.64466E-15
 -1      4077 5.44472E-03-7.55294E-05-8.64490E-15
 -1      4078 5.58671E-03-7.39895E-05-9.05351E-15
 -1      4079 5.37284E-03-3.98475E-05-8.42977E-15
 -1      4080 5.72854E-03-7.21929E-05-9.47044E-15
 -1      4081 5.87026E-03-7.00964E-05-9.89481E-15
 -1      4082 5.65640E-03-3.69892E-05-9.24578E-15
 -1      4083 6.01189E-03-6.76467E-05-1.03274E-14
 -1      4084 6.15349E-03-6.48022E-05-1.07662E-14
 -1      4085 5.93917E-03-3.28934E-05-1.00921E-14
 -1      4086 6.29512E-03-6.14916E-05-1.12132E-14
 -1      4087 6.43689E-03-5.76905E-05-1.16654E-14
 -1      4088 6.22137E-03-2.70813E-05-1.09690E-14
 -1      4089 6.57889E-03-5.33108E-05-1.21229E-14
 -1      4090 6.72131E-03-4.83742E-05-1.25854E-14
 -1      4091 6.50343E-03-1.89912E-05-1.18708E-14
 -1      4092 6.86430E-03-4.27831E-05-1.30532E-14
 -1      4093 7.00817E-03-3.66655E-05-1.35260E-14
 -1      4094 6.78619E-03-8.06061E-06-1.27937E-14
 -1      4095 7.15313E-03-2.99187E-05-1.40026E-14
 -1      4096 7.29967E-03-2.29218E-05-1.44847E-14
 -1      4097 7.07112E-03 6.06116E-06-1.37373E-14
 -1      4098 7.44799E-03-1.54912E-05-1.49691E-14
 -1      4099 7.59894E-03-8.51090E-06-1.54526E-14
 -1      4100 7.36052E-03 2.30867E-05-1.46956E-14
 -1      4101 1.34525E-02 1.66241E-03-2.94217E-14
 -1      4102 1.32687E-02 1.61384E-03-2.98327E-14
 -1      4103 1.30567E-02 1.52064E-03-2.96825E-14
 -1      4104 1.75331E-03-8.83818E-05-1.16300E-15
 -1      4105 1.26630E-02 1.34537E-03-2.99689E-14
 -1      4106 1.28146E-02 1.43200E-03-3.04946E-14
 -1      4107 1.29330E-02 1.49966E-03-3.08873E-14
 -1      4108 1.30805E-02 1.58614E-03-3.14202E-14
 -1      4109 1.31855E-02 1.63214E-03-3.12881E-14
 -1      4110 1.29538E-02 1.49980E-03-3.05074E-14
 -1      4111 1.34118E-02 1.69597E-03-3.03554E-14
 -1      4112 7.22681E-03 1.80453E-04-1.43115E-14
 -1      4113 7.09431E-03 1.67728E-04-1.38398E-14
 -1      4114 6.96078E-03 1.57010E-04-1.33721E-14
 -1      4115 6.82653E-03 1.48266E-04-1.29056E-14
 -1      4116 7.03597E-03 1.29635E-04-1.36342E-14
 -1      4117 1.24517E-02 1.22640E-03-2.92351E-14
 -1      4118 2.27494E-03-7.99349E-05-1.82417E-15
 -1      4119 2.42028E-03-8.11266E-05-2.03236E-15
 -1      4120 6.13524E-03 1.24447E-04-1.06275E-14
 -1      4121 5.99616E-03 1.22457E-04-1.01945E-14
 -1      4122 1.98481E-03-7.66032E-05-1.43975E-15
 -1      4123 2.12975E-03-7.84316E-05-1.62632E-15
 -1      4124 2.20121E-03-4.34629E-05-1.71944E-15
 -1      4125 1.83161E-03 1.77503E-04-1.18651E-15
 -1      4126 1.95271E-03 1.62952E-04-1.33705E-15
 -1      4127 2.85649E-03-8.32963E-05-2.72090E-15
 -1      4128 3.00178E-03-8.36450E-05-2.97120E-15
 -1      4129 7.49710E-03 2.13862E-04-1.52858E-14
 -1      4130 7.36228E-03 1.95874E-04-1.47986E-14
 -1      4131 7.31067E-03 1.54869E-04-1.45928E-14
 -1      4132 7.88024E-03 7.94592E-06-1.63362E-14
 -1      4133 7.89396E-03 9.55718E-05-1.64332E-14
 -1      4134 7.77507E-03 1.14167E-04-1.60837E-14
 -1      4135 7.72365E-03 2.32252E-06-1.58490E-14
 -1      4136 3.84104E-03 1.21002E-04-4.54374E-15
 -1      4137 3.69675E-03 1.21182E-04-4.23823E-15
 -1      4138 2.02221E-03 1.29998E-04-1.43760E-15
 -1      4139 2.67398E-03 1.19007E-04-2.36444E-15
 -1      4140 2.52682E-03 1.17855E-04-2.13839E-15
 -1      4141 6.68787E-03 1.40935E-04-1.24324E-14
 -1      4142 6.54840E-03 1.35139E-04-1.19643E-14
 -1      4143 6.76013E-03 1.11712E-04-1.26898E-14
 -1      4144 3.14696E-03-8.38598E-05-3.23167E-15
 -1      4145 3.29198E-03-8.39466E-05-3.50191E-15
 -1      4146 3.07361E-03-4.59238E-05-3.09239E-15
 -1      4147 2.56570E-03-8.20657E-05-2.25093E-15
 -1      4148 2.71111E-03-8.27747E-05-2.48088E-15
 -1      4149 2.49197E-03-4.47784E-05-2.13492E-15
 -1      4150 6.41141E-03 1.30624E-04-1.15133E-14
 -1      4151 6.27371E-03 1.27150E-04-1.10670E-14
 -1      4152 6.48223E-03 9.95945E-05-1.17624E-14
 -1      4153 1.28569E-02 1.43123E-03-2.96361E-14
 -1      4154 1.26300E-02 1.31862E-03-2.93882E-14
 -1      4155 7.65951E-03 2.18712E-04-1.58411E-14
 -1      4156 5.29122E-03 1.18696E-04-8.13187E-15
 -1      4157 5.14582E-03 1.18684E-04-7.73246E-15
 -1      4158 4.57192E-03 1.93631E-04-6.19750E-15
 -1      4159 4.42519E-03 1.94311E-04-5.83783E-15
 -1      4160 4.64243E-03 1.56349E-04-6.39594E-15
 -1      4161 5.57383E-03 1.19274E-04-8.93330E-15
 -1      4162 5.43272E-03 1.18888E-04-8.52813E-15
 -1      4163 5.35986E-03 8.29462E-05-8.34298E-15
 -1      4164 7.61728E-03 1.71143E-04-1.56373E-14
 -1      4165 2.96453E-03 1.20494E-04-2.84333E-15
 -1      4166 2.81930E-03 1.19877E-04-2.59883E-15
 -1      4167 2.74426E-03 8.20274E-05-2.49280E-15
 -1      4168 6.20548E-03 9.18560E-05-1.08691E-14
 -1      4169 3.62360E-03 8.33436E-05-4.10503E-15
 -1      4170 3.55228E-03 1.21278E-04-3.94175E-15
 -1      4171 3.40762E-03 1.21292E-04-3.65547E-15
 -1      4172 4.34890E-03 1.57347E-04-5.67687E-15
 -1      4173 1.71605E-03-4.49480E-05-1.11917E-15
 -1      4174 1.87639E-03-6.45949E-05-1.30595E-15
 -1      4175 1.94776E-03-3.12303E-05-1.38987E-15
 -1      4176 1.73197E-03-9.73026E-06-1.13287E-15
 -1      4177 1.32425E-02 1.65198E-03-3.10921E-14
 -1      4178 5.00366E-03 1.18783E-04-7.34912E-15
 -1      4179 4.86120E-03 1.18984E-04-6.97538E-15
 -1      4180 5.07607E-03 8.23836E-05-7.56230E-15
 -1      4181 3.36379E-03-4.59947E-05-3.63246E-15
 -1      4182 5.92658E-03 8.70957E-05-1.00011E-14
 -1      4183 5.85648E-03 1.20978E-04-9.76825E-15
 -1      4184 5.71627E-03 1.19968E-04-9.35053E-15
 -1      4185 2.37967E-03 1.16349E-04-1.92363E-15
 -1      4186 2.23260E-03 1.14470E-04-1.71891E-15
 -1      4187 2.45158E-03 8.03961E-05-2.04191E-15
 -1      4188 1.30313E-02 1.52561E-03-3.01664E-14
 -1      4189 3.18830E-03 1.58944E-04-3.22161E-15
 -1      4190 2.78292E-03-4.55537E-05-2.59286E-15
 -1      4191 4.12901E-03 1.20495E-04-5.18273E-15
 -1      4192 3.98513E-03 1.20774E-04-4.85845E-15
 -1      4193 3.91230E-03 8.31528E-05-4.71621E-15
 -1      4194 1.35023E-02 1.75820E-03-3.08906E-14
 -1      4195 1.33176E-02 1.67272E-03-3.07428E-14
 -1      4196 7.62944E-03 4.51529E-05-1.55731E-14
 -1      4197 2.12571E-03 1.02041E-04-1.58132E-15
 -1      4198 1.98677E-03 8.39981E-05-1.41154E-15
 -1      4199 1.98454E-03 4.40861E-05-1.42064E-15
 -1      4200 2.19761E-03 6.73211E-05-1.68965E-15
 -1      4201 1.36349E-02 1.84266E-03-3.14907E-14
 -1      4202 1.85882E-03 6.18441E-06-1.27631E-15
 -1      4203 3.92673E-03 1.88163E-05-4.77400E-15
 -1      4204 4.07080E-03 1.88671E-05-5.09522E-15
 -1      4205 4.44508E-03-7.14381E-06-5.98286E-15
 -1      4206 4.58837E-03-6.87089E-06-6.33484E-15
 -1      4207 4.79678E-03 1.95827E-05-6.85334E-15
 -1      4208 4.93947E-03 1.99240E-05-7.22511E-15
 -1      4209 5.08189E-03 2.03631E-05-7.60561E-15
 -1      4210 5.22406E-03 2.09585E-05-7.99350E-15
 -1      4211 5.36595E-03 2.17161E-05-8.38770E-15
 -1      4212 5.50756E-03 2.27105E-05-8.78983E-15
 -1      4213 5.65063E-03 2.39776E-05-9.20466E-15
 -1      4214 5.79164E-03 2.55820E-05-9.62263E-15
 -1      4215 5.93231E-03 2.75734E-05-1.00474E-14
 -1      4216 6.07271E-03 3.00692E-05-1.04794E-14
 -1      4217 6.21276E-03 3.31281E-05-1.09191E-14
 -1      4218 6.35259E-03 3.68832E-05-1.13650E-14
 -1      4219 6.49210E-03 4.14253E-05-1.18170E-14
 -1      4220 6.63152E-03 4.68805E-05-1.22740E-14
 -1      4221 6.77423E-03 5.35569E-05-1.27481E-14
 -1      4222 6.91363E-03 6.11761E-05-1.32156E-14
 -1      4223 7.05310E-03 7.01300E-05-1.36853E-14
 -1      4224 7.19330E-03 8.01110E-05-1.41604E-14
 -1      4225 7.33456E-03 9.16017E-05-1.46376E-14
 -1      4226 1.31456E-02 1.58965E-03-3.05516E-14
 -1      4227 7.59708E-03 1.20251E-04-1.55204E-14
 -1      4228 2.07291E-03 6.37425E-06-1.54146E-15
 -1      4229 2.21806E-03 6.52718E-06-1.73356E-15
 -1      4230 1.96678E-03-4.21029E-06-1.40912E-15
 -1      4231 4.65267E-03 9.33512E-05-6.45523E-15
 -1      4232 4.50598E-03 9.35388E-05-6.09023E-15
 -1      4233 3.63795E-03 1.87450E-05-4.16010E-15
 -1      4234 3.78244E-03 1.87866E-05-4.46298E-15
 -1      4235 3.34838E-03 1.86626E-05-3.58445E-15
 -1      4236 3.49326E-03 1.87162E-05-3.86739E-15
 -1      4237 2.47182E-03 1.79037E-05-2.09174E-15
 -1      4238 2.61732E-03 1.81269E-05-2.31293E-15
 -1      4239 3.26053E-03 1.21178E-04-3.37501E-15
 -1      4240 3.11193E-03 1.20929E-04-3.10259E-15
 -1      4241 3.03718E-03 8.29299E-05-2.98699E-15
 -1      4242 3.33186E-03 8.33150E-05-3.52728E-15
 -1      4243 7.48040E-03 1.04570E-04-1.51299E-14
 -1      4244 2.76281E-03 1.82867E-05-2.54516E-15
 -1      4245 2.90825E-03 1.84300E-05-2.78759E-15
 -1      4246 4.72551E-03 5.63837E-05-6.65661E-15
 -1      4247 4.15782E-03-7.53993E-06-5.30325E-15
 -1      4248 4.30156E-03-7.35849E-06-5.63862E-15
 -1      4249 4.37342E-03 3.01121E-05-5.79627E-15
 -1      4250 3.05586E-03 1.85244E-05-3.04413E-15
 -1      4251 3.20107E-03 1.86118E-05-3.30686E-15
 -1      4252 4.42153E-03 1.19863E-04-5.87166E-15
 -1      4253 4.27449E-03 1.20191E-04-5.52119E-15
 -1      4254 5.64404E-03 8.43506E-05-9.15675E-15
 -1      4255 2.32457E-03 1.76495E-05-1.87883E-15
 -1      4256 4.20198E-03 8.28498E-05-5.36940E-15
 -1      4257 4.14305E-03 5.64875E-05-5.24498E-15
 -1      4258 4.28857E-03 5.64189E-05-5.58416E-15
 -1      4259 4.43207E-03 5.63755E-05-5.92766E-15
 -3
    1PSTEP                         2           1           1          
  100CL  101 1.000000000        4259                     0    1           1
 -4  STRESS      6    1
 -5  SXX         1    4    1    1
 -5  SYY         1    4    2    2
 -5  SZZ         1    4    3    3
 -5  SXY         1    4    1    2
 -5  SYZ         1    4    2    3
 -5  SZX         1    4    3    1
 -1         1 2.75412E+00 3.70436E+00-1.05642E+00 3.54479E+00-7.83373E-13-6.89115E-13
 -1         2-6.62288E-01-2.74029E+01-3.50576E+00-1.51077E-01 8.63698E-13 2.07979E-13
 -1         3 1.99927E+01-7.02483E-03 1.78078E-02-7.33153E-03 8.84339E-13 7.79578E-13
 -1         4 1.99983E+01-1.56849E-03 4.49189E-03 1.61096E-03 1.81828E-13-4.15216E-14
 -1         5 3.27658E+01 6.14229E+00 2.74223E+00 6.22397E+00-1.61121E-14 1.17176E-12
 -1         6 3.57496E+01 1.22625E+01 5.12506E+00-8.64612E+00-7.41074E-14 1.03462E-12
 -1         7 2.08177E+01 6.09941E+00-1.28631E-01-4.72529E+00-1.33921E-14 1.27943E-13
 -1         8 1.96713E+01 5.93484E+00 5.09724E-02-3.27467E+00-1.14700E-14-1.48982E-13
 -1         9 1.91375E+01 5.77195E+00 4.91853E-02-2.52647E+00-1.14873E-14-2.97001E-13
 -1        10 1.88951E+01 5.69216E+00 5.09729E-02-1.95114E+00-6.32827E-15-3.68447E-13
 -1        11 1.87742E+01 5.65138E+00 5.03072E-02-1.45617E+00-7.66401E-15-3.95309E-13
 -1        12 1.87110E+01 5.62985E+00 4.88524E-02-1.01515E+00 5.58581E-16-4.06567E-13
 -1        13 1.86775E+01 5.61843E+00 4.74398E-02-5.95337E-01-1.19653E-15-4.06787E-13
 -1        14 1.86634E+01 5.61361E+00 4.67083E-02-1.91211E-01 1.21837E-15-3.95128E-13
 -1        15 1.86639E+01 5.61377E+00 4.67501E-02 2.08175E-01 4.84102E-15-3.80834E-13
 -1        16 1.86790E+01 5.61892E+00 4.75728E-02 6.13142E-01 6.70080E-15-3.68725E-13
 -1        17 1.87137E+01 5.63058E+00 4.90903E-02 1.03491E+00 4.68614E-15-3.52358E-13
 -1        18 1.87783E+01 5.65255E+00 5.08413E-02 1.47901E+00 8.66234E-15-3.13938E-13
 -1        19 1.89012E+01 5.69385E+00 5.15507E-02 1.98017E+00 8.67709E-15-2.51480E-13
 -1        20 1.91423E+01 5.77445E+00 4.88002E-02 2.56378E+00 1.54026E-14-1.55229E-13
 -1        21 1.96669E+01 5.94942E+00 4.59329E-02 3.30875E+00 1.62093E-14 2.78501E-14
 -1        22 2.12005E+01 6.38114E+00 1.39688E-01 4.52290E+00 3.99680E-15 3.86908E-13
 -1        23 2.30279E+01-1.37913E+00-9.38266E-01-7.11142E-01-4.94431E-14 7.67345E-13
 -1        24 1.93653E+01-9.94827E-02-3.09813E-01 6.31986E-02-6.63792E-15 5.48648E-13
 -1        25 1.86769E+01-5.63276E-02-6.88055E-02 6.06972E-02-1.11042E-14 3.43109E-13
 -1        26 1.84745E+01-2.20977E-02-6.49744E-03 3.29710E-02-3.49005E-15 1.69502E-13
 -1        27 1.84861E+01-1.18120E-02 1.58850E-03 2.25913E-02-4.94396E-15 1.27544E-13
 -1        28 1.86005E+01-6.25731E-03 1.77843E-03 1.62792E-02-8.00542E-15 6.50860E-14
 -1        29 1.87608E+01-3.11358E-03 1.70527E-03 1.21282E-02 2.40923E-15-4.62451E-14
 -1        30 1.89359E+01-1.27399E-03 1.87272E-03 9.17277E-03-1.19395E-14-9.15830E-14
 -1        31 1.91082E+01-1.98947E-04 2.01270E-03 6.95359E-03-2.81621E-15-1.97266E-13
 -1        32 1.92683E+01 4.00424E-04 2.01390E-03 5.24162E-03-4.40646E-14-3.91471E-13
 -1        33 1.94118E+01 6.92967E-04 1.88178E-03 3.91071E-03 2.58697E-14-4.66318E-13
 -1        34 1.95373E+01 7.84694E-04 1.65293E-03 2.88356E-03-1.96447E-15-4.34350E-13
 -1        35 1.96458E+01 7.46540E-04 1.36268E-03 2.10884E-03 2.90069E-14-4.45923E-13
 -1        36 1.97397E+01 6.29175E-04 1.03925E-03 1.55110E-03-2.59190E-14-3.71076E-13
 -1        37 1.98219E+01 4.72171E-04 7.06227E-04 1.18570E-03-2.36621E-14-4.44819E-13
 -1        38 1.98958E+01 3.10715E-04 3.87473E-04 9.95500E-04-4.07943E-14-5.96432E-13
 -1        39 1.99648E+01 1.81207E-04 1.13142E-04 9.67168E-04-2.59386E-14-7.71471E-13
 -1        40 2.00315E+01 1.26124E-04-7.33880E-05 1.08560E-03 2.97343E-14-8.43746E-13
 -1        41 2.00977E+01 1.97664E-04-1.08260E-04 1.32508E-03 1.71822E-14-8.67655E-13
 -1        42 2.01629E+01 4.58852E-04 9.87047E-05 1.63591E-03-4.52260E-14-9.88351E-13
 -1        43 2.02239E+01 9.79653E-04 6.64714E-04 1.92597E-03 1.01660E-15-1.01274E-12
 -1        44 2.02730E+01 1.82452E-03 1.72299E-03 2.03873E-03 3.21315E-14-6.95204E-13
 -1        45 2.02969E+01 3.02734E-03 3.39041E-03 1.73330E-03-7.39454E-14-6.41749E-13
 -1        46 2.02758E+01 4.55101E-03 5.70323E-03 6.79550E-04-1.12966E-14-9.39578E-13
 -1        47 2.01833E+01 6.23472E-03 8.51650E-03-1.50974E-03 4.00507E-14-6.78935E-13
 -1        48 1.99885E+01 7.74384E-03 1.13831E-02-5.18050E-03-6.21325E-14-5.50774E-13
 -1        49 1.96614E+01 8.55457E-03 1.34666E-02-1.04505E-02 1.75983E-14-6.54431E-13
 -1        50 1.91825E+01 8.02200E-03 1.35897E-02-1.69498E-02 4.52674E-14-6.10709E-13
 -1        51 1.85547E+01 5.57230E-03 1.05321E-02-2.35807E-02-4.26776E-14-5.62716E-13
 -1        52 1.78162E+01 1.01085E-03 3.62237E-03-2.84896E-02-1.11648E-14-3.37674E-13
 -1        53 1.70461E+01-5.16490E-03-6.55885E-03-2.94647E-02-1.95048E-16-3.11718E-13
 -1        54 1.63575E+01-1.16609E-02-1.78062E-02-2.48274E-02-7.89592E-15-5.21207E-13
 -1        55 1.58729E+01-1.66887E-02-2.67640E-02-1.44937E-02-9.72088E-14-6.75460E-13
 -1        56 1.56891E+01-1.86538E-02-3.03091E-02-4.96699E-04-7.32502E-14-8.06617E-13
 -1        57 1.58444E+01-1.68917E-02-2.71308E-02 1.36061E-02 3.88716E-14-6.28807E-13
 -1        58 1.63044E+01-1.19942E-02-1.84113E-02 2.42275E-02-5.12270E-14-4.97637E-13
 -1        59 1.69751E+01-5.51243E-03-7.18116E-03 2.92280E-02-4.10144E-14-5.90680E-13
 -1        60 1.77338E+01 7.59123E-04 3.19673E-03 2.85437E-02-1.72567E-14-4.07417E-13
 -1        61 1.84657E+01 5.47473E-03 1.04126E-02 2.37542E-02-2.04027E-14-5.97692E-13
 -1        62 1.90883E+01 8.07166E-03 1.37550E-02 1.70623E-02-4.32901E-14-5.06086E-13
 -1        63 1.95606E+01 8.69587E-03 1.38153E-02 1.03729E-02-1.06239E-13-8.38320E-13
 -1        64 1.98777E+01 7.89568E-03 1.17841E-02 4.84747E-03 4.39006E-14-9.87819E-13
 -1        65 2.00588E+01 6.30678E-03 8.83428E-03 9.11750E-04 1.12136E-14-5.41322E-13
 -1        66 2.01350E+01 4.45010E-03 5.79343E-03-1.50253E-03-1.96227E-14-2.76183E-13
 -1        67 2.01399E+01 2.66058E-03 3.07683E-03-2.68152E-03-4.27226E-14-3.05232E-13
 -1        68 2.01044E+01 1.10886E-03 7.82235E-04-2.91636E-03 7.10747E-15-3.42857E-13
 -1        69 2.00550E+01-1.13721E-04-1.10523E-03-2.36477E-03 3.08320E-14-4.37583E-13
 -1        70 2.00133E+01-7.05937E-04-2.16165E-03-8.08906E-04-5.07524E-14-2.24773E-13
 -1        71 1.99959E+01 4.13043E-04-4.47028E-04 1.25281E-03-4.57555E-15-2.38645E-13
 -1        72 2.10404E+01-4.04862E-01-9.80370E-01-3.11567E-01 1.73021E-14 1.05849E-12
 -1        73 1.93297E+01-6.58817E-02-2.91115E-01-5.38199E-02 1.20702E-14 7.99364E-13
 -1        74 1.86863E+01-2.05024E-02-6.42604E-02-2.03309E-02 4.65871E-15 6.05283E-13
 -1        75 1.84834E+01-9.84889E-03-9.32947E-03-1.53951E-02 4.65123E-17 5.01620E-13
 -1        76 1.84951E+01-5.32475E-03 5.88555E-04-1.18767E-02-5.92516E-17 4.74537E-13
 -1        77 1.86149E+01-2.45415E-03 1.80082E-03-1.02615E-02 2.81296E-15 3.27942E-13
 -1        78 1.87757E+01-1.11027E-03 1.89505E-03-8.23387E-03-2.17257E-14 2.47076E-13
 -1        79 1.89494E+01-2.78972E-04 2.05671E-03-6.80260E-03 6.10376E-15 2.08666E-13
 -1        80 1.91196E+01 2.06288E-04 2.17597E-03-5.55898E-03 1.21268E-14 8.44064E-14
 -1        81 1.92774E+01 4.14650E-04 2.17873E-03-4.49176E-03 4.15999E-15-2.07518E-14
 -1        82 1.94238E+01 5.01754E-04 1.98720E-03-3.47620E-03-1.37977E-14-2.50928E-15
 -1        83 1.95450E+01 4.90484E-04 1.76420E-03-2.61129E-03 4.23302E-15 1.44196E-13
 -1        84 1.96490E+01 3.83868E-04 1.45193E-03-1.87137E-03 1.10237E-14-2.41307E-14
 -1        85 1.97384E+01 2.14383E-04 1.09188E-03-1.20337E-03-2.76411E-15-2.28021E-13
 -1        86 1.98172E+01-4.41094E-05 6.86335E-04-5.84328E-04-1.95222E-14-2.10255E-13
 -1        87 1.98936E+01-3.60607E-04 1.55312E-04 3.76932E-05 9.43582E-15-3.07047E-13
 -1        88 1.99670E+01-8.23276E-04-4.65648E-04 6.59768E-04-2.80289E-14-2.46609E-13
 -1        89 2.00493E+01-1.45509E-03-1.30310E-03 1.34781E-03-6.83698E-16-2.56426E-13
 -1        90 2.01516E+01-2.37490E-03-2.50892E-03 2.17502E-03 6.79009E-16-2.53310E-13
 -1        91 2.02896E+01-3.85088E-03-4.34650E-03 3.48349E-03 3.73380E-15-4.07508E-13
 -1        92 2.04997E+01-5.54888E-03-7.33730E-03 4.28202E-03 4.12555E-15-4.10421E-13
 -1        93 2.07992E+01-8.65834E-03-1.21416E-02 5.71369E-03 1.14018E-14-2.79720E-13
 -1        94 2.12526E+01-1.27637E-02-1.99176E-02 6.80030E-03-2.59008E-14-1.92079E-13
 -1        95 2.19465E+01-1.82354E-02-3.26057E-02 6.55171E-03 5.85295E-14-2.42120E-13
 -1        96 2.30108E+01-2.44790E-02-5.25191E-02 2.44569E-03 5.24233E-15-4.01524E-13
 -1        97 2.46318E+01-3.10375E-02-8.04874E-02-8.45301E-03-2.51335E-14-3.16747E-13
 -1        98 2.71782E+01-2.45044E-02-1.03486E-01-5.27177E-02 7.85791E-14-4.13419E-13
 -1        99 3.06075E+01-4.37187E-04-7.71457E-02-1.28674E-01-1.15190E-13-5.62939E-13
 -1       100 3.48128E+01 6.46220E-02 9.28398E-02-2.44962E-01 7.50079E-14-1.81480E-13
 -1       101 3.84984E+01 1.45615E-01 4.57601E-01-2.96467E-01 4.46778E-14-5.05250E-13
 -1       102 3.84397E+01 8.53097E-02 6.65560E-01 3.92485E-02-2.73392E-15-2.01408E-13
 -1       103 3.13424E+01-1.24173E-01-5.03925E-02 8.76973E-01 1.10234E-13 1.57596E-13
 -1       104 2.17270E+01-2.52694E-01-1.35560E+00 1.19582E+00-1.60264E-13 1.30107E-12
 -1       105 1.58459E+01-2.07592E-01-2.23818E+00 4.30314E-01-1.44332E-13 2.25853E-12
 -1       106 1.76001E+01-1.21976E-01-2.00187E+00-4.62477E-01 5.93067E-14 2.85316E-12
 -1       107 2.65389E+01 7.71313E-02-6.48009E-01-1.12598E+00-1.33299E-13 3.15908E-12
 -1       108 3.48554E+01 1.46132E-01 3.94768E-01-8.65611E-01 4.59780E-14 2.76898E-12
 -1       109 3.91445E+01 1.01184E-01 6.59360E-01-3.03327E-01 1.51934E-13 1.69262E-12
 -1       110 3.83174E+01 3.82587E-02 3.88654E-01 7.88590E-02 1.33481E-13 1.05438E-13
 -1       111 3.44058E+01-5.41772E-03 5.62861E-02 2.03609E-01-6.86818E-14-2.72310E-13
 -1       112 3.00406E+01-2.32633E-02-8.58127E-02 1.67782E-01 5.21371E-14 1.17857E-13
 -1       113 2.67331E+01-2.66904E-02-1.01454E-01 1.09143E-01-3.94164E-14 1.05413E-12
 -1       114 2.43836E+01-2.19726E-02-7.70393E-02 6.61391E-02-2.07128E-14 1.07839E-12
 -1       115 2.27907E+01-1.64456E-02-5.04724E-02 3.87481E-02 9.23211E-14 1.05759E-12
 -1       116 2.17263E+01-1.15793E-02-3.15240E-02 2.36060E-02-9.36806E-14 1.02121E-12
 -1       117 2.09934E+01-7.77079E-03-1.86422E-02 1.32477E-02 9.46441E-14 6.91111E-13
 -1       118 2.05310E+01-5.94327E-03-1.25290E-02 8.88359E-03 1.09197E-14 4.25250E-14
 -1       119 2.02268E+01-4.77655E-03-9.98483E-03 6.36397E-03-1.87542E-14 4.39372E-13
 -1       120 2.00465E+01-3.78344E-03-8.99186E-03 3.56369E-03 1.00310E-13 8.85255E-13
 -1       121 1.99848E+01 3.09751E-03-6.25831E-04-3.41282E-03-3.55205E-13 1.66139E-12
 -1       122 2.00000E+01-1.05684E-02-6.55757E-04-6.06143E-03 1.48272E-12-2.39737E-13
 -1       123 1.99965E+01 5.15798E-02-8.09663E-03 3.02943E-03 4.87229E-13-1.33643E-13
 -1       124 1.99985E+01 2.11022E-01-3.78314E-03 7.81714E-03-1.21691E-13 2.93745E-13
 -1       125 2.00012E+01 4.03948E-01 1.69196E-03 8.29712E-03-3.31679E-14 2.43608E-13
 -1       126 2.00032E+01 5.74257E-01 5.50886E-03 6.10321E-03 2.81625E-13-7.25765E-14
 -1       127 2.00043E+01 6.82670E-01 7.08017E-03 3.00621E-03 5.20783E-13 3.85171E-13
 -1       128 2.00041E+01 7.16564E-01 6.59783E-03-2.39368E-04 8.73173E-13-2.43589E-13
 -1       129 2.00031E+01 6.77896E-01 4.80392E-03-2.67737E-03 1.61804E-13-8.95112E-14
 -1       130 2.00017E+01 5.85214E-01 2.48867E-03-3.97260E-03 1.24024E-12 3.31129E-13
 -1       131 2.00003E+01 4.63165E-01 3.45157E-04-4.18035E-03 1.09985E-12-2.45729E-13
 -1       132 1.99993E+01 3.35294E-01-1.18698E-03-3.59941E-03-8.44502E-13-3.48187E-13
 -1       133 1.99985E+01 2.20718E-01-2.01865E-03-2.70060E-03-1.48549E-12 3.79956E-13
 -1       134 1.99983E+01 1.25635E-01-2.30097E-03-1.73616E-03-5.62041E-13 1.49582E-13
 -1       135 1.99981E+01 5.57285E-02-2.46663E-03-1.00762E-03-6.76430E-13-3.13817E-13
 -1       136 1.99986E+01 1.30172E-02-1.99846E-03-2.33029E-04-8.70679E-13-1.54113E-16
 -1       137 1.99987E+01-1.86709E-03-9.72284E-05 2.95752E-03-3.13434E-13 5.33892E-14
 -1       138-1.84308E+00-2.56229E+01-3.61966E+00-5.14957E+00 1.31470E-12 2.11610E-13
 -1       139-3.20607E+00-1.55168E+01-3.29763E+00-6.13346E+00 8.53484E-13 5.17697E-13
 -1       140-5.45324E-01-2.65054E+00-2.48933E+00-8.93967E-01 7.46070E-14 5.36238E-14
 -1       141 1.16767E+01 6.90580E+00-9.34163E-01 9.16144E+00-3.20299E-13-3.19633E-13
 -1       142 3.45454E+01 9.82259E+00 1.36572E+00 1.81340E+01-8.92564E-13-1.70064E-12
 -1       143 6.16636E+01 6.66533E+00 4.04454E+00 1.87622E+01-1.01211E-12-2.90956E-12
 -1       144 8.29309E+01 2.17945E+00 6.15418E+00 8.13829E+00-2.97783E-13-3.20505E-12
 -1       145 8.32979E+01 2.03471E+00 6.18718E+00-7.69944E+00 2.18672E-13-2.75946E-12
 -1       146 6.27424E+01 6.51962E+00 4.15613E+00-1.87157E+01 4.43340E-13-1.59150E-12
 -1       147 3.55414E+01 9.98070E+00 1.46697E+00-1.84690E+01 3.05700E-13-5.06817E-13
 -1       148 1.19606E+01 7.32515E+00-9.21859E-01-9.59603E+00-3.06866E-13 2.73115E-13
 -1       149-1.06125E-01-2.07658E+00-2.41575E+00 3.63056E-01-5.08482E-13 4.44367E-13
 -1       150-3.25851E+00-1.45935E+01-3.22822E+00 6.02805E+00-3.56326E-13 2.44249E-13
 -1       151-2.00946E+00-2.48415E+01-3.57752E+00 5.40039E+00-2.29844E-13 9.84473E-14
 -1       152-8.20435E-01-2.74461E+01-3.50237E+00 7.70258E-01-2.89976E-13-4.93876E-14
 -1       153-1.13986E+00-2.13404E+01-3.04730E+00-3.35129E+00-6.09957E-13-1.64022E-13
 -1       154-1.37954E+00-9.37096E+00-2.22516E+00-2.94137E+00-6.60028E-13-2.05058E-13
 -1       155 1.47337E+01 1.17671E+01 3.64846E-01 1.30545E+01-6.48759E-13-7.75324E-13
 -1       156 3.41940E+01 1.19740E+01 1.74726E+00 1.97682E+01-4.48752E-13-8.07854E-13
 -1       157 5.45907E+01 6.72336E+00 2.85949E+00 1.81271E+01-2.18783E-13-7.23810E-13
 -1       158 6.86650E+01 1.56383E+00 3.50565E+00 7.22721E+00-2.88831E-15-4.64989E-13
 -1       159 6.88352E+01 1.45110E+00 3.50158E+00-6.90120E+00 1.13156E-14-1.67061E-13
 -1       160 5.59434E+01 6.26055E+00 2.91268E+00-1.76747E+01-3.73826E-13 6.93057E-13
 -1       161 3.63642E+01 1.16217E+01 1.89102E+00-2.00579E+01-6.27609E-13 1.12871E-12
 -1       162 1.62498E+01 1.21423E+01 4.83672E-01-1.39656E+01-4.16056E-13 6.94222E-13
 -1       163 3.38153E+00 4.63765E+00-9.30066E-01-4.21387E+00 8.78742E-13-4.08951E-13
 -1       164-1.23343E+00-7.92019E+00-2.12470E+00 2.59257E+00 8.96616E-13-3.40672E-13
 -1       165-1.24777E+00-2.04165E+01-3.00135E+00 3.66740E+00 6.53422E-13-1.46397E-13
 -1       166 2.10125E+01 3.69384E+00-5.73406E-02-3.61012E+00-1.57013E-13-1.10502E-14
 -1       167 1.99906E+01 4.20769E+00-4.57227E-02-2.80927E+00-1.48357E-13-1.87888E-13
 -1       168 1.95089E+01 4.47711E+00-3.15856E-02-2.19418E+00-1.18253E-13-2.79176E-13
 -1       169 1.92677E+01 4.61527E+00-2.37290E-02-1.67547E+00-7.90015E-14-3.28072E-13
 -1       170 1.91380E+01 4.69701E+00-1.94761E-02-1.21904E+00-5.17922E-14-3.44095E-13
 -1       171 1.90642E+01 4.74821E+00-1.74070E-02-7.92003E-01-2.76437E-14-3.42323E-13
 -1       172 1.90271E+01 4.77613E+00-1.64155E-02-3.86878E-01 6.49014E-15-3.37360E-13
 -1       173 1.90162E+01 4.78466E+00-1.61290E-02 8.24330E-03 3.30504E-14-3.29009E-13
 -1       174 1.90288E+01 4.77482E+00-1.64627E-02 4.03715E-01 5.65962E-14-3.17573E-13
 -1       175 1.90679E+01 4.74522E+00-1.75166E-02 8.09959E-01 8.17170E-14-3.12333E-13
 -1       176 1.91423E+01 4.69270E+00-1.96847E-02 1.23145E+00 9.75238E-14-2.84428E-13
 -1       177 1.92775E+01 4.60545E+00-2.40039E-02 1.69817E+00 1.24527E-13-2.34437E-13
 -1       178 1.95240E+01 4.45955E+00-3.28475E-02 2.22655E+00 1.62994E-13-1.57993E-13
 -1       179 2.00130E+01 4.18373E+00-4.72083E-02 2.84679E+00 1.76606E-13-2.77452E-14
 -1       180 2.11341E+01 3.46353E+00-5.97767E-02 3.53669E+00 1.74532E-13 1.88134E-13
 -1       181 2.24180E+01 1.14335E+00-3.36451E-01 3.01480E+00 1.34769E-13 4.57287E-13
 -1       182 2.19704E+01 8.58212E-01 6.58804E-04-1.95895E+00-1.43545E-13 1.90282E-13
 -1       183 2.04461E+01 1.90155E-01-9.99339E-03-7.64221E-01-1.17250E-13 1.17047E-13
 -1       184 1.96706E+01 1.01780E-01 1.35598E-02-2.85643E-01-9.28632E-14 7.95787E-14
 -1       185 1.93311E+01 4.72075E-02 1.00127E-02-6.77701E-02-3.81700E-14 3.09822E-15
 -1       186 1.92018E+01 2.26066E-02 5.16520E-03 3.96090E-02-4.33311E-14-2.72980E-15
 -1       187 1.91889E+01 9.63091E-03 2.43955E-03 9.24563E-02-6.44948E-14-2.35521E-14
 -1       188 1.92384E+01 2.29968E-03 1.14048E-03 1.15233E-01-4.48989E-14-5.78374E-14
 -1       189 1.93190E+01-1.85352E-03 5.11689E-04 1.20745E-01-5.29355E-14-8.61783E-14
 -1       190 1.94121E+01-4.04725E-03 1.82713E-04 1.16466E-01-8.52217E-14-8.51775E-14
 -1       191 1.95069E+01-4.97716E-03 3.49164E-06 1.07078E-01-4.93860E-14-4.87609E-14
 -1       192 1.95974E+01-5.07966E-03-8.93974E-05 9.56183E-02-2.39764E-14-2.07648E-13
 -1       193 1.96807E+01-4.64559E-03-1.28207E-04 8.40722E-02 8.22114E-15-2.18467E-13
 -1       194 1.97561E+01-3.87889E-03-1.33106E-04 7.37159E-02 1.38571E-14-2.22516E-13
 -1       195 1.98242E+01-2.93281E-03-1.18753E-04 6.53137E-02-8.56065E-14-2.30828E-13
 -1       196 1.98864E+01-1.93742E-03-9.71943E-05 5.92273E-02-1.12037E-13-2.54783E-13
 -1       197 1.99443E+01-1.02440E-03-7.96152E-05 5.54527E-02-9.91786E-14-2.60634E-13
 -1       198 1.99996E+01-3.51458E-04-7.75297E-05 5.35921E-02-1.57298E-14-2.89662E-13
 -1       199 2.00532E+01-1.25865E-04-1.03402E-04 5.27648E-02-1.46419E-15-3.68946E-13
 -1       200 2.01051E+01-6.23355E-04-1.70410E-04 5.14653E-02-1.30809E-13-4.77700E-13
 -1       201 2.01535E+01-2.19344E-03-2.90868E-04 4.73949E-02-9.71907E-14-6.41926E-13
 -1       202 2.01940E+01-5.23523E-03-4.72797E-04 3.73206E-02 1.92319E-13-5.79039E-13
 -1       203 2.02192E+01-1.01201E-02-7.14349E-04 1.70676E-02 6.00294E-14-4.49572E-13
 -1       204 2.02176E+01-1.70327E-02-9.96534E-04-1.81903E-02 7.09675E-15-2.84077E-13
 -1       205 2.01739E+01-2.57115E-02-1.27637E-03-7.31199E-02 7.31672E-14-1.75996E-13
 -1       206 2.00697E+01-3.51074E-02-1.48452E-03-1.50681E-01 5.65283E-14-3.11993E-13
 -1       207 1.98866E+01-4.30667E-02-1.53251E-03-2.49780E-01-2.86206E-14-2.36197E-13
 -1       208 1.96099E+01-4.62723E-02-1.33480E-03-3.62480E-01 1.57171E-14-3.11458E-13
 -1       209 1.92362E+01-4.07859E-02-8.41568E-04-4.71829E-01 8.76915E-14-3.79741E-13
 -1       210 1.87806E+01-2.34652E-02-7.69706E-05-5.52100E-01 1.28686E-13-1.54830E-13
 -1       211 1.82817E+01 5.90722E-03 8.49495E-04-5.73430E-01 1.53840E-15-1.96922E-13
 -1       212 1.78018E+01 4.27255E-02 1.76728E-03-5.11446E-01-1.80861E-13-9.15602E-14
 -1       213 1.74169E+01 7.75380E-02 2.49933E-03-3.59361E-01-1.08340E-13-2.38967E-13
 -1       214 1.71976E+01 9.91275E-02 2.90872E-03-1.36321E-01-2.81563E-14-3.02955E-13
 -1       215 1.71876E+01 9.97515E-02 2.92404E-03 1.14661E-01 1.47061E-13-2.18771E-13
 -1       216 1.73880E+01 7.92088E-02 2.53700E-03 3.40576E-01 3.23420E-14-4.38625E-13
 -1       217 1.77575E+01 4.48436E-02 1.81213E-03 4.97419E-01-3.03345E-14-2.28967E-13
 -1       218 1.82261E+01 7.70490E-03 8.89725E-04 5.64318E-01-1.17863E-13-3.85571E-13
 -1       219 1.87174E+01-2.25298E-02-4.58490E-05 5.46420E-01-7.84113E-14-1.84091E-13
 -1       220 1.91675E+01-4.08274E-02-8.24640E-04 4.67292E-01-6.33438E-14-3.49327E-13
 -1       221 1.95356E+01-4.70546E-02-1.32989E-03 3.56968E-01-2.40049E-13-3.91203E-13
 -1       222 1.98057E+01-4.41855E-02-1.53106E-03 2.41984E-01 1.40605E-14-3.02425E-13
 -1       223 1.99805E+01-3.61100E-02-1.47051E-03 1.40372E-01 2.51241E-13-3.30956E-13
 -1       224 2.00750E+01-2.61350E-02-1.23100E-03 6.12219E-02 9.01874E-14-1.22041E-13
 -1       225 2.01093E+01-1.63897E-02-9.03832E-04 6.81187E-03 3.98661E-14 1.21916E-13
 -1       226 2.01040E+01-7.86897E-03-5.72489E-04-2.45662E-02 1.85780E-14 1.67024E-13
 -1       227 2.00778E+01-8.18121E-04-3.05545E-04-3.63098E-02-2.76100E-14 2.59996E-14
 -1       228 2.00458E+01 4.92965E-03-1.10465E-04-3.22510E-02 1.59340E-13-4.11837E-14
 -1       229 2.00180E+01 8.69176E-03 2.07265E-05-1.71127E-02 1.32537E-13 1.80423E-13
 -1       230 2.09620E+01 2.77016E-01-5.13286E-02 1.16489E+00 1.30587E-13 3.89514E-13
 -1       231 1.98673E+01 1.26839E-01 8.31599E-03 4.43210E-01 9.18259E-14 3.17006E-13
 -1       232 1.93610E+01 5.80346E-02 1.27316E-02 1.50145E-01 5.90439E-14 2.30456E-13
 -1       233 1.91511E+01 2.78684E-02 7.59307E-03 1.06189E-02 2.25852E-14 1.93140E-13
 -1       234 1.91021E+01 1.25065E-02 3.75322E-03-6.07125E-02 8.05092E-14 1.68234E-13
 -1       235 1.91413E+01 4.91761E-03 1.84162E-03-9.20168E-02 5.05631E-14 1.23012E-13
 -1       236 1.92226E+01 5.18165E-04 9.77675E-04-1.03281E-01 3.41372E-15 7.19795E-14
 -1       237 1.93220E+01-1.95387E-03 5.33761E-04-1.03086E-01 4.73102E-14 9.66830E-14
 -1       238 1.94256E+01-3.18072E-03 2.95894E-04-9.65774E-02 6.74973E-14 1.46078E-14
 -1       239 1.95303E+01-3.68836E-03 1.30610E-04-8.64871E-02-1.28319E-14-6.64092E-14
 -1       240 1.96218E+01-3.56548E-03 5.70379E-05-7.60197E-02-3.64803E-15-6.90187E-14
 -1       241 1.97046E+01-3.12337E-03 2.15340E-05-6.62540E-02 6.44600E-14-8.11686E-14
 -1       242 1.97792E+01-2.39870E-03 2.05804E-05-5.82380E-02 5.19522E-14-1.19381E-13
 -1       243 1.98479E+01-1.43738E-03 5.76365E-05-5.28197E-02 1.31407E-14-1.59323E-13
 -1       244 1.99173E+01-1.07730E-04 1.09466E-04-5.09141E-02 2.30423E-14-1.92851E-13
 -1       245 1.99860E+01 1.54098E-03 2.11430E-04-5.37928E-02-8.09979E-14-1.55269E-13
 -1       246 2.00638E+01 3.76547E-03 3.48483E-04-6.27839E-02 4.29732E-14-1.55002E-13
 -1       247 2.01598E+01 6.89935E-03 5.39303E-04-8.02383E-02-1.50129E-14-2.07980E-13
 -1       248 2.02863E+01 1.14512E-02 8.30076E-04-1.09681E-01 8.01286E-14-1.08220E-13
 -1       249 2.04718E+01 1.88442E-02 1.14548E-03-1.60041E-01-2.57588E-14-2.02077E-13
 -1       250 2.07262E+01 2.96811E-02 1.59990E-03-2.36079E-01-1.64792E-14-1.38593E-13
 -1       251 2.10942E+01 4.63046E-02 1.95530E-03-3.53063E-01-6.84114E-14-1.07778E-13
 -1       252 2.16299E+01 7.14166E-02 1.85793E-03-5.31320E-01 5.12507E-14-1.69930E-13
 -1       253 2.24065E+01 1.07743E-01 3.75503E-04-7.97780E-01 4.31512E-14-1.11291E-13
 -1       254 2.35162E+01 1.56227E-01-3.58808E-03-1.18110E+00-3.28357E-14-1.32295E-13
 -1       255 2.51423E+01 2.04886E-01-1.06572E-02-1.71853E+00-1.58536E-14-9.23974E-14
 -1       256 2.71863E+01 2.02974E-01-1.15735E-02-2.28577E+00-6.41262E-15 3.40127E-14
 -1       257 2.96126E+01 2.25848E-02 1.31699E-02-2.59761E+00 6.63150E-14-1.43253E-13
 -1       258 3.20218E+01-5.44575E-01 7.81440E-02-1.94546E+00 2.58960E-14-2.90529E-13
 -1       259 3.35939E+01-1.45394E+00 1.07113E-01 5.86749E-01-1.07810E-13-2.59230E-13
 -1       260 3.33381E+01-1.12321E+00-8.97815E-02 4.42284E+00-2.64545E-13-1.18249E-13
 -1       261 3.23169E+01 3.71618E-01-3.81646E-01 5.53622E+00-7.14401E-13 1.24213E-13
 -1       262 3.10887E+01 2.55691E+00-4.74074E-01 2.10132E+00-6.78152E-13 5.02449E-13
 -1       263 3.14894E+01 2.56413E+00-3.88207E-01-2.45715E+00-2.30121E-13 5.03068E-13
 -1       264 3.30048E+01 1.57316E-01-2.07667E-01-5.44761E+00-1.13021E-13 6.40620E-13
 -1       265 3.40520E+01-1.43938E+00-1.14308E-02-4.23730E+00 4.17753E-13 4.74978E-13
 -1       266 3.38666E+01-1.49528E+00 8.00573E-02-1.00013E+00 6.69312E-13 2.80751E-13
 -1       267 3.22911E+01-7.34918E-01 5.36285E-02 1.56663E+00 6.03417E-13 3.21337E-13
 -1       268 2.98117E+01-7.79524E-02-4.88229E-04 2.56949E+00 1.63878E-13 1.80689E-13
 -1       269 2.72273E+01 1.78334E-01-1.53403E-02 2.38334E+00-1.38624E-13-1.53148E-13
 -1       270 2.51676E+01 2.02998E-01-9.87623E-03 1.83938E+00-3.51823E-13 5.55181E-14
 -1       271 2.35761E+01 1.65066E-01-2.37832E-03 1.31000E+00-6.89327E-14 4.63243E-13
 -1       272 2.24128E+01 1.17430E-01 1.77058E-03 8.99378E-01 9.75214E-14 4.32747E-13
 -1       273 2.15845E+01 7.91337E-02 2.85898E-03 6.09336E-01-7.52909E-14 8.43503E-13
 -1       274 2.09810E+01 5.14985E-02 2.93183E-03 4.04400E-01 3.39798E-13 6.25785E-13
 -1       275 2.05871E+01 3.50832E-02 2.13716E-03 2.72675E-01 1.20924E-13 4.93239E-13
 -1       276 2.03175E+01 2.66060E-02 1.31195E-03 1.78301E-01-1.50936E-13 3.65533E-13
 -1       277 2.01433E+01 2.42716E-02 6.98274E-04 1.02233E-01-1.06981E-13 1.18623E-13
 -1       278 2.00428E+01 2.25800E-02 1.11784E-03 3.35730E-02-3.34462E-13 8.75052E-14
 -1       279 2.00323E+01 7.71618E-02 6.06515E-04 6.93010E-02-1.17516E-13-3.54596E-13
 -1       280 2.00189E+01 1.84524E-01 2.32132E-05 1.26802E-01 1.52291E-13-4.03262E-13
 -1       281 2.00003E+01 3.13921E-01-2.05405E-04 1.47435E-01-2.41951E-15 6.47826E-14
 -1       282 1.99854E+01 4.36698E-01-3.67441E-04 1.28435E-01 2.17225E-14 4.68586E-13
 -1       283 1.99772E+01 5.25460E-01-5.77841E-04 8.23830E-02 9.20044E-14 1.51578E-14
 -1       284 1.99757E+01 5.67959E-01-6.90120E-04 2.37847E-02-1.87796E-14-7.84367E-14
 -1       285 1.99797E+01 5.59045E-01-6.76014E-04-3.16479E-02 4.06727E-14-2.60768E-13
 -1       286 1.99868E+01 5.06754E-01-5.41597E-04-7.31332E-02 4.32948E-13 5.73180E-13
 -1       287 1.99946E+01 4.25680E-01-3.36336E-04-9.59477E-02 6.95382E-14-1.25092E-13
 -1       288 2.00012E+01 3.32189E-01-1.14504E-04-1.00827E-01 1.45804E-13-7.52317E-13
 -1       289 2.00053E+01 2.41930E-01 8.59362E-05-9.23872E-02 1.27386E-13-3.02098E-13
 -1       290 2.00074E+01 1.61380E-01 2.20946E-04-7.59326E-02-7.45755E-14 4.23275E-13
 -1       291 2.00077E+01 9.73480E-02 2.81692E-04-5.63736E-02-4.04710E-13-1.68166E-13
 -1       292 2.00077E+01 5.09353E-02 2.60366E-04-3.60181E-02-1.67556E-13 8.49588E-14
 -1       293 2.00132E+01 2.71801E-02 3.27458E-04-2.85218E-02-3.68575E-14 3.08301E-13
 -1       294-1.68169E+00-1.26666E+01-1.07546E+00-6.63127E-01 2.63029E-13-6.88893E-14
 -1       295 1.20692E+00-1.03882E+01-9.12857E-01 1.94830E+00 2.78527E-13 9.49102E-14
 -1       296 7.42492E+00-8.15492E+00-9.27627E-01 3.65311E+00 2.62901E-13-2.25341E-13
 -1       297 1.79795E+01-4.62519E+00-5.72610E-01 5.59279E+00-6.65579E-14-5.13672E-13
 -1       298 3.28853E+01-2.86203E+00 1.21436E-03 4.20868E+00 1.97342E-14-1.49458E-12
 -1       299 4.45375E+01 2.20500E+00 8.59741E-01 3.76704E+00-2.20060E-13-1.83531E-12
 -1       300 5.21900E+01 5.72859E+00 1.47340E+00 7.94920E-01-4.07646E-13-1.93306E-12
 -1       301 5.68664E+01 7.25588E+00 1.98283E+00-1.33680E-01-2.61374E-13-1.62390E-12
 -1       302 5.30017E+01 5.69339E+00 1.55314E+00-1.32652E+00-1.43302E-13-1.24611E-12
 -1       303 4.48137E+01 2.40415E+00 8.88967E-01-4.13617E+00-1.94886E-13-1.12038E-12
 -1       304 3.21945E+01-1.45071E+00 3.22385E-02-5.43044E+00-2.57933E-13-4.33265E-13
 -1       305 1.84884E+01-4.49187E+00-5.69797E-01-5.59534E+00-9.61453E-14 3.96905E-15
 -1       306 8.45583E+00-7.88844E+00-8.34720E-01-4.07261E+00-9.00946E-14 1.20966E-13
 -1       307 1.52742E+00-1.05894E+01-9.57344E-01-1.87576E+00-2.48412E-14 1.03861E-13
 -1       308-1.44954E+00-1.12840E+01-8.75113E-01 2.71839E-01-8.76799E-14-9.21208E-14
 -1       309-9.55690E-01-1.12624E+01-8.86137E-01 2.44028E+00-2.13177E-13-2.29705E-13
 -1       310 2.50351E+00-9.05029E+00-7.74950E-01 4.21524E+00-3.38479E-13-1.73556E-13
 -1       311 9.69322E+00-5.08221E+00-4.09076E-01 6.75272E+00-4.49807E-13-4.66190E-13
 -1       312 1.81333E+01-3.95833E-01-1.07602E-01 8.19343E+00-6.41404E-13-3.88134E-13
 -1       313 2.94897E+01 2.56226E+00 2.61956E-01 8.30044E+00-4.46101E-13-5.73902E-13
 -1       314 3.96138E+01 5.68008E+00 6.91171E-01 7.91466E+00-3.75998E-13-6.69770E-13
 -1       315 4.68092E+01 6.98579E+00 9.03888E-01 4.32321E+00-3.07185E-13-5.11896E-13
 -1       316 5.03196E+01 7.20747E+00 1.06786E+00 4.79015E-02-2.33563E-13-2.73524E-13
 -1       317 4.77288E+01 6.90459E+00 9.86119E-01-4.48260E+00-4.49515E-13 7.13318E-15
 -1       318 4.04731E+01 5.82838E+00 7.31219E-01-7.66840E+00-4.24350E-13 2.49079E-13
 -1       319 3.02617E+01 3.60113E+00 3.61697E-01-8.97285E+00-1.45134E-13 5.34961E-13
 -1       320 1.99361E+01-8.43777E-01-5.95242E-02-8.16855E+00-2.32314E-14 9.88737E-13
 -1       321 9.68712E+00-4.49815E+00-4.52902E-01-6.49943E+00 1.80411E-13 2.42584E-13
 -1       322 2.99205E+00-8.75551E+00-7.72731E-01-4.35278E+00 4.13308E-13-7.86107E-14
 -1       323-8.42212E-01-1.17620E+01-9.89466E-01-2.46771E+00 5.36529E-13 1.00142E-13
 -1       324 2.01454E+01 3.01521E+00-1.79034E-02-2.10980E+00-1.52981E-13-1.79305E-13
 -1       325 2.07553E+01 2.20827E+00-1.78547E-02-2.36322E+00-1.71285E-13-7.76653E-14
 -1       326 1.95850E+01 3.69191E+00-1.50804E-02-1.31659E+00-7.60871E-14-2.55186E-13
 -1       327 1.94611E+01 3.84923E+00-1.35671E-02-9.23347E-01-4.65868E-14-2.73949E-13
 -1       328 1.93922E+01 3.94002E+00-1.26791E-02-5.43810E-01-9.98923E-15-2.65949E-13
 -1       329 1.93617E+01 3.98133E+00-1.22853E-02-1.73264E-01 3.02842E-14-2.64962E-13
 -1       330 1.93631E+01 3.97970E+00-1.23102E-02 1.94324E-01 5.95231E-14-2.57013E-13
 -1       331 1.93964E+01 3.93473E+00-1.27566E-02 5.65242E-01 7.42469E-14-2.56499E-13
 -1       332 1.94671E+01 3.84134E+00-1.37653E-02 9.39154E-01 1.17942E-13-2.36341E-13
 -1       333 1.95938E+01 3.67894E+00-1.56529E-02 1.33319E+00 1.36420E-13-1.97937E-13
 -1       334 1.98091E+01 3.41012E+00-1.88296E-02 1.73850E+00 1.66033E-13-1.27000E-13
 -1       335 2.01792E+01 2.95523E+00-2.29364E-02 2.12709E+00 1.99309E-13-5.92035E-14
 -1       336 2.07484E+01 2.12939E+00-3.04650E-02 2.32212E+00 1.92669E-13 9.52328E-14
 -1       337 2.10945E+01 1.18769E+00-2.49186E-02 1.92192E+00 1.74024E-13 2.10700E-13
 -1       338 2.03909E+01 4.89279E-01 8.34018E-03 9.27346E-01 1.27246E-13 1.62492E-13
 -1       339 2.04577E+01 6.75293E-01 1.23362E-02-1.02536E+00-1.22676E-13-5.88027E-14
 -1       340 2.00364E+01 3.37122E-01 7.18151E-03-4.57276E-01-9.54568E-14-7.52326E-14
 -1       341 1.97825E+01 1.76627E-01 4.13238E-03-1.48337E-01-6.51609E-14-1.05124E-13
 -1       342 1.96474E+01 9.08601E-02 1.89251E-03 2.31937E-02-5.85368E-14-1.44470E-13
 -1       343 1.95927E+01 4.19860E-02 7.93417E-04 1.14978E-01-5.18016E-14-8.75562E-14
 -1       344 1.95884E+01 1.33136E-02 2.82193E-04 1.59056E-01-4.56699E-14-4.81551E-14
 -1       345 1.96140E+01-3.27467E-03 3.04678E-05 1.74423E-01-3.61175E-14-5.28610E-14
 -1       346 1.96556E+01-1.22102E-02-9.77280E-05 1.72962E-01-7.77923E-14-6.52931E-14
 -1       347 1.97045E+01-1.61485E-02-1.57473E-04 1.62386E-01-1.18851E-13-1.13371E-13
 -1       348 1.97554E+01-1.67976E-02-1.74856E-04 1.47804E-01-1.56617E-14-1.48649E-13
 -1       349 1.98053E+01-1.53187E-02-1.65429E-04 1.32595E-01-1.15970E-14-1.56125E-13
 -1       350 1.98529E+01-1.25472E-02-1.40110E-04 1.18928E-01-8.69660E-15-1.86981E-13
 -1       351 1.98980E+01-9.13796E-03-1.07544E-04 1.08070E-01-7.91296E-14-1.78001E-13
 -1       352 1.99410E+01-5.67795E-03-7.55565E-05 1.00551E-01-7.21587E-14-1.62762E-13
 -1       353 1.99827E+01-2.78858E-03-5.23178E-05 9.61982E-02-1.13001E-13-1.37532E-13
 -1       354 2.00237E+01-1.22027E-03-4.72873E-05 9.40736E-02-6.50412E-14-1.95198E-13
 -1       355 2.00645E+01-1.93342E-03-7.17772E-05 9.23112E-02-1.00516E-13-2.40337E-13
 -1       356 2.01048E+01-6.14209E-03-1.38780E-04 8.78910E-02-1.87376E-13-2.92098E-13
 -1       357 2.01433E+01-1.52752E-02-2.61531E-04 7.64083E-02 5.39421E-14-3.16501E-13
 -1       358 2.01770E+01-3.07832E-02-4.50078E-04 5.19574E-02 2.42782E-13-4.38296E-13
 -1       359 2.02010E+01-5.36976E-02-7.05403E-04 7.32889E-03 1.47472E-13-2.17981E-13
 -1       360 2.02077E+01-8.38530E-02-1.01079E-03-6.51855E-02 3.37295E-14-2.22582E-13
 -1       361 2.01870E+01-1.18767E-01-1.32253E-03-1.72030E-01 2.96156E-14-2.84426E-13
 -1       362 2.01260E+01-1.52387E-01-1.56412E-03-3.15387E-01 7.37194E-14-2.95149E-13
 -1       363 2.00111E+01-1.74311E-01-1.62972E-03-4.89035E-01 3.48917E-14-2.73055E-13
 -1       364 1.98309E+01-1.70546E-01-1.40867E-03-6.73972E-01 9.00415E-14-1.02089E-13
 -1       365 1.95811E+01-1.27075E-01-8.22765E-04-8.35999E-01 2.16087E-13-5.57395E-14
 -1       366 1.92723E+01-3.66442E-02 1.02472E-04-9.28553E-01-3.08185E-14-1.54530E-13
 -1       367 1.89352E+01 9.30800E-02 1.22172E-03-9.03761E-01-1.01250E-13-2.60166E-13
 -1       368 1.86216E+01 2.34910E-01 2.30118E-03-7.31368E-01-1.14166E-13-1.50236E-13
 -1       369 1.83944E+01 3.47442E-01 3.09633E-03-4.18665E-01-5.34942E-14 7.17439E-14
 -1       370 1.83065E+01 3.91895E-01 3.40783E-03-1.85863E-02-2.80162E-14-7.78865E-15
 -1       371 1.83797E+01 3.51996E-01 3.16060E-03 3.83981E-01 8.54189E-15-6.38182E-14
 -1       372 1.85943E+01 2.42489E-01 2.38276E-03 7.03429E-01 3.55662E-14 1.16024E-14
 -1       373 1.88989E+01 1.00862E-01 1.28620E-03 8.84352E-01 5.77606E-14 1.17971E-13
 -1       374 1.92307E+01-3.12982E-02 1.49659E-04 9.16305E-01-1.58119E-14 3.29015E-13
 -1       375 1.95363E+01-1.25373E-01-8.01709E-04 8.27457E-01-1.67054E-13 6.62101E-14
 -1       376 1.97832E+01-1.72119E-01-1.40936E-03 6.65400E-01-5.52082E-14 1.19260E-13
 -1       377 1.99598E+01-1.77850E-01-1.64765E-03 4.77741E-01-8.73952E-14 2.49343E-13
 -1       378 2.00698E+01-1.56222E-01-1.58429E-03 3.00316E-01 2.90840E-14 2.21556E-13
 -1       379 2.01248E+01-1.21145E-01-1.32593E-03 1.53924E-01 2.50118E-13 2.88515E-13
 -1       380 2.01393E+01-8.30017E-02-9.77453E-04 4.65933E-02 2.01462E-13 3.14534E-13
 -1       381 2.01271E+01-4.77820E-02-6.16714E-04-2.20836E-02 7.41652E-14 2.10007E-13
 -1       382 2.01000E+01-1.79260E-02-2.98791E-04-5.67696E-02-1.21926E-13 1.77616E-13
 -1       383 2.00669E+01 5.96685E-03-8.71081E-05-6.37165E-02 5.13194E-14 3.37323E-13
 -1       384 2.00383E+01 2.06504E-02 2.12579E-04-5.10024E-02 1.33367E-13 4.67659E-13
 -1       385 1.98893E+01 2.28535E-01 1.08007E-02 3.98624E-01 9.27075E-14 1.32205E-13
 -1       386 1.96005E+01 1.15603E-01 6.16444E-03 1.19701E-01 3.66335E-14 9.95640E-14
 -1       387 1.94626E+01 5.53737E-02 2.74102E-03-3.46242E-02 9.74464E-14 4.41113E-14
 -1       388 1.94271E+01 2.47484E-02 1.11519E-03-1.08850E-01 8.25465E-14 5.02187E-14
 -1       389 1.94457E+01 6.96187E-03 4.28225E-04-1.42926E-01 2.48507E-14 5.50467E-14
 -1       390 1.94940E+01-3.26065E-03 9.67634E-05-1.53184E-01 2.73665E-14 9.15763E-15
 -1       391 1.95568E+01-8.70110E-03-6.22816E-05-1.49655E-01 9.87448E-14-3.20816E-14
 -1       392 1.96278E+01-1.11641E-02-1.52244E-04-1.38194E-01 2.73902E-14-4.34710E-14
 -1       393 1.96946E+01-1.13186E-02-1.78964E-04-1.24289E-01-1.01666E-14-5.81731E-14
 -1       394 1.97582E+01-1.00532E-02-1.65995E-04-1.10468E-01 6.69700E-14-1.13689E-13
 -1       395 1.98180E+01-7.70722E-03-1.24830E-04-9.88376E-02 7.00498E-14-5.47709E-14
 -1       396 1.98751E+01-4.42164E-03-4.98397E-05-9.10595E-02 9.42172E-15-1.11455E-13
 -1       397 1.99342E+01 1.54949E-04 4.31296E-05-8.88105E-02 3.62494E-14-1.82406E-13
 -1       398 1.99933E+01 5.92182E-03 1.86980E-04-9.42710E-02-5.40769E-14-1.69678E-13
 -1       399 2.00598E+01 1.36895E-02 3.79858E-04-1.09617E-01-1.41161E-14-1.54023E-13
 -1       400 2.01401E+01 2.45539E-02 6.54060E-04-1.38565E-01-5.32769E-15 1.67518E-14
 -1       401 2.02424E+01 4.01530E-02 1.06499E-03-1.86558E-01-2.46121E-14 3.80359E-14
 -1       402 2.03855E+01 6.48075E-02 1.66126E-03-2.66869E-01 4.29824E-14 1.26998E-13
 -1       403 2.05719E+01 1.00282E-01 2.54281E-03-3.85588E-01-6.22713E-14 2.02422E-14
 -1       404 2.08265E+01 1.53226E-01 3.72264E-03-5.64123E-01-2.07304E-14 3.77876E-14
 -1       405 2.11740E+01 2.30872E-01 5.13936E-03-8.29119E-01-9.13679E-15 8.08065E-14
 -1       406 2.16429E+01 3.39616E-01 6.36967E-03-1.21417E+00 5.40739E-14 1.20349E-13
 -1       407 2.22643E+01 4.77281E-01 6.57536E-03-1.75253E+00 2.03917E-14 2.24951E-14
 -1       408 2.31108E+01 6.10573E-01 4.93700E-03-2.49169E+00-1.29829E-13-7.24353E-14
 -1       409 2.41435E+01 5.98943E-01 3.30913E-03-3.28359E+00-2.83020E-15 6.26886E-15
 -1       410 2.55014E+01 1.43662E-01 1.19485E-02-3.85488E+00 1.08654E-13-1.01245E-13
 -1       411 2.74815E+01-1.23535E+00 3.97913E-02-3.52073E+00 2.13583E-13-5.12628E-14
 -1       412 3.05510E+01-3.46719E+00 5.43004E-02-1.29021E+00-5.66699E-14-3.43384E-13
 -1       413 3.49374E+01-3.91382E+00-7.85056E-02 2.87819E+00-2.74152E-13-3.17683E-13
 -1       414 4.10833E+01 6.26254E+00 2.33738E-01-5.32472E-01-4.56135E-13-8.18789E-13
 -1       415 3.98241E+01 3.12438E+00 2.79569E-02-4.27007E+00-2.52159E-13-7.65235E-13
 -1       416 3.71059E+01-2.37783E+00-5.69512E-02-4.40664E+00 3.65180E-13-9.44730E-13
 -1       417 3.29869E+01-4.05575E+00-1.20829E-02-1.05685E+00 5.53162E-13-7.11747E-13
 -1       418 2.95260E+01-2.62537E+00 3.22769E-02 2.22576E+00 4.74985E-13-2.78350E-13
 -1       419 2.68326E+01-6.13339E-01 1.54833E-02 3.74270E+00 3.52818E-13-1.32138E-13
 -1       420 2.50135E+01 3.80266E-01 7.81178E-03 3.64689E+00 1.06951E-13-8.05371E-14
 -1       421 2.37448E+01 6.02985E-01 4.06989E-03 2.94342E+00-4.81175E-13 9.21598E-14
 -1       422 2.27572E+01 5.42072E-01 6.08418E-03 2.18044E+00-3.13482E-13 3.49051E-13
 -1       423 2.19857E+01 4.08404E-01 7.01822E-03 1.54652E+00-8.63905E-14 3.49222E-13
 -1       424 2.13911E+01 2.85650E-01 6.06672E-03 1.07505E+00-1.80580E-13 5.94872E-13
 -1       425 2.09260E+01 1.90218E-01 4.82428E-03 7.28473E-01 2.09449E-13 2.00212E-13
 -1       426 2.06020E+01 1.30276E-01 3.43538E-03 5.01162E-01 5.37222E-15 4.85291E-13
 -1       427 2.03665E+01 9.44117E-02 2.41065E-03 3.39013E-01-5.92484E-15 6.14608E-13
 -1       428 2.02001E+01 7.82869E-02 1.96581E-03 2.15390E-01 1.57181E-13 1.86854E-13
 -1       429 2.01031E+01 8.02775E-02 1.21823E-03 1.39466E-01-1.15962E-14-1.35331E-13
 -1       430 1.99659E+01 3.82776E-01-2.13686E-04 2.40139E-01-1.79381E-14 6.35210E-14
 -1       431 2.00274E+01 2.68196E-01 2.23988E-04 2.52288E-01 3.07900E-13-1.12046E-13
 -1       432 2.00742E+01 1.71175E-01 7.76056E-04 2.11569E-01 3.08679E-13-2.32320E-13
 -1       433 1.99229E+01 4.65375E-01-5.64357E-04 1.75628E-01-9.12300E-14 5.61626E-14
 -1       434 1.99051E+01 5.06030E-01-7.50367E-04 7.98499E-02 5.00216E-14 1.64048E-13
 -1       435 1.99112E+01 5.00646E-01-7.74672E-04-2.02754E-02-1.40569E-13-2.38565E-13
 -1       436 1.99342E+01 4.56116E-01-6.37261E-04-1.03129E-01-2.52795E-13 4.37144E-13
 -1       437 1.99644E+01 3.85584E-01-4.12071E-04-1.56272E-01-1.73969E-13 5.77865E-14
 -1       438 1.99931E+01 3.03896E-01-1.66769E-04-1.77191E-01-1.08961E-13-4.64505E-13
 -1       439 2.00143E+01 2.25242E-01 5.09658E-05-1.71368E-01 2.51025E-13-6.09041E-13
 -1       440 2.00266E+01 1.55584E-01 2.09264E-04-1.47629E-01 2.82841E-13 1.61087E-13
 -1       441 2.00312E+01 1.00413E-01 3.23194E-04-1.15549E-01 1.20132E-14-1.73420E-13
 -1       442 2.00306E+01 5.98283E-02 3.81469E-04-8.22331E-02 6.67459E-14 2.26139E-14
 -1       443 1.00618E+01-5.75500E+00-4.58418E-02 5.99275E+00 1.75124E-13-1.13715E-13
 -1       444 9.03112E-01-4.13467E+00-8.82468E-03-1.95836E+00-2.31308E-14-1.67949E-13
 -1       445 1.97769E+00-4.70260E+00-4.95430E-02 2.15345E+00-3.85386E-14 2.45637E-14
 -1       446 1.79915E+01-6.95499E+00-1.24923E-01 5.93992E+00 1.78246E-13-7.95634E-13
 -1       447 2.88218E+01-6.40767E+00-1.04848E-01 3.28749E+00 4.01346E-14-1.30355E-12
 -1       448 1.97866E+01 3.44010E+00-2.09067E-02-1.72633E+00-1.13397E-13-2.26107E-13
 -1       449 4.06198E+01 5.03799E+00 1.75482E-01 2.79502E+00-5.62966E-13-5.29882E-13
 -1       450 4.09539E+01 1.71414E+00 2.22803E-01 3.47568E+00-6.03767E-13-3.94434E-13
 -1       451 3.79032E+01-2.74196E+00 5.85296E-02 6.42377E-01-5.76983E-13-3.22103E-13
 -1       452 2.96463E+01-6.03506E+00-1.18764E-01-2.92027E+00-1.78677E-13-3.89092E-13
 -1       453 1.99419E+01-6.87143E+00-1.26716E-01-5.72035E+00-1.33227E-14 6.80567E-14
 -1       454 9.51604E+00-6.31445E+00-1.38341E-01-5.70582E+00 3.87468E-14 1.36613E-13
 -1       455 3.53723E+00-4.38109E+00 9.72129E-03-3.27882E+00 5.93414E-14 3.35287E-14
 -1       456 5.64277E-01-4.66835E+00-6.10329E-02 1.61348E+00-1.04083E-15-2.30482E-13
 -1       457 3.73662E+00-4.64805E+00-1.16250E-02 5.78414E+00-1.02446E-13-1.57707E-13
 -1       458 9.35503E+00-5.30654E+00-3.52415E-02 7.95439E+00-2.21267E-13-3.37390E-13
 -1       459 1.91431E+01-4.92710E+00 4.44407E-03 8.00342E+00-3.54439E-13-5.09690E-13
 -1       460 2.64892E+01-3.06316E+00-9.35754E-03 6.13221E+00-4.53859E-13-2.02324E-13
 -1       461 3.35924E+01 1.33998E+00 5.01978E-02 2.91479E+00-1.62116E-13-1.55209E-13
 -1       462 3.72660E+01 5.56670E+00 8.08934E-02 1.22259E+00-2.12524E-13-7.94642E-14
 -1       463 3.76555E+01 8.74826E+00 2.38285E-02-3.64396E-02-3.97238E-13-8.63060E-14
 -1       464 3.87116E+01 8.65538E+00 7.57986E-02-1.39869E-01-4.08340E-13-1.17142E-13
 -1       465 3.69364E+01 5.84423E+00 3.92406E-02-7.42772E-01-5.84657E-13 8.79574E-14
 -1       466 3.35933E+01 1.31099E+00 8.33499E-03-2.50510E+00-2.49422E-13 1.22125E-13
 -1       467 2.82791E+01-2.56539E+00 2.04564E-02-5.36130E+00 1.04708E-13 3.61267E-13
 -1       468 1.92427E+01-5.15142E+00-9.28065E-03-7.98501E+00 9.39943E-14 9.63344E-13
 -1       469 1.06630E+01-5.41344E+00-3.28353E-02-8.11011E+00-1.39055E-14 6.01560E-13
 -1       470 3.80488E+00-5.07410E+00-5.10866E-02-5.91119E+00 1.71141E-13-4.67959E-14
 -1       471 2.03729E+01 8.32044E-01 4.02978E-03 9.71833E-01 1.29821E-13-7.53271E-15
 -1       472 1.97334E+01 3.10479E+00-5.36385E-03-6.33836E-01-1.45193E-14-2.32951E-13
 -1       473 1.98290E+01 2.93171E+00-5.82440E-03-9.50381E-01-5.90101E-14-2.32274E-13
 -1       474 1.96661E+01 3.22750E+00-5.02979E-03 8.77913E-03 3.09480E-14-2.39173E-13
 -1       475 1.96846E+01 3.19441E+00-5.10640E-03 3.30281E-01 5.41613E-14-2.48931E-13
 -1       476 1.97383E+01 3.09750E+00-5.41102E-03 6.45609E-01 8.11695E-14-2.20760E-13
 -1       477 1.98368E+01 2.91949E+00-5.94986E-03 9.61184E-01 1.35699E-13-1.87743E-13
 -1       478 1.99919E+01 2.63421E+00-6.52374E-03 1.25646E+00 1.41946E-13-1.56942E-13
 -1       479 2.02336E+01 2.18796E+00-5.69914E-03 1.50125E+00 1.69876E-13-7.64590E-14
 -1       480 2.54286E+01-5.52431E+00 3.52811E-02 4.23582E+00 2.76931E-13-1.08761E-12
 -1       481 2.21694E+01-1.96172E+00 1.21749E-01 5.37148E+00 3.38854E-13-8.36536E-13
 -1       482 2.01111E+01 4.53776E-01 5.05389E-03 4.63652E-01 8.54673E-14-4.16660E-14
 -1       483 2.03433E+01 9.75887E-01 2.91861E-03-9.43175E-01-9.22374E-14-1.35568E-13
 -1       484 2.01713E+01 5.44197E-01 1.93663E-03-4.67487E-01-1.06314E-13-1.37202E-13
 -1       485 2.00246E+01 3.04347E-01 1.06755E-03-1.65548E-01-9.29176E-14-1.34736E-13
 -1       486 1.99243E+01 1.62825E-01 4.41353E-04 1.66412E-02-5.68366E-14-1.42712E-13
 -1       487 1.98662E+01 7.70640E-02 1.58924E-04 1.20263E-01-2.89013E-14-1.28820E-13
 -1       488 1.98396E+01 2.50866E-02 2.68443E-05 1.73031E-01-4.98096E-14-1.36662E-13
 -1       489 1.98347E+01-5.41922E-03-3.87894E-05 1.93705E-01-4.73124E-14-1.32525E-13
 -1       490 1.98437E+01-2.18279E-02-7.08011E-05 1.95000E-01-1.09275E-13-1.10058E-13
 -1       491 1.98608E+01-2.88416E-02-8.23684E-05 1.85604E-01-9.32179E-14-7.20846E-14
 -1       492 1.98824E+01-2.96197E-02-8.06470E-05 1.71451E-01-7.33042E-15-1.30561E-13
 -1       493 1.99061E+01-2.63851E-02-7.05828E-05 1.56524E-01-2.37442E-15-1.10080E-13
 -1       494 1.99308E+01-2.07974E-02-5.60224E-05 1.43386E-01-7.45876E-14-1.39963E-13
 -1       495 1.99560E+01-1.42209E-02-4.02721E-05 1.33499E-01-3.61039E-14-3.84535E-14
 -1       496 1.99817E+01-7.94996E-03-2.65860E-05 1.27385E-01-1.18819E-13 3.63605E-14
 -1       497 2.00086E+01-3.41149E-03-1.86317E-05 1.24646E-01-1.02132E-13 2.78876E-14
 -1       498 2.00373E+01-2.34766E-03-2.08902E-05 1.23859E-01-1.46794E-13-7.13469E-14
 -1       499 2.00687E+01-6.95145E-03-3.88082E-05 1.22357E-01-1.84988E-13-1.50983E-13
 -1       500 2.01037E+01-1.98927E-02-7.85919E-05 1.15954E-01-3.48701E-14 3.24560E-14
 -1       501 2.01432E+01-4.41258E-02-1.46284E-04 9.86681E-02 2.32004E-14-4.36494E-14
 -1       502 2.01871E+01-8.23197E-02-2.45706E-04 6.26345E-02 2.09324E-13-2.40765E-13
 -1       503 2.02344E+01-1.35719E-01-3.75492E-04-1.55767E-03 1.38639E-13-2.88270E-13
 -1       504 2.02818E+01-2.02292E-01-5.23556E-04-1.03689E-01-5.10991E-14-1.74832E-13
 -1       505 2.03224E+01-2.74274E-01-6.61874E-04-2.51406E-01 2.30397E-14-3.60789E-13
 -1       506 2.03446E+01-3.35743E-01-7.45343E-04-4.45959E-01 1.02627E-13-2.74632E-13
 -1       507 2.03314E+01-3.61815E-01-7.13080E-04-6.76253E-01 2.18906E-13-2.16125E-13
 -1       508 2.02632E+01-3.22026E-01-5.15698E-04-9.12520E-01 1.00848E-13-2.64362E-13
 -1       509 2.01243E+01-1.90429E-01-1.17247E-04-1.10320E+00 4.89017E-14-3.18148E-13
 -1       510 1.99151E+01 3.78000E-02 3.87119E-04-1.18066E+00-1.01126E-13-1.53526E-13
 -1       511 1.96637E+01 3.29572E-01 8.59566E-04-1.08065E+00 8.98547E-15 5.02012E-14
 -1       512 1.94289E+01 6.10043E-01 1.21791E-03-7.74213E-01 8.83351E-14 1.81898E-13
 -1       513 1.92828E+01 7.85924E-01 1.48082E-03-2.96979E-01-1.11937E-13 3.48940E-13
 -1       514 1.92768E+01 7.90852E-01 1.55844E-03 2.48903E-01-4.13471E-14 3.35888E-13
 -1       515 1.94118E+01 6.23695E-01 1.35096E-03 7.32986E-01 6.09890E-14 4.57576E-13
 -1       516 1.96396E+01 3.46764E-01 9.14044E-04 1.05122E+00 1.36702E-14 5.68687E-13
 -1       517 1.98890E+01 5.20203E-02 4.22684E-04 1.16280E+00-4.88606E-14 2.16725E-13
 -1       518 2.00992E+01-1.83332E-01-1.06383E-04 1.09250E+00-2.26936E-13-2.15761E-14
 -1       519 2.02393E+01-3.22405E-01-5.03989E-04 9.03463E-01-5.10964E-14 1.65525E-13
 -1       520 2.03076E+01-3.67486E-01-7.15763E-04 6.64594E-01-4.30891E-14 3.56739E-13
 -1       521 2.03189E+01-3.43479E-01-7.56118E-04 4.29573E-01-2.34883E-14 3.69807E-13
 -1       522 2.02934E+01-2.80611E-01-6.71817E-04 2.30385E-01 3.01544E-16 3.82975E-13
 -1       523 2.02484E+01-2.03768E-01-5.21432E-04 8.02481E-02 2.69039E-13 2.89564E-13
 -1       524 2.01963E+01-1.28925E-01-3.53640E-04-2.00857E-02 2.56002E-14 2.59913E-13
 -1       525 2.01444E+01-6.37374E-02-1.82697E-04-7.64582E-02-9.34562E-14 3.22311E-13
 -1       526 2.00968E+01-1.07921E-02-2.35898E-05-9.63881E-02-2.12675E-14 4.61577E-13
 -1       527 1.98057E+01 1.24992E-01 9.84806E-04-2.73132E-02 5.94133E-14 1.09638E-14
 -1       528 1.97509E+01 5.77726E-02 3.48991E-04-1.23186E-01 8.10693E-14-2.12093E-14
 -1       529 1.97346E+01 1.75577E-02 7.68017E-05-1.70411E-01 4.66249E-14-1.63687E-14
 -1       530 1.97431E+01-5.86022E-03-4.44004E-05-1.87427E-01 8.38200E-14 1.84368E-14
 -1       531 1.97676E+01-1.88126E-02-1.09581E-04-1.86118E-01 5.04312E-14 7.06571E-14
 -1       532 1.97988E+01-2.36487E-02-1.35893E-04-1.75177E-01 4.65758E-15 4.68985E-14
 -1       533 1.98336E+01-2.35272E-02-1.31816E-04-1.60580E-01 3.67252E-14 2.27322E-15
 -1       534 1.98698E+01-1.98029E-02-1.10761E-04-1.46328E-01 7.92214E-14 6.37609E-14
 -1       535 1.99064E+01-1.32237E-02-6.97738E-05-1.35412E-01 1.32346E-13-7.00319E-14
 -1       536 1.99455E+01-3.37811E-03-1.92652E-05-1.30358E-01 9.18342E-14-5.33188E-14
 -1       537 1.99843E+01 9.21482E-03 5.48025E-05-1.34234E-01-4.49383E-14-4.12858E-14
 -1       538 2.00264E+01 2.59820E-02 1.52845E-04-1.49519E-01-2.84328E-14 2.44033E-14
 -1       539 2.00735E+01 4.88617E-02 2.87926E-04-1.80105E-01-8.36240E-14 5.19529E-14
 -1       540 2.01280E+01 8.08590E-02 4.84113E-04-2.31383E-01-7.27468E-14 1.31590E-13
 -1       541 2.01950E+01 1.29635E-01 7.86229E-04-3.16249E-01-1.08244E-14 1.94222E-13
 -1       542 2.02687E+01 1.97900E-01 1.20122E-03-4.38702E-01-6.68199E-15 1.25649E-13
 -1       543 2.03503E+01 2.97194E-01 1.81487E-03-6.17650E-01-3.63317E-14 2.18038E-13
 -1       544 2.04322E+01 4.40056E-01 2.63025E-03-8.74793E-01-5.28841E-15 2.01957E-13
 -1       545 2.04974E+01 6.38920E-01 3.56839E-03-1.23702E+00 5.24887E-14-4.37015E-14
 -1       546 2.05168E+01 8.97320E-01 4.27899E-03-1.73396E+00 2.71222E-14 4.10981E-14
 -1       547 2.04399E+01 1.19667E+00 5.32077E-03-2.42566E+00-6.12618E-14-2.49484E-14
 -1       548 2.02395E+01 1.37913E+00 7.70320E-03-3.25208E+00-4.73167E-14-1.12016E-13
 -1       549 1.99943E+01 1.12121E+00 1.97697E-02-4.19448E+00-3.30075E-15-1.70946E-13
 -1       550 2.01091E+01-2.33081E-01 6.95346E-02-5.08103E+00 1.11178E-13-9.54237E-14
 -1       551 2.15640E+01-3.45773E+00 9.57760E-02-5.38114E+00 2.41585E-13 9.74082E-14
 -1       552 2.09560E+01 4.13672E-01 3.47438E-02 4.79526E+00 4.60604E-14-3.59209E-13
 -1       553 2.07992E+01 1.17316E+00 1.10072E-02 3.79630E+00-2.87828E-13-1.48883E-14
 -1       554 2.08126E+01 1.18885E+00 7.10801E-03 2.89488E+00-4.62698E-13-1.29235E-13
 -1       555 2.07802E+01 9.57762E-01 6.42916E-03 2.13274E+00-2.37481E-13-1.39173E-13
 -1       556 2.06828E+01 7.02074E-01 5.22115E-03 1.53782E+00-9.44854E-14 1.55893E-13
 -1       557 2.05470E+01 4.83501E-01 4.00541E-03 1.07831E+00 2.03174E-13 1.11461E-15
 -1       558 2.04137E+01 3.35443E-01 2.78153E-03 7.64328E-01-1.26049E-13 1.71368E-13
 -1       559 2.02929E+01 2.39078E-01 2.06666E-03 5.36688E-01-5.56917E-14-1.26683E-14
 -1       560 2.01884E+01 1.83943E-01 1.37062E-03 3.65634E-01 1.45405E-13 6.43857E-14
 -1       561 2.01261E+01 1.74084E-01 9.22876E-04 2.85108E-01 2.46780E-13 4.94697E-14
 -1       562 1.98064E+01 5.11367E-01-2.54758E-04 1.56221E-01 8.56856E-14 1.83863E-13
 -1       563 1.97993E+01 5.03430E-01-3.69322E-04 1.21649E-02 1.00038E-14-7.62789E-14
 -1       564 1.99733E+01 3.65755E-01 9.18408E-05 3.55022E-01 1.30810E-13-3.55336E-13
 -1       565 1.98648E+01 4.65105E-01-3.27475E-04 2.82921E-01 4.17306E-14 2.48254E-13
 -1       566 1.98357E+01 4.49393E-01-3.31191E-04-1.15317E-01-7.64030E-15-1.60663E-13
 -1       567 1.98963E+01 3.66831E-01-2.43107E-04-2.03849E-01-3.56060E-13 3.25277E-13
 -1       568 1.99610E+01 2.74897E-01-1.34470E-04-2.45898E-01-1.13148E-13-5.11981E-14
 -1       569 2.00138E+01 1.90735E-01-2.49551E-05-2.46542E-01 1.49685E-13-3.88001E-13
 -1       570 2.00489E+01 1.21313E-01 8.93039E-05-2.17867E-01 1.49826E-13-4.95888E-13
 -1       571 2.00645E+01 7.15451E-02 2.18715E-04-1.74429E-01-4.55631E-14-1.11565E-13
 -1       572 2.00654E+01 3.94826E-02-7.20083E-05-1.27420E-01-1.70894E-13-6.55606E-14
 -1       573 1.99203E+01 2.42617E-01 2.40129E-03 1.52119E-01 8.15482E-14-3.18894E-14
 -1       574 5.08409E+00-9.82099E-02 2.25765E-01 6.22687E-01 2.81242E-14-1.95746E-13
 -1       575 5.83768E+00-8.25301E-01 2.11218E-01-4.40084E+00-2.32640E-13-1.06179E-13
 -1       576 2.03918E+01 1.77167E+00-5.66970E-03-1.54620E+00-1.35422E-13-1.49179E-13
 -1       577 9.68465E+00-3.35042E+00 1.31563E-01-7.59577E+00-9.65616E-14 4.59313E-13
 -1       578 4.71547E+00-1.11988E+00 1.86604E-01 3.74316E+00 9.06358E-14-3.89508E-13
 -1       579 1.96816E+01 3.19887E+00-5.10619E-03-3.12861E-01 1.72628E-14-2.49302E-13
 -1       580 9.16965E+00-1.63515E+00 1.30517E-01 5.14139E+00-1.00288E-13 1.62495E-13
 -1       581 2.73506E+01-6.02639E+00-1.30005E-03-3.43308E+00-3.01287E-14-2.01651E-13
 -1       582 3.20827E+01 2.32259E+00-1.27096E-01-8.57106E-01-1.83950E-13 1.05395E-13
 -1       583 1.78784E+01-4.98242E+00 6.74753E-02-6.19629E+00 2.67453E-13 7.81319E-15
 -1       584 1.05196E+01-2.97515E+00 1.47530E-01-5.55615E+00 2.88630E-13-2.22045E-14
 -1       585 4.74114E+00-5.52368E-01 2.06979E-01-8.93301E-01 6.30416E-14-1.99993E-13
 -1       586 9.77833E+00-2.57840E+00 1.70052E-01 7.29072E+00-1.25226E-13-3.81604E-13
 -1       587 1.68587E+01-4.81842E+00 9.12985E-02 8.19862E+00-1.88433E-13-6.47923E-13
 -1       588 2.46788E+01-5.12546E+00 2.10044E-02 5.87228E+00-3.62779E-13 4.04156E-14
 -1       589 2.98684E+01-2.68578E+00-5.77733E-02 2.44258E+00-2.44900E-13-1.35163E-13
 -1       590 3.20632E+01 6.57309E+00-1.78523E-01-1.38900E+00-1.47549E-13-1.53211E-14
 -1       591 3.21333E+01 8.65946E+00-1.79462E-01 9.21747E-02-4.42424E-13-8.14023E-14
 -1       592 3.24482E+01 6.97471E+00-1.68423E-01 1.22356E+00-5.33518E-13-2.81351E-13
 -1       593 3.18797E+01 2.50213E+00-1.35003E-01 1.02757E+00-1.56340E-13-2.48829E-13
 -1       594 3.01796E+01-2.27937E+00-7.08105E-02-1.58983E+00 1.85711E-13-6.44623E-14
 -1       595 2.54219E+01-5.04449E+00 2.22559E-02-5.50001E+00 2.67078E-13 1.90258E-13
 -1       596 1.70161E+01-4.72455E+00 9.13281E-02-8.11432E+00 9.28146E-14 6.95378E-13
 -1       597 2.05846E+01 1.30524E+00-9.94326E-04 1.54782E+00 1.59061E-13 4.21356E-14
 -1       598 1.99791E+01 2.66320E+00-6.59460E-03-1.25433E+00-9.47290E-14-2.28916E-13
 -1       599 9.14786E+00-7.82855E-03 1.86237E-01-3.65406E+00 1.28925E-13-4.89192E-14
 -1       600 1.95203E+01-4.13744E+00 2.07952E-01 5.92082E+00 2.11026E-13-9.02159E-13
 -1       601 2.00676E+01 1.76435E-02 3.87023E-05-9.32259E-02-7.93795E-16 4.67857E-13
 -1       602 2.00732E+01 2.83267E-01 1.50009E-03 3.83362E-01 2.35758E-13-2.46724E-13
 -1       603 1.99612E+01 2.45038E+00-1.58399E-03 3.93870E-01 5.72096E-14-2.19228E-13
 -1       604 1.99293E+01 2.52551E+00-1.50795E-03 1.35727E-01 3.52902E-14-2.30764E-13
 -1       605 2.01209E+01 2.04672E+00-1.60874E-03 8.49839E-01 1.19708E-13-1.74197E-13
 -1       606 2.02394E+01 1.67599E+00-2.24793E-03 9.91609E-01 1.42624E-13-9.36061E-14
 -1       607 2.03193E+01 1.03682E+00 2.91429E-03 8.30834E-01 1.29243E-13-6.67734E-14
 -1       608 2.02400E+01 6.73672E-01 2.63728E-04-3.92771E-01-1.03505E-13-1.57216E-13
 -1       609 2.01677E+01 3.93429E-01 1.55053E-04-1.38332E-01-8.89230E-14-1.47457E-13
 -1       610 2.01027E+01 2.14624E-01 4.57866E-05 2.44818E-02-5.16873E-14-1.42373E-13
 -1       611 2.00527E+01 1.01426E-01 4.42233E-06 1.20734E-01-5.06523E-14-1.68802E-13
 -1       612 2.00182E+01 3.11870E-02-1.39662E-05 1.71388E-01-5.55082E-14-1.95030E-13
 -1       613 1.99963E+01-1.02604E-02-2.35150E-05 1.92147E-01-2.57162E-14-1.67199E-13
 -1       614 1.99841E+01-3.21594E-02-2.77596E-05 1.94523E-01-5.53170E-14-3.54709E-14
 -1       615 1.99789E+01-4.07911E-02-2.79526E-05 1.86766E-01-4.78106E-14 1.71478E-14
 -1       616 1.99786E+01-4.05663E-02-2.52225E-05 1.74666E-01-6.18911E-14-2.77251E-14
 -1       617 1.99818E+01-3.47016E-02-2.06668E-05 1.62179E-01-6.15614E-14-6.48678E-14
 -1       618 1.99878E+01-2.56946E-02-1.53319E-05 1.51873E-01 1.90414E-14-3.97574E-14
 -1       619 1.99961E+01-1.57041E-02-1.01674E-05 1.45205E-01 3.54311E-15-2.78182E-14
 -1       620 2.00071E+01-6.88758E-03-6.15180E-06 1.42661E-01-7.44328E-14 7.40447E-14
 -1       621 2.00215E+01-1.70854E-03-4.52758E-06 1.43741E-01-1.63722E-13 7.73740E-14
 -1       622 2.00409E+01-3.20659E-03-6.88400E-06 1.46829E-01-1.34276E-13 1.52797E-13
 -1       623 2.00677E+01-1.51694E-02-1.52892E-05 1.48916E-01-6.50424E-14 2.13135E-13
 -1       624 2.01050E+01-4.20879E-02-3.22052E-05 1.45244E-01-3.76524E-14 1.56097E-13
 -1       625 2.01569E+01-8.87033E-02-6.00673E-05 1.28909E-01-3.36557E-14 8.29278E-14
 -1       626 2.02276E+01-1.58869E-01-1.00159E-04 9.06098E-02 1.77064E-13-4.43628E-14
 -1       627 2.03207E+01-2.53411E-01-1.53102E-04 1.88243E-02 5.30442E-14-2.35245E-14
 -1       628 2.04369E+01-3.66754E-01-2.12172E-04-9.90461E-02-1.10018E-13-4.49756E-14
 -1       629 2.05705E+01-4.82602E-01-2.58815E-04-2.73738E-01 1.09544E-13-2.20435E-14
 -1       630 2.07063E+01-5.69971E-01-2.70148E-04-5.08457E-01 1.83063E-13-7.99808E-14
 -1       631 2.08162E+01-5.82691E-01-2.10732E-04-7.89955E-01 9.83234E-14-1.80271E-13
 -1       632 2.08626E+01-4.67603E-01-8.42846E-05-1.07780E+00 3.54853E-14-1.41853E-13
 -1       633 2.08108E+01-1.86416E-01 1.92894E-04-1.29826E+00 5.79168E-14 1.00929E-14
 -1       634 2.06510E+01 2.51455E-01 3.50945E-04-1.35347E+00 1.47437E-13 1.49109E-13
 -1       635 2.04222E+01 7.59363E-01 3.11931E-04-1.15542E+00 1.46928E-13 1.99864E-13
 -1       636 2.02137E+01 1.17946E+00 2.99188E-04-6.84486E-01 2.29569E-13 3.55871E-13
 -1       637 2.01260E+01 1.34798E+00 5.66308E-04-2.93971E-02-1.59440E-13 5.18823E-13
 -1       638 2.02029E+01 1.19609E+00 4.66716E-04 6.29567E-01-1.36733E-13 4.95156E-13
 -1       639 2.04039E+01 7.88568E-01 3.73788E-04 1.11563E+00-1.70997E-13 1.42489E-13
 -1       640 2.06340E+01 2.79891E-01 4.16540E-04 1.33118E+00-2.69984E-13-3.83829E-14
 -1       641 2.08003E+01-1.68836E-01 1.77779E-04 1.28828E+00-1.93540E-13-1.66461E-13
 -1       642 2.08590E+01-4.63558E-01-4.51335E-05 1.07168E+00-9.70009E-14-4.13769E-14
 -1       643 2.08170E+01-5.89209E-01-2.00558E-04 7.81276E-01-5.58026E-14-5.03509E-14
 -1       644 2.07085E+01-5.82016E-01-2.76931E-04 4.93876E-01-1.26316E-13-1.67455E-13
 -1       645 2.05718E+01-4.94702E-01-2.68497E-04 2.52637E-01 7.56892E-15-6.75535E-14
 -1       646 2.04354E+01-3.73598E-01-2.17108E-04 7.31001E-02 5.42376E-14-1.29138E-13
 -1       647 2.03153E+01-2.49780E-01-1.43798E-04-4.59001E-02 2.15881E-13-3.32589E-13
 -1       648 2.02172E+01-1.39605E-01-8.84984E-05-1.13261E-01 1.55560E-13-2.67772E-13
 -1       649 2.01409E+01-4.92700E-02-2.83484E-05-1.39697E-01 1.73556E-13 2.11786E-13
 -1       650 1.99727E+01 8.60247E-02 5.39281E-05-1.25668E-01 5.65438E-14-6.10915E-14
 -1       651 1.54142E+01-2.85656E+00 9.65815E-02 7.22760E+00-1.32915E-13-5.73194E-13
 -1       652 2.00244E+01 1.84285E-01 1.74177E-04-2.90883E-02 7.00602E-14-1.11134E-13
 -1       653 1.99288E+01-1.07463E-02-3.70759E-05-1.94895E-01 7.38166E-14 3.71465E-15
 -1       654 1.99268E+01-2.88622E-02-4.06977E-05-1.95641E-01-4.32207E-15 4.62576E-14
 -1       655 1.99322E+01-3.55017E-02-4.24927E-05-1.86750E-01 4.45918E-14 4.12294E-14
 -1       656 1.99426E+01-3.39217E-02-4.06907E-05-1.74291E-01 6.85928E-14-7.30502E-15
 -1       657 1.99561E+01-2.61782E-02-2.86363E-05-1.62642E-01 1.56847E-13-6.78966E-16
 -1       658 1.99723E+01-1.24705E-02-1.46643E-05-1.55066E-01 5.31001E-14 1.35128E-13
 -1       659 1.99890E+01 5.88937E-03 3.59337E-06-1.55292E-01 1.16225E-13 8.54871E-14
 -1       660 2.00063E+01 3.03496E-02 3.14881E-05-1.65634E-01-8.62902E-14 1.51731E-14
 -1       661 2.00232E+01 6.30568E-02 6.86546E-05-1.89331E-01-1.01807E-13 1.53364E-13
 -1       662 2.00379E+01 1.07498E-01 1.15417E-04-2.30375E-01-8.03383E-14 1.47349E-13
 -1       663 2.00467E+01 1.73008E-01 2.06255E-04-2.97980E-01-2.94684E-14 8.70548E-14
 -1       664 2.00411E+01 2.61908E-01 3.10072E-04-3.93052E-01 2.51644E-14 7.30319E-15
 -1       665 2.00090E+01 3.87814E-01 4.78359E-04-5.27020E-01-4.91154E-14 1.08526E-14
 -1       666 1.99278E+01 5.65293E-01 7.12276E-04-7.10815E-01 5.85355E-15-1.06600E-13
 -1       667 1.97604E+01 8.10191E-01 1.00017E-03-9.56533E-01 6.07114E-14-7.70064E-14
 -1       668 1.94493E+01 1.13352E+00 1.10633E-03-1.27669E+00-1.33417E-14-4.53902E-14
 -1       669 1.88738E+01 1.54534E+00 1.99680E-03-1.70345E+00 1.65704E-13-9.22593E-14
 -1       670 1.79696E+01 1.93549E+00 4.59884E-03-2.21253E+00-2.19608E-14-1.26653E-13
 -1       671 1.66072E+01 2.11803E+00 1.87301E-02-2.86802E+00-1.53926E-14-8.61308E-14
 -1       672 1.47841E+01 1.66136E+00 7.35430E-02-3.77010E+00-2.01605E-14-4.02612E-14
 -1       673 1.49058E+01-6.84169E-01 1.51756E-01-5.41820E+00 1.41869E-13 2.25722E-14
 -1       674 1.77537E+01 1.97731E+00 8.68855E-03 2.80812E+00-3.03092E-13-1.85012E-13
 -1       675 1.87300E+01 1.67759E+00 3.25219E-03 2.15793E+00-4.12224E-13-7.65885E-15
 -1       676 1.93606E+01 1.29118E+00 2.04102E-03 1.64298E+00-3.56763E-13-2.42125E-13
 -1       677 1.97398E+01 9.26570E-01 1.46615E-03 1.22018E+00 7.74361E-14-1.12572E-13
 -1       678 1.99285E+01 6.60775E-01 1.26973E-03 9.09563E-01 7.34887E-14 6.96473E-14
 -1       679 2.00194E+01 4.71996E-01 8.80704E-04 6.74386E-01-4.88473E-14-2.53280E-13
 -1       680 2.00656E+01 3.56410E-01 5.61318E-04 5.17848E-01 1.93810E-13-1.19919E-13
 -1       681 2.00999E+01 1.03961E-04 1.89397E-04-1.38878E-01 1.33509E-13-4.16091E-14
 -1       682 2.86697E+01 7.06526E+00-1.67770E-01 1.06767E+00-4.56253E-13-3.13301E-13
 -1       683 1.97799E+01 3.83162E-01-1.08109E-04-2.54378E-01-1.88871E-14 2.34097E-13
 -1       684 1.96459E+01 5.65595E-01-3.77937E-05 6.33327E-02-7.35382E-14-7.95998E-14
 -1       685 1.98938E+01 2.60635E-01-6.34538E-05-3.23251E-01-1.34328E-13 1.27788E-13
 -1       686 1.96852E+01 4.94204E-01-1.23044E-04-1.20714E-01-1.90758E-13-3.03935E-13
 -1       687 8.19521E+00 1.40176E+00 1.65756E-01-1.53509E+00-1.59883E-13 6.75293E-14
 -1       688 1.99953E+01 1.51767E-01-4.16395E-05-3.31720E-01-9.71325E-15-1.95402E-13
 -1       689 2.00688E+01 6.76525E-02 1.65640E-05-2.95662E-01 3.03769E-14-4.33386E-13
 -1       690 2.01065E+01 1.54871E-02 1.09471E-04-2.35064E-01 2.71981E-13-3.05487E-13
 -1       691 1.02760E+01 1.22981E+00 1.50790E-01 3.22532E+00 7.01245E-14 3.85109E-14
 -1       692 2.84320E+01 7.09879E+00-1.61683E-01-1.00963E+00-3.18447E-13-1.50482E-13
 -1       693 2.89470E+01 3.54446E+00-1.37152E-01-2.14232E+00-8.04530E-14-1.65472E-13
 -1       694 1.99427E+01 2.55178E-02 7.80976E-06-1.75341E-01 2.31675E-14-2.23992E-14
 -1       695 2.02900E+01 1.12609E+00 8.75198E-04-7.62545E-01-9.04797E-14-1.61068E-13
 -1       696 2.22431E+01-4.73637E+00 5.07476E-02-6.03731E+00-7.02285E-14 2.73366E-13
 -1       697 9.38298E+00-4.64904E-03 1.65330E-01 4.90618E+00 1.70173E-13-5.24664E-13
 -1       698 2.00250E+01 2.29559E+00-1.64835E-03 6.37490E-01 1.01640E-13-1.62415E-13
 -1       699 2.00174E+01 2.30870E+00-1.85353E-03-6.28381E-01-2.67164E-14-1.84564E-13
 -1       700 2.16226E+01-4.65669E+00 4.44629E-02 6.29999E+00-7.88293E-14-6.94254E-14
 -1       701 1.64782E+01 1.76329E+00 4.52728E-02 3.58985E+00-1.08483E-13-8.25334E-14
 -1       702 1.46782E+01-2.43030E+00 1.23492E-01-7.08551E+00 1.10485E-13 5.29705E-13
 -1       703 7.31961E+00 1.07391E+00 1.67772E-01 1.43738E+00 1.63505E-13-2.46636E-13
 -1       704 2.72681E+01-4.19235E+00-1.16688E-02 2.73377E+00-2.37197E-13 2.82344E-13
 -1       705 2.94234E+01-1.04178E+00-8.37572E-02-5.15560E-01-1.76848E-13 2.04971E-13
 -1       706 2.91519E+01 4.25162E+00-1.33748E-01 2.06629E+00-3.33678E-13-5.83828E-13
 -1       707 2.91985E+01-5.84267E-01-8.66339E-02 9.94017E-01 2.84260E-13-5.37900E-13
 -1       708 2.73802E+01-4.09305E+00-2.32028E-02-2.42434E+00 3.28044E-13-2.45547E-13
 -1       709 9.78680E+00-1.38205E-01 1.50631E-01-5.19245E+00-3.90202E-13 1.79176E-13
 -1       710 2.01090E+01 2.06848E+00-2.25875E-03-8.44848E-01-8.31354E-14-1.94249E-13
 -1       711 1.99276E+01 2.52776E+00-1.63400E-03-1.25616E-01 1.95243E-14-2.31915E-13
 -1       712 2.02031E+01 6.06867E-01 1.12938E-03 4.11396E-01 6.99975E-14-8.59871E-14
 -1       713 1.99564E+01 2.45769E+00-1.82959E-03-3.82780E-01 4.09149E-15-2.16396E-13
 -1       714 1.36378E+01-7.70115E-01 7.96235E-02 5.79836E+00-4.68289E-14-6.92633E-13
 -1       715 9.38870E+00 1.63049E+00 1.33809E-01-1.27886E+00 4.34184E-14-2.15883E-13
 -1       716 1.96876E+01 5.70393E-01-2.96038E-04 2.55626E-01-3.68214E-14 1.50751E-13
 -1       717 1.98279E+01 5.02475E-01 8.16322E-04 4.20487E-01 3.32465E-13-3.03322E-13
 -1       718 2.01023E+01 3.45916E-01 5.67525E-04 1.40120E-01 5.59764E-14-8.38947E-14
 -1       719 2.01311E+01-2.64059E-02 1.61302E-04-1.90214E-01-2.33308E-14-5.57599E-13
 -1       720 2.02559E+01 1.60431E+00-8.08565E-04-9.94211E-01-9.11274E-14-1.94576E-13
 -1       721 2.02667E+01 1.30432E+00-2.44696E-04 6.28356E-01 1.10931E-13-1.37435E-13
 -1       722 2.57771E+01 6.13254E+00-9.28634E-02 9.80609E-02-2.51955E-13-5.37899E-13
 -1       723 2.02630E+01 4.35241E-01 2.90461E-05-9.14735E-02-6.21518E-14-1.42372E-13
 -1       724 2.02224E+01 2.38003E-01-2.10839E-05 3.86791E-02-7.55632E-14-1.20353E-13
 -1       725 2.01808E+01 1.09379E-01-1.38427E-05 1.17514E-01-6.74282E-14-1.81732E-13
 -1       726 2.01430E+01 2.86455E-02-1.06562E-05 1.59365E-01-2.62061E-15-1.36409E-13
 -1       727 2.01107E+01-1.86146E-02-9.45299E-06 1.76537E-01 3.14871E-14-1.66649E-13
 -1       728 2.00842E+01-4.25842E-02-8.62779E-06 1.78515E-01-1.92267E-14-9.88132E-14
 -1       729 2.00628E+01-5.05456E-02-7.52498E-06 1.72334E-01-3.78660E-14-2.86805E-14
 -1       730 2.00460E+01-4.78028E-02-6.01212E-06 1.63060E-01-2.57521E-14 3.90241E-14
 -1       731 2.00331E+01-3.83502E-02-4.33171E-06 1.54235E-01-5.65938E-14 1.17482E-16
 -1       732 2.00238E+01-2.54089E-02-2.87538E-06 1.48230E-01-2.88186E-14-8.80932E-14
 -1       733 2.00180E+01-1.19048E-02-1.71344E-06 1.46470E-01-1.14201E-14-1.45269E-13
 -1       734 2.00166E+01-9.02544E-04-9.81888E-07 1.49546E-01-5.63939E-14-3.09854E-14
 -1       735 2.00210E+01 3.98345E-03-8.34012E-07 1.57189E-01-1.34455E-13 1.06291E-13
 -1       736 2.00341E+01-1.77204E-03-1.88552E-06 1.68105E-01-7.85287E-14 7.81806E-14
 -1       737 2.00604E+01-2.38077E-02-5.11855E-06 1.79621E-01 3.90895E-15 1.01047E-13
 -1       738 2.01061E+01-6.87442E-02-1.18326E-05 1.87156E-01-4.63757E-14 1.59971E-13
 -1       739 2.01795E+01-1.43429E-01-2.32045E-05 1.83527E-01-3.56103E-14 1.64595E-13
 -1       740 2.02903E+01-2.53123E-01-3.87841E-05 1.58171E-01 1.10224E-13-2.80405E-14
 -1       741 2.04475E+01-3.98095E-01-6.60118E-05 9.66142E-02-2.34181E-14-2.17584E-14
 -1       742 2.06562E+01-5.68156E-01-9.77661E-05-1.90292E-02-2.54009E-14 1.11464E-13
 -1       743 2.09113E+01-7.35553E-01-1.02886E-04-2.07054E-01-5.65807E-15-1.02052E-13
 -1       744 2.11900E+01-8.48197E-01-8.46858E-05-4.78518E-01 1.86242E-13-1.58655E-13
 -1       745 2.14457E+01-8.28890E-01-4.33040E-05-8.22622E-01 1.43097E-13-3.87808E-14
 -1       746 2.16109E+01-5.90753E-01-1.33285E-04-1.18562E+00 1.87150E-13 1.93284E-13
 -1       747 2.16238E+01-8.21919E-02 1.13707E-04-1.45744E+00 1.31318E-13 3.89614E-13
 -1       748 2.14654E+01 6.56175E-01 7.40123E-05-1.48828E+00 1.37306E-13 4.52274E-13
 -1       749 2.12119E+01 1.42776E+00-5.57798E-04-1.15017E+00 1.04440E-13 4.51068E-13
 -1       750 2.10125E+01 1.94656E+00 5.39827E-04-4.55785E-01 6.10026E-15-3.30776E-14
 -1       751 2.10037E+01 1.96011E+00 3.31133E-04 3.88355E-01-1.56175E-13 1.14581E-13
 -1       752 2.11933E+01 1.47162E+00-1.01384E-03 1.09496E+00-3.77854E-13 9.10302E-14
 -1       753 2.14518E+01 7.03433E-01-3.34946E-05 1.46177E+00-3.30697E-13 1.27992E-13
 -1       754 2.16223E+01-4.62257E-02 8.59823E-05 1.45196E+00-2.85520E-13-1.69595E-14
 -1       755 2.16245E+01-5.78034E-01 5.48450E-05 1.18678E+00-4.53122E-14 2.94061E-14
 -1       756 2.14684E+01-8.34246E-01-1.35385E-05 8.20890E-01 6.91434E-14 2.13426E-13
 -1       757 2.12177E+01-8.64584E-01-1.25366E-04 4.69024E-01-1.81433E-14 3.30715E-13
 -1       758 2.09399E+01-7.54877E-01-1.45576E-04 1.88568E-01-1.07029E-13 1.87411E-13
 -1       759 2.06834E+01-5.83067E-01-1.01444E-04-6.96637E-03-2.61383E-14-1.87789E-13
 -1       760 2.04717E+01-4.01865E-01-1.02802E-04-1.26997E-01 5.42559E-14-2.66164E-13
 -1       761 2.03099E+01-2.38379E-01 6.32273E-06-1.86772E-01 2.87777E-13-1.98249E-13
 -1       762 2.02056E+01-1.19444E-01 5.01922E-05-1.97655E-01 3.06779E-13-2.98958E-13
 -1       763 2.02806E+01 1.17117E+00 5.99065E-04-5.65867E-01-9.10252E-14-1.83774E-13
 -1       764 1.30503E+01 2.52010E+00 4.54004E-02 1.35776E+00-9.02767E-14 9.49657E-14
 -1       765 2.00437E+01-3.89722E-02-1.15669E-05-1.87000E-01 4.58229E-14-4.47795E-15
 -1       766 2.00629E+01-1.78495E-02-6.52985E-06-1.85697E-01-1.87102E-14 1.16518E-14
 -1       767 2.00216E+01-3.98796E-02-5.70554E-06-1.70674E-01 1.10720E-13 3.57608E-14
 -1       768 2.00155E+01-2.53637E-02-9.60532E-06-1.62395E-01 4.33607E-14 5.44680E-14
 -1       769 2.00112E+01-3.68236E-03-2.26541E-06-1.59474E-01 6.53023E-14 3.57874E-14
 -1       770 2.00065E+01 2.57612E-02 3.74585E-06-1.63983E-01 3.92323E-14 1.05716E-13
 -1       771 1.99990E+01 6.46966E-02 1.19321E-05-1.78352E-01-1.06289E-13-1.28682E-14
 -1       772 1.99847E+01 1.16238E-01 1.59961E-05-2.04979E-01-1.30336E-13-5.74767E-14
 -1       773 1.99555E+01 1.89596E-01 4.24683E-05-2.48801E-01-1.72435E-14-1.62477E-13
 -1       774 1.99035E+01 2.85675E-01 5.23898E-05-3.08302E-01 1.32699E-13-1.97349E-13
 -1       775 1.98117E+01 4.17391E-01 7.74344E-05-3.87161E-01-2.66331E-14-2.00258E-13
 -1       776 1.96544E+01 5.97732E-01 1.08521E-04-4.86052E-01 1.49375E-14-1.95947E-13
 -1       777 1.93917E+01 8.41017E-01 1.35881E-04-6.02543E-01 1.07449E-14-9.05721E-14
 -1       778 1.89643E+01 1.15901E+00-5.14035E-05-7.29571E-01 2.37066E-14-5.81736E-14
 -1       779 1.82405E+01 1.57261E+00 2.56743E-04-8.55799E-01 8.94411E-15 5.35541E-14
 -1       780 1.71522E+01 2.01026E+00 1.46603E-03-9.47590E-01 7.61170E-14 1.27597E-13
 -1       781 1.54961E+01 2.38679E+00 1.04896E-02-9.99556E-01-5.28724E-14 8.99457E-14
 -1       782 1.29890E+01 2.50715E+00 5.66690E-02-1.06532E+00-3.41016E-14-9.31026E-14
 -1       783 1.78453E+01 1.78329E+00-3.57514E-05 1.11810E+00-2.15914E-13-2.11852E-13
 -1       784 1.87413E+01 1.33812E+00-9.58597E-04 9.47688E-01-2.07844E-13-1.84227E-13
 -1       785 2.71231E+01-2.45789E+00-2.06887E-02-4.59630E-02 2.76533E-13-4.55608E-13
 -1       786 2.00304E+01-4.49595E-02-1.10951E-05-1.80146E-01 1.14943E-13 3.63356E-14
 -1       787 1.65404E+01 2.19755E+00-2.94022E-03 1.27145E+00-3.37444E-13 1.44064E-13
 -1       788 1.92758E+01 9.89106E-01-1.76484E-04 7.87364E-01 5.97977E-14-2.32327E-13
 -1       789 1.96030E+01 7.28359E-01 1.32016E-04 6.33495E-01 7.31414E-14-4.95197E-13
 -1       790 1.97283E+01 5.98701E-01-1.32671E-03 5.25431E-01-1.40897E-13-4.28434E-13
 -1       791 1.92816E+01-2.96869E+00 4.97782E-02 5.87026E+00-5.92928E-15-1.19091E-13
 -1       792 2.72027E+01 1.55366E+00-7.92023E-02 2.06487E+00 5.42587E-14-9.35719E-13
 -1       793 2.01398E+01 1.89038E+00-3.12778E-04 1.98786E-01 4.68110E-14-2.10364E-13
 -1       794 2.02238E+01 1.59006E+00-3.19130E-04-7.19136E-01-8.23876E-14-2.19856E-13
 -1       795 2.66280E+01 4.98609E+00-9.06385E-02 1.76569E+00-8.22224E-14-8.77964E-13
 -1       796 1.97786E+01 2.71830E-01 7.42379E-06-4.25217E-01-2.49778E-13-5.24096E-14
 -1       797 2.01590E+01-6.75722E-02 6.89935E-05-3.10356E-01-2.99970E-14-2.12982E-13
 -1       798 1.99493E+01 1.17482E-01-2.69937E-05-4.44393E-01-2.06471E-13 1.23871E-13
 -1       799 2.00902E+01 2.61096E-02-1.12352E-05-1.67905E-01-1.37756E-16-4.49031E-14
 -1       800 2.01255E+01 1.00317E-01-4.75450E-06-1.24038E-01 1.00081E-14-3.84624E-14
 -1       801 2.02779E+01 9.37623E-01 2.08842E-04 5.47735E-01 1.06182E-13-7.40554E-14
 -1       802 2.00839E+01-5.46104E-04 5.50336E-06-3.96090E-01-3.67677E-14-3.92117E-13
 -1       803 2.76376E+01 7.06620E-01-5.92341E-02-1.80236E+00 6.97706E-15 6.90125E-14
 -1       804 2.01694E+01 2.19136E-01 9.37722E-06-4.02398E-02 2.21961E-14-6.13718E-14
 -1       805 2.02896E+01 7.27834E-01-7.32698E-04-2.90013E-01-6.94845E-14-1.39659E-13
 -1       806 1.03608E+01 1.58878E+00 1.16948E-01 2.61342E+00 7.36867E-14-2.97748E-13
 -1       807 2.61220E+01 4.62379E+00-9.30630E-02-1.77539E+00-1.13007E-13-3.14820E-13
 -1       808 2.72254E+01-2.66549E+00-2.64412E-02 2.52624E-01-9.59445E-14 3.38061E-13
 -1       809 2.46491E+01-4.16888E+00 6.45354E-03-3.39553E+00 1.07088E-13-5.99210E-13
 -1       810 2.44309E+01-4.20240E+00 9.06783E-03 3.64331E+00-1.73906E-14 2.70992E-13
 -1       811 1.92655E+01-2.96817E+00 3.58801E-02-5.78400E+00 4.55469E-14 2.62953E-13
 -1       812 2.01286E+01 1.92861E+00-1.17147E-04 3.08754E-03 2.48205E-14-2.18150E-13
 -1       813 1.21322E+01 1.98940E+00 6.80701E-02-1.87345E+00-2.23291E-13 2.42049E-13
 -1       814 1.54255E+01-8.36803E-01 5.58754E-02-5.44218E+00-1.80068E-13 3.18247E-13
 -1       815 2.61811E+01-6.70122E-01-2.35894E-02 1.41844E+00 2.35989E-13-6.11199E-13
 -1       816 1.94439E+01 6.88377E-01-1.16981E-04 1.41058E-01-5.21349E-14 6.65491E-14
 -1       817 1.94706E+01 5.96630E-01-4.24657E-04-1.20017E-01-2.72523E-13-1.23113E-13
 -1       818 1.96006E+01 4.44276E-01-3.01481E-04-3.17959E-01-1.01515E-13-5.88706E-14
 -1       819 2.02183E+01 4.08050E-01 3.47654E-05 1.02439E-01 4.07567E-14-1.28631E-13
 -1       820 2.02203E+01 1.58313E+00-2.02487E-04 5.33556E-01 8.92720E-14-1.43030E-13
 -1       821 1.31751E+01 8.04125E-01 4.97739E-02 3.93992E+00-5.44703E-15-7.75172E-13
 -1       822 2.01721E+01 1.77675E+00-3.34601E-04 3.81077E-01 6.65351E-14-1.57030E-13
 -1       823 2.56939E+01 2.33844E+00-2.86783E-02-2.13952E+00 2.84859E-14-3.31436E-13
 -1       824 2.01525E+01 1.85328E+00-5.71844E-04-5.72795E-01-4.64535E-14-1.26099E-13
 -1       825 2.00991E+01 2.02614E+00-6.46543E-04-3.83986E-01 7.06237E-15-1.79778E-13
 -1       826 2.01898E+01-1.02506E-01-4.28757E-04-2.56049E-01-2.04829E-14-3.96726E-13
 -1       827 2.01043E+01 2.00616E+00-1.44165E-04-1.83231E-01 1.12243E-14-2.23929E-13
 -1       828 2.03041E+01 2.33476E-01-1.31498E-05 5.08285E-02-7.16857E-14-1.18866E-13
 -1       829 2.02671E+01 1.00698E-01-9.48181E-06 1.08243E-01-3.58379E-14-1.26094E-13
 -1       830 2.02267E+01 1.76434E-02-6.84375E-06 1.38407E-01-2.22325E-14-1.54793E-13
 -1       831 2.01870E+01-2.97790E-02-4.97235E-06 1.50339E-01 3.48958E-15-2.05093E-13
 -1       832 2.01500E+01-5.20235E-02-3.72236E-06 1.51264E-01 1.57664E-16-1.76641E-13
 -1       833 2.01167E+01-5.68355E-02-2.39362E-06 1.46692E-01 1.51849E-14-1.29959E-13
 -1       834 2.00872E+01-5.00098E-02-9.67760E-07 1.40705E-01-5.85979E-14-1.20413E-13
 -1       835 2.00616E+01-3.60149E-02-9.61783E-08 1.36282E-01-6.81796E-14-1.44199E-13
 -1       836 2.00398E+01-1.85903E-02-4.43829E-07 1.35589E-01 5.97097E-15-1.22541E-13
 -1       837 2.00223E+01-1.29397E-03-1.42561E-06 1.40156E-01 1.40722E-14-4.50445E-14
 -1       838 2.00101E+01 1.19917E-02-1.88457E-06 1.50996E-01-3.39986E-14-7.89260E-14
 -1       839 2.00058E+01 1.65176E-02-2.14188E-06 1.68588E-01-1.04947E-13 1.09267E-13
 -1       840 2.00138E+01 6.19835E-03-2.93708E-06 1.92668E-01 1.06628E-14 1.20964E-13
 -1       841 2.00409E+01-2.66558E-02-5.06300E-06 2.21768E-01-8.84572E-14 5.92891E-14
 -1       842 2.00972E+01-9.11941E-02-9.49593E-06 2.52410E-01-3.82420E-14-1.14896E-13
 -1       843 2.01961E+01-1.97057E-01-1.51375E-05 2.77838E-01-1.57967E-14 8.93627E-16
 -1       844 2.03541E+01-3.51932E-01-1.40885E-05 2.86213E-01 3.75432E-14-5.80152E-14
 -1       845 2.05880E+01-5.56647E-01-4.34603E-05 2.58551E-01 8.35697E-14-7.40761E-14
 -1       846 2.09099E+01-7.96629E-01-7.15533E-05 1.67659E-01-9.66185E-14-2.50182E-14
 -1       847 2.13173E+01-1.03060E+00-4.90075E-06-1.97108E-02 1.50984E-14-6.67750E-14
 -1       848 2.17784E+01-1.17681E+00 7.88720E-05-3.32162E-01 2.62054E-13-1.43861E-13
 -1       849 2.22200E+01-1.11090E+00 8.17297E-06-7.70214E-01 3.10317E-13 2.17540E-14
 -1       850 2.25188E+01-6.84337E-01-1.57971E-03-1.25911E+00 2.74285E-13-4.93169E-14
 -1       851 2.25911E+01 1.48677E-01-2.61585E-03-1.62403E+00 1.80612E-13-6.56252E-14
 -1       852 2.23741E+01 1.32036E+00 2.09866E-03-1.59426E+00 1.33340E-13-3.79215E-14
 -1       853 2.21028E+01 2.37012E+00 6.50187E-04-1.06124E+00-2.65745E-13-1.15212E-13
 -1       854 2.18759E+01 2.87955E+00-7.76291E-03-2.10609E-02 4.85808E-14-1.28895E-13
 -1       855 2.19990E+01 2.44474E+00-6.57199E-03 9.78158E-01-1.98659E-13-1.63886E-13
 -1       856 2.23466E+01 1.39689E+00 1.28307E-03 1.57627E+00-2.35511E-13 7.11405E-14
 -1       857 2.25939E+01 2.16496E-01 4.71289E-03 1.61910E+00-3.61809E-13 2.31244E-13
 -1       858 2.25523E+01-6.61881E-01-6.91148E-04 1.27175E+00-7.45236E-14 4.55248E-13
 -1       859 2.22612E+01-1.11085E+00-5.47369E-05 7.79764E-01 1.14931E-15 3.03798E-13
 -1       860 2.18301E+01-1.19799E+00-1.97375E-04 3.31534E-01-6.19733E-14-5.42459E-15
 -1       861 2.13710E+01-1.05847E+00-2.20150E-04 6.21987E-03-1.44359E-13-3.67769E-14
 -1       862 2.09625E+01-8.21874E-01-1.27399E-04-1.91795E-01-3.36613E-14-6.56579E-14
 -1       863 2.06378E+01-5.70928E-01-1.11427E-04-2.89282E-01 1.52092E-13 2.41846E-13
 -1       864 2.03997E+01-3.45470E-01 1.70337E-04-3.20143E-01 1.78950E-13 2.13198E-13
 -1       865 1.56121E+01 2.13228E+00 6.06152E-03-4.46446E-01-2.73868E-13 1.89913E-13
 -1       866 2.03371E+01 7.25279E-01 5.09968E-05-1.87348E-01-6.72286E-14-1.13889E-13
 -1       867 2.00477E+01-1.79402E-02 3.26138E-06-1.48475E-01 5.34051E-14-3.79461E-14
 -1       868 2.00714E+01-4.02566E-02-7.62070E-06-1.53446E-01 7.25881E-14 1.77218E-14
 -1       869 1.99990E+01 5.41279E-02 1.13175E-06-1.53714E-01-2.98432E-14 3.57503E-14
 -1       870 1.99654E+01 1.07396E-01-8.12823E-06-1.66338E-01-8.52747E-14 6.62678E-15
 -1       871 1.99148E+01 1.80594E-01 9.20668E-06-1.87349E-01-6.50927E-14-5.23771E-14
 -1       872 1.98418E+01 2.72654E-01-1.03626E-06-2.13914E-01 8.68565E-14-8.85761E-14
 -1       873 1.97296E+01 3.93909E-01-6.96314E-06-2.43786E-01 6.84808E-14-6.49643E-15
 -1       874 1.95565E+01 5.53468E-01-1.53249E-05-2.70584E-01-2.03384E-14-8.75713E-14
 -1       875 1.92901E+01 7.60688E-01-3.60469E-05-2.82129E-01-1.73402E-14-1.01920E-13
 -1       876 1.88849E+01 1.02219E+00-2.08873E-04-2.58101E-01-9.40963E-15-1.30240E-13
 -1       877 1.82380E+01 1.35220E+00-1.28616E-04-1.55687E-01-3.97721E-14-1.34913E-13
 -1       878 1.73131E+01 1.69483E+00 2.84997E-04 6.90904E-02-3.10250E-14-1.22418E-13
 -1       879 1.59586E+01 2.00030E+00 5.44813E-03 4.90656E-01 2.85071E-14-1.70281E-13
 -1       880 1.39501E+01 2.15202E+00 2.54616E-02 1.19014E+00 5.10523E-14-2.57083E-13
 -1       881 2.00959E+01-5.06079E-02-1.10065E-08-1.60138E-01 1.04987E-13-2.44003E-14
 -1       882 1.48515E+01 8.86082E-01 1.21025E-02-3.35259E+00-1.30853E-13 1.28571E-13
 -1       883 1.91713E+01 9.18431E-01 1.85699E-03 3.75795E-01 2.07566E-13-1.75100E-13
 -1       884 2.02813E+01 1.22867E+00 6.51608E-04-4.64254E-01-6.43295E-14-1.59006E-13
 -1       885 2.19181E+01-3.07991E+00 8.63034E-04 3.90495E+00 1.62381E-13 2.79177E-13
 -1       886 1.85536E+01-1.50844E+00 2.11878E-02-4.59527E+00 5.23357E-14-4.38426E-14
 -1       887 1.71152E+01 1.77272E+00 2.39530E-03-2.80635E-02 5.22943E-15 1.59851E-13
 -1       888 2.02481E+01 6.29547E-01 1.47773E-05 2.86786E-01 5.74908E-14-1.09117E-13
 -1       889 2.50911E+01-3.04387E+00 6.32252E-03-1.10209E+00 1.59836E-13-2.43367E-13
 -1       890 2.43020E+01 4.72489E+00-4.00054E-02-8.41189E-01-1.17718E-13-6.51731E-13
 -1       891 2.50833E+01 2.83895E+00-4.27644E-02 1.99139E+00-8.49321E-14-6.47424E-13
 -1       892 1.98667E+01 9.21182E-02 2.48982E-04-6.03856E-01-3.43050E-13-3.47549E-14
 -1       893 2.01911E+01 1.78275E-02-1.10253E-05-1.51269E-01-4.40947E-15-9.15328E-14
 -1       894 2.02295E+01 9.70883E-02-1.04051E-05-1.17785E-01-1.80159E-14-7.00778E-14
 -1       895 2.01235E+01-4.78824E-02-3.04795E-07-1.65320E-01 4.45674E-14-6.93113E-14
 -1       896 2.00250E+01 1.30242E-02-1.13939E-06-1.48103E-01 3.56125E-14 2.12211E-14
 -1       897 1.81651E+01 1.41288E+00 1.83478E-03 2.15741E-01-4.42447E-14-4.58192E-13
 -1       898 1.87394E+01 1.15285E+00 1.96352E-03 3.26675E-01 3.79479E-14-5.18428E-13
 -1       899 2.02679E+01 2.24105E-01 1.12287E-05-5.39278E-02-1.25099E-15-1.11986E-13
 -1       900 2.60643E+01-9.79362E-01-2.57486E-02-1.29387E+00-3.34160E-14-8.38322E-14
 -1       901 2.51779E+01-3.21578E+00-6.66361E-03 1.28653E+00-1.67403E-14 3.59889E-13
 -1       902 1.68623E+01-9.36088E-01 4.27728E-02 4.91234E+00 7.35525E-14-1.99274E-13
 -1       903 2.44030E+01 4.45059E+00-5.20424E-02 1.06439E+00-1.10351E-13-6.26409E-13
 -1       904 2.01551E+01-2.75482E-02 3.17256E-06-1.64510E-01-1.74021E-14-7.82049E-14
 -1       905 2.03301E+01 4.34857E-01-2.40747E-05-4.46493E-02-5.68401E-14-1.17887E-13
 -1       906 2.20420E+01-3.10766E+00 8.69985E-03-3.84487E+00 1.37665E-13-5.43443E-13
 -1       907 2.02783E+01-2.10313E-01-2.17900E-06-2.88141E-01 2.42210E-14-1.30888E-13
 -1       908 1.90910E+01 8.25816E-01 2.18953E-04-7.22467E-02-1.22143E-13-4.64703E-13
 -1       909 2.49777E+01-1.95278E+00-6.36293E-03 4.22504E-01-5.26005E-14-3.64613E-13
 -1       910 2.03006E+01 4.19310E-01-3.18716E-04 5.61620E-02-6.58409E-15-7.33679E-14
 -1       911 2.39817E+01 3.25196E+00-2.38992E-02-1.60758E+00-9.72902E-14-5.36222E-13
 -1       912 1.95934E+01 3.21520E-01 6.58845E-04-5.65030E-01-2.93743E-13-1.07403E-13
 -1       913 2.00900E+01-8.01475E-02 4.98215E-04-5.40993E-01-3.71642E-13-1.39029E-14
 -1       914 2.02759E+01 1.40872E+00-4.88552E-05 6.96207E-02 1.36495E-14-2.02102E-13
 -1       915 2.03053E+01 1.00303E+00 4.67016E-04 3.64461E-01 7.24879E-14-1.24366E-13
 -1       916 1.97147E+01-1.70946E+00 1.28597E-02 3.96787E+00 1.54816E-13 3.02298E-13
 -1       917 2.47373E+01 8.26511E-01-1.33096E-02 1.92218E+00 1.06284E-13-5.47627E-13
 -1       918 2.02891E+01 8.15444E-01 2.11097E-04 3.35999E-01 8.71000E-14-8.65050E-14
 -1       919 2.02860E+01 1.33960E+00-1.46145E-04 1.96603E-01 3.15993E-14-1.79621E-13
 -1       920 2.02747E+01 1.35019E+00 3.84061E-04-3.38307E-01-2.22114E-14-9.63487E-14
 -1       921 2.02271E+01-1.76481E-01-3.21133E-04-3.99747E-01-2.36761E-13-2.22522E-13
 -1       922 2.03341E+01 2.06438E-01-2.86223E-05-5.95498E-02-2.46501E-15-1.66315E-13
 -1       923 1.65555E+01 1.13548E+00 1.17662E-02-2.06020E+00-9.90811E-14-2.97536E-13
 -1       924 2.02742E+01 1.38764E+00-8.91993E-06-2.07680E-01-1.11986E-14-1.69689E-13
 -1       925 2.03210E+01 7.86279E-02-5.72764E-06 9.03846E-02-2.54107E-14-1.24466E-13
 -1       926 2.02771E+01 5.58169E-04-3.37046E-06 1.08922E-01-6.91659E-15-1.34234E-13
 -1       927 2.02313E+01-4.19063E-02-1.91671E-06 1.15707E-01-6.25216E-15-1.46142E-13
 -1       928 2.01865E+01-5.90048E-02-8.94281E-07 1.15770E-01 3.26076E-14-9.02507E-14
 -1       929 2.01443E+01-5.84720E-02 1.12511E-06 1.13072E-01 2.01475E-15-9.66361E-14
 -1       930 2.01053E+01-4.61931E-02 2.04337E-06 1.10676E-01-2.18951E-14-4.13089E-14
 -1       931 2.00696E+01-2.67310E-02 1.94199E-06 1.11060E-01-3.21071E-15 3.81487E-15
 -1       932 2.00375E+01-4.09488E-03-1.49470E-06 1.16311E-01-3.10467E-14-3.17032E-14
 -1       933 2.00094E+01 1.77974E-02-3.09761E-06 1.28319E-01-6.38216E-14-7.89645E-14
 -1       934 1.99869E+01 3.44801E-02-2.66910E-06 1.48986E-01 2.26382E-14-1.09272E-13
 -1       935 1.99731E+01 4.02120E-02-1.31664E-06 1.80195E-01 7.01468E-14 9.28534E-14
 -1       936 1.99738E+01 2.73919E-02 5.70982E-07 2.23588E-01-9.14686E-14 1.43702E-13
 -1       937 1.99984E+01-1.39014E-02 3.00719E-06 2.80016E-01-9.28794E-14 1.20125E-13
 -1       938 2.00608E+01-9.59622E-02 4.96775E-06 3.48346E-01-1.87057E-15 1.33620E-13
 -1       939 2.01808E+01-2.32549E-01 1.77249E-05 4.23384E-01-3.16623E-14 1.05506E-13
 -1       940 2.03840E+01-4.36174E-01 8.08991E-05 4.92371E-01 5.86280E-14 8.46293E-14
 -1       941 2.06992E+01-7.11464E-01-2.62496E-05 5.29994E-01-5.54610E-14 6.50082E-14
 -1       942 2.11521E+01-1.04202E+00-9.08168E-05 4.95607E-01 4.29312E-14 8.29632E-14
 -1       943 2.17502E+01-1.37236E+00 2.77465E-04 3.28006E-01 6.88818E-14 1.34807E-13
 -1       944 2.24550E+01-1.58016E+00 3.10275E-04-3.01252E-02 2.27897E-13-1.46106E-13
 -1       945 2.31687E+01-1.47712E+00-1.18282E-03-6.20591E-01 2.03203E-13-3.17795E-13
 -1       946 2.36332E+01-7.06656E-01-5.46642E-04-1.31326E+00 1.48789E-13-3.88117E-13
 -1       947 2.37898E+01 5.87209E-01-1.29001E-02-1.89821E+00 2.02089E-13-5.80010E-13
 -1       948 2.30670E+01 3.78075E+00-3.15309E-02 6.50740E-01-1.51300E-13-5.24007E-13
 -1       949 2.36546E+01-7.10183E-01-1.88968E-03 1.35308E+00-1.86440E-13-6.34299E-14
 -1       950 2.32164E+01-1.45028E+00-9.67621E-04 6.51339E-01-6.38457E-14-2.40209E-14
 -1       951 2.25321E+01-1.60837E+00-1.48647E-03 5.02756E-02-1.49098E-13-7.93280E-14
 -1       952 2.18285E+01-1.41067E+00-2.92839E-04-3.35810E-01-7.48778E-14 8.59258E-14
 -1       953 2.12269E+01-1.07989E+00-2.74704E-04-5.16555E-01-1.04557E-13 3.58997E-13
 -1       954 2.07702E+01-7.37711E-01 3.26334E-05-5.61533E-01 2.76886E-13 4.35881E-13
 -1       955 2.04503E+01-4.43829E-01 1.55159E-04-5.32974E-01-9.79404E-14 2.09214E-13
 -1       956 1.77781E+01 1.28301E+00 9.50470E-04-6.71666E-01 3.39186E-13-4.99671E-13
 -1       957 2.46469E+01-1.94187E+00-7.46898E-04-4.41384E-01 1.31181E-13-1.14644E-13
 -1       958 1.99144E+01 1.51725E-01 5.19330E-06-1.26020E-01-1.39908E-14-2.81551E-14
 -1       959 1.99716E+01 8.73379E-02 5.40224E-06-1.22591E-01-1.25893E-15 4.60415E-14
 -1       960 1.97264E+01 3.37000E-01-1.40229E-06-1.22847E-01 5.10870E-14-9.55718E-14
 -1       961 1.95710E+01 4.64411E-01-5.50600E-08-1.00760E-01 2.59391E-14-7.80580E-14
 -1       962 1.93481E+01 6.20623E-01-2.56093E-06-4.56541E-02 9.72637E-14-4.88461E-14
 -1       963 1.90300E+01 8.04996E-01-1.04925E-04 6.75866E-02 4.81800E-14-1.55223E-13
 -1       964 1.85549E+01 1.01891E+00 5.43613E-05 2.92942E-01-2.72615E-14-2.00802E-13
 -1       965 1.79221E+01 1.21205E+00 1.58289E-04 6.68827E-01 2.12595E-14-1.61232E-13
 -1       966 1.70680E+01 1.33279E+00 2.47326E-03 1.28399E+00 1.15739E-13-1.61505E-13
 -1       967 1.59143E+01 1.25627E+00 8.11181E-03 2.25992E+00 2.65778E-13-4.67891E-13
 -1       968 2.01325E+01-5.18194E-02 1.48330E-05-1.29539E-01 1.74408E-14-5.28298E-14
 -1       969 1.84659E+01-4.41288E-01 5.65699E-03-3.20975E+00 4.49772E-13-3.88223E-13
 -1       970 1.71889E+01 1.28148E+00 1.23572E-03-1.25558E+00 6.67939E-14-4.74442E-13
 -1       971 2.06336E+01-1.79407E+00-1.29498E-04-3.16980E+00 1.99449E-13-3.16749E-13
 -1       972 1.92889E+01 5.90155E-01 1.20439E-03-4.04044E-01-2.75320E-13-2.21574E-13
 -1       973 2.02976E+01 8.08982E-02 9.22526E-06-1.03266E-01-1.32364E-14-1.65046E-13
 -1       974 2.03801E+01 3.98583E-01 3.02318E-05-7.09554E-03-6.58316E-14-1.03955E-13
 -1       975 2.00937E+01-3.37726E-02 8.30401E-06-1.24584E-01 3.85789E-14 6.22793E-14
 -1       976 2.01714E+01-5.45265E-02 1.29160E-05-1.33567E-01 3.49198E-14-1.23030E-13
 -1       977 2.31739E+01-2.64379E+00 1.50273E-03-1.72652E+00 8.33554E-14-2.91469E-13
 -1       978 2.02745E+01 1.41190E+00-2.16678E-04-6.71365E-02 1.14917E-14-2.30533E-13
 -1       979 1.56095E+01 6.14399E-01 2.40502E-02 3.47528E+00 1.65311E-13-5.00605E-13
 -1       980 2.03001E+01 1.20450E+00 1.83702E-05 3.00516E-01 5.24255E-14-1.04961E-13
 -1       981 2.02552E+01 2.97993E-03 1.03734E-05-1.25726E-01-2.02213E-14-1.89504E-13
 -1       982 2.02125E+01-3.85603E-02 7.25813E-06-1.33754E-01 7.29437E-15-1.67507E-13
 -1       983 2.03579E+01 2.05679E-01-9.04201E-06 5.38777E-02-5.91477E-14-1.12796E-13
 -1       984 1.98351E+01 2.34859E-01-4.50693E-06-1.28048E-01 2.99991E-14-1.52941E-13
 -1       985 2.03752E+01 6.78753E-01-4.78199E-06-1.02482E-01-6.32337E-14-8.64164E-14
 -1       986 2.31436E+01-2.72818E+00-6.53230E-04 1.92696E+00 3.03761E-14 2.19960E-13
 -1       987 2.03465E+01 9.96493E-01-5.66134E-04-1.62171E-01-6.27889E-14-9.10780E-14
 -1       988 1.85835E+01 1.00987E+00-7.06155E-04-3.34597E-01 2.04346E-14-5.45028E-13
 -1       989 2.03682E+01 9.73188E-01 1.44628E-04 7.85614E-02 4.87831E-15-1.82351E-13
 -1       990 2.36219E+01-2.26714E+00-1.94485E-03-4.83605E-01-9.81984E-14-3.52404E-13
 -1       991 2.00170E+01 3.60354E-02-5.64292E-06-1.20614E-01 5.71676E-14 1.22712E-13
 -1       992 1.89708E+01 6.19064E-01-5.42898E-04-7.67371E-01 1.05512E-13-2.55308E-13
 -1       993 2.03619E+01 3.95377E-01-1.22546E-04 1.58682E-02 3.41995E-14-1.30984E-13
 -1       994 2.02946E+01 5.95331E-01-5.82817E-04 1.72646E-01 3.59187E-14-5.93012E-14
 -1       995 1.97212E+01 8.46679E-02 2.78331E-04-8.30392E-01-4.32751E-14-2.85849E-13
 -1       996 2.15724E+01-2.06051E+00 6.54682E-03 2.54339E+00 6.56522E-15 1.70720E-13
 -1       997 2.00570E+01-4.71862E-03-7.66795E-06-1.21327E-01-6.04829E-15 1.19832E-13
 -1       998 1.80501E+01-3.95692E-01 1.16994E-03 3.46291E+00 3.18912E-13 7.82326E-14
 -1       999 2.03672E+01 1.00472E+00-2.22092E-04-4.05563E-05 1.13777E-14-2.19992E-13
 -1      1000 2.00812E+01-1.74754E-01 1.02672E-04-7.49777E-01-2.35759E-13 2.30145E-15
 -1      1001 2.03499E+01 7.60690E-01 6.68397E-04 1.67780E-01 1.60880E-14-1.39080E-13
 -1      1002 2.03874E+01 1.61491E-01-4.01017E-05 4.41732E-02-6.67807E-14-1.70255E-13
 -1      1003 1.85012E+01 6.45762E-01-1.96479E-04-1.27974E+00 2.29557E-13-2.31268E-13
 -1      1004 2.02992E+01-1.92616E-02-2.00112E-05 7.17042E-02 7.16457E-15-1.39811E-13
 -1      1005 2.02485E+01-5.27502E-02-1.15793E-05 7.46277E-02 4.99396E-14-1.21103E-13
 -1      1006 2.01981E+01-6.20814E-02-5.47882E-06 7.45735E-02 5.81456E-14-1.37027E-13
 -1      1007 2.01496E+01-5.45471E-02-2.07389E-06 7.41157E-02 3.00540E-14-8.53832E-14
 -1      1008 2.01036E+01-3.56624E-02 8.48309E-06 7.53599E-02-3.76408E-14-1.12837E-13
 -1      1009 2.00601E+01-9.89200E-03 1.32009E-06 8.05130E-02 1.02321E-14-1.63478E-13
 -1      1010 2.00189E+01 1.89475E-02-6.25692E-06 9.17304E-02-2.91178E-14-1.29075E-13
 -1      1011 1.99804E+01 4.70829E-02-4.58122E-06 1.11643E-01-6.63475E-15-5.84762E-14
 -1      1012 1.99459E+01 6.97206E-02 9.28205E-07 1.43564E-01 9.78701E-14-2.56052E-14
 -1      1013 1.99187E+01 8.04543E-02 1.18236E-05 1.91477E-01 1.02054E-13-4.33333E-14
 -1      1014 1.99054E+01 7.03943E-02 3.19634E-05 2.59980E-01-1.20635E-13 5.05124E-14
 -1      1015 1.99171E+01 2.72371E-02 6.20678E-05 3.53699E-01-1.39188E-14 1.27726E-13
 -1      1016 1.99717E+01-6.52683E-02 1.03708E-04 4.75656E-01-8.32431E-14 4.60498E-14
 -1      1017 2.00957E+01-2.27031E-01 1.81585E-04 6.24494E-01-2.34568E-14 6.80944E-14
 -1      1018 2.03277E+01-4.79945E-01 4.57386E-04 7.88918E-01 2.71731E-14-1.10192E-14
 -1      1019 2.07141E+01-8.34620E-01 5.13615E-04 9.34540E-01 8.14127E-16 9.98481E-14
 -1      1020 2.13066E+01-1.28669E+00-3.00450E-04 1.00618E+00-2.07660E-14 1.35438E-13
 -1      1021 2.21756E+01-1.78096E+00 1.67043E-03 8.86739E-01 8.64145E-14 1.51642E-13
 -1      1022 2.22342E+01-1.82316E+00-1.44265E-03-8.98165E-01 1.66362E-13 5.71438E-14
 -1      1023 2.14007E+01-1.34468E+00-1.33015E-03-1.02162E+00 1.02976E-13 3.13638E-13
 -1      1024 2.07997E+01-8.74588E-01 2.84697E-04-9.64878E-01 1.48613E-13 4.97152E-13
 -1      1025 2.04134E+01-5.01515E-01 5.93709E-04-8.20084E-01-1.09213E-13-2.18386E-14
 -1      1026 2.04105E+01 5.91528E-01 1.61367E-04-3.78110E-02-4.88641E-14-1.00206E-13
 -1      1027 1.94788E+01 4.64830E-01-6.94526E-06 1.01986E-01 1.18111E-13-2.70579E-13
 -1      1028 1.96439E+01 3.59242E-01-2.08258E-05 1.57526E-02 9.08389E-14-1.30656E-13
 -1      1029 1.89715E+01 6.79984E-01 2.03487E-04 5.01038E-01 4.49914E-14-3.19475E-13
 -1      1030 1.86178E+01 7.39333E-01 3.62318E-04 8.91516E-01-5.71997E-14-2.63673E-13
 -1      1031 1.82043E+01 7.02546E-01 1.58756E-03 1.48599E+00-2.08573E-14-2.60357E-13
 -1      1032 1.99083E+01-8.93215E-01 2.35368E-04-2.45343E+00 2.45966E-13-3.17741E-13
 -1      1033 2.04115E+01 3.36951E-01-5.41395E-05 1.14980E-02-8.86980E-14-8.28166E-14
 -1      1034 2.31934E+01-2.03996E+00-4.25791E-03 3.78606E-01 1.89835E-14-4.30151E-14
 -1      1035 1.81343E+01 4.11384E-01-3.67570E-03-2.08506E+00 3.11085E-14-5.13887E-13
 -1      1036 2.03681E+01 8.83901E-01 4.62504E-04 1.35545E-01 2.30268E-14-1.16977E-13
 -1      1037 1.92610E+01 5.75969E-01-4.02387E-06 2.49787E-01 1.00236E-13-2.64415E-13
 -1      1038 1.99371E+01 1.15141E-01-1.24580E-05-7.07867E-02 5.56172E-14-1.38367E-13
 -1      1039 2.03747E+01 1.69783E-01-7.20151E-05-5.41807E-02 9.05894E-16-1.17790E-13
 -1      1040 2.01438E+01-4.83579E-02 8.24773E-06-9.05245E-02-2.49010E-14-9.71281E-14
 -1      1041 2.01909E+01-5.81510E-02 1.16668E-05-9.39893E-02 2.18873E-14-1.00666E-13
 -1      1042 2.17012E+01-1.84182E+00 3.65272E-03-1.86849E+00 3.02720E-13-3.58546E-13
 -1      1043 1.93621E+01 3.16144E-01-4.09394E-03-8.58133E-01 2.88961E-14-5.49598E-14
 -1      1044 2.03588E+01 1.02785E+00 3.01759E-04-8.09376E-02-1.78452E-14-1.93164E-13
 -1      1045 2.03353E+01 5.32836E-02-1.90004E-05-7.96065E-02 1.86391E-15-1.05090E-13
 -1      1046 1.98622E+01 1.84785E-01-1.43466E-05-5.75553E-02 7.34844E-14-1.22756E-13
 -1      1047 2.03472E+01 4.80013E-02-3.38485E-05 6.27470E-02-3.50110E-14-1.83361E-13
 -1      1048 1.97680E+01 2.65426E-01-1.92762E-05-3.21613E-02 7.23185E-14-1.34843E-13
 -1      1049 1.99963E+01 5.85588E-02-1.83706E-05-7.74908E-02 3.12633E-14-6.20297E-14
 -1      1050 1.77513E+01 4.39202E-01 1.48167E-03 2.39832E+00 3.02971E-13-1.26098E-13
 -1      1051 1.99988E+01-2.65525E-01-2.08064E-03-1.07304E+00 5.55663E-14-2.64951E-13
 -1      1052 2.03999E+01 3.51681E-01 9.86981E-05-8.92055E-03 1.62343E-14-6.72806E-14
 -1      1053 2.02891E+01-1.50706E-02-5.11950E-06-9.15867E-02-4.28785E-14-7.39386E-14
 -1      1054 2.04068E+01 6.24022E-01-4.60144E-04 4.41362E-02 2.08511E-14-1.23950E-13
 -1      1055 2.00974E+01-2.45432E-02 4.63186E-06-8.65357E-02-5.32518E-15-8.13537E-15
 -1      1056 2.01006E+01-1.18346E+00 3.57741E-03 2.74809E+00-2.62661E-15 1.04041E-13
 -1      1057 2.02392E+01-4.96599E-02 6.17748E-06-9.52404E-02-1.02215E-14-1.00190E-13
 -1      1058 2.04193E+01 6.69259E-01 3.09185E-04 1.41483E-02-1.17081E-14-1.96002E-13
 -1      1059 1.95804E+01-1.60256E-02 2.82308E-03-1.25543E+00 9.42790E-15-3.08826E-13
 -1      1060 2.02437E+01-5.94768E-02 7.37502E-05 2.93349E-02 3.90676E-14-1.72475E-13
 -1      1061 2.01899E+01-5.96516E-02 6.51294E-05 3.01824E-02 4.97547E-14-1.44006E-13
 -1      1062 2.01368E+01-4.39425E-02-2.94298E-05 3.21218E-02 2.06942E-14-1.66632E-13
 -1      1063 2.00862E+01-1.82852E-02 6.29214E-06 3.66656E-02-7.10598E-15-1.37435E-13
 -1      1064 2.00368E+01 1.42538E-02 4.53550E-05 4.58466E-02 3.41924E-14-8.88167E-14
 -1      1065 1.99869E+01 5.10141E-02 5.73975E-05 6.24376E-02 2.98256E-14-1.40662E-13
 -1      1066 1.99367E+01 8.78328E-02 8.08362E-05 8.99069E-02 5.52892E-14-1.23903E-13
 -1      1067 1.98868E+01 1.20303E-01 1.12039E-04 1.33280E-01 1.21012E-13-1.56082E-13
 -1      1068 1.98396E+01 1.41940E-01 1.63340E-04 1.99437E-01 9.10617E-14-1.51978E-13
 -1      1069 1.98010E+01 1.42936E-01 2.23765E-04 2.97082E-01-1.31754E-14-9.26148E-14
 -1      1070 1.97828E+01 1.08553E-01 2.60238E-04 4.36394E-01-6.89802E-14 1.26191E-13
 -1      1071 1.98060E+01 1.75923E-02 2.51353E-04 6.27328E-01-6.44413E-14 1.01465E-13
 -1      1072 1.99050E+01-1.56476E-01 9.48113E-04 8.75721E-01 1.74335E-14 6.65155E-14
 -1      1073 2.00984E+01-4.51104E-01-3.21286E-03 1.17942E+00 6.97759E-14 5.09404E-14
 -1      1074 2.05294E+01-9.06933E-01-8.72780E-04 1.52841E+00 9.43169E-14 1.47926E-13
 -1      1075 1.93894E+01-1.68216E-01 1.48382E-03-1.79308E+00 1.32799E-13-2.98797E-13
 -1      1076 2.06247E+01-9.48825E-01 1.62390E-03-1.52831E+00 1.81721E-13-4.36607E-13
 -1      1077 2.02419E+01-5.67600E-01-2.27339E-03-1.30920E+00-1.10736E-14-4.72469E-13
 -1      1078 1.90862E+01 2.18234E-01 1.79978E-03 1.39377E+00 2.18920E-14 1.05538E-14
 -1      1079 1.92015E+01 3.60287E-01-9.56433E-04 8.96152E-01-1.57871E-14 3.62166E-15
 -1      1080 2.04268E+01 2.60596E-01 8.66419E-05 9.64619E-03-9.11618E-14-1.49063E-13
 -1      1081 1.96273E+01 3.20488E-01-1.91515E-04 1.81651E-01 1.13219E-13-1.85274E-13
 -1      1082 2.04308E+01 4.86444E-01 7.07504E-05-7.44628E-03-5.02700E-14-2.03081E-13
 -1      1083 2.03497E+01 1.55990E-02 9.63148E-05 2.60274E-02 1.42015E-14-1.33888E-13
 -1      1084 1.90501E+01-1.29111E-01-2.12786E-03 2.07910E+00 1.44968E-13-1.37575E-13
 -1      1085 2.10381E+01-1.38145E+00 2.10764E-03 1.82019E+00-4.53777E-14 2.88890E-13
 -1      1086 2.01902E+01-5.80658E-02-3.46510E-05-4.92796E-02 2.20658E-14-1.19258E-13
 -1      1087 2.03923E+01 1.22625E-01 3.31746E-05-3.45917E-02-4.01010E-14-5.13782E-14
 -1      1088 1.93514E+01 3.98058E-01-4.07981E-04 5.53747E-01 5.06769E-14-5.45885E-14
 -1      1089 2.02978E+01-3.72977E-02 8.26276E-05 2.83980E-02-2.79329E-14-2.03948E-13
 -1      1090 2.03945E+01 1.10579E-01 1.08563E-04 2.07736E-02-1.81830E-14-1.47365E-13
 -1      1091 1.94973E+01 3.73132E-01-2.85022E-04 3.28499E-01 1.50555E-13-1.59016E-13
 -1      1092 1.99063E+01 1.31407E-01-5.54239E-05-1.83756E-03 2.31416E-14-7.45318E-14
 -1      1093 2.00488E+01 1.19007E-02-9.10316E-06-8.24141E-02 2.89661E-14-5.40106E-14
 -1      1094 1.98301E+01 1.92149E-01-8.54253E-05 3.17822E-02 6.50354E-14-1.37982E-13
 -1      1095 2.03487E+01 2.33053E-02-1.08504E-05-4.52999E-02-6.92943E-14-6.05560E-14
 -1      1096 2.02433E+01-5.74826E-02-2.10992E-05-5.08932E-02 2.14668E-14-9.31900E-14
 -1      1097 2.04127E+01 7.17250E-01 8.23264E-07-1.11368E-02-2.90953E-14-2.16786E-13
 -1      1098 1.99714E+01 7.62484E-02-6.42371E-05-2.16152E-02 2.03982E-14-1.58154E-13
 -1      1099 1.97375E+01 2.57278E-01-1.27795E-04 8.89940E-02 1.20619E-13-1.19632E-13
 -1      1100 2.04185E+01 2.83701E-01-1.56670E-04-1.54343E-02-3.49227E-15-1.14833E-13
 -1      1101 2.01379E+01-4.18629E-02-6.27115E-05-4.59366E-02-8.14137E-14-1.56930E-13
 -1      1102 2.04308E+01 4.52340E-01 7.84637E-06 2.16804E-03 5.54539E-15-1.62202E-13
 -1      1103 2.00582E+01 4.90060E-03 4.00490E-05-4.72035E-03 6.51792E-14-1.78777E-13
 -1      1104 2.02973E+01-3.34430E-02-1.96547E-05-5.01004E-02-2.61969E-14-6.86378E-14
 -1      1105 2.01114E+01-2.83927E-02 2.61500E-05-1.13724E-02-4.69986E-14-2.17431E-13
 -1      1106 2.00846E+01-1.20773E-02 1.37497E-05-4.08120E-02 1.48909E-14-1.22924E-13
 -1      1107 2.79615E+01 9.08605E+00 2.32517E+00-6.69798E+00-2.23155E-14 5.70544E-13
 -1      1108 2.05467E+01 6.22694E+00 2.09726E-01-3.90400E+00-1.15463E-14 1.74652E-14
 -1      1109 1.94344E+01 5.85295E+00 7.53878E-02-2.88805E+00-8.07687E-15-2.19453E-13
 -1      1110 1.90260E+01 5.72591E+00 6.03276E-02-2.23507E+00-4.06619E-15-3.24814E-13
 -1      1111 1.88399E+01 5.66923E+00 5.75370E-02-1.70162E+00-2.66280E-15-3.78913E-13
 -1      1112 1.87466E+01 5.64068E+00 5.55914E-02-1.23429E+00-2.27422E-15-3.90033E-13
 -1      1113 1.86979E+01 5.62551E+00 5.38174E-02-8.04404E-01-5.36030E-16-4.03102E-13
 -1      1114 1.86739E+01 5.61794E+00 5.25455E-02-3.92877E-01-3.36970E-16-3.95165E-13
 -1      1115 1.86671E+01 5.61578E+00 5.21435E-02 8.46176E-03 6.64399E-16-3.79855E-13
 -1      1116 1.86750E+01 5.61829E+00 5.26575E-02 4.10216E-01 2.06107E-15-3.70691E-13
 -1      1117 1.87000E+01 5.62622E+00 5.40486E-02 8.23091E-01 2.54397E-15-3.56137E-13
 -1      1118 1.87505E+01 5.64204E+00 5.62583E-02 1.25555E+00 3.25608E-15-3.25779E-13
 -1      1119 1.88455E+01 5.67119E+00 5.84690E-02 1.72739E+00 5.55285E-15-2.77416E-13
 -1      1120 1.90316E+01 5.72761E+00 6.04168E-02 2.26849E+00 5.67255E-15-1.93585E-13
 -1      1121 1.94308E+01 5.85002E+00 6.92240E-02 2.92864E+00 8.43769E-15-5.82711E-14
 -1      1122 2.04528E+01 6.18183E+00 1.53272E-01 3.87861E+00 8.88178E-15 2.08691E-13
 -1      1123 2.52159E+01 7.99390E+00 1.43031E+00 5.84626E+00 2.02061E-14 7.49761E-13
 -1      1124 2.88108E+01 3.61611E+00 1.27116E+00-4.21689E+00-8.54317E-14 9.07385E-13
 -1      1125 2.02262E+01-1.77723E-01-6.16288E-01-1.09912E-01-2.30857E-14 6.99552E-13
 -1      1126 1.88320E+01-9.63637E-02-2.36354E-01 6.24997E-02-9.84803E-15 4.50874E-13
 -1      1127 1.84979E+01-4.81015E-02-5.96351E-02 4.04967E-02-9.61991E-15 2.46775E-13
 -1      1128 1.84430E+01-2.46261E-02-1.52162E-02 2.67884E-02-5.03981E-15 1.37546E-13
 -1      1129 1.85250E+01-1.30816E-02-4.99417E-03 1.90500E-02-8.11742E-15 1.14853E-13
 -1      1130 1.86723E+01-6.65615E-03-1.51691E-03 1.40993E-02-5.05661E-15 4.55538E-15
 -1      1131 1.88455E+01-2.90891E-03 4.92900E-04 1.06707E-02-5.81691E-15-8.22016E-14
 -1      1132 1.90224E+01-7.04631E-04 1.77677E-03 8.13736E-03-7.73673E-15-1.32095E-13
 -1      1133 1.91903E+01 5.50602E-04 2.47464E-03 6.19222E-03-1.75789E-14-2.91891E-13
 -1      1134 1.93429E+01 1.19736E-03 2.71850E-03 4.67476E-03-7.32559E-15-4.61627E-13
 -1      1135 1.94776E+01 1.44550E-03 2.64080E-03 3.49182E-03 1.03948E-14-4.06627E-13
 -1      1136 1.95944E+01 1.43273E-03 2.34966E-03 2.58351E-03 1.37006E-14-4.91343E-13
 -1      1137 1.96952E+01 1.25471E-03 1.92673E-03 1.90876E-03-8.22514E-15-3.95726E-13
 -1      1138 1.97826E+01 9.82703E-04 1.43506E-03 1.43857E-03-2.05741E-14-3.99543E-13
 -1      1139 1.98601E+01 6.75872E-04 9.29373E-04 1.15221E-03-2.95749E-14-5.34735E-13
 -1      1140 1.99310E+01 3.91381E-04 4.67003E-04 1.03386E-03-2.41482E-14-6.77932E-13
 -1      1141 1.99985E+01 1.93477E-04 1.19378E-04 1.06798E-03 7.12671E-15-8.05804E-13
 -1      1142 2.00648E+01 1.61498E-04-1.63526E-05 1.23209E-03 1.84580E-14-8.76802E-13
 -1      1143 2.01309E+01 3.95424E-04 1.92499E-04 1.48581E-03-2.38153E-15-9.27656E-13
 -1      1144 2.01951E+01 1.01584E-03 9.17685E-04 1.75522E-03-3.69891E-14-9.94875E-13
 -1      1145 2.02521E+01 2.15301E-03 2.35907E-03 1.91336E-03 2.08429E-14-8.73590E-13
 -1      1146 2.02918E+01 3.91771E-03 4.70682E-03 1.76041E-03-1.60265E-14-6.19025E-13
 -1      1147 2.02977E+01 6.34565E-03 8.06180E-03 1.01297E-03-5.70146E-14-7.91839E-13
 -1      1148 2.02463E+01 9.31166E-03 1.23041E-02-6.80683E-04 1.26327E-14-8.82678E-13
 -1      1149 2.01083E+01 1.24230E-02 1.69202E-02-3.67449E-03-3.13811E-15-5.65773E-13
 -1      1150 1.98520E+01 1.49291E-02 2.08453E-02-8.18358E-03-2.68058E-15-6.27944E-13
 -1      1151 1.94505E+01 1.57221E-02 2.24413E-02-1.40660E-02 3.26833E-14-6.41960E-13
 -1      1152 1.88932E+01 1.35352E-02 1.97803E-02-2.05811E-02-2.12005E-14-6.07653E-13
 -1      1153 1.81989E+01 7.40870E-03 1.13564E-02-2.62626E-02 1.06252E-17-4.59778E-13
 -1      1154 1.74264E+01-2.63289E-03-2.87520E-03-2.91033E-02-3.42819E-14-3.58370E-13
 -1      1155 1.66746E+01-1.50044E-02-2.06239E-02-2.71895E-02-3.16565E-15-3.58828E-13
 -1      1156 1.60670E+01-2.65877E-02-3.73273E-02-1.96607E-02-1.94024E-14-6.67105E-13
 -1      1157 1.57200E+01-3.37363E-02-4.76565E-02-7.49105E-03-6.86074E-14-7.11458E-13
 -1      1158 1.57054E+01-3.39424E-02-4.79576E-02 6.54534E-03-8.59295E-15-8.38924E-13
 -1      1159 1.60253E+01-2.71385E-02-3.81276E-02 1.89081E-02 9.35580E-15-4.43222E-13
 -1      1160 1.66113E+01-1.57022E-02-2.16359E-02 2.67585E-02-5.00563E-14-6.74169E-13
 -1      1161 1.73485E+01-3.23034E-03-3.73990E-03 2.89968E-02 4.67616E-15-4.41196E-13
 -1      1162 1.81126E+01 7.08740E-03 1.09020E-02 2.63602E-02-4.06186E-14-4.88398E-13
 -1      1163 1.88016E+01 1.35264E-02 1.98017E-02 2.07091E-02-2.12074E-14-5.57894E-13
 -1      1164 1.93535E+01 1.59496E-02 2.28335E-02 1.40714E-02-6.23267E-14-5.86085E-13
 -1      1165 1.97469E+01 1.52567E-02 2.14146E-02 7.97036E-03-2.77588E-14-9.57698E-13
 -1      1166 1.99912E+01 1.26948E-02 1.74451E-02 3.20596E-03 3.19195E-14-8.34597E-13
 -1      1167 2.01138E+01 9.36671E-03 1.25542E-02-2.68616E-05 6.02437E-15-3.17787E-13
 -1      1168 2.01482E+01 6.02077E-03 7.78407E-03-1.88805E-03-4.39865E-14-2.98279E-13
 -1      1169 2.01275E+01 3.04707E-03 3.60548E-03-2.65330E-03-1.94967E-14-2.84442E-13
 -1      1170 2.00805E+01 6.01126E-04 1.34130E-04-2.54639E-03-7.01608E-15-4.66181E-13
 -1      1171 2.00314E+01-1.22136E-03-2.43882E-03-1.60047E-03 2.41768E-14-2.44704E-13
 -1      1172 2.00004E+01-2.40906E-03-2.87604E-03 3.75724E-04-6.58388E-14-4.59832E-13
 -1      1173 1.99966E+01 1.20291E-03 2.25774E-03 1.11372E-03 1.05460E-13-5.80779E-14
 -1      1174 2.77906E+01 5.25718E-01 3.77001E-01 1.96658E+00-1.50366E-14 1.18405E-12
 -1      1175 2.00837E+01-6.62418E-02-5.73607E-01 1.29471E-01 9.30506E-15 9.37528E-13
 -1      1176 1.89065E+01-4.06121E-02-1.93224E-01 1.94208E-02 8.74561E-15 7.03602E-13
 -1      1177 1.85268E+01-2.14354E-02-5.05811E-02 1.48673E-03 2.14499E-15 5.64195E-13
 -1      1178 1.84553E+01-1.28299E-02-1.36787E-02-3.94804E-03-4.18025E-15 4.94150E-13
 -1      1179 1.85344E+01-6.78934E-03-4.45494E-03-5.06286E-03 7.90318E-15 4.20254E-13
 -1      1180 1.86831E+01-4.23891E-03-1.80707E-03-5.68557E-03-8.63881E-15 2.81329E-13
 -1      1181 1.88549E+01-2.32254E-03-3.22829E-04-5.37484E-03-1.59156E-14 2.25615E-13
 -1      1182 1.90300E+01-1.09340E-03 7.45142E-04-4.85613E-03 1.45448E-14 1.59137E-13
 -1      1183 1.91959E+01-4.03671E-04 1.37408E-03-4.21592E-03 5.50193E-15 1.02592E-14
 -1      1184 1.93495E+01 1.21666E-04 1.69694E-03-3.57016E-03 8.19109E-15-4.13749E-14
 -1      1185 1.94842E+01 3.01202E-04 1.76958E-03-2.85698E-03-1.48112E-14 1.12915E-13
 -1      1186 1.95971E+01 3.11184E-04 1.59207E-03-2.20516E-03 5.22747E-15 9.30562E-14
 -1      1187 1.96939E+01 1.74834E-04 1.26532E-03-1.57161E-03 9.27457E-15-1.40839E-13
 -1      1188 1.97778E+01-1.21543E-04 7.90020E-04-9.41335E-04-1.02230E-14-2.31215E-13
 -1      1189 1.98550E+01-5.66389E-04 1.41505E-04-2.94724E-04-1.00596E-14-2.74661E-13
 -1      1190 1.99290E+01-1.23605E-03-7.37887E-04 4.14701E-04-7.38560E-15-2.92774E-13
 -1      1191 2.00055E+01-2.22022E-03-1.94300E-03 1.21570E-03 7.53214E-15-2.35379E-13
 -1      1192 2.00957E+01-3.69718E-03-3.70802E-03 2.21122E-03-2.23021E-14-2.68796E-13
 -1      1193 2.02126E+01-6.09267E-03-6.45016E-03 3.55905E-03 9.74871E-15-3.43242E-13
 -1      1194 2.03810E+01-9.30756E-03-1.06051E-02 5.53547E-03-1.01224E-14-4.48286E-13
 -1      1195 2.06273E+01-1.48820E-02-1.75949E-02 7.61223E-03-8.31117E-15-3.41576E-13
 -1      1196 2.09902E+01-2.29719E-02-2.84096E-02 1.05752E-02 1.51593E-14-2.49074E-13
 -1      1197 2.15423E+01-3.49035E-02-4.56699E-02 1.38954E-02-1.91457E-14-1.25819E-13
 -1      1198 2.23884E+01-5.14786E-02-7.23299E-02 1.64530E-02 4.06272E-14-4.26242E-13
 -1      1199 2.36821E+01-7.40703E-02-1.11161E-01 1.54632E-02-2.25514E-15-2.74919E-13
 -1      1200 2.57046E+01-8.49087E-02-1.50779E-01 2.16828E-03 1.53870E-14-3.50386E-13
 -1      1201 2.86632E+01-7.45267E-02-1.55583E-01-4.73302E-02 4.19456E-14-5.48006E-13
 -1      1202 3.25572E+01 1.62668E-02-2.77811E-02-1.41834E-01-2.80097E-14-3.85969E-13
 -1      1203 3.68617E+01 2.33071E-01 3.51222E-01-2.60899E-01 3.22138E-14-3.13582E-13
 -1      1204 3.94020E+01 4.80844E-01 8.54386E-01-2.26958E-01 1.33712E-14-4.90552E-13
 -1      1205 3.61837E+01 2.19641E-01 6.67935E-01 2.28260E-01 8.40161E-14-8.02691E-14
 -1      1206 2.70264E+01-1.95775E-01-5.90688E-01 9.00446E-01-1.01320E-13 5.54667E-13
 -1      1207 1.79454E+01-5.81844E-01-2.10898E+00 8.55577E-01-2.40710E-14 1.77636E-12
 -1      1208 1.53182E+01-6.65101E-01-2.62267E+00 8.72103E-02-1.10190E-13 2.72288E-12
 -1      1209 2.09800E+01-6.45113E-02-1.61461E+00-6.30881E-01-5.97161E-14 2.89391E-12
 -1      1210 3.06188E+01 1.97917E-01-1.13489E-01-8.78965E-01-1.97828E-14 3.14171E-12
 -1      1211 3.74612E+01 2.34508E-01 6.69689E-01-5.99335E-01-5.12437E-15 2.30815E-12
 -1      1212 3.92389E+01 1.27943E-01 6.50570E-01-1.86272E-01 1.88169E-13 8.26061E-13
 -1      1213 3.66480E+01 1.70039E-02 2.74909E-01 6.81284E-02 1.01117E-14-1.09260E-13
 -1      1214 3.22838E+01-2.77433E-02-9.62040E-03 1.50603E-01 3.72211E-14-2.00451E-13
 -1      1215 2.83577E+01-3.44593E-02-1.03580E-01 1.31775E-01-4.55491E-14 7.59032E-13
 -1      1216 2.55124E+01-3.06205E-02-1.00912E-01 9.36626E-02 1.90807E-14 1.10846E-12
 -1      1217 2.35446E+01-2.36677E-02-7.40740E-02 6.08587E-02-2.13727E-14 1.26090E-12
 -1      1218 2.22270E+01-1.72115E-02-4.89461E-02 3.82463E-02 3.35448E-14 8.99291E-13
 -1      1219 2.13359E+01-1.15191E-02-3.04456E-02 2.45801E-02-2.95009E-14 9.94893E-13
 -1      1220 2.07453E+01-9.12456E-03-2.01648E-02 1.51719E-02 7.27452E-14 2.79082E-13
 -1      1221 2.03652E+01-7.74283E-03-1.51096E-02 1.05900E-02-2.94252E-16 1.28756E-13
 -1      1222 2.01226E+01-7.55696E-03-1.35610E-02 7.62191E-03 1.07361E-13 6.88941E-13
 -1      1223 1.99982E+01-6.26109E-03-1.03801E-02 3.28911E-03-6.01677E-14 1.19259E-12
 -1      1224 1.99879E+01 4.14565E-03 9.48820E-03-3.97929E-03 1.47509E-14 1.33922E-12
 -1      1225 2.00039E+01-1.19175E-02 9.26726E-03-4.29952E-03 1.52088E-12 1.94544E-15
 -1      1226 1.99928E+01 1.22102E-03-1.02842E-02-2.26737E-03 7.67431E-13-2.11522E-14
 -1      1227 1.99949E+01 1.20685E-01-9.03110E-03 5.49064E-03 1.86023E-13-2.75744E-14
 -1      1228 2.00002E+01 3.07175E-01-9.35145E-04 7.99482E-03-3.07913E-15 1.47788E-13
 -1      1229 2.00049E+01 4.97747E-01 6.46965E-03 7.18232E-03 4.24088E-14 7.39735E-14
 -1      1230 2.00077E+01 6.42118E-01 1.07661E-02 4.48338E-03 2.66876E-13 7.70088E-14
 -1      1231 2.00082E+01 7.14407E-01 1.15536E-02 1.43139E-03 7.85789E-13 1.05850E-13
 -1      1232 2.00069E+01 7.09744E-01 9.67429E-03-1.38193E-03 4.77836E-13-2.10163E-13
 -1      1233 2.00045E+01 6.39802E-01 6.24471E-03-3.24566E-03 6.79304E-13 1.09735E-13
 -1      1234 2.00018E+01 5.27683E-01 2.49653E-03-4.01417E-03 1.43787E-12 4.57672E-14
 -1      1235 1.99994E+01 3.98628E-01-6.36884E-04-3.85956E-03 1.17264E-13-3.13136E-13
 -1      1236 1.99979E+01 2.74713E-01-2.68549E-03-3.11648E-03-1.34025E-12 1.78480E-13
 -1      1237 1.99971E+01 1.68532E-01-3.64341E-03-2.23694E-03-1.22089E-12 1.63257E-13
 -1      1238 1.99969E+01 8.56684E-02-3.94872E-03-1.36296E-03-3.32384E-13-8.69595E-14
 -1      1239 1.99972E+01 2.81856E-02-4.07571E-03-7.60252E-04-1.03792E-12-7.73391E-14
 -1      1240 1.99969E+01 7.56940E-04-2.69682E-03 1.77420E-03-5.11829E-13-9.49067E-14
 -1      1241 2.00009E+01-3.38191E-03 2.23447E-03 1.16674E-03-9.75481E-14 1.18966E-13
 -1      1242-1.24676E+00-2.84414E+01-4.08904E+00-2.86063E+00 1.27992E-12 2.52222E-13
 -1      1243-2.86300E+00-2.20198E+01-3.92884E+00-6.32633E+00 1.26255E-12 4.56829E-13
 -1      1244-2.60651E+00-9.83155E+00-3.29681E+00-4.38356E+00 4.95159E-13 2.54019E-13
 -1      1245 4.71354E+00 2.37092E+00-1.85255E+00 3.72204E+00-2.31815E-13-1.03473E-13
 -1      1246 2.27123E+01 9.17127E+00 3.37890E-01 1.38819E+01-5.37126E-13-9.05054E-13
 -1      1247 4.91039E+01 9.01159E+00 3.20589E+00 1.96020E+01-1.06248E-12-2.64588E-12
 -1      1248 7.52596E+01 4.97440E+00 6.05271E+00 1.44391E+01-6.36130E-13-3.07532E-12
 -1      1249 8.73941E+01 2.30454E+00 7.42851E+00 2.47117E-01-3.56104E-14-3.19295E-12
 -1      1250 7.60551E+01 4.73793E+00 6.12402E+00-1.41805E+01 4.06508E-13-2.19602E-12
 -1      1251 5.02362E+01 9.05344E+00 3.35230E+00-1.96259E+01 3.74478E-13-9.07274E-13
 -1      1252 2.33381E+01 9.36875E+00 3.62026E-01-1.43718E+01-3.10862E-15-1.22569E-13
 -1      1253 5.01089E+00 2.73805E+00-1.87821E+00-4.14582E+00-4.80949E-13 4.07674E-13
 -1      1254-2.44988E+00-9.01882E+00-3.21463E+00 3.99071E+00-5.39124E-13 4.36651E-13
 -1      1255-3.00805E+00-2.12880E+01-3.93090E+00 6.49787E+00-2.89657E-13 1.06914E-13
 -1      1256-1.55152E+00-2.80694E+01-4.09966E+00 3.35473E+00-1.74111E-13 5.64271E-14
 -1      1257-1.08676E+00-2.61916E+01-3.79907E+00-1.58151E+00-5.23803E-13-1.23061E-13
 -1      1258-1.52997E+00-1.65322E+01-3.03302E+00-3.79703E+00-6.49480E-13-1.93845E-13
 -1      1259 1.55610E-01-3.08016E+00-1.84415E+00-2.51932E-01-6.67910E-13-4.21663E-13
 -1      1260 8.24620E+00 8.28977E+00-3.21356E-01 8.20118E+00-8.00693E-13-7.04770E-13
 -1      1261 2.45977E+01 1.27613E+01 1.34278E+00 1.69149E+01-4.84057E-13-7.92255E-13
 -1      1262 4.55299E+01 1.00063E+01 2.80652E+00 1.98894E+01-3.89355E-13-7.66054E-13
 -1      1263 6.37038E+01 4.40631E+00 3.81720E+00 1.33534E+01-1.09190E-13-5.99520E-13
 -1      1264 7.12012E+01 1.57948E+00 4.20739E+00 1.59606E-01-2.26000E-14-3.72619E-13
 -1      1265 6.44276E+01 4.07598E+00 3.82813E+00-1.29238E+01-1.65284E-13 2.95652E-13
 -1      1266 4.73121E+01 9.56831E+00 2.90238E+00-1.96875E+01-5.33795E-13 1.07758E-12
 -1      1267 2.64794E+01 1.27082E+01 1.45826E+00-1.76623E+01-6.29052E-13 9.21929E-13
 -1      1268 9.36488E+00 8.97474E+00-1.75869E-01-9.01680E+00 3.08198E-13 1.37668E-13
 -1      1269 5.86896E-01-1.77097E+00-1.68360E+00-2.60592E-01 9.22151E-13-4.44644E-13
 -1      1270-1.53609E+00-1.51444E+01-2.90690E+00 3.74550E+00 8.47100E-13-2.90268E-13
 -1      1271-1.03086E+00-2.55078E+01-3.70914E+00 2.07411E+00 4.74509E-13 6.65301E-14
 -1      1272 2.22654E+01 1.83812E+00-7.25826E-01-2.79057E+00-3.40838E-14 4.40703E-13
 -1      1273 2.03587E+01 4.69007E+00-4.86361E-02-3.30699E+00-7.79099E-14-8.97130E-14
 -1      1274 2.08658E+01 4.81046E+00-1.13355E-01-4.16116E+00-1.08746E-13 3.45071E-14
 -1      1275 1.95316E+01 4.99332E+00-1.95975E-02-2.65467E+00-8.05883E-14-2.66225E-13
 -1      1276 1.98293E+01 5.09014E+00 2.73123E-04-3.04568E+00-9.07399E-14-1.93214E-13
 -1      1277 2.05254E+01 3.95274E+00-2.58855E-02-3.07495E+00-1.39853E-13-8.79991E-14
 -1      1278 1.91842E+01 5.08424E+00-3.64050E-03-2.07043E+00-6.32237E-14-3.49411E-13
 -1      1279 1.93333E+01 5.13945E+00 1.06108E-02-2.36355E+00-7.25704E-14-3.11456E-13
 -1      1280 1.97541E+01 4.36605E+00-2.42634E-02-2.48960E+00-1.27211E-13-2.31655E-13
 -1      1281 1.90094E+01 5.13101E+00 3.29255E-03-1.56492E+00-4.49155E-14-3.85350E-13
 -1      1282 1.90867E+01 5.16086E+00 1.25709E-02-1.81487E+00-4.82097E-14-3.68195E-13
 -1      1283 1.93928E+01 4.55579E+00-1.95261E-02-1.93129E+00-9.39604E-14-2.99864E-13
 -1      1284 1.89164E+01 5.16082E+00 6.61078E-03-1.11712E+00-2.36903E-14-4.01729E-13
 -1      1285 1.89585E+01 5.17707E+00 1.27434E-02-1.33862E+00-3.34880E-14-3.93335E-13
 -1      1286 1.92063E+01 4.66153E+00-1.60454E-02-1.44501E+00-6.31439E-14-3.31967E-13
 -1      1287 1.88650E+01 5.18072E+00 8.20560E-03-6.93830E-01-1.45203E-14-4.01047E-13
 -1      1288 1.88879E+01 5.18956E+00 1.20424E-02-9.04041E-01-1.44693E-14-4.01307E-13
 -1      1289 1.91037E+01 4.72703E+00-1.39353E-02-1.00424E+00-3.72530E-14-3.43232E-13
 -1      1290 1.88412E+01 5.19268E+00 9.29310E-03-2.89181E-01 6.91114E-15-3.89522E-13
 -1      1291 1.88510E+01 5.19650E+00 1.10733E-02-4.91281E-01-1.10849E-15-3.92925E-13
 -1      1292 1.90480E+01 4.76609E+00-1.29021E-02-5.88773E-01-1.57166E-14-3.33889E-13
 -1      1293 1.88375E+01 5.19763E+00 1.02238E-02 1.08188E-01 2.06295E-14-3.79637E-13
 -1      1294 1.88371E+01 5.19749E+00 1.01505E-02-9.14656E-02 1.48961E-14-3.87395E-13
 -1      1295 1.90239E+01 4.78412E+00-1.24677E-02-1.89116E-01 2.22590E-14-3.34639E-13
 -1      1296 1.88527E+01 5.19612E+00 1.11632E-02 5.08603E-01 3.65914E-14-3.65770E-13
 -1      1297 1.88422E+01 5.19203E+00 9.22617E-03 3.06076E-01 2.99530E-14-3.71833E-13
 -1      1298 1.90248E+01 4.78347E+00-1.24873E-02 2.05739E-01 3.94255E-14-3.18891E-13
 -1      1299 1.88912E+01 5.18839E+00 1.20985E-02 9.22873E-01 4.82427E-14-3.55176E-13
 -1      1300 1.88675E+01 5.17938E+00 8.13532E-03 7.11695E-01 4.67649E-14-3.63449E-13
 -1      1301 1.90507E+01 4.76399E+00-1.29736E-02 6.06115E-01 6.81051E-14-3.15321E-13
 -1      1302 1.89629E+01 5.17532E+00 1.29051E-02 1.35611E+00 5.85035E-14-3.21831E-13
 -1      1303 1.89197E+01 5.15862E+00 6.45106E-03 1.13321E+00 5.38593E-14-3.41590E-13
 -1      1304 1.91080E+01 4.72349E+00-1.39962E-02 1.01944E+00 8.60685E-14-2.97713E-13
 -1      1305 1.90952E+01 5.15677E+00 1.28332E-02 1.84081E+00 7.59948E-14-2.64525E-13
 -1      1306 1.90159E+01 5.12647E+00 3.14694E-03 1.58799E+00 6.97437E-14-2.96574E-13
 -1      1307 1.92132E+01 4.65502E+00-1.61410E-02 1.46257E+00 1.02581E-13-2.54352E-13
 -1      1308 1.93435E+01 5.13341E+00 1.01763E-02 2.39793E+00 1.01669E-13-1.76401E-13
 -1      1309 1.91936E+01 5.07636E+00-4.37297E-03 2.10064E+00 8.85229E-14-2.26586E-13
 -1      1310 1.94055E+01 4.54248E+00-1.99794E-02 1.95828E+00 1.36661E-13-1.94289E-13
 -1      1311 1.98546E+01 5.09924E+00 6.05188E-03 3.08404E+00 1.09385E-13-2.19755E-14
 -1      1312 1.95429E+01 4.98433E+00-2.05372E-02 2.69667E+00 1.00760E-13-1.15463E-13
 -1      1313 1.97744E+01 4.34637E+00-2.45577E-02 2.52817E+00 1.63314E-13-8.94285E-14
 -1      1314 2.11019E+01 4.90673E+00 8.30560E-03 4.05402E+00 9.71445E-14 2.59570E-13
 -1      1315 2.03332E+01 4.73366E+00-4.79631E-02 3.41643E+00 9.63257E-14 8.82766E-14
 -1      1316 2.05636E+01 3.91581E+00-2.24107E-02 3.17851E+00 1.68032E-13 8.42798E-14
 -1      1317 2.72007E+01 3.20519E+00 9.28966E-01 4.58219E+00 4.88082E-14 7.80764E-13
 -1      1318 2.20184E+01 3.52201E+00-1.81988E-01 3.88504E+00 5.35405E-14 4.16361E-13
 -1      1319 2.21108E+01 2.56169E+00-3.25570E-02 3.45668E+00 1.63096E-13 3.32762E-13
 -1      1320 2.14250E+01 3.59587E-01-7.63501E-01 1.18394E+00 8.33500E-14 7.48623E-13
 -1      1321 2.19994E+01 1.31368E-01-4.00852E-01-1.28575E+00-9.07191E-14 4.69014E-13
 -1      1322 2.06767E+01 3.06701E-01-1.64810E-01-8.05806E-01-8.30239E-14 3.60031E-13
 -1      1323 2.00790E+01 1.53468E-01-7.35342E-02-4.02194E-01-5.33323E-14 3.17666E-13
 -1      1324 1.96091E+01 9.11935E-02-1.49345E-02-3.30046E-01-5.91992E-14 2.28699E-13
 -1      1325 2.09709E+01 3.69164E-01-1.04235E-01-1.27401E+00-1.39680E-13 1.53821E-13
 -1      1326 1.92517E+01 6.45423E-02 3.02187E-03-1.35383E-01-5.74540E-14 2.04156E-13
 -1      1327 1.90973E+01 4.13113E-02 1.32067E-02-1.17550E-01-5.25899E-14 1.23429E-13
 -1      1328 1.99201E+01 1.33917E-01-3.51676E-02-5.04085E-01-1.07400E-13 1.03599E-13
 -1      1329 1.89370E+01 3.15459E-02 1.32391E-02-2.79647E-02-1.85611E-14 8.26977E-14
 -1      1330 1.89177E+01 1.93974E-02 1.10655E-02-1.85837E-02-2.13540E-14 5.41997E-14
 -1      1331 1.94429E+01 5.55290E-02-8.51906E-03-1.69946E-01-6.91686E-14 4.23429E-14
 -1      1332 1.88617E+01 1.60276E-02 8.78220E-03 2.50953E-02-1.82831E-14 6.29392E-14
 -1      1333 1.89041E+01 9.10500E-03 6.44265E-03 2.97329E-02-2.44579E-14 3.30673E-14
 -1      1334 1.92342E+01 2.44126E-02-3.51460E-03-1.10200E-02-3.57075E-14-6.29878E-15
 -1      1335 1.89044E+01 7.89899E-03 4.67856E-03 5.09819E-02-3.87882E-14 7.09675E-15
 -1      1336 1.89749E+01 3.56466E-03 3.65092E-03 5.28981E-02-2.88102E-14-3.76296E-14
 -1      1337 1.91776E+01 1.02451E-02-2.23317E-03 6.78054E-02-6.35711E-14-6.88078E-15
 -1      1338 1.90047E+01 3.26146E-03 2.45218E-03 6.18490E-02-1.80074E-14-5.59995E-14
 -1      1339 1.90857E+01 4.24341E-04 2.22429E-03 6.21578E-02-3.20495E-14-8.40690E-14
 -1      1340 1.92043E+01 2.87908E-03-1.34500E-03 1.04932E-01-4.59568E-14-3.54593E-14
 -1      1341 1.91299E+01 5.53496E-04 1.34470E-03 6.40753E-02-3.36263E-14-7.44890E-14
 -1      1342 1.92115E+01-1.32876E-03 1.45733E-03 6.34531E-02-3.20653E-14-1.34359E-13
 -1      1343 1.92744E+01-1.14508E-03-5.89475E-04 1.18670E-01-4.95027E-14-6.91066E-14
 -1      1344 1.92610E+01-9.81104E-04 7.61737E-04 6.14049E-02-4.53293E-14-1.38504E-13
 -1      1345 1.93378E+01-2.21581E-03 9.93130E-04 6.02916E-02-6.52690E-14-2.35186E-13
 -1      1346 1.93642E+01-3.27444E-03-4.37296E-05 1.19024E-01-6.90443E-14-9.59490E-14
 -1      1347 1.93875E+01-1.76259E-03 4.26002E-04 5.61958E-02-5.43735E-14-2.19395E-13
 -1      1348 1.94570E+01-2.54328E-03 6.85736E-04 5.48843E-02-1.46739E-14-2.70338E-13
 -1      1349 1.94598E+01-4.23294E-03 2.90880E-04 1.12013E-01-7.76528E-14-7.22754E-14
 -1      1350 1.95039E+01-2.04842E-03 2.20757E-04 4.99829E-02 1.00925E-14-3.19229E-13
 -1      1351 1.95652E+01-2.50698E-03 4.73340E-04 4.86681E-02-7.00861E-15-3.25265E-13
 -1      1352 1.95533E+01-4.44102E-03 4.58432E-04 1.01467E-01-2.54088E-14-1.25971E-13
 -1      1353 1.96081E+01-2.00697E-03 9.22989E-05 4.37720E-02-9.60901E-15-3.19101E-13
 -1      1354 1.96615E+01-2.23912E-03 3.24187E-04 4.25816E-02 9.77007E-15-3.40135E-13
 -1      1355 1.96406E+01-4.16547E-03 5.07010E-04 8.98789E-02-1.78716E-14-2.26926E-13
 -1      1356 1.97001E+01-1.75433E-03 1.09584E-05 3.82102E-02 1.99054E-14-3.15758E-13
 -1      1357 1.97465E+01-1.83373E-03 2.17881E-04 3.72236E-02-1.14236E-14-2.86178E-13
 -1      1358 1.97200E+01-3.58645E-03 4.75504E-04 7.88712E-02 2.18621E-14-2.35372E-13
 -1      1359 1.97812E+01-1.37573E-03-4.26311E-05 3.36869E-02-4.57233E-14-2.96828E-13
 -1      1360 1.98220E+01-1.36314E-03 1.39052E-04 3.29474E-02-5.73533E-14-3.38717E-13
 -1      1361 1.97915E+01-2.83370E-03 3.93375E-04 6.94574E-02-4.54862E-14-2.10978E-13
 -1      1362 1.98536E+01-9.40470E-04-8.24805E-05 3.03899E-02-5.68204E-14-3.63551E-13
 -1      1363 1.98904E+01-8.90966E-04 7.48878E-05 2.99100E-02-7.58590E-14-4.31543E-13
 -1      1364 1.98563E+01-2.01072E-03 2.83778E-04 6.21975E-02-9.64452E-14-2.53278E-13
 -1      1365 1.99198E+01-5.14674E-04-1.19146E-04 2.83259E-02-7.70725E-14-4.44795E-13
 -1      1366 1.99541E+01-4.83837E-04 1.40987E-05 2.80865E-02-6.57904E-14-5.28607E-13
 -1      1367 1.99160E+01-1.21498E-03 1.67099E-04 5.72699E-02-1.12234E-13-2.57957E-13
 -1      1368 1.99821E+01-1.73410E-04-1.60199E-04 2.73070E-02-2.24589E-14-5.26094E-13
 -1      1369 2.00152E+01-2.22643E-04-5.32109E-05 2.72509E-02-7.21393E-15-5.59001E-13
 -1      1370 1.99724E+01-5.57161E-04 6.44220E-05 5.44762E-02-4.35177E-14-2.81313E-13
 -1      1371 2.00425E+01-1.24913E-05-2.09596E-04 2.69065E-02 6.79942E-15-6.17625E-13
 -1      1372 2.00750E+01-2.12699E-04-1.34715E-04 2.69256E-02-1.95363E-14-6.24069E-13
 -1      1373 2.00267E+01-1.80377E-04 9.13685E-07 5.31819E-02-1.44689E-14-3.38396E-13
 -1      1374 2.01015E+01-1.58647E-04-2.65961E-04 2.63860E-02-4.97289E-14-6.79035E-13
 -1      1375 2.01331E+01-5.90360E-04-2.33893E-04 2.63030E-02-8.74542E-14-7.69348E-13
 -1      1376 2.00796E+01-2.77360E-04 8.96259E-06 5.22009E-02-6.92999E-14-4.17637E-13
 -1      1377 2.01580E+01-7.74491E-04-3.19842E-04 2.46064E-02-7.09333E-14-8.19177E-13
 -1      1378 2.01870E+01-1.52118E-03-3.46857E-04 2.41543E-02-4.63268E-14-8.44406E-13
 -1      1379 2.01304E+01-1.10039E-03 1.30391E-04 4.96376E-02-1.34239E-13-5.60193E-13
 -1      1380 2.02080E+01-2.05159E-03-3.50473E-04 1.99479E-02 8.70989E-14-7.88130E-13
 -1      1381 2.02305E+01-3.18137E-03-4.58456E-04 1.87540E-02 1.20280E-13-6.44580E-13
 -1      1382 2.01761E+01-2.95365E-03 4.16290E-04 4.27296E-02 4.13349E-14-6.52025E-13
 -1      1383 2.02438E+01-4.18117E-03-3.23506E-04 1.02908E-02 5.89262E-14-5.78467E-13
 -1      1384 2.02533E+01-5.71142E-03-5.39166E-04 7.87866E-03-8.53994E-15-5.80279E-13
 -1      1385 2.02109E+01-6.15139E-03 9.21967E-04 2.77669E-02 1.44920E-13-5.03160E-13
 -1      1386 2.02530E+01-7.28914E-03-1.92620E-04-6.86015E-03-5.93828E-14-5.10124E-13
 -1      1387 2.02398E+01-9.13006E-03-5.45953E-04-1.10294E-02-3.27780E-14-6.16201E-13
 -1      1388 2.02254E+01-1.09204E-02 1.69334E-03 2.23597E-04 1.96957E-14-3.86987E-13
 -1      1389 2.02178E+01-1.13240E-02 9.05605E-05-3.39932E-02 2.80663E-14-5.62969E-13
 -1      1390 2.01693E+01-1.32048E-02-4.31680E-04-4.04127E-02 4.89628E-14-4.61572E-13
 -1      1391 2.02063E+01-1.72272E-02 2.74066E-03-4.47024E-02 3.44076E-14-1.92647E-13
 -1      1392 2.01162E+01-1.59010E-02 5.53966E-04-7.28310E-02 7.21849E-14-4.52784E-13
 -1      1393 2.00180E+01-1.72985E-02-1.67087E-04-8.17472E-02 1.26650E-14-4.39811E-13
 -1      1394 2.01362E+01-2.45310E-02 3.99734E-03-1.10919E-01 6.37791E-14-2.66062E-13
 -1      1395 1.99239E+01-2.01389E-02 1.17028E-03-1.23146E-01-3.62221E-14-3.97194E-13
 -1      1396 1.97623E+01-2.02554E-02 2.25580E-04-1.34264E-01-9.43104E-15-4.47795E-13
 -1      1397 1.99960E+01-3.15167E-02 5.26909E-03-1.99490E-01 2.32518E-14-2.83572E-13
 -1      1398 1.96194E+01-2.25868E-02 1.82051E-03-1.81302E-01 9.87491E-15-4.46948E-13
 -1      1399 1.93862E+01-2.04493E-02 6.40496E-04-1.93456E-01 4.09059E-14-4.56395E-13
 -1      1400 1.97680E+01-3.59513E-02 6.19362E-03-3.06036E-01-2.71744E-14-2.67708E-13
 -1      1401 1.91925E+01-2.13927E-02 2.28420E-03-2.39026E-01 6.14255E-14-5.33676E-13
 -1      1402 1.88904E+01-1.61438E-02 8.83832E-04-2.49977E-01 1.68789E-14-4.77469E-13
 -1      1403 1.94417E+01-3.49028E-02 6.25191E-03-4.18180E-01 6.60852E-14-4.23884E-13
 -1      1404 1.86534E+01-1.48665E-02 2.28764E-03-2.83332E-01 2.01432E-14-3.41531E-13
 -1      1405 1.83015E+01-6.24695E-03 7.31266E-04-2.89928E-01 6.47424E-14-2.65229E-13
 -1      1406 1.90216E+01-2.55571E-02 4.88640E-03-5.14478E-01 7.60739E-14-2.21981E-13
 -1      1407 1.80413E+01-2.42612E-03 1.63470E-03-2.98640E-01 3.25694E-15-2.53679E-13
 -1      1408 1.76774E+01 8.71146E-03 5.61508E-05-2.97576E-01 1.03562E-14-2.28787E-13
 -1      1409 1.85339E+01-6.66258E-03 1.75355E-03-5.66769E-01 9.19757E-14-2.31517E-13
 -1      1410 1.74265E+01 1.44162E-02 3.71931E-04-2.71558E-01-4.72396E-14-1.61775E-13
 -1      1411 1.71031E+01 2.59021E-02-1.02467E-03-2.60696E-01-9.40222E-14-2.33726E-13
 -1      1412 1.80301E+01 1.98961E-02-2.93645E-03-5.47334E-01-7.39166E-14-1.35023E-13
 -1      1413 1.69016E+01 3.17491E-02-1.12815E-03-1.97207E-01-3.31211E-14-3.86103E-13
 -1      1414 1.66750E+01 4.05653E-02-2.10790E-03-1.76962E-01-7.57350E-14-4.98450E-13
 -1      1415 1.75824E+01 4.84342E-02-8.19744E-03-4.39981E-01-1.65902E-13-1.36089E-13
 -1      1416 1.65601E+01 4.43284E-02-2.29341E-03-8.40144E-02-8.07913E-14-4.89874E-13
 -1      1417 1.64743E+01 4.77677E-02-2.66373E-03-5.79095E-02-6.45569E-14-5.55535E-13
 -1      1418 1.72683E+01 7.07856E-02-1.24368E-02-2.50666E-01-5.43393E-14-3.13025E-13
 -1      1419 1.64691E+01 4.78655E-02-2.65889E-03 4.66305E-02 2.16112E-14-4.76462E-13
 -1      1420 1.65413E+01 4.48036E-02-2.34629E-03 7.29045E-02 1.15579E-13-4.48870E-13
 -1      1421 1.71489E+01 7.95659E-02-1.41229E-02-1.09128E-02 1.24701E-14-2.55480E-13
 -1      1422 1.66465E+01 4.11975E-02-2.14699E-03 1.67046E-01 3.17671E-15-4.57778E-13
 -1      1423 1.68613E+01 3.26461E-02-1.22095E-03 1.87745E-01-2.72360E-14-4.44048E-13
 -1      1424 1.72484E+01 7.16970E-02-1.26039E-02 2.30301E-01 1.12396E-13-3.20047E-13
 -1      1425 1.70549E+01 2.68356E-02-1.08631E-03 2.53208E-01-4.06964E-14-3.53025E-13
 -1      1426 1.73695E+01 1.54211E-02 2.66383E-04 2.64645E-01-2.86095E-14-3.71031E-13
 -1      1427 1.75450E+01 4.99323E-02-8.47829E-03 4.23507E-01 1.36939E-14-4.02095E-13
 -1      1428 1.76146E+01 9.59591E-03 6.57544E-06 2.92706E-01-2.28619E-14-4.60895E-13
 -1      1429 1.79728E+01-1.65744E-03 1.55459E-03 2.94251E-01-3.05860E-14-4.82567E-13
 -1      1430 1.79793E+01 2.14525E-02-3.22473E-03 5.35794E-01-8.98864E-14-2.53955E-13
 -1      1431 1.82292E+01-5.70223E-03 7.22025E-04 2.86971E-01-7.10201E-14-2.91959E-13
 -1      1432 1.85775E+01-1.45356E-02 2.26001E-03 2.80617E-01-6.49364E-14-4.18046E-13
 -1      1433 1.84739E+01-5.56190E-03 1.56093E-03 5.59473E-01-8.88645E-14-3.46917E-13
 -1      1434 1.88117E+01-1.60488E-02 9.22040E-04 2.47743E-01-5.68939E-14-4.39216E-13
 -1      1435 1.91109E+01-2.15009E-02 2.30852E-03 2.36768E-01-8.04530E-14-4.61282E-13
 -1      1436 1.89554E+01-2.51895E-02 4.83181E-03 5.09484E-01-6.10029E-14-2.64797E-13
 -1      1437 1.93019E+01-2.07367E-02 7.16366E-04 1.90794E-01-1.24619E-13-5.03856E-13
 -1      1438 1.95317E+01-2.29903E-02 1.88267E-03 1.78418E-01-1.91953E-13-6.58337E-13
 -1      1439 1.93704E+01-3.52338E-02 6.31814E-03 4.13240E-01-1.32118E-13-4.36604E-13
 -1      1440 1.96711E+01-2.07568E-02 3.26469E-04 1.30425E-01-6.07784E-14-6.22228E-13
 -1      1441 1.98278E+01-2.06332E-02 1.25562E-03 1.18998E-01 2.46257E-14-6.31802E-13
 -1      1442 1.96908E+01-3.67314E-02 6.32949E-03 2.99416E-01-1.50484E-13-3.26307E-13
 -1      1443 1.99176E+01-1.78068E-02-5.00188E-05 7.65430E-02 1.31269E-13-6.27112E-13
 -1      1444 2.00093E+01-1.62683E-02 6.54413E-04 6.73456E-02 1.41118E-13-4.50486E-13
 -1      1445 1.99113E+01-3.24007E-02 5.41428E-03 1.90416E-01 1.20549E-13-3.11006E-13
 -1      1446 2.00573E+01-1.35018E-02-3.05152E-04 3.42538E-02 5.56241E-14-2.71995E-13
 -1      1447 2.00982E+01-1.13454E-02 1.99804E-04 2.76976E-02 1.75999E-14-1.76091E-13
 -1      1448 2.00423E+01-2.51470E-02 4.09183E-03 9.97374E-02 2.22124E-13-1.83394E-13
 -1      1449 2.01151E+01-8.98545E-03-4.24275E-04 4.94078E-03 7.82686E-15-1.42732E-13
 -1      1450 2.01210E+01-6.73695E-03-9.19375E-05 9.02076E-04-8.75266E-15-1.37429E-13
 -1      1451 2.01024E+01-1.71849E-02 2.72443E-03 3.29282E-02 4.52650E-14-2.05599E-14
 -1      1452 2.01175E+01-4.87020E-03-4.61623E-04-1.22207E-02-3.41361E-15-5.56610E-14
 -1      1453 2.01032E+01-2.81582E-03-2.77484E-04-1.40938E-02-1.70133E-15-1.04043E-13
 -1      1454 2.01128E+01-9.78823E-03 1.50093E-03-9.85976E-03 2.34947E-14 1.31687E-13
 -1      1455 2.00891E+01-1.37879E-03-5.04849E-04-1.89953E-02-4.61358E-14-2.06977E-13
 -1      1456 2.00672E+01 3.44625E-04-4.27337E-04-1.90861E-02-3.37360E-14-3.16611E-13
 -1      1457 2.00936E+01-3.46613E-03 4.78946E-04-3.12670E-02-4.11513E-14 8.76094E-14
 -1      1458 2.00505E+01 1.46649E-03-6.11810E-04-1.73635E-02 1.37061E-13-2.35929E-13
 -1      1459 2.00314E+01 2.72447E-03-4.79273E-04-1.59807E-02 1.11058E-13-1.19468E-13
 -1      1460 2.00618E+01 1.77488E-03-2.95892E-04-3.49451E-02 5.42881E-14-5.88596E-14
 -1      1461 2.00174E+01 3.73656E-03-5.37588E-04-9.43194E-03-1.55908E-14 2.93213E-14
 -1      1462 2.00082E+01 3.60277E-03-1.21131E-05-7.20780E-03 4.47333E-14 1.96612E-14
 -1      1463 2.00305E+01 6.01804E-03-6.31535E-04-2.51692E-02 1.71688E-13 6.50804E-14
 -1      1464 1.99992E+01 7.39608E-04 4.41047E-04 9.39848E-04-1.23475E-13 9.48071E-14
 -1      1465 2.00062E+01 5.29897E-03-1.84963E-04-6.48866E-03-3.14042E-14 1.24597E-13
 -1      1466 2.02575E+01 7.54757E-02-1.52088E-01 4.83933E-01 7.64562E-14 5.88887E-13
 -1      1467 2.15279E+01 2.16122E-01-2.29282E-01 7.20921E-01 6.77514E-14 7.00107E-13
 -1      1468 2.17267E+01 8.81747E-01-8.54606E-02 2.06493E+00 1.34358E-13 4.54470E-13
 -1      1469 1.93291E+01 3.23815E-02-2.13282E-02 1.86098E-01 5.27946E-14 4.50834E-13
 -1      1470 1.97498E+01 1.13614E-01-6.26955E-02 2.38104E-01 5.06123E-14 5.40194E-13
 -1      1471 2.03014E+01 1.87676E-01-5.51844E-02 7.86318E-01 1.08191E-13 3.63613E-13
 -1      1472 1.89471E+01 1.50958E-02 5.65682E-03 5.35936E-02 2.99483E-14 3.59747E-13
 -1      1473 1.90858E+01 5.16252E-02 9.84262E-04 7.98955E-02 2.87409E-14 4.14842E-13
 -1      1474 1.95563E+01 7.18305E-02-1.21539E-02 2.99129E-01 7.77902E-14 2.85272E-13
 -1      1475 1.88365E+01 6.89931E-03 6.83020E-03-9.25703E-03 1.87190E-14 3.28215E-13
 -1      1476 1.88513E+01 2.61037E-02 1.11588E-02 5.41379E-03 1.04044E-14 3.37640E-13
 -1      1477 1.92208E+01 3.09407E-02-2.52416E-03 8.35848E-02 3.76869E-14 2.09478E-13
 -1      1478 1.88659E+01 2.68998E-03 4.60417E-03-4.05629E-02 4.58492E-14 2.47434E-13
 -1      1479 1.88193E+01 1.37389E-02 8.55847E-03-3.17562E-02 4.11489E-14 3.09558E-13
 -1      1480 1.91039E+01 1.35823E-02-1.46864E-03-2.25130E-02 5.31940E-14 1.90318E-13
 -1      1481 1.89626E+01 9.96866E-04 3.24602E-03-5.31066E-02 1.80066E-14 1.85151E-13
 -1      1482 1.88913E+01 7.24711E-03 5.34906E-03-4.87878E-02 2.00922E-14 2.15218E-13
 -1      1483 1.91076E+01 4.00737E-03-1.71800E-03-7.47496E-02 6.30706E-14 1.54308E-13
 -1      1484 1.90881E+01-2.01856E-04 2.47565E-03-5.68378E-02 1.73830E-15 1.32212E-13
 -1      1485 1.90077E+01 3.34335E-03 3.37012E-03-5.46865E-02-1.01709E-14 1.56966E-13
 -1      1486 1.91729E+01-2.19812E-04-1.37116E-03-9.65160E-02 2.84554E-14 9.91728E-14
 -1      1487 1.92217E+01-8.72208E-04 2.01425E-03-5.53384E-02 3.32491E-14 9.23905E-14
 -1      1488 1.91413E+01 1.09555E-03 2.29312E-03-5.45621E-02 2.62825E-14 1.44825E-13
 -1      1489 1.92665E+01-2.62668E-03-9.99416E-04-1.02412E-01 1.67689E-14 8.40274E-14
 -1      1490 1.93516E+01-1.19450E-03 1.70102E-03-5.10867E-02 3.66887E-14 1.47278E-15
 -1      1491 1.92762E+01-2.03905E-04 1.64626E-03-5.10744E-02 3.44686E-14 5.32148E-14
 -1      1492 1.93701E+01-3.83144E-03-6.74793E-04-9.93043E-02 6.03695E-14 6.40909E-14
 -1      1493 1.94768E+01-1.31878E-03 1.36238E-03-4.52082E-02-1.30461E-14-5.71873E-14
 -1      1494 1.94063E+01-9.14119E-04 1.21764E-03-4.57397E-02 5.25478E-15-3.76019E-14
 -1      1495 1.94757E+01-4.16085E-03-4.43267E-04-9.11441E-02 4.22336E-14-3.23601E-14
 -1      1496 1.95829E+01-1.18668E-03 1.11502E-03-3.93454E-02 2.70018E-15 4.03455E-14
 -1      1497 1.95241E+01-1.24809E-03 8.68213E-04-4.00861E-02-2.64858E-14-1.43301E-14
 -1      1498 1.95747E+01-4.11703E-03-2.53199E-04-8.10100E-02-2.89059E-14-7.71168E-14
 -1      1499 1.96763E+01-9.95472E-04 8.87684E-04-3.40427E-02 4.87364E-14-5.02697E-14
 -1      1500 1.96255E+01-1.26718E-03 6.40184E-04-3.48006E-02 3.77112E-14 2.65350E-14
 -1      1501 1.96625E+01-3.64123E-03-1.47571E-04-7.09586E-02 2.02543E-14-6.35318E-14
 -1      1502 1.97585E+01-7.13109E-04 6.87222E-04-2.97383E-02 1.08413E-14-1.65031E-13
 -1      1503 1.97144E+01-1.04404E-03 4.86231E-04-3.03786E-02 3.29336E-14-8.84828E-14
 -1      1504 1.97414E+01-2.98751E-03-1.10277E-04-6.20931E-02 7.95221E-14-1.03255E-13
 -1      1505 1.98324E+01-3.38766E-04 5.25939E-04-2.68592E-02 1.42953E-15-1.70716E-13
 -1      1506 1.97934E+01-6.25526E-04 3.93893E-04-2.72502E-02 6.89267E-15-1.77638E-13
 -1      1507 1.98130E+01-2.17457E-03-1.28923E-04-5.53706E-02 1.41770E-14-1.38827E-13
 -1      1508 1.99058E+01 1.62659E-04 3.40714E-04-2.58183E-02 2.99933E-14-2.49390E-13
 -1      1509 1.98676E+01 1.05285E-05 3.52702E-04-2.58304E-02 7.45650E-15-1.98498E-13
 -1      1510 1.98818E+01-1.14426E-03-2.11040E-04-5.16138E-02 1.62471E-14-1.77994E-13
 -1      1511 1.99773E+01 7.99964E-04 1.94051E-04-2.73001E-02-4.95337E-14-2.25726E-13
 -1      1512 1.99403E+01 8.92781E-04 3.51659E-04-2.67762E-02-2.69606E-14-2.18547E-13
 -1      1513 1.99503E+01 1.11469E-04-3.49192E-04-5.20269E-02-1.44682E-14-1.67003E-13
 -1      1514 2.00582E+01 1.67152E-03 3.42983E-05-3.19964E-02 4.09910E-14-1.97641E-13
 -1      1515 2.00165E+01 2.11415E-03 4.11857E-04-3.06981E-02 8.21126E-15-1.72779E-13
 -1      1516 2.00226E+01 1.68051E-03-5.89042E-04-5.77762E-02-2.56838E-14-1.73656E-13
 -1      1517 2.01585E+01 2.90801E-03-1.61456E-04-4.11478E-02-1.94718E-14-2.15505E-13
 -1      1518 2.01065E+01 3.88996E-03 5.33790E-04-3.87097E-02-3.64709E-14-2.15020E-13
 -1      1519 2.01079E+01 3.77305E-03-9.80894E-04-7.07105E-02 1.57106E-14-1.75611E-13
 -1      1520 2.02925E+01 4.67244E-03-4.61629E-04-5.67407E-02 5.87312E-14-2.55602E-13
 -1      1521 2.02224E+01 6.60144E-03 7.61388E-04-5.25506E-02 5.76887E-14-1.69088E-13
 -1      1522 2.02168E+01 6.64983E-03-1.64087E-03-9.37480E-02 4.34737E-14-1.44610E-13
 -1      1523 2.04930E+01 7.62504E-03-1.01157E-03-8.33893E-02 1.34571E-15-2.95744E-13
 -1      1524 2.03862E+01 1.06978E-02 1.01990E-03-7.58835E-02-5.62289E-15-2.73465E-13
 -1      1525 2.03687E+01 1.13604E-02-2.57853E-03-1.32600E-01 2.28637E-14-1.38151E-13
 -1      1526 2.07743E+01 1.19733E-02-1.81596E-03-1.23748E-01-2.25577E-14-2.32532E-13
 -1      1527 2.06227E+01 1.72273E-02 1.37328E-03-1.12421E-01-2.07469E-14-2.86806E-13
 -1      1528 2.05831E+01 1.80210E-02-4.36009E-03-1.94980E-01-1.85294E-14-2.00305E-13
 -1      1529 2.11914E+01 1.85034E-02-3.52067E-03-1.86420E-01-4.52130E-14-2.02073E-13
 -1      1530 2.09627E+01 2.69077E-02 1.59986E-03-1.68216E-01-1.33240E-14-2.22560E-13
 -1      1531 2.08854E+01 2.84708E-02-7.02606E-03-2.89640E-01-2.41196E-14-1.00886E-13
 -1      1532 2.18157E+01 2.81896E-02-6.86046E-03-2.82690E-01 6.90372E-14-1.80083E-13
 -1      1533 2.14676E+01 4.18458E-02 1.46913E-03-2.53690E-01 4.35416E-16-1.33792E-13
 -1      1534 2.13238E+01 4.42948E-02-1.14977E-02-4.34578E-01-4.20636E-14-1.13110E-13
 -1      1535 2.27495E+01 4.17173E-02-1.31958E-02-4.27847E-01-7.61457E-15-2.93821E-13
 -1      1536 2.22197E+01 6.38648E-02 1.81987E-04-3.82335E-01 5.91818E-14-2.55584E-13
 -1      1537 2.19606E+01 6.77692E-02-1.88368E-02-6.53071E-01 9.41608E-14-2.01435E-13
 -1      1538 2.41304E+01 5.73489E-02-2.38625E-02-6.40119E-01-3.99628E-14-2.56316E-13
 -1      1539 2.33331E+01 9.49695E-02-3.01334E-03-5.69573E-01-1.38535E-14-2.72914E-13
 -1      1540 2.28776E+01 9.93221E-02-3.05718E-02-9.73213E-01-1.41241E-14-1.09698E-13
 -1      1541 2.62286E+01 7.17632E-02-3.48278E-02-9.38841E-01 3.38488E-14-2.82996E-13
 -1      1542 2.49936E+01 1.28177E-01-9.80784E-03-8.31969E-01-4.58314E-15-2.56128E-13
 -1      1543 2.42119E+01 1.41198E-01-4.47495E-02-1.42614E+00-2.48968E-14-1.09515E-13
 -1      1544 2.89503E+01 6.28654E-02-2.53899E-02-1.25234E+00-5.20920E-14-3.08156E-13
 -1      1545 2.73281E+01 1.40867E-01-1.38425E-02-1.13346E+00 6.01481E-14-2.25139E-13
 -1      1546 2.60295E+01 1.56234E-01-5.53356E-02-1.98394E+00 2.30007E-14-2.85674E-14
 -1      1547 3.21831E+01-2.07513E-02 4.40688E-02-1.41605E+00 6.59438E-14-1.98175E-13
 -1      1548 3.02567E+01 6.58721E-02 2.90451E-03-1.33572E+00-7.91372E-14-3.02078E-13
 -1      1549 2.82873E+01 8.67780E-02-3.29663E-02-2.44321E+00-3.95187E-14-4.34444E-14
 -1      1550 3.50566E+01-2.41558E-01 1.99755E-01-1.00012E+00 6.93196E-15-3.41515E-13
 -1      1551 3.34501E+01-1.99684E-01 7.09106E-02-1.11717E+00 4.35693E-14-1.97620E-13
 -1      1552 3.08259E+01-2.13512E-01 5.60905E-02-2.32764E+00 9.58955E-14-2.62346E-13
 -1      1553 3.56646E+01-5.38355E-01 2.80779E-01 5.52782E-01-1.28224E-13-2.33563E-13
 -1      1554 3.57622E+01-6.75831E-01 1.63373E-01 6.80040E-03-5.06886E-14-3.41317E-13
 -1      1555 3.30697E+01-8.46133E-01 1.88697E-01-8.02657E-01-2.96568E-14-2.64358E-13
 -1      1556 3.20290E+01-4.01921E-01-1.27443E-01 2.75347E+00-8.16014E-14 8.19900E-14
 -1      1557 3.52139E+01-8.38064E-01 9.72035E-02 2.03095E+00-9.34877E-14-9.01501E-14
 -1      1558 3.40445E+01-1.30045E+00 2.04335E-01 2.48602E+00-1.80215E-13-2.40467E-13
 -1      1559 2.70930E+01 3.01618E-01-7.60582E-01 3.30573E+00-4.76952E-13 7.41851E-13
 -1      1560 3.11032E+01-2.01920E-01-3.31029E-01 3.14621E+00-2.89074E-13 2.48912E-13
 -1      1561 3.31289E+01-3.49429E-01-1.76586E-01 4.94258E+00-4.75481E-13-5.49422E-14
 -1      1562 2.39911E+01 1.07355E+00-1.18213E+00 1.15419E+00-3.88578E-13 1.32498E-12
 -1      1563 2.63138E+01 9.55843E-01-8.53412E-01 1.82868E+00-3.60156E-13 9.30589E-13
 -1      1564 3.17516E+01 1.59175E+00-3.73333E-01 3.95789E+00-7.08378E-13 2.51354E-13
 -1      1565 2.50601E+01 9.43356E-01-1.04072E+00-1.61767E+00-3.28626E-14 1.69298E-12
 -1      1566 2.43028E+01 1.34375E+00-1.03078E+00-8.07896E-01-2.48301E-13 1.44384E-12
 -1      1567 3.11224E+01 2.45360E+00-5.44640E-01-1.84681E-01-5.41900E-13 6.09462E-13
 -1      1568 2.99376E+01-1.18411E-02-3.60829E-01-3.36307E+00-1.31589E-13 1.82954E-12
 -1      1569 2.61909E+01 5.09156E-01-7.82016E-01-2.91083E+00-7.14429E-14 1.69864E-12
 -1      1570 3.19014E+01 1.25066E+00-4.42838E-01-4.18107E+00-1.39333E-13 5.76768E-13
 -1      1571 3.42931E+01-5.38913E-01 2.03507E-01-2.52998E+00 2.61742E-13 1.64235E-12
 -1      1572 3.08562E+01-3.62518E-01-1.86825E-01-2.78992E+00 1.20945E-13 1.80739E-12
 -1      1573 3.32880E+01-7.74702E-01-2.05154E-01-4.98141E+00 1.34143E-13 5.73104E-13
 -1      1574 3.63000E+01-5.33402E-01 3.59468E-01-5.99205E-01 4.35534E-13 9.83741E-13
 -1      1575 3.44939E+01-6.46442E-01 1.87044E-01-1.11821E+00 3.68587E-13 1.40687E-12
 -1      1576 3.39024E+01-1.49794E+00 2.25009E-02-2.60826E+00 5.43897E-13 4.26034E-13
 -1      1577 3.51770E+01-2.28492E-01 2.11854E-01 8.76537E-01 3.62523E-13 2.74024E-13
 -1      1578 3.55441E+01-4.42788E-01 2.28299E-01 5.11919E-01 4.51437E-13 9.37486E-13
 -1      1579 3.31319E+01-1.08768E+00 9.78150E-02 3.60026E-01 6.93265E-13 3.41277E-13
 -1      1580 3.20747E+01 8.58021E-03 2.34009E-02 1.41747E+00-1.89466E-14-4.13974E-14
 -1      1581 3.38245E+01-1.57839E-01 9.15124E-02 1.28800E+00 1.36724E-13 1.33005E-13
 -1      1582 3.11359E+01-3.91371E-01 5.48259E-02 2.12750E+00 3.48825E-13 2.54970E-13
 -1      1583 2.86423E+01 8.43550E-02-5.33371E-02 1.28163E+00-7.98537E-14-9.13852E-14
 -1      1584 3.06390E+01 8.71607E-03-2.11893E-02 1.30544E+00-9.06393E-14-2.01880E-13
 -1      1585 2.85823E+01 6.45131E-02 1.50057E-02 2.49303E+00 2.81962E-14 1.94428E-14
 -1      1586 2.59770E+01 7.92851E-02-5.64549E-02 9.67741E-01-2.19737E-13 5.83297E-13
 -1      1587 2.75283E+01 6.75906E-02-4.66579E-02 1.02939E+00-2.31813E-13 1.86129E-13
 -1      1588 2.62205E+01 1.96464E-01-5.39983E-03 2.10899E+00-3.50161E-13-8.42590E-14
 -1      1589 2.40071E+01 6.06874E-02-3.93769E-02 6.79158E-01-4.81299E-15 6.59924E-13
 -1      1590 2.51327E+01 7.21441E-02-3.64733E-02 7.36326E-01 1.29601E-14 6.24986E-13
 -1      1591 2.43657E+01 1.82485E-01-9.55196E-03 1.57067E+00-1.24564E-13 3.07868E-13
 -1      1592 2.26241E+01 4.17911E-02-2.34820E-02 4.60886E-01 1.16474E-13 7.89018E-13
 -1      1593 2.33984E+01 5.78410E-02-2.14453E-02 5.03851E-01-1.00458E-14 6.96887E-13
 -1      1594 2.29783E+01 1.36667E-01-7.17801E-03 1.10157E+00-5.49265E-14 4.90777E-13
 -1      1595 2.16723E+01 2.73869E-02-1.35925E-02 3.09679E-01-3.76010E-14 8.37622E-13
 -1      1596 2.21955E+01 4.18185E-02-1.07453E-02 3.39169E-01 4.70839E-14 8.04551E-13
 -1      1597 2.19814E+01 9.33008E-02-4.68271E-03 7.52660E-01 8.61984E-15 6.70945E-13
 -1      1598 2.09986E+01 1.76289E-02-7.16227E-03 2.03999E-01 2.52343E-13 6.78729E-13
 -1      1599 2.13605E+01 2.83481E-02-4.87195E-03 2.24839E-01 8.11070E-14 8.35700E-13
 -1      1600 2.12676E+01 6.16926E-02-2.27042E-03 5.05961E-01 6.72353E-14 7.41693E-13
 -1      1601 2.05680E+01 1.21278E-02-4.27443E-03 1.36983E-01 1.02652E-13 2.29454E-13
 -1      1602 2.07976E+01 1.99732E-02-1.69393E-03 1.50161E-01 1.68698E-13 5.02528E-13
 -1      1603 2.07724E+01 3.96997E-02-2.02636E-03 3.38295E-01 3.27112E-13 5.68332E-13
 -1      1604 2.02796E+01 9.29843E-03-3.27790E-03 8.89316E-02-1.06461E-13 3.31645E-13
 -1      1605 2.04306E+01 1.51016E-02-7.64336E-04 9.87387E-02-9.73739E-14 2.47910E-13
 -1      1606 2.04424E+01 2.79466E-02-1.78345E-03 2.25768E-01-6.37424E-14 4.94883E-13
 -1      1607 2.01017E+01 8.53540E-03-2.90486E-03 4.92877E-02-1.39413E-14 5.81056E-13
 -1      1608 2.01914E+01 1.35637E-02-6.65005E-04 5.83957E-02-4.77103E-14 3.48761E-13
 -1      1609 2.02213E+01 2.26321E-02-2.08915E-03 1.41136E-01-6.45135E-14 1.56755E-13
 -1      1610 2.00189E+01 8.76509E-03 6.91174E-04 1.34073E-02-1.99225E-13 8.91613E-13
 -1      1611 2.00527E+01 1.33609E-02-1.84963E-04 2.24559E-02-1.60539E-13 6.25984E-13
 -1      1612 2.00839E+01 2.03339E-02-2.45558E-03 6.85864E-02-3.00087E-13 1.59169E-13
 -1      1613 1.99999E+01 3.43182E-03 2.54568E-03-1.87420E-03 6.49084E-13 6.09143E-13
 -1      1614 2.00127E+01 7.01267E-02-2.27459E-03 3.80956E-02 1.89957E-13-2.07928E-13
 -1      1615 2.00145E+01 3.54492E-02 8.38231E-04 2.89179E-02 5.67655E-13-2.22467E-13
 -1      1616 2.00059E+01 1.99486E-01-1.40842E-03 6.77246E-02 5.43632E-14-6.98762E-14
 -1      1617 2.00103E+01 1.25339E-01-1.39445E-03 6.28978E-02 4.21244E-13-2.65154E-13
 -1      1618 2.00240E+01 1.24943E-01-1.76765E-03 9.91616E-02 4.03480E-14-2.96797E-13
 -1      1619 1.99977E+01 3.55528E-01-3.01004E-04 7.65685E-02-6.08888E-15 1.33410E-13
 -1      1620 2.00022E+01 2.66491E-01-7.61091E-04 7.65816E-02-2.26594E-14 2.42148E-13
 -1      1621 2.00082E+01 2.47610E-01-8.51199E-04 1.39218E-01 1.28981E-13-8.85285E-14
 -1      1622 1.99914E+01 4.98805E-01 4.46543E-04 6.50163E-02 1.95705E-13 1.27399E-13
 -1      1623 1.99948E+01 4.19652E-01 2.85391E-05 6.89295E-02-2.44102E-14 3.71894E-13
 -1      1624 1.99949E+01 3.79542E-01 1.41302E-03 1.39788E-01-3.43707E-14 2.46757E-13
 -1      1625 1.99885E+01 5.96280E-01 7.02712E-04 4.00945E-02 3.04149E-13 2.53973E-13
 -1      1626 1.99900E+01 5.45200E-01 3.87572E-04 4.59392E-02 2.23897E-13 4.29859E-14
 -1      1627 1.99855E+01 4.89791E-01 3.03899E-03 1.06389E-01 9.75912E-15 9.19763E-14
 -1      1628 1.99886E+01 6.35378E-01 6.28074E-04 9.46799E-03 3.55103E-13-2.05505E-13
 -1      1629 1.99885E+01 6.18697E-01 4.49640E-04 1.57446E-02 3.20314E-13 2.28188E-13
 -1      1630 1.99814E+01 5.57508E-01 3.60076E-03 5.33190E-02 1.29995E-13 6.00631E-14
 -1      1631 1.99910E+01 6.13681E-01 3.59585E-04-1.87543E-02 1.24181E-13-2.98007E-13
 -1      1632 1.99896E+01 6.30923E-01 2.73269E-04-1.36137E-02 4.48830E-13-2.35586E-13
 -1      1633 1.99823E+01 5.73706E-01 3.28970E-03-4.40058E-03-6.91541E-14-1.39091E-13
 -1      1634 1.99947E+01 5.43723E-01 5.87701E-05-3.92966E-02 7.51649E-13 4.45911E-13
 -1      1635 1.99926E+01 5.86668E-01 4.73955E-05-3.60678E-02 3.49608E-13 2.80192E-13
 -1      1636 1.99866E+01 5.40644E-01 2.35450E-03-5.32586E-02 3.02044E-13 1.16042E-13
 -1      1637 1.99983E+01 4.44445E-01-1.73881E-04-5.00482E-02 5.02518E-13-2.26004E-13
 -1      1638 1.99963E+01 5.01824E-01-1.29488E-04-4.88543E-02 6.55915E-13 2.22906E-13
 -1      1639 1.99925E+01 4.70603E-01 1.18619E-03-8.55016E-02 2.99958E-13 3.05416E-13
 -1      1640 2.00012E+01 3.35381E-01-2.85521E-04-5.16716E-02-2.85615E-13-6.72607E-13
 -1      1641 1.99995E+01 3.96209E-01-2.05197E-04-5.21491E-02 5.47311E-13-4.29396E-13
 -1      1642 1.99981E+01 3.80021E-01 1.13846E-04-9.92103E-02 1.02121E-13-4.79502E-13
 -1      1643 2.00029E+01 2.33863E-01-2.81393E-04-4.67197E-02-6.55883E-13 9.80741E-14
 -1      1644 2.00019E+01 2.88983E-01-1.69928E-04-4.82013E-02-2.74394E-13-4.14936E-13
 -1      1645 2.00024E+01 2.85579E-01-6.58062E-04-9.71252E-02 1.72451E-13-7.13251E-13
 -1      1646 2.00036E+01 1.46286E-01-2.27186E-04-3.79370E-02-3.82133E-13 2.29055E-13
 -1      1647 2.00031E+01 1.92540E-01-9.87073E-05-3.99000E-02-6.93588E-13 4.35391E-13
 -1      1648 2.00049E+01 1.98596E-01-1.06440E-03-8.44389E-02-8.32447E-14 3.02030E-13
 -1      1649 2.00037E+01 7.93123E-02-1.87639E-04-2.78424E-02-5.61154E-13-2.46743E-13
 -1      1650 2.00035E+01 1.13595E-01-3.99528E-05-2.97939E-02-4.19933E-13 9.13722E-14
 -1      1651 2.00059E+01 1.25650E-01-1.18970E-03-6.62125E-02-2.46269E-13 1.02480E-13
 -1      1652 2.00040E+01 3.48170E-02 1.64852E-04-1.78608E-02-5.55607E-13 1.08996E-13
 -1      1653 2.00031E+01 5.59027E-02-1.64860E-04-1.95043E-02-4.50881E-13-1.70478E-13
 -1      1654 2.00063E+01 7.05546E-02-1.04476E-03-4.63062E-02-2.99991E-13-2.03868E-13
 -1      1655 2.00058E+01 1.36906E-02 5.59951E-04-1.14375E-02-2.12522E-13 2.01205E-14
 -1      1656 2.00057E+01 2.29572E-02-1.31716E-04-1.47100E-02-3.35683E-13 1.48759E-13
 -1      1657 2.00098E+01 3.73124E-02-4.26830E-04-3.20615E-02-8.21837E-14 3.81013E-13
 -1      1658 2.00153E+01 1.68738E-02-2.87852E-04-2.28860E-02 4.45152E-14 1.42108E-13
 -1      1659-1.26829E+00-1.84866E+01-1.99286E+00-2.53716E+00 7.66526E-13 1.58484E-14
 -1      1660-9.47980E-01-1.92797E+01-1.98886E+00-7.17530E-01 6.96443E-13 1.16351E-13
 -1      1661-1.20419E-01-1.25920E+01-1.69753E+00-1.78322E+00 5.83422E-13 2.66218E-13
 -1      1662-3.27012E-01-1.69867E+01-1.98161E+00-1.61729E+00 6.95166E-13 1.08469E-13
 -1      1663 4.15703E+00-5.14331E+00-1.36988E+00 1.30539E+00 2.12275E-13-1.94178E-13
 -1      1664 1.86902E+00-1.09818E+01-1.96500E+00-9.94360E-01 4.82947E-13 4.48530E-14
 -1      1665 1.48885E+01 1.26091E+00-6.39015E-01 6.98815E+00-2.11831E-13-4.42535E-13
 -1      1666 8.42366E+00-3.32981E+00-1.57533E+00 2.83761E+00-1.66533E-14-2.36922E-13
 -1      1667 3.33178E+01 3.36244E+00 6.47963E-01 1.05072E+01-3.77587E-13-1.38556E-12
 -1      1668 2.27851E+01 1.44166E+00-5.65481E-01 7.30265E+00-1.19127E-13-8.43547E-13
 -1      1669 5.14835E+01 4.71805E+00 2.12903E+00 1.12831E+01-7.06657E-13-2.23999E-12
 -1      1670 3.90097E+01 5.39952E+00 7.26490E-01 1.12528E+01-5.76095E-13-1.73128E-12
 -1      1671 6.54380E+01 3.81892E+00 3.18377E+00 4.75850E+00-3.67484E-13-2.49312E-12
 -1      1672 5.62405E+01 5.14966E+00 2.18381E+00 9.19973E+00-6.49161E-13-2.39564E-12
 -1      1673 6.86063E+01 4.05233E+00 3.44611E+00-3.12365E+00-6.93889E-14-2.20474E-12
 -1      1674 6.83932E+01 4.04870E+00 3.39848E+00 3.40467E+00-2.21156E-13-2.43855E-12
 -1      1675 5.73796E+01 5.16293E+00 2.34418E+00-9.47277E+00 1.17406E-13-1.43219E-12
 -1      1676 6.63093E+01 3.77919E+00 3.30341E+00-4.88399E+00 3.03091E-14-1.89471E-12
 -1      1677 4.00836E+01 5.37971E+00 8.34909E-01-1.13686E+01 6.99441E-14-8.60423E-13
 -1      1678 5.23084E+01 4.59034E+00 2.17544E+00-1.12514E+01 1.06304E-13-1.35381E-12
 -1      1679 2.22392E+01 2.51959E+00-5.97261E-01-8.00081E+00-2.20268E-13-1.36779E-13
 -1      1680 3.33921E+01 4.33607E+00 7.04834E-01-1.14038E+01 4.68514E-14-5.20251E-13
 -1      1681 9.02012E+00-2.95564E+00-1.49490E+00-3.12893E+00-2.33369E-13 1.95510E-13
 -1      1682 1.54953E+01 1.59281E+00-5.45901E-01-7.22507E+00-1.83631E-13 1.09468E-13
 -1      1683 2.49166E+00-1.04440E+01-1.86497E+00 6.08738E-01-2.04503E-13 2.10165E-13
 -1      1684 5.00291E+00-4.82331E+00-1.27527E+00-1.80747E+00-2.91989E-13 2.67786E-13
 -1      1685-2.89906E-01-1.66668E+01-1.98468E+00 1.79492E+00-1.35669E-13 7.09988E-14
 -1      1686-7.36241E-02-1.21790E+01-1.69813E+00 1.84488E+00-1.53766E-13 1.27079E-13
 -1      1687-8.94217E-01-1.84230E+01-1.82900E+00 7.83606E-01-1.74291E-13-6.56697E-14
 -1      1688-1.17638E+00-1.73085E+01-1.82290E+00 2.39880E+00-1.26676E-13 1.80134E-14
 -1      1689-5.38776E-01-1.57289E+01-1.61771E+00-1.19883E-01-3.98681E-13-2.00673E-13
 -1      1690-7.00853E-01-1.83988E+01-1.86299E+00 1.33404E+00-2.70228E-13-1.73306E-13
 -1      1691 1.15444E+00-8.96119E+00-1.21025E+00 7.18733E-01-5.00933E-13-2.20435E-13
 -1      1692 5.29445E-01-1.43523E+01-1.72909E+00 3.75290E-01-4.36540E-13-1.68220E-13
 -1      1693 6.85843E+00-8.00540E-01-5.16725E-01 4.99053E+00-6.13953E-13-5.72653E-13
 -1      1694 4.05155E+00-6.65416E+00-1.22963E+00 2.30088E+00-5.91083E-13-3.30069E-13
 -1      1695 1.63506E+01 5.79213E+00 1.86371E-01 1.01947E+01-6.72795E-13-5.65992E-13
 -1      1696 1.01714E+01 1.78562E+00-6.71373E-01 6.22915E+00-7.11653E-13-5.75984E-13
 -1      1697 3.12842E+01 7.29352E+00 9.04557E-01 1.35061E+01-4.61631E-13-6.50813E-13
 -1      1698 2.21916E+01 6.50637E+00 7.61311E-02 1.09701E+01-5.58553E-13-7.15428E-13
 -1      1699 4.60224E+01 6.39759E+00 1.54462E+00 1.29235E+01-3.09225E-13-7.09766E-13
 -1      1700 3.66288E+01 8.01698E+00 8.52568E-01 1.37942E+01-4.04954E-13-7.58060E-13
 -1      1701 5.65276E+01 4.22473E+00 1.84278E+00 6.09170E+00-1.44829E-13-5.15976E-13
 -1      1702 5.02483E+01 5.99967E+00 1.45628E+00 1.08216E+01-2.23432E-13-6.49814E-13
 -1      1703 5.86923E+01 3.85573E+00 1.87159E+00-2.96146E+00-1.22236E-13-2.46941E-13
 -1      1704 5.85486E+01 3.86972E+00 1.84336E+00 3.10740E+00-1.34753E-13-3.73618E-13
 -1      1705 5.13412E+01 5.77356E+00 1.52964E+00-1.06785E+01-3.80231E-13 1.93068E-13
 -1      1706 5.71776E+01 4.08991E+00 1.89887E+00-5.98782E+00-2.06307E-13-7.44960E-14
 -1      1707 3.81951E+01 7.82379E+00 9.31088E-01-1.37694E+01-4.66627E-13 6.95222E-13
 -1      1708 4.71758E+01 6.19129E+00 1.58996E+00-1.26074E+01-4.38483E-13 4.97935E-13
 -1      1709 2.30764E+01 7.39144E+00 1.71691E-01-1.17603E+01-3.00870E-13 6.05516E-13
 -1      1710 3.26846E+01 7.88824E+00 1.06368E+00-1.41960E+01-4.03233E-13 8.14238E-13
 -1      1711 1.16363E+01 1.79333E+00-5.95781E-01-6.67401E+00 3.55049E-13 3.51275E-13
 -1      1712 1.81825E+01 5.56945E+00 2.80973E-01-1.05630E+01-1.96620E-13 7.84817E-13
 -1      1713 3.92433E+00-5.72994E+00-1.27392E+00-2.19795E+00 5.09592E-13-1.71807E-13
 -1      1714 6.91540E+00 1.15335E-01-5.12110E-01-5.11522E+00 5.03153E-13-1.20570E-13
 -1      1715 7.22179E-01-1.37880E+01-1.72218E+00-3.41684E-01 5.91083E-13-1.65323E-13
 -1      1716 1.52133E+00-8.16710E+00-1.16592E+00-9.69324E-01 6.59028E-13-1.50269E-13
 -1      1717-6.35192E-01-1.87584E+01-1.97728E+00-1.02075E+00 6.29441E-13 1.47882E-13
 -1      1718-5.03064E-01-1.56384E+01-1.67288E+00 3.18782E-01 5.53779E-13-3.35287E-14
 -1      1719 2.58770E+01-3.55318E+00-1.35654E-01 5.38509E+00-6.51701E-14-1.00209E-12
 -1      1720 1.22785E+01-6.73016E+00-9.44946E-01 4.55269E+00 1.17129E-13-3.52385E-13
 -1      1721 2.00151E+01 1.11753E-02-7.03209E-04 1.25026E-02 4.67981E-13-5.59507E-14
 -1      1722 2.00363E+01 4.93938E-02-4.27017E-05 5.09556E-02-2.13415E-13-2.93271E-13
 -1      1723-7.93318E-01-1.24639E+01-1.39584E+00 5.53705E-01 2.33757E-13-6.99441E-15
 -1      1724 3.76680E+00-1.01364E+01-1.28989E+00 2.58236E+00 3.95239E-13-4.22440E-14
 -1      1725-1.80752E+00-1.32212E+01-1.45292E+00-1.57964E+00 4.67626E-13 1.26954E-13
 -1      1726 3.87159E+01-1.11403E-01 5.62181E-01 3.72757E+00-2.09277E-14-1.64446E-12
 -1      1727 5.00675E+01 4.55326E+00 1.77958E+00 2.35429E+00-3.67317E-13-1.98497E-12
 -1      1728 5.62531E+01 7.57204E+00 2.51994E+00 3.27480E-01-2.93321E-13-1.81766E-12
 -1      1729 5.68359E+01 7.59075E+00 2.61173E+00-8.78730E-01-2.40030E-13-1.48087E-12
 -1      1730 5.04834E+01 4.76980E+00 1.84057E+00-2.87620E+00-1.32866E-13-1.13343E-12
 -1      1731 3.90894E+01 8.63670E-01 7.41306E-01-4.88901E+00-1.73583E-13-7.67608E-13
 -1      1732 2.54727E+01-2.94136E+00-2.32722E-01-5.68062E+00-2.17382E-13-1.95843E-13
 -1      1733 1.30403E+01-6.61212E+00-9.20490E-01-4.68578E+00-1.22347E-13 6.94445E-14
 -1      1734 4.44719E+00-9.97107E+00-1.23988E+00-2.81445E+00-6.02851E-14 1.39673E-13
 -1      1735-5.48977E-01-1.19154E+01-1.33776E+00-6.87672E-01-1.51545E-14 1.89848E-14
 -1      1736-1.71956E+00-1.23223E+01-1.30270E+00 1.38630E+00-1.75818E-13-1.73472E-13
 -1      1737 2.93344E-01-1.10651E+01-1.20348E+00 3.23876E+00-2.91100E-13-1.39111E-13
 -1      1738 5.75839E+00-7.42715E+00-7.91910E-01 5.48959E+00-4.45644E-13-3.49231E-13
 -1      1739 1.37310E+01-3.04097E+00-3.64363E-01 7.30644E+00-4.91496E-13-4.33209E-13
 -1      1740 2.42024E+01 1.37461E+00 2.51189E-01 8.50646E+00-5.80314E-13-5.50671E-13
 -1      1741 3.50333E+01 4.59282E+00 7.61321E-01 8.15303E+00-3.95184E-13-5.76761E-13
 -1      1742 4.44323E+01 6.89669E+00 1.28045E+00 6.33106E+00-3.61627E-13-5.71099E-13
 -1      1743 4.98731E+01 7.85500E+00 1.55806E+00 2.27009E+00-2.67897E-13-4.00735E-13
 -1      1744 5.04628E+01 7.71300E+00 1.60543E+00-2.30135E+00-3.55660E-13-9.48130E-14
 -1      1745 4.52408E+01 7.00295E+00 1.35091E+00-6.26174E+00-4.90885E-13 1.28453E-13
 -1      1746 3.61280E+01 5.25532E+00 9.06150E-01-8.53267E+00-2.86215E-13 4.07674E-13
 -1      1747 2.52381E+01 1.53013E+00 2.53880E-01-8.52649E+00-5.51781E-14 6.77236E-13
 -1      1748 1.48223E+01-2.63256E+00-2.48854E-01-7.46690E+00 7.56062E-14 7.63445E-13
 -1      1749 6.01649E+00-7.09577E+00-8.18104E-01-5.31721E+00 3.11973E-13 5.08343E-14
 -1      1750 6.38719E-01-1.10866E+01-1.22132E+00-3.32328E+00 4.59965E-13-7.50233E-14
 -1      1751 2.28583E+01 1.98484E+00-2.35638E-02-2.72235E+00-1.08222E-13 3.49054E-13
 -1      1752 1.98253E+01 3.71365E+00-3.54661E-02-2.15267E+00-1.32215E-13-2.08070E-13
 -1      1753 2.00579E+01 3.56264E+00-4.02447E-02-2.44493E+00-1.57105E-13-1.62835E-13
 -1      1754 2.03632E+01 3.18149E+00-4.57807E-02-2.58479E+00-1.55451E-13-1.05436E-13
 -1      1755 2.05830E+01 2.80968E+00-1.42527E-01-2.85309E+00-1.62460E-13-2.86299E-14
 -1      1756 2.04240E+01 2.69284E+00-4.24321E-03-2.22421E+00-1.61561E-13-1.24248E-13
 -1      1757 1.93556E+01 4.18909E+00-2.00383E-02-1.27031E+00-6.78088E-14-2.74064E-13
 -1      1758 1.94295E+01 4.14947E+00-1.68760E-02-1.49473E+00-8.13750E-14-2.70770E-13
 -1      1759 1.92589E+01 4.29513E+00-1.67449E-02-8.59443E-01-3.66773E-14-2.80848E-13
 -1      1760 1.93017E+01 4.27114E+00-1.42266E-02-1.07017E+00-5.27230E-14-2.83273E-13
 -1      1761 1.95277E+01 3.78362E+00-8.92606E-03-1.11920E+00-6.43026E-14-2.70391E-13
 -1      1762 1.92075E+01 4.35559E+00-1.47881E-02-4.66723E-01-4.73504E-15-2.81396E-13
 -1      1763 1.92294E+01 4.34272E+00-1.32986E-02-6.66980E-01-1.71894E-14-2.81533E-13
 -1      1764 1.94303E+01 3.90391E+00-9.13775E-03-7.33019E-01-2.25647E-14-2.68464E-13
 -1      1765 1.91881E+01 4.38120E+00-1.36661E-02-8.36424E-02 3.51144E-14-2.69805E-13
 -1      1766 1.91945E+01 4.37727E+00-1.32127E-02-2.79056E-01 2.05937E-14-2.79322E-13
 -1      1767 1.93801E+01 3.96835E+00-9.13906E-03-3.58250E-01 4.14008E-15-2.65492E-13
 -1      1768 1.91962E+01 4.37587E+00-1.31701E-02 2.98049E-01 5.93609E-14-2.61928E-13
 -1      1769 1.91886E+01 4.38035E+00-1.37526E-02 1.02471E-01 4.80654E-14-2.67952E-13
 -1      1770 1.93654E+01 3.98775E+00-9.13734E-03 1.05194E-02 4.39224E-14-2.67284E-13
 -1      1771 1.92335E+01 4.33863E+00-1.33280E-02 6.86734E-01 8.17144E-14-2.61595E-13
 -1      1772 1.92103E+01 4.35235E+00-1.49179E-02 4.85951E-01 6.89942E-14-2.68639E-13
 -1      1773 1.93828E+01 3.96500E+00-9.18193E-03 3.79486E-01 6.35767E-14-2.56368E-13
 -1      1774 1.93069E+01 4.26513E+00-1.44086E-02 1.08436E+00 1.10378E-13-2.39569E-13
 -1      1775 1.92636E+01 4.28964E+00-1.69742E-02 8.76406E-01 9.83692E-14-2.52081E-13
 -1      1776 1.94356E+01 3.89742E+00-9.18774E-03 7.51588E-01 9.48568E-14-2.44072E-13
 -1      1777 1.94384E+01 4.13782E+00-1.74020E-02 1.51436E+00 1.30093E-13-1.96107E-13
 -1      1778 1.93620E+01 4.18044E+00-2.05029E-02 1.28483E+00 1.15641E-13-2.17125E-13
 -1      1779 1.95352E+01 3.77340E+00-9.23595E-03 1.13531E+00 1.28240E-13-2.17361E-13
 -1      1780 1.96674E+01 3.92116E+00-2.51919E-02 1.97944E+00 1.67292E-13-1.21396E-13
 -1      1781 1.95347E+01 3.99798E+00-2.69020E-02 1.72210E+00 1.44220E-13-1.62818E-13
 -1      1782 1.97084E+01 3.56619E+00-8.69553E-03 1.53502E+00 1.46637E-13-1.67397E-13
 -1      1783 2.00758E+01 3.52274E+00-4.51818E-02 2.47189E+00 1.91212E-13-2.54796E-14
 -1      1784 1.98359E+01 3.68325E+00-3.97195E-02 2.18278E+00 1.77793E-13-8.77562E-14
 -1      1785 2.00046E+01 3.22295E+00-5.26881E-03 1.93436E+00 1.79094E-13-8.90382E-14
 -1      1786 2.09207E+01 2.68173E+00-5.76439E-02 2.85762E+00 1.84569E-13 1.57332E-13
 -1      1787 2.04135E+01 3.09688E+00-5.04221E-02 2.61583E+00 1.79850E-13 5.22152E-14
 -1      1788 2.05174E+01 2.60992E+00 3.18884E-03 2.24437E+00 1.92373E-13 1.06859E-14
 -1      1789 2.17306E+01 1.21295E+00-1.22086E-01 2.32974E+00 1.61995E-13 3.47222E-13
 -1      1790 2.12743E+01 2.26297E+00 1.19773E-04 2.74031E+00 1.70640E-13 2.21018E-13
 -1      1791 2.09373E+01 1.68499E+00-2.29555E-02 2.14006E+00 1.84059E-13 1.56059E-13
 -1      1792 2.09520E+01 7.78659E-01-6.24447E-02 1.52408E+00 1.54939E-13 3.02050E-13
 -1      1793 2.17966E+01 2.45814E+00 9.09088E-02-3.04802E+00-1.41409E-13 1.21070E-13
 -1      1794 2.01013E+01 2.97949E-01-8.90753E-03 6.56938E-01 1.07470E-13 2.48197E-13
 -1      1795 2.06533E+01 4.40409E-01-1.24601E-02 1.03397E+00 1.20966E-13 2.77065E-13
 -1      1796 2.07446E+01 8.45113E-01 2.25161E-03 1.41502E+00 1.49394E-13 1.92651E-13
 -1      1797 2.15071E+01 1.74229E+00 7.94314E-02-2.33697E+00-1.52028E-13 5.19654E-14
 -1      1798 2.05209E+01 5.00615E-01 3.23922E-02-9.21519E-01-1.19210E-13 3.25399E-14
 -1      1799 2.00892E+01 3.52162E-01 7.57008E-03-6.29629E-01-9.35398E-14 3.58741E-15
 -1      1800 1.98948E+01 2.57516E-01 2.74156E-02-3.90990E-01-9.39587E-14 1.89519E-15
 -1      1801 1.97041E+01 1.78140E-01 1.04293E-02-2.53102E-01-7.30674E-14-3.46025E-14
 -1      1802 2.01992E+01 4.83595E-01-5.98368E-03-7.22446E-01-1.07967E-13-6.70713E-14
 -1      1803 1.95822E+01 1.32760E-01 1.66599E-02-1.19581E-01-4.91109E-14-4.54801E-14
 -1      1804 1.95042E+01 9.31438E-02 6.97623E-03-4.87517E-02-4.93247E-14-5.76132E-14
 -1      1805 1.98736E+01 2.43928E-01-5.79167E-03-2.95152E-01-8.32823E-14-9.16112E-14
 -1      1806 1.94395E+01 6.85221E-02 8.68569E-03 2.48632E-02-5.19519E-14-6.59806E-14
 -1      1807 1.94252E+01 4.68999E-02 4.12714E-03 6.11304E-02-5.57091E-14-7.15231E-14
 -1      1808 1.96912E+01 1.25388E-01-4.64874E-03-5.82830E-02-6.32255E-14-1.30365E-13
 -1      1809 1.93994E+01 3.26206E-02 4.24346E-03 1.00021E-01-6.14896E-14-5.73224E-14
 -1      1810 1.94195E+01 2.02550E-02 2.45861E-03 1.16955E-01-4.70743E-14-6.89381E-14
 -1      1811 1.96051E+01 6.12454E-02-3.47825E-03 7.16271E-02-6.04841E-14-1.18459E-13
 -1      1812 1.94182E+01 1.16878E-02 1.86814E-03 1.35157E-01-4.16004E-14-5.77906E-14
 -1      1813 1.94558E+01 4.60783E-03 1.48985E-03 1.40836E-01-3.65231E-14-7.16355E-14
 -1      1814 1.95815E+01 2.45758E-02-2.35616E-03 1.38556E-01-4.50339E-14-5.74205E-14
 -1      1815 1.94689E+01-4.85895E-04 5.73526E-04 1.46645E-01-4.41101E-14-7.25136E-14
 -1      1816 1.95140E+01-4.32732E-03 8.95409E-04 1.45815E-01-5.26331E-14-7.23337E-14
 -1      1817 1.95961E+01 3.32352E-03-1.46322E-03 1.67666E-01-4.30244E-14-4.27939E-14
 -1      1818 1.95348E+01-7.18175E-03-1.40141E-04 1.44415E-01-8.56132E-14-6.89224E-14
 -1      1819 1.95815E+01-8.95667E-03 5.22960E-04 1.40057E-01-6.45034E-14-4.50375E-14
 -1      1820 1.96321E+01-8.54751E-03-8.27618E-04 1.74224E-01-5.76903E-14-6.43412E-14
 -1      1821 1.96058E+01-1.03237E-02-5.17375E-04 1.34807E-01-7.97711E-14-8.59358E-14
 -1      1822 1.96508E+01-1.07573E-02 2.98099E-04 1.28862E-01-7.03632E-14-1.47708E-13
 -1      1823 1.96789E+01-1.44320E-02-4.07203E-04 1.67943E-01-1.06506E-13-9.93895E-14
 -1      1824 1.96760E+01-1.11290E-02-6.88121E-04 1.21982E-01-3.06464E-14-1.67807E-13
 -1      1825 1.97177E+01-1.06971E-02 1.76753E-04 1.15728E-01 1.13143E-14-1.92026E-13
 -1      1826 1.97298E+01-1.64090E-02-1.47788E-04 1.55187E-01-7.06291E-14-1.40705E-13
 -1      1827 1.97424E+01-1.04135E-02-7.29762E-04 1.08683E-01 1.16424E-14-1.96543E-13
 -1      1828 1.97804E+01-9.44513E-03 1.27430E-04 1.02944E-01 8.58035E-15-2.13269E-13
 -1      1829 1.97806E+01-1.58405E-02-3.24223E-06 1.40175E-01-6.53188E-15-1.53109E-13
 -1      1830 1.98039E+01-8.75461E-03-6.92635E-04 9.66717E-02-5.82084E-15-2.43614E-13
 -1      1831 1.98383E+01-7.49310E-03 1.24331E-04 9.19498E-02-6.02491E-14-2.22217E-13
 -1      1832 1.98296E+01-1.36719E-02 6.17597E-05 1.25664E-01-1.16348E-14-1.83534E-13
 -1      1833 1.98605E+01-6.59238E-03-6.11348E-04 8.69951E-02-7.92546E-14-2.03883E-13
 -1      1834 1.98920E+01-5.23960E-03 1.43336E-04 8.35380E-02-9.81579E-14-1.82661E-13
 -1      1835 1.98760E+01-1.06086E-02 7.39307E-05 1.13363E-01-4.74209E-14-1.80093E-13
 -1      1836 1.99132E+01-4.30606E-03-5.10786E-04 8.01214E-02-8.64998E-14-1.88280E-13
 -1      1837 1.99426E+01-3.05983E-03 1.58653E-04 7.79488E-02-6.48708E-14-1.51502E-13
 -1      1838 1.99199E+01-7.23945E-03 5.41457E-05 1.04165E-01-7.73122E-14-2.05265E-13
 -1      1839 1.99631E+01-2.28067E-03-4.09836E-04 7.59828E-02-9.19052E-14-1.53139E-13
 -1      1840 1.99910E+01-1.36959E-03 1.39766E-04 7.48740E-02-5.09595E-14-2.00414E-13
 -1      1841 1.99621E+01-4.14058E-03 1.98749E-05 9.82511E-02-8.83556E-14-1.31492E-13
 -1      1842 2.00114E+01-9.69320E-04-3.23904E-04 7.39312E-02-3.49151E-14-2.56184E-13
 -1      1843 2.00383E+01-6.85006E-04 4.89982E-05 7.33767E-02-1.49619E-15-2.64179E-13
 -1      1844 2.00034E+01-1.97016E-03-1.27718E-05 9.50709E-02-1.02379E-13-2.06707E-13
 -1      1845 2.00586E+01-9.48882E-04-2.66572E-04 7.26147E-02-2.51026E-14-3.07859E-13
 -1      1846 2.00844E+01-1.67032E-03-1.59407E-04 7.17388E-02-1.04288E-13-3.33180E-13
 -1      1847 2.00443E+01-1.55339E-03-2.72603E-05 9.32315E-02-6.65724E-14-2.16128E-13
 -1      1848 2.01046E+01-2.95686E-03-2.50516E-04 6.97958E-02-1.73099E-13-3.59177E-13
 -1      1849 2.01282E+01-5.15542E-03-5.37075E-04 6.72638E-02-1.64705E-13-4.26696E-13
 -1      1850 2.00851E+01-3.94272E-03-5.03198E-06 9.03012E-02-1.53812E-13-2.61025E-13
 -1      1851 2.01478E+01-7.88441E-03-2.87670E-04 6.21518E-02-1.73057E-14-4.47724E-13
 -1      1852 2.01669E+01-1.20888E-02-1.13383E-03 5.60957E-02 1.53296E-13-4.59786E-13
 -1      1853 2.01250E+01-1.04198E-02 7.57641E-05 8.25775E-02-9.38679E-14-3.00186E-13
 -1      1854 2.01845E+01-1.66835E-02-3.88607E-04 4.51450E-02 2.13911E-13-4.72436E-13
 -1      1855 2.01952E+01-2.33747E-02-1.98181E-03 3.31662E-02 1.33520E-13-3.97470E-13
 -1      1856 2.01621E+01-2.23817E-02 2.40877E-04 6.49068E-02 1.70950E-13-4.09999E-13
 -1      1857 2.02083E+01-3.01298E-02-5.61207E-04 1.31128E-02 8.47198E-14-3.16631E-13
 -1      1858 2.02049E+01-3.95320E-02-3.06919E-03-7.54461E-03 1.22246E-13-2.13546E-13
 -1      1859 2.01923E+01-4.10301E-02 5.19075E-04 3.07134E-02 1.70144E-13-3.41386E-13
 -1      1860 2.02099E+01-4.83809E-02-8.08364E-04-4.01944E-02 4.56358E-14-2.01150E-13
 -1      1861 2.01847E+01-6.01246E-02-4.30457E-03-7.21760E-02 5.32335E-14-1.76343E-13
 -1      1862 2.02095E+01-6.67748E-02 9.38014E-04-2.75145E-02 1.07486E-13-1.57160E-13
 -1      1863 2.01764E+01-7.03029E-02-1.12423E-03-1.20342E-01 6.26617E-14-2.35918E-13
 -1      1864 2.01207E+01-8.29912E-02-5.48053E-03-1.65302E-01 2.92774E-14-2.66343E-13
 -1      1865 2.02048E+01-9.83061E-02 1.51363E-03-1.16959E-01 3.81761E-14-3.14664E-13
 -1      1866 2.00924E+01-9.26580E-02-1.48691E-03-2.29963E-01 5.19391E-14-2.95361E-13
 -1      1867 1.99975E+01-1.03469E-01-6.25637E-03-2.87233E-01 3.08360E-14-2.68688E-13
 -1      1868 2.01663E+01-1.31441E-01 2.22788E-03-2.42100E-01 5.29429E-14-2.63104E-13
 -1      1869 1.99422E+01-1.09469E-01-1.84299E-03-3.65543E-01-3.45340E-14-2.67593E-13
 -1      1870 1.98020E+01-1.14094E-01-6.19397E-03-4.30555E-01-8.43900E-15-2.94900E-13
 -1      1871 2.00804E+01-1.58148E-01 2.99194E-03-4.01135E-01 3.59504E-14-3.10344E-13
 -1      1872 1.97130E+01-1.12183E-01-2.08357E-03-5.13868E-01 9.80162E-15-2.59637E-13
 -1      1873 1.95271E+01-1.05530E-01-4.88170E-03-5.76907E-01 6.19023E-14-2.54287E-13
 -1      1874 1.99338E+01-1.66573E-01 3.59978E-03-5.81648E-01 7.02945E-14-2.02261E-13
 -1      1875 1.94018E+01-9.14576E-02-2.01342E-03-6.49723E-01 1.72364E-13-1.67174E-13
 -1      1876 1.91786E+01-6.94699E-02-2.15312E-03-6.96037E-01 2.04709E-13-8.24855E-14
 -1      1877 1.97175E+01-1.43220E-01 3.70174E-03-7.57084E-01 1.55544E-13-1.16974E-13
 -1      1878 1.90216E+01-4.10450E-02-1.36150E-03-7.37354E-01 5.87242E-14-1.46260E-13
 -1      1879 1.87808E+01-3.42994E-03 1.67039E-03-7.49751E-01-7.33272E-15-1.95882E-13
 -1      1880 1.94338E+01-7.79976E-02 2.86337E-03-8.86774E-01 7.96049E-14-5.01029E-14
 -1      1881 1.86077E+01 3.69746E-02 1.48245E-04-7.38130E-01-5.83427E-14-2.28493E-13
 -1      1882 1.83790E+01 8.42973E-02 5.69181E-03-7.02462E-01-1.44950E-13-1.95256E-13
 -1      1883 1.91028E+01 2.85484E-02 7.58841E-04-9.22768E-01-4.02589E-14-2.25927E-13
 -1      1884 1.82168E+01 1.28312E-01 2.60525E-03-6.24542E-01-1.82388E-13-1.90271E-13
 -1      1885 1.80351E+01 1.73150E-01 8.68706E-03-5.36722E-01-1.51589E-13-1.68762E-13
 -1      1886 1.87670E+01 1.59300E-01-2.46706E-03-8.24945E-01-1.04625E-13-2.14795E-13
 -1      1887 1.79170E+01 2.08021E-01 5.65796E-03-3.96010E-01-1.11224E-13-1.06001E-13
 -1      1888 1.78142E+01 2.35860E-01 9.68130E-03-2.67002E-01 2.95510E-15-1.46483E-13
 -1      1889 1.84863E+01 2.81253E-01-5.92766E-03-5.80962E-01-1.06843E-13-6.34887E-15
 -1      1890 1.77684E+01 2.49629E-01 8.40376E-03-8.72828E-02-2.70166E-14-1.14859E-13
 -1      1891 1.77636E+01 2.50426E-01 8.49741E-03 5.79614E-02 3.28878E-14-1.13894E-13
 -1      1892 1.83222E+01 3.56304E-01-8.22663E-03-2.20987E-01-3.37699E-14 3.18531E-14
 -1      1893 1.78018E+01 2.38082E-01 9.71264E-03 2.38801E-01 8.26075E-14-1.76390E-13
 -1      1894 1.78956E+01 2.11574E-01 5.82219E-03 3.69473E-01 4.98646E-14-2.52272E-13
 -1      1895 1.83146E+01 3.58501E-01-8.26868E-03 1.84821E-01 5.21631E-15-8.00809E-14
 -1      1896 1.80073E+01 1.77662E-01 8.84524E-03 5.13195E-01 6.65128E-14-2.66605E-13
 -1      1897 1.81813E+01 1.33373E-01 2.74079E-03 6.03780E-01 3.81739E-14-1.66639E-13
 -1      1898 1.84648E+01 2.87051E-01-6.07647E-03 5.49480E-01 9.98724E-15 8.03155E-15
 -1      1899 1.83391E+01 8.94477E-02 5.94272E-03 6.85510E-01-3.29897E-14-1.15313E-13
 -1      1900 1.85621E+01 4.16776E-02 1.88995E-04 7.24023E-01-1.27721E-13-9.21624E-14
 -1      1901 1.87346E+01 1.66644E-01-2.67223E-03 8.01260E-01 6.48244E-14 4.39791E-14
 -1      1902 1.87326E+01 5.51321E-04 1.94266E-03 7.38863E-01-6.02087E-14 5.00806E-14
 -1      1903 1.89693E+01-3.81998E-02-1.40936E-03 7.28439E-01-9.12790E-15 6.56038E-14
 -1      1904 1.90634E+01 3.48768E-02 6.07452E-04 9.07073E-01 3.45315E-14 3.05796E-13
 -1      1905 1.91248E+01-6.77193E-02-1.93553E-03 6.88804E-01-1.24199E-13-1.54473E-14
 -1      1906 1.93449E+01-9.09753E-02-2.11758E-03 6.43144E-01-8.45307E-14-9.52513E-14
 -1      1907 1.93903E+01-7.45648E-02 2.80935E-03 8.76568E-01-1.21342E-13 1.57178E-13
 -1      1908 1.94689E+01-1.06030E-01-4.75688E-03 5.70324E-01-2.13672E-14-8.82718E-14
 -1      1909 1.96520E+01-1.13635E-01-2.20277E-03 5.06740E-01-1.13118E-13-1.40934E-14
 -1      1910 1.96712E+01-1.43126E-01 3.72916E-03 7.48686E-01-7.14897E-14 5.31262E-14
 -1      1911 1.97392E+01-1.16129E-01-6.15501E-03 4.22193E-01-1.76867E-13 2.38338E-14
 -1      1912 1.98760E+01-1.11923E-01-1.94203E-03 3.55910E-01-2.52938E-14 3.35945E-14
 -1      1913 1.98844E+01-1.69038E-01 3.66526E-03 5.71805E-01-1.00322E-13 1.79165E-13
 -1      1914 1.99289E+01-1.06001E-01-6.26865E-03 2.75871E-01 2.55848E-14 8.60951E-15
 -1      1915 2.00197E+01-9.50123E-02-1.52597E-03 2.17226E-01 1.47572E-13-7.08662E-14
 -1      1916 2.00268E+01-1.61734E-01 3.05704E-03 3.87960E-01-2.33071E-14 2.71180E-13
 -1      1917 2.00449E+01-8.48932E-02-5.50045E-03 1.51154E-01 2.82203E-13-5.23376E-14
 -1      1918 2.00960E+01-7.14179E-02-1.05804E-03 1.05376E-01 2.56212E-13 4.71351E-14
 -1      1919 2.01072E+01-1.34490E-01 2.26354E-03 2.25436E-01 1.38448E-13 1.94975E-13
 -1      1920 2.01011E+01-6.02532E-02-4.29339E-03 5.69372E-02 1.83821E-13 1.22353E-13
 -1      1921 2.01219E+01-4.70948E-02-5.87431E-04 2.53700E-02 1.39908E-13 4.37465E-13
 -1      1922 2.01393E+01-9.91040E-02 1.49760E-03 9.84523E-02 2.75475E-13 2.58278E-13
 -1      1923 2.01140E+01-3.67046E-02-3.00189E-03-5.60204E-03 4.09170E-14 2.53158E-13
 -1      1924 2.01144E+01-2.52208E-02-1.39611E-04-2.39182E-02 8.94076E-14 2.64554E-13
 -1      1925 2.01379E+01-6.35584E-02 8.55363E-04 1.06047E-02 6.81347E-14 2.96426E-13
 -1      1926 2.00994E+01-1.63598E-02-1.85515E-03-3.95233E-02-2.76383E-14 2.15760E-13
 -1      1927 2.00888E+01-6.98276E-03 2.35372E-04-4.65471E-02-1.90067E-14 2.22866E-13
 -1      1928 2.01160E+01-3.19816E-02 3.56989E-04-4.08250E-02 6.49860E-15 1.59248E-13
 -1      1929 2.00713E+01 1.17304E-04-9.72825E-04-4.96793E-02 7.85426E-14 2.50431E-13
 -1      1930 2.00569E+01 7.38956E-03 4.86945E-04-4.77603E-02 9.85093E-14 2.11795E-13
 -1      1931 2.00844E+01-5.93976E-03 1.76804E-05-6.13603E-02-5.40134E-14 2.32574E-13
 -1      1932 2.00415E+01 1.15131E-02-4.00414E-04-4.15264E-02 1.12778E-13 2.76920E-13
 -1      1933 2.00289E+01 1.59067E-02 6.52877E-04-3.38755E-02 1.46989E-13 2.43652E-13
 -1      1934 2.00259E+01 2.28319E-02-4.99609E-05-4.02998E-02 2.01499E-14 4.00947E-13
 -1      1935 2.00527E+01 1.41703E-02 2.12879E-04-5.80219E-02 1.15903E-13 4.55232E-13
 -1      1936 1.96187E+01 1.42054E-01 7.88431E-03 2.59239E-01 8.19032E-14 1.87387E-13
 -1      1937 1.98908E+01 2.04123E-01 1.64449E-02 4.32279E-01 9.63951E-14 2.23072E-13
 -1      1938 2.01025E+01 3.50583E-01-1.52641E-03 6.54813E-01 1.13872E-13 1.45105E-13
 -1      1939 1.93760E+01 7.18096E-02 6.75532E-03 5.57919E-02 2.51682E-14 1.42103E-13
 -1      1940 1.94916E+01 1.02029E-01 1.42830E-02 1.44799E-01 4.60821E-14 1.68522E-13
 -1      1941 1.97100E+01 1.65135E-01-1.97933E-03 2.55960E-01 6.39176E-14 1.33044E-13
 -1      1942 1.92845E+01 3.46910E-02 4.27687E-03-5.34450E-02 9.19477E-14 1.11006E-13
 -1      1943 1.93142E+01 5.10515E-02 8.30389E-03-4.79480E-03 5.35362E-14 1.25754E-13
 -1      1944 1.95075E+01 8.00847E-02-2.64885E-03 4.07708E-02 6.11577E-14 6.55556E-14
 -1      1945 1.92868E+01 1.56184E-02 2.79931E-03-1.03907E-01 7.21350E-14 8.41926E-14
 -1      1946 1.92698E+01 2.43028E-02 4.27659E-03-7.99834E-02 7.47894E-14 1.02622E-13
 -1      1947 1.94296E+01 3.60021E-02-2.88253E-03-7.22319E-02 9.05132E-14 3.85039E-14
 -1      1948 1.93366E+01 4.41414E-03 1.96751E-03-1.25247E-01 1.28914E-14 5.06792E-14
 -1      1949 1.92971E+01 9.27142E-03 2.08370E-03-1.14143E-01 3.35345E-14 8.48230E-14
 -1      1950 1.94266E+01 1.30579E-02-2.30181E-03-1.26113E-01 5.74455E-14 6.06932E-14
 -1      1951 1.94103E+01-2.06419E-03 1.44173E-03-1.29429E-01 3.42134E-14 4.98586E-14
 -1      1952 1.93608E+01 5.53842E-04 9.28629E-04-1.25948E-01 8.81756E-15 5.55299E-14
 -1      1953 1.94637E+01 2.91121E-05-1.68489E-03-1.48070E-01 1.75975E-14 3.78961E-14
 -1      1954 1.94931E+01-5.51100E-03 1.09740E-03-1.23924E-01 7.48617E-14-1.14197E-14
 -1      1955 1.94411E+01-4.29762E-03 3.01266E-04-1.24811E-01 7.83396E-14 3.47027E-14
 -1      1956 1.95217E+01-7.16798E-03-1.18473E-03-1.51334E-01 8.16241E-14-2.48231E-14
 -1      1957 1.95806E+01-7.07462E-03 8.25588E-04-1.12769E-01 1.30541E-14-4.50033E-14
 -1      1958 1.95280E+01-6.71615E-03-6.04535E-05-1.16323E-01 4.76592E-14-3.07266E-14
 -1      1959 1.95901E+01-1.05471E-02-8.16929E-04-1.43767E-01 5.48027E-14-4.94140E-14
 -1      1960 1.96595E+01-7.12132E-03 6.32523E-04-1.00320E-01 4.08625E-15-7.56031E-14
 -1      1961 1.96130E+01-7.42681E-03-2.42562E-04-1.04703E-01-1.27505E-14-5.44795E-14
 -1      1962 1.96600E+01-1.15953E-02-5.31057E-04-1.31036E-01 8.40693E-15-4.48968E-14
 -1      1963 1.97325E+01-6.26795E-03 5.24735E-04-8.84307E-02 4.82230E-14-9.68686E-14
 -1      1964 1.96904E+01-6.96061E-03-3.05935E-04-9.27924E-02 3.80647E-14-8.27091E-14
 -1      1965 1.97258E+01-1.08702E-02-3.60952E-04-1.17161E-01 2.97075E-14-9.06404E-14
 -1      1966 1.97997E+01-4.70636E-03 4.76532E-04-7.85992E-02 7.53144E-14-8.60759E-14
 -1      1967 1.97616E+01-5.66202E-03-2.80198E-04-8.22092E-02 7.16988E-14-7.79285E-14
 -1      1968 1.97877E+01-9.00239E-03-2.64005E-04-1.04409E-01 6.70072E-14-1.07735E-13
 -1      1969 1.98625E+01-2.49396E-03 5.15919E-04-7.21006E-02-1.06026E-15-1.38467E-13
 -1      1970 1.98273E+01-3.66818E-03-1.86854E-04-7.43473E-02 1.78212E-14-1.04696E-13
 -1      1971 1.98461E+01-6.20627E-03-2.25109E-04-9.46763E-02 3.31792E-14-6.14606E-14
 -1      1972 1.99269E+01 5.87151E-04 6.14600E-04-7.01709E-02 1.22504E-14-1.77418E-13
 -1      1973 1.98913E+01-9.05170E-04-4.05247E-05-7.03902E-02 3.45707E-14-1.74547E-13
 -1      1974 1.99038E+01-2.42266E-03-2.60712E-04-8.95570E-02 4.19375E-14-1.53557E-13
 -1      1975 1.99911E+01 4.49007E-03 8.23158E-04-7.45644E-02-1.00373E-13-1.43424E-13
 -1      1976 1.99557E+01 2.73128E-03 1.77163E-04-7.20601E-02-2.91103E-14-2.18989E-13
 -1      1977 1.99624E+01 2.60956E-03-2.86759E-04-9.11055E-02-3.40393E-15-1.84183E-13
 -1      1978 2.00638E+01 9.81056E-03 1.18957E-03-8.71071E-02 9.26245E-15-1.94347E-13
 -1      1979 2.00236E+01 7.51486E-03 4.55748E-04-8.08833E-02-5.16566E-14-1.74440E-13
 -1      1980 2.00245E+01 9.10771E-03-3.78441E-04-1.01329E-01-3.82825E-14-1.28387E-13
 -1      1981 2.01529E+01 1.73000E-02 1.77671E-03-1.10870E-01 7.04688E-15-1.24826E-13
 -1      1982 2.01031E+01 1.41596E-02 8.38009E-04-9.94003E-02 2.06857E-14-8.04801E-14
 -1      1983 2.00967E+01 1.80294E-02-5.20252E-04-1.23208E-01-9.64181E-15-6.57362E-14
 -1      1984 2.02689E+01 2.81568E-02 2.73173E-03-1.50575E-01 2.60819E-14-5.06192E-14
 -1      1985 2.02030E+01 2.37379E-02 1.38803E-03-1.31497E-01 7.89798E-15-1.16978E-13
 -1      1986 2.01862E+01 3.07140E-02-7.30673E-04-1.61302E-01-1.24166E-14 1.25943E-14
 -1      1987 2.04358E+01 4.53412E-02 4.17422E-03-2.17262E-01-1.33108E-14-6.61504E-14
 -1      1988 2.03390E+01 3.82048E-02 2.11680E-03-1.84822E-01 4.83613E-14-8.56173E-15
 -1      1989 2.03062E+01 4.99018E-02-1.01185E-03-2.24483E-01 1.97052E-14 1.02458E-13
 -1      1990 2.06601E+01 7.00765E-02 6.33937E-03-3.16393E-01-3.27585E-14-6.53456E-14
 -1      1991 2.05273E+01 5.99534E-02 3.17603E-03-2.68184E-01-5.79224E-14-1.24995E-13
 -1      1992 2.04680E+01 7.88593E-02-1.30642E-03-3.23291E-01-2.39303E-14 9.24478E-14
 -1      1993 2.09775E+01 1.07075E-01 9.37647E-03-4.66996E-01-5.85088E-14 9.72963E-15
 -1      1994 2.07850E+01 9.18438E-02 4.46866E-03-3.92872E-01-8.31149E-15-2.03212E-15
 -1      1995 2.06840E+01 1.21500E-01-1.65779E-03-4.70240E-01-3.59786E-14 1.00224E-15
 -1      1996 2.14279E+01 1.61247E-01 1.33188E-02-6.92774E-01 6.92675E-15-4.83409E-14
 -1      1997 2.11479E+01 1.39126E-01 6.02187E-03-5.80156E-01-3.80486E-14-8.46437E-16
 -1      1998 2.09792E+01 1.84557E-01-2.20180E-03-6.89702E-01-2.76862E-14 3.71634E-14
 -1      1999 2.20627E+01 2.36514E-01 1.75197E-02-1.02435E+00 4.38634E-14 3.61070E-14
 -1      2000 2.16582E+01 2.06622E-01 7.41343E-03-8.56383E-01 5.15525E-14-6.91309E-14
 -1      2001 2.13804E+01 2.74760E-01-3.16119E-03-1.01153E+00 6.57972E-14 1.00918E-13
 -1      2002 2.29422E+01 3.29228E-01 2.01208E-02-1.49435E+00 8.94076E-15-1.24145E-14
 -1      2003 2.23685E+01 2.96280E-01 7.98877E-03-1.25123E+00 3.76088E-14 2.22426E-14
 -1      2004 2.19176E+01 3.93547E-01-5.24184E-03-1.46950E+00 8.74127E-15 8.78824E-14
 -1      2005 2.41880E+01 4.13896E-01 1.83400E-02-2.14129E+00-1.01127E-13-2.85987E-14
 -1      2006 2.33631E+01 3.94345E-01 6.17071E-03-1.79891E+00-5.03347E-14-2.39166E-14
 -1      2007 2.26420E+01 5.26028E-01-9.22661E-03-2.10416E+00-1.64695E-14-5.67012E-14
 -1      2008 2.57132E+01 3.81218E-01 9.58654E-03-2.82252E+00-1.38236E-15 7.35176E-14
 -1      2009 2.47027E+01 4.33612E-01 2.98186E-03-2.45628E+00-1.72813E-14 3.71508E-14
 -1      2010 2.35789E+01 5.84808E-01-1.31921E-02-2.87423E+00-6.74096E-14-6.59889E-15
 -1      2011 2.75459E+01 9.31722E-03-7.21848E-04-3.25483E+00 1.10972E-13-1.30979E-13
 -1      2012 2.63956E+01 2.48834E-01 7.97549E-03-3.01626E+00 2.10027E-14-3.01148E-14
 -1      2013 2.47656E+01 3.54677E-01-1.32900E-02-3.57396E+00 3.73807E-14-1.04214E-13
 -1      2014 2.96326E+01-1.01199E+00 3.57237E-03-2.72127E+00 1.05797E-13-1.96071E-13
 -1      2015 2.85435E+01-4.61195E-01 3.63586E-02-3.01290E+00 1.79336E-13-1.04243E-13
 -1      2016 2.63995E+01-5.55763E-01-3.53722E-03-3.74762E+00 1.75967E-13-4.28219E-14
 -1      2017 3.18924E+01-2.49797E+00 1.35013E-02-2.22584E-01-3.93643E-14-2.74086E-13
 -1      2018 3.11708E+01-1.86881E+00 7.07314E-02-1.61133E+00-2.91295E-14-2.63907E-13
 -1      2019 2.88771E+01-2.36379E+00 1.35050E-02-2.55497E+00 4.24938E-14-1.93508E-13
 -1      2020 3.44897E+01-2.38463E+00-4.41767E-02 3.90878E+00-2.45290E-13-2.01922E-13
 -1      2021 3.38916E+01-2.96859E+00-2.06088E-02 1.58715E+00-1.29230E-13-2.78140E-13
 -1      2022 3.24222E+01-3.82349E+00-3.35854E-02 5.78098E-01-1.42997E-13-3.54973E-13
 -1      2023 3.59803E+01 4.19694E+00-1.95633E-01-1.36646E+00-3.28515E-13-2.08621E-13
 -1      2024 3.58918E+01 4.40597E+00-1.61373E-01 7.08163E-01-6.05183E-13-8.69305E-14
 -1      2025 3.61716E+01 1.12955E+00-1.64016E-01-4.77178E+00-1.57652E-13-6.86950E-15
 -1      2026 3.55069E+01 3.30070E+00-1.50821E-01-3.35179E+00-2.25264E-13-1.77025E-13
 -1      2027 3.53351E+01-2.03595E+00-1.00980E-02-4.26427E+00 3.71439E-13-2.00298E-13
 -1      2028 3.46031E+01-5.31777E-01-1.40382E-01-4.79044E+00 1.32311E-13-9.54237E-14
 -1      2029 3.34439E+01-2.66886E+00 1.22391E-01-9.94272E-01 5.71654E-13-2.59889E-13
 -1      2030 3.33715E+01-2.70177E+00-6.56346E-02-2.47961E+00 5.36474E-13-1.85962E-13
 -1      2031 3.44783E+01-3.48627E+00-2.00925E-01-2.64035E+00 4.91090E-13-7.55424E-13
 -1      2032 3.10133E+01-1.45317E+00 1.41918E-01 1.89426E+00 5.42330E-13-7.88605E-15
 -1      2033 3.16107E+01-2.20705E+00-4.80571E-03 6.94977E-01 5.63369E-13 9.83241E-15
 -1      2034 3.09385E+01-3.46065E+00-7.60098E-02 6.60133E-01 4.84529E-13-5.12802E-13
 -1      2035 2.84003E+01-1.94264E-01 5.97801E-02 3.15250E+00 2.34802E-13-8.89566E-15
 -1      2036 2.95334E+01-8.63660E-01-4.12769E-03 2.68398E+00 4.18471E-13 5.79120E-14
 -1      2037 2.80388E+01-1.68015E+00-2.80238E-02 3.08550E+00 4.41029E-13-1.54396E-13
 -1      2038 2.61444E+01 3.40441E-01 2.14365E-03 3.00293E+00 3.30482E-14-1.24033E-13
 -1      2039 2.74212E+01 5.11010E-02-7.62382E-04 3.08726E+00 1.95162E-13 7.49054E-14
 -1      2040 2.59021E+01-1.15923E-01 2.00751E-03 3.73030E+00 2.17795E-13-1.10002E-13
 -1      2041 2.44557E+01 4.16052E-01-1.50081E-02 2.37451E+00-4.06604E-13-5.11292E-14
 -1      2042 2.55217E+01 3.59116E-01 5.76287E-03 2.63767E+00-2.81965E-13-4.46934E-14
 -1      2043 2.43792E+01 4.86952E-01 2.41125E-03 3.30241E+00-1.70983E-13 2.36981E-14
 -1      2044 2.31601E+01 3.48858E-01-1.27227E-02 1.72843E+00-1.69286E-13 4.91952E-13
 -1      2045 2.39955E+01 3.75528E-01 1.27991E-02 1.99433E+00-2.30670E-13 2.09235E-13
 -1      2046 2.32479E+01 5.69980E-01 3.27850E-03 2.56124E+00-4.44618E-13 2.38815E-13
 -1      2047 2.21929E+01 2.54526E-01-7.32831E-03 1.20895E+00 1.60358E-14 4.54621E-13
 -1      2048 2.28081E+01 3.00269E-01 1.55129E-02 1.42026E+00-1.79435E-13 4.93086E-13
 -1      2049 2.23629E+01 4.71908E-01 3.87970E-03 1.85948E+00-1.88859E-13 3.76579E-13
 -1      2050 2.14830E+01 1.74625E-01-3.97238E-03 8.31643E-01-1.42060E-13 8.16088E-13
 -1      2051 2.19227E+01 2.15918E-01 1.43134E-02 9.84047E-01-9.32258E-14 5.04147E-13
 -1      2052 2.16774E+01 3.43502E-01 3.24604E-03 1.30713E+00-1.54941E-13 5.40386E-13
 -1      2053 2.09504E+01 1.15469E-01-1.60525E-03 5.58524E-01 2.21939E-13 4.14693E-13
 -1      2054 2.12681E+01 1.46662E-01 1.14323E-02 6.67835E-01 5.08031E-14 5.73767E-13
 -1      2055 2.11476E+01 2.35519E-01 2.81272E-03 8.98597E-01 9.37488E-14 4.29030E-13
 -1      2056 2.05934E+01 7.98529E-02-1.81558E-04 3.81149E-01 7.38654E-14 5.74952E-13
 -1      2057 2.08018E+01 9.95800E-02 8.40663E-03 4.52970E-01 2.56391E-13 5.96088E-13
 -1      2058 2.07540E+01 1.57192E-01 1.03176E-03 6.13005E-01 6.27562E-14 2.89997E-13
 -1      2059 2.03419E+01 5.96003E-02 4.32937E-04 2.54306E-01-7.24290E-14 5.32755E-13
 -1      2060 2.04833E+01 7.07061E-02 5.83595E-03 3.06564E-01-3.25269E-14 6.74165E-13
 -1      2061 2.04756E+01 1.09873E-01 3.70818E-04 4.18940E-01-3.27459E-14 5.91160E-13
 -1      2062 2.01729E+01 5.15925E-02 1.24379E-03 1.55528E-01 5.69033E-14 1.48076E-13
 -1      2063 2.02624E+01 5.56405E-02 3.63474E-03 1.97552E-01 5.24873E-14 2.62504E-13
 -1      2064 2.02752E+01 8.41596E-02-1.14365E-04 2.76778E-01 1.12270E-13 3.05810E-13
 -1      2065 2.00735E+01 5.26915E-02 1.92585E-03 8.40603E-02-1.90078E-13-1.32912E-13
 -1      2066 2.01259E+01 5.43922E-02 1.98568E-03 1.21908E-01-1.00416E-13-3.79063E-14
 -1      2067 2.01444E+01 7.59607E-02-1.37686E-03 1.76741E-01 1.83130E-14 7.88202E-14
 -1      2068 2.00645E+01 7.57120E-02-9.99520E-04 1.03393E-01-1.16404E-13-2.92768E-13
 -1      2069 1.99697E+01 4.05677E-01-2.28305E-03 1.81974E-01 4.17251E-14 3.96374E-13
 -1      2070 1.99880E+01 3.48334E-01 4.88810E-04 1.93937E-01 3.79018E-14 6.80332E-14
 -1      2071 2.00080E+01 2.88777E-01-1.67357E-03 1.98857E-01 1.57007E-13-6.01722E-14
 -1      2072 2.00289E+01 2.27226E-01 1.30225E-03 1.87749E-01 1.91373E-13-1.29101E-13
 -1      2073 1.99977E+01 3.29570E-01 1.28231E-03 2.49414E-01 1.32403E-13-5.79425E-14
 -1      2074 2.00434E+01 1.76885E-01-6.20332E-04 1.69072E-01 1.11737E-13-4.25765E-13
 -1      2075 2.00587E+01 1.24071E-01 1.96757E-03 1.38132E-01 8.09616E-14-1.75839E-13
 -1      2076 2.00927E+01 1.26014E-01 1.88034E-03 1.76472E-01 2.47989E-13-1.24770E-13
 -1      2077 2.00503E+01 2.19852E-01 2.60799E-04 2.33071E-01 2.84582E-13-2.28783E-13
 -1      2078 1.99461E+01 4.90761E-01-2.26125E-03 1.26298E-01-1.40464E-13-7.19704E-14
 -1      2079 1.99563E+01 4.48522E-01-1.05307E-03 1.53573E-01-6.51301E-14 4.06660E-13
 -1      2080 1.99477E+01 4.30913E-01 2.43946E-03 2.09952E-01-1.81626E-14 1.21932E-13
 -1      2081 1.99387E+01 5.32687E-01-1.87775E-03 4.92594E-02 2.55378E-14-5.09438E-14
 -1      2082 1.99404E+01 5.11592E-01-2.27280E-03 8.36456E-02 6.33587E-14 1.35037E-13
 -1      2083 1.99179E+01 4.94206E-01 2.77946E-03 1.28550E-01 5.51062E-15 1.26325E-13
 -1      2084 1.99460E+01 5.26627E-01-1.24735E-03-2.78718E-02-1.45956E-13-2.22369E-13
 -1      2085 1.99405E+01 5.29417E-01-2.86750E-03 4.50406E-03-2.71352E-14-1.32826E-13
 -1      2086 1.99120E+01 5.11645E-01 2.57493E-03 2.93967E-02 3.79402E-14-1.30323E-13
 -1      2087 1.99625E+01 4.79636E-01-5.66719E-04-8.91832E-02 7.65433E-14 4.01612E-13
 -1      2088 1.99529E+01 5.03115E-01-2.75290E-03-6.50233E-02-7.42280E-14 6.64807E-14
 -1      2089 1.99256E+01 4.84943E-01 1.86419E-03-6.29288E-02-2.37383E-13 4.77012E-14
 -1      2090 1.99821E+01 4.05198E-01 3.38126E-06-1.26341E-01-3.02414E-14-1.19948E-13
 -1      2091 1.99717E+01 4.42921E-01-2.08913E-03-1.13106E-01 1.73494E-13 3.24822E-13
 -1      2092 1.99510E+01 4.24816E-01 9.57836E-04-1.31255E-01-1.79167E-13 3.53239E-13
 -1      2093 1.99995E+01 3.18659E-01 3.75241E-04-1.38620E-01-1.99527E-14-5.68402E-13
 -1      2094 1.99909E+01 3.63091E-01-1.15243E-03-1.35876E-01 1.37744E-14-2.66364E-13
 -1      2095 1.99791E+01 3.46029E-01 1.07911E-04-1.68190E-01-1.32023E-13-2.59966E-13
 -1      2096 2.00116E+01 2.34833E-01 5.69441E-04-1.31121E-01 1.97612E-13-5.22142E-13
 -1      2097 2.00061E+01 2.78528E-01-2.10397E-04-1.36142E-01 1.39708E-13-5.66858E-13
 -1      2098 2.00031E+01 2.63683E-01-5.03805E-04-1.75302E-01 7.91888E-15-4.87113E-13
 -1      2099 2.00181E+01 1.59998E-01 6.25059E-04-1.10900E-01 9.90784E-14 3.51951E-13
 -1      2100 2.00155E+01 1.99595E-01 5.10287E-04-1.20641E-01 2.12824E-13 7.34221E-14
 -1      2101 2.00193E+01 1.88079E-01-8.55315E-04-1.60101E-01 3.56309E-13-3.22688E-13
 -1      2102 2.00201E+01 1.00327E-01 5.96658E-04-8.50747E-02-1.80088E-13-1.91741E-13
 -1      2103 2.00196E+01 1.32374E-01 9.43129E-04-9.66323E-02 3.72756E-14 9.24904E-14
 -1      2104 2.00275E+01 1.25120E-01-8.95788E-04-1.31795E-01 1.84689E-13 7.40615E-14
 -1      2105 2.00194E+01 5.58812E-02 3.15400E-04-5.85104E-02-4.70789E-14 6.83109E-14
 -1      2106 2.00197E+01 7.99832E-02 9.10528E-04-7.02842E-02-1.15465E-13-1.51124E-13
 -1      2107 2.00297E+01 7.72924E-02-7.53721E-04-9.88736E-02-3.23476E-14-1.17284E-13
 -1      2108 9.25713E+00-6.91457E+00-3.12308E-01 5.02160E+00 2.70339E-13-1.70863E-13
 -1      2109 5.58855E+00-7.70936E+00-4.32798E-01 3.94838E+00 2.53686E-13-7.71605E-15
 -1      2110-2.09140E-01-7.97841E+00-3.96492E-01-1.06664E+00 8.19084E-14-1.38667E-13
 -1      2111 1.60629E-01-7.56351E+00-3.49082E-01-2.48455E+00 2.90046E-13 5.23470E-14
 -1      2112 1.76628E+00-7.29121E+00-3.39430E-01 2.26244E+00 1.00975E-13 1.49214E-13
 -1      2113 2.02890E-01-8.30961E+00-4.75244E-01 5.32573E-01 1.04361E-14-3.77476E-14
 -1      2114 1.22357E+00-4.85852E+00-2.06920E-01 4.89366E-02-8.01408E-14-1.75915E-13
 -1      2115 1.80530E+01-5.89601E+00-2.74723E-01 5.75599E+00 8.14904E-14-6.44262E-13
 -1      2116 1.26127E+01-7.43972E+00-5.76332E-01 4.80987E+00 2.33369E-13-3.68691E-13
 -1      2117 1.39069E+01-6.62204E+00-1.93174E-01 5.87193E+00 2.49745E-13-4.95340E-13
 -1      2118 3.01787E+01-4.63191E+00-2.11189E-01 3.78499E+00-3.66374E-14-1.47560E-12
 -1      2119 2.34825E+01-5.66840E+00-3.87846E-01 4.28923E+00-2.00950E-14-8.74745E-13
 -1      2120 1.95188E+01 4.01578E+00-2.70040E-02-1.70283E+00-9.34717E-14-2.54059E-13
 -1      2121 1.96465E+01 3.94617E+00-2.46269E-02-1.95414E+00-1.21495E-13-2.22510E-13
 -1      2122 1.99716E+01 3.24702E+00-1.38927E-02-1.91828E+00-1.29526E-13-2.04180E-13
 -1      2123 1.96977E+01 3.58522E+00-7.21393E-03-1.52078E+00-8.82202E-14-2.39527E-13
 -1      2124 4.56785E+01 4.20957E+00 6.30698E-01-1.46568E+00-3.61378E-13-1.34232E-12
 -1      2125 4.26493E+01 2.54334E+00 3.78838E-01-6.66521E-01-2.46747E-13-1.47238E-12
 -1      2126 4.84945E+01 6.49260E+00 9.33833E-01-1.72062E-02-4.03011E-13-1.13892E-12
 -1      2127 4.62740E+01 6.03590E+00 6.52524E-01-1.68937E-01-4.14668E-13-1.34981E-12
 -1      2128 4.61740E+01 5.04186E+00 5.97218E-01 1.23179E+00-3.82028E-13-9.32587E-13
 -1      2129 4.80014E+01 5.99632E+00 8.24330E-01 9.48649E-01-4.11671E-13-1.02895E-12
 -1      2130 4.15096E+01 6.07957E+00 5.04046E-01 1.09895E+00-5.61107E-13-6.79512E-13
 -1      2131 4.26747E+01 1.68296E+00 3.36961E-01 6.20079E-02-3.62821E-13-7.46292E-13
 -1      2132 4.61499E+01 3.46920E+00 6.40504E-01 7.78993E-01-2.57350E-13-8.85736E-13
 -1      2133 4.17856E+01 3.74693E+00 5.62534E-01 3.06085E+00-5.61551E-13-4.47975E-13
 -1      2134 3.47808E+01-2.26045E+00-1.47955E-01-2.12257E+00-4.43368E-13-3.88800E-13
 -1      2135 4.08772E+01-6.36411E-02 4.44434E-01-1.82865E+00-4.06425E-13-7.12874E-13
 -1      2136 3.98630E+01-9.51591E-02 3.82233E-01 1.83267E+00-5.67157E-13-3.61156E-13
 -1      2137 2.41174E+01-5.47666E+00-4.54195E-01-4.26342E+00-1.40332E-13-1.43441E-13
 -1      2138 3.07338E+01-3.74759E+00-1.05792E-02-4.19753E+00-2.85993E-13-3.90576E-13
 -1      2139 1.41145E+01-7.27060E+00-5.37397E-01-4.93540E+00-7.83817E-14 4.89053E-14
 -1      2140 1.95055E+01-5.70496E+00-2.22283E-01-5.66193E+00-6.41709E-14 5.01821E-14
 -1      2141 5.42597E+00-8.16219E+00-5.36768E-01-3.74549E+00-2.40363E-14 1.54488E-13
 -1      2142 9.28415E+00-6.95853E+00-3.35755E-01-5.01862E+00-6.38378E-14 1.09718E-13
 -1      2143 1.02263E+00-7.45321E+00-3.50927E-01-1.35370E+00-2.60347E-14-6.11178E-14
 -1      2144 2.87741E+00-7.31064E+00-3.19952E-01-2.85039E+00 1.78191E-14 4.69624E-14
 -1      2145-8.68470E-02-7.71389E+00-3.79873E-01 2.25576E+00-1.33366E-13-2.06224E-13
 -1      2146-2.95805E-01-7.71375E+00-3.68595E-01 7.34847E-01-8.86409E-14-1.65701E-13
 -1      2147 3.37300E+00-6.67983E+00-2.58453E-01 5.25222E+00-2.41418E-13-1.06803E-13
 -1      2148 1.43397E+00-7.60389E+00-3.76190E-01 3.98104E+00-1.53877E-13-1.99396E-13
 -1      2149 9.59276E+00-5.07697E+00-1.23590E-01 7.43934E+00-3.22187E-13-3.70197E-13
 -1      2150 5.95851E+00-6.99347E+00-4.01172E-01 6.04082E+00-2.58238E-13-2.69645E-13
 -1      2151 6.44471E+00-5.25688E+00-1.24237E-01 6.86938E+00-2.02616E-13-2.57572E-13
 -1      2152 1.88098E+01-2.73211E+00 2.43007E-02 8.11714E+00-5.08038E-13-3.60267E-13
 -1      2153 1.43431E+01-4.90377E+00-2.51201E-01 7.34090E+00-3.46612E-13-4.81781E-13
 -1      2154 2.77130E+01-1.83514E-01 1.21737E-01 7.22965E+00-3.93630E-13-4.20108E-13
 -1      2155 2.23839E+01-1.97858E+00-1.64612E-01 7.13257E+00-5.74318E-13-3.23075E-13
 -1      2156 2.29812E+01-4.01285E+00 4.47893E-02 7.05737E+00-4.74953E-13-3.84276E-13
 -1      2157 3.62852E+01 3.54665E+00 3.53245E-01 5.42376E+00-2.78999E-13-4.21330E-13
 -1      2158 3.14390E+01 1.67773E+00-5.19877E-04 5.46914E+00-2.81331E-13-3.04534E-13
 -1      2159 4.14351E+01 6.25622E+00 3.47706E-01 2.94837E+00-3.21854E-13-2.52909E-13
 -1      2160 3.82844E+01 5.21736E+00 1.99622E-01 4.28368E+00-3.03285E-13-4.13558E-13
 -1      2161 4.33569E+01 7.89864E+00 3.76335E-01 3.50655E-01-2.98483E-13-1.37293E-13
 -1      2162 4.17942E+01 7.56875E+00 2.49430E-01 1.68664E+00-3.45834E-13-2.86660E-13
 -1      2163 4.27382E+01 7.50535E+00 3.09435E-01-1.92888E+00-4.15334E-13-2.84772E-14
 -1      2164 4.38569E+01 7.79562E+00 3.63072E-01-3.36039E-01-3.05700E-13-2.02782E-13
 -1      2165 3.84170E+01 5.40448E+00 1.50790E-01-3.83974E+00-4.96575E-13 1.35447E-13
 -1      2166 4.16977E+01 6.37867E+00 3.75305E-01-2.74601E+00-5.20695E-13 3.06422E-14
 -1      2167 3.19170E+01 1.95563E+00-1.66433E-02-5.53155E+00-1.59067E-13 2.76890E-13
 -1      2168 3.65494E+01 3.59156E+00 2.98054E-01-5.03507E+00-3.29664E-13 1.62759E-13
 -1      2169 2.40197E+01-1.82517E+00-1.40508E-01-6.70921E+00 4.39648E-14 5.70155E-13
 -1      2170 2.91658E+01 4.69802E-01 2.05552E-01-7.08191E+00-1.40443E-14 4.46976E-13
 -1      2171 1.45668E+01-4.90434E+00-2.92923E-01-7.29984E+00 1.43219E-13 8.58424E-13
 -1      2172 1.95403E+01-3.01232E+00 8.27177E-03-8.08677E+00 5.38458E-14 1.05166E-12
 -1      2173 6.76245E+00-6.86859E+00-4.09092E-01-6.20592E+00 1.88516E-13 2.08319E-13
 -1      2174 1.03658E+01-4.92754E+00-1.41477E-01-7.40267E+00 9.89209E-14 4.33313E-13
 -1      2175 1.49619E+00-8.02444E+00-4.43199E-01-4.04458E+00 3.77420E-13 5.60663E-15
 -1      2176 3.62895E+00-6.70646E+00-2.66981E-01-5.33745E+00 2.85827E-13-7.38298E-14
 -1      2177 4.06557E+01-6.73628E-01 3.17329E-01-7.53364E-01 1.14828E-13-1.45040E-12
 -1      2178 3.56055E+01-2.61842E+00-2.25958E-02-5.47292E-01 1.63675E-13-1.43385E-12
 -1      2179 2.07352E+01 1.10842E+00-2.07703E-02-1.61578E+00-1.48534E-13 1.96943E-14
 -1      2180 3.82064E+01 3.16672E-01-4.55343E-02-4.65196E+00 5.32907E-14-7.68163E-13
 -1      2181 2.06260E+01 1.33009E+00-1.86766E-02-1.67755E+00-1.51826E-13-5.49144E-14
 -1      2182 3.56651E+01 3.87215E+00-2.25146E-01 2.57215E+00-6.44818E-13-9.23150E-14
 -1      2183 4.09490E+01 5.13431E+00 3.29591E-01-2.57328E+00-2.99094E-13-8.63226E-13
 -1      2184 3.60450E+01 2.25065E+00-2.44875E-01 4.09400E+00-6.42209E-13-1.49408E-13
 -1      2185 3.68536E+01 9.35324E-01-9.53465E-02 4.95655E+00-7.14317E-13-7.91589E-14
 -1      2186 5.65399E+00-5.61344E+00-1.73903E-01 4.15580E+00 6.77236E-14 8.58202E-14
 -1      2187 2.00220E+01 4.34905E-02 4.15871E-04-5.42728E-02 2.82498E-14 2.10724E-13
 -1      2188 2.34672E+01-6.62439E+00-2.48598E-02 4.76881E+00 8.07132E-14-9.56318E-13
 -1      2189 2.06770E+00-5.07153E+00-2.03504E-01-3.94542E+00 1.43607E-13 1.77636E-15
 -1      2190 7.03459E+00-5.56634E+00-1.54895E-01-7.03199E+00 7.47735E-14 2.13274E-13
 -1      2191 1.50250E+01-5.33044E+00-1.60013E-02-8.16401E+00 2.18159E-14 9.15551E-13
 -1      2192 2.39749E+01-3.96025E+00 5.74909E-02-6.73360E+00 8.00471E-14 5.24469E-13
 -1      2193 3.13458E+01-4.76973E-01 1.62019E-01-3.95883E+00-5.97578E-14 2.55573E-13
 -1      2194 3.58385E+01 3.88133E+00 2.58220E-01-1.63948E+00-4.63407E-13 1.35225E-13
 -1      2195 3.85239E+01 7.66075E+00 3.44435E-01-4.63978E-01-4.77729E-13-1.24900E-14
 -1      2196 3.88588E+01 9.14611E+00 3.44809E-01-7.45754E-02-4.32210E-13-1.29109E-13
 -1      2197 3.82520E+01 7.50858E+00 3.20278E-01 6.04150E-01-2.92100E-13-3.80251E-15
 -1      2198 3.04487E+01-8.09255E-01 1.29906E-01 4.64311E+00-2.62984E-13-1.37446E-13
 -1      2199 1.41685E+01-5.34388E+00-5.76730E-02 8.08115E+00-2.60736E-13-4.33792E-13
 -1      2200 1.87495E+00-5.03990E+00-1.86524E-01 3.74619E+00-3.40838E-14-2.44027E-13
 -1      2201 1.68345E+00-4.90211E+00-1.72026E-01-8.42831E-01 2.55074E-14-1.32283E-13
 -1      2202 6.20042E+00-5.76112E+00-2.22220E-01-4.46005E+00 8.03246E-14 1.40554E-13
 -1      2203 1.45826E+01-6.83310E+00-2.14150E-01-5.79926E+00-4.77951E-14 4.74204E-14
 -1      2204 3.41241E+01-4.36380E+00 6.33303E-02-9.49462E-01-3.89799E-13-3.69260E-13
 -1      2205 2.49468E+01-6.54924E+00-9.20820E-02-4.36224E+00-1.44884E-14-1.24206E-13
 -1      2206 3.58685E+01 3.74579E+00 2.74861E-01 2.03474E+00-1.74805E-13-2.36200E-13
 -1      2207 3.73727E+01-1.47233E+00-8.93175E-02 3.30939E+00-5.01321E-13-2.70894E-13
 -1      2208 3.46173E+01-1.22257E+00-5.28606E-02 4.41910E+00-4.69125E-13-1.49103E-13
 -1      2209 2.01475E+01 5.06519E-01 3.73877E-03 6.77812E-01 1.07395E-13 5.96515E-14
 -1      2210 2.04153E+01 7.00023E-01 2.07951E-02 9.69460E-01 1.29893E-13 7.95501E-14
 -1      2211 1.95606E+01 3.51679E+00-1.10824E-02-5.91486E-01-1.06458E-14-2.48174E-13
 -1      2212 1.95961E+01 3.47097E+00-1.04158E-02-7.75759E-01-3.01325E-14-2.52384E-13
 -1      2213 1.96426E+01 3.38297E+00-1.26596E-02-9.40125E-01-4.62709E-14-2.56052E-13
 -1      2214 1.97037E+01 3.30192E+00-1.26189E-02-1.12941E+00-7.00249E-14-2.46690E-13
 -1      2215 1.97871E+01 3.03400E+00 1.97402E-04-7.92233E-01-3.04879E-14-2.24164E-13
 -1      2216 1.95135E+01 3.59929E+00-9.62383E-03 9.93924E-02 4.71183E-14-2.49909E-13
 -1      2217 1.95128E+01 3.60013E+00-9.62246E-03-8.00841E-02 2.46217E-14-2.51229E-13
 -1      2218 1.95396E+01 3.55983E+00-9.72234E-03 4.45446E-01 6.40277E-14-2.53080E-13
 -1      2219 1.95222E+01 3.58243E+00-1.01436E-02 2.64609E-01 5.46612E-14-2.54461E-13
 -1      2220 1.96796E+01 3.22216E+00-9.01074E-04 1.69503E-01 4.70688E-14-2.51158E-13
 -1      2221 1.96014E+01 3.46320E+00-1.06069E-02 7.89441E-01 1.00800E-13-2.31010E-13
 -1      2222 1.95652E+01 3.51025E+00-1.12114E-02 6.07988E-01 7.72619E-14-2.42023E-13
 -1      2223 1.97165E+01 3.15857E+00-4.94053E-04 4.87939E-01 6.90141E-14-2.36315E-13
 -1      2224 1.97120E+01 3.28932E+00-1.29467E-02 1.14284E+00 1.39435E-13-1.93360E-13
 -1      2225 1.96494E+01 3.37270E+00-1.28786E-02 9.53543E-01 1.24653E-13-2.17203E-13
 -1      2226 1.97934E+01 3.02477E+00 2.75349E-04 8.03629E-01 1.04516E-13-2.07560E-13
 -1      2227 1.98910E+01 3.00360E+00-1.81661E-02 1.48996E+00 1.60898E-13-1.33079E-13
 -1      2228 1.97916E+01 3.14493E+00-1.51811E-02 1.29952E+00 1.34150E-13-1.73670E-13
 -1      2229 1.99225E+01 2.79946E+00 1.96248E-03 1.10993E+00 1.31048E-13-1.77334E-13
 -1      2230 2.01691E+01 2.54393E+00-2.83957E-02 1.79435E+00 1.85866E-13-6.66446E-14
 -1      2231 2.00181E+01 2.78335E+00-1.70916E-02 1.61986E+00 1.63233E-13-9.85097E-14
 -1      2232 2.01170E+01 2.44866E+00 5.84153E-03 1.37576E+00 1.59927E-13-1.07886E-13
 -1      2233 2.78282E+01-3.90852E+00 1.51567E-01 3.10882E+00 3.23311E-13-6.65922E-13
 -1      2234 2.97734E+01-4.87805E+00 9.76684E-02 1.65426E+00 3.40450E-13-8.88151E-13
 -1      2235 2.45887E+01-1.10477E+00 9.38829E-02 4.36541E+00 3.20660E-13-4.42779E-13
 -1      2236 2.59228E+01-2.45898E+00 4.86212E-02 3.74419E+00 3.38687E-13-5.73208E-13
 -1      2237 2.34157E+01-3.76929E+00-7.80289E-03 4.78460E+00 3.01176E-13-1.03809E-12
 -1      2238 1.98702E+01 2.67967E-01 4.52927E-03 2.84971E-01 6.23490E-14 2.90607E-14
 -1      2239 2.00311E+01 3.68248E-01 2.02063E-02 4.42360E-01 8.17072E-14 4.86946E-14
 -1      2240 2.02105E+01 6.34775E-01-2.21735E-03 7.04615E-01 1.08313E-13-2.14204E-14
 -1      2241 2.04008E+01 8.55167E-01 1.29435E-02-1.00055E+00-1.09338E-13-9.31531E-14
 -1      2242 2.01903E+01 6.28355E-01-3.99536E-03-6.90392E-01-9.23020E-14-1.02052E-13
 -1      2243 2.01244E+01 4.69370E-01 1.61225E-02-4.74915E-01-9.46721E-14-9.54264E-14
 -1      2244 1.99834E+01 3.44704E-01 4.49911E-05-3.03200E-01-8.29224E-14-1.18710E-13
 -1      2245 2.02447E+01 7.45549E-01-1.72632E-03-6.93942E-01-1.06600E-13-1.34008E-13
 -1      2246 1.99202E+01 2.59875E-01 1.08784E-02-1.65438E-01-8.73104E-14-1.14595E-13
 -1      2247 1.98415E+01 1.88530E-01 7.11392E-04-6.80698E-02-8.63376E-14-1.43171E-13
 -1      2248 2.00802E+01 4.16869E-01-3.70744E-03-3.09761E-01-9.51276E-14-1.37484E-13
 -1      2249 1.97973E+01 1.39200E-01 6.38255E-03 1.42734E-02-5.52839E-14-1.44585E-13
 -1      2250 1.97626E+01 9.70405E-02 7.33010E-04 6.78669E-02-4.23428E-14-1.20415E-13
 -1      2251 1.99599E+01 2.28011E-01-3.66934E-03-7.03456E-02-7.91453E-14-1.49536E-13
 -1      2252 1.97370E+01 6.73043E-02 3.57798E-03 1.13979E-01-3.55253E-14-1.13717E-13
 -1      2253 1.97301E+01 4.19882E-02 6.52897E-04 1.40954E-01-3.52181E-14-9.60046E-14
 -1      2254 1.98846E+01 1.16079E-01-2.94821E-03 7.11098E-02-4.66724E-14-1.33518E-13
 -1      2255 1.97188E+01 2.39683E-02 1.85706E-03 1.63764E-01-5.40127E-14-8.24319E-14
 -1      2256 1.97286E+01 9.02737E-03 5.49871E-04 1.74496E-01-3.65055E-14-8.44093E-14
 -1      2257 1.98457E+01 4.84818E-02-2.14231E-03 1.48336E-01-3.67483E-14-1.29055E-13
 -1      2258 1.97271E+01-1.56857E-03 7.96841E-04 1.82704E-01-3.30674E-14-8.71233E-14
 -1      2259 1.97463E+01-9.84595E-03 4.53561E-04 1.83755E-01-5.01718E-14-9.17750E-14
 -1      2260 1.98324E+01 8.17444E-03-1.46061E-03 1.84414E-01-4.02289E-14-1.41008E-13
 -1      2261 1.97511E+01-1.55620E-02 1.48132E-04 1.83232E-01-1.02924E-13-8.95128E-14
 -1      2262 1.97747E+01-1.94536E-02 3.79477E-04 1.78898E-01-1.21706E-13-9.06344E-14
 -1      2263 1.98362E+01-1.46296E-02-9.48498E-04 1.94961E-01-8.21502E-14-1.12777E-13
 -1      2264 1.97833E+01-2.19088E-02-2.33664E-04 1.73641E-01-1.00512E-13-9.56864E-14
 -1      2265 1.98085E+01-2.28977E-02 3.32700E-04 1.66785E-01-3.82585E-14-1.12106E-13
 -1      2266 1.98505E+01-2.59023E-02-5.88168E-04 1.90610E-01-1.13178E-13-9.84062E-14
 -1      2267 1.98190E+01-2.31819E-02-4.38710E-04 1.59517E-01-8.61762E-15-1.36477E-13
 -1      2268 1.98441E+01-2.22815E-02 3.11084E-04 1.52045E-01-5.66360E-16-1.29614E-13
 -1      2269 1.98706E+01-2.95190E-02-3.47703E-04 1.78631E-01-4.29244E-14-1.06620E-13
 -1      2270 1.98556E+01-2.11643E-02-5.26498E-04 1.44587E-01-9.23313E-15-1.04581E-13
 -1      2271 1.98797E+01-1.91033E-02 3.08114E-04 1.37730E-01-4.34421E-15-9.78683E-14
 -1      2272 1.98937E+01-2.81275E-02-1.97340E-04 1.63956E-01 9.81073E-15-1.18857E-13
 -1      2273 1.98916E+01-1.71624E-02-5.36936E-04 1.31248E-01-3.58177E-14-1.36769E-13
 -1      2274 1.99146E+01-1.45068E-02 3.13848E-04 1.25739E-01-7.86025E-14-1.44716E-13
 -1      2275 1.99182E+01-2.36351E-02-1.13029E-04 1.49839E-01-4.57582E-14-1.29277E-13
 -1      2276 1.99267E+01-1.22206E-02-4.96221E-04 1.20890E-01-7.20199E-14-1.26983E-13
 -1      2277 1.99487E+01-9.46962E-03 3.14378E-04 1.17050E-01-6.88132E-14-1.08384E-13
 -1      2278 1.99433E+01-1.75280E-02-7.63597E-05 1.38285E-01-6.80968E-14-1.16138E-13
 -1      2279 1.99611E+01-7.29541E-03-4.20356E-04 1.14055E-01-1.03226E-13-7.68004E-14
 -1      2280 1.99824E+01-4.96506E-03 2.90512E-04 1.11824E-01-1.11832E-13-6.98994E-14
 -1      2281 1.99688E+01-1.11153E-02-7.35951E-05 1.30281E-01-7.11578E-14-2.50335E-15
 -1      2282 1.99954E+01-3.41025E-03-3.17478E-04 1.10471E-01-1.19603E-13-8.04464E-14
 -1      2283 2.00162E+01-2.11111E-03 2.16246E-04 1.09376E-01-9.22881E-14-7.04909E-14
 -1      2284 1.99950E+01-5.74126E-03-9.46747E-05 1.25891E-01-1.20144E-13 7.75359E-15
 -1      2285 2.00304E+01-1.79754E-03-1.89647E-04 1.08967E-01-9.72467E-14-1.26914E-13
 -1      2286 2.00508E+01-2.30025E-03 5.77286E-05 1.08043E-01-1.02719E-13-1.67038E-13
 -1      2287 2.00227E+01-2.97657E-03-1.32279E-04 1.24213E-01-1.29345E-13-2.43194E-14
 -1      2288 2.00666E+01-4.01171E-03-3.47812E-05 1.07287E-01-1.74567E-13-1.94372E-13
 -1      2289 2.00864E+01-7.28389E-03-2.26103E-04 1.04963E-01-1.81267E-13-2.38491E-13
 -1      2290 2.00527E+01-4.77610E-03-1.80472E-04 1.23213E-01-1.70651E-13-1.20859E-13
 -1      2291 2.01044E+01-1.19737E-02 1.50416E-04 1.01837E-01-1.13826E-13-1.51771E-13
 -1      2292 2.01227E+01-1.91538E-02-6.79580E-04 9.58211E-02-1.70187E-14-1.64345E-13
 -1      2293 2.00860E+01-1.35580E-02-2.32595E-04 1.19477E-01-1.14582E-13-6.86038E-14
 -1      2294 2.01435E+01-2.78727E-02 3.65522E-04 8.74382E-02 3.72634E-14-1.60025E-13
 -1      2295 2.01586E+01-4.01267E-02-1.34071E-03 7.46607E-02 1.51512E-13-2.79982E-13
 -1      2296 2.01233E+01-3.21185E-02-2.77816E-04 1.07933E-01-2.27682E-16 3.48593E-14
 -1      2297 2.01823E+01-5.38129E-02 5.98445E-04 5.72235E-02 2.35901E-13-3.41044E-13
 -1      2298 2.01916E+01-7.20010E-02-2.22323E-03 3.39392E-02 1.81108E-13-2.71993E-13
 -1      2299 2.01652E+01-6.32480E-02-2.95584E-04 8.16568E-02 1.06318E-13-1.66173E-13
 -1      2300 2.02179E+01-9.10635E-02 8.13672E-04 2.91537E-03 1.59229E-13-2.54951E-13
 -1      2301 2.02176E+01-1.15146E-01-3.28792E-03-3.48883E-02 1.18561E-13-2.52794E-13
 -1      2302 2.02113E+01-1.08871E-01-2.48176E-04 3.19829E-02 1.80895E-13-2.67197E-13
 -1      2303 2.02447E+01-1.38793E-01 9.39531E-04-8.41814E-02-7.58042E-15-2.43353E-13
 -1      2304 2.02297E+01-1.66958E-01-4.40404E-03-1.39888E-01-1.68769E-14-2.62032E-13
 -1      2305 2.02594E+01-1.68550E-01-7.38115E-05-5.07575E-02 5.22453E-14-2.23711E-13
 -1      2306 2.02541E+01-1.92308E-01 8.60745E-04-2.11046E-01 5.55524E-14-3.49948E-13
 -1      2307 2.02186E+01-2.19959E-01-5.31138E-03-2.85879E-01 1.11084E-13-2.79605E-13
 -1      2308 2.03046E+01-2.37324E-01 3.12541E-04-1.75422E-01-3.33237E-14-3.20077E-13
 -1      2309 2.02336E+01-2.41197E-01 4.31189E-04-3.79329E-01 9.54476E-14-2.61598E-13
 -1      2310 2.01719E+01-2.60244E-01-5.60722E-03-4.70216E-01 9.85544E-14-2.34764E-13
 -1      2311 2.03377E+01-3.03297E-01 9.93726E-04-3.46692E-01 8.99767E-14-3.06992E-13
 -1      2312 2.01680E+01-2.68372E-01-4.66955E-04-5.80356E-01 1.66155E-13-2.11882E-13
 -1      2313 2.00759E+01-2.67660E-01-4.80714E-03-6.77616E-01 1.97705E-13-9.41119E-14
 -1      2314 2.03443E+01-3.46073E-01 1.98240E-03-5.59949E-01 1.38752E-13-2.44989E-13
 -1      2315 2.00419E+01-2.51794E-01-1.81029E-03-7.89873E-01 1.49127E-13-1.58044E-13
 -1      2316 1.99193E+01-2.19741E-01-2.53299E-03-8.75813E-01 1.66463E-13-1.65709E-13
 -1      2317 2.03055E+01-3.38153E-01 3.10316E-03-7.95047E-01 1.44679E-13-2.91058E-13
 -1      2318 1.98460E+01-1.70784E-01-3.26579E-03-9.65388E-01 1.16924E-13-2.19968E-13
 -1      2319 1.96997E+01-1.00767E-01 1.16568E-03-1.01555E+00 1.61954E-14-2.29034E-13
 -1      2320 2.02026E+01-2.51854E-01 3.87389E-03-1.01136E+00 8.01435E-14-2.57317E-13
 -1      2321 1.95868E+01-1.73495E-02-4.16079E-03-1.05043E+00-6.31986E-14-2.59343E-13
 -1      2322 1.94320E+01 8.54411E-02 5.48341E-03-1.03917E+00-9.95989E-14-1.99645E-13
 -1      2323 2.00266E+01-7.25261E-02 3.56909E-03-1.14878E+00-3.51758E-14-2.56222E-13
 -1      2324 1.92947E+01 1.91115E-01-3.60036E-03-9.89583E-01-4.63492E-14-1.55188E-13
 -1      2325 1.91545E+01 3.05240E-01 8.89495E-03-9.00085E-01-2.75775E-14-4.86991E-14
 -1      2326 1.97907E+01 1.84907E-01 1.50095E-03-1.14014E+00-5.06790E-14 4.17851E-14
 -1      2327 1.90253E+01 4.06261E-01-9.79473E-04-7.53337E-01-1.52380E-14-3.43584E-15
 -1      2328 1.89256E+01 4.97733E-01 9.83270E-03-5.88701E-01 2.04439E-14 2.00378E-13
 -1      2329 1.95390E+01 4.66644E-01-2.12811E-03-9.37067E-01 4.48834E-14 8.76675E-14
 -1      2330 1.88451E+01 5.60878E-01 3.31062E-03-3.62225E-01-8.41974E-14 2.07332E-13
 -1      2331 1.88068E+01 5.97167E-01 7.73266E-03-1.50471E-01-6.80979E-14 1.71226E-13
 -1      2332 1.93403E+01 6.90250E-01-5.79671E-03-5.41848E-01-1.53101E-14 2.87529E-13
 -1      2333 1.88035E+01 5.98952E-01 7.59967E-03 1.07956E-01-1.08112E-14 1.43109E-13
 -1      2334 1.88350E+01 5.66352E-01 3.59556E-03 3.21023E-01 6.45751E-15 1.44666E-13
 -1      2335 1.92607E+01 7.78748E-01-7.29169E-03-2.41855E-02-9.22348E-14 3.31706E-13
 -1      2336 1.89097E+01 5.06348E-01 9.87375E-03 5.50717E-01 1.49256E-14 1.52381E-13
 -1      2337 1.90034E+01 4.17341E-01-7.24379E-04 7.19010E-01 2.24879E-14 2.57161E-13
 -1      2338 1.93283E+01 6.99392E-01-5.83931E-03 4.96856E-01 1.35714E-14 3.33582E-13
 -1      2339 1.91290E+01 3.17622E-01 9.10460E-03 8.71222E-01 4.20399E-14 2.98525E-13
 -1      2340 1.92647E+01 2.03565E-01-3.55059E-03 9.65310E-01 9.00819E-14 4.03201E-13
 -1      2341 1.95177E+01 4.81665E-01-2.35609E-03 9.01614E-01 4.97416E-14 5.73599E-13
 -1      2342 1.94012E+01 9.68903E-02 5.80631E-03 1.02033E+00 7.88504E-14 2.02673E-13
 -1      2343 1.95529E+01-8.00361E-03-4.27823E-03 1.03538E+00-2.33788E-14 3.35183E-13
 -1      2344 1.97651E+01 2.00392E-01 1.31865E-03 1.11663E+00-3.20326E-14 3.26128E-13
 -1      2345 1.96667E+01-9.39238E-02 1.47928E-03 1.00394E+00-1.54748E-13 4.61357E-14
 -1      2346 1.98109E+01-1.66939E-01-3.46715E-03 9.55680E-01-2.08754E-13-2.18754E-15
 -1      2347 2.00009E+01-6.19293E-02 3.51311E-03 1.13477E+00-1.59456E-13 1.45676E-13
 -1      2348 1.98852E+01-2.18561E-01-2.31286E-03 8.66954E-01-6.05123E-14 3.01174E-14
 -1      2349 2.00060E+01-2.53215E-01-1.99878E-03 7.80959E-01-2.98654E-14 7.00310E-14
 -1      2350 2.01782E+01-2.48423E-01 3.93218E-03 1.00172E+00-1.49579E-13 6.97100E-14
 -1      2351 2.00402E+01-2.70990E-01-4.70204E-03 6.67496E-01-1.19215E-13 1.41038E-13
 -1      2352 2.01303E+01-2.73209E-01-6.02826E-04 5.68808E-01-3.88676E-14 2.37035E-13
 -1      2353 2.02818E+01-3.41090E-01 3.19348E-03 7.84833E-01-7.77363E-14 2.68254E-13
 -1      2354 2.01333E+01-2.65836E-01-5.59791E-03 4.56406E-01-2.74748E-14 2.90762E-13
 -1      2355 2.01926E+01-2.46962E-01 3.76753E-04 3.63584E-01 3.84487E-14 3.01869E-13
 -1      2356 2.03196E+01-3.52699E-01 2.05757E-03 5.45969E-01 3.13101E-15 3.54080E-13
 -1      2357 2.01759E+01-2.25228E-01-5.36586E-03 2.67876E-01 1.56977E-14 2.91342E-13
 -1      2358 2.02086E+01-1.96380E-01 9.11760E-04 1.91536E-01 8.27605E-14 3.62558E-13
 -1      2359 2.03104E+01-3.10299E-01 1.03249E-03 3.27935E-01-5.95335E-16 4.42587E-13
 -1      2360 2.01819E+01-1.69274E-01-4.49395E-03 1.19153E-01 2.26025E-13 3.70938E-13
 -1      2361 2.01941E+01-1.38549E-01 1.12025E-03 6.33038E-02 2.44918E-13 2.21531E-13
 -1      2362 2.02734E+01-2.41249E-01 3.12654E-04 1.53047E-01 1.27783E-13 3.09835E-13
 -1      2363 2.01642E+01-1.11902E-01-3.39636E-03 1.47847E-02 4.40002E-14 1.33410E-13
 -1      2364 2.01624E+01-8.38875E-02 1.15028E-03-2.08969E-02 2.29990E-14 1.90550E-13
 -1      2365 2.02235E+01-1.65977E-01-1.10489E-04 2.79840E-02 1.39028E-13 1.82120E-13
 -1      2366 2.01333E+01-6.05249E-02-2.33843E-03-4.82428E-02 1.90109E-14 2.11349E-13
 -1      2367 2.01231E+01-3.70513E-02 1.09422E-03-6.62389E-02-9.99037E-14 1.65940E-13
 -1      2368 2.01706E+01-9.63222E-02-2.89794E-04-5.00474E-02-1.58853E-14 3.36322E-13
 -1      2369 2.00968E+01-1.78476E-02-1.41909E-03-7.62445E-02-1.81291E-13 2.44705E-13
 -1      2370 2.00824E+01 3.72139E-05 7.30981E-04-7.96441E-02-1.04590E-13 3.00399E-13
 -1      2371 2.01205E+01-3.75006E-02-2.84911E-04-8.80110E-02-6.90509E-14 3.32863E-13
 -1      2372 1.96216E+01 7.02745E-02 2.03007E-03-7.14134E-02 7.54027E-14 3.23088E-14
 -1      2373 1.96467E+01 1.01424E-01 6.88238E-03-2.67456E-02 8.30051E-14 1.76623E-14
 -1      2374 1.96010E+01 2.98224E-02 1.33862E-03-1.35395E-01 5.22445E-14 3.74830E-14
 -1      2375 1.95964E+01 4.81076E-02 3.57225E-03-1.13495E-01 7.48753E-14 3.98569E-14
 -1      2376 1.97663E+01 8.71251E-02-3.14851E-03-7.76758E-02 7.02371E-14-4.95621E-15
 -1      2377 1.96156E+01 5.76996E-03 8.91562E-04-1.63343E-01 2.66796E-14 1.14100E-14
 -1      2378 1.95943E+01 1.65391E-02 1.75785E-03-1.55192E-01 3.07389E-14 3.17789E-14
 -1      2379 1.97349E+01 3.49172E-02-2.27058E-03-1.48379E-01 6.17936E-14-3.00370E-14
 -1      2380 1.96503E+01-8.00347E-03 5.98359E-04-1.69565E-01 9.20788E-14 1.48972E-15
 -1      2381 1.96206E+01-1.92018E-03 7.07971E-04-1.69483E-01 6.40111E-14 4.15480E-16
 -1      2382 1.97339E+01 4.14765E-03-1.52189E-03-1.79875E-01 6.52731E-14 3.47178E-15
 -1      2383 1.96976E+01-1.51825E-02 4.10566E-04-1.62783E-01 2.70815E-14 1.27124E-14
 -1      2384 1.96631E+01-1.22166E-02 8.46645E-05-1.67467E-01 6.74758E-14 2.69922E-14
 -1      2385 1.97524E+01-1.32456E-02-9.55273E-04-1.87399E-01 7.68555E-14 4.70943E-14
 -1      2386 1.97464E+01-1.73017E-02 3.08173E-04-1.50120E-01-4.03701E-15-2.23902E-15
 -1      2387 1.97132E+01-1.66734E-02-2.87725E-04-1.56576E-01 2.46624E-14 1.07057E-14
 -1      2388 1.97817E+01-2.17039E-02-5.64535E-04-1.80915E-01 2.36787E-14 6.02670E-14
 -1      2389 1.97956E+01-1.63571E-02 2.85163E-04-1.35811E-01 5.45106E-14-5.28005E-14
 -1      2390 1.97637E+01-1.72570E-02-4.69654E-04-1.42486E-01 1.16824E-14-2.46127E-14
 -1      2391 1.98155E+01-2.37662E-02-3.22030E-04-1.67961E-01 1.43094E-14 7.69407E-15
 -1      2392 1.98438E+01-1.31032E-02 3.27891E-04-1.22856E-01 5.71440E-14-1.85704E-17
 -1      2393 1.98135E+01-1.51184E-02-5.24841E-04-1.28519E-01 7.42447E-14-2.34478E-14
 -1      2394 1.98514E+01-2.17088E-02-1.85791E-04-1.53392E-01 5.55371E-14 3.87072E-14
 -1      2395 1.98909E+01-7.89829E-03 4.75737E-04-1.13591E-01 6.33081E-14-9.88194E-14
 -1      2396 1.98617E+01-1.09037E-02-5.03697E-04-1.17271E-01 8.77647E-14-5.73316E-14
 -1      2397 1.98879E+01-1.65211E-02-1.27732E-04-1.40706E-01 1.11932E-13 4.32314E-15
 -1      2398 1.99405E+01-3.81617E-04 6.83364E-04-1.10106E-01 5.78848E-14-1.45855E-13
 -1      2399 1.99101E+01-4.61491E-03-4.37036E-04-1.10762E-01 6.55907E-14-1.26040E-13
 -1      2400 1.99255E+01-8.45511E-03-1.69944E-04-1.32576E-01 1.12896E-13-8.79192E-14
 -1      2401 1.99899E+01 9.15805E-03 9.83145E-04-1.15015E-01-3.85662E-14-9.38866E-14
 -1      2402 1.99593E+01 3.77678E-03-3.39242E-04-1.11590E-01-1.52131E-14-1.12788E-13
 -1      2403 1.99642E+01 2.72966E-03-1.67171E-04-1.31914E-01 1.51770E-14-2.51050E-14
 -1      2404 2.00450E+01 2.20026E-02 1.46254E-03-1.30714E-01-2.11234E-14-4.48634E-14
 -1      2405 2.00103E+01 1.47332E-02-2.33558E-04-1.21883E-01-2.54183E-14-4.20321E-14
 -1      2406 2.00042E+01 1.72223E-02-2.29428E-04-1.41348E-01-3.55975E-14 5.56933E-15
 -1      2407 2.01096E+01 3.97192E-02 2.16510E-03-1.61030E-01-6.28035E-14 3.49184E-14
 -1      2408 2.00677E+01 2.96183E-02-1.32316E-04-1.44784E-01-5.46896E-14-4.54368E-14
 -1      2409 2.00482E+01 3.68192E-02-2.97741E-04-1.64099E-01-4.65345E-14 3.71058E-14
 -1      2410 2.01895E+01 6.49085E-02 3.28979E-03-2.11501E-01-5.98310E-14 1.14735E-13
 -1      2411 2.01357E+01 5.04277E-02-5.15092E-05-1.84906E-01-3.03576E-14 8.09348E-14
 -1      2412 2.00983E+01 6.40499E-02-3.40436E-04-2.04802E-01-7.55971E-14 7.64742E-14
 -1      2413 2.02961E+01 1.03519E-01 4.83010E-03-2.95348E-01 2.20527E-14 1.59150E-13
 -1      2414 2.02213E+01 8.12484E-02-4.50161E-05-2.50992E-01-3.13625E-14 1.28610E-13
 -1      2415 2.01581E+01 1.03748E-01-4.34161E-04-2.72253E-01-6.05021E-14 1.87935E-13
 -1      2416 2.04277E+01 1.57719E-01 6.85670E-03-4.17361E-01-2.28808E-14 7.29447E-14
 -1      2417 2.03305E+01 1.26381E-01-1.03296E-04-3.52914E-01 2.73568E-14 1.28741E-13
 -1      2418 2.02282E+01 1.62396E-01-7.12527E-05-3.75570E-01 6.69560E-15 1.70004E-13
 -1      2419 2.05976E+01 2.37222E-01 9.75886E-03-5.98174E-01-1.49269E-14 1.32372E-13
 -1      2420 2.04652E+01 1.91392E-01-3.79157E-04-5.02009E-01-1.83386E-14 1.24043E-13
 -1      2421 2.03061E+01 2.46061E-01 5.31176E-04-5.25390E-01-1.48199E-14 1.19064E-13
 -1      2422 2.08135E+01 3.51661E-01 1.34741E-02-8.61852E-01-6.48344E-14 1.52928E-13
 -1      2423 2.06338E+01 2.86037E-01-1.04064E-03-7.20675E-01-2.42905E-14 1.26373E-13
 -1      2424 2.03892E+01 3.67445E-01 1.73691E-03-7.42350E-01-3.88823E-14 2.22315E-13
 -1      2425 2.10803E+01 5.09819E-01 1.77108E-02-1.23836E+00 6.58293E-14 7.35575E-14
 -1      2426 2.08396E+01 4.20179E-01-2.40688E-03-1.03591E+00 3.08122E-14 2.38767E-14
 -1      2427 2.04667E+01 5.39450E-01 3.87921E-03-1.05070E+00 3.72488E-14 5.71685E-14
 -1      2428 2.13996E+01 7.09947E-01 2.20491E-02-1.75837E+00-6.28837E-15 1.00250E-14
 -1      2429 2.10809E+01 5.99621E-01-4.86838E-03-1.47979E+00 3.21340E-14 5.74183E-14
 -1      2430 2.05165E+01 7.70854E-01 7.27980E-03-1.47878E+00 4.39549E-14-1.22274E-14
 -1      2431 2.17779E+01 9.23165E-01 2.55197E-02-2.47599E+00-9.59580E-14-7.36577E-14
 -1      2432 2.13538E+01 8.16737E-01-7.80941E-03-2.09754E+00 4.43135E-15-1.11074E-14
 -1      2433 2.04995E+01 1.05287E+00 1.04901E-02-2.07227E+00-1.03841E-14 3.05849E-14
 -1      2434 2.21905E+01 9.86257E-01 2.73332E-02-3.28239E+00-5.52375E-14-8.83555E-14
 -1      2435 2.16707E+01 9.81656E-01-9.04943E-03-2.88786E+00-9.62498E-14-1.04260E-13
 -1      2436 2.03772E+01 1.30438E+00 1.77589E-02-2.83191E+00-4.28529E-14-7.02682E-14
 -1      2437 2.27699E+01 5.72222E-01 3.69992E-02-4.03969E+00 4.95628E-14-1.53378E-13
 -1      2438 2.20807E+01 8.73833E-01 4.87368E-03-3.75268E+00-1.43115E-15-1.59481E-13
 -1      2439 2.01540E+01 1.27637E+00 2.35731E-02-3.71778E+00-5.61404E-14-1.75325E-13
 -1      2440 2.38879E+01-8.98963E-01 6.23093E-02-4.34563E+00 1.72674E-13-1.16938E-14
 -1      2441 2.28870E+01 4.00586E-02 6.28536E-02-4.45352E+00 7.77607E-14-4.84855E-14
 -1      2442 2.00216E+01 4.45100E-01 2.22066E-02-4.64401E+00 6.51007E-14-1.74499E-13
 -1      2443 2.63236E+01-3.68738E+00 6.97216E-02-3.45181E+00 1.10051E-13-1.06488E-13
 -1      2444 2.47876E+01-2.17332E+00 1.44867E-01-4.36393E+00 2.68556E-13 1.42109E-14
 -1      2445 2.06324E+01-1.86999E+00 1.47477E-02-5.29743E+00 1.86351E-13-4.23966E-14
 -1      2446 2.30707E+01 4.30132E-01 3.29217E-02 4.15180E+00 6.30954E-14-2.69312E-13
 -1      2447 2.39781E+01-1.96163E-01 4.33811E-02 4.18739E+00 2.64962E-13-3.32053E-13
 -1      2448 2.14756E+01-7.18642E-01 6.69257E-02 5.11620E+00 1.99708E-13-5.26343E-13
 -1      2449 2.22879E+01 8.86169E-01-2.45992E-03 3.37286E+00-3.77188E-13 8.96316E-14
 -1      2450 2.29299E+01 7.47647E-01 2.71169E-02 3.70942E+00-1.48598E-13-8.26336E-14
 -1      2451 2.09522E+01 8.48127E-01 5.09999E-02 4.29368E+00-1.68207E-13-1.95011E-13
 -1      2452 2.17853E+01 8.47563E-01-8.46926E-03 2.54135E+00-4.32961E-13-6.85162E-15
 -1      2453 2.22907E+01 8.94466E-01 2.11634E-02 2.91523E+00-5.09643E-13 1.94337E-14
 -1      2454 2.08429E+01 1.19966E+00 1.97319E-02 3.34314E+00-3.59983E-13 5.66201E-14
 -1      2455 2.13819E+01 6.63036E-01-6.37787E-03 1.84071E+00-1.05056E-13 7.94372E-14
 -1      2456 2.17807E+01 7.60136E-01 1.98934E-02 2.15656E+00-2.67811E-13 6.29804E-14
 -1      2457 2.08239E+01 1.08440E+00 1.58262E-02 2.50791E+00-3.46000E-13-1.62236E-13
 -1      2458 2.10366E+01 4.76523E-01-4.27317E-03 1.30597E+00-1.49581E-13 4.42652E-13
 -1      2459 2.13473E+01 5.68194E-01 1.75276E-02 1.54493E+00-1.52382E-13 2.95176E-13
 -1      2460 2.07457E+01 8.35611E-01 1.10235E-02 1.82976E+00-1.96235E-13 8.14701E-14
 -1      2461 2.07367E+01 3.24549E-01-2.16332E-03 9.01612E-01 2.68592E-13 1.20527E-13
 -1      2462 2.09789E+01 3.96823E-01 1.39493E-02 1.07931E+00 3.71248E-14 2.13610E-13
 -1      2463 2.06205E+01 5.95363E-01 7.37672E-03 1.30280E+00 7.74632E-14 7.32828E-14
 -1      2464 2.05096E+01 2.24927E-01-6.98933E-04 6.30723E-01-1.27880E-13 2.35104E-13
 -1      2465 2.06801E+01 2.72403E-01 1.05113E-02 7.49732E-01 3.45249E-14 1.11963E-13
 -1      2466 2.04790E+01 4.09165E-01 3.39484E-03 9.17803E-01 5.86818E-14 7.57288E-14
 -1      2467 2.03314E+01 1.62613E-01 3.17061E-04 4.35696E-01-5.64737E-14 2.88417E-13
 -1      2468 2.04547E+01 1.91917E-01 7.61506E-03 5.21796E-01-1.05645E-13 1.79797E-13
 -1      2469 2.03489E+01 2.86059E-01 1.49565E-03 6.47852E-01-1.36040E-13 9.30845E-14
 -1      2470 2.01975E+01 1.30616E-01 1.82894E-03 2.89388E-01 1.38823E-13 1.00125E-13
 -1      2471 2.02821E+01 1.43426E-01 4.96014E-03 3.54947E-01 1.04537E-13 2.22661E-13
 -1      2472 2.02340E+01 2.09050E-01-2.86719E-04 4.49205E-01 7.61682E-14 9.04333E-16
 -1      2473 2.01197E+01 1.28206E-01 2.29567E-03 2.11357E-01 8.95807E-14-1.74589E-14
 -1      2474 2.01688E+01 1.28719E-01 3.27329E-03 2.52577E-01 1.03092E-13 1.40708E-13
 -1      2475 2.01509E+01 1.75509E-01-1.72477E-03 3.24194E-01 1.56030E-13 1.44165E-13
 -1      2476 2.00973E+01 1.71773E-01 3.72878E-05 2.47909E-01 3.22826E-13-1.49792E-13
 -1      2477 1.98531E+01 5.04609E-01-1.98935E-03 1.15632E-01 4.68761E-14 2.49468E-13
 -1      2478 1.98659E+01 4.85342E-01-1.37267E-03 1.67579E-01 1.89894E-15 8.40912E-14
 -1      2479 1.98561E+01 4.99723E-01-7.56765E-04-5.53272E-03-3.26488E-14-1.56134E-13
 -1      2480 1.98498E+01 5.00576E-01-2.63666E-03 4.82844E-02-5.14601E-14 9.09574E-14
 -1      2481 1.98066E+01 5.15281E-01 3.10231E-03 8.41441E-02-1.23477E-14 1.36009E-13
 -1      2482 1.99620E+01 3.68814E-01-3.25939E-03 2.95713E-01-8.28976E-14-2.41031E-13
 -1      2483 2.00065E+01 3.16958E-01 1.08284E-03 3.02688E-01 1.47948E-13-1.70528E-13
 -1      2484 1.98878E+01 4.60010E-01-3.08891E-03 2.26259E-01-3.08502E-14 1.36363E-13
 -1      2485 1.99209E+01 4.23021E-01 4.38178E-04 2.62425E-01-8.79653E-14 1.65108E-13
 -1      2486 1.99227E+01 4.22507E-01 2.73434E-03 3.23522E-01 3.83784E-14-1.20226E-13
 -1      2487 1.98395E+01 4.96381E-01 3.21988E-03 2.21005E-01 9.01263E-14 2.10337E-13
 -1      2488 1.98883E+01 4.52173E-01 3.39231E-04-1.09708E-01-1.68394E-13 2.15898E-13
 -1      2489 1.98687E+01 4.70660E-01-3.15222E-03-6.56171E-02-1.35389E-13-2.19240E-13
 -1      2490 1.98201E+01 4.82337E-01 2.14082E-03-5.30430E-02 9.58720E-14-2.85743E-13
 -1      2491 1.99348E+01 3.76974E-01 1.02849E-03-1.79743E-01-3.21692E-13 2.47286E-13
 -1      2492 1.99097E+01 4.07894E-01-2.84765E-03-1.51819E-01-3.42485E-13 4.97931E-13
 -1      2493 1.98673E+01 4.11293E-01 9.83395E-04-1.61705E-01-1.83427E-13 1.92046E-13
 -1      2494 1.99812E+01 2.90934E-01 1.25750E-03-2.10735E-01-8.89906E-14-3.56884E-13
 -1      2495 1.99579E+01 3.27981E-01-2.00753E-03-2.00159E-01-2.22263E-13 2.14313E-14
 -1      2496 1.99287E+01 3.21391E-01-6.83230E-05-2.27014E-01-2.98476E-13 1.92658E-13
 -1      2497 2.00172E+01 2.09762E-01 1.16345E-03-2.07942E-01 1.69359E-13-4.61593E-13
 -1      2498 2.00002E+01 2.46516E-01-9.54269E-04-2.11582E-01 5.70338E-14-4.78027E-13
 -1      2499 1.99866E+01 2.31333E-01-7.92569E-04-2.47832E-01 7.79400E-14-3.45909E-13
 -1      2500 2.00397E+01 1.40110E-01 9.22506E-04-1.81796E-01 2.10592E-13-2.61334E-13
 -1      2501 2.00300E+01 1.73604E-01-3.24902E-06-1.94961E-01 2.60641E-13-5.20613E-13
 -1      2502 2.00300E+01 1.53269E-01-1.18816E-03-2.33203E-01 1.46450E-13-3.79985E-13
 -1      2503 2.00485E+01 8.74188E-02 5.71610E-04-1.44122E-01-2.03311E-14-1.07149E-14
 -1      2504 2.00452E+01 1.14667E-01 5.88561E-04-1.61339E-01 7.94280E-14 1.17057E-13
 -1      2505 2.00555E+01 9.33206E-02-1.15126E-03-1.96222E-01 5.24247E-14-3.28125E-13
 -1      2506 2.00483E+01 5.16284E-02 5.46190E-04-1.04594E-01-8.55278E-14 1.48038E-14
 -1      2507 2.00490E+01 7.18354E-02 9.73822E-04-1.21816E-01-1.21610E-13-2.19121E-13
 -1      2508 2.00657E+01 5.40822E-02-6.10254E-05-1.50707E-01-8.15577E-14-1.72145E-13
 -1      2509 2.66322E+01-6.18815E+00-1.54797E-01 3.82329E+00 1.76026E-13-1.17234E-12
 -1      2510 2.18668E+01-6.12996E+00-2.02689E-02 4.99970E+00 2.29816E-13-9.62213E-13
 -1      2511 1.96998E+01 1.39674E-01 2.97634E-03 5.34075E-02 8.97546E-14-2.21166E-15
 -1      2512 1.97804E+01 1.96711E-01 1.23700E-02 1.42776E-01 6.66743E-14 2.45450E-14
 -1      2513 1.99927E+01 3.38934E-01-3.33144E-03 3.00988E-01 8.76326E-14-3.62366E-14
 -1      2514 1.98455E+01 1.77014E-01-3.82284E-03 5.80907E-02 6.94162E-14-1.17389E-14
 -1      2515 3.66875E+00-2.22866E+00 1.29324E-01 1.48193E+00 3.95517E-14-1.50435E-13
 -1      2516 3.02884E+00-1.95448E+00 1.33237E-01-7.27966E-01-2.19824E-14-2.25431E-13
 -1      2517 3.44831E+00-2.28037E+00 1.42896E-01-3.13638E+00-1.21125E-13-1.07858E-13
 -1      2518 4.86891E+00-2.87059E+00 1.01888E-01-5.29117E+00-2.10110E-14-2.31482E-14
 -1      2519 3.42223E+01-4.28626E+00 1.04693E-01-3.47104E-01 2.02227E-13-1.27331E-12
 -1      2520 2.05473E+01 1.95516E+00-1.36862E-02-1.89812E+00-1.49757E-13-1.13224E-13
 -1      2521 2.04106E+01 1.21427E+00-7.26325E-03-1.28697E+00-1.33644E-13-1.05571E-13
 -1      2522 2.03814E+01 1.38060E+00 7.25245E-03-1.23685E+00-1.10311E-13-1.36377E-13
 -1      2523 2.02897E+01 2.38496E+00-4.82910E-03-1.84222E+00-1.44147E-13-1.61147E-13
 -1      2524 6.80921E+00-4.05459E+00 6.99567E-02-6.68152E+00-1.19071E-14 1.15574E-13
 -1      2525 1.00695E+01-4.41840E+00 2.76639E-02-7.90039E+00-7.63833E-14 5.13312E-13
 -1      2526 4.13367E+00-2.83970E+00 8.08185E-02 4.82264E+00-1.18239E-14-2.45526E-13
 -1      2527 2.72310E+00-2.75434E+00 9.08822E-02 2.58788E+00 2.76099E-14-3.14582E-13
 -1      2528 2.00339E+01 3.75075E-02-3.33345E-04-6.61440E-02 1.16176E-13 2.41384E-13
 -1      2529 1.95201E+01 3.58548E+00-1.00922E-02-2.45333E-01 2.12333E-14-2.63409E-13
 -1      2530 1.95361E+01 3.56483E+00-9.64226E-03-4.26031E-01 2.02578E-15-2.57733E-13
 -1      2531 1.97122E+01 3.16428E+00-6.22534E-04-4.73365E-01 5.45308E-15-2.41083E-13
 -1      2532 1.96782E+01 3.22425E+00-9.31875E-04-1.52025E-01 1.38713E-14-2.47151E-13
 -1      2533 9.49284E+00-3.58139E+00 5.82825E-02 5.62865E+00-1.96509E-14 1.11189E-13
 -1      2534 5.67368E+00-2.99638E+00 7.52344E-02 3.57146E+00-2.16216E-14 1.02585E-13
 -1      2535 2.37796E+01-6.24559E+00-1.51907E-02-4.40802E+00 2.48135E-14-2.20102E-14
 -1      2536 2.83233E+01-6.19801E+00-1.38119E-01-3.25058E+00-1.17739E-13-2.98067E-13
 -1      2537 3.42737E+01 3.76832E+00-1.26295E-01 2.64992E-01-1.88766E-13-3.15303E-14
 -1      2538 3.28413E+01 1.85151E+00-5.69832E-02 8.06536E-01-1.81910E-13-1.28009E-13
 -1      2539 1.38488E+01-5.46705E+00 1.40781E-03-5.88487E+00 1.73195E-13 1.82632E-14
 -1      2540 1.88394E+01-6.03936E+00-6.02772E-02-6.00548E+00 8.62643E-14 4.47142E-14
 -1      2541 7.00544E+00-3.57976E+00 7.27301E-02-4.47193E+00 1.79468E-13 7.44405E-14
 -1      2542 1.01053E+01-4.68904E+00 1.70710E-02-5.73997E+00 1.97009E-13 9.15379E-14
 -1      2543 1.40848E+01-4.13394E+00 5.11570E-02-5.96598E+00 2.92461E-13 8.27116E-15
 -1      2544 2.64916E+00-2.50031E+00 9.32796E-02 4.20561E-01 9.14928E-14-2.06557E-13
 -1      2545 4.07279E+00-2.38304E+00 1.13542E-01-2.08800E+00 6.60860E-14-7.28861E-14
 -1      2546 9.48018E+00-3.90151E+00 6.32504E-02 7.72963E+00-1.91624E-13-3.58602E-13
 -1      2547 6.90053E+00-3.44237E+00 1.25967E-01 6.45660E+00-1.27648E-13-2.64178E-13
 -1      2548 1.77741E+01-4.99792E+00-1.19033E-02 8.17736E+00-2.67841E-13-5.65225E-13
 -1      2549 1.32195E+01-4.88994E+00 6.60356E-02 8.03266E+00-1.98841E-13-4.40370E-13
 -1      2550 2.53546E+01-4.25026E+00-5.99680E-02 6.08112E+00-4.31433E-13-2.62013E-14
 -1      2551 2.21160E+01-4.93667E+00 4.07205E-02 6.82728E+00-3.34094E-13-2.82135E-13
 -1      2552 3.13753E+01-8.50708E-01-1.11249E-01 2.75508E+00-2.06689E-13-1.45717E-13
 -1      2553 2.83198E+01-2.78821E+00-1.04560E-02 4.18241E+00-3.36536E-13-9.88098E-14
 -1      2554 2.74832E+01-3.95168E+00 4.50942E-02 4.12794E+00-3.52607E-13-1.50435E-14
 -1      2555 3.45471E+01 7.53963E+00-1.75662E-01-5.93916E-01-2.47191E-13-5.06262E-14
 -1      2556 3.46065E+01 6.01748E+00-8.47296E-02-3.11239E-01-1.62759E-13 1.98730E-14
 -1      2557 3.23567E+01 4.57165E+00-4.83025E-02-1.17013E+00-1.83797E-13 1.46938E-13
 -1      2558 3.52443E+01 8.55577E+00-1.04236E-01 1.59885E-01-3.76699E-13-1.41442E-13
 -1      2559 3.46560E+01 8.66342E+00-1.45220E-01-1.15206E-01-3.92852E-13-9.21485E-14
 -1      2560 3.45627E+01 6.38981E+00-1.17776E-01 3.94859E-01-5.39346E-13-4.36873E-14
 -1      2561 3.52974E+01 7.70516E+00-1.25140E-01 4.00768E-01-4.75286E-13-1.44551E-13
 -1      2562 3.27377E+01 1.92388E+00-8.59254E-02-5.76617E-01-2.05877E-13-6.95555E-14
 -1      2563 3.40929E+01 4.02536E+00-1.28642E-01 3.92494E-02-3.51386E-13-4.82947E-14
 -1      2564 2.93405E+01-2.37191E+00-1.88240E-02-3.29846E+00 1.73653E-13 2.08999E-13
 -1      2565 3.15547E+01-6.51132E-01-1.22424E-01-2.13901E+00-3.93678E-14 1.10134E-13
 -1      2566 2.25348E+01-4.94338E+00 5.89513E-02-6.63838E+00 1.47743E-13 3.62738E-13
 -1      2567 2.65248E+01-4.00434E+00-7.97998E-02-5.50327E+00 1.64146E-13 2.95569E-13
 -1      2568 1.40862E+01-4.95572E+00 7.39542E-02-8.02843E+00 9.82547E-15 8.21038E-13
 -1      2569 1.78258E+01-5.05524E+00-4.40072E-02-8.13062E+00 6.33937E-14 8.44623E-13
 -1      2570 2.04897E+01 8.74950E-01-7.30454E-03 1.22672E+00 1.47160E-13 1.02675E-13
 -1      2571 2.08401E+01 1.25692E+00-6.04685E-03 1.72743E+00 1.63605E-13 1.28562E-13
 -1      2572 2.06462E+01 1.71561E+00-1.57897E-02 1.92156E+00 1.75306E-13 7.02979E-14
 -1      2573 2.04486E+01 1.05806E+00-9.39281E-03 1.24142E+00 1.49371E-13 1.90447E-14
 -1      2574 3.15924E+01-5.22883E+00 6.83639E-02 8.58254E-01 3.11751E-13-1.03606E-12
 -1      2575 7.22603E+00-9.94009E-01 2.04430E-01 2.77834E+00 4.18277E-14-3.05311E-14
 -1      2576 1.99133E+01 2.81626E+00 2.38976E-03-1.09852E+00-8.14059E-14-2.31004E-13
 -1      2577 1.97830E+01 3.16066E+00-1.45450E-02-1.28437E+00-7.77271E-14-2.39562E-13
 -1      2578 1.98771E+01 3.03725E+00-1.74779E-02-1.48308E+00-1.03804E-13-2.34991E-13
 -1      2579 2.04221E+01 2.11579E+00-1.27728E-02 1.87453E+00 1.77029E-13-1.27121E-14
 -1      2580 7.63376E+00-2.27653E+00 1.29667E-01-6.01040E+00-9.32310E-14 1.44829E-13
 -1      2581 3.24143E+01 7.84303E+00-8.34016E-02-6.73989E-01-2.89213E-13-3.64986E-14
 -1      2582 6.91371E+00-3.22811E-01 1.74763E-01-2.40372E+00 6.37823E-14-7.93532E-14
 -1      2583 6.66740E+00-2.00003E+00 1.67792E-01-3.44223E+00 7.72160E-14 3.36953E-14
 -1      2584 9.58647E+00-1.47950E+00 1.15805E-01-4.53920E+00 1.87128E-13-5.81202E-14
 -1      2585 3.16560E+01-5.02218E+00 2.47864E-02-4.34638E-01-1.97703E-13-3.31707E-13
 -1      2586 2.93757E+01-4.70004E+00 1.42976E-01-2.20188E+00-5.64548E-14-3.55369E-13
 -1      2587 2.00746E+01 2.22558E-01 1.29367E-03 2.70182E-01 4.01786E-13-1.77039E-13
 -1      2588 1.88144E+01-5.57305E+00 4.45241E-02 6.00749E+00 2.06390E-13-9.50941E-13
 -1      2589 1.48411E+01-4.81429E+00 6.28335E-02 5.86434E+00 1.69614E-13-4.70429E-13
 -1      2590 2.23564E+01-4.92799E+00 8.04534E-02 5.15696E+00 2.88852E-13-1.02346E-12
 -1      2591 5.29502E+00-5.96417E-01 1.79751E-01-1.90579E+00-1.31214E-13-1.48603E-13
 -1      2592 2.01132E+01 2.62147E+00-1.17044E-02-1.67828E+00-1.22244E-13-1.90870E-13
 -1      2593 7.11447E+00-1.92747E+00 1.58472E-01 5.61312E+00-2.35922E-15-3.80862E-13
 -1      2594 4.56947E+00-9.72715E-01 1.64127E-01 1.40736E+00 7.83054E-14-3.59324E-13
 -1      2595 1.34304E+01-4.06138E+00 1.21131E-01-7.99135E+00-1.07969E-14 7.05422E-13
 -1      2596 2.14127E+01-5.01077E+00 1.03179E-01-6.92002E+00 1.86545E-13 3.43676E-13
 -1      2597 2.80677E+01-3.70417E+00 3.02300E-02-3.56176E+00 2.65843E-13 1.16490E-13
 -1      2598 3.13379E+01 1.43572E-01-2.44301E-02-2.41086E-01-1.50713E-14-1.36696E-13
 -1      2599 3.24384E+01 4.89234E+00-5.34832E-02 1.18805E+00-3.40783E-13-2.48440E-13
 -1      2600 3.13361E+01-1.50023E-01-2.06839E-02 7.97111E-01-2.04392E-13-7.94087E-14
 -1      2601 2.09300E+01-5.06652E+00 7.94842E-02 7.17395E+00-2.53575E-13-3.71637E-13
 -1      2602 2.00532E+01 2.12271E-02 6.63173E-04-7.19415E-02 1.56075E-13 3.95316E-13
 -1      2603 2.00498E+01 3.93173E-02 5.89423E-04-8.91716E-02 2.90116E-14 2.33762E-13
 -1      2604 2.00656E+01 2.64083E-02-8.40331E-04-1.10086E-01-1.55183E-13 2.96035E-13
 -1      2605 2.00662E+01 9.57263E-03-9.22746E-04-7.78353E-02 3.99148E-14 3.65176E-13
 -1      2606 1.32256E+01-3.84226E+00 1.14401E-01 7.81108E+00-1.63980E-13-4.80907E-13
 -1      2607 2.40043E+01-4.89095E+00-6.03158E-02-4.53719E+00 1.32949E-13 5.13478E-15
 -1      2608 3.62459E+01-3.80466E+00-1.26984E-01 1.94089E+00-4.15154E-13-3.29625E-13
 -1      2609 2.04363E+01 1.80812E+00 1.25459E-02 1.56221E+00 1.62302E-13-2.70600E-14
 -1      2610 2.26132E+01-5.66069E+00 8.21476E-03-4.96828E+00 1.54099E-13-3.26475E-14
 -1      2611 3.27556E+01-4.61823E+00 1.73980E-02 1.38762E-01-2.51882E-13-4.45033E-13
 -1      2612 1.41082E+01-2.94557E+00 1.25809E-01 5.62158E+00 1.22680E-14-2.45914E-13
 -1      2613 3.25757E+01 7.99324E+00-6.26588E-02 6.67541E-01-4.75620E-13-2.28539E-13
 -1      2614 2.00450E+01 2.71973E-01-1.21156E-03 3.16417E-01 2.76871E-13-2.12722E-13
 -1      2615 2.01007E+01 2.27497E-01 7.51885E-04 3.33045E-01 3.07849E-13-1.07779E-13
 -1      2616 2.01357E+01 2.37684E-01 3.65748E-03 3.75848E-01 1.92422E-13-8.25224E-14
 -1      2617 2.00211E+01 3.26853E-01 1.27060E-03 3.70546E-01 1.96797E-13-2.35157E-13
 -1      2618 2.00828E+01 4.07682E-03 3.16765E-04-9.52371E-02-2.59321E-14 4.98315E-13
 -1      2619 1.98460E+01 2.76584E+00-6.29588E-03 5.16021E-01 7.15260E-14-2.12267E-13
 -1      2620 1.98212E+01 2.81563E+00-5.71484E-03 3.65186E-01 5.52019E-14-2.28907E-13
 -1      2621 1.98043E+01 2.85323E+00-5.61846E-03 2.29767E-01 4.47526E-14-2.41340E-13
 -1      2622 1.97957E+01 2.87017E+00-5.43668E-03 7.51626E-02 3.58497E-14-2.36238E-13
 -1      2623 1.99507E+01 2.50219E+00 3.64138E-03 2.65065E-01 4.61385E-14-2.30587E-13
 -1      2624 2.00444E+01 2.32442E+00-1.07144E-02 1.04569E+00 1.30886E-13-1.74736E-13
 -1      2625 1.99802E+01 2.47345E+00-6.32338E-03 9.10106E-01 1.31124E-13-1.77730E-13
 -1      2626 2.02171E+01 1.90858E+00-1.20154E-02 1.22711E+00 1.60441E-13-8.45461E-14
 -1      2627 2.01249E+01 2.14661E+00-4.82880E-03 1.13376E+00 1.47673E-13-1.30330E-13
 -1      2628 2.01898E+01 1.88698E+00 6.33403E-03 9.26154E-01 1.32450E-13-1.37519E-13
 -1      2629 1.99205E+01-4.04778E+00 1.81557E-01-5.67651E+00 2.36283E-13 6.00353E-14
 -1      2630 2.02124E+01 7.26576E-01-3.68491E-03 6.42282E-01 1.08278E-13-6.31078E-14
 -1      2631 2.03546E+01 9.51891E-01 9.16667E-03 9.06364E-01 1.30645E-13-4.76260E-14
 -1      2632 2.02161E+01 6.27729E-01 8.20961E-03-4.36422E-01-1.02107E-13-1.51791E-13
 -1      2633 2.01326E+01 4.76122E-01-3.38422E-03-2.77562E-01-8.37559E-14-1.43589E-13
 -1      2634 2.01066E+01 3.63712E-01 6.59364E-03-1.57513E-01-8.95658E-14-1.42471E-13
 -1      2635 2.00476E+01 2.69302E-01-1.77765E-03-5.94178E-02-8.17244E-14-1.55969E-13
 -1      2636 2.01956E+01 5.29950E-01-1.72422E-03-2.60790E-01-9.65936E-14-1.38619E-13
 -1      2637 2.00217E+01 1.99316E-01 4.50892E-03 1.64085E-02-5.81820E-14-1.41404E-13
 -1      2638 1.99862E+01 1.40124E-01-8.11566E-04 7.35209E-02-4.08549E-14-1.30743E-13
 -1      2639 2.01270E+01 3.00823E-01-2.08104E-03-5.34971E-02-6.73127E-14-1.51306E-13
 -1      2640 1.99654E+01 9.64121E-02 2.88001E-03 1.17534E-01-3.06848E-14-1.37248E-13
 -1      2641 1.99478E+01 5.96765E-02-2.51468E-04 1.47749E-01-4.87880E-14-1.48463E-13
 -1      2642 2.00709E+01 1.55403E-01-1.91448E-03 7.49476E-02-5.30379E-14-1.57142E-13
 -1      2643 1.99330E+01 3.27994E-02 1.71520E-03 1.70183E-01-5.49392E-14-1.54722E-13
 -1      2644 1.99277E+01 1.07564E-02 6.35870E-05 1.83173E-01-4.85869E-14-1.65903E-13
 -1      2645 2.00301E+01 6.43473E-02-1.53588E-03 1.47623E-01-5.97653E-14-1.70240E-13
 -1      2646 1.99182E+01-4.97278E-03 9.04924E-04 1.91591E-01-4.67242E-14-1.57586E-13
 -1      2647 1.99210E+01-1.71775E-02 2.39190E-04 1.94020E-01-5.37471E-14-1.50251E-13
 -1      2648 2.00033E+01 9.04700E-03-1.15661E-03 1.82757E-01-3.48602E-14-2.03951E-13
 -1      2649 1.99155E+01-2.53901E-02 3.59115E-04 1.93922E-01-7.90300E-14-1.07105E-13
 -1      2650 1.99232E+01-3.09526E-02 3.37242E-04 1.90386E-01-9.19476E-14-8.01387E-14
 -1      2651 1.99874E+01-2.22047E-02-8.39189E-04 1.93913E-01-3.74748E-14-8.99586E-14
 -1      2652 1.99207E+01-3.40843E-02 5.64887E-06 1.85689E-01-7.62474E-14-1.85098E-14
 -1      2653 1.99313E+01-3.51938E-02 3.92561E-04 1.79348E-01-3.36193E-14-6.22848E-14
 -1      2654 1.99796E+01-3.71585E-02-5.94521E-04 1.90932E-01-5.55228E-14-1.01843E-14
 -1      2655 1.99309E+01-3.49445E-02-2.10285E-04 1.72793E-01-3.20177E-14-4.38137E-14
 -1      2656 1.99429E+01-3.31562E-02 4.23978E-04 1.65784E-01-1.30871E-14-8.55116E-14
 -1      2657 1.99774E+01-4.11414E-02-4.16321E-04 1.80802E-01-6.07111E-14 5.88394E-15
 -1      2658 1.99441E+01-3.07644E-02-3.28246E-04 1.59234E-01-2.48483E-14-1.07624E-13
 -1      2659 1.99568E+01-2.72401E-02 4.40431E-04 1.52944E-01-5.61118E-14-7.73279E-14
 -1      2660 1.99793E+01-3.79484E-02-2.94306E-04 1.68374E-01-4.76489E-14-6.88596E-14
 -1      2661 1.99593E+01-2.36705E-02-3.74743E-04 1.47596E-01-2.45053E-14-1.05690E-13
 -1      2662 1.99723E+01-1.93574E-02 4.43682E-04 1.42832E-01 6.31345E-15-5.17606E-14
 -1      2663 1.99842E+01-3.04213E-02-2.19342E-04 1.56894E-01-1.89547E-14-4.87944E-14
 -1      2664 1.99759E+01-1.54505E-02-3.64873E-04 1.39354E-01-2.27811E-14-2.12945E-14
 -1      2665 1.99893E+01-1.12321E-02 4.29243E-04 1.36433E-01-6.84739E-14 1.61529E-14
 -1      2666 1.99914E+01-2.08777E-02-1.85463E-04 1.48366E-01 4.05491E-15-5.31494E-14
 -1      2667 1.99943E+01-7.83601E-03-3.03560E-04 1.35020E-01-1.06712E-13 6.27349E-14
 -1      2668 2.00082E+01-4.66887E-03 3.86327E-04 1.33781E-01-6.85463E-14 6.42738E-14
 -1      2669 2.00011E+01-1.14692E-02-1.90431E-04 1.43760E-01-4.81201E-14 1.90585E-14
 -1      2670 2.00151E+01-2.75986E-03-1.86452E-04 1.34149E-01-1.14787E-13 4.79696E-14
 -1      2671 2.00297E+01-1.79784E-03 2.97130E-04 1.33909E-01-1.63543E-13 2.64007E-14
 -1      2672 2.00137E+01-4.50527E-03-2.36392E-04 1.43070E-01-1.10019E-13 6.93997E-14
 -1      2673 2.00393E+01-2.58422E-03-9.21333E-07 1.35217E-01-1.67523E-13 5.00966E-14
 -1      2674 2.00550E+01-5.27511E-03 1.36272E-04 1.34669E-01-1.55865E-13 6.22330E-15
 -1      2675 2.00305E+01-2.74135E-03-3.29559E-04 1.45249E-01-1.59158E-13 1.09591E-13
 -1      2676 2.00687E+01-1.02598E-02 2.71579E-04 1.35382E-01-9.91558E-14 6.67018E-14
 -1      2677 2.00858E+01-1.83762E-02-1.28886E-04 1.32456E-01-1.20640E-14 1.28984E-13
 -1      2678 2.00533E+01-9.59878E-03-4.78426E-04 1.47997E-01-1.09989E-13 1.76484E-13
 -1      2679 2.01053E+01-2.93282E-02 6.50381E-04 1.30164E-01-1.79429E-16 9.07091E-14
 -1      2680 2.01239E+01-4.48657E-02-5.35778E-04 1.21895E-01-8.27888E-15 5.67876E-14
 -1      2681 2.00849E+01-2.92258E-02-6.89776E-04 1.47450E-01-2.04758E-14 1.67107E-13
 -1      2682 2.01515E+01-6.36222E-02 1.14570E-03 1.13122E-01-2.04982E-14 1.61462E-14
 -1      2683 2.01714E+01-8.84621E-02-1.11987E-03 9.55945E-02 8.73073E-14-6.39326E-14
 -1      2684 2.01289E+01-6.62422E-02-9.60587E-04 1.37791E-01-7.34395E-14 1.13237E-13
 -1      2685 2.02095E+01-1.16450E-01 1.74155E-03 7.56884E-02 1.98945E-13-1.14074E-13
 -1      2686 2.02298E+01-1.51659E-01-1.90025E-03 4.41896E-02 1.37881E-13-1.73684E-13
 -1      2687 2.01895E+01-1.24932E-01-1.26380E-03 1.10927E-01 8.28463E-14-6.69562E-15
 -1      2688 2.02803E+01-1.89019E-01 2.36840E-03 7.45150E-03 7.61001E-14-1.81351E-13
 -1      2689 2.02993E+01-2.33662E-01-2.85162E-03-4.29839E-02 1.18451E-14-7.98373E-14
 -1      2690 2.02708E+01-2.07584E-01-1.52816E-03 5.64280E-02 1.31225E-13-8.34652E-14
 -1      2691 2.03623E+01-2.77901E-01 2.87340E-03-1.02664E-01-9.65671E-14-1.06881E-13
 -1      2692 2.03768E+01-3.27389E-01-3.85713E-03-1.76058E-01-9.28659E-14-2.08360E-13
 -1      2693 2.03752E+01-3.11706E-01-1.61632E-03-3.78413E-02-6.46932E-14 5.93116E-15
 -1      2694 2.04492E+01-3.71718E-01 2.99732E-03-2.63661E-01 3.50655E-14-1.67702E-13
 -1      2695 2.04539E+01-4.16016E-01-4.65003E-03-3.61014E-01 1.07595E-13-1.86010E-13
 -1      2696 2.05006E+01-4.26166E-01-1.31406E-03-1.83720E-01 1.08958E-14-5.14315E-14
 -1      2697 2.05267E+01-4.47945E-01 2.38649E-03-4.77518E-01 1.27212E-13-1.82968E-13
 -1      2698 2.05146E+01-4.70598E-01-4.76905E-03-5.93828E-01 2.02761E-13-1.84708E-13
 -1      2699 2.06371E+01-5.27045E-01-3.71328E-04-3.88496E-01 1.31491E-13-5.00569E-14
 -1      2700 2.05723E+01-4.72032E-01 7.11105E-04-7.31866E-01 1.84206E-13-2.66508E-13
 -1      2701 2.05360E+01-4.51788E-01-3.61156E-03-8.52771E-01 9.41157E-14-3.01478E-13
 -1      2702 2.07635E+01-5.75539E-01 1.35261E-03-6.47630E-01 1.60948E-13-1.56982E-13
 -1      2703 2.05573E+01-4.02565E-01-2.09690E-03-9.91688E-01 5.94700E-14-2.37543E-13
 -1      2704 2.04921E+01-3.19777E-01-7.16165E-04-1.09143E+00 5.11478E-14-2.38945E-13
 -1      2705 2.08464E+01-5.21998E-01 3.63122E-03-9.34815E-01 6.03228E-14-1.87959E-13
 -1      2706 2.04578E+01-2.06264E-01-5.40786E-03-1.19500E+00 6.08794E-14-1.89254E-13
 -1      2707 2.03660E+01-5.45528E-02 3.73064E-03-1.23876E+00-6.70246E-15-9.75893E-14
 -1      2708 2.08477E+01-3.21704E-01 5.54125E-03-1.19307E+00 4.17444E-14-6.54859E-14
 -1      2709 2.02711E+01 1.18003E-01-7.94468E-03-1.26026E+00 5.61906E-14 2.64473E-14
 -1      2710 2.01659E+01 3.18468E-01 8.25423E-03-1.21364E+00 6.95617E-14 1.48054E-13
 -1      2711 2.07424E+01 3.86906E-02 5.76931E-03-1.33579E+00 1.19507E-13 4.11972E-14
 -1      2712 2.00329E+01 5.15602E-01-7.85985E-03-1.11286E+00 5.83515E-14 1.41153E-13
 -1      2713 1.99381E+01 7.12745E-01 1.04699E-02-9.58793E-01 1.39924E-13 1.46705E-13
 -1      2714 2.05429E+01 5.08835E-01 2.76374E-03-1.26779E+00 1.02574E-13 2.16635E-13
 -1      2715 1.98177E+01 8.74261E-01-4.00783E-03-7.28303E-01 1.37896E-13 2.74400E-13
 -1      2716 1.97599E+01 9.99615E-01 8.53216E-03-4.83808E-01 2.72889E-14 3.79745E-13
 -1      2717 2.03149E+01 9.67876E-01-2.28197E-03-9.32056E-01 2.26302E-13 1.87478E-13
 -1      2718 1.97094E+01 1.06422E+00 2.61695E-03-1.67190E-01-1.12646E-13 4.39892E-13
 -1      2719 1.97068E+01 1.06765E+00 2.99525E-03 1.13868E-01-1.02178E-13 4.34981E-13
 -1      2720 2.01583E+01 1.25675E+00-6.70645E-03-3.61899E-01 2.74595E-14 4.52990E-13
 -1      2721 1.97512E+01 1.00950E+00 8.40655E-03 4.32553E-01-8.09688E-14 4.11998E-13
 -1      2722 1.98043E+01 8.90515E-01-3.51173E-03 6.80646E-01-1.80040E-14 4.88367E-13
 -1      2723 2.01528E+01 1.26514E+00-6.62880E-03 3.04627E-01-1.59236E-13 4.94668E-13
 -1      2724 1.99205E+01 7.33753E-01 1.05840E-02 9.17997E-01-2.77640E-14 4.00751E-13
 -1      2725 2.00119E+01 5.38971E-01-7.74178E-03 1.07844E+00-9.15531E-14 3.65596E-13
 -1      2726 2.02992E+01 9.89706E-01-2.85288E-03 8.84219E-01-1.54189E-13 3.65912E-13
 -1      2727 2.01459E+01 3.41664E-01 8.62219E-03 1.18759E+00-1.48081E-13 1.83139E-13
 -1      2728 2.02495E+01 1.38714E-01-8.10550E-03 1.24022E+00-1.82350E-13 1.94429E-14
 -1      2729 2.05247E+01 5.37733E-01 2.62574E-03 1.23688E+00-2.32334E-13-2.66557E-15
 -1      2730 2.03482E+01-3.78070E-02 4.13391E-03 1.22468E+00-1.26441E-13 3.03557E-14
 -1      2731 2.04397E+01-1.94780E-01-5.73993E-03 1.18447E+00-1.68653E-13-7.39831E-14
 -1      2732 2.07286E+01 6.15672E-02 5.67018E-03 1.32008E+00-2.46683E-13-7.39689E-14
 -1      2733 2.04780E+01-3.13440E-01-4.09290E-04 1.08298E+00-1.29980E-13 1.41353E-14
 -1      2734 2.05433E+01-4.01411E-01-2.36974E-03 9.83922E-01-9.16016E-14 8.94134E-14
 -1      2735 2.08409E+01-3.10643E-01 5.69960E-03 1.18540E+00-1.38128E-13-6.44161E-14
 -1      2736 2.05245E+01-4.54781E-01-3.45282E-03 8.43893E-01-7.84309E-14 9.89258E-14
 -1      2737 2.05605E+01-4.78501E-01 5.23346E-04 7.21584E-01-5.10846E-14 1.59135E-13
 -1      2738 2.08453E+01-5.23114E-01 3.79773E-03 9.27619E-01-9.76195E-14-2.61600E-14
 -1      2739 2.05038E+01-4.79303E-01-4.73348E-03 5.80728E-01-6.62319E-14 1.67253E-13
 -1      2740 2.05149E+01-4.57899E-01 2.30608E-03 4.62006E-01-8.20232E-14 2.37287E-14
 -1      2741 2.07652E+01-5.84706E-01 1.48050E-03 6.36080E-01-9.45354E-14-7.86986E-14
 -1      2742 2.04416E+01-4.26049E-01-4.70144E-03 3.42300E-01-4.42692E-14 1.41515E-13
 -1      2743 2.04354E+01-3.80710E-01 3.02571E-03 2.42650E-01-3.47793E-15 1.11305E-13
 -1      2744 2.06389E+01-5.39084E-01-3.09809E-04 3.70625E-01-5.29155E-14-1.05240E-13
 -1      2745 2.03615E+01-3.34327E-01-3.97113E-03 1.52613E-01-2.06614E-14 1.34581E-13
 -1      2746 2.03452E+01-2.81555E-01 3.01458E-03 7.80834E-02 1.33941E-13 6.96782E-14
 -1      2747 2.05004E+01-4.35663E-01-1.30017E-03 1.60081E-01 1.39266E-14-5.76804E-14
 -1      2748 2.02798E+01-2.33172E-01-3.02004E-03 1.77642E-02 2.45189E-13 1.59931E-14
 -1      2749 2.02589E+01-1.83078E-01 2.61601E-03-3.16518E-02 1.67016E-13 1.11899E-14
 -1      2750 2.03716E+01-3.13360E-01-1.61649E-03 1.11113E-02 1.86553E-13-2.28185E-13
 -1      2751 2.02055E+01-1.39731E-01-2.16833E-03-6.63632E-02 1.08320E-13 1.06618E-13
 -1      2752 2.01834E+01-9.68287E-02 2.02589E-03-9.40016E-02 2.53868E-14 8.14872E-14
 -1      2753 2.02630E+01-1.96264E-01-1.44415E-03-8.15360E-02 1.41389E-13-3.67072E-13
 -1      2754 2.01418E+01-6.05035E-02-1.37905E-03-1.08006E-01-2.85702E-14 2.78758E-13
 -1      2755 2.01205E+01-2.72290E-02 1.20174E-03-1.17290E-01 9.58930E-14 3.69853E-13
 -1      2756 2.01769E+01-9.46363E-02-7.43727E-04-1.28208E-01 1.79437E-13-9.08698E-15
 -1      2757 1.98557E+01 4.84510E-02 9.61360E-05-1.49039E-01 4.97518E-14-6.77313E-14
 -1      2758 1.98682E+01 7.92144E-02 3.07947E-03-1.21218E-01 7.37960E-14-5.00477E-14
 -1      2759 1.59172E+01-3.89983E+00 3.30162E-02 7.77672E+00-1.66506E-13-6.25403E-13
 -1      2760 1.26870E+01-2.63153E+00 1.51462E-01 7.26998E+00-1.49561E-13-4.72664E-13
 -1      2761 1.98904E+01 1.15589E-01-2.08920E-04-7.75479E-02 8.94774E-14-9.09346E-14
 -1      2762 1.99244E+01 1.65866E-01 5.16662E-03-2.33965E-02 6.15460E-14-4.31678E-14
 -1      2763 1.99903E+01 1.32120E-01-2.33082E-03-7.97753E-02 7.20370E-14-9.26708E-14
 -1      2764 1.98491E+01-1.58610E-02 2.92044E-04-1.90956E-01 7.64780E-14 2.06003E-14
 -1      2765 1.98387E+01-5.39785E-03 8.54561E-04-1.89817E-01 8.35880E-14 1.56059E-14
 -1      2766 1.98634E+01-2.66204E-02 3.56818E-04-1.85665E-01-3.50753E-15 4.85079E-14
 -1      2767 1.98485E+01-2.22672E-02 2.57919E-04-1.90111E-01 2.59083E-14 4.77728E-14
 -1      2768 1.99250E+01-2.07728E-02-8.65330E-04-1.95849E-01 3.32287E-14 1.48387E-14
 -1      2769 1.98834E+01-2.93960E-02 3.97491E-04-1.73855E-01 3.60527E-14 7.43727E-15
 -1      2770 1.98662E+01-2.89520E-02-1.20757E-04-1.80560E-01 1.73044E-14 4.13301E-14
 -1      2771 1.99277E+01-3.28089E-02-5.72687E-04-1.91459E-01 2.23567E-14 5.74745E-14
 -1      2772 1.99067E+01-2.63760E-02 4.45861E-04-1.60485E-01 5.98412E-14-5.15554E-15
 -1      2773 1.98883E+01-2.87132E-02-3.38208E-04-1.67249E-01 4.61615E-14-1.60436E-15
 -1      2774 1.99362E+01-3.51043E-02-3.77544E-04-1.80572E-01 6.18540E-14 1.92992E-14
 -1      2775 1.99318E+01-1.88548E-02 5.53958E-04-1.49253E-01 1.64461E-13-1.90774E-14
 -1      2776 1.99129E+01-2.34048E-02-4.62708E-04-1.54434E-01 1.38414E-13 3.11580E-14
 -1      2777 1.99485E+01-3.02947E-02-2.51017E-04-1.68366E-01 1.08572E-13-2.25669E-14
 -1      2778 1.99596E+01-6.74190E-03 6.77159E-04-1.43004E-01 6.67820E-14 4.25833E-14
 -1      2779 1.99392E+01-1.36613E-02-5.40012E-04-1.45186E-01 9.96028E-14 2.42856E-14
 -1      2780 1.99635E+01-1.95787E-02-2.06549E-04-1.58591E-01 1.13669E-13 5.91915E-14
 -1      2781 1.99875E+01 9.07447E-03 8.37235E-04-1.45141E-01 2.36443E-14-9.28403E-15
 -1      2782 1.99669E+01 1.59812E-04-6.09204E-04-1.42860E-01 1.00343E-13 4.72493E-14
 -1      2783 1.99802E+01-3.42487E-03-1.14788E-04-1.54826E-01 8.95687E-14 1.20903E-13
 -1      2784 2.00174E+01 3.01611E-02 1.10025E-03-1.58083E-01-6.01802E-14-1.98526E-14
 -1      2785 1.99949E+01 1.83140E-02-6.95237E-04-1.49959E-01-5.51787E-14-4.43164E-14
 -1      2786 1.99972E+01 1.79892E-02-5.96815E-05-1.59979E-01 7.09718E-15 3.42468E-14
 -1      2787 2.00497E+01 5.85851E-02 1.46955E-03-1.85375E-01-8.78968E-14 1.18198E-13
 -1      2788 2.00243E+01 4.25757E-02-8.44997E-04-1.69453E-01-6.93391E-14 8.35006E-14
 -1      2789 2.00144E+01 4.66006E-02 2.83767E-05-1.76852E-01-1.02787E-13 8.48194E-14
 -1      2790 2.00847E+01 9.78073E-02 2.06634E-03-2.31709E-01-8.15400E-14 7.91642E-14
 -1      2791 2.00549E+01 7.55705E-02-1.12157E-03-2.05332E-01-7.14257E-14 1.03423E-13
 -1      2792 2.00304E+01 8.53310E-02 2.02942E-04-2.09057E-01-8.31937E-14 1.81066E-13
 -1      2793 2.01227E+01 1.56159E-01 2.78315E-03-3.08124E-01-2.07783E-14 1.29387E-13
 -1      2794 2.00862E+01 1.23040E-01-1.59867E-03-2.64686E-01-6.20488E-14 1.03197E-13
 -1      2795 2.00428E+01 1.40089E-01 4.11460E-04-2.62977E-01-7.36274E-14 1.17561E-13
 -1      2796 2.01564E+01 2.35910E-01 3.53356E-03-4.16756E-01-7.62530E-15 8.56718E-14
 -1      2797 2.01156E+01 1.90657E-01-2.34414E-03-3.55179E-01 2.00854E-14 9.84110E-14
 -1      2798 2.00459E+01 2.18231E-01 1.21038E-03-3.44124E-01 1.31443E-14 4.10302E-14
 -1      2799 2.01802E+01 3.50164E-01 4.58192E-03-5.72843E-01-4.82333E-14 1.04057E-13
 -1      2800 2.01345E+01 2.85564E-01-3.54236E-03-4.83905E-01-3.44241E-14 8.14893E-14
 -1      2801 2.00299E+01 3.26486E-01 2.38027E-03-4.58163E-01-1.27969E-14-1.43214E-14
 -1      2802 2.01783E+01 5.12053E-01 5.71432E-03-7.92287E-01 1.37956E-14 3.51971E-14
 -1      2803 2.01314E+01 4.20998E-01-5.40068E-03-6.66389E-01-2.58619E-14 8.97525E-14
 -1      2804 1.99783E+01 4.79907E-01 4.40515E-03-6.16518E-01-3.66529E-14-5.00644E-14
 -1      2805 2.01226E+01 7.35410E-01 6.74410E-03-1.09402E+00 8.59326E-14-5.01153E-14
 -1      2806 2.00832E+01 6.10948E-01-8.22351E-03-9.19841E-01 1.03306E-13 3.65355E-14
 -1      2807 1.98628E+01 6.94142E-01 7.74804E-03-8.30728E-01 3.24305E-14-1.16468E-13
 -1      2808 1.99702E+01 1.02688E+00 7.65944E-03-1.49790E+00-1.61537E-14 3.16443E-14
 -1      2809 1.99512E+01 8.66748E-01-1.25376E-02-1.26431E+00-5.11819E-15-3.89863E-14
 -1      2810 1.96376E+01 9.83750E-01 1.30735E-02-1.11297E+00 3.12497E-14-6.72366E-14
 -1      2811 1.96313E+01 1.38287E+00 8.96754E-03-2.05105E+00 1.47929E-14-5.48137E-14
 -1      2812 1.96650E+01 1.19660E+00-1.76867E-02-1.73179E+00 9.27855E-14 6.75458E-16
 -1      2813 1.92182E+01 1.35723E+00 1.99114E-02-1.48659E+00 4.98647E-14-7.79689E-14
 -1      2814 1.90673E+01 1.66838E+00 1.32761E-02-2.70954E+00-2.82660E-14-1.09021E-13
 -1      2815 1.91556E+01 1.53351E+00-2.39210E-02-2.34118E+00-5.00932E-14-1.22194E-13
 -1      2816 1.85113E+01 1.77330E+00 3.32673E-02-1.95322E+00 9.55336E-14-1.20533E-13
 -1      2817 1.82655E+01 1.63269E+00 3.56096E-02-3.50180E+00-1.97485E-14-1.01341E-13
 -1      2818 1.83683E+01 1.70547E+00-2.25829E-02-3.09000E+00-9.23567E-15-8.16907E-14
 -1      2819 1.74210E+01 2.07524E+00 5.30034E-02-2.53012E+00-4.06693E-14-8.39918E-14
 -1      2820 1.73501E+01 6.75578E-01 8.39134E-02-4.45525E+00 4.90129E-14-4.80588E-14
 -1      2821 1.73392E+01 1.34704E+00 1.49060E-02-4.02694E+00-1.20876E-14-8.01754E-14
 -1      2822 1.58398E+01 1.93360E+00 8.77796E-02-3.30003E+00-5.82867E-15-1.25878E-13
 -1      2823 1.81326E+01-2.15292E+00 1.25553E-01-5.46185E+00 1.69892E-13 8.36831E-15
 -1      2824 1.75566E+01-3.60982E-01 1.34143E-01-5.17540E+00 1.83485E-13-5.38042E-14
 -1      2825 1.47119E+01 4.97909E-01 5.47847E-02-4.55414E+00 8.96713E-14 2.24404E-14
 -1      2826 1.60655E+01-2.80002E+00 6.89668E-02-5.83867E+00 1.95538E-13 2.81164E-14
 -1      2827 1.92413E+01 1.54121E+00-2.03137E-02 2.87401E+00-3.65155E-13-1.16092E-13
 -1      2828 1.92153E+01 1.55887E+00 1.04022E-02 3.28703E+00-2.84647E-13-1.22121E-13
 -1      2829 1.97287E+01 1.28848E+00-1.77736E-02 2.16464E+00-3.01999E-13-1.72860E-13
 -1      2830 1.97475E+01 1.44097E+00 1.16861E-02 2.51530E+00-3.53242E-13-9.11677E-14
 -1      2831 1.83405E+01 1.86029E+00 4.15116E-02 2.47629E+00-3.59665E-13-4.93945E-14
 -1      2832 2.00037E+01 9.73084E-01-1.32211E-02 1.60335E+00-2.17489E-13-1.49743E-13
 -1      2833 2.00565E+01 1.13473E+00 9.88647E-03 1.88351E+00-3.56377E-13-1.84168E-13
 -1      2834 1.91105E+01 1.50853E+00 2.47707E-02 1.89561E+00-3.76591E-13-4.47264E-14
 -1      2835 2.01329E+01 6.87904E-01-8.63394E-03 1.15628E+00 2.06557E-13-1.40969E-14
 -1      2836 2.02041E+01 8.25272E-01 8.61052E-03 1.37665E+00 5.52587E-14 2.34625E-14
 -1      2837 1.95915E+01 1.12220E+00 1.57634E-02 1.42704E+00-1.76241E-13-1.63575E-13
 -1      2838 2.01661E+01 4.85608E-01-5.42769E-03 8.40345E-01-5.78088E-14 1.10975E-13
 -1      2839 2.02378E+01 5.81624E-01 7.39747E-03 9.95165E-01 6.65336E-14 6.85520E-14
 -1      2840 1.98554E+01 8.01130E-01 9.16713E-03 1.06189E+00 1.43679E-13-2.42534E-14
 -1      2841 2.01535E+01 3.48479E-01-3.01280E-03 6.06391E-01 4.75493E-14-8.48535E-14
 -1      2842 2.02179E+01 4.12444E-01 6.12338E-03 7.20387E-01-5.46837E-14 8.78604E-14
 -1      2843 1.99840E+01 5.67702E-01 4.61414E-03 7.88189E-01-2.12918E-14-9.93824E-14
 -1      2844 2.01321E+01 2.65983E-01-6.39308E-05 4.40566E-01 1.42461E-13-7.66034E-14
 -1      2845 2.01854E+01 3.02891E-01 4.76072E-03 5.28144E-01 8.84444E-14-6.30183E-14
 -1      2846 2.00456E+01 4.13502E-01 1.02869E-03 5.95045E-01 9.33176E-14-2.34271E-13
 -1      2847 2.00704E+01 3.15243E-01 3.37660E-04 4.45767E-01 2.00827E-13-1.69809E-13
 -1      2848 2.00975E+01-7.30982E-03-7.26516E-04-1.16662E-01 1.53203E-13 3.67319E-13
 -1      2849 2.00843E+01 1.07659E-02 7.03899E-04-1.14634E-01 2.54669E-14 3.63850E-13
 -1      2850 2.01193E+01-2.46345E-02-3.50171E-04-1.40149E-01 1.17875E-13 6.57591E-14
 -1      2851 3.05059E+01 7.04367E+00-1.65191E-01 1.21651E+00-4.51417E-13-3.34732E-13
 -1      2852 3.02737E+01 7.82024E+00-1.98894E-01 5.06469E-01-4.74593E-13-1.98973E-13
 -1      2853 1.98447E+01 3.77053E-01 2.18915E-03-2.28164E-01-1.47630E-13 2.37005E-13
 -1      2854 1.98006E+01 4.12107E-01-3.48431E-03-1.83009E-01-2.35973E-14 8.94107E-14
 -1      2855 1.97231E+01 5.31752E-01-6.19773E-04 3.61447E-02-5.99558E-14-1.63852E-14
 -1      2856 1.97252E+01 5.34642E-01-2.00127E-03 1.12332E-01 2.16246E-14 7.94276E-15
 -1      2857 1.99339E+01 2.70718E-01 2.41346E-03-2.83098E-01-1.34553E-13 1.61947E-13
 -1      2858 1.98882E+01 3.10943E-01-2.73612E-03-2.62528E-01-1.84943E-13 2.12725E-13
 -1      2859 1.98365E+01 3.21452E-01-2.73130E-04-2.91831E-01-6.97158E-14 1.61662E-13
 -1      2860 1.97651E+01 4.71965E-01 1.16860E-03-1.18113E-01-5.23343E-14-3.07135E-13
 -1      2861 1.97367E+01 4.93983E-01-3.45517E-03-5.19374E-02-4.12467E-14-1.88141E-13
 -1      2862 1.96687E+01 5.36636E-01 3.08080E-03-3.05939E-02-1.60449E-13-5.59924E-14
 -1      2863 1.97337E+01 4.41744E-01 1.29064E-03-1.90379E-01-9.00533E-14-6.87485E-14
 -1      2864 6.60955E+00 6.50805E-01 1.79536E-01-4.43168E-01-1.14770E-13-1.43746E-13
 -1      2865 6.95639E+00 2.42550E-01 1.53468E-01-3.01369E+00-2.58182E-13-1.11633E-13
 -1      2866 2.00096E+01 1.74267E-01 2.06633E-03-2.87512E-01 2.89374E-14-3.81189E-13
 -1      2867 1.99731E+01 2.12215E-01-1.59158E-03-2.88444E-01-3.80959E-14-1.44955E-13
 -1      2868 1.99432E+01 2.03381E-01-1.30332E-03-3.29891E-01-9.21137E-14 9.13293E-14
 -1      2869 2.00620E+01 9.70583E-02 1.50061E-03-2.55416E-01 6.35049E-14-4.67586E-13
 -1      2870 2.00386E+01 1.29464E-01-4.28525E-04-2.71489E-01 1.06120E-13-4.19374E-13
 -1      2871 2.00300E+01 1.05484E-01-1.90967E-03-3.15199E-01-2.29014E-14-3.85138E-13
 -1      2872 2.00873E+01 4.65690E-02 1.33023E-03-2.03826E-01 1.23953E-13-2.25379E-13
 -1      2873 2.00768E+01 6.93123E-02 3.64813E-04-2.27136E-01 2.25412E-13-3.57459E-13
 -1      2874 2.00864E+01 3.68794E-02-1.70947E-03-2.65859E-01 1.31757E-13-3.16197E-13
 -1      2875 9.73338E+00-1.83615E-01 1.58551E-01 4.16901E+00 1.30729E-14 7.36633E-14
 -1      2876 7.70832E+00 5.87181E-01 1.78257E-01 1.75046E+00 6.40980E-14-9.58955E-14
 -1      2877 3.01732E+01 7.82311E+00-2.02266E-01-3.85681E-01-4.13419E-13-8.51376E-14
 -1      2878 3.02244E+01 6.93570E+00-1.50375E-01-1.25985E+00-2.32814E-13-1.19349E-13
 -1      2879 2.03379E+01 1.50039E+00-1.89041E-03 1.26692E+00 1.51296E-13-5.07138E-14
 -1      2880 3.02879E+01 4.87312E+00-2.35049E-01-1.65135E+00-1.04444E-13-1.16046E-13
 -1      2881 3.05485E+01 3.10388E+00-8.03321E-02-1.62575E+00-1.18822E-13 4.98768E-14
 -1      2882 1.98444E+01 7.79575E-03 2.32581E-04-1.82058E-01 5.55860E-14 4.25787E-16
 -1      2883 1.98429E+01 2.62321E-02 1.73533E-03-1.70756E-01 5.20155E-14-3.09605E-15
 -1      2884 1.99517E+01 5.35833E-02-1.76566E-03-1.52064E-01 3.16632E-14-3.35290E-14
 -1      2885 2.03116E+01 1.05994E+00 2.51646E-03-8.56283E-01-8.57745E-14-1.54870E-13
 -1      2886 2.02267E+01 8.17587E-01-5.17198E-03-6.12192E-01-1.01886E-13-1.57574E-13
 -1      2887 2.02628E+01 8.91805E-01 2.03411E-04-5.70435E-01-1.05249E-13-1.61465E-13
 -1      2888 1.99177E+01-4.54865E+00 1.69017E-01-6.98203E+00 3.18912E-14 3.42105E-13
 -1      2889 2.34210E+01-5.11017E+00-1.10974E-01-5.87367E+00 1.46425E-13 2.46584E-13
 -1      2890 9.36976E+00-1.32117E+00 1.14922E-01 6.04654E+00 3.36953E-14-4.11560E-13
 -1      2891 7.16235E+00-5.18244E-01 1.97550E-01 4.31487E+00 1.64806E-13-4.00097E-13
 -1      2892 1.99244E+01 2.59655E+00-7.88806E-03 7.94218E-01 1.22298E-13-1.71375E-13
 -1      2893 1.98807E+01 2.68879E+00-6.12514E-03 6.45226E-01 9.20538E-14-1.90004E-13
 -1      2894 1.99993E+01 2.38941E+00 4.34394E-03 5.16454E-01 7.88062E-14-1.92986E-13
 -1      2895 2.00806E+01 2.19136E+00 5.57484E-03 7.45415E-01 1.05782E-13-1.65548E-13
 -1      2896 1.98760E+01 2.69722E+00-6.04472E-03-6.34667E-01-1.71138E-14-2.09517E-13
 -1      2897 1.99185E+01 2.60803E+00-7.56612E-03-7.85219E-01-4.05319E-14-2.05627E-13
 -1      2898 2.27913E+01-5.08070E+00-9.25921E-02 6.18428E+00-2.31440E-13 1.07796E-14
 -1      2899 1.95042E+01-4.56177E+00 1.43821E-01 7.14148E+00-1.23582E-13-4.43201E-13
 -1      2900 2.01799E+01 2.27275E+00 5.69812E-05-1.42300E+00-1.12996E-13-1.93887E-13
 -1      2901 1.84939E+01 1.46883E+00-1.51733E-02 3.70445E+00-1.74126E-13-9.31408E-14
 -1      2902 1.84843E+01 1.11434E+00 8.71548E-03 4.22056E+00-8.29926E-14-1.16254E-13
 -1      2903 1.71570E+01 1.88256E+00 3.50908E-02 3.21527E+00-1.74120E-13-2.11212E-13
 -1      2904 1.29799E+01-1.66495E+00 2.41251E-01-5.37292E+00 1.76859E-13-2.92821E-14
 -1      2905 1.24533E+01-2.75872E+00 1.94172E-01-7.23330E+00-2.77556E-17 5.67893E-13
 -1      2906 1.54503E+01-3.67369E+00-8.32401E-03-7.66862E+00 1.10995E-13 5.61801E-13
 -1      2907 5.98927E+00-1.61473E-02 1.55754E-01 2.59333E+00 1.44829E-13-3.40034E-13
 -1      2908 5.97850E+00 3.03631E-01 1.73337E-01 2.94451E-01 9.52268E-14-3.02314E-13
 -1      2909 8.37450E+00 4.86554E-01 1.95741E-01 3.22797E+00 1.79308E-13-3.19245E-13
 -1      2910 2.00826E+01 1.88441E-02-2.26414E-04-1.33467E-01-8.92583E-15-3.76995E-14
 -1      2911 2.82415E+01-3.66007E+00-1.49994E-01 2.70272E+00-2.59057E-13 4.99878E-14
 -1      2912 2.61786E+01-4.45464E+00 8.63768E-02 4.16503E+00-3.33317E-13 1.15533E-13
 -1      2913 1.56621E+01 7.49255E-01 7.91691E-02 4.32608E+00 5.83214E-14-3.68455E-14
 -1      2914 1.58228E+01-4.97266E-01 1.32131E-01 4.76277E+00 2.29261E-13-1.41179E-13
 -1      2915 3.04811E+01 4.39462E-01-2.07382E-01-6.03141E-01-1.58484E-13 1.43482E-13
 -1      2916 2.97999E+01-1.67408E+00-4.16600E-03 8.22030E-01-1.81855E-13 6.01741E-14
 -1      2917 2.85328E+01-2.65019E+00-6.94551E-03 1.05684E+00-1.91418E-13 2.87603E-13
 -1      2918 3.05328E+01 3.56601E+00-8.97128E-02 1.63228E+00-2.21156E-13-4.35291E-13
 -1      2919 3.06254E+01 5.44496E+00-2.14442E-01 1.55665E+00-4.10727E-13-4.01151E-13
 -1      2920 2.98269E+01-1.19858E+00-1.28440E-03-1.62233E-01 1.74451E-13-3.41255E-13
 -1      2921 3.02895E+01 7.22656E-01-2.15488E-01 8.87804E-01 2.75335E-14-3.80820E-13
 -1      2922 2.66353E+01-4.34352E+00 9.48000E-02-3.79382E+00 2.62443E-13 5.62328E-14
 -1      2923 2.84305E+01-3.40560E+00-1.73021E-01-2.12379E+00 2.67581E-13-1.97314E-13
 -1      2924 7.89175E+00-4.28215E-01 1.98662E-01-4.72456E+00-3.33199E-13-8.27116E-15
 -1      2925 9.54200E+00-1.75497E+00 1.02845E-01-6.40582E+00-1.73958E-13 3.42504E-13
 -1      2926 1.23020E+01-1.27079E+00 1.79736E-01-6.14750E+00-9.94899E-14 3.65444E-13
 -1      2927 9.03623E+00 5.47991E-01 1.73854E-01-3.42355E+00-3.40006E-13 9.01779E-14
 -1      2928 1.99734E+01 2.48626E+00-6.42117E-03-9.00717E-01-7.53632E-14-2.12077E-13
 -1      2929 2.00282E+01 2.34301E+00-1.32104E-02-1.04134E+00-9.50014E-14-2.09011E-13
 -1      2930 2.00695E+01 2.20154E+00 2.96309E-03-7.36438E-01-5.04072E-14-1.83541E-13
 -1      2931 1.99338E+01 2.53922E+00 3.16927E-03 5.04504E-03 2.94318E-14-2.27558E-13
 -1      2932 1.97952E+01 2.87081E+00-5.52825E-03-6.19338E-02 2.57666E-14-2.36336E-13
 -1      2933 1.98027E+01 2.85667E+00-5.40761E-03-2.16846E-01 1.47945E-14-2.43237E-13
 -1      2934 1.20836E+01-4.42107E-01 1.54796E-01-4.65343E+00 1.24123E-13-2.94209E-15
 -1      2935 2.50167E+01-4.51042E+00 4.74635E-02-4.26752E+00 6.48648E-14 3.01426E-14
 -1      2936 2.01694E+01 5.50146E-01 1.04445E-02 4.45804E-01 7.90498E-14-6.59573E-14
 -1      2937 2.02529E+01 8.17937E-01 9.92281E-04 6.12490E-01 9.53535E-14-7.22251E-14
 -1      2938 2.00662E+01 4.09678E-01-1.81289E-03 2.79822E-01 7.22241E-14-5.92584E-14
 -1      2939 1.99315E+01 5.87752E-03-1.26420E-03-1.86182E-01 5.43567E-14-1.31983E-14
 -1      2940 2.10714E+01-2.91942E+00 2.40756E-01 5.55550E+00 3.43170E-13-9.85032E-13
 -1      2941 1.37232E+01 1.51786E+00 1.07750E-01 3.42129E+00-3.60441E-14-5.64895E-14
 -1      2942 1.98182E+01 2.82052E+00-5.73677E-03-3.51505E-01 1.42939E-14-2.20856E-13
 -1      2943 1.98423E+01 2.77270E+00-6.05982E-03-5.05686E-01-6.43046E-15-2.24732E-13
 -1      2944 1.99909E+01 2.39512E+00 2.17556E-03-5.05607E-01-1.47135E-14-2.05315E-13
 -1      2945 1.99466E+01 2.50484E+00 2.60262E-03-2.54180E-01 1.22481E-14-2.25130E-13
 -1      2946 2.86599E+01 7.19569E+00-1.38237E-01 3.61875E-02-3.82361E-13-1.98297E-13
 -1      2947 1.43039E+01-1.89087E+00 8.70267E-03 6.48770E+00-9.11216E-14-5.77358E-13
 -1      2948 1.19693E+01-1.59391E+00 1.57358E-01 6.47766E+00-7.17898E-14-5.57207E-13
 -1      2949 1.15647E+01-3.39104E-01 1.33708E-01 5.41669E+00 7.02841E-14-6.44068E-13
 -1      2950 7.40664E+00 5.93000E-01 2.28606E-01-1.04709E+00 1.58866E-14-2.02616E-13
 -1      2951 9.13832E+00 8.30895E-01 1.30437E-01-2.42156E+00 9.83900E-14-1.42802E-13
 -1      2952 8.17622E+00 1.25148E+00 8.07804E-02 6.71804E-02 8.69825E-14-2.28428E-13
 -1      2953 1.57811E+01-1.93671E+00 9.58564E-02 5.49392E+00 1.67782E-13-3.39700E-13
 -1      2954 2.02906E+01 1.58803E+00-1.14916E-03 1.16569E+00 1.57857E-13-7.08014E-14
 -1      2955 2.02798E+01 1.36650E+00 2.02699E-03 9.19250E-01 1.36511E-13-6.89135E-14
 -1      2956 1.97449E+01 5.34573E-01-2.58747E-03 2.03571E-01-1.95281E-14 6.06846E-14
 -1      2957 1.97814E+01 5.16449E-01-4.18327E-05 2.69918E-01 1.64829E-14 1.73403E-13
 -1      2958 1.96763E+01 5.76373E-01 4.96016E-03 1.61928E-01-6.65504E-14 2.70351E-14
 -1      2959 2.90214E+01 5.70701E+00-1.23376E-01 1.59621E+00-4.01290E-13-4.31266E-13
 -1      2960 1.98360E+01 4.75881E-01-4.41521E-03 3.49549E-01 2.48119E-13-3.67393E-14
 -1      2961 1.99093E+01 4.31703E-01 1.42560E-03 3.88252E-01 3.09431E-13-3.23474E-13
 -1      2962 1.97475E+01 5.42788E-01-1.79839E-04 3.38848E-01 1.67487E-13-1.27215E-13
 -1      2963 1.99576E+01 2.25430E-01-9.01016E-04 5.40758E-02 5.83262E-14-3.37442E-14
 -1      2964 2.00234E+01 3.09985E-01 7.87723E-03 1.52641E-01 6.86667E-14-5.04367E-14
 -1      2965 2.01434E+01 4.70689E-01-1.81148E-03 2.71297E-01 6.33934E-14-8.40884E-14
 -1      2966 2.00536E+01 2.59783E-01-2.74677E-03 5.18637E-02 5.61055E-14-8.44820E-14
 -1      2967 9.12498E+00 1.33559E+00 1.74757E-01 7.11176E-01-3.62679E-14-8.65974E-15
 -1      2968 2.00822E+01 3.31569E-02-1.58601E-04-1.57774E-01 7.57042E-14-2.78805E-13
 -1      2969 2.93882E+01 1.31045E+00-7.35639E-02-1.38352E+00-1.31554E-13-4.87110E-15
 -1      2970 2.88177E+01 5.40112E+00-1.27949E-01-1.64431E+00-2.13232E-13-1.77663E-13
 -1      2971 2.85201E+01-2.35175E+00-1.13545E-02-6.78072E-01 3.34070E-13-3.76005E-13
 -1      2972 2.46399E+01-4.54207E+00 4.89674E-02 4.59758E+00-1.78177E-13 1.26316E-13
 -1      2973 2.01178E+01-1.14493E-02 1.28452E-03-1.64555E-01-1.91002E-14-3.46669E-13
 -1      2974 2.00960E+01 2.26451E-02-2.05858E-04-1.83939E-01-8.31746E-15-3.81865E-13
 -1      2975 2.01171E+01-8.89534E-03-1.32013E-03-2.13419E-01 1.69546E-13-3.90565E-13
 -1      2976 2.01360E+01-4.09981E-02-8.37414E-04-1.64305E-01 6.20338E-14-2.12488E-13
 -1      2977 1.86615E+01-3.79095E+00 1.16757E-01 6.86246E+00-7.53009E-14-4.07625E-13
 -1      2978 2.01404E+01 2.12930E+00 8.82664E-04-1.14015E+00-9.49546E-14-2.13472E-13
 -1      2979 2.02923E+01 1.68180E+00-1.06531E-02-1.24816E+00-1.15004E-13-1.71281E-13
 -1      2980 2.02875E+01 1.30335E+00-1.30441E-03-9.75640E-01-8.74148E-14-1.61952E-13
 -1      2981 2.01956E+01 1.85425E+00 5.23483E-03-9.27379E-01-8.98455E-14-2.08964E-13
 -1      2982 2.02789E+01 1.37864E+00 5.58573E-03-8.83457E-01-8.45582E-14-1.66291E-13
 -1      2983 2.00073E+01 3.58600E-01-1.88131E-03 4.31415E-01 2.43918E-13-2.00677E-13
 -1      2984 2.93187E+01 1.82841E+00-9.65216E-02 1.60670E+00-3.43614E-14-6.05307E-13
 -1      2985 1.99450E+01 4.37293E-01 2.45822E-03 4.74743E-01 2.49106E-13-2.00262E-13
 -1      2986 2.02408E+01 1.47986E+00-6.68852E-03 8.02218E-01 1.21710E-13-1.15921E-13
 -1      2987 2.02016E+01 1.67031E+00-3.74784E-04 7.45818E-01 1.11026E-13-1.52145E-13
 -1      2988 2.71790E+01 6.61115E+00-1.23681E-01 6.15045E-01-3.55979E-13-4.15931E-13
 -1      2989 2.70510E+01 6.66725E+00-1.11861E-01-4.68398E-01-2.81983E-13-3.59931E-13
 -1      2990 2.02218E+01 4.25326E-01 4.21098E-03-1.18278E-01-6.82078E-14-1.40035E-13
 -1      2991 2.01825E+01 3.17549E-01-2.30256E-03-3.31135E-02-5.81611E-14-1.40594E-13
 -1      2992 2.01681E+01 2.34489E-01 3.12683E-03 2.86837E-02-7.26827E-14-1.26466E-13
 -1      2993 2.01380E+01 1.64608E-01-1.27963E-03 8.02669E-02-7.43861E-14-1.47792E-13
 -1      2994 2.02383E+01 3.34799E-01-8.77742E-04-2.39439E-02-7.30163E-14-1.29191E-13
 -1      2995 2.01211E+01 1.11298E-01 2.20964E-03 1.16894E-01-6.41096E-14-1.63688E-13
 -1      2996 2.01003E+01 6.69753E-02-5.89518E-04 1.44995E-01-6.63485E-14-1.88554E-13
 -1      2997 2.01973E+01 1.72077E-01-1.01920E-03 7.99897E-02-7.14760E-14-1.48554E-13
 -1      2998 2.00838E+01 3.39083E-02 1.43032E-03 1.63732E-01-4.10684E-14-1.65564E-13
 -1      2999 2.00705E+01 7.22467E-03-1.42446E-04 1.76250E-01-1.52887E-14-1.58402E-13
 -1      3000 2.01582E+01 6.76152E-02-9.67818E-04 1.39726E-01-4.12370E-14-1.64075E-13
 -1      3001 2.00558E+01-1.19062E-02 8.35017E-04 1.83173E-01 6.35174E-15-1.33693E-13
 -1      3002 2.00483E+01-2.63944E-02 1.38787E-04 1.85965E-01-1.58743E-15-7.79379E-14
 -1      3003 2.01238E+01 3.87593E-03-8.37653E-04 1.68772E-01 2.28361E-14-1.56366E-13
 -1      3004 2.00357E+01-3.59191E-02 4.02937E-04 1.85719E-01-3.47313E-14-4.58936E-14
 -1      3005 2.00324E+01-4.20216E-02 3.11161E-04 1.83018E-01-3.55467E-14-3.60390E-14
 -1      3006 2.00950E+01-3.15001E-02-6.89771E-04 1.78000E-01 8.42809E-15-1.41085E-13
 -1      3007 2.00218E+01-4.49887E-02 1.02102E-04 1.79026E-01-4.77460E-14-2.67358E-15
 -1      3008 2.00215E+01-4.54284E-02 4.13578E-04 1.73827E-01-6.31813E-14-2.72146E-14
 -1      3009 2.00716E+01-4.72615E-02-5.51480E-04 1.75647E-01-4.12477E-14-6.86800E-14
 -1      3010 2.00129E+01-4.40411E-02-9.77609E-05 1.68538E-01-5.50572E-14 8.62778E-15
 -1      3011 2.00146E+01-4.08191E-02 4.71949E-04 1.62907E-01-4.42541E-14-9.48502E-15
 -1      3012 2.00530E+01-4.97058E-02-4.34534E-04 1.67741E-01-3.19220E-14 2.28215E-14
 -1      3013 2.00078E+01-3.67344E-02-2.20197E-04 1.58021E-01-7.65176E-14 4.38230E-15
 -1      3014 2.00111E+01-3.14011E-02 5.02844E-04 1.53311E-01-2.64588E-14 4.25628E-15
 -1      3015 2.00385E+01-4.34816E-02-3.44464E-04 1.58570E-01-2.74120E-14 4.39330E-14
 -1      3016 2.00059E+01-2.59622E-02-2.79990E-04 1.49952E-01-1.77508E-14-4.94653E-14
 -1      3017 2.00106E+01-1.98425E-02 5.15519E-04 1.46955E-01 1.68741E-14-6.88964E-14
 -1      3018 2.00276E+01-3.21974E-02-2.86442E-04 1.51077E-01-6.08297E-14-8.31774E-14
 -1      3019 2.00071E+01-1.42819E-02-2.82143E-04 1.45778E-01 7.86117E-15-8.42766E-14
 -1      3020 2.00132E+01-8.67795E-03 5.13405E-04 1.44794E-01-3.12554E-14-4.66412E-14
 -1      3021 2.00202E+01-1.89299E-02-2.67422E-04 1.47152E-01-2.90830E-15-1.20246E-13
 -1      3022 2.00119E+01-4.30004E-03-2.21758E-04 1.46033E-01-8.63557E-14-1.22724E-14
 -1      3023 2.00197E+01-6.79129E-04 4.94009E-04 1.46877E-01-1.33084E-13 3.65693E-14
 -1      3024 2.00166E+01-6.68239E-03-2.98222E-04 1.47802E-01-3.02757E-14-1.27205E-13
 -1      3025 2.00215E+01 9.68922E-04-8.33170E-05 1.50327E-01-1.43174E-13 9.22143E-14
 -1      3026 2.00317E+01 8.02913E-04 4.47759E-04 1.52266E-01-1.23012E-13 1.55051E-13
 -1      3027 2.00179E+01 1.18977E-03-3.95857E-04 1.53191E-01-9.63759E-14 5.92212E-14
 -1      3028 2.00381E+01-2.21150E-03 1.59175E-04 1.57184E-01-8.76413E-14 1.30915E-13
 -1      3029 2.00517E+01-8.42909E-03 3.56072E-04 1.58816E-01-7.03228E-14 1.41816E-13
 -1      3030 2.00262E+01 5.93421E-04-5.83093E-04 1.62550E-01-1.17207E-13 7.80608E-14
 -1      3031 2.00652E+01-1.84908E-02 5.39978E-04 1.63744E-01-4.50395E-14 1.56882E-13
 -1      3032 2.00835E+01-3.34967E-02 1.88978E-04 1.62815E-01-1.82155E-14 1.74532E-13
 -1      3033 2.00452E+01-1.35833E-02-8.86227E-04 1.73911E-01-2.87988E-14 8.08289E-14
 -1      3034 2.01075E+01-5.33529E-02 1.09579E-03 1.65311E-01-7.69300E-14 1.82662E-13
 -1      3035 2.01324E+01-8.01483E-02-9.75200E-05 1.58522E-01-5.99088E-14 1.60839E-13
 -1      3036 2.00801E+01-4.75025E-02-1.32875E-03 1.83676E-01-3.29309E-14 1.19195E-13
 -1      3037 2.01712E+01-1.12535E-01 1.85275E-03 1.54827E-01-2.43828E-14 1.37033E-13
 -1      3038 2.02045E+01-1.53796E-01-5.61411E-04 1.37684E-01 8.44830E-14 8.25796E-14
 -1      3039 2.01382E+01-1.07922E-01-1.91704E-03 1.85996E-01-5.59687E-14 1.89304E-13
 -1      3040 2.02632E+01-2.00600E-01 2.80140E-03 1.22376E-01 1.40850E-13 2.91627E-14
 -1      3041 2.03063E+01-2.57497E-01-1.26732E-03 8.92223E-02 9.77875E-14-4.35389E-15
 -1      3042 2.02285E+01-2.00889E-01-2.61441E-03 1.72034E-01 4.97869E-14 6.95762E-14
 -1      3043 2.03897E+01-3.18256E-01 3.84738E-03 5.50418E-02-2.96166E-14-1.18032E-14
 -1      3044 2.04425E+01-3.88465E-01-2.25446E-03-4.73629E-04-8.20816E-14 1.24453E-14
 -1      3045 2.03605E+01-3.29085E-01-3.30342E-03 1.29290E-01 3.02523E-14-6.74567E-14
 -1      3046 2.05530E+01-4.58085E-01 4.76127E-03-6.22140E-02-2.79034E-14 4.76491E-14
 -1      3047 2.06126E+01-5.33021E-01-3.46000E-03-1.45820E-01 4.36616E-14 1.22245E-13
 -1      3048 2.05420E+01-4.87339E-01-3.74052E-03 4.15407E-02 1.83132E-14 2.98688E-14
 -1      3049 2.07473E+01-5.99003E-01 5.12275E-03-2.43546E-01 4.05658E-14-3.55780E-14
 -1      3050 2.08066E+01-6.60844E-01-4.59963E-03-3.57684E-01 8.69347E-14-5.69626E-14
 -1      3051 2.07739E+01-6.56303E-01-3.51393E-03-1.09490E-01-5.29090E-14 8.47223E-16
 -1      3052 2.09523E+01-7.01002E-01 4.28440E-03-4.95557E-01 1.84804E-13-1.25630E-13
 -1      3053 2.09994E+01-7.21198E-01-5.04318E-03-6.34971E-01 1.48414E-13-1.39506E-13
 -1      3054 2.10435E+01-7.95407E-01-2.08688E-03-3.38943E-01 9.62473E-14-1.78336E-13
 -1      3055 2.11304E+01-7.04257E-01 1.56944E-03-8.05733E-01 6.58248E-14-4.77473E-14
 -1      3056 2.11501E+01-6.46906E-01-3.78473E-03-9.51821E-01 5.62412E-14-4.47054E-14
 -1      3057 2.13170E+01-8.39512E-01 8.56772E-04-6.47771E-01 1.81900E-13-1.26692E-13
 -1      3058 2.12289E+01-5.39696E-01-3.28797E-03-1.12702E+00 8.73925E-14 8.09641E-14
 -1      3059 2.12090E+01-3.74951E-01-7.21126E-05-1.24342E+00 9.78104E-14 1.50438E-13
 -1      3060 2.15368E+01-7.05887E-01 5.05278E-03-1.00497E+00 1.79912E-13 5.59890E-14
 -1      3061 2.12020E+01-1.60385E-01-8.93310E-03-1.36904E+00 5.19247E-14 2.28184E-13
 -1      3062 2.11411E+01 1.13387E-01 5.94711E-03-1.40563E+00 1.21893E-13 2.94012E-13
 -1      3063 2.16343E+01-3.28926E-01 8.24434E-03-1.32855E+00 1.20848E-13 2.50331E-13
 -1      3064 2.10387E+01 4.14684E-01-1.31570E-02-1.40974E+00 9.83139E-14 3.31816E-13
 -1      3065 2.09538E+01 7.45935E-01 1.11464E-02-1.31775E+00 1.26990E-13 3.61731E-13
 -1      3066 2.15650E+01 2.98755E-01 9.46816E-03-1.48799E+00 1.45084E-13 4.23933E-13
 -1      3067 2.08019E+01 1.05383E+00-1.23329E-02-1.14498E+00 1.61356E-13 3.61432E-13
 -1      3068 2.07266E+01 1.33603E+00 1.19112E-02-9.11729E-01 2.23647E-13 3.77817E-13
 -1      3069 2.13518E+01 1.04676E+00 3.36588E-03-1.33832E+00 1.34123E-13 4.77804E-13
 -1      3070 2.06069E+01 1.54039E+00-5.15324E-03-5.70231E-01 1.62749E-13 1.99433E-13
 -1      3071 2.05771E+01 1.65486E+00 5.93494E-03-2.36663E-01-5.92499E-14 2.61545E-13
 -1      3072 2.11138E+01 1.69009E+00-1.86790E-03-8.18701E-01 4.56267E-14 1.69020E-13
 -1      3073 2.05734E+01 1.65894E+00 5.18281E-03 1.73920E-01-2.10796E-13 3.18244E-13
 -1      3074 2.06003E+01 1.55570E+00-4.41721E-03 5.09144E-01-1.91885E-13 3.14194E-13
 -1      3075 2.10050E+01 1.94578E+00-6.22946E-03-3.54219E-02-7.01242E-14 2.76209E-14
 -1      3076 2.07117E+01 1.36463E+00 1.14845E-02 8.55783E-01-3.00001E-13 3.06048E-13
 -1      3077 2.07824E+01 1.09126E+00-1.26218E-02 1.09858E+00-2.97225E-13 1.39532E-13
 -1      3078 2.11008E+01 1.71250E+00-3.83384E-03 7.57357E-01-2.86836E-13 1.12520E-13
 -1      3079 2.09389E+01 7.85145E-01 1.17388E-02 1.28511E+00-2.49389E-13 6.35754E-14
 -1      3080 2.10234E+01 4.52053E-01-1.33857E-02 1.38549E+00-2.93099E-13 8.08392E-14
 -1      3081 2.13337E+01 1.09560E+00 3.24976E-03 1.29872E+00-3.45403E-13 7.98942E-14
 -1      3082 2.11324E+01 1.46574E-01 6.47389E-03 1.39134E+00-2.73135E-13 1.09675E-14
 -1      3083 2.11955E+01-1.35185E-01-9.45840E-03 1.36086E+00-2.72664E-13-9.46683E-14
 -1      3084 2.15572E+01 3.39606E-01 8.98416E-03 1.47208E+00-3.13363E-13 7.08197E-14
 -1      3085 2.12109E+01-3.58576E-01 4.07406E-04 1.23914E+00-1.43995E-13-7.08476E-14
 -1      3086 2.12334E+01-5.32332E-01-3.62590E-03 1.12430E+00-7.92244E-14-4.76940E-14
 -1      3087 2.16415E+01-3.03469E-01 8.91056E-03 1.32723E+00-1.72349E-13-3.63042E-14
 -1      3088 2.11598E+01-6.46958E-01-3.58579E-03 9.47854E-01-6.49224E-14 3.22644E-14
 -1      3089 2.11418E+01-7.10761E-01 1.30448E-03 8.00329E-01-4.62956E-14 7.43239E-14
 -1      3090 2.15554E+01-7.02314E-01 5.30297E-03 1.00488E+00 3.80716E-14 7.98755E-14
 -1      3091 2.10137E+01-7.32391E-01-5.00973E-03 6.25941E-01-6.57856E-14 1.57718E-13
 -1      3092 2.09672E+01-7.15372E-01 4.15041E-03 4.83461E-01-8.87465E-14 9.42197E-14
 -1      3093 2.13426E+01-8.50086E-01 1.08943E-03 6.42300E-01-1.74369E-14 3.19176E-13
 -1      3094 2.08220E+01-6.76598E-01-4.67805E-03 3.41180E-01-1.49245E-13 2.46750E-15
 -1      3095 2.07623E+01-6.14534E-01 5.12227E-03 2.23796E-01-3.89997E-14 5.87024E-14
 -1      3096 2.10718E+01-8.13239E-01-2.03162E-03 3.24923E-01-6.10266E-14 2.47182E-13
 -1      3097 2.06268E+01-5.46818E-01-3.57885E-03 1.22292E-01-6.55265E-15-1.55975E-13
 -1      3098 2.05661E+01-4.68536E-01 4.87142E-03 3.63713E-02-1.43114E-14-1.93416E-13
 -1      3099 2.08018E+01-6.73444E-01-3.50878E-03 8.71391E-02-4.00962E-14 1.49678E-14
 -1      3100 2.04537E+01-3.94292E-01-2.43077E-03-2.76373E-02 5.59964E-14-2.65175E-13
 -1      3101 2.03994E+01-3.17620E-01 4.04255E-03-8.36502E-02 1.50316E-13-3.64402E-13
 -1      3102 2.05676E+01-4.96814E-01-3.77803E-03-6.98794E-02-2.26927E-14-2.57941E-13
 -1      3103 2.03134E+01-2.49589E-01-1.55921E-03-1.17603E-01 1.92998E-13-3.28916E-13
 -1      3104 2.02677E+01-1.83637E-01 2.70498E-03-1.48475E-01 2.32516E-13-2.81153E-13
 -1      3105 2.03829E+01-3.23697E-01-3.12095E-03-1.59246E-01 1.78659E-13-1.93993E-13
 -1      3106 2.02117E+01-1.33553E-01-1.08143E-03-1.55817E-01 2.81214E-13-2.64055E-13
 -1      3107 2.01758E+01-8.05489E-02 1.74145E-03-1.68110E-01 2.92576E-13-9.57213E-14
 -1      3108 2.01664E+01-7.18713E-02-2.01748E-04-1.94329E-01 1.26877E-13-5.53842E-13
 -1      3109 2.02532E+01-1.79818E-01-1.48406E-03-1.93044E-01 3.39142E-13-2.09148E-13
 -1      3110 2.02827E+01 1.15479E+00 1.22231E-03-6.65251E-01-9.08479E-14-1.83499E-13
 -1      3111 2.02553E+01 9.11780E-01-4.78290E-03-4.79039E-01-1.00474E-13-1.79821E-13
 -1      3112 1.15965E+01 1.92652E+00 5.07595E-02 2.16649E+00-1.16053E-14-5.03486E-14
 -1      3113 1.05802E+01 2.04578E+00 9.29707E-02-3.59810E-02-1.09393E-13 1.31561E-13
 -1      3114 1.48349E+01 2.08913E+00 7.15368E-02 2.55467E+00-3.92221E-14 4.74967E-15
 -1      3115 1.99889E+01-3.75207E-02 3.59655E-04-1.87244E-01 4.30974E-14 4.53801E-14
 -1      3116 1.99868E+01-3.24941E-02 3.61536E-04-1.90516E-01 1.18440E-14 4.53122E-14
 -1      3117 1.99958E+01-2.43490E-02 1.96422E-04-1.91093E-01-8.80899E-15 3.58593E-14
 -1      3118 1.99983E+01-1.16081E-02 8.70827E-04-1.89071E-01 1.73208E-14 2.75330E-14
 -1      3119 2.00507E+01-2.93299E-02-7.44212E-04-1.86813E-01 1.04541E-14-1.78784E-14
 -1      3120 1.99896E+01-3.24190E-02 5.54773E-04-1.66958E-01 1.09080E-13 9.90122E-15
 -1      3121 1.99826E+01-3.69434E-02-2.07051E-04-1.72195E-01 9.35624E-14 3.06033E-14
 -1      3122 1.99947E+01-1.79676E-02 6.27240E-04-1.59038E-01 3.70747E-14 1.01458E-13
 -1      3123 1.99860E+01-2.63098E-02-3.76123E-04-1.62351E-01 8.86230E-14 2.25821E-14
 -1      3124 2.00175E+01-3.30132E-02-2.78576E-04-1.66401E-01 8.42561E-14 2.99910E-14
 -1      3125 2.00008E+01 2.31932E-03 6.95388E-04-1.57667E-01 1.01970E-13 8.75968E-14
 -1      3126 1.99916E+01-8.97891E-03-5.34611E-04-1.57266E-01 5.91860E-14 1.04636E-13
 -1      3127 2.00127E+01-1.47215E-02-1.54715E-04-1.60677E-01 4.84428E-14 4.90712E-14
 -1      3128 2.00072E+01 2.95650E-02 7.94523E-04-1.65087E-01-3.83806E-14 8.95701E-14
 -1      3129 1.99974E+01 1.45181E-02-7.03084E-04-1.59734E-01 8.32713E-14 1.18150E-13
 -1      3130 2.00086E+01 1.09469E-02-1.16855E-05-1.61363E-01 5.99468E-14 6.83228E-14
 -1      3131 2.00117E+01 6.57080E-02 9.12966E-04-1.84086E-01-1.00699E-13 4.93572E-14
 -1      3132 2.00019E+01 4.57746E-02-9.24355E-04-1.72217E-01-9.52236E-14 6.25447E-14
 -1      3133 2.00030E+01 4.53057E-02 1.80194E-04-1.70705E-01-3.83031E-14 6.80906E-14
 -1      3134 2.00119E+01 1.14159E-01 1.10167E-03-2.17826E-01-1.05229E-13 7.07457E-14
 -1      3135 2.00027E+01 8.73315E-02-1.26505E-03-1.97570E-01-1.06526E-13 3.90937E-14
 -1      3136 1.99928E+01 9.08702E-02 4.82320E-04-1.91105E-01-1.22019E-13-6.11129E-14
 -1      3137 2.00011E+01 1.83978E-01 1.22789E-03-2.73333E-01-5.33266E-14-2.81703E-14
 -1      3138 1.99949E+01 1.45289E-01-1.76985E-03-2.40236E-01-7.67691E-14 1.78771E-14
 -1      3139 1.99723E+01 1.53389E-01 8.68467E-04-2.26155E-01-7.27008E-14-1.00514E-13
 -1      3140 1.99711E+01 2.76526E-01 1.15429E-03-3.50084E-01 6.85563E-14-7.96562E-14
 -1      3141 1.99717E+01 2.25233E-01-2.53091E-03-3.04431E-01 5.50644E-14-5.45983E-14
 -1      3142 1.99338E+01 2.39247E-01 1.78674E-03-2.77779E-01 6.58980E-14-1.83248E-13
 -1      3143 1.99072E+01 4.05260E-01 9.63813E-04-4.55545E-01-4.46780E-14-6.12856E-14
 -1      3144 1.99211E+01 3.34135E-01-3.63173E-03-3.92237E-01 7.67975E-15-9.51646E-14
 -1      3145 1.98654E+01 3.54266E-01 3.06803E-03-3.46861E-01 5.22897E-14-2.40659E-13
 -1      3146 1.97843E+01 5.83470E-01 3.63017E-04-5.95159E-01 4.29935E-15-1.09506E-13
 -1      3147 1.98231E+01 4.85459E-01-5.26486E-03-5.10123E-01-2.69627E-14-8.28311E-14
 -1      3148 1.97466E+01 5.12292E-01 5.13778E-03-4.35739E-01-1.78840E-14-2.17313E-13
 -1      3149 1.95631E+01 8.25798E-01-9.50746E-04-7.73261E-01-9.74698E-17-7.66365E-14
 -1      3150 1.96458E+01 6.93544E-01-7.63571E-03-6.62661E-01 4.13543E-14-1.16702E-13
 -1      3151 1.95458E+01 7.27341E-01 8.39129E-03-5.43637E-01 2.12263E-14-1.36485E-13
 -1      3152 1.91842E+01 1.14293E+00-3.39943E-03-9.91290E-01 2.81392E-14-6.17060E-14
 -1      3153 1.93396E+01 9.71601E-01-1.12634E-02-8.52528E-01 1.06391E-14-7.06957E-14
 -1      3154 1.92149E+01 1.01344E+00 1.34688E-02-6.65651E-01-2.11831E-15-8.05544E-14
 -1      3155 1.85177E+01 1.55078E+00-6.75360E-03-1.25989E+00 1.01303E-13-1.14602E-14
 -1      3156 1.88120E+01 1.33709E+00-1.58178E-02-1.08313E+00 4.13316E-14 1.20871E-14
 -1      3157 1.86639E+01 1.38570E+00 2.05286E-02-7.94298E-01 1.50824E-14 5.22108E-15
 -1      3158 1.74979E+01 1.95951E+00-9.91423E-03-1.54863E+00 3.04379E-14 1.16667E-14
 -1      3159 1.79566E+01 1.75389E+00-2.30238E-02-1.35147E+00 1.49692E-13 3.25480E-14
 -1      3160 1.77921E+01 1.82539E+00 3.34005E-02-9.03452E-01 5.31721E-14 5.83565E-14
 -1      3161 1.59544E+01 2.24330E+00-1.15190E-03-1.88249E+00-9.08496E-14 4.97692E-15
 -1      3162 1.66461E+01 2.12277E+00-2.96472E-02-1.64754E+00-5.04592E-14 2.62854E-14
 -1      3163 1.64745E+01 2.24997E+00 5.45717E-02-9.76726E-01 2.31657E-14 1.21018E-13
 -1      3164 1.37327E+01 2.03621E+00 3.94464E-02-2.33526E+00-4.84092E-14-7.61058E-14
 -1      3165 1.46697E+01 2.22785E+00-2.36093E-02-2.02788E+00-1.19557E-14-9.99374E-14
 -1      3166 1.44885E+01 2.51260E+00 1.04330E-01-1.02721E+00-5.44920E-14-5.63959E-14
 -1      3167 1.22903E+01 9.62271E-01 1.90306E-01-3.64365E+00 1.01027E-13-7.02355E-14
 -1      3168 1.85606E+01 1.51760E+00-2.01592E-02 1.40600E+00-2.64522E-13-2.05470E-13
 -1      3169 1.82397E+01 1.72392E+00-6.94197E-03 1.62041E+00-3.52970E-13-8.56011E-14
 -1      3170 1.84714E+01-3.63285E+00 1.12466E-01-6.75732E+00 2.68258E-14 3.73163E-13
 -1      3171 1.92149E+01 1.12008E+00-1.35438E-02 1.09781E+00-1.29680E-13-2.25128E-13
 -1      3172 1.90227E+01 1.31455E+00-3.39051E-03 1.28200E+00-2.43084E-13-2.91003E-13
 -1      3173 1.83719E+01 1.58260E+00 2.32832E-02 1.02741E+00-2.19921E-13-9.73236E-14
 -1      3174 2.74545E+01-3.06027E+00 6.79649E-02-1.08909E+00 3.01550E-13-3.33115E-13
 -1      3175 2.79400E+01-1.65979E+00-1.24967E-01 3.94483E-01 3.04812E-13-5.37279E-13
 -1      3176 1.99873E+01-3.92204E-02 4.60329E-04-1.77541E-01 8.56512E-14 5.06937E-14
 -1      3177 1.99823E+01-3.96509E-02 2.84577E-05-1.82946E-01 7.76185E-14 3.46547E-14
 -1      3178 2.00246E+01-4.29275E-02-4.10056E-04-1.75426E-01 1.18344E-13 6.06284E-14
 -1      3179 1.75527E+01 1.91032E+00-2.88344E-02 1.75011E+00-4.49009E-13 4.08029E-14
 -1      3180 1.71014E+01 2.08996E+00-2.50072E-03 2.00124E+00-3.11466E-13-2.37197E-14
 -1      3181 1.73071E+01 2.03240E+00 4.14329E-02 1.18774E+00-2.75583E-13-8.99376E-14
 -1      3182 1.95864E+01 8.16047E-01-8.56282E-03 8.55595E-01 5.22367E-14-1.99756E-14
 -1      3183 1.94917E+01 9.58835E-01-9.76411E-04 9.96795E-01-1.99038E-14-1.87699E-13
 -1      3184 1.90563E+01 1.17849E+00 1.53008E-02 8.66057E-01-6.25861E-14-2.21914E-13
 -1      3185 1.97995E+01 5.89513E-01-6.82937E-03 6.52851E-01-5.51505E-14-3.44594E-13
 -1      3186 1.97559E+01 6.98615E-01 1.27332E-03 7.65641E-01 9.29907E-14-1.95408E-13
 -1      3187 1.94658E+01 8.69259E-01 9.83885E-03 7.11082E-01 8.53213E-14-3.59268E-13
 -1      3188 1.99002E+01 4.76527E-01-1.63647E-03 5.26404E-01-3.72019E-14-2.06571E-13
 -1      3189 1.98757E+01 5.41683E-01 2.96231E-03 6.00990E-01-2.33984E-13-3.81380E-13
 -1      3190 1.96649E+01 6.50464E-01-5.56396E-03 5.80420E-01-8.02345E-14-5.73121E-13
 -1      3191 1.97855E+01 5.50205E-01 2.28594E-03 4.67260E-01 6.98684E-14-3.41265E-13
 -1      3192 2.00921E+01-3.95027E+00-7.78050E-02 6.15792E+00-4.83086E-14-1.10800E-13
 -1      3193 1.76177E+01-2.79291E+00 1.63572E-01 6.48431E+00-5.89875E-14-3.67997E-13
 -1      3194 2.82348E+01 6.79643E-01-4.12102E-02 1.55937E+00 1.86982E-13-7.48429E-13
 -1      3195 2.80924E+01 2.72358E+00-1.60752E-01 2.01181E+00-1.69989E-13-7.71022E-13
 -1      3196 2.00459E+01 2.16199E+00-4.28399E-03 2.92315E-01 5.44953E-14-2.17092E-13
 -1      3197 2.00328E+01 2.20105E+00-3.24880E-03 1.70718E-01 3.90342E-14-2.15568E-13
 -1      3198 2.02261E+01 1.59076E+00-6.80532E-03-8.51510E-01-8.86882E-14-2.17552E-13
 -1      3199 2.02561E+01 1.36682E+00-6.07142E-05-7.44947E-01-9.12013E-14-1.96706E-13
 -1      3200 2.01730E+01 1.83530E+00 2.31697E-03-7.88952E-01-8.16825E-14-2.05168E-13
 -1      3201 2.79085E+01 4.76794E+00-6.57240E-02 1.94700E+00-2.46525E-13-7.19459E-13
 -1      3202 2.75709E+01 5.93193E+00-1.58053E-01 1.36665E+00-3.10738E-13-5.83960E-13
 -1      3203 1.98458E+01 2.70974E-01 3.86140E-03-3.71844E-01-2.02874E-13-7.17976E-14
 -1      3204 1.97697E+01 3.23758E-01-3.78314E-03-3.38587E-01-1.22453E-13 1.08383E-13
 -1      3205 2.01352E+01-2.25599E-02 1.62642E-03-2.71067E-01 8.46033E-14-2.90844E-13
 -1      3206 2.01127E+01 1.48937E-03 3.57400E-04-3.04057E-01 6.63129E-14-2.50744E-13
 -1      3207 1.99801E+01 1.39384E-01 3.35629E-03-3.85473E-01-8.02629E-14 3.12738E-14
 -1      3208 1.99144E+01 1.87526E-01-2.33689E-03-3.83397E-01-1.60926E-13 8.20578E-14
 -1      3209 1.98617E+01 1.89788E-01-2.04990E-03-4.38322E-01-1.96282E-13-2.78947E-14
 -1      3210 2.00104E+01 5.54926E-03-7.72533E-05-1.81994E-01 4.62649E-14-1.69114E-14
 -1      3211 2.00199E+01 3.00412E-02 1.53055E-03-1.69843E-01 1.87553E-14-4.13123E-14
 -1      3212 2.00731E+01 2.79121E-03-9.51768E-04-1.77737E-01-9.79501E-15-8.00712E-15
 -1      3213 2.00352E+01 5.95067E-02-4.37783E-04-1.50328E-01 1.45062E-15-4.85760E-14
 -1      3214 2.00540E+01 9.94755E-02 2.43744E-03-1.22378E-01 3.65364E-14-3.99520E-14
 -1      3215 2.01035E+01 6.16592E-02-1.17464E-03-1.47296E-01 1.18490E-15-5.77681E-14
 -1      3216 2.02910E+01 9.86202E-01-5.78541E-04 6.87103E-01 1.09994E-13-6.31207E-14
 -1      3217 2.02684E+01 1.30567E+00 3.59612E-03 7.68781E-01 1.14726E-13-7.08224E-14
 -1      3218 2.02749E+01 1.12530E+00 1.39319E-03 5.92096E-01 1.11572E-13-1.00068E-13
 -1      3219 2.02314E+01 7.68961E-01-3.77850E-03 4.77883E-01 8.88987E-14-8.59224E-14
 -1      3220 2.00810E+01 3.75634E-02 2.32669E-03-3.43694E-01 1.63441E-14-4.12070E-13
 -1      3221 2.00352E+01 7.63522E-02-7.37268E-04-3.64665E-01 2.32928E-14-2.96077E-13
 -1      3222 2.00129E+01 5.20767E-02-3.03601E-03-4.22823E-01-1.71593E-13-8.76687E-14
 -1      3223 2.01194E+01-4.05610E-02-2.59009E-03-3.53874E-01 3.08813E-14-2.85209E-13
 -1      3224 2.81766E+01 2.02726E+00-1.37749E-01-1.94302E+00 1.62093E-14-8.74856E-14
 -1      3225 2.86373E+01 2.25742E-02-4.01602E-03-1.24406E+00-8.41271E-14 1.08122E-13
 -1      3226 2.00721E+01 1.47326E-01-1.06239E-03-8.36992E-02 5.04867E-14-6.24664E-14
 -1      3227 2.01035E+01 2.10752E-01 3.62039E-03-3.12372E-02 4.99283E-14-8.35212E-14
 -1      3228 2.01422E+01 1.57859E-01-1.34734E-03-8.41600E-02 1.90099E-14-4.54854E-14
 -1      3229 2.02713E+01 7.14623E-01 4.63930E-03-3.45395E-01-8.77429E-14-1.54380E-13
 -1      3230 2.02266E+01 5.52738E-01-3.74336E-03-2.14300E-01-7.48245E-14-1.40679E-13
 -1      3231 2.02726E+01 5.82855E-01-1.21482E-04-1.87125E-01-6.42741E-14-1.36101E-13
 -1      3232 1.54383E+01 2.23201E+00 1.08112E-02 2.19759E+00-1.21399E-13-3.41220E-14
 -1      3233 9.78636E+00 7.19032E-01 9.65887E-02 3.73828E+00 1.11737E-13-4.60965E-13
 -1      3234 9.01562E+00 1.40177E+00 2.14636E-01 2.06211E+00 1.42240E-13-2.01561E-13
 -1      3235 2.71968E+01 5.75881E+00-1.57196E-01-1.37188E+00-2.03906E-13-2.33074E-13
 -1      3236 2.75128E+01 4.22927E+00-8.80273E-02-1.96377E+00-1.08275E-13-1.30840E-13
 -1      3237 2.80420E+01-2.08046E+00-1.66797E-01-1.03575E-02-1.18480E-13 2.43028E-13
 -1      3238 2.74223E+01-3.17863E+00 8.00392E-02 1.35541E+00-1.33778E-13 3.29445E-13
 -1      3239 2.37265E+01-4.22261E+00 1.44141E-01-4.57044E+00-2.95250E-15-1.64724E-13
 -1      3240 2.56526E+01-4.34848E+00-1.48740E-01-3.02488E+00 2.34038E-13-4.62656E-13
 -1      3241 2.55044E+01-4.42438E+00-1.38111E-01 3.29657E+00-1.32810E-13 3.17742E-13
 -1      3242 2.32717E+01-4.23029E+00 1.25071E-01 4.86163E+00-6.65509E-14 9.91290E-14
 -1      3243 1.20175E+01 1.60621E+00 5.97772E-02-2.69644E+00 2.67772E-14-1.38931E-13
 -1      3244 1.71322E+01-2.58396E+00 1.28286E-01-6.37783E+00 7.68691E-14 3.77268E-13
 -1      3245 2.03861E+01-4.01738E+00-8.27552E-02-6.01287E+00 1.16920E-14 2.29580E-13
 -1      3246 2.00255E+01 2.22031E+00-3.54321E-03 6.55106E-02 2.63997E-14-2.18903E-13
 -1      3247 2.00259E+01 2.22328E+00-2.66674E-03-5.73938E-02 2.23423E-14-2.22989E-13
 -1      3248 2.01397E+01 1.92408E+00 4.98931E-03 1.00911E-01 3.32793E-14-2.10046E-13
 -1      3249 2.60017E+01 5.43193E+00-9.93670E-02-8.84471E-01-2.06682E-13-4.83233E-13
 -1      3250 2.02830E+01 9.42271E-01-1.25737E-03-4.22400E-01-7.93219E-14-1.54029E-13
 -1      3251 1.64807E+01-1.88513E+00 8.94173E-02 5.94283E+00-4.81698E-14-3.95080E-13
 -1      3252 9.61891E+00 1.58162E+00 9.66735E-02 7.82687E-01 8.60492E-14-1.79357E-13
 -1      3253 1.25758E+01 2.21256E+00 6.10412E-02-2.34645E-01-2.24289E-13 1.74288E-13
 -1      3254 1.02729E+01 1.70569E+00 9.86272E-02-1.61143E+00-1.87174E-13 2.05475E-13
 -1      3255 1.08481E+01 9.78438E-01 7.73989E-02-3.48527E+00-3.02744E-13 2.10262E-13
 -1      3256 2.00352E+01-4.26613E-02-5.61600E-04-1.83787E-01 8.18297E-14-2.15358E-15
 -1      3257 1.49891E+01-1.69038E+00 2.33409E-02-6.26216E+00-4.78020E-14 4.38032E-13
 -1      3258 1.74667E+01-1.85569E+00 9.86987E-02-5.54088E+00-5.96918E-14 3.49245E-13
 -1      3259 1.14399E+01 2.22308E+00 1.84270E-01-1.19328E+00 1.10398E-14-1.58693E-13
 -1      3260 2.66405E+01-1.49895E+00-2.30719E-02 6.64377E-01 2.51802E-13-5.20133E-13
 -1      3261 2.76246E+01-6.39364E-01-4.83231E-02 1.21877E+00 2.60358E-13-5.93491E-13
 -1      3262 2.66650E+01 4.38567E-01-4.32714E-02 1.76754E+00 1.56278E-13-8.22585E-13
 -1      3263 2.60997E+01-3.39552E+00 1.87056E-02-1.67280E+00 1.87628E-13-4.18429E-13
 -1      3264 1.95426E+01 6.20360E-01-2.77435E-03 9.94437E-02-1.14853E-13-2.86967E-14
 -1      3265 1.95721E+01 6.32847E-01 1.80573E-03 2.05668E-01 2.74883E-14 2.40626E-13
 -1      3266 2.19468E+01-3.65997E+00 4.91990E-02 4.85955E+00-1.30174E-14 2.02859E-14
 -1      3267 1.96890E+01 5.80671E-01-4.55328E-03 3.81312E-01 1.62637E-14-9.57926E-14
 -1      3268 2.70212E+01 3.25734E+00-8.15372E-02 1.99305E+00-4.32848E-14-9.60676E-13
 -1      3269 1.95838E+01 5.46043E-01 1.58918E-03-1.20932E-01-2.41385E-13-1.77036E-13
 -1      3270 1.95521E+01 5.75675E-01-3.98693E-03-2.49280E-02-1.47307E-13-7.81022E-14
 -1      3271 1.94676E+01 6.49428E-01 5.11180E-03 7.96285E-03-2.45088E-13-1.13348E-13
 -1      3272 2.02536E+01 1.37811E+00-6.56268E-05-6.44444E-01-8.77700E-14-2.06291E-13
 -1      3273 2.75633E+01-1.03182E+00-2.75553E-02-8.54451E-01-4.70804E-14 1.75242E-13
 -1      3274 1.96994E+01 4.17346E-01 3.34546E-03-2.84817E-01-9.46328E-14 1.57255E-13
 -1      3275 1.96331E+01 4.63703E-01-4.74893E-03-2.16871E-01-1.19915E-13-2.45337E-13
 -1      3276 1.95388E+01 5.25041E-01 2.33775E-03-2.23430E-01-1.41923E-13-1.65538E-13
 -1      3277 1.96887E+01 3.57026E-01-4.19713E-04-3.76210E-01-1.93045E-13 8.06172E-14
 -1      3278 2.01228E+01 2.87484E-01-1.90945E-03 3.56802E-02 4.26352E-14-1.11642E-13
 -1      3279 2.01670E+01 3.87780E-01 4.22769E-03 1.25708E-01 3.69920E-14-1.12270E-13
 -1      3280 2.01888E+01 3.09345E-01-1.56409E-03 2.79602E-02 3.32281E-14-7.65638E-14
 -1      3281 1.50354E+01 2.38516E+00 4.97521E-02 1.28321E+00-2.16663E-13 1.70063E-13
 -1      3282 2.20695E+01-3.64871E+00 4.79181E-02-4.73573E+00 7.77711E-14-2.08238E-13
 -1      3283 2.01595E+01 1.80207E+00-6.96406E-03 6.85168E-01 9.93755E-14-1.60060E-13
 -1      3284 2.01246E+01 1.93167E+00-2.47807E-03 5.89495E-01 9.12054E-14-1.51117E-13
 -1      3285 2.02516E+01 1.46182E+00 5.80079E-03 5.85040E-01 9.69968E-14-1.47525E-13
 -1      3286 1.32025E+01-6.04785E-02-9.85302E-03 4.81109E+00-3.68872E-14-7.51246E-13
 -1      3287 1.15382E+01 4.41103E-01 1.46721E-01 4.38208E+00 8.63962E-14-7.08350E-13
 -1      3288 1.17862E+01 1.13942E+00 5.53559E-02 3.35185E+00 5.28813E-14-5.75914E-13
 -1      3289 2.00915E+01 2.02584E+00-5.40505E-03 5.04320E-01 8.46366E-14-1.58469E-13
 -1      3290 2.00663E+01 2.10628E+00-3.05729E-03 3.91031E-01 6.14813E-14-1.95762E-13
 -1      3291 2.01620E+01 1.84904E+00 5.26635E-03 2.90785E-01 5.77721E-14-1.95500E-13
 -1      3292 2.02029E+01 1.69704E+00 5.79367E-03 4.59046E-01 7.87642E-14-1.44267E-13
 -1      3293 2.72125E+01 2.83664E+00-9.44530E-02-2.11336E+00-3.98084E-14-1.67654E-13
 -1      3294 2.66971E+01 1.67411E+00-9.05342E-04-1.98834E+00 7.38298E-15-7.29104E-14
 -1      3295 2.58853E+01 3.50201E+00-4.89093E-02-1.97824E+00-5.07649E-14-2.43968E-13
 -1      3296 2.62526E+01 5.58539E+00-9.07676E-02 9.38361E-01-1.39222E-13-6.92125E-13
 -1      3297 2.00855E+01 2.08160E+00-1.01961E-03-6.04322E-01-3.60352E-14-1.47850E-13
 -1      3298 2.01186E+01 1.95626E+00-6.17735E-03-7.02216E-01-6.59893E-14-1.57811E-13
 -1      3299 2.01930E+01 1.73405E+00 4.02009E-03-6.48077E-01-6.18498E-14-1.64868E-13
 -1      3300 2.00256E+01 2.23958E+00-2.78754E-03-3.85283E-01 4.93484E-15-2.05762E-13
 -1      3301 2.00508E+01 2.16630E+00-4.02881E-03-5.01389E-01-1.39368E-14-1.89092E-13
 -1      3302 2.01306E+01 1.95399E+00 4.28655E-03-4.79959E-01-1.88796E-14-1.55503E-13
 -1      3303 2.59978E+01-3.53321E+00 9.14688E-03 1.95929E+00-6.64191E-14 3.85067E-13
 -1      3304 2.01628E+01-6.02042E-02 1.59553E-03-2.21855E-01 2.32039E-14-5.39935E-13
 -1      3305 2.01464E+01-4.12789E-02 7.10768E-05-2.46145E-01 9.83780E-14-4.35237E-13
 -1      3306 2.01721E+01-8.81744E-02-1.75026E-03-2.83642E-01-7.79428E-14-3.22701E-13
 -1      3307 2.01988E+01-1.13519E-01-6.89111E-04-2.26176E-01 1.23827E-13-2.69373E-13
 -1      3308 1.27072E+01-4.60810E-01 9.83257E-02-5.35881E+00-2.85293E-13 2.29039E-13
 -1      3309 2.00123E+01 2.26140E+00-3.66645E-03-1.56800E-01 1.60143E-14-2.23702E-13
 -1      3310 2.00259E+01 2.23024E+00-2.75841E-03-2.78428E-01 1.17011E-14-2.23302E-13
 -1      3311 2.01071E+01 2.02890E+00 4.56037E-03-2.83249E-01 1.48452E-14-2.00759E-13
 -1      3312 2.01228E+01 1.98010E+00 5.05386E-03-8.95663E-02 1.50090E-14-2.23445E-13
 -1      3313 1.35008E+01 6.62830E-01 8.06065E-02-3.80188E+00-1.71316E-13 2.51042E-13
 -1      3314 2.02669E+01 2.41773E-01 2.13511E-03 4.28572E-02-7.86900E-14-1.23337E-13
 -1      3315 2.02423E+01 1.67309E-01-1.26710E-03 8.43897E-02-7.62094E-14-1.50850E-13
 -1      3316 2.02270E+01 1.09494E-01 1.57449E-03 1.11274E-01-4.75965E-14-1.60863E-13
 -1      3317 2.02054E+01 6.20043E-02-6.23872E-04 1.34163E-01-9.02711E-15-1.41916E-13
 -1      3318 2.02831E+01 1.66101E-01-4.19051E-04 8.09152E-02-5.75473E-14-1.19100E-13
 -1      3319 2.01873E+01 2.62385E-02 1.07515E-03 1.47615E-01-6.47532E-15-1.45492E-13
 -1      3320 2.01694E+01-2.03515E-03-1.79355E-04 1.57886E-01 3.85658E-15-1.67716E-13
 -1      3321 2.02443E+01 5.81845E-02-5.66810E-04 1.24279E-01-2.83235E-14-1.28804E-13
 -1      3322 2.01507E+01-2.22045E-02 6.63131E-04 1.62472E-01 5.57841E-15-2.09253E-13
 -1      3323 2.01364E+01-3.69069E-02 1.14458E-04 1.64849E-01-7.47387E-15-1.84594E-13
 -1      3324 2.02044E+01-6.97903E-03-5.96962E-04 1.44977E-01-1.09647E-14-1.83882E-13
 -1      3325 2.01184E+01-4.61594E-02 3.44100E-04 1.64184E-01-1.51816E-14-1.52759E-13
 -1      3326 2.01072E+01-5.14224E-02 3.01150E-04 1.62203E-01-8.93856E-15-1.25557E-13
 -1      3327 2.01663E+01-4.16956E-02-5.62534E-04 1.51137E-01 2.93211E-15-1.96109E-13
 -1      3328 2.00906E+01-5.31778E-02 1.06975E-04 1.59019E-01-3.11228E-15-8.06161E-14
 -1      3329 2.00821E+01-5.20492E-02 4.15974E-04 1.55249E-01 3.94699E-15-6.09241E-14
 -1      3330 2.01315E+01-5.50939E-02-4.97117E-04 1.49114E-01 2.74069E-15-1.45719E-13
 -1      3331 2.00672E+01-4.88508E-02-6.28616E-05 1.51555E-01-4.54292E-14-5.88338E-14
 -1      3332 2.00610E+01-4.36319E-02 4.86308E-04 1.47809E-01-4.25723E-14-7.70411E-14
 -1      3333 2.01005E+01-5.39617E-02-4.22529E-04 1.43688E-01-7.58580E-15-1.02393E-13
 -1      3334 2.00477E+01-3.74463E-02-1.77764E-04 1.45057E-01-6.83285E-14-1.20850E-13
 -1      3335 2.00434E+01-2.99779E-02 5.32368E-04 1.42567E-01-5.76817E-14-1.14523E-13
 -1      3336 2.00733E+01-4.34411E-02-3.54911E-04 1.38377E-01-7.37448E-14-1.68298E-13
 -1      3337 2.00319E+01-2.24654E-02-2.43392E-04 1.41790E-01-2.79978E-14-9.53662E-14
 -1      3338 2.00297E+01-1.43958E-02 5.69043E-04 1.41326E-01-2.97995E-14-1.43489E-13
 -1      3339 2.00498E+01-2.76507E-02-3.11856E-04 1.35742E-01-1.06425E-14-1.19473E-13
 -1      3340 2.00202E+01-7.15613E-03-2.56898E-04 1.43232E-01-2.48009E-14-1.10461E-13
 -1      3341 2.00202E+01-1.82185E-04 6.07872E-04 1.45157E-01 1.98016E-14-2.99603E-14
 -1      3342 2.00302E+01-1.02520E-02-3.10490E-04 1.37627E-01-2.06981E-14-1.39798E-13
 -1      3343 2.00135E+01 5.01939E-03-2.05450E-04 1.50168E-01-2.79494E-14-2.65373E-14
 -1      3344 2.00165E+01 8.91301E-03 6.55418E-04 1.54447E-01-1.13687E-13 4.32483E-14
 -1      3345 2.00152E+01 5.01206E-03-3.74178E-04 1.45298E-01 3.41623E-14-5.43209E-14
 -1      3346 2.00139E+01 9.91750E-03-6.34989E-05 1.62685E-01-1.37216E-13 8.01243E-14
 -1      3347 2.00212E+01 8.23106E-03 7.09848E-04 1.68802E-01-1.02827E-13 8.74477E-14
 -1      3348 2.00067E+01 1.37924E-02-5.35690E-04 1.59505E-01-1.05663E-13 9.01576E-15
 -1      3349 2.00249E+01 2.30063E-03 2.08143E-04 1.79968E-01-4.17628E-14 7.34162E-14
 -1      3350 2.00386E+01-8.13767E-03 7.57469E-04 1.86773E-01 4.50772E-14 8.30738E-14
 -1      3351 2.00079E+01 1.06297E-02-8.36137E-04 1.80369E-01-5.42732E-14 1.18643E-13
 -1      3352 2.00524E+01-2.43943E-02 6.62876E-04 1.99905E-01-3.80056E-14 9.90280E-14
 -1      3353 2.00755E+01-4.74322E-02 7.64876E-04 2.05352E-01-4.41984E-14 7.70737E-14
 -1      3354 2.00242E+01-1.14195E-02-1.32453E-03 2.07048E-01-1.49877E-14 1.22434E-13
 -1      3355 2.01046E+01-7.79169E-02 1.36514E-03 2.18418E-01-2.58392E-14 1.75848E-14
 -1      3356 2.01409E+01-1.17781E-01 6.67637E-04 2.19214E-01-5.94372E-14 3.16011E-14
 -1      3357 2.00641E+01-6.08379E-02-2.04907E-03 2.37113E-01-6.18594E-14-5.80495E-14
 -1      3358 2.01925E+01-1.66356E-01 2.37841E-03 2.28493E-01-2.70344E-14 3.97631E-14
 -1      3359 2.02463E+01-2.26815E-01 3.59332E-04 2.19679E-01 5.98201E-14-5.11484E-14
 -1      3360 2.01391E+01-1.47075E-01-3.03677E-03 2.65513E-01-3.45506E-14-3.57865E-14
 -1      3361 2.03289E+01-2.96068E-01 3.73489E-03 2.18925E-01 6.91709E-14-7.92160E-14
 -1      3362 2.04042E+01-3.78693E-01-3.17047E-04 1.93517E-01 3.12437E-14-4.05627E-14
 -1      3363 2.02643E+01-2.78818E-01-4.25390E-03 2.83043E-01 1.98206E-14 1.09095E-14
 -1      3364 2.05268E+01-4.67659E-01 5.33776E-03 1.73085E-01 4.36284E-14-3.38703E-14
 -1      3365 2.06252E+01-5.68748E-01-1.52711E-03 1.22129E-01 1.57424E-14-7.13158E-15
 -1      3366 2.04566E+01-4.60213E-01-5.54694E-03 2.74397E-01 5.75250E-14-5.78098E-14
 -1      3367 2.07940E+01-6.69254E-01 6.90745E-03 6.87268E-02-1.05508E-13 3.27510E-14
 -1      3368 2.09124E+01-7.75440E-01-3.31364E-03-1.74494E-02-6.84364E-14-4.48486E-14
 -1      3369 2.07314E+01-6.84101E-01-6.56154E-03 2.16495E-01 3.34550E-15-7.31052E-14
 -1      3370 2.11255E+01-8.67656E-01 7.84144E-03-1.19300E-01-6.15100E-15-1.05079E-13
 -1      3371 2.12528E+01-9.50648E-01-5.33958E-03-2.47742E-01 8.32031E-14-9.69416E-14
 -1      3372 2.10949E+01-9.22025E-01-6.59006E-03 7.90244E-02-5.23364E-14-5.24197E-14
 -1      3373 2.14924E+01-9.98653E-01 6.94977E-03-4.09893E-01 2.19839E-13-1.39685E-13
 -1      3374 2.16077E+01-1.01234E+00-6.75684E-03-5.77714E-01 2.43600E-13-1.27848E-13
 -1      3375 2.15326E+01-1.11102E+00-4.54137E-03-1.69811E-01 1.38744E-13-1.39218E-13
 -1      3376 2.18331E+01-9.65141E-01 2.75111E-03-7.96668E-01 2.33760E-13-1.48098E-14
 -1      3377 2.19095E+01-8.49692E-01-5.39024E-03-9.80884E-01 2.69622E-13 1.05906E-13
 -1      3378 2.19945E+01-1.14737E+00 2.11293E-04-5.45611E-01 3.04110E-13-7.74842E-14
 -1      3379 2.20535E+01-6.52171E-01-5.71467E-03-1.21468E+00 2.23278E-13 6.21459E-14
 -1      3380 2.20672E+01-3.64555E-01-1.07730E-03-1.35980E+00 2.31682E-13 2.00868E-13
 -1      3381 2.23827E+01-8.90498E-01 7.57977E-03-1.01596E+00 2.66844E-13-2.23629E-14
 -1      3382 2.20828E+01-2.29163E-03-1.48365E-02-1.52482E+00 1.62534E-13 1.19522E-13
 -1      3383 2.20319E+01 4.51836E-01 9.10281E-03-1.55917E+00 1.67395E-13 1.70600E-13
 -1      3384 2.25786E+01-2.62155E-01 7.81382E-03-1.44718E+00 2.25329E-13-6.71535E-14
 -1      3385 2.18903E+01 9.36742E-01-2.12347E-02-1.52738E+00 1.70307E-13 1.98685E-13
 -1      3386 2.18085E+01 1.43009E+00 1.42368E-02-1.36734E+00 1.22370E-13 2.27833E-13
 -1      3387 2.25101E+01 7.65644E-01 1.15148E-02-1.64200E+00 1.50072E-13-8.88872E-15
 -1      3388 2.16315E+01 1.85181E+00-1.69134E-02-1.09360E+00-1.33449E-13 1.56216E-13
 -1      3389 2.15646E+01 2.21168E+00 1.56089E-02-7.59976E-01-1.58488E-13-3.23673E-14
 -1      3390 2.22517E+01 1.80718E+00-3.78457E-03-1.33652E+00-6.35230E-14-1.33772E-13
 -1      3391 2.14423E+01 2.37686E+00-1.38200E-02-2.32794E-01-1.46844E-15-9.18063E-14
 -1      3392 2.14628E+01 2.38615E+00-5.02437E-03 1.76523E-01-2.62488E-14-6.47720E-14
 -1      3393 2.20032E+01 2.71325E+00 1.09251E-02-5.65243E-01-9.50975E-14-7.40970E-14
 -1      3394 2.15490E+01 2.22824E+00 1.02215E-02 6.70747E-01-2.02143E-13-4.03388E-15
 -1      3395 2.15853E+01 1.89707E+00-2.82107E-02 1.01089E+00-3.10009E-13-3.84061E-14
 -1      3396 2.20364E+01 2.66167E+00 6.55383E-03 4.82119E-01-6.87493E-14-1.08322E-13
 -1      3397 2.17999E+01 1.50060E+00 1.79806E-02 1.33714E+00-2.72298E-13 7.74771E-14
 -1      3398 2.18769E+01 9.92193E-01-2.36722E-02 1.50557E+00-2.83277E-13 1.54555E-13
 -1      3399 2.22207E+01 1.96844E+00 1.51138E-02 1.32078E+00-2.06959E-13-7.87157E-14
 -1      3400 2.20272E+01 5.09634E-01 1.00395E-02 1.54223E+00-3.42724E-13 1.38164E-13
 -1      3401 2.20816E+01 4.89340E-02-1.50915E-02 1.52229E+00-3.04859E-13 1.16910E-13
 -1      3402 2.25128E+01 8.27510E-01 1.60558E-02 1.63311E+00-3.17840E-13 1.25192E-13
 -1      3403 2.20834E+01-3.31529E-01 1.56485E-04 1.36507E+00-2.14248E-13 2.55784E-13
 -1      3404 2.20753E+01-6.34927E-01-5.88942E-03 1.22137E+00-9.47895E-14 2.47212E-13
 -1      3405 2.26004E+01-2.05950E-01 1.27742E-02 1.45965E+00-2.17928E-13 4.35910E-13
 -1      3406 2.19368E+01-8.43044E-01-5.31919E-03 9.85683E-01-1.60868E-14 2.09556E-13
 -1      3407 2.18647E+01-9.68849E-01 2.34246E-03 8.00259E-01 9.01939E-14 2.03901E-13
 -1      3408 2.24187E+01-8.80558E-01 7.36144E-03 1.02562E+00-2.26299E-14 3.43834E-13
 -1      3409 2.16450E+01-1.02500E+00-6.74676E-03 5.76820E-01 2.09849E-14 1.57290E-13
 -1      3410 2.15319E+01-1.01763E+00 6.65806E-03 4.04700E-01-2.53270E-14 2.25689E-13
 -1      3411 2.20419E+01-1.15703E+00 5.89248E-04 5.50743E-01-1.95498E-14 8.12838E-14
 -1      3412 2.12933E+01-9.72930E-01-5.59141E-03 2.36276E-01-9.91355E-14 1.58285E-13
 -1      3413 2.11668E+01-8.91075E-01 7.76119E-03 1.03368E-01-1.38977E-13 1.55597E-13
 -1      3414 2.15856E+01-1.13563E+00-4.66545E-03 1.62537E-01-1.35513E-13-6.58284E-15
 -1      3415 2.09529E+01-7.98023E-01-3.49986E-03-3.82553E-03-4.87723E-14 8.48002E-14
 -1      3416 2.08342E+01-6.88848E-01 7.03729E-03-9.36443E-02-9.16964E-15 4.69324E-16
 -1      3417 2.11480E+01-9.48603E-01-6.67813E-03-9.79340E-02-6.67405E-14-1.04541E-13
 -1      3418 2.06637E+01-5.83765E-01-1.69704E-03-1.50630E-01 2.58832E-14 4.44230E-14
 -1      3419 2.05640E+01-4.76418E-01 5.34129E-03-2.03422E-01 2.98615E-14 5.35187E-15
 -1      3420 2.07822E+01-7.03945E-01-6.68104E-03-2.44250E-01 6.22841E-14 1.50261E-13
 -1      3421 2.04397E+01-3.78799E-01-4.68826E-04-2.26476E-01 1.51781E-13 2.99873E-14
 -1      3422 2.03602E+01-2.86445E-01 2.97689E-03-2.50306E-01 2.82070E-13-6.62279E-15
 -1      3423 2.05055E+01-4.66003E-01-5.58111E-03-3.07082E-01 1.76353E-13 2.72991E-13
 -1      3424 1.42776E+01 2.30838E+00-9.06184E-03 3.04300E-01-2.24210E-13 1.32481E-13
 -1      3425 1.41440E+01 2.09791E+00 7.65549E-02-1.12816E+00-2.84445E-13 2.25155E-13
 -1      3426 1.60291E+01 2.14228E+00-9.94596E-03 4.53158E-01-2.67784E-13 2.09490E-13
 -1      3427 2.03194E+01 7.41120E-01 5.26509E-03-2.39771E-01-6.95386E-14-1.42559E-13
 -1      3428 2.02967E+01 5.74199E-01-3.12748E-03-1.39848E-01-5.94056E-14-1.47550E-13
 -1      3429 2.00301E+01-9.94068E-03 5.41648E-04-1.54239E-01 6.70324E-14-1.01186E-14
 -1      3430 2.00316E+01-2.21505E-02-3.69917E-04-1.55300E-01 5.78041E-14 1.82590E-14
 -1      3431 2.00440E+01-3.22019E-02 4.96545E-04-1.58248E-01 4.28921E-14 1.71401E-14
 -1      3432 2.00469E+01-4.01291E-02-1.80090E-04-1.61747E-01 8.27497E-14-4.33165E-15
 -1      3433 2.00587E+01-2.94398E-02-1.98381E-04-1.50823E-01 4.81249E-14-8.19811E-15
 -1      3434 1.99991E+01 6.05128E-02 5.08335E-04-1.66078E-01-5.30939E-14-9.13286E-15
 -1      3435 2.00020E+01 3.87105E-02-7.65712E-04-1.59047E-01 2.19370E-14 5.05424E-14
 -1      3436 1.99747E+01 1.12968E-01 4.41491E-04-1.85460E-01-1.17473E-13-3.50563E-14
 -1      3437 1.99809E+01 8.44325E-02-1.05679E-03-1.72760E-01-1.05436E-13 3.20992E-16
 -1      3438 1.99834E+01 8.12194E-02 5.31403E-04-1.59710E-01-6.10856E-14 3.27505E-14
 -1      3439 1.99339E+01 1.85988E-01 2.10721E-04-2.17494E-01-2.08622E-15-1.14355E-13
 -1      3440 1.99479E+01 1.46267E-01-1.43906E-03-1.96962E-01-8.78254E-14-5.64920E-14
 -1      3441 1.99428E+01 1.44726E-01 1.00736E-03-1.76514E-01-7.80024E-14-3.61866E-14
 -1      3442 1.98699E+01 2.79391E-01-2.90747E-04-2.59836E-01 1.14541E-13-1.26010E-13
 -1      3443 1.98953E+01 2.28664E-01-1.97506E-03-2.32669E-01 5.27420E-14-9.99511E-14
 -1      3444 1.98830E+01 2.28461E-01 1.86455E-03-2.00399E-01 7.74499E-15-5.81150E-14
 -1      3445 1.97655E+01 4.04685E-01-1.11420E-03-3.13081E-01 1.46178E-14-1.07130E-13
 -1      3446 1.98115E+01 3.36846E-01-2.67987E-03-2.78123E-01 1.09000E-13-1.03841E-13
 -1      3447 1.97936E+01 3.36163E-01 3.00031E-03-2.28777E-01 8.98771E-14-7.24252E-14
 -1      3448 1.95963E+01 5.72440E-01-2.55383E-03-3.74090E-01-1.59255E-14-1.49684E-13
 -1      3449 1.96763E+01 4.82066E-01-3.65232E-03-3.32166E-01-5.14845E-14-1.25344E-13
 -1      3450 1.96559E+01 4.78341E-01 4.74190E-03-2.57469E-01 2.19627E-15-5.26342E-14
 -1      3451 1.93254E+01 7.93949E-01-4.96450E-03-4.35176E-01-9.26803E-15-9.32389E-14
 -1      3452 1.94604E+01 6.75591E-01-4.95656E-03-3.89277E-01 1.33023E-14-1.49589E-13
 -1      3453 1.94435E+01 6.64414E-01 7.33234E-03-2.77323E-01-5.57508E-15-1.01734E-13
 -1      3454 1.88991E+01 1.07727E+00-9.10031E-03-4.81536E-01 9.40827E-15-7.11710E-14
 -1      3455 1.91198E+01 9.27627E-01-6.86422E-03-4.38027E-01-1.25455E-14-6.61042E-14
 -1      3456 1.91187E+01 9.02975E-01 1.11880E-02-2.71974E-01-2.16585E-14-1.07256E-13
 -1      3457 1.81976E+01 1.43970E+00-1.50532E-02-4.86024E-01-4.95420E-14-7.80382E-15
 -1      3458 1.85744E+01 1.25335E+00-8.97492E-03-4.56643E-01-2.14791E-15-8.97795E-14
 -1      3459 1.86113E+01 1.20435E+00 1.66624E-02-2.11858E-01-2.10811E-14-1.50102E-13
 -1      3460 1.71672E+01 1.81756E+00-2.31529E-02-4.09086E-01 1.49091E-14 3.81886E-14
 -1      3461 1.77318E+01 1.63034E+00-1.27075E-02-4.13056E-01-4.02378E-14-3.27291E-14
 -1      3462 1.78492E+01 1.55017E+00 2.52965E-02-4.98136E-02-3.87660E-14-1.17725E-13
 -1      3463 1.56223E+01 2.14642E+00-2.83582E-02-2.09624E-01-4.84855E-15 5.32387E-15
 -1      3464 1.64833E+01 2.00042E+00-1.58634E-02-2.61008E-01 6.49897E-14 1.02952E-14
 -1      3465 1.67475E+01 1.88544E+00 3.91592E-02 2.68424E-01 2.14895E-14-1.45559E-13
 -1      3466 1.33252E+01 2.26642E+00-1.04337E-02 1.41070E-01 2.70600E-14-1.57593E-13
 -1      3467 1.46039E+01 2.23935E+00-1.72548E-02 3.85621E-02 5.39534E-14-3.79488E-14
 -1      3468 1.51218E+01 2.11822E+00 6.33235E-02 8.31066E-01 3.24367E-14-1.44155E-13
 -1      3469 1.14687E+01 2.05380E+00 4.22093E-02 6.43337E-01 3.04236E-14-1.43413E-13
 -1      3470 2.00595E+01-4.49199E-02 4.51888E-04-1.65780E-01 1.18457E-13 4.11905E-16
 -1      3471 2.00640E+01-4.73218E-02 5.41267E-05-1.69649E-01 1.23497E-13-8.66311E-16
 -1      3472 2.00823E+01-4.59007E-02-3.64049E-04-1.56778E-01 1.09445E-13-9.69046E-15
 -1      3473 1.33832E+01 1.42187E+00 1.44410E-02-2.66407E+00-1.62450E-13 1.50414E-13
 -1      3474 1.50146E+01 3.72265E-02 2.62004E-02-4.39031E+00-1.06573E-13 2.60431E-13
 -1      3475 1.93925E+01 8.30794E-01 3.27014E-03 5.14349E-01 1.39400E-13-3.73109E-13
 -1      3476 1.91982E+01 9.42984E-01-7.26034E-03 5.70509E-01 1.80947E-13-3.27257E-13
 -1      3477 2.02458E+01 1.40198E+00-2.85179E-03-5.88071E-01-6.92080E-14-1.84600E-13
 -1      3478 2.02876E+01 1.21402E+00 6.69960E-03-5.16081E-01-8.31449E-14-1.60370E-13
 -1      3479 2.02811E+01 9.63775E-01-5.01031E-03-3.76089E-01-6.91317E-14-1.51054E-13
 -1      3480 2.02185E+01 1.53163E+00-2.64852E-03-5.24280E-01-5.29833E-14-1.43750E-13
 -1      3481 2.29061E+01-3.79347E+00-9.40637E-02 3.87587E+00 4.75522E-14 2.21509E-13
 -1      3482 2.07273E+01-2.94491E+00 6.24167E-02 4.81426E+00 9.79720E-14 3.37716E-14
 -1      3483 1.70612E+01-1.17156E+00 4.55132E-02-4.95319E+00-1.12561E-13 1.83133E-13
 -1      3484 1.87361E+01-2.29268E+00-4.09987E-02-5.19584E+00 9.51843E-15 1.63224E-13
 -1      3485 1.74136E+01 1.78162E+00-1.16253E-02 5.67958E-01-6.67107E-14-6.48710E-14
 -1      3486 1.67196E+01 1.94627E+00-3.02272E-02 5.82982E-01-1.20163E-13 1.31233E-13
 -1      3487 1.65070E+01 1.96967E+00 5.05618E-02-2.45457E-01-1.35621E-13 2.04827E-13
 -1      3488 2.01749E+01 4.79457E-01-2.59897E-03 2.12910E-01 5.62736E-14-1.10785E-13
 -1      3489 2.02295E+01 6.27810E-01 3.75527E-03 3.52500E-01 6.69945E-14-9.57766E-14
 -1      3490 2.02605E+01 7.88611E-01 1.63166E-03 4.15266E-01 8.19123E-14-9.19278E-14
 -1      3491 2.02290E+01 5.17455E-01-7.94693E-04 1.92315E-01 5.15567E-14-1.32932E-13
 -1      3492 2.51067E+01-3.43574E+00 9.78434E-02-2.12499E+00 1.61161E-13-4.00844E-13
 -1      3493 2.59190E+01-2.88707E+00-7.85253E-02-6.32687E-01 2.62994E-13-3.08215E-13
 -1      3494 2.50203E+01 5.40389E+00-7.61783E-02-3.84613E-01-2.00708E-13-6.14980E-13
 -1      3495 2.52273E+01 4.73131E+00-5.23597E-02-1.30975E+00-9.26759E-14-5.40625E-13
 -1      3496 2.62166E+01 2.27982E+00-3.80374E-02 2.04411E+00-6.16035E-14-7.36675E-13
 -1      3497 2.57950E+01 3.79728E+00-1.06309E-01 1.85557E+00-9.15309E-14-7.22901E-13
 -1      3498 1.99194E+01 1.12271E-01 5.26426E-03-5.20126E-01-2.81052E-13 3.22751E-15
 -1      3499 1.98117E+01 1.79866E-01-3.35643E-03-5.14259E-01-2.89896E-13-9.95896E-14
 -1      3500 2.01277E+01-1.75876E-03-1.59974E-04-1.68974E-01-6.94907E-15-4.50739E-14
 -1      3501 2.01434E+01 2.53863E-02 1.19745E-03-1.58164E-01-1.27677E-14-4.95966E-14
 -1      3502 2.01604E+01 5.88244E-02-5.85676E-04-1.43296E-01-2.72978E-14-6.63665E-14
 -1      3503 2.01810E+01 1.03580E-01 1.76809E-03-1.19070E-01 1.23595E-15-4.11815E-14
 -1      3504 2.02072E+01 5.63914E-02-7.20053E-04-1.35577E-01-2.05830E-14-7.99341E-14
 -1      3505 2.00778E+01-4.65514E-02 3.38569E-04-1.73144E-01 7.87050E-14-1.85187E-14
 -1      3506 2.00850E+01-4.22494E-02 3.35608E-04-1.75426E-01 5.17659E-14-2.91739E-14
 -1      3507 2.01079E+01-4.99106E-02-4.89551E-04-1.62873E-01 7.05055E-14-6.09920E-14
 -1      3508 2.00162E+01 2.04113E-02 5.41914E-04-1.56225E-01 4.40599E-14 2.46905E-14
 -1      3509 2.00178E+01 3.78402E-03-5.50380E-04-1.53822E-01 5.97161E-14 1.40517E-14
 -1      3510 2.00360E+01-2.57139E-03-2.86342E-05-1.48067E-01 4.86796E-14 1.64096E-15
 -1      3511 2.00123E+01 3.36881E-02 1.98810E-04-1.50621E-01 2.39569E-15 1.39716E-14
 -1      3512 1.84113E+01 1.37284E+00-9.50204E-03 5.95563E-01-1.72743E-13-2.87575E-13
 -1      3513 1.79489E+01 1.56640E+00-1.98575E-02 6.35373E-01-2.12584E-13-2.66534E-13
 -1      3514 1.77412E+01 1.62078E+00 3.38724E-02 9.71501E-02-6.52811E-14-1.12725E-13
 -1      3515 1.89838E+01 1.06948E+00-6.44846E-03 5.66530E-01 9.63845E-14-3.86405E-13
 -1      3516 1.87016E+01 1.22771E+00-1.23240E-02 6.23392E-01-6.65716E-14-3.91969E-13
 -1      3517 1.85060E+01 1.30712E+00 2.31388E-02 2.73481E-01 6.32439E-14-6.22194E-13
 -1      3518 1.89809E+01 1.04208E+00 1.01875E-02 3.49773E-01 1.17886E-13-3.11702E-13
 -1      3519 2.01968E+01 1.57900E-01-1.23603E-03-8.93276E-02 1.04508E-14-5.84676E-14
 -1      3520 2.02232E+01 2.28618E-01 2.59348E-03-4.48320E-02 1.66132E-15-7.70932E-14
 -1      3521 2.02454E+01 1.59404E-01-6.60261E-04-8.73199E-02 7.66490E-16-9.02901E-14
 -1      3522 2.66769E+01-3.51019E-01-1.34270E-01-1.47157E+00-3.42643E-14 2.03518E-14
 -1      3523 2.67863E+01-1.57037E+00 7.40293E-02-6.02707E-01-6.25611E-14 9.14997E-14
 -1      3524 2.59423E+01-3.16213E+00-1.35957E-01 8.66969E-01-9.27244E-14 3.86971E-13
 -1      3525 2.50089E+01-3.48447E+00 1.04822E-01 2.35374E+00-2.44436E-14 3.17560E-13
 -1      3526 1.78319E+01-1.95869E+00-5.11519E-03 5.38395E+00 2.44995E-14-1.52604E-13
 -1      3527 1.54401E+01-7.67526E-01 1.32618E-01 5.34189E+00-1.21431E-15-4.83207E-13
 -1      3528 2.55359E+01 4.79295E+00-3.70368E-02 1.45685E+00-4.53873E-14-7.19712E-13
 -1      3529 2.50880E+01 5.31191E+00-6.32204E-02 5.86178E-01-1.39305E-13-5.58640E-13
 -1      3530 2.48170E+01 3.69239E+00-2.64594E-02 1.60050E+00-1.12160E-13-5.86333E-13
 -1      3531 2.01003E+01-3.40314E-02 1.54540E-04-1.76189E-01 2.24664E-14-7.17179E-14
 -1      3532 2.01110E+01-2.05315E-02 7.20975E-04-1.74053E-01-1.04395E-14-5.08588E-14
 -1      3533 2.01371E+01-3.85457E-02-5.99592E-04-1.65272E-01 1.09815E-15-7.19264E-14
 -1      3534 2.03006E+01 4.42247E-01 2.57601E-03-7.03467E-02-6.70999E-14-1.29452E-13
 -1      3535 2.02753E+01 3.30609E-01-2.12134E-03-2.99075E-03-6.61043E-14-1.26802E-13
 -1      3536 2.03151E+01 3.33420E-01-5.80699E-05 5.06967E-03-6.77967E-14-1.20388E-13
 -1      3537 1.95765E+01 6.64376E-01 3.64452E-03 3.41630E-01 4.20619E-14-1.21743E-13
 -1      3538 2.08352E+01-2.92216E+00 8.69034E-02-4.76080E+00 3.84519E-14-8.30586E-14
 -1      3539 2.30361E+01-3.81939E+00-1.12556E-01-3.71602E+00 4.96964E-14-6.22937E-13
 -1      3540 1.24656E+01 1.94569E+00 1.31718E-01 1.82877E+00 4.70101E-14-3.03445E-13
 -1      3541 1.92955E+01 7.89128E-01-5.93751E-03 2.53870E-01 7.79664E-14-3.23008E-14
 -1      3542 1.94679E+01 7.57808E-01 9.90533E-04 4.62374E-01 7.20904E-14-3.06077E-13
 -1      3543 1.51408E+01 1.59451E+00 1.08827E-02-1.75126E+00-2.18412E-13 5.95253E-14
 -1      3544 2.02977E+01-2.26462E-01 2.65863E-04-2.36436E-01 1.99362E-13-1.12310E-13
 -1      3545 2.02446E+01-1.61572E-01 1.54234E-03-2.40736E-01 1.70940E-13-1.40517E-13
 -1      3546 2.02330E+01-1.53581E-01 4.16038E-04-2.72321E-01-3.87376E-15-2.13372E-13
 -1      3547 2.03339E+01-2.78165E-01-1.41761E-03-3.03337E-01 1.00897E-13 9.69963E-14
 -1      3548 2.03038E+01 9.64989E-01-2.54692E-03-3.17887E-01-6.59003E-14-1.43155E-13
 -1      3549 1.67179E+01-2.89856E-01 5.48695E-02-4.06699E+00-6.34996E-14 1.70596E-13
 -1      3550 1.92803E+01 7.43415E-01-1.62953E-03 3.45249E-02-1.28592E-13-2.52559E-13
 -1      3551 1.91241E+01 8.78252E-01 3.41795E-03 1.49399E-01 1.74413E-14-3.15525E-13
 -1      3552 2.60408E+01-2.17520E+00 3.80357E-03 2.16421E-01 1.51086E-13-3.88854E-13
 -1      3553 2.55584E+01-1.33711E+00-2.09434E-02 9.37489E-01 1.09390E-13-4.00274E-13
 -1      3554 2.50047E+01-2.48559E+00-1.28024E-02-3.55436E-01 8.29996E-14-1.96423E-13
 -1      3555 2.02803E+01 3.21572E-01-5.21793E-04-1.91006E-03-7.37317E-15-1.03982E-13
 -1      3556 2.02340E+01 3.14471E-01-1.90445E-03 7.60253E-03-6.31483E-15-6.48610E-14
 -1      3557 2.02634E+01 4.21983E-01 2.55703E-03 8.18962E-02 2.05102E-14-7.73766E-14
 -1      3558 2.04051E+01-2.26125E+00 6.92535E-02-4.24374E+00 1.43941E-13-2.25134E-13
 -1      3559 2.43827E+01 4.68405E+00-4.84077E-02 9.78861E-02-1.21347E-13-7.09318E-13
 -1      3560 2.41583E+01 4.04495E+00-1.02989E-02-1.24599E+00-6.62283E-14-5.35806E-13
 -1      3561 2.50457E+01 3.77365E+00-8.57182E-02-1.65612E+00-5.79606E-14-4.40354E-13
 -1      3562 2.48479E+01 2.89223E+00-6.65264E-03-1.84788E+00 1.04326E-14-4.83374E-13
 -1      3563 2.01704E+01-5.88451E-03-6.81823E-04-1.58589E-01 4.85495E-15-8.98914E-14
 -1      3564 1.97269E+01 1.97972E-01-2.89108E-03-5.89684E-01-3.07908E-13-5.50192E-14
 -1      3565 1.97007E+01 3.02596E-01 5.92050E-03-4.92515E-01-2.84365E-13-1.19785E-14
 -1      3566 1.95830E+01 3.76832E-01-5.49036E-03-4.41970E-01-2.01289E-13-1.00454E-13
 -1      3567 1.92942E+01 7.06525E-01 1.75334E-03-9.30593E-02-1.88945E-13-2.73230E-13
 -1      3568 2.57550E+01-2.17776E+00-6.03415E-03-1.90128E-02-1.54763E-14 1.14624E-13
 -1      3569 2.00139E+01 1.86241E-02-1.18839E-03-4.92653E-01-3.15765E-13 3.27726E-14
 -1      3570 1.99729E+01-5.64683E-03-4.85255E-03-5.76333E-01-3.28699E-13-1.24674E-14
 -1      3571 2.00950E+01-3.50787E-02 3.69005E-03-4.63383E-01-2.47811E-13-2.16796E-13
 -1      3572 2.02037E+01 1.64140E+00-3.40750E-03 1.30266E-01 3.32128E-14-2.01188E-13
 -1      3573 2.02003E+01 1.66122E+00-2.54833E-03 3.97573E-02 2.16528E-14-2.08867E-13
 -1      3574 2.37577E+01-3.17279E+00 3.12525E-02-2.50325E+00 1.24544E-13-4.73153E-13
 -1      3575 2.02775E+01 1.14560E+00-4.15373E-03 4.90749E-01 9.39075E-14-1.43065E-13
 -1      3576 2.02670E+01 1.28895E+00 2.81086E-04 4.53652E-01 8.27554E-14-1.39617E-13
 -1      3577 1.50518E+01-1.17169E-01 5.93475E-02 4.52634E+00 8.22259E-15-5.41144E-13
 -1      3578 2.59534E+01 6.60470E-01-2.70422E-02-1.80944E+00 1.18863E-14-2.50674E-13
 -1      3579 1.95439E+01-2.29308E+00 3.96343E-02 4.86730E+00 7.20275E-14 9.93962E-14
 -1      3580 1.82543E+01-1.36223E+00-4.59858E-03 4.46793E+00 1.28975E-13 6.67869E-14
 -1      3581 2.07714E+01-2.32138E+00 2.55779E-02 3.90440E+00 1.96102E-13 2.76096E-13
 -1      3582 2.03306E+01 5.80357E-01 1.07126E-04-1.13532E-01-6.11682E-14-9.96740E-14
 -1      3583 2.59654E+01 1.09680E+00-5.42542E-02 1.97346E+00 6.11317E-15-6.61991E-13
 -1      3584 2.49806E+01 1.84214E+00-4.31980E-03 2.01975E+00-5.35683E-15-6.33842E-13
 -1      3585 2.54959E+01 1.11021E-01-1.48954E-02 1.64097E+00 1.31135E-13-5.68232E-13
 -1      3586 2.36717E+01-3.24712E+00 1.36219E-02 2.69827E+00 2.49627E-14 3.45802E-13
 -1      3587 2.02804E+01 8.75687E-01-1.27299E-03 4.40736E-01 1.01834E-13-8.60533E-14
 -1      3588 2.02819E+01 1.05901E+00 2.34138E-03 4.80721E-01 9.86497E-14-1.15808E-13
 -1      3589 2.03000E+01 9.14483E-01 2.69183E-03 3.52077E-01 7.98109E-14-1.08551E-13
 -1      3590 2.02651E+01 7.21949E-01-1.66214E-03 3.10677E-01 7.18478E-14-9.15097E-14
 -1      3591 2.02229E+01 1.54927E+00-4.21598E-03 2.84557E-01 5.11780E-14-1.70808E-13
 -1      3592 2.02125E+01 1.60848E+00-2.01354E-03 2.00997E-01 3.63927E-14-2.08967E-13
 -1      3593 2.02867E+01 1.38848E+00 5.03647E-03 1.33551E-01 2.25176E-14-1.92301E-13
 -1      3594 2.02076E+01 1.59071E+00-4.14578E-03-4.49917E-01-3.45074E-14-1.15080E-13
 -1      3595 2.02874E+01 1.30532E+00 6.88349E-03-4.03948E-01-4.23432E-14-1.29022E-13
 -1      3596 1.34054E+01 1.51941E+00 9.03901E-03 2.46648E+00 4.03128E-14-5.13908E-13
 -1      3597 2.02187E+01-1.36498E-01 1.10025E-03-3.01104E-01-7.15192E-14-2.79448E-13
 -1      3598 2.02529E+01-1.99444E-01-2.07828E-03-3.43639E-01-1.21317E-13-2.48217E-13
 -1      3599 2.01952E+01-1.18861E-01 1.23272E-03-3.53726E-01-9.29766E-14-1.84500E-13
 -1      3600 2.01547E+01-8.45786E-02 1.00715E-03-3.99397E-01-9.10917E-14-3.16803E-13
 -1      3601 2.03190E+01-2.56799E-01 3.10697E-03-3.60686E-01-1.17316E-13-9.93773E-14
 -1      3602 2.01844E+01 1.67791E+00-3.57341E-03-3.64743E-01-6.02963E-15-1.33379E-13
 -1      3603 2.02817E+01 1.48397E-01-1.08495E-03-8.88124E-02-3.00748E-15-1.24114E-13
 -1      3604 2.03040E+01 2.20010E-01 1.64531E-03-5.51405E-02 5.39721E-15-1.43000E-13
 -1      3605 1.59460E+01 1.59399E+00-2.05824E-02-1.28424E+00-1.68912E-13-2.85672E-14
 -1      3606 1.57966E+01 1.05552E+00 3.00970E-02-2.64799E+00-1.28308E-13-8.83026E-14
 -1      3607 2.01860E+01 1.69528E+00-2.61840E-03-2.92706E-01-2.44885E-15-1.71114E-13
 -1      3608 2.02808E+01 1.38564E+00 6.32754E-03-2.73560E-01-2.01360E-14-1.33208E-13
 -1      3609 2.01865E+01 1.68539E+00-3.90944E-03-1.99904E-01 1.92913E-15-2.02848E-13
 -1      3610 2.02962E+01 9.27491E-02 1.02139E-03 9.81845E-02-3.13307E-14-1.15776E-13
 -1      3611 2.02741E+01 4.62624E-02-4.94691E-04 1.14691E-01-2.78838E-14-1.39996E-13
 -1      3612 2.02537E+01 1.12721E-02 7.27983E-04 1.22702E-01-1.89667E-14-1.43921E-13
 -1      3613 2.02326E+01-1.56261E-02-1.14272E-04 1.30021E-01-4.04254E-15-1.37282E-13
 -1      3614 2.02971E+01 3.88587E-02-3.30999E-04 1.00274E-01-2.00658E-14-1.38407E-13
 -1      3615 2.02105E+01-3.44410E-02 4.67554E-04 1.32246E-01 5.85265E-15-1.50425E-13
 -1      3616 2.01914E+01-4.73415E-02 1.41611E-04 1.33909E-01-2.77804E-15-1.51810E-13
 -1      3617 2.02522E+01-2.14278E-02-4.42070E-04 1.12696E-01-8.95895E-15-1.46675E-13
 -1      3618 2.01693E+01-5.47319E-02 2.49066E-04 1.32919E-01 3.33589E-15-1.23109E-13
 -1      3619 2.01524E+01-5.78345E-02 3.07073E-04 1.31648E-01 8.27084E-15-1.04511E-13
 -1      3620 2.02070E+01-5.11588E-02-4.66808E-04 1.15930E-01 1.40617E-14-1.26686E-13
 -1      3621 2.01312E+01-5.73578E-02 7.21947E-05 1.29447E-01 1.60111E-14-1.17330E-13
 -1      3622 2.01166E+01-5.38264E-02 4.12699E-04 1.27279E-01-7.28751E-15-8.01124E-14
 -1      3623 2.01638E+01-5.93497E-02-4.37841E-04 1.14466E-01 7.48977E-15-9.81621E-14
 -1      3624 2.00967E+01-4.81828E-02-6.92815E-05 1.25399E-01-6.70736E-14-7.63705E-14
 -1      3625 2.00842E+01-4.04407E-02 4.86092E-04 1.23836E-01-5.86783E-14-6.37637E-14
 -1      3626 2.01234E+01-5.28371E-02-3.82508E-04 1.11809E-01-7.55885E-15-7.85204E-14
 -1      3627 2.00659E+01-3.17527E-02-1.80794E-04 1.23494E-01-2.76774E-14-2.07055E-14
 -1      3628 2.00555E+01-2.18008E-02 5.48809E-04 1.23655E-01 2.29118E-14-8.58052E-15
 -1      3629 2.00864E+01-3.68649E-02-3.25718E-04 1.10706E-01-2.87371E-15-3.50282E-14
 -1      3630 2.00388E+01-1.19510E-02-2.62344E-04 1.25858E-01-1.47497E-14-3.54879E-14
 -1      3631 2.00307E+01-1.65726E-03 6.22324E-04 1.28561E-01-3.39371E-14-2.68678E-14
 -1      3632 2.00527E+01-1.57262E-02-2.85070E-04 1.13443E-01-2.08045E-14-1.71511E-14
 -1      3633 2.00159E+01 7.47863E-03-3.06289E-04 1.34190E-01-2.00203E-14-2.88702E-14
 -1      3634 2.00107E+01 1.61187E-02 7.29553E-04 1.40025E-01-3.78898E-14-9.11677E-14
 -1      3635 2.00227E+01 6.58017E-03-2.89566E-04 1.21994E-01-4.63606E-14-6.76103E-14
 -1      3636 1.99986E+01 2.23793E-02-2.93060E-04 1.49920E-01-1.71407E-14-1.12699E-13
 -1      3637 1.99976E+01 2.69226E-02 8.85195E-04 1.59260E-01-1.74373E-14-7.54694E-15
 -1      3638 1.99972E+01 2.58241E-02-3.76035E-04 1.38249E-01-4.07443E-14-1.08432E-13
 -1      3639 1.99899E+01 2.75569E-02-1.89011E-04 1.74200E-01-7.81820E-15 1.04906E-13
 -1      3640 1.99952E+01 2.48233E-02 1.09716E-03 1.87102E-01 4.06106E-15 1.11101E-13
 -1      3641 1.99786E+01 3.68667E-02-5.87371E-04 1.64107E-01 7.12267E-14-2.71137E-14
 -1      3642 1.99948E+01 1.62604E-02 5.88595E-05 2.07668E-01-4.34536E-14 1.46630E-13
 -1      3643 2.00098E+01 2.11804E-03 1.35865E-03 2.23675E-01-8.19620E-14 9.11376E-14
 -1      3644 1.99711E+01 3.29685E-02-9.87214E-04 2.01342E-01-1.68936E-14 1.39765E-13
 -1      3645 2.00217E+01-2.01597E-02 5.31432E-04 2.49943E-01-1.24967E-13 7.81980E-14
 -1      3646 2.00512E+01-5.08564E-02 1.63178E-03 2.67695E-01-6.09933E-14 8.40226E-15
 -1      3647 1.99821E+01 5.27944E-03-1.65512E-03 2.51232E-01-1.14149E-13 9.88108E-14
 -1      3648 2.00827E+01-9.21858E-02 1.34026E-03 2.98632E-01-2.32718E-14 4.91780E-14
 -1      3649 2.01331E+01-1.45297E-01 1.82588E-03 3.15235E-01-4.03517E-14 8.88235E-14
 -1      3650 2.00230E+01-5.74158E-02-2.67969E-03 3.13704E-01-3.13557E-14 1.42423E-13
 -1      3651 2.01946E+01-2.11188E-01 2.62736E-03 3.47655E-01-3.35475E-14 7.22664E-14
 -1      3652 2.02734E+01-2.92316E-01 1.76813E-03 3.57760E-01-8.61534E-17 3.56460E-14
 -1      3653 2.01103E+01-1.68254E-01-4.13447E-03 3.85701E-01-2.17452E-14 1.08294E-13
 -1      3654 2.03785E+01-3.86879E-01 4.53707E-03 3.84637E-01 3.87039E-14-1.87155E-14
 -1      3655 2.04929E+01-4.99066E-01 1.14820E-03 3.79294E-01 1.07630E-13 4.92258E-14
 -1      3656 2.02668E+01-3.40490E-01-6.02231E-03 4.58446E-01 1.24452E-14 7.29978E-14
 -1      3657 2.06570E+01-6.21769E-01 6.96331E-03 3.87583E-01 4.66633E-14 6.61824E-15
 -1      3658 2.08117E+01-7.60762E-01-4.17411E-04 3.53342E-01-4.84124E-14 3.01998E-14
 -1      3659 2.05198E+01-5.82507E-01-8.21805E-03 5.13189E-01 1.59200E-14 9.99595E-14
 -1      3660 2.10479E+01-9.00694E-01 9.70198E-03 3.22666E-01-2.43381E-14-4.29181E-16
 -1      3661 2.12400E+01-1.04873E+00-3.20133E-03 2.42522E-01 3.62803E-14 3.92132E-14
 -1      3662 2.08972E+01-8.88354E-01-1.04770E-02 5.16936E-01-2.39012E-16 4.38460E-14
 -1      3663 2.15524E+01-1.17748E+00 1.20067E-02 1.44146E-01 4.87802E-14 1.09172E-13
 -1      3664 2.17654E+01-1.29155E+00-6.59905E-03 1.11407E-03 1.38870E-13 5.36366E-14
 -1      3665 2.14192E+01-1.22171E+00-1.13130E-02 4.19253E-01 4.17770E-14 1.50435E-13
 -1      3666 2.21317E+01-1.35414E+00 1.13669E-02-1.90433E-01 2.50925E-13-5.35053E-14
 -1      3667 2.23330E+01-1.36255E+00-1.00111E-02-4.00821E-01 2.91588E-13-5.91908E-14
 -1      3668 2.20743E+01-1.48774E+00-8.18691E-03 1.58860E-01 1.62029E-13-2.04842E-14
 -1      3669 2.26940E+01-1.27960E+00 3.72572E-03-6.95605E-01 2.15830E-13-1.41023E-13
 -1      3670 2.28381E+01-1.07518E+00-8.25540E-03-9.48230E-01 2.05572E-13-1.90802E-13
 -1      3671 2.27973E+01-1.53304E+00-2.19108E-03-3.12961E-01 2.03717E-13-2.36729E-13
 -1      3672 2.30587E+01-7.20852E-01-8.03615E-03-1.27602E+00 2.07379E-13-2.66458E-13
 -1      3673 2.30950E+01-2.77255E-01-1.01705E-02-1.45137E+00 1.75480E-13-2.43436E-13
 -1      3674 2.34279E+01-1.08231E+00 1.45259E-02-9.89753E-01 1.80638E-13-3.48577E-13
 -1      3675 2.31625E+01 3.24277E-01-1.95394E-02-1.72290E+00 2.32505E-13-2.72657E-13
 -1      3676 2.30732E+01 1.05773E+00 2.06393E-02-1.71836E+00 1.82391E-13-2.27565E-13
 -1      3677 2.37198E+01-1.43122E-01-3.14835E-02-1.60151E+00 1.62891E-13-4.48998E-13
 -1      3678 2.31332E+01 2.17412E+00-2.38103E-02-1.61576E+00-4.71935E-14-3.38283E-13
 -1      3679 2.29753E+01 2.82251E+00-1.73505E-02-1.28730E+00-1.93211E-13-3.25711E-13
 -1      3680 2.28835E+01 3.19815E+00-1.12146E-02-7.63362E-01-3.90330E-14-2.78976E-13
 -1      3681 2.24754E+01 3.36407E+00 7.62988E-05 2.99217E-01-3.78274E-14-2.98176E-13
 -1      3682 2.25647E+01 3.06783E+00-6.40590E-03 8.25667E-01-1.16731E-13-3.04781E-13
 -1      3683 2.34623E+01 2.75089E+00-1.16447E-02 1.45946E+00-1.04902E-13-5.33715E-13
 -1      3684 2.36128E+01 2.00530E+00-4.19250E-02 1.73735E+00-1.11945E-13-4.03081E-13
 -1      3685 2.31244E+01-2.30421E-01-1.23786E-04 1.46632E+00-2.49084E-13 1.42699E-13
 -1      3686 2.30981E+01-7.03994E-01-1.07173E-02 1.29494E+00-7.51803E-14 2.38951E-13
 -1      3687 2.28798E+01-1.05522E+00-8.04015E-03 9.62124E-01-2.71099E-14 2.27371E-13
 -1      3688 2.27410E+01-1.27043E+00 3.61482E-03 7.12570E-01-1.74274E-14 2.00497E-13
 -1      3689 2.34668E+01-1.06773E+00 9.01591E-03 1.01455E+00-1.60510E-13 1.69192E-14
 -1      3690 2.23917E+01-1.37438E+00-1.04120E-02 4.14523E-01-4.76911E-14 1.33092E-13
 -1      3691 2.21957E+01-1.37926E+00 1.02929E-02 1.97396E-01-9.98962E-14-4.27822E-14
 -1      3692 2.28700E+01-1.52141E+00 2.26138E-03 3.46454E-01-7.55161E-14-1.18516E-13
 -1      3693 2.18295E+01-1.32219E+00-7.56541E-03-5.49285E-03-1.28086E-13 1.69543E-14
 -1      3694 2.16182E+01-1.21000E+00 1.17595E-02-1.54431E-01-9.85216E-14 7.81634E-14
 -1      3695 2.21520E+01-1.52317E+00-9.87038E-03-1.54248E-01-1.34906E-13 1.15717E-15
 -1      3696 2.13040E+01-1.08200E+00-3.65196E-03-2.59737E-01-9.19209E-14 7.54268E-14
 -1      3697 2.11122E+01-9.31768E-01 9.83490E-03-3.45055E-01-4.23067E-14 6.78318E-14
 -1      3698 2.14952E+01-1.25911E+00-1.14804E-02-4.33751E-01-8.69909E-14 2.46573E-13
 -1      3699 2.08732E+01-7.87269E-01-7.04113E-04-3.81279E-01 1.02054E-13 1.53795E-13
 -1      3700 2.07177E+01-6.41238E-01 7.22911E-03-4.18502E-01 2.23828E-13 2.76130E-13
 -1      3701 2.09698E+01-9.21039E-01-1.06742E-02-5.43623E-01 1.34519E-13 4.69033E-13
 -1      3702 2.05506E+01-5.10862E-01 6.14371E-04-4.12340E-01 1.63843E-13 2.40579E-13
 -1      3703 2.04289E+01-3.90436E-01 1.84530E-03-4.19072E-01 2.23620E-14 1.63183E-13
 -1      3704 2.05881E+01-5.99194E-01-8.30078E-03-5.47403E-01 1.17655E-13 3.65565E-13
 -1      3705 2.03088E+01 1.02485E+00-1.90469E-03-2.66886E-01-4.32368E-14-1.00191E-13
 -1      3706 1.79581E+01 1.34424E+00-5.59681E-03-2.01710E-01 2.01920E-13-3.75550E-13
 -1      3707 1.74011E+01 1.47327E+00-2.76678E-02-3.66592E-01 1.81558E-13-1.57466E-13
 -1      3708 2.51989E+01-1.63815E+00-9.51712E-02-7.92117E-01-5.79571E-15-5.78498E-14
 -1      3709 2.50566E+01-2.37359E+00 8.37226E-02 3.18472E-01 5.21146E-14 1.00300E-13
 -1      3710 1.99129E+01 1.65766E-01-3.63679E-04-1.55844E-01-8.29915E-14-3.22184E-14
 -1      3711 1.99383E+01 1.28541E-01-9.36287E-04-1.46815E-01-6.89279E-14-2.15958E-14
 -1      3712 1.99678E+01 9.76566E-02 4.09723E-05-1.44184E-01-3.58449E-14 2.27325E-15
 -1      3713 1.99844E+01 6.97989E-02-7.01409E-04-1.38499E-01-3.09092E-14 5.92835E-14
 -1      3714 1.99452E+01 1.20384E-01 8.92720E-04-1.24271E-01-2.26712E-14-9.09417E-15
 -1      3715 1.97227E+01 3.62387E-01-2.01030E-03-1.80859E-01 6.15989E-14-3.86207E-14
 -1      3716 1.97803E+01 3.04057E-01-1.50147E-03-1.70008E-01 7.32319E-14-9.73479E-14
 -1      3717 1.95550E+01 5.03103E-01-3.61219E-03-1.81651E-01 9.24583E-15-4.91776E-14
 -1      3718 1.96449E+01 4.28968E-01-1.81852E-03-1.74738E-01 3.92426E-14-3.04523E-14
 -1      3719 1.96586E+01 4.04415E-01 3.66354E-03-1.12756E-01 4.59837E-14-1.19920E-13
 -1      3720 1.93053E+01 6.80431E-01-6.11592E-03-1.57544E-01 1.57049E-14-6.99714E-14
 -1      3721 1.94444E+01 5.88031E-01-2.10331E-03-1.61787E-01 5.35369E-14-5.91100E-14
 -1      3722 1.94744E+01 5.48074E-01 5.38174E-03-7.50026E-02 6.65550E-14-4.54229E-14
 -1      3723 1.89358E+01 8.96334E-01-1.02245E-02-8.52340E-02 2.91364E-14-1.86282E-13
 -1      3724 1.91486E+01 7.85927E-01-2.32351E-03-1.12363E-01 3.15913E-14-1.25203E-13
 -1      3725 1.92106E+01 7.20995E-01 7.70359E-03 8.05644E-03 7.53801E-14-7.75241E-14
 -1      3726 1.83635E+01 1.15807E+00-1.58835E-02 8.40109E-02-3.28106E-14-1.81026E-13
 -1      3727 1.87040E+01 1.02855E+00-1.97797E-03 8.18767E-03-1.18160E-14-1.99977E-13
 -1      3728 1.88245E+01 9.23627E-01 1.07693E-02 1.74319E-01 1.23163E-14-2.16104E-13
 -1      3729 1.75696E+01 1.41264E+00-2.35265E-02 3.90898E-01-4.56818E-15-2.17154E-13
 -1      3730 1.80556E+01 1.29424E+00-1.70602E-03 2.45281E-01 8.72317E-15-1.71108E-13
 -1      3731 1.82814E+01 1.13145E+00 1.46137E-02 4.73089E-01-3.39084E-16-1.51968E-13
 -1      3732 1.64466E+01 1.60852E+00-2.98490E-02 9.19207E-01 7.19028E-14-2.64520E-13
 -1      3733 1.71550E+01 1.53363E+00 6.55069E-04 6.58763E-01 6.41486E-14-1.96581E-13
 -1      3734 1.75528E+01 1.29256E+00 1.96093E-02 9.63008E-01 4.75562E-14-1.33009E-13
 -1      3735 1.48874E+01 1.66039E+00-4.09729E-03 1.78649E+00 9.49709E-14-4.50188E-13
 -1      3736 1.59031E+01 1.66142E+00 1.15251E-02 1.33171E+00 1.06255E-13-3.58791E-13
 -1      3737 1.65643E+01 1.32275E+00 2.44498E-02 1.74888E+00 1.95192E-13-2.69677E-13
 -1      3738 2.01027E+01-4.57076E-02 3.88012E-04-1.41859E-01 6.90649E-14 1.42518E-14
 -1      3739 2.01149E+01-5.08929E-02 3.58238E-05-1.44398E-01 6.51888E-14-1.80297E-14
 -1      3740 1.67282E+01 1.36174E-01-1.36018E-02-3.38132E+00 1.54404E-13-4.66294E-14
 -1      3741 1.84509E+01-1.00242E+00-1.73145E-02-3.88229E+00 2.53627E-13-2.44861E-13
 -1      3742 1.74880E+01 4.15849E-01 3.31491E-02-2.65559E+00 1.65716E-13-2.90335E-13
 -1      3743 1.88967E+01 9.68394E-01-9.16278E-03 1.06357E-01-9.92344E-14-4.61699E-13
 -1      3744 1.71275E+01 1.55225E+00 5.71460E-03-6.13985E-01 4.99752E-15-1.80967E-13
 -1      3745 1.63707E+01 1.66472E+00-9.61486E-03-8.89907E-01-1.54372E-13-1.74858E-13
 -1      3746 1.68840E+01 1.16220E+00-6.60619E-03-1.67772E+00-4.64359E-14-4.02138E-13
 -1      3747 1.75388E+01 1.33621E+00 3.27882E-02-9.48071E-01 2.49054E-13-4.68042E-13
 -1      3748 1.96472E+01-1.63167E+00 1.31830E-02-3.82173E+00 2.04006E-13-2.38195E-13
 -1      3749 2.11315E+01-2.51712E+00-6.86933E-02-3.53018E+00 1.96027E-13-4.28763E-13
 -1      3750 1.96286E+01-1.07085E+00 4.47077E-02-3.17570E+00 3.30140E-13-3.48759E-13
 -1      3751 1.93672E+01 5.80746E-01-7.33542E-03-2.63031E-01-2.68440E-13-1.39850E-13
 -1      3752 1.91696E+01 7.02874E-01-5.45703E-03-2.44322E-01-1.77273E-13-3.05640E-13
 -1      3753 2.02447E+01 4.72296E-02-5.17564E-04-1.27592E-01-2.63504E-14-1.29589E-13
 -1      3754 2.02660E+01 9.25752E-02 1.23299E-03-1.09210E-01-2.48217E-14-1.25716E-13
 -1      3755 2.03139E+01 1.42944E-01-2.37441E-04-8.25172E-02-1.42427E-14-1.79160E-13
 -1      3756 2.03573E+01 4.21944E-01 1.58347E-03-2.68910E-02-5.84888E-14-1.24245E-13
 -1      3757 2.03409E+01 3.11868E-01-1.72707E-03 2.15947E-02-5.84408E-14-1.13438E-13
 -1      3758 2.00713E+01-2.53424E-02 3.98111E-04-1.36792E-01 5.24294E-14 2.82460E-14
 -1      3759 2.00830E+01-3.71626E-02-1.55433E-04-1.38754E-01 8.76164E-14 5.79518E-14
 -1      3760 2.01120E+01-4.32985E-02-2.71218E-04-1.27031E-01 2.91808E-14 1.13267E-14
 -1      3761 2.01344E+01-5.25590E-02 3.11855E-04-1.47261E-01 5.58842E-14-5.54237E-14
 -1      3762 2.01485E+01-5.03404E-02 2.56643E-04-1.48817E-01 3.96039E-14-1.08387E-13
 -1      3763 2.01504E+01-5.37709E-02-3.95157E-04-1.31616E-01 3.10214E-14-8.34617E-14
 -1      3764 2.27757E+01-2.80307E+00 5.06490E-02-2.72311E+00 1.68156E-13-5.14070E-13
 -1      3765 2.39881E+01-2.95270E+00-5.41050E-02-1.45491E+00 9.35979E-14-2.36785E-13
 -1      3766 2.20375E+01-2.24128E+00 3.69859E-02-2.48533E+00 1.19767E-13-3.92122E-13
 -1      3767 2.02804E+01 1.42478E+00 4.86474E-03 1.19162E-03 1.54654E-14-2.12707E-13
 -1      3768 2.01978E+01 1.66043E+00-3.75551E-03-3.52964E-02 1.95925E-14-2.20579E-13
 -1      3769 1.61000E+01-1.78168E-01-3.83425E-03 4.17489E+00 1.16897E-13-2.82410E-13
 -1      3770 1.45001E+01 7.76556E-01 8.26658E-02 3.70940E+00 6.69907E-14-6.16278E-13
 -1      3771 1.94607E+01 5.17309E-01 4.45419E-03-3.58629E-01-1.62080E-13-1.92386E-13
 -1      3772 2.02517E+01 1.38347E+00-5.04792E-03 4.12374E-01 7.51066E-14-1.18110E-13
 -1      3773 2.02381E+01 1.48433E+00-1.18196E-03 3.44384E-01 5.48413E-14-1.23984E-13
 -1      3774 2.02987E+01 1.28664E+00 5.01647E-03 2.49865E-01 3.97047E-14-1.36559E-13
 -1      3775 2.46094E+01 1.28326E+00-8.33008E-02-1.95207E+00 1.06277E-13-5.31322E-13
 -1      3776 2.49637E+01 5.96643E-02 4.64688E-02-1.67965E+00 4.12968E-14-3.66775E-13
 -1      3777 2.02057E+01-1.34873E-02-1.19358E-04-1.45539E-01-1.95267E-14-1.13855E-13
 -1      3778 2.02252E+01 1.28916E-02 8.55759E-04-1.37431E-01-1.60654E-15-1.40227E-13
 -1      3779 2.02742E+01 4.11006E-02-4.00275E-04-1.15240E-01-3.27939E-15-1.67760E-13
 -1      3780 2.01688E+01-4.36885E-02 1.54890E-04-1.49962E-01 3.58904E-14-1.06896E-13
 -1      3781 2.01853E+01-3.14554E-02 5.30118E-04-1.48282E-01-1.01559E-14-9.96597E-14
 -1      3782 2.02317E+01-1.85771E-02-4.83533E-04-1.30201E-01-2.30569E-14-1.82627E-13
 -1      3783 2.01900E+01-4.72370E-02-4.65134E-04-1.33880E-01 2.51339E-14-1.48954E-13
 -1      3784 2.03333E+01 2.23603E-01 1.28497E-03 5.11043E-02-6.10206E-14-1.19942E-13
 -1      3785 2.03122E+01 1.50235E-01-1.02766E-03 8.11787E-02-6.00206E-14-1.26423E-13
 -1      3786 2.03681E+01 3.01819E-01 3.31861E-04 2.44817E-02-6.01506E-14-1.07294E-13
 -1      3787 2.36968E+01 4.06434E+00-6.40932E-02 8.09586E-01-1.61215E-13-6.61764E-13
 -1      3788 2.36816E+01 4.26459E+00-4.61268E-02-4.20337E-02-1.76630E-13-6.23712E-13
 -1      3789 2.03077E+01 1.11771E+00 4.47288E-03 3.34854E-01 6.49613E-14-1.15242E-13
 -1      3790 1.98353E+01 2.52388E-01-1.00592E-03-1.69547E-01 7.69177E-14-1.32199E-13
 -1      3791 1.98724E+01 2.06787E-01-1.20245E-03-1.58758E-01-1.42982E-14-9.76532E-14
 -1      3792 1.97872E+01 2.88349E-01 2.42060E-03-1.25877E-01 3.42857E-14-9.85056E-14
 -1      3793 2.03546E+01 7.05125E-01-6.42990E-04-1.45726E-01-6.95652E-14-9.14229E-14
 -1      3794 2.03501E+01 5.51804E-01-2.43652E-03-7.36257E-02-6.02962E-14-1.04641E-13
 -1      3795 2.03777E+01 5.39743E-01 1.16215E-03-5.21392E-02-6.86886E-14-9.25662E-14
 -1      3796 2.39612E+01-3.12159E+00-8.53641E-02 1.70219E+00 3.52019E-14 3.35657E-13
 -1      3797 2.26376E+01-2.82764E+00 3.63150E-02 2.86774E+00 1.09592E-13 3.58849E-13
 -1      3798 2.03056E+01 1.16561E+00-3.44050E-03-2.47861E-01-4.80806E-14-9.77974E-14
 -1      3799 2.03474E+01 8.73913E-01 3.17081E-03-1.79367E-01-6.75828E-14-9.26894E-14
 -1      3800 2.03603E+01 8.35955E-01-8.51644E-04-1.34255E-01-5.46990E-14-7.92802E-14
 -1      3801 2.03090E+01 1.18382E+00-2.90195E-03-1.87936E-01-4.05200E-14-1.31125E-13
 -1      3802 1.88813E+01 9.41600E-01 1.76965E-02-1.91439E-01-8.29154E-14-5.51725E-13
 -1      3803 1.86456E+01 1.08164E+00-2.10252E-03 2.62225E-03-3.62048E-14-5.65500E-13
 -1      3804 2.03378E+01 1.41578E-01-8.54232E-05 7.30556E-02-4.38584E-14-1.16349E-13
 -1      3805 2.39380E+01 1.86275E+00-6.00905E-03-1.81439E+00 4.41296E-14-5.71118E-13
 -1      3806 2.30144E+01 3.68158E+00-4.69795E-02-3.98474E-01-4.06775E-14-3.09161E-13
 -1      3807 2.34816E+01 1.20173E+00-3.30025E-03 1.73009E+00-2.57086E-15-3.21543E-13
 -1      3808 2.03311E+01-3.01925E-01 6.07989E-04-4.64660E-01-2.23890E-13-3.87928E-14
 -1      3809 2.35973E+01 4.71934E-01-1.81720E-02 1.74776E+00-6.03779E-14-1.47611E-13
 -1      3810 2.43242E+01-6.53663E-01-2.35683E-03-1.25308E+00 1.14790E-13-3.59006E-13
 -1      3811 2.03222E+01 1.14818E+00-3.44004E-03 1.33844E-01 2.06992E-14-1.71663E-13
 -1      3812 2.03209E+01 1.18490E+00-1.76038E-03 7.73801E-02 5.99975E-15-1.95751E-13
 -1      3813 2.43637E+01-2.59287E+00 2.68584E-02-7.54717E-01 1.43809E-14-2.49234E-13
 -1      3814 2.42818E+01-2.12908E+00-5.82069E-03-3.82280E-02-8.70493E-14-3.39787E-13
 -1      3815 2.33839E+01-2.47259E+00-1.09352E-02-1.13239E+00-1.07466E-15-2.43298E-13
 -1      3816 2.40061E+01-2.42190E+00 9.46317E-03 7.82102E-01 8.89913E-14 3.61265E-14
 -1      3817 1.99953E+01 6.20379E-02 4.29858E-04-1.21476E-01 2.68271E-14 9.83431E-14
 -1      3818 2.00079E+01 4.56239E-02 2.49772E-04-1.37138E-01-6.37702E-16 9.46013E-14
 -1      3819 2.00206E+01 2.38249E-02-5.06396E-04-1.34488E-01 5.16442E-14 8.84189E-14
 -1      3820 1.47053E+01 1.38086E+00 3.19481E-02 2.39455E+00 7.31819E-14-5.08097E-13
 -1      3821 1.57575E+01 9.19874E-01 1.37053E-02 2.86097E+00 2.17923E-13-5.33632E-13
 -1      3822 2.43184E+01-1.28158E+00-5.28890E-03 9.00350E-01-1.64110E-13-2.54953E-13
 -1      3823 2.48757E+01-7.19981E-01-1.64049E-02 1.37506E+00 3.66981E-14-3.76741E-13
 -1      3824 2.01886E+01 1.70013E+00-2.19303E-03-1.22045E-01 2.32960E-15-2.27266E-13
 -1      3825 1.91584E+01 6.24820E-01 1.26928E-02-5.74004E-01-1.16115E-13-2.98477E-13
 -1      3826 1.90068E+01 7.33174E-01-3.78112E-03-4.08202E-01-3.65821E-14-3.68279E-13
 -1      3827 1.87314E+01 7.93046E-01-1.88477E-02-5.63414E-01 5.42695E-14-3.54536E-13
 -1      3828 2.03127E+01 3.07380E-01-1.74268E-03-1.93705E-02-5.87492E-16-1.28394E-13
 -1      3829 2.03358E+01 4.16796E-01 3.39228E-03 3.67602E-02 6.79719E-15-1.18611E-13
 -1      3830 2.03445E+01 3.02119E-01-2.22976E-04-2.39452E-02 2.14727E-14-1.39373E-13
 -1      3831 2.01530E+01-1.36297E-01-4.01218E-03-4.70400E-01-3.01412E-13-1.30098E-13
 -1      3832 2.02553E+01 4.99988E-01-1.53636E-03 1.36694E-01 4.74181E-14-8.47948E-14
 -1      3833 2.02724E+01 6.17812E-01 1.00056E-03 2.30842E-01 5.16818E-14-7.40121E-14
 -1      3834 2.02881E+01 7.01573E-01-2.07136E-03 2.53077E-01 6.59158E-14-7.54214E-14
 -1      3835 2.02944E+01 5.04397E-01-2.16102E-03 1.11671E-01 1.50392E-14-5.45321E-14
 -1      3836 1.98104E+01 9.95598E-02 7.78966E-03-7.15290E-01-2.06531E-13-8.72020E-14
 -1      3837 1.96460E+01 2.07490E-01-1.15035E-03-6.95359E-01-2.03195E-13-1.88047E-13
 -1      3838 2.23390E+01-2.31806E+00 2.34667E-02 2.20922E+00 7.18765E-14 1.98557E-13
 -1      3839 2.17327E+01-2.54113E+00 1.14563E-03 3.21759E+00 1.49591E-13 2.71445E-13
 -1      3840 2.06459E+01-1.93031E+00-9.15005E-03 3.27393E+00 8.00913E-14 2.87112E-13
 -1      3841 1.94346E+01 4.46228E-01-3.12666E-03-4.92134E-01-2.53060E-13-1.86397E-13
 -1      3842 2.00523E+01-1.17668E-02-3.38234E-04-1.34834E-01 1.45962E-14 7.05138E-14
 -1      3843 2.00748E+01-1.94233E-02-9.34854E-05-1.22874E-01 1.14165E-14 1.08907E-13
 -1      3844 2.00413E+01 4.72706E-03 3.43984E-04-1.34850E-01 3.56152E-15 1.11638E-13
 -1      3845 1.75700E+01-6.41119E-01 4.23034E-02 4.13817E+00 1.84815E-13 1.05645E-15
 -1      3846 1.68227E+01 6.93757E-02-8.17730E-03 3.50093E+00 2.54749E-13-1.32165E-13
 -1      3847 1.88366E+01-1.02286E+00 8.67793E-03 3.68197E+00 2.21040E-13 1.58512E-13
 -1      3848 2.03190E+01 1.20006E+00-2.58180E-03 3.08902E-02 1.30402E-14-2.08114E-13
 -1      3849 2.03194E+01 1.20340E+00-1.82882E-03-3.08582E-02 1.40910E-14-2.20201E-13
 -1      3850 2.03725E+01 1.00091E+00 4.06807E-03 3.92395E-02 5.12983E-15-2.00822E-13
 -1      3851 1.98788E+01 1.94757E-01 1.54588E-03-1.27183E-01 9.35389E-15-9.30580E-14
 -1      3852 2.00971E+01-1.13995E-01 7.32022E-03-6.43562E-01-3.23177E-13 2.98852E-14
 -1      3853 1.99612E+01-3.80891E-02-2.03227E-03-6.76392E-01-3.20852E-13-1.60250E-14
 -1      3854 1.98986E+01-5.78226E-02-4.35592E-03-7.95355E-01-1.47604E-13-1.34235E-13
 -1      3855 2.41985E+01 1.81408E-02-1.78441E-04 1.64782E+00-3.29294E-14-3.05062E-13
 -1      3856 1.83446E+01 1.17636E+00-1.69221E-02-8.06442E-02 2.55097E-14-5.29305E-13
 -1      3857 2.03027E+01 7.95571E-01 7.53393E-04 2.69236E-01 5.01860E-14-9.48432E-14
 -1      3858 2.03205E+01 8.76951E-01-3.08060E-03 2.61520E-01 3.70093E-14-1.18638E-13
 -1      3859 2.03270E+01 9.78818E-01 4.09965E-04 2.37406E-01 3.59770E-14-1.17549E-13
 -1      3860 2.03261E+01 6.88856E-01 3.13949E-03 1.72296E-01 2.03631E-14-1.10877E-13
 -1      3861 1.82701E+01 1.17636E+00 2.93071E-02-4.82873E-01 1.92802E-13-5.39720E-13
 -1      3862 2.03740E+01 1.86205E-01 6.90079E-04 4.82776E-02-5.16445E-14-1.27694E-13
 -1      3863 2.03541E+01 1.18378E-01-6.83498E-04 6.73799E-02-4.12045E-14-1.43505E-13
 -1      3864 1.84970E+01 8.40683E-01-9.05909E-03-7.92608E-01 1.86169E-13-2.72918E-13
 -1      3865 1.80790E+01 9.32920E-01-2.31743E-02-9.94941E-01 2.23754E-13-4.03429E-13
 -1      3866 1.87843E+01 6.53386E-01 1.63588E-02-1.00639E+00 2.15135E-13-1.75582E-13
 -1      3867 2.02894E+01-7.93417E-03 4.36046E-04 8.95878E-02-1.61031E-16-1.62374E-13
 -1      3868 2.02659E+01-3.09759E-02 9.54260E-06 9.40897E-02-4.80733E-15-1.54704E-13
 -1      3869 2.02409E+01-4.64118E-02 2.95966E-04 9.45472E-02 2.69594E-14-1.28022E-13
 -1      3870 2.02182E+01-5.58501E-02 1.99027E-04 9.56125E-02 5.57800E-14-1.14300E-13
 -1      3871 2.02720E+01-3.67468E-02-4.45849E-04 7.33199E-02 3.11735E-14-1.19590E-13
 -1      3872 2.01931E+01-6.00599E-02 1.58249E-04 9.46781E-02 4.38154E-14-1.12356E-13
 -1      3873 2.01720E+01-5.99385E-02 3.22562E-04 9.42229E-02 4.76500E-15-9.91392E-14
 -1      3874 2.02215E+01-5.81076E-02-4.62563E-04 7.46453E-02 4.71713E-14-1.36507E-13
 -1      3875 2.01475E+01-5.64076E-02 2.66438E-05 9.32256E-02 3.89029E-15-9.51256E-14
 -1      3876 2.01282E+01-4.98182E-02 4.02096E-04 9.27617E-02 3.00116E-14-6.54643E-14
 -1      3877 2.01724E+01-5.88969E-02-4.15536E-04 7.42852E-02 3.05138E-14-1.04155E-13
 -1      3878 2.01048E+01-4.11693E-02-9.83070E-05 9.27765E-02-1.27670E-14-6.66721E-14
 -1      3879 2.00874E+01-3.04304E-02 4.69055E-04 9.35493E-02-1.81460E-14-6.84030E-14
 -1      3880 2.01254E+01-4.55912E-02-3.37737E-04 7.46098E-02 7.78251E-15-9.14481E-14
 -1      3881 2.00650E+01-1.88467E-02-2.20132E-04 9.56833E-02-1.19862E-14-9.73197E-14
 -1      3882 2.00495E+01-5.99319E-03 5.49659E-04 9.87267E-02-9.79218E-16-1.19875E-13
 -1      3883 2.00810E+01-2.30738E-02-2.45771E-04 7.77422E-02-2.01542E-14-1.50415E-13
 -1      3884 2.00281E+01 6.59952E-03-3.44875E-04 1.04030E-01-1.91305E-14-1.19687E-13
 -1      3885 2.00150E+01 1.96712E-02 6.78209E-04 1.10343E-01-4.77916E-14-1.22004E-13
 -1      3886 2.00389E+01 4.34952E-03-1.93159E-04 8.58238E-02 4.60244E-15-1.64171E-13
 -1      3887 1.99947E+01 3.13077E-02-4.54093E-04 1.20053E-01-4.10166E-14-1.01765E-13
 -1      3888 1.99847E+01 4.24673E-02 8.79125E-04 1.30699E-01-6.35210E-15-9.01696E-14
 -1      3889 1.99991E+01 3.28552E-02-2.01802E-04 1.01251E-01-3.15120E-14-8.55383E-14
 -1      3890 1.99662E+01 5.06827E-02-5.24188E-04 1.46358E-01 6.48277E-14-7.40972E-14
 -1      3891 1.99610E+01 5.71463E-02 1.18204E-03 1.62423E-01 1.04653E-13-2.62115E-14
 -1      3892 1.99625E+01 5.82260E-02-2.79202E-04 1.27011E-01 5.38642E-14-3.58890E-14
 -1      3893 1.99460E+01 5.87009E-02-5.21649E-04 1.85827E-01 8.61043E-14 8.85305E-15
 -1      3894 1.99485E+01 5.67085E-02 1.61358E-03 2.08370E-01-6.72855E-15 4.89786E-14
 -1      3895 1.99312E+01 7.47452E-02-5.03665E-04 1.66736E-01 1.06432E-13-6.98665E-14
 -1      3896 1.99403E+01 4.72326E-02-3.75915E-04 2.41510E-01-1.41339E-13 5.17290E-14
 -1      3897 1.99552E+01 3.16853E-02 2.18314E-03 2.71320E-01-1.04537E-13 4.43446E-14
 -1      3898 1.99098E+01 7.46837E-02-9.59496E-04 2.24726E-01-4.58580E-14-2.61279E-14
 -1      3899 1.99595E+01 5.39658E-03 3.17920E-05 3.16035E-01-2.00348E-14 1.10219E-13
 -1      3900 1.99939E+01-3.03998E-02 2.85610E-03 3.53076E-01 2.03227E-14 9.19877E-14
 -1      3901 1.99069E+01 4.73156E-02-1.76845E-03 3.05632E-01-4.75400E-14 1.07162E-13
 -1      3902 2.00201E+01-8.07025E-02 8.84384E-04 4.10203E-01-2.41158E-14 7.29291E-14
 -1      3903 2.00832E+01-1.44882E-01 3.53313E-03 4.52596E-01-4.59544E-14 5.37440E-14
 -1      3904 1.99366E+01-2.18307E-02-3.08654E-03 4.13373E-01-5.25841E-14 7.59129E-14
 -1      3905 2.01455E+01-2.27340E-01 2.45992E-03 5.20500E-01-2.49917E-14 6.88579E-14
 -1      3906 2.02493E+01-3.28729E-01 3.99043E-03 5.62796E-01 2.65789E-14 2.83990E-14
 -1      3907 2.00206E+01-1.51027E-01-5.07254E-03 5.48904E-01-5.00970E-14 8.90578E-14
 -1      3908 2.03678E+01-4.50864E-01 5.09247E-03 6.34364E-01 1.79015E-14 6.09234E-14
 -1      3909 2.05254E+01-5.96361E-01 3.65351E-03 6.65082E-01-5.20949E-14 2.70915E-14
 -1      3910 2.01909E+01-3.61152E-01-7.70633E-03 7.06164E-01 2.06856E-14 2.91956E-14
 -1      3911 2.07247E+01-7.59051E-01 8.54382E-03 7.22508E-01-5.62080E-14 6.78982E-14
 -1      3912 2.09467E+01-9.45035E-01 2.05206E-03 7.22473E-01 4.01066E-14 1.20194E-13
 -1      3913 2.04908E+01-6.68268E-01-1.05558E-02 8.62568E-01-1.11871E-14-2.45663E-14
 -1      3914 2.12539E+01-1.14046E+00 1.26609E-02 7.37987E-01 3.60714E-14 8.25851E-14
 -1      3915 2.15407E+01-1.34884E+00-2.63691E-03 6.76422E-01 5.77667E-14 8.58633E-14
 -1      3916 2.09674E+01-1.07437E+00-1.45632E-02 9.73767E-01 1.05547E-15 1.63222E-13
 -1      3917 2.19777E+01-1.53325E+00 1.85252E-02 5.93718E-01 7.28962E-14 6.99042E-14
 -1      3918 2.23076E+01-1.69886E+00-6.59927E-03 4.39841E-01 1.30978E-13-2.73674E-14
 -1      3919 2.16732E+01-1.55924E+00-2.05774E-02 9.66648E-01 4.16038E-14 1.59647E-13
 -1      3920 2.40788E+01-1.69523E+00-2.43724E-03 5.28341E-01-1.21737E-13-3.31987E-13
 -1      3921 2.34224E+01-1.86938E+00-1.31947E-02 9.20788E-02-1.12499E-13-2.50962E-13
 -1      3922 2.30901E+01-1.90067E+00 1.05494E-02-2.02059E-01-1.67308E-13-2.90607E-13
 -1      3923 2.23956E+01-1.74899E+00-9.63010E-03-4.35067E-01-2.86134E-14-2.20731E-14
 -1      3924 2.20694E+01-1.58148E+00 1.76545E-02-6.05420E-01 3.93472E-14 1.14357E-14
 -1      3925 2.16268E+01-1.39219E+00-2.54347E-03-6.87827E-01 4.93585E-14 1.53561E-13
 -1      3926 2.13417E+01-1.18365E+00 1.42133E-02-7.57170E-01-3.43598E-14 2.85116E-13
 -1      3927 2.17716E+01-1.59020E+00-1.53203E-02-9.63969E-01 1.47833E-13 1.63260E-13
 -1      3928 2.10243E+01-9.87646E-01 2.29239E-04-7.48854E-01 1.32414E-14 4.25703E-13
 -1      3929 2.08048E+01-7.91679E-01 9.23251E-03-7.54526E-01 2.34177E-13 4.14255E-13
 -1      3930 2.10540E+01-1.13032E+00-1.76700E-02-1.00192E+00 8.67523E-14 4.90315E-13
 -1      3931 2.06017E+01-6.22330E-01 2.83968E-03-6.97457E-01 1.08014E-13 2.48870E-13
 -1      3932 2.04524E+01-4.61408E-01 9.07290E-03-6.72194E-01-1.28481E-13 1.08276E-13
 -1      3933 2.05734E+01-6.97854E-01-1.11193E-02-8.91184E-01 2.07237E-14 2.33018E-13
 -1      3934 2.03957E+01 6.42225E-01 2.78011E-03-6.91478E-02-5.00307E-14-9.72634E-14
 -1      3935 2.03930E+01 4.91828E-01-1.89968E-03-2.35466E-02-5.19524E-14-9.05973E-14
 -1      3936 1.94030E+01 5.32429E-01-5.58485E-03 3.29735E-02 1.03755E-13-1.90207E-13
 -1      3937 1.95210E+01 4.68370E-01 1.45901E-05-1.52035E-03 7.64448E-14-1.87533E-13
 -1      3938 1.96005E+01 4.05431E-01-3.55121E-03-3.92958E-02 6.08628E-14-1.65405E-13
 -1      3939 1.96821E+01 3.50010E-01-3.68709E-04-5.50846E-02 8.63207E-14-1.62831E-13
 -1      3940 1.95704E+01 4.15452E-01 3.17876E-03 5.67783E-02 1.08543E-13-2.31353E-13
 -1      3941 1.87427E+01 8.24893E-01-1.25066E-02 4.07419E-01 1.50906E-14-2.89033E-13
 -1      3942 1.89950E+01 7.54773E-01 2.65483E-03 2.79896E-01 4.63747E-14-2.74014E-13
 -1      3943 1.82439E+01 9.41097E-01-1.72972E-02 7.93684E-01-2.20555E-14-1.70872E-13
 -1      3944 1.85807E+01 8.96722E-01 5.41792E-03 5.87960E-01-5.50385E-14-2.44766E-13
 -1      3945 1.88128E+01 7.16372E-01 5.96633E-03 6.89101E-01-3.30195E-14-3.17127E-13
 -1      3946 1.76055E+01 9.70473E-01-2.14275E-02 1.40085E+00 4.23077E-15-1.68806E-13
 -1      3947 1.80586E+01 9.83768E-01 1.04740E-02 1.07191E+00-1.32421E-14-1.68729E-13
 -1      3948 1.84296E+01 7.26216E-01 5.85567E-03 1.17812E+00-1.73659E-14-2.26664E-13
 -1      3949 2.02797E+01 1.41483E+00 4.99354E-03-1.37867E-01-2.18724E-16-2.05476E-13
 -1      3950 1.92172E+01-6.64353E-01 7.42925E-03-2.79917E+00 3.81684E-13-3.54633E-13
 -1      3951 2.01610E+01-1.38996E+00-4.40774E-02-2.81452E+00 2.48636E-13-3.43801E-13
 -1      3952 2.03253E+01 5.82008E-01-1.89377E-03 1.12271E-01 1.08894E-14-1.19846E-13
 -1      3953 2.03971E+01 3.70732E-01 7.52986E-04 1.38486E-03-8.02375E-14-9.30112E-14
 -1      3954 2.03839E+01 2.68791E-01-1.21788E-03 3.24944E-02-6.70030E-14-9.30275E-14
 -1      3955 2.04102E+01 4.64568E-01 5.09225E-04-1.24963E-02-7.09374E-14-7.64549E-14
 -1      3956 2.38202E+01-2.07814E+00-3.80058E-02 2.69209E-02 1.11664E-13-6.62057E-14
 -1      3957 2.32622E+01-2.35437E+00 2.07501E-02 1.12092E+00-1.22437E-14 4.46277E-14
 -1      3958 1.73465E+01 7.54091E-01-4.89774E-03-2.06721E+00-2.15538E-14-4.33925E-13
 -1      3959 1.82489E+01-2.27638E-02-1.31694E-02-2.63810E+00 2.40710E-13-4.88116E-13
 -1      3960 2.03259E+01 1.03564E+00-4.45208E-03 2.11992E-01 4.10277E-14-1.19011E-13
 -1      3961 2.03258E+01 1.10792E+00-1.01763E-03 1.68029E-01 2.71242E-14-1.52376E-13
 -1      3962 2.03724E+01 9.43493E-01 5.17492E-03 1.08129E-01 1.47626E-14-1.45823E-13
 -1      3963 2.03664E+01 8.32151E-01 5.15951E-03 1.53434E-01 2.19864E-14-1.25846E-13
 -1      3964 2.30779E+01 3.33835E+00-5.51432E-02 9.77029E-01-1.62880E-13-5.04994E-13
 -1      3965 1.91301E+01 6.74232E-01-8.69819E-03 1.65708E-01 6.09483E-14-1.82180E-13
 -1      3966 1.92994E+01 6.05138E-01 8.37639E-04 9.93031E-02 1.08805E-13-1.66702E-13
 -1      3967 1.93819E+01 5.25086E-01 4.20139E-03 1.72681E-01 9.51333E-14-2.79287E-13
 -1      3968 1.99242E+01 1.32452E-01-5.96154E-04-9.77136E-02 3.71453E-14-8.04370E-14
 -1      3969 1.99533E+01 1.01125E-01-4.39912E-04-9.70780E-02 8.57764E-15-3.75515E-14
 -1      3970 2.03359E+01 1.23220E-01-8.28336E-04-7.88635E-02-5.42731E-15-1.30946E-13
 -1      3971 2.03561E+01 1.91275E-01 8.88729E-04-5.59384E-02-1.09450E-14-1.46213E-13
 -1      3972 2.01192E+01-4.08252E-02 2.72664E-04-1.07835E-01-1.43316E-14-3.85187E-14
 -1      3973 2.01387E+01-4.98608E-02 3.57159E-05-1.09660E-01-6.18567E-15-9.02761E-14
 -1      3974 2.01624E+01-5.47870E-02 2.80010E-04-1.12143E-01 1.76983E-14-9.28452E-14
 -1      3975 2.01821E+01-5.57441E-02 1.91187E-04-1.13264E-01 3.99604E-14-1.03390E-13
 -1      3976 2.01660E+01-5.37821E-02-3.54515E-04-9.22809E-02-3.96249E-16-9.69089E-14
 -1      3977 2.12696E+01-1.79403E+00 3.00121E-02-2.50239E+00 2.55012E-13-4.41256E-13
 -1      3978 2.23324E+01-2.29089E+00-3.23435E-02-1.81609E+00 1.95846E-13-3.47507E-13
 -1      3979 1.69677E+01 4.45083E-01 2.28176E-02 2.91997E+00 3.57265E-13-1.38208E-13
 -1      3980 1.94968E+01 3.36430E-01 7.76146E-03-7.04647E-01-1.37889E-13-7.78736E-14
 -1      3981 1.93144E+01 4.69087E-01 3.04899E-04-6.22483E-01-1.58322E-13-1.57386E-13
 -1      3982 1.91551E+01 4.45591E-01-1.13883E-02-8.19906E-01 9.61330E-14-1.53495E-13
 -1      3983 1.95391E+01 1.84772E-01-7.70775E-03-8.49537E-01 4.18448E-15-1.73450E-13
 -1      3984 2.03135E+01 1.21374E+00-2.63697E-03-7.67162E-02-2.13170E-15-2.23791E-13
 -1      3985 2.03125E+01 1.20376E+00-2.17691E-03-1.39932E-01-1.06597E-14-1.76442E-13
 -1      3986 2.03589E+01 1.02262E+00 4.35382E-03-1.21304E-01-3.77730E-14-1.35823E-13
 -1      3987 2.03669E+01 1.02948E+00 4.31767E-03-3.98583E-02-5.90831E-15-2.19696E-13
 -1      3988 2.02955E+01 2.68590E-02-3.57285E-04-1.02958E-01-1.17462E-14-1.56541E-13
 -1      3989 2.03181E+01 6.95412E-02 7.77185E-04-9.05411E-02 7.07091E-15-1.44669E-13
 -1      3990 2.03534E+01 1.10991E-01-1.50377E-04-6.76245E-02-3.02306E-16-1.21498E-13
 -1      3991 2.02608E+01-2.60487E-01-2.44545E-04-5.46869E-01-2.88145E-13 6.19911E-14
 -1      3992 1.98459E+01 2.07781E-01-1.21291E-03-9.15480E-02 4.18824E-14-1.31313E-13
 -1      3993 1.98868E+01 1.68415E-01-5.07958E-04-9.25546E-02 7.41823E-14-8.70034E-14
 -1      3994 1.99024E+01 1.50905E-01 1.00250E-03-6.45566E-02 6.19973E-14-1.59227E-13
 -1      3995 2.03355E+01 6.52872E-02 5.63111E-04 7.57740E-02-3.01575E-14-1.58286E-13
 -1      3996 2.03125E+01 2.33234E-02-2.76870E-04 8.61269E-02-1.90035E-14-1.56370E-13
 -1      3997 2.03214E+01 1.36636E-02-3.39392E-04 6.75155E-02-1.54809E-14-1.54511E-13
 -1      3998 1.97427E+01 2.97438E-01-2.15909E-03-7.54448E-02 5.04100E-14-1.39954E-13
 -1      3999 1.97994E+01 2.50923E-01-5.12412E-04-8.11558E-02 1.07803E-14-1.57037E-13
 -1      4000 1.98194E+01 2.26700E-01 1.56434E-03-4.55612E-02 6.16615E-14-9.51108E-14
 -1      4001 1.97124E+01 3.14759E-01 2.29672E-03-9.47428E-03 9.84767E-14-9.81766E-14
 -1      4002 1.83488E+01 5.61565E-01 1.28795E-02-1.65688E+00 9.67769E-14-4.59077E-13
 -1      4003 1.79005E+01 8.80756E-01 4.15526E-05-1.36582E+00 1.83456E-13-5.36575E-13
 -1      4004 2.26659E+01-1.89083E+00 4.40015E-03 6.21785E-01 5.43086E-14 6.07665E-14
 -1      4005 2.28615E+01-1.78018E+00 1.73382E-02 1.71571E-01 1.12492E-13-1.20353E-13
 -1      4006 2.28692E+01-2.05505E+00-1.23361E-02-7.08076E-01 5.55857E-14-2.18670E-13
 -1      4007 2.31818E+01-1.80080E+00-1.66297E-02-9.61224E-02 1.41256E-13-1.81825E-13
 -1      4008 2.38697E+01-1.69407E+00 2.23578E-03-5.14812E-01 2.15608E-13-2.27299E-13
 -1      4009 2.41899E+01-1.23824E+00 2.28931E-02-9.20816E-01 1.41512E-13-2.28200E-13
 -1      4010 2.27139E+01-2.16670E+00 2.23925E-02-1.27323E+00 1.27925E-13-7.94549E-14
 -1      4011 2.26345E+01-2.23444E+00-5.02021E-03 1.38639E+00 4.17402E-14 1.21901E-13
 -1      4012 2.02274E+01-3.45766E-01-6.71565E-03-7.90646E-01-1.28379E-13-6.59960E-14
 -1      4013 2.02689E+01-3.24423E-01-3.36108E-03-6.50401E-01-2.45832E-13 4.15612E-14
 -1      4014 2.03761E+01 7.87503E-01-1.38138E-03-9.51575E-02-5.18509E-14-1.05940E-13
 -1      4015 2.03659E+01 1.04182E-01-1.07887E-04 5.38820E-02-5.02750E-14-1.93829E-13
 -1      4016 1.99832E+01 7.27618E-02-1.82658E-04-9.97827E-02 1.50409E-14 1.47346E-14
 -1      4017 2.00062E+01 4.71347E-02-3.55911E-04-9.92288E-02 4.29482E-14 1.50604E-14
 -1      4018 1.99682E+01 8.76315E-02 6.37168E-04-7.43366E-02 3.35890E-14-6.25034E-14
 -1      4019 1.91317E+01 6.34043E-01 5.23028E-03 3.69892E-01 8.36723E-14-2.83133E-13
 -1      4020 1.68382E+01 8.09736E-01-1.06437E-02 2.34117E+00 3.16550E-13-1.71004E-13
 -1      4021 1.74179E+01 9.27685E-01 2.01820E-02 1.81837E+00 1.95138E-13-1.19801E-13
 -1      4022 2.00623E+01-2.04568E-01 9.11215E-03-9.05023E-01-1.60383E-14-8.23652E-14
 -1      4023 1.98492E+01-8.06181E-02-3.35921E-04-9.49209E-01 3.16296E-14-3.20738E-13
 -1      4024 2.02185E+01-3.93006E-01-7.85371E-04-9.52318E-01-6.08183E-15-1.64838E-13
 -1      4025 1.90542E+01-2.15221E-01 2.28621E-02-2.30978E+00 1.47063E-13-3.51759E-13
 -1      4026 2.03511E+01 5.66675E-01-2.68114E-03 8.67235E-02 1.95226E-14-1.44268E-13
 -1      4027 2.03659E+01 2.75646E-01-1.25028E-03-3.50136E-02-1.77432E-15-1.08479E-13
 -1      4028 2.03799E+01 3.75762E-01-5.14522E-04 4.31960E-03 3.46424E-14-9.33365E-14
 -1      4029 2.03863E+01 2.59220E-01 1.20109E-04-3.34292E-02 1.50179E-14-1.04339E-13
 -1      4030 2.19200E+01-1.93295E+00 5.38936E-04 1.68527E+00 3.93749E-14 1.14696E-13
 -1      4031 2.02513E+01-2.74224E-02-3.45097E-05-1.13059E-01-3.19801E-14-1.62395E-13
 -1      4032 2.02736E+01-4.26163E-03 5.72049E-04-1.07829E-01-3.62642E-14-1.71112E-13
 -1      4033 2.03102E+01 1.84310E-02-3.61897E-04-8.60548E-02-1.57632E-14-8.52262E-14
 -1      4034 2.03832E+01 7.45161E-01-3.41533E-03 8.88306E-02 1.55502E-14-1.12386E-13
 -1      4035 2.03875E+01 7.93306E-01-1.10062E-03 6.41693E-02 1.37084E-14-1.63836E-13
 -1      4036 2.00957E+01-2.91032E-02-1.03027E-04-1.05338E-01 4.97122E-15 1.68376E-14
 -1      4037 2.01197E+01-3.67495E-02-1.91663E-04-8.85420E-02-2.67109E-14-3.82862E-14
 -1      4038 2.00774E+01-1.44241E-02 1.88376E-04-1.04057E-01 6.30647E-15 3.08537E-14
 -1      4039 2.08469E+01-1.59304E+00 2.09731E-02 2.62122E+00-5.07984E-14 1.82307E-13
 -1      4040 1.99641E+01-1.42787E+00 2.08738E-02 3.31975E+00 6.32563E-14 2.25326E-13
 -1      4041 1.90952E+01-8.27797E-01-8.28731E-03 3.11552E+00 1.47666E-13 5.42643E-14
 -1      4042 1.79814E+01 5.78188E-01-1.17398E-03 1.92271E+00 1.05989E-13-2.51237E-13
 -1      4043 2.19773E+01-1.85338E+00-6.98949E-03-1.38941E+00 2.24998E-13-4.70843E-14
 -1      4044 2.00371E+01 1.56506E-02 1.14652E-04-1.20860E-01 3.10487E-14 1.19578E-13
 -1      4045 2.02133E+01-5.45453E-02-4.37935E-04-9.47238E-02 3.51445E-15-9.18577E-14
 -1      4046 2.02060E+01-5.21583E-02 1.78947E-04-1.14820E-01 1.67355E-14-1.21754E-13
 -1      4047 2.02271E+01-4.30151E-02 3.68169E-04-1.13837E-01-8.89576E-15-1.49074E-13
 -1      4048 2.08766E+01-1.37510E+00 2.38484E-02-2.18377E+00 2.60038E-13-4.39096E-13
 -1      4049 2.03907E+01 8.15184E-01-2.12279E-03 4.31829E-02-1.62363E-15-1.89420E-13
 -1      4050 2.03918E+01 8.30822E-01-1.56610E-03 9.37607E-03-4.88291E-15-1.99960E-13
 -1      4051 2.04159E+01 6.55607E-01 2.70447E-03 2.87613E-02 1.32694E-14-1.66517E-13
 -1      4052 1.78480E+01 9.70468E-03-1.16053E-02 2.92697E+00 3.41343E-13 3.19189E-15
 -1      4053 1.96671E+01 4.22557E-02 6.67992E-03-1.02336E+00-2.26544E-16-3.37653E-13
 -1      4054 1.94659E+01 1.70803E-01 5.35617E-03-1.05220E+00 1.01621E-13-1.64469E-13
 -1      4055 1.97907E+01-1.57215E-01-4.68697E-03-1.15853E+00-8.13460E-14-2.96603E-13
 -1      4056 2.03988E+01 2.49237E-01 3.57950E-04 2.85610E-02-6.93123E-14-1.17889E-13
 -1      4057 2.02462E+01-5.56144E-02 1.85077E-04 5.12035E-02 5.29075E-14-1.60220E-13
 -1      4058 2.02213E+01-6.02341E-02 4.27663E-04 5.26364E-02 6.76251E-14-1.32999E-13
 -1      4059 2.01941E+01-6.06501E-02 9.96550E-05 5.17246E-02 6.15028E-14-1.86381E-13
 -1      4060 2.01703E+01-5.64307E-02 4.53099E-04 5.26534E-02 3.21576E-14-1.02533E-13
 -1      4061 2.02138E+01-6.12178E-02-9.33467E-04 2.92995E-02 3.54643E-14-1.64137E-13
 -1      4062 2.01436E+01-4.96000E-02-4.24069E-05 5.25662E-02 2.28122E-14-1.18862E-13
 -1      4063 2.01207E+01-3.93149E-02 3.47277E-04 5.39432E-02-6.14210E-15-1.30025E-13
 -1      4064 2.01617E+01-5.29578E-02-5.59238E-04 3.08959E-02 3.06332E-14-1.32423E-13
 -1      4065 2.00951E+01-2.73276E-02-1.14415E-04 5.58737E-02-3.40260E-14-1.31381E-13
 -1      4066 2.00738E+01-1.32835E-02 4.21860E-04 5.88623E-02 2.58891E-15-1.32180E-13
 -1      4067 2.01104E+01-3.14966E-02-2.53911E-04 3.43188E-02 2.18752E-15-1.40233E-13
 -1      4068 2.00481E+01 1.65914E-03-2.93619E-04 6.31475E-02 2.06088E-14-9.78422E-14
 -1      4069 2.00287E+01 1.79607E-02 6.50888E-04 6.91013E-02-1.08704E-14-1.00152E-13
 -1      4070 2.00608E+01-1.94216E-03-1.12706E-04 4.09207E-02 2.48293E-14-1.09025E-13
 -1      4071 2.00022E+01 3.39485E-02-5.30937E-04 7.68306E-02-4.41661E-15-8.68034E-14
 -1      4072 1.99846E+01 5.09381E-02 8.87884E-04 8.71563E-02 1.64809E-14-5.59355E-14
 -1      4073 2.00113E+01 3.20500E-02-2.57514E-04 5.34390E-02 2.53812E-14-1.20616E-13
 -1      4074 1.99575E+01 6.60445E-02-7.45319E-04 1.00454E-01 1.87104E-14-4.84020E-14
 -1      4075 1.99427E+01 8.14719E-02 1.25857E-03 1.16811E-01 6.57453E-14-3.47252E-14
 -1      4076 1.99612E+01 6.86673E-02-3.62213E-04 7.52291E-02 3.08909E-14-1.48431E-13
 -1      4077 1.99149E+01 9.32292E-02-9.69387E-04 1.37957E-01 9.01513E-14-3.03453E-14
 -1      4078 1.99047E+01 1.04268E-01 1.83535E-03 1.62556E-01 1.14037E-13-4.99785E-14
 -1      4079 1.99108E+01 1.02889E-01-6.42948E-04 1.10259E-01 1.09247E-13-1.83807E-13
 -1      4080 1.98773E+01 1.09132E-01-1.15581E-03 1.94690E-01 8.53326E-14-1.62468E-14
 -1      4081 1.98753E+01 1.11688E-01 2.66963E-03 2.30158E-01-1.41922E-14 3.04406E-15
 -1      4082 1.98608E+01 1.28997E-01-1.32454E-03 1.64503E-01 9.03659E-14-1.64757E-13
 -1      4083 1.98510E+01 1.04628E-01-1.20836E-03 2.77245E-01-4.71088E-14 7.26272E-14
 -1      4084 1.98630E+01 9.27082E-02 3.81750E-03 3.26417E-01-3.69022E-14 6.10948E-14
 -1      4085 1.98150E+01 1.38737E-01-2.58631E-03 2.45704E-01 4.17034E-14-1.41067E-13
 -1      4086 1.98476E+01 6.65482E-02-9.64809E-04 3.92887E-01-4.79806E-14 1.48274E-13
 -1      4087 1.98825E+01 3.16562E-02 5.24737E-03 4.58086E-01-7.62542E-14 9.56922E-14
 -1      4088 1.97814E+01 1.19421E-01-4.77834E-03 3.63335E-01-2.89931E-14-7.87402E-16
 -1      4089 1.98868E+01-2.31041E-02-8.71786E-05 5.47852E-01-7.76361E-14 7.75576E-14
 -1      4090 1.99576E+01-9.23004E-02 6.86257E-03 6.29569E-01-4.73210E-14 9.39380E-14
 -1      4091 1.97750E+01 5.25726E-02-8.35823E-03 5.27610E-01-8.15857E-14 1.17114E-13
 -1      4092 1.99995E+01-1.88218E-01 1.71634E-03 7.43803E-01-1.25433E-14 5.81766E-14
 -1      4093 2.01245E+01-3.04461E-01 8.82669E-03 8.36964E-01 5.49173E-14 4.68941E-14
 -1      4094 1.98231E+01-8.61587E-02-1.32081E-02 7.47267E-01-2.07604E-14 7.61282E-14
 -1      4095 2.02296E+01-4.62851E-01 2.84726E-03 9.73373E-01 4.96112E-14 3.52100E-15
 -1      4096 2.04326E+01-6.34244E-01 9.27371E-03 1.05640E+00 3.35374E-14 3.61678E-14
 -1      4097 1.99701E+01-3.16502E-01-1.45914E-02 1.02698E+00 4.30919E-14 7.75469E-14
 -1      4098 2.06396E+01-8.57113E-01 5.18574E-03 1.20785E+00 5.72366E-14 1.50574E-13
 -1      4099 2.09568E+01-1.09261E+00 1.01675E-02 1.25428E+00 1.47064E-14 2.12696E-13
 -1      4100 2.02789E+01-6.59306E-01-4.77890E-03 1.35646E+00 9.81769E-14 4.43865E-14
 -1      4101 1.76247E+01 8.32173E-01-1.26613E-02-1.68192E+00 1.16366E-13-4.19447E-13
 -1      4102 1.87793E+01 9.16583E-02-8.56575E-03-1.94471E+00 1.06092E-14-3.31146E-13
 -1      4103 1.95787E+01-5.48950E-01-2.26733E-02-2.12232E+00 1.66800E-13-1.82966E-13
 -1      4104 2.03850E+01 8.00744E-01-1.22512E-03-6.29135E-02-3.41264E-14-1.49209E-13
 -1      4105 2.10209E+01-1.15769E+00 1.13018E-03-1.29245E+00 1.66979E-13 4.77247E-14
 -1      4106 2.07439E+01-8.84994E-01 1.57439E-02-1.23034E+00 1.83786E-13 1.10707E-13
 -1      4107 2.05443E+01-7.23230E-01 4.77718E-03-1.14299E+00 3.90796E-14-1.92158E-14
 -1      4108 2.03484E+01-5.21957E-01 6.70193E-03-1.05034E+00-9.90093E-14-1.87412E-13
 -1      4109 2.00998E+01-4.15204E-01-6.75273E-03-1.18969E+00 2.81970E-14-3.57923E-13
 -1      4110 2.03971E+01-7.90214E-01-1.97772E-02-1.41649E+00 7.37372E-14-4.56886E-13
 -1      4111 1.89563E+01 2.66548E-01 1.51198E-02-1.53374E+00 1.72611E-13-3.63055E-13
 -1      4112 1.86176E+01 4.37679E-01-1.45479E-02 1.43718E+00 1.05692E-14-1.17744E-13
 -1      4113 1.88566E+01 5.10590E-01 1.39283E-02 1.13530E+00-2.11853E-15-9.83241E-14
 -1      4114 1.88894E+01 5.30179E-01-1.14775E-02 8.94988E-01-6.48227E-14-1.13340E-13
 -1      4115 1.90861E+01 5.43684E-01 8.54486E-03 6.95732E-01-3.45100E-14-1.22525E-13
 -1      4116 1.91236E+01 2.76404E-01-1.12702E-02 1.12623E+00-9.40480E-15 6.27243E-14
 -1      4117 2.15740E+01-1.55090E+00 1.61287E-02-1.40887E+00 2.13894E-13 1.01481E-16
 -1      4118 2.04190E+01 3.00728E-01 5.97863E-04 1.02483E-02-9.15861E-14-1.25191E-13
 -1      4119 2.04060E+01 2.10309E-01-2.87153E-04 2.79067E-02-9.05349E-14-1.65007E-13
 -1      4120 1.95444E+01 3.84940E-01-4.68729E-03 1.42527E-01 1.40715E-13-1.93934E-13
 -1      4121 1.96344E+01 3.46516E-01 1.65688E-03 9.64207E-02 1.07191E-13-1.41644E-13
 -1      4122 2.04195E+01 5.40379E-01-3.61426E-04-2.20921E-02-5.54481E-14-1.45534E-13
 -1      4123 2.04195E+01 4.09173E-01-1.22876E-03 3.01628E-03-7.35838E-14-1.48423E-13
 -1      4124 2.04270E+01 3.71484E-01 2.43822E-05 2.57855E-03-7.51401E-14-1.71370E-13
 -1      4125 2.03683E+01 6.28843E-01-5.85426E-04 7.86401E-02 3.01350E-14-1.18870E-13
 -1      4126 2.03897E+01 5.16425E-01 2.09254E-03 3.34911E-02 3.42605E-14-1.13665E-13
 -1      4127 2.03483E+01 3.26884E-02 2.23099E-04 4.32908E-02-1.98111E-16-1.43885E-13
 -1      4128 2.03247E+01-1.78996E-03 2.60513E-04 4.95995E-02 1.65828E-14-1.11859E-13
 -1      4129 1.84362E+01 1.44348E-01 1.59711E-03 2.23039E+00 2.05449E-13-1.60950E-13
 -1      4130 1.86705E+01 3.27198E-01 2.52294E-02 1.75573E+00 7.87799E-14-1.94893E-13
 -1      4131 1.90421E+01 5.87191E-02-5.66716E-03 1.71314E+00 1.06074E-13-7.28918E-14
 -1      4132 2.16479E+01-1.58418E+00 1.17317E-02 1.36102E+00 7.37279E-14 2.53490E-13
 -1      4133 2.12601E+01-1.73632E+00-1.29618E-02 2.17051E+00-6.48016E-14 1.49449E-13
 -1      4134 2.05861E+01-1.28471E+00 4.11933E-03 2.24937E+00-8.38806E-14 1.48861E-13
 -1      4135 2.12050E+01-1.30952E+00 1.31856E-02 1.38530E+00-2.86984E-14 2.73725E-13
 -1      4136 2.01670E+01-5.28471E-02 2.22274E-04-7.02937E-02-1.68415E-14-1.11266E-13
 -1      4137 2.01910E+01-5.73384E-02 2.92813E-04-7.08721E-02 3.51893E-15-1.12068E-13
 -1      4138 2.04040E+01 4.89806E-01 1.01213E-03 1.97587E-02 1.77234E-14-8.28611E-14
 -1      4139 2.03625E+01 8.66873E-02-5.24115E-04-5.82744E-02-1.64332E-14-7.67000E-14
 -1      4140 2.03846E+01 1.48447E-01 9.31001E-04-4.37469E-02-1.22514E-14-7.25760E-14
 -1      4141 1.91454E+01 5.23691E-01-8.89840E-03 5.28032E-01 6.81011E-14-1.31875E-13
 -1      4142 1.93053E+01 5.03353E-01 5.36004E-03 3.98111E-01 9.36876E-14-1.48399E-13
 -1      4143 1.92629E+01 3.72862E-01-7.13489E-03 7.16795E-01 2.40092E-14-5.45548E-14
 -1      4144 2.02985E+01-2.75467E-02 2.30977E-04 4.91139E-02-4.91347E-16-1.56806E-13
 -1      4145 2.02735E+01-4.46618E-02 3.74443E-04 5.22674E-02 1.94591E-14-1.46865E-13
 -1      4146 2.03201E+01-1.31447E-02-1.08519E-03 2.65642E-02-2.40439E-14-1.78616E-13
 -1      4147 2.03905E+01 1.36949E-01 1.44911E-04 3.11881E-02-4.35840E-14-1.64261E-13
 -1      4148 2.03709E+01 7.88464E-02 6.62442E-05 4.23413E-02-2.47775E-14-1.71485E-13
 -1      4149 2.04072E+01 1.83667E-01-5.97044E-04 1.49650E-02-5.72665E-14-1.55078E-13
 -1      4150 1.93669E+01 4.63472E-01-6.64818E-03 2.90022E-01 1.13666E-13-1.80548E-13
 -1      4151 1.94867E+01 4.29532E-01 3.01595E-03 2.12305E-01 1.25379E-13-1.75373E-13
 -1      4152 1.94196E+01 3.81535E-01-3.50375E-03 4.35279E-01 1.05319E-13-1.18623E-13
 -1      4153 2.03276E+01-9.02087E-01 1.75052E-02-1.96445E+00 1.41565E-13-4.33409E-13
 -1      4154 2.10610E+01-1.40572E+00-2.31321E-02-1.70838E+00 2.60716E-13-3.65431E-13
 -1      4155 1.89024E+01-3.68556E-01 1.19771E-02 2.66256E+00 2.18723E-13-6.27393E-14
 -1      4156 1.98818E+01 1.56083E-01-1.24647E-03-2.94133E-02 3.40048E-14-1.10630E-13
 -1      4157 1.99212E+01 1.24584E-01 1.23450E-04-3.69952E-02 5.89194E-14-1.34520E-13
 -1      4158 2.00328E+01 2.38847E-02 3.44436E-05-1.01459E-01 3.84735E-14 9.46667E-15
 -1      4159 2.00528E+01 3.33731E-03-2.35804E-04-1.01776E-01 2.22178E-14 8.47507E-15
 -1      4160 2.00230E+01 3.51154E-02 1.46956E-04-8.01583E-02 3.89031E-14-8.43691E-14
 -1      4161 1.97952E+01 2.25416E-01-2.06527E-03 2.22403E-04 7.78142E-14-1.12657E-13
 -1      4162 1.98455E+01 1.90818E-01 3.88495E-04-1.39605E-02 4.13501E-14-1.07135E-13
 -1      4163 1.98696E+01 1.61424E-01 1.06701E-04 1.38201E-02 2.31046E-14-9.21029E-14
 -1      4164 1.94622E+01-6.70511E-01-2.75663E-02 2.43416E+00 7.92944E-14-4.58375E-14
 -1      4165 2.03182E+01 3.59928E-03-1.50914E-04-6.94270E-02-4.80164E-14-4.19021E-14
 -1      4166 2.03429E+01 4.01416E-02 7.64656E-04-6.15317E-02-2.69679E-14-5.16691E-14
 -1      4167 2.03668E+01 7.09324E-02-9.84668E-04-4.15916E-02-5.24905E-14-5.47960E-14
 -1      4168 1.95618E+01 3.44595E-01-1.53602E-03 2.51006E-01 1.19705E-13-1.76127E-13
 -1      4169 2.02134E+01-5.93866E-02-1.13677E-03-5.08170E-02 2.77201E-14-1.26928E-13
 -1      4170 2.02170E+01-5.75133E-02 2.22421E-04-7.30391E-02 2.87222E-14-1.25927E-13
 -1      4171 2.02418E+01-5.24835E-02 4.40515E-04-7.21846E-02 1.43732E-14-9.17977E-14
 -1      4172 2.00729E+01-6.51758E-03 2.28054E-05-8.44395E-02 2.81582E-14-1.50270E-14
 -1      4173 2.03839E+01 8.65285E-01-2.27315E-03-4.36450E-02-1.94407E-14-2.05252E-13
 -1      4174 2.04141E+01 6.61817E-01 1.84305E-03-2.54563E-02-3.62463E-14-1.53981E-13
 -1      4175 2.04212E+01 6.04014E-01 7.35990E-04-1.09135E-02-3.86290E-14-2.10625E-13
 -1      4176 2.03883E+01 8.53467E-01-2.27015E-03-6.68253E-03-1.19911E-14-2.33914E-13
 -1      4177 1.99238E+01-2.82057E-01 8.05238E-03-1.28334E+00-2.09580E-14-3.90494E-13
 -1      4178 1.99527E+01 9.46888E-02-7.40261E-04-4.61785E-02 6.21853E-14-1.76355E-13
 -1      4179 1.99834E+01 6.79902E-02-8.92119E-05-4.98441E-02 3.69415E-14-1.38223E-13
 -1      4180 1.99397E+01 1.03698E-01 6.36938E-05-1.24730E-02 3.08022E-14-1.30564E-13
 -1      4181 2.02673E+01-5.04187E-02-1.07962E-03 2.83171E-02 1.15732E-14-2.16861E-13
 -1      4182 1.96836E+01 2.87751E-01-4.91406E-04 1.32598E-01 1.03102E-13-1.76798E-13
 -1      4183 1.96847E+01 3.03050E-01-3.19021E-03 5.29406E-02 9.52536E-14-6.24136E-14
 -1      4184 1.97519E+01 2.65410E-01 8.55117E-04 2.67429E-02 1.25782E-13-9.37343E-14
 -1      4185 2.03959E+01 2.23690E-01-1.10904E-03-3.56849E-02 4.83026E-16-1.03677E-13
 -1      4186 2.04093E+01 3.17545E-01-3.11604E-04-1.22843E-02 1.14083E-14-1.04791E-13
 -1      4187 2.04043E+01 2.00977E-01-3.27883E-04-2.66916E-02-2.31366E-14-7.44007E-14
 -1      4188 2.00480E+01-5.60775E-01 1.34341E-02-1.68624E+00 1.22814E-13-4.17430E-13
 -1      4189 2.02622E+01-3.31590E-02-4.38943E-04-9.36912E-02-3.40694E-14-8.86890E-14
 -1      4190 2.03687E+01 6.06464E-02-9.19037E-04 2.26380E-02 6.43017E-15-1.32709E-13
 -1      4191 2.01175E+01-3.27678E-02 1.53409E-04-6.63062E-02-5.36741E-14-1.08651E-13
 -1      4192 2.01412E+01-4.44597E-02 2.06542E-04-6.75634E-02-2.84407E-14-1.29648E-13
 -1      4193 2.01617E+01-5.11829E-02-8.35201E-04-4.81881E-02-6.17578E-15-1.25403E-13
 -1      4194 1.90434E+01 2.67523E-01-1.27808E-02-1.29978E+00 1.86829E-13-3.29933E-13
 -1      4195 1.94919E+01-9.37724E-02 1.03244E-03-1.51165E+00 1.01315E-13-3.82763E-13
 -1      4196 2.07457E+01-1.16999E+00-1.71542E-02 1.66746E+00 2.21025E-14 2.93302E-13
 -1      4197 2.04167E+01 4.06366E-01 1.12394E-03-2.85455E-03 8.35815E-15-1.11808E-13
 -1      4198 2.04155E+01 5.35732E-01-1.77409E-03 2.09257E-02 1.36753E-14-1.52342E-13
 -1      4199 2.04233E+01 5.60463E-01-1.30264E-04 1.11603E-02 3.20600E-15-1.89827E-13
 -1      4200 2.04248E+01 3.67447E-01 1.75902E-05-4.65338E-03 3.24834E-15-1.41595E-13
 -1      4201 1.92528E+01 3.16177E-01 2.59324E-03-1.02844E+00 1.73025E-13-2.37928E-13
 -1      4202 2.04182E+01 6.98421E-01 2.22950E-03 1.48195E-03-3.76524E-14-2.01642E-13
 -1      4203 2.01664E+01-5.10819E-02 3.21822E-04-7.97495E-03-1.15879E-15-1.04398E-13
 -1      4204 2.01397E+01-4.20469E-02 4.15630E-04-6.50134E-03-3.43726E-14-1.54954E-13
 -1      4205 2.00721E+01-7.23909E-03-2.44190E-04 1.59072E-02 2.37692E-14-1.64655E-13
 -1      4206 2.00479E+01 1.01763E-02 3.14008E-04 2.07295E-02 5.08459E-14-1.35037E-13
 -1      4207 2.00046E+01 4.39737E-02-1.40382E-04 1.29182E-02 3.01906E-14-1.23853E-13
 -1      4208 1.99797E+01 6.53334E-02 6.36646E-04 2.12668E-02 1.56247E-14-1.57211E-13
 -1      4209 1.99469E+01 8.97001E-02-2.21069E-04 3.20948E-02 2.99153E-14-1.48158E-13
 -1      4210 1.99223E+01 1.11658E-01 9.54604E-04 4.52467E-02 4.10624E-14-9.67604E-14
 -1      4211 1.98841E+01 1.37782E-01-2.82133E-04 6.35318E-02 8.23723E-14-1.26182E-13
 -1      4212 1.98600E+01 1.59067E-01 1.54513E-03 8.44148E-02 1.24256E-13-1.63714E-13
 -1      4213 1.98141E+01 1.85718E-01-1.83996E-04 1.14933E-01 1.09497E-13-1.47274E-13
 -1      4214 1.97920E+01 2.03427E-01 2.53098E-03 1.47249E-01 1.06050E-13-1.68435E-13
 -1      4215 1.97383E+01 2.27250E-01 2.22900E-04 1.95639E-01 1.00044E-13-2.06216E-13
 -1      4216 1.97214E+01 2.36728E-01 4.06661E-03 2.44077E-01 4.84867E-14-1.51819E-13
 -1      4217 1.96593E+01 2.53243E-01 1.11526E-03 3.19204E-01 8.33836E-14-1.63761E-13
 -1      4218 1.96540E+01 2.47150E-01 6.34930E-03 3.89594E-01 6.24773E-14-3.25864E-14
 -1      4219 1.95862E+01 2.48223E-01 2.81618E-03 5.02533E-01-4.57280E-14 1.28983E-14
 -1      4220 1.96033E+01 2.14932E-01 9.44348E-03 6.01240E-01-2.95165E-14 3.35153E-14
 -1      4221 1.95371E+01 1.85131E-01 5.36367E-03 7.68201E-01-2.85817E-15 4.39492E-15
 -1      4222 1.95922E+01 1.07488E-01 1.27525E-02 9.01234E-01 3.12957E-14 3.38260E-14
 -1      4223 1.95487E+01 1.74705E-02 5.93569E-03 1.12329E+00-3.66937E-15 2.55646E-14
 -1      4224 1.96256E+01-1.31922E-01 5.38140E-03 1.31312E+00 6.42457E-14 3.85366E-14
 -1      4225 1.97948E+01-3.33518E-01 9.28296E-03 1.51786E+00 1.02766E-13-6.64627E-15
 -1      4226 1.98471E+01-3.77467E-01 2.52003E-03-1.55794E+00 1.33037E-13-4.28686E-13
 -1      4227 2.00453E+01-7.56148E-01 9.96037E-03 2.01966E+00 4.62759E-14 1.69539E-14
 -1      4228 2.04332E+01 4.74697E-01 1.43566E-03-3.52770E-03-1.74826E-14-1.70324E-13
 -1      4229 2.04290E+01 3.54585E-01-8.15256E-04 1.67045E-03-3.79306E-14-1.40989E-13
 -1      4230 2.04248E+01 5.76990E-01-6.33106E-04 9.01571E-04-2.84263E-14-2.05760E-13
 -1      4231 2.00268E+01 3.07556E-02-2.77598E-04-4.07007E-02 6.43613E-14-1.39179E-13
 -1      4232 2.00534E+01 9.28785E-03 2.37881E-05-4.35321E-02 5.40331E-14-1.14172E-13
 -1      4233 2.02204E+01-5.87764E-02 6.06059E-04-9.78488E-03 3.85124E-14-1.38638E-13
 -1      4234 2.01931E+01-5.75249E-02 7.03692E-04-8.85525E-03 5.53820E-14-1.36213E-13
 -1      4235 2.02747E+01-4.74937E-02 6.52727E-04-1.08041E-02-1.66897E-14-1.32404E-13
 -1      4236 2.02473E+01-5.67030E-02 8.98216E-04-9.88393E-03 8.50775E-15-1.58377E-13
 -1      4237 2.04126E+01 1.90713E-01-2.66287E-04-9.04521E-03-5.98618E-14-9.67163E-14
 -1      4238 2.03975E+01 1.20710E-01 1.09220E-03-5.17053E-03-3.64712E-14-9.33545E-14
 -1      4239 2.02679E+01-4.15963E-02 8.49865E-05-7.34650E-02-3.63592E-15-8.39713E-14
 -1      4240 2.02939E+01-2.28439E-02 5.95759E-04-6.99138E-02-2.43678E-14-2.68919E-14
 -1      4241 2.03190E+01-7.13472E-03-1.20962E-03-4.89898E-02-5.72541E-14-7.21182E-14
 -1      4242 2.02665E+01-4.73809E-02-1.24678E-03-5.14911E-02-3.42125E-15-7.00311E-14
 -1      4243 1.98164E+01-5.52026E-01-5.61007E-03 1.83465E+00 1.22215E-13-1.62101E-14
 -1      4244 2.03761E+01 6.63356E-02 3.04052E-04-1.05834E-02-3.82344E-14-1.07821E-13
 -1      4245 2.03537E+01 2.25588E-02 1.08744E-03-8.25840E-03-3.68423E-14-1.23965E-13
 -1      4246 2.00155E+01 3.96309E-02 1.31894E-04-1.33703E-02 3.68662E-14-1.49062E-13
 -1      4247 2.01248E+01-3.61493E-02 7.84797E-05 1.07173E-02-5.27907E-15-1.81695E-13
 -1      4248 2.00993E+01-2.28904E-02 2.46279E-04 1.29713E-02-1.48042E-14-1.67869E-13
 -1      4249 2.00841E+01-1.19159E-02-9.02737E-05-8.22113E-03 1.88346E-14-2.03309E-13
 -1      4250 2.03280E+01-9.20273E-03 5.60697E-04-1.11228E-02-2.70782E-14-1.24372E-13
 -1      4251 2.03019E+01-3.29953E-02 1.02408E-03-9.72221E-03-4.95053E-14-1.61332E-13
 -1      4252 2.00666E+01-7.61510E-05-2.08639E-05-6.14877E-02 1.50939E-14-5.42907E-14
 -1      4253 2.00912E+01-1.81746E-02-2.05809E-05-6.35408E-02 8.84388E-15-7.86384E-14
 -1      4254 1.97855E+01 2.24138E-01-2.29982E-05 5.85639E-02 1.15616E-13-1.56475E-13
 -1      4255 2.04267E+01 2.78601E-01 1.46155E-03-3.30287E-03-4.03506E-14-1.18790E-13
 -1      4256 2.01099E+01-2.70099E-02-1.58348E-04-4.34670E-02-5.29888E-14-1.82083E-13
 -1      4257 2.01241E+01-3.53526E-02-2.90593E-04-2.88156E-02-9.83743E-14-1.66949E-13
 -1      4258 2.00977E+01-2.02809E-02-4.97722E-07-2.63606E-02-1.76754E-14-1.77084E-13
 -1      4259 2.00717E+01-3.04667E-03 1.76412E-04-2.29288E-02 5.75677E-14-1.21068E-13
 -3
    1PSTEP                         3           1           1          
  100CL  101 1.000000000        4259                     0    1           1
 -4  TOSTRAIN    6    1
 -5  EXX         1    4    1    1
 -5  EYY         1    4    2    2
 -5  EZZ         1    4    3    3
 -5  EXY         1    4    1    2
 -5  EYZ         1    4    2    3
 -5  EZX         1    4    3    1
 -1         1 9.33207E-06 1.52145E-05-1.42569E-05 2.19440E-05-4.85011E-18-4.26735E-18
 -1         2 4.10014E-05-1.24536E-04 2.33990E-05-9.35240E-07 5.34700E-18 1.28749E-18
 -1         3 9.51877E-05-2.86198E-05-2.84661E-05-4.53857E-08 5.47448E-18 4.82596E-18
 -1         4 9.52256E-05-2.85828E-05-2.85453E-05 9.97261E-09 1.12560E-18-2.57038E-19
 -1         5 1.43335E-04-2.14767E-05-4.25247E-05 3.85293E-05-9.98440E-20 7.25346E-18
 -1         6 1.45397E-04 2.57548E-10-4.41837E-05-5.35236E-05-4.59198E-19 6.40526E-18
 -1         7 9.06022E-05-5.10994E-07-3.90655E-05-2.92518E-05-8.33269E-20 7.92029E-19
 -1         8 8.51218E-05 8.64282E-08-3.63375E-05-2.02718E-05-7.08331E-20-9.22260E-19
 -1         9 8.28148E-05 7.59729E-08-3.53506E-05-1.56401E-05-7.10846E-20-1.83858E-18
 -1        10 8.17724E-05 3.96332E-08-3.48820E-05-1.20785E-05-3.91554E-20-2.28088E-18
 -1        11 8.12556E-05 1.92320E-08-3.46541E-05-9.01437E-06-4.74471E-20-2.44715E-18
 -1        12 8.09874E-05 9.07586E-09-3.45400E-05-6.28429E-06 3.44934E-21-2.51684E-18
 -1        13 8.08463E-05 4.53652E-09-3.44825E-05-3.68542E-06-7.40658E-21-2.51820E-18
 -1        14 8.07873E-05 2.69769E-09-3.44591E-05-1.18368E-06 7.54099E-21-2.44604E-18
 -1        15 8.07894E-05 2.68310E-09-3.44598E-05 1.28870E-06 2.99679E-20-2.35755E-18
 -1        16 8.08527E-05 4.46753E-09-3.44848E-05 3.79564E-06 4.14839E-20-2.28259E-18
 -1        17 8.09989E-05 8.34824E-09-3.45438E-05 6.40661E-06 2.90092E-20-2.18126E-18
 -1        18 8.12729E-05 1.81134E-08-3.46592E-05 9.15581E-06 5.36542E-20-1.94344E-18
 -1        19 8.17982E-05 3.81416E-08-3.48904E-05 1.22582E-05 5.37138E-20-1.55676E-18
 -1        20 8.28351E-05 8.14820E-08-3.53630E-05 1.58710E-05 9.53839E-20-9.60937E-19
 -1        21 8.50869E-05 1.69444E-07-3.63759E-05 2.04827E-05 1.00347E-19 1.72399E-19
 -1        22 9.16392E-05-9.95773E-08-3.87371E-05 2.79989E-05 2.46698E-20 2.39519E-18
 -1        23 1.12967E-04-3.81238E-05-3.53947E-05-4.40231E-06-3.06149E-19 4.75016E-18
 -1        24 9.28005E-05-2.76959E-05-2.89979E-05 3.91230E-07-4.10579E-20 3.39638E-18
 -1        25 8.91165E-05-2.68512E-05-2.69285E-05 3.75745E-07-6.87470E-20 2.12405E-18
 -1        26 8.80147E-05-2.64881E-05-2.63915E-05 2.04106E-07-2.16076E-20 1.04932E-18
 -1        27 8.80436E-05-2.64672E-05-2.63843E-05 1.39851E-07-3.06040E-20 7.89541E-19
 -1        28 8.85802E-05-2.66045E-05-2.65547E-05 1.00776E-07-4.95589E-20 4.02923E-19
 -1        29 8.93392E-05-2.68184E-05-2.67886E-05 7.50795E-08 1.49142E-20-2.86294E-19
 -1        30 9.01700E-05-2.70600E-05-2.70405E-05 5.67838E-08-7.39111E-20-5.66953E-19
 -1        31 9.09889E-05-2.73013E-05-2.72876E-05 4.30460E-08-1.74336E-20-1.22117E-18
 -1        32 9.17505E-05-2.75272E-05-2.75172E-05 3.24481E-08-2.72781E-19-2.42339E-18
 -1        33 9.24332E-05-2.77305E-05-2.77231E-05 2.42092E-08 1.60146E-19-2.88674E-18
 -1        34 9.30312E-05-2.79090E-05-2.79037E-05 1.78506E-08-1.21613E-20-2.68884E-18
 -1        35 9.35486E-05-2.80639E-05-2.80601E-05 1.30547E-08 1.79567E-19-2.76047E-18
 -1        36 9.39962E-05-2.81981E-05-2.81955E-05 9.60205E-09-1.60451E-19-2.29713E-18
 -1        37 9.43883E-05-2.83157E-05-2.83143E-05 7.34004E-09-1.46479E-19-2.75364E-18
 -1        38 9.47410E-05-2.84217E-05-2.84212E-05 6.16262E-09-2.52536E-19-3.69219E-18
 -1        39 9.50699E-05-2.85204E-05-2.85208E-05 5.98723E-09-1.60572E-19-4.77577E-18
 -1        40 9.53882E-05-2.86158E-05-2.86170E-05 6.72038E-09 1.84069E-19-5.22319E-18
 -1        41 9.57032E-05-2.87099E-05-2.87118E-05 8.20288E-09 1.06366E-19-5.37120E-18
 -1        42 9.60132E-05-2.88021E-05-2.88044E-05 1.01271E-08-2.79970E-19-6.11836E-18
 -1        43 9.63019E-05-2.88876E-05-2.88895E-05 1.19227E-08 6.29335E-21-6.26933E-18
 -1        44 9.65329E-05-2.89552E-05-2.89558E-05 1.26207E-08 1.98910E-19-4.30364E-18
 -1        45 9.66428E-05-2.89860E-05-2.89838E-05 1.07299E-08-4.57758E-19-3.97273E-18
 -1        46 9.65370E-05-2.89520E-05-2.89448E-05 4.20674E-09-6.99325E-20-5.81644E-18
 -1        47 9.60900E-05-2.88158E-05-2.88017E-05-9.34602E-09 2.47933E-19-4.20293E-18
 -1        48 9.51560E-05-2.85344E-05-2.85119E-05-3.20698E-08-3.84628E-19-3.40955E-18
 -1        49 9.35945E-05-2.80663E-05-2.80359E-05-6.46939E-08 1.08944E-19-4.05125E-18
 -1        50 9.13143E-05-2.73848E-05-2.73503E-05-1.04927E-07 2.80226E-19-3.78055E-18
 -1        51 8.83327E-05-2.64952E-05-2.64645E-05-1.45976E-07-2.64193E-19-3.48348E-18
 -1        52 8.48324E-05-2.54521E-05-2.54359E-05-1.76364E-07-6.91152E-20-2.09036E-18
 -1        53 8.11888E-05-2.43668E-05-2.43755E-05-1.82400E-07-1.20748E-21-1.92970E-18
 -1        54 7.79348E-05-2.33979E-05-2.34359E-05-1.53693E-07-4.88814E-20-3.22653E-18
 -1        55 7.56472E-05-2.27168E-05-2.27791E-05-8.97228E-08-6.01768E-19-4.18141E-18
 -1        56 7.47801E-05-2.24586E-05-2.25307E-05-3.07481E-09-4.53458E-19-4.99334E-18
 -1        57 7.55124E-05-2.26765E-05-2.27399E-05 8.42284E-08 2.40634E-19-3.89265E-18
 -1        58 7.76836E-05-2.33229E-05-2.33626E-05 1.49979E-07-3.17122E-19-3.08058E-18
 -1        59 8.08518E-05-2.42661E-05-2.42764E-05 1.80935E-07-2.53899E-19-3.65658E-18
 -1        60 8.44411E-05-2.53350E-05-2.53199E-05 1.76699E-07-1.06826E-19-2.52216E-18
 -1        61 8.79091E-05-2.63683E-05-2.63378E-05 1.47050E-07-1.26303E-19-3.70005E-18
 -1        62 9.08655E-05-2.72502E-05-2.72150E-05 1.05624E-07-2.67987E-19-3.13290E-18
 -1        63 9.31137E-05-2.79221E-05-2.78904E-05 6.42134E-08-6.57669E-19-5.18960E-18
 -1        64 9.46276E-05-2.83760E-05-2.83519E-05 3.00082E-08 2.71766E-19-6.11507E-18
 -1        65 9.54965E-05-2.86380E-05-2.86224E-05 5.64417E-09 6.94180E-20-3.35104E-18
 -1        66 9.58662E-05-2.87513E-05-2.87430E-05-9.30135E-09-1.21474E-19-1.70970E-18
 -1        67 9.58959E-05-2.87630E-05-2.87604E-05-1.65999E-08-2.64474E-19-1.88953E-18
 -1        68 9.57326E-05-2.87164E-05-2.87184E-05-1.80537E-08 4.39986E-20-2.12245E-18
 -1        69 9.55015E-05-2.86489E-05-2.86550E-05-1.46390E-08 1.90865E-19-2.70885E-18
 -1        70 9.53056E-05-2.85907E-05-2.85997E-05-5.00751E-09-3.14182E-19-1.39145E-18
 -1        71 9.52184E-05-2.85629E-05-2.85682E-05 7.75549E-09-2.83250E-20-1.47733E-18
 -1        72 1.02171E-04-3.05852E-05-3.41478E-05-1.92875E-06 1.06964E-19 6.55254E-18
 -1        73 9.25564E-05-2.75118E-05-2.89061E-05-3.33171E-07 7.47110E-20 4.94847E-18
 -1        74 8.91036E-05-2.67006E-05-2.69715E-05-1.25858E-07 2.88397E-20 3.74697E-18
 -1        75 8.80438E-05-2.64385E-05-2.64353E-05-9.53028E-08 2.85377E-22 3.10526E-18
 -1        76 8.80789E-05-2.64478E-05-2.64112E-05-7.35225E-08-3.68509E-22 2.93760E-18
 -1        77 8.86431E-05-2.66069E-05-2.65806E-05-6.35234E-08 1.74136E-20 2.03009E-18
 -1        78 8.94070E-05-2.68304E-05-2.68118E-05-5.09716E-08-1.34492E-19 1.52950E-18
 -1        79 9.02329E-05-2.70749E-05-2.70604E-05-4.21113E-08 3.77851E-20 1.29173E-18
 -1        80 9.10424E-05-2.73159E-05-2.73037E-05-3.44127E-08 7.50707E-20 5.22512E-19
 -1        81 9.17934E-05-2.75403E-05-2.75293E-05-2.78062E-08 2.57523E-20-1.28473E-19
 -1        82 9.24908E-05-2.77487E-05-2.77395E-05-2.15193E-08-8.54140E-20-1.55345E-20
 -1        83 9.30681E-05-2.79216E-05-2.79137E-05-1.61651E-08 2.62046E-20 8.92640E-19
 -1        84 9.35639E-05-2.80702E-05-2.80636E-05-1.15847E-08 6.82420E-20-1.49379E-19
 -1        85 9.39907E-05-2.81983E-05-2.81929E-05-7.44943E-09-1.71111E-20-1.41156E-18
 -1        86 9.43668E-05-2.83115E-05-2.83070E-05-3.61727E-09-1.20852E-19-1.30158E-18
 -1        87 9.47318E-05-2.84214E-05-2.84182E-05 2.33339E-10 5.84121E-20-1.90077E-18
 -1        88 9.50829E-05-2.85276E-05-2.85254E-05 4.08428E-09-1.73512E-19-1.52663E-18
 -1        89 9.54768E-05-2.86469E-05-2.86460E-05 8.34358E-09-4.23263E-21-1.58740E-18
 -1        90 9.59669E-05-2.87957E-05-2.87965E-05 1.34644E-08 4.20332E-21-1.56811E-18
 -1        91 9.66288E-05-2.89973E-05-2.90003E-05 2.15644E-08 2.31146E-20-2.52267E-18
 -1        92 9.76358E-05-2.93012E-05-2.93122E-05 2.65077E-08 2.55386E-20-2.54070E-18
 -1        93 9.90734E-05-2.97370E-05-2.97585E-05 3.53704E-08 7.05804E-20-1.73160E-18
 -1        94 1.01249E-04-3.03932E-05-3.04374E-05 4.20971E-08-1.60341E-19-1.18906E-18
 -1        95 1.04580E-04-3.13924E-05-3.14814E-05 4.05582E-08 3.62330E-19-1.49880E-18
 -1        96 1.09685E-04-3.29141E-05-3.30876E-05 1.51400E-08 3.24437E-20-2.48562E-18
 -1        97 1.17454E-04-3.52211E-05-3.55273E-05-5.23282E-08-1.55588E-19-1.96080E-18
 -1        98 1.29603E-04-3.87949E-05-3.92838E-05-3.26348E-07 4.86437E-19-2.55931E-18
 -1        99 1.45861E-04-4.36169E-05-4.40917E-05-7.96552E-07-7.13084E-19-3.48485E-18
 -1       100 1.65551E-04-4.95575E-05-4.93829E-05-1.51643E-06 4.64330E-19-1.12322E-18
 -1       101 1.82464E-04-5.49581E-05-5.30267E-05-1.83527E-06 2.76596E-19-3.12771E-18
 -1       102 1.81974E-04-5.54585E-05-5.18664E-05 2.42967E-07-1.69936E-20-1.24630E-18
 -1       103 1.49499E-04-4.52941E-05-4.48374E-05 5.42888E-06 6.82373E-19 9.75782E-19
 -1       104 1.05760E-04-3.03053E-05-3.71329E-05 7.40268E-06-9.92220E-19 8.05401E-18
 -1       105 7.89507E-05-2.04282E-05-3.29985E-05 2.66385E-06-8.93646E-19 1.39815E-17
 -1       106 8.68441E-05-2.28640E-05-3.45015E-05-2.86296E-06 3.66898E-19 1.76626E-17
 -1       107 1.27191E-04-3.66197E-05-4.11086E-05-6.97036E-06-8.25142E-19 1.95557E-17
 -1       108 1.65206E-04-4.96616E-05-4.81224E-05-5.35854E-06 2.84636E-19 1.71410E-17
 -1       109 1.85316E-04-5.63808E-05-5.29254E-05-1.87774E-06 9.40557E-19 1.04776E-17
 -1       110 1.81854E-04-5.51121E-05-5.29430E-05 4.88175E-07 8.26297E-19 6.52639E-19
 -1       111 1.63765E-04-4.92574E-05-4.88754E-05 1.26043E-06-4.25174E-19-1.68544E-18
 -1       112 1.43206E-04-4.29033E-05-4.32906E-05 1.03865E-06 3.22750E-19 7.29454E-19
 -1       113 1.27483E-04-3.81722E-05-3.86351E-05 6.75647E-07-2.44012E-19 6.52552E-18
 -1       114 1.16254E-04-3.48283E-05-3.51692E-05 4.09432E-07-1.28230E-19 6.67578E-18
 -1       115 1.08623E-04-3.25643E-05-3.27750E-05 2.39869E-07 5.71514E-19 6.54705E-18
 -1       116 1.03520E-04-3.10477E-05-3.11712E-05 1.46133E-07-5.79926E-19 6.32173E-18
 -1       117 1.00006E-04-3.00009E-05-3.00682E-05 8.20098E-08 5.85892E-19 4.27829E-18
 -1       118 9.77930E-05-2.93404E-05-2.93812E-05 5.49937E-08 6.75962E-20 2.63252E-19
 -1       119 9.63393E-05-2.89039E-05-2.89362E-05 3.93960E-08-1.16098E-19 2.71992E-18
 -1       120 9.54780E-05-2.86431E-05-2.86753E-05 2.20609E-08 6.20971E-19 5.48015E-18
 -1       121 9.51623E-05-2.85341E-05-2.85572E-05-2.11270E-08-2.19889E-18 1.02848E-17
 -1       122 9.52541E-05-2.86208E-05-2.85594E-05-3.75231E-08 9.17873E-18-1.48408E-18
 -1       123 9.51594E-05-2.83093E-05-2.86787E-05 1.87536E-08 3.01618E-18-8.27314E-19
 -1       124 9.49351E-05-2.75591E-05-2.88888E-05 4.83918E-08-7.53323E-19 1.81842E-18
 -1       125 9.46645E-05-2.66521E-05-2.91422E-05 5.13631E-08-2.05319E-19 1.50805E-18
 -1       126 9.44253E-05-2.58494E-05-2.93702E-05 3.77818E-08 1.74339E-18-4.49283E-19
 -1       127 9.42733E-05-2.53369E-05-2.95191E-05 1.86099E-08 3.22390E-18 2.38439E-18
 -1       128 9.42245E-05-2.51745E-05-2.95695E-05-1.48180E-09 5.40536E-18-1.50793E-18
 -1       129 9.42776E-05-2.53546E-05-2.95214E-05-1.65742E-08 1.00164E-18-5.54116E-19
 -1       130 9.44066E-05-2.57907E-05-2.93980E-05-2.45923E-08 7.67770E-18 2.04985E-18
 -1       131 9.45775E-05-2.63668E-05-2.92319E-05-2.58784E-08 6.80862E-18-1.52118E-18
 -1       132 9.47572E-05-2.69720E-05-2.90550E-05-2.22821E-08-5.22787E-18-2.15544E-18
 -1       133 9.49187E-05-2.75154E-05-2.88943E-05-1.67180E-08-9.19587E-18 2.35211E-18
 -1       134 9.50536E-05-2.79674E-05-2.87594E-05-1.07477E-08-3.47930E-18 9.25987E-19
 -1       135 9.51528E-05-2.82998E-05-2.86600E-05-6.23763E-09-4.18742E-18-1.94268E-18
 -1       136 9.52158E-05-2.85046E-05-2.85976E-05-1.44256E-09-5.38992E-18-9.54101E-22
 -1       137 9.52347E-05-2.85783E-05-2.85674E-05 1.83084E-08-1.94031E-18 3.30505E-19
 -1       138 3.29985E-05-1.14210E-04 2.20006E-05-3.18783E-05 8.13872E-18 1.30993E-18
 -1       139 1.16107E-05-6.45984E-05 1.10439E-05-3.79690E-05 5.28167E-18 3.20454E-18
 -1       140 4.74589E-06-8.28641E-06-7.28842E-06-5.53408E-06 4.63327E-19 3.30343E-19
 -1       141 4.70724E-05 1.75383E-05-3.09948E-05 5.67137E-05-1.98290E-18-1.98121E-18
 -1       142 1.48519E-04-4.52743E-06-5.68795E-05 1.12258E-04-5.52604E-18-1.05269E-17
 -1       143 2.78336E-04-6.21290E-05-7.83530E-05 1.16147E-04-6.26466E-18-1.80096E-17
 -1       144 3.83004E-04-1.16886E-04-9.22806E-05 5.03799E-05-1.84330E-18-1.98405E-17
 -1       145 3.84911E-04-1.18147E-04-9.24409E-05-4.76632E-05 1.35364E-18-1.70825E-17
 -1       146 2.83522E-04-6.45235E-05-7.91546E-05-1.15859E-04 2.74439E-18-9.85184E-18
 -1       147 1.52891E-04-5.34195E-06-5.80460E-05-1.14332E-04 1.89354E-18-3.14080E-18
 -1       148 4.78076E-05 1.91121E-05-3.19408E-05-5.94040E-05-1.90074E-18 1.69322E-18
 -1       149 5.91226E-06-6.28579E-06-8.38543E-06 2.24749E-06-3.14630E-18 2.75243E-18
 -1       150 9.94282E-06-6.02259E-05 1.01303E-05 3.73165E-05-2.20525E-18 1.51217E-18
 -1       151 3.10298E-05-1.10312E-04 2.13227E-05 3.34310E-05-1.42323E-18 6.09520E-19
 -1       152 4.03052E-05-1.24520E-04 2.37028E-05 4.76827E-06-1.79476E-18-3.05620E-19
 -1       153 2.94117E-05-9.56394E-05 1.76037E-05-2.07461E-05-3.77438E-18-1.01527E-18
 -1       154 9.99667E-06-3.94741E-05 4.76185E-06-1.82085E-05-4.08524E-18-1.26928E-18
 -1       155 5.28289E-05 3.44647E-05-3.61209E-05 8.08135E-05-4.01748E-18-4.80141E-18
 -1       156 1.43227E-04 5.67455E-06-5.76340E-05 1.22375E-04-2.77848E-18-5.00046E-18
 -1       157 2.46266E-04-5.00558E-05-7.39749E-05 1.12215E-04-1.35409E-18-4.48207E-18
 -1       158 3.19734E-04-9.56542E-05-8.36334E-05 4.47398E-05-1.78274E-20-2.87832E-18
 -1       159 3.20711E-04-9.64282E-05-8.37348E-05-4.27217E-05 7.01582E-20-1.03444E-18
 -1       160 2.53293E-04-5.42680E-05-7.49929E-05-1.09415E-04-2.31356E-18 4.29276E-18
 -1       161 1.53859E-04 6.91347E-07-5.95465E-05-1.24168E-04-3.88449E-18 6.98845E-18
 -1       162 5.93427E-05 3.39154E-05-3.82568E-05-8.64539E-05-2.57456E-18 4.29700E-18
 -1       163 1.08060E-05 1.85819E-05-1.58849E-05-2.60859E-05 5.43922E-18-2.53009E-18
 -1       164 8.47639E-06-3.29179E-05 2.95897E-06 1.60492E-05 5.55188E-18-2.10869E-18
 -1       165 2.75123E-05-9.11513E-05 1.66568E-05 2.27029E-05 4.04501E-18-9.06378E-19
 -1       166 9.48647E-05-1.23463E-05-3.55679E-05-2.23483E-05-9.72010E-19-6.83979E-20
 -1       167 8.92478E-05-8.45610E-06-3.47868E-05-1.73907E-05-9.18376E-19-1.16314E-18
 -1       168 8.65489E-05-6.50521E-06-3.44162E-05-1.35830E-05-7.32035E-19-1.72826E-18
 -1       169 8.51917E-05-5.51393E-06-3.42315E-05-1.03720E-05-4.89057E-19-2.03091E-18
 -1       170 8.44509E-05-4.94538E-06-3.41427E-05-7.54644E-06-3.20619E-19-2.13008E-18
 -1       171 8.40236E-05-4.59916E-06-3.41006E-05-4.90288E-06-1.71126E-19-2.11914E-18
 -1       172 8.38055E-05-4.41459E-06-3.40827E-05-2.39496E-06 4.01780E-20-2.08845E-18
 -1       173 8.37413E-05-4.35889E-06-3.40781E-05 5.10300E-08 2.04598E-19-2.03672E-18
 -1       174 8.38156E-05-4.42321E-06-3.40835E-05 2.49919E-06 3.50357E-19-1.96592E-18
 -1       175 8.40455E-05-4.61853E-06-3.41021E-05 5.01403E-06 5.05867E-19-1.93351E-18
 -1       176 8.44778E-05-4.97177E-06-3.41437E-05 7.62329E-06 6.03717E-19-1.76076E-18
 -1       177 8.52528E-05-5.57433E-06-3.42328E-05 1.05125E-05 7.70883E-19-1.45125E-18
 -1       178 8.66476E-05-6.60857E-06-3.44186E-05 1.37834E-05 1.00900E-18-9.78058E-19
 -1       179 8.93908E-05-8.60005E-06-3.47916E-05 1.76230E-05 1.09328E-18-1.71776E-19
 -1       180 9.57763E-05-1.36132E-05-3.54242E-05 2.18938E-05 1.08039E-18 1.16475E-18
 -1       181 1.05600E-04-2.61005E-05-3.52612E-05 1.86630E-05 8.34294E-19 2.83073E-18
 -1       182 1.03394E-04-2.73005E-05-3.26092E-05-1.21268E-05-8.88749E-19 1.17788E-18
 -1       183 9.71051E-05-2.82890E-05-2.95280E-05-4.73089E-06-7.25881E-19 7.24580E-19
 -1       184 9.35047E-05-2.76356E-05-2.81817E-05-1.76827E-06-5.74867E-19 4.92616E-19
 -1       185 9.19713E-05-2.74054E-05-2.76357E-05-4.19529E-07-2.36296E-19 1.91707E-20
 -1       186 9.13973E-05-2.73308E-05-2.74388E-05 2.45199E-07-2.68242E-19-1.68927E-20
 -1       187 9.13584E-05-2.73703E-05-2.74148E-05 5.72349E-07-3.99255E-19-1.45796E-19
 -1       188 9.16066E-05-2.74741E-05-2.74813E-05 7.13348E-07-2.77946E-19-3.58042E-19
 -1       189 9.19971E-05-2.76081E-05-2.75935E-05 7.47466E-07-3.27696E-19-5.33485E-19
 -1       190 9.24441E-05-2.77511E-05-2.77249E-05 7.20979E-07-5.27563E-19-5.27290E-19
 -1       191 9.28971E-05-2.78907E-05-2.78599E-05 6.62867E-07-3.05722E-19-3.01853E-19
 -1       192 9.33281E-05-2.80203E-05-2.79894E-05 5.91923E-07-1.48425E-19-1.28544E-18
 -1       193 9.37243E-05-2.81372E-05-2.81092E-05 5.20447E-07 5.08927E-20-1.35242E-18
 -1       194 9.40824E-05-2.82413E-05-2.82181E-05 4.56336E-07 8.57826E-20-1.37748E-18
 -1       195 9.44053E-05-2.83341E-05-2.83167E-05 4.04323E-07-5.29945E-19-1.42893E-18
 -1       196 9.47000E-05-2.84182E-05-2.84068E-05 3.66645E-07-6.93563E-19-1.57723E-18
 -1       197 9.49744E-05-2.84966E-05-2.84908E-05 3.43279E-07-6.13963E-19-1.61345E-18
 -1       198 9.52366E-05-2.85724E-05-2.85707E-05 3.31761E-07-9.73750E-20-1.79315E-18
 -1       199 9.54916E-05-2.86478E-05-2.86477E-05 3.26639E-07-9.06399E-21-2.28395E-18
 -1       200 9.57396E-05-2.87243E-05-2.87214E-05 3.18595E-07-8.09769E-19-2.95719E-18
 -1       201 9.59724E-05-2.88007E-05-2.87889E-05 2.93397E-07-6.01657E-19-3.97383E-18
 -1       202 9.61701E-05-2.88728E-05-2.88434E-05 2.31032E-07 1.19055E-18-3.58452E-18
 -1       203 9.62973E-05-2.89317E-05-2.88735E-05 1.05657E-07 3.71610E-19-2.78307E-18
 -1       204 9.63000E-05-2.89619E-05-2.88627E-05-1.12607E-07 4.39320E-20-1.75857E-18
 -1       205 9.61046E-05-2.89404E-05-2.87892E-05-4.52647E-07 4.52940E-19-1.08950E-18
 -1       206 9.56225E-05-2.88361E-05-2.86280E-05-9.32786E-07 3.49935E-19-1.93138E-18
 -1       207 9.47616E-05-2.86123E-05-2.83551E-05-1.54626E-06-1.77170E-19-1.46217E-18
 -1       208 9.34483E-05-2.82325E-05-2.79543E-05-2.24393E-06 9.72963E-20-1.92807E-18
 -1       209 9.16606E-05-2.76733E-05-2.74261E-05-2.92084E-06 5.42851E-19-2.35077E-18
 -1       210 8.94650E-05-2.69410E-05-2.67962E-05-3.41776E-06 7.96626E-19-9.58473E-19
 -1       211 8.70461E-05-2.60898E-05-2.61211E-05-3.54980E-06 9.52374E-21-1.21904E-18
 -1       212 8.47072E-05-2.52303E-05-2.54838E-05-3.16610E-06-1.11962E-18-5.66807E-19
 -1       213 8.28233E-05-2.45156E-05-2.49802E-05-2.22462E-06-6.70680E-19-1.47931E-18
 -1       214 8.17477E-05-2.41002E-05-2.46958E-05-8.43890E-07-1.74307E-19-1.87544E-18
 -1       215 8.16990E-05-2.40829E-05-2.46823E-05 7.09809E-07 9.10375E-19-1.35429E-18
 -1       216 8.26834E-05-2.44665E-05-2.49411E-05 2.10833E-06 2.00214E-19-2.71529E-18
 -1       217 8.44929E-05-2.51569E-05-2.54233E-05 3.07926E-06-1.87784E-19-1.41741E-18
 -1       218 8.67789E-05-2.60019E-05-2.60441E-05 3.49340E-06-7.29625E-19-2.38687E-18
 -1       219 8.91627E-05-2.68464E-05-2.67072E-05 3.38260E-06-4.85403E-19-1.13961E-18
 -1       220 9.13331E-05-2.75753E-05-2.73277E-05 2.89276E-06-3.92129E-19-2.16250E-18
 -1       221 9.30960E-05-2.81302E-05-2.78472E-05 2.20980E-06-1.48602E-18-2.42173E-18
 -1       222 9.43782E-05-2.85021E-05-2.82380E-05 1.49799E-06 8.70426E-20-1.87216E-18
 -1       223 9.51991E-05-2.87135E-05-2.84990E-05 8.68970E-07 1.55530E-18-2.04878E-18
 -1       224 9.56345E-05-2.88013E-05-2.86471E-05 3.78993E-07 5.58303E-19-7.55493E-19
 -1       225 9.57832E-05-2.88043E-05-2.87084E-05 4.21687E-08 2.46791E-19 7.54716E-19
 -1       226 9.57455E-05-2.87567E-05-2.87115E-05-1.52077E-07 1.15007E-19 1.03396E-18
 -1       227 9.56103E-05-2.86861E-05-2.86829E-05-2.24775E-07-1.70919E-19 1.60951E-19
 -1       228 9.54491E-05-2.86132E-05-2.86444E-05-1.99649E-07 9.86390E-19-2.54947E-19
 -1       229 9.53113E-05-2.85558E-05-2.86094E-05-1.05936E-07 8.20470E-19 1.11690E-18
 -1       230 9.94968E-05-2.85533E-05-3.05859E-05 7.21125E-06 8.08321E-19 2.41133E-18
 -1       231 9.44132E-05-2.77898E-05-2.85235E-05 2.74368E-06 5.68458E-19 1.96244E-18
 -1       232 9.20943E-05-2.74004E-05-2.76809E-05 9.29471E-07 3.65518E-19 1.42663E-18
 -1       233 9.11449E-05-2.72368E-05-2.73623E-05 6.57360E-08 1.39807E-19 1.19563E-18
 -1       234 9.09392E-05-2.72345E-05-2.72887E-05-3.75840E-07 4.98389E-19 1.04145E-18
 -1       235 9.11394E-05-2.73239E-05-2.73430E-05-5.69628E-07 3.13009E-19 7.61499E-19
 -1       236 9.15341E-05-2.74598E-05-2.74570E-05-6.39361E-07 2.11325E-20 4.45588E-19
 -1       237 9.20117E-05-2.76130E-05-2.75976E-05-6.38151E-07 2.92873E-19 5.98514E-19
 -1       238 9.25072E-05-2.77665E-05-2.77450E-05-5.97860E-07 4.17840E-19 9.04307E-20
 -1       239 9.30063E-05-2.79181E-05-2.78945E-05-5.35396E-07-7.94353E-20-4.11103E-19
 -1       240 9.34421E-05-2.80482E-05-2.80258E-05-4.70598E-07-2.25832E-20-4.27259E-19
 -1       241 9.38357E-05-2.81643E-05-2.81448E-05-4.10144E-07 3.99038E-19-5.02472E-19
 -1       242 9.41900E-05-2.82674E-05-2.82524E-05-3.60521E-07 3.21609E-19-7.39025E-19
 -1       243 9.45156E-05-2.83610E-05-2.83518E-05-3.26979E-07 8.13472E-20-9.86284E-19
 -1       244 9.48444E-05-2.84540E-05-2.84526E-05-3.15183E-07 1.42643E-19-1.19384E-18
 -1       245 9.51690E-05-2.85444E-05-2.85526E-05-3.33003E-07-5.01416E-19-9.61186E-19
 -1       246 9.55362E-05-2.86452E-05-2.86663E-05-3.88662E-07 2.66024E-19-9.59534E-19
 -1       247 9.59884E-05-2.87676E-05-2.88070E-05-4.96713E-07-9.29358E-20-1.28749E-18
 -1       248 9.65841E-05-2.89271E-05-2.89929E-05-6.78976E-07 4.96034E-19-6.69933E-19
 -1       249 9.74562E-05-2.91573E-05-2.92669E-05-9.90731E-07-1.59459E-19-1.25095E-18
 -1       250 9.86516E-05-2.94698E-05-2.96437E-05-1.46144E-06-1.02012E-19-8.57955E-19
 -1       251 1.00380E-04-2.99169E-05-3.01914E-05-2.18563E-06-4.23502E-19-6.67199E-19
 -1       252 1.02895E-04-3.05624E-05-3.09930E-05-3.28912E-06 3.17263E-19-1.05194E-18
 -1       253 1.06543E-04-3.14968E-05-3.21614E-05-4.93864E-06 2.67133E-19-6.88945E-19
 -1       254 1.11764E-04-3.28455E-05-3.38348E-05-7.31158E-06-2.03265E-19-8.18972E-19
 -1       255 1.19448E-04-3.49267E-05-3.62611E-05-1.06385E-05-9.81533E-20-5.71972E-19
 -1       256 1.29185E-04-3.78545E-05-3.91827E-05-1.41500E-05-3.97014E-20 2.10527E-19
 -1       257 1.40961E-04-4.22149E-05-4.22732E-05-1.60804E-05 4.10533E-19-8.86777E-19
 -1       258 1.53151E-04-4.84503E-05-4.45953E-05-1.20433E-05 1.60314E-19-1.79849E-18
 -1       259 1.61895E-04-5.50678E-05-4.54041E-05 3.63225E-06-6.67409E-19-1.60460E-18
 -1       260 1.60486E-04-5.28463E-05-4.64489E-05 2.73795E-05-1.63774E-18-7.32075E-19
 -1       261 1.53904E-04-4.38521E-05-4.85152E-05 3.42718E-05-4.42225E-18 7.68927E-19
 -1       262 1.45066E-04-3.15594E-05-5.03227E-05 1.30082E-05-4.19853E-18 3.11038E-18
 -1       263 1.46841E-04-3.22202E-05-5.04966E-05-1.52109E-05-1.42513E-18 3.11419E-18
 -1       264 1.57238E-04-4.61040E-05-4.83634E-05-3.37233E-05-6.99332E-19 3.96570E-18
 -1       265 1.64225E-04-5.54835E-05-4.66439E-05-2.62309E-05 2.58616E-18 2.94034E-18
 -1       266 1.63291E-04-5.56156E-05-4.58636E-05-6.19131E-06 4.14338E-18 1.73801E-18
 -1       267 1.54740E-04-4.97064E-05-4.48249E-05 9.69821E-06 3.73548E-18 1.98923E-18
 -1       268 1.42073E-04-4.29587E-05-4.24792E-05 1.59064E-05 1.01449E-18 1.11856E-18
 -1       269 1.29421E-04-3.80250E-05-3.92239E-05 1.47540E-05-8.58152E-19-9.48055E-19
 -1       270 1.19570E-04-3.49730E-05-3.62908E-05 1.13866E-05-2.17796E-18 3.43710E-19
 -1       271 1.12035E-04-3.28907E-05-3.39272E-05 8.10951E-06-4.26723E-19 2.86770E-18
 -1       272 1.06557E-04-3.14616E-05-3.21776E-05 5.56758E-06 6.03713E-19 2.67890E-18
 -1       273 1.02666E-04-3.04622E-05-3.09344E-05 3.77208E-06-4.66095E-19 5.22168E-18
 -1       274 9.98318E-05-2.97318E-05-3.00325E-05 2.50343E-06 2.10351E-18 3.87391E-18
 -1       275 9.79805E-05-2.92461E-05-2.94500E-05 1.68799E-06 7.48577E-19 3.05339E-18
 -1       276 9.67101E-05-2.89002E-05-2.90568E-05 1.10377E-06-9.34362E-19 2.26282E-18
 -1       277 9.58846E-05-2.86615E-05-2.88074E-05 6.32873E-07-6.62262E-19 7.34330E-19
 -1       278 9.54082E-05-2.85267E-05-2.86596E-05 2.07833E-07-2.07048E-18 5.41696E-19
 -1       279 9.52810E-05-2.82511E-05-2.87250E-05 4.29006E-07-7.27478E-19-2.19512E-18
 -1       280 9.50642E-05-2.77197E-05-2.88619E-05 7.84965E-07 9.42756E-19-2.49638E-18
 -1       281 9.47911E-05-2.70766E-05-2.90212E-05 9.12695E-07-1.49778E-20 4.01036E-19
 -1       282 9.45452E-05-2.64705E-05-2.91762E-05 7.95071E-07 1.34474E-19 2.90077E-18
 -1       283 9.43796E-05-2.60358E-05-2.92922E-05 5.09990E-07 5.69550E-19 9.38345E-20
 -1       284 9.43119E-05-2.58311E-05-2.93513E-05 1.47239E-07-1.16255E-19-4.85562E-19
 -1       285 9.43437E-05-2.58793E-05-2.93443E-05-1.95916E-07 2.51783E-19-1.61428E-18
 -1       286 9.44523E-05-2.61388E-05-2.92792E-05-4.52729E-07 2.68016E-18 3.54826E-18
 -1       287 9.46049E-05-2.65362E-05-2.91735E-05-5.93962E-07 4.30475E-19-7.74381E-19
 -1       288 9.47692E-05-2.69911E-05-2.90482E-05-6.24166E-07 9.02597E-19-4.65720E-18
 -1       289 9.49178E-05-2.74271E-05-2.89243E-05-5.71920E-07 7.88582E-19-1.87013E-18
 -1       290 9.50422E-05-2.78138E-05-2.88114E-05-4.70059E-07-4.61658E-19 2.62027E-18
 -1       291 9.51355E-05-2.81193E-05-2.87202E-05-3.48979E-07-2.50535E-18-1.04103E-18
 -1       292 9.52018E-05-2.83403E-05-2.86540E-05-2.22969E-07-1.03725E-18 5.25935E-19
 -1       293 9.52618E-05-2.84614E-05-2.86276E-05-1.76563E-07-2.28166E-19 1.90853E-18
 -1       294 1.16235E-05-5.63783E-05 1.53763E-05-4.10507E-06 1.62824E-18-4.26375E-19
 -1       295 2.18916E-05-4.98877E-05 8.76918E-06 1.20609E-05 1.72435E-18 5.87947E-19
 -1       296 4.83318E-05-4.81148E-05-3.37441E-06 2.26145E-05 1.62757E-18-1.39496E-18
 -1       297 9.30419E-05-4.68916E-05-2.18043E-05 3.46220E-05-4.11658E-19-3.17997E-18
 -1       298 1.60684E-04-6.06095E-05-4.28846E-05 2.60538E-05 1.22079E-19-9.25129E-18
 -1       299 2.07705E-04-5.43531E-05-6.26809E-05 2.33198E-05-1.36208E-18-1.13613E-17
 -1       300 2.38235E-04-4.93830E-05-7.57247E-05 4.92093E-06-2.52373E-18-1.19654E-17
 -1       301 2.57594E-04-4.95186E-05-8.21613E-05-8.27546E-07-1.61762E-18-1.00528E-17
 -1       302 2.42037E-04-5.08241E-05-7.64542E-05-8.21178E-06-8.87055E-19-7.71372E-18
 -1       303 2.08694E-04-5.38412E-05-6.32209E-05-2.56049E-05-1.20665E-18-6.93508E-18
 -1       304 1.55333E-04-5.29463E-05-4.37661E-05-3.36170E-05-1.59750E-18-2.68255E-18
 -1       305 9.52708E-05-4.69878E-05-2.27083E-05-3.46378E-05-5.95676E-19 2.45640E-20
 -1       306 5.27275E-05-4.84513E-05-4.78541E-06-2.52114E-05-5.57348E-19 7.48724E-19
 -1       307 2.37688E-05-5.12401E-05 8.38691E-06-1.16119E-05-1.53736E-19 6.42898E-19
 -1       308 1.04676E-05-5.04126E-05 1.40236E-05 1.68282E-06-5.42710E-19-5.69630E-19
 -1       309 1.28041E-05-5.09992E-05 1.32347E-05 1.51065E-05-1.31968E-18-1.42206E-18
 -1       310 2.59576E-05-4.55660E-05 5.66231E-06 2.60943E-05-2.09619E-18-1.07430E-18
 -1       311 5.40029E-05-3.74640E-05-8.53514E-06 4.18026E-05-2.78420E-18-2.88595E-18
 -1       312 8.70680E-05-2.76358E-05-2.58516E-05 5.07213E-05-3.97089E-18-2.40219E-18
 -1       313 1.36392E-04-3.03011E-05-4.45411E-05 5.13836E-05-2.76090E-18-3.55267E-18
 -1       314 1.79535E-04-3.05305E-05-6.14142E-05 4.89955E-05-2.32766E-18-4.14644E-18
 -1       315 2.11630E-04-3.48959E-05-7.25458E-05 2.67627E-05-1.90148E-18-3.16886E-18
 -1       316 2.27795E-04-3.90894E-05-7.70966E-05 2.96533E-07-1.44663E-18-1.69324E-18
 -1       317 2.16007E-04-3.67137E-05-7.33519E-05-2.77495E-05-2.78261E-18 4.31987E-20
 -1       318 1.83358E-04-3.11091E-05-6.26630E-05-4.74710E-05-2.62681E-18 1.54245E-18
 -1       319 1.38442E-04-2.65995E-05-4.66531E-05-5.55462E-05-8.98808E-19 3.31211E-18
 -1       320 9.62242E-05-3.24131E-05-2.75582E-05-5.05672E-05-1.44207E-19 6.12066E-18
 -1       321 5.32021E-05-3.46115E-05-9.56949E-06-4.02346E-05 1.11745E-18 1.50137E-18
 -1       322 2.78596E-05-4.48634E-05 4.55385E-06-2.69458E-05 2.55889E-18-4.86567E-19
 -1       323 1.42059E-05-5.33930E-05 1.32943E-05-1.52763E-05 3.32185E-18 6.19922E-19
 -1       324 9.16488E-05-1.43955E-05-3.31719E-05-1.30607E-05-9.47025E-19-1.10998E-18
 -1       325 9.57056E-05-1.91094E-05-3.28901E-05-1.46295E-05-1.06031E-18-4.80790E-19
 -1       326 8.80092E-05-1.03765E-05-3.33245E-05-8.15033E-06-4.71014E-19-1.57973E-18
 -1       327 8.71922E-05-9.45248E-06-3.33650E-05-5.71596E-06-2.88395E-19-1.69587E-18
 -1       328 8.67332E-05-8.92300E-06-3.33921E-05-3.36644E-06-6.18383E-20-1.64635E-18
 -1       329 8.65286E-05-8.68336E-06-3.34057E-05-1.07259E-06 1.87473E-19-1.64025E-18
 -1       330 8.65374E-05-8.69301E-06-3.34054E-05 1.20296E-06 3.68476E-19-1.59104E-18
 -1       331 8.67611E-05-8.95415E-06-3.33910E-05 3.49912E-06 4.59624E-19-1.58786E-18
 -1       332 8.72326E-05-9.49844E-06-3.33634E-05 5.81381E-06 7.30119E-19-1.46306E-18
 -1       333 8.80708E-05-1.04501E-05-3.33214E-05 8.25306E-06 8.44505E-19-1.22533E-18
 -1       334 8.94842E-05-1.20331E-05-3.32599E-05 1.07621E-05 1.02782E-18-7.86186E-19
 -1       335 9.19023E-05-1.47221E-05-3.31584E-05 1.31677E-05 1.23382E-18-3.66501E-19
 -1       336 9.58032E-05-1.94571E-05-3.28276E-05 1.43750E-05 1.19271E-18 5.89561E-19
 -1       337 9.87887E-05-2.44437E-05-3.19503E-05 1.18976E-05 1.07731E-18 1.30431E-18
 -1       338 9.63884E-05-2.68118E-05-2.97890E-05 5.74071E-06 7.87727E-19 1.00589E-18
 -1       339 9.64354E-05-2.60273E-05-3.01313E-05-6.34744E-06-7.59421E-19-3.64012E-19
 -1       340 9.49194E-05-2.70283E-05-2.90708E-05-2.83076E-06-5.90921E-19-4.65726E-19
 -1       341 9.39442E-05-2.74256E-05-2.84934E-05-9.18277E-07-4.03379E-19-6.50767E-19
 -1       342 9.34266E-05-2.76378E-05-2.81885E-05 1.43580E-07-3.62370E-19-8.94340E-19
 -1       343 9.32374E-05-2.77908E-05-2.80458E-05 7.11769E-07-3.20676E-19-5.42014E-19
 -1       344 9.32589E-05-2.79205E-05-2.80012E-05 9.84630E-07-2.82718E-19-2.98103E-19
 -1       345 9.34045E-05-2.80356E-05-2.80151E-05 1.07976E-06-2.23585E-19-3.27234E-19
 -1       346 9.36155E-05-2.81374E-05-2.80624E-05 1.07071E-06-4.81571E-19-4.04195E-19
 -1       347 9.38541E-05-2.82259E-05-2.81269E-05 1.00524E-06-7.35742E-19-7.01820E-19
 -1       348 9.40974E-05-2.83017E-05-2.81988E-05 9.14977E-07-9.69535E-20-9.20208E-19
 -1       349 9.43330E-05-2.83660E-05-2.82722E-05 8.20827E-07-7.17911E-20-9.66489E-19
 -1       350 9.45558E-05-2.84208E-05-2.83440E-05 7.36220E-07-5.38360E-20-1.15750E-18
 -1       351 9.47657E-05-2.84691E-05-2.84132E-05 6.69007E-07-4.89850E-19-1.10191E-18
 -1       352 9.49655E-05-2.85141E-05-2.84794E-05 6.22458E-07-4.46697E-19-1.00758E-18
 -1       353 9.51597E-05-2.85599E-05-2.85430E-05 5.95513E-07-6.99533E-19-8.51386E-19
 -1       354 9.53527E-05-2.86110E-05-2.86038E-05 5.82361E-07-4.02636E-19-1.20837E-18
 -1       355 9.55481E-05-2.86727E-05-2.86611E-05 5.71451E-07-6.22243E-19-1.48780E-18
 -1       356 9.57462E-05-2.87502E-05-2.87130E-05 5.44087E-07-1.15995E-18-1.80823E-18
 -1       357 9.59426E-05-2.88485E-05-2.87556E-05 4.73004E-07 3.33927E-19-1.95929E-18
 -1       358 9.61257E-05-2.89703E-05-2.87825E-05 3.21641E-07 1.50293E-18-2.71326E-18
 -1       359 9.62730E-05-2.91133E-05-2.87852E-05 4.53693E-08 9.12918E-19-1.34941E-18
 -1       360 9.63486E-05-2.92661E-05-2.87532E-05-4.03529E-07 2.08802E-19-1.37789E-18
 -1       361 9.63000E-05-2.94022E-05-2.86752E-05-1.06495E-06 1.83335E-19-1.76073E-18
 -1       362 9.60580E-05-2.94748E-05-2.85412E-05-1.95240E-06 4.56358E-19-1.82711E-18
 -1       363 9.55425E-05-2.94151E-05-2.83461E-05-3.02736E-06 2.15996E-19-1.69034E-18
 -1       364 9.46783E-05-2.91399E-05-2.80929E-05-4.17221E-06 5.57400E-19-6.31978E-19
 -1       365 9.34261E-05-2.85770E-05-2.77954E-05-5.17523E-06 1.33768E-18-3.45054E-19
 -1       366 9.18248E-05-2.77064E-05-2.74790E-05-5.74818E-06-1.90782E-19-9.56611E-19
 -1       367 9.00327E-05-2.66087E-05-2.71774E-05-5.59471E-06-6.26788E-19-1.61055E-18
 -1       368 8.83355E-05-2.54870E-05-2.69269E-05-4.52752E-06-7.06741E-19-9.30034E-19
 -1       369 8.70916E-05-2.46276E-05-2.67593E-05-2.59174E-06-3.31154E-19 4.44129E-19
 -1       370 8.66093E-05-2.42909E-05-2.66958E-05-1.15058E-07-1.73432E-19-4.82158E-20
 -1       371 8.70148E-05-2.45850E-05-2.67444E-05 2.37702E-06 5.28750E-20-3.95065E-19
 -1       372 8.81944E-05-2.54120E-05-2.68983E-05 4.35456E-06 2.20171E-19 7.18233E-20
 -1       373 8.98488E-05-2.65200E-05-2.71364E-05 5.47456E-06 3.57567E-19 7.30299E-19
 -1       374 9.16191E-05-2.76216E-05-2.74270E-05 5.67236E-06-9.78835E-20 2.03676E-18
 -1       375 9.32102E-05-2.85048E-05-2.77337E-05 5.12235E-06-1.03415E-18 4.09873E-19
 -1       376 9.44535E-05-2.90793E-05-2.80225E-05 4.11914E-06-3.41766E-19 7.38279E-19
 -1       377 9.53031E-05-2.93586E-05-2.82678E-05 2.95745E-06-5.41019E-19 1.54355E-18
 -1       378 9.57958E-05-2.94127E-05-2.84555E-05 1.85910E-06 1.80044E-19 1.37154E-18
 -1       379 9.60073E-05-2.93247E-05-2.85830E-05 9.52861E-07 1.54835E-18 1.78604E-18
 -1       380 9.60214E-05-2.91643E-05-2.86565E-05 2.88435E-07 1.24714E-18 1.94712E-18
 -1       381 9.59126E-05-2.89797E-05-2.86877E-05-1.36708E-07 4.59117E-19 1.30004E-18
 -1       382 9.57401E-05-2.87992E-05-2.86900E-05-3.51431E-07-7.54780E-19 1.09953E-18
 -1       383 9.55484E-05-2.86385E-05-2.86760E-05-3.94436E-07 3.17692E-19 2.08819E-18
 -1       384 9.53905E-05-2.85281E-05-2.86546E-05-3.15729E-07 8.25605E-19 2.89503E-18
 -1       385 9.43691E-05-2.73405E-05-2.86884E-05 2.46767E-06 5.73908E-19 8.18403E-19
 -1       386 9.31620E-05-2.74591E-05-2.81366E-05 7.41007E-07 2.26781E-19 6.16350E-19
 -1       387 9.25959E-05-2.75439E-05-2.78697E-05-2.14340E-07 6.03238E-19 2.73070E-19
 -1       388 9.24729E-05-2.76367E-05-2.77830E-05-6.73835E-07 5.11002E-19 3.10878E-19
 -1       389 9.25879E-05-2.77470E-05-2.77874E-05-8.84782E-07 1.53837E-19 3.40765E-19
 -1       390 9.28333E-05-2.78643E-05-2.78435E-05-9.48284E-07 1.69412E-19 5.66901E-20
 -1       391 9.31403E-05-2.79797E-05-2.79262E-05-9.26433E-07 6.11277E-19-1.98600E-19
 -1       392 9.34818E-05-2.80926E-05-2.80245E-05-8.55484E-07 1.69559E-19-2.69106E-19
 -1       393 9.38001E-05-2.81887E-05-2.81198E-05-7.69406E-07-6.29363E-20-3.60119E-19
 -1       394 9.41012E-05-2.82736E-05-2.82124E-05-6.83852E-07 4.14576E-19-7.03790E-19
 -1       395 9.43828E-05-2.83480E-05-2.83011E-05-6.11852E-07 4.33642E-19-3.39058E-19
 -1       396 9.46495E-05-2.84139E-05-2.83869E-05-5.63702E-07 5.83250E-20-6.89958E-19
 -1       397 9.49243E-05-2.84767E-05-2.84774E-05-5.49779E-07 2.24401E-19-1.12918E-18
 -1       398 9.51973E-05-2.85339E-05-2.85694E-05-5.83583E-07-3.34761E-19-1.05039E-18
 -1       399 9.55029E-05-2.85922E-05-2.86746E-05-6.78583E-07-8.73852E-20-9.53474E-19
 -1       400 9.58691E-05-2.86555E-05-2.88035E-05-8.57782E-07-3.29803E-20 1.03702E-19
 -1       401 9.63333E-05-2.87280E-05-2.89700E-05-1.15489E-06-1.52360E-19 2.35460E-19
 -1       402 9.69788E-05-2.88159E-05-2.92068E-05-1.65205E-06 2.66082E-19 7.86179E-19
 -1       403 9.78145E-05-2.89145E-05-2.95196E-05-2.38697E-06-3.85487E-19 1.25309E-19
 -1       404 9.89496E-05-2.90278E-05-2.99533E-05-3.49219E-06-1.28332E-19 2.33923E-19
 -1       405 1.00491E-04-2.91565E-05-3.05539E-05-5.13264E-06-5.65610E-20 5.00228E-19
 -1       406 1.02567E-04-2.93103E-05-3.13732E-05-7.51627E-06 3.34743E-19 7.45020E-19
 -1       407 1.05329E-04-2.95428E-05-3.24567E-05-1.08490E-05 1.26231E-19 1.39257E-19
 -1       408 1.09172E-04-3.01150E-05-3.38642E-05-1.54247E-05-8.03705E-19-4.48408E-19
 -1       409 1.14109E-04-3.16434E-05-3.53306E-05-2.03270E-05-1.75205E-20 3.87948E-20
 -1       410 1.21213E-04-3.57636E-05-3.65789E-05-2.38636E-05 6.72630E-19-6.26755E-19
 -1       411 1.32572E-04-4.51988E-05-3.73050E-05-2.17950E-05 1.32219E-18-3.17310E-19
 -1       412 1.50357E-04-6.02323E-05-3.84326E-05-7.98701E-06-3.50830E-19-2.12574E-18
 -1       413 1.72072E-04-6.84356E-05-4.46932E-05 1.78174E-05-1.69718E-18-1.96670E-18
 -1       414 1.86354E-04-2.92027E-05-6.65239E-05-3.29625E-06-2.82380E-18-5.06866E-18
 -1       415 1.85135E-04-4.20535E-05-6.12219E-05-2.64338E-05-1.56108E-18-4.73724E-18
 -1       416 1.80173E-04-6.42501E-05-4.98828E-05-2.72792E-05 2.26068E-18-5.84855E-18
 -1       417 1.62892E-04-6.64200E-05-4.13878E-05-6.54243E-06 3.42432E-18-4.40600E-18
 -1       418 1.44304E-04-5.47279E-05-3.82758E-05 1.37785E-05 2.94045E-18-1.72312E-18
 -1       419 1.28628E-04-4.12750E-05-3.73823E-05 2.31691E-05 2.18413E-18-8.17982E-19
 -1       420 1.18558E-04-3.39340E-05-3.62397E-05 2.25760E-05 6.62075E-19-4.98565E-19
 -1       421 1.12203E-04-3.10556E-05-3.47632E-05 1.82212E-05-2.97869E-18 5.70516E-19
 -1       422 1.07584E-04-2.99377E-05-3.32557E-05 1.34980E-05-1.94060E-18 2.16079E-18
 -1       423 1.04100E-04-2.94734E-05-3.19582E-05 9.57372E-06-5.34792E-19 2.16185E-18
 -1       424 1.01446E-04-2.92072E-05-3.09379E-05 6.65505E-06-1.11787E-18 3.68254E-18
 -1       425 9.93692E-05-2.89954E-05-3.01431E-05 4.50960E-06 1.29659E-18 1.23941E-18
 -1       426 9.79139E-05-2.88160E-05-2.96012E-05 3.10243E-06 3.32585E-20 3.00419E-18
 -1       427 9.68449E-05-2.86488E-05-2.92184E-05 2.09865E-06-3.66772E-20 3.80472E-18
 -1       428 9.60762E-05-2.84873E-05-2.89597E-05 1.33337E-06 9.73027E-19 1.15672E-18
 -1       429 9.56128E-05-2.83382E-05-2.88276E-05 8.63360E-07-7.17856E-20-8.37766E-19
 -1       430 9.45291E-05-2.66996E-05-2.90705E-05 1.48657E-06-1.11046E-19 3.93225E-19
 -1       431 9.49853E-05-2.73338E-05-2.89927E-05 1.56178E-06 1.90605E-18-6.93616E-19
 -1       432 9.53456E-05-2.78634E-05-2.89182E-05 1.30972E-06 1.91087E-18-1.43817E-18
 -1       433 9.42071E-05-2.62445E-05-2.91288E-05 1.08722E-06-5.64757E-19 3.47673E-19
 -1       434 9.40642E-05-2.60251E-05-2.91623E-05 4.94309E-07 3.09658E-19 1.01554E-18
 -1       435 9.41012E-05-2.60594E-05-2.91635E-05-1.25514E-07-8.70187E-19-1.47683E-18
 -1       436 9.42742E-05-2.63046E-05-2.91321E-05-6.38418E-07-1.56492E-18 2.70613E-18
 -1       437 9.45184E-05-2.66839E-05-2.90734E-05-9.67395E-07-1.07695E-18 3.57726E-19
 -1       438 9.47713E-05-2.71142E-05-2.89965E-05-1.09689E-06-6.74520E-19-2.87551E-18
 -1       439 9.49842E-05-2.75193E-05-2.89133E-05-1.06085E-06 1.55396E-18-3.77025E-18
 -1       440 9.51424E-05-2.78689E-05-2.88307E-05-9.13893E-07 1.75092E-18 9.97205E-19
 -1       441 9.52427E-05-2.81383E-05-2.87579E-05-7.15306E-07 7.43676E-20-1.07355E-18
 -1       442 9.52980E-05-2.83309E-05-2.86989E-05-5.09062E-07 4.13189E-19 1.39991E-19
 -1       443 5.62001E-05-4.17132E-05-6.37081E-06 3.70980E-05 1.08420E-18-7.04096E-19
 -1       444 1.02198E-05-2.09665E-05 4.57449E-06-1.21232E-05-1.43202E-19-1.04026E-18
 -1       445 1.62063E-05-2.51478E-05 3.65682E-06 1.33309E-05-2.38704E-19 1.51937E-19
 -1       446 9.57881E-05-5.86427E-05-1.63614E-05 3.67709E-05 1.10358E-18-4.92528E-18
 -1       447 1.46550E-04-7.15370E-05-3.25195E-05 2.03511E-05 2.48498E-19-8.07000E-18
 -1       448 8.93375E-05-1.18553E-05-3.32806E-05-1.06868E-05-7.01979E-19-1.39971E-18
 -1       449 1.85980E-04-3.42885E-05-6.43898E-05 1.73025E-05-3.48512E-18-3.28024E-18
 -1       450 1.92251E-04-5.06613E-05-5.98934E-05 2.15161E-05-3.73764E-18-2.44200E-18
 -1       451 1.84325E-04-6.72880E-05-4.99516E-05 3.97662E-06-3.57173E-18-1.99497E-18
 -1       452 1.49964E-04-7.09206E-05-3.42959E-05-1.80779E-05-1.10644E-18-2.40854E-18
 -1       453 1.04959E-04-6.10285E-05-1.92755E-05-3.54117E-05-8.25857E-20 4.21346E-19
 -1       454 5.45327E-05-4.34655E-05-5.23246E-06-3.53217E-05 2.39922E-19 8.45709E-19
 -1       455 2.30888E-05-2.59294E-05 1.25181E-06-2.02975E-05 3.67242E-19 2.07523E-19
 -1       456 9.44329E-06-2.29492E-05 5.57233E-06 9.98818E-06-6.45863E-21-1.42736E-18
 -1       457 2.44501E-05-2.74550E-05 1.24668E-06 3.58066E-05-6.34110E-19-9.76417E-19
 -1       458 5.21789E-05-3.85832E-05-5.95137E-06 4.92415E-05-1.37029E-18-2.08868E-18
 -1       459 9.81899E-05-5.08160E-05-2.02874E-05 4.95450E-05-2.19403E-18-3.15525E-18
 -1       460 1.30529E-04-5.24149E-05-3.35104E-05 3.79613E-05-2.80982E-18-1.25234E-18
 -1       461 1.57978E-04-4.16799E-05-4.96643E-05 1.80439E-05-1.00353E-18-9.61065E-19
 -1       462 1.69389E-04-2.68447E-05-6.08044E-05 7.56842E-06-1.31555E-18-4.92020E-19
 -1       463 1.66780E-04-1.21693E-05-6.61776E-05-2.25579E-07-2.45936E-18-5.34134E-19
 -1       464 1.71868E-04-1.41945E-05-6.73062E-05-8.65855E-07-2.52808E-18-7.25113E-19
 -1       465 1.67483E-04-2.49927E-05-6.09284E-05-4.59811E-06-3.61937E-18 5.44219E-19
 -1       466 1.58083E-04-4.17595E-05-4.98235E-05-1.55077E-05-1.54404E-18 7.56400E-19
 -1       467 1.38298E-04-5.26441E-05-3.66364E-05-3.31890E-05 6.47980E-19 2.23606E-18
 -1       468 9.90045E-05-5.20069E-05-2.01746E-05-4.94310E-05 5.81594E-19 5.96375E-18
 -1       469 5.85568E-05-4.09643E-05-7.65580E-06-5.02054E-05-8.62915E-20 3.72398E-18
 -1       470 2.54402E-05-2.95249E-05 1.56990E-06-3.65931E-05 1.05943E-18-2.89897E-19
 -1       471 9.58195E-05-2.51478E-05-3.02736E-05 6.01611E-06 8.03649E-19-4.66323E-20
 -1       472 8.95409E-05-1.33982E-05-3.26516E-05-3.92375E-06-8.98813E-20-1.44208E-18
 -1       473 9.02441E-05-1.43584E-05-3.25431E-05-5.88331E-06-3.65301E-19-1.43788E-18
 -1       474 8.90446E-05-1.27182E-05-3.27291E-05 5.43470E-08 1.91583E-19-1.48059E-18
 -1       475 8.91802E-05-1.29021E-05-3.27087E-05 2.04460E-06 3.35285E-19-1.54101E-18
 -1       476 8.95748E-05-1.34399E-05-3.26484E-05 3.99663E-06 5.02478E-19-1.36661E-18
 -1       477 9.02986E-05-1.44274E-05-3.25373E-05 5.95019E-06 8.40041E-19-1.16222E-18
 -1       478 9.14459E-05-1.60068E-05-3.23541E-05 7.77806E-06 8.78712E-19-9.71543E-19
 -1       479 9.32331E-05-1.84782E-05-3.20580E-05 9.29345E-06 1.05161E-18-4.73313E-19
 -1       480 1.28930E-04-6.26832E-05-2.82667E-05 2.62218E-05 1.71402E-18-6.73282E-18
 -1       481 1.08197E-04-4.11860E-05-2.82884E-05 3.32520E-05 2.09762E-18-5.17852E-18
 -1       482 9.51118E-05-2.65766E-05-2.93544E-05 2.87023E-06 5.29083E-19-2.57934E-19
 -1       483 9.54744E-05-2.44189E-05-3.04420E-05-5.83870E-06-5.70995E-19-8.39231E-19
 -1       484 9.52734E-05-2.62274E-05-2.95843E-05-2.89397E-06-6.58134E-19-8.49347E-19
 -1       485 9.49191E-05-2.71589E-05-2.90363E-05-1.02482E-06-5.75205E-19-8.34078E-19
 -1       486 9.46442E-05-2.76885E-05-2.86937E-05 1.03017E-07-3.51846E-19-8.83456E-19
 -1       487 9.44904E-05-2.80135E-05-2.84896E-05 7.44483E-07-1.78913E-19-7.97455E-19
 -1       488 9.44386E-05-2.82229E-05-2.83781E-05 1.07114E-06-3.08345E-19-8.46005E-19
 -1       489 9.44590E-05-2.83611E-05-2.83278E-05 1.19913E-06-2.92886E-19-8.20391E-19
 -1       490 9.45249E-05-2.84519E-05-2.83172E-05 1.20714E-06-6.76466E-19-6.81313E-19
 -1       491 9.46164E-05-2.85098E-05-2.83317E-05 1.14898E-06-5.77063E-19-4.46238E-19
 -1       492 9.47203E-05-2.85443E-05-2.83614E-05 1.06136E-06-4.53788E-20-8.08233E-19
 -1       493 9.48288E-05-2.85628E-05-2.83999E-05 9.68957E-07-1.46988E-20-6.81446E-19
 -1       494 9.49384E-05-2.85715E-05-2.84431E-05 8.87626E-07-4.61732E-19-8.66440E-19
 -1       495 9.50488E-05-2.85762E-05-2.84884E-05 8.26420E-07-2.23501E-19-2.38045E-19
 -1       496 9.51626E-05-2.85832E-05-2.85341E-05 7.88574E-07-7.35546E-19 2.25089E-19
 -1       497 9.52839E-05-2.85999E-05-2.85789E-05 7.71621E-07-6.32246E-19 1.72638E-19
 -1       498 9.54189E-05-2.86358E-05-2.86214E-05 7.66746E-07-9.08726E-19-4.41671E-19
 -1       499 9.55751E-05-2.87026E-05-2.86598E-05 7.57451E-07-1.14516E-18-9.34658E-19
 -1       500 9.57606E-05-2.88142E-05-2.86916E-05 7.17809E-07-2.15862E-19 2.00918E-19
 -1       501 9.59830E-05-2.89858E-05-2.87136E-05 6.10803E-07 1.43621E-19-2.70210E-19
 -1       502 9.62468E-05-2.92303E-05-2.87222E-05 3.87737E-07 1.29581E-18-1.49045E-18
 -1       503 9.65486E-05-2.95520E-05-2.87142E-05-9.64269E-09 8.58240E-19-1.78453E-18
 -1       504 9.68697E-05-2.99365E-05-2.86875E-05-6.41884E-07-3.16328E-19-1.08229E-18
 -1       505 9.71663E-05-3.03372E-05-2.86434E-05-1.55632E-06 1.42627E-19-2.23346E-18
 -1       506 9.73599E-05-3.06615E-05-2.85877E-05-2.76070E-06 6.35310E-19-1.70010E-18
 -1       507 9.73342E-05-3.07668E-05-2.85314E-05-4.18633E-06 1.35513E-18-1.33792E-18
 -1       508 9.69520E-05-3.04801E-05-2.84898E-05-5.64893E-06 6.24295E-19-1.63653E-18
 -1       509 9.61021E-05-2.96556E-05-2.84775E-05-6.82934E-06 3.02724E-19-1.96949E-18
 -1       510 9.47792E-05-2.82707E-05-2.85023E-05-7.30885E-06-6.26019E-19-9.50399E-19
 -1       511 9.31647E-05-2.65229E-05-2.85577E-05-6.68972E-06 5.56244E-20 3.10769E-19
 -1       512 9.16454E-05-2.48524E-05-2.86213E-05-4.79275E-06 5.46836E-19 1.12603E-18
 -1       513 9.06982E-05-2.38065E-05-2.86626E-05-1.83844E-06-6.92944E-19 2.16010E-18
 -1       514 9.06622E-05-2.37745E-05-2.86606E-05 1.54083E-06-2.55958E-19 2.07930E-18
 -1       515 9.15440E-05-2.47630E-05-2.86156E-05 4.53753E-06 3.77552E-19 2.83261E-18
 -1       516 9.30252E-05-2.64066E-05-2.85476E-05 6.50755E-06 8.46256E-20 3.52044E-18
 -1       517 9.46347E-05-2.81658E-05-2.84852E-05 7.19826E-06-3.02470E-19 1.34163E-18
 -1       518 9.59726E-05-2.95860E-05-2.84518E-05 6.76309E-06-1.40484E-18-1.33566E-19
 -1       519 9.68391E-05-3.04479E-05-2.84552E-05 5.59287E-06-3.16311E-19 1.02468E-18
 -1       520 9.72287E-05-3.07597E-05-2.84892E-05 4.11415E-06-2.66742E-19 2.20838E-18
 -1       521 9.72486E-05-3.06616E-05-2.85400E-05 2.65926E-06-1.45403E-19 2.28928E-18
 -1       522 9.70372E-05-3.03259E-05-2.85930E-05 1.42619E-06 1.86633E-21 2.37080E-18
 -1       523 9.67130E-05-2.98959E-05-2.86377E-05 4.96774E-07 1.66548E-18 1.79254E-18
 -1       524 9.63576E-05-2.94653E-05-2.86694E-05-1.24340E-07 1.58477E-19 1.60898E-18
 -1       525 9.60171E-05-2.90810E-05-2.86876E-05-4.73312E-07-5.78539E-19 1.99526E-18
 -1       526 9.57145E-05-2.87611E-05-2.86944E-05-5.96688E-07-1.31656E-19 2.85738E-18
 -1       527 9.41330E-05-2.77001E-05-2.84677E-05-1.69082E-07 3.67797E-19 6.78715E-20
 -1       528 9.39688E-05-2.79409E-05-2.82964E-05-7.62579E-07 5.01858E-19-1.31295E-19
 -1       529 9.39492E-05-2.81088E-05-2.82170E-05-1.05493E-06 2.88630E-19-1.01330E-19
 -1       530 9.40231E-05-2.82322E-05-2.81962E-05-1.16026E-06 5.18886E-19 1.14132E-19
 -1       531 9.41585E-05-2.83289E-05-2.82131E-05-1.15216E-06 3.12193E-19 4.37401E-19
 -1       532 9.43140E-05-2.83964E-05-2.82509E-05-1.08443E-06 2.88327E-20 2.90324E-19
 -1       533 9.44797E-05-2.84456E-05-2.83008E-05-9.94065E-07 2.27346E-19 1.40723E-20
 -1       534 9.46465E-05-2.84796E-05-2.83577E-05-9.05840E-07 4.90418E-19 3.94710E-19
 -1       535 9.48115E-05-2.85006E-05-2.84192E-05-8.38265E-07 8.19283E-19-4.33531E-19
 -1       536 9.49835E-05-2.85097E-05-2.84889E-05-8.06976E-07 5.68498E-19-3.30069E-19
 -1       537 9.51503E-05-2.85053E-05-2.85620E-05-8.30974E-07-2.78190E-19-2.55579E-19
 -1       538 9.53264E-05-2.84856E-05-2.86455E-05-9.25592E-07-1.76012E-19 1.51068E-19
 -1       539 9.55180E-05-2.84442E-05-2.87449E-05-1.11494E-06-5.17672E-19 3.21613E-19
 -1       540 9.57315E-05-2.83700E-05-2.88675E-05-1.43237E-06-4.50337E-19 8.14606E-19
 -1       541 9.59801E-05-2.82337E-05-2.90314E-05-1.95773E-06-6.70082E-20 1.20233E-18
 -1       542 9.62333E-05-2.80146E-05-2.92323E-05-2.71578E-06-4.13642E-20 7.77828E-19
 -1       543 9.64791E-05-2.76593E-05-2.94878E-05-3.82355E-06-2.24910E-19 1.34976E-18
 -1       544 9.66636E-05-2.70971E-05-2.98049E-05-5.41538E-06-3.27377E-20 1.25021E-18
 -1       545 9.66890E-05-2.62447E-05-3.01778E-05-7.65772E-06 3.24932E-19-2.70533E-19
 -1       546 9.64111E-05-2.50429E-05-3.05712E-05-1.07340E-05 1.67900E-19 2.54416E-19
 -1       547 9.56156E-05-2.35090E-05-3.08840E-05-1.50160E-05-3.79241E-19-1.54440E-19
 -1       548 9.43975E-05-2.23573E-05-3.08471E-05-2.01319E-05-2.92914E-19-6.93430E-19
 -1       549 9.35810E-05-2.32524E-05-3.00709E-05-2.59658E-05-2.04247E-20-1.05823E-18
 -1       550 9.59911E-05-2.99365E-05-2.80632E-05-3.14540E-05 6.88294E-19-5.90713E-19
 -1       551 1.07489E-04-4.74080E-05-2.54101E-05-3.33118E-05 1.49538E-18 6.02955E-19
 -1       552 9.91498E-05-2.80169E-05-3.03626E-05 2.96849E-05 2.85146E-19-2.22369E-18
 -1       553 9.73520E-05-2.41424E-05-3.13366E-05 2.35009E-05-1.78179E-18-9.21744E-20
 -1       554 9.73990E-05-2.40812E-05-3.13968E-05 1.79207E-05-2.86432E-18-8.00026E-19
 -1       555 9.75761E-05-2.51345E-05-3.10237E-05 1.32026E-05-1.47012E-18-8.61547E-19
 -1       556 9.74793E-05-2.62112E-05-3.05250E-05 9.51986E-06-5.84908E-19 9.65053E-19
 -1       557 9.71462E-05-2.70561E-05-3.00244E-05 6.67523E-06 1.25774E-18 6.89951E-21
 -1       558 9.67247E-05-2.75690E-05-2.96283E-05 4.73155E-06-7.80304E-19 1.06085E-18
 -1       559 9.62886E-05-2.78544E-05-2.93216E-05 3.32235E-06-3.44756E-19-7.84228E-20
 -1       560 9.58705E-05-2.79666E-05-2.90968E-05 2.26345E-06 9.00129E-19 3.98578E-19
 -1       561 9.55887E-05-2.79240E-05-2.89959E-05 1.76495E-06 1.52769E-18 3.06241E-19
 -1       562 9.35861E-05-2.58594E-05-2.90266E-05 9.67083E-07 5.30435E-19 1.13820E-18
 -1       563 9.35635E-05-2.58868E-05-2.90056E-05 7.53068E-08 6.19281E-20-4.72203E-19
 -1       564 9.45881E-05-2.67917E-05-2.90553E-05 2.19776E-06 8.09775E-19-2.19970E-18
 -1       565 9.39305E-05-2.61631E-05-2.90443E-05 1.75142E-06 2.58332E-19 1.53681E-18
 -1       566 9.38141E-05-2.61963E-05-2.89803E-05-7.13868E-07-4.72972E-20-9.94583E-19
 -1       567 9.42206E-05-2.66761E-05-2.89485E-05-1.26192E-06-2.20418E-18 2.01362E-18
 -1       568 9.46599E-05-2.72065E-05-2.89091E-05-1.52223E-06-7.00437E-19-3.16940E-19
 -1       569 9.50315E-05-2.76829E-05-2.88638E-05-1.52621E-06 9.26623E-19-2.40191E-18
 -1       570 9.52973E-05-2.80637E-05-2.88141E-05-1.34870E-06 9.27497E-19-3.06978E-18
 -1       571 9.54429E-05-2.83233E-05-2.87648E-05-1.07980E-06-2.82057E-19-6.90639E-19
 -1       572 9.54934E-05-2.84768E-05-2.87217E-05-7.88788E-07-1.05792E-18-4.05851E-19
 -1       573 9.45087E-05-2.73057E-05-2.87928E-05 9.41691E-07 5.04820E-19-1.97411E-19
 -1       574 2.40277E-05-8.05318E-06-6.04762E-06 3.85473E-06 1.74112E-19-1.21210E-18
 -1       575 2.86757E-05-1.25713E-05-6.15473E-06-2.72433E-05-1.44006E-18-6.57192E-19
 -1       576 9.45809E-05-2.06865E-05-3.16891E-05-9.57171E-06-8.38333E-19-9.23491E-19
 -1       577 5.07158E-05-2.99776E-05-8.42240E-06-4.70214E-05-5.97794E-19 2.84349E-18
 -1       578 2.37879E-05-1.23357E-05-4.24797E-06 2.31719E-05 5.61080E-19-2.41140E-18
 -1       579 8.91596E-05-1.28766E-05-3.27108E-05-1.93676E-06 1.06865E-19-1.54330E-18
 -1       580 4.58145E-05-2.10724E-05-1.01421E-05 3.18276E-05-6.20981E-19 1.00649E-18
 -1       581 1.38852E-04-6.77676E-05-3.04694E-05-2.12524E-05-1.86771E-19-1.24834E-18
 -1       582 1.49638E-04-3.45910E-05-4.97557E-05-5.30590E-06-1.13884E-18 6.52480E-19
 -1       583 9.21566E-05-4.93628E-05-1.81015E-05-3.83580E-05 1.65584E-18 4.84926E-20
 -1       584 5.41329E-05-2.94062E-05-1.00753E-05-3.43952E-05 1.78687E-18-1.37219E-19
 -1       585 2.30703E-05-9.69906E-06-4.99835E-06-5.52996E-06 3.90257E-19-1.23815E-18
 -1       586 5.00040E-05-2.64901E-05-9.47584E-06 4.51330E-05-7.75088E-19-2.36216E-18
 -1       587 8.70324E-05-4.71591E-05-1.67656E-05 5.07533E-05-1.16663E-18-4.01099E-18
 -1       588 1.24810E-04-5.96923E-05-2.78333E-05 3.63522E-05-2.24591E-18 2.50298E-19
 -1       589 1.46150E-04-5.53761E-05-3.91075E-05 1.51207E-05-1.51606E-18-8.36869E-19
 -1       590 1.43547E-04-1.42490E-05-5.60447E-05-8.59858E-06-9.13525E-19-9.49736E-20
 -1       591 1.40902E-04-4.41282E-06-5.91300E-05 5.70605E-07-2.73867E-18-5.03889E-19
 -1       592 1.44792E-04-1.29011E-05-5.71205E-05 7.57441E-06-3.30248E-18-1.74155E-18
 -1       593 1.48427E-04-3.34347E-05-4.97598E-05 6.36113E-06-9.67788E-19-1.54012E-18
 -1       594 1.47070E-04-5.38667E-05-4.01947E-05-9.84177E-06 1.14966E-18-3.99164E-19
 -1       595 1.28231E-04-6.03702E-05-2.90046E-05-3.40477E-05 1.65351E-18 1.17783E-18
 -1       596 8.76479E-05-4.69370E-05-1.71244E-05-5.02315E-05 5.74606E-19 4.30470E-18
 -1       597 9.61586E-05-2.31897E-05-3.12759E-05 9.58176E-06 9.84656E-19 2.60840E-19
 -1       598 9.13436E-05-1.58503E-05-3.23776E-05-7.76490E-06-5.86419E-19-1.41710E-18
 -1       599 4.33064E-05-1.33717E-05-1.21703E-05-2.26204E-05 7.98090E-19-3.02550E-19
 -1       600 9.85675E-05-4.78854E-05-2.09853E-05 3.66527E-05 1.30628E-18-5.58481E-18
 -1       601 9.55347E-05-2.85840E-05-2.86930E-05-5.77113E-07-4.91393E-21 2.89626E-18
 -1       602 9.51798E-05-2.73292E-05-2.90735E-05 2.37319E-06 1.45945E-18-1.52734E-18
 -1       603 9.15549E-05-1.68452E-05-3.20240E-05 2.43824E-06 3.54155E-19-1.35713E-18
 -1       604 9.12959E-05-1.64421E-05-3.20855E-05 8.40216E-07 2.18463E-19-1.42854E-18
 -1       605 9.28922E-05-1.89956E-05-3.16757E-05 5.26091E-06 7.41052E-19-1.07836E-18
 -1       606 9.39869E-05-2.09293E-05-3.13184E-05 6.13853E-06 8.82908E-19-5.79466E-19
 -1       607 9.52734E-05-2.40946E-05-3.04949E-05 5.14326E-06 8.00073E-19-4.13358E-19
 -1       608 9.54182E-05-2.57067E-05-2.98754E-05-2.43144E-06-6.40742E-19-9.73240E-19
 -1       609 9.54746E-05-2.69378E-05-2.93723E-05-8.56341E-07-5.50476E-19-9.12829E-19
 -1       610 9.54204E-05-2.76962E-05-2.90245E-05 1.51554E-07-3.19969E-19-8.81359E-19
 -1       611 9.53444E-05-2.81638E-05-2.87917E-05 7.47399E-07-3.13562E-19-1.04497E-18
 -1       612 9.52800E-05-2.84488E-05-2.86420E-05 1.06097E-06-3.43623E-19-1.20733E-18
 -1       613 9.52352E-05-2.86150E-05-2.85516E-05 1.18948E-06-1.59196E-19-1.03504E-18
 -1       614 9.52084E-05-2.87018E-05-2.85029E-05 1.20419E-06-3.42439E-19-2.19582E-19
 -1       615 9.51959E-05-2.87355E-05-2.84831E-05 1.15617E-06-2.95970E-19 1.06153E-19
 -1       616 9.51942E-05-2.87340E-05-2.84830E-05 1.08126E-06-3.83135E-19-1.71631E-19
 -1       617 9.52013E-05-2.87107E-05-2.84960E-05 1.00396E-06-3.81094E-19-4.01563E-19
 -1       618 9.52166E-05-2.86763E-05-2.85173E-05 9.40164E-07 1.17875E-19-2.46117E-19
 -1       619 9.52419E-05-2.86406E-05-2.85435E-05 8.98891E-07 2.19336E-20-1.72208E-19
 -1       620 9.52815E-05-2.86143E-05-2.85717E-05 8.83139E-07-4.60775E-19 4.58372E-19
 -1       621 9.53429E-05-2.86103E-05-2.85997E-05 8.89828E-07-1.01352E-18 4.78982E-19
 -1       622 9.54376E-05-2.86452E-05-2.86254E-05 9.08940E-07-8.31230E-19 9.45884E-19
 -1       623 9.55822E-05-2.87404E-05-2.86466E-05 9.21864E-07-4.02644E-19 1.31941E-18
 -1       624 9.57984E-05-2.89218E-05-2.86615E-05 8.99129E-07-2.33086E-19 9.66314E-19
 -1       625 9.61119E-05-2.92178E-05-2.86691E-05 7.98007E-07-2.08344E-19 5.13363E-19
 -1       626 9.65490E-05-2.96529E-05-2.86701E-05 5.60918E-07 1.09611E-18-2.74627E-19
 -1       627 9.71276E-05-3.02361E-05-2.86683E-05 1.16531E-07 3.28369E-19-1.45628E-19
 -1       628 9.78427E-05-3.09417E-05-2.86726E-05-6.13143E-07-6.81063E-19-2.78420E-19
 -1       629 9.86448E-05-3.16842E-05-2.86983E-05-1.69457E-06 6.78128E-19-1.36460E-19
 -1       630 9.94160E-05-3.22942E-05-2.87674E-05-3.14759E-06 1.13325E-18-4.95120E-19
 -1       631 9.99575E-05-3.25118E-05-2.89060E-05-4.89020E-06 6.08669E-19-1.11596E-18
 -1       632 1.00014E-04-3.20303E-05-2.91361E-05-6.67212E-06 2.19671E-19-8.78136E-19
 -1       633 9.93650E-05-3.06177E-05-2.94625E-05-8.03682E-06 3.58533E-19 6.24804E-20
 -1       634 9.79782E-05-2.83045E-05-2.98589E-05-8.37865E-06 9.12703E-19 9.23054E-19
 -1       635 9.61633E-05-2.55590E-05-3.02579E-05-7.15258E-06 9.09552E-19 1.23726E-18
 -1       636 9.45703E-05-2.32606E-05-3.05602E-05-4.23729E-06 1.42114E-18 2.20301E-18
 -1       637 9.39115E-05-2.23332E-05-3.06744E-05-1.81982E-07-9.87007E-19 3.21176E-18
 -1       638 9.44947E-05-2.31662E-05-3.05677E-05 3.89732E-06-8.46439E-19 3.06525E-18
 -1       639 9.60342E-05-2.53938E-05-3.02731E-05 6.90627E-06-1.05856E-18 8.82076E-19
 -1       640 9.78566E-05-2.81449E-05-2.98750E-05 8.24066E-06-1.67133E-18-2.37609E-19
 -1       641 9.92900E-05-3.05189E-05-2.94727E-05 7.97506E-06-1.19811E-18-1.03047E-18
 -1       642 9.99911E-05-3.20060E-05-2.91366E-05 6.63421E-06-6.00481E-19-2.56143E-19
 -1       643 9.99705E-05-3.25440E-05-2.88978E-05 4.83647E-06-3.45444E-19-3.11696E-19
 -1       644 9.94438E-05-3.23547E-05-2.87535E-05 3.05733E-06-7.81955E-19-1.03663E-18
 -1       645 9.86679E-05-3.17436E-05-2.86828E-05 1.56394E-06 4.68552E-20-4.18188E-19
 -1       646 9.78453E-05-3.09721E-05-2.86607E-05 4.52525E-07 3.35757E-19-7.99427E-19
 -1       647 9.70964E-05-3.02110E-05-2.86657E-05-2.84144E-07 1.33641E-18-2.05889E-18
 -1       648 9.64717E-05-2.95463E-05-2.86826E-05-7.01140E-07 9.62990E-19-1.65764E-18
 -1       649 9.59793E-05-2.90072E-05-2.87024E-05-8.64788E-07 1.07440E-18 1.31106E-18
 -1       650 9.49851E-05-2.81228E-05-2.86550E-05-7.77942E-07 3.50033E-19-3.78185E-19
 -1       651 7.73436E-05-3.57609E-05-1.74795E-05 4.47423E-05-8.22893E-19-3.54843E-18
 -1       652 9.50910E-05-2.77290E-05-2.88688E-05-1.80070E-07 4.33706E-19-6.87972E-19
 -1       653 9.49146E-05-2.85209E-05-2.84546E-05-1.20649E-06 4.56960E-19 2.29955E-20
 -1       654 9.49306E-05-2.86042E-05-2.84257E-05-1.21111E-06-2.67557E-20 2.86357E-19
 -1       655 9.49662E-05-2.86436E-05-2.84241E-05-1.15607E-06 2.76044E-19 2.55229E-19
 -1       656 9.50132E-05-2.86509E-05-2.84411E-05-1.07894E-06 4.24622E-19-4.52215E-20
 -1       657 9.50663E-05-2.86333E-05-2.84714E-05-1.00683E-06 9.70958E-19-4.20312E-21
 -1       658 9.51241E-05-2.85912E-05-2.85141E-05-9.59933E-07 3.28715E-19 8.36507E-19
 -1       659 9.51773E-05-2.85277E-05-2.85641E-05-9.61333E-07 7.19489E-19 5.29206E-19
 -1       660 9.52248E-05-2.84360E-05-2.86237E-05-1.02535E-06-5.34178E-19 9.39285E-20
 -1       661 9.52585E-05-2.83044E-05-2.86944E-05-1.17205E-06-6.30237E-19 9.49393E-19
 -1       662 9.52649E-05-2.81139E-05-2.87786E-05-1.42613E-06-4.97332E-19 9.12159E-19
 -1       663 9.52129E-05-2.78146E-05-2.88843E-05-1.84464E-06-1.82423E-19 5.38911E-19
 -1       664 9.50592E-05-2.73834E-05-2.90028E-05-2.43318E-06 1.55780E-19 4.52101E-20
 -1       665 9.47264E-05-2.67383E-05-2.91361E-05-3.26251E-06-3.04048E-19 6.71826E-20
 -1       666 9.40859E-05-2.57775E-05-2.92725E-05-4.40029E-06 3.62354E-20-6.59904E-19
 -1       667 9.29381E-05-2.43725E-05-2.93817E-05-5.92139E-06 3.75831E-19-4.76707E-19
 -1       668 9.09948E-05-2.23886E-05-2.93988E-05-7.90330E-06-8.25919E-20-2.80988E-19
 -1       669 8.76646E-05-1.96066E-05-2.91607E-05-1.05452E-05 1.02578E-18-5.71133E-19
 -1       670 8.27979E-05-1.64608E-05-2.84139E-05-1.36966E-05-1.35952E-19-7.84044E-19
 -1       671 7.60292E-05-1.36654E-05-2.66611E-05-1.77544E-05-9.52995E-20-5.33187E-19
 -1       672 6.79221E-05-1.33140E-05-2.31433E-05-2.33387E-05-1.24822E-19-2.49292E-19
 -1       673 7.17408E-05-2.47688E-05-1.95940E-05-3.35412E-05 8.78347E-19 1.39707E-19
 -1       674 8.17045E-05-1.59592E-05-2.81458E-05 1.73836E-05-1.87629E-18-1.14531E-18
 -1       675 8.67893E-05-1.87733E-05-2.91382E-05 1.33586E-05-2.55186E-18-4.74136E-20
 -1       676 9.03458E-05-2.15124E-05-2.94928E-05 1.01708E-05-2.20853E-18-1.49887E-18
 -1       677 9.26731E-05-2.37895E-05-2.95163E-05 7.55350E-06 4.79368E-19-6.96875E-19
 -1       678 9.39520E-05-2.53246E-05-2.94073E-05 5.63063E-06 4.54930E-19 4.31150E-19
 -1       679 9.46552E-05-2.63529E-05-2.92693E-05 4.17477E-06-3.02388E-19-1.56792E-18
 -1       680 9.50404E-05-2.69687E-05-2.91716E-05 3.20572E-06 1.19978E-18-7.42355E-19
 -1       681 9.57136E-05-2.87140E-05-2.87135E-05-8.59718E-07 8.26483E-19-2.57580E-19
 -1       682 1.26669E-04-7.07292E-06-5.18488E-05 6.60940E-06-2.82459E-18-1.93951E-18
 -1       683 9.36427E-05-2.64322E-05-2.88049E-05-1.57472E-06-1.16920E-19 1.44917E-18
 -1       684 9.27437E-05-2.53721E-05-2.88737E-05 3.92060E-07-4.55236E-19-4.92761E-19
 -1       685 9.43603E-05-2.71786E-05-2.87924E-05-2.00108E-06-8.31555E-19 7.91068E-19
 -1       686 9.30331E-05-2.57682E-05-2.88283E-05-7.47274E-07-1.18088E-18-1.88150E-18
 -1       687 3.67855E-05-5.26920E-06-1.29206E-05-9.50291E-06-9.89751E-19 4.18064E-19
 -1       688 9.49989E-05-2.78419E-05-2.87817E-05-2.05350E-06-6.01296E-20-1.20963E-18
 -1       689 9.54689E-05-2.83475E-05-2.87662E-05-1.83029E-06 1.88048E-19-2.68287E-18
 -1       690 9.57228E-05-2.86499E-05-2.87451E-05-1.45516E-06 1.68369E-18-1.89111E-18
 -1       691 4.69612E-05-9.03920E-06-1.57189E-05 1.99662E-05 4.34131E-19 2.38334E-19
 -1       692 1.25480E-04-6.58242E-06-5.15282E-05-6.25007E-06-1.97142E-18-9.31511E-19
 -1       693 1.32975E-04-2.42786E-05-4.70695E-05-1.32620E-05-4.98055E-19-1.02427E-18
 -1       694 9.49288E-05-2.83681E-05-2.85260E-05-1.08545E-06 1.43418E-19-1.38662E-19
 -1       695 9.50089E-05-2.36246E-05-3.05902E-05-4.72052E-06-5.60113E-19-9.97089E-19
 -1       696 1.12613E-04-5.44026E-05-2.47680E-05-3.73738E-05-4.34793E-19 1.69223E-18
 -1       697 4.44513E-05-1.36626E-05-1.26103E-05 3.03716E-05 1.05342E-18-3.24774E-18
 -1       698 9.20799E-05-1.76733E-05-3.18943E-05 3.94637E-06 6.29198E-19-1.00543E-18
 -1       699 9.20254E-05-1.75998E-05-3.19032E-05-3.88998E-06-1.65388E-19-1.14254E-18
 -1       700 1.09554E-04-5.31277E-05-2.40253E-05 3.90000E-05-4.87891E-19-4.29810E-19
 -1       701 7.58838E-05-1.52083E-05-2.58436E-05 2.22229E-05-6.71565E-19-5.10932E-19
 -1       702 7.31917E-05-3.27182E-05-1.69089E-05-4.38627E-05 6.83979E-19 3.27913E-18
 -1       703 3.30814E-05-5.58239E-06-1.11918E-05 8.89807E-06 1.01216E-18-1.52672E-18
 -1       704 1.35854E-04-5.89013E-05-3.30209E-05 1.69233E-05-1.46834E-18 1.74791E-18
 -1       705 1.41720E-04-4.68747E-05-4.09441E-05-3.19156E-06-1.09470E-18 1.26888E-18
 -1       706 1.32936E-04-2.12087E-05-4.83562E-05 1.27913E-05-2.06560E-18-3.61418E-18
 -1       707 1.39999E-04-4.43706E-05-4.12900E-05 6.15344E-06 1.75968E-18-3.32990E-18
 -1       708 1.36262E-04-5.85721E-05-3.33778E-05-1.50078E-05 2.03070E-18-1.52004E-18
 -1       709 4.65861E-05-1.48544E-05-1.30664E-05-3.21438E-05-2.41550E-18 1.10914E-18
 -1       710 9.28054E-05-1.88740E-05-3.16929E-05-5.23001E-06-5.14647E-19-1.20249E-18
 -1       711 9.12846E-05-1.64287E-05-3.20869E-05-7.77622E-07 1.20865E-19-1.43567E-18
 -1       712 9.53365E-05-2.59733E-05-2.97231E-05 2.54673E-06 4.33318E-19-5.32301E-19
 -1       713 9.15221E-05-1.68032E-05-3.20288E-05-2.36959E-06 2.53283E-20-1.33959E-18
 -1       714 6.59282E-05-2.32635E-05-1.80032E-05 3.58946E-05-2.89963E-19-4.28768E-18
 -1       715 4.21877E-05-5.83935E-06-1.51045E-05-7.91674E-06 2.68761E-19-1.33635E-18
 -1       716 9.29359E-05-2.54085E-05-2.89413E-05 1.58245E-06-2.27942E-19 9.33222E-19
 -1       717 9.36995E-05-2.59340E-05-2.90395E-05 2.60302E-06 2.05812E-18-1.87770E-18
 -1       718 9.52301E-05-2.70711E-05-2.92090E-05 8.67409E-07 3.46521E-19-5.19348E-19
 -1       719 9.59000E-05-2.88847E-05-2.87202E-05-1.17752E-06-1.44429E-19-3.45181E-18
 -1       720 9.41660E-05-2.12963E-05-3.12328E-05-6.15464E-06-5.64124E-19-1.20452E-18
 -1       721 9.46452E-05-2.27411E-05-3.08169E-05 3.88982E-06 6.86715E-19-8.50786E-19
 -1       722 1.14120E-04-7.48918E-06-4.60274E-05 6.07044E-07-1.55976E-18-3.32984E-18
 -1       723 9.58688E-05-2.68746E-05-2.95688E-05-5.66264E-07-3.84749E-19-8.81353E-19
 -1       724 9.59570E-05-2.77557E-05-2.92292E-05 2.39442E-07-4.67772E-19-7.45040E-19
 -1       725 9.59427E-05-2.83088E-05-2.89860E-05 7.27469E-07-4.17412E-19-1.12501E-18
 -1       726 9.58781E-05-2.86393E-05-2.88167E-05 9.86544E-07-1.62229E-20-8.44439E-19
 -1       727 9.57920E-05-2.88183E-05-2.87031E-05 1.09285E-06 1.94920E-19-1.03164E-18
 -1       728 9.56998E-05-2.88945E-05-2.86309E-05 1.10509E-06-1.19022E-19-6.11701E-19
 -1       729 9.56095E-05-2.89019E-05-2.85890E-05 1.06683E-06-2.34409E-19-1.77546E-19
 -1       730 9.55255E-05-2.88648E-05-2.85689E-05 1.00942E-06-1.59418E-19 2.41578E-19
 -1       731 9.54506E-05-2.88014E-05-2.85640E-05 9.54791E-07-3.50342E-19 7.27232E-22
 -1       732 9.53876E-05-2.87264E-05-2.85691E-05 9.17614E-07-1.78401E-19-5.45339E-19
 -1       733 9.53410E-05-2.86539E-05-2.85802E-05 9.06720E-07-7.06960E-20-8.99282E-19
 -1       734 9.53184E-05-2.85994E-05-2.85938E-05 9.25759E-07-3.49105E-19-1.91815E-19
 -1       735 9.53325E-05-2.85825E-05-2.86072E-05 9.73078E-07-8.32341E-19 6.57993E-19
 -1       736 9.54032E-05-2.86286E-05-2.86177E-05 1.04065E-06-4.86130E-19 4.83975E-19
 -1       737 9.55597E-05-2.87711E-05-2.86237E-05 1.11194E-06 2.41983E-20 6.25528E-19
 -1       738 9.58415E-05-2.90503E-05-2.86248E-05 1.15859E-06-2.87088E-19 9.90296E-19
 -1       739 9.62979E-05-2.95108E-05-2.86231E-05 1.13612E-06-2.20445E-19 1.01892E-18
 -1       740 9.69820E-05-3.01914E-05-2.86247E-05 9.79155E-07 6.82337E-19-1.73584E-19
 -1       741 9.79377E-05-3.11063E-05-2.86423E-05 5.98088E-07-1.44969E-19-1.34695E-19
 -1       742 9.91744E-05-3.22142E-05-2.86976E-05-1.17800E-07-1.57243E-19 6.90019E-19
 -1       743 1.00628E-04-3.33757E-05-2.88229E-05-1.28176E-06-3.50260E-20-6.31752E-19
 -1       744 1.02116E-04-3.43103E-05-2.90601E-05-2.96225E-06 1.15293E-18-9.82149E-19
 -1       745 1.03307E-04-3.45837E-05-2.94528E-05-5.09242E-06 8.85840E-19-2.40071E-19
 -1       746 1.03753E-04-3.36856E-05-3.00293E-05-7.33957E-06 1.15855E-18 1.19652E-18
 -1       747 1.03088E-04-3.12827E-05-3.07732E-05-9.02222E-06 8.12923E-19 2.41189E-18
 -1       748 1.01279E-04-2.75404E-05-3.16019E-05-9.21317E-06 8.49988E-19 2.79979E-18
 -1       749 9.89703E-05-2.35031E-05-3.23451E-05-7.12011E-06 6.46534E-19 2.79233E-18
 -1       750 9.72778E-05-2.07493E-05-3.27960E-05-2.82153E-06 3.77641E-20-2.04766E-19
 -1       751 9.72172E-05-2.06720E-05-3.28039E-05 2.40410E-06-9.66802E-19 7.09310E-19
 -1       752 9.88196E-05-2.32670E-05-3.23833E-05 6.77835E-06-2.33910E-18 5.63523E-19
 -1       753 1.01147E-04-2.72958E-05-3.16505E-05 9.04903E-06-2.04718E-18 7.92329E-19
 -1       754 1.03029E-04-3.11093E-05-3.08226E-05 8.98834E-06-1.76750E-18-1.04987E-19
 -1       755 1.03800E-04-3.36448E-05-3.00662E-05 7.34673E-06-2.80505E-19 1.82038E-19
 -1       756 1.03422E-04-3.46418E-05-2.94775E-05 5.08170E-06 4.28031E-19 1.32121E-18
 -1       757 1.02272E-04-3.44279E-05-2.90764E-05 2.90348E-06-1.12316E-19 2.04728E-18
 -1       758 1.00793E-04-3.35086E-05-2.88365E-05 1.16733E-06-6.62563E-19 1.16016E-18
 -1       759 9.93253E-05-3.23240E-05-2.87152E-05-4.31251E-08-1.61809E-19-1.16250E-18
 -1       760 9.80584E-05-3.11587E-05-2.86716E-05-7.86174E-07 3.35870E-19-1.64768E-18
 -1       761 9.70545E-05-3.01493E-05-2.86736E-05-1.15621E-06 1.78148E-18-1.22726E-18
 -1       762 9.63879E-05-2.94340E-05-2.86943E-05-1.22358E-06 1.89911E-18-1.85069E-18
 -1       763 9.49005E-05-2.33962E-05-3.06426E-05-3.50298E-06-5.63489E-19-1.13765E-18
 -1       764 5.84793E-05-6.70768E-06-2.20272E-05 8.40519E-06-5.58853E-19 5.87867E-19
 -1       765 9.55020E-05-2.88195E-05-2.85783E-05-1.15762E-06 2.83666E-19-2.77207E-20
 -1       766 9.55630E-05-2.87462E-05-2.86358E-05-1.14955E-06-1.15825E-19 7.21301E-20
 -1       767 9.53978E-05-2.87921E-05-2.85453E-05-1.05655E-06 6.85410E-19 2.21376E-19
 -1       768 9.53481E-05-2.87143E-05-2.85574E-05-1.00530E-06 2.68423E-19 3.37183E-19
 -1       769 9.52966E-05-2.86049E-05-2.85822E-05-9.87220E-07 4.04252E-19 2.21541E-19
 -1       770 9.52324E-05-2.84581E-05-2.86176E-05-1.01513E-06 2.42867E-19 6.54433E-19
 -1       771 9.51407E-05-2.82619E-05-2.86623E-05-1.10409E-06-6.57980E-19-7.96602E-20
 -1       772 9.49990E-05-2.79960E-05-2.87155E-05-1.26892E-06-8.06842E-19-3.55808E-19
 -1       773 9.47552E-05-2.76050E-05-2.87785E-05-1.54020E-06-1.06746E-19-1.00581E-18
 -1       774 9.43703E-05-2.70732E-05-2.88414E-05-1.90854E-06 8.21468E-19-1.22168E-18
 -1       775 9.37452E-05-2.63150E-05-2.88984E-05-2.39671E-06-1.64872E-19-1.23969E-18
 -1       776 9.27383E-05-2.52315E-05-2.89311E-05-3.00889E-06 9.24711E-20-1.21301E-18
 -1       777 9.11398E-05-2.36978E-05-2.89032E-05-3.73003E-06 6.65162E-20-5.60683E-19
 -1       778 8.86506E-05-2.15727E-05-2.87478E-05-4.51639E-06 1.46755E-19-3.60123E-19
 -1       779 8.46125E-05-1.85696E-05-2.83032E-05-5.29780E-06 5.53700E-20 3.31526E-19
 -1       780 7.88034E-05-1.49326E-05-2.73680E-05-5.86603E-06 4.71201E-19 7.89887E-19
 -1       781 7.03663E-05-1.07866E-05-2.54970E-05-6.18773E-06-3.27305E-19 5.56809E-19
 -1       782 5.81896E-05-6.69782E-06-2.18675E-05-6.59481E-06-2.11103E-19-5.76300E-19
 -1       783 8.24302E-05-1.70014E-05-2.80410E-05 6.92158E-06-1.33661E-18-1.31147E-18
 -1       784 8.73342E-05-2.04000E-05-2.86895E-05 5.86664E-06-1.28665E-18-1.14046E-18
 -1       785 1.32699E-04-5.04220E-05-3.53346E-05-2.84533E-07 1.71187E-18-2.82045E-18
 -1       786 9.54473E-05-2.88290E-05-2.85507E-05-1.11519E-06 7.11553E-19 2.24935E-19
 -1       787 7.56289E-05-1.31605E-05-2.67826E-05 7.87088E-06-2.08894E-18 8.91833E-19
 -1       788 9.03769E-05-2.28266E-05-2.89507E-05 4.87416E-06 3.70175E-19-1.43821E-18
 -1       789 9.23069E-05-2.45361E-05-2.90442E-05 3.92163E-06 4.52780E-19-3.06551E-18
 -1       790 9.30907E-05-2.53304E-05-2.90448E-05 3.25267E-06-8.72218E-19-2.65221E-18
 -1       791 9.59872E-05-4.17529E-05-2.30672E-05 3.63397E-05-3.67136E-20-7.37250E-19
 -1       792 1.27430E-04-3.13495E-05-4.14577E-05 1.27825E-05 3.35849E-19-5.79256E-18
 -1       793 9.32039E-05-1.97690E-05-3.14732E-05 1.23058E-06 2.89782E-19-1.30225E-18
 -1       794 9.40328E-05-2.13190E-05-3.11642E-05-4.45179E-06-5.10019E-19-1.36101E-18
 -1       795 1.19806E-04-1.41672E-05-4.55946E-05 1.09305E-05-5.08908E-19-5.43502E-18
 -1       796 9.37954E-05-2.69607E-05-2.86434E-05-2.63230E-06-1.54624E-18-3.24441E-19
 -1       797 9.60917E-05-2.91204E-05-2.87017E-05-1.92125E-06-1.85696E-19-1.31846E-18
 -1       798 9.48290E-05-2.79396E-05-2.86670E-05-2.75101E-06-1.27815E-18 7.66819E-19
 -1       799 9.56301E-05-2.85759E-05-2.87376E-05-1.03941E-06-8.52746E-22-2.77971E-19
 -1       800 9.56924E-05-2.82730E-05-2.88940E-05-7.67856E-07 6.19552E-20-2.38100E-19
 -1       801 9.52218E-05-2.45039E-05-3.03069E-05 3.39074E-06 6.57320E-19-4.58438E-19
 -1       802 9.56383E-05-2.86939E-05-2.86905E-05-2.45199E-06-2.27609E-19-2.42739E-18
 -1       803 1.30683E-04-3.60328E-05-4.07738E-05-1.11575E-05 4.31722E-20 4.27209E-19
 -1       804 9.57319E-05-2.77700E-05-2.91265E-05-2.49103E-07 1.37405E-19-3.79921E-19
 -1       805 9.55784E-05-2.55182E-05-3.00284E-05-1.79532E-06-4.30142E-19-8.64556E-19
 -1       806 4.69002E-05-7.40253E-06-1.65139E-05 1.61783E-05 4.56140E-19-1.84333E-18
 -1       807 1.17918E-04-1.51662E-05-4.43657E-05-1.09905E-05-6.99596E-19-1.94888E-18
 -1       808 1.33490E-04-5.15484E-05-3.52114E-05 1.56386E-06-5.93955E-19 2.09277E-18
 -1       809 1.23323E-04-5.50740E-05-2.92268E-05-2.10200E-05 6.62922E-19-3.70940E-18
 -1       810 1.22328E-04-5.49257E-05-2.88547E-05 2.25538E-05-1.07620E-19 1.67759E-18
 -1       811 9.59294E-05-4.17075E-05-2.31110E-05-3.58057E-05 2.81943E-19 1.62781E-18
 -1       812 9.30954E-05-1.95711E-05-3.15108E-05 1.91134E-08 1.53651E-19-1.35045E-18
 -1       813 5.48331E-05-7.95561E-06-1.98496E-05-1.15976E-05-1.38227E-18 1.49841E-18
 -1       814 7.45704E-05-2.61010E-05-2.05749E-05-3.36897E-05-1.11473E-18 1.97013E-18
 -1       815 1.25663E-04-4.05590E-05-3.65566E-05 8.78081E-06 1.46089E-18-3.78362E-18
 -1       816 9.16067E-05-2.44988E-05-2.87609E-05 8.73215E-07-3.22740E-19 4.11970E-19
 -1       817 9.18655E-05-2.49734E-05-2.86695E-05-7.42965E-07-1.68704E-18-7.62128E-19
 -1       818 9.27018E-05-2.58848E-05-2.86369E-05-1.96832E-06-6.28426E-19-3.64437E-19
 -1       819 9.56947E-05-2.69403E-05-2.94661E-05 6.34147E-07 2.52303E-19-7.96287E-19
 -1       820 9.40257E-05-2.13471E-05-3.11487E-05 3.30296E-06 5.52636E-19-8.85422E-19
 -1       821 6.15185E-05-1.50635E-05-1.97332E-05 2.43900E-05-3.37357E-20-4.79868E-18
 -1       822 9.35201E-05-2.03562E-05-3.13571E-05 2.35905E-06 4.11884E-19-9.72091E-19
 -1       823 1.19052E-04-2.55291E-05-4.01827E-05-1.32446E-05 1.76342E-19-2.05174E-18
 -1       824 9.33176E-05-1.99633E-05-3.14396E-05-3.54587E-06-2.87569E-19-7.80612E-19
 -1       825 9.28166E-05-1.90638E-05-3.16106E-05-2.37706E-06 4.37193E-20-1.11291E-18
 -1       826 9.62891E-05-2.93301E-05-2.86982E-05-1.58506E-06-1.26799E-19-2.45592E-18
 -1       827 9.28691E-05-1.91671E-05-3.15871E-05-1.13429E-06 6.94837E-20-1.38623E-18
 -1       828 9.63528E-05-2.78941E-05-2.93395E-05 3.14652E-07-4.43769E-19-7.35839E-19
 -1       829 9.63663E-05-2.84735E-05-2.90969E-05 6.70078E-07-2.21854E-19-7.80582E-19
 -1       830 9.62924E-05-2.88113E-05-2.89205E-05 8.56804E-07-1.37630E-19-9.58241E-19
 -1       831 9.61709E-05-2.89803E-05-2.87960E-05 9.30669E-07 2.16023E-20-1.26962E-18
 -1       832 9.60266E-05-2.90334E-05-2.87114E-05 9.36397E-07 9.75975E-22-1.09349E-18
 -1       833 9.58748E-05-2.90087E-05-2.86569E-05 9.08094E-07 9.40018E-20-8.04509E-19
 -1       834 9.57249E-05-2.89342E-05-2.86246E-05 8.71031E-07-3.62749E-19-7.45415E-19
 -1       835 9.55829E-05-2.88309E-05-2.86080E-05 8.43648E-07-4.22064E-19-8.92661E-19
 -1       836 9.54543E-05-2.87168E-05-2.86018E-05 8.39357E-07 3.69632E-20-7.58586E-19
 -1       837 9.53459E-05-2.86094E-05-2.86014E-05 8.67635E-07 8.71135E-20-2.78847E-19
 -1       838 9.52691E-05-2.85288E-05-2.86030E-05 9.34738E-07-2.10468E-19-4.88590E-19
 -1       839 9.52423E-05-2.85011E-05-2.86034E-05 1.04364E-06-6.49669E-19 6.76412E-19
 -1       840 9.52951E-05-2.85617E-05-2.86000E-05 1.19271E-06 6.60080E-20 7.48823E-19
 -1       841 9.54711E-05-2.87568E-05-2.85918E-05 1.37285E-06-5.47592E-19 3.67028E-19
 -1       842 9.58313E-05-2.91445E-05-2.85801E-05 1.56254E-06-2.36736E-19-7.11263E-19
 -1       843 9.64536E-05-2.97900E-05-2.85702E-05 1.71995E-06-9.77894E-20 5.53195E-21
 -1       844 9.74271E-05-3.07531E-05-2.85746E-05 1.77180E-06 2.32410E-19-3.59142E-19
 -1       845 9.88336E-05-3.20621E-05-2.86165E-05 1.60055E-06 5.17335E-19-4.58566E-19
 -1       846 1.00709E-04-3.36647E-05-2.87336E-05 1.03789E-06-5.98114E-19-1.54874E-19
 -1       847 1.02983E-04-3.53609E-05-2.89810E-05-1.22019E-07 9.34666E-20-4.13370E-19
 -1       848 1.05388E-04-3.67159E-05-2.94304E-05-2.05624E-06 1.62224E-18-8.90566E-19
 -1       849 1.07397E-04-3.70329E-05-3.01559E-05-4.76799E-06 1.92101E-18 1.34668E-19
 -1       850 1.08212E-04-3.54262E-05-3.11996E-05-7.79450E-06 1.69795E-18-3.05295E-19
 -1       851 1.07368E-04-3.15613E-05-3.24979E-05-1.00535E-05 1.11808E-18-4.06251E-19
 -1       852 1.04654E-04-2.56786E-05-3.38393E-05-9.86923E-06 8.25436E-19-2.34749E-19
 -1       853 1.01865E-04-2.02900E-05-3.49582E-05-6.56956E-06-1.64509E-18-7.13215E-19
 -1       854 1.00069E-04-1.75281E-05-3.54019E-05-1.30377E-07 3.00739E-19-7.97914E-19
 -1       855 1.01274E-04-1.97762E-05-3.49510E-05 6.05526E-06-1.22979E-18-1.01453E-18
 -1       856 1.04415E-04-2.52737E-05-3.39132E-05 9.75789E-06-1.45793E-18 4.40397E-19
 -1       857 1.07274E-04-3.12528E-05-3.25638E-05 1.00230E-05-2.23977E-18 1.43151E-18
 -1       858 1.08339E-04-3.53684E-05-3.12754E-05 7.87274E-06-4.61337E-19 2.81820E-18
 -1       859 1.07593E-04-3.70913E-05-3.02150E-05 4.82711E-06 7.11458E-21 1.88065E-18
 -1       860 1.05665E-04-3.68903E-05-2.94754E-05 2.05235E-06-3.83644E-19-3.35814E-20
 -1       861 1.03279E-04-3.55700E-05-2.90189E-05 3.85040E-08-8.93649E-19-2.27667E-19
 -1       862 1.00996E-04-3.38599E-05-2.87729E-05-1.18730E-06-2.08380E-19-4.06454E-19
 -1       863 9.90908E-05-3.22010E-05-2.86674E-05-1.79080E-06 9.41522E-19 1.49714E-18
 -1       864 9.76345E-05-3.07877E-05-2.86480E-05-1.98183E-06 1.10778E-18 1.31980E-18
 -1       865 7.12887E-05-1.21580E-05-2.53203E-05-2.76371E-06-1.69537E-18 1.17565E-18
 -1       866 9.58070E-05-2.55993E-05-3.00888E-05-1.15977E-06-4.16177E-19-7.05030E-19
 -1       867 9.54910E-05-2.87250E-05-2.86140E-05-9.19131E-07 3.30603E-19-2.34905E-19
 -1       868 9.56356E-05-2.88651E-05-2.86160E-05-9.49906E-07 4.49355E-19 1.09707E-19
 -1       869 9.51558E-05-2.83122E-05-2.86473E-05-9.51563E-07-1.84744E-19 2.21312E-19
 -1       870 9.49198E-05-2.80105E-05-2.86754E-05-1.02971E-06-5.27891E-19 4.10229E-20
 -1       871 9.45745E-05-2.75898E-05-2.87077E-05-1.15978E-06-4.02955E-19-3.24239E-19
 -1       872 9.40950E-05-2.70470E-05-2.87349E-05-1.32423E-06 5.37683E-19-5.48328E-19
 -1       873 9.33879E-05-2.63094E-05-2.87480E-05-1.50915E-06 4.23929E-19-4.02162E-20
 -1       874 9.23354E-05-2.53022E-05-2.87285E-05-1.67505E-06-1.25904E-19-5.42108E-19
 -1       875 9.07711E-05-2.39349E-05-2.86442E-05-1.74651E-06-1.07344E-19-6.30934E-19
 -1       876 8.84683E-05-2.21106E-05-2.84398E-05-1.59777E-06-5.82510E-20-8.06249E-19
 -1       877 8.49160E-05-1.96150E-05-2.79866E-05-9.63777E-07-2.46208E-19-8.35174E-19
 -1       878 8.00215E-05-1.66627E-05-2.71528E-05 4.27702E-07-1.92059E-19-7.57827E-19
 -1       879 7.31281E-05-1.32806E-05-2.56297E-05 3.03739E-06 1.76475E-19-1.05412E-18
 -1       880 6.33185E-05-9.71742E-06-2.28818E-05 7.36755E-06 3.16029E-19-1.59147E-18
 -1       881 9.57669E-05-2.89494E-05-2.86361E-05-9.91329E-07 6.49918E-19-1.51050E-19
 -1       882 6.94382E-05-1.70143E-05-2.24246E-05-2.07541E-05-8.10046E-19 7.95920E-19
 -1       883 8.99774E-05-2.30168E-05-2.86908E-05 2.32635E-06 1.28493E-18-1.08395E-18
 -1       884 9.48217E-05-2.31235E-05-3.07255E-05-2.87395E-06-3.98230E-19-9.84320E-19
 -1       885 1.08770E-04-4.59790E-05-2.69075E-05 2.41735E-05 1.00523E-18 1.72825E-18
 -1       886 9.04752E-05-3.37185E-05-2.42494E-05-2.84469E-05 3.23988E-19-2.71406E-19
 -1       887 7.89650E-05-1.60122E-05-2.69713E-05-1.73727E-07 3.23725E-20 9.89552E-19
 -1       888 9.55203E-05-2.59281E-05-2.98252E-05 1.77534E-06 3.55896E-19-6.75488E-19
 -1       889 1.23821E-04-5.03480E-05-3.14659E-05-6.82246E-06 9.89462E-19-1.50657E-18
 -1       890 1.09031E-04-1.21604E-05-4.16574E-05-5.20736E-06-7.28753E-19-4.03452E-18
 -1       891 1.15450E-04-2.22534E-05-4.00926E-05 1.23277E-05-5.25730E-19-4.00785E-18
 -1       892 9.44714E-05-2.79427E-05-2.85114E-05-3.73816E-06-2.12364E-18-2.15149E-19
 -1       893 9.61225E-05-2.87595E-05-2.88699E-05-9.36428E-07-2.72967E-20-5.66631E-19
 -1       894 9.61923E-05-2.84370E-05-2.90380E-05-7.29146E-07-1.11527E-19-4.33815E-19
 -1       895 9.58947E-05-2.89759E-05-2.86795E-05-1.02341E-06 2.75894E-19-4.29070E-19
 -1       896 9.53383E-05-2.85451E-05-2.86257E-05-9.16830E-07 2.20458E-19 1.31369E-19
 -1       897 8.44793E-05-1.92247E-05-2.79598E-05 1.33554E-06-2.73895E-19-2.83643E-18
 -1       898 8.75857E-05-2.12837E-05-2.84082E-05 2.02227E-06 2.34916E-19-3.20932E-18
 -1       899 9.61938E-05-2.78871E-05-2.92743E-05-3.33839E-07-7.74425E-21-6.93248E-19
 -1       900 1.25552E-04-4.18616E-05-3.59583E-05-8.00964E-06-2.06871E-19-5.18980E-19
 -1       901 1.24498E-04-5.12721E-05-3.14062E-05 7.96426E-06-1.03642E-19 2.22790E-18
 -1       902 8.15728E-05-2.86076E-05-2.25480E-05 3.04097E-05 4.55322E-19-1.23359E-18
 -1       903 1.09921E-04-1.35937E-05-4.14672E-05 6.58907E-06-6.83152E-19-3.87778E-18
 -1       904 9.60160E-05-2.89242E-05-2.87536E-05-1.01840E-06-1.07727E-19-4.84126E-19
 -1       905 9.61888E-05-2.69722E-05-2.96643E-05-2.76401E-07-3.51868E-19-7.29775E-19
 -1       906 1.09389E-04-4.62995E-05-2.70077E-05-2.38016E-05 8.52221E-19-3.36417E-18
 -1       907 9.68638E-05-2.99705E-05-2.86686E-05-1.78373E-06 1.49940E-19-8.10256E-19
 -1       908 8.97293E-05-2.33407E-05-2.84515E-05-4.47241E-07-7.56127E-19-2.87673E-18
 -1       909 1.21740E-04-4.49723E-05-3.29231E-05 2.61550E-06-3.25625E-19-2.25713E-18
 -1       910 9.60711E-05-2.70037E-05-2.96014E-05 3.47669E-07-4.07589E-20-4.54182E-19
 -1       911 1.09587E-04-1.87399E-05-3.90190E-05-9.95170E-06-6.02267E-19-3.31947E-18
 -1       912 9.28416E-05-2.64604E-05-2.84467E-05-3.49781E-06-1.81841E-18-6.64874E-19
 -1       913 9.57804E-05-2.90823E-05-2.85831E-05-3.34900E-06-2.30064E-18-8.60655E-20
 -1       914 9.45397E-05-2.22573E-05-3.09783E-05 4.30985E-07 8.44975E-20-1.25111E-18
 -1       915 9.52585E-05-2.42320E-05-3.04383E-05 2.25619E-06 4.48734E-19-7.69883E-19
 -1       916 9.63032E-05-3.63225E-05-2.56605E-05 2.45630E-05 9.58385E-19 1.87137E-18
 -1       917 1.16635E-04-3.13842E-05-3.65831E-05 1.18992E-05 6.57953E-19-3.39007E-18
 -1       918 9.54497E-05-2.51017E-05-3.01484E-05 2.08000E-06 5.39190E-19-5.35507E-19
 -1       919 9.46865E-05-2.26007E-05-3.08944E-05 1.21707E-06 1.95615E-19-1.11194E-18
 -1       920 9.46168E-05-2.25349E-05-3.08909E-05-2.09428E-06-1.37499E-19-5.96444E-19
 -1       921 9.65721E-05-2.97358E-05-2.86453E-05-2.47463E-06-1.46566E-18-1.37752E-18
 -1       922 9.65343E-05-2.80657E-05-2.93438E-05-3.68642E-07-1.52596E-20-1.02957E-18
 -1       923 7.71968E-05-1.82605E-05-2.52168E-05-1.27536E-05-6.13359E-19-1.84189E-18
 -1       924 9.45615E-05-2.23553E-05-3.09455E-05-1.28564E-06-6.93250E-20-1.05046E-18
 -1       925 9.66544E-05-2.86556E-05-2.91424E-05 5.59523E-07-1.57304E-19-7.70507E-19
 -1       926 9.65569E-05-2.89646E-05-2.89681E-05 6.74281E-07-4.28169E-20-8.30974E-19
 -1       927 9.63992E-05-2.91014E-05-2.88420E-05 7.16279E-07-3.87038E-20-9.04687E-19
 -1       928 9.62104E-05-2.91188E-05-2.87535E-05 7.16670E-07 2.01857E-19-5.58695E-19
 -1       929 9.60086E-05-2.90560E-05-2.86940E-05 6.99968E-07 1.24723E-20-5.98224E-19
 -1       930 9.58054E-05-2.89418E-05-2.86558E-05 6.85138E-07-1.35541E-19-2.55722E-19
 -1       931 9.56079E-05-2.87982E-05-2.86327E-05 6.87514E-07-1.98758E-20 2.36159E-20
 -1       932 9.54225E-05-2.86445E-05-2.86192E-05 7.20019E-07-1.92194E-19-1.96258E-19
 -1       933 9.52575E-05-2.85001E-05-2.86103E-05 7.94354E-07-3.95086E-19-4.88828E-19
 -1       934 9.51263E-05-2.83885E-05-2.86019E-05 9.22297E-07 1.40141E-19-6.76448E-19
 -1       935 9.50526E-05-2.83415E-05-2.85905E-05 1.11549E-06 4.34242E-19 5.74806E-19
 -1       936 9.50743E-05-2.84036E-05-2.85732E-05 1.38412E-06-5.66234E-19 8.89584E-19
 -1       937 9.52502E-05-2.86353E-05-2.85492E-05 1.73343E-06-5.74968E-19 7.43631E-19
 -1       938 9.56646E-05-2.91152E-05-2.85211E-05 2.15643E-06-1.15797E-20 8.27173E-19
 -1       939 9.64312E-05-2.99371E-05-2.84974E-05 2.62095E-06-1.96005E-19 6.53131E-19
 -1       940 9.76896E-05-3.11971E-05-2.84965E-05 3.04801E-06 3.62935E-19 5.23896E-19
 -1       941 9.95842E-05-3.29582E-05-2.85541E-05 3.28092E-06-3.43330E-19 4.02432E-19
 -1       942 1.02213E-04-3.51791E-05-2.87291E-05 3.06805E-06 2.65764E-19 5.13581E-19
 -1       943 1.05533E-04-3.76072E-05-2.91099E-05 2.03051E-06 4.26411E-19 8.34522E-19
 -1       944 1.09185E-04-3.96036E-05-2.98197E-05-1.86489E-07 1.41079E-18-9.04464E-19
 -1       945 1.12439E-04-4.01304E-05-3.09936E-05-3.84176E-06 1.25792E-18-1.96730E-18
 -1       946 1.13549E-04-3.71259E-05-3.27547E-05-8.12971E-06 9.21072E-19-2.40263E-18
 -1       947 1.12464E-04-3.11707E-05-3.48857E-05-1.17508E-05 1.25103E-18-3.59052E-18
 -1       948 1.04487E-04-1.49042E-05-3.85041E-05 4.02839E-06-9.36620E-19-3.24386E-18
 -1       949 1.13658E-04-3.71714E-05-3.27867E-05 8.37623E-06-1.15415E-18-3.92656E-19
 -1       950 1.12628E-04-4.00710E-05-3.10991E-05 4.03210E-06-3.95234E-19-1.48701E-19
 -1       951 1.09596E-04-3.98455E-05-2.98981E-05 3.11230E-07-9.22990E-19-4.91081E-19
 -1       952 1.05961E-04-3.79007E-05-2.91697E-05-2.07883E-06-4.63530E-19 5.31923E-19
 -1       953 1.02624E-04-3.54661E-05-2.87828E-05-3.19772E-06-6.47257E-19 2.22236E-18
 -1       954 9.99594E-05-3.31846E-05-2.86176E-05-3.47616E-06 1.71406E-18 2.69831E-18
 -1       955 9.80160E-05-3.13283E-05-2.85799E-05-3.29936E-06-6.06298E-19 1.29513E-18
 -1       956 8.28232E-05-1.92890E-05-2.72256E-05-4.15794E-06 2.09972E-18-3.09320E-18
 -1       957 1.20141E-04-4.44558E-05-3.24393E-05-2.73237E-06 8.12077E-19-7.09705E-19
 -1       958 9.46136E-05-2.77266E-05-2.86658E-05-7.80122E-07-8.66097E-20-1.74293E-19
 -1       959 9.49780E-05-2.81149E-05-2.86556E-05-7.58899E-07-7.79342E-21 2.85019E-19
 -1       960 9.34537E-05-2.65758E-05-2.86620E-05-7.60483E-07 3.16253E-19-5.91635E-19
 -1       961 9.25319E-05-2.57471E-05-2.86221E-05-6.23753E-07 1.60575E-19-4.83216E-19
 -1       962 9.12470E-05-2.46847E-05-2.85267E-05-2.82620E-07 6.02109E-19-3.02381E-19
 -1       963 8.94694E-05-2.33523E-05-2.83363E-05 4.18394E-07 2.98257E-19-9.60905E-19
 -1       964 8.69012E-05-2.16552E-05-2.79624E-05 1.81345E-06-1.68764E-19-1.24306E-18
 -1       965 8.36116E-05-1.98315E-05-2.73337E-05 4.14036E-06 1.31609E-19-9.98102E-19
 -1       966 7.93688E-05-1.80398E-05-2.62751E-05 7.94850E-06 7.16478E-19-9.99794E-19
 -1       967 7.39761E-05-1.67641E-05-2.44908E-05 1.39900E-05 1.64530E-18-2.89648E-18
 -1       968 9.59432E-05-2.90075E-05-2.86866E-05-8.01906E-07 1.07967E-19-3.27042E-19
 -1       969 8.85552E-05-2.84893E-05-2.57225E-05-1.98699E-05 2.78429E-18-2.40329E-18
 -1       970 8.00194E-05-1.84550E-05-2.63804E-05-7.77267E-06 4.13485E-19-2.93702E-18
 -1       971 1.00819E-04-3.80196E-05-2.69143E-05-1.96226E-05 1.23468E-18-1.96082E-18
 -1       972 9.10070E-05-2.47470E-05-2.83929E-05-2.50123E-06-1.70436E-18-1.37165E-18
 -1       973 9.65396E-05-2.86113E-05-2.91121E-05-6.39265E-07-8.19398E-20-1.02172E-18
 -1       974 9.64788E-05-2.72165E-05-2.96837E-05-4.39248E-08-4.07529E-19-6.43531E-19
 -1       975 9.57324E-05-2.88661E-05-2.86570E-05-7.71232E-07 2.38822E-19 3.85539E-19
 -1       976 9.61321E-05-2.90759E-05-2.87383E-05-8.26846E-07 2.16170E-19-7.61617E-19
 -1       977 1.14127E-04-4.56973E-05-2.93216E-05-1.06880E-05 5.16015E-19-1.80433E-18
 -1       978 9.45286E-05-2.22399E-05-3.09816E-05-4.15607E-07 7.11392E-20-1.42711E-18
 -1       979 7.34187E-05-1.94079E-05-2.30624E-05 2.15136E-05 1.02336E-18-3.09897E-18
 -1       980 9.49463E-05-2.32644E-05-3.07207E-05 1.86034E-06 3.24539E-19-6.49761E-19
 -1       981 9.64489E-05-2.89218E-05-2.89401E-05-7.78303E-07-1.25179E-19-1.17312E-18
 -1       982 9.63051E-05-2.90586E-05-2.88199E-05-8.27999E-07 4.51557E-20-1.03695E-18
 -1       983 9.66485E-05-2.81033E-05-2.93766E-05 3.33529E-07-3.66152E-19-6.98258E-19
 -1       984 9.41175E-05-2.72175E-05-2.86714E-05-7.92677E-07 1.85708E-19-9.46775E-19
 -1       985 9.60552E-05-2.58753E-05-3.00771E-05-6.34410E-07-3.91447E-19-5.34958E-19
 -1       986 1.14106E-04-4.60527E-05-2.91680E-05 1.19288E-05 1.88055E-19 1.36165E-18
 -1       987 9.54652E-05-2.43204E-05-3.04926E-05-1.00391E-06-3.88693E-19-5.63817E-19
 -1       988 8.70514E-05-2.17380E-05-2.79940E-05-2.07131E-06 1.26499E-19-3.37398E-18
 -1       989 9.56010E-05-2.44634E-05-3.04870E-05 4.86332E-07 3.01990E-20-1.12884E-18
 -1       990 1.15727E-04-4.45388E-05-3.05161E-05-2.99375E-06-6.07894E-19-2.18155E-18
 -1       991 9.52675E-05-2.84241E-05-2.86472E-05-7.46656E-07 3.53894E-19 7.59643E-19
 -1       992 8.94538E-05-2.41525E-05-2.79882E-05-4.75039E-06 6.53172E-19-1.58048E-18
 -1       993 9.63969E-05-2.72056E-05-2.96539E-05 9.82318E-08 2.11712E-19-8.10856E-19
 -1       994 9.57912E-05-2.61565E-05-2.98455E-05 1.06876E-06 2.22354E-19-3.67103E-19
 -1       995 9.37890E-05-2.77703E-05-2.82927E-05-5.14052E-06-2.67894E-19-1.76954E-18
 -1       996 1.05660E-04-4.06390E-05-2.78429E-05 1.57448E-05 4.06406E-20 1.05684E-18
 -1       997 9.55161E-05-2.86753E-05-2.86461E-05-7.51072E-07-3.74418E-20 7.41820E-19
 -1       998 8.65162E-05-2.76717E-05-2.52149E-05 2.14371E-05 1.97422E-18 4.84292E-19
 -1       999 9.55518E-05-2.43114E-05-3.05324E-05-2.51063E-10 7.04336E-20-1.36186E-18
 -1      1000 9.58742E-05-2.95197E-05-2.84373E-05-4.64148E-06-1.45946E-18 1.42475E-20
 -1      1001 9.58164E-05-2.54498E-05-3.01547E-05 1.03864E-06 9.95923E-20-8.60970E-19
 -1      1002 9.68523E-05-2.83558E-05-2.93558E-05 2.73453E-07-4.13404E-19-1.05396E-18
 -1      1003 8.71789E-05-2.33550E-05-2.73538E-05-7.92219E-06 1.42107E-18-1.43166E-18
 -1      1004 9.66905E-05-2.90906E-05-2.89715E-05 4.43883E-07 4.43521E-20-8.65496E-19
 -1      1005 9.64967E-05-2.91776E-05-2.88511E-05 4.61981E-07 3.09150E-19-7.49682E-19
 -1      1006 9.62701E-05-2.91500E-05-2.87658E-05 4.61646E-07 3.59949E-19-8.48265E-19
 -1      1007 9.60284E-05-2.90449E-05-2.87072E-05 4.58812E-07 1.86048E-19-5.28563E-19
 -1      1008 9.57823E-05-2.88892E-05-2.86684E-05 4.66514E-07-2.33014E-19-6.98514E-19
 -1      1009 9.55383E-05-2.87044E-05-2.86431E-05 4.98414E-07 6.33416E-20-1.01200E-18
 -1      1010 9.53012E-05-2.85082E-05-2.86256E-05 5.67855E-07-1.80253E-19-7.99035E-19
 -1      1011 9.50774E-05-2.83192E-05-2.86107E-05 6.91126E-07-4.10723E-20-3.61996E-19
 -1      1012 9.48807E-05-2.81621E-05-2.85937E-05 8.88730E-07 6.05862E-19-1.58508E-19
 -1      1013 9.47362E-05-2.80723E-05-2.85702E-05 1.18533E-06 6.31763E-19-2.68254E-19
 -1      1014 9.46872E-05-2.81012E-05-2.85368E-05 1.60940E-06-7.46785E-19 3.12696E-19
 -1      1015 9.48045E-05-2.83234E-05-2.84917E-05 2.18956E-06-8.61642E-20 7.90682E-19
 -1      1016 9.51963E-05-2.88419E-05-2.84372E-05 2.94454E-06-5.15314E-19 2.85070E-19
 -1      1017 9.60181E-05-2.97896E-05-2.83830E-05 3.86592E-06-1.45209E-19 4.21537E-19
 -1      1018 9.74835E-05-3.13257E-05-2.83517E-05 4.88378E-06 1.68215E-19-6.82141E-20
 -1      1019 9.98302E-05-3.35667E-05-2.83968E-05 5.78525E-06 5.04001E-21 6.18108E-19
 -1      1020 1.03299E-04-3.65647E-05-2.86013E-05 6.22876E-06-1.28549E-19 8.38422E-19
 -1      1021 1.08140E-04-4.01625E-05-2.91272E-05 5.48934E-06 5.34949E-19 9.38735E-19
 -1      1022 1.08484E-04-4.04428E-05-2.91655E-05-5.56007E-06 1.02986E-18 3.53748E-19
 -1      1023 1.03831E-04-3.69737E-05-2.86577E-05-6.32429E-06 6.37471E-19 1.94157E-18
 -1      1024 1.00295E-04-3.38790E-05-2.84632E-05-5.97305E-06 9.19984E-19 3.07761E-18
 -1      1025 9.79223E-05-3.15510E-05-2.84427E-05-5.07671E-06-6.76081E-19-1.35191E-19
 -1      1026 9.63475E-05-2.63413E-05-3.00021E-05-2.34068E-07-3.02492E-19-6.20324E-19
 -1      1027 9.20923E-05-2.56134E-05-2.84910E-05 6.31340E-07 7.31166E-19-1.67502E-18
 -1      1028 9.30292E-05-2.63520E-05-2.85760E-05 9.75159E-08 5.62336E-19-8.08821E-19
 -1      1029 8.93688E-05-2.38644E-05-2.80726E-05 3.10166E-06 2.78518E-19-1.97770E-18
 -1      1030 8.75993E-05-2.30767E-05-2.76513E-05 5.51891E-06-3.54093E-19-1.63226E-18
 -1      1031 8.56811E-05-2.26629E-05-2.70022E-05 9.19900E-06-1.29116E-19-1.61174E-18
 -1      1032 9.60769E-05-3.26941E-05-2.71632E-05-1.51879E-05 1.52265E-18-1.96696E-18
 -1      1033 9.67165E-05-2.75547E-05-2.96410E-05 7.11781E-08-5.49083E-19-5.12674E-19
 -1      1034 1.13365E-04-4.28414E-05-3.02395E-05 2.34375E-06 1.17514E-19-2.66276E-19
 -1      1035 8.57714E-05-2.39419E-05-2.65114E-05-1.29075E-05 1.92577E-19-3.18120E-18
 -1      1036 9.57278E-05-2.48890E-05-3.03579E-05 8.39090E-07 1.42547E-19-7.24145E-19
 -1      1037 9.08960E-05-2.47729E-05-2.83385E-05 1.54630E-06 6.20505E-19-1.63686E-18
 -1      1038 9.47739E-05-2.79332E-05-2.86461E-05-4.38203E-07 3.44297E-19-8.56556E-19
 -1      1039 9.67802E-05-2.82982E-05-2.93497E-05-3.35404E-07 5.60790E-21-7.29174E-19
 -1      1040 9.59919E-05-2.90071E-05-2.87077E-05-5.60390E-07-1.54149E-19-6.01269E-19
 -1      1041 9.62304E-05-2.91211E-05-2.87611E-05-5.81839E-07 1.35493E-19-6.23172E-19
 -1      1042 1.05965E-04-3.97775E-05-2.83531E-05-1.15668E-05 1.87398E-18-2.21957E-18
 -1      1043 9.17547E-05-2.61488E-05-2.81313E-05-5.31225E-06 1.78881E-19-3.40226E-19
 -1      1044 9.54780E-05-2.41899E-05-3.05509E-05-5.01042E-07-1.10470E-19-1.19578E-18
 -1      1045 9.67587E-05-2.87967E-05-2.91266E-05-4.92802E-07 1.15385E-20-6.50560E-19
 -1      1046 9.43179E-05-2.74946E-05-2.86386E-05-3.56294E-07 4.54903E-19-7.59920E-19
 -1      1047 9.68231E-05-2.88389E-05-2.91362E-05 3.88434E-07-2.16735E-19-1.13509E-18
 -1      1048 9.37544E-05-2.69761E-05-2.86193E-05-1.99094E-07 4.47686E-19-8.34742E-19
 -1      1049 9.51371E-05-2.82873E-05-2.86500E-05-4.79705E-07 1.93535E-19-3.83993E-19
 -1      1050 8.39006E-05-2.32697E-05-2.59794E-05 1.48467E-05 1.87554E-18-7.80608E-19
 -1      1051 9.56144E-05-2.98311E-05-2.82002E-05-6.64261E-06 3.43982E-19-1.64017E-18
 -1      1052 9.66397E-05-2.74681E-05-2.96446E-05-5.52225E-08 1.00498E-19-4.16499E-19
 -1      1053 9.66361E-05-2.90561E-05-2.89629E-05-5.66965E-07-2.65438E-19-4.57715E-19
 -1      1054 9.62846E-05-2.61804E-05-3.00463E-05 2.73224E-07 1.29078E-19-7.67310E-19
 -1      1055 9.57368E-05-2.88274E-05-2.86754E-05-5.35697E-07-3.29654E-20-5.03618E-20
 -1      1056 9.74025E-05-3.43557E-05-2.70074E-05 1.70120E-05-1.62607E-20 6.44067E-19
 -1      1057 9.64483E-05-2.91497E-05-2.88422E-05-5.89583E-07-6.32759E-20-6.20223E-19
 -1      1058 9.62781E-05-2.59839E-05-3.01250E-05 8.75847E-08-7.24787E-20-1.21335E-18
 -1      1059 9.32590E-05-2.80524E-05-2.79357E-05-7.77169E-06 5.83619E-20-1.91178E-18
 -1      1060 9.64833E-05-2.92029E-05-2.88342E-05 1.81597E-07 2.41847E-19-1.06770E-18
 -1      1061 9.62276E-05-2.91269E-05-2.87572E-05 1.86844E-07 3.08005E-19-8.91469E-19
 -1      1062 9.59521E-05-2.89760E-05-2.87042E-05 1.98849E-07 1.28107E-19-1.03153E-18
 -1      1063 9.56748E-05-2.87817E-05-2.86685E-05 2.26977E-07-4.39894E-20-8.50789E-19
 -1      1064 9.53928E-05-2.85561E-05-2.86441E-05 2.83812E-07 2.11667E-19-5.49817E-19
 -1      1065 9.51027E-05-2.83098E-05-2.86253E-05 3.86518E-07 1.84635E-19-8.70768E-19
 -1      1066 9.48113E-05-2.80629E-05-2.86061E-05 5.56566E-07 3.42267E-19-7.67017E-19
 -1      1067 9.45271E-05-2.78370E-05-2.85811E-05 8.25066E-07 7.49122E-19-9.66219E-19
 -1      1068 9.42713E-05-2.76666E-05-2.85443E-05 1.23461E-06 5.63715E-19-9.40815E-19
 -1      1069 9.40861E-05-2.76069E-05-2.84903E-05 1.83908E-06-8.15617E-20-5.73330E-19
 -1      1070 9.40483E-05-2.77446E-05-2.84149E-05 2.70149E-06-4.27020E-19 7.81183E-19
 -1      1071 9.42887E-05-2.82109E-05-2.83182E-05 3.88346E-06-3.98922E-19 6.28121E-19
 -1      1072 9.50077E-05-2.91821E-05-2.82076E-05 5.42113E-06 1.07923E-19 4.11763E-19
 -1      1073 9.63557E-05-3.08555E-05-2.80829E-05 7.30118E-06 4.31946E-19 3.15346E-19
 -1      1074 9.90557E-05-3.36451E-05-2.80362E-05 9.46160E-06 5.83867E-19 9.15732E-19
 -1      1075 9.25687E-05-2.85023E-05-2.74518E-05-1.11000E-05 8.22087E-19-1.84970E-18
 -1      1076 9.95658E-05-3.39843E-05-2.81006E-05-9.46099E-06 1.12494E-18-2.70281E-18
 -1      1077 9.72040E-05-3.16166E-05-2.81169E-05-8.10457E-06-6.85495E-20-2.92481E-18
 -1      1078 9.05722E-05-2.62293E-05-2.75691E-05 8.62811E-06 1.35523E-19 6.53340E-20
 -1      1079 9.09225E-05-2.57137E-05-2.79500E-05 5.54761E-06-9.77285E-20 2.24207E-20
 -1      1080 9.68981E-05-2.79403E-05-2.95530E-05 5.97145E-08-5.64335E-19-9.22773E-19
 -1      1081 9.30058E-05-2.65126E-05-2.84978E-05 1.12451E-06 7.00879E-19-1.14694E-18
 -1      1082 9.65943E-05-2.68705E-05-2.98814E-05-4.60960E-08-3.11195E-19-1.25717E-18
 -1      1083 9.68807E-05-2.89968E-05-2.90928E-05 1.61122E-07 8.79140E-20-8.28833E-19
 -1      1084 9.09024E-05-2.78263E-05-2.70402E-05 1.28706E-05 8.97426E-19-8.51654E-19
 -1      1085 1.02152E-04-3.66357E-05-2.80708E-05 1.12678E-05-2.80909E-19 1.78836E-18
 -1      1086 9.62269E-05-2.91196E-05-2.87604E-05-3.05064E-07 1.36598E-19-7.38262E-19
 -1      1087 9.69311E-05-2.85480E-05-2.93069E-05-2.14139E-07-2.48244E-19-3.18056E-19
 -1      1088 9.15813E-05-2.57487E-05-2.82154E-05 3.42796E-06 3.13714E-19-3.37928E-19
 -1      1089 9.67094E-05-2.91746E-05-2.89432E-05 1.75797E-07-1.72918E-19-1.26254E-18
 -1      1090 9.69586E-05-2.86086E-05-2.92925E-05 1.28598E-07-1.12562E-19-9.12257E-19
 -1      1091 9.23117E-05-2.60761E-05-2.83877E-05 2.03357E-06 9.32005E-19-9.84384E-19
 -1      1092 9.46042E-05-2.78117E-05-2.86255E-05-1.13754E-08 1.43258E-19-4.61387E-19
 -1      1093 9.54533E-05-2.85844E-05-2.86581E-05-5.10183E-07 1.79314E-19-3.34352E-19
 -1      1094 9.41545E-05-2.74135E-05-2.86036E-05 1.96747E-07 4.02600E-19-8.54173E-19
 -1      1095 9.68653E-05-2.89586E-05-2.91029E-05-2.80428E-07-4.28965E-19-3.74870E-19
 -1      1096 9.64788E-05-2.91927E-05-2.88370E-05-3.15053E-07 1.32889E-19-5.76891E-19
 -1      1097 9.61788E-05-2.57456E-05-3.01857E-05-6.89421E-08-1.80114E-19-1.34201E-18
 -1      1098 9.49929E-05-2.81673E-05-2.86398E-05-1.33808E-07 1.26275E-19-9.79050E-19
 -1      1099 9.36207E-05-2.69711E-05-2.85646E-05 5.50915E-07 7.46688E-19-7.40576E-19
 -1      1100 9.68261E-05-2.78182E-05-2.95754E-05-9.55454E-08-2.16186E-20-7.10869E-19
 -1      1101 9.59547E-05-2.89677E-05-2.87089E-05-2.84370E-07-5.03990E-19-9.71472E-19
 -1      1102 9.66431E-05-2.70328E-05-2.98330E-05 1.34212E-08 3.43286E-20-1.00411E-18
 -1      1103 9.55082E-05-2.86313E-05-2.86614E-05-2.92212E-08 4.03490E-19-1.10671E-18
 -1      1104 9.67014E-05-2.91553E-05-2.89484E-05-3.10145E-07-1.62171E-19-4.24901E-19
 -1      1105 9.58089E-05-2.88658E-05-2.86898E-05-7.04007E-08-2.90944E-19-1.34600E-18
 -1      1106 9.56582E-05-2.87498E-05-2.86750E-05-2.52646E-07 9.21818E-20-7.60960E-19
 -1      1107 1.16848E-04 2.57548E-10-4.18528E-05-4.14637E-05-1.38490E-19 3.53213E-18
 -1      1108 8.86462E-05 7.19138E-11-3.72494E-05-2.41676E-05-7.13625E-20 1.08156E-19
 -1      1109 8.40757E-05 4.14525E-11-3.57658E-05-1.78784E-05-4.99220E-20-1.35850E-18
 -1      1110 8.23340E-05 3.20241E-11-3.50726E-05-1.38362E-05-2.51728E-20-2.01075E-18
 -1      1111 8.15326E-05 2.73299E-11-3.47390E-05-1.05339E-05-1.64642E-20-2.34566E-18
 -1      1112 8.11322E-05 2.46104E-11-3.45743E-05-7.64083E-06-1.40885E-20-2.41449E-18
 -1      1113 8.09242E-05 2.29514E-11-3.44914E-05-4.97965E-06-3.32196E-21-2.49540E-18
 -1      1114 8.08227E-05 2.20556E-11-3.44524E-05-2.43210E-06-2.08450E-21-2.44625E-18
 -1      1115 8.07939E-05 2.17854E-11-3.44415E-05 5.23823E-08 4.11191E-21-2.35150E-18
 -1      1116 8.08271E-05 2.21005E-11-3.44539E-05 2.53943E-06 1.27601E-20-2.29475E-18
 -1      1117 8.09330E-05 2.30514E-11-3.44944E-05 5.09532E-06 1.57429E-20-2.20465E-18
 -1      1118 8.11478E-05 2.47685E-11-3.45786E-05 7.77248E-06 2.01832E-20-2.01673E-18
 -1      1119 8.15552E-05 2.76419E-11-3.47454E-05 1.06934E-05 3.43975E-20-1.71733E-18
 -1      1120 8.23580E-05 3.25005E-11-3.50826E-05 1.40430E-05 3.51519E-20-1.19837E-18
 -1      1121 8.40716E-05 4.19238E-11-3.57858E-05 1.81297E-05 5.23043E-20-3.60743E-19
 -1      1122 8.83441E-05 6.67393E-11-3.73196E-05 2.40104E-05 5.47395E-20 1.29188E-18
 -1      1123 1.06613E-04 1.63910E-10-4.06316E-05 3.61911E-05 1.24937E-19 4.64079E-18
 -1      1124 1.30213E-04-2.57547E-05-4.02710E-05-2.61045E-05-5.28972E-19 5.61752E-18
 -1      1125 9.74494E-05-2.88604E-05-3.15753E-05-6.80408E-07-1.42884E-19 4.33046E-18
 -1      1126 9.01513E-05-2.70240E-05-2.78906E-05 3.86903E-07-6.09599E-20 2.79111E-18
 -1      1127 8.82394E-05-2.65695E-05-2.66409E-05 2.50694E-07-5.95504E-20 1.52773E-18
 -1      1128 8.78807E-05-2.64427E-05-2.63844E-05 1.65833E-07-3.11963E-20 8.51506E-19
 -1      1129 8.82402E-05-2.65195E-05-2.64694E-05 1.17929E-07-5.02520E-20 7.11005E-19
 -1      1130 8.89273E-05-2.67042E-05-2.66724E-05 8.72813E-08-3.13038E-20 2.82036E-20
 -1      1131 8.97440E-05-2.69367E-05-2.69157E-05 6.60565E-08-3.60097E-20-5.08868E-19
 -1      1132 9.05813E-05-2.71807E-05-2.71654E-05 5.03742E-08-4.78940E-20-8.17731E-19
 -1      1133 9.13782E-05-2.74157E-05-2.74038E-05 3.83328E-08-1.08821E-19-1.80694E-18
 -1      1134 9.21034E-05-2.76309E-05-2.76215E-05 2.89390E-08-4.53487E-20-2.85770E-18
 -1      1135 9.27445E-05-2.78220E-05-2.78146E-05 2.16160E-08 6.43489E-20-2.51722E-18
 -1      1136 9.33014E-05-2.79886E-05-2.79829E-05 1.59932E-08 8.48131E-20-3.04165E-18
 -1      1137 9.37821E-05-2.81328E-05-2.81286E-05 1.18162E-08-5.09176E-20-2.44973E-18
 -1      1138 9.41996E-05-2.82583E-05-2.82555E-05 8.90543E-09-1.27364E-19-2.47336E-18
 -1      1139 9.45696E-05-2.83697E-05-2.83681E-05 7.13274E-09-1.83083E-19-3.31026E-18
 -1      1140 9.49083E-05-2.84717E-05-2.84712E-05 6.40011E-09-1.49489E-19-4.19672E-18
 -1      1141 9.52303E-05-2.85685E-05-2.85689E-05 6.61129E-09 4.41178E-20-4.98831E-18
 -1      1142 9.55466E-05-2.86632E-05-2.86643E-05 7.62722E-09 1.14264E-19-5.42782E-18
 -1      1143 9.58606E-05-2.87568E-05-2.87581E-05 9.19787E-09-1.47427E-20-5.74263E-18
 -1      1144 9.61643E-05-2.88466E-05-2.88472E-05 1.08657E-08-2.28980E-19-6.15875E-18
 -1      1145 9.64323E-05-2.89247E-05-2.89235E-05 1.18446E-08 1.29028E-19-5.40794E-18
 -1      1146 9.66154E-05-2.89764E-05-2.89715E-05 1.08978E-08-9.92112E-20-3.83206E-18
 -1      1147 9.66349E-05-2.89780E-05-2.89673E-05 6.27075E-09-3.52948E-19-4.90186E-18
 -1      1148 9.63800E-05-2.88965E-05-2.88780E-05-4.21375E-09 7.82017E-20-5.46420E-18
 -1      1149 9.57121E-05-2.86912E-05-2.86634E-05-2.27469E-08-1.94247E-20-3.50240E-18
 -1      1150 9.44824E-05-2.83187E-05-2.82821E-05-5.06603E-08-1.65941E-20-3.88727E-18
 -1      1151 9.25671E-05-2.77437E-05-2.77021E-05-8.70754E-08 2.02326E-19-3.97405E-18
 -1      1152 8.99201E-05-2.69541E-05-2.69154E-05-1.27407E-07-1.31243E-19-3.76167E-18
 -1      1153 8.66346E-05-2.59794E-05-2.59549E-05-1.62578E-07 6.78288E-23-2.84624E-18
 -1      1154 8.29905E-05-2.49032E-05-2.49047E-05-1.80163E-07-2.12221E-19-2.21851E-18
 -1      1155 7.94537E-05-2.38628E-05-2.38976E-05-1.68316E-07-1.95967E-20-2.22134E-18
 -1      1156 7.66011E-05-2.30262E-05-2.30927E-05-1.21709E-07-1.20105E-19-4.12971E-18
 -1      1157 7.49735E-05-2.25497E-05-2.26359E-05-4.63732E-08-4.24721E-19-4.40427E-18
 -1      1158 7.49046E-05-2.25294E-05-2.26162E-05 4.05187E-08-5.31976E-20-5.19334E-18
 -1      1159 7.64042E-05-2.29680E-05-2.30361E-05 1.17050E-07 5.79159E-20-2.74376E-18
 -1      1160 7.91547E-05-2.37743E-05-2.38110E-05 1.65648E-07-3.09872E-19-4.17344E-18
 -1      1161 8.26221E-05-2.47937E-05-2.47968E-05 1.79504E-07 2.89476E-20-2.73115E-18
 -1      1162 8.62248E-05-2.58570E-05-2.58334E-05 1.63182E-07-2.51447E-19-3.02348E-18
 -1      1163 8.94838E-05-2.68233E-05-2.67844E-05 1.28199E-07-1.31285E-19-3.45370E-18
 -1      1164 9.21040E-05-2.76045E-05-2.75619E-05 8.71087E-08-3.85830E-19-3.62816E-18
 -1      1165 9.39803E-05-2.81678E-05-2.81296E-05 4.93403E-08-1.71840E-19-5.92860E-18
 -1      1166 9.51533E-05-2.85234E-05-2.84940E-05 1.98464E-08 1.97596E-19-5.16655E-18
 -1      1167 9.57486E-05-2.87073E-05-2.86876E-05-1.66286E-10 3.72943E-20-1.96725E-18
 -1      1168 9.59241E-05-2.87656E-05-2.87547E-05-1.16879E-08-2.72298E-19-1.84649E-18
 -1      1169 9.58356E-05-2.87442E-05-2.87407E-05-1.64252E-08-1.20694E-19-1.76084E-18
 -1      1170 9.56204E-05-2.86838E-05-2.86867E-05-1.57634E-08-4.34330E-20-2.88588E-18
 -1      1171 9.53930E-05-2.86187E-05-2.86262E-05-9.90767E-09 1.49666E-19-1.51483E-18
 -1      1172 9.52475E-05-2.85793E-05-2.85822E-05 2.32591E-09-4.07574E-19-2.84658E-18
 -1      1173 9.52168E-05-2.85640E-05-2.85575E-05 6.89444E-09 6.52847E-19-3.59530E-19
 -1      1174 1.31047E-04-3.77360E-05-3.86566E-05 1.21741E-05-9.31207E-20 7.33022E-18
 -1      1175 9.65506E-05-2.81870E-05-3.13278E-05 8.01485E-07 5.74924E-20 5.80355E-18
 -1      1176 9.03650E-05-2.69267E-05-2.78714E-05 1.20224E-07 5.41506E-20 4.35564E-18
 -1      1177 8.83256E-05-2.64966E-05-2.66770E-05 9.20357E-09 1.32779E-20 3.49258E-18
 -1      1178 8.79201E-05-2.64062E-05-2.64115E-05-2.44402E-08-2.58825E-20 3.05901E-18
 -1      1179 8.82751E-05-2.65037E-05-2.64892E-05-3.13415E-08 4.89236E-20 2.60156E-18
 -1      1180 8.89760E-05-2.67078E-05-2.66928E-05-3.51964E-08-5.34768E-20 1.74154E-18
 -1      1181 8.97892E-05-2.69462E-05-2.69338E-05-3.32728E-08-9.85253E-20 1.39665E-18
 -1      1182 9.06198E-05-2.71921E-05-2.71807E-05-3.00618E-08 9.00394E-20 9.85113E-19
 -1      1183 9.14076E-05-2.74266E-05-2.74156E-05-2.60986E-08 3.40596E-20 6.35076E-20
 -1      1184 9.21381E-05-2.76440E-05-2.76343E-05-2.21010E-08 5.07068E-20-2.56141E-19
 -1      1185 9.27790E-05-2.78357E-05-2.78266E-05-1.76861E-08-9.16884E-20 6.99001E-19
 -1      1186 9.33170E-05-2.79967E-05-2.79888E-05-1.36510E-08 3.23606E-20 5.76060E-19
 -1      1187 9.37786E-05-2.81352E-05-2.81284E-05-9.72903E-09 5.74139E-20-8.71862E-19
 -1      1188 9.41792E-05-2.82558E-05-2.82501E-05-5.82731E-09-6.32854E-20-1.43133E-18
 -1      1189 9.45481E-05-2.83672E-05-2.83628E-05-1.82448E-09-6.22736E-20-1.70028E-18
 -1      1190 9.49029E-05-2.84749E-05-2.84718E-05 2.56720E-09-4.57202E-20-1.81241E-18
 -1      1191 9.52704E-05-2.85871E-05-2.85854E-05 7.52578E-09 4.66279E-20-1.45711E-18
 -1      1192 9.57045E-05-2.87205E-05-2.87205E-05 1.36885E-08-1.38061E-19-1.66398E-18
 -1      1193 9.62686E-05-2.88950E-05-2.88972E-05 2.20322E-08 6.03494E-20-2.12483E-18
 -1      1194 9.70807E-05-2.91448E-05-2.91529E-05 3.42672E-08-6.26618E-20-2.77510E-18
 -1      1195 9.82719E-05-2.95134E-05-2.95302E-05 4.71233E-08-5.14523E-20-2.11452E-18
 -1      1196 1.00027E-04-3.00547E-05-3.00884E-05 6.54658E-08 9.38420E-20-1.54188E-18
 -1      1197 1.02697E-04-3.08756E-05-3.09423E-05 8.60194E-08-1.18518E-19-7.78873E-19
 -1      1198 1.06788E-04-3.21252E-05-3.22543E-05 1.01852E-07 2.51503E-19-2.63864E-18
 -1      1199 1.13036E-04-3.40255E-05-3.42551E-05 9.57245E-08-1.39694E-20-1.70190E-18
 -1      1200 1.22740E-04-3.69098E-05-3.73175E-05 1.34227E-08 9.52515E-20-2.16925E-18
 -1      1201 1.36820E-04-4.10801E-05-4.15819E-05-2.92996E-07 2.59662E-19-3.39237E-18
 -1      1202 1.55050E-04-4.63931E-05-4.66657E-05-8.78021E-07-1.73394E-19-2.38948E-18
 -1      1203 1.74697E-04-5.20514E-05-5.13200E-05-1.61509E-06 1.99384E-19-1.94098E-18
 -1      1204 1.85721E-04-5.52193E-05-5.29069E-05-1.40498E-06 8.27710E-20-3.03693E-18
 -1      1205 1.71036E-04-5.15993E-05-4.88242E-05 1.41304E-06 5.19999E-19-4.97208E-19
 -1      1206 1.29821E-04-3.86976E-05-4.11423E-05 5.57419E-06-6.27268E-19 3.43472E-18
 -1      1207 8.92985E-05-2.53942E-05-3.48479E-05 5.29643E-06-1.49184E-19 1.09966E-17
 -1      1208 7.76405E-05-2.13036E-05-3.34219E-05 5.39873E-07-6.82285E-19 1.68558E-17
 -1      1209 1.02304E-04-2.79721E-05-3.75680E-05-3.90545E-06-3.69677E-19 1.79131E-17
 -1      1210 1.45683E-04-4.26365E-05-4.45643E-05-5.44121E-06-1.22476E-19 1.94479E-17
 -1      1211 1.77095E-04-5.33559E-05-5.06620E-05-3.71017E-06-3.16976E-20 1.42882E-17
 -1      1212 1.85740E-04-5.63757E-05-5.31403E-05-1.15311E-06 1.16488E-18 5.11354E-18
 -1      1213 1.74097E-04-5.26660E-05-5.10694E-05 4.21747E-07 6.25812E-20-6.76144E-19
 -1      1214 1.53786E-04-4.62381E-05-4.61259E-05 9.32303E-07 2.30414E-19-1.24112E-18
 -1      1215 1.35234E-04-4.05271E-05-4.09549E-05 8.15751E-07-2.81976E-19 4.69870E-18
 -1      1216 1.21676E-04-3.64480E-05-3.68831E-05 5.79816E-07 1.18105E-19 6.86192E-18
 -1      1217 1.12257E-04-3.36420E-05-3.39541E-05 3.76744E-07-1.32313E-19 7.80567E-18
 -1      1218 1.05937E-04-3.17648E-05-3.19613E-05 2.36763E-07 2.07657E-19 5.56702E-18
 -1      1219 1.01660E-04-3.04913E-05-3.06084E-05 1.52162E-07-1.82627E-19 6.15886E-18
 -1      1220 9.88288E-05-2.96507E-05-2.97191E-05 9.39214E-08 4.50328E-19 1.72766E-18
 -1      1221 9.70096E-05-2.91084E-05-2.91540E-05 6.55569E-08-1.82228E-21 7.97061E-19
 -1      1222 9.58518E-05-2.87631E-05-2.88003E-05 4.71833E-08 6.64619E-19 4.26487E-18
 -1      1223 9.52535E-05-2.85839E-05-2.86094E-05 2.03611E-08-3.72467E-19 7.38271E-18
 -1      1224 9.51611E-05-2.85480E-05-2.85149E-05-2.46337E-08 9.13166E-20 8.29040E-18
 -1      1225 9.52604E-05-2.86470E-05-2.85158E-05-2.66161E-08 9.41495E-18 1.20421E-20
 -1      1226 9.52167E-05-2.85406E-05-2.86118E-05-1.40361E-08 4.75076E-18-1.30943E-19
 -1      1227 9.50544E-05-2.79766E-05-2.87796E-05 3.39897E-08 1.15158E-18-1.70698E-19
 -1      1228 9.48014E-05-2.71076E-05-2.90149E-05 4.94917E-08-1.90715E-20 9.14881E-19
 -1      1229 9.45412E-05-2.62175E-05-2.92587E-05 4.44620E-08 2.62527E-19 4.57931E-19
 -1      1230 9.43423E-05-2.55402E-05-2.94485E-05 2.77543E-08 1.65209E-18 4.76722E-19
 -1      1231 9.42401E-05-2.51977E-05-2.95487E-05 8.86101E-09 4.86441E-18 6.55261E-19
 -1      1232 9.42431E-05-2.52154E-05-2.95491E-05-8.55478E-09 2.95803E-18-1.30101E-18
 -1      1233 9.43364E-05-2.55400E-05-2.94621E-05-2.00922E-08 4.20522E-18 6.79314E-19
 -1      1234 9.44890E-05-2.60647E-05-2.93159E-05-2.48496E-08 8.90111E-18 2.83321E-19
 -1      1235 9.46669E-05-2.66715E-05-2.91431E-05-2.38925E-08 7.25924E-19-1.93846E-18
 -1      1236 9.48395E-05-2.72564E-05-2.89737E-05-1.92925E-08-8.29678E-18 1.10488E-18
 -1      1237 9.49889E-05-2.77596E-05-2.88254E-05-1.38477E-08-7.55790E-18 1.01064E-18
 -1      1238 9.51068E-05-2.81535E-05-2.87082E-05-8.43736E-09-2.05762E-18-5.38321E-19
 -1      1239 9.51905E-05-2.84274E-05-2.86271E-05-4.70632E-09-6.42519E-18-4.78766E-19
 -1      1240 9.52259E-05-2.85595E-05-2.85809E-05 1.09832E-08-3.16846E-18-5.87517E-19
 -1      1241 9.52439E-05-2.85920E-05-2.85572E-05 7.22267E-09-6.03869E-19 7.36454E-19
 -1      1242 4.05352E-05-1.27813E-04 2.29401E-05-1.77087E-05 7.92346E-18 1.56135E-18
 -1      1243 2.34361E-05-9.51533E-05 1.68380E-05-3.91630E-05 7.81473E-18 2.82718E-18
 -1      1244 6.34286E-06-3.83836E-05 2.06955E-06-2.71363E-05 3.06457E-18 1.57294E-18
 -1      1245 2.17049E-05 7.20295E-06-1.89423E-05 2.30412E-05-1.43318E-18-6.43745E-19
 -1      1246 9.45694E-05 1.07438E-05-4.39390E-05 8.59356E-05-3.32545E-18-5.60228E-18
 -1      1247 2.16375E-04-3.18160E-05-6.77560E-05 1.21346E-04-6.57806E-18-1.63748E-17
 -1      1248 3.42626E-04-9.24729E-05-8.57976E-05 8.93848E-05-3.93786E-18-1.90345E-17
 -1      1249 4.02258E-04-1.24487E-04-9.27670E-05 1.52977E-06-2.20546E-19-1.97668E-17
 -1      1250 3.46650E-04-9.48372E-05-8.62566E-05-8.77838E-05 2.51653E-18-1.35949E-17
 -1      1251 2.21497E-04-3.34433E-05-6.87362E-05-1.21494E-04 2.31748E-18-5.61922E-18
 -1      1252 9.72328E-05 1.07557E-05-4.50002E-05-8.89681E-05-2.03288E-20-7.58942E-19
 -1      1253 2.26330E-05 8.56305E-06-2.00138E-05-2.56646E-05-2.97647E-18 2.52924E-18
 -1      1254 5.81024E-06-3.48546E-05 1.07612E-06 2.47044E-05-3.33562E-18 2.70373E-18
 -1      1255 2.17029E-05-9.14585E-05 1.59900E-05 4.02249E-05-1.79317E-18 6.61744E-19
 -1      1256 3.85677E-05-1.25591E-04 2.27935E-05 2.07673E-05-1.07764E-18 3.49533E-19
 -1      1257 3.76688E-05-1.17742E-04 2.08784E-05-9.79027E-06-3.24244E-18-7.61747E-19
 -1      1258 2.06648E-05-7.22063E-05 1.13602E-05-2.35054E-05-4.01917E-18-1.20003E-18
 -1      1259 7.77573E-06-1.22553E-05-4.60372E-06-1.55958E-06-4.13183E-18-2.60971E-18
 -1      1260 2.78842E-05 2.81539E-05-2.51531E-05 5.07692E-05-4.95853E-18-4.36561E-18
 -1      1261 9.69830E-05 2.37102E-05-4.69757E-05 1.04711E-04-2.99765E-18-4.90263E-18
 -1      1262 1.98505E-04-2.14028E-05-6.59730E-05 1.23125E-04-2.40981E-18-4.74338E-18
 -1      1263 2.91604E-04-7.54762E-05-7.91231E-05 8.26639E-05-6.75721E-19-3.71255E-18
 -1      1264 3.30786E-04-1.00205E-04-8.39372E-05 9.88037E-07-1.39760E-19-2.30668E-18
 -1      1265 2.95506E-04-7.80987E-05-7.96330E-05-8.00042E-05-1.02322E-18 1.83044E-18
 -1      1266 2.07481E-04-2.61716E-05-6.74369E-05-1.21875E-04-3.30385E-18 6.67293E-18
 -1      1267 1.05855E-04 2.06044E-05-4.90382E-05-1.09338E-04-3.89212E-18 5.70900E-18
 -1      1268 3.20248E-05 2.96097E-05-2.70369E-05-5.58183E-05 1.90921E-18 8.52115E-19
 -1      1269 7.72985E-06-6.86647E-06-6.32563E-06-1.61319E-06 5.71239E-18-2.75116E-18
 -1      1270 1.84728E-05-6.57689E-05 9.98682E-06 2.31864E-05 5.24483E-18-1.79656E-18
 -1      1271 3.68297E-05-1.14694E-04 2.02498E-05 1.28397E-05 2.93836E-18 4.11896E-19
 -1      1272 1.04437E-04-2.20178E-05-3.78899E-05-1.72749E-05-2.11335E-19 2.72808E-18
 -1      1273 9.03153E-05-6.68066E-06-3.60155E-05-2.04719E-05-4.82174E-19-5.55389E-19
 -1      1274 9.26509E-05-6.73943E-06-3.72202E-05-2.57596E-05-6.73603E-19 2.13717E-19
 -1      1275 8.59024E-05-4.09661E-06-3.51290E-05-1.64337E-05-4.98823E-19-1.64806E-18
 -1      1276 8.71534E-05-4.08926E-06-3.55979E-05-1.88542E-05-5.61636E-19-1.19612E-18
 -1      1277 9.21300E-05-1.04624E-05-3.50920E-05-1.90354E-05-8.65747E-19-5.44748E-19
 -1      1278 8.40952E-05-3.19009E-06-3.46865E-05-1.28169E-05-3.91369E-19-2.16303E-18
 -1      1279 8.47063E-05-3.16067E-06-3.49106E-05-1.46315E-05-4.49272E-19-1.92811E-18
 -1      1280 8.78645E-05-7.39473E-06-3.45729E-05-1.54118E-05-7.87476E-19-1.43405E-18
 -1      1281 8.31860E-05-2.72753E-06-3.44706E-05-9.68760E-06-2.78052E-19-2.38548E-18
 -1      1282 8.34983E-05-2.70910E-06-3.45795E-05-1.12349E-05-2.98447E-19-2.27931E-18
 -1      1283 8.58661E-05-5.98181E-06-3.43052E-05-1.19556E-05-5.81660E-19-1.85635E-18
 -1      1284 8.26958E-05-2.45748E-06-3.43645E-05-6.91549E-06-1.46656E-19-2.48689E-18
 -1      1285 8.28648E-05-2.44910E-06-3.44188E-05-8.28670E-06-2.07311E-19-2.43492E-18
 -1      1286 8.48222E-05-5.21688E-06-3.41733E-05-8.94529E-06-3.90896E-19-2.05501E-18
 -1      1287 8.24207E-05-2.29166E-06-3.43120E-05-4.29514E-06-8.98881E-20-2.48268E-18
 -1      1288 8.25117E-05-2.28777E-06-3.43391E-05-5.59644E-06-8.95770E-20-2.48429E-18
 -1      1289 8.42372E-05-4.76149E-06-3.41103E-05-6.21672E-06-2.30613E-19-2.12473E-18
 -1      1290 8.22884E-05-2.20216E-06-3.42898E-05-1.79017E-06 4.27830E-20-2.41134E-18
 -1      1291 8.23273E-05-2.20060E-06-3.43008E-05-3.04126E-06-6.86064E-21-2.43240E-18
 -1      1292 8.39147E-05-4.49738E-06-3.40816E-05-3.64479E-06-9.72938E-20-2.06693E-18
 -1      1293 8.22625E-05-2.17468E-06-3.42872E-05 6.69732E-07 1.27707E-19-2.35013E-18
 -1      1294 8.22611E-05-2.17472E-06-3.42868E-05-5.66216E-07 9.22124E-20-2.39815E-18
 -1      1295 8.37735E-05-4.37772E-06-3.40709E-05-1.17072E-06 1.37794E-19-2.07159E-18
 -1      1296 8.23360E-05-2.20499E-06-3.43024E-05 3.14849E-06 2.26520E-19-2.26429E-18
 -1      1297 8.22942E-05-2.20662E-06-3.42906E-05 1.89476E-06 1.85423E-19-2.30184E-18
 -1      1298 8.37786E-05-4.38201E-06-3.40713E-05 1.27363E-06 2.44063E-19-1.97412E-18
 -1      1299 8.25288E-05-2.29809E-06-3.43418E-05 5.71302E-06 2.98645E-19-2.19871E-18
 -1      1300 8.24345E-05-2.30146E-06-3.43139E-05 4.40573E-06 2.89497E-19-2.24993E-18
 -1      1301 8.39304E-05-4.51107E-06-3.40827E-05 3.75214E-06 4.21604E-19-1.95200E-18
 -1      1302 8.28876E-05-2.46387E-06-3.44217E-05 8.39499E-06 3.62179E-19-1.99229E-18
 -1      1303 8.27153E-05-2.47255E-06-3.43669E-05 7.01511E-06 3.33417E-19-2.11458E-18
 -1      1304 8.42625E-05-4.78431E-06-3.41116E-05 6.31079E-06 5.32807E-19-1.84298E-18
 -1      1305 8.35446E-05-2.74121E-06-3.45846E-05 1.13955E-05 4.70434E-19-1.63749E-18
 -1      1306 8.32239E-05-2.75830E-06-3.44741E-05 9.83040E-06 4.31755E-19-1.83593E-18
 -1      1307 8.48645E-05-5.25759E-06-3.41743E-05 9.05401E-06 6.35027E-19-1.57453E-18
 -1      1308 8.47641E-05-3.20336E-06-3.49186E-05 1.48443E-05 6.29372E-19-1.09206E-18
 -1      1309 8.41526E-05-3.24010E-06-3.46922E-05 1.30040E-05 5.48004E-19-1.40267E-18
 -1      1310 8.59464E-05-6.06273E-06-3.43066E-05 1.21227E-05 8.45994E-19-1.20271E-18
 -1      1311 8.72527E-05-4.09032E-06-3.56196E-05 1.90917E-05 6.77097E-19-1.36055E-19
 -1      1312 8.59703E-05-4.15421E-06-3.51367E-05 1.66937E-05 6.23787E-19-7.14737E-19
 -1      1313 8.79898E-05-7.51707E-06-3.45752E-05 1.56506E-05 1.01099E-18-5.53668E-19
 -1      1314 9.34637E-05-6.79207E-06-3.71156E-05 2.50963E-05 6.00970E-19 1.60687E-18
 -1      1315 9.01309E-05-6.43766E-06-3.60382E-05 2.11493E-05 5.96152E-19 5.46548E-19
 -1      1316 9.23600E-05-1.06979E-05-3.50773E-05 1.96765E-05 1.04021E-18 5.21666E-19
 -1      1317 1.23621E-04-2.49225E-05-3.90134E-05 2.83659E-05 3.02179E-19 4.83275E-18
 -1      1318 1.00078E-04-1.44234E-05-3.73530E-05 2.40503E-05 3.31402E-19 2.57763E-18
 -1      1319 1.01677E-04-1.93419E-05-3.54015E-05 2.13985E-05 1.00956E-18 2.05998E-18
 -1      1320 1.02601E-04-2.78041E-05-3.47565E-05 7.32914E-06 5.15896E-19 4.63433E-18
 -1      1321 1.05144E-04-3.02295E-05-3.35242E-05-7.95937E-06-5.61689E-19 2.90321E-18
 -1      1322 9.82576E-05-2.78422E-05-3.07611E-05-4.98832E-06-5.13937E-19 2.22876E-18
 -1      1323 9.55000E-05-2.78484E-05-2.92536E-05-2.48977E-06-3.30184E-19 1.96652E-18
 -1      1324 9.32677E-05-2.75574E-05-2.82144E-05-2.04314E-06-3.66527E-19 1.41574E-18
 -1      1325 9.94827E-05-2.80515E-05-3.09821E-05-7.88674E-06-8.64768E-19 9.52197E-19
 -1      1326 9.15781E-05-2.71994E-05-2.75802E-05-8.38085E-07-3.55674E-19 1.26385E-18
 -1      1327 9.08617E-05-2.71040E-05-2.72780E-05-7.27689E-07-3.25572E-19 7.64103E-19
 -1      1328 9.47164E-05-2.77693E-05-2.88160E-05-3.12053E-06-6.64868E-19 6.41350E-19
 -1      1329 9.01124E-05-2.69216E-05-2.70349E-05-1.73115E-07-1.14905E-19 5.11926E-19
 -1      1330 9.00405E-05-2.69487E-05-2.70002E-05-1.15042E-07-1.32193E-19 3.35504E-19
 -1      1331 9.25181E-05-2.74990E-05-2.78955E-05-1.05205E-06-4.28188E-19 2.62104E-19
 -1      1332 8.97821E-05-2.68815E-05-2.69263E-05 1.55352E-07-1.13181E-19 3.89609E-19
 -1      1333 8.99975E-05-2.69718E-05-2.69882E-05 1.84061E-07-1.51409E-19 2.04717E-19
 -1      1334 9.15614E-05-2.73561E-05-2.75290E-05-6.82192E-08-2.21043E-19-3.89900E-20
 -1      1335 9.00028E-05-2.69753E-05-2.69952E-05 3.15602E-07-2.40117E-19 4.39398E-20
 -1      1336 9.03464E-05-2.70953E-05-2.70947E-05 3.27465E-07-1.78348E-19-2.32954E-19
 -1      1337 9.13107E-05-2.73447E-05-2.74219E-05 4.19748E-07-3.93539E-19-4.25965E-20
 -1      1338 9.04906E-05-2.71376E-05-2.71426E-05 3.82875E-07-1.11474E-19-3.46668E-19
 -1      1339 9.08805E-05-2.72665E-05-2.72553E-05 3.84787E-07-1.98402E-19-5.20422E-19
 -1      1340 9.14471E-05-2.74191E-05-2.74453E-05 6.49578E-07-2.84494E-19-2.19511E-19
 -1      1341 9.10920E-05-2.73277E-05-2.73228E-05 3.96657E-07-2.08163E-19-4.61127E-19
 -1      1342 9.14829E-05-2.74533E-05-2.74361E-05 3.92805E-07-1.98499E-19-8.31747E-19
 -1      1343 9.17851E-05-2.75394E-05-2.75360E-05 7.34626E-07-3.06446E-19-4.27805E-19
 -1      1344 9.17193E-05-2.75214E-05-2.75107E-05 3.80125E-07-2.80610E-19-8.57409E-19
 -1      1345 9.20866E-05-2.76374E-05-2.76176E-05 3.73234E-07-4.04046E-19-1.45592E-18
 -1      1346 9.22150E-05-2.76786E-05-2.76586E-05 7.36817E-07-4.27417E-19-5.93970E-19
 -1      1347 9.23232E-05-2.77054E-05-2.76918E-05 3.47879E-07-3.36598E-19-1.35816E-18
 -1      1348 9.26549E-05-2.78088E-05-2.77888E-05 3.39760E-07-9.08386E-20-1.67353E-18
 -1      1349 9.26714E-05-2.78203E-05-2.77923E-05 6.93415E-07-4.80708E-19-4.47420E-19
 -1      1350 9.28783E-05-2.78728E-05-2.78587E-05 3.09418E-07 6.24778E-20-1.97618E-18
 -1      1351 9.31705E-05-2.79629E-05-2.79444E-05 3.01279E-07-4.33867E-20-2.01355E-18
 -1      1352 9.31168E-05-2.79551E-05-2.79248E-05 6.28126E-07-1.57292E-19-7.79822E-19
 -1      1353 9.33747E-05-2.80213E-05-2.80083E-05 2.70970E-07-5.94848E-20-1.97539E-18
 -1      1354 9.36287E-05-2.80989E-05-2.80830E-05 2.63600E-07 6.04814E-20-2.10560E-18
 -1      1355 9.35318E-05-2.80785E-05-2.80496E-05 5.56393E-07-1.10634E-19-1.40478E-18
 -1      1356 9.38125E-05-2.81514E-05-2.81405E-05 2.36539E-07 1.23224E-19-1.95470E-18
 -1      1357 9.40331E-05-2.82183E-05-2.82056E-05 2.30432E-07-7.07177E-20-1.77158E-18
 -1      1358 9.39090E-05-2.81891E-05-2.81640E-05 4.88250E-07 1.35336E-19-1.45707E-18
 -1      1359 9.41984E-05-2.82654E-05-2.82571E-05 2.08538E-07-2.83049E-19-1.83750E-18
 -1      1360 9.43922E-05-2.83238E-05-2.83145E-05 2.03960E-07-3.55044E-19-2.09682E-18
 -1      1361 9.42488E-05-2.82876E-05-2.82677E-05 4.29974E-07-2.81581E-19-1.30606E-18
 -1      1362 9.45426E-05-2.83667E-05-2.83614E-05 1.88128E-07-3.51746E-19-2.25055E-18
 -1      1363 9.47173E-05-2.84192E-05-2.84132E-05 1.85157E-07-4.69603E-19-2.67146E-18
 -1      1364 9.45565E-05-2.83762E-05-2.83620E-05 3.85032E-07-5.97041E-19-1.56791E-18
 -1      1365 9.48571E-05-2.84591E-05-2.84567E-05 1.75351E-07-4.77115E-19-2.75350E-18
 -1      1366 9.50201E-05-2.85081E-05-2.85051E-05 1.73869E-07-4.07274E-19-3.27233E-18
 -1      1367 9.48398E-05-2.84575E-05-2.84490E-05 3.54528E-07-6.94781E-19-1.59687E-18
 -1      1368 9.51535E-05-2.85465E-05-2.85464E-05 1.69043E-07-1.39031E-19-3.25677E-18
 -1      1369 9.53108E-05-2.85941E-05-2.85931E-05 1.68696E-07-4.46576E-20-3.46048E-18
 -1      1370 9.51071E-05-2.85347E-05-2.85308E-05 3.37233E-07-2.69395E-19-1.74146E-18
 -1      1371 9.54406E-05-2.86318E-05-2.86331E-05 1.66564E-07 4.20917E-20-3.82339E-18
 -1      1372 9.55956E-05-2.86793E-05-2.86789E-05 1.66682E-07-1.20939E-19-3.86328E-18
 -1      1373 9.53654E-05-2.86104E-05-2.86093E-05 3.29222E-07-8.95691E-20-2.09483E-18
 -1      1374 9.57219E-05-2.87168E-05-2.87174E-05 1.63342E-07-3.07846E-19-4.20355E-18
 -1      1375 9.58733E-05-2.87641E-05-2.87619E-05 1.62828E-07-5.41383E-19-4.76263E-18
 -1      1376 9.56176E-05-2.86865E-05-2.86847E-05 3.23148E-07-4.28999E-19-2.58537E-18
 -1      1377 9.59918E-05-2.88003E-05-2.87975E-05 1.52325E-07-4.39111E-19-5.07109E-18
 -1      1378 9.61313E-05-2.88453E-05-2.88381E-05 1.49527E-07-2.86785E-19-5.22728E-18
 -1      1379 9.58603E-05-2.87631E-05-2.87555E-05 3.07280E-07-8.31002E-19-3.46786E-18
 -1      1380 9.62319E-05-2.88778E-05-2.88673E-05 1.23487E-07 5.39184E-19-4.87890E-18
 -1      1381 9.63411E-05-2.89153E-05-2.88984E-05 1.16096E-07 7.44592E-19-3.99026E-18
 -1      1382 9.60801E-05-2.88376E-05-2.88167E-05 2.64517E-07 2.55882E-19-4.03634E-18
 -1      1383 9.64054E-05-2.89392E-05-2.89153E-05 6.37047E-08 3.64782E-19-3.58099E-18
 -1      1384 9.64533E-05-2.89597E-05-2.89277E-05 4.87726E-08-5.28664E-20-3.59220E-18
 -1      1385 9.62498E-05-2.89033E-05-2.88595E-05 1.71890E-07 8.97120E-19-3.11480E-18
 -1      1386 9.64533E-05-2.89672E-05-2.89233E-05-4.24676E-08-3.67608E-19-3.15791E-18
 -1      1387 9.63936E-05-2.89566E-05-2.89035E-05-6.82771E-08-2.02912E-19-3.81458E-18
 -1      1388 9.63248E-05-2.89479E-05-2.88698E-05 1.38417E-09 1.21926E-19-2.39563E-18
 -1      1389 9.62914E-05-2.89367E-05-2.88660E-05-2.10434E-07 1.73744E-19-3.48505E-18
 -1      1390 9.60638E-05-2.88756E-05-2.87965E-05-2.50174E-07 3.03104E-19-2.85735E-18
 -1      1391 9.62410E-05-2.89520E-05-2.88284E-05-2.76729E-07 2.12999E-19-1.19258E-18
 -1      1392 9.58135E-05-2.88140E-05-2.87121E-05-4.50858E-07 4.46860E-19-2.80295E-18
 -1      1393 9.53486E-05-2.86792E-05-2.85732E-05-5.06054E-07 7.84018E-20-2.72264E-18
 -1      1394 9.59160E-05-2.88885E-05-2.87119E-05-6.86642E-07 3.94820E-19-1.64705E-18
 -1      1395 9.49027E-05-2.85602E-05-2.84283E-05-7.62333E-07-2.24230E-19-2.45881E-18
 -1      1396 9.41346E-05-2.83286E-05-2.82018E-05-8.31158E-07-5.83791E-20-2.77206E-18
 -1      1397 9.52567E-05-2.87234E-05-2.84956E-05-1.23494E-06 1.43941E-19-1.75544E-18
 -1      1398 9.34555E-05-2.81379E-05-2.79868E-05-1.12235E-06 6.11320E-20-2.76683E-18
 -1      1399 9.23436E-05-2.77929E-05-2.76623E-05-1.19759E-06 2.53226E-19-2.82529E-18
 -1      1400 9.41759E-05-2.84201E-05-2.81592E-05-1.89451E-06-1.68215E-19-1.65724E-18
 -1      1401 9.14203E-05-2.75230E-05-2.73765E-05-1.47969E-06 3.80252E-19-3.30369E-18
 -1      1402 8.99762E-05-2.70645E-05-2.69590E-05-1.54748E-06 1.04489E-19-2.95575E-18
 -1      1403 9.26206E-05-2.79491E-05-2.76943E-05-2.58874E-06 4.09097E-19-2.62404E-18
 -1      1404 8.88438E-05-2.67218E-05-2.66156E-05-1.75396E-06 1.24697E-19-2.11425E-18
 -1      1405 8.71580E-05-2.61758E-05-2.61326E-05-1.79479E-06 4.00788E-19-1.64189E-18
 -1      1406 9.06085E-05-2.73024E-05-2.71139E-05-3.18486E-06 4.70930E-19-1.37417E-18
 -1      1407 8.59122E-05-2.57872E-05-2.57621E-05-1.84872E-06 2.01621E-20-1.57037E-18
 -1      1408 8.41655E-05-2.52120E-05-2.52656E-05-1.84214E-06 6.41098E-20-1.41632E-18
 -1      1409 8.82634E-05-2.65112E-05-2.64591E-05-3.50857E-06 5.69373E-19-1.43320E-18
 -1      1410 8.29623E-05-2.48269E-05-2.49139E-05-1.68107E-06-2.92435E-19-1.00146E-18
 -1      1411 8.14079E-05-2.43082E-05-2.44749E-05-1.61383E-06-5.82044E-19-1.44690E-18
 -1      1412 8.58334E-05-2.56583E-05-2.57997E-05-3.38826E-06-4.57578E-19-8.35856E-19
 -1      1413 8.04399E-05-2.39923E-05-2.41958E-05-1.22080E-06-2.05042E-19-2.39018E-18
 -1      1414 7.93497E-05-2.36252E-05-2.38894E-05-1.09548E-06-4.68836E-19-3.08563E-18
 -1      1415 8.36681E-05-2.48753E-05-2.52259E-05-2.72369E-06-1.02701E-18-8.42460E-19
 -1      1416 7.87974E-05-2.34429E-05-2.37315E-05-5.20089E-07-5.00140E-19-3.03256E-18
 -1      1417 7.83845E-05-2.33034E-05-2.36156E-05-3.58488E-07-3.99641E-19-3.43903E-18
 -1      1418 8.21466E-05-2.43141E-05-2.48293E-05-1.55174E-06-3.36388E-19-1.93777E-18
 -1      1419 7.83596E-05-2.32955E-05-2.36083E-05 2.88665E-07 1.33778E-19-2.94953E-18
 -1      1420 7.87076E-05-2.34138E-05-2.37056E-05 4.51314E-07 7.15495E-19-2.77873E-18
 -1      1421 8.15681E-05-2.40994E-05-2.46794E-05-6.75552E-08 7.71925E-20-1.58154E-18
 -1      1422 7.92132E-05-2.35815E-05-2.38498E-05 1.03409E-06 1.96637E-20-2.83389E-18
 -1      1423 8.02471E-05-2.39304E-05-2.41400E-05 1.16223E-06-1.68603E-19-2.74886E-18
 -1      1424 8.20506E-05-2.42811E-05-2.48030E-05 1.42567E-06 6.95771E-19-1.98124E-18
 -1      1425 8.11770E-05-2.42348E-05-2.44077E-05 1.56748E-06-2.51933E-19-2.18538E-18
 -1      1426 8.26894E-05-2.47405E-05-2.48343E-05 1.63828E-06-1.77106E-19-2.29689E-18
 -1      1427 8.34883E-05-2.48144E-05-2.51760E-05 2.62171E-06 8.47761E-20-2.48916E-18
 -1      1428 8.38653E-05-2.51180E-05-2.51774E-05 1.81199E-06-1.41527E-19-2.85314E-18
 -1      1429 8.55848E-05-2.56855E-05-2.56656E-05 1.82156E-06-1.89341E-19-2.98734E-18
 -1      1430 8.55898E-05-2.55780E-05-2.57307E-05 3.31682E-06-5.56441E-19-1.57210E-18
 -1      1431 8.68126E-05-2.60698E-05-2.60301E-05 1.77649E-06-4.39646E-19-1.80740E-18
 -1      1432 8.84816E-05-2.66117E-05-2.65077E-05 1.73715E-06-4.01988E-19-2.58792E-18
 -1      1433 8.79766E-05-2.64200E-05-2.63759E-05 3.46341E-06-5.50112E-19-2.14759E-18
 -1      1434 8.96010E-05-2.69516E-05-2.68465E-05 1.53365E-06-3.52204E-19-2.71898E-18
 -1      1435 9.10319E-05-2.74070E-05-2.72596E-05 1.46571E-06-4.98045E-19-2.85555E-18
 -1      1436 9.02928E-05-2.72060E-05-2.70201E-05 3.15395E-06-3.77639E-19-1.63923E-18
 -1      1437 9.19424E-05-2.76739E-05-2.75411E-05 1.18110E-06-7.71448E-19-3.11911E-18
 -1      1438 9.30381E-05-2.80145E-05-2.78606E-05 1.10450E-06-1.18828E-18-4.07542E-18
 -1      1439 9.22811E-05-2.78487E-05-2.75915E-05 2.55815E-06-8.17876E-19-2.70278E-18
 -1      1440 9.37012E-05-2.82009E-05-2.80704E-05 8.07393E-07-3.76248E-19-3.85188E-18
 -1      1441 9.44458E-05-2.84255E-05-2.82900E-05 7.36653E-07 1.52443E-19-3.91116E-18
 -1      1442 9.38091E-05-2.83137E-05-2.80471E-05 1.85353E-06-9.31571E-19-2.01999E-18
 -1      1443 9.48711E-05-2.85384E-05-2.84285E-05 4.73838E-07 8.12616E-19-3.88212E-18
 -1      1444 9.53047E-05-2.86631E-05-2.85584E-05 4.16901E-07 8.73592E-19-2.78872E-18
 -1      1445 9.48544E-05-2.86068E-05-2.83727E-05 1.17877E-06 7.46254E-19-1.92527E-18
 -1      1446 9.55308E-05-2.87172E-05-2.86355E-05 2.12047E-07 3.44341E-19-1.68377E-18
 -1      1447 9.57217E-05-2.87660E-05-2.86946E-05 1.71461E-07 1.08952E-19-1.09009E-18
 -1      1448 9.54696E-05-2.87575E-05-2.85765E-05 6.17422E-07 1.37506E-18-1.13529E-18
 -1      1449 9.57997E-05-2.87781E-05-2.87251E-05 3.05858E-08 4.84521E-20-8.83577E-19
 -1      1450 9.58238E-05-2.87762E-05-2.87350E-05 5.58428E-09-5.41836E-20-8.50752E-19
 -1      1451 9.57465E-05-2.88035E-05-2.86802E-05 2.03841E-07 2.80212E-19-1.27276E-19
 -1      1452 9.58055E-05-2.87619E-05-2.87346E-05-7.56517E-08-2.11320E-20-3.44570E-19
 -1      1453 9.57337E-05-2.87318E-05-2.87161E-05-8.72475E-08-1.05317E-20-6.44074E-19
 -1      1454 9.57872E-05-2.87814E-05-2.87115E-05-6.10366E-08 1.45442E-19 8.15203E-19
 -1      1455 9.56653E-05-2.87046E-05-2.86992E-05-1.17590E-07-2.85603E-19-1.28128E-18
 -1      1456 9.55584E-05-2.86652E-05-2.86700E-05-1.18152E-07-2.08842E-19-1.95997E-18
 -1      1457 9.56880E-05-2.87223E-05-2.86979E-05-1.93558E-07-2.54746E-19 5.42344E-19
 -1      1458 9.54772E-05-2.86357E-05-2.86485E-05-1.07489E-07 8.48471E-19-1.46051E-18
 -1      1459 9.53845E-05-2.86027E-05-2.86225E-05-9.89284E-08 6.87504E-19-7.39564E-19
 -1      1460 9.55302E-05-2.86508E-05-2.86636E-05-2.16327E-07 3.36069E-19-3.64369E-19
 -1      1461 9.53163E-05-2.85777E-05-2.86042E-05-5.83882E-08-9.65142E-20 1.81513E-19
 -1      1462 9.52722E-05-2.85660E-05-2.85884E-05-4.46197E-08 2.76920E-19 1.21712E-19
 -1      1463 9.53758E-05-2.85855E-05-2.86267E-05-1.55809E-07 1.06283E-18 4.02878E-19
 -1      1464 9.52325E-05-2.85674E-05-2.85692E-05 5.81811E-09-7.64367E-19 5.86901E-19
 -1      1465 9.52605E-05-2.85548E-05-2.85888E-05-4.01679E-08-1.94407E-19 7.71314E-19
 -1      1466 9.65738E-05-2.83626E-05-2.97714E-05 2.99578E-06 4.73280E-19 3.64547E-18
 -1      1467 1.02533E-04-2.93974E-05-3.21547E-05 4.46285E-06 4.19175E-19 4.33406E-18
 -1      1468 1.02323E-04-2.67173E-05-3.27048E-05 1.27829E-05 8.31575E-19 2.81321E-18
 -1      1469 9.20273E-05-2.74283E-05-2.77608E-05 1.15203E-06 3.26822E-19 2.79089E-18
 -1      1470 9.39741E-05-2.75835E-05-2.86749E-05 1.47398E-06 3.13310E-19 3.34408E-18
 -1      1471 9.64842E-05-2.80295E-05-2.95329E-05 4.86768E-06 6.69765E-19 2.25096E-18
 -1      1472 9.01948E-05-2.70035E-05-2.70620E-05 3.31770E-07 1.85394E-19 2.22703E-18
 -1      1473 9.08098E-05-2.70210E-05-2.73345E-05 4.94591E-07 1.77930E-19 2.56805E-18
 -1      1474 9.30399E-05-2.75781E-05-2.80980E-05 1.85175E-06 4.81565E-19 1.76594E-18
 -1      1475 8.96779E-05-2.68862E-05-2.68866E-05-5.73054E-08 1.15878E-19 2.03183E-18
 -1      1476 8.97149E-05-2.68221E-05-2.69146E-05 3.35140E-08 6.44026E-20 2.09019E-18
 -1      1477 9.14870E-05-2.73073E-05-2.75145E-05 5.17430E-07 2.33291E-19 1.29679E-18
 -1      1478 8.98272E-05-2.69450E-05-2.69332E-05-2.51104E-07 2.83829E-19 1.53173E-18
 -1      1479 8.95839E-05-2.68315E-05-2.68636E-05-1.96586E-07 2.54733E-19 1.91631E-18
 -1      1480 9.09535E-05-2.72245E-05-2.73176E-05-1.39366E-07 3.29294E-19 1.17816E-18
 -1      1481 9.02919E-05-2.70893E-05-2.70753E-05-3.28755E-07 1.11470E-19 1.14618E-18
 -1      1482 8.99406E-05-2.69607E-05-2.69725E-05-3.02020E-07 1.24380E-19 1.33229E-18
 -1      1483 9.09853E-05-2.72750E-05-2.73105E-05-4.62735E-07 3.90437E-19 9.55235E-19
 -1      1484 9.08925E-05-2.72732E-05-2.72566E-05-3.51853E-07 1.07608E-20 8.18452E-19
 -1      1485 9.05031E-05-2.71427E-05-2.71426E-05-3.38535E-07-6.29629E-20 9.71692E-19
 -1      1486 9.13016E-05-2.73889E-05-2.73960E-05-5.97480E-07 1.76152E-19 6.13928E-19
 -1      1487 9.15303E-05-2.74666E-05-2.74487E-05-3.42571E-07 2.05828E-19 5.71942E-19
 -1      1488 9.11444E-05-2.73428E-05-2.73354E-05-3.37765E-07 1.62701E-19 8.96525E-19
 -1      1489 9.17503E-05-2.75346E-05-2.75245E-05-6.33980E-07 1.03808E-19 5.20168E-19
 -1      1490 9.21499E-05-2.76533E-05-2.76354E-05-3.16251E-07 2.27120E-19 9.11222E-21
 -1      1491 9.17895E-05-2.75408E-05-2.75293E-05-3.16175E-07 2.13377E-19 3.29430E-19
 -1      1492 9.22452E-05-2.76889E-05-2.76694E-05-6.14741E-07 3.73716E-19 3.96755E-19
 -1      1493 9.27468E-05-2.78323E-05-2.78157E-05-2.79860E-07-8.07615E-20-3.54018E-19
 -1      1494 9.24104E-05-2.77293E-05-2.77161E-05-2.83151E-07 3.25297E-20-2.32775E-19
 -1      1495 9.27479E-05-2.78416E-05-2.78186E-05-5.64225E-07 2.61447E-19-2.00322E-19
 -1      1496 9.32522E-05-2.79829E-05-2.79686E-05-2.43566E-07 1.67153E-20 2.49757E-19
 -1      1497 9.29725E-05-2.78988E-05-2.78857E-05-2.48152E-07-1.63960E-19-8.87102E-20
 -1      1498 9.32192E-05-2.79831E-05-2.79592E-05-5.01490E-07-1.78942E-19-4.77390E-19
 -1      1499 9.36969E-05-2.81150E-05-2.81034E-05-2.10741E-07 3.01701E-19-3.11192E-19
 -1      1500 9.34555E-05-2.80433E-05-2.80315E-05-2.15432E-07 2.33451E-19 1.64262E-19
 -1      1501 9.36363E-05-2.81064E-05-2.80848E-05-4.39268E-07 1.25383E-19-3.93292E-19
 -1      1502 9.40880E-05-2.82308E-05-2.82221E-05-1.84094E-07 6.71126E-20-1.02162E-18
 -1      1503 9.38790E-05-2.81691E-05-2.81597E-05-1.88058E-07 2.03874E-19-5.47749E-19
 -1      1504 9.40111E-05-2.82161E-05-2.81983E-05-3.84386E-07 4.92280E-19-6.39195E-19
 -1      1505 9.44400E-05-2.83344E-05-2.83291E-05-1.66271E-07 8.84938E-21-1.05681E-18
 -1      1506 9.42544E-05-2.82798E-05-2.82735E-05-1.68692E-07 4.26689E-20-1.09966E-18
 -1      1507 9.43510E-05-2.83145E-05-2.83018E-05-3.42770E-07 8.77625E-20-8.59404E-19
 -1      1508 9.47887E-05-2.84365E-05-2.84354E-05-1.59828E-07 1.85673E-19-1.54384E-18
 -1      1509 9.46070E-05-2.83827E-05-2.83806E-05-1.59903E-07 4.61593E-20-1.22880E-18
 -1      1510 9.46771E-05-2.84077E-05-2.84019E-05-3.19514E-07 1.00577E-19-1.10187E-18
 -1      1511 9.51288E-05-2.85355E-05-2.85393E-05-1.69000E-07-3.06637E-19-1.39735E-18
 -1      1512 9.49523E-05-2.84825E-05-2.84858E-05-1.65757E-07-1.66899E-19-1.35291E-18
 -1      1513 9.50016E-05-2.84994E-05-2.85022E-05-3.22072E-07-8.95650E-20-1.03383E-18
 -1      1514 9.55127E-05-2.86466E-05-2.86568E-05-1.98073E-07 2.53754E-19-1.22349E-18
 -1      1515 9.53129E-05-2.85855E-05-2.85960E-05-1.90036E-07 5.08317E-20-1.06958E-18
 -1      1516 9.53440E-05-2.85948E-05-2.86089E-05-3.57662E-07-1.58995E-19-1.07501E-18
 -1      1517 9.59888E-05-2.87837E-05-2.88027E-05-2.54725E-07-1.20540E-19-1.33408E-18
 -1      1518 9.57387E-05-2.87057E-05-2.87265E-05-2.39632E-07-2.25772E-19-1.33108E-18
 -1      1519 9.57480E-05-2.87062E-05-2.87357E-05-4.37732E-07 9.72574E-20-1.08712E-18
 -1      1520 9.66250E-05-2.89664E-05-2.89982E-05-3.51252E-07 3.63575E-19-1.58230E-18
 -1      1521 9.62865E-05-2.88588E-05-2.88949E-05-3.25313E-07 3.57119E-19-1.04674E-18
 -1      1522 9.62633E-05-2.88471E-05-2.88984E-05-5.80345E-07 2.69124E-19-8.95208E-19
 -1      1523 9.75762E-05-2.92379E-05-2.92914E-05-5.16219E-07 8.33136E-21-1.83080E-18
 -1      1524 9.70606E-05-2.90737E-05-2.91336E-05-4.69755E-07-3.48111E-20-1.69288E-18
 -1      1525 9.69814E-05-2.90404E-05-2.91267E-05-8.20857E-07 1.41537E-19-8.55218E-19
 -1      1526 9.89106E-05-2.96179E-05-2.97033E-05-7.66057E-07-1.39641E-19-1.43949E-18
 -1      1527 9.81768E-05-2.93809E-05-2.94791E-05-6.95943E-07-1.28431E-19-1.77547E-18
 -1      1528 9.79954E-05-2.93124E-05-2.94510E-05-1.20702E-06-1.14703E-19-1.23999E-18
 -1      1529 1.00890E-04-3.01802E-05-3.03166E-05-1.15403E-06-2.79891E-19-1.25092E-18
 -1      1530 9.97817E-05-2.98209E-05-2.99775E-05-1.04133E-06-8.24798E-20-1.37775E-18
 -1      1531 9.94235E-05-2.96906E-05-2.99104E-05-1.79301E-06-1.49309E-19-6.24533E-19
 -1      1532 1.03854E-04-3.10212E-05-3.12382E-05-1.74999E-06 4.27374E-19-1.11478E-18
 -1      1533 1.02165E-04-3.04709E-05-3.07208E-05-1.57046E-06 2.69992E-21-8.28236E-19
 -1      1534 1.01495E-04-3.02353E-05-3.05807E-05-2.69024E-06-2.60383E-19-7.00207E-19
 -1      1535 1.08290E-04-3.22817E-05-3.26217E-05-2.64858E-06-4.71294E-20-1.81888E-18
 -1      1536 1.05716E-04-3.14385E-05-3.18328E-05-2.36683E-06 3.66362E-19-1.58218E-18
 -1      1537 1.04505E-04-3.10227E-05-3.15588E-05-4.04282E-06 5.82898E-19-1.24698E-18
 -1      1538 1.14859E-04-3.41649E-05-3.46676E-05-3.96264E-06-2.47387E-19-1.58670E-18
 -1      1539 1.10979E-04-3.28764E-05-3.34830E-05-3.52593E-06-8.57489E-20-1.68946E-18
 -1      1540 1.08843E-04-3.21656E-05-3.29697E-05-6.02465E-06-8.74164E-20-6.79086E-19
 -1      1541 1.24845E-04-3.70779E-05-3.77377E-05-5.81188E-06 2.09535E-19-1.75193E-18
 -1      1542 1.18848E-04-3.50808E-05-3.59350E-05-5.15028E-06-2.83888E-20-1.58554E-18
 -1      1543 1.15157E-04-3.38521E-05-3.50032E-05-8.82849E-06-1.54107E-19-6.77957E-19
 -1      1544 1.37805E-04-4.10219E-05-4.15682E-05-7.75256E-06-3.22475E-19-1.90762E-18
 -1      1545 1.29952E-04-3.83496E-05-3.93073E-05-7.01668E-06 3.72337E-19-1.39379E-18
 -1      1546 1.23806E-04-3.63620E-05-3.76717E-05-1.22815E-05 1.42381E-19-1.76818E-19
 -1      1547 1.53220E-04-4.61377E-05-4.57364E-05-8.76605E-06 4.08217E-19-1.22682E-18
 -1      1548 1.43981E-04-4.29143E-05-4.33041E-05-8.26877E-06-4.89889E-19-1.87025E-18
 -1      1549 1.34625E-04-3.99501E-05-4.06914E-05-1.51247E-05-2.44634E-19-2.69039E-19
 -1      1550 1.66996E-04-5.15165E-05-4.87846E-05-6.19121E-06 4.29340E-20-2.11417E-18
 -1      1551 1.59470E-04-4.88380E-05-4.71629E-05-6.91581E-06 2.69754E-19-1.22301E-18
 -1      1552 1.47015E-04-4.51339E-05-4.34650E-05-1.44092E-05 5.93664E-19-1.62403E-18
 -1      1553 1.70199E-04-5.39141E-05-4.88432E-05 3.42198E-06-7.93749E-19-1.44589E-18
 -1      1554 1.71028E-04-5.45404E-05-4.93454E-05 4.20977E-08-3.13773E-19-2.11282E-18
 -1      1555 1.58414E-04-5.15413E-05-4.51352E-05-4.96883E-06-1.83647E-19-1.63643E-18
 -1      1556 1.53275E-04-4.74875E-05-4.57884E-05 1.70453E-05-5.05043E-19 5.06949E-19
 -1      1557 1.68744E-04-5.44352E-05-4.86455E-05 1.25726E-05-5.78682E-19-5.57771E-19
 -1      1558 1.63683E-04-5.51195E-05-4.58042E-05 1.53896E-05-1.11562E-18-1.48855E-18
 -1      1559 1.29670E-04-3.61815E-05-4.27570E-05 2.04640E-05-2.95233E-18 4.59177E-18
 -1      1560 1.48872E-04-4.49218E-05-4.57210E-05 1.94765E-05-1.78978E-18 1.54118E-18
 -1      1561 1.58508E-04-4.87387E-05-4.76688E-05 3.05969E-05-2.94386E-18-3.40004E-19
 -1      1562 1.14398E-04-2.74721E-05-4.14358E-05 7.14498E-06-2.40600E-18 8.20224E-18
 -1      1563 1.25158E-04-3.18204E-05-4.30205E-05 1.13204E-05-2.22981E-18 5.76088E-18
 -1      1564 1.49457E-04-3.72463E-05-4.94111E-05 2.45012E-05-4.38551E-18 1.55600E-18
 -1      1565 1.19473E-04-2.98212E-05-4.21036E-05-1.00142E-05-2.03711E-19 1.04808E-17
 -1      1566 1.15281E-04-2.68470E-05-4.15464E-05-5.00126E-06-1.53779E-18 8.93806E-18
 -1      1567 1.45475E-04-3.19986E-05-5.05592E-05-1.14326E-06-3.35467E-18 3.77286E-18
 -1      1568 1.43092E-04-4.23088E-05-4.44692E-05-2.08190E-05-8.14634E-19 1.13248E-17
 -1      1569 1.25108E-04-3.38738E-05-4.18668E-05-1.80194E-05-4.41939E-19 1.05159E-17
 -1      1570 1.50757E-04-3.89853E-05-4.94688E-05-2.58828E-05-8.62280E-19 3.57046E-18
 -1      1571 1.63780E-04-5.18472E-05-4.72512E-05-1.56618E-05 1.62029E-18 1.01665E-17
 -1      1572 1.47719E-04-4.55397E-05-4.44520E-05-1.72710E-05 7.48830E-19 1.11885E-17
 -1      1573 1.59914E-04-5.09503E-05-4.74245E-05-3.08373E-05 8.30304E-19 3.54785E-18
 -1      1574 1.73106E-04-5.49107E-05-4.93835E-05-3.70937E-06 2.69619E-18 6.08964E-18
 -1      1575 1.64913E-04-5.26225E-05-4.74628E-05-6.92226E-06 2.28180E-18 8.70919E-18
 -1      1576 1.63548E-04-5.55972E-05-4.61849E-05-1.61464E-05 3.36701E-18 2.63740E-18
 -1      1577 1.67533E-04-5.16435E-05-4.89176E-05 5.42618E-06 2.24416E-18 1.69629E-18
 -1      1578 1.69564E-04-5.32120E-05-4.90576E-05 3.16902E-06 2.79457E-18 5.80334E-18
 -1      1579 1.59185E-04-5.26505E-05-4.53117E-05 2.22873E-06 4.29160E-18 2.11265E-18
 -1      1580 1.52691E-04-4.58136E-05-4.57219E-05 8.77479E-06-1.17284E-19-2.56016E-19
 -1      1581 1.61164E-04-4.92031E-05-4.76595E-05 7.97334E-06 8.46345E-19 8.23210E-19
 -1      1582 1.48747E-04-4.64219E-05-4.36597E-05 1.31702E-05 2.15940E-18 1.57831E-18
 -1      1583 1.36348E-04-4.04397E-05-4.12921E-05 7.93391E-06-4.94336E-19-5.65712E-19
 -1      1584 1.45918E-04-4.36982E-05-4.38833E-05 8.08129E-06-5.61103E-19-1.24948E-18
 -1      1585 1.35993E-04-4.05461E-05-4.08525E-05 1.54331E-05 1.74547E-19 1.20385E-19
 -1      1586 1.23667E-04-3.66518E-05-3.74921E-05 5.99078E-06-1.36028E-18 3.61090E-18
 -1      1587 1.31057E-04-3.89377E-05-3.96449E-05 6.37240E-06-1.43503E-18 1.15218E-18
 -1      1588 1.24587E-04-3.65147E-05-3.77643E-05 1.30556E-05-2.16768E-18-5.21613E-19
 -1      1589 1.14289E-04-3.39507E-05-3.45701E-05 4.20431E-06-2.97917E-20 4.08529E-18
 -1      1590 1.19628E-04-3.55082E-05-3.61805E-05 4.55821E-06 8.02299E-20 3.86893E-18
 -1      1591 1.15780E-04-3.39255E-05-3.51143E-05 9.72317E-06-7.71104E-19 1.90584E-18
 -1      1592 1.07708E-04-3.20876E-05-3.24917E-05 2.85310E-06 7.21030E-19 4.88442E-18
 -1      1593 1.11369E-04-3.31202E-05-3.36110E-05 3.11908E-06-6.21907E-20 4.31404E-18
 -1      1594 1.09235E-04-3.21651E-05-3.30556E-05 6.81923E-06-3.40004E-19 3.03814E-18
 -1      1595 1.03182E-04-3.08106E-05-3.10643E-05 1.91706E-06-2.32775E-19 5.18527E-18
 -1      1596 1.05649E-04-3.14934E-05-3.18188E-05 2.09962E-06 2.91465E-19 4.98054E-18
 -1      1597 1.04547E-04-3.09511E-05-3.15576E-05 4.65933E-06 5.33631E-20 4.15346E-18
 -1      1598 9.99782E-05-2.99038E-05-3.00573E-05 1.26285E-06 1.56213E-18 4.20165E-18
 -1      1599 1.01683E-04-3.03730E-05-3.05787E-05 1.39186E-06 5.02095E-19 5.17338E-18
 -1      1600 1.01189E-04-3.00853E-05-3.04812E-05 3.13214E-06 4.16217E-19 4.59143E-18
 -1      1601 9.79314E-05-2.93189E-05-2.94205E-05 8.47989E-07 6.35467E-19 1.42042E-18
 -1      1602 9.90102E-05-2.96134E-05-2.97475E-05 9.29571E-07 1.04432E-18 3.11088E-18
 -1      1603 9.88624E-05-2.94829E-05-2.97412E-05 2.09420E-06 2.02498E-18 3.51824E-18
 -1      1604 9.65611E-05-2.89219E-05-2.89998E-05 5.50529E-07-6.59045E-19 2.05304E-18
 -1      1605 9.72680E-05-2.91136E-05-2.92118E-05 6.11239E-07-6.02793E-19 1.53468E-18
 -1      1606 9.73073E-05-2.90678E-05-2.92518E-05 1.39761E-06-3.94595E-19 3.06356E-18
 -1      1607 9.57144E-05-2.86719E-05-2.87428E-05 3.05114E-07-8.63022E-20 3.59701E-18
 -1      1608 9.61312E-05-2.87794E-05-2.88674E-05 3.61497E-07-2.95348E-19 2.15900E-18
 -1      1609 9.62627E-05-2.87769E-05-2.89299E-05 8.73698E-07-3.99369E-19 9.70389E-19
 -1      1610 9.53146E-05-2.85577E-05-2.86077E-05 8.29974E-08-1.23330E-18 5.51951E-18
 -1      1611 9.54704E-05-2.85829E-05-2.86667E-05 1.39013E-07-9.93815E-19 3.87514E-18
 -1      1612 9.56119E-05-2.85909E-05-2.87320E-05 4.24582E-07-1.85768E-18 9.85333E-19
 -1      1613 9.52290E-05-2.85586E-05-2.85641E-05-1.16022E-08 4.01814E-18 3.77088E-18
 -1      1614 9.52014E-05-2.82523E-05-2.87005E-05 2.35830E-07 1.17593E-18-1.28717E-18
 -1      1615 9.52552E-05-2.84245E-05-2.86388E-05 1.79016E-07 3.51406E-18-1.37718E-18
 -1      1616 9.49831E-05-2.76279E-05-2.88715E-05 4.19247E-07 3.36537E-19-4.32567E-19
 -1      1617 9.51099E-05-2.79873E-05-2.87718E-05 3.89367E-07 2.60770E-18-1.64143E-18
 -1      1618 9.51762E-05-2.80082E-05-2.87926E-05 6.13858E-07 2.49773E-19-1.83732E-18
 -1      1619 9.47195E-05-2.68747E-05-2.90774E-05 4.73996E-07-3.76930E-20 8.25872E-19
 -1      1620 9.48688E-05-2.73044E-05-2.89588E-05 4.74077E-07-1.40270E-19 1.49901E-18
 -1      1621 9.49248E-05-2.74029E-05-2.89410E-05 8.61824E-07 7.98454E-19-5.48034E-19
 -1      1622 9.44840E-05-2.61845E-05-2.92696E-05 4.02482E-07 1.21151E-18 7.88658E-19
 -1      1623 9.46137E-05-2.65657E-05-2.91633E-05 4.26706E-07-1.51103E-19 2.30220E-18
 -1      1624 9.46697E-05-2.67589E-05-2.90997E-05 8.65356E-07-2.12770E-19 1.52754E-18
 -1      1625 9.43303E-05-2.57165E-05-2.94034E-05 2.48204E-07 1.88282E-18 1.57222E-18
 -1      1626 9.44109E-05-2.59615E-05-2.93341E-05 2.84386E-07 1.38603E-18 2.66104E-19
 -1      1627 9.44651E-05-2.62228E-05-2.92360E-05 6.58601E-07 6.04131E-20 5.69377E-19
 -1      1628 9.42751E-05-2.55304E-05-2.94598E-05 5.86114E-08 2.19825E-18-1.27217E-18
 -1      1629 9.42986E-05-2.56094E-05-2.94366E-05 9.74664E-08 1.98290E-18 1.41259E-18
 -1      1630 9.43481E-05-2.58952E-05-2.93242E-05 3.30070E-07 8.04731E-19 3.71821E-19
 -1      1631 9.43182E-05-2.56368E-05-2.94336E-05-1.16098E-07 7.68739E-19-1.84481E-18
 -1      1632 9.42870E-05-2.55526E-05-2.94566E-05-8.42752E-08 2.77847E-18-1.45839E-18
 -1      1633 9.43295E-05-2.58189E-05-2.93501E-05-2.72417E-08-4.28096E-19-8.61040E-19
 -1      1634 9.44358E-05-2.59747E-05-2.93403E-05-2.43264E-07 4.65306E-18 2.76040E-18
 -1      1635 9.43648E-05-2.57673E-05-2.93988E-05-2.23277E-07 2.16424E-18 1.73452E-18
 -1      1636 9.43987E-05-2.59812E-05-2.93134E-05-3.29696E-07 1.86980E-18 7.18354E-19
 -1      1637 9.45953E-05-2.64524E-05-2.92048E-05-3.09822E-07 3.11082E-18-1.39907E-18
 -1      1638 9.45036E-05-2.61763E-05-2.92836E-05-3.02431E-07 4.06043E-18 1.37989E-18
 -1      1639 9.45283E-05-2.63214E-05-2.92273E-05-5.29296E-07 1.85688E-18 1.89067E-18
 -1      1640 9.47649E-05-2.69756E-05-2.90536E-05-3.19872E-07-1.76810E-18-4.16376E-18
 -1      1641 9.46702E-05-2.66838E-05-2.91378E-05-3.22828E-07 3.38812E-18-2.65817E-18
 -1      1642 9.46862E-05-2.67593E-05-2.91111E-05-6.14159E-07 6.32176E-19-2.96835E-18
 -1      1643 9.49181E-05-2.74615E-05-2.89110E-05-2.89217E-07-4.06023E-18 6.07125E-19
 -1      1644 9.48344E-05-2.71978E-05-2.89877E-05-2.98389E-07-1.69863E-18-2.56865E-18
 -1      1645 9.48425E-05-2.72140E-05-2.89860E-05-6.01251E-07 1.06755E-18-4.41536E-18
 -1      1646 9.50467E-05-2.78797E-05-2.87867E-05-2.34848E-07-2.36558E-18 1.41796E-18
 -1      1647 9.49779E-05-2.76588E-05-2.88514E-05-2.47000E-07-4.29364E-18 2.69528E-18
 -1      1648 9.49791E-05-2.76312E-05-2.88672E-05-5.22717E-07-5.15324E-19 1.86971E-18
 -1      1649 9.51427E-05-2.81988E-05-2.86909E-05-1.72357E-07-3.47381E-18-1.52746E-18
 -1      1650 9.50925E-05-2.80354E-05-2.87389E-05-1.84439E-07-2.59959E-18 5.65637E-19
 -1      1651 9.50883E-05-2.79798E-05-2.87650E-05-4.09887E-07-1.52452E-18 6.34400E-19
 -1      1652 9.52071E-05-2.84116E-05-2.86261E-05-1.10567E-07-3.43947E-18 6.74735E-19
 -1      1653 9.51734E-05-2.83095E-05-2.86566E-05-1.20741E-07-2.79117E-18-1.05534E-18
 -1      1654 9.51689E-05-2.82430E-05-2.86862E-05-2.86657E-07-1.85708E-18-1.26204E-18
 -1      1655 9.52452E-05-2.85153E-05-2.85966E-05-7.08033E-08-1.31562E-18 1.24555E-19
 -1      1656 9.52326E-05-2.84701E-05-2.86130E-05-9.10622E-08-2.07804E-18 9.20888E-19
 -1      1657 9.52321E-05-2.84071E-05-2.86408E-05-1.98476E-07-5.08756E-19 2.35865E-18
 -1      1658 9.52870E-05-2.85125E-05-2.86187E-05-1.41675E-07 2.75570E-19 8.79714E-19
 -1      1659 2.32169E-05-8.33727E-05 1.87315E-05-1.57062E-05 4.74550E-18 9.82558E-20
 -1      1660 2.58694E-05-8.76124E-05 1.94259E-05-4.44185E-06 4.31140E-18 7.19766E-19
 -1      1661 1.98403E-05-5.73650E-05 1.00772E-05-1.10390E-05 3.61175E-18 1.64758E-18
 -1      1662 2.55403E-05-7.75908E-05 1.52976E-05-1.00118E-05 4.30335E-18 6.71697E-19
 -1      1663 2.90999E-05-2.84736E-05-5.11424E-06 8.08100E-06 1.31629E-18-1.20236E-18
 -1      1664 2.73956E-05-5.21574E-05 3.66116E-06-6.15556E-06 2.98833E-18 2.78250E-19
 -1      1665 7.00093E-05-1.43521E-05-2.61135E-05 4.32600E-05-1.30951E-18-2.73930E-18
 -1      1666 4.71200E-05-2.56396E-05-1.47785E-05 1.75661E-05-1.01644E-19-1.46706E-18
 -1      1667 1.52927E-04-3.25109E-05-4.93148E-05 6.50445E-05-2.33781E-18-8.57536E-18
 -1      1668 1.07249E-04-2.48773E-05-3.73025E-05 4.52069E-05-7.36919E-19-5.22450E-18
 -1      1669 2.35378E-04-5.41225E-05-7.01498E-05 6.98477E-05-4.37408E-18-1.38659E-17
 -1      1670 1.77009E-04-3.10540E-05-5.99823E-05 6.96603E-05-3.56686E-18-1.07167E-17
 -1      1671 3.01606E-04-7.98457E-05-8.37776E-05 2.94574E-05-2.27450E-18-1.54338E-17
 -1      1672 2.57336E-04-5.89411E-05-7.73011E-05 5.69507E-05-4.01864E-18-1.48299E-17
 -1      1673 3.15985E-04-8.36351E-05-8.73880E-05-1.93369E-05-4.29446E-19-1.36482E-17
 -1      1674 3.15043E-04-8.32800E-05-8.73052E-05 2.10765E-05-1.36838E-18-1.50954E-17
 -1      1675 2.62512E-04-6.07343E-05-7.81837E-05-5.86409E-05 7.26860E-19-8.86674E-18
 -1      1676 3.05641E-04-8.14507E-05-8.43959E-05-3.02343E-05 1.88253E-19-1.17280E-17
 -1      1677 1.81996E-04-3.28373E-05-6.09718E-05-7.03773E-05 4.33257E-19-5.32953E-18
 -1      1678 2.39422E-04-5.59752E-05-7.09246E-05-6.96514E-05 6.58145E-19-8.38224E-18
 -1      1679 1.03155E-04-1.89190E-05-3.82138E-05-4.95288E-05-1.36372E-18-8.45339E-19
 -1      1680 1.51809E-04-2.80620E-05-5.05411E-05-7.05947E-05 2.90532E-19-3.22042E-18
 -1      1681 4.93109E-05-2.48248E-05-1.57821E-05-1.93696E-05-1.44504E-18 1.21126E-18
 -1      1682 7.22918E-05-1.37715E-05-2.70112E-05-4.47266E-05-1.13841E-18 6.81014E-19
 -1      1683 2.94492E-05-5.06285E-05 2.47964E-06 3.76838E-06-1.26547E-18 1.30147E-18
 -1      1684 3.25356E-05-2.82933E-05-6.32931E-06-1.11891E-05-1.80672E-18 1.65807E-18
 -1      1685 2.52645E-05-7.61165E-05 1.47731E-05 1.11114E-05-8.39833E-19 4.39610E-19
 -1      1686 1.94739E-05-5.54644E-05 9.41746E-06 1.14207E-05-9.52065E-19 7.86682E-19
 -1      1687 2.46733E-05-8.38384E-05 1.88865E-05 4.85089E-06-1.07886E-18-4.06576E-19
 -1      1688 2.17287E-05-7.81366E-05 1.77265E-05 1.48497E-05-7.84353E-19 1.11808E-19
 -1      1689 2.22152E-05-7.18187E-05 1.55361E-05-7.42136E-07-2.46698E-18-1.24217E-18
 -1      1690 2.56081E-05-8.39508E-05 1.84139E-05 8.25832E-06-1.67268E-18-1.07319E-18
 -1      1691 2.00280E-05-4.25926E-05 5.38938E-06 4.44930E-06-3.10099E-18-1.36468E-18
 -1      1692 2.54946E-05-6.66307E-05 1.15132E-05 2.32322E-06-2.70034E-18-1.04135E-18
 -1      1693 3.45410E-05-1.28717E-05-1.11147E-05 3.08937E-05-3.80064E-18-3.54526E-18
 -1      1694 3.05557E-05-3.57178E-05-2.13738E-06 1.42436E-05-3.65918E-18-2.04304E-18
 -1      1695 6.93192E-05 3.95734E-06-3.07450E-05 6.31100E-05-4.16486E-18-3.50502E-18
 -1      1696 4.68437E-05-5.06858E-06-2.02785E-05 3.85614E-05-4.40457E-18-3.56601E-18
 -1      1697 1.37261E-04-1.12529E-05-5.08036E-05 8.36094E-05-2.85789E-18-4.03018E-18
 -1      1698 9.62707E-05-8.28302E-07-4.06346E-05 6.79101E-05-3.45759E-18-4.42829E-18
 -1      1699 2.07808E-04-3.74882E-05-6.75304E-05 8.00024E-05-1.91408E-18-4.39441E-18
 -1      1700 1.61752E-04-1.53687E-05-5.97199E-05 8.53924E-05-2.50637E-18-4.69172E-18
 -1      1701 2.60511E-04-6.32685E-05-7.80139E-05 3.77105E-05-8.96584E-19-3.19374E-18
 -1      1702 2.28626E-04-4.52939E-05-7.34196E-05 6.69909E-05-1.38294E-18-4.02341E-18
 -1      1703 2.71305E-04-6.81592E-05-8.04420E-05-1.83329E-05-7.57036E-19-1.52868E-18
 -1      1704 2.70641E-04-6.78470E-05-8.03912E-05 1.92363E-05-8.35174E-19-2.31261E-18
 -1      1705 2.34049E-04-4.80367E-05-7.43086E-05-6.61053E-05-2.35359E-18 1.19432E-18
 -1      1706 2.63719E-04-6.49192E-05-7.84827E-05-3.70674E-05-1.27733E-18-4.61633E-19
 -1      1707 1.69375E-04-1.86385E-05-6.13076E-05-8.52391E-05-2.88838E-18 4.30293E-18
 -1      1708 2.13531E-04-4.01831E-05-6.86675E-05-7.80460E-05-2.71389E-18 3.08320E-18
 -1      1709 9.90831E-05 1.98578E-06-4.27079E-05-7.28020E-05-1.86178E-18 3.74727E-18
 -1      1710 1.42853E-04-1.06488E-05-5.28961E-05-8.78803E-05-2.49578E-18 5.04154E-18
 -1      1711 5.37000E-05-7.23247E-06-2.20222E-05-4.13153E-05 2.19466E-18 2.17518E-18
 -1      1712 7.82256E-05 1.44786E-07-3.25934E-05-6.53901E-05-1.21719E-18 4.85858E-18
 -1      1713 2.86928E-05-3.10718E-05-3.48684E-06-1.36063E-05 3.15774E-18-1.06303E-18
 -1      1714 3.34973E-05-8.59834E-06-1.24825E-05-3.16657E-05 3.11623E-18-7.45813E-19
 -1      1715 2.55963E-05-6.42284E-05 1.04645E-05-2.11519E-06 3.65918E-18-1.02330E-18
 -1      1716 2.05773E-05-3.93987E-05 3.94196E-06-6.00058E-06 4.08100E-18-9.30042E-19
 -1      1717 2.65976E-05-8.55934E-05 1.82895E-05-6.31893E-06 3.89678E-18 9.15643E-19
 -1      1718 2.23349E-05-7.13601E-05 1.50932E-05 1.97341E-06 3.42794E-18-2.07947E-19
 -1      1719 1.28494E-04-5.36932E-05-3.25371E-05 3.33363E-05-4.03188E-19-6.20198E-18
 -1      1720 6.94334E-05-4.82391E-05-1.24259E-05 2.81833E-05 7.24213E-19-2.18153E-18
 -1      1721 9.52949E-05-2.85387E-05-2.86123E-05 7.73971E-08 2.89702E-18-3.46360E-19
 -1      1722 9.53406E-05-2.83881E-05-2.86941E-05 3.15439E-07-1.32114E-18-1.81549E-18
 -1      1723 1.60219E-05-5.62245E-05 1.22920E-05 3.42770E-06 1.44673E-18-4.31987E-20
 -1      1724 3.42604E-05-5.18070E-05 2.95709E-06 1.59861E-05 2.44877E-18-2.61098E-19
 -1      1725 1.23559E-05-5.83005E-05 1.45510E-05-9.77870E-06 2.89452E-18 7.85200E-19
 -1      1726 1.83718E-04-5.66421E-05-5.24722E-05 2.30755E-05-1.30020E-19-1.01822E-17
 -1      1727 2.29370E-04-5.23851E-05-6.95555E-05 1.45742E-05-2.27365E-18-1.22871E-17
 -1      1728 2.53455E-04-4.79042E-05-7.91791E-05 2.02726E-06-1.81689E-18-1.12520E-17
 -1      1729 2.56072E-04-4.87788E-05-7.96013E-05-5.43976E-06-1.48654E-18-9.16701E-18
 -1      1730 2.30954E-04-5.20351E-05-7.01685E-05-1.78050E-05-8.22893E-19-7.01597E-18
 -1      1731 1.83847E-04-5.27883E-05-5.35458E-05-3.02653E-05-1.07488E-18-4.75016E-18
 -1      1732 1.25833E-04-5.00636E-05-3.32958E-05-3.51657E-05-1.34678E-18-1.21126E-18
 -1      1733 7.28574E-05-4.88002E-05-1.35664E-05-2.90072E-05-7.57247E-19 4.30293E-19
 -1      1734 3.71927E-05-5.20632E-05 1.98706E-06-1.74228E-05-3.73542E-19 8.64609E-19
 -1      1735 1.63190E-05-5.40448E-05 1.14360E-05-4.25702E-06-9.35971E-20 1.17738E-19
 -1      1736 1.12758E-05-5.43599E-05 1.38564E-05 8.58187E-06-1.08854E-18-1.07446E-18
 -1      1737 1.89234E-05-5.13905E-05 9.65730E-06 2.00495E-05-1.80164E-18-8.61009E-19
 -1      1738 3.91624E-05-4.24624E-05-1.38707E-06 3.39832E-05-2.75963E-18-2.16193E-18
 -1      1739 7.02505E-05-3.35760E-05-1.70065E-05 4.52304E-05-3.04170E-18-2.68128E-18
 -1      1740 1.12927E-04-2.83879E-05-3.53424E-05 5.26590E-05-3.59269E-18-3.40931E-18
 -1      1741 1.59176E-04-2.92646E-05-5.29834E-05 5.04712E-05-2.44623E-18-3.56940E-18
 -1      1742 1.99901E-04-3.24626E-05-6.72298E-05 3.91923E-05-2.23828E-18-3.53594E-18
 -1      1743 2.24044E-04-3.60683E-05-7.50494E-05 1.40529E-05-1.65934E-18-2.48032E-18
 -1      1744 2.26987E-04-3.76546E-05-7.54634E-05-1.42465E-05-2.20144E-18-5.87417E-19
 -1      1745 2.03498E-04-3.32122E-05-6.82010E-05-3.87631E-05-3.03852E-18 7.94940E-19
 -1      1746 1.63236E-04-2.78805E-05-5.48040E-05-5.28213E-05-1.77178E-18 2.52416E-18
 -1      1747 1.17633E-04-2.91308E-05-3.70314E-05-5.27831E-05-3.42201E-19 4.19281E-18
 -1      1748 7.46987E-05-3.33552E-05-1.85990E-05-4.62237E-05 4.67562E-19 4.72560E-18
 -1      1749 3.99555E-05-4.12156E-05-2.35390E-06-3.29161E-05 1.93039E-18 3.14779E-19
 -1      1750 2.06242E-05-5.19608E-05 9.10967E-06-2.05727E-05 2.84857E-18-4.64386E-19
 -1      1751 1.06047E-04-2.31694E-05-3.56024E-05-1.68526E-05-6.70043E-19 2.16099E-18
 -1      1752 8.91517E-05-1.05872E-05-3.37960E-05-1.33260E-05-8.18475E-19-1.28802E-18
 -1      1753 9.04819E-05-1.16317E-05-3.39353E-05-1.51353E-05-9.72566E-19-1.00810E-18
 -1      1754 9.24879E-05-1.38749E-05-3.38532E-05-1.60011E-05-9.62309E-19-6.52718E-19
 -1      1755 9.42043E-05-1.58213E-05-3.40969E-05-1.76620E-05-1.00569E-18-1.77189E-19
 -1      1756 9.34161E-05-1.63480E-05-3.30442E-05-1.37689E-05-1.00014E-18-7.69132E-19
 -1      1757 8.62139E-05-7.67426E-06-3.37308E-05-7.86380E-06-4.19768E-19-1.69657E-18
 -1      1758 8.66178E-05-7.97294E-06-3.37646E-05-9.25309E-06-5.03750E-19-1.67620E-18
 -1      1759 8.55972E-05-7.03584E-06-3.37284E-05-5.32036E-06-2.27051E-19-1.73857E-18
 -1      1760 8.58316E-05-7.21478E-06-3.37432E-05-6.62486E-06-3.26381E-19-1.75360E-18
 -1      1761 8.75966E-05-9.86672E-06-3.33444E-05-6.92841E-06-3.98062E-19-1.67387E-18
 -1      1762 8.52631E-05-6.67725E-06-3.37320E-05-2.88924E-06-2.93124E-20-1.74199E-18
 -1      1763 8.53836E-05-6.77194E-06-3.37378E-05-4.12893E-06-1.06411E-19-1.74282E-18
 -1      1764 8.69611E-05-9.15443E-06-3.33780E-05-4.53774E-06-1.39686E-19-1.66192E-18
 -1      1765 8.51328E-05-6.52928E-06-3.37356E-05-5.17787E-07 2.17375E-19-1.67023E-18
 -1      1766 8.51682E-05-6.55773E-06-3.37369E-05-1.72749E-06 1.27485E-19-1.72913E-18
 -1      1767 8.66300E-05-8.77584E-06-3.33984E-05-2.21774E-06 2.56287E-20-1.64353E-18
 -1      1768 8.51782E-05-6.56687E-06-3.37372E-05 1.84506E-06 3.67473E-19-1.62145E-18
 -1      1769 8.51365E-05-6.53388E-06-3.37355E-05 6.34343E-07 2.97548E-19-1.65877E-18
 -1      1770 8.65323E-05-8.66246E-06-3.34051E-05 6.51199E-08 2.71901E-19-1.65463E-18
 -1      1771 8.54091E-05-6.79725E-06-3.37379E-05 4.25121E-06 5.05850E-19-1.61939E-18
 -1      1772 8.52812E-05-6.69650E-06-3.37319E-05 3.00827E-06 4.27106E-19-1.66299E-18
 -1      1773 8.66479E-05-8.79568E-06-3.33977E-05 2.34920E-06 3.93570E-19-1.58704E-18
 -1      1774 8.58654E-05-7.25061E-06-3.37430E-05 6.71272E-06 6.83293E-19-1.48305E-18
 -1      1775 8.56277E-05-7.06836E-06-3.37283E-05 5.42537E-06 6.08951E-19-1.56051E-18
 -1      1776 8.69958E-05-9.19287E-06-3.33766E-05 4.65269E-06 5.87209E-19-1.51092E-18
 -1      1777 8.66777E-05-8.04044E-06-3.37632E-05 9.37462E-06 8.05343E-19-1.21396E-18
 -1      1778 8.62574E-05-7.72387E-06-3.37297E-05 7.95371E-06 7.15872E-19-1.34411E-18
 -1      1779 8.76473E-05-9.92564E-06-3.33419E-05 7.02811E-06 7.93865E-19-1.34558E-18
 -1      1780 8.80887E-05-9.38812E-06-3.38179E-05 1.22537E-05 1.03562E-18-7.51477E-19
 -1      1781 8.73494E-05-8.83027E-06-3.37462E-05 1.06606E-05 8.92793E-19-1.00792E-18
 -1      1782 8.87674E-05-1.11606E-05-3.32908E-05 9.50251E-06 9.07748E-19-1.03625E-18
 -1      1783 9.06310E-05-1.18402E-05-3.39273E-05 1.53022E-05 1.18372E-18-1.57733E-19
 -1      1784 8.92515E-05-1.07410E-05-3.37879E-05 1.35125E-05 1.10063E-18-5.43239E-19
 -1      1785 9.06634E-05-1.32231E-05-3.32073E-05 1.19746E-05 1.10868E-18-5.51193E-19
 -1      1786 9.58736E-05-1.70342E-05-3.39922E-05 1.76900E-05 1.14255E-18 9.73982E-19
 -1      1787 9.28552E-05-1.43431E-05-3.38264E-05 1.61933E-05 1.11334E-18 3.23222E-19
 -1      1788 9.39691E-05-1.68870E-05-3.30239E-05 1.38937E-05 1.19088E-18 6.61744E-20
 -1      1789 1.01921E-04-2.50934E-05-3.33579E-05 1.44222E-05 1.00268E-18 2.14935E-18
 -1      1790 9.80734E-05-1.96160E-05-3.36242E-05 1.69638E-05 1.05629E-18 1.36817E-18
 -1      1791 9.73269E-05-2.18538E-05-3.24268E-05 1.32480E-05 1.13943E-18 9.66094E-19
 -1      1792 9.87483E-05-2.61343E-05-3.13412E-05 9.43479E-06 9.59132E-19 1.86986E-18
 -1      1793 1.00152E-04-1.95625E-05-3.42167E-05-1.88687E-05-8.75475E-19 7.49412E-19
 -1      1794 9.53076E-05-2.72846E-05-2.91842E-05 4.06676E-06 6.65278E-19 1.53645E-18
 -1      1795 9.77379E-05-2.73898E-05-3.01933E-05 6.40076E-06 7.48830E-19 1.71516E-18
 -1      1796 9.75735E-05-2.56141E-05-3.08318E-05 8.75962E-06 9.24854E-19 1.19261E-18
 -1      1797 9.98123E-05-2.25413E-05-3.28352E-05-1.44669E-05-9.41133E-19 3.21608E-19
 -1      1798 9.69570E-05-2.69779E-05-2.98764E-05-5.70464E-06-7.37951E-19 2.01444E-19
 -1      1799 9.51491E-05-2.70327E-05-2.91659E-05-3.89770E-06-5.79066E-19 2.22081E-20
 -1      1800 9.43302E-05-2.72341E-05-2.86585E-05-2.42041E-06-5.81647E-19 1.17129E-20
 -1      1801 9.35595E-05-2.73153E-05-2.83535E-05-1.56682E-06-4.52329E-19-2.14207E-19
 -1      1802 9.55045E-05-2.65447E-05-2.95754E-05-4.47228E-06-6.68375E-19-4.15202E-19
 -1      1803 9.30350E-05-2.73661E-05-2.80848E-05-7.40262E-07-3.04019E-19-2.81543E-19
 -1      1804 9.27341E-05-2.74296E-05-2.79630E-05-3.01796E-07-3.05342E-19-3.56651E-19
 -1      1805 9.42962E-05-2.72211E-05-2.87670E-05-1.82713E-06-5.15559E-19-5.67115E-19
 -1      1806 9.24587E-05-2.74568E-05-2.78272E-05 1.53915E-07-3.21608E-19-4.08449E-19
 -1      1807 9.24280E-05-2.75328E-05-2.77976E-05 3.78426E-07-3.44871E-19-4.42762E-19
 -1      1808 9.35953E-05-2.75266E-05-2.83316E-05-3.60800E-07-3.91394E-19-8.07021E-19
 -1      1809 9.23254E-05-2.75641E-05-2.77398E-05 6.19176E-07-3.80649E-19-3.54852E-19
 -1      1810 9.24415E-05-2.76492E-05-2.77594E-05 7.24010E-07-2.91413E-19-4.26759E-19
 -1      1811 9.32751E-05-2.77107E-05-2.81114E-05 4.43406E-07-3.74426E-19-7.33317E-19
 -1      1812 9.24482E-05-2.76873E-05-2.77481E-05 8.36683E-07-2.57527E-19-3.57751E-19
 -1      1813 9.26380E-05-2.77742E-05-2.77935E-05 8.71843E-07-2.26096E-19-4.43458E-19
 -1      1814 9.32137E-05-2.78532E-05-2.80199E-05 8.57731E-07-2.78782E-19-3.55461E-19
 -1      1815 9.27088E-05-2.78158E-05-2.78093E-05 9.07804E-07-2.73063E-19-4.48895E-19
 -1      1816 9.29285E-05-2.78990E-05-2.78666E-05 9.02667E-07-3.25824E-19-4.47781E-19
 -1      1817 9.33119E-05-2.79764E-05-2.80061E-05 1.03793E-06-2.66342E-19-2.64914E-19
 -1      1818 9.30332E-05-2.79408E-05-2.78972E-05 8.93997E-07-5.29987E-19-4.26663E-19
 -1      1819 9.32571E-05-2.80169E-05-2.79582E-05 8.67021E-07-3.99307E-19-2.78804E-19
 -1      1820 9.34997E-05-2.80854E-05-2.80376E-05 1.07853E-06-3.57130E-19-3.98303E-19
 -1      1821 9.33763E-05-2.80567E-05-2.79960E-05 8.34518E-07-4.93821E-19-5.31984E-19
 -1      1822 9.35900E-05-2.81242E-05-2.80557E-05 7.97719E-07-4.35582E-19-9.14381E-19
 -1      1823 9.37304E-05-2.81809E-05-2.80941E-05 1.03964E-06-6.59323E-19-6.15268E-19
 -1      1824 9.37120E-05-2.81605E-05-2.80959E-05 7.55128E-07-1.89716E-19-1.03880E-18
 -1      1825 9.39089E-05-2.82193E-05-2.81520E-05 7.16408E-07 7.00411E-20-1.18873E-18
 -1      1826 9.39749E-05-2.82633E-05-2.81626E-05 9.60684E-07-4.37228E-19-8.71034E-19
 -1      1827 9.40272E-05-2.82519E-05-2.81920E-05 6.72798E-07 7.20722E-20-1.21669E-18
 -1      1828 9.42055E-05-2.83028E-05-2.82436E-05 6.37270E-07 5.31168E-20-1.32024E-18
 -1      1829 9.42161E-05-2.83335E-05-2.82354E-05 8.67753E-07-4.04355E-20-9.47820E-19
 -1      1830 9.43176E-05-2.83319E-05-2.82820E-05 5.98444E-07-3.60336E-20-1.50809E-18
 -1      1831 9.44786E-05-2.83763E-05-2.83291E-05 5.69213E-07-3.72970E-19-1.37563E-18
 -1      1832 9.44461E-05-2.83932E-05-2.83082E-05 7.77921E-07-7.20253E-20-1.13616E-18
 -1      1833 9.45842E-05-2.84027E-05-2.83657E-05 5.38541E-07-4.90624E-19-1.26213E-18
 -1      1834 9.47312E-05-2.84423E-05-2.84090E-05 5.17140E-07-6.07644E-19-1.13076E-18
 -1      1835 9.46625E-05-2.84449E-05-2.83787E-05 7.01768E-07-2.93558E-19-1.11486E-18
 -1      1836 9.48318E-05-2.84672E-05-2.84438E-05 4.95989E-07-5.35475E-19-1.16554E-18
 -1      1837 9.49688E-05-2.85042E-05-2.84843E-05 4.82540E-07-4.01581E-19-9.37868E-19
 -1      1838 9.48670E-05-2.84916E-05-2.84464E-05 6.44831E-07-4.78600E-19-1.27069E-18
 -1      1839 9.50664E-05-2.85290E-05-2.85175E-05 4.70370E-07-5.68937E-19-9.48006E-19
 -1      1840 9.51972E-05-2.85654E-05-2.85560E-05 4.63505E-07-3.15464E-19-1.24066E-18
 -1      1841 9.50636E-05-2.85371E-05-2.85113E-05 6.08221E-07-5.46963E-19-8.13999E-19
 -1      1842 9.52941E-05-2.85918E-05-2.85878E-05 4.57669E-07-2.16141E-19-1.58590E-18
 -1      1843 9.54213E-05-2.86294E-05-2.86249E-05 4.54237E-07-9.26210E-21-1.63539E-18
 -1      1844 9.52570E-05-2.85856E-05-2.85735E-05 5.88534E-07-6.33773E-19-1.27961E-18
 -1      1845 9.55189E-05-2.86593E-05-2.86551E-05 4.49520E-07-1.55397E-19-1.90579E-18
 -1      1846 9.56424E-05-2.86997E-05-2.86903E-05 4.44097E-07-6.45592E-19-2.06254E-18
 -1      1847 9.54513E-05-2.86421E-05-2.86326E-05 5.77147E-07-4.12115E-19-1.33794E-18
 -1      1848 9.57408E-05-2.87346E-05-2.87179E-05 4.32069E-07-1.07157E-18-2.22348E-18
 -1      1849 9.58567E-05-2.87784E-05-2.87498E-05 4.16395E-07-1.01960E-18-2.64145E-18
 -1      1850 9.56490E-05-2.87118E-05-2.86874E-05 5.59007E-07-9.52170E-19-1.61587E-18
 -1      1851 9.59535E-05-2.88197E-05-2.87727E-05 3.84749E-07-1.07130E-19-2.77163E-18
 -1      1852 9.60518E-05-2.88658E-05-2.87980E-05 3.47259E-07 9.48975E-19-2.84630E-18
 -1      1853 9.58483E-05-2.87998E-05-2.87348E-05 5.11194E-07-5.81087E-19-1.85829E-18
 -1      1854 9.61409E-05-2.89138E-05-2.88130E-05 2.79469E-07 1.32421E-18-2.92460E-18
 -1      1855 9.62038E-05-2.89587E-05-2.88263E-05 2.05315E-07 8.26553E-19-2.46053E-18
 -1      1856 9.60415E-05-2.89099E-05-2.87698E-05 4.01804E-07 1.05826E-18-2.53809E-18
 -1      1857 9.62739E-05-2.90117E-05-2.88286E-05 8.11743E-08 5.24455E-19-1.96010E-18
 -1      1858 9.62746E-05-2.90480E-05-2.88223E-05-4.67047E-08 7.56758E-19-1.32195E-18
 -1      1859 9.62117E-05-2.90423E-05-2.87851E-05 1.90131E-07 1.05327E-18-2.11334E-18
 -1      1860 9.63077E-05-2.91005E-05-2.88060E-05-2.48822E-07 2.82509E-19-1.24521E-18
 -1      1861 9.62096E-05-2.91154E-05-2.87699E-05-4.46804E-07 3.29540E-19-1.09164E-18
 -1      1862 9.63299E-05-2.91901E-05-2.87709E-05-1.70328E-07 6.65389E-19-9.72897E-19
 -1      1863 9.61799E-05-2.91565E-05-2.87283E-05-7.44974E-07 3.87906E-19-1.46044E-18
 -1      1864 9.59390E-05-2.91312E-05-2.86513E-05-1.02330E-06 1.81240E-19-1.64879E-18
 -1      1865 9.63515E-05-2.93342E-05-2.87163E-05-7.24030E-07 2.36328E-19-1.94792E-18
 -1      1866 9.58128E-05-2.91426E-05-2.85782E-05-1.42358E-06 3.21528E-19-1.82842E-18
 -1      1867 9.53832E-05-2.90517E-05-2.84499E-05-1.77811E-06 1.90887E-19-1.66330E-18
 -1      1868 9.62146E-05-2.94381E-05-2.86106E-05-1.49872E-06 3.27741E-19-1.62874E-18
 -1      1869 9.51218E-05-2.90075E-05-2.83412E-05-2.26288E-06-2.13780E-19-1.65653E-18
 -1      1870 9.44669E-05-2.88230E-05-2.81550E-05-2.66534E-06-5.22398E-20-1.82557E-18
 -1      1871 9.58427E-05-2.94437E-05-2.84462E-05-2.48322E-06 2.22548E-19-1.92117E-18
 -1      1872 9.40349E-05-2.86927E-05-2.80111E-05-3.18109E-06 6.06737E-20-1.60727E-18
 -1      1873 9.31437E-05-2.83913E-05-2.77683E-05-3.57133E-06 3.83206E-19-1.57416E-18
 -1      1874 9.51555E-05-2.92752E-05-2.82217E-05-3.60068E-06 4.35158E-19-1.25209E-18
 -1      1875 9.25230E-05-2.81495E-05-2.75958E-05-4.02209E-06 1.06701E-18-1.03488E-18
 -1      1876 9.14288E-05-2.77257E-05-2.73090E-05-4.30880E-06 1.26724E-18-5.10624E-19
 -1      1877 9.40921E-05-2.88551E-05-2.79456E-05-4.68671E-06 9.62890E-19-7.24125E-19
 -1      1878 9.06398E-05-2.73673E-05-2.71216E-05-4.56457E-06 3.63531E-19-9.05417E-19
 -1      1879 8.94348E-05-2.68484E-05-2.68168E-05-4.64131E-06-4.53931E-20-1.21260E-18
 -1      1880 9.26491E-05-2.81380E-05-2.76375E-05-5.48956E-06 4.92792E-19-3.10161E-19
 -1      1881 8.85553E-05-2.64066E-05-2.66346E-05-4.56937E-06-3.61169E-19-1.41448E-18
 -1      1882 8.73904E-05-2.58624E-05-2.63490E-05-4.34857E-06-8.97316E-19-1.20873E-18
 -1      1883 9.09241E-05-2.71549E-05-2.73269E-05-5.71237E-06-2.49222E-19-1.39859E-18
 -1      1884 8.65598E-05-2.54167E-05-2.61949E-05-3.86621E-06-1.12907E-18-1.17787E-18
 -1      1885 8.56219E-05-2.49524E-05-2.59705E-05-3.32257E-06-9.38410E-19-1.04472E-18
 -1      1886 8.91428E-05-2.60480E-05-2.70494E-05-5.10680E-06-6.47681E-19-1.32968E-18
 -1      1887 8.50140E-05-2.46133E-05-2.58660E-05-2.45149E-06-6.88532E-19-6.56197E-19
 -1      1888 8.44786E-05-2.43395E-05-2.57397E-05-1.65287E-06 1.82840E-20-9.06799E-19
 -1      1889 8.76367E-05-2.50612E-05-2.68390E-05-3.59643E-06-6.61407E-19-3.93027E-20
 -1      1890 8.42430E-05-2.42068E-05-2.57001E-05-5.40322E-07-1.67246E-19-7.11034E-19
 -1      1891 8.42187E-05-2.41962E-05-2.56939E-05 3.58809E-07 2.03592E-19-7.05056E-19
 -1      1892 8.67512E-05-2.44661E-05-2.67227E-05-1.36801E-06-2.09052E-19 1.97186E-19
 -1      1893 8.44165E-05-2.43113E-05-2.57250E-05 1.47829E-06 5.11383E-19-1.09194E-18
 -1      1894 8.49064E-05-2.45659E-05-2.58396E-05 2.28721E-06 3.08687E-19-1.56169E-18
 -1      1895 8.67121E-05-2.44448E-05-2.67153E-05 1.14413E-06 3.22931E-20-4.95738E-19
 -1      1896 8.54825E-05-2.48913E-05-2.59364E-05 3.17692E-06 4.11747E-19-1.65041E-18
 -1      1897 8.63833E-05-2.53421E-05-2.61508E-05 3.73768E-06 2.36319E-19-1.03158E-18
 -1      1898 8.75260E-05-2.50026E-05-2.68172E-05 3.40154E-06 6.18251E-20 4.97193E-20
 -1      1899 8.71926E-05-2.57812E-05-2.62981E-05 4.24363E-06-2.04219E-19-7.13840E-19
 -1      1900 8.83309E-05-2.63190E-05-2.65759E-05 4.48205E-06-7.90650E-19-5.70526E-19
 -1      1901 8.89782E-05-2.59664E-05-2.70145E-05 4.96018E-06 4.01292E-19 2.72252E-19
 -1      1902 8.91992E-05-2.67610E-05-2.67524E-05 4.57391E-06-3.72721E-19 3.10024E-19
 -1      1903 9.03867E-05-2.72789E-05-2.70512E-05 4.50938E-06-5.65068E-20 4.06116E-19
 -1      1904 9.07275E-05-2.70682E-05-2.72804E-05 5.61521E-06 2.13767E-19 1.89302E-18
 -1      1905 9.11701E-05-2.76409E-05-2.72337E-05 4.26403E-06-7.68853E-19-9.56254E-20
 -1      1906 9.22517E-05-2.80658E-05-2.75157E-05 3.98137E-06-5.23286E-19-5.89652E-19
 -1      1907 9.24374E-05-2.80595E-05-2.75806E-05 5.42637E-06-7.51163E-19 9.73006E-19
 -1      1908 9.28674E-05-2.83109E-05-2.76839E-05 3.53058E-06-1.32273E-19-5.46447E-19
 -1      1909 9.37462E-05-2.86122E-05-2.79224E-05 3.13696E-06-7.00255E-19-8.72452E-20
 -1      1910 9.38717E-05-2.87886E-05-2.78795E-05 4.63472E-06-4.42557E-19 3.28877E-19
 -1      1911 9.41707E-05-2.87430E-05-2.80622E-05 2.61358E-06-1.09489E-18 1.47543E-19
 -1      1912 9.48102E-05-2.89244E-05-2.82436E-05 2.20325E-06-1.56580E-19 2.07966E-19
 -1      1913 9.49239E-05-2.92165E-05-2.81474E-05 3.53974E-06-6.21037E-19 1.10911E-18
 -1      1914 9.50600E-05-2.89657E-05-2.83483E-05 1.70777E-06 1.58380E-19 5.32971E-20
 -1      1915 9.54698E-05-2.90498E-05-2.84711E-05 1.34473E-06 9.13545E-19-4.38696E-19
 -1      1916 9.55924E-05-2.93843E-05-2.83641E-05 2.40166E-06-1.44285E-19 1.67873E-18
 -1      1917 9.55810E-05-2.90319E-05-2.85405E-05 9.35714E-07 1.74697E-18-3.23995E-19
 -1      1918 9.57987E-05-2.90471E-05-2.86116E-05 6.52329E-07 1.58607E-18 2.91788E-19
 -1      1919 9.59372E-05-2.93682E-05-2.85216E-05 1.39556E-06 8.57058E-19 1.20699E-18
 -1      1920 9.58116E-05-2.89966E-05-2.86502E-05 3.52468E-07 1.13794E-18 7.57425E-19
 -1      1921 9.58865E-05-2.89689E-05-2.86810E-05 1.57053E-07 8.66098E-19 2.70812E-18
 -1      1922 9.60409E-05-2.92445E-05-2.86217E-05 6.09467E-07 1.70532E-18 1.59886E-18
 -1      1923 9.58375E-05-2.89047E-05-2.86961E-05-3.46793E-08 2.53296E-19 1.56717E-18
 -1      1924 9.58193E-05-2.88548E-05-2.86996E-05-1.48065E-07 5.53475E-19 1.63772E-18
 -1      1925 9.59844E-05-2.90723E-05-2.86736E-05 6.56482E-08 4.21786E-19 1.83502E-18
 -1      1926 9.57376E-05-2.87887E-05-2.86989E-05-2.44668E-07-1.71094E-19 1.33566E-18
 -1      1927 9.56705E-05-2.87318E-05-2.86872E-05-2.88149E-07-1.17661E-19 1.37965E-18
 -1      1928 9.58359E-05-2.88900E-05-2.86898E-05-2.52726E-07 4.02295E-20 9.85821E-19
 -1      1929 9.55786E-05-2.86713E-05-2.86780E-05-3.07539E-07 4.86216E-19 1.55029E-18
 -1      1930 9.54977E-05-2.86182E-05-2.86609E-05-2.95659E-07 6.09819E-19 1.31111E-18
 -1      1931 9.56484E-05-2.87203E-05-2.86834E-05-3.79850E-07-3.34369E-19 1.43974E-18
 -1      1932 9.54199E-05-2.85753E-05-2.86491E-05-2.57068E-07 6.98149E-19 1.71427E-18
 -1      1933 9.53522E-05-2.85379E-05-2.86324E-05-2.09705E-07 9.09931E-19 1.50832E-18
 -1      1934 9.53290E-05-2.84997E-05-2.86413E-05-2.49475E-07 1.24738E-19 2.48205E-18
 -1      1935 9.54683E-05-2.85795E-05-2.86659E-05-3.59183E-07 7.17497E-19 2.81810E-18
 -1      1936 9.32083E-05-2.73616E-05-2.81922E-05 1.60482E-06 5.07029E-19 1.16000E-18
 -1      1937 9.44028E-05-2.74668E-05-2.86287E-05 2.67601E-06 5.96735E-19 1.38092E-18
 -1      1938 9.52274E-05-2.70462E-05-2.92259E-05 4.05361E-06 7.04917E-19 8.98259E-19
 -1      1939 9.21545E-05-2.73477E-05-2.77504E-05 3.45379E-07 1.55801E-19 8.79683E-19
 -1      1940 9.26512E-05-2.73797E-05-2.79229E-05 8.96375E-07 2.85268E-19 1.04325E-18
 -1      1941 9.36239E-05-2.73679E-05-2.84024E-05 1.58451E-06 3.95677E-19 8.23601E-19
 -1      1942 9.17753E-05-2.73902E-05-2.75785E-05-3.30850E-07 5.69200E-19 6.87180E-19
 -1      1943 9.18875E-05-2.73605E-05-2.76251E-05-2.96821E-08 3.31410E-19 7.78476E-19
 -1      1944 9.27821E-05-2.74827E-05-2.79948E-05 2.52390E-07 3.78592E-19 4.05821E-19
 -1      1945 9.18156E-05-2.74822E-05-2.75615E-05-6.43232E-07 4.46549E-19 5.21193E-19
 -1      1946 9.17203E-05-2.74187E-05-2.75427E-05-4.95135E-07 4.62982E-19 6.35278E-19
 -1      1947 9.24746E-05-2.75810E-05-2.78217E-05-4.47150E-07 5.60319E-19 2.38359E-19
 -1      1948 9.20701E-05-2.76056E-05-2.76207E-05-7.75341E-07 7.98031E-20 3.13727E-19
 -1      1949 9.18747E-05-2.75261E-05-2.75706E-05-7.06599E-07 2.07595E-19 5.25093E-19
 -1      1950 9.24922E-05-2.76868E-05-2.77819E-05-7.80701E-07 3.55615E-19 3.75719E-19
 -1      1951 9.24307E-05-2.77408E-05-2.77191E-05-8.01224E-07 2.11797E-19 3.08648E-19
 -1      1952 9.21922E-05-2.76570E-05-2.76547E-05-7.79680E-07 5.45851E-20 3.43758E-19
 -1      1953 9.26867E-05-2.78028E-05-2.78134E-05-9.16625E-07 1.08937E-19 2.34595E-19
 -1      1954 9.28308E-05-2.78751E-05-2.78342E-05-7.67146E-07 4.63429E-19-7.06933E-20
 -1      1955 9.25822E-05-2.77938E-05-2.77654E-05-7.72637E-07 4.84960E-19 2.14827E-19
 -1      1956 9.29723E-05-2.79206E-05-2.78835E-05-9.36832E-07 5.05292E-19-1.53667E-19
 -1      1957 9.32501E-05-2.80072E-05-2.79583E-05-6.98092E-07 8.08111E-20-2.78592E-19
 -1      1958 9.29999E-05-2.79290E-05-2.78878E-05-7.20095E-07 2.95033E-19-1.90212E-19
 -1      1959 9.33022E-05-2.80349E-05-2.79746E-05-8.89986E-07 3.39255E-19-3.05896E-19
 -1      1960 9.36261E-05-2.81199E-05-2.80719E-05-6.21026E-07 2.52958E-20-4.68019E-19
 -1      1961 9.34064E-05-2.80537E-05-2.80092E-05-6.48159E-07-7.89325E-20-3.37254E-19
 -1      1962 9.36364E-05-2.81402E-05-2.80717E-05-8.11175E-07 5.20429E-20-2.77933E-19
 -1      1963 9.39727E-05-2.82200E-05-2.81779E-05-5.47428E-07 2.98523E-19-5.99663E-19
 -1      1964 9.37743E-05-2.81619E-05-2.81207E-05-5.74429E-07 2.35639E-19-5.12009E-19
 -1      1965 9.39484E-05-2.82309E-05-2.81659E-05-7.25280E-07 1.83904E-19-5.61107E-19
 -1      1966 9.42901E-05-2.83083E-05-2.82762E-05-4.86566E-07 4.66232E-19-5.32851E-19
 -1      1967 9.41113E-05-2.82574E-05-2.82241E-05-5.08914E-07 4.43850E-19-4.82415E-19
 -1      1968 9.42406E-05-2.83107E-05-2.82566E-05-6.46342E-07 4.14807E-19-6.66931E-19
 -1      1969 9.45862E-05-2.83876E-05-2.83690E-05-4.46337E-07-6.56347E-21-8.57176E-19
 -1      1970 9.44214E-05-2.83420E-05-2.83204E-05-4.60245E-07 1.10322E-19-6.48119E-19
 -1      1971 9.45144E-05-2.83808E-05-2.83438E-05-5.86092E-07 2.05395E-19-3.80470E-19
 -1      1972 9.48883E-05-2.84651E-05-2.84649E-05-4.34391E-07 7.58362E-20-1.09830E-18
 -1      1973 9.47219E-05-2.84204E-05-2.84151E-05-4.35749E-07 2.14009E-19-1.08053E-18
 -1      1974 9.47840E-05-2.84452E-05-2.84318E-05-5.54400E-07 2.59613E-19-9.50590E-19
 -1      1975 9.51880E-05-2.85385E-05-2.85612E-05-4.61589E-07-6.21355E-19-8.87865E-19
 -1      1976 9.50230E-05-2.84954E-05-2.85112E-05-4.46086E-07-1.80207E-19-1.35564E-18
 -1      1977 9.50559E-05-2.85049E-05-2.85229E-05-5.63987E-07-2.10720E-20-1.14018E-18
 -1      1978 9.55263E-05-2.86176E-05-2.86710E-05-5.39234E-07 5.73389E-20-1.20310E-18
 -1      1979 9.53391E-05-2.85700E-05-2.86137E-05-5.00706E-07-3.19779E-19-1.07987E-18
 -1      1980 9.53421E-05-2.85625E-05-2.86212E-05-6.27273E-07-2.36987E-19-7.94774E-19
 -1      1981 9.59388E-05-2.87100E-05-2.88061E-05-6.86337E-07 4.36243E-20-7.72732E-19
 -1      1982 9.57077E-05-2.86525E-05-2.87350E-05-6.15335E-07 1.28054E-19-4.98210E-19
 -1      1983 9.56735E-05-2.86230E-05-2.87378E-05-7.62716E-07-5.96873E-20-4.06938E-19
 -1      1984 9.64743E-05-2.88253E-05-2.89827E-05-9.32132E-07 1.61461E-19-3.13358E-19
 -1      1985 9.61690E-05-2.87504E-05-2.88888E-05-8.14026E-07 4.88946E-20-7.24150E-19
 -1      1986 9.60821E-05-2.86902E-05-2.88848E-05-9.98534E-07-7.68641E-20 7.79643E-20
 -1      1987 9.72425E-05-2.89840E-05-2.92389E-05-1.34495E-06-8.23988E-20-4.09503E-19
 -1      1988 9.67949E-05-2.88769E-05-2.91003E-05-1.14414E-06 2.99380E-19-5.30004E-20
 -1      1989 9.66264E-05-2.87698E-05-2.90850E-05-1.38966E-06 1.21985E-19 6.34266E-19
 -1      1990 9.82723E-05-2.91898E-05-2.95844E-05-1.95862E-06-2.02788E-19-4.04519E-19
 -1      1991 9.76590E-05-2.90438E-05-2.93953E-05-1.66019E-06-3.58566E-19-7.73775E-19
 -1      1992 9.73558E-05-2.88626E-05-2.93588E-05-2.00133E-06-1.48140E-19 5.72293E-19
 -1      1993 9.97263E-05-2.94713E-05-3.00761E-05-2.89092E-06-3.62193E-19 6.02312E-20
 -1      1994 9.88384E-05-2.92618E-05-2.98027E-05-2.43207E-06-5.14506E-20-1.25798E-20
 -1      1995 9.83238E-05-2.89676E-05-2.97300E-05-2.91101E-06-2.22727E-19 6.20385E-21
 -1      1996 1.01788E-04-2.98625E-05-3.07782E-05-4.28860E-06 4.28744E-20-2.99253E-19
 -1      1997 1.00497E-04-2.95574E-05-3.03814E-05-3.59144E-06-2.35541E-19-5.23936E-21
 -1      1998 9.96405E-05-2.90883E-05-3.02444E-05-4.26958E-06-1.71392E-19 2.30059E-19
 -1      1999 1.04698E-04-3.04169E-05-3.17726E-05-6.34120E-06 2.71540E-19 2.23516E-19
 -1      2000 1.02828E-04-2.99669E-05-3.12001E-05-5.30142E-06 3.19133E-19-4.27953E-19
 -1      2001 1.01424E-04-2.92306E-05-3.09510E-05-6.26183E-06 4.07324E-19 6.24727E-19
 -1      2002 1.08749E-04-3.12356E-05-3.31491E-05-9.25074E-06 5.53483E-20-7.68550E-20
 -1      2003 1.06082E-04-3.05555E-05-3.23402E-05-7.74574E-06 2.32815E-19 1.37697E-19
 -1      2004 1.03815E-04-2.94294E-05-3.18981E-05-9.09692E-06 5.41108E-20 5.44035E-19
 -1      2005 1.14564E-04-3.26096E-05-3.50582E-05-1.32556E-05-6.26043E-19-1.77043E-19
 -1      2006 1.10681E-04-3.15068E-05-3.39098E-05-1.11361E-05-3.11589E-19-1.48052E-19
 -1      2007 1.07081E-04-2.98276E-05-3.31411E-05-1.30258E-05-1.01962E-19-3.51006E-19
 -1      2008 1.21886E-04-3.49316E-05-3.72321E-05-1.74728E-05-8.55801E-21 4.55121E-19
 -1      2009 1.17008E-04-3.32291E-05-3.58949E-05-1.52056E-05-1.07004E-19 2.29969E-19
 -1      2010 1.11464E-04-3.08805E-05-3.45824E-05-1.77928E-05-4.17303E-19-4.08495E-20
 -1      2011 1.31158E-04-3.93058E-05-3.93680E-05-2.01490E-05 6.86957E-19-8.10849E-19
 -1      2012 1.25327E-04-3.65345E-05-3.80255E-05-1.86721E-05 1.30020E-19-1.86427E-19
 -1      2013 1.17444E-04-3.36715E-05-3.59493E-05-2.21245E-05 2.31405E-19-6.45135E-19
 -1      2014 1.42548E-04-4.71564E-05-4.08695E-05-1.68460E-05 6.54968E-19-1.21377E-18
 -1      2015 1.36528E-04-4.30246E-05-3.99445E-05-1.86513E-05 1.11017E-18-6.45280E-19
 -1      2016 1.26511E-04-4.03549E-05-3.69364E-05-2.31996E-05 1.08934E-18-2.65095E-19
 -1      2017 1.55418E-04-5.74749E-05-4.19277E-05-1.37790E-06-2.43681E-19-1.69671E-18
 -1      2018 1.51001E-04-5.35299E-05-4.15232E-05-9.97493E-06-1.80365E-19-1.63375E-18
 -1      2019 1.40867E-04-5.25284E-05-3.78118E-05-1.58165E-05 2.63004E-19-1.19794E-18
 -1      2020 1.67706E-04-6.05633E-05-4.60747E-05 2.41972E-05-1.51862E-18-1.25001E-18
 -1      2021 1.65659E-04-6.25232E-05-4.42738E-05 9.82518E-06-7.99917E-19-1.72173E-18
 -1      2022 1.59901E-04-6.44765E-05-4.10152E-05 3.57870E-06-8.85361E-19-2.19757E-18
 -1      2023 1.65619E-04-3.11356E-05-5.83277E-05-8.45902E-06-2.03330E-18-1.29146E-18
 -1      2024 1.64850E-04-3.00626E-05-5.83367E-05 4.38387E-06-3.74643E-18-5.38104E-19
 -1      2025 1.70866E-04-4.60606E-05-5.40683E-05-2.95396E-05-9.75782E-19-4.25634E-20
 -1      2026 1.64581E-04-3.47911E-05-5.61577E-05-2.07492E-05-1.39464E-18-1.09606E-18
 -1      2027 1.71185E-04-6.01593E-05-4.76183E-05-2.63979E-05 2.29932E-18-1.23984E-18
 -1      2028 1.65737E-04-5.17647E-05-4.93418E-05-2.96551E-05 8.19081E-19-5.91017E-19
 -1      2029 1.62895E-04-6.06607E-05-4.33816E-05-6.15502E-06 3.53885E-18-1.60889E-18
 -1      2030 1.62865E-04-6.04453E-05-4.41264E-05-1.53500E-05 3.32103E-18-1.15113E-18
 -1      2031 1.69450E-04-6.55690E-05-4.52311E-05-1.63450E-05 3.04001E-18-4.67647E-18
 -1      2032 1.49556E-04-5.14274E-05-4.15530E-05 1.17264E-05 3.35722E-18-4.88103E-20
 -1      2033 1.53687E-04-5.56611E-05-4.20282E-05 4.30224E-06 3.48745E-18 6.08276E-20
 -1      2034 1.52378E-04-6.05685E-05-3.96160E-05 4.08654E-06 2.99945E-18-3.17453E-18
 -1      2035 1.35432E-04-4.15824E-05-4.00097E-05 1.95155E-05 1.45356E-18-5.50836E-20
 -1      2036 1.41875E-04-4.62974E-05-4.09765E-05 1.66151E-05 2.59054E-18 3.58480E-19
 -1      2037 1.35958E-04-4.80161E-05-3.77887E-05 1.91007E-05 2.73030E-18-9.55777E-19
 -1      2038 1.24008E-04-3.57310E-05-3.78252E-05 1.85896E-05 2.04582E-19-7.67835E-19
 -1      2039 1.30505E-04-3.89287E-05-3.92497E-05 1.91116E-05 1.20814E-18 4.63698E-19
 -1      2040 1.23506E-04-3.75578E-05-3.68278E-05 2.30923E-05 1.34825E-18-6.80975E-19
 -1      2041 1.15883E-04-3.29341E-05-3.56026E-05 1.46993E-05-2.51708E-18-3.16512E-19
 -1      2042 1.21010E-04-3.47577E-05-3.69451E-05 1.63284E-05-1.74550E-18-2.76715E-19
 -1      2043 1.15392E-04-3.25120E-05-3.55115E-05 2.04435E-05-1.05847E-18 1.46709E-19
 -1      2044 1.09806E-04-3.14064E-05-3.36448E-05 1.06998E-05-1.04797E-18 3.04542E-18
 -1      2045 1.13709E-04-3.25093E-05-3.47548E-05 1.23458E-05-1.42797E-18 1.29527E-18
 -1      2046 1.09885E-04-3.05017E-05-3.40099E-05 1.58553E-05-2.75238E-18 1.47839E-18
 -1      2047 1.05327E-04-3.04816E-05-3.21026E-05 7.48396E-06 9.92617E-20 2.81432E-18
 -1      2048 1.08159E-04-3.11753E-05-3.29381E-05 8.79209E-06-1.11078E-18 3.05244E-18
 -1      2049 1.05810E-04-2.97054E-05-3.26027E-05 1.15111E-05-1.16912E-18 2.33121E-18
 -1      2050 1.02056E-04-2.98528E-05-3.09584E-05 5.14826E-06-8.79419E-19 5.05197E-18
 -1      2051 1.04065E-04-3.03104E-05-3.15585E-05 6.09172E-06-5.77121E-19 3.12091E-18
 -1      2052 1.02730E-04-2.93367E-05-3.14430E-05 8.09173E-06-9.59166E-19 3.34524E-18
 -1      2053 9.96010E-05-2.93770E-05-3.01017E-05 3.45753E-06 1.37391E-18 2.56715E-18
 -1      2054 1.01051E-04-2.97009E-05-3.05381E-05 4.13422E-06 3.14487E-19 3.55189E-18
 -1      2055 1.00362E-04-2.90933E-05-3.05339E-05 5.56274E-06 5.80350E-19 2.65590E-18
 -1      2056 9.79499E-05-2.90386E-05-2.95340E-05 2.35949E-06 4.57265E-19 3.55923E-18
 -1      2057 9.89021E-05-2.92547E-05-2.98191E-05 2.80410E-06 1.58718E-18 3.69007E-18
 -1      2058 9.86027E-05-2.89016E-05-2.98683E-05 3.79479E-06 3.88487E-19 1.79522E-18
 -1      2059 9.67807E-05-2.87767E-05-2.91430E-05 1.57428E-06-4.48370E-19 3.29801E-18
 -1      2060 9.74303E-05-2.89335E-05-2.93351E-05 1.89777E-06-2.01356E-19 4.17340E-18
 -1      2061 9.73452E-05-2.87281E-05-2.94060E-05 2.59344E-06-2.02709E-19 3.65956E-18
 -1      2062 9.59857E-05-2.85745E-05-2.88861E-05 9.62790E-07 3.52263E-19 9.16663E-19
 -1      2063 9.64029E-05-2.86865E-05-2.90085E-05 1.22294E-06 3.24923E-19 1.62503E-18
 -1      2064 9.64285E-05-2.85637E-05-2.90854E-05 1.71339E-06 6.95005E-19 1.89311E-18
 -1      2065 9.55100E-05-2.84282E-05-2.87425E-05 5.20373E-07-1.17668E-18-8.22792E-19
 -1      2066 9.57570E-05-2.84951E-05-2.88195E-05 7.54669E-07-6.21621E-19-2.34660E-19
 -1      2067 9.58190E-05-2.84140E-05-2.88927E-05 1.09411E-06 1.13368E-19 4.87935E-19
 -1      2068 9.54384E-05-2.83016E-05-2.87765E-05 6.40050E-07-7.20601E-19-1.81237E-18
 -1      2069 9.45177E-05-2.65931E-05-2.91186E-05 1.12650E-06 2.58297E-19 2.45374E-18
 -1      2070 9.46827E-05-2.68963E-05-2.90496E-05 1.20056E-06 2.34631E-19 4.21158E-19
 -1      2071 9.48660E-05-2.72053E-05-2.90033E-05 1.23102E-06 9.71950E-19-3.72495E-19
 -1      2072 9.50493E-05-2.75326E-05-2.89311E-05 1.16225E-06 1.18469E-18-7.99194E-19
 -1      2073 9.47543E-05-2.70005E-05-2.90328E-05 1.54399E-06 8.19638E-19-3.58692E-19
 -1      2074 9.51928E-05-2.77902E-05-2.88890E-05 1.04663E-06 6.91706E-19-2.63569E-18
 -1      2075 9.53376E-05-2.80673E-05-2.88232E-05 8.55105E-07 5.01190E-19-1.08852E-18
 -1      2076 9.54967E-05-2.81064E-05-2.88749E-05 1.09245E-06 1.53517E-18-7.72387E-19
 -1      2077 9.51631E-05-2.75967E-05-2.89561E-05 1.44282E-06 1.76170E-18-1.41628E-18
 -1      2078 9.42836E-05-2.61543E-05-2.92063E-05 7.81848E-07-8.69537E-19-4.45532E-19
 -1      2079 9.43907E-05-2.63717E-05-2.91547E-05 9.50692E-07-4.03187E-19 2.51742E-18
 -1      2080 9.43701E-05-2.64483E-05-2.91007E-05 1.29970E-06-1.12435E-19 7.54815E-19
 -1      2081 9.41881E-05-2.59446E-05-2.92538E-05 3.04939E-07 1.58091E-19-3.15365E-19
 -1      2082 9.42267E-05-2.60469E-05-2.92279E-05 5.17806E-07 3.92220E-19 8.35946E-19
 -1      2083 9.41373E-05-2.61048E-05-2.91470E-05 7.95786E-07 3.41133E-20 7.82012E-19
 -1      2084 9.42303E-05-2.59847E-05-2.92525E-05-1.72540E-07-9.03539E-19-1.37657E-18
 -1      2085 9.42025E-05-2.59613E-05-2.92564E-05 2.78823E-08-1.67980E-19-8.22260E-19
 -1      2086 9.40844E-05-2.60130E-05-2.91644E-05 1.81980E-07 2.34868E-19-8.06764E-19
 -1      2087 9.43751E-05-2.62331E-05-2.92057E-05-5.52087E-07 4.73839E-19 2.48617E-18
 -1      2088 9.42992E-05-2.61045E-05-2.92360E-05-4.02525E-07-4.59506E-19 4.11547E-19
 -1      2089 9.41886E-05-2.61586E-05-2.91491E-05-3.89559E-07-1.46952E-18 2.95293E-19
 -1      2090 9.45739E-05-2.66163E-05-2.91247E-05-7.82108E-07-1.87209E-19-7.42536E-19
 -1      2091 9.44736E-05-2.64189E-05-2.91737E-05-7.00181E-07 1.07401E-18 2.01080E-18
 -1      2092 9.43964E-05-2.64798E-05-2.91037E-05-8.12529E-07-1.10913E-18 2.18672E-18
 -1      2093 9.47799E-05-2.70538E-05-2.90242E-05-8.58122E-07-1.23516E-19-3.51868E-18
 -1      2094 9.46776E-05-2.68277E-05-2.90826E-05-8.41140E-07 8.52691E-20-1.64892E-18
 -1      2095 9.46443E-05-2.68940E-05-2.90354E-05-1.04117E-06-8.17283E-19-1.60931E-18
 -1      2096 9.49571E-05-2.74706E-05-2.89208E-05-8.11700E-07 1.22332E-18-3.23231E-18
 -1      2097 9.48693E-05-2.72535E-05-2.89790E-05-8.42783E-07 8.64857E-19-3.50912E-18
 -1      2098 9.48771E-05-2.73196E-05-2.89550E-05-1.08521E-06 4.90216E-20-3.01546E-18
 -1      2099 9.50950E-05-2.78363E-05-2.88229E-05-6.86525E-07 6.13342E-19 2.17875E-18
 -1      2100 9.50261E-05-2.76439E-05-2.88763E-05-7.46823E-07 1.31748E-18 4.54517E-19
 -1      2101 9.50625E-05-2.77021E-05-2.88717E-05-9.91099E-07 2.20572E-18-1.99759E-18
 -1      2102 9.51894E-05-2.81232E-05-2.87406E-05-5.26653E-07-1.11483E-18-1.18697E-18
 -1      2103 9.51410E-05-2.79704E-05-2.87841E-05-5.98200E-07 2.30754E-19 5.72559E-19
 -1      2104 9.51917E-05-2.80137E-05-2.87938E-05-8.15872E-07 1.14331E-18 4.58476E-19
 -1      2105 9.52503E-05-2.83335E-05-2.86775E-05-3.62207E-07-2.91441E-19 4.22877E-19
 -1      2106 9.52164E-05-2.82200E-05-2.87095E-05-4.35093E-07-7.14786E-19-9.35530E-19
 -1      2107 9.52702E-05-2.82447E-05-2.87279E-05-6.12075E-07-2.00247E-19-7.26042E-19
 -1      2108 5.44057E-05-4.57048E-05-4.83370E-06 3.10861E-05 1.67374E-18-1.05763E-18
 -1      2109 3.82438E-05-4.40766E-05 9.68791E-07 2.44424E-05 1.57125E-18-4.74338E-20
 -1      2110 1.09682E-05-3.71272E-05 9.80844E-06-6.60299E-06 5.07082E-19-8.58468E-19
 -1      2111 1.20686E-05-3.57475E-05 8.91325E-06-1.53805E-05 1.79571E-18 3.24414E-19
 -1      2112 1.93118E-05-3.67584E-05 6.27642E-06 1.40056E-05 6.25110E-19 9.24113E-19
 -1      2113 1.35159E-05-3.91805E-05 9.31796E-06 3.29688E-06 6.45863E-20-2.33358E-19
 -1      2114 1.30629E-05-2.45881E-05 4.20745E-06 3.02941E-07-4.96123E-19-1.08971E-18
 -1      2115 9.47818E-05-5.34737E-05-1.86753E-05 3.56323E-05 5.04832E-19-3.98847E-18
 -1      2116 7.15121E-05-5.26221E-05-1.01344E-05 2.97754E-05 1.44461E-18-2.28233E-18
 -1      2117 7.59592E-05-5.11245E-05-1.13268E-05 3.63501E-05 1.54626E-18-3.06626E-18
 -1      2118 1.50627E-04-6.48675E-05-3.75011E-05 2.34309E-05-2.26581E-19-9.13440E-18
 -1      2119 1.20473E-04-5.99847E-05-2.72956E-05 2.65524E-05-1.24514E-19-5.41551E-18
 -1      2120 8.72486E-05-8.72270E-06-3.37495E-05-1.05413E-05-5.78633E-19-1.57274E-18
 -1      2121 8.79528E-05-9.24002E-06-3.38212E-05-1.20971E-05-7.52106E-19-1.37742E-18
 -1      2122 9.04840E-05-1.30490E-05-3.32356E-05-1.18751E-05-8.01823E-19-1.26395E-18
 -1      2123 8.86873E-05-1.10568E-05-3.32957E-05-9.41432E-06-5.46123E-19-1.48278E-18
 -1      2124 2.10602E-04-4.61105E-05-6.82654E-05-9.07324E-06-2.23744E-18-8.30897E-18
 -1      2125 1.98918E-04-4.93577E-05-6.27570E-05-4.12608E-06-1.52741E-18-9.11407E-18
 -1      2126 2.20317E-04-3.96948E-05-7.41061E-05-1.06515E-07-2.49451E-18-7.05049E-18
 -1      2127 2.10798E-04-3.82955E-05-7.16212E-05-1.04580E-06-2.56820E-18-8.35556E-18
 -1      2128 2.11821E-04-4.28072E-05-7.03217E-05 7.62539E-06-2.36492E-18-5.77295E-18
 -1      2129 2.18834E-04-4.11971E-05-7.32142E-05 5.87259E-06-2.54872E-18-6.36969E-18
 -1      2130 1.88260E-04-3.10692E-05-6.55843E-05 6.80304E-06-3.47368E-18-4.20658E-18
 -1      2131 2.00327E-04-5.34312E-05-6.17635E-05 3.83858E-07-2.24601E-18-4.61802E-18
 -1      2132 2.13890E-04-5.03235E-05-6.78344E-05 4.82233E-06-1.59369E-18-5.48284E-18
 -1      2133 1.92822E-04-4.26548E-05-6.23677E-05 1.89481E-05-3.47622E-18-2.77276E-18
 -1      2134 1.69064E-04-6.02396E-05-4.71622E-05-1.31397E-05-2.74523E-18-2.40727E-18
 -1      2135 1.94109E-04-5.93339E-05-5.61887E-05-1.13202E-05-2.51611E-18-4.41304E-18
 -1      2136 1.89414E-04-5.79463E-05-5.49910E-05 1.13451E-05-3.51138E-18-2.23701E-18
 -1      2137 1.23317E-04-5.98838E-05-2.87924E-05-2.63926E-05-8.68632E-19-8.87691E-19
 -1      2138 1.51720E-04-6.17360E-05-3.86021E-05-2.59847E-05-1.77115E-18-2.41743E-18
 -1      2139 7.83663E-05-5.40178E-05-1.23361E-05-3.05525E-05-4.84926E-19 3.02708E-19
 -1      2140 1.01351E-04-5.47139E-05-2.07735E-05-3.50500E-05-3.98953E-19 3.10861E-19
 -1      2141 3.82650E-05-4.58521E-05 1.35284E-06-2.31864E-05-1.48231E-19 9.56300E-19
 -1      2142 5.46307E-05-4.59193E-05-4.92114E-06-3.10677E-05-3.95141E-19 6.79109E-19
 -1      2143 1.60184E-05-3.64511E-05 7.51547E-06-8.38005E-06-1.61254E-19-3.77777E-19
 -1      2144 2.46028E-05-3.84661E-05 4.80961E-06-1.76453E-05 1.10114E-19 2.90956E-19
 -1      2145 1.11490E-05-3.60660E-05 9.33499E-06 1.39643E-05-8.25645E-19-1.27648E-18
 -1      2146 1.01376E-05-3.57830E-05 9.68701E-06 4.54906E-06-5.48771E-19-1.02491E-18
 -1      2147 2.59737E-05-3.62581E-05 3.49332E-06 3.25138E-05-1.49459E-18-6.61321E-19
 -1      2148 1.82285E-05-3.77201E-05 7.02280E-06 2.46445E-05-9.52912E-19-1.23413E-18
 -1      2149 5.31092E-05-3.77034E-05-7.03966E-06 4.60531E-05-1.99561E-18-2.29175E-18
 -1      2150 3.89376E-05-4.12413E-05-4.31823E-07 3.73956E-05-1.59962E-18-1.66918E-18
 -1      2151 3.83764E-05-3.40620E-05-2.28851E-06 4.25247E-05-1.25403E-18-1.59433E-18
 -1      2152 9.34388E-05-3.99159E-05-2.28524E-05 5.02489E-05-3.14503E-18-2.23003E-18
 -1      2153 7.56647E-05-4.34826E-05-1.46810E-05 4.54437E-05-2.14511E-18-2.98251E-18
 -1      2154 1.32055E-04-4.06377E-05-3.87481E-05 4.47550E-05-2.43649E-18-2.60039E-18
 -1      2155 1.09652E-04-4.11636E-05-2.99343E-05 4.41540E-05-3.55669E-18-2.00027E-18
 -1      2156 1.15103E-04-5.20031E-05-2.68844E-05 4.36885E-05-2.94090E-18-2.37847E-18
 -1      2157 1.67216E-04-3.54519E-05-5.52206E-05 3.35757E-05-1.72731E-18-2.60886E-18
 -1      2158 1.47314E-04-3.69230E-05-4.73121E-05 3.38566E-05-1.74192E-18-1.88422E-18
 -1      2159 1.87876E-04-2.98982E-05-6.64747E-05 1.82518E-05-1.99201E-18-1.56574E-18
 -1      2160 1.74568E-04-3.01326E-05-6.11949E-05 2.65180E-05-1.87745E-18-2.56016E-18
 -1      2161 1.94640E-04-2.48635E-05-7.14302E-05 2.17072E-06-1.84865E-18-8.49892E-19
 -1      2162 1.87851E-04-2.40207E-05-6.93308E-05 1.04411E-05-2.14130E-18-1.77432E-18
 -1      2163 1.92351E-04-2.57568E-05-7.03030E-05-1.19407E-05-2.57159E-18-1.76395E-19
 -1      2164 1.97187E-04-2.60494E-05-7.20604E-05-2.08024E-06-1.89185E-18-1.25530E-18
 -1      2165 1.75002E-04-2.93612E-05-6.18840E-05-2.37698E-05-3.07409E-18 8.37292E-19
 -1      2166 1.88912E-04-2.97297E-05-6.68934E-05-1.69991E-05-3.22296E-18 1.89312E-19
 -1      2167 1.49216E-04-3.62594E-05-4.84687E-05-3.42429E-05-9.84676E-19 1.71524E-18
 -1      2168 1.68488E-04-3.55365E-05-5.59249E-05-3.11695E-05-2.04078E-18 1.00797E-18
 -1      2169 1.17188E-04-4.28045E-05-3.23756E-05-4.15332E-05 2.71898E-19 3.52916E-18
 -1      2170 1.37920E-04-3.97220E-05-4.13578E-05-4.38404E-05-8.72444E-20 2.76683E-18
 -1      2171 7.67903E-05-4.37452E-05-1.51983E-05-4.51895E-05 8.86420E-19 5.31407E-18
 -1      2172 9.73405E-05-4.22709E-05-2.35720E-05-5.00610E-05 3.32460E-19 6.51030E-18
 -1      2173 4.25988E-05-4.17838E-05-1.79642E-06-3.84176E-05 1.16636E-18 1.28961E-18
 -1      2174 5.66025E-05-3.80707E-05-8.44268E-06-4.58260E-05 6.11981E-19 2.68239E-18
 -1      2175 1.92213E-05-3.97159E-05 7.21560E-06-2.50379E-05 2.33612E-18 3.55754E-20
 -1      2176 2.72428E-05-3.67383E-05 3.12511E-06-3.30414E-05 1.76945E-18-4.56974E-19
 -1      2177 1.94108E-04-6.17407E-05-5.56062E-05-4.66368E-06 7.10978E-19-8.97855E-18
 -1      2178 1.73323E-04-6.33015E-05-4.72321E-05-3.38800E-06 1.01305E-18-8.87691E-18
 -1      2179 9.71853E-05-2.43139E-05-3.13041E-05-1.00025E-05-9.19481E-19 1.21907E-19
 -1      2180 1.81548E-04-5.30076E-05-5.52498E-05-2.87978E-05 3.30343E-19-4.75524E-18
 -1      2181 9.63457E-05-2.31053E-05-3.14548E-05-1.03848E-05-9.39849E-19-3.39965E-19
 -1      2182 1.64624E-04-3.21897E-05-5.75539E-05 1.59228E-05-3.99164E-18-5.71535E-19
 -1      2183 1.87190E-04-3.45203E-05-6.42638E-05-1.59298E-05-1.85246E-18-5.34393E-18
 -1      2184 1.68777E-04-4.04256E-05-5.58741E-05 2.53438E-05-3.97513E-18-9.24854E-19
 -1      2185 1.74293E-04-4.80578E-05-5.44381E-05 3.06834E-05-4.42151E-18-4.90432E-19
 -1      2186 3.51914E-05-3.45594E-05-8.86029E-07 2.57264E-05 4.19493E-19 5.31090E-19
 -1      2187 9.52801E-05-2.83963E-05-2.86630E-05-3.35974E-07 1.74880E-19 1.30448E-18
 -1      2188 1.21247E-04-6.50337E-05-2.41795E-05 2.95212E-05 4.99326E-19-5.92013E-18
 -1      2189 1.73819E-05-2.68133E-05 3.32213E-06-2.44240E-05 8.88961E-19 1.14349E-20
 -1      2190 4.16712E-05-3.63345E-05-2.83509E-06-4.35314E-05 4.63327E-19 1.32031E-18
 -1      2191 7.91853E-05-4.68245E-05-1.39255E-05-5.05391E-05 1.34678E-19 5.66779E-18
 -1      2192 1.19742E-04-5.31904E-05-2.83187E-05-4.16842E-05 4.95091E-19 3.24668E-18
 -1      2193 1.49716E-04-4.72825E-05-4.33269E-05-2.45071E-05-3.69942E-19 1.58183E-18
 -1      2194 1.64746E-04-3.30842E-05-5.55130E-05-1.01492E-05-2.86890E-18 8.36869E-19
 -1      2195 1.72011E-04-1.90464E-05-6.43379E-05-2.87224E-06-2.95784E-18-7.72918E-20
 -1      2196 1.71484E-04-1.24523E-05-6.69366E-05-4.61658E-07-2.67578E-18-7.99308E-19
 -1      2197 1.70968E-04-1.93481E-05-6.38472E-05 3.73998E-06-1.80757E-18-2.30816E-20
 -1      2198 1.45964E-04-4.75373E-05-4.17235E-05 2.87431E-05-1.62789E-18-8.50421E-19
 -1      2199 7.51855E-05-4.56054E-05-1.28812E-05 5.00262E-05-1.61444E-18-2.68527E-18
 -1      2200 1.63947E-05-2.64116E-05 3.63314E-06 2.31907E-05-2.11335E-19-1.51068E-18
 -1      2201 1.52652E-05-2.55025E-05 3.77891E-06-5.21752E-06 1.58078E-19-8.19504E-19
 -1      2202 3.80734E-05-3.59742E-05-1.68576E-06-2.76098E-05 4.97632E-19 8.70115E-19
 -1      2203 7.95085E-05-5.30649E-05-1.20905E-05-3.59002E-05-2.95191E-19 2.93603E-19
 -1      2204 1.68639E-04-6.96193E-05-4.22132E-05-5.87762E-06-2.41341E-18-2.28699E-18
 -1      2205 1.28282E-04-6.66936E-05-2.67207E-05-2.70044E-05-8.97855E-20-7.68682E-19
 -1      2206 1.65059E-04-3.37963E-05-5.52830E-05 1.25960E-05-1.08187E-18-1.46240E-18
 -1      2207 1.80196E-04-6.02730E-05-5.17115E-05 2.04867E-05-3.10353E-18-1.67755E-18
 -1      2208 1.66666E-04-5.51995E-05-4.79584E-05 2.73563E-05-2.90416E-18-9.22948E-19
 -1      2209 9.52113E-05-2.63754E-05-2.94879E-05 4.19598E-06 6.64815E-19 3.69270E-19
 -1      2210 9.61860E-05-2.58610E-05-3.00657E-05 6.00142E-06 8.04112E-19 4.92454E-19
 -1      2211 8.81377E-05-1.11813E-05-3.30205E-05-3.66158E-06-6.59025E-20-1.53630E-18
 -1      2212 8.83711E-05-1.14511E-05-3.30026E-05-4.80232E-06-1.86535E-19-1.56237E-18
 -1      2213 8.87213E-05-1.19334E-05-3.29539E-05-5.81982E-06-2.86439E-19-1.58508E-18
 -1      2214 8.91283E-05-1.24067E-05-3.29253E-05-6.99157E-06-4.33487E-19-1.52714E-18
 -1      2215 8.98896E-05-1.38199E-05-3.26006E-05-4.90430E-06-1.88734E-19-1.38769E-18
 -1      2216 8.77934E-05-1.07232E-05-3.30641E-05 6.15286E-07 2.91685E-19-1.54707E-18
 -1      2217 8.77889E-05-1.07182E-05-3.30643E-05-4.95758E-07 1.52420E-19-1.55523E-18
 -1      2218 8.79742E-05-1.09483E-05-3.30455E-05 2.75752E-06 3.96362E-19-1.56668E-18
 -1      2219 8.78595E-05-1.08152E-05-3.30549E-05 1.63805E-06 3.38379E-19-1.57523E-18
 -1      2220 8.91108E-05-1.27689E-05-3.27211E-05 1.04930E-06 2.91379E-19-1.55479E-18
 -1      2221 8.84079E-05-1.14955E-05-3.30000E-05 4.88702E-06 6.23999E-19-1.43006E-18
 -1      2222 8.81688E-05-1.12187E-05-3.30183E-05 3.76373E-06 4.78288E-19-1.49824E-18
 -1      2223 8.93763E-05-1.31249E-05-3.26810E-05 3.02057E-06 4.27230E-19-1.46291E-18
 -1      2224 8.91862E-05-1.24781E-05-3.29207E-05 7.07472E-06 8.63170E-19-1.19700E-18
 -1      2225 8.87689E-05-1.19917E-05-3.29501E-05 5.90289E-06 7.71661E-19-1.34459E-18
 -1      2226 8.99330E-05-1.38731E-05-3.25961E-05 4.97485E-06 6.47002E-19-1.28489E-18
 -1      2227 9.04542E-05-1.40869E-05-3.27931E-05 9.22354E-06 9.96038E-19-8.23826E-19
 -1      2228 8.97747E-05-1.32762E-05-3.28388E-05 8.04463E-06 8.30452E-19-1.07512E-18
 -1      2229 9.08672E-05-1.51328E-05-3.24507E-05 6.87101E-06 8.11252E-19-1.09779E-18
 -1      2230 9.24499E-05-1.66585E-05-3.25825E-05 1.11079E-05 1.15060E-18-4.12578E-19
 -1      2231 9.13723E-05-1.53188E-05-3.26548E-05 1.00277E-05 1.01049E-18-6.09824E-19
 -1      2232 9.22887E-05-1.70866E-05-3.22088E-05 8.51663E-06 9.90027E-19-6.67866E-19
 -1      2233 1.37882E-04-5.85831E-05-3.34493E-05 1.92451E-05 2.00154E-18-4.12240E-18
 -1      2234 1.48607E-04-6.59017E-05-3.50996E-05 1.02407E-05 2.10742E-18-5.49798E-18
 -1      2235 1.18533E-04-4.05216E-05-3.31014E-05 2.70240E-05 1.98505E-18-2.74097E-18
 -1      2236 1.26885E-04-4.88115E-05-3.32882E-05 2.31783E-05 2.09672E-18-3.54841E-18
 -1      2237 1.16899E-04-5.13888E-05-2.81034E-05 2.96189E-05 1.86421E-18-6.42623E-18
 -1      2238 9.42308E-05-2.71165E-05-2.87473E-05 1.76410E-06 3.85969E-19 1.79900E-19
 -1      2239 9.48315E-05-2.68912E-05-2.90458E-05 2.73842E-06 5.05804E-19 3.01438E-19
 -1      2240 9.53367E-05-2.58462E-05-2.97895E-05 4.36190E-06 6.70509E-19-1.32610E-19
 -1      2241 9.59067E-05-2.50903E-05-3.03041E-05-6.19391E-06-6.76859E-19-5.76662E-19
 -1      2242 9.52523E-05-2.58454E-05-2.97599E-05-4.27385E-06-5.71397E-19-6.31749E-19
 -1      2243 9.51368E-05-2.65371E-05-2.93429E-05-2.93995E-06-5.86066E-19-5.90733E-19
 -1      2244 9.46665E-05-2.69063E-05-2.90399E-05-1.87695E-06-5.13328E-19-7.34869E-19
 -1      2245 9.53408E-05-2.53683E-05-2.99943E-05-4.29583E-06-6.59902E-19-8.29572E-19
 -1      2246 9.44713E-05-2.72355E-05-2.87769E-05-1.02414E-06-5.40495E-19-7.09397E-19
 -1      2247 9.42132E-05-2.74483E-05-2.86110E-05-4.21385E-07-5.34470E-19-8.86301E-19
 -1      2248 9.50299E-05-2.66957E-05-2.92992E-05-1.91757E-06-5.88885E-19-8.51092E-19
 -1      2249 9.40650E-05-2.76281E-05-2.84504E-05 8.83594E-08-3.42233E-19-8.95052E-19
 -1      2250 9.39678E-05-2.77712E-05-2.83674E-05 4.20128E-07-2.62122E-19-7.45428E-19
 -1      2251 9.47268E-05-2.74232E-05-2.88574E-05-4.35473E-07-4.89948E-19-9.25700E-19
 -1      2252 9.38842E-05-2.78803E-05-2.82748E-05 7.05582E-07-2.19918E-19-7.03959E-19
 -1      2253 9.38919E-05-2.79868E-05-2.82427E-05 8.72570E-07-2.18017E-19-5.94314E-19
 -1      2254 9.45272E-05-2.78497E-05-2.85865E-05 4.40203E-07-2.88924E-19-8.26542E-19
 -1      2255 9.38619E-05-2.80582E-05-2.81950E-05 1.01377E-06-3.34364E-19-5.10293E-19
 -1      2256 9.39321E-05-2.81415E-05-2.81940E-05 1.08022E-06-2.25986E-19-5.22533E-19
 -1      2257 9.44369E-05-2.81170E-05-2.84304E-05 9.18270E-07-2.27489E-19-7.98910E-19
 -1      2258 9.39399E-05-2.81902E-05-2.81756E-05 1.13103E-06-2.04703E-19-5.39334E-19
 -1      2259 9.40434E-05-2.82565E-05-2.81928E-05 1.13753E-06-3.10588E-19-5.68131E-19
 -1      2260 9.44306E-05-2.82911E-05-2.83507E-05 1.14161E-06-2.49036E-19-8.72904E-19
 -1      2261 9.40749E-05-2.82902E-05-2.81929E-05 1.13429E-06-6.37150E-19-5.54127E-19
 -1      2262 9.41927E-05-2.83428E-05-2.82200E-05 1.10746E-06-7.53420E-19-5.61070E-19
 -1      2263 9.44805E-05-2.84058E-05-2.83211E-05 1.20690E-06-5.08549E-19-6.98143E-19
 -1      2264 9.42378E-05-2.83658E-05-2.82317E-05 1.07492E-06-6.22220E-19-5.92344E-19
 -1      2265 9.43583E-05-2.84073E-05-2.82635E-05 1.03248E-06-2.36838E-19-6.93990E-19
 -1      2266 9.45638E-05-2.84803E-05-2.83236E-05 1.17997E-06-7.00624E-19-6.09182E-19
 -1      2267 9.44100E-05-2.84226E-05-2.82818E-05 9.87489E-07-5.33472E-20-8.44859E-19
 -1      2268 9.45270E-05-2.84552E-05-2.83154E-05 9.41228E-07-3.50611E-21-8.02371E-19
 -1      2269 9.46646E-05-2.85266E-05-2.83461E-05 1.10581E-06-2.65723E-19-6.60030E-19
 -1      2270 9.45813E-05-2.84651E-05-2.83374E-05 8.95063E-07-5.71575E-20-6.47406E-19
 -1      2271 9.46921E-05-2.84910E-05-2.83708E-05 8.52615E-07-2.68928E-20-6.05852E-19
 -1      2272 9.47726E-05-2.85533E-05-2.83804E-05 1.01496E-06 6.07332E-20-7.35781E-19
 -1      2273 9.47471E-05-2.84975E-05-2.83946E-05 8.12489E-07-2.21728E-19-8.46665E-19
 -1      2274 9.48517E-05-2.85189E-05-2.84272E-05 7.78384E-07-4.86587E-19-8.95862E-19
 -1      2275 9.48826E-05-2.85670E-05-2.84214E-05 9.27576E-07-2.83265E-19-8.00287E-19
 -1      2276 9.49072E-05-2.85242E-05-2.84516E-05 7.48366E-07-4.45838E-19-7.86087E-19
 -1      2277 9.50068E-05-2.85437E-05-2.84831E-05 7.24598E-07-4.25987E-19-6.70948E-19
 -1      2278 9.49931E-05-2.85738E-05-2.84657E-05 8.56047E-07-4.21552E-19-7.18951E-19
 -1      2279 9.50640E-05-2.85500E-05-2.85075E-05 7.06053E-07-6.39017E-19-4.75431E-19
 -1      2280 9.51609E-05-2.85703E-05-2.85378E-05 6.92246E-07-6.92296E-19-4.32710E-19
 -1      2281 9.51053E-05-2.85796E-05-2.85113E-05 8.06499E-07-4.40501E-19-1.54970E-20
 -1      2282 9.52217E-05-2.85807E-05-2.85616E-05 6.83866E-07-7.40397E-19-4.98002E-19
 -1      2283 9.53182E-05-2.86050E-05-2.85906E-05 6.77090E-07-5.71308E-19-4.36373E-19
 -1      2284 9.52228E-05-2.85915E-05-2.85566E-05 7.79328E-07-7.43747E-19 4.79984E-20
 -1      2285 9.53856E-05-2.86231E-05-2.86132E-05 6.74557E-07-6.02004E-19-7.85659E-19
 -1      2286 9.54833E-05-2.86551E-05-2.86405E-05 6.68835E-07-6.35877E-19-1.03404E-18
 -1      2287 9.53508E-05-2.86179E-05-2.86003E-05 7.68938E-07-8.00708E-19-1.50548E-19
 -1      2288 9.55611E-05-2.86856E-05-2.86610E-05 6.64160E-07-1.08065E-18-1.20326E-18
 -1      2289 9.56602E-05-2.87292E-05-2.86855E-05 6.49769E-07-1.12213E-18-1.47637E-18
 -1      2290 9.54963E-05-2.86693E-05-2.86408E-05 7.62746E-07-1.05641E-18-7.48174E-19
 -1      2291 9.57522E-05-2.87778E-05-2.87028E-05 6.30422E-07-7.04637E-19-9.39535E-19
 -1      2292 9.58507E-05-2.88369E-05-2.87226E-05 5.93178E-07-1.05354E-19-1.01738E-18
 -1      2293 9.56673E-05-2.87585E-05-2.86760E-05 7.39622E-07-7.09317E-19-4.24690E-19
 -1      2294 9.59606E-05-2.89096E-05-2.87348E-05 5.41284E-07 2.30679E-19-9.90628E-19
 -1      2295 9.60525E-05-2.89871E-05-2.87470E-05 4.62186E-07 9.37930E-19-1.73322E-18
 -1      2296 9.58717E-05-2.89002E-05-2.87031E-05 6.68159E-07-1.40936E-21 2.15796E-19
 -1      2297 9.61824E-05-2.90890E-05-2.87522E-05 3.54240E-07 1.46034E-18-2.11122E-18
 -1      2298 9.62567E-05-2.91849E-05-2.87529E-05 2.10100E-07 1.12114E-18-1.68376E-18
 -1      2299 9.61157E-05-2.91082E-05-2.87185E-05 5.05495E-07 6.58158E-19-1.02869E-18
 -1      2300 9.64048E-05-2.93175E-05-2.87488E-05 1.80475E-08 9.85703E-19-1.57827E-18
 -1      2301 9.64433E-05-2.94258E-05-2.87334E-05-2.15975E-07 7.33947E-19-1.56491E-18
 -1      2302 9.64002E-05-2.93914E-05-2.87189E-05 1.97989E-07 1.11982E-18-1.65408E-18
 -1      2303 9.66004E-05-2.95833E-05-2.87183E-05-5.21123E-07-4.69268E-20-1.50647E-18
 -1      2304 9.65768E-05-2.96883E-05-2.86821E-05-8.65973E-07-1.04475E-19-1.62210E-18
 -1      2305 9.67143E-05-2.97445E-05-2.87016E-05-3.14213E-07 3.23423E-19-1.38488E-18
 -1      2306 9.67215E-05-2.98514E-05-2.86556E-05-1.30647E-06 3.43895E-19-2.16635E-18
 -1      2307 9.66008E-05-2.99235E-05-2.85948E-05-1.76973E-06 6.87663E-19-1.73089E-18
 -1      2308 9.70273E-05-3.01372E-05-2.86661E-05-1.08595E-06-2.06289E-19-1.98143E-18
 -1      2309 9.66945E-05-3.00544E-05-2.85586E-05-2.34823E-06 5.90867E-19-1.61942E-18
 -1      2310 9.64363E-05-3.00482E-05-2.84719E-05-2.91086E-06 6.10099E-19-1.45330E-18
 -1      2311 9.72782E-05-3.04996E-05-2.86159E-05-2.14619E-06 5.56999E-19-1.90043E-18
 -1      2312 9.64223E-05-3.00888E-05-2.84303E-05-3.59268E-06 1.02858E-18-1.31165E-18
 -1      2313 9.59888E-05-2.99476E-05-2.83204E-05-4.19476E-06 1.22389E-18-5.82597E-19
 -1      2314 9.73691E-05-3.07141E-05-2.85594E-05-3.46635E-06 8.58940E-19-1.51660E-18
 -1      2315 9.57999E-05-2.98277E-05-2.82802E-05-4.88969E-06 9.23166E-19-9.78368E-19
 -1      2316 9.51716E-05-2.94990E-05-2.81544E-05-5.42170E-06 1.03049E-18-1.02582E-18
 -1      2317 9.71714E-05-3.06225E-05-2.85100E-05-4.92172E-06 8.95633E-19-1.80179E-18
 -1      2318 9.47535E-05-2.91600E-05-2.81230E-05-5.97621E-06 7.23818E-19-1.36171E-18
 -1      2319 9.39506E-05-2.86240E-05-2.79930E-05-6.28672E-06 1.00257E-19-1.41783E-18
 -1      2320 9.65572E-05-3.00657E-05-2.84826E-05-6.26079E-06 4.96126E-19-1.59291E-18
 -1      2321 9.33010E-05-2.80577E-05-2.79761E-05-6.50265E-06-3.91230E-19-1.60546E-18
 -1      2322 9.24036E-05-2.73610E-05-2.78560E-05-6.43294E-06-6.16565E-19-1.23590E-18
 -1      2323 9.54633E-05-2.89599E-05-2.84888E-05-7.11152E-06-2.17755E-19-1.58614E-18
 -1      2324 9.16115E-05-2.66486E-05-2.78540E-05-6.12599E-06-2.86924E-19-9.60688E-19
 -1      2325 9.07630E-05-2.59227E-05-2.77572E-05-5.57195E-06-1.70718E-19-3.01473E-19
 -1      2326 9.39749E-05-2.73940E-05-2.85294E-05-7.05799E-06-3.13727E-19 2.58670E-19
 -1      2327 9.00178E-05-2.52431E-05-2.77641E-05-4.66352E-06-9.43317E-20-2.12705E-20
 -1      2328 8.93968E-05-2.46805E-05-2.77008E-05-3.64434E-06 1.26557E-19 1.24044E-18
 -1      2329 9.23791E-05-2.56877E-05-2.85896E-05-5.80089E-06 2.77849E-19 5.42704E-19
 -1      2330 8.89324E-05-2.42554E-05-2.77070E-05-2.24234E-06-5.21223E-19 1.28348E-18
 -1      2331 8.86918E-05-2.40342E-05-2.76831E-05-9.31489E-07-4.21558E-19 1.05997E-18
 -1      2332 9.11189E-05-2.43338E-05-2.86427E-05-3.35430E-06-9.47759E-20 1.77994E-18
 -1      2333 8.86740E-05-2.40209E-05-2.76816E-05 6.68300E-07-6.69272E-20 8.85910E-19
 -1      2334 8.88763E-05-2.42154E-05-2.76991E-05 1.98728E-06 3.99743E-20 8.95552E-19
 -1      2335 9.06158E-05-2.37966E-05-2.86626E-05-1.49720E-07-5.70978E-19 2.05342E-18
 -1      2336 8.93085E-05-2.46167E-05-2.76901E-05 3.40920E-06 9.23961E-20 9.43310E-19
 -1      2337 8.98974E-05-2.51594E-05-2.77474E-05 4.45101E-06 1.39213E-19 1.59195E-18
 -1      2338 9.10489E-05-2.42731E-05-2.86389E-05 3.07578E-06 8.40143E-20 2.06503E-18
 -1      2339 9.06237E-05-2.58277E-05-2.77375E-05 5.39328E-06 2.60248E-19 1.84801E-18
 -1      2340 9.14507E-05-2.65465E-05-2.78286E-05 5.97573E-06 5.57650E-19 2.49601E-18
 -1      2341 9.22567E-05-2.55854E-05-2.85817E-05 5.58142E-06 3.07925E-19 3.55085E-18
 -1      2342 9.22402E-05-2.72630E-05-2.78268E-05 6.31633E-06 4.88123E-19 1.25464E-18
 -1      2343 9.31265E-05-2.79647E-05-2.79416E-05 6.40949E-06-1.44726E-19 2.07494E-18
 -1      2344 9.38313E-05-2.72835E-05-2.85158E-05 6.91245E-06-1.98297E-19 2.01889E-18
 -1      2345 9.37832E-05-2.85447E-05-2.79541E-05 6.21486E-06-9.57966E-19 2.85602E-19
 -1      2346 9.45810E-05-2.90913E-05-2.80793E-05 5.91612E-06-1.29229E-18-1.35420E-20
 -1      2347 9.53257E-05-2.88726E-05-2.84675E-05 7.02478E-06-9.87109E-19 9.01805E-19
 -1      2348 9.50070E-05-2.94449E-05-2.81062E-05 5.36686E-06-3.74599E-19 1.86441E-19
 -1      2349 9.56310E-05-2.97829E-05-2.82277E-05 4.83451E-06-1.84881E-19 4.33525E-19
 -1      2350 9.64361E-05-3.00146E-05-2.84524E-05 6.20112E-06-9.25968E-19 4.31538E-19
 -1      2351 9.58234E-05-2.99126E-05-2.82641E-05 4.13212E-06-7.37998E-19 8.73093E-19
 -1      2352 9.62497E-05-3.00577E-05-2.83701E-05 3.52119E-06-2.40609E-19 1.46736E-18
 -1      2353 9.70626E-05-3.06028E-05-2.84715E-05 4.85849E-06-4.81225E-19 1.66062E-18
 -1      2354 9.62608E-05-3.00198E-05-2.84088E-05 2.82537E-06-1.70083E-19 1.79995E-18
 -1      2355 9.65077E-05-3.00232E-05-2.84920E-05 2.25076E-06 2.38016E-19 1.86871E-18
 -1      2356 9.72611E-05-3.07105E-05-2.85144E-05 3.37981E-06 1.93829E-20 2.19192E-18
 -1      2357 9.64051E-05-2.98876E-05-2.85265E-05 1.65828E-06 9.71755E-20 1.80354E-18
 -1      2358 9.65107E-05-2.98059E-05-2.85846E-05 1.18570E-06 5.12326E-19 2.24441E-18
 -1      2359 9.71581E-05-3.04940E-05-2.85667E-05 2.03008E-06-3.68592E-21 2.73982E-18
 -1      2360 9.63525E-05-2.96309E-05-2.86108E-05 7.37614E-07 1.39920E-18 2.29628E-18
 -1      2361 9.63588E-05-2.95101E-05-2.86455E-05 3.91881E-07 1.51616E-18 1.37138E-18
 -1      2362 9.68841E-05-3.01112E-05-2.86158E-05 9.47431E-07 7.91041E-19 1.91802E-18
 -1      2363 9.61849E-05-2.93341E-05-2.86624E-05 9.15242E-08 2.72381E-19 8.25873E-19
 -1      2364 9.61297E-05-2.92046E-05-2.86781E-05-1.29362E-07 1.42373E-19 1.17960E-18
 -1      2365 9.65396E-05-2.96809E-05-2.86541E-05 1.73234E-07 8.60651E-19 1.12741E-18
 -1      2366 9.59628E-05-2.90468E-05-2.86866E-05-2.98646E-07 1.17687E-19 1.30835E-18
 -1      2367 9.58756E-05-2.89253E-05-2.86891E-05-4.10051E-07-6.18452E-19 1.02725E-18
 -1      2368 9.61887E-05-2.92735E-05-2.86790E-05-3.09818E-07-9.83378E-20 2.08199E-18
 -1      2369 9.57267E-05-2.87927E-05-2.86910E-05-4.71990E-07-1.12228E-18 1.51484E-18
 -1      2370 9.56292E-05-2.86900E-05-2.86857E-05-4.93035E-07-6.47461E-19 1.85961E-18
 -1      2371 9.58658E-05-2.89217E-05-2.86913E-05-5.44830E-07-4.27458E-19 2.06058E-18
 -1      2372 9.33328E-05-2.76991E-05-2.81215E-05-4.42083E-07 4.66779E-19 2.00007E-19
 -1      2373 9.34011E-05-2.75936E-05-2.81789E-05-1.65568E-07 5.13840E-19 1.09339E-19
 -1      2374 9.32937E-05-2.78614E-05-2.80377E-05-8.38162E-07 3.23419E-19 2.32037E-19
 -1      2375 9.32423E-05-2.77709E-05-2.80465E-05-7.02586E-07 4.63514E-19 2.46733E-19
 -1      2376 9.40052E-05-2.78182E-05-2.83770E-05-4.80850E-07 4.34801E-19-3.06818E-20
 -1      2377 9.33981E-05-2.79961E-05-2.80263E-05-1.01117E-06 1.65159E-19 7.06332E-20
 -1      2378 9.32799E-05-2.79156E-05-2.80071E-05-9.60712E-07 1.90288E-19 1.96727E-19
 -1      2379 9.39289E-05-2.80232E-05-2.82534E-05-9.18535E-07 3.82532E-19-1.85944E-19
 -1      2380 9.35837E-05-2.81109E-05-2.80576E-05-1.04969E-06 5.70012E-19 9.22234E-21
 -1      2381 9.34331E-05-2.80396E-05-2.80233E-05-1.04918E-06 3.96260E-19 2.57212E-21
 -1      2382 9.39674E-05-2.81694E-05-2.82045E-05-1.11351E-06 4.04071E-19 2.14920E-20
 -1      2383 9.38194E-05-2.82124E-05-2.81158E-05-1.00770E-06 1.67647E-19 7.86957E-20
 -1      2384 9.36513E-05-2.81485E-05-2.80723E-05-1.03670E-06 4.17707E-19 1.67095E-19
 -1      2385 9.40791E-05-2.82794E-05-2.82033E-05-1.16009E-06 4.75772E-19 2.91536E-19
 -1      2386 9.40546E-05-2.82919E-05-2.81829E-05-9.29314E-07-2.49910E-20-1.38606E-20
 -1      2387 9.38967E-05-2.82407E-05-2.81393E-05-9.69283E-07 1.52672E-19 6.62731E-20
 -1      2388 9.42304E-05-2.83621E-05-2.82313E-05-1.11995E-06 1.46582E-19 3.73082E-19
 -1      2389 9.42878E-05-2.83577E-05-2.82547E-05-8.40736E-07 3.37447E-19-3.26860E-19
 -1      2390 9.41382E-05-2.83154E-05-2.82114E-05-8.82055E-07 7.23197E-20-1.52364E-19
 -1      2391 9.43940E-05-2.84206E-05-2.82755E-05-1.03976E-06 8.85822E-20 4.76300E-20
 -1      2392 9.45123E-05-2.84111E-05-2.83279E-05-7.60538E-07 3.53748E-19-1.14926E-22
 -1      2393 9.43722E-05-2.83762E-05-2.82859E-05-7.95595E-07 4.59610E-19-1.45153E-19
 -1      2394 9.45617E-05-2.84622E-05-2.83290E-05-9.49573E-07 3.43801E-19 2.39616E-19
 -1      2395 9.47293E-05-2.84539E-05-2.84021E-05-7.03184E-07 3.91907E-19-6.11739E-19
 -1      2396 9.45960E-05-2.84251E-05-2.83607E-05-7.25961E-07 5.43306E-19-3.54910E-19
 -1      2397 9.47279E-05-2.84897E-05-2.83882E-05-8.71038E-07 6.92915E-19 2.67623E-20
 -1      2398 9.49541E-05-2.84892E-05-2.84826E-05-6.81608E-07 3.58334E-19-9.02910E-19
 -1      2399 9.48172E-05-2.84644E-05-2.84385E-05-6.85670E-07 4.06038E-19-7.80249E-19
 -1      2400 9.48958E-05-2.85051E-05-2.84538E-05-8.20710E-07 6.98879E-19-5.44262E-19
 -1      2401 9.51757E-05-2.85149E-05-2.85655E-05-7.12000E-07-2.38743E-19-5.81203E-19
 -1      2402 9.50395E-05-2.84948E-05-2.85203E-05-6.90793E-07-9.41760E-20-6.98211E-19
 -1      2403 9.50642E-05-2.85071E-05-2.85250E-05-8.16608E-07 9.39531E-20-1.55412E-19
 -1      2404 9.54188E-05-2.85330E-05-2.86602E-05-8.09179E-07-1.30764E-19-2.77726E-19
 -1      2405 9.52665E-05-2.85157E-05-2.86083E-05-7.54516E-07-1.57351E-19-2.60199E-19
 -1      2406 9.52340E-05-2.84951E-05-2.86032E-05-8.75011E-07-2.20365E-19 3.44768E-20
 -1      2407 9.57004E-05-2.85420E-05-2.87745E-05-9.96855E-07-3.88784E-19 2.16162E-19
 -1      2408 9.55185E-05-2.85269E-05-2.87111E-05-8.96281E-07-3.38555E-19-2.81275E-19
 -1      2409 9.54156E-05-2.84646E-05-2.86944E-05-1.01585E-06-2.88071E-19 2.29702E-19
 -1      2410 9.60428E-05-2.85377E-05-2.89191E-05-1.30929E-06-3.70383E-19 7.10262E-19
 -1      2411 9.58123E-05-2.85251E-05-2.88376E-05-1.14465E-06-1.87928E-19 5.01025E-19
 -1      2412 9.56154E-05-2.84064E-05-2.88050E-05-1.26782E-06-4.67982E-19 4.73412E-19
 -1      2413 9.64931E-05-2.85083E-05-2.91192E-05-1.82834E-06 1.36515E-19 9.85216E-19
 -1      2414 9.61759E-05-2.85006E-05-2.90038E-05-1.55376E-06-1.94148E-19 7.96159E-19
 -1      2415 9.58435E-05-2.83027E-05-2.89476E-05-1.68538E-06-3.74537E-19 1.16341E-18
 -1      2416 9.70396E-05-2.84412E-05-2.93751E-05-2.58366E-06-1.41641E-19 4.51562E-19
 -1      2417 9.66315E-05-2.84416E-05-2.92246E-05-2.18470E-06 1.69350E-19 7.96969E-19
 -1      2418 9.60931E-05-2.81241E-05-2.91298E-05-2.32496E-06 4.14492E-20 1.05241E-18
 -1      2419 9.77309E-05-2.83094E-05-2.97175E-05-3.70298E-06-9.24060E-20 8.19446E-19
 -1      2420 9.71803E-05-2.83240E-05-2.95112E-05-3.10767E-06-1.13526E-19 7.67884E-19
 -1      2421 9.63434E-05-2.78377E-05-2.93577E-05-3.25241E-06-9.17418E-20 7.37065E-19
 -1      2422 9.85903E-05-2.80782E-05-3.01718E-05-5.33527E-06-4.01355E-19 9.46696E-19
 -1      2423 9.78489E-05-2.81133E-05-2.98904E-05-4.46132E-06-1.50375E-19 7.82308E-19
 -1      2424 9.65642E-05-2.73802E-05-2.96441E-05-4.59550E-06-2.40700E-19 1.37623E-18
 -1      2425 9.96289E-05-2.77123E-05-3.07587E-05-7.66603E-06 4.07515E-19 4.55357E-19
 -1      2426 9.86393E-05-2.77665E-05-3.03825E-05-6.41277E-06 1.90745E-19 1.47807E-19
 -1      2427 9.66844E-05-2.66749E-05-2.99903E-05-6.50434E-06 2.30588E-19 3.53900E-19
 -1      2428 1.00857E-04-2.72216E-05-3.14800E-05-1.08852E-05-3.89370E-20 6.20596E-20
 -1      2429 9.95355E-05-2.72532E-05-3.09953E-05-9.16063E-06 1.98927E-19 3.55448E-19
 -1      2430 9.65861E-05-2.56490E-05-3.03759E-05-9.15437E-06 2.72103E-19-7.56941E-20
 -1      2431 1.02349E-04-2.67518E-05-3.23086E-05-1.53275E-05-5.94028E-19-4.55978E-19
 -1      2432 1.00529E-04-2.66051E-05-3.17094E-05-1.29848E-05 2.74425E-20-6.87610E-20
 -1      2433 9.60977E-05-2.42864E-05-3.07392E-05-1.28283E-05-6.42852E-20 1.89336E-19
 -1      2434 1.04221E-04-2.70433E-05-3.29795E-05-2.03195E-05-3.41950E-19-5.46968E-19
 -1      2435 1.01804E-04-2.62707E-05-3.24036E-05-1.78772E-05-5.95828E-19-6.45420E-19
 -1      2436 9.51454E-05-2.29243E-05-3.08891E-05-1.75309E-05-2.65274E-19-4.34991E-19
 -1      2437 1.07558E-04-2.98565E-05-3.31698E-05-2.50076E-05 3.06838E-19-9.49484E-19
 -1      2438 1.03891E-04-2.73897E-05-3.27690E-05-2.32309E-05-8.86076E-21-9.87266E-19
 -1      2439 9.41142E-05-2.27471E-05-3.05025E-05-2.30148E-05-3.47538E-19-1.08534E-18
 -1      2440 1.14947E-04-3.84954E-05-3.25446E-05-2.69015E-05 1.06896E-18-7.23022E-20
 -1      2441 1.08839E-04-3.25948E-05-3.24537E-05-2.75694E-05 4.81406E-19-3.00128E-19
 -1      2442 9.46732E-05-2.65144E-05-2.91324E-05-2.87486E-05 4.03055E-19-1.08023E-18
 -1      2443 1.30518E-04-5.52636E-05-3.20054E-05-2.13683E-05 6.81120E-19-6.59243E-19
 -1      2444 1.20934E-04-4.59669E-05-3.16162E-05-2.70148E-05 1.66241E-18 8.80782E-20
 -1      2445 1.00900E-04-3.84007E-05-2.67333E-05-3.27936E-05 1.15355E-18-2.62421E-19
 -1      2446 1.09199E-04-3.09569E-05-3.34158E-05 2.57016E-05 3.90601E-19-1.66717E-18
 -1      2447 1.14400E-04-3.52505E-05-3.37676E-05 2.59220E-05 1.64020E-18-2.05555E-18
 -1      2448 1.03196E-04-3.41971E-05-2.93340E-05 3.16717E-05 1.23630E-18-3.25838E-18
 -1      2449 1.04871E-04-2.76165E-05-3.31176E-05 2.08796E-05-2.33497E-18 5.54864E-19
 -1      2450 1.08083E-04-2.92355E-05-3.36959E-05 2.29630E-05-9.19887E-19-5.11532E-19
 -1      2451 9.84881E-05-2.59659E-05-3.09005E-05 2.65799E-05-1.04127E-18-1.20721E-18
 -1      2452 1.02541E-04-2.70737E-05-3.23730E-05 1.57321E-05-2.68024E-18-4.24149E-20
 -1      2453 1.04838E-04-2.76147E-05-3.30209E-05 1.80467E-05-3.15492E-18 1.20312E-19
 -1      2454 9.75097E-05-2.40910E-05-3.13954E-05 2.06956E-05-2.22847E-18 3.50506E-19
 -1      2455 1.00881E-04-2.73792E-05-3.15232E-05 1.13949E-05-6.50356E-19 4.91752E-19
 -1      2456 1.02603E-04-2.75240E-05-3.21065E-05 1.33501E-05-1.65788E-18 3.89878E-19
 -1      2457 9.75895E-05-2.46072E-05-3.12222E-05 1.55252E-05-2.14191E-18-1.00432E-18
 -1      2458 9.94996E-05-2.77770E-05-3.07534E-05 8.08460E-06-9.25972E-19 2.74022E-18
 -1      2459 1.00817E-04-2.78155E-05-3.12244E-05 9.56383E-06-9.43317E-19 1.82728E-18
 -1      2460 9.75795E-05-2.56733E-05-3.07779E-05 1.13271E-05-1.21479E-18 5.04339E-19
 -1      2461 9.82857E-05-2.80753E-05-3.00978E-05 5.58140E-06 1.66271E-18 7.46120E-19
 -1      2462 9.93127E-05-2.81002E-05-3.04703E-05 6.68147E-06 2.29821E-19 1.32235E-18
 -1      2463 9.73317E-05-2.66333E-05-3.02732E-05 8.06494E-06 4.79533E-19 4.53656E-19
 -1      2464 9.73443E-05-2.82273E-05-2.96240E-05 3.90447E-06-7.91642E-19 1.45541E-18
 -1      2465 9.80726E-05-2.82609E-05-2.98821E-05 4.64120E-06 2.13724E-19 6.93106E-19
 -1      2466 9.69295E-05-2.73121E-05-2.98240E-05 5.68164E-06 3.63265E-19 4.68797E-19
 -1      2467 9.65833E-05-2.82709E-05-2.92756E-05 2.69717E-06-3.49601E-19 1.78544E-18
 -1      2468 9.71181E-05-2.83179E-05-2.94589E-05 3.23016E-06-6.53990E-19 1.11303E-18
 -1      2469 9.64888E-05-2.77098E-05-2.94714E-05 4.01051E-06-8.42149E-19 5.76238E-19
 -1      2470 9.59894E-05-2.82342E-05-2.90315E-05 1.79145E-06 8.59378E-19 6.19821E-19
 -1      2471 9.63697E-05-2.82986E-05-2.91558E-05 2.19729E-06 6.47136E-19 1.37838E-18
 -1      2472 9.60543E-05-2.79099E-05-2.92058E-05 2.78080E-06 4.71518E-19 5.59836E-21
 -1      2473 9.56217E-05-2.81352E-05-2.89147E-05 1.30840E-06 5.54549E-19-1.08079E-19
 -1      2474 9.58534E-05-2.82043E-05-2.89809E-05 1.56357E-06 6.38186E-19 8.71047E-19
 -1      2475 9.57082E-05-2.79487E-05-2.90459E-05 2.00692E-06 9.65900E-19 8.92448E-19
 -1      2476 9.54560E-05-2.78925E-05-2.89557E-05 1.53468E-06 1.99845E-18-9.27281E-19
 -1      2477 9.38203E-05-2.59558E-05-2.90918E-05 7.15815E-07 2.90185E-19 1.54432E-18
 -1      2478 9.39083E-05-2.60668E-05-2.90798E-05 1.03739E-06 1.17553E-20 5.20565E-19
 -1      2479 9.38399E-05-2.59851E-05-2.90833E-05-3.42502E-08-2.02112E-19-9.66544E-19
 -1      2480 9.38117E-05-2.59694E-05-2.90846E-05 2.98903E-07-3.18562E-19 5.63069E-19
 -1      2481 9.35768E-05-2.58459E-05-2.90165E-05 5.20892E-07-7.64381E-20 8.41963E-19
 -1      2482 9.45347E-05-2.67562E-05-2.90595E-05 1.83061E-06-5.13176E-19-1.49210E-18
 -1      2483 9.48146E-05-2.70729E-05-2.90283E-05 1.87379E-06 9.15871E-19-1.05565E-18
 -1      2484 9.40510E-05-2.62162E-05-2.90830E-05 1.40065E-06-1.90977E-19 8.44154E-19
 -1      2485 9.42563E-05-2.64446E-05-2.90606E-05 1.62453E-06-5.44547E-19 1.02210E-18
 -1      2486 9.42624E-05-2.64529E-05-2.90515E-05 2.00276E-06 2.37580E-19-7.44255E-19
 -1      2487 9.37600E-05-2.59830E-05-2.90359E-05 1.36813E-06 5.57924E-19 1.30208E-18
 -1      2488 9.40597E-05-2.62591E-05-2.90562E-05-6.79144E-07-1.04244E-18 1.33651E-18
 -1      2489 9.39448E-05-2.61381E-05-2.90712E-05-4.06201E-07-8.38122E-19-1.35720E-18
 -1      2490 9.36895E-05-2.60207E-05-2.89933E-05-3.28361E-07 5.93494E-19-1.76888E-18
 -1      2491 9.43874E-05-2.66846E-05-2.90119E-05-1.11270E-06-1.99143E-18 1.53082E-18
 -1      2492 9.42296E-05-2.64961E-05-2.90387E-05-9.39831E-07-2.12014E-18 3.08243E-18
 -1      2493 9.40173E-05-2.64247E-05-2.89648E-05-1.00103E-06-1.13550E-18 1.18885E-18
 -1      2494 9.47312E-05-2.71610E-05-2.89542E-05-1.30455E-06-5.50894E-19-2.20928E-18
 -1      2495 9.45717E-05-2.69465E-05-2.89893E-05-1.23908E-06-1.37591E-18 1.32670E-19
 -1      2496 9.44397E-05-2.69391E-05-2.89291E-05-1.40533E-06-1.84771E-18 1.19265E-18
 -1      2497 9.50188E-05-2.75988E-05-2.88902E-05-1.28726E-06 1.04841E-18-2.85748E-18
 -1      2498 9.48882E-05-2.73965E-05-2.89284E-05-1.30979E-06 3.53066E-19-2.95921E-18
 -1      2499 9.48451E-05-2.74496E-05-2.88866E-05-1.53420E-06 4.82485E-19-2.14134E-18
 -1      2500 9.52258E-05-2.79623E-05-2.88239E-05-1.12540E-06 1.30366E-18-1.61778E-18
 -1      2501 9.51329E-05-2.77876E-05-2.88623E-05-1.20690E-06 1.61349E-18-3.22284E-18
 -1      2502 9.51637E-05-2.78827E-05-2.88389E-05-1.44364E-06 9.06598E-19-2.35229E-18
 -1      2503 9.53435E-05-2.82253E-05-2.87629E-05-8.92183E-07-1.25859E-19-6.63303E-20
 -1      2504 9.52888E-05-2.80908E-05-2.87970E-05-9.98766E-07 4.91697E-19 7.24637E-19
 -1      2505 9.53705E-05-2.82046E-05-2.87895E-05-1.21471E-06 3.24534E-19-2.03125E-18
 -1      2506 9.53938E-05-2.83954E-05-2.87116E-05-6.47487E-07-5.29458E-19 9.16424E-20
 -1      2507 9.53674E-05-2.83008E-05-2.87394E-05-7.54097E-07-7.52823E-19-1.35646E-18
 -1      2508 9.54738E-05-2.84077E-05-2.87428E-05-9.32946E-07-5.04881E-19-1.06566E-18
 -1      2509 1.35881E-04-6.72922E-05-2.99429E-05 2.36680E-05 1.08950E-18-7.25727E-18
 -1      2510 1.12914E-04-6.03996E-05-2.25777E-05 3.09505E-05 1.42238E-18-5.95647E-18
 -1      2511 9.36049E-05-2.74818E-05-2.83280E-05 3.30618E-07 5.55622E-19-1.36931E-20
 -1      2512 9.38937E-05-2.73387E-05-2.84798E-05 8.83854E-07 4.12747E-19 1.51945E-19
 -1      2513 9.47239E-05-2.69423E-05-2.90610E-05 1.86326E-06 5.42485E-19-2.24318E-19
 -1      2514 9.42548E-05-2.75023E-05-2.86218E-05 3.59609E-07 4.29718E-19-7.26678E-20
 -1      2515 2.04693E-05-1.60385E-05-1.44144E-06 9.17384E-06 2.44898E-19-9.30889E-19
 -1      2516 1.70248E-05-1.38243E-05-9.00327E-07-4.50646E-06-1.36055E-19-1.39591E-18
 -1      2517 1.94741E-05-1.59892E-05-9.88027E-07-1.94157E-05-7.49995E-19-6.67462E-19
 -1      2518 2.71406E-05-2.07706E-05-2.36956E-06-3.27549E-05-1.30020E-19-1.42937E-19
 -1      2519 1.68937E-04-6.94494E-05-4.22673E-05-2.14874E-06 1.25170E-18-7.88291E-18
 -1      2520 9.50710E-05-2.00235E-05-3.22116E-05-1.17503E-05-9.27051E-19-7.00933E-19
 -1      2521 9.54690E-05-2.33654E-05-3.09272E-05-7.96697E-06-8.27320E-19-6.53536E-19
 -1      2522 9.50716E-05-2.25524E-05-3.10540E-05-7.65672E-06-6.82879E-19-8.44240E-19
 -1      2523 9.32173E-05-1.76214E-05-3.24153E-05-1.14042E-05-8.92346E-19-9.97593E-19
 -1      2524 3.81172E-05-2.91350E-05-3.60204E-06-4.13618E-05-7.36919E-20 7.15531E-19
 -1      2525 5.42225E-05-3.54645E-05-7.94127E-06-4.89071E-05-4.73068E-19 3.17764E-18
 -1      2526 2.36254E-05-1.95431E-05-1.46368E-06 2.98545E-05-7.32683E-20-1.51958E-18
 -1      2527 1.67721E-05-1.71359E-05 4.77404E-07 1.60202E-05 1.70995E-19-1.94775E-18
 -1      2528 9.53466E-05-2.84408E-05-2.86751E-05-4.09463E-07 7.19182E-19 1.49428E-18
 -1      2529 8.78451E-05-1.07977E-05-3.30560E-05-1.51873E-06 1.31444E-19-1.63062E-18
 -1      2530 8.79501E-05-1.09195E-05-3.30472E-05-2.63734E-06 1.25403E-20-1.59548E-18
 -1      2531 8.93481E-05-1.30914E-05-3.26837E-05-2.93035E-06 3.37572E-20-1.49242E-18
 -1      2532 8.91008E-05-1.27567E-05-3.27222E-05-9.41105E-07 8.58698E-20-1.52998E-18
 -1      2533 5.02370E-05-3.06987E-05-8.16740E-06 3.48440E-05-1.21761E-19 6.87791E-19
 -1      2534 3.11906E-05-2.24812E-05-3.46647E-06 2.21090E-05-1.33831E-19 6.34851E-19
 -1      2535 1.22180E-04-6.36900E-05-2.51209E-05-2.72877E-05 1.53101E-19-1.36266E-19
 -1      2536 1.43925E-04-6.97789E-05-3.22653E-05-2.01227E-05-7.29295E-19-1.84526E-18
 -1      2537 1.58005E-04-3.08377E-05-5.49472E-05 1.64043E-06-1.16848E-18-1.95241E-19
 -1      2538 1.53824E-04-3.80180E-05-4.98325E-05 4.99284E-06-1.12613E-18-7.92188E-19
 -1      2539 7.37549E-05-4.58197E-05-1.19673E-05-3.64302E-05 1.07234E-18 1.12867E-19
 -1      2540 9.84251E-05-5.55862E-05-1.85728E-05-3.71768E-05 5.34478E-19 2.76980E-19
 -1      2541 3.83693E-05-2.71582E-05-4.54750E-06-2.76834E-05 1.11088E-18 4.61421E-19
 -1      2542 5.47947E-05-3.67893E-05-7.65622E-06-3.55332E-05 1.21952E-18 5.66877E-19
 -1      2543 7.29032E-05-3.98797E-05-1.39720E-05-3.69322E-05 1.81011E-18 5.12455E-20
 -1      2544 1.60537E-05-1.58240E-05 2.31544E-07 2.60347E-06 5.66427E-19-1.27860E-18
 -1      2545 2.26364E-05-1.73283E-05-1.87325E-06-1.29257E-05 4.09223E-19-4.51045E-19
 -1      2546 5.06269E-05-3.22121E-05-7.66833E-06 4.78501E-05-1.18669E-18-2.21986E-18
 -1      2547 3.75974E-05-2.64301E-05-4.34038E-06 3.99694E-05-7.89858E-19-1.63520E-18
 -1      2548 9.17954E-05-4.91742E-05-1.83084E-05 5.06217E-05-1.65828E-18-3.49905E-18
 -1      2549 6.98411E-05-4.22647E-05-1.15849E-05 4.97260E-05-1.23116E-18-2.72607E-18
 -1      2550 1.26893E-04-5.63745E-05-3.04346E-05 3.76450E-05-2.67133E-18-1.61995E-19
 -1      2551 1.12309E-04-5.51604E-05-2.43480E-05 4.22641E-05-2.06824E-18-1.74637E-18
 -1      2552 1.50781E-04-4.87140E-05-4.41364E-05 1.70553E-05-1.27944E-18-9.02302E-19
 -1      2553 1.38854E-04-5.37192E-05-3.65235E-05 2.58911E-05-2.08349E-18-6.11981E-19
 -1      2554 1.36453E-04-5.81437E-05-3.34017E-05 2.55539E-05-2.18291E-18-9.31736E-20
 -1      2555 1.53990E-04-1.31991E-05-6.09604E-05-3.67662E-06-1.53059E-18-3.13402E-19
 -1      2556 1.56318E-04-2.06622E-05-5.84378E-05-1.92672E-06-1.00755E-18 1.22396E-19
 -1      2557 1.47618E-04-2.43851E-05-5.29848E-05-7.24365E-06-1.13778E-18 9.09290E-19
 -1      2558 1.55756E-04-9.45828E-06-6.30679E-05 9.89765E-07-2.33103E-18-8.75567E-19
 -1      2559 1.52860E-04-8.04678E-06-6.25764E-05-7.13182E-07-2.43183E-18-5.70477E-19
 -1      2560 1.55624E-04-1.87793E-05-5.90644E-05 2.44436E-06-3.33879E-18-2.70204E-19
 -1      2561 1.57254E-04-1.35549E-05-6.20282E-05 2.48095E-06-2.94175E-18-8.94890E-19
 -1      2562 1.53268E-04-3.74841E-05-4.99257E-05-3.56954E-06-1.27426E-18-4.30716E-19
 -1      2563 1.56781E-04-2.93520E-05-5.50673E-05 2.42973E-07-2.17518E-18-2.98791E-19
 -1      2564 1.43132E-04-5.31829E-05-3.86162E-05-2.04191E-05 1.07515E-18 1.29363E-18
 -1      2565 1.51365E-04-4.80038E-05-4.47309E-05-1.32415E-05-2.43641E-19 6.81650E-19
 -1      2566 1.14286E-04-5.58167E-05-2.48499E-05-4.10947E-05 9.14584E-19 2.24570E-18
 -1      2567 1.32143E-04-5.68469E-05-3.25521E-05-3.40678E-05 1.01644E-18 1.82938E-18
 -1      2568 7.40511E-05-4.38275E-05-1.26914E-05-4.96998E-05 6.07746E-20 5.08262E-18
 -1      2569 9.21692E-05-4.94751E-05-1.84532E-05-5.03324E-05 3.92176E-19 5.22863E-18
 -1      2570 9.63303E-05-2.50941E-05-3.05557E-05 7.59399E-06 9.11010E-19 6.35604E-19
 -1      2571 9.74518E-05-2.37776E-05-3.15960E-05 1.06936E-05 1.01279E-18 7.95840E-19
 -1      2572 9.58869E-05-2.13024E-05-3.20206E-05 1.18953E-05 1.08522E-18 4.35176E-19
 -1      2573 9.58762E-05-2.41605E-05-3.07685E-05 7.68496E-06 9.24662E-19 1.17897E-19
 -1      2574 1.57812E-04-7.01288E-05-3.73367E-05 5.31300E-06 1.92975E-18-6.41373E-18
 -1      2575 3.55377E-05-1.53483E-05-7.92942E-06 1.71992E-05 2.58874E-19-1.88677E-19
 -1      2576 9.07986E-05-1.50402E-05-3.24594E-05-6.80035E-06-5.03942E-19-1.43002E-18
 -1      2577 8.97102E-05-1.31899E-05-3.28459E-05-7.95088E-06-4.81166E-19-1.48301E-18
 -1      2578 9.03389E-05-1.39078E-05-3.28180E-05-9.18100E-06-6.42599E-19-1.45471E-18
 -1      2579 9.42440E-05-1.90811E-05-3.22579E-05 1.16042E-05 1.09588E-18-7.87079E-20
 -1      2580 3.94182E-05-2.19312E-05-7.03572E-06-3.72073E-05-5.76935E-19 8.97008E-19
 -1      2581 1.43269E-04-8.83923E-06-5.79076E-05-4.17231E-06-1.79084E-18-2.26052E-19
 -1      2582 3.31339E-05-1.16636E-05-8.58337E-06-1.48802E-05 3.94876E-19-4.90856E-19
 -1      2583 3.43670E-05-1.92885E-05-5.86866E-06-2.13090E-05 4.77938E-19 2.08794E-19
 -1      2584 4.75980E-05-2.09056E-05-1.10299E-05-2.80998E-05 1.15832E-18-3.59565E-19
 -1      2585 1.57882E-04-6.91734E-05-3.79303E-05-2.69062E-06-1.22396E-18-2.05363E-18
 -1      2586 1.46394E-04-6.45507E-05-3.45701E-05-1.36307E-05-3.49507E-19-2.19996E-18
 -1      2587 9.52735E-05-2.76200E-05-2.89898E-05 1.67256E-06 2.48725E-18-1.09596E-18
 -1      2588 9.74902E-05-5.34797E-05-1.87042E-05 3.71892E-05 1.27733E-18-5.88683E-18
 -1      2589 7.74596E-05-4.42165E-05-1.40248E-05 3.63030E-05 1.05011E-18-2.91199E-18
 -1      2590 1.13384E-04-5.55193E-05-2.45146E-05 3.19240E-05 1.78766E-18-6.33573E-18
 -1      2591 2.58096E-05-1.06612E-05-5.85633E-06-1.17978E-05-8.12278E-19-9.20090E-19
 -1      2592 9.20487E-05-1.62332E-05-3.25338E-05-1.03894E-05-7.56750E-19-1.18159E-18
 -1      2593 3.64056E-05-1.95684E-05-6.65537E-06 3.47479E-05-1.43996E-20-2.35750E-18
 -1      2594 2.29145E-05-1.13942E-05-4.35666E-06 8.71224E-06 4.84715E-19-2.22494E-18
 -1      2595 6.95833E-05-3.86993E-05-1.28075E-05-4.94703E-05-6.69156E-20 4.36709E-18
 -1      2596 1.08976E-04-5.45979E-05-2.29401E-05-4.28382E-05 1.15514E-18 2.12767E-18
 -1      2597 1.38904E-04-5.77788E-05-3.46611E-05-2.20490E-05 1.64568E-18 7.21037E-19
 -1      2598 1.49058E-04-4.40498E-05-4.50898E-05-1.49244E-06-9.31736E-20-8.46186E-19
 -1      2599 1.47556E-04-2.29673E-05-5.35843E-05 7.35460E-06-2.10975E-18-1.53779E-18
 -1      2600 1.49463E-04-4.54507E-05-4.46500E-05 4.93450E-06-1.26533E-18-4.91703E-19
 -1      2601 1.06791E-04-5.41399E-05-2.22837E-05 4.44102E-05-1.56998E-18-2.30058E-18
 -1      2602 9.54600E-05-2.85472E-05-2.86745E-05-4.45352E-07 9.66179E-19 2.44719E-18
 -1      2603 9.54183E-05-2.84562E-05-2.86960E-05-5.52015E-07 1.79596E-19 1.44710E-18
 -1      2604 9.55141E-05-2.85382E-05-2.87069E-05-6.81484E-07-9.60658E-19 1.83260E-18
 -1      2605 9.55409E-05-2.86191E-05-2.86840E-05-4.81837E-07 2.47092E-19 2.26061E-18
 -1      2606 6.83047E-05-3.73537E-05-1.28600E-05 4.83543E-05-1.01475E-18-2.97711E-18
 -1      2607 1.21380E-04-5.74960E-05-2.75921E-05-2.80874E-05 8.22893E-19 3.18167E-20
 -1      2608 1.78216E-04-6.97159E-05-4.69494E-05 1.20150E-05-2.56990E-18-2.04135E-18
 -1      2609 9.47148E-05-2.06025E-05-3.17180E-05 9.67083E-06 1.00473E-18-1.67514E-19
 -1      2610 1.15757E-04-5.92719E-05-2.41787E-05-3.07560E-05 9.53971E-19-2.02064E-19
 -1      2611 1.62552E-04-6.88101E-05-4.01134E-05 8.59001E-07-1.55949E-18-2.75561E-18
 -1      2612 7.12101E-05-3.43608E-05-1.53475E-05 3.48003E-05 7.62330E-20-1.52233E-18
 -1      2613 1.43793E-04-8.38419E-06-5.82541E-05 4.13239E-06-2.94407E-18-1.41486E-18
 -1      2614 9.50655E-05-2.73388E-05-2.90300E-05 1.95877E-06 1.71396E-18-1.31685E-18
 -1      2615 9.53916E-05-2.76331E-05-2.90367E-05 2.06170E-06 1.90573E-18-6.67205E-19
 -1      2616 9.55394E-05-2.76386E-05-2.90874E-05 2.32668E-06 1.19118E-18-5.10852E-19
 -1      2617 9.48700E-05-2.70470E-05-2.90625E-05 2.29385E-06 1.21827E-18-1.45573E-18
 -1      2618 9.56259E-05-2.86707E-05-2.86940E-05-5.89563E-07-1.60532E-19 3.08481E-18
 -1      2619 9.05625E-05-1.51717E-05-3.23326E-05 3.19442E-06 4.42780E-19-1.31403E-18
 -1      2620 9.03723E-05-1.49000E-05-3.23655E-05 2.26067E-06 3.41726E-19-1.41705E-18
 -1      2621 9.02382E-05-1.46970E-05-3.23947E-05 1.42237E-06 2.77040E-19-1.49401E-18
 -1      2622 9.01729E-05-1.46044E-05-3.24058E-05 4.65292E-07 2.21927E-19-1.46243E-18
 -1      2623 9.14233E-05-1.65909E-05-3.20581E-05 1.64088E-06 2.85619E-19-1.42744E-18
 -1      2624 9.21441E-05-1.75509E-05-3.20064E-05 6.47331E-06 8.10246E-19-1.08170E-18
 -1      2625 9.16195E-05-1.67558E-05-3.21068E-05 5.63399E-06 8.11723E-19-1.10024E-18
 -1      2626 9.35625E-05-1.97759E-05-3.16653E-05 7.59638E-06 9.93207E-19-5.23380E-19
 -1      2627 9.27731E-05-1.85210E-05-3.18394E-05 7.01851E-06 9.14167E-19-8.06802E-19
 -1      2628 9.34372E-05-1.98660E-05-3.15081E-05 5.73333E-06 8.19929E-19-8.51313E-19
 -1      2629 1.00383E-04-4.79924E-05-2.18108E-05-3.51403E-05 1.46283E-18 3.71530E-19
 -1      2630 9.52168E-05-2.54097E-05-2.99304E-05 3.97603E-06 6.70291E-19-3.90667E-19
 -1      2631 9.55536E-05-2.45582E-05-3.03942E-05 5.61082E-06 8.08754E-19-2.94829E-19
 -1      2632 9.53586E-05-2.59027E-05-2.97378E-05-2.70166E-06-6.32090E-19-9.39661E-19
 -1      2633 9.51941E-05-2.64887E-05-2.94571E-05-1.71824E-06-5.18490E-19-8.88884E-19
 -1      2634 9.52165E-05-2.70011E-05-2.92119E-05-9.75083E-07-5.54455E-19-8.81966E-19
 -1      2635 9.50824E-05-2.73544E-05-2.90326E-05-3.67825E-07-5.05914E-19-9.65523E-19
 -1      2636 9.54149E-05-2.63248E-05-2.96161E-05-1.61441E-06-5.97960E-19-8.58119E-19
 -1      2637 9.50501E-05-2.76597E-05-2.88657E-05 1.01576E-07-3.60174E-19-8.75361E-19
 -1      2638 9.49734E-05-2.78833E-05-2.87558E-05 4.55129E-07-2.52911E-19-8.09364E-19
 -1      2639 9.54162E-05-2.73174E-05-2.91925E-05-3.31173E-07-4.16698E-19-9.36654E-19
 -1      2640 9.49314E-05-2.80670E-05-2.86460E-05 7.27594E-07-1.89953E-19-8.49628E-19
 -1      2641 9.49045E-05-2.82123E-05-2.85833E-05 9.14634E-07-3.02021E-19-9.19056E-19
 -1      2642 9.53562E-05-2.79299E-05-2.89038E-05 4.63961E-07-3.28330E-19-9.72785E-19
 -1      2643 9.48696E-05-2.83219E-05-2.85143E-05 1.05351E-06-3.40100E-19-9.57804E-19
 -1      2644 9.48785E-05-2.84171E-05-2.84833E-05 1.13393E-06-3.00776E-19-1.02702E-18
 -1      2645 9.52919E-05-2.83059E-05-2.87137E-05 9.13855E-07-3.69976E-19-1.05387E-18
 -1      2646 9.48543E-05-2.84795E-05-2.84431E-05 1.18604E-06-2.89245E-19-9.75530E-19
 -1      2647 9.48861E-05-2.85407E-05-2.84329E-05 1.20108E-06-3.32720E-19-9.30124E-19
 -1      2648 9.52426E-05-2.85314E-05-2.85946E-05 1.13135E-06-2.15801E-19-1.26255E-18
 -1      2649 9.48715E-05-2.85721E-05-2.84127E-05 1.20047E-06-4.89233E-19-6.63033E-19
 -1      2650 9.49163E-05-2.86096E-05-2.84159E-05 1.17858E-06-5.69199E-19-4.96097E-19
 -1      2651 9.52111E-05-2.86580E-05-2.85257E-05 1.20042E-06-2.31987E-19-5.56886E-19
 -1      2652 9.49094E-05-2.86205E-05-2.84095E-05 1.14951E-06-4.72008E-19-1.14584E-19
 -1      2653 9.49605E-05-2.86414E-05-2.84211E-05 1.11025E-06-2.08119E-19-3.85573E-19
 -1      2654 9.51947E-05-2.87183E-05-2.84920E-05 1.18196E-06-3.43713E-19-6.30454E-20
 -1      2655 9.49594E-05-2.86388E-05-2.84238E-05 1.06967E-06-1.98205E-19-2.71228E-19
 -1      2656 9.50130E-05-2.86484E-05-2.84405E-05 1.02628E-06-8.10151E-20-5.29358E-19
 -1      2657 9.51899E-05-2.87345E-05-2.84824E-05 1.11925E-06-3.75831E-19 3.64244E-20
 -1      2658 9.50164E-05-2.86376E-05-2.84492E-05 9.85732E-07-1.53823E-19-6.66245E-19
 -1      2659 9.50707E-05-2.86401E-05-2.84687E-05 9.46794E-07-3.47359E-19-4.78696E-19
 -1      2660 9.51942E-05-2.87222E-05-2.84891E-05 1.04231E-06-2.94969E-19-4.26274E-19
 -1      2661 9.50784E-05-2.86254E-05-2.84812E-05 9.13687E-07-1.51699E-19-6.54270E-19
 -1      2662 9.51333E-05-2.86247E-05-2.85021E-05 8.84201E-07 3.90833E-20-3.20423E-19
 -1      2663 9.52064E-05-2.86934E-05-2.85064E-05 9.71247E-07-1.17338E-19-3.02060E-19
 -1      2664 9.51461E-05-2.86101E-05-2.85167E-05 8.62669E-07-1.41026E-19-1.31823E-19
 -1      2665 9.52027E-05-2.86103E-05-2.85381E-05 8.44587E-07-4.23886E-19 9.99940E-20
 -1      2666 9.52274E-05-2.86583E-05-2.85302E-05 9.18458E-07 2.51018E-20-3.29020E-19
 -1      2667 9.52227E-05-2.86002E-05-2.85536E-05 8.35841E-07-6.60597E-19 3.88359E-19
 -1      2668 9.52833E-05-2.86059E-05-2.85746E-05 8.28170E-07-4.24334E-19 3.97885E-19
 -1      2669 9.52600E-05-2.86273E-05-2.85575E-05 8.89941E-07-2.97887E-19 1.17981E-19
 -1      2670 9.53140E-05-2.86058E-05-2.85899E-05 8.30448E-07-7.10588E-19 2.96955E-19
 -1      2671 9.53817E-05-2.86228E-05-2.86099E-05 8.28961E-07-1.01241E-18 1.63433E-19
 -1      2672 9.53103E-05-2.86122E-05-2.85857E-05 8.85672E-07-6.81070E-19 4.29617E-19
 -1      2673 9.54290E-05-2.86399E-05-2.86239E-05 8.37058E-07-1.03705E-18 3.10122E-19
 -1      2674 9.55075E-05-2.86754E-05-2.86419E-05 8.33663E-07-9.64881E-19 3.85252E-20
 -1      2675 9.53877E-05-2.86276E-05-2.86127E-05 8.99159E-07-9.85262E-19 6.78421E-19
 -1      2676 9.55796E-05-2.87188E-05-2.86536E-05 8.38081E-07-6.13821E-19 4.12916E-19
 -1      2677 9.56730E-05-2.87813E-05-2.86683E-05 8.19965E-07-7.46821E-20 7.98471E-19
 -1      2678 9.55064E-05-2.86926E-05-2.86362E-05 9.16174E-07-6.80882E-19 1.09252E-18
 -1      2679 9.57806E-05-2.88625E-05-2.86769E-05 8.05779E-07-1.11080E-21 5.61533E-19
 -1      2680 9.58929E-05-2.89613E-05-2.86869E-05 7.54588E-07-5.12502E-20 3.51543E-19
 -1      2681 9.56852E-05-2.88309E-05-2.86543E-05 9.12784E-07-1.26755E-19 1.03447E-18
 -1      2682 9.60488E-05-2.90925E-05-2.86915E-05 7.00277E-07-1.26893E-19 9.99526E-20
 -1      2683 9.61821E-05-2.92359E-05-2.86952E-05 5.91776E-07 5.40474E-19-3.95773E-19
 -1      2684 9.59480E-05-2.90696E-05-2.86655E-05 8.52993E-07-4.54626E-19 7.00994E-19
 -1      2685 9.63994E-05-2.94277E-05-2.86960E-05 4.68547E-07 1.23156E-18-7.06173E-19
 -1      2686 9.65519E-05-2.96192E-05-2.86921E-05 2.73555E-07 8.53549E-19-1.07518E-18
 -1      2687 9.63208E-05-2.94353E-05-2.86697E-05 6.86693E-07 5.12858E-19-4.14490E-20
 -1      2688 9.68393E-05-2.98753E-05-2.86905E-05 4.61283E-08 4.71096E-19-1.12265E-18
 -1      2689 9.70014E-05-3.01077E-05-2.86788E-05-2.66091E-07 7.33269E-20-4.94231E-19
 -1      2690 9.68264E-05-2.99446E-05-2.86690E-05 3.49316E-07 8.12344E-19-5.16689E-19
 -1      2691 9.73565E-05-3.04165E-05-2.86784E-05-6.35540E-07-5.97797E-19-6.61643E-19
 -1      2692 9.75058E-05-3.06633E-05-2.86604E-05-1.08988E-06-5.74883E-19-1.28985E-18
 -1      2693 9.74722E-05-3.05894E-05-2.86698E-05-2.34256E-07-4.00482E-19 3.67165E-20
 -1      2694 9.79038E-05-3.09875E-05-2.86678E-05-1.63218E-06 2.17072E-19-1.03815E-18
 -1      2695 9.80003E-05-3.11942E-05-2.86476E-05-2.23485E-06 6.66062E-19-1.15149E-18
 -1      2696 9.82325E-05-3.13140E-05-2.86840E-05-1.13731E-06 6.74499E-20-3.18385E-19
 -1      2697 9.83827E-05-3.14604E-05-2.86726E-05-2.95607E-06 7.87503E-19-1.13266E-18
 -1      2698 9.83677E-05-3.15407E-05-2.86570E-05-3.67608E-06 1.25519E-18-1.14343E-18
 -1      2699 9.90256E-05-3.19908E-05-2.87305E-05-2.40498E-06 8.13990E-19-3.09876E-19
 -1      2700 9.86364E-05-3.16377E-05-2.87112E-05-4.53060E-06 1.14032E-18-1.64981E-18
 -1      2701 9.84409E-05-3.14833E-05-2.87089E-05-5.27906E-06 5.82621E-19-1.86629E-18
 -1      2702 9.96941E-05-3.24047E-05-2.88335E-05-4.00914E-06 9.96342E-19-9.71793E-19
 -1      2703 9.84699E-05-3.12815E-05-2.88024E-05-6.13902E-06 3.68147E-19-1.47050E-18
 -1      2704 9.80393E-05-3.07961E-05-2.88210E-05-6.75650E-06 3.16629E-19-1.47918E-18
 -1      2705 1.00009E-04-3.22714E-05-2.90175E-05-5.78695E-06 3.73427E-19-1.16356E-18
 -1      2706 9.77205E-05-3.01999E-05-2.89565E-05-7.39763E-06 3.76873E-19-1.17157E-18
 -1      2707 9.70538E-05-2.93594E-05-2.89986E-05-7.66854E-06-4.14911E-20-6.04124E-19
 -1      2708 9.97263E-05-3.13222E-05-2.92964E-05-7.38564E-06 2.58417E-19-4.05389E-19
 -1      2709 9.63716E-05-2.83854E-05-2.91651E-05-7.80163E-06 3.47846E-19 1.63722E-19
 -1      2710 9.55616E-05-2.73038E-05-2.92241E-05-7.51300E-06 4.30620E-19 9.16524E-19
 -1      2711 9.87099E-05-2.94560E-05-2.96598E-05-8.26920E-06 7.39808E-19 2.55031E-19
 -1      2712 9.46694E-05-2.61520E-05-2.93924E-05-6.88912E-06 3.61224E-19 8.73805E-19
 -1      2713 9.39101E-05-2.51039E-05-2.94513E-05-5.93538E-06 8.66194E-19 9.08172E-19
 -1      2714 9.70922E-05-2.69279E-05-3.00607E-05-7.84820E-06 6.34985E-19 1.34108E-18
 -1      2715 9.31270E-05-2.41422E-05-2.95791E-05-4.50854E-06 8.53643E-19 1.69867E-18
 -1      2716 9.26545E-05-2.34805E-05-2.96158E-05-2.99500E-06 1.68932E-19 2.35080E-18
 -1      2717 9.53582E-05-2.44091E-05-3.04148E-05-5.76987E-06 1.40092E-18 1.16058E-18
 -1      2718 9.23301E-05-2.30923E-05-2.96641E-05-1.03499E-06-6.97331E-19 2.72314E-18
 -1      2719 9.23125E-05-2.30728E-05-2.96636E-05 7.04894E-07-6.32530E-19 2.69274E-18
 -1      2720 9.42063E-05-2.28035E-05-3.06249E-05-2.24033E-06 1.69988E-19 2.80422E-18
 -1      2721 9.25991E-05-2.34208E-05-2.96181E-05 2.67771E-06-5.01236E-19 2.55046E-18
 -1      2722 9.30388E-05-2.40462E-05-2.95807E-05 4.21352E-06-1.11453E-19 3.02323E-18
 -1      2723 9.41679E-05-2.27558E-05-3.06286E-05 1.88579E-06-9.85744E-19 3.06223E-18
 -1      2724 9.37961E-05-2.49789E-05-2.94556E-05 5.68284E-06-1.71872E-19 2.48084E-18
 -1      2725 9.45359E-05-2.60109E-05-2.93953E-05 6.67606E-06-5.66757E-19 2.26321E-18
 -1      2726 9.52530E-05-2.42819E-05-3.04263E-05 5.47374E-06-9.54501E-19 2.26517E-18
 -1      2727 9.54323E-05-2.71651E-05-2.92268E-05 7.35175E-06-9.16689E-19 1.13372E-18
 -1      2728 9.62395E-05-2.82557E-05-2.91646E-05 7.67752E-06-1.12883E-18 1.20361E-19
 -1      2729 9.69645E-05-2.67640E-05-3.00766E-05 7.65685E-06-1.43826E-18-1.65014E-20
 -1      2730 9.69442E-05-2.92548E-05-2.89951E-05 7.58137E-06-7.82731E-19 1.87917E-19
 -1      2731 9.76183E-05-3.01189E-05-2.89486E-05 7.33246E-06-1.04404E-18-4.57991E-19
 -1      2732 9.86115E-05-2.93272E-05-2.96732E-05 8.17191E-06-1.52709E-18-4.57903E-19
 -1      2733 9.79627E-05-3.07463E-05-2.88085E-05 6.70413E-06-8.04638E-19 8.75042E-20
 -1      2734 9.84019E-05-3.12556E-05-2.87854E-05 6.09094E-06-5.67058E-19 5.53512E-19
 -1      2735 9.96782E-05-3.12602E-05-2.93018E-05 7.33816E-06-8.55078E-19-3.98766E-19
 -1      2736 9.83905E-05-3.14815E-05-2.86875E-05 5.22410E-06-4.85525E-19 6.12398E-19
 -1      2737 9.85899E-05-3.16514E-05-2.86861E-05 4.46695E-06-3.16238E-19 9.85119E-19
 -1      2738 1.00005E-04-3.22754E-05-2.90136E-05 5.74240E-06-6.04311E-19-1.61943E-19
 -1      2739 9.83286E-05-3.15668E-05-2.86289E-05 3.59498E-06-4.10007E-19 1.03538E-18
 -1      2740 9.83409E-05-3.14908E-05-2.86419E-05 2.86004E-06-5.07762E-19 1.46893E-19
 -1      2741 9.97152E-05-3.24510E-05-2.88223E-05 3.93764E-06-5.85219E-19-4.87182E-19
 -1      2742 9.79562E-05-3.12243E-05-2.86160E-05 2.11900E-06-2.74047E-19 8.76048E-19
 -1      2743 9.78508E-05-3.10106E-05-2.86351E-05 1.50212E-06-2.15303E-20 6.89030E-19
 -1      2744 9.90513E-05-3.20508E-05-2.87156E-05 2.29434E-06-3.27572E-19-6.51484E-19
 -1      2745 9.74428E-05-3.06742E-05-2.86291E-05 9.44747E-07-1.27904E-19 8.33118E-19
 -1      2746 9.72796E-05-3.04096E-05-2.86479E-05 4.83373E-07 8.29159E-19 4.31342E-19
 -1      2747 9.82451E-05-3.13590E-05-2.86701E-05 9.90975E-07 8.62121E-20-3.57069E-19
 -1      2748 9.69080E-05-3.00772E-05-2.86524E-05 1.09969E-07 1.51784E-18 9.90051E-20
 -1      2749 9.67286E-05-2.98168E-05-2.86672E-05-1.95940E-07 1.03391E-18 6.92706E-20
 -1      2750 9.74574E-05-3.05921E-05-2.86623E-05 6.87844E-08 1.15485E-18-1.41257E-18
 -1      2751 9.64195E-05-2.95273E-05-2.86757E-05-4.10820E-07 6.70551E-19 6.60016E-19
 -1      2752 9.62466E-05-2.92973E-05-2.86854E-05-5.81915E-07 1.57156E-19 5.04445E-19
 -1      2753 9.67731E-05-2.98797E-05-2.86737E-05-5.04746E-07 8.75265E-19-2.27235E-18
 -1      2754 9.60018E-05-2.90602E-05-2.86942E-05-6.68607E-07-1.76863E-19 1.72564E-18
 -1      2755 9.58490E-05-2.88749E-05-2.86989E-05-7.26081E-07 5.93624E-19 2.28957E-18
 -1      2756 9.62166E-05-2.92737E-05-2.86924E-05-7.93669E-07 1.11080E-18-5.62527E-20
 -1      2757 9.44815E-05-2.81347E-05-2.84340E-05-9.22623E-07 3.07987E-19-4.19289E-19
 -1      2758 9.44931E-05-2.80104E-05-2.84817E-05-7.50394E-07 4.56833E-19-3.09819E-19
 -1      2759 8.13201E-05-4.13566E-05-1.70104E-05 4.81416E-05-1.03094E-18-3.87168E-18
 -1      2760 6.39570E-05-3.08717E-05-1.36436E-05 4.50046E-05-9.25595E-19-2.92597E-18
 -1      2761 9.45512E-05-2.78641E-05-2.85809E-05-4.80058E-07 5.53908E-19-5.62928E-19
 -1      2762 9.46339E-05-2.76810E-05-2.86758E-05-1.44835E-07 3.80999E-19-2.67229E-19
 -1      2763 9.50066E-05-2.79251E-05-2.87575E-05-4.93847E-07 4.45944E-19-5.73677E-19
 -1      2764 9.45418E-05-2.84318E-05-2.83318E-05-1.18211E-06 4.73435E-19 1.27526E-19
 -1      2765 9.44763E-05-2.83679E-05-2.83292E-05-1.17506E-06 5.17450E-19 9.66077E-20
 -1      2766 9.46252E-05-2.85036E-05-2.83366E-05-1.14935E-06-2.17133E-20 3.00287E-19
 -1      2767 9.45483E-05-2.84615E-05-2.83220E-05-1.17688E-06 1.60385E-19 2.95736E-19
 -1      2768 9.49119E-05-2.85620E-05-2.84388E-05-1.21240E-06 2.05701E-19 9.18588E-20
 -1      2769 9.47245E-05-2.85455E-05-2.83610E-05-1.07625E-06 2.23184E-19 4.60402E-20
 -1      2770 9.46425E-05-2.85180E-05-2.83395E-05-1.11775E-06 1.07122E-19 2.55853E-19
 -1      2771 9.49414E-05-2.86235E-05-2.84240E-05-1.18523E-06 1.38398E-19 3.55795E-19
 -1      2772 9.48306E-05-2.85643E-05-2.83983E-05-9.93477E-07 3.70446E-19-3.19153E-20
 -1      2773 9.47478E-05-2.85481E-05-2.83725E-05-1.03535E-06 2.85761E-19-9.93176E-21
 -1      2774 9.49851E-05-2.86469E-05-2.84320E-05-1.11783E-06 3.82905E-19 1.19471E-19
 -1      2775 9.49395E-05-2.85646E-05-2.84444E-05-9.23945E-07 1.01809E-18-1.18098E-19
 -1      2776 9.48572E-05-2.85577E-05-2.84157E-05-9.56017E-07 8.56851E-19 1.92883E-19
 -1      2777 9.50365E-05-2.86418E-05-2.84558E-05-1.04226E-06 6.72110E-19-1.39700E-19
 -1      2778 9.50543E-05-2.85468E-05-2.85008E-05-8.85260E-07 4.13412E-19 2.63611E-19
 -1      2779 9.49691E-05-2.85489E-05-2.84677E-05-8.98770E-07 6.16589E-19 1.50339E-19
 -1      2780 9.50926E-05-2.86122E-05-2.84923E-05-9.81756E-07 7.03664E-19 3.66424E-19
 -1      2781 9.51644E-05-2.85115E-05-2.85625E-05-8.98490E-07 1.46370E-19-5.74725E-20
 -1      2782 9.50813E-05-2.85226E-05-2.85273E-05-8.84369E-07 6.21172E-19 2.92495E-19
 -1      2783 9.51487E-05-2.85592E-05-2.85387E-05-9.58446E-07 5.54473E-19 7.48450E-19
 -1      2784 9.52763E-05-2.84542E-05-2.86341E-05-9.78611E-07-3.72544E-19-1.22897E-19
 -1      2785 9.51889E-05-2.84760E-05-2.85937E-05-9.28318E-07-3.41583E-19-2.74339E-19
 -1      2786 9.51993E-05-2.84817E-05-2.85935E-05-9.90344E-07 4.39349E-20 2.12004E-19
 -1      2787 9.53890E-05-2.83655E-05-2.87191E-05-1.14756E-06-5.44123E-19 7.31699E-19
 -1      2788 9.52941E-05-2.84022E-05-2.86710E-05-1.04899E-06-4.29242E-19 5.16909E-19
 -1      2789 9.52402E-05-2.83702E-05-2.86585E-05-1.09480E-06-6.36301E-19 5.25073E-19
 -1      2790 9.54988E-05-2.82297E-05-2.88223E-05-1.43439E-06-5.04772E-19 4.90065E-19
 -1      2791 9.53931E-05-2.82884E-05-2.87631E-05-1.27110E-06-4.42159E-19 6.40237E-19
 -1      2792 9.52609E-05-2.82089E-05-2.87359E-05-1.29416E-06-5.15009E-19 1.12088E-18
 -1      2793 9.55951E-05-2.80070E-05-2.89565E-05-1.90744E-06-1.28627E-19 8.00965E-19
 -1      2794 9.54751E-05-2.81064E-05-2.88780E-05-1.63853E-06-3.84112E-19 6.38836E-19
 -1      2795 9.52410E-05-2.79660E-05-2.88307E-05-1.62795E-06-4.55789E-19 7.27756E-19
 -1      2796 9.56407E-05-2.76765E-05-2.91150E-05-2.57992E-06-4.72043E-20 5.30349E-19
 -1      2797 9.55194E-05-2.78253E-05-2.90201E-05-2.19873E-06 1.24339E-19 6.09211E-19
 -1      2798 9.51430E-05-2.75995E-05-2.89429E-05-2.13029E-06 8.13694E-20 2.53996E-19
 -1      2799 9.55895E-05-2.71680E-05-2.93073E-05-3.54617E-06-2.98586E-19 6.44160E-19
 -1      2800 9.54759E-05-2.73987E-05-2.91885E-05-2.99560E-06-2.13102E-19 5.04457E-19
 -1      2801 9.49106E-05-2.70628E-05-2.90692E-05-2.83625E-06-7.92191E-20-8.86563E-20
 -1      2802 9.53473E-05-2.63959E-05-2.95304E-05-4.90464E-06 8.54014E-20 2.17887E-19
 -1      2803 9.52703E-05-2.67467E-05-2.93863E-05-4.12527E-06-1.60098E-19 5.55612E-19
 -1      2804 9.44430E-05-2.62615E-05-2.92051E-05-3.81654E-06-2.26900E-19-3.09923E-19
 -1      2805 9.47617E-05-2.52543E-05-2.97650E-05-6.77253E-06 5.31963E-19-3.10237E-19
 -1      2806 9.47731E-05-2.57692E-05-2.96022E-05-5.69425E-06 6.39513E-19 2.26172E-19
 -1      2807 9.35821E-05-2.50811E-05-2.93302E-05-5.14260E-06 2.00758E-19-7.20993E-19
 -1      2808 9.36183E-05-2.36499E-05-2.99593E-05-9.27271E-06-1.00003E-19 1.95892E-19
 -1      2809 9.37852E-05-2.43564E-05-2.97996E-05-7.82666E-06-3.16827E-20-2.41344E-19
 -1      2810 9.20886E-05-2.33879E-05-2.93969E-05-6.88984E-06 1.93451E-19-4.16227E-19
 -1      2811 9.14941E-05-2.14725E-05-2.99775E-05-1.26970E-05 9.15689E-20-3.39323E-19
 -1      2812 9.19587E-05-2.23695E-05-2.98865E-05-1.07206E-05 5.74383E-19 4.18057E-21
 -1      2813 8.95478E-05-2.10200E-05-2.92986E-05-9.20270E-06 3.08686E-19-4.82663E-19
 -1      2814 8.83945E-05-1.93133E-05-2.95592E-05-1.67733E-05-1.74985E-19-6.74887E-19
 -1      2815 8.90607E-05-2.00286E-05-2.96698E-05-1.44930E-05-3.10099E-19-7.56438E-19
 -1      2816 8.55681E-05-1.80479E-05-2.88195E-05-1.20913E-05 5.91398E-19-7.46157E-19
 -1      2817 8.45953E-05-1.83697E-05-2.82564E-05-2.16778E-05-1.22255E-19-6.27347E-19
 -1      2818 8.50642E-05-1.80869E-05-2.87844E-05-1.91286E-05-5.71747E-20-5.05718E-19
 -1      2819 7.99167E-05-1.50807E-05-2.75993E-05-1.56626E-05-2.51771E-19-5.19948E-19
 -1      2820 8.15343E-05-2.16886E-05-2.53513E-05-2.75801E-05 3.03397E-19-2.97467E-19
 -1      2821 8.06222E-05-1.83772E-05-2.66237E-05-2.49287E-05-7.48301E-20-4.96361E-19
 -1      2822 7.25401E-05-1.35461E-05-2.49726E-05-2.04287E-05-3.60982E-20-7.79270E-19
 -1      2823 8.92419E-05-3.63351E-05-2.22302E-05-3.38114E-05 1.05191E-18 5.17749E-20
 -1      2824 8.39267E-05-2.69914E-05-2.39263E-05-3.20382E-05 1.13587E-18-3.33096E-19
 -1      2825 6.92669E-05-1.87242E-05-2.14674E-05-2.81923E-05 5.55177E-19 1.38913E-19
 -1      2826 8.04037E-05-3.63826E-05-1.86222E-05-3.61442E-05 1.21030E-18 1.73959E-19
 -1      2827 8.94526E-05-2.01195E-05-2.97861E-05 1.77915E-05-2.26048E-18-7.18668E-19
 -1      2828 8.92597E-05-2.00421E-05-2.96279E-05 2.03483E-05-1.76210E-18-7.56003E-19
 -1      2829 9.21310E-05-2.20229E-05-3.01092E-05 1.34002E-05-1.86952E-18-1.07009E-18
 -1      2830 9.19604E-05-2.13656E-05-3.02136E-05 1.55709E-05-2.18673E-18-5.64378E-19
 -1      2831 8.46191E-05-1.74016E-05-2.86607E-05 1.53294E-05-2.22649E-18-3.05777E-19
 -1      2832 9.38844E-05-2.39241E-05-3.00298E-05 9.92550E-06-1.34636E-18-9.26977E-19
 -1      2833 9.38722E-05-2.32629E-05-3.02262E-05 1.16598E-05-2.20614E-18-1.14009E-18
 -1      2834 8.88119E-05-2.01526E-05-2.93378E-05 1.17347E-05-2.33128E-18-2.76874E-19
 -1      2835 9.49005E-05-2.54732E-05-2.97851E-05 7.15795E-06 1.27868E-18-8.72667E-20
 -1      2836 9.50190E-05-2.49455E-05-3.00010E-05 8.52212E-06 3.42072E-19 1.45244E-19
 -1      2837 9.16670E-05-2.26665E-05-2.95159E-05 8.83406E-06-1.09101E-18-1.01261E-18
 -1      2838 9.53433E-05-2.64886E-05-2.95284E-05 5.20214E-06-3.57865E-19 6.86988E-19
 -1      2839 9.55289E-05-2.61520E-05-2.97068E-05 6.16054E-06 4.11875E-19 4.24369E-19
 -1      2840 9.33921E-05-2.45631E-05-2.94657E-05 6.57361E-06 8.89442E-19-1.50140E-19
 -1      2841 9.54754E-05-2.71270E-05-2.93029E-05 3.75385E-06 2.94352E-19-5.25283E-19
 -1      2842 9.56778E-05-2.69274E-05-2.94428E-05 4.45954E-06-3.38520E-19 5.43898E-19
 -1      2843 9.43445E-05-2.58519E-05-2.93377E-05 4.87926E-06-1.31805E-19-6.15224E-19
 -1      2844 9.54873E-05-2.74935E-05-2.91404E-05 2.72731E-06 8.81902E-19-4.74212E-19
 -1      2845 9.56816E-05-2.74008E-05-2.92464E-05 3.26946E-06 5.47513E-19-3.90113E-19
 -1      2846 9.48631E-05-2.66690E-05-2.92224E-05 3.68361E-06 5.77680E-19-1.45025E-18
 -1      2847 9.51227E-05-2.71714E-05-2.91208E-05 2.75951E-06 1.24322E-18-1.05120E-18
 -1      2848 9.57138E-05-2.87445E-05-2.87037E-05-7.22195E-07 9.48402E-19 2.27388E-18
 -1      2849 9.56233E-05-2.86416E-05-2.87039E-05-7.09638E-07 1.57652E-19 2.25241E-18
 -1      2850 9.58417E-05-2.88586E-05-2.87083E-05-8.67589E-07 7.29703E-19 4.07080E-19
 -1      2851 1.35440E-04-9.80256E-06-5.44288E-05 7.53078E-06-2.79436E-18-2.07232E-18
 -1      2852 1.33273E-04-5.72472E-06-5.53670E-05 3.13529E-06-2.93772E-18-1.23177E-18
 -1      2853 9.39566E-05-2.65571E-05-2.88777E-05-1.41245E-06-9.13899E-19 1.46717E-18
 -1      2854 9.37046E-05-2.63191E-05-2.88918E-05-1.13291E-06-1.46079E-19 5.53495E-19
 -1      2855 9.31610E-05-2.56429E-05-2.89385E-05 2.23753E-07-3.71155E-19-1.01433E-19
 -1      2856 9.31686E-05-2.56301E-05-2.89522E-05 6.95389E-07 1.33867E-19 4.91694E-20
 -1      2857 9.45329E-05-2.71912E-05-2.88522E-05-1.75251E-06-8.32946E-19 1.00253E-18
 -1      2858 9.42656E-05-2.69272E-05-2.88690E-05-1.62518E-06-1.14489E-18 1.31687E-18
 -1      2859 9.40005E-05-2.68067E-05-2.87983E-05-1.80657E-06-4.31574E-19 1.00077E-18
 -1      2860 9.34435E-05-2.59900E-05-2.89045E-05-7.31173E-07-3.23974E-19-1.90131E-18
 -1      2861 9.32835E-05-2.58380E-05-2.89174E-05-3.21517E-07-2.55337E-19-1.16468E-18
 -1      2862 9.28895E-05-2.55471E-05-2.88501E-05-1.89391E-07-9.93253E-19-3.46620E-19
 -1      2863 9.33373E-05-2.60894E-05-2.88160E-05-1.17854E-06-5.57473E-19-4.25586E-19
 -1      2864 3.02878E-05-6.59962E-06-9.51699E-06-2.74342E-06-7.10479E-19-8.90020E-19
 -1      2865 3.25600E-05-9.00195E-06-9.55341E-06-1.86562E-05-1.59819E-18-6.91391E-19
 -1      2866 9.50318E-05-2.77582E-05-2.88242E-05-1.77983E-06 1.79137E-19-2.35974E-18
 -1      2867 9.48092E-05-2.75202E-05-2.88438E-05-1.78561E-06-2.35831E-19-8.97341E-19
 -1      2868 9.46788E-05-2.75199E-05-2.87870E-05-2.04218E-06-5.70228E-19 5.65372E-19
 -1      2869 9.53925E-05-2.81999E-05-2.87915E-05-1.58115E-06 3.93125E-19-2.89458E-18
 -1      2870 9.52373E-05-2.80094E-05-2.88135E-05-1.68064E-06 6.56934E-19-2.59612E-18
 -1      2871 9.52328E-05-2.81092E-05-2.87740E-05-1.95123E-06-1.41771E-19-2.38419E-18
 -1      2872 9.55853E-05-2.84763E-05-2.87563E-05-1.26178E-06 7.67327E-19-1.39521E-18
 -1      2873 9.55044E-05-2.83516E-05-2.87785E-05-1.40608E-06 1.39541E-18-2.21284E-18
 -1      2874 9.55993E-05-2.85168E-05-2.87557E-05-1.64579E-06 8.15641E-19-1.95741E-18
 -1      2875 4.63852E-05-1.50057E-05-1.28875E-05 2.58082E-05 8.07858E-20 4.55915E-19
 -1      2876 3.56128E-05-8.47044E-06-1.10019E-05 1.08362E-05 3.96769E-19-5.93770E-19
 -1      2877 1.32795E-04-5.56263E-06-5.52436E-05-2.38755E-06-2.55931E-18-5.27040E-19
 -1      2878 1.34233E-04-9.93581E-06-5.38020E-05-7.79904E-06-1.44123E-18-7.38877E-19
 -1      2879 9.47063E-05-2.19067E-05-3.12065E-05 7.84284E-06 9.36590E-19-3.13938E-19
 -1      2880 1.37602E-04-1.97273E-05-5.13493E-05-1.02227E-05-6.46710E-19-7.18602E-19
 -1      2881 1.41149E-04-2.87455E-05-4.84573E-05-1.00641E-05-7.35754E-19 3.08955E-19
 -1      2882 9.44855E-05-2.83123E-05-2.83591E-05-1.12702E-06 3.44104E-19 2.63566E-21
 -1      2883 9.44501E-05-2.82246E-05-2.83762E-05-1.05706E-06 3.22001E-19-1.91662E-20
 -1      2884 9.49341E-05-2.82447E-05-2.85874E-05-9.41351E-07 1.96011E-19-2.07561E-19
 -1      2885 9.52039E-05-2.39728E-05-3.05187E-05-5.30080E-06-5.30987E-19-9.58722E-19
 -1      2886 9.51572E-05-2.49947E-05-3.00879E-05-3.78976E-06-6.30719E-19-9.75456E-19
 -1      2887 9.52152E-05-2.47005E-05-3.02199E-05-3.53127E-06-6.51544E-19-9.99546E-19
 -1      2888 1.01103E-04-5.03556E-05-2.11510E-05-4.32221E-05 1.97570E-19 2.11778E-18
 -1      2889 1.18988E-04-5.76342E-05-2.66868E-05-3.63608E-05 9.06537E-19 1.52643E-18
 -1      2890 4.63411E-05-1.98408E-05-1.09507E-05 3.74310E-05 2.08582E-19-2.54766E-18
 -1      2891 3.45646E-05-1.29820E-05-8.55087E-06 2.67111E-05 1.02020E-18-2.47651E-18
 -1      2892 9.11800E-05-1.60877E-05-3.22104E-05 4.91659E-06 7.57085E-19-1.06089E-18
 -1      2893 9.08375E-05-1.55885E-05-3.22713E-05 3.99426E-06 5.69857E-19-1.17621E-18
 -1      2894 9.18153E-05-1.71986E-05-3.19632E-05 3.19709E-06 4.87848E-19-1.19468E-18
 -1      2895 9.24833E-05-1.82595E-05-3.17905E-05 4.61448E-06 6.54841E-19-1.02482E-18
 -1      2896 9.08030E-05-1.55417E-05-3.22762E-05-3.92889E-06-1.05942E-19-1.29701E-18
 -1      2897 9.11350E-05-1.60250E-05-3.22168E-05-4.86088E-06-2.50912E-19-1.27293E-18
 -1      2898 1.15921E-04-5.66206E-05-2.57418E-05 3.82836E-05-1.43297E-18 6.67303E-20
 -1      2899 9.91885E-05-4.97913E-05-2.06615E-05 4.42092E-05-7.64977E-19-2.74367E-18
 -1      2900 9.28477E-05-1.80058E-05-3.20749E-05-8.80908E-06-6.99499E-19-1.20026E-18
 -1      2901 8.59894E-05-1.94037E-05-2.85904E-05 2.29323E-05-1.07793E-18-5.76591E-19
 -1      2902 8.64160E-05-2.11121E-05-2.79565E-05 2.61273E-05-5.13752E-19-7.19660E-19
 -1      2903 7.89603E-05-1.55955E-05-2.70322E-05 1.99040E-05-1.07789E-18-1.30750E-18
 -1      2904 6.38430E-05-2.68157E-05-1.50154E-05-3.32609E-05 1.09479E-18-1.81265E-19
 -1      2905 6.29649E-05-3.12045E-05-1.29247E-05-4.47776E-05-1.05879E-22 3.51561E-18
 -1      2906 7.88329E-05-3.95537E-05-1.68634E-05-4.74724E-05 6.87367E-19 3.47771E-18
 -1      2907 2.83209E-05-8.85550E-06-7.79135E-06 1.60539E-05 8.96531E-19-2.10467E-18
 -1      2908 2.77877E-05-7.34248E-06-8.14906E-06 1.82279E-06 5.89489E-19-1.87173E-18
 -1      2909 3.89039E-05-9.92628E-06-1.17266E-05 1.99827E-05 1.10998E-18-1.97613E-18
 -1      2910 9.56047E-05-2.85993E-05-2.87174E-05-8.26224E-07-5.52551E-20-2.33378E-19
 -1      2911 1.39926E-04-5.75597E-05-3.58306E-05 1.67311E-05-1.60365E-18 3.09485E-19
 -1      2912 1.30901E-04-5.87340E-05-3.06230E-05 2.57835E-05-2.06348E-18 7.15425E-19
 -1      2913 7.33979E-05-1.89196E-05-2.30678E-05 2.67805E-05 3.61048E-19-2.28117E-19
 -1      2914 7.58682E-05-2.51607E-05-2.12644E-05 2.94838E-05 1.41931E-18-8.73926E-19
 -1      2915 1.44816E-04-4.11554E-05-4.51597E-05-3.73373E-06-9.81023E-19 8.88114E-19
 -1      2916 1.44302E-04-5.05372E-05-4.01996E-05 5.08876E-06-1.12571E-18 3.72377E-19
 -1      2917 1.39667E-04-5.33712E-05-3.70083E-05 6.54237E-06-1.18492E-18 1.78046E-18
 -1      2918 1.40428E-04-2.65091E-05-4.91398E-05 1.01046E-05-1.36902E-18-2.69462E-18
 -1      2919 1.38363E-04-1.75158E-05-5.25503E-05 9.63641E-06-2.54279E-18-2.48318E-18
 -1      2920 1.43747E-04-4.83155E-05-4.09037E-05-1.00430E-06 1.07991E-18-2.11271E-18
 -1      2921 1.43511E-04-3.95216E-05-4.53292E-05 5.49593E-06 1.70465E-19-2.35729E-18
 -1      2922 1.32904E-04-5.88692E-05-3.13939E-05-2.34856E-05 1.62461E-18 3.48025E-19
 -1      2923 1.40496E-04-5.65850E-05-3.65738E-05-1.31473E-05 1.65643E-18-1.22153E-18
 -1      2924 3.79077E-05-1.35968E-05-9.71618E-06-2.92473E-05-2.06258E-18-5.12455E-20
 -1      2925 4.77983E-05-2.21354E-05-1.06346E-05-3.96551E-05-1.07679E-18 2.12034E-18
 -1      2926 6.01398E-05-2.38825E-05-1.49030E-05-3.80560E-05-6.15687E-19 2.26221E-18
 -1      2927 4.19985E-05-1.05478E-05-1.28639E-05-2.11934E-05-2.10482E-18 5.58406E-19
 -1      2928 9.15688E-05-1.66849E-05-3.21158E-05-5.57587E-06-4.66534E-19-1.31286E-18
 -1      2929 9.20441E-05-1.74356E-05-3.20218E-05-6.44636E-06-5.88103E-19-1.29387E-18
 -1      2930 9.24197E-05-1.81914E-05-3.18016E-05-4.55890E-06-3.12044E-19-1.13621E-18
 -1      2931 9.12911E-05-1.63899E-05-3.20893E-05 3.12312E-08 1.82197E-19-1.40869E-18
 -1      2932 9.01695E-05-1.46004E-05-3.24063E-05-3.83400E-07 1.59508E-19-1.46303E-18
 -1      2933 9.02252E-05-1.46786E-05-3.23962E-05-1.34238E-06 9.15850E-20-1.50575E-18
 -1      2934 5.79512E-05-1.95886E-05-1.58935E-05-2.88069E-05 7.68471E-19-1.77877E-20
 -1      2935 1.25503E-04-5.72842E-05-2.90687E-05-2.64180E-05 4.01494E-19 1.86585E-19
 -1      2936 9.52440E-05-2.62086E-05-2.95496E-05 2.75974E-06 4.89357E-19-4.08307E-19
 -1      2937 9.52725E-05-2.50392E-05-3.00965E-05 3.79161E-06 5.90282E-19-4.47107E-19
 -1      2938 9.49706E-05-2.67125E-05-2.92599E-05 1.73223E-06 4.47100E-19-3.66838E-19
 -1      2939 9.49055E-05-2.84438E-05-2.84880E-05-1.15256E-06 3.36494E-19-8.17039E-20
 -1      2940 1.04167E-04-4.43480E-05-2.47850E-05 3.43912E-05 2.12457E-18-6.09782E-18
 -1      2941 6.30264E-05-1.25306E-05-2.12599E-05 2.11794E-05-2.23114E-19-3.49692E-19
 -1      2942 9.03515E-05-1.48725E-05-3.23684E-05-2.17598E-06 8.84860E-20-1.36720E-18
 -1      2943 9.05349E-05-1.51342E-05-3.23360E-05-3.13044E-06-3.98078E-20-1.39120E-18
 -1      2944 9.17702E-05-1.71562E-05-3.19697E-05-3.12995E-06-9.10838E-20-1.27100E-18
 -1      2945 9.14018E-05-1.65711E-05-3.20611E-05-1.57349E-06 7.58223E-20-1.39366E-18
 -1      2946 1.26394E-04-6.48006E-06-5.18805E-05 2.24018E-07-2.36682E-18-1.22755E-18
 -1      2947 7.08024E-05-2.94506E-05-1.76914E-05 4.01619E-05-5.64018E-19-3.57416E-18
 -1      2948 5.90487E-05-2.49138E-05-1.40726E-05 4.00998E-05-4.44481E-19-3.44954E-18
 -1      2949 5.53636E-05-1.83268E-05-1.53999E-05 3.35319E-05 4.34951E-19-3.98698E-18
 -1      2950 3.40960E-05-8.08369E-06-1.03395E-05-6.48201E-06 9.83485E-20-1.25403E-18
 -1      2951 4.21425E-05-9.28444E-06-1.36206E-05-1.49906E-05 6.09149E-19-8.83773E-19
 -1      2952 3.70311E-05-5.83630E-06-1.30835E-05 4.15879E-07 5.38461E-19-1.41412E-18
 -1      2953 7.77780E-05-3.19038E-05-1.93213E-05 3.40100E-05 1.03846E-18-2.10276E-18
 -1      2954 9.43549E-05-2.14229E-05-3.12606E-05 7.21615E-06 9.77210E-19-4.38293E-19
 -1      2955 9.46156E-05-2.24669E-05-3.09137E-05 5.69060E-06 8.45066E-19-4.26608E-19
 -1      2956 9.32633E-05-2.56577E-05-2.89830E-05 1.26020E-06-1.20888E-19 3.75666E-19
 -1      2957 9.34592E-05-2.57997E-05-2.89971E-05 1.67092E-06 1.02037E-19 1.07345E-18
 -1      2958 9.28664E-05-2.53715E-05-2.89088E-05 1.00241E-06-4.11979E-19 1.67360E-19
 -1      2959 1.30220E-04-1.41066E-05-5.01995E-05 9.88131E-06-2.48414E-18-2.66969E-18
 -1      2960 9.37836E-05-2.60647E-05-2.90380E-05 2.16388E-06 1.53597E-18-2.27433E-19
 -1      2961 9.41875E-05-2.63882E-05-2.90518E-05 2.40346E-06 1.91552E-18-2.00246E-18
 -1      2962 9.32605E-05-2.56257E-05-2.89870E-05 2.09763E-06 1.03682E-18-7.87520E-19
 -1      2963 9.47153E-05-2.74360E-05-2.88371E-05 3.34755E-07 3.61067E-19-2.08893E-19
 -1      2964 9.48955E-05-2.71400E-05-2.90102E-05 9.44923E-07 4.25079E-19-3.12227E-19
 -1      2965 9.52513E-05-2.65324E-05-2.94574E-05 1.67946E-06 3.92436E-19-5.20548E-19
 -1      2966 9.51262E-05-2.74070E-05-2.90322E-05 3.21061E-07 3.47319E-19-5.22983E-19
 -1      2967 4.12946E-05-6.92538E-06-1.41115E-05 4.40252E-06-2.24503E-19-5.34690E-20
 -1      2968 9.55826E-05-2.85308E-05-2.87370E-05-9.76695E-07 4.68645E-19-1.72594E-18
 -1      2969 1.38177E-04-3.56378E-05-4.42055E-05-8.56467E-06-8.14422E-19-3.00697E-20
 -1      2970 1.29694E-04-1.52657E-05-4.94933E-05-1.01791E-05-1.31999E-18-1.09977E-18
 -1      2971 1.39186E-04-5.19255E-05-3.74374E-05-4.19759E-06 2.06801E-18-2.32765E-18
 -1      2972 1.23752E-04-5.68987E-05-2.84780E-05 2.84612E-05-1.10289E-18 7.81917E-19
 -1      2973 9.58134E-05-2.87960E-05-2.87172E-05-1.01867E-06-1.18239E-19-2.14605E-18
 -1      2974 9.56632E-05-2.86004E-05-2.87419E-05-1.13867E-06-5.14890E-20-2.36393E-18
 -1      2975 9.58102E-05-2.87792E-05-2.87323E-05-1.32116E-06 1.04957E-18-2.41779E-18
 -1      2976 9.59454E-05-2.89597E-05-2.87111E-05-1.01713E-06 3.84019E-19-1.31540E-18
 -1      2977 9.41130E-05-4.48782E-05-2.06876E-05 4.24819E-05-4.66292E-19-2.52352E-18
 -1      2978 9.28634E-05-1.86337E-05-3.18096E-05-7.05805E-06-5.87814E-19-1.32150E-18
 -1      2979 9.42424E-05-2.09652E-05-3.14422E-05-7.72672E-06-7.11931E-19-1.06031E-18
 -1      2980 9.47470E-05-2.27738E-05-3.08503E-05-6.03968E-06-5.41140E-19-1.00256E-18
 -1      2981 9.35129E-05-2.00285E-05-3.14748E-05-5.74092E-06-5.56185E-19-1.29359E-18
 -1      2982 9.45888E-05-2.24129E-05-3.09128E-05-5.46902E-06-5.23458E-19-1.02942E-18
 -1      2983 9.47630E-05-2.68715E-05-2.91030E-05 2.67066E-06 1.50997E-18-1.24228E-18
 -1      2984 1.37139E-04-3.30393E-05-4.49555E-05 9.94622E-06-2.12711E-19-3.74706E-18
 -1      2985 9.43479E-05-2.64140E-05-2.91058E-05 2.93889E-06 1.54209E-18-1.23972E-18
 -1      2986 9.42802E-05-2.18589E-05-3.10614E-05 4.96611E-06 7.53441E-19-7.17609E-19
 -1      2987 9.38126E-05-2.09051E-05-3.12474E-05 4.61697E-06 6.87307E-19-9.41850E-19
 -1      2988 1.20156E-04-7.16876E-06-4.88606E-05 3.80742E-06-2.20366E-18-2.57481E-18
 -1      2989 1.19450E-04-6.73573E-06-4.87016E-05-2.89961E-06-1.74573E-18-2.22815E-18
 -1      2990 9.56807E-05-2.68690E-05-2.94759E-05-7.32196E-07-4.22239E-19-8.66884E-19
 -1      2991 9.56567E-05-2.73167E-05-2.92967E-05-2.04988E-07-3.60045E-19-8.70347E-19
 -1      2992 9.56990E-05-2.76994E-05-2.91316E-05 1.77566E-07-4.49940E-19-7.82884E-19
 -1      2993 9.56621E-05-2.79829E-05-2.90099E-05 4.96890E-07-4.60486E-19-9.14904E-19
 -1      2994 9.58957E-05-2.73163E-05-2.93943E-05-1.48224E-07-4.52006E-19-7.99753E-19
 -1      2995 9.56528E-05-2.82177E-05-2.88930E-05 7.23632E-07-3.96869E-19-1.01331E-18
 -1      2996 9.56206E-05-2.83949E-05-2.88131E-05 8.97588E-07-4.10729E-19-1.16724E-18
 -1      2997 9.59332E-05-2.80324E-05-2.91040E-05 4.95175E-07-4.42470E-19-9.19618E-19
 -1      2998 9.55867E-05-2.85317E-05-2.87328E-05 1.01358E-06-2.54233E-19-1.02492E-18
 -1      2999 9.55638E-05-2.86376E-05-2.86832E-05 1.09107E-06-9.46447E-20-9.80584E-19
 -1      3000 9.58960E-05-2.84740E-05-2.88986E-05 8.64971E-07-2.55277E-19-1.01570E-18
 -1      3001 9.55196E-05-2.87090E-05-2.86301E-05 1.13393E-06 3.93204E-20-8.27620E-19
 -1      3002 9.55056E-05-2.87663E-05-2.86021E-05 1.15121E-06-9.82701E-21-4.82473E-19
 -1      3003 9.58232E-05-2.87286E-05-2.87578E-05 1.04478E-06 1.41367E-19-9.67977E-19
 -1      3004 9.54586E-05-2.87940E-05-2.85691E-05 1.14969E-06-2.15003E-19-2.84103E-19
 -1      3005 9.54518E-05-2.88182E-05-2.85561E-05 1.13297E-06-2.20051E-19-2.23099E-19
 -1      3006 9.57365E-05-2.88562E-05-2.86654E-05 1.10190E-06 5.21738E-20-8.73381E-19
 -1      3007 9.54061E-05-2.88170E-05-2.85378E-05 1.10825E-06-2.95571E-19-1.65507E-20
 -1      3008 9.54047E-05-2.88190E-05-2.85353E-05 1.07607E-06-3.91122E-19-1.68471E-19
 -1      3009 9.56474E-05-2.88980E-05-2.86088E-05 1.08734E-06-2.55343E-19-4.25162E-19
 -1      3010 9.53624E-05-2.87994E-05-2.85273E-05 1.04333E-06-3.40831E-19 5.34100E-20
 -1      3011 9.53654E-05-2.87874E-05-2.85318E-05 1.00847E-06-2.73954E-19-5.87168E-20
 -1      3012 9.55620E-05-2.88832E-05-2.85782E-05 1.03840E-06-1.97613E-19 1.41276E-19
 -1      3013 9.53278E-05-2.87571E-05-2.85311E-05 9.78224E-07-4.73680E-19 2.71284E-20
 -1      3014 9.53351E-05-2.87375E-05-2.85400E-05 9.49068E-07-1.63793E-19 2.63484E-20
 -1      3015 9.54839E-05-2.88329E-05-2.85659E-05 9.81625E-07-1.69693E-19 2.71966E-19
 -1      3016 9.53036E-05-2.87031E-05-2.85441E-05 9.28272E-07-1.09886E-19-3.06214E-19
 -1      3017 9.53160E-05-2.86817E-05-2.85557E-05 9.09718E-07 1.04459E-19-4.26501E-19
 -1      3018 9.54158E-05-2.87637E-05-2.85662E-05 9.35236E-07-3.76565E-19-5.14908E-19
 -1      3019 9.52927E-05-2.86492E-05-2.85625E-05 9.02432E-07 4.86644E-20-5.21712E-19
 -1      3020 9.53124E-05-2.86323E-05-2.85754E-05 8.96341E-07-1.93486E-19-2.88731E-19
 -1      3021 9.53615E-05-2.86900E-05-2.85745E-05 9.10939E-07-1.80037E-20-7.44380E-19
 -1      3022 9.53012E-05-2.86086E-05-2.85834E-05 9.04014E-07-5.34583E-19-7.59723E-20
 -1      3023 9.53320E-05-2.86035E-05-2.85962E-05 9.09237E-07-8.23855E-19 2.26381E-19
 -1      3024 9.53269E-05-2.86265E-05-2.85870E-05 9.14963E-07-1.87421E-19-7.87457E-19
 -1      3025 9.53393E-05-2.85974E-05-2.86039E-05 9.30593E-07-8.86317E-19 5.70851E-19
 -1      3026 9.53870E-05-2.86135E-05-2.86157E-05 9.42600E-07-7.61501E-19 9.59840E-19
 -1      3027 9.53221E-05-2.85907E-05-2.86005E-05 9.48327E-07-5.96612E-19 3.66607E-19
 -1      3028 9.54226E-05-2.86367E-05-2.86220E-05 9.73045E-07-5.42542E-19 8.10425E-19
 -1      3029 9.54957E-05-2.86859E-05-2.86315E-05 9.83146E-07-4.35332E-19 8.77907E-19
 -1      3030 9.53630E-05-2.86053E-05-2.86125E-05 1.00626E-06-7.25565E-19 4.83233E-19
 -1      3031 9.55742E-05-2.87534E-05-2.86356E-05 1.01365E-06-2.78816E-19 9.71172E-19
 -1      3032 9.56835E-05-2.88506E-05-2.86420E-05 1.00790E-06-1.12762E-19 1.08043E-18
 -1      3033 9.54741E-05-2.86994E-05-2.86208E-05 1.07659E-06-1.78278E-19 5.00369E-19
 -1      3034 9.58247E-05-2.89806E-05-2.86436E-05 1.02335E-06-4.76234E-19 1.13077E-18
 -1      3035 9.59833E-05-2.91421E-05-2.86466E-05 9.81328E-07-3.70864E-19 9.95670E-19
 -1      3036 9.56894E-05-2.89102E-05-2.86244E-05 1.13704E-06-2.03858E-19 7.37871E-19
 -1      3037 9.62115E-05-2.93545E-05-2.86464E-05 9.58453E-07-1.50941E-19 8.48298E-19
 -1      3038 9.64324E-05-2.95951E-05-2.86465E-05 8.52331E-07 5.22990E-19 5.11207E-19
 -1      3039 9.60531E-05-2.92800E-05-2.86238E-05 1.15140E-06-3.46473E-19 1.17188E-18
 -1      3040 9.67741E-05-2.99067E-05-2.86476E-05 7.57563E-07 8.71930E-19 1.80531E-19
 -1      3041 9.70662E-05-3.02333E-05-2.86471E-05 5.52329E-07 6.05351E-19-2.69530E-20
 -1      3042 9.66168E-05-2.98507E-05-2.86233E-05 1.06497E-06 3.08204E-19 4.30710E-19
 -1      3043 9.75430E-05-3.06492E-05-2.86552E-05 3.40735E-07-1.83341E-19-7.30680E-20
 -1      3044 9.79032E-05-3.10501E-05-2.86593E-05-2.93199E-09-5.08124E-19 7.70422E-20
 -1      3045 9.74298E-05-3.06488E-05-2.86321E-05 8.00369E-07 1.87276E-19-4.17589E-19
 -1      3046 9.85192E-05-3.15496E-05-2.86844E-05-3.85135E-07-1.72735E-19 2.94970E-19
 -1      3047 9.89219E-05-3.19799E-05-2.87017E-05-9.02693E-07 2.70286E-19 7.56752E-19
 -1      3048 9.85208E-05-3.16611E-05-2.86674E-05 2.57157E-07 1.13367E-19 1.84902E-19
 -1      3049 9.96449E-05-3.24987E-05-2.87588E-05-1.50767E-06 2.51121E-19-2.20244E-19
 -1      3050 1.00030E-04-3.28640E-05-2.88016E-05-2.21423E-06 5.38168E-19-3.52625E-19
 -1      3051 9.98660E-05-3.27972E-05-2.87562E-05-6.77798E-07-3.27532E-19 5.24515E-21
 -1      3052 1.00768E-04-3.32761E-05-2.89101E-05-3.06773E-06 1.14403E-18-7.77708E-19
 -1      3053 1.01035E-04-3.34263E-05-2.89929E-05-3.93077E-06 9.18754E-19-8.63609E-19
 -1      3054 1.01346E-04-3.38467E-05-2.89357E-05-2.09822E-06 5.95817E-19-1.10399E-18
 -1      3055 1.01625E-04-3.35421E-05-2.91727E-05-4.98787E-06 4.07487E-19-2.95578E-19
 -1      3056 1.01645E-04-3.32896E-05-2.93084E-05-5.89223E-06 3.48160E-19-2.76747E-19
 -1      3057 1.02707E-04-3.44517E-05-2.92494E-05-4.01001E-06 1.12605E-18-7.84282E-19
 -1      3058 1.01866E-04-3.28923E-05-2.95717E-05-6.97681E-06 5.41001E-19 5.01206E-19
 -1      3059 1.01531E-04-3.20840E-05-2.97633E-05-7.69735E-06 6.05494E-19 9.31285E-19
 -1      3060 1.03557E-04-3.41354E-05-2.97343E-05-6.22123E-06 1.11374E-18 3.46599E-19
 -1      3061 1.01204E-04-3.10395E-05-3.01020E-05-8.47499E-06 3.21441E-19 1.41257E-18
 -1      3062 1.00501E-04-2.96701E-05-3.03352E-05-8.70150E-06 7.54575E-19 1.82007E-18
 -1      3063 1.03479E-04-3.24843E-05-3.03971E-05-8.22436E-06 7.48108E-19 1.54967E-18
 -1      3064 9.96104E-05-2.80617E-05-3.07103E-05-8.72693E-06 6.08612E-19 2.05410E-18
 -1      3065 9.86983E-05-2.63978E-05-3.09465E-05-8.15747E-06 7.86131E-19 2.23929E-18
 -1      3066 1.02250E-04-2.93980E-05-3.11888E-05-9.21136E-06 8.98135E-19 2.62435E-18
 -1      3067 9.75686E-05-2.46811E-05-3.12811E-05-7.08794E-06 9.98871E-19 2.23743E-18
 -1      3068 9.67724E-05-2.32644E-05-3.14613E-05-5.64404E-06 1.38449E-18 2.33886E-18
 -1      3069 1.00175E-04-2.55228E-05-3.19819E-05-8.28483E-06 8.30283E-19 2.95783E-18
 -1      3070 9.59347E-05-2.20958E-05-3.16635E-05-3.53000E-06 1.00749E-18 1.23458E-18
 -1      3071 9.56138E-05-2.15241E-05-3.17317E-05-1.46506E-06-3.66784E-19 1.61909E-18
 -1      3072 9.81301E-05-2.21118E-05-3.25859E-05-5.06815E-06 2.82452E-19 1.04631E-18
 -1      3073 9.55912E-05-2.14982E-05-3.17358E-05 1.07665E-06-1.30493E-18 1.97008E-18
 -1      3074 9.58806E-05-2.20146E-05-3.16725E-05 3.15184E-06-1.18786E-18 1.94501E-18
 -1      3075 9.72531E-05-2.07326E-05-3.28165E-05-2.19278E-07-4.34103E-19 1.70987E-19
 -1      3076 9.66613E-05-2.31063E-05-3.14829E-05 5.29771E-06-1.85715E-18 1.89458E-18
 -1      3077 9.74228E-05-2.44746E-05-3.13081E-05 6.80072E-06-1.83996E-18 8.63770E-19
 -1      3078 9.80392E-05-2.19838E-05-3.26087E-05 4.68840E-06-1.77566E-18 6.96550E-19
 -1      3079 9.85706E-05-2.61907E-05-3.09784E-05 7.95546E-06-1.54383E-18 3.93563E-19
 -1      3080 9.94845E-05-2.78616E-05-3.07429E-05 8.57683E-06-1.81442E-18 5.00433E-19
 -1      3081 1.00019E-04-2.52642E-05-3.20263E-05 8.03969E-06-2.13822E-18 4.94588E-19
 -1      3082 1.00412E-04-2.95004E-05-3.03676E-05 8.61309E-06-1.69084E-18 6.78942E-20
 -1      3083 1.01138E-04-3.09096E-05-3.01312E-05 8.42437E-06-1.68792E-18-5.86041E-19
 -1      3084 1.02156E-04-2.91917E-05-3.12384E-05 9.11290E-06-1.93987E-18 4.38407E-19
 -1      3085 1.01516E-04-3.20094E-05-2.97871E-05 7.67088E-06-8.91396E-19-4.38580E-19
 -1      3086 1.01877E-04-3.28631E-05-2.95902E-05 6.95995E-06-4.90437E-19-2.95249E-19
 -1      3087 1.03476E-04-3.23743E-05-3.04405E-05 8.21619E-06-1.06692E-18-2.24741E-19
 -1      3088 1.01690E-04-3.33039E-05-2.93211E-05 5.86767E-06-4.01901E-19 1.99732E-19
 -1      3089 1.01689E-04-3.35889E-05-2.91809E-05 4.95442E-06-2.86592E-19 4.60100E-19
 -1      3090 1.03641E-04-3.41454E-05-2.97649E-05 6.22070E-06 2.35682E-19 4.94467E-19
 -1      3091 1.01118E-04-3.34999E-05-2.89971E-05 3.87488E-06-4.07244E-19 9.76350E-19
 -1      3092 1.00860E-04-3.33656E-05-2.89114E-05 2.99285E-06-5.49383E-19 5.83265E-19
 -1      3093 1.02844E-04-3.45390E-05-2.92698E-05 3.97614E-06-1.07943E-19 1.97585E-18
 -1      3094 1.00126E-04-3.29609E-05-2.88014E-05 2.11207E-06-9.23900E-19 1.52748E-20
 -1      3095 9.97386E-05-3.25941E-05-2.87581E-05 1.38540E-06-2.41427E-19 3.63396E-19
 -1      3096 1.01506E-04-3.39722E-05-2.89504E-05 2.01143E-06-3.77783E-19 1.53017E-18
 -1      3097 9.90090E-05-3.20656E-05-2.87027E-05 7.57044E-07-4.05641E-20-9.65561E-19
 -1      3098 9.85962E-05-3.16182E-05-2.86876E-05 2.25155E-07-8.85946E-20-1.19734E-18
 -1      3099 1.00023E-04-3.29187E-05-2.87714E-05 5.39433E-07-2.48215E-19 9.26577E-20
 -1      3100 9.79654E-05-3.10937E-05-2.86679E-05-1.71088E-07 3.46645E-19-1.64156E-18
 -1      3101 9.75880E-05-3.06602E-05-2.86690E-05-5.17835E-07 9.30525E-19-2.25582E-18
 -1      3102 9.86560E-05-3.17427E-05-2.86905E-05-4.32587E-07-1.40478E-19-1.59678E-18
 -1      3103 9.70890E-05-3.02054E-05-2.86699E-05-7.28019E-07 1.19475E-18-2.03615E-18
 -1      3104 9.67715E-05-2.98322E-05-2.86787E-05-9.19130E-07 1.43939E-18-1.74047E-18
 -1      3105 9.75282E-05-3.06553E-05-2.86708E-05-9.85811E-07 1.10599E-18-1.20091E-18
 -1      3106 9.64387E-05-2.95083E-05-2.86883E-05-9.64580E-07 1.74085E-18-1.63462E-18
 -1      3107 9.61876E-05-2.92086E-05-2.86991E-05-1.04068E-06 1.81118E-18-5.92561E-19
 -1      3108 9.61333E-05-2.91511E-05-2.87074E-05-1.20299E-06 7.85430E-19-3.42855E-18
 -1      3109 9.67026E-05-2.97872E-05-2.86833E-05-1.19504E-06 2.09945E-18-1.29472E-18
 -1      3110 9.49329E-05-2.34781E-05-3.06192E-05-4.11822E-06-5.62392E-19-1.13595E-18
 -1      3111 9.51579E-05-2.45875E-05-3.02614E-05-2.96548E-06-6.21981E-19-1.11317E-18
 -1      3112 5.23967E-05-7.46502E-06-1.90769E-05 1.34116E-05-7.18125E-20-3.11761E-19
 -1      3113 4.73267E-05-5.50563E-06-1.75944E-05-2.22740E-07-6.77183E-19 8.14528E-19
 -1      3114 6.75557E-05-1.13467E-05-2.38365E-05 1.58146E-05-2.42807E-19 2.93815E-20
 -1      3115 9.52382E-05-2.87347E-05-2.85002E-05-1.15913E-06 2.66793E-19 2.80925E-19
 -1      3116 9.52212E-05-2.87078E-05-2.85044E-05-1.17938E-06 7.33197E-20 2.80504E-19
 -1      3117 9.52526E-05-2.86817E-05-2.85297E-05-1.18295E-06-5.45319E-20 2.21986E-19
 -1      3118 9.52452E-05-2.86255E-05-2.85482E-05-1.17044E-06 1.07224E-19 1.70442E-19
 -1      3119 9.55226E-05-2.87825E-05-2.86055E-05-1.15646E-06 6.47162E-20-1.10676E-19
 -1      3120 9.52342E-05-2.87118E-05-2.85077E-05-1.03355E-06 6.75259E-19 6.12932E-20
 -1      3121 9.52082E-05-2.87221E-05-2.84947E-05-1.06597E-06 5.79196E-19 1.89449E-19
 -1      3122 9.52376E-05-2.86503E-05-2.85352E-05-9.84518E-07 2.29510E-19 6.28073E-19
 -1      3123 9.52097E-05-2.86762E-05-2.85157E-05-1.00503E-06 5.48618E-19 1.39794E-19
 -1      3124 9.53691E-05-2.87533E-05-2.85506E-05-1.03010E-06 5.21585E-19 1.85658E-19
 -1      3125 9.52378E-05-2.85626E-05-2.85726E-05-9.76031E-07 6.31244E-19 5.42266E-19
 -1      3126 9.52117E-05-2.86014E-05-2.85492E-05-9.73553E-07 3.66389E-19 6.47748E-19
 -1      3127 9.53199E-05-2.86595E-05-2.85693E-05-9.94670E-07 2.99884E-19 3.03774E-19
 -1      3128 9.52288E-05-2.84420E-05-2.86201E-05-1.02197E-06-2.37594E-19 5.54482E-19
 -1      3129 9.52059E-05-2.84976E-05-2.85918E-05-9.88832E-07 5.15489E-19 7.31406E-19
 -1      3130 9.52635E-05-2.85316E-05-2.85994E-05-9.98916E-07 3.71099E-19 4.22951E-19
 -1      3131 9.51989E-05-2.82766E-05-2.86777E-05-1.13958E-06-6.23377E-19 3.05544E-19
 -1      3132 9.51832E-05-2.83549E-05-2.86440E-05-1.06611E-06-5.89479E-19 3.87181E-19
 -1      3133 9.51874E-05-2.83602E-05-2.86396E-05-1.05674E-06-2.37114E-19 4.21514E-19
 -1      3134 9.51299E-05-2.80463E-05-2.87462E-05-1.34845E-06-6.51418E-19 4.37950E-19
 -1      3135 9.51280E-05-2.81576E-05-2.87061E-05-1.22305E-06-6.59445E-19 2.42009E-19
 -1      3136 9.50731E-05-2.81291E-05-2.86886E-05-1.18303E-06-7.55355E-19-3.78318E-19
 -1      3137 9.49787E-05-2.76987E-05-2.88300E-05-1.69206E-06-3.30117E-19-1.74388E-19
 -1      3138 9.50089E-05-2.78698E-05-2.87801E-05-1.48717E-06-4.75237E-19 1.10668E-19
 -1      3139 9.48857E-05-2.78026E-05-2.87468E-05-1.40000E-06-4.50052E-19-6.22232E-19
 -1      3140 9.47040E-05-2.72151E-05-2.89197E-05-2.16718E-06 4.24396E-19-4.93110E-19
 -1      3141 9.47853E-05-2.74549E-05-2.88649E-05-1.88457E-06 3.40874E-19-3.37989E-19
 -1      3142 9.45783E-05-2.73401E-05-2.88101E-05-1.71958E-06 4.07940E-19-1.13439E-18
 -1      3143 9.42160E-05-2.65105E-05-2.90133E-05-2.82004E-06-2.76578E-19-3.79387E-19
 -1      3144 9.43901E-05-2.68624E-05-2.89533E-05-2.42814E-06 4.75414E-20-5.89114E-19
 -1      3145 9.40868E-05-2.66966E-05-2.88707E-05-2.14723E-06 3.23698E-19-1.48980E-18
 -1      3146 9.33771E-05-2.54854E-05-2.90952E-05-3.68432E-06 2.66154E-20-6.77897E-19
 -1      3147 9.37095E-05-2.59994E-05-2.90372E-05-3.15790E-06-1.66912E-19-5.12764E-19
 -1      3148 9.32922E-05-2.57773E-05-2.89168E-05-2.69743E-06-1.10710E-19-1.34527E-18
 -1      3149 9.19791E-05-2.40135E-05-2.91315E-05-4.78686E-06-6.04669E-22-4.74417E-19
 -1      3150 9.25716E-05-2.47519E-05-2.90926E-05-4.10219E-06 2.56002E-19-7.22440E-19
 -1      3151 9.20240E-05-2.44710E-05-2.89216E-05-3.36537E-06 1.31402E-19-8.44910E-19
 -1      3152 8.97255E-05-2.19586E-05-2.90550E-05-6.13656E-06 1.74194E-19-3.81990E-19
 -1      3153 9.07214E-05-2.29852E-05-2.90696E-05-5.27755E-06 6.58609E-20-4.37640E-19
 -1      3154 9.00326E-05-2.26432E-05-2.88335E-05-4.12070E-06-1.31129E-20-4.98670E-19
 -1      3155 8.59738E-05-1.90595E-05-2.87014E-05-7.79931E-06 6.27114E-19-7.09460E-20
 -1      3156 8.76935E-05-2.04846E-05-2.88598E-05-6.70510E-06 2.55862E-19 7.48226E-20
 -1      3157 8.68670E-05-2.00935E-05-2.85446E-05-4.91708E-06 9.33672E-20 3.23196E-20
 -1      3158 8.05383E-05-1.56519E-05-2.78435E-05-9.58679E-06 1.88428E-19 7.22195E-20
 -1      3159 8.30350E-05-1.72676E-05-2.82675E-05-8.36626E-06 9.26661E-19 2.01481E-19
 -1      3160 8.20690E-05-1.67727E-05-2.78660E-05-5.59280E-06 3.29167E-19 3.61253E-19
 -1      3161 7.27704E-05-1.21080E-05-2.60023E-05-1.16535E-05-5.62403E-19 3.08108E-20
 -1      3162 7.62772E-05-1.36294E-05-2.69539E-05-1.01990E-05-3.12373E-19 1.62716E-19
 -1      3163 7.51577E-05-1.28988E-05-2.64893E-05-6.04640E-06 1.43408E-19 7.49161E-19
 -1      3164 6.24285E-05-9.97823E-06-2.23391E-05-1.44564E-05-2.99688E-19-4.71109E-19
 -1      3165 6.67068E-05-1.03142E-05-2.42518E-05-1.25535E-05-7.40095E-20-6.18652E-19
 -1      3166 6.52544E-05-8.88217E-06-2.37905E-05-6.35892E-06-3.37331E-19-3.49123E-19
 -1      3167 5.68787E-05-1.32472E-05-1.80260E-05-2.25559E-05 6.25375E-19-4.34740E-19
 -1      3168 8.62444E-05-1.92596E-05-2.87791E-05 8.70379E-06-1.63752E-18-1.27195E-18
 -1      3169 8.44029E-05-1.78377E-05-2.85525E-05 1.00311E-05-2.18505E-18-5.29912E-19
 -1      3170 9.29884E-05-4.38478E-05-2.06624E-05-4.18310E-05 1.66230E-19 2.31010E-18
 -1      3171 8.99188E-05-2.20968E-05-2.91145E-05 6.79599E-06-8.02781E-19-1.39365E-18
 -1      3172 8.87111E-05-2.09106E-05-2.90693E-05 7.93617E-06-1.50481E-18-1.80144E-18
 -1      3173 8.51911E-05-1.87426E-05-2.83955E-05 6.36014E-06-1.36142E-18-6.02485E-19
 -1      3174 1.35011E-04-5.38906E-05-3.45253E-05-6.74199E-06 1.86674E-18-2.06221E-18
 -1      3175 1.35597E-04-4.76395E-05-3.81383E-05 2.44204E-06 1.88687E-18-3.32609E-18
 -1      3176 9.52331E-05-2.87407E-05-2.84951E-05-1.09906E-06 5.30221E-19 3.13818E-19
 -1      3177 9.52103E-05-2.87350E-05-2.84893E-05-1.13252E-06 4.80496E-19 2.14529E-19
 -1      3178 9.54171E-05-2.88104E-05-2.85472E-05-1.08597E-06 7.32608E-19 3.75318E-19
 -1      3179 8.08965E-05-1.59373E-05-2.79417E-05 1.08340E-05-2.77958E-18 2.52590E-19
 -1      3180 7.84530E-05-1.44748E-05-2.74281E-05 1.23886E-05-1.92812E-18-1.46834E-19
 -1      3181 7.94520E-05-1.51055E-05-2.74305E-05 7.35270E-06-1.70599E-18-5.56759E-19
 -1      3182 9.21152E-05-2.40824E-05-2.91872E-05 5.29654E-06 3.23371E-19-1.23659E-19
 -1      3183 9.14490E-05-2.32779E-05-2.92196E-05 6.17064E-06-1.23214E-19-1.16194E-18
 -1      3184 8.90387E-05-2.16332E-05-2.88339E-05 5.36130E-06-3.87440E-19-1.37375E-18
 -1      3185 9.34507E-05-2.54680E-05-2.91596E-05 4.04146E-06-3.41408E-19-2.13320E-18
 -1      3186 9.30760E-05-2.48978E-05-2.92147E-05 4.73968E-06 5.75658E-19-1.20967E-18
 -1      3187 9.14384E-05-2.36830E-05-2.90032E-05 4.40194E-06 5.28180E-19-2.22404E-18
 -1      3188 9.40844E-05-2.61573E-05-2.91174E-05 3.25869E-06-2.30297E-19-1.27877E-18
 -1      3189 9.38682E-05-2.58187E-05-2.91536E-05 3.72041E-06-1.44847E-18-2.36092E-18
 -1      3190 9.27210E-05-2.49873E-05-2.90484E-05 3.59308E-06-4.96689E-19-3.54789E-18
 -1      3191 9.34273E-05-2.56482E-05-2.90401E-05 2.89256E-06 4.32519E-19-2.11259E-18
 -1      3192 1.01431E-04-4.74026E-05-2.34302E-05 3.81205E-05-2.99056E-19-6.85938E-19
 -1      3193 8.76502E-05-3.87015E-05-2.03994E-05 4.01410E-05-3.65230E-19-2.27804E-18
 -1      3194 1.33539E-04-3.70401E-05-4.15026E-05 9.65323E-06 1.15747E-18-4.63316E-18
 -1      3195 1.30112E-04-2.69328E-05-4.47882E-05 1.24540E-05-1.05228E-18-4.77298E-18
 -1      3196 9.23743E-05-1.83357E-05-3.17460E-05 1.80957E-06 3.37352E-19-1.34390E-18
 -1      3197 9.22546E-05-1.81325E-05-3.17781E-05 1.05683E-06 2.41640E-19-1.33447E-18
 -1      3198 9.40522E-05-2.13097E-05-3.11994E-05-5.27125E-06-5.49024E-19-1.34675E-18
 -1      3199 9.45049E-05-2.24285E-05-3.08901E-05-4.61158E-06-5.64580E-19-1.21770E-18
 -1      3200 9.34367E-05-2.00823E-05-3.14294E-05-4.88399E-06-5.05653E-19-1.27009E-18
 -1      3201 1.26180E-04-1.70710E-05-4.69937E-05 1.20529E-05-1.52593E-18-4.45375E-18
 -1      3202 1.23042E-04-1.09139E-05-4.86138E-05 8.46024E-06-1.92361E-18-3.61503E-18
 -1      3203 9.41111E-05-2.70663E-05-2.87198E-05-2.30189E-06-1.25588E-18-4.44462E-19
 -1      3204 9.36843E-05-2.66953E-05-2.87229E-05-2.09602E-06-7.58042E-19 6.70944E-19
 -1      3205 9.59118E-05-2.88743E-05-2.87246E-05-1.67803E-06 5.23735E-19-1.80047E-18
 -1      3206 9.57721E-05-2.87258E-05-2.87328E-05-1.88226E-06 4.10508E-19-1.55222E-18
 -1      3207 9.49396E-05-2.78841E-05-2.87262E-05-2.38626E-06-4.96865E-19 1.93600E-19
 -1      3208 9.45657E-05-2.75528E-05-2.87281E-05-2.37341E-06-9.96210E-19 5.07977E-19
 -1      3209 9.43111E-05-2.74671E-05-2.86547E-05-2.71342E-06-1.21508E-18-1.72681E-19
 -1      3210 9.52800E-05-2.85598E-05-2.85946E-05-1.12663E-06 2.86402E-19-1.04689E-19
 -1      3211 9.52879E-05-2.84590E-05-2.86355E-05-1.05141E-06 1.16105E-19-2.55743E-19
 -1      3212 9.55837E-05-2.86612E-05-2.86844E-05-1.10028E-06-6.06358E-20-4.95679E-20
 -1      3213 9.53215E-05-2.83378E-05-2.87089E-05-9.30599E-07 8.98018E-21-3.00709E-19
 -1      3214 9.53498E-05-2.81784E-05-2.87791E-05-7.57580E-07 2.26177E-19-2.47322E-19
 -1      3215 9.56446E-05-2.84240E-05-2.88130E-05-9.11830E-07 7.33515E-21-3.57612E-19
 -1      3216 9.52160E-05-2.42902E-05-3.03988E-05 4.25349E-06 6.80917E-19-3.90747E-19
 -1      3217 9.46460E-05-2.27426E-05-3.08030E-05 4.75912E-06 7.10208E-19-4.38424E-19
 -1      3218 9.49374E-05-2.36075E-05-3.05650E-05 3.66536E-06 6.90684E-19-6.19468E-19
 -1      3219 9.52469E-05-2.52349E-05-3.00185E-05 2.95833E-06 5.50325E-19-5.31901E-19
 -1      3220 9.55666E-05-2.85115E-05-2.87297E-05-2.12763E-06 1.01178E-19-2.55091E-18
 -1      3221 9.52979E-05-2.82571E-05-2.87344E-05-2.25745E-06 1.44193E-19-1.83286E-18
 -1      3222 9.52295E-05-2.83376E-05-2.86787E-05-2.61748E-06-1.06224E-18-5.42711E-19
 -1      3223 9.58684E-05-2.89315E-05-2.86964E-05-2.19065E-06 1.91170E-19-1.76558E-18
 -1      3224 1.31475E-04-3.04019E-05-4.38044E-05-1.20282E-05 1.00268E-19-5.41625E-19
 -1      3225 1.36342E-04-4.07973E-05-4.09619E-05-7.70132E-06-5.20872E-19 6.69315E-19
 -1      3226 9.53724E-05-2.79713E-05-2.88899E-05-5.18138E-07 3.12537E-19-3.86696E-19
 -1      3227 9.54245E-05-2.77208E-05-2.90031E-05-1.93373E-07 3.09080E-19-5.17036E-19
 -1      3228 9.56915E-05-2.80209E-05-2.90065E-05-5.20991E-07 1.17680E-19-2.81576E-19
 -1      3229 9.55027E-05-2.55627E-05-2.99579E-05-2.13816E-06-5.43170E-19-9.55688E-19
 -1      3230 9.55330E-05-2.62578E-05-2.97026E-05-1.32662E-06-4.63200E-19-8.70870E-19
 -1      3231 9.57037E-05-2.61852E-05-2.97941E-05-1.15840E-06-3.97888E-19-8.42532E-19
 -1      3232 7.03119E-05-1.14416E-05-2.51919E-05 1.36041E-05-7.51543E-19-2.11216E-19
 -1      3233 4.54365E-05-1.06945E-05-1.45478E-05 2.31417E-05 6.91708E-19-2.85344E-18
 -1      3234 4.06224E-05-6.51098E-06-1.38599E-05 1.27655E-05 8.80530E-19-1.24800E-18
 -1      3235 1.21506E-04-1.12051E-05-4.78280E-05-8.49260E-06-1.26229E-18-1.44281E-18
 -1      3236 1.25097E-04-1.90389E-05-4.57651E-05-1.21567E-05-6.70003E-19-8.09922E-19
 -1      3237 1.36744E-04-4.97287E-05-3.78822E-05-6.41177E-08-7.33425E-19 1.50449E-18
 -1      3238 1.35009E-04-5.44254E-05-3.42527E-05 8.39060E-06-8.28147E-19 2.03950E-18
 -1      3239 1.18809E-04-5.42085E-05-2.71762E-05-2.82932E-05-1.82641E-20-1.01970E-18
 -1      3240 1.28580E-04-5.71412E-05-3.11428E-05-1.87254E-05 1.44880E-18-2.86406E-18
 -1      3241 1.27967E-04-5.73060E-05-3.07719E-05 2.04074E-05-8.22098E-19 1.96700E-18
 -1      3242 1.16682E-04-5.35682E-05-2.66065E-05 3.00958E-05-4.12029E-19 6.13689E-19
 -1      3243 5.48464E-05-9.60471E-06-1.91778E-05-1.66922E-05 1.65727E-19-8.60109E-19
 -1      3244 8.50900E-05-3.69624E-05-2.01723E-05-3.94818E-05 4.75821E-19 2.33540E-18
 -1      3245 1.02934E-04-4.81351E-05-2.37779E-05-3.72225E-05 7.23684E-20 1.42116E-18
 -1      3246 9.21928E-05-1.80299E-05-3.17966E-05 4.05542E-07 1.63426E-19-1.35511E-18
 -1      3247 9.21890E-05-1.80175E-05-3.17972E-05-3.55295E-07 1.38310E-19-1.38041E-18
 -1      3248 9.31476E-05-1.96159E-05-3.14959E-05 6.24688E-07 2.06015E-19-1.30029E-18
 -1      3249 1.16199E-04-1.11369E-05-4.53783E-05-5.47529E-06-1.27960E-18-2.99143E-18
 -1      3250 9.52413E-05-2.44869E-05-3.03278E-05-2.61486E-06-4.91040E-19-9.53515E-19
 -1      3251 8.10447E-05-3.26484E-05-2.04250E-05 3.67889E-05-2.98314E-19-2.44573E-18
 -1      3252 4.34068E-05-6.34789E-06-1.55404E-05 4.84520E-06 5.32665E-19-1.11025E-18
 -1      3253 5.66366E-05-7.51660E-06-2.08355E-05-1.45256E-06-1.38847E-18 1.07891E-18
 -1      3254 4.63412E-05-6.69418E-06-1.66427E-05-9.97549E-06-1.15869E-18 1.27219E-18
 -1      3255 5.01493E-05-1.09486E-05-1.65265E-05-2.15755E-05-1.87414E-18 1.30157E-18
 -1      3256 9.54673E-05-2.88240E-05-2.85634E-05-1.13773E-06 5.06565E-19-1.33316E-20
 -1      3257 7.37583E-05-2.94958E-05-1.88871E-05-3.87657E-05-2.95932E-19 2.71156E-18
 -1      3258 8.56849E-05-3.39301E-05-2.18315E-05-3.43007E-05-3.69531E-19 2.16200E-18
 -1      3259 5.10367E-05-6.01986E-06-1.86411E-05-7.38700E-06 6.83185E-20-9.82399E-19
 -1      3260 1.29034E-04-4.51627E-05-3.60263E-05 4.11281E-06 1.55875E-18-3.21986E-18
 -1      3261 1.32528E-04-4.24393E-05-3.87805E-05 7.54474E-06 1.61174E-18-3.67395E-18
 -1      3262 1.26411E-04-3.59426E-05-3.89254E-05 1.09419E-05 9.67470E-19-5.09220E-18
 -1      3263 1.29108E-04-5.34811E-05-3.23455E-05-1.03554E-05 1.16149E-18-2.59033E-18
 -1      3264 9.21776E-05-2.49599E-05-2.88174E-05 6.15604E-07-7.10996E-19-1.77646E-19
 -1      3265 9.22938E-05-2.49491E-05-2.88556E-05 1.27318E-06 1.70165E-19 1.48959E-18
 -1      3266 1.09667E-04-4.88513E-05-2.58898E-05 3.00829E-05-8.06799E-20 1.25606E-19
 -1      3267 9.29340E-05-2.53555E-05-2.89783E-05 2.36050E-06 1.00680E-19-5.93002E-19
 -1      3268 1.24135E-04-2.29740E-05-4.36433E-05 1.23379E-05-2.67980E-19-5.94707E-18
 -1      3269 9.24739E-05-2.53789E-05-2.87494E-05-7.48628E-07-1.49429E-18-1.09594E-18
 -1      3270 9.22885E-05-2.51845E-05-2.87729E-05-1.54316E-07-9.11903E-19-4.83490E-19
 -1      3271 9.17678E-05-2.47257E-05-2.87143E-05 4.92939E-08-1.51721E-18-7.01679E-19
 -1      3272 9.44770E-05-2.23712E-05-3.09027E-05-3.98941E-06-5.43339E-19-1.27704E-18
 -1      3273 1.32767E-04-4.42502E-05-3.80334E-05-5.28946E-06-2.91379E-19 1.08484E-18
 -1      3274 9.32057E-05-2.61594E-05-2.87223E-05-1.76315E-06-5.85822E-19 9.73481E-19
 -1      3275 9.28353E-05-2.58324E-05-2.87323E-05-1.34253E-06-7.42331E-19-1.51875E-18
 -1      3276 9.22884E-05-2.54157E-05-2.86515E-05-1.38314E-06-8.78569E-19-1.02476E-18
 -1      3277 9.32461E-05-2.64259E-05-2.86387E-05-2.32892E-06-1.19504E-18 4.99059E-19
 -1      3278 9.54147E-05-2.73751E-05-2.91666E-05 2.20877E-07 2.63932E-19-6.91119E-19
 -1      3279 9.54731E-05-2.69694E-05-2.93438E-05 7.78193E-07 2.28998E-19-6.95002E-19
 -1      3280 9.56977E-05-2.73659E-05-2.92906E-05 1.73087E-07 2.05698E-19-4.73966E-19
 -1      3281 6.81188E-05-1.01923E-05-2.46496E-05 7.94369E-06-1.34125E-18 1.05279E-18
 -1      3282 1.10237E-04-4.89711E-05-2.60872E-05-2.93164E-05 4.81432E-19-1.28907E-18
 -1      3283 9.34333E-05-2.02081E-05-3.14069E-05 4.24152E-06 6.15182E-19-9.90851E-19
 -1      3284 9.30754E-05-1.95474E-05-3.15208E-05 3.64925E-06 5.64605E-19-9.35488E-19
 -1      3285 9.43398E-05-2.19782E-05-3.09916E-05 3.62168E-06 6.00456E-19-9.13248E-19
 -1      3286 6.29694E-05-1.91346E-05-1.88212E-05 2.97830E-05-2.28328E-19-4.65053E-18
 -1      3287 5.41039E-05-1.45922E-05-1.64146E-05 2.71272E-05 5.34795E-19-4.38493E-18
 -1      3288 5.44180E-05-1.14907E-05-1.82016E-05 2.07495E-05 3.27325E-19-3.56516E-18
 -1      3289 9.27875E-05-1.90476E-05-3.16220E-05 3.12198E-06 5.23941E-19-9.80995E-19
 -1      3290 9.25492E-05-1.86319E-05-3.16897E-05 2.42067E-06 3.80599E-19-1.21186E-18
 -1      3291 9.33607E-05-2.00055E-05-3.14193E-05 1.80010E-06 3.57637E-19-1.21024E-18
 -1      3292 9.37717E-05-2.07885E-05-3.12581E-05 2.84172E-06 4.87588E-19-8.93079E-19
 -1      3293 1.25666E-04-2.52322E-05-4.33770E-05-1.30827E-05-2.46381E-19-1.03783E-18
 -1      3294 1.24739E-04-3.01655E-05-4.05346E-05-1.23088E-05 4.56339E-20-4.51349E-19
 -1      3295 1.18330E-04-2.02329E-05-4.22148E-05-1.22462E-05-3.14249E-19-1.51026E-18
 -1      3296 1.17163E-04-1.07769E-05-4.59150E-05 5.80890E-06-8.61856E-19-4.28459E-18
 -1      3297 9.26729E-05-1.87797E-05-3.16721E-05-3.74104E-06-2.23075E-19-9.15263E-19
 -1      3298 9.30170E-05-1.94165E-05-3.15649E-05-4.34705E-06-4.08505E-19-9.76924E-19
 -1      3299 9.36741E-05-2.05954E-05-3.13052E-05-4.01190E-06-3.82880E-19-1.02061E-18
 -1      3300 9.21644E-05-1.79393E-05-3.18206E-05-2.38508E-06 3.05490E-20-1.27377E-18
 -1      3301 9.23910E-05-1.83225E-05-3.17579E-05-3.10383E-06-8.62758E-20-1.17057E-18
 -1      3302 9.30624E-05-1.94594E-05-3.15290E-05-2.97118E-06-1.16874E-19-9.62640E-19
 -1      3303 1.28833E-04-5.39776E-05-3.20487E-05 1.21289E-05-4.11129E-19 2.38374E-18
 -1      3304 9.60969E-05-2.90929E-05-2.87103E-05-1.37339E-06 1.43643E-19-3.34246E-18
 -1      3305 9.59943E-05-2.89773E-05-2.87213E-05-1.52376E-06 6.09007E-19-2.69432E-18
 -1      3306 9.61861E-05-2.92347E-05-2.86997E-05-1.75588E-06-4.82503E-19-1.99767E-18
 -1      3307 9.63479E-05-2.93950E-05-2.86965E-05-1.40014E-06 7.66546E-19-1.66755E-18
 -1      3308 6.10281E-05-2.04879E-05-1.70266E-05-3.31736E-05-1.76606E-18 1.41793E-18
 -1      3309 9.20712E-05-1.78152E-05-3.18370E-05-9.70666E-07 9.91366E-20-1.38482E-18
 -1      3310 9.21795E-05-1.79843E-05-3.18077E-05-1.72360E-06 7.24356E-20-1.38235E-18
 -1      3311 9.28432E-05-1.90696E-05-3.16012E-05-1.75345E-06 9.18985E-20-1.24279E-18
 -1      3312 9.29871E-05-1.93251E-05-3.15515E-05-5.54458E-07 9.29132E-20-1.38323E-18
 -1      3313 6.32277E-05-1.62457E-05-1.98500E-05-2.35355E-05-1.06054E-18 1.55412E-18
 -1      3314 9.61607E-05-2.78045E-05-2.92880E-05 2.65306E-07-4.87129E-19-7.63516E-19
 -1      3315 9.61548E-05-2.81191E-05-2.91626E-05 5.22413E-07-4.71772E-19-9.33831E-19
 -1      3316 9.61605E-05-2.83766E-05-2.90447E-05 6.88839E-07-2.94645E-19-9.95821E-19
 -1      3317 9.61287E-05-2.85688E-05-2.89565E-05 8.30533E-07-5.58820E-20-8.78526E-19
 -1      3318 9.63493E-05-2.81842E-05-2.92151E-05 5.00904E-07-3.56245E-19-7.37288E-19
 -1      3319 9.60909E-05-2.87156E-05-2.88713E-05 9.13804E-07-4.00853E-20-9.00662E-19
 -1      3320 9.60478E-05-2.88228E-05-2.88113E-05 9.77389E-07 2.38742E-20-1.03824E-18
 -1      3321 9.63190E-05-2.86425E-05-2.90062E-05 7.69346E-07-1.75336E-19-7.97355E-19
 -1      3322 9.59863E-05-2.88933E-05-2.87518E-05 1.00578E-06 3.45330E-20-1.29537E-18
 -1      3323 9.59400E-05-2.89421E-05-2.87129E-05 1.02049E-06-4.62669E-20-1.14273E-18
 -1      3324 9.62222E-05-2.88958E-05-2.88563E-05 8.97475E-07-6.78765E-20-1.13831E-18
 -1      3325 9.58672E-05-2.89608E-05-2.86730E-05 1.01638E-06-9.39816E-20-9.45654E-19
 -1      3326 9.58217E-05-2.89699E-05-2.86497E-05 1.00411E-06-5.53340E-20-7.77259E-19
 -1      3327 9.60906E-05-2.90068E-05-2.87522E-05 9.35609E-07 1.81512E-20-1.21401E-18
 -1      3328 9.57454E-05-2.89543E-05-2.86244E-05 9.84404E-07-1.92665E-20-4.99052E-19
 -1      3329 9.57030E-05-2.89372E-05-2.86124E-05 9.61065E-07 2.44337E-20-3.77149E-19
 -1      3330 9.59439E-05-2.90210E-05-2.86830E-05 9.23084E-07 1.69661E-20-9.02068E-19
 -1      3331 9.56278E-05-2.88999E-05-2.85979E-05 9.38200E-07-2.81228E-19-3.64209E-19
 -1      3332 9.55900E-05-2.88670E-05-2.85939E-05 9.15008E-07-2.63543E-19-4.76921E-19
 -1      3333 9.57944E-05-2.89714E-05-2.86399E-05 8.89499E-07-4.69597E-20-6.33861E-19
 -1      3334 9.55188E-05-2.88176E-05-2.85869E-05 8.97969E-07-4.22986E-19-7.48120E-19
 -1      3335 9.54870E-05-2.87770E-05-2.85881E-05 8.82555E-07-3.57077E-19-7.08954E-19
 -1      3336 9.56495E-05-2.88825E-05-2.86157E-05 8.56619E-07-4.56515E-19-1.04185E-18
 -1      3337 9.54227E-05-2.87237E-05-2.85861E-05 8.77749E-07-1.73320E-19-5.90362E-19
 -1      3338 9.53992E-05-2.86832E-05-2.85906E-05 8.74875E-07-1.84473E-19-8.88262E-19
 -1      3339 9.55150E-05-2.87738E-05-2.86045E-05 8.40309E-07-6.58819E-20-7.39593E-19
 -1      3340 9.53451E-05-2.86341E-05-2.85914E-05 8.86672E-07-1.53530E-19-6.83803E-19
 -1      3341 9.53338E-05-2.86021E-05-2.85972E-05 8.98593E-07 1.22581E-19-1.85469E-19
 -1      3342 9.53969E-05-2.86629E-05-2.86014E-05 8.51977E-07-1.28131E-19-8.65416E-19
 -1      3343 9.52956E-05-2.85666E-05-2.85989E-05 9.29613E-07-1.73020E-19-1.64278E-19
 -1      3344 9.53030E-05-2.85535E-05-2.86046E-05 9.56099E-07-7.03777E-19 2.67728E-19
 -1      3345 9.53041E-05-2.85688E-05-2.86022E-05 8.99464E-07 2.11481E-19-3.36272E-19
 -1      3346 9.52900E-05-2.85439E-05-2.86057E-05 1.00709E-06-8.49435E-19 4.96008E-19
 -1      3347 9.53260E-05-2.85635E-05-2.86100E-05 1.04497E-06-6.36548E-19 5.41343E-19
 -1      3348 9.52511E-05-2.85146E-05-2.86033E-05 9.87411E-07-6.54107E-19 5.58119E-20
 -1      3349 9.53531E-05-2.85963E-05-2.86093E-05 1.11409E-06-2.58531E-19 4.54481E-19
 -1      3350 9.54325E-05-2.86664E-05-2.86114E-05 1.15621E-06 2.79049E-19 5.14267E-19
 -1      3351 9.52616E-05-2.85309E-05-2.86018E-05 1.11657E-06-3.35977E-19 7.34456E-19
 -1      3352 9.55214E-05-2.87634E-05-2.86083E-05 1.23751E-06-2.35273E-19 6.13031E-19
 -1      3353 9.56643E-05-2.89062E-05-2.86079E-05 1.27123E-06-2.73609E-19 4.77123E-19
 -1      3354 9.53717E-05-2.86585E-05-2.85960E-05 1.28173E-06-9.27812E-20 7.57923E-19
 -1      3355 9.58455E-05-2.90938E-05-2.86030E-05 1.35211E-06-1.59957E-19 1.08858E-19
 -1      3356 9.60764E-05-2.93346E-05-2.86013E-05 1.35704E-06-3.67944E-19 1.95626E-19
 -1      3357 9.56332E-05-2.89498E-05-2.85858E-05 1.46784E-06-3.82939E-19-3.59354E-19
 -1      3358 9.63888E-05-2.96419E-05-2.85974E-05 1.41448E-06-1.67356E-19 2.46153E-19
 -1      3359 9.67345E-05-3.00039E-05-2.85976E-05 1.35992E-06 3.70315E-19-3.16633E-19
 -1      3360 9.61151E-05-2.94662E-05-2.85746E-05 1.64365E-06-2.13885E-19-2.21535E-19
 -1      3361 9.72221E-05-3.04565E-05-2.86006E-05 1.35525E-06 4.28201E-19-4.90385E-19
 -1      3362 9.77043E-05-3.09517E-05-2.86094E-05 1.19797E-06 1.93413E-19-2.51102E-19
 -1      3363 9.69012E-05-3.02707E-05-2.85710E-05 1.75217E-06 1.22699E-19 6.75346E-20
 -1      3364 9.84073E-05-3.15586E-05-2.86305E-05 1.07148E-06 2.70080E-19-2.09673E-19
 -1      3365 9.90300E-05-3.21707E-05-2.86594E-05 7.56036E-07 9.74526E-20-4.41482E-20
 -1      3366 9.80780E-05-3.14073E-05-2.85928E-05 1.69865E-06 3.56107E-19-3.57871E-19
 -1      3367 9.99652E-05-3.29025E-05-2.87167E-05 4.25452E-07-6.53145E-19 2.02745E-19
 -1      3368 1.00695E-04-3.35626E-05-2.87828E-05-1.08020E-07-4.23654E-19-2.77634E-19
 -1      3369 9.97076E-05-3.28645E-05-2.86702E-05 1.34021E-06 2.07095E-20-4.52555E-19
 -1      3370 1.01826E-04-3.43222E-05-2.89024E-05-7.38526E-07-3.80778E-20-6.50485E-19
 -1      3371 1.02569E-04-3.48804E-05-2.90285E-05-1.53364E-06 5.15067E-19-6.00115E-19
 -1      3372 1.01779E-04-3.45168E-05-2.88498E-05 4.89198E-07-3.23987E-19-3.24503E-19
 -1      3373 1.03761E-04-3.54688E-05-2.92436E-05-2.53743E-06 1.36091E-18-8.64717E-19
 -1      3374 1.04350E-04-3.56792E-05-2.94541E-05-3.57632E-06 1.50800E-18-7.91443E-19
 -1      3375 1.04130E-04-3.60450E-05-2.91953E-05-1.05121E-06 8.58890E-19-8.61823E-19
 -1      3376 1.05342E-04-3.57899E-05-2.97982E-05-4.93175E-06 1.44709E-18-9.16789E-20
 -1      3377 1.05552E-04-3.53377E-05-3.01111E-05-6.07214E-06 1.66909E-18 6.55608E-19
 -1      3378 1.06374E-04-3.68847E-05-2.97806E-05-3.37759E-06 1.88259E-18-4.79664E-19
 -1      3379 1.05956E-04-3.46024E-05-3.06005E-05-7.51947E-06 1.38220E-18 3.84712E-19
 -1      3380 1.05604E-04-3.32590E-05-3.10089E-05-8.41780E-06 1.43422E-18 1.24346E-18
 -1      3381 1.07846E-04-3.62266E-05-3.06670E-05-6.28929E-06 1.65189E-18-1.38435E-19
 -1      3382 1.05181E-04-3.15365E-05-3.16142E-05-9.43936E-06 1.00616E-18 7.39897E-19
 -1      3383 1.04256E-04-2.93356E-05-3.20763E-05-9.65201E-06 1.03625E-18 1.05609E-18
 -1      3384 1.07881E-04-3.35147E-05-3.18435E-05-8.95876E-06 1.39489E-18-4.15714E-19
 -1      3385 1.02932E-04-2.67809E-05-3.27112E-05-9.45520E-06 1.05429E-18 1.22995E-18
 -1      3386 1.01787E-04-2.43654E-05-3.31302E-05-8.46447E-06 7.57534E-19 1.41040E-18
 -1      3387 1.06081E-04-2.85279E-05-3.31963E-05-1.01648E-05 9.29016E-19-5.50249E-20
 -1      3388 1.00386E-04-2.20599E-05-3.36282E-05-6.76990E-06-8.26119E-19 9.67052E-19
 -1      3389 9.95065E-05-2.02970E-05-3.38917E-05-4.70461E-06-9.81118E-19-2.00366E-19
 -1      3390 1.03384E-04-2.31771E-05-3.43878E-05-8.27367E-06-3.93228E-19-8.28114E-19
 -1      3391 9.87304E-05-1.92937E-05-3.40932E-05-1.44111E-06-9.09237E-21-5.68324E-19
 -1      3392 9.88022E-05-1.92913E-05-3.40939E-05 1.09276E-06-1.62493E-19-4.00968E-19
 -1      3393 1.00886E-04-1.85286E-05-3.52573E-05-3.49912E-06-5.88701E-19-4.58688E-19
 -1      3394 9.94163E-05-2.01882E-05-3.39188E-05 4.15224E-06-1.25136E-18-2.49726E-20
 -1      3395 1.00117E-04-2.17621E-05-3.36805E-05 6.25788E-06-1.91911E-18-2.37755E-19
 -1      3396 1.01123E-04-1.88153E-05-3.52517E-05 2.98454E-06-4.25591E-19-6.70566E-19
 -1      3397 1.01640E-04-2.40226E-05-3.32008E-05 8.27754E-06-1.68566E-18 4.79627E-19
 -1      3398 1.02792E-04-2.64941E-05-3.27828E-05 9.32020E-06-1.75362E-18 9.56765E-19
 -1      3399 1.02979E-04-2.23919E-05-3.44839E-05 8.17625E-06-1.28117E-18-4.87289E-19
 -1      3400 1.04149E-04-2.90550E-05-3.21477E-05 9.54716E-06-2.12162E-18 8.55295E-19
 -1      3401 1.05102E-04-3.12905E-05-3.16869E-05 9.42373E-06-1.88722E-18 7.23727E-19
 -1      3402 1.05999E-04-2.82436E-05-3.32669E-05 1.01097E-05-1.96758E-18 7.74995E-19
 -1      3403 1.05632E-04-3.31266E-05-3.10733E-05 8.45046E-06-1.32629E-18 1.58343E-18
 -1      3404 1.06036E-04-3.45511E-05-3.06571E-05 7.56086E-06-5.86794E-19 1.53036E-18
 -1      3405 1.07897E-04-3.32852E-05-3.19312E-05 9.03590E-06-1.34908E-18 2.69850E-18
 -1      3406 1.05673E-04-3.53452E-05-3.01593E-05 6.10185E-06-9.95851E-20 1.29725E-18
 -1      3407 1.05498E-04-3.58522E-05-2.98400E-05 4.95398E-06 5.58343E-19 1.26224E-18
 -1      3408 1.08003E-04-3.62304E-05-3.07338E-05 6.34908E-06-1.40090E-19 2.12850E-18
 -1      3409 1.04545E-04-3.57928E-05-2.94893E-05 3.57079E-06 1.29907E-19 9.73702E-19
 -1      3410 1.03977E-04-3.56152E-05-2.92744E-05 2.50529E-06-1.56786E-19 1.39712E-18
 -1      3411 1.06613E-04-3.69989E-05-2.98327E-05 3.40936E-06-1.21023E-19 5.03186E-19
 -1      3412 1.02795E-04-3.50440E-05-2.90557E-05 1.46266E-06-6.13695E-19 9.79857E-19
 -1      3413 1.02056E-04-3.44925E-05-2.89283E-05 6.39898E-07-8.60335E-19 9.63221E-19
 -1      3414 1.04418E-04-3.62377E-05-2.92365E-05 1.00618E-06-8.38891E-19-4.07508E-20
 -1      3415 1.00921E-04-3.37278E-05-2.88093E-05-2.36818E-08-3.01924E-19 5.24953E-19
 -1      3416 1.00184E-04-3.30534E-05-2.87455E-05-5.79703E-07-5.67649E-20 2.90568E-21
 -1      3417 1.02069E-04-3.47190E-05-2.88881E-05-6.06258E-07-4.13156E-19-6.47160E-19
 -1      3418 9.92348E-05-3.22969E-05-2.86937E-05-9.32470E-07 1.60229E-19 2.75000E-19
 -1      3419 9.85968E-05-3.16534E-05-2.86711E-05-1.25928E-06 1.84857E-19 3.31310E-20
 -1      3420 9.99778E-05-3.30314E-05-2.87150E-05-1.51202E-06 3.85569E-19 9.30183E-19
 -1      3421 9.78737E-05-3.10027E-05-2.86606E-05-1.40200E-06 9.39598E-19 1.85636E-19
 -1      3422 9.73583E-05-3.04543E-05-2.86626E-05-1.54951E-06 1.74615E-18-4.09980E-20
 -1      3423 9.83189E-05-3.15047E-05-2.86544E-05-1.90098E-06 1.09171E-18 1.68994E-18
 -1      3424 6.47037E-05-9.39129E-06-2.37374E-05 1.88376E-06-1.38797E-18 8.20113E-19
 -1      3425 6.42459E-05-1.03250E-05-2.28382E-05-6.98385E-06-1.76086E-18 1.39380E-18
 -1      3426 7.32830E-05-1.26832E-05-2.60065E-05 2.80527E-06-1.65771E-18 1.29684E-18
 -1      3427 9.56927E-05-2.55061E-05-3.00614E-05-1.48430E-06-4.30477E-19-8.82511E-19
 -1      3428 9.58350E-05-2.62565E-05-2.98304E-05-8.65723E-07-3.67749E-19-9.13406E-19
 -1      3429 9.53947E-05-2.86625E-05-2.85976E-05-9.54814E-07 4.14963E-19-6.26390E-20
 -1      3430 9.54208E-05-2.87215E-05-2.85867E-05-9.61381E-07 3.57835E-19 1.13032E-19
 -1      3431 9.54931E-05-2.87884E-05-2.85860E-05-9.79632E-07 2.65523E-19 1.06105E-19
 -1      3432 9.55188E-05-2.88292E-05-2.85819E-05-1.00129E-06 5.12260E-19-2.68150E-20
 -1      3433 9.55601E-05-2.87952E-05-2.86142E-05-9.33669E-07 2.97916E-19-5.07502E-20
 -1      3434 9.51465E-05-2.82827E-05-2.86541E-05-1.02810E-06-3.28677E-19-5.65367E-20
 -1      3435 9.51935E-05-2.83889E-05-2.86333E-05-9.84578E-07 1.35801E-19 3.12882E-19
 -1      3436 9.49556E-05-2.79980E-05-2.86946E-05-1.14809E-06-7.27212E-19-2.17015E-19
 -1      3437 9.50279E-05-2.81405E-05-2.86698E-05-1.06947E-06-6.52701E-19 1.98704E-21
 -1      3438 9.50421E-05-2.81617E-05-2.86611E-05-9.88681E-07-3.78149E-19 2.02741E-19
 -1      3439 9.46574E-05-2.75917E-05-2.87417E-05-1.34639E-06-1.29147E-20-7.07910E-19
 -1      3440 9.47830E-05-2.77984E-05-2.87128E-05-1.21929E-06-5.43681E-19-3.49713E-19
 -1      3441 9.47574E-05-2.78020E-05-2.86916E-05-1.09271E-06-4.82872E-19-2.24013E-19
 -1      3442 9.42196E-05-2.70547E-05-2.87860E-05-1.60851E-06 7.09066E-19-7.80061E-19
 -1      3443 9.44156E-05-2.73301E-05-2.87579E-05-1.44033E-06 3.26498E-19-6.18745E-19
 -1      3444 9.43519E-05-2.73190E-05-2.87218E-05-1.24057E-06 4.79453E-20-3.59760E-19
 -1      3445 9.35448E-05-2.63077E-05-2.88198E-05-1.93812E-06 9.04912E-20-6.63184E-19
 -1      3446 9.38631E-05-2.66943E-05-2.87961E-05-1.72171E-06 6.74760E-19-6.42828E-19
 -1      3447 9.37709E-05-2.66801E-05-2.87426E-05-1.41624E-06 5.56382E-19-4.48346E-19
 -1      3448 9.25014E-05-2.52651E-05-2.88246E-05-2.31579E-06-9.85867E-20-9.26616E-19
 -1      3449 9.30134E-05-2.58083E-05-2.88151E-05-2.05626E-06-3.18713E-19-7.75937E-19
 -1      3450 9.29093E-05-2.58088E-05-2.87406E-05-1.59386E-06 1.35960E-20-3.25831E-19
 -1      3451 9.08987E-05-2.38199E-05-2.87656E-05-2.69395E-06-5.73728E-20-5.77193E-19
 -1      3452 9.17103E-05-2.45763E-05-2.87893E-05-2.40981E-06 8.23485E-20-9.26030E-19
 -1      3453 9.16286E-05-2.46231E-05-2.86907E-05-1.71676E-06-3.45125E-20-6.29781E-19
 -1      3454 8.84697E-05-2.18558E-05-2.85810E-05-2.98094E-06 5.82401E-20-4.40584E-19
 -1      3455 8.97314E-05-2.28870E-05-2.86719E-05-2.71160E-06-7.76623E-20-4.09216E-19
 -1      3456 8.97357E-05-2.30286E-05-2.85492E-05-1.68365E-06-1.34076E-19-6.63968E-19
 -1      3457 8.46201E-05-1.91194E-05-2.81250E-05-3.00872E-06-3.06687E-19-4.83073E-20
 -1      3458 8.66717E-05-2.05537E-05-2.83681E-05-2.82684E-06-1.32953E-20-5.55780E-19
 -1      3459 8.68810E-05-2.08764E-05-2.82287E-05-1.31150E-06-1.30504E-19-9.29205E-19
 -1      3460 7.91851E-05-1.58365E-05-2.72313E-05-2.53243E-06 9.22952E-20 2.36405E-19
 -1      3461 8.21264E-05-1.75495E-05-2.77208E-05-2.55701E-06-2.49087E-19-2.02610E-19
 -1      3462 8.27453E-05-1.81532E-05-2.75929E-05-3.08370E-07-2.39979E-19-7.28774E-19
 -1      3463 7.13663E-05-1.20561E-05-2.55190E-05-1.29767E-06-3.00101E-20 3.29549E-20
 -1      3464 7.56570E-05-1.39991E-05-2.64809E-05-1.61576E-06 4.02314E-19 6.37326E-20
 -1      3465 7.70008E-05-1.50027E-05-2.64321E-05 1.66167E-06 1.33034E-19-9.01084E-19
 -1      3466 6.02307E-05-8.22868E-06-2.23235E-05 8.73293E-07 1.67501E-19-9.75570E-19
 -1      3467 6.63680E-05-1.01745E-05-2.41439E-05 2.38718E-07 3.33999E-19-2.34919E-19
 -1      3468 6.88919E-05-1.16062E-05-2.43270E-05 5.14469E-06 2.00806E-19-8.92394E-19
 -1      3469 5.16185E-05-6.66412E-06-1.91168E-05 3.98256E-06 1.88359E-19-8.87849E-19
 -1      3470 9.55851E-05-2.88710E-05-2.85901E-05-1.02625E-06 7.33306E-19 2.54989E-21
 -1      3471 9.56104E-05-2.88883E-05-2.85950E-05-1.05021E-06 7.64507E-19-5.36286E-21
 -1      3472 9.56961E-05-2.89071E-05-2.86252E-05-9.70531E-07 6.77517E-19-5.99886E-20
 -1      3473 6.16776E-05-1.23687E-05-2.10813E-05-1.64918E-05-1.00563E-18 9.31154E-19
 -1      3474 7.14076E-05-2.13096E-05-2.13779E-05-2.71781E-05-6.59733E-19 1.61214E-18
 -1      3475 9.11537E-05-2.37521E-05-2.88748E-05 3.18407E-06 8.62952E-19-2.30972E-18
 -1      3476 9.00833E-05-2.29253E-05-2.88077E-05 3.53172E-06 1.12015E-18-2.02588E-18
 -1      3477 9.44096E-05-2.22424E-05-3.09389E-05-3.64044E-06-4.28430E-19-1.14276E-18
 -1      3478 9.48639E-05-2.32109E-05-3.06848E-05-3.19478E-06-5.14706E-19-9.92768E-19
 -1      3479 9.52070E-05-2.43764E-05-3.03737E-05-2.32817E-06-4.27958E-19-9.35094E-19
 -1      3480 9.40942E-05-2.15863E-05-3.10842E-05-3.24555E-06-3.27992E-19-8.89878E-19
 -1      3481 1.14630E-04-5.06528E-05-2.77517E-05 2.39935E-05 2.94370E-19 1.37124E-18
 -1      3482 1.02819E-04-4.37230E-05-2.51063E-05 2.98025E-05 6.06489E-19 2.09072E-19
 -1      3483 8.28526E-05-3.00171E-05-2.24828E-05-3.06626E-05-6.96797E-19 1.13365E-18
 -1      3484 9.25534E-05-3.76248E-05-2.36859E-05-3.21647E-05 5.89482E-20 1.01040E-18
 -1      3485 8.03934E-05-1.63761E-05-2.74771E-05 3.51593E-06-4.12972E-19-4.01585E-19
 -1      3486 7.68800E-05-1.45740E-05-2.68095E-05 3.60893E-06-7.43870E-19 8.12394E-19
 -1      3487 7.57186E-05-1.42742E-05-2.61544E-05-1.51950E-06-8.39552E-19 1.26798E-18
 -1      3488 9.53896E-05-2.65344E-05-2.95186E-05 1.31801E-06 3.48360E-19-6.85809E-19
 -1      3489 9.54287E-05-2.59151E-05-2.97783E-05 2.18215E-06 4.14728E-19-5.92902E-19
 -1      3490 9.53498E-05-2.51907E-05-3.00624E-05 2.57070E-06 5.07076E-19-5.69077E-19
 -1      3491 9.55905E-05-2.64334E-05-2.96416E-05 1.19052E-06 3.19160E-19-8.22910E-19
 -1      3492 1.24324E-04-5.23671E-05-3.04925E-05-1.31547E-05 9.97653E-19-2.48146E-18
 -1      3493 1.27660E-04-5.06629E-05-3.32767E-05-3.91663E-06 1.62807E-18-1.90801E-18
 -1      3494 1.11533E-04-9.90168E-06-4.38259E-05-2.38094E-06-1.24265E-18-3.80700E-18
 -1      3495 1.13446E-04-1.34342E-05-4.30474E-05-8.10795E-06-5.73706E-19-3.34669E-18
 -1      3496 1.21638E-04-2.65416E-05-4.08902E-05 1.26540E-05-3.81271E-19-4.56036E-18
 -1      3497 1.17561E-04-1.86159E-05-4.27810E-05 1.14869E-05-5.66665E-19-4.47511E-18
 -1      3498 9.46865E-05-2.79292E-05-2.85917E-05-3.21982E-06-1.73984E-18 1.99799E-20
 -1      3499 9.40893E-05-2.74411E-05-2.85754E-05-3.18351E-06-1.79459E-18-6.16507E-19
 -1      3500 9.58489E-05-2.87620E-05-2.87521E-05-1.04603E-06-4.30180E-20-2.79029E-19
 -1      3501 9.58828E-05-2.86571E-05-2.88068E-05-9.79112E-07-7.90381E-20-3.07027E-19
 -1      3502 9.59187E-05-2.85196E-05-2.88874E-05-8.87070E-07-1.68986E-19-4.10840E-19
 -1      3503 9.59497E-05-2.83393E-05-2.89696E-05-7.37102E-07 7.65111E-21-2.54933E-19
 -1      3504 9.61453E-05-2.85979E-05-2.89514E-05-8.39285E-07-1.27418E-19-4.94830E-19
 -1      3505 9.56747E-05-2.89048E-05-2.86145E-05-1.07184E-06 4.87221E-19-1.14640E-19
 -1      3506 9.57026E-05-2.88945E-05-2.86309E-05-1.08597E-06 3.20456E-19-1.80600E-19
 -1      3507 9.58239E-05-2.89626E-05-2.86566E-05-1.00826E-06 4.36463E-19-3.77569E-19
 -1      3508 9.52851E-05-2.84981E-05-2.86211E-05-9.67104E-07 2.72752E-19 1.52846E-19
 -1      3509 9.53181E-05-2.85780E-05-2.86049E-05-9.52230E-07 3.69671E-19 8.69869E-20
 -1      3510 9.54134E-05-2.86351E-05-2.86194E-05-9.16606E-07 3.01350E-19 1.01583E-20
 -1      3511 9.52481E-05-2.84288E-05-2.86361E-05-9.32416E-07 1.48304E-20 8.64907E-20
 -1      3512 8.57251E-05-1.97509E-05-2.83083E-05 3.68682E-06-1.06936E-18-1.78023E-18
 -1      3513 8.32614E-05-1.81538E-05-2.79735E-05 3.93326E-06-1.31600E-18-1.64997E-18
 -1      3514 8.21180E-05-1.76749E-05-2.74987E-05 6.01406E-07-4.04121E-19-6.97818E-19
 -1      3515 8.88805E-05-2.20177E-05-2.86783E-05 3.50709E-06 5.96664E-19-2.39203E-18
 -1      3516 8.73188E-05-2.08527E-05-2.85291E-05 3.85910E-06-4.12111E-19-2.42647E-18
 -1      3517 8.62233E-05-2.02458E-05-2.81942E-05 1.69298E-06 3.91509E-19-3.85168E-18
 -1      3518 8.88821E-05-2.21679E-05-2.85558E-05 2.16526E-06 7.29774E-19-1.92959E-18
 -1      3519 9.59513E-05-2.80989E-05-2.90840E-05-5.52980E-07 6.46957E-20-3.61942E-19
 -1      3520 9.59707E-05-2.78054E-05-2.92046E-05-2.77532E-07 1.02844E-20-4.77244E-19
 -1      3521 9.61800E-05-2.81620E-05-2.91529E-05-5.40552E-07 4.74494E-21-5.58939E-19
 -1      3522 1.27726E-04-3.95896E-05-3.82478E-05-9.10975E-06-2.12102E-19 1.25983E-19
 -1      3523 1.29691E-04-4.58498E-05-3.56702E-05-3.73104E-06-3.87279E-19 5.66400E-19
 -1      3524 1.28246E-04-5.19239E-05-3.31905E-05 5.36695E-06-5.74017E-19 2.39554E-18
 -1      3525 1.23918E-04-5.24694E-05-3.02500E-05 1.45708E-05-1.51308E-19 1.96584E-18
 -1      3526 8.77192E-05-3.47939E-05-2.27004E-05 3.33292E-05 1.51659E-19-9.44706E-19
 -1      3527 7.44313E-05-2.59016E-05-2.03293E-05 3.30688E-05-7.57036E-21-2.99132E-18
 -1      3528 1.14805E-04-1.36033E-05-4.35033E-05 9.01862E-06-2.81056E-19-4.45538E-18
 -1      3529 1.11969E-04-1.04549E-05-4.37295E-05 3.62872E-06-8.62280E-19-3.45825E-18
 -1      3530 1.12939E-04-1.78323E-05-4.08537E-05 9.90786E-06-6.94329E-19-3.62968E-18
 -1      3531 9.57639E-05-2.88769E-05-2.86653E-05-1.09070E-06 1.39078E-19-4.43968E-19
 -1      3532 9.57947E-05-2.88287E-05-2.86972E-05-1.07747E-06-6.46256E-20-3.14840E-19
 -1      3533 9.59467E-05-2.89499E-05-2.87150E-05-1.02311E-06 6.79803E-21-4.45259E-19
 -1      3534 9.60339E-05-2.68986E-05-2.96203E-05-4.35479E-07-4.15380E-19-8.01370E-19
 -1      3535 9.60799E-05-2.73874E-05-2.94472E-05-1.85142E-08-4.09217E-19-7.84962E-19
 -1      3536 9.62623E-05-2.74338E-05-2.94982E-05 3.13837E-08-4.19694E-19-7.45258E-19
 -1      3537 9.22671E-05-2.48079E-05-2.88982E-05 2.11485E-06 2.60383E-19-7.53650E-19
 -1      3538 1.03266E-04-4.38038E-05-2.51763E-05-2.94716E-05 2.38063E-19-5.14202E-19
 -1      3539 1.15313E-04-5.09355E-05-2.79884E-05-2.30040E-05 3.07658E-19-3.85629E-18
 -1      3540 5.63925E-05-8.73102E-06-1.99604E-05 1.13209E-05 2.90989E-19-1.87851E-18
 -1      3541 9.07646E-05-2.37988E-05-2.87206E-05 1.57158E-06 4.82650E-19-1.99957E-19
 -1      3542 9.16203E-05-2.42041E-05-2.88892E-05 2.86231E-06 4.46275E-19-1.89476E-18
 -1      3543 6.98057E-05-1.40524E-05-2.38558E-05-1.08411E-05-1.35206E-18 3.68486E-19
 -1      3544 9.69790E-05-3.00755E-05-2.86720E-05-1.46365E-06 1.23414E-18-6.95252E-19
 -1      3545 9.66313E-05-2.96924E-05-2.86826E-05-1.49027E-06 1.05820E-18-8.69869E-19
 -1      3546 9.65667E-05-2.96363E-05-2.86830E-05-1.68580E-06-2.39805E-20-1.32087E-18
 -1      3547 9.72273E-05-3.03710E-05-2.86578E-05-1.87780E-06 6.24603E-19 6.00453E-19
 -1      3548 9.53098E-05-2.44066E-05-3.03961E-05-1.96787E-06-4.07954E-19-8.86201E-19
 -1      3549 7.99449E-05-2.53414E-05-2.32074E-05-2.51766E-05-3.93076E-19 1.05606E-18
 -1      3550 9.07510E-05-2.40008E-05-2.86130E-05 2.13725E-07-7.96048E-19-1.56346E-18
 -1      3551 8.98078E-05-2.31429E-05-2.85586E-05 9.24852E-07 1.07971E-19-1.95325E-18
 -1      3552 1.27106E-04-4.75647E-05-3.40756E-05 1.33975E-06 9.35290E-19-2.40719E-18
 -1      3553 1.23647E-04-4.28493E-05-3.47016E-05 5.80350E-06 6.77190E-19-2.47788E-18
 -1      3554 1.22639E-04-4.75388E-05-3.22311E-05-2.20032E-06 5.13805E-19-1.21595E-18
 -1      3555 9.61141E-05-2.74398E-05-2.94337E-05-1.18242E-08-4.56435E-20-6.43695E-19
 -1      3556 9.59061E-05-2.74056E-05-2.93641E-05 4.70633E-08-3.90917E-20-4.01521E-19
 -1      3557 9.58859E-05-2.69419E-05-2.95384E-05 5.06977E-07 1.26968E-19-4.78998E-19
 -1      3558 1.00298E-04-4.00169E-05-2.55900E-05-2.62708E-05 8.91079E-19-1.39368E-18
 -1      3559 1.09486E-04-1.24583E-05-4.17545E-05 6.05961E-07-7.51186E-19-4.39102E-18
 -1      3560 1.09276E-04-1.52356E-05-4.03394E-05-7.71327E-06-4.10017E-19-3.31689E-18
 -1      3561 1.13997E-04-1.76874E-05-4.15787E-05-1.02522E-05-3.58824E-19-2.72598E-18
 -1      3562 1.14201E-04-2.17150E-05-3.96605E-05-1.14393E-05 6.45863E-20-2.99231E-18
 -1      3563 9.60589E-05-2.88419E-05-2.88097E-05-9.81742E-07 3.00544E-20-5.56471E-19
 -1      3564 9.36588E-05-2.72344E-05-2.84778E-05-3.65043E-06-1.90610E-18-3.40595E-19
 -1      3565 9.33721E-05-2.67114E-05-2.85479E-05-3.04890E-06-1.76035E-18-7.41528E-20
 -1      3566 9.27220E-05-2.61735E-05-2.85402E-05-2.73600E-06-1.24608E-18-6.21855E-19
 -1      3567 9.08653E-05-2.42012E-05-2.85641E-05-5.76081E-07-1.16966E-18-1.69142E-18
 -1      3568 1.25762E-04-4.71545E-05-3.37105E-05-1.17698E-07-9.58140E-20 7.09562E-19
 -1      3569 9.52794E-05-2.85009E-05-2.86236E-05-3.04976E-06-1.95474E-18 2.02878E-19
 -1      3570 9.51241E-05-2.85527E-05-2.85478E-05-3.56778E-06-2.03480E-18-7.71791E-20
 -1      3571 9.57354E-05-2.88795E-05-2.86395E-05-2.86856E-06-1.53407E-18-1.34207E-18
 -1      3572 9.38680E-05-2.10413E-05-3.12235E-05 8.06410E-07 2.05603E-19-1.24545E-18
 -1      3573 9.38225E-05-2.09434E-05-3.12429E-05 2.46116E-07 1.34041E-19-1.29299E-18
 -1      3574 1.17620E-04-4.90927E-05-2.92581E-05-1.54963E-05 7.70972E-19-2.92905E-18
 -1      3575 9.49288E-05-2.35067E-05-3.06242E-05 3.03797E-06 5.81332E-19-8.85639E-19
 -1      3576 9.46675E-05-2.28153E-05-3.07928E-05 2.80832E-06 5.12295E-19-8.64296E-19
 -1      3577 7.17577E-05-2.21453E-05-2.10525E-05 2.80202E-05 5.09014E-20-3.34996E-18
 -1      3578 1.22683E-04-3.38926E-05-3.81486E-05-1.12013E-05 7.35728E-20-1.55179E-18
 -1      3579 9.62855E-05-3.88959E-05-2.44553E-05 3.01309E-05 4.45870E-19 6.15323E-19
 -1      3580 8.88779E-05-3.25578E-05-2.41534E-05 2.76586E-05 7.98415E-19 4.13484E-19
 -1      3581 1.02191E-04-4.07641E-05-2.62353E-05 2.41701E-05 1.21397E-18 1.70917E-18
 -1      3582 9.59833E-05-2.62803E-05-2.98723E-05-7.02816E-07-3.78660E-19-6.17029E-19
 -1      3583 1.22155E-04-3.17931E-05-3.89187E-05 1.22167E-05 3.78518E-20-4.09804E-18
 -1      3584 1.16330E-04-2.69083E-05-3.83388E-05 1.25032E-05-3.31534E-20-3.92376E-18
 -1      3585 1.21272E-04-3.58727E-05-3.66522E-05 1.01584E-05 8.11769E-19-3.51762E-18
 -1      3586 1.17342E-04-4.92986E-05-2.91131E-05 1.67036E-05 1.54531E-19 2.14068E-18
 -1      3587 9.53242E-05-2.48003E-05-3.02291E-05 2.72837E-06 6.30402E-19-5.32711E-19
 -1      3588 9.50642E-05-2.39345E-05-3.04759E-05 2.97589E-06 6.10689E-19-7.16909E-19
 -1      3589 9.53565E-05-2.46492E-05-3.02936E-05 2.17952E-06 4.94068E-19-6.71981E-19
 -1      3590 9.54713E-05-2.55099E-05-2.99894E-05 1.92324E-06 4.44772E-19-5.66488E-19
 -1      3591 9.40921E-05-2.15063E-05-3.11231E-05 1.76155E-06 3.16816E-19-1.05739E-18
 -1      3592 9.39550E-05-2.12127E-05-3.11824E-05 1.24427E-06 2.25288E-19-1.29361E-18
 -1      3593 9.46125E-05-2.23764E-05-3.09405E-05 8.26747E-07 1.39395E-19-1.19044E-18
 -1      3594 9.39601E-05-2.12872E-05-3.11602E-05-2.78520E-06-2.13617E-19-7.12402E-19
 -1      3595 9.47322E-05-2.27761E-05-3.08140E-05-2.50063E-06-2.62124E-19-7.98706E-19
 -1      3596 6.16519E-05-1.19283E-05-2.12782E-05 1.52687E-05 2.49559E-19-3.18132E-18
 -1      3597 9.64731E-05-2.95355E-05-2.86837E-05-1.86398E-06-4.42738E-19-1.72991E-18
 -1      3598 9.67301E-05-2.98794E-05-2.86576E-05-2.12729E-06-7.51010E-19-1.53658E-18
 -1      3599 9.63355E-05-2.94180E-05-2.86746E-05-2.18973E-06-5.75570E-19-1.14214E-18
 -1      3600 9.60941E-05-2.91966E-05-2.86668E-05-2.47245E-06-5.63901E-19-1.96116E-18
 -1      3601 9.71196E-05-3.02545E-05-2.86455E-05-2.23282E-06-7.26241E-19-6.15193E-19
 -1      3602 9.37244E-05-2.08397E-05-3.12489E-05-2.25793E-06-3.73263E-20-8.25677E-19
 -1      3603 9.63691E-05-2.82657E-05-2.91910E-05-5.49791E-07-1.86177E-20-7.68322E-19
 -1      3604 9.63690E-05-2.79604E-05-2.93122E-05-3.41346E-07 3.34113E-20-8.85236E-19
 -1      3605 7.36855E-05-1.51601E-05-2.51551E-05-7.95006E-06-1.04564E-18-1.76850E-19
 -1      3606 7.36710E-05-1.75833E-05-2.39311E-05-1.63923E-05-7.94294E-19-5.46654E-19
 -1      3607 9.37056E-05-2.07606E-05-3.12714E-05-1.81199E-06-1.51595E-20-1.05928E-18
 -1      3608 9.45865E-05-2.23833E-05-3.09219E-05-1.69347E-06-1.24651E-19-8.24622E-19
 -1      3609 9.37239E-05-2.08066E-05-3.12641E-05-1.23750E-06 1.19421E-20-1.25573E-18
 -1      3610 9.65145E-05-2.85543E-05-2.91222E-05 6.07809E-07-1.93952E-19-7.16708E-19
 -1      3611 9.64781E-05-2.87420E-05-2.90315E-05 7.09991E-07-1.72614E-19-8.66639E-19
 -1      3612 9.64289E-05-2.88812E-05-2.89465E-05 7.59584E-07-1.17413E-19-8.90942E-19
 -1      3613 9.63683E-05-2.89780E-05-2.88820E-05 8.04894E-07-2.50252E-20-8.49839E-19
 -1      3614 9.65979E-05-2.88104E-05-2.90530E-05 6.20744E-07-1.24217E-19-8.56806E-19
 -1      3615 9.62891E-05-2.90368E-05-2.88207E-05 8.18663E-07 3.62307E-20-9.31204E-19
 -1      3616 9.62169E-05-2.90705E-05-2.87765E-05 8.28960E-07-1.71973E-20-9.39774E-19
 -1      3617 9.64703E-05-2.90331E-05-2.89032E-05 6.97641E-07-5.54602E-20-9.07989E-19
 -1      3618 9.61221E-05-2.90743E-05-2.87339E-05 8.22835E-07 2.06508E-20-7.62102E-19
 -1      3619 9.60459E-05-2.90650E-05-2.87050E-05 8.14964E-07 5.12005E-20-6.46974E-19
 -1      3620 9.62977E-05-2.91101E-05-2.87963E-05 7.17664E-07 8.70486E-20-7.84246E-19
 -1      3621 9.59448E-05-2.90321E-05-2.86766E-05 8.01339E-07 9.91166E-20-7.26327E-19
 -1      3622 9.58695E-05-2.89949E-05-2.86591E-05 7.87917E-07-4.51132E-20-4.95934E-19
 -1      3623 9.61034E-05-2.90874E-05-2.87227E-05 7.08599E-07 4.63653E-20-6.07670E-19
 -1      3624 9.57676E-05-2.89390E-05-2.86411E-05 7.76281E-07-4.15217E-19-4.72770E-19
 -1      3625 9.56963E-05-2.88850E-05-2.86317E-05 7.66601E-07-3.63247E-19-3.94728E-19
 -1      3626 9.59020E-05-2.89988E-05-2.86741E-05 6.92152E-07-4.67929E-20-4.86079E-19
 -1      3627 9.55974E-05-2.88165E-05-2.86210E-05 7.64486E-07-1.71336E-19-1.28177E-19
 -1      3628 9.55328E-05-2.87553E-05-2.86170E-05 7.65483E-07 1.41835E-19-5.31175E-20
 -1      3629 9.57026E-05-2.88699E-05-2.86437E-05 6.85325E-07-1.77896E-20-2.16841E-19
 -1      3630 9.54401E-05-2.86833E-05-2.86110E-05 7.79123E-07-9.13078E-20-2.19687E-19
 -1      3631 9.53858E-05-2.86241E-05-2.86100E-05 7.95854E-07-2.10087E-19-1.66325E-19
 -1      3632 9.55120E-05-2.87212E-05-2.86256E-05 7.02264E-07-1.28790E-19-1.06174E-19
 -1      3633 9.53035E-05-2.85581E-05-2.86063E-05 8.30699E-07-1.23935E-19-1.78720E-19
 -1      3634 9.52651E-05-2.85110E-05-2.86063E-05 8.66821E-07-2.34556E-19-5.64371E-19
 -1      3635 9.53371E-05-2.85721E-05-2.86146E-05 7.55201E-07-2.86994E-19-4.18540E-19
 -1      3636 9.52000E-05-2.84625E-05-2.86028E-05 9.28078E-07-1.06109E-19-6.97658E-19
 -1      3637 9.51870E-05-2.84411E-05-2.86023E-05 9.85894E-07-1.07945E-19-4.67192E-20
 -1      3638 9.51886E-05-2.84440E-05-2.86062E-05 8.55829E-07-2.52226E-19-6.71246E-19
 -1      3639 9.51508E-05-2.84255E-05-2.85973E-05 1.07838E-06-4.83984E-20 6.49419E-19
 -1      3640 9.51781E-05-2.84479E-05-2.85948E-05 1.15825E-06 2.51399E-20 6.87768E-19
 -1      3641 9.50845E-05-2.83645E-05-2.85964E-05 1.01590E-06 4.40927E-19-1.67847E-19
 -1      3642 9.51902E-05-2.84867E-05-2.85870E-05 1.28556E-06-2.68999E-19 9.07708E-19
 -1      3643 9.52798E-05-2.85773E-05-2.85820E-05 1.38465E-06-5.07384E-19 5.64185E-19
 -1      3644 9.50550E-05-2.83718E-05-2.85820E-05 1.24640E-06-1.04580E-19 8.65211E-19
 -1      3645 9.53695E-05-2.86992E-05-2.85711E-05 1.54726E-06-7.73605E-19 4.84082E-19
 -1      3646 9.55522E-05-2.88891E-05-2.85641E-05 1.65716E-06-3.77578E-19 5.20140E-20
 -1      3647 9.51478E-05-2.85184E-05-2.85613E-05 1.55525E-06-7.06639E-19 6.11686E-19
 -1      3648 9.57617E-05-2.91305E-05-2.85515E-05 1.84867E-06-1.44064E-19 3.04436E-19
 -1      3649 9.60767E-05-2.94560E-05-2.85453E-05 1.95146E-06-2.49797E-19 5.49860E-19
 -1      3650 9.54333E-05-2.88738E-05-2.85350E-05 1.94198E-06-1.94106E-19 8.81667E-19
 -1      3651 9.64628E-05-2.98589E-05-2.85352E-05 2.15215E-06-2.07675E-19 4.47363E-19
 -1      3652 9.69549E-05-3.03565E-05-2.85359E-05 2.21471E-06-5.33531E-22 2.20666E-19
 -1      3653 9.60098E-05-2.95244E-05-2.85084E-05 2.38767E-06-1.34613E-19 6.70394E-19
 -1      3654 9.75866E-05-3.09609E-05-2.85378E-05 2.38109E-06 2.39595E-19-1.15858E-19
 -1      3655 9.82967E-05-3.16538E-05-2.85572E-05 2.34801E-06 6.66281E-19 3.04731E-19
 -1      3656 9.70035E-05-3.05653E-05-2.84948E-05 2.83800E-06 7.70417E-20 4.51891E-19
 -1      3657 9.92449E-05-3.24807E-05-2.85886E-05 2.39932E-06 2.88868E-19 4.09698E-20
 -1      3658 1.00191E-04-3.33530E-05-2.86461E-05 2.18736E-06-2.99696E-19 1.86951E-19
 -1      3659 9.85571E-05-3.20761E-05-2.85210E-05 3.17688E-06 9.85530E-20 6.18796E-19
 -1      3660 1.01501E-04-3.43713E-05-2.87355E-05 1.99746E-06-1.50664E-19-2.65711E-21
 -1      3661 1.02645E-04-3.53322E-05-2.88599E-05 1.50133E-06 2.24592E-19 2.42748E-19
 -1      3662 1.00795E-04-3.40685E-05-2.86340E-05 3.20008E-06-1.47983E-21 2.71428E-19
 -1      3663 1.04296E-04-3.64134E-05-2.90499E-05 8.92332E-07 3.01973E-19 6.75825E-19
 -1      3664 1.05499E-04-3.72343E-05-2.92798E-05 6.89664E-09 8.59674E-19 3.32035E-19
 -1      3665 1.03758E-04-3.64004E-05-2.89075E-05 2.59537E-06 2.58619E-19 9.31264E-19
 -1      3666 1.07308E-04-3.80813E-05-2.96282E-05-1.17887E-06 1.55334E-18-3.31224E-19
 -1      3667 1.08308E-04-3.83783E-05-3.00055E-05-2.48127E-06 1.80507E-18-3.66419E-19
 -1      3668 1.07253E-04-3.86074E-05-2.94483E-05 9.83417E-07 1.00304E-18-1.26807E-19
 -1      3669 1.09889E-04-3.85186E-05-3.05742E-05-4.30613E-06 1.33609E-18-8.73001E-19
 -1      3670 1.10300E-04-3.77339E-05-3.11291E-05-5.86999E-06 1.27258E-18-1.18115E-18
 -1      3671 1.10752E-04-3.98647E-05-3.03880E-05-1.93738E-06 1.26110E-18-1.46546E-18
 -1      3672 1.10845E-04-3.63621E-05-3.19495E-05-7.89920E-06 1.28377E-18-1.64950E-18
 -1      3673 1.10387E-04-3.42986E-05-3.26452E-05-8.98466E-06 1.08632E-18-1.50698E-18
 -1      3674 1.13087E-04-3.86431E-05-3.18532E-05-6.12704E-06 1.11823E-18-2.15786E-18
 -1      3675 1.09862E-04-3.15172E-05-3.36456E-05-1.06656E-05 1.43932E-18-1.68788E-18
 -1      3676 1.08332E-04-2.79543E-05-3.43744E-05-1.06375E-05 1.12909E-18-1.40873E-18
 -1      3677 1.13201E-04-3.45219E-05-3.38308E-05-9.91409E-06 1.00837E-18-2.77951E-18
 -1      3678 1.07086E-04-2.26605E-05-3.62667E-05-1.00023E-05-2.92153E-19-2.09413E-18
 -1      3679 1.05399E-04-1.93566E-05-3.69367E-05-7.96901E-06-1.19606E-18-2.01631E-18
 -1      3680 1.04416E-04-1.74454E-05-3.73129E-05-4.72557E-06-2.41616E-19-1.72697E-18
 -1      3681 1.02220E-04-1.60885E-05-3.69132E-05 1.85230E-06-2.34152E-19-1.84586E-18
 -1      3682 1.03077E-04-1.76174E-05-3.66484E-05 5.11127E-06-7.22625E-19-1.88675E-18
 -1      3683 1.07812E-04-2.04015E-05-3.75029E-05 9.03478E-06-6.49383E-19-3.30394E-18
 -1      3684 1.09637E-04-2.41236E-05-3.67969E-05 1.07550E-05-6.92976E-19-2.49525E-18
 -1      3685 1.10446E-04-3.41320E-05-3.27063E-05 9.07722E-06-1.54195E-18 8.83379E-19
 -1      3686 1.11012E-04-3.63343E-05-3.20426E-05 8.01628E-06-4.65404E-19 1.47922E-18
 -1      3687 1.10470E-04-3.76988E-05-3.12162E-05 5.95600E-06-1.67823E-19 1.40754E-18
 -1      3688 1.10100E-04-3.85420E-05-3.06550E-05 4.41115E-06-1.07884E-19 1.24117E-18
 -1      3689 1.13259E-04-3.86213E-05-3.19557E-05 6.28054E-06-9.93635E-19 1.04738E-19
 -1      3690 1.08606E-04-3.85180E-05-3.00744E-05 2.56610E-06-2.95231E-19 8.23903E-19
 -1      3691 1.07650E-04-3.82908E-05-2.96888E-05 1.22197E-06-6.18405E-19-2.64842E-19
 -1      3692 1.11075E-04-3.99195E-05-3.04873E-05 2.14472E-06-4.67481E-19-7.33671E-19
 -1      3693 1.05849E-04-3.74703E-05-2.93321E-05-3.40034E-08-7.92912E-19 1.04954E-19
 -1      3694 1.04655E-04-3.66618E-05-2.90985E-05-9.56003E-07-6.09896E-19 4.83868E-19
 -1      3695 1.07676E-04-3.88847E-05-2.95167E-05-9.54867E-07-8.35132E-19 7.16504E-21
 -1      3696 1.02999E-04-3.55815E-05-2.89060E-05-1.60790E-06-5.69035E-19 4.66928E-19
 -1      3697 1.01851E-04-3.46113E-05-2.87824E-05-2.13606E-06-2.61899E-19 4.19911E-19
 -1      3698 1.04173E-04-3.66867E-05-2.89633E-05-2.68512E-06-5.38514E-19 1.52640E-18
 -1      3699 1.00522E-04-3.35667E-05-2.86975E-05-2.36030E-06 6.31760E-19 9.52065E-19
 -1      3700 9.95614E-05-3.26605E-05-2.86462E-05-2.59073E-06 1.38560E-18 1.70938E-18
 -1      3701 1.01187E-04-3.43275E-05-2.86919E-05-3.36529E-06 8.32738E-19 2.90354E-18
 -1      3702 9.85891E-05-3.17916E-05-2.86253E-05-2.55258E-06 1.01427E-18 1.48930E-18
 -1      3703 9.78358E-05-3.10461E-05-2.86176E-05-2.59426E-06 1.38431E-19 1.01018E-18
 -1      3704 9.89065E-05-3.22531E-05-2.85951E-05-3.38869E-06 7.28337E-19 2.26302E-18
 -1      3705 9.52470E-05-2.41296E-05-3.04856E-05-1.65215E-06-2.67656E-19-6.20232E-19
 -1      3706 8.36026E-05-1.92453E-05-2.76015E-05-1.24868E-06 1.24998E-18-2.32483E-18
 -1      3707 8.07973E-05-1.78037E-05-2.70952E-05-2.26938E-06 1.12393E-18-9.74794E-19
 -1      3708 1.22471E-04-4.36632E-05-3.41115E-05-4.90358E-06-3.58864E-20-3.58113E-19
 -1      3709 1.22589E-04-4.72176E-05-3.20057E-05 1.97149E-06 3.22614E-19 6.20908E-19
 -1      3710 9.45872E-05-2.76572E-05-2.86856E-05-9.64746E-07-5.13757E-19-1.99447E-19
 -1      3711 9.47621E-05-2.78699E-05-2.86714E-05-9.08852E-07-4.26697E-19-1.33688E-19
 -1      3712 9.49454E-05-2.80605E-05-2.86648E-05-8.92566E-07-2.21897E-19 1.40725E-20
 -1      3713 9.50651E-05-2.82158E-05-2.86522E-05-8.57378E-07-1.91343E-19 3.66993E-19
 -1      3714 9.48037E-05-2.79211E-05-2.86608E-05-7.69297E-07-1.40346E-19-5.62972E-20
 -1      3715 9.34027E-05-2.64467E-05-2.87025E-05-1.11961E-06 3.81327E-19-2.39080E-19
 -1      3716 9.37599E-05-2.68076E-05-2.86992E-05-1.05243E-06 4.53340E-19-6.02630E-19
 -1      3717 9.24057E-05-2.55349E-05-2.86717E-05-1.12451E-06 5.72355E-20-3.04433E-19
 -1      3718 9.29369E-05-2.60188E-05-2.86856E-05-1.08171E-06 2.42931E-19-1.88514E-19
 -1      3719 9.30296E-05-2.61632E-05-2.86441E-05-6.98012E-07 2.84661E-19-7.42363E-19
 -1      3720 9.09669E-05-2.43302E-05-2.85802E-05-9.75273E-07 9.72208E-20-4.33157E-19
 -1      3721 9.17553E-05-2.49746E-05-2.86278E-05-1.00154E-06 3.31419E-19-3.65919E-19
 -1      3722 9.19446E-05-2.52184E-05-2.85779E-05-4.64302E-07 4.12006E-19-2.81190E-19
 -1      3723 8.89047E-05-2.27683E-05-2.83803E-05-5.27639E-07 1.80368E-19-1.15318E-18
 -1      3724 9.00645E-05-2.36093E-05-2.84890E-05-6.95578E-07 1.95566E-19-7.75068E-19
 -1      3725 9.04380E-05-2.40214E-05-2.84370E-05 4.98732E-08 4.66639E-19-4.79912E-19
 -1      3726 8.58138E-05-2.06963E-05-2.79637E-05 5.20067E-07-2.03115E-19-1.12064E-18
 -1      3727 8.76001E-05-2.18193E-05-2.81988E-05 5.06856E-08-7.31451E-20-1.23795E-18
 -1      3728 8.83054E-05-2.25092E-05-2.81603E-05 1.07912E-06 7.62429E-20-1.33779E-18
 -1      3729 8.16802E-05-1.83389E-05-2.72295E-05 2.41984E-06-2.82780E-20-1.34428E-18
 -1      3730 8.41324E-05-1.96282E-05-2.76507E-05 1.51840E-06 5.40017E-20-1.05924E-18
 -1      3731 8.54170E-05-2.07493E-05-2.76630E-05 2.92865E-06-2.10104E-21-9.40757E-19
 -1      3732 7.60620E-05-1.57929E-05-2.59352E-05 5.69033E-06 4.45111E-19-1.63750E-18
 -1      3733 7.94985E-05-1.72051E-05-2.66949E-05 4.07806E-06 3.97113E-19-1.21693E-18
 -1      3734 8.17104E-05-1.89484E-05-2.68286E-05 5.96148E-06 2.94397E-19-8.23391E-19
 -1      3735 6.85265E-05-1.33553E-05-2.36593E-05 1.10592E-05 5.87924E-19-2.78690E-18
 -1      3736 7.33394E-05-1.48237E-05-2.50374E-05 8.24395E-06 6.57787E-19-2.22109E-18
 -1      3737 7.69531E-05-1.73994E-05-2.54365E-05 1.08264E-05 1.20834E-18-1.66943E-18
 -1      3738 9.57919E-05-2.89364E-05-2.86510E-05-8.78177E-07 4.27545E-19 8.82252E-20
 -1      3739 9.58579E-05-2.89780E-05-2.86627E-05-8.93892E-07 4.03550E-19-1.11612E-19
 -1      3740 7.94829E-05-2.32295E-05-2.41567E-05-2.09320E-05 9.55837E-19-2.88679E-19
 -1      3741 8.93183E-05-3.11071E-05-2.50089E-05-2.40332E-05 1.57006E-18-1.51581E-18
 -1      3742 8.26348E-05-2.30500E-05-2.54191E-05-1.64394E-05 1.02586E-18-1.79731E-18
 -1      3743 8.86140E-05-2.23708E-05-2.84223E-05 6.58403E-07-6.14307E-19-2.85813E-18
 -1      3744 7.93340E-05-1.70844E-05-2.66582E-05-3.80086E-06 3.09366E-20-1.12027E-18
 -1      3745 7.55914E-05-1.54458E-05-2.58107E-05-5.50895E-06-9.55639E-19-1.08246E-18
 -1      3746 7.87491E-05-1.85763E-05-2.58117E-05-1.03859E-05-2.87462E-19-2.48942E-18
 -1      3747 8.15625E-05-1.87394E-05-2.68082E-05-5.86901E-06 1.54176E-18-2.89741E-18
 -1      3748 9.58701E-05-3.58561E-05-2.56737E-05-2.36583E-05 1.26289E-18-1.47454E-18
 -1      3749 1.04320E-04-4.20761E-05-2.69191E-05-2.18535E-05 1.21351E-18-2.65424E-18
 -1      3750 9.49357E-05-3.32041E-05-2.62983E-05-1.96591E-05 2.04372E-18-2.15898E-18
 -1      3751 9.14055E-05-2.48915E-05-2.85320E-05-1.62829E-06-1.66177E-18-8.65738E-19
 -1      3752 9.02876E-05-2.40303E-05-2.84153E-05-1.51247E-06-1.09741E-18-1.89206E-18
 -1      3753 9.63365E-05-2.86953E-05-2.89909E-05-7.89855E-07-1.63122E-19-8.02218E-19
 -1      3754 9.63708E-05-2.85124E-05-2.90778E-05-6.76063E-07-1.53658E-19-7.78241E-19
 -1      3755 9.65288E-05-2.83388E-05-2.92251E-05-5.10821E-07-8.81691E-20-1.10909E-18
 -1      3756 9.63345E-05-2.70749E-05-2.96771E-05-1.66468E-07-3.62074E-19-7.69133E-19
 -1      3757 9.64183E-05-2.75708E-05-2.95121E-05 1.33681E-07-3.61776E-19-7.02233E-19
 -1      3758 9.56131E-05-2.87945E-05-2.86351E-05-8.46805E-07 3.24563E-19 1.74856E-19
 -1      3759 9.56865E-05-2.88667E-05-2.86376E-05-8.58956E-07 5.42387E-19 3.58749E-19
 -1      3760 9.58336E-05-2.89372E-05-2.86708E-05-7.86380E-07 1.80643E-19 7.01176E-20
 -1      3761 9.59528E-05-2.90142E-05-2.86869E-05-9.11615E-07 3.45950E-19-3.43099E-19
 -1      3762 9.60170E-05-2.90237E-05-2.87105E-05-9.21248E-07 2.45167E-19-6.70967E-19
 -1      3763 9.60316E-05-2.90418E-05-2.87113E-05-8.14766E-07 1.92037E-19-5.16668E-19
 -1      3764 1.12388E-04-4.59570E-05-2.82911E-05-1.68573E-05 1.04096E-18-3.18233E-18
 -1      3765 1.18525E-04-4.82519E-05-3.03082E-05-9.00657E-06 5.79419E-19-1.46581E-18
 -1      3766 1.08090E-04-4.22078E-05-2.81042E-05-1.53854E-05 7.41409E-19-2.42742E-18
 -1      3767 9.45308E-05-2.21942E-05-3.09842E-05 7.37667E-09 9.57384E-20-1.31676E-18
 -1      3768 9.38135E-05-2.09419E-05-3.12440E-05-2.18501E-07 1.21287E-19-1.36549E-18
 -1      3769 7.69266E-05-2.38429E-05-2.27637E-05 2.58445E-05 7.23662E-19-1.74828E-18
 -1      3770 6.78205E-05-1.71346E-05-2.14301E-05 2.29630E-05 4.14709E-19-3.81509E-18
 -1      3771 9.19248E-05-2.53440E-05-2.85189E-05-2.22009E-06-1.00335E-18-1.19096E-18
 -1      3772 9.44677E-05-2.23359E-05-3.09315E-05 2.55279E-06 4.64946E-19-7.31158E-19
 -1      3773 9.42530E-05-2.18416E-05-3.10376E-05 2.13190E-06 3.39494E-19-7.67517E-19
 -1      3774 9.48155E-05-2.28785E-05-3.08124E-05 1.54679E-06 2.45791E-19-8.45365E-19
 -1      3775 1.15474E-04-2.89266E-05-3.73863E-05-1.20843E-05 6.57905E-19-3.28911E-18
 -1      3776 1.18723E-04-3.54448E-05-3.55264E-05-1.03979E-05 2.55672E-19-2.27049E-18
 -1      3777 9.62373E-05-2.89294E-05-2.88467E-05-9.00955E-07-1.20879E-19-7.04817E-19
 -1      3778 9.62906E-05-2.88329E-05-2.89074E-05-8.50764E-07-9.94519E-21-8.68070E-19
 -1      3779 9.64855E-05-2.87668E-05-2.90237E-05-7.13389E-07-2.03009E-20-1.03851E-18
 -1      3780 9.61040E-05-2.90208E-05-2.87494E-05-9.28336E-07 2.22179E-19-6.61738E-19
 -1      3781 9.61648E-05-2.89867E-05-2.87887E-05-9.17935E-07-6.28699E-20-6.16941E-19
 -1      3782 9.63685E-05-2.89902E-05-2.88782E-05-8.06004E-07-1.42733E-19-1.13055E-18
 -1      3783 9.62111E-05-2.90672E-05-2.87776E-05-8.28778E-07 1.55591E-19-9.22096E-19
 -1      3784 9.65038E-05-2.79846E-05-2.93608E-05 3.16360E-07-3.77746E-19-7.42500E-19
 -1      3785 9.65118E-05-2.83006E-05-2.92370E-05 5.02535E-07-3.71556E-19-7.82619E-19
 -1      3786 9.65591E-05-2.76605E-05-2.95268E-05 1.51553E-07-3.72361E-19-6.64198E-19
 -1      3787 1.07127E-04-1.44070E-05-3.99640E-05 5.01172E-06-9.98017E-19-4.09664E-18
 -1      3788 1.06743E-04-1.34574E-05-4.01428E-05-2.60208E-07-1.09344E-18-3.86107E-18
 -1      3789 9.51003E-05-2.36950E-05-3.05865E-05 2.07290E-06 4.02142E-19-7.13405E-19
 -1      3790 9.40948E-05-2.71329E-05-2.87015E-05-1.04958E-06 4.76157E-19-8.18375E-19
 -1      3791 9.43368E-05-2.74027E-05-2.86903E-05-9.82788E-07-8.85124E-20-6.04520E-19
 -1      3792 9.38093E-05-2.68978E-05-2.86678E-05-7.79241E-07 2.12245E-19-6.09797E-19
 -1      3793 9.59200E-05-2.57193E-05-3.00883E-05-9.02112E-07-4.30642E-19-5.65951E-19
 -1      3794 9.61204E-05-2.64404E-05-2.98715E-05-4.55778E-07-3.73262E-19-6.47776E-19
 -1      3795 9.62640E-05-2.65425E-05-2.98765E-05-3.22766E-07-4.25215E-19-5.73029E-19
 -1      3796 1.18682E-04-4.89730E-05-3.01774E-05 1.05374E-05 2.17919E-19 2.07788E-18
 -1      3797 1.11786E-04-4.58562E-05-2.81270E-05 1.77527E-05 6.78434E-19 2.22145E-18
 -1      3798 9.50331E-05-2.34526E-05-3.06896E-05-1.53438E-06-2.97642E-19-6.05412E-19
 -1      3799 9.56394E-05-2.49108E-05-3.03011E-05-1.11037E-06-4.18370E-19-5.73791E-19
 -1      3800 9.57609E-05-2.51042E-05-3.02844E-05-8.31102E-07-3.38613E-19-4.90782E-19
 -1      3801 9.50226E-05-2.33715E-05-3.07179E-05-1.16342E-06-2.50838E-19-8.11728E-19
 -1      3802 8.85404E-05-2.25147E-05-2.82341E-05-1.18510E-06-5.13286E-19-3.41544E-18
 -1      3803 8.72462E-05-2.14828E-05-2.81917E-05 1.62330E-08-2.24124E-19-3.50071E-18
 -1      3804 9.66446E-05-2.83797E-05-2.92567E-05 4.52249E-07-2.71505E-19-7.20256E-19
 -1      3805 1.11338E-04-2.53184E-05-3.68869E-05-1.12319E-05 2.73191E-19-3.53549E-18
 -1      3806 1.04400E-04-1.52793E-05-3.83608E-05-2.46674E-06-2.51833E-19-1.91383E-18
 -1      3807 1.10105E-04-2.78180E-05-3.52777E-05 1.07101E-05-1.59150E-20-1.99049E-18
 -1      3808 9.72451E-05-3.04830E-05-2.86102E-05-2.87647E-06-1.38599E-18-2.40146E-19
 -1      3809 1.11720E-04-3.14372E-05-3.44712E-05 1.08195E-05-3.73771E-19-9.13767E-19
 -1      3810 1.16767E-04-3.78581E-05-3.38262E-05-7.75718E-06 7.10606E-19-2.22240E-18
 -1      3811 9.51372E-05-2.35594E-05-3.06884E-05 8.28558E-07 1.28138E-19-1.06268E-18
 -1      3812 9.50760E-05-2.33849E-05-3.07309E-05 4.79020E-07 3.71415E-20-1.21179E-18
 -1      3813 1.19683E-04-4.71906E-05-3.09732E-05-4.67206E-06 8.90228E-20-1.54288E-18
 -1      3814 1.18677E-04-4.48184E-05-3.16745E-05-2.36649E-07-5.38875E-19-2.10344E-18
 -1      3815 1.14900E-04-4.51641E-05-2.99253E-05-7.01004E-06-6.65219E-21-1.50614E-18
 -1      3816 1.17761E-04-4.58409E-05-3.07896E-05 4.84158E-06 5.50919E-19 2.23623E-19
 -1      3817 9.51263E-05-2.82698E-05-2.86512E-05-7.51995E-07 1.66072E-19 6.08790E-19
 -1      3818 9.52104E-05-2.83659E-05-2.86468E-05-8.48949E-07-3.94769E-21 5.85627E-19
 -1      3819 9.53028E-05-2.84867E-05-2.86373E-05-8.32542E-07 3.19702E-19 5.47355E-19
 -1      3820 6.80068E-05-1.44776E-05-2.28281E-05 1.48234E-05 4.53024E-19-3.14534E-18
 -1      3821 7.37019E-05-1.81499E-05-2.37595E-05 1.77108E-05 1.34905E-18-3.30342E-18
 -1      3822 1.17640E-04-4.08358E-05-3.29349E-05 5.57360E-06-1.01592E-18-1.57827E-18
 -1      3823 1.19508E-04-3.89418E-05-3.45863E-05 8.51226E-06 2.27177E-19-2.33221E-18
 -1      3824 9.37108E-05-2.07419E-05-3.12801E-05-7.55516E-07 1.44208E-20-1.40689E-18
 -1      3825 9.03197E-05-2.44119E-05-2.82013E-05-3.55336E-06-7.18806E-19-1.84771E-18
 -1      3826 8.94665E-05-2.36558E-05-2.82180E-05-2.52697E-06-2.26462E-19-2.27982E-18
 -1      3827 8.80910E-05-2.29558E-05-2.79818E-05-3.48780E-06 3.35954E-19-2.19475E-18
 -1      3828 9.62903E-05-2.75519E-05-2.94655E-05-1.19912E-07-3.63696E-21-7.94822E-19
 -1      3829 9.62369E-05-2.70713E-05-2.96304E-05 2.27563E-07 4.20780E-20-7.34257E-19
 -1      3830 9.64473E-05-2.76246E-05-2.94962E-05-1.48232E-07 1.32926E-19-8.62784E-19
 -1      3831 9.61671E-05-2.94333E-05-2.86144E-05-2.91200E-06-1.86589E-18-8.05366E-19
 -1      3832 9.57416E-05-2.65530E-05-2.96577E-05 8.46198E-07 2.93541E-19-5.24920E-19
 -1      3833 9.56510E-05-2.60200E-05-2.98383E-05 1.42902E-06 3.19935E-19-4.58170E-19
 -1      3834 9.56106E-05-2.56392E-05-2.99951E-05 1.56667E-06 4.08050E-19-4.66894E-19
 -1      3835 9.59224E-05-2.65870E-05-2.97228E-05 6.91298E-07 9.30995E-20-3.37579E-19
 -1      3836 9.41818E-05-2.78376E-05-2.84057E-05-4.42798E-06-1.27852E-18-5.39822E-19
 -1      3837 9.32574E-05-2.70760E-05-2.83676E-05-4.30460E-06-1.25787E-18-1.16410E-18
 -1      3838 1.09654E-04-4.29848E-05-2.84896E-05 1.36762E-05 4.44957E-19 1.22916E-18
 -1      3839 1.07118E-04-4.31489E-05-2.74111E-05 1.99184E-05 9.26042E-19 1.68037E-18
 -1      3840 1.01085E-04-3.86731E-05-2.67802E-05 2.02672E-05 4.95805E-19 1.77736E-18
 -1      3841 9.19127E-05-2.56343E-05-2.84161E-05-3.04654E-06-1.56656E-18-1.15389E-18
 -1      3842 9.55045E-05-2.87017E-05-2.86310E-05-8.34685E-07 9.03574E-20 4.36514E-19
 -1      3843 9.56220E-05-2.87706E-05-2.86509E-05-7.60649E-07 7.06734E-20 6.74186E-19
 -1      3844 9.54274E-05-2.86084E-05-2.86355E-05-8.34788E-07 2.20475E-20 6.91090E-19
 -1      3845 8.45223E-05-2.82134E-05-2.39827E-05 2.56172E-05 1.14409E-18 6.51818E-21
 -1      3846 8.00205E-05-2.36903E-05-2.41704E-05 2.16724E-05 1.57702E-18-8.18154E-19
 -1      3847 9.11468E-05-3.17925E-05-2.54068E-05 2.27932E-05 1.36834E-18 9.81255E-19
 -1      3848 9.50463E-05-2.33088E-05-3.07538E-05 1.91225E-07 8.07252E-20-1.28832E-18
 -1      3849 9.50427E-05-2.32947E-05-3.07556E-05-1.91027E-07 8.72304E-20-1.36315E-18
 -1      3850 9.55761E-05-2.43431E-05-3.05140E-05 2.42911E-07 3.17561E-20-1.24318E-18
 -1      3851 9.43806E-05-2.74731E-05-2.86692E-05-7.87321E-07 5.79051E-20-5.76073E-19
 -1      3852 9.58528E-05-2.92634E-05-2.85124E-05-3.98395E-06-2.00062E-18 1.85004E-19
 -1      3853 9.51105E-05-2.86944E-05-2.84712E-05-4.18719E-06-1.98622E-18-9.92023E-20
 -1      3854 9.48439E-05-2.86956E-05-2.83647E-05-4.92363E-06-9.13736E-19-8.30977E-19
 -1      3855 1.15206E-04-3.44827E-05-3.45961E-05 1.02008E-05-2.03857E-19-1.88848E-18
 -1      3856 8.56990E-05-2.05807E-05-2.79677E-05-4.99226E-07 1.57918E-19-3.27664E-18
 -1      3857 9.55418E-05-2.52165E-05-3.01368E-05 1.66670E-06 3.10675E-19-5.87125E-19
 -1      3858 9.55159E-05-2.48489E-05-3.02967E-05 1.61893E-06 2.29105E-19-7.34426E-19
 -1      3859 9.53966E-05-2.43782E-05-3.04350E-05 1.46965E-06 2.22715E-19-7.27685E-19
 -1      3860 9.58023E-05-2.57615E-05-3.00064E-05 1.06660E-06 1.26057E-19-6.86380E-19
 -1      3861 8.52782E-05-2.05403E-05-2.76411E-05-2.98921E-06 1.19353E-18-3.34112E-18
 -1      3862 9.67518E-05-2.82199E-05-2.93684E-05 2.98861E-07-3.19704E-19-7.90487E-19
 -1      3863 9.67560E-05-2.85126E-05-2.92496E-05 4.17114E-07-2.55075E-19-8.88364E-19
 -1      3864 8.68930E-05-2.24081E-05-2.76684E-05-4.90662E-06 1.15247E-18-1.68949E-18
 -1      3865 8.47907E-05-2.13515E-05-2.72702E-05-6.15916E-06 1.38515E-18-2.49742E-18
 -1      3866 8.84920E-05-2.37467E-05-2.76902E-05-6.23002E-06 1.33179E-18-1.08694E-18
 -1      3867 9.66269E-05-2.90233E-05-2.89714E-05 5.54591E-07-9.96856E-22-1.00518E-18
 -1      3868 9.65484E-05-2.90988E-05-2.89070E-05 5.82460E-07-2.97597E-20-9.57694E-19
 -1      3869 9.64512E-05-2.91370E-05-2.88479E-05 5.85292E-07 1.66891E-19-7.92518E-19
 -1      3870 9.63568E-05-2.91494E-05-2.88025E-05 5.91887E-07 3.45305E-19-7.07570E-19
 -1      3871 9.65863E-05-2.91343E-05-2.89096E-05 4.53885E-07 1.92979E-19-7.40320E-19
 -1      3872 9.62432E-05-2.91335E-05-2.87607E-05 5.86102E-07 2.71238E-19-6.95540E-19
 -1      3873 9.61422E-05-2.91030E-05-2.87300E-05 5.83284E-07 2.94976E-20-6.13719E-19
 -1      3874 9.63767E-05-2.91639E-05-2.88071E-05 4.62090E-07 2.92013E-19-8.45046E-19
 -1      3875 9.60211E-05-2.90508E-05-2.87015E-05 5.77111E-07 2.40828E-20-5.88873E-19
 -1      3876 9.59193E-05-2.89924E-05-2.86815E-05 5.74239E-07 1.85786E-19-4.05255E-19
 -1      3877 9.61436E-05-2.90975E-05-2.87355E-05 4.59861E-07 1.88895E-19-6.44766E-19
 -1      3878 9.57960E-05-2.89170E-05-2.86628E-05 5.74331E-07-7.90340E-20-4.12732E-19
 -1      3879 9.56969E-05-2.88418E-05-2.86505E-05 5.79115E-07-1.12332E-19-4.23447E-19
 -1      3880 9.59010E-05-2.89672E-05-2.86871E-05 4.61870E-07 4.81775E-20-5.66107E-19
 -1      3881 9.55748E-05-2.87537E-05-2.86384E-05 5.92325E-07-7.42003E-20-6.02455E-19
 -1      3882 9.54818E-05-2.86715E-05-2.86310E-05 6.11165E-07-6.06181E-21-7.42084E-19
 -1      3883 9.56570E-05-2.87966E-05-2.86553E-05 4.81261E-07-1.24764E-19-9.31143E-19
 -1      3884 9.53632E-05-2.85797E-05-2.86227E-05 6.43993E-07-1.18427E-19-7.40922E-19
 -1      3885 9.52805E-05-2.85002E-05-2.86178E-05 6.83073E-07-2.95853E-19-7.55264E-19
 -1      3886 9.54174E-05-2.86060E-05-2.86341E-05 5.31290E-07 2.84913E-20-1.01629E-18
 -1      3887 9.51687E-05-2.84141E-05-2.86107E-05 7.43182E-07-2.53913E-19-6.29976E-19
 -1      3888 9.51033E-05-2.83486E-05-2.86060E-05 8.09091E-07-3.93225E-20-5.58193E-19
 -1      3889 9.51874E-05-2.84135E-05-2.86181E-05 6.26792E-07-1.95074E-19-5.29523E-19
 -1      3890 9.50054E-05-2.82810E-05-2.85980E-05 9.06026E-07 4.01314E-19-4.58697E-19
 -1      3891 9.49690E-05-2.82453E-05-2.85917E-05 1.00548E-06 6.47853E-19-1.62262E-19
 -1      3892 9.49767E-05-2.82402E-05-2.86023E-05 7.86259E-07 3.33445E-19-2.22170E-19
 -1      3893 9.48976E-05-2.82140E-05-2.85806E-05 1.15036E-06 5.33027E-19 5.48046E-20
 -1      3894 9.49096E-05-2.82301E-05-2.85712E-05 1.28991E-06-4.16528E-20 3.03201E-19
 -1      3895 9.48043E-05-2.81164E-05-2.85823E-05 1.03218E-06 6.58865E-19-4.32507E-19
 -1      3896 9.48867E-05-2.82606E-05-2.85554E-05 1.49506E-06-8.74957E-19 3.20227E-19
 -1      3897 9.49766E-05-2.83597E-05-2.85424E-05 1.67960E-06-6.47131E-19 2.74514E-19
 -1      3898 9.47034E-05-2.80856E-05-2.85539E-05 1.39116E-06-2.83883E-19-1.61744E-19
 -1      3899 9.50377E-05-2.84880E-05-2.85212E-05 1.95641E-06-1.24025E-19 6.82307E-19
 -1      3900 9.52482E-05-2.87115E-05-2.85056E-05 2.18571E-06 1.25807E-19 5.69448E-19
 -1      3901 9.47299E-05-2.82107E-05-2.85145E-05 1.89201E-06-2.94295E-19 6.63381E-19
 -1      3902 9.54477E-05-2.89857E-05-2.84806E-05 2.53935E-06-1.49288E-19 4.51466E-19
 -1      3903 9.58362E-05-2.93852E-05-2.84665E-05 2.80178E-06-2.84480E-19 3.32701E-19
 -1      3904 9.49718E-05-2.85804E-05-2.84644E-05 2.55897E-06-3.25520E-19 4.69937E-19
 -1      3905 9.62520E-05-2.98653E-05-2.84427E-05 3.22214E-06-1.54710E-19 4.26263E-19
 -1      3906 9.68892E-05-3.04987E-05-2.84390E-05 3.48397E-06 1.64536E-19 1.75803E-19
 -1      3907 9.55592E-05-2.93128E-05-2.84093E-05 3.39798E-06-3.10124E-19 5.51310E-19
 -1      3908 9.76266E-05-3.12512E-05-2.84286E-05 3.92701E-06 1.10819E-19 3.77145E-19
 -1      3909 9.85868E-05-3.21671E-05-2.84527E-05 4.11717E-06-3.22492E-19 1.67709E-19
 -1      3910 9.66740E-05-3.05529E-05-2.83649E-05 4.37149E-06 1.28054E-19 1.80735E-19
 -1      3911 9.97613E-05-3.32335E-05-2.84817E-05 4.47267E-06-3.47954E-19 4.20323E-19
 -1      3912 1.01093E-04-3.44270E-05-2.85640E-05 4.47245E-06 2.48279E-19 7.44056E-19
 -1      3913 9.85451E-05-3.24398E-05-2.83682E-05 5.33971E-06-6.92524E-20-1.52077E-19
 -1      3914 1.02820E-04-3.58116E-05-2.86732E-05 4.56849E-06 2.23299E-19 5.11240E-19
 -1      3915 1.04506E-04-3.71917E-05-2.88581E-05 4.18737E-06 3.57605E-19 5.31535E-19
 -1      3916 1.01401E-04-3.50487E-05-2.84880E-05 6.02808E-06 6.53473E-21 1.01042E-18
 -1      3917 1.06820E-04-3.87244E-05-2.91182E-05 3.67540E-06 4.51261E-19 4.32741E-19
 -1      3918 1.08663E-04-3.99484E-05-2.94725E-05 2.72283E-06 8.10816E-19-1.69419E-19
 -1      3919 1.05462E-04-3.83572E-05-2.88322E-05 5.98401E-06 2.57550E-19 9.88292E-19
 -1      3920 1.17086E-04-4.24674E-05-3.19881E-05 3.27068E-06-7.53613E-19-2.05516E-18
 -1      3921 1.14224E-04-4.23435E-05-3.08528E-05 5.70012E-07-6.96419E-19-1.55357E-18
 -1      3922 1.12653E-04-4.20518E-05-3.02204E-05-1.25084E-06-1.03572E-18-1.79900E-18
 -1      3923 1.09158E-04-4.03086E-05-2.95411E-05-2.69327E-06-1.77136E-19-1.36644E-19
 -1      3924 1.07327E-04-3.90838E-05-2.91844E-05-3.74784E-06 2.43577E-19 7.07943E-20
 -1      3925 1.04977E-04-3.75212E-05-2.89186E-05-4.25797E-06 3.05553E-19 9.50616E-19
 -1      3926 1.03298E-04-3.61449E-05-2.87296E-05-4.68724E-06-2.12702E-19 1.76500E-18
 -1      3927 1.05968E-04-3.86528E-05-2.89035E-05-5.96743E-06 9.15159E-19 1.01065E-18
 -1      3928 1.01526E-04-3.47381E-05-2.86227E-05-4.63576E-06 8.19703E-20 2.63530E-18
 -1      3929 1.00188E-04-3.35043E-05-2.85462E-05-4.67088E-06 1.44967E-18 2.56443E-18
 -1      3930 1.01897E-04-3.54343E-05-2.85465E-05-6.20235E-06 5.37036E-19 3.03528E-18
 -1      3931 9.89884E-05-3.23986E-05-2.85285E-05-4.31759E-06 6.68659E-19 1.54062E-18
 -1      3932 9.80384E-05-3.14278E-05-2.85153E-05-4.16120E-06-7.95359E-19 6.70281E-19
 -1      3933 9.89816E-05-3.26979E-05-2.84466E-05-5.51685E-06 1.28289E-19 1.44249E-18
 -1      3934 9.62011E-05-2.60825E-05-3.00410E-05-4.28058E-07-3.09714E-19-6.02107E-19
 -1      3935 9.64099E-05-2.67882E-05-2.98446E-05-1.45764E-07-3.21610E-19-5.60840E-19
 -1      3936 9.16428E-05-2.51753E-05-2.85058E-05 2.04122E-07 6.42290E-19-1.17748E-18
 -1      3937 9.22878E-05-2.56568E-05-2.85561E-05-9.41168E-09 4.73230E-19-1.16092E-18
 -1      3938 9.27615E-05-2.60650E-05-2.85968E-05-2.43260E-07 3.76770E-19-1.02393E-18
 -1      3939 9.32249E-05-2.64501E-05-2.86191E-05-3.41000E-07 5.34366E-19-1.00800E-18
 -1      3940 9.25942E-05-2.59839E-05-2.85360E-05 3.51485E-07 6.71930E-19-1.43218E-18
 -1      3941 8.80904E-05-2.28294E-05-2.80133E-05 2.52212E-06 9.34176E-20-1.78925E-18
 -1      3942 8.93704E-05-2.35454E-05-2.82013E-05 1.73269E-06 2.87081E-19-1.69628E-18
 -1      3943 8.55558E-05-2.15565E-05-2.74895E-05 4.91328E-06-1.36534E-19-1.05778E-18
 -1      3944 8.71910E-05-2.22816E-05-2.77991E-05 3.63976E-06-3.40716E-19-1.51522E-18
 -1      3945 8.85526E-05-2.34726E-05-2.78703E-05 4.26586E-06-2.04407E-19-1.96317E-18
 -1      3946 8.24797E-05-2.04988E-05-2.66391E-05 8.67190E-06 2.61918E-20-1.04499E-18
 -1      3947 8.45728E-05-2.11283E-05-2.71535E-05 6.63565E-06-8.19753E-20-1.04451E-18
 -1      3948 8.67144E-05-2.28783E-05-2.73376E-05 7.29314E-06-1.07504E-19-1.40316E-18
 -1      3949 9.45415E-05-2.22408E-05-3.09683E-05-8.53460E-07-1.35409E-21-1.27200E-18
 -1      3950 9.24491E-05-3.06274E-05-2.64687E-05-1.73282E-05 2.36281E-18-2.19535E-18
 -1      3951 9.80536E-05-3.53574E-05-2.70257E-05-1.74232E-05 1.53918E-18-2.12830E-18
 -1      3952 9.59583E-05-2.62619E-05-2.98766E-05 6.95012E-07 6.74109E-20-7.41903E-19
 -1      3953 9.65981E-05-2.73743E-05-2.96647E-05 8.57291E-09-4.96708E-19-5.75783E-19
 -1      3954 9.66837E-05-2.78381E-05-2.95096E-05 2.01156E-07-4.14781E-19-5.75885E-19
 -1      3955 9.65269E-05-2.69459E-05-2.98186E-05-7.73582E-08-4.39137E-19-4.73292E-19
 -1      3956 1.16453E-04-4.38704E-05-3.12410E-05 1.66653E-07 6.91251E-19-4.09838E-19
 -1      3957 1.14106E-04-4.44726E-05-2.97695E-05 6.93906E-06-7.58028E-20 2.76262E-19
 -1      3958 8.15321E-05-2.11828E-05-2.58813E-05-1.27970E-05-1.33428E-19-2.68620E-18
 -1      3959 8.69511E-05-2.61595E-05-2.61001E-05-1.63311E-05 1.49011E-18-3.02168E-18
 -1      3960 9.53170E-05-2.40991E-05-3.05377E-05 1.31233E-06 2.53981E-19-7.36736E-19
 -1      3961 9.52084E-05-2.37596E-05-3.06245E-05 1.04018E-06 1.67912E-19-9.43282E-19
 -1      3962 9.56562E-05-2.46180E-05-3.04266E-05 6.69372E-07 9.13873E-20-9.02716E-19
 -1      3963 9.57866E-05-2.51396E-05-3.02590E-05 9.49831E-07 1.36106E-19-7.79049E-19
 -1      3964 1.05204E-04-1.69927E-05-3.80001E-05 6.04827E-06-1.00830E-18-3.12614E-18
 -1      3965 9.01450E-05-2.41057E-05-2.83333E-05 1.02581E-06 3.77299E-19-1.12778E-18
 -1      3966 9.10362E-05-2.46901E-05-2.84310E-05 6.14733E-07 6.73552E-19-1.03196E-18
 -1      3967 9.15388E-05-2.51941E-05-2.84186E-05 1.06898E-06 5.88920E-19-1.72892E-18
 -1      3968 9.46887E-05-2.78315E-05-2.86552E-05-6.04894E-07 2.29947E-19-4.97943E-19
 -1      3969 9.48721E-05-2.80226E-05-2.86513E-05-6.00959E-07 5.30996E-20-2.32462E-19
 -1      3970 9.66629E-05-2.84634E-05-2.92313E-05-4.88202E-07-3.35978E-20-8.10619E-19
 -1      3971 9.66595E-05-2.81706E-05-2.93492E-05-3.46285E-07-6.77547E-20-9.05128E-19
 -1      3972 9.58638E-05-2.89365E-05-2.86821E-05-6.67549E-07-8.87196E-20-2.38449E-19
 -1      3973 9.59700E-05-2.90071E-05-2.86982E-05-6.78847E-07-3.82922E-20-5.58852E-19
 -1      3974 9.60895E-05-2.90648E-05-2.87239E-05-6.94218E-07 1.09561E-19-5.74756E-19
 -1      3975 9.61845E-05-2.90973E-05-2.87510E-05-7.01158E-07 2.47374E-19-6.40035E-19
 -1      3976 9.61057E-05-2.90641E-05-2.87334E-05-5.71263E-07-2.45291E-21-5.99912E-19
 -1      3977 1.03804E-04-3.89710E-05-2.76793E-05-1.54910E-05 1.57865E-18-2.73158E-18
 -1      3978 1.09664E-04-4.27662E-05-2.87848E-05-1.12425E-05 1.21238E-18-2.15124E-18
 -1      3979 8.01301E-05-2.21527E-05-2.47667E-05 1.80760E-05 2.21164E-18-8.55573E-19
 -1      3980 9.23500E-05-2.62616E-05-2.82962E-05-4.36210E-06-8.53596E-19-4.82075E-19
 -1      3981 9.13030E-05-2.53587E-05-2.82607E-05-3.85347E-06-9.80088E-19-9.74292E-19
 -1      3982 9.05943E-05-2.52263E-05-2.80552E-05-5.07561E-06 5.95109E-19-9.50202E-19
 -1      3983 9.27905E-05-2.70222E-05-2.82137E-05-5.25904E-06 2.59032E-20-1.07374E-18
 -1      3984 9.50008E-05-2.32358E-05-3.07658E-05-4.74910E-07-1.31962E-20-1.38538E-18
 -1      3985 9.50097E-05-2.32826E-05-3.07479E-05-8.66248E-07-6.59882E-20-1.09226E-18
 -1      3986 9.54801E-05-2.42208E-05-3.05243E-05-7.50928E-07-2.33833E-19-8.40807E-19
 -1      3987 9.55085E-05-2.41995E-05-3.05457E-05-2.46742E-07-3.65751E-20-1.36002E-18
 -1      3988 9.66073E-05-2.88651E-05-2.90336E-05-6.37361E-07-7.27144E-20-9.69065E-19
 -1      3989 9.66525E-05-2.86958E-05-2.91215E-05-5.60492E-07 4.37723E-20-8.95569E-19
 -1      3990 9.67625E-05-2.85475E-05-2.92355E-05-4.18628E-07-1.87146E-21-7.52133E-19
 -1      3991 9.68526E-05-3.01841E-05-2.85731E-05-3.38538E-06-1.78375E-18 3.83755E-19
 -1      3992 9.42092E-05-2.73601E-05-2.86539E-05-5.66725E-07 2.59272E-19-8.12890E-19
 -1      3993 9.44593E-05-2.76070E-05-2.86528E-05-5.72957E-07 4.59224E-19-5.38592E-19
 -1      3994 9.45562E-05-2.77148E-05-2.86428E-05-3.99636E-07 3.83793E-19-9.85692E-19
 -1      3995 9.67414E-05-2.87406E-05-2.91412E-05 4.69077E-07-1.86689E-19-9.79866E-19
 -1      3996 9.66934E-05-2.89064E-05-2.90525E-05 5.33167E-07-1.17641E-19-9.68003E-19
 -1      3997 9.67496E-05-2.89651E-05-2.90517E-05 4.17953E-07-9.58340E-20-9.56495E-19
 -1      3998 9.35909E-05-2.67844E-05-2.86390E-05-4.67039E-07 3.12062E-19-8.66384E-19
 -1      3999 9.39250E-05-2.70892E-05-2.86457E-05-5.02393E-07 6.67354E-20-9.72136E-19
 -1      4000 9.40520E-05-2.72361E-05-2.86298E-05-2.82045E-07 3.81714E-19-5.88781E-19
 -1      4001 9.34154E-05-2.66649E-05-2.85992E-05-5.86503E-08 6.09618E-19-6.07760E-19
 -1      4002 8.65546E-05-2.35568E-05-2.69535E-05-1.02569E-05 5.99094E-19-2.84191E-18
 -1      4003 8.39822E-05-2.13781E-05-2.68302E-05-8.45510E-06 1.13568E-18-3.32165E-18
 -1      4004 1.10628E-04-4.13901E-05-2.96577E-05 3.84915E-06 3.36196E-19 3.76175E-19
 -1      4005 1.11382E-04-4.11610E-05-3.00336E-05 1.06211E-06 6.96384E-19-7.45043E-19
 -1      4006 1.11854E-04-4.24386E-05-2.97933E-05-4.38333E-06 3.44105E-19-1.35367E-18
 -1      4007 1.12986E-04-4.16684E-05-3.06235E-05-5.95043E-07 8.74441E-19-1.12558E-18
 -1      4008 1.16082E-04-4.21698E-05-3.16688E-05-3.18693E-06 1.33472E-18-1.40709E-18
 -1      4009 1.16926E-04-4.04861E-05-3.26790E-05-5.70029E-06 8.76024E-19-1.41267E-18
 -1      4010 1.11225E-04-4.27980E-05-2.92465E-05-7.88191E-06 7.91916E-19-4.91863E-19
 -1      4011 1.10983E-04-4.29681E-05-2.91669E-05 8.58242E-06 2.58389E-19 7.54626E-19
 -1      4012 9.68247E-05-3.05333E-05-2.84344E-05-4.89448E-06-7.94727E-19-4.08546E-19
 -1      4013 9.69869E-05-3.04957E-05-2.85081E-05-4.02629E-06-1.52182E-18 2.57284E-19
 -1      4014 9.59061E-05-2.53568E-05-3.02403E-05-5.89070E-07-3.20982E-19-6.55822E-19
 -1      4015 9.68317E-05-2.85979E-05-2.92435E-05 3.33555E-07-3.11226E-19-1.19989E-18
 -1      4016 9.50546E-05-2.82007E-05-2.86523E-05-6.17702E-07 9.31104E-20 9.12143E-20
 -1      4017 9.52006E-05-2.83553E-05-2.86493E-05-6.14274E-07 2.65870E-19 9.32308E-20
 -1      4018 9.49605E-05-2.81096E-05-2.86481E-05-4.60179E-07 2.07932E-19-3.86926E-19
 -1      4019 9.01900E-05-2.43192E-05-2.82118E-05 2.28981E-06 5.17972E-19-1.75273E-18
 -1      4020 7.90403E-05-2.01835E-05-2.52620E-05 1.44929E-05 1.95959E-18-1.05860E-18
 -1      4021 8.15882E-05-2.04940E-05-2.61119E-05 1.12565E-05 1.20800E-18-7.41627E-19
 -1      4022 9.58139E-05-2.96476E-05-2.83248E-05-5.60253E-06-9.92837E-20-5.09880E-19
 -1      4023 9.46359E-05-2.87395E-05-2.82425E-05-5.87606E-06 1.95802E-19-1.98552E-18
 -1      4024 9.68414E-05-3.07540E-05-2.83259E-05-5.89530E-06-3.76491E-20-1.02042E-18
 -1      4025 9.10090E-05-2.82778E-05-2.68039E-05-1.42987E-05 9.10388E-19-2.17755E-18
 -1      4026 9.61045E-05-2.63708E-05-2.98954E-05 5.36860E-07 1.20854E-19-8.93090E-19
 -1      4027 9.65883E-05-2.77797E-05-2.94938E-05-2.16751E-07-1.09840E-20-6.71539E-19
 -1      4028 9.65113E-05-2.73241E-05-2.96535E-05 2.67404E-08 2.14453E-19-5.77797E-19
 -1      4029 9.67073E-05-2.78891E-05-2.94931E-05-2.06943E-07 9.29678E-20-6.45908E-19
 -1      4030 1.07142E-04-4.05196E-05-2.85504E-05 1.04326E-05 2.43749E-19 7.10024E-19
 -1      4031 9.64741E-05-2.90610E-05-2.88915E-05-6.99889E-07-1.97972E-19-1.00530E-18
 -1      4032 9.65460E-05-2.89833E-05-2.89534E-05-6.67513E-07-2.24493E-19-1.05927E-18
 -1      4033 9.66895E-05-2.89263E-05-2.90427E-05-5.32720E-07-9.75818E-20-5.27591E-19
 -1      4034 9.60033E-05-2.55656E-05-3.01997E-05 5.49904E-07 9.62631E-20-6.95726E-19
 -1      4035 9.59518E-05-2.53458E-05-3.02636E-05 3.97239E-07 8.48616E-20-1.01422E-18
 -1      4036 9.57356E-05-2.88466E-05-2.86671E-05-6.52094E-07 3.07742E-20 1.04233E-19
 -1      4037 9.58608E-05-2.89171E-05-2.86908E-05-5.48117E-07-1.65353E-19-2.37010E-19
 -1      4038 9.56270E-05-2.87510E-05-2.86605E-05-6.44165E-07 3.90400E-20 1.90999E-19
 -1      4039 1.01517E-04-3.73972E-05-2.74057E-05 1.62266E-05-3.14471E-19 1.12857E-18
 -1      4040 9.70771E-05-3.53494E-05-2.63809E-05 2.05508E-05 3.91586E-19 1.39488E-18
 -1      4041 9.21239E-05-3.12089E-05-2.61358E-05 1.92866E-05 9.14127E-19 3.35920E-19
 -1      4042 8.48013E-05-2.29327E-05-2.65193E-05 1.19025E-05 6.56123E-19-1.55528E-18
 -1      4043 1.07312E-04-4.02118E-05-2.87818E-05-8.60111E-06 1.39285E-18-2.91472E-19
 -1      4044 9.53922E-05-2.85501E-05-2.86462E-05-7.48179E-07 1.92207E-19 7.40245E-19
 -1      4045 9.63324E-05-2.91353E-05-2.88003E-05-5.86385E-07 2.17561E-20-5.68643E-19
 -1      4046 9.62934E-05-2.91144E-05-2.87904E-05-7.10792E-07 1.03601E-19-7.53715E-19
 -1      4047 9.63803E-05-2.91012E-05-2.88326E-05-7.04704E-07-5.50690E-20-9.22841E-19
 -1      4048 1.01343E-04-3.64058E-05-2.77457E-05-1.35185E-05 1.60976E-18-2.71821E-18
 -1      4049 9.59369E-05-2.52447E-05-3.03042E-05 2.67323E-07-1.00510E-20-1.17260E-18
 -1      4050 9.59189E-05-2.51725E-05-3.03254E-05 5.80423E-08-3.02275E-20-1.23784E-18
 -1      4051 9.62784E-05-2.60476E-05-3.00893E-05 1.78046E-07 8.21439E-20-1.03082E-18
 -1      4052 8.49933E-05-2.54344E-05-2.55663E-05 1.81193E-05 2.11308E-18 1.97663E-20
 -1      4053 9.35830E-05-2.79042E-05-2.81244E-05-6.33510E-06-1.40414E-21-2.09023E-18
 -1      4054 9.24430E-05-2.70027E-05-2.80269E-05-6.51361E-06 6.29081E-19-1.01814E-18
 -1      4055 9.44726E-05-2.90143E-05-2.80701E-05-7.17183E-06-5.03570E-19-1.83612E-18
 -1      4056 9.67806E-05-2.79548E-05-2.94955E-05 1.76806E-07-4.29076E-19-7.29787E-19
 -1      4057 9.64896E-05-2.91882E-05-2.88428E-05 3.16974E-07 3.27522E-19-9.91839E-19
 -1      4058 9.63775E-05-2.91751E-05-2.87995E-05 3.25845E-07 4.18631E-19-8.23325E-19
 -1      4059 9.62489E-05-2.91377E-05-2.87616E-05 3.20200E-07 3.80732E-19-1.15379E-18
 -1      4060 9.61289E-05-2.90840E-05-2.87319E-05 3.25950E-07 1.99071E-19-6.34729E-19
 -1      4061 9.63451E-05-2.91671E-05-2.87939E-05 1.81378E-07 2.19541E-19-1.01608E-18
 -1      4062 9.59927E-05-2.90127E-05-2.87059E-05 3.25410E-07 1.41218E-19-7.35812E-19
 -1      4063 9.58688E-05-2.89316E-05-2.86861E-05 3.33934E-07-3.80226E-20-8.04920E-19
 -1      4064 9.60846E-05-2.90538E-05-2.87294E-05 1.91260E-07 1.89634E-19-8.19760E-19
 -1      4065 9.57303E-05-2.88373E-05-2.86688E-05 3.45885E-07-2.10637E-19-8.13310E-19
 -1      4066 9.56079E-05-2.87407E-05-2.86559E-05 3.64386E-07 1.60265E-20-8.18259E-19
 -1      4067 9.58092E-05-2.88788E-05-2.86854E-05 2.12450E-07 1.35418E-20-8.68111E-19
 -1      4068 9.54654E-05-2.86319E-05-2.86440E-05 3.90913E-07 1.27578E-19-6.05690E-19
 -1      4069 9.53480E-05-2.85278E-05-2.86349E-05 4.27770E-07-6.72928E-20-6.19990E-19
 -1      4070 9.55305E-05-2.86674E-05-2.86560E-05 2.53318E-07 1.53705E-19-6.74917E-19
 -1      4071 9.52011E-05-2.84122E-05-2.86257E-05 4.75618E-07-2.73409E-20-5.37354E-19
 -1      4072 9.50909E-05-2.83082E-05-2.86180E-05 5.39539E-07 1.02025E-19-3.46267E-19
 -1      4073 9.52465E-05-2.84346E-05-2.86346E-05 3.30813E-07 1.57121E-19-7.46669E-19
 -1      4074 9.49426E-05-2.81952E-05-2.86087E-05 6.21858E-07 1.15826E-19-2.99632E-19
 -1      4075 9.48469E-05-2.81034E-05-2.85999E-05 7.23114E-07 4.06995E-19-2.14965E-19
 -1      4076 9.49559E-05-2.81885E-05-2.86159E-05 4.65704E-07 1.91229E-19-9.18858E-19
 -1      4077 9.47011E-05-2.80045E-05-2.85877E-05 8.54017E-07 5.58079E-19-1.87852E-19
 -1      4078 9.46328E-05-2.79414E-05-2.85755E-05 1.00630E-06 7.05941E-19-3.09391E-19
 -1      4079 9.46671E-05-2.79531E-05-2.85940E-05 6.82553E-07 6.76292E-19-1.13785E-18
 -1      4080 9.44995E-05-2.78748E-05-2.85575E-05 1.20522E-06 5.28250E-19-1.00576E-19
 -1      4081 9.44809E-05-2.78652E-05-2.85401E-05 1.42478E-06-8.78566E-20 1.88441E-20
 -1      4082 9.43929E-05-2.77564E-05-2.85632E-05 1.01835E-06 5.59408E-19-1.01992E-18
 -1      4083 9.43807E-05-2.78586E-05-2.85138E-05 1.71628E-06-2.91626E-19 4.49597E-19
 -1      4084 9.44477E-05-2.79397E-05-2.84899E-05 2.02068E-06-2.28442E-19 3.78206E-19
 -1      4085 9.41629E-05-2.76429E-05-2.85177E-05 1.52102E-06 2.58164E-19-8.73273E-19
 -1      4086 9.44186E-05-2.80354E-05-2.84533E-05 2.43216E-06-2.97023E-19 9.17887E-19
 -1      4087 9.46260E-05-2.82604E-05-2.84239E-05 2.83577E-06-4.72050E-19 5.92380E-19
 -1      4088 9.40333E-05-2.76836E-05-2.84525E-05 2.24922E-06-1.79480E-19-4.87499E-21
 -1      4089 9.47323E-05-2.85196E-05-2.83772E-05 3.39146E-06-4.80605E-19 4.80118E-19
 -1      4090 9.51581E-05-2.89601E-05-2.83463E-05 3.89733E-06-2.92939E-19 5.81522E-19
 -1      4091 9.41033E-05-2.79877E-05-2.83648E-05 3.26616E-06-5.05054E-19 7.24994E-19
 -1      4092 9.55022E-05-2.94695E-05-2.82937E-05 4.60449E-06-7.76493E-20 3.60140E-19
 -1      4093 9.62531E-05-3.02117E-05-2.82723E-05 5.18120E-06 3.39965E-19 2.90297E-19
 -1      4094 9.45375E-05-2.87101E-05-2.82585E-05 4.62594E-06-1.28517E-19 4.71271E-19
 -1      4095 9.69886E-05-3.11076E-05-2.82247E-05 6.02564E-06 3.07117E-19 2.17966E-20
 -1      4096 9.81910E-05-3.22229E-05-2.82392E-05 6.53964E-06 2.07612E-19 2.23895E-19
 -1      4097 9.55689E-05-3.00151E-05-2.81461E-05 6.35751E-06 2.66762E-19 4.80051E-19
 -1      4098 9.95007E-05-3.35740E-05-2.82359E-05 7.47717E-06 3.54321E-19 9.32129E-19
 -1      4099 1.01341E-04-3.51557E-05-2.83290E-05 7.76459E-06 9.10403E-20 1.31669E-18
 -1      4100 9.75147E-05-3.21025E-05-2.80507E-05 8.39713E-06 6.07763E-19 2.74773E-19
 -1      4101 8.27566E-05-2.11974E-05-2.64273E-05-1.04119E-05 7.20358E-19-2.59658E-18
 -1      4102 8.93067E-05-2.63789E-05-2.69994E-05-1.20387E-05 6.56765E-20-2.04996E-18
 -1      4103 9.40486E-05-3.05512E-05-2.72933E-05-1.31382E-05 1.03257E-18-1.13265E-18
 -1      4104 9.59295E-05-2.53067E-05-3.02712E-05-3.89465E-07-2.11259E-19-9.23673E-19
 -1      4105 1.01752E-04-3.55442E-05-2.83706E-05-8.00089E-06 1.03368E-18 2.95437E-19
 -1      4106 1.00022E-04-3.38709E-05-2.82949E-05-7.61640E-06 1.13772E-18 6.85332E-19
 -1      4107 9.88566E-05-3.27998E-05-2.82931E-05-7.07568E-06 2.41921E-19-1.18956E-19
 -1      4108 9.76332E-05-3.15642E-05-2.82916E-05-6.50212E-06-6.12914E-19-1.16017E-18
 -1      4109 9.63160E-05-3.06815E-05-2.81530E-05-7.36472E-06 1.74552E-19-2.21571E-18
 -1      4110 9.82861E-05-3.28734E-05-2.81040E-05-8.76872E-06 4.56469E-19-2.82834E-18
 -1      4111 8.98656E-05-2.58327E-05-2.73892E-05-9.49455E-06 1.06854E-18-2.24748E-18
 -1      4112 8.80509E-05-2.44916E-05-2.72911E-05 8.89684E-06 6.54283E-20-7.28888E-19
 -1      4113 8.90442E-05-2.45266E-05-2.76011E-05 7.02805E-06-1.31133E-20-6.08671E-19
 -1      4114 8.92085E-05-2.44438E-05-2.77969E-05 5.54040E-06-4.01283E-19-7.01626E-19
 -1      4115 9.00974E-05-2.46891E-05-2.80019E-05 4.30691E-06-2.13634E-19-7.58491E-19
 -1      4116 9.06859E-05-2.59871E-05-2.77679E-05 6.97192E-06-5.82186E-20 3.88294E-19
 -1      4117 1.04926E-04-3.82282E-05-2.85276E-05-8.72159E-06 1.32411E-18 6.29484E-22
 -1      4118 9.68030E-05-2.77388E-05-2.95968E-05 6.34417E-08-5.66962E-19-7.74994E-19
 -1      4119 9.68716E-05-2.81496E-05-2.94533E-05 1.72756E-07-5.60454E-19-1.02147E-18
 -1      4120 9.25251E-05-2.60808E-05-2.84927E-05 8.82312E-07 8.71093E-19-1.20054E-18
 -1      4121 9.30000E-05-2.64015E-05-2.85363E-05 5.96890E-07 6.63561E-19-8.76842E-19
 -1      4122 9.64645E-05-2.65970E-05-2.99445E-05-1.36761E-07-3.43250E-19-9.00922E-19
 -1      4123 9.66527E-05-2.72204E-05-2.97610E-05 1.86722E-08-4.55519E-19-9.18811E-19
 -1      4124 9.67406E-05-2.74125E-05-2.97120E-05 1.59624E-08-4.65153E-19-1.06086E-18
 -1      4125 9.60945E-05-2.61023E-05-2.99987E-05 4.86820E-07 1.86550E-19-7.35862E-19
 -1      4126 9.63532E-05-2.66720E-05-2.98560E-05 2.07326E-07 2.12089E-19-7.03641E-19
 -1      4127 9.68495E-05-2.89136E-05-2.91146E-05 2.67990E-07-1.22624E-21-8.90714E-19
 -1      4128 9.67863E-05-2.90441E-05-2.90314E-05 3.07045E-07 1.02655E-19-6.92459E-19
 -1      4129 8.75830E-05-2.56524E-05-2.65361E-05 1.38072E-05 1.27183E-18-9.96361E-19
 -1      4130 8.84035E-05-2.51500E-05-2.70194E-05 1.08688E-05 4.87687E-19-1.20648E-18
 -1      4131 9.06010E-05-2.69153E-05-2.73139E-05 1.06051E-05 6.56651E-19-4.51235E-19
 -1      4132 1.05332E-04-3.84860E-05-2.86066E-05 8.42539E-06 4.56415E-19 1.56922E-18
 -1      4133 1.03737E-04-3.86212E-05-2.79528E-05 1.34365E-05-4.01156E-19 9.25162E-19
 -1      4134 9.98585E-05-3.55323E-05-2.75538E-05 1.39247E-05-5.19263E-19 9.21524E-19
 -1      4135 1.02828E-04-3.65475E-05-2.83593E-05 8.57567E-06-1.77655E-19 1.69448E-18
 -1      4136 9.61085E-05-2.90620E-05-2.87334E-05-4.35152E-07-1.04257E-19-6.88789E-19
 -1      4137 9.62290E-05-2.91177E-05-2.87609E-05-4.38732E-07 2.17839E-20-6.93757E-19
 -1      4138 9.64606E-05-2.68176E-05-2.98434E-05 1.22316E-07 1.09716E-19-5.12950E-19
 -1      4139 9.68413E-05-2.86758E-05-2.92157E-05-3.60747E-07-1.01729E-19-4.74810E-19
 -1      4140 9.68562E-05-2.84153E-05-2.93285E-05-2.70814E-07-7.58418E-20-4.49280E-19
 -1      4141 9.04334E-05-2.48442E-05-2.81411E-05 3.26877E-06 4.21579E-19-8.16368E-19
 -1      4142 9.12032E-05-2.51897E-05-2.82725E-05 2.46449E-06 5.79971E-19-9.18657E-19
 -1      4143 9.12058E-05-2.57328E-05-2.80851E-05 4.43730E-06 1.48629E-19-3.37719E-19
 -1      4144 9.66987E-05-2.91294E-05-2.89574E-05 3.04039E-07-3.04165E-21-9.70706E-19
 -1      4145 9.66038E-05-2.91754E-05-2.88966E-05 3.23560E-07 1.20461E-19-9.09163E-19
 -1      4146 9.67827E-05-2.90898E-05-2.90151E-05 1.64445E-07-1.48843E-19-1.10572E-18
 -1      4147 9.69016E-05-2.84773E-05-2.93242E-05 1.93069E-07-2.69806E-19-1.01685E-18
 -1      4148 9.68914E-05-2.87259E-05-2.92136E-05 2.62113E-07-1.53385E-19-1.06157E-18
 -1      4149 9.69158E-05-2.82777E-05-2.94184E-05 9.26407E-08-3.54507E-19-9.60008E-19
 -1      4150 9.15706E-05-2.54505E-05-2.83607E-05 1.79537E-06 7.03645E-19-1.11768E-18
 -1      4151 9.21760E-05-2.57971E-05-2.84374E-05 1.31427E-06 7.76153E-19-1.08564E-18
 -1      4152 9.19343E-05-2.59205E-05-2.83040E-05 2.69458E-06 6.51976E-19-7.34335E-19
 -1      4153 9.80616E-05-3.33600E-05-2.76673E-05-1.21609E-05 8.76358E-19-2.68300E-18
 -1      4154 1.02332E-04-3.67480E-05-2.81891E-05-1.05757E-05 1.61396E-18-2.26219E-18
 -1      4155 9.05207E-05-2.87755E-05-2.64198E-05 1.64825E-05 1.35400E-18-3.88385E-19
 -1      4156 9.44540E-05-2.76575E-05-2.86315E-05-1.82082E-07 2.10506E-19-6.84849E-19
 -1      4157 9.46848E-05-2.78658E-05-2.86363E-05-2.29018E-07 3.64739E-19-8.32742E-19
 -1      4158 9.53599E-05-2.85045E-05-2.86522E-05-6.28079E-07 2.38169E-19 5.86032E-20
 -1      4159 9.54851E-05-2.86306E-05-2.86528E-05-6.30040E-07 1.37539E-19 5.24648E-20
 -1      4160 9.52974E-05-2.84373E-05-2.86538E-05-4.96218E-07 2.40829E-19-5.22285E-19
 -1      4161 9.39436E-05-2.72024E-05-2.86106E-05 1.37678E-09 4.81707E-19-6.97403E-19
 -1      4162 9.42291E-05-2.74426E-05-2.86214E-05-8.64220E-08 2.55977E-19-6.63214E-19
 -1      4163 9.43865E-05-2.76166E-05-2.86153E-05 8.55531E-08 1.43029E-19-5.70161E-19
 -1      4164 9.36744E-05-3.09567E-05-2.69765E-05 1.50686E-05 4.90873E-19-2.83759E-19
 -1      4165 9.67484E-05-2.90087E-05-2.90319E-05-4.29786E-07-2.97244E-19-2.59394E-19
 -1      4166 9.68126E-05-2.88713E-05-2.91150E-05-3.80911E-07-1.66944E-19-3.19857E-19
 -1      4167 9.68850E-05-2.87563E-05-2.92015E-05-2.57472E-07-3.24941E-19-3.39214E-19
 -1      4168 9.26612E-05-2.63023E-05-2.84450E-05 1.55385E-06 7.41027E-19-1.09031E-18
 -1      4169 9.63409E-05-2.91575E-05-2.87969E-05-3.14582E-07 1.71601E-19-7.85742E-19
 -1      4170 9.63535E-05-2.91557E-05-2.87983E-05-4.52147E-07 1.77804E-19-7.79551E-19
 -1      4171 9.64639E-05-2.91674E-05-2.88398E-05-4.46857E-07 8.89771E-20-5.68271E-19
 -1      4172 9.55946E-05-2.87067E-05-2.86662E-05-5.22721E-07 1.74313E-19-9.30242E-20
 -1      4173 9.58334E-05-2.49962E-05-3.03668E-05-2.70183E-07-1.20347E-19-1.27061E-18
 -1      4174 9.62617E-05-2.60141E-05-3.00996E-05-1.57587E-07-2.24382E-19-9.53216E-19
 -1      4175 9.63797E-05-2.62979E-05-3.00325E-05-6.75595E-08-2.39132E-19-1.30387E-18
 -1      4176 9.58710E-05-2.50587E-05-3.03562E-05-4.13680E-08-7.42306E-20-1.44804E-18
 -1      4177 9.52666E-05-2.98172E-05-2.80213E-05-7.94451E-06-1.29740E-19-2.41734E-18
 -1      4178 9.48786E-05-2.80519E-05-2.86426E-05-2.85867E-07 3.84957E-19-1.09172E-18
 -1      4179 9.50620E-05-2.82238E-05-2.86453E-05-3.08559E-07 2.28686E-19-8.55669E-19
 -1      4180 9.48027E-05-2.79916E-05-2.86331E-05-7.72136E-08 1.90680E-19-8.08251E-19
 -1      4181 9.65844E-05-2.91918E-05-2.88864E-05 1.75296E-07 7.16435E-20-1.34247E-18
 -1      4182 9.33213E-05-2.67486E-05-2.85329E-05 8.20843E-07 6.38248E-19-1.09446E-18
 -1      4183 9.33084E-05-2.66734E-05-2.85691E-05 3.27727E-07 5.89665E-19-3.86370E-19
 -1      4184 9.36762E-05-2.69543E-05-2.85921E-05 1.65551E-07 7.78648E-19-5.80260E-19
 -1      4185 9.68055E-05-2.80703E-05-2.94619E-05-2.20906E-07 2.99046E-21-6.41812E-19
 -1      4186 9.67340E-05-2.76436E-05-2.96113E-05-7.60457E-08 7.06227E-20-6.48705E-19
 -1      4187 9.68766E-05-2.81915E-05-2.94376E-05-1.65234E-07-1.43226E-19-4.60576E-19
 -1      4188 9.62486E-05-3.13295E-05-2.77749E-05-1.04386E-05 7.60278E-19-2.58409E-18
 -1      4189 9.65346E-05-2.91032E-05-2.89007E-05-5.79993E-07-2.10906E-19-5.49027E-19
 -1      4190 9.69085E-05-2.88081E-05-2.91892E-05 1.40140E-07 3.98058E-20-8.21529E-19
 -1      4191 9.58440E-05-2.88955E-05-2.86917E-05-4.10467E-07-3.32269E-19-6.72601E-19
 -1      4192 9.59736E-05-2.89851E-05-2.87086E-05-4.18250E-07-1.76061E-19-8.02580E-19
 -1      4193 9.60826E-05-2.90450E-05-2.87333E-05-2.98307E-07-3.82311E-20-7.76302E-19
 -1      4194 9.03188E-05-2.59126E-05-2.76478E-05-8.04624E-06 1.15656E-18-2.04244E-18
 -1      4195 9.29511E-05-2.82936E-05-2.77067E-05-9.35782E-06 6.27186E-19-2.36948E-18
 -1      4196 1.00485E-04-3.51836E-05-2.80470E-05 1.03224E-05 1.36826E-19 1.81568E-18
 -1      4197 9.66402E-05-2.72332E-05-2.97419E-05-1.76710E-08 5.17409E-20-6.92148E-19
 -1      4198 9.64540E-05-2.66114E-05-2.99388E-05 1.29540E-07 8.46565E-20-9.43070E-19
 -1      4199 9.64533E-05-2.65071E-05-2.99774E-05 6.90877E-08 1.98466E-20-1.17512E-18
 -1      4200 9.67358E-05-2.74285E-05-2.97031E-05-2.88066E-08 2.01088E-20-8.76540E-19
 -1      4201 9.12248E-05-2.60021E-05-2.79434E-05-6.36653E-06 1.07111E-18-1.47289E-18
 -1      4202 9.62285E-05-2.58462E-05-3.01560E-05 9.17396E-09-2.33086E-19-1.24826E-18
 -1      4203 9.61029E-05-2.90528E-05-2.87346E-05-4.93688E-08-7.17352E-21-6.46271E-19
 -1      4204 9.59630E-05-2.89719E-05-2.87090E-05-4.02464E-08-2.12783E-19-9.59241E-19
 -1      4205 9.55919E-05-2.87085E-05-2.86652E-05 9.84732E-08 1.47143E-19-1.01930E-18
 -1      4206 9.54511E-05-2.85918E-05-2.86529E-05 1.28326E-07 3.14760E-19-8.35945E-19
 -1      4207 9.51974E-05-2.83684E-05-2.86415E-05 7.99699E-08 1.86894E-19-7.66710E-19
 -1      4208 9.50471E-05-2.82322E-05-2.86327E-05 1.31652E-07 9.67247E-20-9.73212E-19
 -1      4209 9.48576E-05-2.80682E-05-2.86248E-05 1.98682E-07 1.85190E-19-9.17170E-19
 -1      4210 9.47070E-05-2.79300E-05-2.86153E-05 2.80099E-07 2.54196E-19-5.98993E-19
 -1      4211 9.44897E-05-2.77493E-05-2.86040E-05 3.93292E-07 5.09924E-19-7.81130E-19
 -1      4212 9.43418E-05-2.76161E-05-2.85913E-05 5.22568E-07 7.69205E-19-1.01347E-18
 -1      4213 9.40880E-05-2.74213E-05-2.85721E-05 7.11491E-07 6.77836E-19-9.11695E-19
 -1      4214 9.39535E-05-2.73092E-05-2.85529E-05 9.11539E-07 6.56503E-19-1.04269E-18
 -1      4215 9.36667E-05-2.71157E-05-2.85211E-05 1.21110E-06 6.19317E-19-1.27658E-18
 -1      4216 9.35676E-05-2.70520E-05-2.84923E-05 1.51095E-06 3.00156E-19-9.39833E-19
 -1      4217 9.32522E-05-2.68803E-05-2.84411E-05 1.97603E-06 5.16185E-19-1.01376E-18
 -1      4218 9.32282E-05-2.69093E-05-2.83999E-05 2.41177E-06 3.86765E-19-2.01725E-19
 -1      4219 9.29089E-05-2.68023E-05-2.83215E-05 3.11092E-06-2.83079E-19 7.98465E-20
 -1      4220 9.30284E-05-2.69947E-05-2.82667E-05 3.72196E-06-1.82720E-19 2.07476E-19
 -1      4221 9.27617E-05-2.70362E-05-2.81491E-05 4.75553E-06-1.76942E-20 2.72076E-20
 -1      4222 9.31246E-05-2.74953E-05-2.80818E-05 5.57907E-06 1.93737E-19 2.09401E-19
 -1      4223 9.30554E-05-2.78519E-05-2.79233E-05 6.95371E-06-2.27144E-20 1.58258E-19
 -1      4224 9.36361E-05-2.86725E-05-2.78225E-05 8.12887E-06 3.97713E-19 2.38559E-19
 -1      4225 9.47241E-05-2.98797E-05-2.77576E-05 9.39628E-06 6.36173E-19-4.11440E-20
 -1      4226 9.50457E-05-3.01541E-05-2.78018E-05-9.64439E-06 8.23565E-19-2.65377E-18
 -1      4227 9.65197E-05-3.22511E-05-2.75085E-05 1.25027E-05 2.86469E-19 1.04954E-19
 -1      4228 9.66209E-05-2.69319E-05-2.98616E-05-2.18381E-08-1.08226E-19-1.05439E-18
 -1      4229 9.67756E-05-2.74946E-05-2.96947E-05 1.03409E-08-2.34809E-19-8.72790E-19
 -1      4230 9.64374E-05-2.64298E-05-3.00055E-05 5.58115E-09-1.75972E-19-1.27375E-18
 -1      4231 9.53219E-05-2.84628E-05-2.86549E-05-2.51957E-07 3.98427E-19-8.61584E-19
 -1      4232 9.54793E-05-2.86036E-05-2.86609E-05-2.69484E-07 3.34491E-19-7.06780E-19
 -1      4233 9.63708E-05-2.91671E-05-2.87995E-05-6.05730E-08 2.38410E-19-8.58236E-19
 -1      4234 9.62388E-05-2.91222E-05-2.87617E-05-5.48182E-08 3.42841E-19-8.43220E-19
 -1      4235 9.66131E-05-2.91909E-05-2.88929E-05-6.68825E-08-1.03317E-19-8.19643E-19
 -1      4236 9.64955E-05-2.91960E-05-2.88395E-05-6.11862E-08 5.26669E-20-9.80431E-19
 -1      4237 9.69310E-05-2.82524E-05-2.94346E-05-5.59941E-08-3.70573E-19-5.98720E-19
 -1      4238 9.69571E-05-2.85661E-05-2.93066E-05-3.20080E-08-2.25774E-19-5.77909E-19
 -1      4239 9.65733E-05-2.91524E-05-2.88944E-05-4.54783E-07-2.25081E-20-5.19823E-19
 -1      4240 9.66694E-05-2.91009E-05-2.89558E-05-4.32800E-07-1.50848E-19-1.66474E-19
 -1      4241 9.67691E-05-2.90594E-05-2.90227E-05-3.03270E-07-3.54430E-19-4.46446E-19
 -1      4242 9.65764E-05-2.91759E-05-2.88903E-05-3.18755E-07-2.11791E-20-4.33526E-19
 -1      4243 9.51605E-05-3.09298E-05-2.75473E-05 1.13574E-05 7.56569E-19-1.00346E-19
 -1      4244 9.69339E-05-2.87933E-05-2.92020E-05-6.55165E-08-2.36689E-19-6.67465E-19
 -1      4245 9.68884E-05-2.89708E-05-2.91037E-05-5.11234E-08-2.28071E-19-7.67402E-19
 -1      4246 9.52551E-05-2.84050E-05-2.86496E-05-8.27688E-08 2.28219E-19-9.22764E-19
 -1      4247 9.58841E-05-2.89220E-05-2.86978E-05 6.63455E-08-3.26799E-20-1.12478E-18
 -1      4248 9.57433E-05-2.88226E-05-2.86794E-05 8.02985E-08-9.16449E-20-1.03919E-18
 -1      4249 9.56559E-05-2.87482E-05-2.86750E-05-5.08927E-08 1.16595E-19-1.25858E-18
 -1      4250 9.68123E-05-2.90846E-05-2.90242E-05-6.88555E-08-1.67627E-19-7.69923E-19
 -1      4251 9.67212E-05-2.91612E-05-2.89506E-05-6.01851E-08-3.06461E-19-9.98722E-19
 -1      4252 9.55555E-05-2.86669E-05-2.86666E-05-3.80638E-07 9.34382E-20-3.36085E-19
 -1      4253 9.56983E-05-2.87882E-05-2.86758E-05-3.93348E-07 5.47478E-20-4.86809E-19
 -1      4254 9.38966E-05-2.71977E-05-2.85853E-05 3.62539E-07 7.15717E-19-9.68652E-19
 -1      4255 9.68701E-05-2.78565E-05-2.95721E-05-2.04463E-08-2.49790E-19-7.35367E-19
 -1      4256 9.58003E-05-2.88568E-05-2.86906E-05-2.69082E-07-3.28026E-19-1.12718E-18
 -1      4257 9.58799E-05-2.89166E-05-2.86996E-05-1.78383E-07-6.08984E-19-1.03349E-18
 -1      4258 9.57323E-05-2.88076E-05-2.86820E-05-1.63185E-07-1.09419E-19-1.09624E-18
 -1      4259 9.55836E-05-2.86886E-05-2.86687E-05-1.41940E-07 3.56372E-19-7.49467E-19
 -3
    1PSTEP                         4           1           1          
  100CL  101 1.000000000        4259                     0    1           1
 -4  ERROR       1    1
 -5  STR(%)      1    1    0    0
 -1         1 4.73098E+01
 -1         2 2.36596E+01
 -1         3 4.04736E-02
 -1         4 1.03147E-02
 -1         5 1.40400E+01
 -1         6 1.31441E+01
 -1         7 1.31441E+01
 -1         8 3.66298E+00
 -1         9 1.82308E+00
 -1        10 1.29107E+00
 -1        11 1.04554E+00
 -1        12 8.98983E-01
 -1        13 8.08643E-01
 -1        14 7.53828E-01
 -1        15 7.55799E-01
 -1        16 8.12939E-01
 -1        17 9.00547E-01
 -1        18 1.05222E+00
 -1        19 1.30730E+00
 -1        20 1.83492E+00
 -1        21 3.50478E+00
 -1        22 8.64154E+00
 -1        23 1.31441E+01
 -1        24 4.31891E+00
 -1        25 3.34242E+00
 -1        26 2.11314E+00
 -1        27 1.36452E+00
 -1        28 1.01638E+00
 -1        29 7.78107E-01
 -1        30 5.99240E-01
 -1        31 4.60126E-01
 -1        32 3.52342E-01
 -1        33 2.74414E-01
 -1        34 2.11946E-01
 -1        35 1.62727E-01
 -1        36 1.24536E-01
 -1        37 9.65623E-02
 -1        38 8.60020E-02
 -1        39 7.92507E-02
 -1        40 7.59919E-02
 -1        41 7.55358E-02
 -1        42 9.13222E-02
 -1        43 1.13178E-01
 -1        44 1.30538E-01
 -1        45 1.55205E-01
 -1        46 2.07996E-01
 -1        47 2.63163E-01
 -1        48 4.19108E-01
 -1        49 5.96523E-01
 -1        50 7.81637E-01
 -1        51 1.16715E+00
 -1        52 1.62212E+00
 -1        53 2.08208E+00
 -1        54 2.39375E+00
 -1        55 2.45889E+00
 -1        56 2.45889E+00
 -1        57 2.44933E+00
 -1        58 2.40341E+00
 -1        59 2.10641E+00
 -1        60 1.65360E+00
 -1        61 1.19617E+00
 -1        62 8.09100E-01
 -1        63 5.92492E-01
 -1        64 4.11137E-01
 -1        65 2.50260E-01
 -1        66 1.61832E-01
 -1        67 9.71491E-02
 -1        68 7.37874E-02
 -1        69 6.05999E-02
 -1        70 4.90477E-02
 -1        71 4.22243E-02
 -1        72 1.40400E+01
 -1        73 3.39569E+00
 -1        74 2.41436E+00
 -1        75 1.66759E+00
 -1        76 1.14785E+00
 -1        77 9.05274E-01
 -1        78 7.26167E-01
 -1        79 5.84988E-01
 -1        80 4.67893E-01
 -1        81 3.71236E-01
 -1        82 3.04529E-01
 -1        83 2.36978E-01
 -1        84 1.90361E-01
 -1        85 1.54568E-01
 -1        86 1.29063E-01
 -1        87 1.17488E-01
 -1        88 1.29068E-01
 -1        89 1.57889E-01
 -1        90 2.05027E-01
 -1        91 2.87519E-01
 -1        92 3.83142E-01
 -1        93 5.63732E-01
 -1        94 8.25870E-01
 -1        95 1.18828E+00
 -1        96 1.64868E+00
 -1        97 2.26219E+00
 -1        98 2.59038E+00
 -1        99 3.19427E+00
 -1       100 4.57810E+00
 -1       101 4.77575E+00
 -1       102 4.77575E+00
 -1       103 7.24173E+00
 -1       104 1.44601E+01
 -1       105 1.65495E+01
 -1       106 1.65495E+01
 -1       107 1.40886E+01
 -1       108 5.39745E+00
 -1       109 5.03061E+00
 -1       110 5.81674E+00
 -1       111 5.81674E+00
 -1       112 5.08506E+00
 -1       113 3.86874E+00
 -1       114 2.82775E+00
 -1       115 1.95001E+00
 -1       116 1.28783E+00
 -1       117 8.91239E-01
 -1       118 5.92240E-01
 -1       119 4.07381E-01
 -1       120 2.58481E-01
 -1       121 1.55498E-01
 -1       122 6.31220E-02
 -1       123 6.31220E-02
 -1       124 4.28496E-02
 -1       125 3.14306E-02
 -1       126 4.91101E-02
 -1       127 5.18239E-02
 -1       128 5.18239E-02
 -1       129 4.37855E-02
 -1       130 2.86219E-02
 -1       131 1.17733E-02
 -1       132 1.30036E-02
 -1       133 1.69035E-02
 -1       134 1.75224E-02
 -1       135 1.75224E-02
 -1       136 2.18820E-02
 -1       137 2.30842E-02
 -1       138 2.59113E+01
 -1       139 2.59113E+01
 -1       140 3.63545E+01
 -1       141 3.63545E+01
 -1       142 1.47572E+01
 -1       143 1.41979E+01
 -1       144 1.41979E+01
 -1       145 1.37749E+01
 -1       146 1.37749E+01
 -1       147 1.51486E+01
 -1       148 3.44506E+01
 -1       149 3.44506E+01
 -1       150 2.57567E+01
 -1       151 2.57567E+01
 -1       152 2.50086E+01
 -1       153 2.45925E+01
 -1       154 4.73098E+01
 -1       155 2.16220E+01
 -1       156 1.16256E+01
 -1       157 1.21215E+01
 -1       158 1.21215E+01
 -1       159 1.17066E+01
 -1       160 1.17066E+01
 -1       161 1.15607E+01
 -1       162 1.97942E+01
 -1       163 4.71561E+01
 -1       164 4.71561E+01
 -1       165 2.36741E+01
 -1       166 6.07713E+00
 -1       167 2.29737E+00
 -1       168 1.50782E+00
 -1       169 1.15705E+00
 -1       170 9.72909E-01
 -1       171 8.63926E-01
 -1       172 7.95942E-01
 -1       173 7.55799E-01
 -1       174 7.99352E-01
 -1       175 8.67051E-01
 -1       176 9.80727E-01
 -1       177 1.17211E+00
 -1       178 1.52709E+00
 -1       179 2.26027E+00
 -1       180 3.93066E+00
 -1       181 1.40400E+01
 -1       182 4.31891E+00
 -1       183 3.34242E+00
 -1       184 2.11314E+00
 -1       185 1.44862E+00
 -1       186 1.02737E+00
 -1       187 7.78107E-01
 -1       188 5.99240E-01
 -1       189 4.71552E-01
 -1       190 3.72260E-01
 -1       191 2.92728E-01
 -1       192 2.36039E-01
 -1       193 1.87654E-01
 -1       194 1.47228E-01
 -1       195 1.13904E-01
 -1       196 8.65640E-02
 -1       197 7.92507E-02
 -1       198 7.59919E-02
 -1       199 7.53187E-02
 -1       200 7.55358E-02
 -1       201 9.13222E-02
 -1       202 1.13178E-01
 -1       203 1.30538E-01
 -1       204 1.55205E-01
 -1       205 2.07996E-01
 -1       206 2.73310E-01
 -1       207 4.62393E-01
 -1       208 6.95463E-01
 -1       209 9.55575E-01
 -1       210 1.25672E+00
 -1       211 1.62212E+00
 -1       212 2.08208E+00
 -1       213 2.39375E+00
 -1       214 2.45889E+00
 -1       215 2.44933E+00
 -1       216 2.40341E+00
 -1       217 2.10641E+00
 -1       218 1.65360E+00
 -1       219 1.28382E+00
 -1       220 9.79603E-01
 -1       221 7.21670E-01
 -1       222 4.89901E-01
 -1       223 3.02327E-01
 -1       224 1.64609E-01
 -1       225 9.71491E-02
 -1       226 7.37874E-02
 -1       227 6.05999E-02
 -1       228 4.90477E-02
 -1       229 4.22243E-02
 -1       230 3.39569E+00
 -1       231 2.41436E+00
 -1       232 1.66759E+00
 -1       233 1.14785E+00
 -1       234 9.05274E-01
 -1       235 7.26167E-01
 -1       236 5.84988E-01
 -1       237 4.67893E-01
 -1       238 3.71236E-01
 -1       239 3.04529E-01
 -1       240 2.36978E-01
 -1       241 1.90811E-01
 -1       242 1.55550E-01
 -1       243 1.29063E-01
 -1       244 1.17488E-01
 -1       245 1.14912E-01
 -1       246 1.30017E-01
 -1       247 1.67529E-01
 -1       248 2.45761E-01
 -1       249 3.38993E-01
 -1       250 4.89149E-01
 -1       251 7.05051E-01
 -1       252 1.00055E+00
 -1       253 1.37274E+00
 -1       254 1.85756E+00
 -1       255 2.35956E+00
 -1       256 2.97800E+00
 -1       257 3.72885E+00
 -1       258 4.57810E+00
 -1       259 4.77575E+00
 -1       260 4.74329E+00
 -1       261 9.33329E+00
 -1       262 1.44601E+01
 -1       263 1.65495E+01
 -1       264 1.40886E+01
 -1       265 5.59126E+00
 -1       266 4.23801E+00
 -1       267 5.20072E+00
 -1       268 5.81674E+00
 -1       269 5.08506E+00
 -1       270 3.86874E+00
 -1       271 2.95259E+00
 -1       272 2.12213E+00
 -1       273 1.44992E+00
 -1       274 9.69106E-01
 -1       275 5.92240E-01
 -1       276 4.07381E-01
 -1       277 2.60461E-01
 -1       278 1.55498E-01
 -1       279 9.41549E-02
 -1       280 8.59855E-02
 -1       281 6.07314E-02
 -1       282 9.10466E-02
 -1       283 1.00683E-01
 -1       284 1.00683E-01
 -1       285 9.69290E-02
 -1       286 7.58257E-02
 -1       287 4.49738E-02
 -1       288 2.32420E-02
 -1       289 3.18081E-02
 -1       290 3.30382E-02
 -1       291 3.30382E-02
 -1       292 2.98038E-02
 -1       293 3.28981E-02
 -1       294 2.97312E+01
 -1       295 2.83069E+01
 -1       296 3.43307E+01
 -1       297 3.63545E+01
 -1       298 1.48185E+01
 -1       299 1.23388E+01
 -1       300 1.41979E+01
 -1       301 1.29309E+01
 -1       302 1.37749E+01
 -1       303 1.23078E+01
 -1       304 1.51486E+01
 -1       305 3.44506E+01
 -1       306 3.23284E+01
 -1       307 2.61976E+01
 -1       308 2.88388E+01
 -1       309 2.88388E+01
 -1       310 2.86096E+01
 -1       311 4.73098E+01
 -1       312 2.23840E+01
 -1       313 1.13635E+01
 -1       314 1.16256E+01
 -1       315 1.21215E+01
 -1       316 1.11836E+01
 -1       317 1.17066E+01
 -1       318 1.15607E+01
 -1       319 1.11814E+01
 -1       320 2.19211E+01
 -1       321 4.71561E+01
 -1       322 2.85060E+01
 -1       323 2.97312E+01
 -1       324 1.04611E+00
 -1       325 2.47935E+00
 -1       326 7.91170E-01
 -1       327 6.93769E-01
 -1       328 6.31509E-01
 -1       329 5.87432E-01
 -1       330 5.90713E-01
 -1       331 6.34332E-01
 -1       332 7.00981E-01
 -1       333 7.96092E-01
 -1       334 9.31454E-01
 -1       335 1.15935E+00
 -1       336 1.32830E+00
 -1       337 2.20101E+00
 -1       338 1.91454E+00
 -1       339 1.73035E+00
 -1       340 1.26874E+00
 -1       341 9.08504E-01
 -1       342 6.57492E-01
 -1       343 5.41029E-01
 -1       344 4.44494E-01
 -1       345 3.59550E-01
 -1       346 2.92728E-01
 -1       347 2.37324E-01
 -1       348 1.89446E-01
 -1       349 1.50439E-01
 -1       350 1.19253E-01
 -1       351 9.20932E-02
 -1       352 6.96703E-02
 -1       353 6.55637E-02
 -1       354 6.32313E-02
 -1       355 6.17457E-02
 -1       356 6.29373E-02
 -1       357 7.27628E-02
 -1       358 7.49155E-02
 -1       359 6.67130E-02
 -1       360 1.14513E-01
 -1       361 2.26421E-01
 -1       362 3.75443E-01
 -1       363 5.57609E-01
 -1       364 7.60885E-01
 -1       365 1.02259E+00
 -1       366 1.26407E+00
 -1       367 1.52062E+00
 -1       368 1.72730E+00
 -1       369 1.80001E+00
 -1       370 1.72697E+00
 -1       371 1.79704E+00
 -1       372 1.73527E+00
 -1       373 1.53774E+00
 -1       374 1.28175E+00
 -1       375 1.04634E+00
 -1       376 7.85401E-01
 -1       377 5.84891E-01
 -1       378 4.04840E-01
 -1       379 2.57768E-01
 -1       380 1.47814E-01
 -1       381 9.17061E-02
 -1       382 6.44477E-02
 -1       383 4.88247E-02
 -1       384 4.75692E-02
 -1       385 1.13154E+00
 -1       386 8.92381E-01
 -1       387 7.03527E-01
 -1       388 5.39338E-01
 -1       389 4.36763E-01
 -1       390 3.70859E-01
 -1       391 3.07926E-01
 -1       392 2.54749E-01
 -1       393 2.05674E-01
 -1       394 1.70291E-01
 -1       395 1.41019E-01
 -1       396 1.18160E-01
 -1       397 1.04956E-01
 -1       398 9.65418E-02
 -1       399 1.04614E-01
 -1       400 1.37115E-01
 -1       401 2.20057E-01
 -1       402 3.52209E-01
 -1       403 5.51729E-01
 -1       404 8.53458E-01
 -1       405 1.30013E+00
 -1       406 1.93614E+00
 -1       407 2.82078E+00
 -1       408 3.85718E+00
 -1       409 4.86430E+00
 -1       410 5.59547E+00
 -1       411 7.01154E+00
 -1       412 9.40948E+00
 -1       413 7.77532E+00
 -1       414 1.16234E+01
 -1       415 8.79711E+00
 -1       416 9.33557E+00
 -1       417 8.58854E+00
 -1       418 7.48802E+00
 -1       419 5.00203E+00
 -1       420 4.66188E+00
 -1       421 3.91752E+00
 -1       422 3.04706E+00
 -1       423 2.20251E+00
 -1       424 1.51474E+00
 -1       425 1.01804E+00
 -1       426 6.27216E-01
 -1       427 3.91941E-01
 -1       428 2.60461E-01
 -1       429 1.49559E-01
 -1       430 1.42087E-01
 -1       431 1.33484E-01
 -1       432 1.30395E-01
 -1       433 1.56523E-01
 -1       434 1.56523E-01
 -1       435 1.48360E-01
 -1       436 1.32225E-01
 -1       437 9.16338E-02
 -1       438 5.31638E-02
 -1       439 5.04066E-02
 -1       440 5.04066E-02
 -1       441 4.91464E-02
 -1       442 4.75692E-02
 -1       443 2.71023E+01
 -1       444 4.50477E+01
 -1       445 4.50477E+01
 -1       446 2.21947E+01
 -1       447 1.26291E+01
 -1       448 9.17883E-01
 -1       449 1.21137E+01
 -1       450 9.10758E+00
 -1       451 7.61037E+00
 -1       452 1.29956E+01
 -1       453 2.18101E+01
 -1       454 2.47428E+01
 -1       455 4.02256E+01
 -1       456 4.02256E+01
 -1       457 2.78198E+01
 -1       458 2.86096E+01
 -1       459 1.66717E+01
 -1       460 9.66733E+00
 -1       461 7.46570E+00
 -1       462 9.18426E+00
 -1       463 1.10133E+01
 -1       464 1.05109E+01
 -1       465 9.87302E+00
 -1       466 7.55431E+00
 -1       467 9.46625E+00
 -1       468 1.63705E+01
 -1       469 2.85060E+01
 -1       470 2.77165E+01
 -1       471 1.04892E+00
 -1       472 4.85831E-01
 -1       473 5.10535E-01
 -1       474 4.31495E-01
 -1       475 4.57342E-01
 -1       476 4.86882E-01
 -1       477 5.10919E-01
 -1       478 5.10919E-01
 -1       479 6.08018E-01
 -1       480 1.06916E+01
 -1       481 1.67195E+01
 -1       482 8.92381E-01
 -1       483 8.02942E-01
 -1       484 7.03562E-01
 -1       485 5.89613E-01
 -1       486 4.77144E-01
 -1       487 3.78227E-01
 -1       488 3.24865E-01
 -1       489 2.74848E-01
 -1       490 2.27338E-01
 -1       491 1.85960E-01
 -1       492 1.50845E-01
 -1       493 1.19439E-01
 -1       494 9.20932E-02
 -1       495 6.86657E-02
 -1       496 5.01671E-02
 -1       497 4.90341E-02
 -1       498 4.86769E-02
 -1       499 4.84876E-02
 -1       500 5.18941E-02
 -1       501 6.40603E-02
 -1       502 8.64613E-02
 -1       503 1.17225E-01
 -1       504 1.83602E-01
 -1       505 2.99532E-01
 -1       506 4.43465E-01
 -1       507 6.18864E-01
 -1       508 8.48608E-01
 -1       509 1.06236E+00
 -1       510 1.21307E+00
 -1       511 1.33796E+00
 -1       512 1.39181E+00
 -1       513 1.35137E+00
 -1       514 1.34404E+00
 -1       515 1.39126E+00
 -1       516 1.34573E+00
 -1       517 1.22382E+00
 -1       518 1.08240E+00
 -1       519 8.74406E-01
 -1       520 6.47955E-01
 -1       521 4.76644E-01
 -1       522 3.35475E-01
 -1       523 2.21684E-01
 -1       524 1.42087E-01
 -1       525 9.50710E-02
 -1       526 6.44477E-02
 -1       527 5.39338E-01
 -1       528 4.36763E-01
 -1       529 3.70859E-01
 -1       530 3.07926E-01
 -1       531 2.54749E-01
 -1       532 2.05707E-01
 -1       533 1.66853E-01
 -1       534 1.33418E-01
 -1       535 1.05179E-01
 -1       536 8.48902E-02
 -1       537 7.15972E-02
 -1       538 8.37916E-02
 -1       539 1.12764E-01
 -1       540 1.85079E-01
 -1       541 2.88107E-01
 -1       542 4.36596E-01
 -1       543 6.54093E-01
 -1       544 9.72215E-01
 -1       545 1.43555E+00
 -1       546 2.13692E+00
 -1       547 3.14294E+00
 -1       548 4.60860E+00
 -1       549 6.73402E+00
 -1       550 7.62510E+00
 -1       551 9.40948E+00
 -1       552 1.41482E+01
 -1       553 6.17347E+00
 -1       554 3.93888E+00
 -1       555 2.71285E+00
 -1       556 1.84760E+00
 -1       557 1.23099E+00
 -1       558 7.92755E-01
 -1       559 5.07120E-01
 -1       560 2.76690E-01
 -1       561 1.36697E-01
 -1       562 2.32743E-01
 -1       563 2.13838E-01
 -1       564 2.27257E-01
 -1       565 2.32743E-01
 -1       566 2.02893E-01
 -1       567 1.55698E-01
 -1       568 1.05002E-01
 -1       569 8.33848E-02
 -1       570 8.02420E-02
 -1       571 8.39424E-02
 -1       572 4.43365E-02
 -1       573 7.03527E-01
 -1       574 4.50477E+01
 -1       575 2.77165E+01
 -1       576 8.74221E-01
 -1       577 2.01312E+01
 -1       578 2.78198E+01
 -1       579 4.57077E-01
 -1       580 2.71023E+01
 -1       581 1.04890E+01
 -1       582 5.44713E+00
 -1       583 1.63822E+01
 -1       584 2.47428E+01
 -1       585 4.02256E+01
 -1       586 1.98139E+01
 -1       587 1.42844E+01
 -1       588 9.33960E+00
 -1       589 5.54778E+00
 -1       590 7.19455E+00
 -1       591 8.37419E+00
 -1       592 7.51449E+00
 -1       593 5.40350E+00
 -1       594 5.44332E+00
 -1       595 9.63815E+00
 -1       596 1.28578E+01
 -1       597 1.32820E+00
 -1       598 7.18875E-01
 -1       599 1.83190E+01
 -1       600 1.67195E+01
 -1       601 4.75692E-02
 -1       602 1.59037E-01
 -1       603 3.58485E-01
 -1       604 3.42730E-01
 -1       605 3.61857E-01
 -1       606 3.37889E-01
 -1       607 5.43934E-01
 -1       608 3.98100E-01
 -1       609 3.84293E-01
 -1       610 3.43249E-01
 -1       611 2.93170E-01
 -1       612 2.42784E-01
 -1       613 2.10903E-01
 -1       614 1.77059E-01
 -1       615 1.44146E-01
 -1       616 1.15524E-01
 -1       617 9.00808E-02
 -1       618 6.77995E-02
 -1       619 4.83998E-02
 -1       620 3.26337E-02
 -1       621 3.46479E-02
 -1       622 3.76549E-02
 -1       623 4.65946E-02
 -1       624 6.40603E-02
 -1       625 8.67480E-02
 -1       626 1.34518E-01
 -1       627 1.95828E-01
 -1       628 2.99532E-01
 -1       629 4.43465E-01
 -1       630 6.02011E-01
 -1       631 7.61570E-01
 -1       632 9.14466E-01
 -1       633 1.09077E+00
 -1       634 1.19123E+00
 -1       635 1.29009E+00
 -1       636 1.31198E+00
 -1       637 1.15879E+00
 -1       638 1.28953E+00
 -1       639 1.30557E+00
 -1       640 1.20381E+00
 -1       641 1.10887E+00
 -1       642 9.35191E-01
 -1       643 7.87495E-01
 -1       644 6.31293E-01
 -1       645 4.76644E-01
 -1       646 3.35475E-01
 -1       647 2.21684E-01
 -1       648 1.38759E-01
 -1       649 9.50710E-02
 -1       650 3.24954E-01
 -1       651 1.12821E+01
 -1       652 3.93739E-01
 -1       653 2.33428E-01
 -1       654 1.94315E-01
 -1       655 1.59990E-01
 -1       656 1.29344E-01
 -1       657 1.02373E-01
 -1       658 8.01831E-02
 -1       659 5.60135E-02
 -1       660 5.60087E-02
 -1       661 7.26604E-02
 -1       662 1.23197E-01
 -1       663 1.89255E-01
 -1       664 2.92155E-01
 -1       665 4.63833E-01
 -1       666 7.32249E-01
 -1       667 1.14198E+00
 -1       668 1.80806E+00
 -1       669 2.76720E+00
 -1       670 4.37236E+00
 -1       671 6.91992E+00
 -1       672 1.17820E+01
 -1       673 1.30759E+01
 -1       674 6.92179E+00
 -1       675 3.53897E+00
 -1       676 2.22815E+00
 -1       677 1.41972E+00
 -1       678 8.76671E-01
 -1       679 5.39210E-01
 -1       680 4.08443E-01
 -1       681 8.39424E-02
 -1       682 5.77572E+00
 -1       683 2.45091E-01
 -1       684 3.65823E-01
 -1       685 1.79974E-01
 -1       686 3.00221E-01
 -1       687 1.60060E+01
 -1       688 1.49297E-01
 -1       689 1.28417E-01
 -1       690 1.21303E-01
 -1       691 1.71223E+01
 -1       692 5.61798E+00
 -1       693 4.16787E+00
 -1       694 2.71142E-01
 -1       695 4.07501E-01
 -1       696 9.58748E+00
 -1       697 1.50678E+01
 -1       698 3.61857E-01
 -1       699 3.61230E-01
 -1       700 7.92784E+00
 -1       701 1.07880E+01
 -1       702 1.03182E+01
 -1       703 1.40038E+01
 -1       704 6.30649E+00
 -1       705 3.23641E+00
 -1       706 4.15360E+00
 -1       707 3.12353E+00
 -1       708 5.98617E+00
 -1       709 1.32407E+01
 -1       710 4.14774E-01
 -1       711 3.41960E-01
 -1       712 5.15854E-01
 -1       713 3.57229E-01
 -1       714 9.59820E+00
 -1       715 1.40038E+01
 -1       716 3.65823E-01
 -1       717 3.89166E-01
 -1       718 4.64043E-01
 -1       719 1.06794E-01
 -1       720 4.46919E-01
 -1       721 2.40761E-01
 -1       722 4.51307E+00
 -1       723 2.55177E-01
 -1       724 2.48106E-01
 -1       725 2.25639E-01
 -1       726 1.96323E-01
 -1       727 1.69526E-01
 -1       728 1.46886E-01
 -1       729 1.22582E-01
 -1       730 9.83562E-02
 -1       731 7.50616E-02
 -1       732 5.29517E-02
 -1       733 3.19115E-02
 -1       734 1.82030E-02
 -1       735 2.87650E-02
 -1       736 4.64452E-02
 -1       737 6.37897E-02
 -1       738 8.91586E-02
 -1       739 1.34518E-01
 -1       740 1.95828E-01
 -1       741 2.87116E-01
 -1       742 4.02874E-01
 -1       743 5.74308E-01
 -1       744 7.61570E-01
 -1       745 9.23772E-01
 -1       746 1.09595E+00
 -1       747 1.17407E+00
 -1       748 1.29560E+00
 -1       749 1.56169E+00
 -1       750 1.51007E+00
 -1       751 1.47320E+00
 -1       752 1.59102E+00
 -1       753 1.31989E+00
 -1       754 1.17354E+00
 -1       755 1.11534E+00
 -1       756 9.43492E-01
 -1       757 7.87495E-01
 -1       758 6.04694E-01
 -1       759 4.28294E-01
 -1       760 2.90487E-01
 -1       761 2.03633E-01
 -1       762 1.26579E-01
 -1       763 1.96067E-01
 -1       764 1.06146E+01
 -1       765 1.57897E-01
 -1       766 1.86044E-01
 -1       767 1.03369E-01
 -1       768 7.75069E-02
 -1       769 5.23907E-02
 -1       770 3.36277E-02
 -1       771 4.55925E-02
 -1       772 9.19761E-02
 -1       773 1.56803E-01
 -1       774 2.50805E-01
 -1       775 3.87960E-01
 -1       776 5.90080E-01
 -1       777 8.91514E-01
 -1       778 1.40155E+00
 -1       779 2.10311E+00
 -1       780 3.29756E+00
 -1       781 5.36095E+00
 -1       782 9.43294E+00
 -1       783 2.75123E+00
 -1       784 1.77181E+00
 -1       785 3.66063E+00
 -1       786 1.30213E-01
 -1       787 6.43840E+00
 -1       788 1.12266E+00
 -1       789 7.15371E-01
 -1       790 7.35779E-01
 -1       791 8.42668E+00
 -1       792 2.56174E+00
 -1       793 2.88606E-01
 -1       794 2.05257E-01
 -1       795 3.67858E+00
 -1       796 2.83858E-01
 -1       797 1.87909E-01
 -1       798 2.46785E-01
 -1       799 2.14284E-01
 -1       800 2.51761E-01
 -1       801 2.85840E-01
 -1       802 2.08798E-01
 -1       803 2.68536E+00
 -1       804 2.85281E-01
 -1       805 2.33463E-01
 -1       806 9.70491E+00
 -1       807 3.82352E+00
 -1       808 3.84258E+00
 -1       809 6.15055E+00
 -1       810 5.94568E+00
 -1       811 7.20269E+00
 -1       812 2.81769E-01
 -1       813 1.01284E+01
 -1       814 8.74151E+00
 -1       815 2.74286E+00
 -1       816 7.35779E-01
 -1       817 4.97249E-01
 -1       818 4.24865E-01
 -1       819 3.06652E-01
 -1       820 2.80428E-01
 -1       821 6.69000E+00
 -1       822 2.88606E-01
 -1       823 3.21968E+00
 -1       824 2.00573E-01
 -1       825 2.48154E-01
 -1       826 1.48948E-01
 -1       827 2.67785E-01
 -1       828 1.81716E-01
 -1       829 1.73812E-01
 -1       830 1.57083E-01
 -1       831 1.35987E-01
 -1       832 1.19807E-01
 -1       833 1.01473E-01
 -1       834 8.21827E-02
 -1       835 6.27799E-02
 -1       836 4.34978E-02
 -1       837 3.49778E-02
 -1       838 3.21277E-02
 -1       839 4.60876E-02
 -1       840 6.70823E-02
 -1       841 9.37670E-02
 -1       842 1.33166E-01
 -1       843 1.89890E-01
 -1       844 2.87116E-01
 -1       845 4.02874E-01
 -1       846 5.56395E-01
 -1       847 7.49308E-01
 -1       848 9.23772E-01
 -1       849 1.12474E+00
 -1       850 1.33088E+00
 -1       851 1.44884E+00
 -1       852 1.84672E+00
 -1       853 2.13068E+00
 -1       854 2.95868E+00
 -1       855 3.95994E+00
 -1       856 2.92412E+00
 -1       857 2.34384E+00
 -1       858 1.35037E+00
 -1       859 1.14055E+00
 -1       860 9.43492E-01
 -1       861 7.49402E-01
 -1       862 5.64519E-01
 -1       863 4.09232E-01
 -1       864 2.90487E-01
 -1       865 5.72684E+00
 -1       866 1.43604E-01
 -1       867 6.69650E-02
 -1       868 8.73933E-02
 -1       869 5.34106E-02
 -1       870 7.45970E-02
 -1       871 1.20547E-01
 -1       872 1.84616E-01
 -1       873 2.71593E-01
 -1       874 3.89813E-01
 -1       875 5.49715E-01
 -1       876 8.97417E-01
 -1       877 1.36468E+00
 -1       878 2.12738E+00
 -1       879 3.27334E+00
 -1       880 6.04663E+00
 -1       881 1.08789E-01
 -1       882 7.16995E+00
 -1       883 7.35779E-01
 -1       884 2.00573E-01
 -1       885 4.11440E+00
 -1       886 5.32104E+00
 -1       887 2.35007E+00
 -1       888 2.72623E-01
 -1       889 3.92747E+00
 -1       890 2.95868E+00
 -1       891 3.95994E+00
 -1       892 3.94984E-01
 -1       893 1.72497E-01
 -1       894 1.93846E-01
 -1       895 1.29699E-01
 -1       896 4.91322E-02
 -1       897 1.57192E+00
 -1       898 9.29891E-01
 -1       899 2.07863E-01
 -1       900 2.40908E+00
 -1       901 3.90125E+00
 -1       902 6.48560E+00
 -1       903 3.95994E+00
 -1       904 1.49091E-01
 -1       905 1.74121E-01
 -1       906 4.13015E+00
 -1       907 1.93069E-01
 -1       908 6.76944E-01
 -1       909 2.67712E+00
 -1       910 2.08995E-01
 -1       911 2.95868E+00
 -1       912 4.69234E-01
 -1       913 4.44464E-01
 -1       914 2.17348E-01
 -1       915 1.65695E-01
 -1       916 3.92864E+00
 -1       917 2.92412E+00
 -1       918 1.18619E-01
 -1       919 2.17348E-01
 -1       920 2.48154E-01
 -1       921 4.44464E-01
 -1       922 1.54507E-01
 -1       923 4.39394E+00
 -1       924 2.48154E-01
 -1       925 1.34048E-01
 -1       926 1.24312E-01
 -1       927 1.09742E-01
 -1       928 9.56006E-02
 -1       929 8.16026E-02
 -1       930 6.63495E-02
 -1       931 5.42156E-02
 -1       932 5.04940E-02
 -1       933 4.68071E-02
 -1       934 5.38035E-02
 -1       935 7.32267E-02
 -1       936 9.67141E-02
 -1       937 1.43798E-01
 -1       938 2.04269E-01
 -1       939 2.75796E-01
 -1       940 3.91530E-01
 -1       941 5.56395E-01
 -1       942 7.49308E-01
 -1       943 1.02594E+00
 -1       944 1.34063E+00
 -1       945 1.64953E+00
 -1       946 1.44884E+00
 -1       947 2.39728E+00
 -1       948 2.95258E+00
 -1       949 2.67712E+00
 -1       950 1.99275E+00
 -1       951 1.59935E+00
 -1       952 1.03191E+00
 -1       953 7.49402E-01
 -1       954 5.64519E-01
 -1       955 5.35376E-01
 -1       956 1.57192E+00
 -1       957 2.27605E+00
 -1       958 9.28083E-02
 -1       959 6.64656E-02
 -1       960 1.96081E-01
 -1       961 2.91545E-01
 -1       962 4.31136E-01
 -1       963 6.64043E-01
 -1       964 9.12984E-01
 -1       965 1.54382E+00
 -1       966 2.57064E+00
 -1       967 3.45602E+00
 -1       968 8.87311E-02
 -1       969 4.87238E+00
 -1       970 2.65917E+00
 -1       971 3.26276E+00
 -1       972 4.69234E-01
 -1       973 1.49950E-01
 -1       974 1.23322E-01
 -1       975 7.18978E-02
 -1       976 1.04501E-01
 -1       977 3.04600E+00
 -1       978 2.37885E-01
 -1       979 4.84182E+00
 -1       980 2.04696E-01
 -1       981 1.36815E-01
 -1       982 1.19175E-01
 -1       983 1.35378E-01
 -1       984 1.32404E-01
 -1       985 1.25116E-01
 -1       986 2.33982E+00
 -1       987 1.38518E-01
 -1       988 1.07187E+00
 -1       989 1.52443E-01
 -1       990 2.24137E+00
 -1       991 6.14806E-02
 -1       992 1.22373E+00
 -1       993 1.47531E-01
 -1       994 1.52348E-01
 -1       995 4.96008E-01
 -1       996 2.75701E+00
 -1       997 5.86973E-02
 -1       998 3.60490E+00
 -1       999 1.52443E-01
 -1      1000 5.35376E-01
 -1      1001 1.16056E-01
 -1      1002 1.01413E-01
 -1      1003 1.56968E+00
 -1      1004 9.64652E-02
 -1      1005 8.61773E-02
 -1      1006 7.38277E-02
 -1      1007 6.73698E-02
 -1      1008 6.23670E-02
 -1      1009 6.12603E-02
 -1      1010 6.20639E-02
 -1      1011 6.44950E-02
 -1      1012 7.76904E-02
 -1      1013 1.07457E-01
 -1      1014 1.46407E-01
 -1      1015 2.04900E-01
 -1      1016 3.07782E-01
 -1      1017 4.37348E-01
 -1      1018 5.82451E-01
 -1      1019 7.66076E-01
 -1      1020 1.02594E+00
 -1      1021 1.70343E+00
 -1      1022 1.72427E+00
 -1      1023 1.31084E+00
 -1      1024 7.43414E-01
 -1      1025 5.53194E-01
 -1      1026 1.25116E-01
 -1      1027 2.99419E-01
 -1      1028 2.19960E-01
 -1      1029 7.41292E-01
 -1      1030 1.13325E+00
 -1      1031 1.74152E+00
 -1      1032 2.32335E+00
 -1      1033 8.96600E-02
 -1      1034 1.64953E+00
 -1      1035 2.71471E+00
 -1      1036 1.45587E-01
 -1      1037 4.71438E-01
 -1      1038 8.94783E-02
 -1      1039 1.16116E-01
 -1      1040 6.89768E-02
 -1      1041 8.04108E-02
 -1      1042 2.22084E+00
 -1      1043 7.56950E-01
 -1      1044 1.51576E-01
 -1      1045 1.15271E-01
 -1      1046 1.17047E-01
 -1      1047 1.02473E-01
 -1      1048 1.60022E-01
 -1      1049 9.83912E-02
 -1      1050 3.03150E+00
 -1      1051 7.41610E-01
 -1      1052 1.05907E-01
 -1      1053 1.07161E-01
 -1      1054 9.74961E-02
 -1      1055 6.38272E-02
 -1      1056 3.03150E+00
 -1      1057 9.35693E-02
 -1      1058 1.06086E-01
 -1      1059 1.32771E+00
 -1      1060 8.56153E-02
 -1      1061 7.76068E-02
 -1      1062 6.73698E-02
 -1      1063 6.41574E-02
 -1      1064 1.01545E-01
 -1      1065 9.63674E-02
 -1      1066 1.30340E-01
 -1      1067 1.88177E-01
 -1      1068 2.77233E-01
 -1      1069 4.09944E-01
 -1      1070 5.98683E-01
 -1      1071 8.52514E-01
 -1      1072 1.12975E+00
 -1      1073 1.64135E+00
 -1      1074 2.06256E+00
 -1      1075 1.94831E+00
 -1      1076 1.60668E+00
 -1      1077 1.18735E+00
 -1      1078 1.79725E+00
 -1      1079 1.12975E+00
 -1      1080 7.15007E-02
 -1      1081 4.09944E-01
 -1      1082 5.39101E-02
 -1      1083 9.26671E-02
 -1      1084 2.47489E+00
 -1      1085 2.47489E+00
 -1      1086 8.56153E-02
 -1      1087 8.73431E-02
 -1      1088 8.52514E-01
 -1      1089 9.15197E-02
 -1      1090 8.70187E-02
 -1      1091 5.98683E-01
 -1      1092 1.30340E-01
 -1      1093 7.12421E-02
 -1      1094 1.88177E-01
 -1      1095 9.26671E-02
 -1      1096 9.15197E-02
 -1      1097 1.06086E-01
 -1      1098 1.01545E-01
 -1      1099 2.77233E-01
 -1      1100 7.73511E-02
 -1      1101 7.76068E-02
 -1      1102 6.09452E-02
 -1      1103 1.01545E-01
 -1      1104 9.26671E-02
 -1      1105 6.41574E-02
 -1      1106 6.38272E-02
 -1      1107 1.31441E+01
 -1      1108 8.40355E+00
 -1      1109 2.74303E+00
 -1      1110 1.55708E+00
 -1      1111 1.16831E+00
 -1      1112 9.72264E-01
 -1      1113 8.53813E-01
 -1      1114 7.81235E-01
 -1      1115 7.54813E-01
 -1      1116 7.84369E-01
 -1      1117 8.56743E-01
 -1      1118 9.76383E-01
 -1      1119 1.17976E+00
 -1      1120 1.57111E+00
 -1      1121 2.66985E+00
 -1      1122 6.07316E+00
 -1      1123 1.13408E+01
 -1      1124 1.31441E+01
 -1      1125 8.73151E+00
 -1      1126 3.83066E+00
 -1      1127 2.72778E+00
 -1      1128 1.73883E+00
 -1      1129 1.19045E+00
 -1      1130 8.97245E-01
 -1      1131 6.88674E-01
 -1      1132 5.29683E-01
 -1      1133 4.06234E-01
 -1      1134 3.13378E-01
 -1      1135 2.43180E-01
 -1      1136 1.87337E-01
 -1      1137 1.43632E-01
 -1      1138 1.10549E-01
 -1      1139 9.12821E-02
 -1      1140 8.26264E-02
 -1      1141 7.76213E-02
 -1      1142 7.57639E-02
 -1      1143 8.34290E-02
 -1      1144 1.02250E-01
 -1      1145 1.21858E-01
 -1      1146 1.42872E-01
 -1      1147 1.81601E-01
 -1      1148 2.35580E-01
 -1      1149 3.41136E-01
 -1      1150 5.07816E-01
 -1      1151 6.89080E-01
 -1      1152 9.74396E-01
 -1      1153 1.39464E+00
 -1      1154 1.85210E+00
 -1      1155 2.23792E+00
 -1      1156 2.42632E+00
 -1      1157 2.45889E+00
 -1      1158 2.45411E+00
 -1      1159 2.42637E+00
 -1      1160 2.25491E+00
 -1      1161 1.88000E+00
 -1      1162 1.42488E+00
 -1      1163 1.00263E+00
 -1      1164 7.00796E-01
 -1      1165 5.01815E-01
 -1      1166 3.30699E-01
 -1      1167 2.06046E-01
 -1      1168 1.29491E-01
 -1      1169 8.54682E-02
 -1      1170 6.71936E-02
 -1      1171 5.48238E-02
 -1      1172 4.56360E-02
 -1      1173 2.62695E-02
 -1      1174 1.40400E+01
 -1      1175 8.71784E+00
 -1      1176 2.90502E+00
 -1      1177 2.04098E+00
 -1      1178 1.40772E+00
 -1      1179 1.02656E+00
 -1      1180 8.15720E-01
 -1      1181 6.55577E-01
 -1      1182 5.26440E-01
 -1      1183 4.19565E-01
 -1      1184 3.37883E-01
 -1      1185 2.70753E-01
 -1      1186 2.13670E-01
 -1      1187 1.72464E-01
 -1      1188 1.41815E-01
 -1      1189 1.23275E-01
 -1      1190 1.23278E-01
 -1      1191 1.43478E-01
 -1      1192 1.81458E-01
 -1      1193 2.46273E-01
 -1      1194 3.35331E-01
 -1      1195 4.73437E-01
 -1      1196 6.94801E-01
 -1      1197 1.00707E+00
 -1      1198 1.41848E+00
 -1      1199 1.95543E+00
 -1      1200 2.42628E+00
 -1      1201 2.89232E+00
 -1      1202 3.88619E+00
 -1      1203 4.67693E+00
 -1      1204 4.77575E+00
 -1      1205 6.00874E+00
 -1      1206 1.08509E+01
 -1      1207 1.55048E+01
 -1      1208 1.65495E+01
 -1      1209 1.53191E+01
 -1      1210 9.74303E+00
 -1      1211 5.21403E+00
 -1      1212 5.42368E+00
 -1      1213 5.81674E+00
 -1      1214 5.45090E+00
 -1      1215 4.47690E+00
 -1      1216 3.34824E+00
 -1      1217 2.38888E+00
 -1      1218 1.61892E+00
 -1      1219 1.08954E+00
 -1      1220 7.41740E-01
 -1      1221 4.99811E-01
 -1      1222 3.32931E-01
 -1      1223 2.06989E-01
 -1      1224 9.79856E-02
 -1      1225 5.17978E-02
 -1      1226 6.31220E-02
 -1      1227 5.29858E-02
 -1      1228 3.71401E-02
 -1      1229 4.02703E-02
 -1      1230 5.04670E-02
 -1      1231 5.18239E-02
 -1      1232 4.78047E-02
 -1      1233 3.62037E-02
 -1      1234 2.01976E-02
 -1      1235 1.23885E-02
 -1      1236 1.49536E-02
 -1      1237 1.72130E-02
 -1      1238 1.75224E-02
 -1      1239 1.97022E-02
 -1      1240 2.24831E-02
 -1      1241 1.66994E-02
 -1      1242 2.47855E+01
 -1      1243 2.59113E+01
 -1      1244 3.11329E+01
 -1      1245 3.63545E+01
 -1      1246 2.55558E+01
 -1      1247 1.44776E+01
 -1      1248 1.41979E+01
 -1      1249 1.39864E+01
 -1      1250 1.37749E+01
 -1      1251 1.44618E+01
 -1      1252 2.47996E+01
 -1      1253 3.44506E+01
 -1      1254 3.01037E+01
 -1      1255 2.57567E+01
 -1      1256 2.53827E+01
 -1      1257 2.48006E+01
 -1      1258 3.59511E+01
 -1      1259 4.73098E+01
 -1      1260 3.44659E+01
 -1      1261 1.66238E+01
 -1      1262 1.18736E+01
 -1      1263 1.21215E+01
 -1      1264 1.19140E+01
 -1      1265 1.17066E+01
 -1      1266 1.16336E+01
 -1      1267 1.56774E+01
 -1      1268 3.34751E+01
 -1      1269 4.71561E+01
 -1      1270 3.54151E+01
 -1      1271 2.36668E+01
 -1      1272 1.31441E+01
 -1      1273 4.87006E+00
 -1      1274 9.61063E+00
 -1      1275 2.06023E+00
 -1      1276 2.98018E+00
 -1      1277 4.18725E+00
 -1      1278 1.39945E+00
 -1      1279 1.66545E+00
 -1      1280 1.90260E+00
 -1      1281 1.10130E+00
 -1      1282 1.22406E+00
 -1      1283 1.33244E+00
 -1      1284 9.35946E-01
 -1      1285 1.00923E+00
 -1      1286 1.06498E+00
 -1      1287 8.36284E-01
 -1      1288 8.81454E-01
 -1      1289 9.18417E-01
 -1      1290 7.74885E-01
 -1      1291 8.02293E-01
 -1      1292 8.29934E-01
 -1      1293 7.55799E-01
 -1      1294 7.54813E-01
 -1      1295 7.75871E-01
 -1      1296 8.06145E-01
 -1      1297 7.77575E-01
 -1      1298 7.77575E-01
 -1      1299 8.83799E-01
 -1      1300 8.39995E-01
 -1      1301 8.33201E-01
 -1      1302 1.01647E+00
 -1      1303 9.40637E-01
 -1      1304 9.23889E-01
 -1      1305 1.23970E+00
 -1      1306 1.11216E+00
 -1      1307 1.07642E+00
 -1      1308 1.68101E+00
 -1      1309 1.41719E+00
 -1      1310 1.34960E+00
 -1      1311 2.88252E+00
 -1      1312 2.04760E+00
 -1      1313 1.89368E+00
 -1      1314 6.28610E+00
 -1      1315 3.71772E+00
 -1      1316 3.09547E+00
 -1      1317 1.40400E+01
 -1      1318 1.13408E+01
 -1      1319 8.98533E+00
 -1      1320 1.40400E+01
 -1      1321 8.73151E+00
 -1      1322 4.31891E+00
 -1      1323 3.83066E+00
 -1      1324 3.34242E+00
 -1      1325 3.83066E+00
 -1      1326 2.72778E+00
 -1      1327 2.11314E+00
 -1      1328 2.72778E+00
 -1      1329 1.78088E+00
 -1      1330 1.40657E+00
 -1      1331 1.78088E+00
 -1      1332 1.19595E+00
 -1      1333 1.02188E+00
 -1      1334 1.23800E+00
 -1      1335 8.97245E-01
 -1      1336 7.78107E-01
 -1      1337 9.02740E-01
 -1      1338 6.88674E-01
 -1      1339 5.99240E-01
 -1      1340 6.88674E-01
 -1      1341 5.35396E-01
 -1      1342 4.65839E-01
 -1      1343 5.35396E-01
 -1      1344 4.16193E-01
 -1      1345 3.62301E-01
 -1      1346 4.21906E-01
 -1      1347 3.22535E-01
 -1      1348 2.83571E-01
 -1      1349 3.32494E-01
 -1      1350 2.55227E-01
 -1      1351 2.23993E-01
 -1      1352 2.64384E-01
 -1      1353 1.99800E-01
 -1      1354 1.75191E-01
 -1      1355 2.11847E-01
 -1      1356 1.54977E-01
 -1      1357 1.35882E-01
 -1      1358 1.67441E-01
 -1      1359 1.19220E-01
 -1      1360 1.05233E-01
 -1      1361 1.30566E-01
 -1      1362 9.15631E-02
 -1      1363 8.62830E-02
 -1      1364 1.00234E-01
 -1      1365 8.26264E-02
 -1      1366 7.92507E-02
 -1      1367 8.29073E-02
 -1      1368 7.76213E-02
 -1      1369 7.59919E-02
 -1      1370 7.76213E-02
 -1      1371 7.56553E-02
 -1      1372 7.54273E-02
 -1      1373 7.56553E-02
 -1      1374 7.55358E-02
 -1      1375 8.34290E-02
 -1      1376 7.54273E-02
 -1      1377 9.13222E-02
 -1      1378 1.02250E-01
 -1      1379 8.34290E-02
 -1      1380 1.13178E-01
 -1      1381 1.21858E-01
 -1      1382 1.02250E-01
 -1      1383 1.30538E-01
 -1      1384 1.42872E-01
 -1      1385 1.21858E-01
 -1      1386 1.55205E-01
 -1      1387 1.81601E-01
 -1      1388 1.42872E-01
 -1      1389 2.07996E-01
 -1      1390 2.35580E-01
 -1      1391 1.81601E-01
 -1      1392 2.68237E-01
 -1      1393 3.46209E-01
 -1      1394 2.40653E-01
 -1      1395 4.40751E-01
 -1      1396 5.29458E-01
 -1      1397 3.67852E-01
 -1      1398 6.45993E-01
 -1      1399 7.38550E-01
 -1      1400 5.78928E-01
 -1      1401 8.68606E-01
 -1      1402 1.06137E+00
 -1      1403 8.25519E-01
 -1      1404 1.21194E+00
 -1      1405 1.43942E+00
 -1      1406 1.10615E+00
 -1      1407 1.62212E+00
 -1      1408 1.85210E+00
 -1      1409 1.43942E+00
 -1      1410 2.08208E+00
 -1      1411 2.23792E+00
 -1      1412 1.85210E+00
 -1      1413 2.39375E+00
 -1      1414 2.42632E+00
 -1      1415 2.23792E+00
 -1      1416 2.45889E+00
 -1      1417 2.45889E+00
 -1      1418 2.42632E+00
 -1      1419 2.45411E+00
 -1      1420 2.44933E+00
 -1      1421 2.45411E+00
 -1      1422 2.42637E+00
 -1      1423 2.40341E+00
 -1      1424 2.42637E+00
 -1      1425 2.25491E+00
 -1      1426 2.10641E+00
 -1      1427 2.25491E+00
 -1      1428 1.88000E+00
 -1      1429 1.65360E+00
 -1      1430 1.88000E+00
 -1      1431 1.46871E+00
 -1      1432 1.24000E+00
 -1      1433 1.46871E+00
 -1      1434 1.08789E+00
 -1      1435 8.94352E-01
 -1      1436 1.13171E+00
 -1      1437 7.65385E-01
 -1      1438 6.57081E-01
 -1      1439 8.50637E-01
 -1      1440 5.41197E-01
 -1      1441 4.50519E-01
 -1      1442 6.05785E-01
 -1      1443 3.56732E-01
 -1      1444 2.76294E-01
 -1      1445 3.96114E-01
 -1      1446 2.07435E-01
 -1      1447 1.63221E-01
 -1      1448 2.33468E-01
 -1      1449 1.29491E-01
 -1      1450 9.71491E-02
 -1      1451 1.30879E-01
 -1      1452 8.54682E-02
 -1      1453 7.37874E-02
 -1      1454 8.54682E-02
 -1      1455 6.71936E-02
 -1      1456 6.05999E-02
 -1      1457 6.71936E-02
 -1      1458 5.48238E-02
 -1      1459 4.90477E-02
 -1      1460 5.48238E-02
 -1      1461 4.56360E-02
 -1      1462 4.22243E-02
 -1      1463 4.56360E-02
 -1      1464 3.26542E-02
 -1      1465 3.26542E-02
 -1      1466 3.39569E+00
 -1      1467 8.71784E+00
 -1      1468 8.71784E+00
 -1      1469 2.41436E+00
 -1      1470 2.90502E+00
 -1      1471 2.90502E+00
 -1      1472 1.66759E+00
 -1      1473 2.04098E+00
 -1      1474 2.04098E+00
 -1      1475 1.14785E+00
 -1      1476 1.40772E+00
 -1      1477 1.40772E+00
 -1      1478 9.05274E-01
 -1      1479 1.02656E+00
 -1      1480 1.02656E+00
 -1      1481 7.26167E-01
 -1      1482 8.15720E-01
 -1      1483 8.15720E-01
 -1      1484 5.84988E-01
 -1      1485 6.55577E-01
 -1      1486 6.55577E-01
 -1      1487 4.67893E-01
 -1      1488 5.26440E-01
 -1      1489 5.26440E-01
 -1      1490 3.71236E-01
 -1      1491 4.19565E-01
 -1      1492 4.19565E-01
 -1      1493 3.04529E-01
 -1      1494 3.37883E-01
 -1      1495 3.37883E-01
 -1      1496 2.36978E-01
 -1      1497 2.70753E-01
 -1      1498 2.70753E-01
 -1      1499 1.90586E-01
 -1      1500 2.13894E-01
 -1      1501 2.13894E-01
 -1      1502 1.55059E-01
 -1      1503 1.72956E-01
 -1      1504 1.73181E-01
 -1      1505 1.29063E-01
 -1      1506 1.41815E-01
 -1      1507 1.42307E-01
 -1      1508 1.17488E-01
 -1      1509 1.23275E-01
 -1      1510 1.23275E-01
 -1      1511 1.21990E-01
 -1      1512 1.16200E-01
 -1      1513 1.16200E-01
 -1      1514 1.43953E-01
 -1      1515 1.29542E-01
 -1      1516 1.22465E-01
 -1      1517 1.86278E-01
 -1      1518 1.62709E-01
 -1      1519 1.48773E-01
 -1      1520 2.66640E-01
 -1      1521 2.25394E-01
 -1      1522 2.06645E-01
 -1      1523 3.61067E-01
 -1      1524 3.13256E-01
 -1      1525 2.92377E-01
 -1      1526 5.26440E-01
 -1      1527 4.36145E-01
 -1      1528 4.14071E-01
 -1      1529 7.65460E-01
 -1      1530 6.34391E-01
 -1      1531 5.97100E-01
 -1      1532 1.09441E+00
 -1      1533 9.13209E-01
 -1      1534 8.52799E-01
 -1      1535 1.51071E+00
 -1      1536 1.28051E+00
 -1      1537 1.18664E+00
 -1      1538 2.05987E+00
 -1      1539 1.75312E+00
 -1      1540 1.61515E+00
 -1      1541 2.47497E+00
 -1      1542 2.31087E+00
 -1      1543 2.10856E+00
 -1      1544 3.08614E+00
 -1      1545 2.78419E+00
 -1      1546 2.66878E+00
 -1      1547 4.15348E+00
 -1      1548 3.46156E+00
 -1      1549 3.35343E+00
 -1      1550 4.67693E+00
 -1      1551 4.57810E+00
 -1      1552 4.15348E+00
 -1      1553 4.77575E+00
 -1      1554 4.77575E+00
 -1      1555 4.67693E+00
 -1      1556 5.99251E+00
 -1      1557 4.75952E+00
 -1      1558 4.75952E+00
 -1      1559 1.18967E+01
 -1      1560 8.28751E+00
 -1      1561 7.03829E+00
 -1      1562 1.55048E+01
 -1      1563 1.44601E+01
 -1      1564 1.18967E+01
 -1      1565 1.65495E+01
 -1      1566 1.65495E+01
 -1      1567 1.55048E+01
 -1      1568 1.40886E+01
 -1      1569 1.53191E+01
 -1      1570 1.53191E+01
 -1      1571 5.49436E+00
 -1      1572 9.83994E+00
 -1      1573 9.83994E+00
 -1      1574 4.63431E+00
 -1      1575 4.81773E+00
 -1      1576 4.91463E+00
 -1      1577 5.50873E+00
 -1      1578 5.11567E+00
 -1      1579 4.71937E+00
 -1      1580 5.81674E+00
 -1      1581 5.81674E+00
 -1      1582 5.50873E+00
 -1      1583 5.08506E+00
 -1      1584 5.45090E+00
 -1      1585 5.45090E+00
 -1      1586 3.86874E+00
 -1      1587 4.47690E+00
 -1      1588 4.47690E+00
 -1      1589 2.89017E+00
 -1      1590 3.41067E+00
 -1      1591 3.41067E+00
 -1      1592 2.03607E+00
 -1      1593 2.47494E+00
 -1      1594 2.53736E+00
 -1      1595 1.36888E+00
 -1      1596 1.69997E+00
 -1      1597 1.78603E+00
 -1      1598 9.30173E-01
 -1      1599 1.12847E+00
 -1      1600 1.20951E+00
 -1      1601 5.92240E-01
 -1      1602 7.41740E-01
 -1      1603 7.80673E-01
 -1      1604 4.07381E-01
 -1      1605 4.99811E-01
 -1      1606 4.99811E-01
 -1      1607 2.59471E-01
 -1      1608 3.33921E-01
 -1      1609 3.33921E-01
 -1      1610 1.55498E-01
 -1      1611 2.06989E-01
 -1      1612 2.07979E-01
 -1      1613 1.09310E-01
 -1      1614 7.86384E-02
 -1      1615 7.86384E-02
 -1      1616 6.44175E-02
 -1      1617 7.45537E-02
 -1      1618 9.00702E-02
 -1      1619 4.60810E-02
 -1      1620 5.17905E-02
 -1      1621 7.33584E-02
 -1      1622 7.00783E-02
 -1      1623 6.12386E-02
 -1      1624 7.58890E-02
 -1      1625 7.62535E-02
 -1      1626 7.48965E-02
 -1      1627 9.58648E-02
 -1      1628 7.62535E-02
 -1      1629 7.62535E-02
 -1      1630 1.00683E-01
 -1      1631 7.03572E-02
 -1      1632 7.43764E-02
 -1      1633 9.88060E-02
 -1      1634 5.22238E-02
 -1      1635 5.98056E-02
 -1      1636 8.63774E-02
 -1      1637 2.83735E-02
 -1      1638 3.67979E-02
 -1      1639 6.03998E-02
 -1      1640 1.81228E-02
 -1      1641 1.75077E-02
 -1      1642 3.41079E-02
 -1      1643 2.43558E-02
 -1      1644 2.24059E-02
 -1      1645 2.75251E-02
 -1      1646 2.52803E-02
 -1      1647 2.49709E-02
 -1      1648 3.24232E-02
 -1      1649 2.52803E-02
 -1      1650 2.52803E-02
 -1      1651 3.30382E-02
 -1      1652 2.58429E-02
 -1      1653 2.36631E-02
 -1      1654 3.14210E-02
 -1      1655 2.79911E-02
 -1      1656 2.73900E-02
 -1      1657 3.13509E-02
 -1      1658 3.75612E-02
 -1      1659 2.78213E+01
 -1      1660 2.66954E+01
 -1      1661 2.71091E+01
 -1      1662 2.71091E+01
 -1      1663 3.53426E+01
 -1      1664 3.01210E+01
 -1      1665 3.63545E+01
 -1      1666 3.63545E+01
 -1      1667 1.47878E+01
 -1      1668 2.55865E+01
 -1      1669 1.32684E+01
 -1      1670 1.35480E+01
 -1      1671 1.41979E+01
 -1      1672 1.41979E+01
 -1      1673 1.33529E+01
 -1      1674 1.35644E+01
 -1      1675 1.37749E+01
 -1      1676 1.37749E+01
 -1      1677 1.37282E+01
 -1      1678 1.30414E+01
 -1      1679 2.47996E+01
 -1      1680 1.51486E+01
 -1      1681 3.44506E+01
 -1      1682 3.44506E+01
 -1      1683 2.90425E+01
 -1      1684 3.33895E+01
 -1      1685 2.59772E+01
 -1      1686 2.59772E+01
 -1      1687 2.69237E+01
 -1      1688 2.72977E+01
 -1      1689 2.67156E+01
 -1      1690 2.69237E+01
 -1      1691 3.79597E+01
 -1      1692 2.66011E+01
 -1      1693 4.73098E+01
 -1      1694 4.73098E+01
 -1      1695 2.20030E+01
 -1      1696 3.48469E+01
 -1      1697 1.14946E+01
 -1      1698 1.64927E+01
 -1      1699 1.18736E+01
 -1      1700 1.16256E+01
 -1      1701 1.21215E+01
 -1      1702 1.21215E+01
 -1      1703 1.14451E+01
 -1      1704 1.16526E+01
 -1      1705 1.17066E+01
 -1      1706 1.17066E+01
 -1      1707 1.15607E+01
 -1      1708 1.16336E+01
 -1      1709 1.54878E+01
 -1      1710 1.13711E+01
 -1      1711 3.45386E+01
 -1      1712 2.08576E+01
 -1      1713 4.71561E+01
 -1      1714 4.71561E+01
 -1      1715 2.60900E+01
 -1      1716 3.78311E+01
 -1      1717 2.66954E+01
 -1      1718 2.67026E+01
 -1      1719 2.55865E+01
 -1      1720 3.53426E+01
 -1      1721 1.09310E-01
 -1      1722 1.24826E-01
 -1      1723 2.90191E+01
 -1      1724 3.13188E+01
 -1      1725 2.97312E+01
 -1      1726 1.35786E+01
 -1      1727 1.32684E+01
 -1      1728 1.35644E+01
 -1      1729 1.33529E+01
 -1      1730 1.30414E+01
 -1      1731 1.37282E+01
 -1      1732 2.47996E+01
 -1      1733 3.33895E+01
 -1      1734 2.92630E+01
 -1      1735 2.75182E+01
 -1      1736 2.88388E+01
 -1      1737 2.87242E+01
 -1      1738 3.79597E+01
 -1      1739 3.48469E+01
 -1      1740 1.68738E+01
 -1      1741 1.14946E+01
 -1      1742 1.18736E+01
 -1      1743 1.16526E+01
 -1      1744 1.14451E+01
 -1      1745 1.16336E+01
 -1      1746 1.13711E+01
 -1      1747 1.65513E+01
 -1      1748 3.45386E+01
 -1      1749 3.78311E+01
 -1      1750 2.91186E+01
 -1      1751 9.61063E+00
 -1      1752 1.27697E+00
 -1      1753 1.67174E+00
 -1      1754 2.38836E+00
 -1      1755 4.27824E+00
 -1      1756 1.76273E+00
 -1      1757 8.82039E-01
 -1      1758 9.74112E-01
 -1      1759 7.78847E-01
 -1      1760 8.33339E-01
 -1      1761 7.42469E-01
 -1      1762 7.13726E-01
 -1      1763 7.47717E-01
 -1      1764 6.62639E-01
 -1      1765 6.71616E-01
 -1      1766 6.91687E-01
 -1      1767 6.09470E-01
 -1      1768 6.95032E-01
 -1      1769 6.73256E-01
 -1      1770 5.89072E-01
 -1      1771 7.50692E-01
 -1      1772 7.16842E-01
 -1      1773 6.12522E-01
 -1      1774 8.40854E-01
 -1      1775 7.84016E-01
 -1      1776 6.67657E-01
 -1      1777 9.84102E-01
 -1      1778 8.88410E-01
 -1      1779 7.48537E-01
 -1      1780 1.22927E+00
 -1      1781 1.05178E+00
 -1      1782 8.63773E-01
 -1      1783 1.70981E+00
 -1      1784 1.34322E+00
 -1      1785 1.04540E+00
 -1      1786 2.62948E+00
 -1      1787 1.79429E+00
 -1      1788 1.24383E+00
 -1      1789 8.12051E+00
 -1      1790 3.06584E+00
 -1      1791 1.76466E+00
 -1      1792 2.79835E+00
 -1      1793 5.19802E+00
 -1      1794 2.16445E+00
 -1      1795 2.65511E+00
 -1      1796 2.05778E+00
 -1      1797 3.39913E+00
 -1      1798 2.53638E+00
 -1      1799 1.92174E+00
 -1      1800 1.69094E+00
 -1      1801 1.35868E+00
 -1      1802 1.49954E+00
 -1      1803 1.17856E+00
 -1      1804 9.67939E-01
 -1      1805 1.08862E+00
 -1      1806 8.42433E-01
 -1      1807 7.17800E-01
 -1      1808 7.82998E-01
 -1      1809 6.59568E-01
 -1      1810 5.70135E-01
 -1      1811 5.99261E-01
 -1      1812 5.21867E-01
 -1      1813 4.58023E-01
 -1      1814 4.92762E-01
 -1      1815 4.15551E-01
 -1      1816 3.65905E-01
 -1      1817 4.02022E-01
 -1      1818 3.32494E-01
 -1      1819 2.92728E-01
 -1      1820 3.26139E-01
 -1      1821 2.65026E-01
 -1      1822 2.36682E-01
 -1      1823 2.65026E-01
 -1      1824 2.12742E-01
 -1      1825 1.88550E-01
 -1      1826 2.13385E-01
 -1      1827 1.69047E-01
 -1      1828 1.48833E-01
 -1      1829 1.69942E-01
 -1      1830 1.33240E-01
 -1      1831 1.16578E-01
 -1      1832 1.34846E-01
 -1      1833 1.02998E-01
 -1      1834 8.93286E-02
 -1      1835 1.05673E-01
 -1      1836 7.81171E-02
 -1      1837 7.44605E-02
 -1      1838 8.08817E-02
 -1      1839 7.24072E-02
 -1      1840 7.07778E-02
 -1      1841 6.76170E-02
 -1      1842 6.96116E-02
 -1      1843 6.92750E-02
 -1      1844 6.43975E-02
 -1      1845 6.85322E-02
 -1      1846 6.86407E-02
 -1      1847 6.24885E-02
 -1      1848 6.92366E-02
 -1      1849 7.71298E-02
 -1      1850 6.23415E-02
 -1      1851 8.20425E-02
 -1      1852 9.29705E-02
 -1      1853 6.78501E-02
 -1      1854 9.40468E-02
 -1      1855 1.02727E-01
 -1      1856 7.38391E-02
 -1      1857 9.86256E-02
 -1      1858 1.10959E-01
 -1      1859 7.08142E-02
 -1      1860 1.34859E-01
 -1      1861 1.61254E-01
 -1      1862 9.06129E-02
 -1      1863 2.17208E-01
 -1      1864 2.49866E-01
 -1      1865 1.70467E-01
 -1      1866 3.24377E-01
 -1      1867 4.18918E-01
 -1      1868 3.00932E-01
 -1      1869 5.10001E-01
 -1      1870 6.26536E-01
 -1      1871 4.66526E-01
 -1      1872 7.28174E-01
 -1      1873 8.58230E-01
 -1      1874 6.59247E-01
 -1      1875 9.89081E-01
 -1      1876 1.13965E+00
 -1      1877 8.91735E-01
 -1      1878 1.26039E+00
 -1      1879 1.44310E+00
 -1      1880 1.14333E+00
 -1      1881 1.57137E+00
 -1      1882 1.80135E+00
 -1      1883 1.39235E+00
 -1      1884 1.90469E+00
 -1      1885 2.06053E+00
 -1      1886 1.62396E+00
 -1      1887 2.09688E+00
 -1      1888 2.12945E+00
 -1      1889 1.76365E+00
 -1      1890 2.09293E+00
 -1      1891 2.08815E+00
 -1      1892 1.76349E+00
 -1      1893 2.12319E+00
 -1      1894 2.10023E+00
 -1      1895 1.76201E+00
 -1      1896 2.06934E+00
 -1      1897 1.92084E+00
 -1      1898 1.76616E+00
 -1      1899 1.82208E+00
 -1      1900 1.59567E+00
 -1      1901 1.63650E+00
 -1      1902 1.46767E+00
 -1      1903 1.28279E+00
 -1      1904 1.40974E+00
 -1      1905 1.16508E+00
 -1      1906 1.01297E+00
 -1      1907 1.16405E+00
 -1      1908 8.82502E-01
 -1      1909 7.53535E-01
 -1      1910 9.15872E-01
 -1      1911 6.53280E-01
 -1      1912 5.37396E-01
 -1      1913 6.85146E-01
 -1      1914 4.47371E-01
 -1      1915 3.53583E-01
 -1      1916 4.94865E-01
 -1      1917 2.80048E-01
 -1      1918 2.11189E-01
 -1      1919 3.31304E-01
 -1      1920 1.56211E-01
 -1      1921 1.22481E-01
 -1      1922 2.02791E-01
 -1      1923 9.44276E-02
 -1      1924 8.27467E-02
 -1      1925 1.19760E-01
 -1      1926 6.91176E-02
 -1      1927 6.25238E-02
 -1      1928 7.80769E-02
 -1      1929 5.47123E-02
 -1      1930 4.89362E-02
 -1      1931 5.66362E-02
 -1      1932 4.83084E-02
 -1      1933 4.48967E-02
 -1      1934 4.02336E-02
 -1      1935 4.81969E-02
 -1      1936 1.39957E+00
 -1      1937 1.77295E+00
 -1      1938 1.52304E+00
 -1      1939 1.02011E+00
 -1      1940 1.27999E+00
 -1      1941 1.01196E+00
 -1      1942 8.04401E-01
 -1      1943 9.25687E-01
 -1      1944 7.97954E-01
 -1      1945 6.32753E-01
 -1      1946 7.22306E-01
 -1      1947 6.21433E-01
 -1      1948 5.10875E-01
 -1      1949 5.81465E-01
 -1      1950 4.88051E-01
 -1      1951 4.19376E-01
 -1      1952 4.77923E-01
 -1      1953 4.03811E-01
 -1      1954 3.39581E-01
 -1      1955 3.87909E-01
 -1      1956 3.39392E-01
 -1      1957 2.79639E-01
 -1      1958 3.12993E-01
 -1      1959 2.81338E-01
 -1      1960 2.21326E-01
 -1      1961 2.55102E-01
 -1      1962 2.30212E-01
 -1      1963 1.80551E-01
 -1      1964 2.03634E-01
 -1      1965 1.87983E-01
 -1      1966 1.48285E-01
 -1      1967 1.65915E-01
 -1      1968 1.55655E-01
 -1      1969 1.23612E-01
 -1      1970 1.36855E-01
 -1      1971 1.29589E-01
 -1      1972 1.11222E-01
 -1      1973 1.17010E-01
 -1      1974 1.11558E-01
 -1      1975 1.05727E-01
 -1      1976 1.07015E-01
 -1      1977 1.00749E-01
 -1      1978 1.17316E-01
 -1      1979 1.09763E-01
 -1      1980 1.00578E-01
 -1      1981 1.52322E-01
 -1      1982 1.33566E-01
 -1      1983 1.20865E-01
 -1      1984 2.32909E-01
 -1      1985 1.93793E-01
 -1      1986 1.78586E-01
 -1      1987 3.45601E-01
 -1      1988 2.98985E-01
 -1      1989 2.86133E-01
 -1      1990 5.20439E-01
 -1      1991 4.45361E-01
 -1      1992 4.51969E-01
 -1      1993 7.79254E-01
 -1      1994 6.71303E-01
 -1      1995 7.02594E-01
 -1      1996 1.15034E+00
 -1      1997 1.00259E+00
 -1      1998 1.07679E+00
 -1      1999 1.65444E+00
 -1      2000 1.46834E+00
 -1      2001 1.61814E+00
 -1      2002 2.33917E+00
 -1      2003 2.09676E+00
 -1      2004 2.37846E+00
 -1      2005 3.10837E+00
 -1      2006 2.85737E+00
 -1      2007 3.33898E+00
 -1      2008 3.92115E+00
 -1      2009 3.61193E+00
 -1      2010 4.36074E+00
 -1      2011 4.66216E+00
 -1      2012 4.28674E+00
 -1      2013 5.22988E+00
 -1      2014 5.79482E+00
 -1      2015 5.37019E+00
 -1      2016 6.30350E+00
 -1      2017 7.09262E+00
 -1      2018 6.99379E+00
 -1      2019 8.21051E+00
 -1      2020 6.25931E+00
 -1      2021 6.27554E+00
 -1      2022 8.59240E+00
 -1      2023 1.40865E+01
 -1      2024 1.30417E+01
 -1      2025 1.14429E+01
 -1      2026 1.26733E+01
 -1      2027 7.46342E+00
 -1      2028 1.17121E+01
 -1      2029 6.41328E+00
 -1      2030 7.08990E+00
 -1      2031 8.96206E+00
 -1      2032 6.34437E+00
 -1      2033 5.86301E+00
 -1      2034 8.03828E+00
 -1      2035 5.40939E+00
 -1      2036 5.10138E+00
 -1      2037 6.24503E+00
 -1      2038 4.87347E+00
 -1      2039 5.23931E+00
 -1      2040 4.83196E+00
 -1      2041 3.89313E+00
 -1      2042 4.50129E+00
 -1      2043 4.28970E+00
 -1      2044 2.99983E+00
 -1      2045 3.45790E+00
 -1      2046 3.48229E+00
 -1      2047 2.16232E+00
 -1      2048 2.57755E+00
 -1      2049 2.62479E+00
 -1      2050 1.48233E+00
 -1      2051 1.81844E+00
 -1      2052 1.85863E+00
 -1      2053 9.93573E-01
 -1      2054 1.23398E+00
 -1      2055 1.26639E+00
 -1      2056 6.09728E-01
 -1      2057 7.98161E-01
 -1      2058 8.22628E-01
 -1      2059 3.99661E-01
 -1      2060 4.92090E-01
 -1      2061 5.09579E-01
 -1      2062 2.60461E-01
 -1      2063 3.33921E-01
 -1      2064 3.26201E-01
 -1      2065 1.52528E-01
 -1      2066 2.05010E-01
 -1      2067 2.05010E-01
 -1      2068 1.21857E-01
 -1      2069 1.16567E-01
 -1      2070 1.01409E-01
 -1      2071 9.71079E-02
 -1      2072 1.09735E-01
 -1      2073 1.37785E-01
 -1      2074 1.08190E-01
 -1      2075 1.12275E-01
 -1      2076 1.39977E-01
 -1      2077 1.31940E-01
 -1      2078 1.28603E-01
 -1      2079 1.23785E-01
 -1      2080 1.49305E-01
 -1      2081 1.28603E-01
 -1      2082 1.28603E-01
 -1      2083 1.56523E-01
 -1      2084 1.22644E-01
 -1      2085 1.24521E-01
 -1      2086 1.52442E-01
 -1      2087 1.04025E-01
 -1      2088 1.14577E-01
 -1      2089 1.40292E-01
 -1      2090 6.83038E-02
 -1      2091 8.37297E-02
 -1      2092 1.11929E-01
 -1      2093 3.82029E-02
 -1      2094 4.90688E-02
 -1      2095 7.23988E-02
 -1      2096 4.11074E-02
 -1      2097 3.68243E-02
 -1      2098 5.17852E-02
 -1      2099 4.17224E-02
 -1      2100 4.11074E-02
 -1      2101 5.04066E-02
 -1      2102 4.10923E-02
 -1      2103 4.10923E-02
 -1      2104 4.97765E-02
 -1      2105 3.86865E-02
 -1      2106 4.03037E-02
 -1      2107 4.83578E-02
 -1      2108 3.07165E+01
 -1      2109 2.77046E+01
 -1      2110 3.73895E+01
 -1      2111 3.73895E+01
 -1      2112 3.66773E+01
 -1      2113 3.73895E+01
 -1      2114 4.50477E+01
 -1      2115 2.92746E+01
 -1      2116 2.82627E+01
 -1      2117 2.46485E+01
 -1      2118 1.37238E+01
 -1      2119 2.44918E+01
 -1      2120 1.03747E+00
 -1      2121 1.21285E+00
 -1      2122 9.81998E-01
 -1      2123 8.54526E-01
 -1      2124 1.14975E+01
 -1      2125 1.05680E+01
 -1      2126 1.22772E+01
 -1      2127 1.29107E+01
 -1      2128 1.29443E+01
 -1      2129 1.25223E+01
 -1      2130 1.18685E+01
 -1      2131 1.07077E+01
 -1      2132 1.14413E+01
 -1      2133 1.06106E+01
 -1      2134 1.13795E+01
 -1      2135 9.95911E+00
 -1      2136 8.35898E+00
 -1      2137 2.37231E+01
 -1      2138 1.40721E+01
 -1      2139 2.70692E+01
 -1      2140 2.81304E+01
 -1      2141 2.54702E+01
 -1      2142 2.85356E+01
 -1      2143 3.45322E+01
 -1      2144 3.32116E+01
 -1      2145 3.45322E+01
 -1      2146 3.45322E+01
 -1      2147 2.82147E+01
 -1      2148 2.83293E+01
 -1      2149 3.79597E+01
 -1      2150 2.86096E+01
 -1      2151 2.82147E+01
 -1      2152 1.95279E+01
 -1      2153 3.19908E+01
 -1      2154 1.05154E+01
 -1      2155 1.60257E+01
 -1      2156 1.31695E+01
 -1      2157 9.54567E+00
 -1      2158 9.41459E+00
 -1      2159 1.06529E+01
 -1      2160 1.04049E+01
 -1      2161 1.10984E+01
 -1      2162 1.15674E+01
 -1      2163 1.11087E+01
 -1      2164 1.08473E+01
 -1      2165 1.07169E+01
 -1      2166 1.07898E+01
 -1      2167 9.36785E+00
 -1      2168 9.55751E+00
 -1      2169 1.56937E+01
 -1      2170 1.03238E+01
 -1      2171 3.17633E+01
 -1      2172 1.91458E+01
 -1      2173 2.85060E+01
 -1      2174 3.78311E+01
 -1      2175 2.87239E+01
 -1      2176 2.81112E+01
 -1      2177 1.08372E+01
 -1      2178 1.20770E+01
 -1      2179 2.91088E+00
 -1      2180 9.06634E+00
 -1      2181 2.10485E+00
 -1      2182 1.32869E+01
 -1      2183 1.02103E+01
 -1      2184 1.07235E+01
 -1      2185 9.22044E+00
 -1      2186 3.60750E+01
 -1      2187 4.02336E-02
 -1      2188 1.74119E+01
 -1      2189 3.63821E+01
 -1      2190 2.81112E+01
 -1      2191 2.24383E+01
 -1      2192 1.29184E+01
 -1      2193 8.51028E+00
 -1      2194 8.71366E+00
 -1      2195 1.01920E+01
 -1      2196 1.07621E+01
 -1      2197 1.00988E+01
 -1      2198 8.56651E+00
 -1      2199 2.26407E+01
 -1      2200 3.40227E+01
 -1      2201 4.02256E+01
 -1      2202 3.24842E+01
 -1      2203 2.32765E+01
 -1      2204 1.03030E+01
 -1      2205 1.74028E+01
 -1      2206 8.32498E+00
 -1      2207 8.44145E+00
 -1      2208 8.55431E+00
 -1      2209 1.09023E+00
 -1      2210 1.48173E+00
 -1      2211 5.58670E-01
 -1      2212 5.89800E-01
 -1      2213 6.02152E-01
 -1      2214 6.50852E-01
 -1      2215 4.98183E-01
 -1      2216 5.11104E-01
 -1      2217 5.09464E-01
 -1      2218 5.45837E-01
 -1      2219 5.24027E-01
 -1      2220 4.44418E-01
 -1      2221 5.93931E-01
 -1      2222 5.60607E-01
 -1      2223 4.72112E-01
 -1      2224 6.53506E-01
 -1      2225 6.05950E-01
 -1      2226 4.98901E-01
 -1      2227 7.21186E-01
 -1      2228 6.53506E-01
 -1      2229 5.10919E-01
 -1      2230 8.83686E-01
 -1      2231 7.69736E-01
 -1      2232 5.59469E-01
 -1      2233 9.08980E+00
 -1      2234 9.64006E+00
 -1      2235 1.08608E+01
 -1      2236 1.21037E+01
 -1      2237 1.37055E+01
 -1      2238 8.92381E-01
 -1      2239 1.01196E+00
 -1      2240 9.70651E-01
 -1      2241 1.26664E+00
 -1      2242 1.03584E+00
 -1      2243 9.86150E-01
 -1      2244 8.06033E-01
 -1      2245 7.53252E-01
 -1      2246 7.49059E-01
 -1      2247 6.23553E-01
 -1      2248 6.46588E-01
 -1      2249 5.67318E-01
 -1      2250 5.09086E-01
 -1      2251 5.33378E-01
 -1      2252 4.59628E-01
 -1      2253 4.11361E-01
 -1      2254 4.27685E-01
 -1      2255 3.84680E-01
 -1      2256 3.42207E-01
 -1      2257 3.51546E-01
 -1      2258 3.17199E-01
 -1      2259 2.83788E-01
 -1      2260 2.99856E-01
 -1      2261 2.60033E-01
 -1      2262 2.32331E-01
 -1      2263 2.51093E-01
 -1      2264 2.11642E-01
 -1      2265 1.87703E-01
 -1      2266 2.06649E-01
 -1      2267 1.70145E-01
 -1      2268 1.50642E-01
 -1      2269 1.68402E-01
 -1      2270 1.34939E-01
 -1      2271 1.19346E-01
 -1      2272 1.35142E-01
 -1      2273 1.05673E-01
 -1      2274 9.20932E-02
 -1      2275 1.05766E-01
 -1      2276 8.03795E-02
 -1      2277 6.91680E-02
 -1      2278 8.03795E-02
 -1      2279 5.99187E-02
 -1      2280 5.78654E-02
 -1      2281 5.94164E-02
 -1      2282 5.72989E-02
 -1      2283 5.61327E-02
 -1      2284 4.96006E-02
 -1      2285 5.59541E-02
 -1      2286 5.52113E-02
 -1      2287 4.88555E-02
 -1      2288 5.51166E-02
 -1      2289 5.57125E-02
 -1      2290 4.85823E-02
 -1      2291 5.74157E-02
 -1      2292 6.23285E-02
 -1      2293 5.01909E-02
 -1      2294 6.84116E-02
 -1      2295 6.94879E-02
 -1      2296 5.79772E-02
 -1      2297 8.06884E-02
 -1      2298 7.65872E-02
 -1      2299 7.52608E-02
 -1      2300 9.19689E-02
 -1      2301 1.15869E-01
 -1      2302 1.01843E-01
 -1      2303 1.49058E-01
 -1      2304 2.05011E-01
 -1      2305 1.50413E-01
 -1      2306 2.62976E-01
 -1      2307 3.37487E-01
 -1      2308 2.41567E-01
 -1      2309 4.09454E-01
 -1      2310 5.00537E-01
 -1      2311 3.71499E-01
 -1      2312 5.88237E-01
 -1      2313 6.89875E-01
 -1      2314 5.31165E-01
 -1      2315 8.04747E-01
 -1      2316 9.35597E-01
 -1      2317 7.33736E-01
 -1      2318 1.04247E+00
 -1      2319 1.16322E+00
 -1      2320 9.55486E-01
 -1      2321 1.23857E+00
 -1      2322 1.36685E+00
 -1      2323 1.13772E+00
 -1      2324 1.42929E+00
 -1      2325 1.53263E+00
 -1      2326 1.27552E+00
 -1      2327 1.55955E+00
 -1      2328 1.59591E+00
 -1      2329 1.36488E+00
 -1      2330 1.57569E+00
 -1      2331 1.53917E+00
 -1      2332 1.37159E+00
 -1      2333 1.53551E+00
 -1      2334 1.57054E+00
 -1      2335 1.34770E+00
 -1      2336 1.59415E+00
 -1      2337 1.56327E+00
 -1      2338 1.36765E+00
 -1      2339 1.54050E+00
 -1      2340 1.44174E+00
 -1      2341 1.36850E+00
 -1      2342 1.38078E+00
 -1      2343 1.25278E+00
 -1      2344 1.28477E+00
 -1      2345 1.18207E+00
 -1      2346 1.06437E+00
 -1      2347 1.15311E+00
 -1      2348 9.60375E-01
 -1      2349 8.29903E-01
 -1      2350 9.78401E-01
 -1      2351 7.16678E-01
 -1      2352 6.16423E-01
 -1      2353 7.61181E-01
 -1      2354 5.30767E-01
 -1      2355 4.40742E-01
 -1      2356 5.62300E-01
 -1      2357 3.70157E-01
 -1      2358 2.96622E-01
 -1      2359 4.06059E-01
 -1      2360 2.39726E-01
 -1      2361 1.84749E-01
 -1      2362 2.78579E-01
 -1      2363 1.44950E-01
 -1      2364 1.16897E-01
 -1      2365 1.81886E-01
 -1      2366 9.33886E-02
 -1      2367 7.97594E-02
 -1      2368 1.18579E-01
 -1      2369 6.44477E-02
 -1      2370 5.66362E-02
 -1      2371 7.97594E-02
 -1      2372 5.39338E-01
 -1      2373 6.21433E-01
 -1      2374 4.36763E-01
 -1      2375 4.88051E-01
 -1      2376 4.88051E-01
 -1      2377 3.70859E-01
 -1      2378 4.03811E-01
 -1      2379 4.03811E-01
 -1      2380 3.07926E-01
 -1      2381 3.39392E-01
 -1      2382 3.39392E-01
 -1      2383 2.54749E-01
 -1      2384 2.81338E-01
 -1      2385 2.81338E-01
 -1      2386 2.05691E-01
 -1      2387 2.30228E-01
 -1      2388 2.30228E-01
 -1      2389 1.68572E-01
 -1      2390 1.86264E-01
 -1      2391 1.86280E-01
 -1      2392 1.37218E-01
 -1      2393 1.51854E-01
 -1      2394 1.50135E-01
 -1      2395 1.11669E-01
 -1      2396 1.23099E-01
 -1      2397 1.19298E-01
 -1      2398 9.49232E-02
 -1      2399 1.01525E-01
 -1      2400 9.50345E-02
 -1      2401 8.40695E-02
 -1      2402 8.82767E-02
 -1      2403 7.82437E-02
 -1      2404 9.42030E-02
 -1      2405 9.01667E-02
 -1      2406 7.76944E-02
 -1      2407 1.24939E-01
 -1      2408 1.08689E-01
 -1      2409 9.82776E-02
 -1      2410 2.02568E-01
 -1      2411 1.61097E-01
 -1      2412 1.48921E-01
 -1      2413 3.20158E-01
 -1      2414 2.54082E-01
 -1      2415 2.36593E-01
 -1      2416 4.94163E-01
 -1      2417 3.94402E-01
 -1      2418 3.62351E-01
 -1      2419 7.53775E-01
 -1      2420 6.02911E-01
 -1      2421 5.45344E-01
 -1      2422 1.13617E+00
 -1      2423 9.12837E-01
 -1      2424 8.13154E-01
 -1      2425 1.68584E+00
 -1      2426 1.36784E+00
 -1      2427 1.20388E+00
 -1      2428 2.47885E+00
 -1      2429 2.03653E+00
 -1      2430 1.78623E+00
 -1      2431 3.50006E+00
 -1      2432 2.98186E+00
 -1      2433 2.63993E+00
 -1      2434 4.73645E+00
 -1      2435 4.23289E+00
 -1      2436 3.87577E+00
 -1      2437 6.16474E+00
 -1      2438 5.79916E+00
 -1      2439 5.67131E+00
 -1      2440 7.31832E+00
 -1      2441 6.61029E+00
 -1      2442 7.17956E+00
 -1      2443 9.40948E+00
 -1      2444 8.21051E+00
 -1      2445 8.51729E+00
 -1      2446 9.40503E+00
 -1      2447 9.57511E+00
 -1      2448 1.54338E+01
 -1      2449 5.04549E+00
 -1      2450 5.41768E+00
 -1      2451 1.01608E+01
 -1      2452 3.49297E+00
 -1      2453 3.92820E+00
 -1      2454 5.05618E+00
 -1      2455 2.45768E+00
 -1      2456 2.87996E+00
 -1      2457 3.32587E+00
 -1      2458 1.68117E+00
 -1      2459 2.02506E+00
 -1      2460 2.28023E+00
 -1      2461 1.12452E+00
 -1      2462 1.37287E+00
 -1      2463 1.53930E+00
 -1      2464 7.09986E-01
 -1      2465 9.05397E-01
 -1      2466 1.01187E+00
 -1      2467 4.49530E-01
 -1      2468 5.67168E-01
 -1      2469 6.49938E-01
 -1      2470 2.68576E-01
 -1      2471 3.34315E-01
 -1      2472 3.91905E-01
 -1      2473 1.43128E-01
 -1      2474 1.98579E-01
 -1      2475 2.06693E-01
 -1      2476 1.33546E-01
 -1      2477 1.94633E-01
 -1      2478 1.94633E-01
 -1      2479 1.81099E-01
 -1      2480 1.85181E-01
 -1      2481 2.23291E-01
 -1      2482 1.84672E-01
 -1      2483 1.80371E-01
 -1      2484 1.94633E-01
 -1      2485 1.87415E-01
 -1      2486 2.30000E-01
 -1      2487 2.32743E-01
 -1      2488 1.67559E-01
 -1      2489 1.75626E-01
 -1      2490 2.08366E-01
 -1      2491 1.23666E-01
 -1      2492 1.43961E-01
 -1      2493 1.79296E-01
 -1      2494 7.90827E-02
 -1      2495 9.83177E-02
 -1      2496 1.30350E-01
 -1      2497 6.68957E-02
 -1      2498 6.82743E-02
 -1      2499 9.41932E-02
 -1      2500 6.53243E-02
 -1      2501 6.53243E-02
 -1      2502 8.18134E-02
 -1      2503 6.65444E-02
 -1      2504 6.71745E-02
 -1      2505 8.20922E-02
 -1      2506 4.59528E-02
 -1      2507 4.67414E-02
 -1      2508 6.41394E-02
 -1      2509 1.16603E+01
 -1      2510 1.64431E+01
 -1      2511 7.03527E-01
 -1      2512 7.97954E-01
 -1      2513 7.97954E-01
 -1      2514 6.21433E-01
 -1      2515 4.50477E+01
 -1      2516 4.50477E+01
 -1      2517 3.63821E+01
 -1      2518 2.77165E+01
 -1      2519 1.09823E+01
 -1      2520 1.67678E+00
 -1      2521 1.30228E+00
 -1      2522 8.38581E-01
 -1      2523 9.60167E-01
 -1      2524 2.39238E+01
 -1      2525 2.43186E+01
 -1      2526 2.78198E+01
 -1      2527 3.40227E+01
 -1      2528 4.75692E-02
 -1      2529 5.22254E-01
 -1      2530 5.44293E-01
 -1      2531 4.71454E-01
 -1      2532 4.44286E-01
 -1      2533 2.71023E+01
 -1      2534 3.60750E+01
 -1      2535 1.61495E+01
 -1      2536 1.17423E+01
 -1      2537 7.31569E+00
 -1      2538 6.45641E+00
 -1      2539 2.05625E+01
 -1      2540 1.90961E+01
 -1      2541 3.24842E+01
 -1      2542 2.47428E+01
 -1      2543 2.05625E+01
 -1      2544 4.02256E+01
 -1      2545 4.02256E+01
 -1      2546 2.42117E+01
 -1      2547 2.38168E+01
 -1      2548 1.54780E+01
 -1      2549 2.14470E+01
 -1      2550 9.50346E+00
 -1      2551 1.30057E+01
 -1      2552 6.50674E+00
 -1      2553 7.60755E+00
 -1      2554 7.44369E+00
 -1      2555 9.10390E+00
 -1      2556 8.18940E+00
 -1      2557 6.32084E+00
 -1      2558 9.44256E+00
 -1      2559 9.69372E+00
 -1      2560 8.69375E+00
 -1      2561 9.01271E+00
 -1      2562 6.47891E+00
 -1      2563 7.63826E+00
 -1      2564 7.45478E+00
 -1      2565 6.49882E+00
 -1      2566 1.30043E+01
 -1      2567 9.55220E+00
 -1      2568 2.06819E+01
 -1      2569 1.46142E+01
 -1      2570 1.62137E+00
 -1      2571 1.76460E+00
 -1      2572 1.32825E+00
 -1      2573 1.18856E+00
 -1      2574 1.06088E+01
 -1      2575 3.60750E+01
 -1      2576 6.14705E-01
 -1      2577 7.55022E-01
 -1      2578 8.18379E-01
 -1      2579 1.24378E+00
 -1      2580 2.39238E+01
 -1      2581 7.78437E+00
 -1      2582 2.92723E+01
 -1      2583 2.92723E+01
 -1      2584 2.15309E+01
 -1      2585 9.13215E+00
 -1      2586 9.94922E+00
 -1      2587 1.35091E-01
 -1      2588 1.94571E+01
 -1      2589 2.19109E+01
 -1      2590 1.37055E+01
 -1      2591 3.63821E+01
 -1      2592 8.96052E-01
 -1      2593 2.38168E+01
 -1      2594 3.40227E+01
 -1      2595 1.64945E+01
 -1      2596 1.12480E+01
 -1      2597 7.54073E+00
 -1      2598 5.42341E+00
 -1      2599 6.45899E+00
 -1      2600 5.49746E+00
 -1      2601 1.18120E+01
 -1      2602 4.75692E-02
 -1      2603 4.75692E-02
 -1      2604 4.59528E-02
 -1      2605 4.81969E-02
 -1      2606 1.70491E+01
 -1      2607 9.94922E+00
 -1      2608 7.69285E+00
 -1      2609 9.68108E-01
 -1      2610 1.34356E+01
 -1      2611 1.03854E+01
 -1      2612 2.19109E+01
 -1      2613 7.94434E+00
 -1      2614 1.46261E-01
 -1      2615 1.47867E-01
 -1      2616 2.17863E-01
 -1      2617 1.93147E-01
 -1      2618 5.60085E-02
 -1      2619 4.22684E-01
 -1      2620 4.07914E-01
 -1      2621 4.00036E-01
 -1      2622 3.87112E-01
 -1      2623 3.50608E-01
 -1      2624 4.36388E-01
 -1      2625 4.36388E-01
 -1      2626 4.72953E-01
 -1      2627 4.24404E-01
 -1      2628 3.49873E-01
 -1      2629 1.28958E+01
 -1      2630 7.18157E-01
 -1      2631 7.96428E-01
 -1      2632 5.50831E-01
 -1      2633 4.93856E-01
 -1      2634 4.86953E-01
 -1      2635 4.30718E-01
 -1      2636 3.91196E-01
 -1      2637 4.10196E-01
 -1      2638 3.60738E-01
 -1      2639 3.63771E-01
 -1      2640 3.35698E-01
 -1      2641 3.09018E-01
 -1      2642 3.18209E-01
 -1      2643 2.83824E-01
 -1      2644 2.58816E-01
 -1      2645 2.67977E-01
 -1      2646 2.42875E-01
 -1      2647 2.19120E-01
 -1      2648 2.26843E-01
 -1      2649 2.02198E-01
 -1      2650 1.81510E-01
 -1      2651 1.93981E-01
 -1      2652 1.65053E-01
 -1      2653 1.47496E-01
 -1      2654 1.60603E-01
 -1      2655 1.33184E-01
 -1      2656 1.17481E-01
 -1      2657 1.29835E-01
 -1      2658 1.04760E-01
 -1      2659 9.10870E-02
 -1      2660 1.02802E-01
 -1      2661 7.99463E-02
 -1      2662 6.82326E-02
 -1      2663 7.89401E-02
 -1      2664 5.85328E-02
 -1      2665 4.92835E-02
 -1      2666 5.80996E-02
 -1      2667 4.14004E-02
 -1      2668 4.08339E-02
 -1      2669 4.05168E-02
 -1      2670 4.18410E-02
 -1      2671 4.16624E-02
 -1      2672 3.36408E-02
 -1      2673 4.31659E-02
 -1      2674 4.30712E-02
 -1      2675 3.61514E-02
 -1      2676 4.75411E-02
 -1      2677 4.92444E-02
 -1      2678 4.21247E-02
 -1      2679 5.79772E-02
 -1      2680 6.40603E-02
 -1      2681 5.53274E-02
 -1      2682 7.54042E-02
 -1      2683 8.66047E-02
 -1      2684 7.54042E-02
 -1      2685 1.10490E-01
 -1      2686 1.25871E-01
 -1      2687 1.10633E-01
 -1      2688 1.56526E-01
 -1      2689 1.89715E-01
 -1      2690 1.65173E-01
 -1      2691 2.41567E-01
 -1      2692 2.99532E-01
 -1      2693 2.47680E-01
 -1      2694 3.71499E-01
 -1      2695 4.43465E-01
 -1      2696 3.71499E-01
 -1      2697 5.22738E-01
 -1      2698 6.10438E-01
 -1      2699 5.22738E-01
 -1      2700 6.90217E-01
 -1      2701 8.05089E-01
 -1      2702 6.81791E-01
 -1      2703 8.81537E-01
 -1      2704 9.88415E-01
 -1      2705 8.38018E-01
 -1      2706 1.07657E+00
 -1      2707 1.15192E+00
 -1      2708 1.00262E+00
 -1      2709 1.20215E+00
 -1      2710 1.26460E+00
 -1      2711 1.14100E+00
 -1      2712 1.31402E+00
 -1      2713 1.34095E+00
 -1      2714 1.24066E+00
 -1      2715 1.35189E+00
 -1      2716 1.33167E+00
 -1      2717 1.30103E+00
 -1      2718 1.25508E+00
 -1      2719 1.25142E+00
 -1      2720 1.23539E+00
 -1      2721 1.31678E+00
 -1      2722 1.34040E+00
 -1      2723 1.22416E+00
 -1      2724 1.34842E+00
 -1      2725 1.32565E+00
 -1      2726 1.29755E+00
 -1      2727 1.27477E+00
 -1      2728 1.21381E+00
 -1      2729 1.25469E+00
 -1      2730 1.16634E+00
 -1      2731 1.09563E+00
 -1      2732 1.15634E+00
 -1      2733 1.00879E+00
 -1      2734 9.04799E-01
 -1      2735 1.02203E+00
 -1      2736 8.30950E-01
 -1      2737 7.17725E-01
 -1      2738 8.61343E-01
 -1      2739 6.39624E-01
 -1      2740 5.53968E-01
 -1      2741 7.09394E-01
 -1      2742 4.76644E-01
 -1      2743 4.06059E-01
 -1      2744 5.53968E-01
 -1      2745 3.35475E-01
 -1      2746 2.78579E-01
 -1      2747 4.06059E-01
 -1      2748 2.21684E-01
 -1      2749 1.81886E-01
 -1      2750 2.78579E-01
 -1      2751 1.40423E-01
 -1      2752 1.16915E-01
 -1      2753 1.80222E-01
 -1      2754 9.50710E-02
 -1      2755 7.97594E-02
 -1      2756 1.16915E-01
 -1      2757 3.47907E-01
 -1      2758 3.80858E-01
 -1      2759 1.27832E+01
 -1      2760 1.55480E+01
 -1      2761 4.15251E-01
 -1      2762 4.66539E-01
 -1      2763 3.59347E-01
 -1      2764 2.44089E-01
 -1      2765 2.70677E-01
 -1      2766 2.00011E-01
 -1      2767 2.24532E-01
 -1      2768 2.13872E-01
 -1      2769 1.63421E-01
 -1      2770 1.82848E-01
 -1      2771 1.77153E-01
 -1      2772 1.31381E-01
 -1      2773 1.48098E-01
 -1      2774 1.44667E-01
 -1      2775 1.03776E-01
 -1      2776 1.17895E-01
 -1      2777 1.15859E-01
 -1      2778 8.25366E-02
 -1      2779 9.26810E-02
 -1      2780 9.12781E-02
 -1      2781 6.38053E-02
 -1      2782 7.04518E-02
 -1      2783 6.80983E-02
 -1      2784 6.99001E-02
 -1      2785 6.38030E-02
 -1      2786 5.60111E-02
 -1      2787 9.27120E-02
 -1      2788 7.82260E-02
 -1      2789 6.43345E-02
 -1      2790 1.54138E-01
 -1      2791 1.17980E-01
 -1      2792 9.79286E-02
 -1      2793 2.38681E-01
 -1      2794 1.87167E-01
 -1      2795 1.56226E-01
 -1      2796 3.64375E-01
 -1      2797 2.90131E-01
 -1      2798 2.40705E-01
 -1      2799 5.58963E-01
 -1      2800 4.50214E-01
 -1      2801 3.77994E-01
 -1      2802 8.52232E-01
 -1      2803 6.93171E-01
 -1      2804 5.98041E-01
 -1      2805 1.28876E+00
 -1      2806 1.05710E+00
 -1      2807 9.37114E-01
 -1      2808 1.97249E+00
 -1      2809 1.62180E+00
 -1      2810 1.47502E+00
 -1      2811 2.95507E+00
 -1      2812 2.45206E+00
 -1      2813 2.28763E+00
 -1      2814 4.49048E+00
 -1      2815 3.75765E+00
 -1      2816 3.56978E+00
 -1      2817 6.82697E+00
 -1      2818 5.76426E+00
 -1      2819 5.64614E+00
 -1      2820 9.70354E+00
 -1      2821 9.25800E+00
 -1      2822 9.35095E+00
 -1      2823 1.12427E+01
 -1      2824 1.03505E+01
 -1      2825 1.24289E+01
 -1      2826 1.47290E+01
 -1      2827 5.43034E+00
 -1      2828 6.54763E+00
 -1      2829 3.12591E+00
 -1      2830 3.73893E+00
 -1      2831 5.23038E+00
 -1      2832 2.03788E+00
 -1      2833 2.47050E+00
 -1      2834 2.88356E+00
 -1      2835 1.32536E+00
 -1      2836 1.63366E+00
 -1      2837 1.82394E+00
 -1      2838 8.34713E-01
 -1      2839 1.05383E+00
 -1      2840 1.14820E+00
 -1      2841 5.23165E-01
 -1      2842 6.65982E-01
 -1      2843 7.07940E-01
 -1      2844 3.42567E-01
 -1      2845 4.57782E-01
 -1      2846 4.73826E-01
 -1      2847 2.83740E-01
 -1      2848 7.41951E-02
 -1      2849 6.57558E-02
 -1      2850 8.95067E-02
 -1      2851 6.64510E+00
 -1      2852 7.07496E+00
 -1      2853 2.00395E-01
 -1      2854 2.23992E-01
 -1      2855 2.89831E-01
 -1      2856 2.99283E-01
 -1      2857 1.42488E-01
 -1      2858 1.67836E-01
 -1      2859 2.12533E-01
 -1      2860 2.51557E-01
 -1      2861 2.57030E-01
 -1      2862 3.33022E-01
 -1      2863 2.72656E-01
 -1      2864 3.05268E+01
 -1      2865 2.18612E+01
 -1      2866 1.16341E-01
 -1      2867 1.27149E-01
 -1      2868 1.64636E-01
 -1      2869 1.04329E-01
 -1      2870 1.05901E-01
 -1      2871 1.38857E-01
 -1      2872 1.02623E-01
 -1      2873 1.00773E-01
 -1      2874 1.24860E-01
 -1      2875 2.21123E+01
 -1      2876 3.10850E+01
 -1      2877 6.99609E+00
 -1      2878 6.40627E+00
 -1      2879 8.28470E-01
 -1      2880 5.68121E+00
 -1      2881 4.80750E+00
 -1      2882 2.89534E-01
 -1      2883 3.21001E-01
 -1      2884 2.98048E-01
 -1      2885 6.05221E-01
 -1      2886 5.55532E-01
 -1      2887 4.02800E-01
 -1      2888 1.12226E+01
 -1      2889 9.61282E+00
 -1      2890 1.74409E+01
 -1      2891 2.14438E+01
 -1      2892 4.36388E-01
 -1      2893 4.24369E-01
 -1      2894 3.60171E-01
 -1      2895 3.61857E-01
 -1      2896 4.23530E-01
 -1      2897 4.35882E-01
 -1      2898 8.63372E+00
 -1      2899 1.11061E+01
 -1      2900 7.96548E-01
 -1      2901 8.48074E+00
 -1      2902 1.24681E+01
 -1      2903 8.85490E+00
 -1      2904 1.89094E+01
 -1      2905 1.52247E+01
 -1      2906 1.15880E+01
 -1      2907 2.09118E+01
 -1      2908 2.71147E+01
 -1      2909 1.45358E+01
 -1      2910 6.41394E-02
 -1      2911 5.92714E+00
 -1      2912 7.82304E+00
 -1      2913 1.56353E+01
 -1      2914 1.69209E+01
 -1      2915 4.34177E+00
 -1      2916 4.39210E+00
 -1      2917 4.77145E+00
 -1      2918 4.77855E+00
 -1      2919 5.83404E+00
 -1      2920 4.28343E+00
 -1      2921 4.26352E+00
 -1      2922 7.81216E+00
 -1      2923 5.71475E+00
 -1      2924 2.04786E+01
 -1      2925 1.66859E+01
 -1      2926 1.17794E+01
 -1      2927 1.46233E+01
 -1      2928 4.62654E-01
 -1      2929 5.66824E-01
 -1      2930 3.88002E-01
 -1      2931 3.42345E-01
 -1      2932 3.86728E-01
 -1      2933 3.99518E-01
 -1      2934 1.56974E+01
 -1      2935 7.78683E+00
 -1      2936 7.04118E-01
 -1      2937 5.29894E-01
 -1      2938 6.09691E-01
 -1      2939 2.52285E-01
 -1      2940 1.67195E+01
 -1      2941 1.39552E+01
 -1      2942 4.07153E-01
 -1      2943 4.21530E-01
 -1      2944 3.59229E-01
 -1      2945 3.49595E-01
 -1      2946 5.69685E+00
 -1      2947 1.04402E+01
 -1      2948 1.47060E+01
 -1      2949 1.23330E+01
 -1      2950 2.71147E+01
 -1      2951 1.61614E+01
 -1      2952 1.40038E+01
 -1      2953 2.19109E+01
 -1      2954 5.75976E-01
 -1      2955 4.40912E-01
 -1      2956 2.99283E-01
 -1      2957 2.99283E-01
 -1      2958 3.65823E-01
 -1      2959 4.96466E+00
 -1      2960 3.10955E-01
 -1      2961 3.08211E-01
 -1      2962 3.77495E-01
 -1      2963 5.01691E-01
 -1      2964 5.83785E-01
 -1      2965 4.89949E-01
 -1      2966 4.28891E-01
 -1      2967 1.65642E+01
 -1      2968 8.39424E-02
 -1      2969 3.70214E+00
 -1      2970 4.89292E+00
 -1      2971 4.55485E+00
 -1      2972 7.11717E+00
 -1      2973 9.53683E-02
 -1      2974 9.53683E-02
 -1      2975 1.14049E-01
 -1      2976 1.00933E-01
 -1      2977 9.60498E+00
 -1      2978 5.82897E-01
 -1      2979 6.60570E-01
 -1      2980 6.24931E-01
 -1      2981 4.30847E-01
 -1      2982 4.27210E-01
 -1      2983 3.17850E-01
 -1      2984 3.63857E+00
 -1      2985 3.98805E-01
 -1      2986 2.89325E-01
 -1      2987 3.01309E-01
 -1      2988 5.14439E+00
 -1      2989 5.06552E+00
 -1      2990 3.19735E-01
 -1      2991 2.99213E-01
 -1      2992 2.95677E-01
 -1      2993 2.70638E-01
 -1      2994 2.51642E-01
 -1      2995 2.59405E-01
 -1      2996 2.34211E-01
 -1      2997 2.36872E-01
 -1      2998 2.19553E-01
 -1      2999 2.03613E-01
 -1      3000 2.10981E-01
 -1      3001 1.90214E-01
 -1      3002 1.73293E-01
 -1      3003 1.82924E-01
 -1      3004 1.61973E-01
 -1      3005 1.45516E-01
 -1      3006 1.58206E-01
 -1      3007 1.33364E-01
 -1      3008 1.19053E-01
 -1      3009 1.34734E-01
 -1      3010 1.06940E-01
 -1      3011 9.42185E-02
 -1      3012 1.10469E-01
 -1      3013 8.25712E-02
 -1      3014 7.14305E-02
 -1      3015 8.67089E-02
 -1      3016 6.03756E-02
 -1      3017 5.06758E-02
 -1      3018 6.40067E-02
 -1      3019 4.01557E-02
 -1      3020 3.22726E-02
 -1      3021 4.24316E-02
 -1      3022 2.54184E-02
 -1      3023 2.64254E-02
 -1      3024 2.50572E-02
 -1      3025 3.17064E-02
 -1      3026 3.32099E-02
 -1      3027 2.34840E-02
 -1      3028 4.20501E-02
 -1      3029 4.65199E-02
 -1      3030 3.76051E-02
 -1      3031 5.51921E-02
 -1      3032 6.39250E-02
 -1      3033 5.51175E-02
 -1      3034 7.66094E-02
 -1      3035 8.79533E-02
 -1      3036 7.64741E-02
 -1      3037 1.10633E-01
 -1      3038 1.34518E-01
 -1      3039 1.11838E-01
 -1      3040 1.65173E-01
 -1      3041 1.95828E-01
 -1      3042 1.65173E-01
 -1      3043 2.41472E-01
 -1      3044 2.93324E-01
 -1      3045 2.41472E-01
 -1      3046 3.51203E-01
 -1      3047 4.23169E-01
 -1      3048 3.44995E-01
 -1      3049 5.08887E-01
 -1      3050 5.88160E-01
 -1      3051 4.88591E-01
 -1      3052 6.81791E-01
 -1      3053 7.61570E-01
 -1      3054 6.67939E-01
 -1      3055 8.42671E-01
 -1      3056 9.19119E-01
 -1      3057 8.42671E-01
 -1      3058 1.00521E+00
 -1      3059 1.09336E+00
 -1      3060 1.00986E+00
 -1      3061 1.13242E+00
 -1      3062 1.18265E+00
 -1      3063 1.13501E+00
 -1      3064 1.24342E+00
 -1      3065 1.29284E+00
 -1      3066 1.23484E+00
 -1      3067 1.42589E+00
 -1      3068 1.43683E+00
 -1      3069 1.42864E+00
 -1      3070 1.41102E+00
 -1      3071 1.33443E+00
 -1      3072 1.53588E+00
 -1      3073 1.31600E+00
 -1      3074 1.38136E+00
 -1      3075 1.49163E+00
 -1      3076 1.44027E+00
 -1      3077 1.44829E+00
 -1      3078 1.53211E+00
 -1      3079 1.31273E+00
 -1      3080 1.26185E+00
 -1      3081 1.45546E+00
 -1      3082 1.18867E+00
 -1      3083 1.14120E+00
 -1      3084 1.24671E+00
 -1      3085 1.11211E+00
 -1      3086 1.02527E+00
 -1      3087 1.14444E+00
 -1      3088 9.39342E-01
 -1      3089 8.65493E-01
 -1      3090 1.02942E+00
 -1      3091 7.87495E-01
 -1      3092 7.09394E-01
 -1      3093 8.65493E-01
 -1      3094 6.17993E-01
 -1      3095 5.40669E-01
 -1      3096 6.96094E-01
 -1      3097 4.52469E-01
 -1      3098 3.81884E-01
 -1      3099 5.16494E-01
 -1      3100 3.12981E-01
 -1      3101 2.56086E-01
 -1      3102 3.59390E-01
 -1      3103 2.12659E-01
 -1      3104 1.71196E-01
 -1      3105 2.47060E-01
 -1      3106 1.32669E-01
 -1      3107 1.10825E-01
 -1      3108 1.16687E-01
 -1      3109 1.65106E-01
 -1      3110 3.01784E-01
 -1      3111 2.97084E-01
 -1      3112 1.38685E+01
 -1      3113 1.33103E+01
 -1      3114 1.07013E+01
 -1      3115 1.58943E-01
 -1      3116 1.76106E-01
 -1      3117 1.90180E-01
 -1      3118 2.09736E-01
 -1      3119 1.71970E-01
 -1      3120 1.02871E-01
 -1      3121 1.16357E-01
 -1      3122 7.88450E-02
 -1      3123 8.99400E-02
 -1      3124 9.04381E-02
 -1      3125 5.42021E-02
 -1      3126 6.62869E-02
 -1      3127 6.49488E-02
 -1      3128 4.48182E-02
 -1      3129 4.48206E-02
 -1      3130 4.30092E-02
 -1      3131 5.91264E-02
 -1      3132 5.08006E-02
 -1      3133 3.96101E-02
 -1      3134 1.07587E-01
 -1      3135 8.23182E-02
 -1      3136 6.87843E-02
 -1      3137 1.73029E-01
 -1      3138 1.40000E-01
 -1      3139 1.24390E-01
 -1      3140 2.71480E-01
 -1      3141 2.20030E-01
 -1      3142 2.03804E-01
 -1      3143 4.25896E-01
 -1      3144 3.40057E-01
 -1      3145 3.19383E-01
 -1      3146 6.61165E-01
 -1      3147 5.26956E-01
 -1      3148 4.89020E-01
 -1      3149 1.01675E+00
 -1      3150 8.11882E-01
 -1      3151 7.40797E-01
 -1      3152 1.60481E+00
 -1      3153 1.27177E+00
 -1      3154 1.14653E+00
 -1      3155 2.43515E+00
 -1      3156 1.95559E+00
 -1      3157 1.75233E+00
 -1      3158 3.83496E+00
 -1      3159 3.03238E+00
 -1      3160 2.70034E+00
 -1      3161 6.14044E+00
 -1      3162 4.86666E+00
 -1      3163 4.32926E+00
 -1      3164 1.06075E+01
 -1      3165 8.17643E+00
 -1      3166 7.39695E+00
 -1      3167 1.50505E+01
 -1      3168 2.48969E+00
 -1      3169 3.14510E+00
 -1      3170 9.95284E+00
 -1      3171 1.59577E+00
 -1      3172 1.99998E+00
 -1      3173 2.26152E+00
 -1      3174 4.82340E+00
 -1      3175 3.39208E+00
 -1      3176 1.29779E-01
 -1      3177 1.45101E-01
 -1      3178 1.16791E-01
 -1      3179 4.98869E+00
 -1      3180 6.68010E+00
 -1      3181 4.59481E+00
 -1      3182 9.99668E-01
 -1      3183 1.27119E+00
 -1      3184 1.44724E+00
 -1      3185 6.27291E-01
 -1      3186 7.96021E-01
 -1      3187 9.19018E-01
 -1      3188 5.72111E-01
 -1      3189 6.37494E-01
 -1      3190 7.25575E-01
 -1      3191 5.62473E-01
 -1      3192 8.17726E+00
 -1      3193 9.85439E+00
 -1      3194 2.84263E+00
 -1      3195 3.35767E+00
 -1      3196 3.23545E-01
 -1      3197 3.15668E-01
 -1      3198 3.26088E-01
 -1      3199 3.06379E-01
 -1      3200 3.10016E-01
 -1      3201 3.91609E+00
 -1      3202 4.72715E+00
 -1      3203 2.31916E-01
 -1      3204 2.64475E-01
 -1      3205 1.54606E-01
 -1      3206 1.58163E-01
 -1      3207 1.98041E-01
 -1      3208 2.13379E-01
 -1      3209 2.65321E-01
 -1      3210 2.23856E-01
 -1      3211 2.42713E-01
 -1      3212 2.00164E-01
 -1      3213 2.61451E-01
 -1      3214 2.88357E-01
 -1      3215 2.33022E-01
 -1      3216 4.14887E-01
 -1      3217 3.11864E-01
 -1      3218 2.63300E-01
 -1      3219 4.00847E-01
 -1      3220 1.68607E-01
 -1      3221 1.79047E-01
 -1      3222 2.27791E-01
 -1      3223 1.98353E-01
 -1      3224 3.42661E+00
 -1      3225 2.96089E+00
 -1      3226 3.05118E-01
 -1      3227 3.39510E-01
 -1      3228 2.68521E-01
 -1      3229 3.15781E-01
 -1      3230 3.08878E-01
 -1      3231 2.44320E-01
 -1      3232 8.76820E+00
 -1      3233 1.23864E+01
 -1      3234 1.18544E+01
 -1      3235 4.72075E+00
 -1      3236 3.99569E+00
 -1      3237 3.53950E+00
 -1      3238 5.07454E+00
 -1      3239 7.86901E+00
 -1      3240 6.06836E+00
 -1      3241 6.12609E+00
 -1      3242 6.93676E+00
 -1      3243 1.28929E+01
 -1      3244 8.76044E+00
 -1      3245 8.39509E+00
 -1      3246 3.12249E-01
 -1      3247 3.11864E-01
 -1      3248 2.85187E-01
 -1      3249 4.16829E+00
 -1      3250 2.14765E-01
 -1      3251 9.01244E+00
 -1      3252 1.18544E+01
 -1      3253 1.03715E+01
 -1      3254 1.30672E+01
 -1      3255 1.16846E+01
 -1      3256 1.44055E-01
 -1      3257 9.52985E+00
 -1      3258 7.97210E+00
 -1      3259 1.17184E+01
 -1      3260 3.20175E+00
 -1      3261 2.93320E+00
 -1      3262 2.65230E+00
 -1      3263 4.90559E+00
 -1      3264 5.50801E-01
 -1      3265 5.50801E-01
 -1      3266 7.18618E+00
 -1      3267 5.50801E-01
 -1      3268 3.12016E+00
 -1      3269 3.98735E-01
 -1      3270 4.31536E-01
 -1      3271 6.16514E-01
 -1      3272 2.00662E-01
 -1      3273 3.26397E+00
 -1      3274 3.34978E-01
 -1      3275 3.62543E-01
 -1      3276 4.61057E-01
 -1      3277 3.54361E-01
 -1      3278 3.50196E-01
 -1      3279 3.85348E-01
 -1      3280 2.95967E-01
 -1      3281 8.52650E+00
 -1      3282 6.67662E+00
 -1      3283 3.21143E-01
 -1      3284 3.21143E-01
 -1      3285 2.60595E-01
 -1      3286 8.14410E+00
 -1      3287 1.08789E+01
 -1      3288 8.19746E+00
 -1      3289 3.25231E-01
 -1      3290 3.23545E-01
 -1      3291 2.88606E-01
 -1      3292 2.84517E-01
 -1      3293 3.69377E+00
 -1      3294 2.95252E+00
 -1      3295 3.52160E+00
 -1      3296 4.09582E+00
 -1      3297 2.80901E-01
 -1      3298 3.07674E-01
 -1      3299 2.02915E-01
 -1      3300 3.02692E-01
 -1      3301 3.04692E-01
 -1      3302 2.24364E-01
 -1      3303 4.89413E+00
 -1      3304 1.27871E-01
 -1      3305 1.35126E-01
 -1      3306 1.68429E-01
 -1      3307 1.37764E-01
 -1      3308 1.09911E+01
 -1      3309 3.04872E-01
 -1      3310 3.12507E-01
 -1      3311 2.57969E-01
 -1      3312 2.74777E-01
 -1      3313 9.43497E+00
 -1      3314 2.14911E-01
 -1      3315 2.03677E-01
 -1      3316 1.99726E-01
 -1      3317 1.85067E-01
 -1      3318 1.77764E-01
 -1      3319 1.76703E-01
 -1      3320 1.63304E-01
 -1      3321 1.65447E-01
 -1      3322 1.52756E-01
 -1      3323 1.41436E-01
 -1      3324 1.46535E-01
 -1      3325 1.33346E-01
 -1      3326 1.21194E-01
 -1      3327 1.27897E-01
 -1      3328 1.12028E-01
 -1      3329 9.99147E-02
 -1      3330 1.10640E-01
 -1      3331 9.02695E-02
 -1      3332 7.86222E-02
 -1      3333 9.18279E-02
 -1      3334 6.89207E-02
 -1      3335 5.78658E-02
 -1      3336 7.24813E-02
 -1      3337 4.82248E-02
 -1      3338 3.77047E-02
 -1      3339 5.31388E-02
 -1      3340 3.34446E-02
 -1      3341 2.65904E-02
 -1      3342 3.92378E-02
 -1      3343 2.51653E-02
 -1      3344 3.04463E-02
 -1      3345 3.35527E-02
 -1      3346 3.74263E-02
 -1      3347 4.62664E-02
 -1      3348 3.91077E-02
 -1      3349 5.67638E-02
 -1      3350 6.54360E-02
 -1      3351 5.65850E-02
 -1      3352 7.87783E-02
 -1      3353 9.14628E-02
 -1      3354 8.04246E-02
 -1      3355 1.11162E-01
 -1      3356 1.33842E-01
 -1      3357 1.13466E-01
 -1      3358 1.62204E-01
 -1      3359 1.92859E-01
 -1      3360 1.61528E-01
 -1      3361 2.41472E-01
 -1      3362 2.87116E-01
 -1      3363 2.38503E-01
 -1      3364 3.44995E-01
 -1      3365 4.02874E-01
 -1      3366 3.44995E-01
 -1      3367 4.79634E-01
 -1      3368 5.65351E-01
 -1      3369 4.79634E-01
 -1      3370 6.61808E-01
 -1      3371 7.55439E-01
 -1      3372 6.52852E-01
 -1      3373 8.42671E-01
 -1      3374 9.23772E-01
 -1      3375 8.36540E-01
 -1      3376 1.02426E+00
 -1      3377 1.11035E+00
 -1      3378 1.02426E+00
 -1      3379 1.21342E+00
 -1      3380 1.25248E+00
 -1      3381 1.22781E+00
 -1      3382 1.31146E+00
 -1      3383 1.37222E+00
 -1      3384 1.38986E+00
 -1      3385 1.57116E+00
 -1      3386 1.70420E+00
 -1      3387 1.64778E+00
 -1      3388 1.84618E+00
 -1      3389 1.82037E+00
 -1      3390 1.98870E+00
 -1      3391 2.23437E+00
 -1      3392 2.21594E+00
 -1      3393 2.54468E+00
 -1      3394 2.71657E+00
 -1      3395 2.77548E+00
 -1      3396 3.45931E+00
 -1      3397 2.25757E+00
 -1      3398 2.12201E+00
 -1      3399 3.44203E+00
 -1      3400 1.83187E+00
 -1      3401 1.75869E+00
 -1      3402 2.63398E+00
 -1      3403 1.26195E+00
 -1      3404 1.23286E+00
 -1      3405 1.84710E+00
 -1      3406 1.12795E+00
 -1      3407 1.04202E+00
 -1      3408 1.24546E+00
 -1      3409 9.43492E-01
 -1      3410 8.65493E-01
 -1      3411 1.04202E+00
 -1      3412 7.68448E-01
 -1      3413 6.77048E-01
 -1      3414 8.46447E-01
 -1      3415 5.84606E-01
 -1      3416 4.96406E-01
 -1      3417 6.56960E-01
 -1      3418 4.18763E-01
 -1      3419 3.49859E-01
 -1      3420 4.86875E-01
 -1      3421 2.90487E-01
 -1      3422 2.47060E-01
 -1      3423 3.49859E-01
 -1      3424 8.17072E+00
 -1      3425 7.92763E+00
 -1      3426 6.08262E+00
 -1      3427 1.88533E-01
 -1      3428 1.99390E-01
 -1      3429 5.96779E-02
 -1      3430 7.22360E-02
 -1      3431 8.24501E-02
 -1      3432 9.53813E-02
 -1      3433 7.71791E-02
 -1      3434 4.95015E-02
 -1      3435 4.35192E-02
 -1      3436 8.32866E-02
 -1      3437 6.00947E-02
 -1      3438 6.40038E-02
 -1      3439 1.38675E-01
 -1      3440 1.06261E-01
 -1      3441 9.75719E-02
 -1      3442 2.17711E-01
 -1      3443 1.70710E-01
 -1      3444 1.52581E-01
 -1      3445 3.29776E-01
 -1      3446 2.61199E-01
 -1      3447 2.28104E-01
 -1      3448 4.89947E-01
 -1      3449 3.88886E-01
 -1      3450 3.30703E-01
 -1      3451 7.20614E-01
 -1      3452 5.69898E-01
 -1      3453 4.69764E-01
 -1      3454 1.14949E+00
 -1      3455 8.94465E-01
 -1      3456 7.23566E-01
 -1      3457 1.73390E+00
 -1      3458 1.38312E+00
 -1      3459 1.13105E+00
 -1      3460 2.71247E+00
 -1      3461 2.11525E+00
 -1      3462 1.74603E+00
 -1      3463 4.31715E+00
 -1      3464 3.28545E+00
 -1      3465 2.70036E+00
 -1      3466 7.73978E+00
 -1      3467 5.70379E+00
 -1      3468 4.65998E+00
 -1      3469 9.56892E+00
 -1      3470 1.06079E-01
 -1      3471 1.19501E-01
 -1      3472 9.80911E-02
 -1      3473 8.64919E+00
 -1      3474 7.95573E+00
 -1      3475 7.25575E-01
 -1      3476 9.29222E-01
 -1      3477 2.02915E-01
 -1      3478 1.98320E-01
 -1      3479 2.17018E-01
 -1      3480 2.00573E-01
 -1      3481 5.03004E+00
 -1      3482 6.27054E+00
 -1      3483 7.03127E+00
 -1      3484 6.26186E+00
 -1      3485 2.55065E+00
 -1      3486 4.39424E+00
 -1      3487 4.03846E+00
 -1      3488 3.68333E-01
 -1      3489 3.94239E-01
 -1      3490 2.79231E-01
 -1      3491 2.89638E-01
 -1      3492 5.03901E+00
 -1      3493 3.79405E+00
 -1      3494 3.73587E+00
 -1      3495 3.39110E+00
 -1      3496 3.26084E+00
 -1      3497 3.81926E+00
 -1      3498 3.20884E-01
 -1      3499 3.39421E-01
 -1      3500 1.79271E-01
 -1      3501 1.93391E-01
 -1      3502 2.04065E-01
 -1      3503 2.22803E-01
 -1      3504 1.83172E-01
 -1      3505 1.29956E-01
 -1      3506 1.43798E-01
 -1      3507 1.19244E-01
 -1      3508 4.13799E-02
 -1      3509 5.07614E-02
 -1      3510 5.80486E-02
 -1      3511 5.12714E-02
 -1      3512 1.67187E+00
 -1      3513 2.16157E+00
 -1      3514 1.96100E+00
 -1      3515 1.02628E+00
 -1      3516 1.35085E+00
 -1      3517 1.25091E+00
 -1      3518 8.32835E-01
 -1      3519 2.29812E-01
 -1      3520 2.46572E-01
 -1      3521 2.00855E-01
 -1      3522 2.54722E+00
 -1      3523 3.12583E+00
 -1      3524 3.87192E+00
 -1      3525 4.92346E+00
 -1      3526 7.45614E+00
 -1      3527 8.04190E+00
 -1      3528 3.81926E+00
 -1      3529 4.23650E+00
 -1      3530 3.95994E+00
 -1      3531 1.53494E-01
 -1      3532 1.67568E-01
 -1      3533 1.39395E-01
 -1      3534 2.14649E-01
 -1      3535 2.11113E-01
 -1      3536 1.77918E-01
 -1      3537 7.35779E-01
 -1      3538 5.66642E+00
 -1      3539 5.14035E+00
 -1      3540 7.87577E+00
 -1      3541 7.35779E-01
 -1      3542 7.35779E-01
 -1      3543 6.44840E+00
 -1      3544 1.98351E-01
 -1      3545 1.59824E-01
 -1      3546 1.71009E-01
 -1      3547 2.41778E-01
 -1      3548 1.72089E-01
 -1      3549 6.24550E+00
 -1      3550 7.06362E-01
 -1      3551 7.06362E-01
 -1      3552 3.16888E+00
 -1      3553 2.70999E+00
 -1      3554 3.30229E+00
 -1      3555 2.08429E-01
 -1      3556 2.47138E-01
 -1      3557 2.57824E-01
 -1      3558 4.72559E+00
 -1      3559 3.45931E+00
 -1      3560 2.95868E+00
 -1      3561 3.39110E+00
 -1      3562 3.08918E+00
 -1      3563 1.60794E-01
 -1      3564 4.32109E-01
 -1      3565 3.76546E-01
 -1      3566 4.47050E-01
 -1      3567 5.87097E-01
 -1      3568 3.15516E+00
 -1      3569 3.45624E-01
 -1      3570 4.19724E-01
 -1      3571 3.26631E-01
 -1      3572 2.52977E-01
 -1      3573 2.49558E-01
 -1      3574 4.02881E+00
 -1      3575 2.03228E-01
 -1      3576 2.23062E-01
 -1      3577 6.58780E+00
 -1      3578 2.81438E+00
 -1      3579 6.17766E+00
 -1      3580 5.20712E+00
 -1      3581 4.02152E+00
 -1      3582 1.58862E-01
 -1      3583 2.74293E+00
 -1      3584 3.44203E+00
 -1      3585 2.83349E+00
 -1      3586 4.00782E+00
 -1      3587 2.02230E-01
 -1      3588 1.79690E-01
 -1      3589 1.42157E-01
 -1      3590 1.95621E-01
 -1      3591 2.52977E-01
 -1      3592 2.52977E-01
 -1      3593 2.17348E-01
 -1      3594 2.24364E-01
 -1      3595 2.24364E-01
 -1      3596 6.36831E+00
 -1      3597 1.90489E-01
 -1      3598 3.18766E-01
 -1      3599 3.16186E-01
 -1      3600 3.26631E-01
 -1      3601 3.67475E-01
 -1      3602 2.48154E-01
 -1      3603 1.74177E-01
 -1      3604 1.81185E-01
 -1      3605 5.06039E+00
 -1      3606 5.78195E+00
 -1      3607 2.48154E-01
 -1      3608 2.48154E-01
 -1      3609 2.57969E-01
 -1      3610 1.53930E-01
 -1      3611 1.45566E-01
 -1      3612 1.40697E-01
 -1      3613 1.30149E-01
 -1      3614 1.29180E-01
 -1      3615 1.22864E-01
 -1      3616 1.14774E-01
 -1      3617 1.17027E-01
 -1      3618 1.07704E-01
 -1      3619 9.85369E-02
 -1      3620 1.02671E-01
 -1      3621 9.15379E-02
 -1      3622 8.18926E-02
 -1      3623 8.86016E-02
 -1      3624 7.42661E-02
 -1      3625 6.45647E-02
 -1      3626 7.39760E-02
 -1      3627 5.84977E-02
 -1      3628 4.88567E-02
 -1      3629 6.02826E-02
 -1      3630 4.69959E-02
 -1      3631 4.27359E-02
 -1      3632 5.23548E-02
 -1      3633 4.08924E-02
 -1      3634 3.94674E-02
 -1      3635 4.86505E-02
 -1      3636 4.29656E-02
 -1      3637 4.99456E-02
 -1      3638 5.03053E-02
 -1      3639 5.96572E-02
 -1      3640 7.01545E-02
 -1      3641 6.35151E-02
 -1      3642 8.18982E-02
 -1      3643 9.52405E-02
 -1      3644 8.49704E-02
 -1      3645 1.18782E-01
 -1      3646 1.38482E-01
 -1      3647 1.20256E-01
 -1      3648 1.68717E-01
 -1      3649 1.97080E-01
 -1      3650 1.74033E-01
 -1      3651 2.32843E-01
 -1      3652 2.81456E-01
 -1      3653 2.40033E-01
 -1      3654 3.39323E-01
 -1      3655 3.97202E-01
 -1      3656 3.33663E-01
 -1      3657 4.79634E-01
 -1      3658 5.56395E-01
 -1      3659 4.73963E-01
 -1      3660 6.52852E-01
 -1      3661 7.49308E-01
 -1      3662 6.52852E-01
 -1      3663 8.87622E-01
 -1      3664 9.74853E-01
 -1      3665 8.87622E-01
 -1      3666 1.13220E+00
 -1      3667 1.23268E+00
 -1      3668 1.18328E+00
 -1      3669 1.38714E+00
 -1      3670 1.49021E+00
 -1      3671 1.49508E+00
 -1      3672 1.38986E+00
 -1      3673 1.44884E+00
 -1      3674 1.54919E+00
 -1      3675 1.92306E+00
 -1      3676 2.12200E+00
 -1      3677 1.92306E+00
 -1      3678 2.40270E+00
 -1      3679 2.54468E+00
 -1      3680 2.95868E+00
 -1      3681 2.95563E+00
 -1      3682 3.45626E+00
 -1      3683 3.95994E+00
 -1      3684 3.44203E+00
 -1      3685 2.51048E+00
 -1      3686 2.01374E+00
 -1      3687 1.67156E+00
 -1      3688 1.56665E+00
 -1      3689 2.33494E+00
 -1      3690 1.36995E+00
 -1      3691 1.27142E+00
 -1      3692 1.79605E+00
 -1      3693 9.87701E-01
 -1      3694 8.90656E-01
 -1      3695 1.31563E+00
 -1      3696 7.49402E-01
 -1      3697 6.56960E-01
 -1      3698 8.90656E-01
 -1      3699 5.64519E-01
 -1      3700 4.86875E-01
 -1      3701 6.56960E-01
 -1      3702 4.72304E-01
 -1      3703 4.12932E-01
 -1      3704 5.49948E-01
 -1      3705 1.95879E-01
 -1      3706 1.57192E+00
 -1      3707 1.96100E+00
 -1      3708 2.34256E+00
 -1      3709 3.08865E+00
 -1      3710 1.06677E-01
 -1      3711 8.37026E-02
 -1      3712 7.05313E-02
 -1      3713 5.99381E-02
 -1      3714 7.96369E-02
 -1      3715 2.33837E-01
 -1      3716 1.90348E-01
 -1      3717 3.40679E-01
 -1      3718 2.81569E-01
 -1      3719 2.43813E-01
 -1      3720 4.90426E-01
 -1      3721 4.10475E-01
 -1      3722 3.61341E-01
 -1      3723 7.80730E-01
 -1      3724 6.06879E-01
 -1      3725 5.47590E-01
 -1      3726 1.13883E+00
 -1      3727 9.05201E-01
 -1      3728 7.88514E-01
 -1      3729 1.83560E+00
 -1      3730 1.45425E+00
 -1      3731 1.22840E+00
 -1      3732 2.92199E+00
 -1      3733 2.34901E+00
 -1      3734 2.05723E+00
 -1      3735 4.75132E+00
 -1      3736 3.36468E+00
 -1      3737 3.01333E+00
 -1      3738 8.80622E-02
 -1      3739 9.87600E-02
 -1      3740 6.02117E+00
 -1      3741 5.09671E+00
 -1      3742 4.63316E+00
 -1      3743 8.03417E-01
 -1      3744 2.50462E+00
 -1      3745 4.19301E+00
 -1      3746 3.52655E+00
 -1      3747 2.11555E+00
 -1      3748 4.29190E+00
 -1      3749 3.69646E+00
 -1      3750 4.06757E+00
 -1      3751 4.83242E-01
 -1      3752 5.73089E-01
 -1      3753 1.61224E-01
 -1      3754 1.71898E-01
 -1      3755 1.52229E-01
 -1      3756 1.48721E-01
 -1      3757 1.52519E-01
 -1      3758 6.94314E-02
 -1      3759 7.96455E-02
 -1      3760 8.03144E-02
 -1      3761 1.06645E-01
 -1      3762 1.17100E-01
 -1      3763 9.66161E-02
 -1      3764 3.58807E+00
 -1      3765 3.48673E+00
 -1      3766 3.15438E+00
 -1      3767 2.27617E-01
 -1      3768 2.59827E-01
 -1      3769 5.66371E+00
 -1      3770 5.76591E+00
 -1      3771 4.47050E-01
 -1      3772 2.42562E-01
 -1      3773 2.46651E-01
 -1      3774 2.11022E-01
 -1      3775 2.80848E+00
 -1      3776 2.40318E+00
 -1      3777 1.42953E-01
 -1      3778 1.54656E-01
 -1      3779 1.43382E-01
 -1      3780 1.24437E-01
 -1      3781 1.34133E-01
 -1      3782 1.27995E-01
 -1      3783 1.11838E-01
 -1      3784 1.58547E-01
 -1      3785 1.54595E-01
 -1      3786 1.29350E-01
 -1      3787 3.45626E+00
 -1      3788 2.95563E+00
 -1      3789 1.85195E-01
 -1      3790 1.58510E-01
 -1      3791 1.26476E-01
 -1      3792 1.64243E-01
 -1      3793 1.34360E-01
 -1      3794 1.49619E-01
 -1      3795 1.24219E-01
 -1      3796 3.12054E+00
 -1      3797 3.22711E+00
 -1      3798 1.93336E-01
 -1      3799 1.41061E-01
 -1      3800 1.31817E-01
 -1      3801 1.93336E-01
 -1      3802 8.74408E-01
 -1      3803 1.00088E+00
 -1      3804 1.34713E-01
 -1      3805 2.67798E+00
 -1      3806 2.95868E+00
 -1      3807 2.92412E+00
 -1      3808 4.89920E-01
 -1      3809 2.63398E+00
 -1      3810 2.33667E+00
 -1      3811 1.84896E-01
 -1      3812 1.84896E-01
 -1      3813 3.08442E+00
 -1      3814 2.45924E+00
 -1      3815 2.64368E+00
 -1      3816 2.30793E+00
 -1      3817 6.39731E-02
 -1      3818 5.74456E-02
 -1      3819 5.53064E-02
 -1      3820 5.44422E+00
 -1      3821 4.14892E+00
 -1      3822 2.67712E+00
 -1      3823 2.70999E+00
 -1      3824 2.52835E-01
 -1      3825 8.46484E-01
 -1      3826 9.50339E-01
 -1      3827 1.14780E+00
 -1      3828 1.77697E-01
 -1      3829 1.78263E-01
 -1      3830 1.51019E-01
 -1      3831 4.44464E-01
 -1      3832 2.29500E-01
 -1      3833 2.12485E-01
 -1      3834 1.35484E-01
 -1      3835 1.80672E-01
 -1      3836 4.45496E-01
 -1      3837 4.82621E-01
 -1      3838 2.54842E+00
 -1      3839 3.43571E+00
 -1      3840 3.34283E+00
 -1      3841 4.69234E-01
 -1      3842 6.28312E-02
 -1      3843 6.52976E-02
 -1      3844 5.39147E-02
 -1      3845 5.04525E+00
 -1      3846 4.22336E+00
 -1      3847 3.76677E+00
 -1      3848 1.84896E-01
 -1      3849 1.95164E-01
 -1      3850 1.52443E-01
 -1      3851 1.12606E-01
 -1      3852 4.89920E-01
 -1      3853 4.65180E-01
 -1      3854 5.15692E-01
 -1      3855 2.80062E+00
 -1      3856 1.32190E+00
 -1      3857 1.59021E-01
 -1      3858 1.40876E-01
 -1      3859 1.60376E-01
 -1      3860 1.34202E-01
 -1      3861 1.32190E+00
 -1      3862 1.18396E-01
 -1      3863 1.17731E-01
 -1      3864 1.32078E+00
 -1      3865 1.57080E+00
 -1      3866 1.39671E+00
 -1      3867 1.10389E-01
 -1      3868 1.03103E-01
 -1      3869 9.79595E-02
 -1      3870 9.08890E-02
 -1      3871 9.13213E-02
 -1      3872 8.47142E-02
 -1      3873 7.77151E-02
 -1      3874 8.00025E-02
 -1      3875 7.44862E-02
 -1      3876 6.68596E-02
 -1      3877 7.05987E-02
 -1      3878 6.43582E-02
 -1      3879 5.82913E-02
 -1      3880 6.48684E-02
 -1      3881 5.77380E-02
 -1      3882 5.58772E-02
 -1      3883 6.18136E-02
 -1      3884 5.62790E-02
 -1      3885 5.44355E-02
 -1      3886 6.16621E-02
 -1      3887 5.56510E-02
 -1      3888 5.91492E-02
 -1      3889 6.32794E-02
 -1      3890 6.57470E-02
 -1      3891 7.54586E-02
 -1      3892 7.10927E-02
 -1      3893 9.03421E-02
 -1      3894 1.02086E-01
 -1      3895 9.25739E-02
 -1      3896 1.21560E-01
 -1      3897 1.45102E-01
 -1      3898 1.26932E-01
 -1      3899 1.74349E-01
 -1      3900 2.04585E-01
 -1      3901 1.75653E-01
 -1      3902 2.56025E-01
 -1      3903 2.91789E-01
 -1      3904 2.56341E-01
 -1      3905 3.56572E-01
 -1      3906 4.14439E-01
 -1      3907 3.72565E-01
 -1      3908 4.86991E-01
 -1      3909 5.69423E-01
 -1      3910 5.09900E-01
 -1      3911 6.61235E-01
 -1      3912 7.57692E-01
 -1      3913 6.74263E-01
 -1      3914 8.87622E-01
 -1      3915 1.02594E+00
 -1      3916 8.96005E-01
 -1      3917 1.36468E+00
 -1      3918 1.52203E+00
 -1      3919 1.36468E+00
 -1      3920 2.33494E+00
 -1      3921 2.11706E+00
 -1      3922 1.92036E+00
 -1      3923 1.66181E+00
 -1      3924 1.37809E+00
 -1      3925 1.17137E+00
 -1      3926 1.03012E+00
 -1      3927 1.51755E+00
 -1      3928 7.46408E-01
 -1      3929 6.53966E-01
 -1      3930 1.02713E+00
 -1      3931 5.58856E-01
 -1      3932 5.44285E-01
 -1      3933 6.48304E-01
 -1      3934 1.25116E-01
 -1      3935 1.24219E-01
 -1      3936 3.65278E-01
 -1      3937 2.95482E-01
 -1      3938 2.55752E-01
 -1      3939 2.08020E-01
 -1      3940 2.59689E-01
 -1      3941 8.27138E-01
 -1      3942 7.02668E-01
 -1      3943 1.33854E+00
 -1      3944 1.02312E+00
 -1      3945 9.37272E-01
 -1      3946 2.15608E+00
 -1      3947 1.64267E+00
 -1      3948 1.43739E+00
 -1      3949 2.43020E-01
 -1      3950 3.59787E+00
 -1      3951 2.79306E+00
 -1      3952 1.62526E-01
 -1      3953 1.06491E-01
 -1      3954 1.12519E-01
 -1      3955 1.07388E-01
 -1      3956 1.96279E+00
 -1      3957 1.99468E+00
 -1      3958 3.55432E+00
 -1      3959 3.79354E+00
 -1      3960 1.75141E-01
 -1      3961 1.81468E-01
 -1      3962 1.49015E-01
 -1      3963 1.30822E-01
 -1      3964 3.95994E+00
 -1      3965 5.67741E-01
 -1      3966 4.51287E-01
 -1      3967 3.85429E-01
 -1      3968 9.11433E-02
 -1      3969 7.79720E-02
 -1      3970 1.33033E-01
 -1      3971 1.35312E-01
 -1      3972 7.04373E-02
 -1      3973 7.88539E-02
 -1      3974 8.45710E-02
 -1      3975 9.24560E-02
 -1      3976 7.46938E-02
 -1      3977 2.74180E+00
 -1      3978 2.63342E+00
 -1      3979 3.53046E+00
 -1      3980 6.13092E-01
 -1      3981 6.13092E-01
 -1      3982 9.90342E-01
 -1      3983 6.26479E-01
 -1      3984 1.94731E-01
 -1      3985 1.99865E-01
 -1      3986 1.45047E-01
 -1      3987 1.52010E-01
 -1      3988 1.26043E-01
 -1      3989 1.32611E-01
 -1      3990 1.15694E-01
 -1      3991 4.89920E-01
 -1      3992 1.24726E-01
 -1      3993 1.04927E-01
 -1      3994 1.03262E-01
 -1      3995 1.18261E-01
 -1      3996 1.13392E-01
 -1      3997 9.94692E-02
 -1      3998 1.78052E-01
 -1      3999 1.46213E-01
 -1      4000 1.38534E-01
 -1      4001 1.89991E-01
 -1      4002 2.14220E+00
 -1      4003 2.14332E+00
 -1      4004 1.67648E+00
 -1      4005 1.49508E+00
 -1      4006 1.98282E+00
 -1      4007 1.64953E+00
 -1      4008 1.96279E+00
 -1      4009 1.86244E+00
 -1      4010 2.38513E+00
 -1      4011 2.02163E+00
 -1      4012 5.44285E-01
 -1      4013 5.35376E-01
 -1      4014 1.31817E-01
 -1      4015 1.01943E-01
 -1      4016 8.24284E-02
 -1      4017 7.99359E-02
 -1      4018 9.39347E-02
 -1      4019 6.06365E-01
 -1      4020 3.24376E+00
 -1      4021 2.80107E+00
 -1      4022 6.38493E-01
 -1      4023 6.18809E-01
 -1      4024 6.47402E-01
 -1      4025 2.51903E+00
 -1      4026 1.31794E-01
 -1      4027 1.30207E-01
 -1      4028 1.26719E-01
 -1      4029 1.11012E-01
 -1      4030 2.23022E+00
 -1      4031 1.13168E-01
 -1      4032 1.21988E-01
 -1      4033 1.11216E-01
 -1      4034 1.21542E-01
 -1      4035 1.24970E-01
 -1      4036 6.78625E-02
 -1      4037 6.64020E-02
 -1      4038 6.12622E-02
 -1      4039 2.89426E+00
 -1      4040 3.48007E+00
 -1      4041 3.31820E+00
 -1      4042 2.38651E+00
 -1      4043 1.97255E+00
 -1      4044 6.00890E-02
 -1      4045 8.69901E-02
 -1      4046 9.90353E-02
 -1      4047 1.06372E-01
 -1      4048 2.27210E+00
 -1      4049 1.29265E-01
 -1      4050 1.29265E-01
 -1      4051 1.01791E-01
 -1      4052 3.31820E+00
 -1      4053 9.11860E-01
 -1      4054 1.04233E+00
 -1      4055 1.03466E+00
 -1      4056 9.55367E-02
 -1      4057 8.58963E-02
 -1      4058 7.97215E-02
 -1      4059 7.57172E-02
 -1      4060 7.24883E-02
 -1      4061 8.16110E-02
 -1      4062 6.73698E-02
 -1      4063 6.48684E-02
 -1      4064 7.24883E-02
 -1      4065 6.32622E-02
 -1      4066 6.27088E-02
 -1      4067 6.57636E-02
 -1      4068 8.14027E-02
 -1      4069 8.18045E-02
 -1      4070 8.28512E-02
 -1      4071 7.92157E-02
 -1      4072 8.04312E-02
 -1      4073 9.89562E-02
 -1      4074 9.74174E-02
 -1      4075 1.04015E-01
 -1      4076 1.13354E-01
 -1      4077 1.32934E-01
 -1      4078 1.47817E-01
 -1      4079 1.59258E-01
 -1      4080 1.92345E-01
 -1      4081 2.11820E-01
 -1      4082 2.32705E-01
 -1      4083 2.78175E-01
 -1      4084 3.07422E-01
 -1      4085 3.43589E-01
 -1      4086 4.01792E-01
 -1      4087 4.53232E-01
 -1      4088 5.04314E-01
 -1      4089 5.80148E-01
 -1      4090 6.44931E-01
 -1      4091 7.25598E-01
 -1      4092 7.83548E-01
 -1      4093 8.56100E-01
 -1      4094 9.91131E-01
 -1      4095 1.11190E+00
 -1      4096 1.20371E+00
 -1      4097 1.38555E+00
 -1      4098 1.41432E+00
 -1      4099 1.54425E+00
 -1      4100 1.85195E+00
 -1      4101 2.68694E+00
 -1      4102 2.33151E+00
 -1      4103 2.13583E+00
 -1      4104 1.38346E-01
 -1      4105 1.45876E+00
 -1      4106 1.17505E+00
 -1      4107 9.65384E-01
 -1      4108 8.70274E-01
 -1      4109 9.64482E-01
 -1      4110 1.39702E+00
 -1      4111 1.75900E+00
 -1      4112 1.76939E+00
 -1      4113 1.46525E+00
 -1      4114 1.13150E+00
 -1      4115 9.35520E-01
 -1      4116 1.46350E+00
 -1      4117 1.76584E+00
 -1      4118 8.05803E-02
 -1      4119 8.64570E-02
 -1      4120 3.54682E-01
 -1      4121 3.14952E-01
 -1      4122 8.95131E-02
 -1      4123 7.17851E-02
 -1      4124 6.27054E-02
 -1      4125 1.46559E-01
 -1      4126 1.22514E-01
 -1      4127 9.75702E-02
 -1      4128 9.45662E-02
 -1      4129 2.75320E+00
 -1      4130 2.10820E+00
 -1      4131 2.13607E+00
 -1      4132 2.08916E+00
 -1      4133 2.61595E+00
 -1      4134 2.75320E+00
 -1      4135 1.75041E+00
 -1      4136 7.72960E-02
 -1      4137 8.30131E-02
 -1      4138 1.01701E-01
 -1      4139 1.01307E-01
 -1      4140 1.01730E-01
 -1      4141 7.96903E-01
 -1      4142 6.61976E-01
 -1      4143 9.91131E-01
 -1      4144 9.39925E-02
 -1      4145 8.88485E-02
 -1      4146 9.20934E-02
 -1      4147 9.42160E-02
 -1      4148 9.47460E-02
 -1      4149 7.92597E-02
 -1      4150 5.35061E-01
 -1      4151 4.49051E-01
 -1      4152 7.25598E-01
 -1      4153 1.96502E+00
 -1      4154 1.91376E+00
 -1      4155 3.03150E+00
 -1      4156 1.23693E-01
 -1      4157 1.09909E-01
 -1      4158 6.63614E-02
 -1      4159 6.49697E-02
 -1      4160 8.48167E-02
 -1      4161 1.74100E-01
 -1      4162 1.52612E-01
 -1      4163 1.59258E-01
 -1      4164 2.75320E+00
 -1      4165 9.99139E-02
 -1      4166 1.03969E-01
 -1      4167 9.00051E-02
 -1      4168 5.04314E-01
 -1      4169 8.85675E-02
 -1      4170 8.59653E-02
 -1      4171 9.25445E-02
 -1      4172 6.75346E-02
 -1      4173 1.28831E-01
 -1      4174 1.15601E-01
 -1      4175 7.99981E-02
 -1      4176 1.29265E-01
 -1      4177 1.25753E+00
 -1      4178 9.55117E-02
 -1      4179 9.99681E-02
 -1      4180 1.15942E-01
 -1      4181 8.85675E-02
 -1      4182 3.43589E-01
 -1      4183 2.48596E-01
 -1      4184 2.18628E-01
 -1      4185 9.67338E-02
 -1      4186 9.16290E-02
 -1      4187 8.23471E-02
 -1      4188 1.77750E+00
 -1      4189 1.00365E-01
 -1      4190 8.98429E-02
 -1      4191 7.07170E-02
 -1      4192 7.32918E-02
 -1      4193 8.16110E-02
 -1      4194 1.44870E+00
 -1      4195 1.63801E+00
 -1      4196 2.26872E+00
 -1      4197 8.34260E-02
 -1      4198 7.92207E-02
 -1      4199 8.35156E-02
 -1      4200 6.91481E-02
 -1      4201 1.27572E+00
 -1      4202 1.06086E-01
 -1      4203 7.76068E-02
 -1      4204 7.24883E-02
 -1      4205 8.28512E-02
 -1      4206 1.01545E-01
 -1      4207 1.01545E-01
 -1      4208 9.89562E-02
 -1      4209 1.13354E-01
 -1      4210 1.30340E-01
 -1      4211 1.59258E-01
 -1      4212 1.88177E-01
 -1      4213 2.32705E-01
 -1      4214 2.77233E-01
 -1      4215 3.43589E-01
 -1      4216 4.09944E-01
 -1      4217 5.04314E-01
 -1      4218 5.98683E-01
 -1      4219 7.25598E-01
 -1      4220 8.52514E-01
 -1      4221 9.91131E-01
 -1      4222 1.12975E+00
 -1      4223 1.46350E+00
 -1      4224 1.71930E+00
 -1      4225 1.92991E+00
 -1      4226 1.56783E+00
 -1      4227 2.47489E+00
 -1      4228 5.74276E-02
 -1      4229 6.62229E-02
 -1      4230 7.99981E-02
 -1      4231 9.99681E-02
 -1      4232 8.63936E-02
 -1      4233 8.56153E-02
 -1      4234 8.16110E-02
 -1      4235 9.15197E-02
 -1      4236 8.85675E-02
 -1      4237 7.94219E-02
 -1      4238 8.71809E-02
 -1      4239 9.31182E-02
 -1      4240 9.99139E-02
 -1      4241 9.26671E-02
 -1      4242 9.20934E-02
 -1      4243 2.26872E+00
 -1      4244 8.98429E-02
 -1      4245 9.26671E-02
 -1      4246 1.01545E-01
 -1      4247 6.57636E-02
 -1      4248 6.41574E-02
 -1      4249 8.28512E-02
 -1      4250 9.26671E-02
 -1      4251 9.20934E-02
 -1      4252 6.75346E-02
 -1      4253 6.38272E-02
 -1      4254 2.32705E-01
 -1      4255 7.44259E-02
 -1      4256 7.07170E-02
 -1      4257 7.08821E-02
 -1      4258 6.39923E-02
 -1      4259 8.26861E-02
 -3
 9999
