    1C
    1UUSER                                                              
    1UDATE              27.october.2022                                 
    1UTIME              00:37:33                                        
    1UHOST                                                              
    1UPGM               CalculiX                                        
    1UVERSION           Version 2.17                             
    1UCOMPILETIME       Thu Jul 23 21:43:50 CEST 2020                    
    1UDIR                                                               
    1UDBN                                                               
    1UMAT    1SOLIDMATERIAL                                             
    2C                          4320                                     1
 -1         1 4.30016E+01 2.18182E+01 0.00000E+00
 -1         2 5.69841E+01 2.13236E+01 0.00000E+00
 -1         3 1.50000E+02 0.00000E+00 0.00000E+00
 -1         4 1.50000E+02 5.00000E+01 0.00000E+00
 -1         5 0.00000E+00 0.00000E+00 0.00000E+00
 -1         6 0.00000E+00 5.00000E+01 0.00000E+00
 -1         7 0.00000E+00 4.70500E+01 0.00000E+00
 -1         8 0.00000E+00 4.41000E+01 0.00000E+00
 -1         9 0.00000E+00 4.11500E+01 0.00000E+00
 -1        10 0.00000E+00 3.82000E+01 0.00000E+00
 -1        11 0.00000E+00 3.52500E+01 0.00000E+00
 -1        12 0.00000E+00 3.23500E+01 0.00000E+00
 -1        13 0.00000E+00 2.94000E+01 0.00000E+00
 -1        14 0.00000E+00 2.64500E+01 0.00000E+00
 -1        15 0.00000E+00 2.35000E+01 0.00000E+00
 -1        16 0.00000E+00 2.05500E+01 0.00000E+00
 -1        17 0.00000E+00 1.76000E+01 0.00000E+00
 -1        18 0.00000E+00 1.47000E+01 0.00000E+00
 -1        19 0.00000E+00 1.17500E+01 0.00000E+00
 -1        20 0.00000E+00 8.80000E+00 0.00000E+00
 -1        21 0.00000E+00 5.85000E+00 0.00000E+00
 -1        22 0.00000E+00 2.90000E+00 0.00000E+00
 -1        23 3.15000E+00 5.00000E+01 0.00000E+00
 -1        24 6.15000E+00 5.00000E+01 0.00000E+00
 -1        25 9.15000E+00 5.00000E+01 0.00000E+00
 -1        26 1.21500E+01 5.00000E+01 0.00000E+00
 -1        27 1.51500E+01 5.00000E+01 0.00000E+00
 -1        28 1.81500E+01 5.00000E+01 0.00000E+00
 -1        29 2.11500E+01 5.00000E+01 0.00000E+00
 -1        30 2.41500E+01 5.00000E+01 0.00000E+00
 -1        31 2.71500E+01 5.00000E+01 0.00000E+00
 -1        32 3.01500E+01 5.00000E+01 0.00000E+00
 -1        33 3.31500E+01 5.00000E+01 0.00000E+00
 -1        34 3.61500E+01 5.00000E+01 0.00000E+00
 -1        35 3.91500E+01 5.00000E+01 0.00000E+00
 -1        36 4.21500E+01 5.00000E+01 0.00000E+00
 -1        37 4.51500E+01 5.00000E+01 0.00000E+00
 -1        38 4.81500E+01 5.00000E+01 0.00000E+00
 -1        39 5.11500E+01 5.00000E+01 0.00000E+00
 -1        40 5.41500E+01 5.00000E+01 0.00000E+00
 -1        41 5.71500E+01 5.00000E+01 0.00000E+00
 -1        42 6.01500E+01 5.00000E+01 0.00000E+00
 -1        43 6.31500E+01 5.00000E+01 0.00000E+00
 -1        44 6.61500E+01 5.00000E+01 0.00000E+00
 -1        45 6.91500E+01 5.00000E+01 0.00000E+00
 -1        46 7.21500E+01 5.00000E+01 0.00000E+00
 -1        47 7.51500E+01 5.00000E+01 0.00000E+00
 -1        48 7.81500E+01 5.00000E+01 0.00000E+00
 -1        49 8.11500E+01 5.00000E+01 0.00000E+00
 -1        50 8.41500E+01 5.00000E+01 0.00000E+00
 -1        51 8.71500E+01 5.00000E+01 0.00000E+00
 -1        52 9.01500E+01 5.00000E+01 0.00000E+00
 -1        53 9.31500E+01 5.00000E+01 0.00000E+00
 -1        54 9.61500E+01 5.00000E+01 0.00000E+00
 -1        55 9.91500E+01 5.00000E+01 0.00000E+00
 -1        56 1.02150E+02 5.00000E+01 0.00000E+00
 -1        57 1.05150E+02 5.00000E+01 0.00000E+00
 -1        58 1.08150E+02 5.00000E+01 0.00000E+00
 -1        59 1.11150E+02 5.00000E+01 0.00000E+00
 -1        60 1.14150E+02 5.00000E+01 0.00000E+00
 -1        61 1.17150E+02 5.00000E+01 0.00000E+00
 -1        62 1.20150E+02 5.00000E+01 0.00000E+00
 -1        63 1.23150E+02 5.00000E+01 0.00000E+00
 -1        64 1.26150E+02 5.00000E+01 0.00000E+00
 -1        65 1.29150E+02 5.00000E+01 0.00000E+00
 -1        66 1.32150E+02 5.00000E+01 0.00000E+00
 -1        67 1.35150E+02 5.00000E+01 0.00000E+00
 -1        68 1.38150E+02 5.00000E+01 0.00000E+00
 -1        69 1.41150E+02 5.00000E+01 0.00000E+00
 -1        70 1.44150E+02 5.00000E+01 0.00000E+00
 -1        71 1.47150E+02 5.00000E+01 0.00000E+00
 -1        72 3.15000E+00 0.00000E+00 0.00000E+00
 -1        73 6.15000E+00 0.00000E+00 0.00000E+00
 -1        74 9.15000E+00 0.00000E+00 0.00000E+00
 -1        75 1.21500E+01 0.00000E+00 0.00000E+00
 -1        76 1.51500E+01 0.00000E+00 0.00000E+00
 -1        77 1.81500E+01 0.00000E+00 0.00000E+00
 -1        78 2.11500E+01 0.00000E+00 0.00000E+00
 -1        79 2.41500E+01 0.00000E+00 0.00000E+00
 -1        80 2.71500E+01 0.00000E+00 0.00000E+00
 -1        81 3.01500E+01 0.00000E+00 0.00000E+00
 -1        82 3.31500E+01 0.00000E+00 0.00000E+00
 -1        83 3.61500E+01 0.00000E+00 0.00000E+00
 -1        84 3.91500E+01 0.00000E+00 0.00000E+00
 -1        85 4.21500E+01 0.00000E+00 0.00000E+00
 -1        86 4.51500E+01 0.00000E+00 0.00000E+00
 -1        87 4.81500E+01 0.00000E+00 0.00000E+00
 -1        88 5.11500E+01 0.00000E+00 0.00000E+00
 -1        89 5.41500E+01 0.00000E+00 0.00000E+00
 -1        90 5.71500E+01 0.00000E+00 0.00000E+00
 -1        91 6.01500E+01 0.00000E+00 0.00000E+00
 -1        92 6.31500E+01 0.00000E+00 0.00000E+00
 -1        93 6.61500E+01 0.00000E+00 0.00000E+00
 -1        94 6.91500E+01 0.00000E+00 0.00000E+00
 -1        95 7.21500E+01 0.00000E+00 0.00000E+00
 -1        96 7.51500E+01 0.00000E+00 0.00000E+00
 -1        97 7.81500E+01 0.00000E+00 0.00000E+00
 -1        98 8.11500E+01 0.00000E+00 0.00000E+00
 -1        99 8.41500E+01 0.00000E+00 0.00000E+00
 -1       100 8.71500E+01 0.00000E+00 0.00000E+00
 -1       101 9.01500E+01 0.00000E+00 0.00000E+00
 -1       102 9.31500E+01 0.00000E+00 0.00000E+00
 -1       103 9.61500E+01 0.00000E+00 0.00000E+00
 -1       104 9.91500E+01 0.00000E+00 0.00000E+00
 -1       105 1.02150E+02 0.00000E+00 0.00000E+00
 -1       106 1.05150E+02 0.00000E+00 0.00000E+00
 -1       107 1.08150E+02 0.00000E+00 0.00000E+00
 -1       108 1.11150E+02 0.00000E+00 0.00000E+00
 -1       109 1.14150E+02 0.00000E+00 0.00000E+00
 -1       110 1.17150E+02 0.00000E+00 0.00000E+00
 -1       111 1.20150E+02 0.00000E+00 0.00000E+00
 -1       112 1.23150E+02 0.00000E+00 0.00000E+00
 -1       113 1.26150E+02 0.00000E+00 0.00000E+00
 -1       114 1.29150E+02 0.00000E+00 0.00000E+00
 -1       115 1.32150E+02 0.00000E+00 0.00000E+00
 -1       116 1.35150E+02 0.00000E+00 0.00000E+00
 -1       117 1.38150E+02 0.00000E+00 0.00000E+00
 -1       118 1.41150E+02 0.00000E+00 0.00000E+00
 -1       119 1.44150E+02 0.00000E+00 0.00000E+00
 -1       120 1.47150E+02 0.00000E+00 0.00000E+00
 -1       121 1.50000E+02 2.95000E+00 0.00000E+00
 -1       122 1.50000E+02 5.90000E+00 0.00000E+00
 -1       123 1.50000E+02 8.85000E+00 0.00000E+00
 -1       124 1.50000E+02 1.18000E+01 0.00000E+00
 -1       125 1.50000E+02 1.47500E+01 0.00000E+00
 -1       126 1.50000E+02 1.76500E+01 0.00000E+00
 -1       127 1.50000E+02 2.06000E+01 0.00000E+00
 -1       128 1.50000E+02 2.35500E+01 0.00000E+00
 -1       129 1.50000E+02 2.65000E+01 0.00000E+00
 -1       130 1.50000E+02 2.94500E+01 0.00000E+00
 -1       131 1.50000E+02 3.24000E+01 0.00000E+00
 -1       132 1.50000E+02 3.53000E+01 0.00000E+00
 -1       133 1.50000E+02 3.82500E+01 0.00000E+00
 -1       134 1.50000E+02 4.12000E+01 0.00000E+00
 -1       135 1.50000E+02 4.41500E+01 0.00000E+00
 -1       136 1.50000E+02 4.71000E+01 0.00000E+00
 -1       137 5.68277E+01 1.98520E+01 0.00000E+00
 -1       138 5.63173E+01 1.83419E+01 0.00000E+00
 -1       139 5.55616E+01 1.70937E+01 0.00000E+00
 -1       140 5.45445E+01 1.60130E+01 0.00000E+00
 -1       141 5.32649E+01 1.51400E+01 0.00000E+00
 -1       142 5.17338E+01 1.45458E+01 0.00000E+00
 -1       143 5.03195E+01 1.43316E+01 0.00000E+00
 -1       144 4.88513E+01 1.44159E+01 0.00000E+00
 -1       145 4.74267E+01 1.48075E+01 0.00000E+00
 -1       146 4.60667E+01 1.55224E+01 0.00000E+00
 -1       147 4.49701E+01 1.64390E+01 0.00000E+00
 -1       148 4.40628E+01 1.75903E+01 0.00000E+00
 -1       149 4.33931E+01 1.89660E+01 0.00000E+00
 -1       150 4.30452E+01 2.04007E+01 0.00000E+00
 -1       151 4.32275E+01 2.31534E+01 0.00000E+00
 -1       152 4.37570E+01 2.45210E+01 0.00000E+00
 -1       153 4.45147E+01 2.56922E+01 0.00000E+00
 -1       154 4.54737E+01 2.66767E+01 0.00000E+00
 -1       155 4.67559E+01 2.75348E+01 0.00000E+00
 -1       156 4.80427E+01 2.80490E+01 0.00000E+00
 -1       157 4.94479E+01 2.83030E+01 0.00000E+00
 -1       158 5.08201E+01 2.82735E+01 0.00000E+00
 -1       159 5.22963E+01 2.79307E+01 0.00000E+00
 -1       160 5.35531E+01 2.73455E+01 0.00000E+00
 -1       161 5.47334E+01 2.64660E+01 0.00000E+00
 -1       162 5.56945E+01 2.53722E+01 0.00000E+00
 -1       163 5.63997E+01 2.41237E+01 0.00000E+00
 -1       164 5.68240E+01 2.28123E+01 0.00000E+00
 -1       165 2.59800E+00 4.55750E+01 0.00000E+00
 -1       166 2.59800E+00 4.26250E+01 0.00000E+00
 -1       167 2.59800E+00 3.96750E+01 0.00000E+00
 -1       168 2.59800E+00 3.67250E+01 0.00000E+00
 -1       169 2.59800E+00 3.38250E+01 0.00000E+00
 -1       170 2.59800E+00 3.08750E+01 0.00000E+00
 -1       171 2.59800E+00 2.79250E+01 0.00000E+00
 -1       172 2.59800E+00 2.49750E+01 0.00000E+00
 -1       173 2.59800E+00 2.20250E+01 0.00000E+00
 -1       174 2.59800E+00 1.90750E+01 0.00000E+00
 -1       175 2.59800E+00 1.61750E+01 0.00000E+00
 -1       176 2.59800E+00 1.32250E+01 0.00000E+00
 -1       177 2.59800E+00 1.02750E+01 0.00000E+00
 -1       178 2.59800E+00 7.32500E+00 0.00000E+00
 -1       179 2.59800E+00 4.37500E+00 0.00000E+00
 -1       180 2.87400E+00 2.18750E+00 0.00000E+00
 -1       181 4.65000E+00 4.74020E+01 0.00000E+00
 -1       182 7.65000E+00 4.74020E+01 0.00000E+00
 -1       183 1.06500E+01 4.74020E+01 0.00000E+00
 -1       184 1.36500E+01 4.74020E+01 0.00000E+00
 -1       185 1.66500E+01 4.74020E+01 0.00000E+00
 -1       186 1.96500E+01 4.74020E+01 0.00000E+00
 -1       187 2.26500E+01 4.74020E+01 0.00000E+00
 -1       188 2.56500E+01 4.74020E+01 0.00000E+00
 -1       189 2.86500E+01 4.74020E+01 0.00000E+00
 -1       190 3.16500E+01 4.74020E+01 0.00000E+00
 -1       191 3.46500E+01 4.74020E+01 0.00000E+00
 -1       192 3.76500E+01 4.74020E+01 0.00000E+00
 -1       193 4.06500E+01 4.74020E+01 0.00000E+00
 -1       194 4.36500E+01 4.74020E+01 0.00000E+00
 -1       195 4.66500E+01 4.74020E+01 0.00000E+00
 -1       196 4.96500E+01 4.74020E+01 0.00000E+00
 -1       197 5.26500E+01 4.74020E+01 0.00000E+00
 -1       198 5.56500E+01 4.74020E+01 0.00000E+00
 -1       199 5.86500E+01 4.74020E+01 0.00000E+00
 -1       200 6.16500E+01 4.74020E+01 0.00000E+00
 -1       201 6.46500E+01 4.74020E+01 0.00000E+00
 -1       202 6.76500E+01 4.74020E+01 0.00000E+00
 -1       203 7.06500E+01 4.74020E+01 0.00000E+00
 -1       204 7.36500E+01 4.74020E+01 0.00000E+00
 -1       205 7.66500E+01 4.74020E+01 0.00000E+00
 -1       206 7.96500E+01 4.74020E+01 0.00000E+00
 -1       207 8.26500E+01 4.74020E+01 0.00000E+00
 -1       208 8.56500E+01 4.74020E+01 0.00000E+00
 -1       209 8.86500E+01 4.74020E+01 0.00000E+00
 -1       210 9.16500E+01 4.74020E+01 0.00000E+00
 -1       211 9.46500E+01 4.74020E+01 0.00000E+00
 -1       212 9.76500E+01 4.74020E+01 0.00000E+00
 -1       213 1.00650E+02 4.74020E+01 0.00000E+00
 -1       214 1.03650E+02 4.74020E+01 0.00000E+00
 -1       215 1.06650E+02 4.74020E+01 0.00000E+00
 -1       216 1.09650E+02 4.74020E+01 0.00000E+00
 -1       217 1.12650E+02 4.74020E+01 0.00000E+00
 -1       218 1.15650E+02 4.74020E+01 0.00000E+00
 -1       219 1.18650E+02 4.74020E+01 0.00000E+00
 -1       220 1.21650E+02 4.74020E+01 0.00000E+00
 -1       221 1.24650E+02 4.74020E+01 0.00000E+00
 -1       222 1.27650E+02 4.74020E+01 0.00000E+00
 -1       223 1.30650E+02 4.74020E+01 0.00000E+00
 -1       224 1.33650E+02 4.74020E+01 0.00000E+00
 -1       225 1.36650E+02 4.74020E+01 0.00000E+00
 -1       226 1.39650E+02 4.74020E+01 0.00000E+00
 -1       227 1.42650E+02 4.74020E+01 0.00000E+00
 -1       228 1.45650E+02 4.74020E+01 0.00000E+00
 -1       229 5.87400E+00 2.18750E+00 0.00000E+00
 -1       230 8.87400E+00 2.18750E+00 0.00000E+00
 -1       231 1.18740E+01 2.18750E+00 0.00000E+00
 -1       232 1.48740E+01 2.18750E+00 0.00000E+00
 -1       233 1.78740E+01 2.18750E+00 0.00000E+00
 -1       234 2.08740E+01 2.18750E+00 0.00000E+00
 -1       235 2.38740E+01 2.18750E+00 0.00000E+00
 -1       236 2.68740E+01 2.18750E+00 0.00000E+00
 -1       237 2.98740E+01 2.18750E+00 0.00000E+00
 -1       238 3.28740E+01 2.18750E+00 0.00000E+00
 -1       239 3.58740E+01 2.18750E+00 0.00000E+00
 -1       240 3.88740E+01 2.18750E+00 0.00000E+00
 -1       241 4.18740E+01 2.18750E+00 0.00000E+00
 -1       242 4.48740E+01 2.18750E+00 0.00000E+00
 -1       243 4.78740E+01 2.18750E+00 0.00000E+00
 -1       244 5.08740E+01 2.18750E+00 0.00000E+00
 -1       245 5.38740E+01 2.18750E+00 0.00000E+00
 -1       246 5.68740E+01 2.18750E+00 0.00000E+00
 -1       247 5.98740E+01 2.18750E+00 0.00000E+00
 -1       248 6.28740E+01 2.18750E+00 0.00000E+00
 -1       249 6.58740E+01 2.18750E+00 0.00000E+00
 -1       250 6.88740E+01 2.18750E+00 0.00000E+00
 -1       251 7.18740E+01 2.18750E+00 0.00000E+00
 -1       252 7.48740E+01 2.18750E+00 0.00000E+00
 -1       253 7.78740E+01 2.18750E+00 0.00000E+00
 -1       254 8.08740E+01 2.18750E+00 0.00000E+00
 -1       255 8.38740E+01 2.18750E+00 0.00000E+00
 -1       256 8.68740E+01 2.18750E+00 0.00000E+00
 -1       257 8.98740E+01 2.18750E+00 0.00000E+00
 -1       258 9.28740E+01 2.18750E+00 0.00000E+00
 -1       259 9.58740E+01 2.18750E+00 0.00000E+00
 -1       260 9.88740E+01 2.18750E+00 0.00000E+00
 -1       261 1.01874E+02 2.18750E+00 0.00000E+00
 -1       262 1.04874E+02 2.18750E+00 0.00000E+00
 -1       263 1.07874E+02 2.18750E+00 0.00000E+00
 -1       264 1.10874E+02 2.18750E+00 0.00000E+00
 -1       265 1.13874E+02 2.18750E+00 0.00000E+00
 -1       266 1.16874E+02 2.18750E+00 0.00000E+00
 -1       267 1.19874E+02 2.18750E+00 0.00000E+00
 -1       268 1.22874E+02 2.18750E+00 0.00000E+00
 -1       269 1.25874E+02 2.18750E+00 0.00000E+00
 -1       270 1.28874E+02 2.18750E+00 0.00000E+00
 -1       271 1.31874E+02 2.18750E+00 0.00000E+00
 -1       272 1.34874E+02 2.18750E+00 0.00000E+00
 -1       273 1.37874E+02 2.18750E+00 0.00000E+00
 -1       274 1.40874E+02 2.18750E+00 0.00000E+00
 -1       275 1.43874E+02 2.18750E+00 0.00000E+00
 -1       276 1.46874E+02 2.18750E+00 0.00000E+00
 -1       277 1.47402E+02 4.42500E+00 0.00000E+00
 -1       278 1.47402E+02 7.37500E+00 0.00000E+00
 -1       279 1.47402E+02 1.03250E+01 0.00000E+00
 -1       280 1.47402E+02 1.32750E+01 0.00000E+00
 -1       281 1.47402E+02 1.61750E+01 0.00000E+00
 -1       282 1.47402E+02 1.91250E+01 0.00000E+00
 -1       283 1.47402E+02 2.20750E+01 0.00000E+00
 -1       284 1.47402E+02 2.50250E+01 0.00000E+00
 -1       285 1.47402E+02 2.79750E+01 0.00000E+00
 -1       286 1.47402E+02 3.09250E+01 0.00000E+00
 -1       287 1.47402E+02 3.38250E+01 0.00000E+00
 -1       288 1.47402E+02 3.67750E+01 0.00000E+00
 -1       289 1.47402E+02 3.97250E+01 0.00000E+00
 -1       290 1.47402E+02 4.26750E+01 0.00000E+00
 -1       291 1.46526E+02 4.50385E+01 0.00000E+00
 -1       292 5.81115E+01 2.04596E+01 0.00000E+00
 -1       293 5.78798E+01 1.86551E+01 0.00000E+00
 -1       294 5.69766E+01 1.70899E+01 0.00000E+00
 -1       295 5.59360E+01 1.57224E+01 0.00000E+00
 -1       296 5.46824E+01 1.44365E+01 0.00000E+00
 -1       297 5.30593E+01 1.34002E+01 0.00000E+00
 -1       298 5.12082E+01 1.32400E+01 0.00000E+00
 -1       299 4.95160E+01 1.31634E+01 0.00000E+00
 -1       300 4.78176E+01 1.34427E+01 0.00000E+00
 -1       301 4.61436E+01 1.40176E+01 0.00000E+00
 -1       302 4.47409E+01 1.50505E+01 0.00000E+00
 -1       303 4.35642E+01 1.62642E+01 0.00000E+00
 -1       304 4.26378E+01 1.77475E+01 0.00000E+00
 -1       305 4.20409E+01 1.93976E+01 0.00000E+00
 -1       306 4.18116E+01 2.10721E+01 0.00000E+00
 -1       307 4.19192E+01 2.26881E+01 0.00000E+00
 -1       308 4.22835E+01 2.43052E+01 0.00000E+00
 -1       309 4.31179E+01 2.57651E+01 0.00000E+00
 -1       310 4.41257E+01 2.70305E+01 0.00000E+00
 -1       311 4.52541E+01 2.83919E+01 0.00000E+00
 -1       312 4.69494E+01 2.89177E+01 0.00000E+00
 -1       313 4.85296E+01 2.93691E+01 0.00000E+00
 -1       314 5.01601E+01 2.95004E+01 0.00000E+00
 -1       315 5.18703E+01 2.94463E+01 0.00000E+00
 -1       316 5.34365E+01 2.87372E+01 0.00000E+00
 -1       317 5.50678E+01 2.81467E+01 0.00000E+00
 -1       318 5.61877E+01 2.67747E+01 0.00000E+00
 -1       319 5.71028E+01 2.53442E+01 0.00000E+00
 -1       320 5.77654E+01 2.38412E+01 0.00000E+00
 -1       321 5.82761E+01 2.22155E+01 0.00000E+00
 -1       322 5.19600E+00 4.11500E+01 0.00000E+00
 -1       323 5.19600E+00 4.41000E+01 0.00000E+00
 -1       324 5.19600E+00 3.52750E+01 0.00000E+00
 -1       325 5.19600E+00 3.23250E+01 0.00000E+00
 -1       326 5.19600E+00 2.93750E+01 0.00000E+00
 -1       327 5.19600E+00 2.64250E+01 0.00000E+00
 -1       328 5.19600E+00 2.34750E+01 0.00000E+00
 -1       329 5.19600E+00 2.05250E+01 0.00000E+00
 -1       330 5.19600E+00 1.76250E+01 0.00000E+00
 -1       331 5.19600E+00 1.46750E+01 0.00000E+00
 -1       332 5.19600E+00 1.17250E+01 0.00000E+00
 -1       333 5.19600E+00 8.77500E+00 0.00000E+00
 -1       334 5.19600E+00 5.82500E+00 0.00000E+00
 -1       335 5.53500E+00 4.00625E+00 0.00000E+00
 -1       336 8.53500E+00 4.00625E+00 0.00000E+00
 -1       337 9.15000E+00 4.48040E+01 0.00000E+00
 -1       338 1.21500E+01 4.48040E+01 0.00000E+00
 -1       339 1.51500E+01 4.48040E+01 0.00000E+00
 -1       340 1.81500E+01 4.48040E+01 0.00000E+00
 -1       341 2.11500E+01 4.48040E+01 0.00000E+00
 -1       342 2.41500E+01 4.48040E+01 0.00000E+00
 -1       343 2.71500E+01 4.48040E+01 0.00000E+00
 -1       344 3.01500E+01 4.48040E+01 0.00000E+00
 -1       345 3.31500E+01 4.48040E+01 0.00000E+00
 -1       346 3.61500E+01 4.48040E+01 0.00000E+00
 -1       347 3.91500E+01 4.48040E+01 0.00000E+00
 -1       348 4.21500E+01 4.48040E+01 0.00000E+00
 -1       349 4.51500E+01 4.48040E+01 0.00000E+00
 -1       350 4.81500E+01 4.48040E+01 0.00000E+00
 -1       351 5.11500E+01 4.48040E+01 0.00000E+00
 -1       352 5.41500E+01 4.48040E+01 0.00000E+00
 -1       353 5.71500E+01 4.48040E+01 0.00000E+00
 -1       354 6.01500E+01 4.48040E+01 0.00000E+00
 -1       355 6.31500E+01 4.48040E+01 0.00000E+00
 -1       356 6.61500E+01 4.48040E+01 0.00000E+00
 -1       357 6.91500E+01 4.48040E+01 0.00000E+00
 -1       358 7.21500E+01 4.48040E+01 0.00000E+00
 -1       359 7.51500E+01 4.48040E+01 0.00000E+00
 -1       360 7.81500E+01 4.48040E+01 0.00000E+00
 -1       361 8.11500E+01 4.48040E+01 0.00000E+00
 -1       362 8.41500E+01 4.48040E+01 0.00000E+00
 -1       363 8.71500E+01 4.48040E+01 0.00000E+00
 -1       364 9.01500E+01 4.48040E+01 0.00000E+00
 -1       365 9.31500E+01 4.48040E+01 0.00000E+00
 -1       366 9.61500E+01 4.48040E+01 0.00000E+00
 -1       367 9.91500E+01 4.48040E+01 0.00000E+00
 -1       368 1.02150E+02 4.48040E+01 0.00000E+00
 -1       369 1.05150E+02 4.48040E+01 0.00000E+00
 -1       370 1.08150E+02 4.48040E+01 0.00000E+00
 -1       371 1.11150E+02 4.48040E+01 0.00000E+00
 -1       372 1.14150E+02 4.48040E+01 0.00000E+00
 -1       373 1.17150E+02 4.48040E+01 0.00000E+00
 -1       374 1.20150E+02 4.48040E+01 0.00000E+00
 -1       375 1.23150E+02 4.48040E+01 0.00000E+00
 -1       376 1.26150E+02 4.48040E+01 0.00000E+00
 -1       377 1.29150E+02 4.48040E+01 0.00000E+00
 -1       378 1.32150E+02 4.48040E+01 0.00000E+00
 -1       379 1.35150E+02 4.48040E+01 0.00000E+00
 -1       380 1.38150E+02 4.48040E+01 0.00000E+00
 -1       381 1.41150E+02 4.48040E+01 0.00000E+00
 -1       382 1.43838E+02 4.49212E+01 0.00000E+00
 -1       383 1.15350E+01 4.00625E+00 0.00000E+00
 -1       384 1.45350E+01 4.00625E+00 0.00000E+00
 -1       385 1.75350E+01 4.00625E+00 0.00000E+00
 -1       386 2.05350E+01 4.00625E+00 0.00000E+00
 -1       387 2.35350E+01 4.00625E+00 0.00000E+00
 -1       388 2.65350E+01 4.00625E+00 0.00000E+00
 -1       389 2.95350E+01 4.00625E+00 0.00000E+00
 -1       390 3.25350E+01 4.00625E+00 0.00000E+00
 -1       391 3.55350E+01 4.00625E+00 0.00000E+00
 -1       392 3.85350E+01 4.00625E+00 0.00000E+00
 -1       393 4.15350E+01 4.00625E+00 0.00000E+00
 -1       394 4.45350E+01 4.00625E+00 0.00000E+00
 -1       395 4.75350E+01 4.00625E+00 0.00000E+00
 -1       396 5.05350E+01 4.00625E+00 0.00000E+00
 -1       397 5.35350E+01 4.00625E+00 0.00000E+00
 -1       398 5.65350E+01 4.00625E+00 0.00000E+00
 -1       399 5.95350E+01 4.00625E+00 0.00000E+00
 -1       400 6.25350E+01 4.00625E+00 0.00000E+00
 -1       401 6.55350E+01 4.00625E+00 0.00000E+00
 -1       402 6.85350E+01 4.00625E+00 0.00000E+00
 -1       403 7.15350E+01 4.00625E+00 0.00000E+00
 -1       404 7.45350E+01 4.00625E+00 0.00000E+00
 -1       405 7.75350E+01 4.00625E+00 0.00000E+00
 -1       406 8.05350E+01 4.00625E+00 0.00000E+00
 -1       407 8.35350E+01 4.00625E+00 0.00000E+00
 -1       408 8.65350E+01 4.00625E+00 0.00000E+00
 -1       409 8.95350E+01 4.00625E+00 0.00000E+00
 -1       410 9.25350E+01 4.00625E+00 0.00000E+00
 -1       411 9.55350E+01 4.00625E+00 0.00000E+00
 -1       412 9.85350E+01 4.00625E+00 0.00000E+00
 -1       413 1.01535E+02 4.00625E+00 0.00000E+00
 -1       414 1.04535E+02 4.00625E+00 0.00000E+00
 -1       415 1.07535E+02 4.00625E+00 0.00000E+00
 -1       416 1.10535E+02 4.00625E+00 0.00000E+00
 -1       417 1.13535E+02 4.00625E+00 0.00000E+00
 -1       418 1.16535E+02 4.00625E+00 0.00000E+00
 -1       419 1.19535E+02 4.00625E+00 0.00000E+00
 -1       420 1.22535E+02 4.00625E+00 0.00000E+00
 -1       421 1.25535E+02 4.00625E+00 0.00000E+00
 -1       422 1.28535E+02 4.00625E+00 0.00000E+00
 -1       423 1.31535E+02 4.00625E+00 0.00000E+00
 -1       424 1.34535E+02 4.00625E+00 0.00000E+00
 -1       425 1.37535E+02 4.00625E+00 0.00000E+00
 -1       426 1.40535E+02 4.00625E+00 0.00000E+00
 -1       427 1.43535E+02 4.00625E+00 0.00000E+00
 -1       428 1.45469E+02 4.21562E+00 0.00000E+00
 -1       429 1.44804E+02 1.18000E+01 0.00000E+00
 -1       430 1.44804E+02 8.85000E+00 0.00000E+00
 -1       431 1.45136E+02 6.53281E+00 0.00000E+00
 -1       432 1.44804E+02 1.47000E+01 0.00000E+00
 -1       433 1.44804E+02 1.76500E+01 0.00000E+00
 -1       434 1.44804E+02 2.06000E+01 0.00000E+00
 -1       435 1.44804E+02 2.35500E+01 0.00000E+00
 -1       436 1.44804E+02 2.65000E+01 0.00000E+00
 -1       437 1.44804E+02 2.94500E+01 0.00000E+00
 -1       438 1.44804E+02 3.23500E+01 0.00000E+00
 -1       439 1.44804E+02 3.53000E+01 0.00000E+00
 -1       440 1.44804E+02 3.82500E+01 0.00000E+00
 -1       441 1.44804E+02 4.12000E+01 0.00000E+00
 -1       442 5.86234E+01 1.71828E+01 0.00000E+00
 -1       443 5.96512E+01 2.12010E+01 0.00000E+00
 -1       444 5.94195E+01 1.93964E+01 0.00000E+00
 -1       445 5.76211E+01 1.55197E+01 0.00000E+00
 -1       446 5.64773E+01 1.39407E+01 0.00000E+00
 -1       447 5.19600E+00 3.82125E+01 0.00000E+00
 -1       448 5.22527E+01 1.19453E+01 0.00000E+00
 -1       449 5.05605E+01 1.18686E+01 0.00000E+00
 -1       450 4.84428E+01 1.19413E+01 0.00000E+00
 -1       451 4.64779E+01 1.22666E+01 0.00000E+00
 -1       452 4.45743E+01 1.33554E+01 0.00000E+00
 -1       453 4.32219E+01 1.47551E+01 0.00000E+00
 -1       454 4.18595E+01 1.62305E+01 0.00000E+00
 -1       455 4.10417E+01 1.81031E+01 0.00000E+00
 -1       456 4.06421E+01 2.00590E+01 0.00000E+00
 -1       457 4.03213E+01 2.19829E+01 0.00000E+00
 -1       458 4.07551E+01 2.38000E+01 0.00000E+00
 -1       459 4.12116E+01 2.58862E+01 0.00000E+00
 -1       460 4.22195E+01 2.71515E+01 0.00000E+00
 -1       461 4.36920E+01 2.85383E+01 0.00000E+00
 -1       462 4.56185E+01 3.02129E+01 0.00000E+00
 -1       463 4.71987E+01 3.06642E+01 0.00000E+00
 -1       464 4.92206E+01 3.09773E+01 0.00000E+00
 -1       465 5.10588E+01 3.08526E+01 0.00000E+00
 -1       466 5.32918E+01 3.05015E+01 0.00000E+00
 -1       467 5.49231E+01 2.99110E+01 0.00000E+00
 -1       468 5.67617E+01 2.83863E+01 0.00000E+00
 -1       469 5.78783E+01 2.68483E+01 0.00000E+00
 -1       470 5.88501E+01 2.52170E+01 0.00000E+00
 -1       471 5.93609E+01 2.35913E+01 0.00000E+00
 -1       472 5.47036E+01 1.26140E+01 0.00000E+00
 -1       473 5.38971E+01 1.11591E+01 0.00000E+00
 -1       474 4.40563E+01 3.03593E+01 0.00000E+00
 -1       475 1.00350E+01 6.60425E+00 0.00000E+00
 -1       476 7.79400E+00 3.08500E+01 0.00000E+00
 -1       477 7.79400E+00 3.38000E+01 0.00000E+00
 -1       478 7.79400E+00 2.49500E+01 0.00000E+00
 -1       479 7.79400E+00 2.20000E+01 0.00000E+00
 -1       480 7.79400E+00 1.91000E+01 0.00000E+00
 -1       481 7.79400E+00 1.61500E+01 0.00000E+00
 -1       482 7.79400E+00 1.32000E+01 0.00000E+00
 -1       483 7.79400E+00 1.02500E+01 0.00000E+00
 -1       484 1.30350E+01 6.60425E+00 0.00000E+00
 -1       485 1.06500E+01 4.22060E+01 0.00000E+00
 -1       486 1.36500E+01 4.22060E+01 0.00000E+00
 -1       487 1.66500E+01 4.22060E+01 0.00000E+00
 -1       488 1.96500E+01 4.22060E+01 0.00000E+00
 -1       489 2.26500E+01 4.22060E+01 0.00000E+00
 -1       490 2.56500E+01 4.22060E+01 0.00000E+00
 -1       491 2.86500E+01 4.22060E+01 0.00000E+00
 -1       492 3.16500E+01 4.22060E+01 0.00000E+00
 -1       493 3.46500E+01 4.22060E+01 0.00000E+00
 -1       494 3.76500E+01 4.22060E+01 0.00000E+00
 -1       495 4.06500E+01 4.22060E+01 0.00000E+00
 -1       496 4.36500E+01 4.22060E+01 0.00000E+00
 -1       497 4.66500E+01 4.22060E+01 0.00000E+00
 -1       498 4.96500E+01 4.22060E+01 0.00000E+00
 -1       499 5.26500E+01 4.22060E+01 0.00000E+00
 -1       500 5.56500E+01 4.22060E+01 0.00000E+00
 -1       501 5.86500E+01 4.22060E+01 0.00000E+00
 -1       502 6.16500E+01 4.22060E+01 0.00000E+00
 -1       503 6.46500E+01 4.22060E+01 0.00000E+00
 -1       504 6.76500E+01 4.22060E+01 0.00000E+00
 -1       505 7.06500E+01 4.22060E+01 0.00000E+00
 -1       506 7.36500E+01 4.22060E+01 0.00000E+00
 -1       507 7.66500E+01 4.22060E+01 0.00000E+00
 -1       508 7.96500E+01 4.22060E+01 0.00000E+00
 -1       509 8.26500E+01 4.22060E+01 0.00000E+00
 -1       510 8.56500E+01 4.22060E+01 0.00000E+00
 -1       511 8.86500E+01 4.22060E+01 0.00000E+00
 -1       512 9.16500E+01 4.22060E+01 0.00000E+00
 -1       513 9.46500E+01 4.22060E+01 0.00000E+00
 -1       514 9.76500E+01 4.22060E+01 0.00000E+00
 -1       515 1.00650E+02 4.22060E+01 0.00000E+00
 -1       516 1.03650E+02 4.22060E+01 0.00000E+00
 -1       517 1.06650E+02 4.22060E+01 0.00000E+00
 -1       518 1.09650E+02 4.22060E+01 0.00000E+00
 -1       519 1.12650E+02 4.22060E+01 0.00000E+00
 -1       520 1.15650E+02 4.22060E+01 0.00000E+00
 -1       521 1.18650E+02 4.22060E+01 0.00000E+00
 -1       522 1.21650E+02 4.22060E+01 0.00000E+00
 -1       523 1.24650E+02 4.22060E+01 0.00000E+00
 -1       524 1.27650E+02 4.22060E+01 0.00000E+00
 -1       525 1.30650E+02 4.22060E+01 0.00000E+00
 -1       526 1.33650E+02 4.22060E+01 0.00000E+00
 -1       527 1.36650E+02 4.22060E+01 0.00000E+00
 -1       528 1.39650E+02 4.22060E+01 0.00000E+00
 -1       529 1.90350E+01 6.60425E+00 0.00000E+00
 -1       530 2.20350E+01 6.60425E+00 0.00000E+00
 -1       531 2.50350E+01 6.60425E+00 0.00000E+00
 -1       532 2.80350E+01 6.60425E+00 0.00000E+00
 -1       533 3.10350E+01 6.60425E+00 0.00000E+00
 -1       534 3.40350E+01 6.60425E+00 0.00000E+00
 -1       535 3.70350E+01 6.60425E+00 0.00000E+00
 -1       536 4.00350E+01 6.60425E+00 0.00000E+00
 -1       537 4.30350E+01 6.60425E+00 0.00000E+00
 -1       538 4.60350E+01 6.60425E+00 0.00000E+00
 -1       539 4.90350E+01 6.60425E+00 0.00000E+00
 -1       540 5.20350E+01 6.60425E+00 0.00000E+00
 -1       541 5.50350E+01 6.60425E+00 0.00000E+00
 -1       542 5.80350E+01 6.60425E+00 0.00000E+00
 -1       543 6.10350E+01 6.60425E+00 0.00000E+00
 -1       544 6.40350E+01 6.60425E+00 0.00000E+00
 -1       545 6.70350E+01 6.60425E+00 0.00000E+00
 -1       546 7.00350E+01 6.60425E+00 0.00000E+00
 -1       547 7.30350E+01 6.60425E+00 0.00000E+00
 -1       548 7.60350E+01 6.60425E+00 0.00000E+00
 -1       549 7.90350E+01 6.60425E+00 0.00000E+00
 -1       550 8.20350E+01 6.60425E+00 0.00000E+00
 -1       551 8.50350E+01 6.60425E+00 0.00000E+00
 -1       552 8.80350E+01 6.60425E+00 0.00000E+00
 -1       553 9.10350E+01 6.60425E+00 0.00000E+00
 -1       554 9.40350E+01 6.60425E+00 0.00000E+00
 -1       555 9.70350E+01 6.60425E+00 0.00000E+00
 -1       556 1.00035E+02 6.60425E+00 0.00000E+00
 -1       557 1.03035E+02 6.60425E+00 0.00000E+00
 -1       558 1.06035E+02 6.60425E+00 0.00000E+00
 -1       559 1.09035E+02 6.60425E+00 0.00000E+00
 -1       560 1.12035E+02 6.60425E+00 0.00000E+00
 -1       561 1.15035E+02 6.60425E+00 0.00000E+00
 -1       562 1.18035E+02 6.60425E+00 0.00000E+00
 -1       563 1.21035E+02 6.60425E+00 0.00000E+00
 -1       564 1.24035E+02 6.60425E+00 0.00000E+00
 -1       565 1.27035E+02 6.60425E+00 0.00000E+00
 -1       566 1.30035E+02 6.60425E+00 0.00000E+00
 -1       567 1.33035E+02 6.60425E+00 0.00000E+00
 -1       568 1.36035E+02 6.60425E+00 0.00000E+00
 -1       569 1.39035E+02 6.60425E+00 0.00000E+00
 -1       570 1.42035E+02 6.60425E+00 0.00000E+00
 -1       571 1.42206E+02 1.61750E+01 0.00000E+00
 -1       572 1.42206E+02 1.91250E+01 0.00000E+00
 -1       573 1.42206E+02 1.03250E+01 0.00000E+00
 -1       574 1.42206E+02 1.32500E+01 0.00000E+00
 -1       575 1.42206E+02 2.20750E+01 0.00000E+00
 -1       576 1.42206E+02 2.50250E+01 0.00000E+00
 -1       577 1.42206E+02 2.79750E+01 0.00000E+00
 -1       578 1.42206E+02 3.08750E+01 0.00000E+00
 -1       579 1.42206E+02 3.38250E+01 0.00000E+00
 -1       580 1.42206E+02 3.67750E+01 0.00000E+00
 -1       581 1.42206E+02 3.97250E+01 0.00000E+00
 -1       582 5.94477E+01 1.55524E+01 0.00000E+00
 -1       583 6.12087E+01 2.26029E+01 0.00000E+00
 -1       584 1.60350E+01 6.60425E+00 0.00000E+00
 -1       585 6.14027E+01 2.00590E+01 0.00000E+00
 -1       586 5.96937E+01 2.68247E+01 0.00000E+00
 -1       587 5.83025E+01 1.38224E+01 0.00000E+00
 -1       588 6.05566E+01 1.77376E+01 0.00000E+00
 -1       589 5.24417E+01 3.23714E+01 0.00000E+00
 -1       590 4.17798E+01 2.90935E+01 0.00000E+00
 -1       591 3.94716E+01 2.51739E+01 0.00000E+00
 -1       592 7.79400E+00 2.79000E+01 0.00000E+00
 -1       593 4.71940E+01 1.04945E+01 0.00000E+00
 -1       594 5.14690E+01 1.05284E+01 0.00000E+00
 -1       595 4.94428E+01 1.01909E+01 0.00000E+00
 -1       596 4.46745E+01 1.13222E+01 0.00000E+00
 -1       597 4.27249E+01 1.29217E+01 0.00000E+00
 -1       598 4.13625E+01 1.43971E+01 0.00000E+00
 -1       599 3.99556E+01 1.65140E+01 0.00000E+00
 -1       600 3.94078E+01 1.87880E+01 0.00000E+00
 -1       601 3.87899E+01 2.07389E+01 0.00000E+00
 -1       602 3.90377E+01 2.33568E+01 0.00000E+00
 -1       603 4.07720E+01 2.78281E+01 0.00000E+00
 -1       604 5.02558E+01 3.26261E+01 0.00000E+00
 -1       605 4.59375E+01 3.20877E+01 0.00000E+00
 -1       606 5.86401E+01 2.85756E+01 0.00000E+00
 -1       607 4.79595E+01 3.24007E+01 0.00000E+00
 -1       608 5.47482E+01 3.19766E+01 0.00000E+00
 -1       609 5.69372E+01 3.04689E+01 0.00000E+00
 -1       610 6.05020E+01 2.48429E+01 0.00000E+00
 -1       611 7.92300E+00 4.16780E+01 0.00000E+00
 -1       612 7.61550E+00 6.21462E+00 0.00000E+00
 -1       613 5.66178E+01 1.19040E+01 0.00000E+00
 -1       614 7.79400E+00 3.67375E+01 0.00000E+00
 -1       615 5.58112E+01 1.04490E+01 0.00000E+00
 -1       616 5.31134E+01 9.74218E+00 0.00000E+00
 -1       617 1.41678E+02 4.22645E+01 0.00000E+00
 -1       618 3.90320E+01 2.71158E+01 0.00000E+00
 -1       619 4.43754E+01 3.22342E+01 0.00000E+00
 -1       620 1.03920E+01 2.05500E+01 0.00000E+00
 -1       621 1.03920E+01 2.35000E+01 0.00000E+00
 -1       622 1.03920E+01 1.46750E+01 0.00000E+00
 -1       623 1.03920E+01 1.17250E+01 0.00000E+00
 -1       624 1.15350E+01 9.20225E+00 0.00000E+00
 -1       625 6.29059E+01 1.81961E+01 0.00000E+00
 -1       626 1.45350E+01 9.20225E+00 0.00000E+00
 -1       627 5.91884E+01 3.07813E+01 0.00000E+00
 -1       628 1.51500E+01 3.96080E+01 0.00000E+00
 -1       629 1.81500E+01 3.96080E+01 0.00000E+00
 -1       630 2.11500E+01 3.96080E+01 0.00000E+00
 -1       631 2.41500E+01 3.96080E+01 0.00000E+00
 -1       632 2.71500E+01 3.96080E+01 0.00000E+00
 -1       633 3.01500E+01 3.96080E+01 0.00000E+00
 -1       634 3.31500E+01 3.96080E+01 0.00000E+00
 -1       635 3.61500E+01 3.96080E+01 0.00000E+00
 -1       636 3.91500E+01 3.96080E+01 0.00000E+00
 -1       637 4.21500E+01 3.96080E+01 0.00000E+00
 -1       638 4.51500E+01 3.96080E+01 0.00000E+00
 -1       639 4.81500E+01 3.96080E+01 0.00000E+00
 -1       640 5.11500E+01 3.96080E+01 0.00000E+00
 -1       641 5.41500E+01 3.96080E+01 0.00000E+00
 -1       642 5.71500E+01 3.96080E+01 0.00000E+00
 -1       643 6.01500E+01 3.96080E+01 0.00000E+00
 -1       644 6.31500E+01 3.96080E+01 0.00000E+00
 -1       645 6.61500E+01 3.96080E+01 0.00000E+00
 -1       646 6.91500E+01 3.96080E+01 0.00000E+00
 -1       647 7.21500E+01 3.96080E+01 0.00000E+00
 -1       648 7.51500E+01 3.96080E+01 0.00000E+00
 -1       649 7.81500E+01 3.96080E+01 0.00000E+00
 -1       650 8.11500E+01 3.96080E+01 0.00000E+00
 -1       651 8.41500E+01 3.96080E+01 0.00000E+00
 -1       652 8.71500E+01 3.96080E+01 0.00000E+00
 -1       653 9.01500E+01 3.96080E+01 0.00000E+00
 -1       654 9.31500E+01 3.96080E+01 0.00000E+00
 -1       655 9.61500E+01 3.96080E+01 0.00000E+00
 -1       656 9.91500E+01 3.96080E+01 0.00000E+00
 -1       657 1.02150E+02 3.96080E+01 0.00000E+00
 -1       658 1.05150E+02 3.96080E+01 0.00000E+00
 -1       659 1.08150E+02 3.96080E+01 0.00000E+00
 -1       660 1.11150E+02 3.96080E+01 0.00000E+00
 -1       661 1.14150E+02 3.96080E+01 0.00000E+00
 -1       662 1.17150E+02 3.96080E+01 0.00000E+00
 -1       663 1.20150E+02 3.96080E+01 0.00000E+00
 -1       664 1.23150E+02 3.96080E+01 0.00000E+00
 -1       665 1.26150E+02 3.96080E+01 0.00000E+00
 -1       666 1.29150E+02 3.96080E+01 0.00000E+00
 -1       667 1.32150E+02 3.96080E+01 0.00000E+00
 -1       668 1.35150E+02 3.96080E+01 0.00000E+00
 -1       669 1.38150E+02 3.96080E+01 0.00000E+00
 -1       670 2.35350E+01 9.20225E+00 0.00000E+00
 -1       671 3.72064E+01 2.22094E+01 0.00000E+00
 -1       672 2.05350E+01 9.20225E+00 0.00000E+00
 -1       673 2.95350E+01 9.20225E+00 0.00000E+00
 -1       674 3.25350E+01 9.20225E+00 0.00000E+00
 -1       675 3.55350E+01 9.20225E+00 0.00000E+00
 -1       676 3.85350E+01 9.20225E+00 0.00000E+00
 -1       677 4.15350E+01 9.20225E+00 0.00000E+00
 -1       678 6.25350E+01 9.20225E+00 0.00000E+00
 -1       679 6.55350E+01 9.20225E+00 0.00000E+00
 -1       680 6.85350E+01 9.20225E+00 0.00000E+00
 -1       681 7.15350E+01 9.20225E+00 0.00000E+00
 -1       682 7.45350E+01 9.20225E+00 0.00000E+00
 -1       683 7.75350E+01 9.20225E+00 0.00000E+00
 -1       684 8.05350E+01 9.20225E+00 0.00000E+00
 -1       685 8.35350E+01 9.20225E+00 0.00000E+00
 -1       686 8.65350E+01 9.20225E+00 0.00000E+00
 -1       687 8.95350E+01 9.20225E+00 0.00000E+00
 -1       688 9.25350E+01 9.20225E+00 0.00000E+00
 -1       689 9.55350E+01 9.20225E+00 0.00000E+00
 -1       690 9.85350E+01 9.20225E+00 0.00000E+00
 -1       691 1.01535E+02 9.20225E+00 0.00000E+00
 -1       692 1.04535E+02 9.20225E+00 0.00000E+00
 -1       693 1.07535E+02 9.20225E+00 0.00000E+00
 -1       694 1.10535E+02 9.20225E+00 0.00000E+00
 -1       695 1.13535E+02 9.20225E+00 0.00000E+00
 -1       696 1.16535E+02 9.20225E+00 0.00000E+00
 -1       697 1.19535E+02 9.20225E+00 0.00000E+00
 -1       698 1.22535E+02 9.20225E+00 0.00000E+00
 -1       699 1.25535E+02 9.20225E+00 0.00000E+00
 -1       700 1.28535E+02 9.20225E+00 0.00000E+00
 -1       701 1.31535E+02 9.20225E+00 0.00000E+00
 -1       702 1.34535E+02 9.20225E+00 0.00000E+00
 -1       703 1.37535E+02 9.20225E+00 0.00000E+00
 -1       704 1.39870E+02 9.76363E+00 0.00000E+00
 -1       705 1.39608E+02 2.35500E+01 0.00000E+00
 -1       706 1.40178E+02 3.96665E+01 0.00000E+00
 -1       707 1.39608E+02 1.76500E+01 0.00000E+00
 -1       708 1.39608E+02 2.65000E+01 0.00000E+00
 -1       709 1.39608E+02 2.06000E+01 0.00000E+00
 -1       710 1.75350E+01 9.20225E+00 0.00000E+00
 -1       711 3.72605E+01 2.47415E+01 0.00000E+00
 -1       712 1.39608E+02 2.94000E+01 0.00000E+00
 -1       713 1.39608E+02 3.23500E+01 0.00000E+00
 -1       714 1.39608E+02 3.53000E+01 0.00000E+00
 -1       715 6.23312E+01 2.41885E+01 0.00000E+00
 -1       716 5.39409E+01 3.41948E+01 0.00000E+00
 -1       717 3.76235E+01 1.92962E+01 0.00000E+00
 -1       718 6.06365E+01 2.85844E+01 0.00000E+00
 -1       719 4.20032E+01 3.13718E+01 0.00000E+00
 -1       720 6.17971E+01 1.60109E+01 0.00000E+00
 -1       721 6.04450E+01 1.36482E+01 0.00000E+00
 -1       722 2.65350E+01 9.20225E+00 0.00000E+00
 -1       723 1.21500E+01 3.96080E+01 0.00000E+00
 -1       724 5.17549E+01 3.44496E+01 0.00000E+00
 -1       725 1.03920E+01 1.76125E+01 0.00000E+00
 -1       726 4.89401E+01 3.42203E+01 0.00000E+00
 -1       727 5.90007E+01 1.15103E+01 0.00000E+00
 -1       728 4.07837E+01 1.24958E+01 0.00000E+00
 -1       729 5.69106E+01 3.27732E+01 0.00000E+00
 -1       730 3.92307E+01 1.45062E+01 0.00000E+00
 -1       731 6.35171E+01 2.14996E+01 0.00000E+00
 -1       732 3.95411E+01 2.98426E+01 0.00000E+00
 -1       733 1.03920E+01 3.23250E+01 0.00000E+00
 -1       734 3.81714E+01 1.70221E+01 0.00000E+00
 -1       735 4.66604E+01 3.41047E+01 0.00000E+00
 -1       736 6.16084E+01 2.64499E+01 0.00000E+00
 -1       737 5.07653E+01 8.50254E+00 0.00000E+00
 -1       738 4.80441E+01 8.31088E+00 0.00000E+00
 -1       739 1.03920E+01 3.52625E+01 0.00000E+00
 -1       740 1.03920E+01 2.64500E+01 0.00000E+00
 -1       741 1.39608E+02 1.47250E+01 0.00000E+00
 -1       742 3.60400E+01 2.07668E+01 0.00000E+00
 -1       743 1.39739E+02 1.22443E+01 0.00000E+00
 -1       744 4.50983E+01 3.42512E+01 0.00000E+00
 -1       745 1.05210E+01 3.87342E+01 0.00000E+00
 -1       746 1.03920E+01 2.93875E+01 0.00000E+00
 -1       747 1.38879E+02 3.74540E+01 0.00000E+00
 -1       748 6.53923E+01 1.94444E+01 0.00000E+00
 -1       749 1.29900E+01 1.32000E+01 0.00000E+00
 -1       750 1.36500E+01 3.70100E+01 0.00000E+00
 -1       751 3.85173E+01 1.23500E+01 0.00000E+00
 -1       752 1.96500E+01 3.70100E+01 0.00000E+00
 -1       753 2.26500E+01 3.70100E+01 0.00000E+00
 -1       754 2.56500E+01 3.70100E+01 0.00000E+00
 -1       755 2.86500E+01 3.70100E+01 0.00000E+00
 -1       756 3.16500E+01 3.70100E+01 0.00000E+00
 -1       757 3.46500E+01 3.70100E+01 0.00000E+00
 -1       758 3.76500E+01 3.70100E+01 0.00000E+00
 -1       759 4.06500E+01 3.70100E+01 0.00000E+00
 -1       760 4.36500E+01 3.70100E+01 0.00000E+00
 -1       761 4.66500E+01 3.70100E+01 0.00000E+00
 -1       762 4.96500E+01 3.70100E+01 0.00000E+00
 -1       763 5.56500E+01 3.70100E+01 0.00000E+00
 -1       764 5.86500E+01 3.70100E+01 0.00000E+00
 -1       765 6.16500E+01 3.70100E+01 0.00000E+00
 -1       766 6.46500E+01 3.70100E+01 0.00000E+00
 -1       767 6.76500E+01 3.70100E+01 0.00000E+00
 -1       768 7.06500E+01 3.70100E+01 0.00000E+00
 -1       769 7.36500E+01 3.70100E+01 0.00000E+00
 -1       770 7.66500E+01 3.70100E+01 0.00000E+00
 -1       771 7.96500E+01 3.70100E+01 0.00000E+00
 -1       772 8.26500E+01 3.70100E+01 0.00000E+00
 -1       773 8.56500E+01 3.70100E+01 0.00000E+00
 -1       774 8.86500E+01 3.70100E+01 0.00000E+00
 -1       775 9.16500E+01 3.70100E+01 0.00000E+00
 -1       776 9.46500E+01 3.70100E+01 0.00000E+00
 -1       777 9.76500E+01 3.70100E+01 0.00000E+00
 -1       778 1.00650E+02 3.70100E+01 0.00000E+00
 -1       779 1.03650E+02 3.70100E+01 0.00000E+00
 -1       780 1.06650E+02 3.70100E+01 0.00000E+00
 -1       781 1.09650E+02 3.70100E+01 0.00000E+00
 -1       782 1.12650E+02 3.70100E+01 0.00000E+00
 -1       783 1.15650E+02 3.70100E+01 0.00000E+00
 -1       784 1.18650E+02 3.70100E+01 0.00000E+00
 -1       785 1.21650E+02 3.70100E+01 0.00000E+00
 -1       786 1.24650E+02 3.70100E+01 0.00000E+00
 -1       787 1.27650E+02 3.70100E+01 0.00000E+00
 -1       788 1.30650E+02 3.70100E+01 0.00000E+00
 -1       789 1.33650E+02 3.70100E+01 0.00000E+00
 -1       790 1.36264E+02 3.72320E+01 0.00000E+00
 -1       791 3.65030E+01 2.71547E+01 0.00000E+00
 -1       792 3.62300E+01 1.77575E+01 0.00000E+00
 -1       793 3.40350E+01 1.18003E+01 0.00000E+00
 -1       794 3.10350E+01 1.18003E+01 0.00000E+00
 -1       795 6.29884E+01 2.83667E+01 0.00000E+00
 -1       796 6.40350E+01 1.18003E+01 0.00000E+00
 -1       797 7.30350E+01 1.18003E+01 0.00000E+00
 -1       798 7.60350E+01 1.18003E+01 0.00000E+00
 -1       799 7.90350E+01 1.18003E+01 0.00000E+00
 -1       800 8.20350E+01 1.18003E+01 0.00000E+00
 -1       801 8.50350E+01 1.18003E+01 0.00000E+00
 -1       802 8.80350E+01 1.18003E+01 0.00000E+00
 -1       803 9.10350E+01 1.18003E+01 0.00000E+00
 -1       804 9.40350E+01 1.18003E+01 0.00000E+00
 -1       805 9.70350E+01 1.18003E+01 0.00000E+00
 -1       806 1.00035E+02 1.18003E+01 0.00000E+00
 -1       807 1.03035E+02 1.18003E+01 0.00000E+00
 -1       808 1.06035E+02 1.18003E+01 0.00000E+00
 -1       809 1.09035E+02 1.18003E+01 0.00000E+00
 -1       810 1.12035E+02 1.18003E+01 0.00000E+00
 -1       811 1.15035E+02 1.18003E+01 0.00000E+00
 -1       812 1.18035E+02 1.18003E+01 0.00000E+00
 -1       813 1.21035E+02 1.18003E+01 0.00000E+00
 -1       814 1.24035E+02 1.18003E+01 0.00000E+00
 -1       815 1.27035E+02 1.18003E+01 0.00000E+00
 -1       816 1.30035E+02 1.18003E+01 0.00000E+00
 -1       817 1.33035E+02 1.18003E+01 0.00000E+00
 -1       818 1.36035E+02 1.18003E+01 0.00000E+00
 -1       819 1.37887E+02 1.20223E+01 0.00000E+00
 -1       820 1.29900E+01 2.20250E+01 0.00000E+00
 -1       821 1.37010E+02 2.50250E+01 0.00000E+00
 -1       822 3.55187E+01 2.35121E+01 0.00000E+00
 -1       823 1.37010E+02 3.38250E+01 0.00000E+00
 -1       824 1.37010E+02 2.79250E+01 0.00000E+00
 -1       825 6.44934E+01 2.35362E+01 0.00000E+00
 -1       826 6.16243E+01 3.08112E+01 0.00000E+00
 -1       827 1.37010E+02 3.08750E+01 0.00000E+00
 -1       828 3.96019E+01 3.24912E+01 0.00000E+00
 -1       829 7.00350E+01 1.18003E+01 0.00000E+00
 -1       830 6.70350E+01 1.18003E+01 0.00000E+00
 -1       831 3.71203E+01 1.50986E+01 0.00000E+00
 -1       832 6.40304E+01 1.62516E+01 0.00000E+00
 -1       833 3.62761E+01 1.20751E+01 0.00000E+00
 -1       834 2.20350E+01 1.18003E+01 0.00000E+00
 -1       835 5.30852E+01 3.63587E+01 0.00000E+00
 -1       836 5.77146E+01 1.03450E+01 0.00000E+00
 -1       837 5.63110E+01 3.53333E+01 0.00000E+00
 -1       838 1.66500E+01 3.70100E+01 0.00000E+00
 -1       839 4.24888E+01 3.37299E+01 0.00000E+00
 -1       840 1.20210E+01 3.61362E+01 0.00000E+00
 -1       841 1.37625E+01 1.12011E+01 0.00000E+00
 -1       842 5.96198E+01 3.35729E+01 0.00000E+00
 -1       843 3.70121E+01 2.98814E+01 0.00000E+00
 -1       844 6.29005E+01 1.38113E+01 0.00000E+00
 -1       845 6.37706E+01 2.57976E+01 0.00000E+00
 -1       846 1.29900E+01 2.49750E+01 0.00000E+00
 -1       847 1.29900E+01 1.61375E+01 0.00000E+00
 -1       848 1.37010E+02 1.61875E+01 0.00000E+00
 -1       849 3.47612E+01 2.59253E+01 0.00000E+00
 -1       850 3.46465E+01 1.92281E+01 0.00000E+00
 -1       851 1.90350E+01 1.18003E+01 0.00000E+00
 -1       852 2.80350E+01 1.18003E+01 0.00000E+00
 -1       853 2.50350E+01 1.18003E+01 0.00000E+00
 -1       854 1.29900E+01 1.90875E+01 0.00000E+00
 -1       855 1.37010E+02 1.91375E+01 0.00000E+00
 -1       856 6.63686E+01 2.14810E+01 0.00000E+00
 -1       857 1.37010E+02 2.20812E+01 0.00000E+00
 -1       858 3.70729E+01 3.25300E+01 0.00000E+00
 -1       859 1.36637E+02 3.55285E+01 0.00000E+00
 -1       860 1.20210E+01 3.31987E+01 0.00000E+00
 -1       861 1.20210E+01 3.02612E+01 0.00000E+00
 -1       862 1.63988E+01 1.15007E+01 0.00000E+00
 -1       863 3.34358E+01 2.16945E+01 0.00000E+00
 -1       864 2.41500E+01 3.44120E+01 0.00000E+00
 -1       865 2.71500E+01 3.44120E+01 0.00000E+00
 -1       866 3.01500E+01 3.44120E+01 0.00000E+00
 -1       867 3.31500E+01 3.44120E+01 0.00000E+00
 -1       868 1.36500E+01 3.40725E+01 0.00000E+00
 -1       869 6.31500E+01 3.44120E+01 0.00000E+00
 -1       870 6.61500E+01 3.44120E+01 0.00000E+00
 -1       871 6.91500E+01 3.44120E+01 0.00000E+00
 -1       872 7.21500E+01 3.44120E+01 0.00000E+00
 -1       873 7.51500E+01 3.44120E+01 0.00000E+00
 -1       874 7.81500E+01 3.44120E+01 0.00000E+00
 -1       875 8.11500E+01 3.44120E+01 0.00000E+00
 -1       876 8.41500E+01 3.44120E+01 0.00000E+00
 -1       877 8.71500E+01 3.44120E+01 0.00000E+00
 -1       878 9.01500E+01 3.44120E+01 0.00000E+00
 -1       879 9.31500E+01 3.44120E+01 0.00000E+00
 -1       880 9.61500E+01 3.44120E+01 0.00000E+00
 -1       881 9.91500E+01 3.44120E+01 0.00000E+00
 -1       882 1.02150E+02 3.44120E+01 0.00000E+00
 -1       883 1.05150E+02 3.44120E+01 0.00000E+00
 -1       884 1.08150E+02 3.44120E+01 0.00000E+00
 -1       885 1.11150E+02 3.44120E+01 0.00000E+00
 -1       886 1.14150E+02 3.44120E+01 0.00000E+00
 -1       887 1.17150E+02 3.44120E+01 0.00000E+00
 -1       888 1.20150E+02 3.44120E+01 0.00000E+00
 -1       889 1.23150E+02 3.44120E+01 0.00000E+00
 -1       890 1.26150E+02 3.44120E+01 0.00000E+00
 -1       891 1.29150E+02 3.44120E+01 0.00000E+00
 -1       892 1.32150E+02 3.44120E+01 0.00000E+00
 -1       893 7.75350E+01 1.43982E+01 0.00000E+00
 -1       894 3.25350E+01 1.43982E+01 0.00000E+00
 -1       895 1.37449E+02 1.41049E+01 0.00000E+00
 -1       896 7.45350E+01 1.43982E+01 0.00000E+00
 -1       897 8.35350E+01 1.43982E+01 0.00000E+00
 -1       898 8.65350E+01 1.43982E+01 0.00000E+00
 -1       899 8.95350E+01 1.43982E+01 0.00000E+00
 -1       900 9.25350E+01 1.43982E+01 0.00000E+00
 -1       901 9.55350E+01 1.43982E+01 0.00000E+00
 -1       902 9.85350E+01 1.43982E+01 0.00000E+00
 -1       903 1.01535E+02 1.43982E+01 0.00000E+00
 -1       904 1.04535E+02 1.43982E+01 0.00000E+00
 -1       905 1.07535E+02 1.43982E+01 0.00000E+00
 -1       906 1.10535E+02 1.43982E+01 0.00000E+00
 -1       907 1.13535E+02 1.43982E+01 0.00000E+00
 -1       908 1.16535E+02 1.43982E+01 0.00000E+00
 -1       909 1.19535E+02 1.43982E+01 0.00000E+00
 -1       910 1.22535E+02 1.43982E+01 0.00000E+00
 -1       911 1.25535E+02 1.43982E+01 0.00000E+00
 -1       912 1.28535E+02 1.43982E+01 0.00000E+00
 -1       913 1.31535E+02 1.43982E+01 0.00000E+00
 -1       914 6.55011E+01 2.77281E+01 0.00000E+00
 -1       915 6.62240E+01 2.54668E+01 0.00000E+00
 -1       916 6.42430E+01 3.06697E+01 0.00000E+00
 -1       917 7.15350E+01 1.43982E+01 0.00000E+00
 -1       918 1.56263E+01 1.34996E+01 0.00000E+00
 -1       919 1.25055E+01 2.76181E+01 0.00000E+00
 -1       920 2.11500E+01 3.44120E+01 0.00000E+00
 -1       921 3.48899E+01 1.58303E+01 0.00000E+00
 -1       922 8.05350E+01 1.43982E+01 0.00000E+00
 -1       923 1.81500E+01 3.44120E+01 0.00000E+00
 -1       924 1.34412E+02 2.64750E+01 0.00000E+00
 -1       925 6.69055E+01 1.69121E+01 0.00000E+00
 -1       926 3.42480E+01 2.89867E+01 0.00000E+00
 -1       927 6.57756E+01 1.44717E+01 0.00000E+00
 -1       928 6.80992E+01 2.34115E+01 0.00000E+00
 -1       929 3.33063E+01 1.73009E+01 0.00000E+00
 -1       930 1.36500E+01 3.11350E+01 0.00000E+00
 -1       931 1.34394E+02 3.49702E+01 0.00000E+00
 -1       932 2.05350E+01 1.43982E+01 0.00000E+00
 -1       933 2.95350E+01 1.43982E+01 0.00000E+00
 -1       934 3.26783E+01 2.41077E+01 0.00000E+00
 -1       935 1.34412E+02 2.94250E+01 0.00000E+00
 -1       936 1.34535E+02 1.43982E+01 0.00000E+00
 -1       937 6.78818E+01 1.89486E+01 0.00000E+00
 -1       938 1.34412E+02 2.35313E+01 0.00000E+00
 -1       939 3.36990E+01 3.16993E+01 0.00000E+00
 -1       940 1.34412E+02 1.76625E+01 0.00000E+00
 -1       941 6.86553E+01 1.44350E+01 0.00000E+00
 -1       942 2.35350E+01 1.43982E+01 0.00000E+00
 -1       943 1.55880E+01 2.05562E+01 0.00000E+00
 -1       944 1.55880E+01 2.35063E+01 0.00000E+00
 -1       945 1.34580E+02 3.26435E+01 0.00000E+00
 -1       946 2.86500E+01 3.18140E+01 0.00000E+00
 -1       947 3.11745E+01 3.17567E+01 0.00000E+00
 -1       948 1.61458E+01 1.66550E+01 0.00000E+00
 -1       949 6.76500E+01 3.18140E+01 0.00000E+00
 -1       950 7.06500E+01 3.18140E+01 0.00000E+00
 -1       951 7.36500E+01 3.18140E+01 0.00000E+00
 -1       952 7.66500E+01 3.18140E+01 0.00000E+00
 -1       953 7.96500E+01 3.18140E+01 0.00000E+00
 -1       954 8.26500E+01 3.18140E+01 0.00000E+00
 -1       955 8.56500E+01 3.18140E+01 0.00000E+00
 -1       956 8.86500E+01 3.18140E+01 0.00000E+00
 -1       957 9.16500E+01 3.18140E+01 0.00000E+00
 -1       958 9.46500E+01 3.18140E+01 0.00000E+00
 -1       959 9.76500E+01 3.18140E+01 0.00000E+00
 -1       960 1.00650E+02 3.18140E+01 0.00000E+00
 -1       961 1.03650E+02 3.18140E+01 0.00000E+00
 -1       962 1.06650E+02 3.18140E+01 0.00000E+00
 -1       963 1.09650E+02 3.18140E+01 0.00000E+00
 -1       964 1.12650E+02 3.18140E+01 0.00000E+00
 -1       965 1.15650E+02 3.18140E+01 0.00000E+00
 -1       966 1.18650E+02 3.18140E+01 0.00000E+00
 -1       967 1.21650E+02 3.18140E+01 0.00000E+00
 -1       968 1.24650E+02 3.18140E+01 0.00000E+00
 -1       969 1.27650E+02 3.18140E+01 0.00000E+00
 -1       970 1.30650E+02 3.18140E+01 0.00000E+00
 -1       971 3.21651E+01 2.71690E+01 0.00000E+00
 -1       972 9.10350E+01 1.69963E+01 0.00000E+00
 -1       973 6.70653E+01 3.01369E+01 0.00000E+00
 -1       974 8.80350E+01 1.69963E+01 0.00000E+00
 -1       975 8.50350E+01 1.69963E+01 0.00000E+00
 -1       976 9.40350E+01 1.69963E+01 0.00000E+00
 -1       977 9.70350E+01 1.69963E+01 0.00000E+00
 -1       978 1.00035E+02 1.69963E+01 0.00000E+00
 -1       979 1.03035E+02 1.69963E+01 0.00000E+00
 -1       980 1.06035E+02 1.69963E+01 0.00000E+00
 -1       981 1.09035E+02 1.69963E+01 0.00000E+00
 -1       982 1.12035E+02 1.69963E+01 0.00000E+00
 -1       983 1.15035E+02 1.69963E+01 0.00000E+00
 -1       984 1.18035E+02 1.69963E+01 0.00000E+00
 -1       985 1.21035E+02 1.69963E+01 0.00000E+00
 -1       986 1.24035E+02 1.69963E+01 0.00000E+00
 -1       987 1.27035E+02 1.69963E+01 0.00000E+00
 -1       988 1.30035E+02 1.69963E+01 0.00000E+00
 -1       989 7.60350E+01 1.69963E+01 0.00000E+00
 -1       990 2.26500E+01 3.18140E+01 0.00000E+00
 -1       991 3.20957E+01 1.97673E+01 0.00000E+00
 -1       992 2.65350E+01 1.43982E+01 0.00000E+00
 -1       993 1.34412E+02 2.05969E+01 0.00000E+00
 -1       994 6.81347E+01 2.73237E+01 0.00000E+00
 -1       995 1.75904E+01 1.42276E+01 0.00000E+00
 -1       996 2.56500E+01 3.18140E+01 0.00000E+00
 -1       997 1.96500E+01 3.18140E+01 0.00000E+00
 -1       998 1.66500E+01 3.14745E+01 0.00000E+00
 -1       999 7.30350E+01 1.69963E+01 0.00000E+00
 -1      1000 7.90350E+01 1.69963E+01 0.00000E+00
 -1      1001 8.20350E+01 1.69963E+01 0.00000E+00
 -1      1002 6.96123E+01 2.08792E+01 0.00000E+00
 -1      1003 7.00099E+01 2.52685E+01 0.00000E+00
 -1      1004 1.41345E+01 2.84919E+01 0.00000E+00
 -1      1005 7.01553E+01 1.70330E+01 0.00000E+00
 -1      1006 3.03063E+01 1.73009E+01 0.00000E+00
 -1      1007 1.30035E+02 1.99306E+01 0.00000E+00
 -1      1008 3.11009E+01 2.22871E+01 0.00000E+00
 -1      1009 2.20350E+01 1.69963E+01 0.00000E+00
 -1      1010 1.31814E+02 2.50031E+01 0.00000E+00
 -1      1011 1.31814E+02 2.79531E+01 0.00000E+00
 -1      1012 1.90904E+01 1.68256E+01 0.00000E+00
 -1      1013 1.48612E+01 2.59991E+01 0.00000E+00
 -1      1014 1.81860E+01 2.20313E+01 0.00000E+00
 -1      1015 1.78882E+01 1.81294E+01 0.00000E+00
 -1      1016 3.16698E+01 2.94628E+01 0.00000E+00
 -1      1017 7.16283E+01 1.96124E+01 0.00000E+00
 -1      1018 3.02344E+01 2.52717E+01 0.00000E+00
 -1      1019 7.21500E+01 2.92160E+01 0.00000E+00
 -1      1020 7.51500E+01 2.92160E+01 0.00000E+00
 -1      1021 7.81500E+01 2.92160E+01 0.00000E+00
 -1      1022 8.11500E+01 2.92160E+01 0.00000E+00
 -1      1023 8.41500E+01 2.92160E+01 0.00000E+00
 -1      1024 8.71500E+01 2.92160E+01 0.00000E+00
 -1      1025 9.01500E+01 2.92160E+01 0.00000E+00
 -1      1026 9.31500E+01 2.92160E+01 0.00000E+00
 -1      1027 9.61500E+01 2.92160E+01 0.00000E+00
 -1      1028 9.91500E+01 2.92160E+01 0.00000E+00
 -1      1029 1.02150E+02 2.92160E+01 0.00000E+00
 -1      1030 1.05150E+02 2.92160E+01 0.00000E+00
 -1      1031 1.08150E+02 2.92160E+01 0.00000E+00
 -1      1032 1.11150E+02 2.92160E+01 0.00000E+00
 -1      1033 1.14150E+02 2.92160E+01 0.00000E+00
 -1      1034 1.17150E+02 2.92160E+01 0.00000E+00
 -1      1035 1.20150E+02 2.92160E+01 0.00000E+00
 -1      1036 1.23150E+02 2.92160E+01 0.00000E+00
 -1      1037 1.26150E+02 2.92160E+01 0.00000E+00
 -1      1038 1.29150E+02 2.92160E+01 0.00000E+00
 -1      1039 8.95350E+01 1.95942E+01 0.00000E+00
 -1      1040 9.55350E+01 1.95942E+01 0.00000E+00
 -1      1041 9.25350E+01 1.95942E+01 0.00000E+00
 -1      1042 8.65350E+01 1.95942E+01 0.00000E+00
 -1      1043 9.85350E+01 1.95942E+01 0.00000E+00
 -1      1044 1.01535E+02 1.95942E+01 0.00000E+00
 -1      1045 1.04535E+02 1.95942E+01 0.00000E+00
 -1      1046 1.07535E+02 1.95942E+01 0.00000E+00
 -1      1047 1.10535E+02 1.95942E+01 0.00000E+00
 -1      1048 1.13535E+02 1.95942E+01 0.00000E+00
 -1      1049 1.16535E+02 1.95942E+01 0.00000E+00
 -1      1050 1.19535E+02 1.95942E+01 0.00000E+00
 -1      1051 1.22535E+02 1.95942E+01 0.00000E+00
 -1      1052 1.25535E+02 1.95942E+01 0.00000E+00
 -1      1053 1.27785E+02 1.97624E+01 0.00000E+00
 -1      1054 7.75350E+01 1.95942E+01 0.00000E+00
 -1      1055 2.50350E+01 1.69963E+01 0.00000E+00
 -1      1056 2.11500E+01 2.92160E+01 0.00000E+00
 -1      1057 6.96077E+01 2.96765E+01 0.00000E+00
 -1      1058 2.76707E+01 1.71486E+01 0.00000E+00
 -1      1059 1.30924E+02 2.24669E+01 0.00000E+00
 -1      1060 7.45816E+01 1.96033E+01 0.00000E+00
 -1      1061 8.05350E+01 1.95942E+01 0.00000E+00
 -1      1062 2.93116E+01 1.98206E+01 0.00000E+00
 -1      1063 8.35350E+01 1.95942E+01 0.00000E+00
 -1      1064 2.41500E+01 2.92160E+01 0.00000E+00
 -1      1065 1.81697E+01 2.50280E+01 0.00000E+00
 -1      1066 2.71500E+01 2.92160E+01 0.00000E+00
 -1      1067 7.15231E+01 2.27361E+01 0.00000E+00
 -1      1068 2.84450E+01 2.28052E+01 0.00000E+00
 -1      1069 7.10800E+01 2.72422E+01 0.00000E+00
 -1      1070 1.28918E+02 2.45948E+01 0.00000E+00
 -1      1071 2.35350E+01 1.95942E+01 0.00000E+00
 -1      1072 1.81500E+01 2.88765E+01 0.00000E+00
 -1      1073 2.94099E+01 2.93394E+01 0.00000E+00
 -1      1074 2.06276E+01 1.98826E+01 0.00000E+00
 -1      1075 1.29034E+02 2.69054E+01 0.00000E+00
 -1      1076 2.07758E+01 2.35438E+01 0.00000E+00
 -1      1077 2.98221E+01 2.73055E+01 0.00000E+00
 -1      1078 9.70350E+01 2.21922E+01 0.00000E+00
 -1      1079 2.61707E+01 1.97466E+01 0.00000E+00
 -1      1080 7.66500E+01 2.66180E+01 0.00000E+00
 -1      1081 7.96500E+01 2.66180E+01 0.00000E+00
 -1      1082 8.26500E+01 2.66180E+01 0.00000E+00
 -1      1083 8.56500E+01 2.66180E+01 0.00000E+00
 -1      1084 8.86500E+01 2.66180E+01 0.00000E+00
 -1      1085 9.16500E+01 2.66180E+01 0.00000E+00
 -1      1086 9.46500E+01 2.66180E+01 0.00000E+00
 -1      1087 9.76500E+01 2.66180E+01 0.00000E+00
 -1      1088 1.00650E+02 2.66180E+01 0.00000E+00
 -1      1089 1.03650E+02 2.66180E+01 0.00000E+00
 -1      1090 1.06650E+02 2.66180E+01 0.00000E+00
 -1      1091 1.09650E+02 2.66180E+01 0.00000E+00
 -1      1092 1.12650E+02 2.66180E+01 0.00000E+00
 -1      1093 1.15650E+02 2.66180E+01 0.00000E+00
 -1      1094 1.18650E+02 2.66180E+01 0.00000E+00
 -1      1095 1.21650E+02 2.66180E+01 0.00000E+00
 -1      1096 1.24650E+02 2.66180E+01 0.00000E+00
 -1      1097 8.80350E+01 2.21922E+01 0.00000E+00
 -1      1098 7.90350E+01 2.21922E+01 0.00000E+00
 -1      1099 1.00035E+02 2.21922E+01 0.00000E+00
 -1      1100 1.03035E+02 2.21922E+01 0.00000E+00
 -1      1101 1.06035E+02 2.21922E+01 0.00000E+00
 -1      1102 1.09035E+02 2.21922E+01 0.00000E+00
 -1      1103 1.12035E+02 2.21922E+01 0.00000E+00
 -1      1104 1.15035E+02 2.21922E+01 0.00000E+00
 -1      1105 1.18035E+02 2.21922E+01 0.00000E+00
 -1      1106 1.21035E+02 2.21922E+01 0.00000E+00
 -1      1107 1.24035E+02 2.21922E+01 0.00000E+00
 -1      1108 8.20350E+01 2.21922E+01 0.00000E+00
 -1      1109 2.56500E+01 2.66180E+01 0.00000E+00
 -1      1110 8.50350E+01 2.21922E+01 0.00000E+00
 -1      1111 2.26500E+01 2.66180E+01 0.00000E+00
 -1      1112 7.38650E+01 2.69301E+01 0.00000E+00
 -1      1113 1.28351E+02 2.21786E+01 0.00000E+00
 -1      1114 2.42852E+01 2.30569E+01 0.00000E+00
 -1      1115 1.26105E+02 2.39796E+01 0.00000E+00
 -1      1116 9.10350E+01 2.21922E+01 0.00000E+00
 -1      1117 7.60816E+01 2.22013E+01 0.00000E+00
 -1      1118 2.74089E+01 2.54392E+01 0.00000E+00
 -1      1119 7.27950E+01 2.49564E+01 0.00000E+00
 -1      1120 9.40350E+01 2.21922E+01 0.00000E+00
 -1      1121 2.77361E+01 2.69618E+01 0.00000E+00
 -1      1122 0.00000E+00 4.85250E+01 0.00000E+00
 -1      1123 0.00000E+00 4.55750E+01 0.00000E+00
 -1      1124 0.00000E+00 4.26250E+01 0.00000E+00
 -1      1125 0.00000E+00 3.96750E+01 0.00000E+00
 -1      1126 0.00000E+00 3.67250E+01 0.00000E+00
 -1      1127 0.00000E+00 3.38000E+01 0.00000E+00
 -1      1128 0.00000E+00 3.08750E+01 0.00000E+00
 -1      1129 0.00000E+00 2.79250E+01 0.00000E+00
 -1      1130 0.00000E+00 2.49750E+01 0.00000E+00
 -1      1131 0.00000E+00 2.20250E+01 0.00000E+00
 -1      1132 0.00000E+00 1.90750E+01 0.00000E+00
 -1      1133 0.00000E+00 1.61500E+01 0.00000E+00
 -1      1134 0.00000E+00 1.32250E+01 0.00000E+00
 -1      1135 0.00000E+00 1.02750E+01 0.00000E+00
 -1      1136 0.00000E+00 7.32500E+00 0.00000E+00
 -1      1137 0.00000E+00 4.37500E+00 0.00000E+00
 -1      1138 0.00000E+00 1.45000E+00 0.00000E+00
 -1      1139 1.57500E+00 5.00000E+01 0.00000E+00
 -1      1140 4.65000E+00 5.00000E+01 0.00000E+00
 -1      1141 7.65000E+00 5.00000E+01 0.00000E+00
 -1      1142 1.06500E+01 5.00000E+01 0.00000E+00
 -1      1143 1.36500E+01 5.00000E+01 0.00000E+00
 -1      1144 1.66500E+01 5.00000E+01 0.00000E+00
 -1      1145 1.96500E+01 5.00000E+01 0.00000E+00
 -1      1146 2.26500E+01 5.00000E+01 0.00000E+00
 -1      1147 2.56500E+01 5.00000E+01 0.00000E+00
 -1      1148 2.86500E+01 5.00000E+01 0.00000E+00
 -1      1149 3.16500E+01 5.00000E+01 0.00000E+00
 -1      1150 3.46500E+01 5.00000E+01 0.00000E+00
 -1      1151 3.76500E+01 5.00000E+01 0.00000E+00
 -1      1152 4.06500E+01 5.00000E+01 0.00000E+00
 -1      1153 4.36500E+01 5.00000E+01 0.00000E+00
 -1      1154 4.66500E+01 5.00000E+01 0.00000E+00
 -1      1155 4.96500E+01 5.00000E+01 0.00000E+00
 -1      1156 5.26500E+01 5.00000E+01 0.00000E+00
 -1      1157 5.56500E+01 5.00000E+01 0.00000E+00
 -1      1158 5.86500E+01 5.00000E+01 0.00000E+00
 -1      1159 6.16500E+01 5.00000E+01 0.00000E+00
 -1      1160 6.46500E+01 5.00000E+01 0.00000E+00
 -1      1161 6.76500E+01 5.00000E+01 0.00000E+00
 -1      1162 7.06500E+01 5.00000E+01 0.00000E+00
 -1      1163 7.36500E+01 5.00000E+01 0.00000E+00
 -1      1164 7.66500E+01 5.00000E+01 0.00000E+00
 -1      1165 7.96500E+01 5.00000E+01 0.00000E+00
 -1      1166 8.26500E+01 5.00000E+01 0.00000E+00
 -1      1167 8.56500E+01 5.00000E+01 0.00000E+00
 -1      1168 8.86500E+01 5.00000E+01 0.00000E+00
 -1      1169 9.16500E+01 5.00000E+01 0.00000E+00
 -1      1170 9.46500E+01 5.00000E+01 0.00000E+00
 -1      1171 9.76500E+01 5.00000E+01 0.00000E+00
 -1      1172 1.00650E+02 5.00000E+01 0.00000E+00
 -1      1173 1.03650E+02 5.00000E+01 0.00000E+00
 -1      1174 1.06650E+02 5.00000E+01 0.00000E+00
 -1      1175 1.09650E+02 5.00000E+01 0.00000E+00
 -1      1176 1.12650E+02 5.00000E+01 0.00000E+00
 -1      1177 1.15650E+02 5.00000E+01 0.00000E+00
 -1      1178 1.18650E+02 5.00000E+01 0.00000E+00
 -1      1179 1.21650E+02 5.00000E+01 0.00000E+00
 -1      1180 1.24650E+02 5.00000E+01 0.00000E+00
 -1      1181 1.27650E+02 5.00000E+01 0.00000E+00
 -1      1182 1.30650E+02 5.00000E+01 0.00000E+00
 -1      1183 1.33650E+02 5.00000E+01 0.00000E+00
 -1      1184 1.36650E+02 5.00000E+01 0.00000E+00
 -1      1185 1.39650E+02 5.00000E+01 0.00000E+00
 -1      1186 1.42650E+02 5.00000E+01 0.00000E+00
 -1      1187 1.45650E+02 5.00000E+01 0.00000E+00
 -1      1188 1.48575E+02 5.00000E+01 0.00000E+00
 -1      1189 1.57500E+00 0.00000E+00 0.00000E+00
 -1      1190 4.65000E+00 0.00000E+00 0.00000E+00
 -1      1191 7.65000E+00 0.00000E+00 0.00000E+00
 -1      1192 1.06500E+01 0.00000E+00 0.00000E+00
 -1      1193 1.36500E+01 0.00000E+00 0.00000E+00
 -1      1194 1.66500E+01 0.00000E+00 0.00000E+00
 -1      1195 1.96500E+01 0.00000E+00 0.00000E+00
 -1      1196 2.26500E+01 0.00000E+00 0.00000E+00
 -1      1197 2.56500E+01 0.00000E+00 0.00000E+00
 -1      1198 2.86500E+01 0.00000E+00 0.00000E+00
 -1      1199 3.16500E+01 0.00000E+00 0.00000E+00
 -1      1200 3.46500E+01 0.00000E+00 0.00000E+00
 -1      1201 3.76500E+01 0.00000E+00 0.00000E+00
 -1      1202 4.06500E+01 0.00000E+00 0.00000E+00
 -1      1203 4.36500E+01 0.00000E+00 0.00000E+00
 -1      1204 4.66500E+01 0.00000E+00 0.00000E+00
 -1      1205 4.96500E+01 0.00000E+00 0.00000E+00
 -1      1206 5.26500E+01 0.00000E+00 0.00000E+00
 -1      1207 5.56500E+01 0.00000E+00 0.00000E+00
 -1      1208 5.86500E+01 0.00000E+00 0.00000E+00
 -1      1209 6.16500E+01 0.00000E+00 0.00000E+00
 -1      1210 6.46500E+01 0.00000E+00 0.00000E+00
 -1      1211 6.76500E+01 0.00000E+00 0.00000E+00
 -1      1212 7.06500E+01 0.00000E+00 0.00000E+00
 -1      1213 7.36500E+01 0.00000E+00 0.00000E+00
 -1      1214 7.66500E+01 0.00000E+00 0.00000E+00
 -1      1215 7.96500E+01 0.00000E+00 0.00000E+00
 -1      1216 8.26500E+01 0.00000E+00 0.00000E+00
 -1      1217 8.56500E+01 0.00000E+00 0.00000E+00
 -1      1218 8.86500E+01 0.00000E+00 0.00000E+00
 -1      1219 9.16500E+01 0.00000E+00 0.00000E+00
 -1      1220 9.46500E+01 0.00000E+00 0.00000E+00
 -1      1221 9.76500E+01 0.00000E+00 0.00000E+00
 -1      1222 1.00650E+02 0.00000E+00 0.00000E+00
 -1      1223 1.03650E+02 0.00000E+00 0.00000E+00
 -1      1224 1.06650E+02 0.00000E+00 0.00000E+00
 -1      1225 1.09650E+02 0.00000E+00 0.00000E+00
 -1      1226 1.12650E+02 0.00000E+00 0.00000E+00
 -1      1227 1.15650E+02 0.00000E+00 0.00000E+00
 -1      1228 1.18650E+02 0.00000E+00 0.00000E+00
 -1      1229 1.21650E+02 0.00000E+00 0.00000E+00
 -1      1230 1.24650E+02 0.00000E+00 0.00000E+00
 -1      1231 1.27650E+02 0.00000E+00 0.00000E+00
 -1      1232 1.30650E+02 0.00000E+00 0.00000E+00
 -1      1233 1.33650E+02 0.00000E+00 0.00000E+00
 -1      1234 1.36650E+02 0.00000E+00 0.00000E+00
 -1      1235 1.39650E+02 0.00000E+00 0.00000E+00
 -1      1236 1.42650E+02 0.00000E+00 0.00000E+00
 -1      1237 1.45650E+02 0.00000E+00 0.00000E+00
 -1      1238 1.48575E+02 0.00000E+00 0.00000E+00
 -1      1239 1.50000E+02 1.47500E+00 0.00000E+00
 -1      1240 1.50000E+02 4.42500E+00 0.00000E+00
 -1      1241 1.50000E+02 7.37500E+00 0.00000E+00
 -1      1242 1.50000E+02 1.03250E+01 0.00000E+00
 -1      1243 1.50000E+02 1.32750E+01 0.00000E+00
 -1      1244 1.50000E+02 1.62000E+01 0.00000E+00
 -1      1245 1.50000E+02 1.91250E+01 0.00000E+00
 -1      1246 1.50000E+02 2.20750E+01 0.00000E+00
 -1      1247 1.50000E+02 2.50250E+01 0.00000E+00
 -1      1248 1.50000E+02 2.79750E+01 0.00000E+00
 -1      1249 1.50000E+02 3.09250E+01 0.00000E+00
 -1      1250 1.50000E+02 3.38500E+01 0.00000E+00
 -1      1251 1.50000E+02 3.67750E+01 0.00000E+00
 -1      1252 1.50000E+02 3.97250E+01 0.00000E+00
 -1      1253 1.50000E+02 4.26750E+01 0.00000E+00
 -1      1254 1.50000E+02 4.56250E+01 0.00000E+00
 -1      1255 1.50000E+02 4.85500E+01 0.00000E+00
 -1      1256 5.69449E+01 2.05837E+01 0.00000E+00
 -1      1257 5.66156E+01 1.90824E+01 0.00000E+00
 -1      1258 5.59721E+01 1.76981E+01 0.00000E+00
 -1      1259 5.50818E+01 1.65263E+01 0.00000E+00
 -1      1260 5.39289E+01 1.55410E+01 0.00000E+00
 -1      1261 5.25168E+01 1.47978E+01 0.00000E+00
 -1      1262 5.10321E+01 1.44025E+01 0.00000E+00
 -1      1263 4.95832E+01 1.43351E+01 0.00000E+00
 -1      1264 4.81286E+01 1.45740E+01 0.00000E+00
 -1      1265 4.67270E+01 1.51275E+01 0.00000E+00
 -1      1266 4.54949E+01 1.59527E+01 0.00000E+00
 -1      1267 4.44862E+01 1.69909E+01 0.00000E+00
 -1      1268 4.36902E+01 1.82598E+01 0.00000E+00
 -1      1269 4.31813E+01 1.96741E+01 0.00000E+00
 -1      1270 4.29874E+01 2.11083E+01 0.00000E+00
 -1      1271 4.30822E+01 2.24913E+01 0.00000E+00
 -1      1272 4.34564E+01 2.38511E+01 0.00000E+00
 -1      1273 4.41066E+01 2.51255E+01 0.00000E+00
 -1      1274 4.49700E+01 2.62081E+01 0.00000E+00
 -1      1275 4.60911E+01 2.71412E+01 0.00000E+00
 -1      1276 4.73866E+01 2.78238E+01 0.00000E+00
 -1      1277 4.87388E+01 2.82119E+01 0.00000E+00
 -1      1278 5.01347E+01 2.83220E+01 0.00000E+00
 -1      1279 5.15675E+01 2.81422E+01 0.00000E+00
 -1      1280 5.29392E+01 2.76693E+01 0.00000E+00
 -1      1281 5.41664E+01 2.69369E+01 0.00000E+00
 -1      1282 5.52425E+01 2.59442E+01 0.00000E+00
 -1      1283 5.60792E+01 2.47661E+01 0.00000E+00
 -1      1284 5.66442E+01 2.34785E+01 0.00000E+00
 -1      1285 5.69440E+01 2.20722E+01 0.00000E+00
 -1      1286 1.57500E+00 4.85250E+01 0.00000E+00
 -1      1287 1.29900E+00 4.48375E+01 0.00000E+00
 -1      1288 1.29900E+00 4.63125E+01 0.00000E+00
 -1      1289 1.29900E+00 4.18875E+01 0.00000E+00
 -1      1290 1.29900E+00 4.33625E+01 0.00000E+00
 -1      1291 2.59800E+00 4.41000E+01 0.00000E+00
 -1      1292 1.29900E+00 3.89375E+01 0.00000E+00
 -1      1293 1.29900E+00 4.04125E+01 0.00000E+00
 -1      1294 2.59800E+00 4.11500E+01 0.00000E+00
 -1      1295 1.29900E+00 3.59875E+01 0.00000E+00
 -1      1296 1.29900E+00 3.74625E+01 0.00000E+00
 -1      1297 2.59800E+00 3.82000E+01 0.00000E+00
 -1      1298 1.29900E+00 3.30875E+01 0.00000E+00
 -1      1299 1.29900E+00 3.45375E+01 0.00000E+00
 -1      1300 2.59800E+00 3.52750E+01 0.00000E+00
 -1      1301 1.29900E+00 3.01375E+01 0.00000E+00
 -1      1302 1.29900E+00 3.16125E+01 0.00000E+00
 -1      1303 2.59800E+00 3.23500E+01 0.00000E+00
 -1      1304 1.29900E+00 2.71875E+01 0.00000E+00
 -1      1305 1.29900E+00 2.86625E+01 0.00000E+00
 -1      1306 2.59800E+00 2.94000E+01 0.00000E+00
 -1      1307 1.29900E+00 2.42375E+01 0.00000E+00
 -1      1308 1.29900E+00 2.57125E+01 0.00000E+00
 -1      1309 2.59800E+00 2.64500E+01 0.00000E+00
 -1      1310 1.29900E+00 2.12875E+01 0.00000E+00
 -1      1311 1.29900E+00 2.27625E+01 0.00000E+00
 -1      1312 2.59800E+00 2.35000E+01 0.00000E+00
 -1      1313 1.29900E+00 1.83375E+01 0.00000E+00
 -1      1314 1.29900E+00 1.98125E+01 0.00000E+00
 -1      1315 2.59800E+00 2.05500E+01 0.00000E+00
 -1      1316 1.29900E+00 1.54375E+01 0.00000E+00
 -1      1317 1.29900E+00 1.68875E+01 0.00000E+00
 -1      1318 2.59800E+00 1.76250E+01 0.00000E+00
 -1      1319 1.29900E+00 1.24875E+01 0.00000E+00
 -1      1320 1.29900E+00 1.39625E+01 0.00000E+00
 -1      1321 2.59800E+00 1.47000E+01 0.00000E+00
 -1      1322 1.29900E+00 9.53750E+00 0.00000E+00
 -1      1323 1.29900E+00 1.10125E+01 0.00000E+00
 -1      1324 2.59800E+00 1.17500E+01 0.00000E+00
 -1      1325 1.29900E+00 6.58750E+00 0.00000E+00
 -1      1326 1.29900E+00 8.06250E+00 0.00000E+00
 -1      1327 2.59800E+00 8.80000E+00 0.00000E+00
 -1      1328 1.29900E+00 3.63750E+00 0.00000E+00
 -1      1329 1.29900E+00 5.11250E+00 0.00000E+00
 -1      1330 2.59800E+00 5.85000E+00 0.00000E+00
 -1      1331 1.43700E+00 1.09375E+00 0.00000E+00
 -1      1332 1.43700E+00 2.54375E+00 0.00000E+00
 -1      1333 2.73600E+00 3.28125E+00 0.00000E+00
 -1      1334 3.01200E+00 1.09375E+00 0.00000E+00
 -1      1335 3.90000E+00 4.87010E+01 0.00000E+00
 -1      1336 5.40000E+00 4.87010E+01 0.00000E+00
 -1      1337 6.90000E+00 4.87010E+01 0.00000E+00
 -1      1338 8.40000E+00 4.87010E+01 0.00000E+00
 -1      1339 6.15000E+00 4.74020E+01 0.00000E+00
 -1      1340 9.90000E+00 4.87010E+01 0.00000E+00
 -1      1341 1.14000E+01 4.87010E+01 0.00000E+00
 -1      1342 9.15000E+00 4.74020E+01 0.00000E+00
 -1      1343 1.29000E+01 4.87010E+01 0.00000E+00
 -1      1344 1.44000E+01 4.87010E+01 0.00000E+00
 -1      1345 1.21500E+01 4.74020E+01 0.00000E+00
 -1      1346 1.59000E+01 4.87010E+01 0.00000E+00
 -1      1347 1.74000E+01 4.87010E+01 0.00000E+00
 -1      1348 1.51500E+01 4.74020E+01 0.00000E+00
 -1      1349 1.89000E+01 4.87010E+01 0.00000E+00
 -1      1350 2.04000E+01 4.87010E+01 0.00000E+00
 -1      1351 1.81500E+01 4.74020E+01 0.00000E+00
 -1      1352 2.19000E+01 4.87010E+01 0.00000E+00
 -1      1353 2.34000E+01 4.87010E+01 0.00000E+00
 -1      1354 2.11500E+01 4.74020E+01 0.00000E+00
 -1      1355 2.49000E+01 4.87010E+01 0.00000E+00
 -1      1356 2.64000E+01 4.87010E+01 0.00000E+00
 -1      1357 2.41500E+01 4.74020E+01 0.00000E+00
 -1      1358 2.79000E+01 4.87010E+01 0.00000E+00
 -1      1359 2.94000E+01 4.87010E+01 0.00000E+00
 -1      1360 2.71500E+01 4.74020E+01 0.00000E+00
 -1      1361 3.09000E+01 4.87010E+01 0.00000E+00
 -1      1362 3.24000E+01 4.87010E+01 0.00000E+00
 -1      1363 3.01500E+01 4.74020E+01 0.00000E+00
 -1      1364 3.39000E+01 4.87010E+01 0.00000E+00
 -1      1365 3.54000E+01 4.87010E+01 0.00000E+00
 -1      1366 3.31500E+01 4.74020E+01 0.00000E+00
 -1      1367 3.69000E+01 4.87010E+01 0.00000E+00
 -1      1368 3.84000E+01 4.87010E+01 0.00000E+00
 -1      1369 3.61500E+01 4.74020E+01 0.00000E+00
 -1      1370 3.99000E+01 4.87010E+01 0.00000E+00
 -1      1371 4.14000E+01 4.87010E+01 0.00000E+00
 -1      1372 3.91500E+01 4.74020E+01 0.00000E+00
 -1      1373 4.29000E+01 4.87010E+01 0.00000E+00
 -1      1374 4.44000E+01 4.87010E+01 0.00000E+00
 -1      1375 4.21500E+01 4.74020E+01 0.00000E+00
 -1      1376 4.59000E+01 4.87010E+01 0.00000E+00
 -1      1377 4.74000E+01 4.87010E+01 0.00000E+00
 -1      1378 4.51500E+01 4.74020E+01 0.00000E+00
 -1      1379 4.89000E+01 4.87010E+01 0.00000E+00
 -1      1380 5.04000E+01 4.87010E+01 0.00000E+00
 -1      1381 4.81500E+01 4.74020E+01 0.00000E+00
 -1      1382 5.19000E+01 4.87010E+01 0.00000E+00
 -1      1383 5.34000E+01 4.87010E+01 0.00000E+00
 -1      1384 5.11500E+01 4.74020E+01 0.00000E+00
 -1      1385 5.49000E+01 4.87010E+01 0.00000E+00
 -1      1386 5.64000E+01 4.87010E+01 0.00000E+00
 -1      1387 5.41500E+01 4.74020E+01 0.00000E+00
 -1      1388 5.79000E+01 4.87010E+01 0.00000E+00
 -1      1389 5.94000E+01 4.87010E+01 0.00000E+00
 -1      1390 5.71500E+01 4.74020E+01 0.00000E+00
 -1      1391 6.09000E+01 4.87010E+01 0.00000E+00
 -1      1392 6.24000E+01 4.87010E+01 0.00000E+00
 -1      1393 6.01500E+01 4.74020E+01 0.00000E+00
 -1      1394 6.39000E+01 4.87010E+01 0.00000E+00
 -1      1395 6.54000E+01 4.87010E+01 0.00000E+00
 -1      1396 6.31500E+01 4.74020E+01 0.00000E+00
 -1      1397 6.69000E+01 4.87010E+01 0.00000E+00
 -1      1398 6.84000E+01 4.87010E+01 0.00000E+00
 -1      1399 6.61500E+01 4.74020E+01 0.00000E+00
 -1      1400 6.99000E+01 4.87010E+01 0.00000E+00
 -1      1401 7.14000E+01 4.87010E+01 0.00000E+00
 -1      1402 6.91500E+01 4.74020E+01 0.00000E+00
 -1      1403 7.29000E+01 4.87010E+01 0.00000E+00
 -1      1404 7.44000E+01 4.87010E+01 0.00000E+00
 -1      1405 7.21500E+01 4.74020E+01 0.00000E+00
 -1      1406 7.59000E+01 4.87010E+01 0.00000E+00
 -1      1407 7.74000E+01 4.87010E+01 0.00000E+00
 -1      1408 7.51500E+01 4.74020E+01 0.00000E+00
 -1      1409 7.89000E+01 4.87010E+01 0.00000E+00
 -1      1410 8.04000E+01 4.87010E+01 0.00000E+00
 -1      1411 7.81500E+01 4.74020E+01 0.00000E+00
 -1      1412 8.19000E+01 4.87010E+01 0.00000E+00
 -1      1413 8.34000E+01 4.87010E+01 0.00000E+00
 -1      1414 8.11500E+01 4.74020E+01 0.00000E+00
 -1      1415 8.49000E+01 4.87010E+01 0.00000E+00
 -1      1416 8.64000E+01 4.87010E+01 0.00000E+00
 -1      1417 8.41500E+01 4.74020E+01 0.00000E+00
 -1      1418 8.79000E+01 4.87010E+01 0.00000E+00
 -1      1419 8.94000E+01 4.87010E+01 0.00000E+00
 -1      1420 8.71500E+01 4.74020E+01 0.00000E+00
 -1      1421 9.09000E+01 4.87010E+01 0.00000E+00
 -1      1422 9.24000E+01 4.87010E+01 0.00000E+00
 -1      1423 9.01500E+01 4.74020E+01 0.00000E+00
 -1      1424 9.39000E+01 4.87010E+01 0.00000E+00
 -1      1425 9.54000E+01 4.87010E+01 0.00000E+00
 -1      1426 9.31500E+01 4.74020E+01 0.00000E+00
 -1      1427 9.69000E+01 4.87010E+01 0.00000E+00
 -1      1428 9.84000E+01 4.87010E+01 0.00000E+00
 -1      1429 9.61500E+01 4.74020E+01 0.00000E+00
 -1      1430 9.99000E+01 4.87010E+01 0.00000E+00
 -1      1431 1.01400E+02 4.87010E+01 0.00000E+00
 -1      1432 9.91500E+01 4.74020E+01 0.00000E+00
 -1      1433 1.02900E+02 4.87010E+01 0.00000E+00
 -1      1434 1.04400E+02 4.87010E+01 0.00000E+00
 -1      1435 1.02150E+02 4.74020E+01 0.00000E+00
 -1      1436 1.05900E+02 4.87010E+01 0.00000E+00
 -1      1437 1.07400E+02 4.87010E+01 0.00000E+00
 -1      1438 1.05150E+02 4.74020E+01 0.00000E+00
 -1      1439 1.08900E+02 4.87010E+01 0.00000E+00
 -1      1440 1.10400E+02 4.87010E+01 0.00000E+00
 -1      1441 1.08150E+02 4.74020E+01 0.00000E+00
 -1      1442 1.11900E+02 4.87010E+01 0.00000E+00
 -1      1443 1.13400E+02 4.87010E+01 0.00000E+00
 -1      1444 1.11150E+02 4.74020E+01 0.00000E+00
 -1      1445 1.14900E+02 4.87010E+01 0.00000E+00
 -1      1446 1.16400E+02 4.87010E+01 0.00000E+00
 -1      1447 1.14150E+02 4.74020E+01 0.00000E+00
 -1      1448 1.17900E+02 4.87010E+01 0.00000E+00
 -1      1449 1.19400E+02 4.87010E+01 0.00000E+00
 -1      1450 1.17150E+02 4.74020E+01 0.00000E+00
 -1      1451 1.20900E+02 4.87010E+01 0.00000E+00
 -1      1452 1.22400E+02 4.87010E+01 0.00000E+00
 -1      1453 1.20150E+02 4.74020E+01 0.00000E+00
 -1      1454 1.23900E+02 4.87010E+01 0.00000E+00
 -1      1455 1.25400E+02 4.87010E+01 0.00000E+00
 -1      1456 1.23150E+02 4.74020E+01 0.00000E+00
 -1      1457 1.26900E+02 4.87010E+01 0.00000E+00
 -1      1458 1.28400E+02 4.87010E+01 0.00000E+00
 -1      1459 1.26150E+02 4.74020E+01 0.00000E+00
 -1      1460 1.29900E+02 4.87010E+01 0.00000E+00
 -1      1461 1.31400E+02 4.87010E+01 0.00000E+00
 -1      1462 1.29150E+02 4.74020E+01 0.00000E+00
 -1      1463 1.32900E+02 4.87010E+01 0.00000E+00
 -1      1464 1.34400E+02 4.87010E+01 0.00000E+00
 -1      1465 1.32150E+02 4.74020E+01 0.00000E+00
 -1      1466 1.35900E+02 4.87010E+01 0.00000E+00
 -1      1467 1.37400E+02 4.87010E+01 0.00000E+00
 -1      1468 1.35150E+02 4.74020E+01 0.00000E+00
 -1      1469 1.38900E+02 4.87010E+01 0.00000E+00
 -1      1470 1.40400E+02 4.87010E+01 0.00000E+00
 -1      1471 1.38150E+02 4.74020E+01 0.00000E+00
 -1      1472 1.41900E+02 4.87010E+01 0.00000E+00
 -1      1473 1.43400E+02 4.87010E+01 0.00000E+00
 -1      1474 1.41150E+02 4.74020E+01 0.00000E+00
 -1      1475 1.44900E+02 4.87010E+01 0.00000E+00
 -1      1476 1.46400E+02 4.87010E+01 0.00000E+00
 -1      1477 1.44150E+02 4.74020E+01 0.00000E+00
 -1      1478 1.48575E+02 4.85500E+01 0.00000E+00
 -1      1479 1.47825E+02 4.72510E+01 0.00000E+00
 -1      1480 6.01200E+00 1.09375E+00 0.00000E+00
 -1      1481 4.51200E+00 1.09375E+00 0.00000E+00
 -1      1482 4.37400E+00 2.18750E+00 0.00000E+00
 -1      1483 9.01200E+00 1.09375E+00 0.00000E+00
 -1      1484 7.51200E+00 1.09375E+00 0.00000E+00
 -1      1485 7.37400E+00 2.18750E+00 0.00000E+00
 -1      1486 1.20120E+01 1.09375E+00 0.00000E+00
 -1      1487 1.05120E+01 1.09375E+00 0.00000E+00
 -1      1488 1.03740E+01 2.18750E+00 0.00000E+00
 -1      1489 1.50120E+01 1.09375E+00 0.00000E+00
 -1      1490 1.35120E+01 1.09375E+00 0.00000E+00
 -1      1491 1.33740E+01 2.18750E+00 0.00000E+00
 -1      1492 1.80120E+01 1.09375E+00 0.00000E+00
 -1      1493 1.65120E+01 1.09375E+00 0.00000E+00
 -1      1494 1.63740E+01 2.18750E+00 0.00000E+00
 -1      1495 2.10120E+01 1.09375E+00 0.00000E+00
 -1      1496 1.95120E+01 1.09375E+00 0.00000E+00
 -1      1497 1.93740E+01 2.18750E+00 0.00000E+00
 -1      1498 2.40120E+01 1.09375E+00 0.00000E+00
 -1      1499 2.25120E+01 1.09375E+00 0.00000E+00
 -1      1500 2.23740E+01 2.18750E+00 0.00000E+00
 -1      1501 2.70120E+01 1.09375E+00 0.00000E+00
 -1      1502 2.55120E+01 1.09375E+00 0.00000E+00
 -1      1503 2.53740E+01 2.18750E+00 0.00000E+00
 -1      1504 3.00120E+01 1.09375E+00 0.00000E+00
 -1      1505 2.85120E+01 1.09375E+00 0.00000E+00
 -1      1506 2.83740E+01 2.18750E+00 0.00000E+00
 -1      1507 3.30120E+01 1.09375E+00 0.00000E+00
 -1      1508 3.15120E+01 1.09375E+00 0.00000E+00
 -1      1509 3.13740E+01 2.18750E+00 0.00000E+00
 -1      1510 3.60120E+01 1.09375E+00 0.00000E+00
 -1      1511 3.45120E+01 1.09375E+00 0.00000E+00
 -1      1512 3.43740E+01 2.18750E+00 0.00000E+00
 -1      1513 3.90120E+01 1.09375E+00 0.00000E+00
 -1      1514 3.75120E+01 1.09375E+00 0.00000E+00
 -1      1515 3.73740E+01 2.18750E+00 0.00000E+00
 -1      1516 4.20120E+01 1.09375E+00 0.00000E+00
 -1      1517 4.05120E+01 1.09375E+00 0.00000E+00
 -1      1518 4.03740E+01 2.18750E+00 0.00000E+00
 -1      1519 4.50120E+01 1.09375E+00 0.00000E+00
 -1      1520 4.35120E+01 1.09375E+00 0.00000E+00
 -1      1521 4.33740E+01 2.18750E+00 0.00000E+00
 -1      1522 4.80120E+01 1.09375E+00 0.00000E+00
 -1      1523 4.65120E+01 1.09375E+00 0.00000E+00
 -1      1524 4.63740E+01 2.18750E+00 0.00000E+00
 -1      1525 5.10120E+01 1.09375E+00 0.00000E+00
 -1      1526 4.95120E+01 1.09375E+00 0.00000E+00
 -1      1527 4.93740E+01 2.18750E+00 0.00000E+00
 -1      1528 5.40120E+01 1.09375E+00 0.00000E+00
 -1      1529 5.25120E+01 1.09375E+00 0.00000E+00
 -1      1530 5.23740E+01 2.18750E+00 0.00000E+00
 -1      1531 5.70120E+01 1.09375E+00 0.00000E+00
 -1      1532 5.55120E+01 1.09375E+00 0.00000E+00
 -1      1533 5.53740E+01 2.18750E+00 0.00000E+00
 -1      1534 6.00120E+01 1.09375E+00 0.00000E+00
 -1      1535 5.85120E+01 1.09375E+00 0.00000E+00
 -1      1536 5.83740E+01 2.18750E+00 0.00000E+00
 -1      1537 6.30120E+01 1.09375E+00 0.00000E+00
 -1      1538 6.15120E+01 1.09375E+00 0.00000E+00
 -1      1539 6.13740E+01 2.18750E+00 0.00000E+00
 -1      1540 6.60120E+01 1.09375E+00 0.00000E+00
 -1      1541 6.45120E+01 1.09375E+00 0.00000E+00
 -1      1542 6.43740E+01 2.18750E+00 0.00000E+00
 -1      1543 6.90120E+01 1.09375E+00 0.00000E+00
 -1      1544 6.75120E+01 1.09375E+00 0.00000E+00
 -1      1545 6.73740E+01 2.18750E+00 0.00000E+00
 -1      1546 7.20120E+01 1.09375E+00 0.00000E+00
 -1      1547 7.05120E+01 1.09375E+00 0.00000E+00
 -1      1548 7.03740E+01 2.18750E+00 0.00000E+00
 -1      1549 7.50120E+01 1.09375E+00 0.00000E+00
 -1      1550 7.35120E+01 1.09375E+00 0.00000E+00
 -1      1551 7.33740E+01 2.18750E+00 0.00000E+00
 -1      1552 7.80120E+01 1.09375E+00 0.00000E+00
 -1      1553 7.65120E+01 1.09375E+00 0.00000E+00
 -1      1554 7.63740E+01 2.18750E+00 0.00000E+00
 -1      1555 8.10120E+01 1.09375E+00 0.00000E+00
 -1      1556 7.95120E+01 1.09375E+00 0.00000E+00
 -1      1557 7.93740E+01 2.18750E+00 0.00000E+00
 -1      1558 8.40120E+01 1.09375E+00 0.00000E+00
 -1      1559 8.25120E+01 1.09375E+00 0.00000E+00
 -1      1560 8.23740E+01 2.18750E+00 0.00000E+00
 -1      1561 8.70120E+01 1.09375E+00 0.00000E+00
 -1      1562 8.55120E+01 1.09375E+00 0.00000E+00
 -1      1563 8.53740E+01 2.18750E+00 0.00000E+00
 -1      1564 9.00120E+01 1.09375E+00 0.00000E+00
 -1      1565 8.85120E+01 1.09375E+00 0.00000E+00
 -1      1566 8.83740E+01 2.18750E+00 0.00000E+00
 -1      1567 9.30120E+01 1.09375E+00 0.00000E+00
 -1      1568 9.15120E+01 1.09375E+00 0.00000E+00
 -1      1569 9.13740E+01 2.18750E+00 0.00000E+00
 -1      1570 9.60120E+01 1.09375E+00 0.00000E+00
 -1      1571 9.45120E+01 1.09375E+00 0.00000E+00
 -1      1572 9.43740E+01 2.18750E+00 0.00000E+00
 -1      1573 9.90120E+01 1.09375E+00 0.00000E+00
 -1      1574 9.75120E+01 1.09375E+00 0.00000E+00
 -1      1575 9.73740E+01 2.18750E+00 0.00000E+00
 -1      1576 1.02012E+02 1.09375E+00 0.00000E+00
 -1      1577 1.00512E+02 1.09375E+00 0.00000E+00
 -1      1578 1.00374E+02 2.18750E+00 0.00000E+00
 -1      1579 1.05012E+02 1.09375E+00 0.00000E+00
 -1      1580 1.03512E+02 1.09375E+00 0.00000E+00
 -1      1581 1.03374E+02 2.18750E+00 0.00000E+00
 -1      1582 1.08012E+02 1.09375E+00 0.00000E+00
 -1      1583 1.06512E+02 1.09375E+00 0.00000E+00
 -1      1584 1.06374E+02 2.18750E+00 0.00000E+00
 -1      1585 1.11012E+02 1.09375E+00 0.00000E+00
 -1      1586 1.09512E+02 1.09375E+00 0.00000E+00
 -1      1587 1.09374E+02 2.18750E+00 0.00000E+00
 -1      1588 1.14012E+02 1.09375E+00 0.00000E+00
 -1      1589 1.12512E+02 1.09375E+00 0.00000E+00
 -1      1590 1.12374E+02 2.18750E+00 0.00000E+00
 -1      1591 1.17012E+02 1.09375E+00 0.00000E+00
 -1      1592 1.15512E+02 1.09375E+00 0.00000E+00
 -1      1593 1.15374E+02 2.18750E+00 0.00000E+00
 -1      1594 1.20012E+02 1.09375E+00 0.00000E+00
 -1      1595 1.18512E+02 1.09375E+00 0.00000E+00
 -1      1596 1.18374E+02 2.18750E+00 0.00000E+00
 -1      1597 1.23012E+02 1.09375E+00 0.00000E+00
 -1      1598 1.21512E+02 1.09375E+00 0.00000E+00
 -1      1599 1.21374E+02 2.18750E+00 0.00000E+00
 -1      1600 1.26012E+02 1.09375E+00 0.00000E+00
 -1      1601 1.24512E+02 1.09375E+00 0.00000E+00
 -1      1602 1.24374E+02 2.18750E+00 0.00000E+00
 -1      1603 1.29012E+02 1.09375E+00 0.00000E+00
 -1      1604 1.27512E+02 1.09375E+00 0.00000E+00
 -1      1605 1.27374E+02 2.18750E+00 0.00000E+00
 -1      1606 1.32012E+02 1.09375E+00 0.00000E+00
 -1      1607 1.30512E+02 1.09375E+00 0.00000E+00
 -1      1608 1.30374E+02 2.18750E+00 0.00000E+00
 -1      1609 1.35012E+02 1.09375E+00 0.00000E+00
 -1      1610 1.33512E+02 1.09375E+00 0.00000E+00
 -1      1611 1.33374E+02 2.18750E+00 0.00000E+00
 -1      1612 1.38012E+02 1.09375E+00 0.00000E+00
 -1      1613 1.36512E+02 1.09375E+00 0.00000E+00
 -1      1614 1.36374E+02 2.18750E+00 0.00000E+00
 -1      1615 1.41012E+02 1.09375E+00 0.00000E+00
 -1      1616 1.39512E+02 1.09375E+00 0.00000E+00
 -1      1617 1.39374E+02 2.18750E+00 0.00000E+00
 -1      1618 1.44012E+02 1.09375E+00 0.00000E+00
 -1      1619 1.42512E+02 1.09375E+00 0.00000E+00
 -1      1620 1.42374E+02 2.18750E+00 0.00000E+00
 -1      1621 1.47012E+02 1.09375E+00 0.00000E+00
 -1      1622 1.45512E+02 1.09375E+00 0.00000E+00
 -1      1623 1.45374E+02 2.18750E+00 0.00000E+00
 -1      1624 1.48575E+02 1.47500E+00 0.00000E+00
 -1      1625 1.48701E+02 5.16250E+00 0.00000E+00
 -1      1626 1.48701E+02 3.68750E+00 0.00000E+00
 -1      1627 1.48701E+02 8.11250E+00 0.00000E+00
 -1      1628 1.48701E+02 6.63750E+00 0.00000E+00
 -1      1629 1.47402E+02 5.90000E+00 0.00000E+00
 -1      1630 1.48701E+02 1.10625E+01 0.00000E+00
 -1      1631 1.48701E+02 9.58750E+00 0.00000E+00
 -1      1632 1.47402E+02 8.85000E+00 0.00000E+00
 -1      1633 1.48701E+02 1.40125E+01 0.00000E+00
 -1      1634 1.48701E+02 1.25375E+01 0.00000E+00
 -1      1635 1.47402E+02 1.18000E+01 0.00000E+00
 -1      1636 1.48701E+02 1.69125E+01 0.00000E+00
 -1      1637 1.48701E+02 1.54625E+01 0.00000E+00
 -1      1638 1.47402E+02 1.47250E+01 0.00000E+00
 -1      1639 1.48701E+02 1.98625E+01 0.00000E+00
 -1      1640 1.48701E+02 1.83875E+01 0.00000E+00
 -1      1641 1.47402E+02 1.76500E+01 0.00000E+00
 -1      1642 1.48701E+02 2.28125E+01 0.00000E+00
 -1      1643 1.48701E+02 2.13375E+01 0.00000E+00
 -1      1644 1.47402E+02 2.06000E+01 0.00000E+00
 -1      1645 1.48701E+02 2.57625E+01 0.00000E+00
 -1      1646 1.48701E+02 2.42875E+01 0.00000E+00
 -1      1647 1.47402E+02 2.35500E+01 0.00000E+00
 -1      1648 1.48701E+02 2.87125E+01 0.00000E+00
 -1      1649 1.48701E+02 2.72375E+01 0.00000E+00
 -1      1650 1.47402E+02 2.65000E+01 0.00000E+00
 -1      1651 1.48701E+02 3.16625E+01 0.00000E+00
 -1      1652 1.48701E+02 3.01875E+01 0.00000E+00
 -1      1653 1.47402E+02 2.94500E+01 0.00000E+00
 -1      1654 1.48701E+02 3.45625E+01 0.00000E+00
 -1      1655 1.48701E+02 3.31125E+01 0.00000E+00
 -1      1656 1.47402E+02 3.23750E+01 0.00000E+00
 -1      1657 1.48701E+02 3.75125E+01 0.00000E+00
 -1      1658 1.48701E+02 3.60375E+01 0.00000E+00
 -1      1659 1.47402E+02 3.53000E+01 0.00000E+00
 -1      1660 1.48701E+02 4.04625E+01 0.00000E+00
 -1      1661 1.48701E+02 3.89875E+01 0.00000E+00
 -1      1662 1.47402E+02 3.82500E+01 0.00000E+00
 -1      1663 1.48701E+02 4.34125E+01 0.00000E+00
 -1      1664 1.48701E+02 4.19375E+01 0.00000E+00
 -1      1665 1.47402E+02 4.12000E+01 0.00000E+00
 -1      1666 1.48263E+02 4.60692E+01 0.00000E+00
 -1      1667 1.48263E+02 4.45942E+01 0.00000E+00
 -1      1668 1.46964E+02 4.38568E+01 0.00000E+00
 -1      1669 1.46088E+02 4.62202E+01 0.00000E+00
 -1      1670 5.74696E+01 2.01558E+01 0.00000E+00
 -1      1671 5.75478E+01 2.08916E+01 0.00000E+00
 -1      1672 5.70986E+01 1.84985E+01 0.00000E+00
 -1      1673 5.73538E+01 1.92536E+01 0.00000E+00
 -1      1674 5.62691E+01 1.70918E+01 0.00000E+00
 -1      1675 5.66470E+01 1.77159E+01 0.00000E+00
 -1      1676 5.52403E+01 1.58677E+01 0.00000E+00
 -1      1677 5.57488E+01 1.64081E+01 0.00000E+00
 -1      1678 5.39736E+01 1.47883E+01 0.00000E+00
 -1      1679 5.46135E+01 1.52247E+01 0.00000E+00
 -1      1680 5.23965E+01 1.39730E+01 0.00000E+00
 -1      1681 5.31621E+01 1.42701E+01 0.00000E+00
 -1      1682 5.07638E+01 1.37858E+01 0.00000E+00
 -1      1683 5.14710E+01 1.38929E+01 0.00000E+00
 -1      1684 4.91836E+01 1.37896E+01 0.00000E+00
 -1      1685 4.99177E+01 1.37475E+01 0.00000E+00
 -1      1686 4.76221E+01 1.41251E+01 0.00000E+00
 -1      1687 4.83344E+01 1.39293E+01 0.00000E+00
 -1      1688 4.61051E+01 1.47700E+01 0.00000E+00
 -1      1689 4.67851E+01 1.44126E+01 0.00000E+00
 -1      1690 4.48555E+01 1.57447E+01 0.00000E+00
 -1      1691 4.54038E+01 1.52864E+01 0.00000E+00
 -1      1692 4.38135E+01 1.69273E+01 0.00000E+00
 -1      1693 4.42671E+01 1.63516E+01 0.00000E+00
 -1      1694 4.30155E+01 1.83567E+01 0.00000E+00
 -1      1695 4.33503E+01 1.76689E+01 0.00000E+00
 -1      1696 4.25431E+01 1.98991E+01 0.00000E+00
 -1      1697 4.27170E+01 1.91818E+01 0.00000E+00
 -1      1698 4.24066E+01 2.14452E+01 0.00000E+00
 -1      1699 4.24284E+01 2.07364E+01 0.00000E+00
 -1      1700 4.25734E+01 2.29207E+01 0.00000E+00
 -1      1701 4.24604E+01 2.22531E+01 0.00000E+00
 -1      1702 4.30203E+01 2.44131E+01 0.00000E+00
 -1      1703 4.27555E+01 2.37293E+01 0.00000E+00
 -1      1704 4.38163E+01 2.57287E+01 0.00000E+00
 -1      1705 4.34375E+01 2.51430E+01 0.00000E+00
 -1      1706 4.47997E+01 2.68536E+01 0.00000E+00
 -1      1707 4.43202E+01 2.63614E+01 0.00000E+00
 -1      1708 4.60050E+01 2.79633E+01 0.00000E+00
 -1      1709 4.53639E+01 2.75343E+01 0.00000E+00
 -1      1710 4.74961E+01 2.84834E+01 0.00000E+00
 -1      1711 4.68527E+01 2.82262E+01 0.00000E+00
 -1      1712 4.89888E+01 2.88361E+01 0.00000E+00
 -1      1713 4.82862E+01 2.87090E+01 0.00000E+00
 -1      1714 5.04901E+01 2.88870E+01 0.00000E+00
 -1      1715 4.98040E+01 2.89017E+01 0.00000E+00
 -1      1716 5.20833E+01 2.86885E+01 0.00000E+00
 -1      1717 5.13452E+01 2.88599E+01 0.00000E+00
 -1      1718 5.34948E+01 2.80413E+01 0.00000E+00
 -1      1719 5.28664E+01 2.83339E+01 0.00000E+00
 -1      1720 5.49006E+01 2.73064E+01 0.00000E+00
 -1      1721 5.43104E+01 2.77461E+01 0.00000E+00
 -1      1722 5.59411E+01 2.60735E+01 0.00000E+00
 -1      1723 5.54605E+01 2.66204E+01 0.00000E+00
 -1      1724 5.67512E+01 2.47340E+01 0.00000E+00
 -1      1725 5.63987E+01 2.53582E+01 0.00000E+00
 -1      1726 5.72947E+01 2.33268E+01 0.00000E+00
 -1      1727 5.70825E+01 2.39825E+01 0.00000E+00
 -1      1728 5.76301E+01 2.17696E+01 0.00000E+00
 -1      1729 5.75501E+01 2.25139E+01 0.00000E+00
 -1      1730 5.53092E+01 1.50795E+01 0.00000E+00
 -1      1731 5.64563E+01 1.64062E+01 0.00000E+00
 -1      1732 1.48437E+02 2.56875E+00 0.00000E+00
 -1      1733 1.47138E+02 3.30625E+00 0.00000E+00
 -1      1734 5.79957E+01 1.95574E+01 0.00000E+00
 -1      1735 5.74282E+01 1.78725E+01 0.00000E+00
 -1      1736 5.81938E+01 2.13376E+01 0.00000E+00
 -1      1737 5.38708E+01 1.39184E+01 0.00000E+00
 -1      1738 5.21337E+01 1.33201E+01 0.00000E+00
 -1      1739 5.03621E+01 1.32017E+01 0.00000E+00
 -1      1740 4.86668E+01 1.33030E+01 0.00000E+00
 -1      1741 4.69806E+01 1.37302E+01 0.00000E+00
 -1      1742 4.54422E+01 1.45341E+01 0.00000E+00
 -1      1743 4.41525E+01 1.56574E+01 0.00000E+00
 -1      1744 4.31010E+01 1.70059E+01 0.00000E+00
 -1      1745 4.23394E+01 1.85726E+01 0.00000E+00
 -1      1746 4.19263E+01 2.02349E+01 0.00000E+00
 -1      1747 4.18654E+01 2.18801E+01 0.00000E+00
 -1      1748 4.21014E+01 2.34966E+01 0.00000E+00
 -1      1749 4.27007E+01 2.50352E+01 0.00000E+00
 -1      1750 4.36218E+01 2.63978E+01 0.00000E+00
 -1      1751 4.46899E+01 2.77112E+01 0.00000E+00
 -1      1752 4.61018E+01 2.86548E+01 0.00000E+00
 -1      1753 4.77395E+01 2.91434E+01 0.00000E+00
 -1      1754 4.93449E+01 2.94347E+01 0.00000E+00
 -1      1755 5.10152E+01 2.94734E+01 0.00000E+00
 -1      1756 5.26534E+01 2.90917E+01 0.00000E+00
 -1      1757 5.42522E+01 2.84419E+01 0.00000E+00
 -1      1758 5.56277E+01 2.74607E+01 0.00000E+00
 -1      1759 5.66452E+01 2.60595E+01 0.00000E+00
 -1      1760 5.74341E+01 2.45927E+01 0.00000E+00
 -1      1761 5.80208E+01 2.30284E+01 0.00000E+00
 -1      1762 2.87400E+00 4.77875E+01 0.00000E+00
 -1      1763 3.89700E+00 4.04125E+01 0.00000E+00
 -1      1764 3.89700E+00 4.18875E+01 0.00000E+00
 -1      1765 3.89700E+00 4.33625E+01 0.00000E+00
 -1      1766 3.89700E+00 4.48375E+01 0.00000E+00
 -1      1767 5.19600E+00 4.26250E+01 0.00000E+00
 -1      1768 3.89700E+00 3.45500E+01 0.00000E+00
 -1      1769 3.89700E+00 3.60000E+01 0.00000E+00
 -1      1770 3.89700E+00 3.16000E+01 0.00000E+00
 -1      1771 3.89700E+00 3.30750E+01 0.00000E+00
 -1      1772 5.19600E+00 3.38000E+01 0.00000E+00
 -1      1773 3.89700E+00 2.86500E+01 0.00000E+00
 -1      1774 3.89700E+00 3.01250E+01 0.00000E+00
 -1      1775 5.19600E+00 3.08500E+01 0.00000E+00
 -1      1776 3.89700E+00 2.57000E+01 0.00000E+00
 -1      1777 3.89700E+00 2.71750E+01 0.00000E+00
 -1      1778 5.19600E+00 2.79000E+01 0.00000E+00
 -1      1779 3.89700E+00 2.27500E+01 0.00000E+00
 -1      1780 3.89700E+00 2.42250E+01 0.00000E+00
 -1      1781 5.19600E+00 2.49500E+01 0.00000E+00
 -1      1782 3.89700E+00 1.98000E+01 0.00000E+00
 -1      1783 3.89700E+00 2.12750E+01 0.00000E+00
 -1      1784 5.19600E+00 2.20000E+01 0.00000E+00
 -1      1785 3.89700E+00 1.69000E+01 0.00000E+00
 -1      1786 3.89700E+00 1.83500E+01 0.00000E+00
 -1      1787 5.19600E+00 1.90750E+01 0.00000E+00
 -1      1788 3.89700E+00 1.39500E+01 0.00000E+00
 -1      1789 3.89700E+00 1.54250E+01 0.00000E+00
 -1      1790 5.19600E+00 1.61500E+01 0.00000E+00
 -1      1791 3.89700E+00 1.10000E+01 0.00000E+00
 -1      1792 3.89700E+00 1.24750E+01 0.00000E+00
 -1      1793 5.19600E+00 1.32000E+01 0.00000E+00
 -1      1794 3.89700E+00 8.05000E+00 0.00000E+00
 -1      1795 3.89700E+00 9.52500E+00 0.00000E+00
 -1      1796 5.19600E+00 1.02500E+01 0.00000E+00
 -1      1797 3.89700E+00 5.10000E+00 0.00000E+00
 -1      1798 3.89700E+00 6.57500E+00 0.00000E+00
 -1      1799 5.19600E+00 7.30000E+00 0.00000E+00
 -1      1800 4.20450E+00 3.09687E+00 0.00000E+00
 -1      1801 4.06650E+00 4.19063E+00 0.00000E+00
 -1      1802 5.36550E+00 4.91563E+00 0.00000E+00
 -1      1803 5.70450E+00 3.09687E+00 0.00000E+00
 -1      1804 3.62400E+00 4.64885E+01 0.00000E+00
 -1      1805 8.70450E+00 3.09687E+00 0.00000E+00
 -1      1806 7.20450E+00 3.09687E+00 0.00000E+00
 -1      1807 7.03500E+00 4.00625E+00 0.00000E+00
 -1      1808 4.92300E+00 4.57510E+01 0.00000E+00
 -1      1809 8.40000E+00 4.61030E+01 0.00000E+00
 -1      1810 9.90000E+00 4.61030E+01 0.00000E+00
 -1      1811 1.14000E+01 4.61030E+01 0.00000E+00
 -1      1812 1.29000E+01 4.61030E+01 0.00000E+00
 -1      1813 1.06500E+01 4.48040E+01 0.00000E+00
 -1      1814 1.44000E+01 4.61030E+01 0.00000E+00
 -1      1815 1.59000E+01 4.61030E+01 0.00000E+00
 -1      1816 1.36500E+01 4.48040E+01 0.00000E+00
 -1      1817 1.74000E+01 4.61030E+01 0.00000E+00
 -1      1818 1.89000E+01 4.61030E+01 0.00000E+00
 -1      1819 1.66500E+01 4.48040E+01 0.00000E+00
 -1      1820 2.04000E+01 4.61030E+01 0.00000E+00
 -1      1821 2.19000E+01 4.61030E+01 0.00000E+00
 -1      1822 1.96500E+01 4.48040E+01 0.00000E+00
 -1      1823 2.34000E+01 4.61030E+01 0.00000E+00
 -1      1824 2.49000E+01 4.61030E+01 0.00000E+00
 -1      1825 2.26500E+01 4.48040E+01 0.00000E+00
 -1      1826 2.64000E+01 4.61030E+01 0.00000E+00
 -1      1827 2.79000E+01 4.61030E+01 0.00000E+00
 -1      1828 2.56500E+01 4.48040E+01 0.00000E+00
 -1      1829 2.94000E+01 4.61030E+01 0.00000E+00
 -1      1830 3.09000E+01 4.61030E+01 0.00000E+00
 -1      1831 2.86500E+01 4.48040E+01 0.00000E+00
 -1      1832 3.24000E+01 4.61030E+01 0.00000E+00
 -1      1833 3.39000E+01 4.61030E+01 0.00000E+00
 -1      1834 3.16500E+01 4.48040E+01 0.00000E+00
 -1      1835 3.54000E+01 4.61030E+01 0.00000E+00
 -1      1836 3.69000E+01 4.61030E+01 0.00000E+00
 -1      1837 3.46500E+01 4.48040E+01 0.00000E+00
 -1      1838 3.84000E+01 4.61030E+01 0.00000E+00
 -1      1839 3.99000E+01 4.61030E+01 0.00000E+00
 -1      1840 3.76500E+01 4.48040E+01 0.00000E+00
 -1      1841 4.14000E+01 4.61030E+01 0.00000E+00
 -1      1842 4.29000E+01 4.61030E+01 0.00000E+00
 -1      1843 4.06500E+01 4.48040E+01 0.00000E+00
 -1      1844 4.44000E+01 4.61030E+01 0.00000E+00
 -1      1845 4.59000E+01 4.61030E+01 0.00000E+00
 -1      1846 4.36500E+01 4.48040E+01 0.00000E+00
 -1      1847 4.74000E+01 4.61030E+01 0.00000E+00
 -1      1848 4.89000E+01 4.61030E+01 0.00000E+00
 -1      1849 4.66500E+01 4.48040E+01 0.00000E+00
 -1      1850 5.04000E+01 4.61030E+01 0.00000E+00
 -1      1851 5.19000E+01 4.61030E+01 0.00000E+00
 -1      1852 4.96500E+01 4.48040E+01 0.00000E+00
 -1      1853 5.34000E+01 4.61030E+01 0.00000E+00
 -1      1854 5.49000E+01 4.61030E+01 0.00000E+00
 -1      1855 5.26500E+01 4.48040E+01 0.00000E+00
 -1      1856 5.64000E+01 4.61030E+01 0.00000E+00
 -1      1857 5.79000E+01 4.61030E+01 0.00000E+00
 -1      1858 5.56500E+01 4.48040E+01 0.00000E+00
 -1      1859 5.94000E+01 4.61030E+01 0.00000E+00
 -1      1860 6.09000E+01 4.61030E+01 0.00000E+00
 -1      1861 5.86500E+01 4.48040E+01 0.00000E+00
 -1      1862 6.24000E+01 4.61030E+01 0.00000E+00
 -1      1863 6.39000E+01 4.61030E+01 0.00000E+00
 -1      1864 6.16500E+01 4.48040E+01 0.00000E+00
 -1      1865 6.54000E+01 4.61030E+01 0.00000E+00
 -1      1866 6.69000E+01 4.61030E+01 0.00000E+00
 -1      1867 6.46500E+01 4.48040E+01 0.00000E+00
 -1      1868 6.84000E+01 4.61030E+01 0.00000E+00
 -1      1869 6.99000E+01 4.61030E+01 0.00000E+00
 -1      1870 6.76500E+01 4.48040E+01 0.00000E+00
 -1      1871 7.14000E+01 4.61030E+01 0.00000E+00
 -1      1872 7.29000E+01 4.61030E+01 0.00000E+00
 -1      1873 7.06500E+01 4.48040E+01 0.00000E+00
 -1      1874 7.44000E+01 4.61030E+01 0.00000E+00
 -1      1875 7.59000E+01 4.61030E+01 0.00000E+00
 -1      1876 7.36500E+01 4.48040E+01 0.00000E+00
 -1      1877 7.74000E+01 4.61030E+01 0.00000E+00
 -1      1878 7.89000E+01 4.61030E+01 0.00000E+00
 -1      1879 7.66500E+01 4.48040E+01 0.00000E+00
 -1      1880 8.04000E+01 4.61030E+01 0.00000E+00
 -1      1881 8.19000E+01 4.61030E+01 0.00000E+00
 -1      1882 7.96500E+01 4.48040E+01 0.00000E+00
 -1      1883 8.34000E+01 4.61030E+01 0.00000E+00
 -1      1884 8.49000E+01 4.61030E+01 0.00000E+00
 -1      1885 8.26500E+01 4.48040E+01 0.00000E+00
 -1      1886 8.64000E+01 4.61030E+01 0.00000E+00
 -1      1887 8.79000E+01 4.61030E+01 0.00000E+00
 -1      1888 8.56500E+01 4.48040E+01 0.00000E+00
 -1      1889 8.94000E+01 4.61030E+01 0.00000E+00
 -1      1890 9.09000E+01 4.61030E+01 0.00000E+00
 -1      1891 8.86500E+01 4.48040E+01 0.00000E+00
 -1      1892 9.24000E+01 4.61030E+01 0.00000E+00
 -1      1893 9.39000E+01 4.61030E+01 0.00000E+00
 -1      1894 9.16500E+01 4.48040E+01 0.00000E+00
 -1      1895 9.54000E+01 4.61030E+01 0.00000E+00
 -1      1896 9.69000E+01 4.61030E+01 0.00000E+00
 -1      1897 9.46500E+01 4.48040E+01 0.00000E+00
 -1      1898 9.84000E+01 4.61030E+01 0.00000E+00
 -1      1899 9.99000E+01 4.61030E+01 0.00000E+00
 -1      1900 9.76500E+01 4.48040E+01 0.00000E+00
 -1      1901 1.01400E+02 4.61030E+01 0.00000E+00
 -1      1902 1.02900E+02 4.61030E+01 0.00000E+00
 -1      1903 1.00650E+02 4.48040E+01 0.00000E+00
 -1      1904 1.04400E+02 4.61030E+01 0.00000E+00
 -1      1905 1.05900E+02 4.61030E+01 0.00000E+00
 -1      1906 1.03650E+02 4.48040E+01 0.00000E+00
 -1      1907 1.07400E+02 4.61030E+01 0.00000E+00
 -1      1908 1.08900E+02 4.61030E+01 0.00000E+00
 -1      1909 1.06650E+02 4.48040E+01 0.00000E+00
 -1      1910 1.10400E+02 4.61030E+01 0.00000E+00
 -1      1911 1.11900E+02 4.61030E+01 0.00000E+00
 -1      1912 1.09650E+02 4.48040E+01 0.00000E+00
 -1      1913 1.13400E+02 4.61030E+01 0.00000E+00
 -1      1914 1.14900E+02 4.61030E+01 0.00000E+00
 -1      1915 1.12650E+02 4.48040E+01 0.00000E+00
 -1      1916 1.16400E+02 4.61030E+01 0.00000E+00
 -1      1917 1.17900E+02 4.61030E+01 0.00000E+00
 -1      1918 1.15650E+02 4.48040E+01 0.00000E+00
 -1      1919 1.19400E+02 4.61030E+01 0.00000E+00
 -1      1920 1.20900E+02 4.61030E+01 0.00000E+00
 -1      1921 1.18650E+02 4.48040E+01 0.00000E+00
 -1      1922 1.22400E+02 4.61030E+01 0.00000E+00
 -1      1923 1.23900E+02 4.61030E+01 0.00000E+00
 -1      1924 1.21650E+02 4.48040E+01 0.00000E+00
 -1      1925 1.25400E+02 4.61030E+01 0.00000E+00
 -1      1926 1.26900E+02 4.61030E+01 0.00000E+00
 -1      1927 1.24650E+02 4.48040E+01 0.00000E+00
 -1      1928 1.28400E+02 4.61030E+01 0.00000E+00
 -1      1929 1.29900E+02 4.61030E+01 0.00000E+00
 -1      1930 1.27650E+02 4.48040E+01 0.00000E+00
 -1      1931 1.31400E+02 4.61030E+01 0.00000E+00
 -1      1932 1.32900E+02 4.61030E+01 0.00000E+00
 -1      1933 1.30650E+02 4.48040E+01 0.00000E+00
 -1      1934 1.34400E+02 4.61030E+01 0.00000E+00
 -1      1935 1.35900E+02 4.61030E+01 0.00000E+00
 -1      1936 1.33650E+02 4.48040E+01 0.00000E+00
 -1      1937 1.37400E+02 4.61030E+01 0.00000E+00
 -1      1938 1.38900E+02 4.61030E+01 0.00000E+00
 -1      1939 1.36650E+02 4.48040E+01 0.00000E+00
 -1      1940 1.40400E+02 4.61030E+01 0.00000E+00
 -1      1941 1.41900E+02 4.61030E+01 0.00000E+00
 -1      1942 1.39650E+02 4.48040E+01 0.00000E+00
 -1      1943 1.43244E+02 4.61616E+01 0.00000E+00
 -1      1944 1.44744E+02 4.61616E+01 0.00000E+00
 -1      1945 1.45182E+02 4.49799E+01 0.00000E+00
 -1      1946 1.42494E+02 4.48626E+01 0.00000E+00
 -1      1947 1.17045E+01 3.09687E+00 0.00000E+00
 -1      1948 1.02045E+01 3.09687E+00 0.00000E+00
 -1      1949 1.00350E+01 4.00625E+00 0.00000E+00
 -1      1950 1.47045E+01 3.09687E+00 0.00000E+00
 -1      1951 1.32045E+01 3.09687E+00 0.00000E+00
 -1      1952 1.30350E+01 4.00625E+00 0.00000E+00
 -1      1953 1.77045E+01 3.09687E+00 0.00000E+00
 -1      1954 1.62045E+01 3.09687E+00 0.00000E+00
 -1      1955 1.60350E+01 4.00625E+00 0.00000E+00
 -1      1956 2.07045E+01 3.09687E+00 0.00000E+00
 -1      1957 1.92045E+01 3.09687E+00 0.00000E+00
 -1      1958 1.90350E+01 4.00625E+00 0.00000E+00
 -1      1959 2.37045E+01 3.09687E+00 0.00000E+00
 -1      1960 2.22045E+01 3.09687E+00 0.00000E+00
 -1      1961 2.20350E+01 4.00625E+00 0.00000E+00
 -1      1962 2.67045E+01 3.09687E+00 0.00000E+00
 -1      1963 2.52045E+01 3.09687E+00 0.00000E+00
 -1      1964 2.50350E+01 4.00625E+00 0.00000E+00
 -1      1965 2.97045E+01 3.09687E+00 0.00000E+00
 -1      1966 2.82045E+01 3.09687E+00 0.00000E+00
 -1      1967 2.80350E+01 4.00625E+00 0.00000E+00
 -1      1968 3.27045E+01 3.09687E+00 0.00000E+00
 -1      1969 3.12045E+01 3.09687E+00 0.00000E+00
 -1      1970 3.10350E+01 4.00625E+00 0.00000E+00
 -1      1971 3.57045E+01 3.09687E+00 0.00000E+00
 -1      1972 3.42045E+01 3.09687E+00 0.00000E+00
 -1      1973 3.40350E+01 4.00625E+00 0.00000E+00
 -1      1974 3.87045E+01 3.09687E+00 0.00000E+00
 -1      1975 3.72045E+01 3.09687E+00 0.00000E+00
 -1      1976 3.70350E+01 4.00625E+00 0.00000E+00
 -1      1977 4.17045E+01 3.09687E+00 0.00000E+00
 -1      1978 4.02045E+01 3.09687E+00 0.00000E+00
 -1      1979 4.00350E+01 4.00625E+00 0.00000E+00
 -1      1980 4.47045E+01 3.09687E+00 0.00000E+00
 -1      1981 4.32045E+01 3.09687E+00 0.00000E+00
 -1      1982 4.30350E+01 4.00625E+00 0.00000E+00
 -1      1983 4.77045E+01 3.09687E+00 0.00000E+00
 -1      1984 4.62045E+01 3.09687E+00 0.00000E+00
 -1      1985 4.60350E+01 4.00625E+00 0.00000E+00
 -1      1986 5.07045E+01 3.09687E+00 0.00000E+00
 -1      1987 4.92045E+01 3.09687E+00 0.00000E+00
 -1      1988 4.90350E+01 4.00625E+00 0.00000E+00
 -1      1989 5.37045E+01 3.09687E+00 0.00000E+00
 -1      1990 5.22045E+01 3.09687E+00 0.00000E+00
 -1      1991 5.20350E+01 4.00625E+00 0.00000E+00
 -1      1992 5.67045E+01 3.09687E+00 0.00000E+00
 -1      1993 5.52045E+01 3.09687E+00 0.00000E+00
 -1      1994 5.50350E+01 4.00625E+00 0.00000E+00
 -1      1995 5.97045E+01 3.09687E+00 0.00000E+00
 -1      1996 5.82045E+01 3.09687E+00 0.00000E+00
 -1      1997 5.80350E+01 4.00625E+00 0.00000E+00
 -1      1998 6.27045E+01 3.09687E+00 0.00000E+00
 -1      1999 6.12045E+01 3.09687E+00 0.00000E+00
 -1      2000 6.10350E+01 4.00625E+00 0.00000E+00
 -1      2001 6.57045E+01 3.09687E+00 0.00000E+00
 -1      2002 6.42045E+01 3.09687E+00 0.00000E+00
 -1      2003 6.40350E+01 4.00625E+00 0.00000E+00
 -1      2004 6.87045E+01 3.09687E+00 0.00000E+00
 -1      2005 6.72045E+01 3.09687E+00 0.00000E+00
 -1      2006 6.70350E+01 4.00625E+00 0.00000E+00
 -1      2007 7.17045E+01 3.09687E+00 0.00000E+00
 -1      2008 7.02045E+01 3.09687E+00 0.00000E+00
 -1      2009 7.00350E+01 4.00625E+00 0.00000E+00
 -1      2010 7.47045E+01 3.09687E+00 0.00000E+00
 -1      2011 7.32045E+01 3.09687E+00 0.00000E+00
 -1      2012 7.30350E+01 4.00625E+00 0.00000E+00
 -1      2013 7.77045E+01 3.09687E+00 0.00000E+00
 -1      2014 7.62045E+01 3.09687E+00 0.00000E+00
 -1      2015 7.60350E+01 4.00625E+00 0.00000E+00
 -1      2016 8.07045E+01 3.09687E+00 0.00000E+00
 -1      2017 7.92045E+01 3.09687E+00 0.00000E+00
 -1      2018 7.90350E+01 4.00625E+00 0.00000E+00
 -1      2019 8.37045E+01 3.09687E+00 0.00000E+00
 -1      2020 8.22045E+01 3.09687E+00 0.00000E+00
 -1      2021 8.20350E+01 4.00625E+00 0.00000E+00
 -1      2022 8.67045E+01 3.09687E+00 0.00000E+00
 -1      2023 8.52045E+01 3.09687E+00 0.00000E+00
 -1      2024 8.50350E+01 4.00625E+00 0.00000E+00
 -1      2025 8.97045E+01 3.09687E+00 0.00000E+00
 -1      2026 8.82045E+01 3.09687E+00 0.00000E+00
 -1      2027 8.80350E+01 4.00625E+00 0.00000E+00
 -1      2028 9.27045E+01 3.09687E+00 0.00000E+00
 -1      2029 9.12045E+01 3.09687E+00 0.00000E+00
 -1      2030 9.10350E+01 4.00625E+00 0.00000E+00
 -1      2031 9.57045E+01 3.09687E+00 0.00000E+00
 -1      2032 9.42045E+01 3.09687E+00 0.00000E+00
 -1      2033 9.40350E+01 4.00625E+00 0.00000E+00
 -1      2034 9.87045E+01 3.09687E+00 0.00000E+00
 -1      2035 9.72045E+01 3.09687E+00 0.00000E+00
 -1      2036 9.70350E+01 4.00625E+00 0.00000E+00
 -1      2037 1.01704E+02 3.09687E+00 0.00000E+00
 -1      2038 1.00204E+02 3.09687E+00 0.00000E+00
 -1      2039 1.00035E+02 4.00625E+00 0.00000E+00
 -1      2040 1.04704E+02 3.09687E+00 0.00000E+00
 -1      2041 1.03204E+02 3.09687E+00 0.00000E+00
 -1      2042 1.03035E+02 4.00625E+00 0.00000E+00
 -1      2043 1.07704E+02 3.09687E+00 0.00000E+00
 -1      2044 1.06204E+02 3.09687E+00 0.00000E+00
 -1      2045 1.06035E+02 4.00625E+00 0.00000E+00
 -1      2046 1.10704E+02 3.09687E+00 0.00000E+00
 -1      2047 1.09204E+02 3.09687E+00 0.00000E+00
 -1      2048 1.09035E+02 4.00625E+00 0.00000E+00
 -1      2049 1.13704E+02 3.09687E+00 0.00000E+00
 -1      2050 1.12204E+02 3.09687E+00 0.00000E+00
 -1      2051 1.12035E+02 4.00625E+00 0.00000E+00
 -1      2052 1.16704E+02 3.09687E+00 0.00000E+00
 -1      2053 1.15204E+02 3.09687E+00 0.00000E+00
 -1      2054 1.15035E+02 4.00625E+00 0.00000E+00
 -1      2055 1.19704E+02 3.09687E+00 0.00000E+00
 -1      2056 1.18204E+02 3.09687E+00 0.00000E+00
 -1      2057 1.18035E+02 4.00625E+00 0.00000E+00
 -1      2058 1.22704E+02 3.09687E+00 0.00000E+00
 -1      2059 1.21204E+02 3.09687E+00 0.00000E+00
 -1      2060 1.21035E+02 4.00625E+00 0.00000E+00
 -1      2061 1.25704E+02 3.09687E+00 0.00000E+00
 -1      2062 1.24204E+02 3.09687E+00 0.00000E+00
 -1      2063 1.24035E+02 4.00625E+00 0.00000E+00
 -1      2064 1.28704E+02 3.09687E+00 0.00000E+00
 -1      2065 1.27204E+02 3.09687E+00 0.00000E+00
 -1      2066 1.27035E+02 4.00625E+00 0.00000E+00
 -1      2067 1.31704E+02 3.09687E+00 0.00000E+00
 -1      2068 1.30204E+02 3.09687E+00 0.00000E+00
 -1      2069 1.30035E+02 4.00625E+00 0.00000E+00
 -1      2070 1.34704E+02 3.09687E+00 0.00000E+00
 -1      2071 1.33204E+02 3.09687E+00 0.00000E+00
 -1      2072 1.33035E+02 4.00625E+00 0.00000E+00
 -1      2073 1.37704E+02 3.09687E+00 0.00000E+00
 -1      2074 1.36204E+02 3.09687E+00 0.00000E+00
 -1      2075 1.36035E+02 4.00625E+00 0.00000E+00
 -1      2076 1.40704E+02 3.09687E+00 0.00000E+00
 -1      2077 1.39204E+02 3.09687E+00 0.00000E+00
 -1      2078 1.39035E+02 4.00625E+00 0.00000E+00
 -1      2079 1.43704E+02 3.09687E+00 0.00000E+00
 -1      2080 1.42204E+02 3.09687E+00 0.00000E+00
 -1      2081 1.42035E+02 4.00625E+00 0.00000E+00
 -1      2082 1.46171E+02 3.20156E+00 0.00000E+00
 -1      2083 1.44671E+02 3.20156E+00 0.00000E+00
 -1      2084 1.44502E+02 4.11094E+00 0.00000E+00
 -1      2085 1.46435E+02 4.32031E+00 0.00000E+00
 -1      2086 1.46103E+02 1.25375E+01 0.00000E+00
 -1      2087 1.46103E+02 1.10625E+01 0.00000E+00
 -1      2088 1.46103E+02 9.58750E+00 0.00000E+00
 -1      2089 1.46103E+02 8.11250E+00 0.00000E+00
 -1      2090 1.44804E+02 1.03250E+01 0.00000E+00
 -1      2091 1.46269E+02 6.95391E+00 0.00000E+00
 -1      2092 1.46269E+02 5.47891E+00 0.00000E+00
 -1      2093 1.45302E+02 5.37422E+00 0.00000E+00
 -1      2094 1.44970E+02 7.69141E+00 0.00000E+00
 -1      2095 1.46103E+02 1.54375E+01 0.00000E+00
 -1      2096 1.46103E+02 1.39875E+01 0.00000E+00
 -1      2097 1.44804E+02 1.32500E+01 0.00000E+00
 -1      2098 1.46103E+02 1.83875E+01 0.00000E+00
 -1      2099 1.46103E+02 1.69125E+01 0.00000E+00
 -1      2100 1.44804E+02 1.61750E+01 0.00000E+00
 -1      2101 1.46103E+02 2.13375E+01 0.00000E+00
 -1      2102 1.46103E+02 1.98625E+01 0.00000E+00
 -1      2103 1.44804E+02 1.91250E+01 0.00000E+00
 -1      2104 1.46103E+02 2.42875E+01 0.00000E+00
 -1      2105 1.46103E+02 2.28125E+01 0.00000E+00
 -1      2106 1.44804E+02 2.20750E+01 0.00000E+00
 -1      2107 1.46103E+02 2.72375E+01 0.00000E+00
 -1      2108 1.46103E+02 2.57625E+01 0.00000E+00
 -1      2109 1.44804E+02 2.50250E+01 0.00000E+00
 -1      2110 1.46103E+02 3.01875E+01 0.00000E+00
 -1      2111 1.46103E+02 2.87125E+01 0.00000E+00
 -1      2112 1.44804E+02 2.79750E+01 0.00000E+00
 -1      2113 1.46103E+02 3.30875E+01 0.00000E+00
 -1      2114 1.46103E+02 3.16375E+01 0.00000E+00
 -1      2115 1.44804E+02 3.09000E+01 0.00000E+00
 -1      2116 1.46103E+02 3.60375E+01 0.00000E+00
 -1      2117 1.46103E+02 3.45625E+01 0.00000E+00
 -1      2118 1.44804E+02 3.38250E+01 0.00000E+00
 -1      2119 1.46103E+02 3.89875E+01 0.00000E+00
 -1      2120 1.46103E+02 3.75125E+01 0.00000E+00
 -1      2121 1.44804E+02 3.67750E+01 0.00000E+00
 -1      2122 1.46103E+02 4.19375E+01 0.00000E+00
 -1      2123 1.46103E+02 4.04625E+01 0.00000E+00
 -1      2124 1.44804E+02 3.97250E+01 0.00000E+00
 -1      2125 5.78000E+01 1.71363E+01 0.00000E+00
 -1      2126 5.82516E+01 1.79189E+01 0.00000E+00
 -1      2127 5.88814E+01 2.08303E+01 0.00000E+00
 -1      2128 5.89637E+01 2.17083E+01 0.00000E+00
 -1      2129 5.86497E+01 1.90258E+01 0.00000E+00
 -1      2130 5.87655E+01 1.99280E+01 0.00000E+00
 -1      2131 5.95354E+01 2.02987E+01 0.00000E+00
 -1      2132 5.67785E+01 1.56211E+01 0.00000E+00
 -1      2133 5.72988E+01 1.63048E+01 0.00000E+00
 -1      2134 5.55798E+01 1.41886E+01 0.00000E+00
 -1      2135 5.62066E+01 1.48316E+01 0.00000E+00
 -1      2136 3.89700E+00 3.74688E+01 0.00000E+00
 -1      2137 3.89700E+00 3.89437E+01 0.00000E+00
 -1      2138 5.19600E+00 3.96813E+01 0.00000E+00
 -1      2139 5.19600E+00 3.67438E+01 0.00000E+00
 -1      2140 5.17304E+01 1.25926E+01 0.00000E+00
 -1      2141 5.26560E+01 1.26727E+01 0.00000E+00
 -1      2142 5.00382E+01 1.25160E+01 0.00000E+00
 -1      2143 5.08843E+01 1.25543E+01 0.00000E+00
 -1      2144 5.14066E+01 1.19070E+01 0.00000E+00
 -1      2145 4.81302E+01 1.26920E+01 0.00000E+00
 -1      2146 4.89794E+01 1.25523E+01 0.00000E+00
 -1      2147 4.63107E+01 1.31421E+01 0.00000E+00
 -1      2148 4.71477E+01 1.28546E+01 0.00000E+00
 -1      2149 4.46576E+01 1.42029E+01 0.00000E+00
 -1      2150 4.53590E+01 1.36865E+01 0.00000E+00
 -1      2151 4.33930E+01 1.55097E+01 0.00000E+00
 -1      2152 4.39814E+01 1.49028E+01 0.00000E+00
 -1      2153 4.22487E+01 1.69890E+01 0.00000E+00
 -1      2154 4.27118E+01 1.62474E+01 0.00000E+00
 -1      2155 4.15413E+01 1.87504E+01 0.00000E+00
 -1      2156 4.18398E+01 1.79253E+01 0.00000E+00
 -1      2157 4.12268E+01 2.05656E+01 0.00000E+00
 -1      2158 4.13415E+01 1.97283E+01 0.00000E+00
 -1      2159 4.11202E+01 2.23355E+01 0.00000E+00
 -1      2160 4.10664E+01 2.15275E+01 0.00000E+00
 -1      2161 4.15193E+01 2.40526E+01 0.00000E+00
 -1      2162 4.13372E+01 2.32440E+01 0.00000E+00
 -1      2163 4.21647E+01 2.58256E+01 0.00000E+00
 -1      2164 4.17476E+01 2.50957E+01 0.00000E+00
 -1      2165 4.31726E+01 2.70910E+01 0.00000E+00
 -1      2166 4.26687E+01 2.64583E+01 0.00000E+00
 -1      2167 4.17155E+01 2.65189E+01 0.00000E+00
 -1      2168 4.44730E+01 2.84651E+01 0.00000E+00
 -1      2169 4.39088E+01 2.77844E+01 0.00000E+00
 -1      2170 4.62839E+01 2.95653E+01 0.00000E+00
 -1      2171 4.54363E+01 2.93024E+01 0.00000E+00
 -1      2172 4.78642E+01 3.00167E+01 0.00000E+00
 -1      2173 4.70741E+01 2.97910E+01 0.00000E+00
 -1      2174 4.64086E+01 3.04386E+01 0.00000E+00
 -1      2175 4.96903E+01 3.02388E+01 0.00000E+00
 -1      2176 4.88751E+01 3.01732E+01 0.00000E+00
 -1      2177 5.14646E+01 3.01495E+01 0.00000E+00
 -1      2178 5.06094E+01 3.01765E+01 0.00000E+00
 -1      2179 5.33641E+01 2.96193E+01 0.00000E+00
 -1      2180 5.25810E+01 2.99739E+01 0.00000E+00
 -1      2181 5.49954E+01 2.90289E+01 0.00000E+00
 -1      2182 5.41798E+01 2.93241E+01 0.00000E+00
 -1      2183 5.41074E+01 3.02063E+01 0.00000E+00
 -1      2184 5.64747E+01 2.75805E+01 0.00000E+00
 -1      2185 5.59148E+01 2.82665E+01 0.00000E+00
 -1      2186 5.74905E+01 2.60962E+01 0.00000E+00
 -1      2187 5.70330E+01 2.68115E+01 0.00000E+00
 -1      2188 5.83078E+01 2.45291E+01 0.00000E+00
 -1      2189 5.79765E+01 2.52806E+01 0.00000E+00
 -1      2190 5.88185E+01 2.29034E+01 0.00000E+00
 -1      2191 5.85631E+01 2.37163E+01 0.00000E+00
 -1      2192 5.91055E+01 2.44042E+01 0.00000E+00
 -1      2193 5.38814E+01 1.30071E+01 0.00000E+00
 -1      2194 5.46930E+01 1.35253E+01 0.00000E+00
 -1      2195 5.55905E+01 1.32774E+01 0.00000E+00
 -1      2196 6.42300E+00 4.57510E+01 0.00000E+00
 -1      2197 5.30749E+01 1.15522E+01 0.00000E+00
 -1      2198 5.34782E+01 1.22796E+01 0.00000E+00
 -1      2199 5.43003E+01 1.18865E+01 0.00000E+00
 -1      2200 7.17300E+00 4.44520E+01 0.00000E+00
 -1      2201 5.90215E+01 1.82896E+01 0.00000E+00
 -1      2202 5.81223E+01 1.63512E+01 0.00000E+00
 -1      2203 1.45665E+02 4.31193E+01 0.00000E+00
 -1      2204 5.95060E+01 2.23961E+01 0.00000E+00
 -1      2205 5.70492E+01 1.47302E+01 0.00000E+00
 -1      2206 5.83642E+01 2.60326E+01 0.00000E+00
 -1      2207 5.58424E+01 2.91487E+01 0.00000E+00
 -1      2208 5.21753E+01 3.06771E+01 0.00000E+00
 -1      2209 4.82097E+01 3.08208E+01 0.00000E+00
 -1      2210 4.29557E+01 2.78449E+01 0.00000E+00
 -1      2211 4.09834E+01 2.48431E+01 0.00000E+00
 -1      2212 4.05382E+01 2.28914E+01 0.00000E+00
 -1      2213 4.04817E+01 2.10209E+01 0.00000E+00
 -1      2214 4.08419E+01 1.90811E+01 0.00000E+00
 -1      2215 4.14506E+01 1.71668E+01 0.00000E+00
 -1      2216 4.25407E+01 1.54928E+01 0.00000E+00
 -1      2217 4.38981E+01 1.40552E+01 0.00000E+00
 -1      2218 4.55261E+01 1.28110E+01 0.00000E+00
 -1      2219 4.95017E+01 1.19050E+01 0.00000E+00
 -1      2220 4.74603E+01 1.21039E+01 0.00000E+00
 -1      2221 4.46552E+01 2.93756E+01 0.00000E+00
 -1      2222 4.38741E+01 2.94488E+01 0.00000E+00
 -1      2223 4.48374E+01 3.02861E+01 0.00000E+00
 -1      2224 5.01397E+01 3.09150E+01 0.00000E+00
 -1      2225 5.73200E+01 2.76173E+01 0.00000E+00
 -1      2226 1.07850E+01 5.30525E+00 0.00000E+00
 -1      2227 9.28500E+00 5.30525E+00 0.00000E+00
 -1      2228 6.49500E+00 3.01125E+01 0.00000E+00
 -1      2229 6.49500E+00 3.15875E+01 0.00000E+00
 -1      2230 6.49500E+00 3.30625E+01 0.00000E+00
 -1      2231 6.49500E+00 3.45375E+01 0.00000E+00
 -1      2232 7.79400E+00 3.23250E+01 0.00000E+00
 -1      2233 6.49500E+00 2.42125E+01 0.00000E+00
 -1      2234 6.49500E+00 2.56875E+01 0.00000E+00
 -1      2235 6.49500E+00 2.12625E+01 0.00000E+00
 -1      2236 6.49500E+00 2.27375E+01 0.00000E+00
 -1      2237 7.79400E+00 2.34750E+01 0.00000E+00
 -1      2238 6.49500E+00 1.83625E+01 0.00000E+00
 -1      2239 6.49500E+00 1.98125E+01 0.00000E+00
 -1      2240 7.79400E+00 2.05500E+01 0.00000E+00
 -1      2241 6.49500E+00 1.54125E+01 0.00000E+00
 -1      2242 6.49500E+00 1.68875E+01 0.00000E+00
 -1      2243 7.79400E+00 1.76250E+01 0.00000E+00
 -1      2244 6.49500E+00 1.24625E+01 0.00000E+00
 -1      2245 6.49500E+00 1.39375E+01 0.00000E+00
 -1      2246 7.79400E+00 1.46750E+01 0.00000E+00
 -1      2247 6.49500E+00 9.51250E+00 0.00000E+00
 -1      2248 6.49500E+00 1.09875E+01 0.00000E+00
 -1      2249 7.79400E+00 1.17250E+01 0.00000E+00
 -1      2250 1.37850E+01 5.30525E+00 0.00000E+00
 -1      2251 1.22850E+01 5.30525E+00 0.00000E+00
 -1      2252 1.15350E+01 6.60425E+00 0.00000E+00
 -1      2253 9.90000E+00 4.35050E+01 0.00000E+00
 -1      2254 1.14000E+01 4.35050E+01 0.00000E+00
 -1      2255 1.29000E+01 4.35050E+01 0.00000E+00
 -1      2256 1.44000E+01 4.35050E+01 0.00000E+00
 -1      2257 1.21500E+01 4.22060E+01 0.00000E+00
 -1      2258 1.59000E+01 4.35050E+01 0.00000E+00
 -1      2259 1.74000E+01 4.35050E+01 0.00000E+00
 -1      2260 1.51500E+01 4.22060E+01 0.00000E+00
 -1      2261 1.89000E+01 4.35050E+01 0.00000E+00
 -1      2262 2.04000E+01 4.35050E+01 0.00000E+00
 -1      2263 1.81500E+01 4.22060E+01 0.00000E+00
 -1      2264 2.19000E+01 4.35050E+01 0.00000E+00
 -1      2265 2.34000E+01 4.35050E+01 0.00000E+00
 -1      2266 2.11500E+01 4.22060E+01 0.00000E+00
 -1      2267 2.49000E+01 4.35050E+01 0.00000E+00
 -1      2268 2.64000E+01 4.35050E+01 0.00000E+00
 -1      2269 2.41500E+01 4.22060E+01 0.00000E+00
 -1      2270 2.79000E+01 4.35050E+01 0.00000E+00
 -1      2271 2.94000E+01 4.35050E+01 0.00000E+00
 -1      2272 2.71500E+01 4.22060E+01 0.00000E+00
 -1      2273 3.09000E+01 4.35050E+01 0.00000E+00
 -1      2274 3.24000E+01 4.35050E+01 0.00000E+00
 -1      2275 3.01500E+01 4.22060E+01 0.00000E+00
 -1      2276 3.39000E+01 4.35050E+01 0.00000E+00
 -1      2277 3.54000E+01 4.35050E+01 0.00000E+00
 -1      2278 3.31500E+01 4.22060E+01 0.00000E+00
 -1      2279 3.69000E+01 4.35050E+01 0.00000E+00
 -1      2280 3.84000E+01 4.35050E+01 0.00000E+00
 -1      2281 3.61500E+01 4.22060E+01 0.00000E+00
 -1      2282 3.99000E+01 4.35050E+01 0.00000E+00
 -1      2283 4.14000E+01 4.35050E+01 0.00000E+00
 -1      2284 3.91500E+01 4.22060E+01 0.00000E+00
 -1      2285 4.29000E+01 4.35050E+01 0.00000E+00
 -1      2286 4.44000E+01 4.35050E+01 0.00000E+00
 -1      2287 4.21500E+01 4.22060E+01 0.00000E+00
 -1      2288 4.59000E+01 4.35050E+01 0.00000E+00
 -1      2289 4.74000E+01 4.35050E+01 0.00000E+00
 -1      2290 4.51500E+01 4.22060E+01 0.00000E+00
 -1      2291 4.89000E+01 4.35050E+01 0.00000E+00
 -1      2292 5.04000E+01 4.35050E+01 0.00000E+00
 -1      2293 4.81500E+01 4.22060E+01 0.00000E+00
 -1      2294 5.19000E+01 4.35050E+01 0.00000E+00
 -1      2295 5.34000E+01 4.35050E+01 0.00000E+00
 -1      2296 5.11500E+01 4.22060E+01 0.00000E+00
 -1      2297 5.49000E+01 4.35050E+01 0.00000E+00
 -1      2298 5.64000E+01 4.35050E+01 0.00000E+00
 -1      2299 5.41500E+01 4.22060E+01 0.00000E+00
 -1      2300 5.79000E+01 4.35050E+01 0.00000E+00
 -1      2301 5.94000E+01 4.35050E+01 0.00000E+00
 -1      2302 5.71500E+01 4.22060E+01 0.00000E+00
 -1      2303 6.09000E+01 4.35050E+01 0.00000E+00
 -1      2304 6.24000E+01 4.35050E+01 0.00000E+00
 -1      2305 6.01500E+01 4.22060E+01 0.00000E+00
 -1      2306 6.39000E+01 4.35050E+01 0.00000E+00
 -1      2307 6.54000E+01 4.35050E+01 0.00000E+00
 -1      2308 6.31500E+01 4.22060E+01 0.00000E+00
 -1      2309 6.69000E+01 4.35050E+01 0.00000E+00
 -1      2310 6.84000E+01 4.35050E+01 0.00000E+00
 -1      2311 6.61500E+01 4.22060E+01 0.00000E+00
 -1      2312 6.99000E+01 4.35050E+01 0.00000E+00
 -1      2313 7.14000E+01 4.35050E+01 0.00000E+00
 -1      2314 6.91500E+01 4.22060E+01 0.00000E+00
 -1      2315 7.29000E+01 4.35050E+01 0.00000E+00
 -1      2316 7.44000E+01 4.35050E+01 0.00000E+00
 -1      2317 7.21500E+01 4.22060E+01 0.00000E+00
 -1      2318 7.59000E+01 4.35050E+01 0.00000E+00
 -1      2319 7.74000E+01 4.35050E+01 0.00000E+00
 -1      2320 7.51500E+01 4.22060E+01 0.00000E+00
 -1      2321 7.89000E+01 4.35050E+01 0.00000E+00
 -1      2322 8.04000E+01 4.35050E+01 0.00000E+00
 -1      2323 7.81500E+01 4.22060E+01 0.00000E+00
 -1      2324 8.19000E+01 4.35050E+01 0.00000E+00
 -1      2325 8.34000E+01 4.35050E+01 0.00000E+00
 -1      2326 8.11500E+01 4.22060E+01 0.00000E+00
 -1      2327 8.49000E+01 4.35050E+01 0.00000E+00
 -1      2328 8.64000E+01 4.35050E+01 0.00000E+00
 -1      2329 8.41500E+01 4.22060E+01 0.00000E+00
 -1      2330 8.79000E+01 4.35050E+01 0.00000E+00
 -1      2331 8.94000E+01 4.35050E+01 0.00000E+00
 -1      2332 8.71500E+01 4.22060E+01 0.00000E+00
 -1      2333 9.09000E+01 4.35050E+01 0.00000E+00
 -1      2334 9.24000E+01 4.35050E+01 0.00000E+00
 -1      2335 9.01500E+01 4.22060E+01 0.00000E+00
 -1      2336 9.39000E+01 4.35050E+01 0.00000E+00
 -1      2337 9.54000E+01 4.35050E+01 0.00000E+00
 -1      2338 9.31500E+01 4.22060E+01 0.00000E+00
 -1      2339 9.69000E+01 4.35050E+01 0.00000E+00
 -1      2340 9.84000E+01 4.35050E+01 0.00000E+00
 -1      2341 9.61500E+01 4.22060E+01 0.00000E+00
 -1      2342 9.99000E+01 4.35050E+01 0.00000E+00
 -1      2343 1.01400E+02 4.35050E+01 0.00000E+00
 -1      2344 9.91500E+01 4.22060E+01 0.00000E+00
 -1      2345 1.02900E+02 4.35050E+01 0.00000E+00
 -1      2346 1.04400E+02 4.35050E+01 0.00000E+00
 -1      2347 1.02150E+02 4.22060E+01 0.00000E+00
 -1      2348 1.05900E+02 4.35050E+01 0.00000E+00
 -1      2349 1.07400E+02 4.35050E+01 0.00000E+00
 -1      2350 1.05150E+02 4.22060E+01 0.00000E+00
 -1      2351 1.08900E+02 4.35050E+01 0.00000E+00
 -1      2352 1.10400E+02 4.35050E+01 0.00000E+00
 -1      2353 1.08150E+02 4.22060E+01 0.00000E+00
 -1      2354 1.11900E+02 4.35050E+01 0.00000E+00
 -1      2355 1.13400E+02 4.35050E+01 0.00000E+00
 -1      2356 1.11150E+02 4.22060E+01 0.00000E+00
 -1      2357 1.14900E+02 4.35050E+01 0.00000E+00
 -1      2358 1.16400E+02 4.35050E+01 0.00000E+00
 -1      2359 1.14150E+02 4.22060E+01 0.00000E+00
 -1      2360 1.17900E+02 4.35050E+01 0.00000E+00
 -1      2361 1.19400E+02 4.35050E+01 0.00000E+00
 -1      2362 1.17150E+02 4.22060E+01 0.00000E+00
 -1      2363 1.20900E+02 4.35050E+01 0.00000E+00
 -1      2364 1.22400E+02 4.35050E+01 0.00000E+00
 -1      2365 1.20150E+02 4.22060E+01 0.00000E+00
 -1      2366 1.23900E+02 4.35050E+01 0.00000E+00
 -1      2367 1.25400E+02 4.35050E+01 0.00000E+00
 -1      2368 1.23150E+02 4.22060E+01 0.00000E+00
 -1      2369 1.26900E+02 4.35050E+01 0.00000E+00
 -1      2370 1.28400E+02 4.35050E+01 0.00000E+00
 -1      2371 1.26150E+02 4.22060E+01 0.00000E+00
 -1      2372 1.29900E+02 4.35050E+01 0.00000E+00
 -1      2373 1.31400E+02 4.35050E+01 0.00000E+00
 -1      2374 1.29150E+02 4.22060E+01 0.00000E+00
 -1      2375 1.32900E+02 4.35050E+01 0.00000E+00
 -1      2376 1.34400E+02 4.35050E+01 0.00000E+00
 -1      2377 1.32150E+02 4.22060E+01 0.00000E+00
 -1      2378 1.35900E+02 4.35050E+01 0.00000E+00
 -1      2379 1.37400E+02 4.35050E+01 0.00000E+00
 -1      2380 1.35150E+02 4.22060E+01 0.00000E+00
 -1      2381 1.38900E+02 4.35050E+01 0.00000E+00
 -1      2382 1.40400E+02 4.35050E+01 0.00000E+00
 -1      2383 1.38150E+02 4.22060E+01 0.00000E+00
 -1      2384 1.97850E+01 5.30525E+00 0.00000E+00
 -1      2385 1.82850E+01 5.30525E+00 0.00000E+00
 -1      2386 2.27850E+01 5.30525E+00 0.00000E+00
 -1      2387 2.12850E+01 5.30525E+00 0.00000E+00
 -1      2388 2.05350E+01 6.60425E+00 0.00000E+00
 -1      2389 2.57850E+01 5.30525E+00 0.00000E+00
 -1      2390 2.42850E+01 5.30525E+00 0.00000E+00
 -1      2391 2.35350E+01 6.60425E+00 0.00000E+00
 -1      2392 2.87850E+01 5.30525E+00 0.00000E+00
 -1      2393 2.72850E+01 5.30525E+00 0.00000E+00
 -1      2394 2.65350E+01 6.60425E+00 0.00000E+00
 -1      2395 3.17850E+01 5.30525E+00 0.00000E+00
 -1      2396 3.02850E+01 5.30525E+00 0.00000E+00
 -1      2397 2.95350E+01 6.60425E+00 0.00000E+00
 -1      2398 3.47850E+01 5.30525E+00 0.00000E+00
 -1      2399 3.32850E+01 5.30525E+00 0.00000E+00
 -1      2400 3.25350E+01 6.60425E+00 0.00000E+00
 -1      2401 3.77850E+01 5.30525E+00 0.00000E+00
 -1      2402 3.62850E+01 5.30525E+00 0.00000E+00
 -1      2403 3.55350E+01 6.60425E+00 0.00000E+00
 -1      2404 4.07850E+01 5.30525E+00 0.00000E+00
 -1      2405 3.92850E+01 5.30525E+00 0.00000E+00
 -1      2406 3.85350E+01 6.60425E+00 0.00000E+00
 -1      2407 4.37850E+01 5.30525E+00 0.00000E+00
 -1      2408 4.22850E+01 5.30525E+00 0.00000E+00
 -1      2409 4.15350E+01 6.60425E+00 0.00000E+00
 -1      2410 4.67850E+01 5.30525E+00 0.00000E+00
 -1      2411 4.52850E+01 5.30525E+00 0.00000E+00
 -1      2412 4.45350E+01 6.60425E+00 0.00000E+00
 -1      2413 4.97850E+01 5.30525E+00 0.00000E+00
 -1      2414 4.82850E+01 5.30525E+00 0.00000E+00
 -1      2415 4.75350E+01 6.60425E+00 0.00000E+00
 -1      2416 5.27850E+01 5.30525E+00 0.00000E+00
 -1      2417 5.12850E+01 5.30525E+00 0.00000E+00
 -1      2418 5.05350E+01 6.60425E+00 0.00000E+00
 -1      2419 5.57850E+01 5.30525E+00 0.00000E+00
 -1      2420 5.42850E+01 5.30525E+00 0.00000E+00
 -1      2421 5.35350E+01 6.60425E+00 0.00000E+00
 -1      2422 5.87850E+01 5.30525E+00 0.00000E+00
 -1      2423 5.72850E+01 5.30525E+00 0.00000E+00
 -1      2424 5.65350E+01 6.60425E+00 0.00000E+00
 -1      2425 6.17850E+01 5.30525E+00 0.00000E+00
 -1      2426 6.02850E+01 5.30525E+00 0.00000E+00
 -1      2427 5.95350E+01 6.60425E+00 0.00000E+00
 -1      2428 6.47850E+01 5.30525E+00 0.00000E+00
 -1      2429 6.32850E+01 5.30525E+00 0.00000E+00
 -1      2430 6.25350E+01 6.60425E+00 0.00000E+00
 -1      2431 6.77850E+01 5.30525E+00 0.00000E+00
 -1      2432 6.62850E+01 5.30525E+00 0.00000E+00
 -1      2433 6.55350E+01 6.60425E+00 0.00000E+00
 -1      2434 7.07850E+01 5.30525E+00 0.00000E+00
 -1      2435 6.92850E+01 5.30525E+00 0.00000E+00
 -1      2436 6.85350E+01 6.60425E+00 0.00000E+00
 -1      2437 7.37850E+01 5.30525E+00 0.00000E+00
 -1      2438 7.22850E+01 5.30525E+00 0.00000E+00
 -1      2439 7.15350E+01 6.60425E+00 0.00000E+00
 -1      2440 7.67850E+01 5.30525E+00 0.00000E+00
 -1      2441 7.52850E+01 5.30525E+00 0.00000E+00
 -1      2442 7.45350E+01 6.60425E+00 0.00000E+00
 -1      2443 7.97850E+01 5.30525E+00 0.00000E+00
 -1      2444 7.82850E+01 5.30525E+00 0.00000E+00
 -1      2445 7.75350E+01 6.60425E+00 0.00000E+00
 -1      2446 8.27850E+01 5.30525E+00 0.00000E+00
 -1      2447 8.12850E+01 5.30525E+00 0.00000E+00
 -1      2448 8.05350E+01 6.60425E+00 0.00000E+00
 -1      2449 8.57850E+01 5.30525E+00 0.00000E+00
 -1      2450 8.42850E+01 5.30525E+00 0.00000E+00
 -1      2451 8.35350E+01 6.60425E+00 0.00000E+00
 -1      2452 8.87850E+01 5.30525E+00 0.00000E+00
 -1      2453 8.72850E+01 5.30525E+00 0.00000E+00
 -1      2454 8.65350E+01 6.60425E+00 0.00000E+00
 -1      2455 9.17850E+01 5.30525E+00 0.00000E+00
 -1      2456 9.02850E+01 5.30525E+00 0.00000E+00
 -1      2457 8.95350E+01 6.60425E+00 0.00000E+00
 -1      2458 9.47850E+01 5.30525E+00 0.00000E+00
 -1      2459 9.32850E+01 5.30525E+00 0.00000E+00
 -1      2460 9.25350E+01 6.60425E+00 0.00000E+00
 -1      2461 9.77850E+01 5.30525E+00 0.00000E+00
 -1      2462 9.62850E+01 5.30525E+00 0.00000E+00
 -1      2463 9.55350E+01 6.60425E+00 0.00000E+00
 -1      2464 1.00785E+02 5.30525E+00 0.00000E+00
 -1      2465 9.92850E+01 5.30525E+00 0.00000E+00
 -1      2466 9.85350E+01 6.60425E+00 0.00000E+00
 -1      2467 1.03785E+02 5.30525E+00 0.00000E+00
 -1      2468 1.02285E+02 5.30525E+00 0.00000E+00
 -1      2469 1.01535E+02 6.60425E+00 0.00000E+00
 -1      2470 1.06785E+02 5.30525E+00 0.00000E+00
 -1      2471 1.05285E+02 5.30525E+00 0.00000E+00
 -1      2472 1.04535E+02 6.60425E+00 0.00000E+00
 -1      2473 1.09785E+02 5.30525E+00 0.00000E+00
 -1      2474 1.08285E+02 5.30525E+00 0.00000E+00
 -1      2475 1.07535E+02 6.60425E+00 0.00000E+00
 -1      2476 1.12785E+02 5.30525E+00 0.00000E+00
 -1      2477 1.11285E+02 5.30525E+00 0.00000E+00
 -1      2478 1.10535E+02 6.60425E+00 0.00000E+00
 -1      2479 1.15785E+02 5.30525E+00 0.00000E+00
 -1      2480 1.14285E+02 5.30525E+00 0.00000E+00
 -1      2481 1.13535E+02 6.60425E+00 0.00000E+00
 -1      2482 1.18785E+02 5.30525E+00 0.00000E+00
 -1      2483 1.17285E+02 5.30525E+00 0.00000E+00
 -1      2484 1.16535E+02 6.60425E+00 0.00000E+00
 -1      2485 1.21785E+02 5.30525E+00 0.00000E+00
 -1      2486 1.20285E+02 5.30525E+00 0.00000E+00
 -1      2487 1.19535E+02 6.60425E+00 0.00000E+00
 -1      2488 1.24785E+02 5.30525E+00 0.00000E+00
 -1      2489 1.23285E+02 5.30525E+00 0.00000E+00
 -1      2490 1.22535E+02 6.60425E+00 0.00000E+00
 -1      2491 1.27785E+02 5.30525E+00 0.00000E+00
 -1      2492 1.26285E+02 5.30525E+00 0.00000E+00
 -1      2493 1.25535E+02 6.60425E+00 0.00000E+00
 -1      2494 1.30785E+02 5.30525E+00 0.00000E+00
 -1      2495 1.29285E+02 5.30525E+00 0.00000E+00
 -1      2496 1.28535E+02 6.60425E+00 0.00000E+00
 -1      2497 1.33785E+02 5.30525E+00 0.00000E+00
 -1      2498 1.32285E+02 5.30525E+00 0.00000E+00
 -1      2499 1.31535E+02 6.60425E+00 0.00000E+00
 -1      2500 1.36785E+02 5.30525E+00 0.00000E+00
 -1      2501 1.35285E+02 5.30525E+00 0.00000E+00
 -1      2502 1.34535E+02 6.60425E+00 0.00000E+00
 -1      2503 1.39785E+02 5.30525E+00 0.00000E+00
 -1      2504 1.38285E+02 5.30525E+00 0.00000E+00
 -1      2505 1.37535E+02 6.60425E+00 0.00000E+00
 -1      2506 1.42785E+02 5.30525E+00 0.00000E+00
 -1      2507 1.41285E+02 5.30525E+00 0.00000E+00
 -1      2508 1.40535E+02 6.60425E+00 0.00000E+00
 -1      2509 1.44336E+02 5.26953E+00 0.00000E+00
 -1      2510 1.43505E+02 1.69125E+01 0.00000E+00
 -1      2511 1.43505E+02 1.54375E+01 0.00000E+00
 -1      2512 1.43505E+02 1.98625E+01 0.00000E+00
 -1      2513 1.43505E+02 1.83875E+01 0.00000E+00
 -1      2514 1.42206E+02 1.76500E+01 0.00000E+00
 -1      2515 1.43505E+02 1.10625E+01 0.00000E+00
 -1      2516 1.43505E+02 9.58750E+00 0.00000E+00
 -1      2517 1.43505E+02 1.39750E+01 0.00000E+00
 -1      2518 1.43505E+02 1.25250E+01 0.00000E+00
 -1      2519 1.42206E+02 1.17875E+01 0.00000E+00
 -1      2520 1.42206E+02 1.47125E+01 0.00000E+00
 -1      2521 1.43505E+02 2.28125E+01 0.00000E+00
 -1      2522 1.43505E+02 2.13375E+01 0.00000E+00
 -1      2523 1.42206E+02 2.06000E+01 0.00000E+00
 -1      2524 1.43505E+02 2.57625E+01 0.00000E+00
 -1      2525 1.43505E+02 2.42875E+01 0.00000E+00
 -1      2526 1.42206E+02 2.35500E+01 0.00000E+00
 -1      2527 1.43505E+02 2.87125E+01 0.00000E+00
 -1      2528 1.43505E+02 2.72375E+01 0.00000E+00
 -1      2529 1.42206E+02 2.65000E+01 0.00000E+00
 -1      2530 1.43505E+02 3.16125E+01 0.00000E+00
 -1      2531 1.43505E+02 3.01625E+01 0.00000E+00
 -1      2532 1.42206E+02 2.94250E+01 0.00000E+00
 -1      2533 1.43505E+02 3.45625E+01 0.00000E+00
 -1      2534 1.43505E+02 3.30875E+01 0.00000E+00
 -1      2535 1.42206E+02 3.23500E+01 0.00000E+00
 -1      2536 1.43505E+02 3.75125E+01 0.00000E+00
 -1      2537 1.43505E+02 3.60375E+01 0.00000E+00
 -1      2538 1.42206E+02 3.53000E+01 0.00000E+00
 -1      2539 1.43505E+02 4.04625E+01 0.00000E+00
 -1      2540 1.43505E+02 3.89875E+01 0.00000E+00
 -1      2541 1.42206E+02 3.82500E+01 0.00000E+00
 -1      2542 5.85344E+01 1.55361E+01 0.00000E+00
 -1      2543 5.90356E+01 1.63676E+01 0.00000E+00
 -1      2544 1.44321E+02 4.30606E+01 0.00000E+00
 -1      2545 6.04299E+01 2.19019E+01 0.00000E+00
 -1      2546 6.02848E+01 2.30971E+01 0.00000E+00
 -1      2547 1.67850E+01 5.30525E+00 0.00000E+00
 -1      2548 1.52850E+01 5.30525E+00 0.00000E+00
 -1      2549 1.75350E+01 6.60425E+00 0.00000E+00
 -1      2550 6.04111E+01 1.97277E+01 0.00000E+00
 -1      2551 6.05270E+01 2.06300E+01 0.00000E+00
 -1      2552 5.92719E+01 2.60209E+01 0.00000E+00
 -1      2553 5.87860E+01 2.68365E+01 0.00000E+00
 -1      2554 5.73899E+01 1.38816E+01 0.00000E+00
 -1      2555 5.79618E+01 1.46711E+01 0.00000E+00
 -1      2556 5.95900E+01 1.74602E+01 0.00000E+00
 -1      2557 5.99880E+01 1.85670E+01 0.00000E+00
 -1      2558 5.28667E+01 3.14364E+01 0.00000E+00
 -1      2559 5.17503E+01 3.16120E+01 0.00000E+00
 -1      2560 4.27359E+01 2.88159E+01 0.00000E+00
 -1      2561 4.19997E+01 2.81225E+01 0.00000E+00
 -1      2562 4.03416E+01 2.55300E+01 0.00000E+00
 -1      2563 4.01134E+01 2.44869E+01 0.00000E+00
 -1      2564 6.49500E+00 2.71625E+01 0.00000E+00
 -1      2565 6.49500E+00 2.86375E+01 0.00000E+00
 -1      2566 7.79400E+00 2.93750E+01 0.00000E+00
 -1      2567 7.79400E+00 2.64250E+01 0.00000E+00
 -1      2568 4.68359E+01 1.13805E+01 0.00000E+00
 -1      2569 4.78184E+01 1.12179E+01 0.00000E+00
 -1      2570 5.10148E+01 1.11985E+01 0.00000E+00
 -1      2571 5.18609E+01 1.12368E+01 0.00000E+00
 -1      2572 4.89428E+01 1.10661E+01 0.00000E+00
 -1      2573 5.00017E+01 1.10298E+01 0.00000E+00
 -1      2574 4.46244E+01 1.23388E+01 0.00000E+00
 -1      2575 4.55762E+01 1.17944E+01 0.00000E+00
 -1      2576 4.29734E+01 1.38384E+01 0.00000E+00
 -1      2577 4.36496E+01 1.31385E+01 0.00000E+00
 -1      2578 4.16110E+01 1.53138E+01 0.00000E+00
 -1      2579 4.22922E+01 1.45761E+01 0.00000E+00
 -1      2580 4.20437E+01 1.36594E+01 0.00000E+00
 -1      2581 4.04987E+01 1.73085E+01 0.00000E+00
 -1      2582 4.09075E+01 1.63722E+01 0.00000E+00
 -1      2583 4.00249E+01 1.94235E+01 0.00000E+00
 -1      2584 4.02247E+01 1.84456E+01 0.00000E+00
 -1      2585 3.95556E+01 2.13609E+01 0.00000E+00
 -1      2586 3.97160E+01 2.03989E+01 0.00000E+00
 -1      2587 3.98964E+01 2.35784E+01 0.00000E+00
 -1      2588 3.96795E+01 2.26698E+01 0.00000E+00
 -1      2589 3.92547E+01 2.42653E+01 0.00000E+00
 -1      2590 4.14957E+01 2.74898E+01 0.00000E+00
 -1      2591 4.09918E+01 2.68572E+01 0.00000E+00
 -1      2592 4.12759E+01 2.84608E+01 0.00000E+00
 -1      2593 5.06573E+01 3.17394E+01 0.00000E+00
 -1      2594 4.97382E+01 3.18017E+01 0.00000E+00
 -1      2595 4.65681E+01 3.13760E+01 0.00000E+00
 -1      2596 4.57780E+01 3.11503E+01 0.00000E+00
 -1      2597 5.82592E+01 2.77119E+01 0.00000E+00
 -1      2598 5.77009E+01 2.84809E+01 0.00000E+00
 -1      2599 4.85900E+01 3.16890E+01 0.00000E+00
 -1      2600 4.75791E+01 3.15325E+01 0.00000E+00
 -1      2601 4.69485E+01 3.22442E+01 0.00000E+00
 -1      2602 5.48356E+01 3.09438E+01 0.00000E+00
 -1      2603 5.40200E+01 3.12390E+01 0.00000E+00
 -1      2604 5.68495E+01 2.94276E+01 0.00000E+00
 -1      2605 5.59302E+01 3.01900E+01 0.00000E+00
 -1      2606 5.99314E+01 2.42171E+01 0.00000E+00
 -1      2607 5.96760E+01 2.50300E+01 0.00000E+00
 -1      2608 6.55950E+00 4.28890E+01 0.00000E+00
 -1      2609 8.53650E+00 4.32410E+01 0.00000E+00
 -1      2610 9.28650E+00 4.19420E+01 0.00000E+00
 -1      2611 6.55950E+00 4.14140E+01 0.00000E+00
 -1      2612 8.07525E+00 5.11044E+00 0.00000E+00
 -1      2613 6.57525E+00 5.11044E+00 0.00000E+00
 -1      2614 6.40575E+00 6.01981E+00 0.00000E+00
 -1      2615 8.82525E+00 6.40944E+00 0.00000E+00
 -1      2616 5.56607E+01 1.22590E+01 0.00000E+00
 -1      2617 5.65475E+01 1.29224E+01 0.00000E+00
 -1      2618 4.83184E+01 1.03427E+01 0.00000E+00
 -1      2619 7.79400E+00 3.52687E+01 0.00000E+00
 -1      2620 6.49500E+00 3.60062E+01 0.00000E+00
 -1      2621 6.49500E+00 3.74750E+01 0.00000E+00
 -1      2622 1.45350E+01 6.60425E+00 0.00000E+00
 -1      2623 6.40575E+00 7.49481E+00 0.00000E+00
 -1      2624 5.52574E+01 1.15315E+01 0.00000E+00
 -1      2625 5.62145E+01 1.11765E+01 0.00000E+00
 -1      2626 5.48542E+01 1.08040E+01 0.00000E+00
 -1      2627 5.77887E+01 2.95222E+01 0.00000E+00
 -1      2628 5.26831E+01 1.08437E+01 0.00000E+00
 -1      2629 5.35052E+01 1.04506E+01 0.00000E+00
 -1      2630 5.22912E+01 1.01353E+01 0.00000E+00
 -1      2631 4.91076E+01 3.25134E+01 0.00000E+00
 -1      2632 5.91669E+01 2.77002E+01 0.00000E+00
 -1      2633 6.08553E+01 2.37229E+01 0.00000E+00
 -1      2634 5.35949E+01 3.21740E+01 0.00000E+00
 -1      2635 1.43586E+02 6.56853E+00 0.00000E+00
 -1      2636 1.43419E+02 7.72713E+00 0.00000E+00
 -1      2637 6.00021E+01 1.66450E+01 0.00000E+00
 -1      2638 5.88751E+01 1.46874E+01 0.00000E+00
 -1      2639 1.42758E+02 4.35929E+01 0.00000E+00
 -1      2640 1.43241E+02 4.17323E+01 0.00000E+00
 -1      2641 1.41942E+02 4.09948E+01 0.00000E+00
 -1      2642 1.41414E+02 4.35342E+01 0.00000E+00
 -1      2643 3.89138E+01 2.20478E+01 0.00000E+00
 -1      2644 6.13057E+01 2.13309E+01 0.00000E+00
 -1      2645 7.70475E+00 8.23231E+00 0.00000E+00
 -1      2646 6.09796E+01 1.88983E+01 0.00000E+00
 -1      2647 3.90988E+01 1.97634E+01 0.00000E+00
 -1      2648 4.06591E+01 1.54555E+01 0.00000E+00
 -1      2649 6.55950E+00 3.99453E+01 0.00000E+00
 -1      2650 5.13487E+01 3.24987E+01 0.00000E+00
 -1      2651 4.36997E+01 1.21220E+01 0.00000E+00
 -1      2652 3.99020E+01 2.74720E+01 0.00000E+00
 -1      2653 4.01218E+01 2.65010E+01 0.00000E+00
 -1      2654 3.92518E+01 2.61448E+01 0.00000E+00
 -1      2655 4.29181E+01 2.97264E+01 0.00000E+00
 -1      2656 5.74601E+01 1.28632E+01 0.00000E+00
 -1      2657 6.00978E+01 2.58338E+01 0.00000E+00
 -1      2658 5.04559E+01 1.03596E+01 0.00000E+00
 -1      2659 4.49969E+01 3.12235E+01 0.00000E+00
 -1      2660 4.42159E+01 3.12968E+01 0.00000E+00
 -1      2661 4.51565E+01 3.21609E+01 0.00000E+00
 -1      2662 4.59343E+01 1.09083E+01 0.00000E+00
 -1      2663 3.96817E+01 1.76510E+01 0.00000E+00
 -1      2664 5.58427E+01 3.12227E+01 0.00000E+00
 -1      2665 1.42120E+02 8.46463E+00 0.00000E+00
 -1      2666 1.40664E+02 4.22352E+01 0.00000E+00
 -1      2667 9.09300E+00 1.98250E+01 0.00000E+00
 -1      2668 9.09300E+00 2.12750E+01 0.00000E+00
 -1      2669 9.09300E+00 2.27500E+01 0.00000E+00
 -1      2670 9.09300E+00 2.42250E+01 0.00000E+00
 -1      2671 1.03920E+01 2.20250E+01 0.00000E+00
 -1      2672 9.09300E+00 1.39375E+01 0.00000E+00
 -1      2673 9.09300E+00 1.54125E+01 0.00000E+00
 -1      2674 9.09300E+00 1.09875E+01 0.00000E+00
 -1      2675 9.09300E+00 1.24625E+01 0.00000E+00
 -1      2676 1.03920E+01 1.32000E+01 0.00000E+00
 -1      2677 1.22850E+01 7.90325E+00 0.00000E+00
 -1      2678 1.07850E+01 7.90325E+00 0.00000E+00
 -1      2679 6.17313E+01 1.79668E+01 0.00000E+00
 -1      2680 6.21543E+01 1.91275E+01 0.00000E+00
 -1      2681 1.52850E+01 7.90325E+00 0.00000E+00
 -1      2682 1.37850E+01 7.90325E+00 0.00000E+00
 -1      2683 1.30350E+01 9.20225E+00 0.00000E+00
 -1      2684 8.91450E+00 8.42712E+00 0.00000E+00
 -1      2685 5.89143E+01 2.96784E+01 0.00000E+00
 -1      2686 5.80628E+01 3.06251E+01 0.00000E+00
 -1      2687 1.44000E+01 4.09070E+01 0.00000E+00
 -1      2688 1.59000E+01 4.09070E+01 0.00000E+00
 -1      2689 1.74000E+01 4.09070E+01 0.00000E+00
 -1      2690 1.89000E+01 4.09070E+01 0.00000E+00
 -1      2691 1.66500E+01 3.96080E+01 0.00000E+00
 -1      2692 2.04000E+01 4.09070E+01 0.00000E+00
 -1      2693 2.19000E+01 4.09070E+01 0.00000E+00
 -1      2694 1.96500E+01 3.96080E+01 0.00000E+00
 -1      2695 2.34000E+01 4.09070E+01 0.00000E+00
 -1      2696 2.49000E+01 4.09070E+01 0.00000E+00
 -1      2697 2.26500E+01 3.96080E+01 0.00000E+00
 -1      2698 2.64000E+01 4.09070E+01 0.00000E+00
 -1      2699 2.79000E+01 4.09070E+01 0.00000E+00
 -1      2700 2.56500E+01 3.96080E+01 0.00000E+00
 -1      2701 2.94000E+01 4.09070E+01 0.00000E+00
 -1      2702 3.09000E+01 4.09070E+01 0.00000E+00
 -1      2703 2.86500E+01 3.96080E+01 0.00000E+00
 -1      2704 3.24000E+01 4.09070E+01 0.00000E+00
 -1      2705 3.39000E+01 4.09070E+01 0.00000E+00
 -1      2706 3.16500E+01 3.96080E+01 0.00000E+00
 -1      2707 3.54000E+01 4.09070E+01 0.00000E+00
 -1      2708 3.69000E+01 4.09070E+01 0.00000E+00
 -1      2709 3.46500E+01 3.96080E+01 0.00000E+00
 -1      2710 3.84000E+01 4.09070E+01 0.00000E+00
 -1      2711 3.99000E+01 4.09070E+01 0.00000E+00
 -1      2712 3.76500E+01 3.96080E+01 0.00000E+00
 -1      2713 4.14000E+01 4.09070E+01 0.00000E+00
 -1      2714 4.29000E+01 4.09070E+01 0.00000E+00
 -1      2715 4.06500E+01 3.96080E+01 0.00000E+00
 -1      2716 4.44000E+01 4.09070E+01 0.00000E+00
 -1      2717 4.59000E+01 4.09070E+01 0.00000E+00
 -1      2718 4.36500E+01 3.96080E+01 0.00000E+00
 -1      2719 4.74000E+01 4.09070E+01 0.00000E+00
 -1      2720 4.89000E+01 4.09070E+01 0.00000E+00
 -1      2721 4.66500E+01 3.96080E+01 0.00000E+00
 -1      2722 5.04000E+01 4.09070E+01 0.00000E+00
 -1      2723 5.19000E+01 4.09070E+01 0.00000E+00
 -1      2724 4.96500E+01 3.96080E+01 0.00000E+00
 -1      2725 5.34000E+01 4.09070E+01 0.00000E+00
 -1      2726 5.49000E+01 4.09070E+01 0.00000E+00
 -1      2727 5.26500E+01 3.96080E+01 0.00000E+00
 -1      2728 5.64000E+01 4.09070E+01 0.00000E+00
 -1      2729 5.79000E+01 4.09070E+01 0.00000E+00
 -1      2730 5.56500E+01 3.96080E+01 0.00000E+00
 -1      2731 5.94000E+01 4.09070E+01 0.00000E+00
 -1      2732 6.09000E+01 4.09070E+01 0.00000E+00
 -1      2733 5.86500E+01 3.96080E+01 0.00000E+00
 -1      2734 6.24000E+01 4.09070E+01 0.00000E+00
 -1      2735 6.39000E+01 4.09070E+01 0.00000E+00
 -1      2736 6.16500E+01 3.96080E+01 0.00000E+00
 -1      2737 6.54000E+01 4.09070E+01 0.00000E+00
 -1      2738 6.69000E+01 4.09070E+01 0.00000E+00
 -1      2739 6.46500E+01 3.96080E+01 0.00000E+00
 -1      2740 6.84000E+01 4.09070E+01 0.00000E+00
 -1      2741 6.99000E+01 4.09070E+01 0.00000E+00
 -1      2742 6.76500E+01 3.96080E+01 0.00000E+00
 -1      2743 7.14000E+01 4.09070E+01 0.00000E+00
 -1      2744 7.29000E+01 4.09070E+01 0.00000E+00
 -1      2745 7.06500E+01 3.96080E+01 0.00000E+00
 -1      2746 7.44000E+01 4.09070E+01 0.00000E+00
 -1      2747 7.59000E+01 4.09070E+01 0.00000E+00
 -1      2748 7.36500E+01 3.96080E+01 0.00000E+00
 -1      2749 7.74000E+01 4.09070E+01 0.00000E+00
 -1      2750 7.89000E+01 4.09070E+01 0.00000E+00
 -1      2751 7.66500E+01 3.96080E+01 0.00000E+00
 -1      2752 8.04000E+01 4.09070E+01 0.00000E+00
 -1      2753 8.19000E+01 4.09070E+01 0.00000E+00
 -1      2754 7.96500E+01 3.96080E+01 0.00000E+00
 -1      2755 8.34000E+01 4.09070E+01 0.00000E+00
 -1      2756 8.49000E+01 4.09070E+01 0.00000E+00
 -1      2757 8.26500E+01 3.96080E+01 0.00000E+00
 -1      2758 8.64000E+01 4.09070E+01 0.00000E+00
 -1      2759 8.79000E+01 4.09070E+01 0.00000E+00
 -1      2760 8.56500E+01 3.96080E+01 0.00000E+00
 -1      2761 8.94000E+01 4.09070E+01 0.00000E+00
 -1      2762 9.09000E+01 4.09070E+01 0.00000E+00
 -1      2763 8.86500E+01 3.96080E+01 0.00000E+00
 -1      2764 9.24000E+01 4.09070E+01 0.00000E+00
 -1      2765 9.39000E+01 4.09070E+01 0.00000E+00
 -1      2766 9.16500E+01 3.96080E+01 0.00000E+00
 -1      2767 9.54000E+01 4.09070E+01 0.00000E+00
 -1      2768 9.69000E+01 4.09070E+01 0.00000E+00
 -1      2769 9.46500E+01 3.96080E+01 0.00000E+00
 -1      2770 9.84000E+01 4.09070E+01 0.00000E+00
 -1      2771 9.99000E+01 4.09070E+01 0.00000E+00
 -1      2772 9.76500E+01 3.96080E+01 0.00000E+00
 -1      2773 1.01400E+02 4.09070E+01 0.00000E+00
 -1      2774 1.02900E+02 4.09070E+01 0.00000E+00
 -1      2775 1.00650E+02 3.96080E+01 0.00000E+00
 -1      2776 1.04400E+02 4.09070E+01 0.00000E+00
 -1      2777 1.05900E+02 4.09070E+01 0.00000E+00
 -1      2778 1.03650E+02 3.96080E+01 0.00000E+00
 -1      2779 1.07400E+02 4.09070E+01 0.00000E+00
 -1      2780 1.08900E+02 4.09070E+01 0.00000E+00
 -1      2781 1.06650E+02 3.96080E+01 0.00000E+00
 -1      2782 1.10400E+02 4.09070E+01 0.00000E+00
 -1      2783 1.11900E+02 4.09070E+01 0.00000E+00
 -1      2784 1.09650E+02 3.96080E+01 0.00000E+00
 -1      2785 1.13400E+02 4.09070E+01 0.00000E+00
 -1      2786 1.14900E+02 4.09070E+01 0.00000E+00
 -1      2787 1.12650E+02 3.96080E+01 0.00000E+00
 -1      2788 1.16400E+02 4.09070E+01 0.00000E+00
 -1      2789 1.17900E+02 4.09070E+01 0.00000E+00
 -1      2790 1.15650E+02 3.96080E+01 0.00000E+00
 -1      2791 1.19400E+02 4.09070E+01 0.00000E+00
 -1      2792 1.20900E+02 4.09070E+01 0.00000E+00
 -1      2793 1.18650E+02 3.96080E+01 0.00000E+00
 -1      2794 1.22400E+02 4.09070E+01 0.00000E+00
 -1      2795 1.23900E+02 4.09070E+01 0.00000E+00
 -1      2796 1.21650E+02 3.96080E+01 0.00000E+00
 -1      2797 1.25400E+02 4.09070E+01 0.00000E+00
 -1      2798 1.26900E+02 4.09070E+01 0.00000E+00
 -1      2799 1.24650E+02 3.96080E+01 0.00000E+00
 -1      2800 1.28400E+02 4.09070E+01 0.00000E+00
 -1      2801 1.29900E+02 4.09070E+01 0.00000E+00
 -1      2802 1.27650E+02 3.96080E+01 0.00000E+00
 -1      2803 1.31400E+02 4.09070E+01 0.00000E+00
 -1      2804 1.32900E+02 4.09070E+01 0.00000E+00
 -1      2805 1.30650E+02 3.96080E+01 0.00000E+00
 -1      2806 1.34400E+02 4.09070E+01 0.00000E+00
 -1      2807 1.35900E+02 4.09070E+01 0.00000E+00
 -1      2808 1.33650E+02 3.96080E+01 0.00000E+00
 -1      2809 1.37400E+02 4.09070E+01 0.00000E+00
 -1      2810 1.38900E+02 4.09070E+01 0.00000E+00
 -1      2811 1.36650E+02 3.96080E+01 0.00000E+00
 -1      2812 2.42850E+01 7.90325E+00 0.00000E+00
 -1      2813 2.27850E+01 7.90325E+00 0.00000E+00
 -1      2814 3.81221E+01 2.27831E+01 0.00000E+00
 -1      2815 3.79981E+01 2.14742E+01 0.00000E+00
 -1      2816 2.12850E+01 7.90325E+00 0.00000E+00
 -1      2817 1.97850E+01 7.90325E+00 0.00000E+00
 -1      2818 2.20350E+01 9.20225E+00 0.00000E+00
 -1      2819 3.02850E+01 7.90325E+00 0.00000E+00
 -1      2820 2.87850E+01 7.90325E+00 0.00000E+00
 -1      2821 3.32850E+01 7.90325E+00 0.00000E+00
 -1      2822 3.17850E+01 7.90325E+00 0.00000E+00
 -1      2823 3.10350E+01 9.20225E+00 0.00000E+00
 -1      2824 3.62850E+01 7.90325E+00 0.00000E+00
 -1      2825 3.47850E+01 7.90325E+00 0.00000E+00
 -1      2826 3.40350E+01 9.20225E+00 0.00000E+00
 -1      2827 3.92850E+01 7.90325E+00 0.00000E+00
 -1      2828 3.77850E+01 7.90325E+00 0.00000E+00
 -1      2829 3.70350E+01 9.20225E+00 0.00000E+00
 -1      2830 4.22850E+01 7.90325E+00 0.00000E+00
 -1      2831 4.07850E+01 7.90325E+00 0.00000E+00
 -1      2832 4.00350E+01 9.20225E+00 0.00000E+00
 -1      2833 4.53548E+01 8.96322E+00 0.00000E+00
 -1      2834 4.38548E+01 8.96322E+00 0.00000E+00
 -1      2835 5.40742E+01 8.17322E+00 0.00000E+00
 -1      2836 5.25742E+01 8.17322E+00 0.00000E+00
 -1      2837 5.69231E+01 8.52664E+00 0.00000E+00
 -1      2838 5.54231E+01 8.52664E+00 0.00000E+00
 -1      2839 6.32850E+01 7.90325E+00 0.00000E+00
 -1      2840 6.17850E+01 7.90325E+00 0.00000E+00
 -1      2841 6.62850E+01 7.90325E+00 0.00000E+00
 -1      2842 6.47850E+01 7.90325E+00 0.00000E+00
 -1      2843 6.40350E+01 9.20225E+00 0.00000E+00
 -1      2844 6.92850E+01 7.90325E+00 0.00000E+00
 -1      2845 6.77850E+01 7.90325E+00 0.00000E+00
 -1      2846 6.70350E+01 9.20225E+00 0.00000E+00
 -1      2847 7.22850E+01 7.90325E+00 0.00000E+00
 -1      2848 7.07850E+01 7.90325E+00 0.00000E+00
 -1      2849 7.00350E+01 9.20225E+00 0.00000E+00
 -1      2850 7.52850E+01 7.90325E+00 0.00000E+00
 -1      2851 7.37850E+01 7.90325E+00 0.00000E+00
 -1      2852 7.30350E+01 9.20225E+00 0.00000E+00
 -1      2853 7.82850E+01 7.90325E+00 0.00000E+00
 -1      2854 7.67850E+01 7.90325E+00 0.00000E+00
 -1      2855 7.60350E+01 9.20225E+00 0.00000E+00
 -1      2856 8.12850E+01 7.90325E+00 0.00000E+00
 -1      2857 7.97850E+01 7.90325E+00 0.00000E+00
 -1      2858 7.90350E+01 9.20225E+00 0.00000E+00
 -1      2859 8.42850E+01 7.90325E+00 0.00000E+00
 -1      2860 8.27850E+01 7.90325E+00 0.00000E+00
 -1      2861 8.20350E+01 9.20225E+00 0.00000E+00
 -1      2862 8.72850E+01 7.90325E+00 0.00000E+00
 -1      2863 8.57850E+01 7.90325E+00 0.00000E+00
 -1      2864 8.50350E+01 9.20225E+00 0.00000E+00
 -1      2865 9.02850E+01 7.90325E+00 0.00000E+00
 -1      2866 8.87850E+01 7.90325E+00 0.00000E+00
 -1      2867 8.80350E+01 9.20225E+00 0.00000E+00
 -1      2868 9.32850E+01 7.90325E+00 0.00000E+00
 -1      2869 9.17850E+01 7.90325E+00 0.00000E+00
 -1      2870 9.10350E+01 9.20225E+00 0.00000E+00
 -1      2871 9.62850E+01 7.90325E+00 0.00000E+00
 -1      2872 9.47850E+01 7.90325E+00 0.00000E+00
 -1      2873 9.40350E+01 9.20225E+00 0.00000E+00
 -1      2874 9.92850E+01 7.90325E+00 0.00000E+00
 -1      2875 9.77850E+01 7.90325E+00 0.00000E+00
 -1      2876 9.70350E+01 9.20225E+00 0.00000E+00
 -1      2877 1.02285E+02 7.90325E+00 0.00000E+00
 -1      2878 1.00785E+02 7.90325E+00 0.00000E+00
 -1      2879 1.00035E+02 9.20225E+00 0.00000E+00
 -1      2880 1.05285E+02 7.90325E+00 0.00000E+00
 -1      2881 1.03785E+02 7.90325E+00 0.00000E+00
 -1      2882 1.03035E+02 9.20225E+00 0.00000E+00
 -1      2883 1.08285E+02 7.90325E+00 0.00000E+00
 -1      2884 1.06785E+02 7.90325E+00 0.00000E+00
 -1      2885 1.06035E+02 9.20225E+00 0.00000E+00
 -1      2886 1.11285E+02 7.90325E+00 0.00000E+00
 -1      2887 1.09785E+02 7.90325E+00 0.00000E+00
 -1      2888 1.09035E+02 9.20225E+00 0.00000E+00
 -1      2889 1.14285E+02 7.90325E+00 0.00000E+00
 -1      2890 1.12785E+02 7.90325E+00 0.00000E+00
 -1      2891 1.12035E+02 9.20225E+00 0.00000E+00
 -1      2892 1.17285E+02 7.90325E+00 0.00000E+00
 -1      2893 1.15785E+02 7.90325E+00 0.00000E+00
 -1      2894 1.15035E+02 9.20225E+00 0.00000E+00
 -1      2895 1.20285E+02 7.90325E+00 0.00000E+00
 -1      2896 1.18785E+02 7.90325E+00 0.00000E+00
 -1      2897 1.18035E+02 9.20225E+00 0.00000E+00
 -1      2898 1.23285E+02 7.90325E+00 0.00000E+00
 -1      2899 1.21785E+02 7.90325E+00 0.00000E+00
 -1      2900 1.21035E+02 9.20225E+00 0.00000E+00
 -1      2901 1.26285E+02 7.90325E+00 0.00000E+00
 -1      2902 1.24785E+02 7.90325E+00 0.00000E+00
 -1      2903 1.24035E+02 9.20225E+00 0.00000E+00
 -1      2904 1.29285E+02 7.90325E+00 0.00000E+00
 -1      2905 1.27785E+02 7.90325E+00 0.00000E+00
 -1      2906 1.27035E+02 9.20225E+00 0.00000E+00
 -1      2907 1.32285E+02 7.90325E+00 0.00000E+00
 -1      2908 1.30785E+02 7.90325E+00 0.00000E+00
 -1      2909 1.30035E+02 9.20225E+00 0.00000E+00
 -1      2910 1.35285E+02 7.90325E+00 0.00000E+00
 -1      2911 1.33785E+02 7.90325E+00 0.00000E+00
 -1      2912 1.33035E+02 9.20225E+00 0.00000E+00
 -1      2913 1.38285E+02 7.90325E+00 0.00000E+00
 -1      2914 1.36785E+02 7.90325E+00 0.00000E+00
 -1      2915 1.36035E+02 9.20225E+00 0.00000E+00
 -1      2916 1.40953E+02 8.18394E+00 0.00000E+00
 -1      2917 1.39453E+02 8.18394E+00 0.00000E+00
 -1      2918 1.38703E+02 9.48294E+00 0.00000E+00
 -1      2919 1.41038E+02 1.00443E+01 0.00000E+00
 -1      2920 1.40907E+02 2.42875E+01 0.00000E+00
 -1      2921 1.40907E+02 2.28125E+01 0.00000E+00
 -1      2922 1.39914E+02 4.09362E+01 0.00000E+00
 -1      2923 1.40928E+02 4.09655E+01 0.00000E+00
 -1      2924 1.39164E+02 3.96372E+01 0.00000E+00
 -1      2925 1.40907E+02 1.83875E+01 0.00000E+00
 -1      2926 1.40907E+02 1.69125E+01 0.00000E+00
 -1      2927 1.40907E+02 2.72375E+01 0.00000E+00
 -1      2928 1.40907E+02 2.57625E+01 0.00000E+00
 -1      2929 1.39608E+02 2.50250E+01 0.00000E+00
 -1      2930 1.40907E+02 2.13375E+01 0.00000E+00
 -1      2931 1.40907E+02 1.98625E+01 0.00000E+00
 -1      2932 1.39608E+02 1.91250E+01 0.00000E+00
 -1      2933 1.39608E+02 2.20750E+01 0.00000E+00
 -1      2934 1.82850E+01 7.90325E+00 0.00000E+00
 -1      2935 1.67850E+01 7.90325E+00 0.00000E+00
 -1      2936 1.60350E+01 9.20225E+00 0.00000E+00
 -1      2937 1.90350E+01 9.20225E+00 0.00000E+00
 -1      2938 3.83661E+01 2.49577E+01 0.00000E+00
 -1      2939 3.81491E+01 2.40491E+01 0.00000E+00
 -1      2940 1.40907E+02 3.01375E+01 0.00000E+00
 -1      2941 1.40907E+02 2.86875E+01 0.00000E+00
 -1      2942 1.39608E+02 2.79500E+01 0.00000E+00
 -1      2943 1.40907E+02 3.30875E+01 0.00000E+00
 -1      2944 1.40907E+02 3.16125E+01 0.00000E+00
 -1      2945 1.39608E+02 3.08750E+01 0.00000E+00
 -1      2946 1.40907E+02 3.60375E+01 0.00000E+00
 -1      2947 1.40907E+02 3.45625E+01 0.00000E+00
 -1      2948 1.39608E+02 3.38250E+01 0.00000E+00
 -1      2949 6.17699E+01 2.33957E+01 0.00000E+00
 -1      2950 6.14166E+01 2.45157E+01 0.00000E+00
 -1      2951 1.41192E+02 3.96958E+01 0.00000E+00
 -1      2952 5.43445E+01 3.30857E+01 0.00000E+00
 -1      2953 5.31913E+01 3.32831E+01 0.00000E+00
 -1      2954 3.82067E+01 2.00175E+01 0.00000E+00
 -1      2955 3.85156E+01 1.90421E+01 0.00000E+00
 -1      2956 7.85850E+00 3.92077E+01 0.00000E+00
 -1      2957 6.01651E+01 2.77046E+01 0.00000E+00
 -1      2958 5.96383E+01 2.85800E+01 0.00000E+00
 -1      2959 4.30297E+01 3.08656E+01 0.00000E+00
 -1      2960 4.18915E+01 3.02327E+01 0.00000E+00
 -1      2961 6.06224E+01 1.57817E+01 0.00000E+00
 -1      2962 6.11768E+01 1.68743E+01 0.00000E+00
 -1      2963 6.23515E+01 1.71035E+01 0.00000E+00
 -1      2964 5.93737E+01 1.37353E+01 0.00000E+00
 -1      2965 5.99463E+01 1.46003E+01 0.00000E+00
 -1      2966 2.72850E+01 7.90325E+00 0.00000E+00
 -1      2967 2.57850E+01 7.90325E+00 0.00000E+00
 -1      2968 2.50350E+01 9.20225E+00 0.00000E+00
 -1      2969 2.80350E+01 9.20225E+00 0.00000E+00
 -1      2970 1.14000E+01 4.09070E+01 0.00000E+00
 -1      2971 1.29000E+01 4.09070E+01 0.00000E+00
 -1      2972 1.36500E+01 3.96080E+01 0.00000E+00
 -1      2973 5.20983E+01 3.34105E+01 0.00000E+00
 -1      2974 5.10053E+01 3.35379E+01 0.00000E+00
 -1      2975 5.28479E+01 3.43222E+01 0.00000E+00
 -1      2976 9.09300E+00 1.68813E+01 0.00000E+00
 -1      2977 9.09300E+00 1.83563E+01 0.00000E+00
 -1      2978 1.03920E+01 1.90812E+01 0.00000E+00
 -1      2979 1.03920E+01 1.61437E+01 0.00000E+00
 -1      2980 4.95979E+01 3.34232E+01 0.00000E+00
 -1      2981 4.84498E+01 3.33106E+01 0.00000E+00
 -1      2982 5.78092E+01 1.17071E+01 0.00000E+00
 -1      2983 5.86516E+01 1.26663E+01 0.00000E+00
 -1      2984 4.10731E+01 1.34465E+01 0.00000E+00
 -1      2985 4.17543E+01 1.27088E+01 0.00000E+00
 -1      2986 5.69239E+01 3.16210E+01 0.00000E+00
 -1      2987 5.58294E+01 3.23749E+01 0.00000E+00
 -1      2988 3.95931E+01 1.55101E+01 0.00000E+00
 -1      2989 4.02966E+01 1.44516E+01 0.00000E+00
 -1      2990 6.24599E+01 2.07793E+01 0.00000E+00
 -1      2991 6.23629E+01 2.20513E+01 0.00000E+00
 -1      2992 4.06605E+01 2.94680E+01 0.00000E+00
 -1      2993 4.01566E+01 2.88353E+01 0.00000E+00
 -1      2994 4.21300E+01 1.10620E+01 0.00000E+00
 -1      2995 4.31048E+01 1.02622E+01 0.00000E+00
 -1      2996 9.09300E+00 3.15875E+01 0.00000E+00
 -1      2997 9.09300E+00 3.30625E+01 0.00000E+00
 -1      2998 3.87896E+01 1.79051E+01 0.00000E+00
 -1      2999 3.90635E+01 1.67680E+01 0.00000E+00
 -1      3000 3.78974E+01 1.81592E+01 0.00000E+00
 -1      3001 4.73100E+01 3.32527E+01 0.00000E+00
 -1      3002 4.62990E+01 3.30962E+01 0.00000E+00
 -1      3003 6.10552E+01 2.56464E+01 0.00000E+00
 -1      3004 6.06510E+01 2.66373E+01 0.00000E+00
 -1      3005 5.01040E+01 9.34672E+00 0.00000E+00
 -1      3006 5.11171E+01 9.51547E+00 0.00000E+00
 -1      3007 4.76190E+01 9.40270E+00 0.00000E+00
 -1      3008 4.87434E+01 9.25089E+00 0.00000E+00
 -1      3009 9.09300E+00 3.45313E+01 0.00000E+00
 -1      3010 9.09300E+00 3.60000E+01 0.00000E+00
 -1      3011 1.03920E+01 3.37938E+01 0.00000E+00
 -1      3012 1.03920E+01 2.49750E+01 0.00000E+00
 -1      3013 9.09300E+00 2.57000E+01 0.00000E+00
 -1      3014 9.09300E+00 2.71750E+01 0.00000E+00
 -1      3015 9.66450E+00 9.72612E+00 0.00000E+00
 -1      3016 6.32115E+01 1.98479E+01 0.00000E+00
 -1      3017 5.44623E+01 1.00956E+01 0.00000E+00
 -1      3018 5.19393E+01 9.12236E+00 0.00000E+00
 -1      3019 5.03475E+01 3.43350E+01 0.00000E+00
 -1      3020 5.99125E+01 2.96829E+01 0.00000E+00
 -1      3021 4.78003E+01 3.41625E+01 0.00000E+00
 -1      3022 4.94047E+01 8.40671E+00 0.00000E+00
 -1      3023 6.19698E+01 2.53192E+01 0.00000E+00
 -1      3024 1.39608E+02 1.61875E+01 0.00000E+00
 -1      3025 1.40907E+02 1.54500E+01 0.00000E+00
 -1      3026 1.40907E+02 1.39875E+01 0.00000E+00
 -1      3027 3.66232E+01 2.14881E+01 0.00000E+00
 -1      3028 3.74149E+01 2.07528E+01 0.00000E+00
 -1      3029 3.68317E+01 2.00315E+01 0.00000E+00
 -1      3030 3.72334E+01 2.34755E+01 0.00000E+00
 -1      3031 4.66145E+01 8.54938E+00 0.00000E+00
 -1      3032 4.85395E+01 7.45757E+00 0.00000E+00
 -1      3033 4.70395E+01 7.45757E+00 0.00000E+00
 -1      3034 5.14001E+01 7.55340E+00 0.00000E+00
 -1      3035 4.99001E+01 7.55340E+00 0.00000E+00
 -1      3036 6.07678E+01 1.03563E+01 0.00000E+00
 -1      3037 6.00178E+01 9.05728E+00 0.00000E+00
 -1      3038 5.85178E+01 9.05728E+00 0.00000E+00
 -1      3039 1.40973E+02 1.27472E+01 0.00000E+00
 -1      3040 1.40973E+02 1.12847E+01 0.00000E+00
 -1      3041 1.39805E+02 1.10040E+01 0.00000E+00
 -1      3042 1.39674E+02 1.34847E+01 0.00000E+00
 -1      3043 6.29241E+01 2.28441E+01 0.00000E+00
 -1      3044 1.41192E+02 3.82207E+01 0.00000E+00
 -1      3045 4.07721E+01 3.06072E+01 0.00000E+00
 -1      3046 3.87010E+01 1.57641E+01 0.00000E+00
 -1      3047 5.80495E+01 3.17773E+01 0.00000E+00
 -1      3048 6.11210E+01 1.48296E+01 0.00000E+00
 -1      3049 4.31893E+01 3.18030E+01 0.00000E+00
 -1      3050 5.54257E+01 3.34840E+01 0.00000E+00
 -1      3051 4.58794E+01 3.41780E+01 0.00000E+00
 -1      3052 4.55179E+01 3.31695E+01 0.00000E+00
 -1      3053 4.47368E+01 3.32427E+01 0.00000E+00
 -1      3054 9.15750E+00 3.77359E+01 0.00000E+00
 -1      3055 9.22200E+00 4.02061E+01 0.00000E+00
 -1      3056 1.05855E+01 4.04701E+01 0.00000E+00
 -1      3057 1.04565E+01 3.69984E+01 0.00000E+00
 -1      3058 6.11224E+01 2.75172E+01 0.00000E+00
 -1      3059 3.92866E+01 2.84792E+01 0.00000E+00
 -1      3060 1.09635E+01 1.04636E+01 0.00000E+00
 -1      3061 9.09300E+00 2.86437E+01 0.00000E+00
 -1      3062 9.09300E+00 3.01187E+01 0.00000E+00
 -1      3063 1.03920E+01 3.08563E+01 0.00000E+00
 -1      3064 1.03920E+01 2.79188E+01 0.00000E+00
 -1      3065 5.97228E+01 1.25792E+01 0.00000E+00
 -1      3066 4.00072E+01 1.35010E+01 0.00000E+00
 -1      3067 1.13355E+01 3.91711E+01 0.00000E+00
 -1      3068 3.81462E+01 2.59286E+01 0.00000E+00
 -1      3069 1.39529E+02 3.85602E+01 0.00000E+00
 -1      3070 1.40542E+02 3.71145E+01 0.00000E+00
 -1      3071 1.39243E+02 3.63770E+01 0.00000E+00
 -1      3072 1.38514E+02 3.85310E+01 0.00000E+00
 -1      3073 6.41491E+01 1.88203E+01 0.00000E+00
 -1      3074 6.44547E+01 2.04720E+01 0.00000E+00
 -1      3075 1.16910E+01 1.24625E+01 0.00000E+00
 -1      3076 1.16910E+01 1.39375E+01 0.00000E+00
 -1      3077 1.29000E+01 3.83090E+01 0.00000E+00
 -1      3078 1.44000E+01 3.83090E+01 0.00000E+00
 -1      3079 3.88740E+01 1.34281E+01 0.00000E+00
 -1      3080 3.96505E+01 1.24229E+01 0.00000E+00
 -1      3081 1.89000E+01 3.83090E+01 0.00000E+00
 -1      3082 2.04000E+01 3.83090E+01 0.00000E+00
 -1      3083 2.19000E+01 3.83090E+01 0.00000E+00
 -1      3084 2.34000E+01 3.83090E+01 0.00000E+00
 -1      3085 2.11500E+01 3.70100E+01 0.00000E+00
 -1      3086 2.49000E+01 3.83090E+01 0.00000E+00
 -1      3087 2.64000E+01 3.83090E+01 0.00000E+00
 -1      3088 2.41500E+01 3.70100E+01 0.00000E+00
 -1      3089 2.79000E+01 3.83090E+01 0.00000E+00
 -1      3090 2.94000E+01 3.83090E+01 0.00000E+00
 -1      3091 2.71500E+01 3.70100E+01 0.00000E+00
 -1      3092 3.09000E+01 3.83090E+01 0.00000E+00
 -1      3093 3.24000E+01 3.83090E+01 0.00000E+00
 -1      3094 3.01500E+01 3.70100E+01 0.00000E+00
 -1      3095 3.39000E+01 3.83090E+01 0.00000E+00
 -1      3096 3.54000E+01 3.83090E+01 0.00000E+00
 -1      3097 3.31500E+01 3.70100E+01 0.00000E+00
 -1      3098 3.69000E+01 3.83090E+01 0.00000E+00
 -1      3099 3.84000E+01 3.83090E+01 0.00000E+00
 -1      3100 3.61500E+01 3.70100E+01 0.00000E+00
 -1      3101 3.99000E+01 3.83090E+01 0.00000E+00
 -1      3102 4.14000E+01 3.83090E+01 0.00000E+00
 -1      3103 3.91500E+01 3.70100E+01 0.00000E+00
 -1      3104 4.29000E+01 3.83090E+01 0.00000E+00
 -1      3105 4.44000E+01 3.83090E+01 0.00000E+00
 -1      3106 4.21500E+01 3.70100E+01 0.00000E+00
 -1      3107 4.59000E+01 3.83090E+01 0.00000E+00
 -1      3108 4.74000E+01 3.83090E+01 0.00000E+00
 -1      3109 4.51500E+01 3.70100E+01 0.00000E+00
 -1      3110 4.89000E+01 3.83090E+01 0.00000E+00
 -1      3111 5.04000E+01 3.83090E+01 0.00000E+00
 -1      3112 4.81500E+01 3.70100E+01 0.00000E+00
 -1      3113 5.49000E+01 3.83090E+01 0.00000E+00
 -1      3114 5.64000E+01 3.83090E+01 0.00000E+00
 -1      3115 5.79000E+01 3.83090E+01 0.00000E+00
 -1      3116 5.94000E+01 3.83090E+01 0.00000E+00
 -1      3117 5.71500E+01 3.70100E+01 0.00000E+00
 -1      3118 6.09000E+01 3.83090E+01 0.00000E+00
 -1      3119 6.24000E+01 3.83090E+01 0.00000E+00
 -1      3120 6.01500E+01 3.70100E+01 0.00000E+00
 -1      3121 6.39000E+01 3.83090E+01 0.00000E+00
 -1      3122 6.54000E+01 3.83090E+01 0.00000E+00
 -1      3123 6.31500E+01 3.70100E+01 0.00000E+00
 -1      3124 6.69000E+01 3.83090E+01 0.00000E+00
 -1      3125 6.84000E+01 3.83090E+01 0.00000E+00
 -1      3126 6.61500E+01 3.70100E+01 0.00000E+00
 -1      3127 6.99000E+01 3.83090E+01 0.00000E+00
 -1      3128 7.14000E+01 3.83090E+01 0.00000E+00
 -1      3129 6.91500E+01 3.70100E+01 0.00000E+00
 -1      3130 7.29000E+01 3.83090E+01 0.00000E+00
 -1      3131 7.44000E+01 3.83090E+01 0.00000E+00
 -1      3132 7.21500E+01 3.70100E+01 0.00000E+00
 -1      3133 7.59000E+01 3.83090E+01 0.00000E+00
 -1      3134 7.74000E+01 3.83090E+01 0.00000E+00
 -1      3135 7.51500E+01 3.70100E+01 0.00000E+00
 -1      3136 7.89000E+01 3.83090E+01 0.00000E+00
 -1      3137 8.04000E+01 3.83090E+01 0.00000E+00
 -1      3138 7.81500E+01 3.70100E+01 0.00000E+00
 -1      3139 8.19000E+01 3.83090E+01 0.00000E+00
 -1      3140 8.34000E+01 3.83090E+01 0.00000E+00
 -1      3141 8.11500E+01 3.70100E+01 0.00000E+00
 -1      3142 8.49000E+01 3.83090E+01 0.00000E+00
 -1      3143 8.64000E+01 3.83090E+01 0.00000E+00
 -1      3144 8.41500E+01 3.70100E+01 0.00000E+00
 -1      3145 8.79000E+01 3.83090E+01 0.00000E+00
 -1      3146 8.94000E+01 3.83090E+01 0.00000E+00
 -1      3147 8.71500E+01 3.70100E+01 0.00000E+00
 -1      3148 9.09000E+01 3.83090E+01 0.00000E+00
 -1      3149 9.24000E+01 3.83090E+01 0.00000E+00
 -1      3150 9.01500E+01 3.70100E+01 0.00000E+00
 -1      3151 9.39000E+01 3.83090E+01 0.00000E+00
 -1      3152 9.54000E+01 3.83090E+01 0.00000E+00
 -1      3153 9.31500E+01 3.70100E+01 0.00000E+00
 -1      3154 9.69000E+01 3.83090E+01 0.00000E+00
 -1      3155 9.84000E+01 3.83090E+01 0.00000E+00
 -1      3156 9.61500E+01 3.70100E+01 0.00000E+00
 -1      3157 9.99000E+01 3.83090E+01 0.00000E+00
 -1      3158 1.01400E+02 3.83090E+01 0.00000E+00
 -1      3159 9.91500E+01 3.70100E+01 0.00000E+00
 -1      3160 1.02900E+02 3.83090E+01 0.00000E+00
 -1      3161 1.04400E+02 3.83090E+01 0.00000E+00
 -1      3162 1.02150E+02 3.70100E+01 0.00000E+00
 -1      3163 1.05900E+02 3.83090E+01 0.00000E+00
 -1      3164 1.07400E+02 3.83090E+01 0.00000E+00
 -1      3165 1.05150E+02 3.70100E+01 0.00000E+00
 -1      3166 1.08900E+02 3.83090E+01 0.00000E+00
 -1      3167 1.10400E+02 3.83090E+01 0.00000E+00
 -1      3168 1.08150E+02 3.70100E+01 0.00000E+00
 -1      3169 1.11900E+02 3.83090E+01 0.00000E+00
 -1      3170 1.13400E+02 3.83090E+01 0.00000E+00
 -1      3171 1.11150E+02 3.70100E+01 0.00000E+00
 -1      3172 1.14900E+02 3.83090E+01 0.00000E+00
 -1      3173 1.16400E+02 3.83090E+01 0.00000E+00
 -1      3174 1.14150E+02 3.70100E+01 0.00000E+00
 -1      3175 1.17900E+02 3.83090E+01 0.00000E+00
 -1      3176 1.19400E+02 3.83090E+01 0.00000E+00
 -1      3177 1.17150E+02 3.70100E+01 0.00000E+00
 -1      3178 1.20900E+02 3.83090E+01 0.00000E+00
 -1      3179 1.22400E+02 3.83090E+01 0.00000E+00
 -1      3180 1.20150E+02 3.70100E+01 0.00000E+00
 -1      3181 1.23900E+02 3.83090E+01 0.00000E+00
 -1      3182 1.25400E+02 3.83090E+01 0.00000E+00
 -1      3183 1.23150E+02 3.70100E+01 0.00000E+00
 -1      3184 1.26900E+02 3.83090E+01 0.00000E+00
 -1      3185 1.28400E+02 3.83090E+01 0.00000E+00
 -1      3186 1.26150E+02 3.70100E+01 0.00000E+00
 -1      3187 1.29900E+02 3.83090E+01 0.00000E+00
 -1      3188 1.31400E+02 3.83090E+01 0.00000E+00
 -1      3189 1.29150E+02 3.70100E+01 0.00000E+00
 -1      3190 1.32900E+02 3.83090E+01 0.00000E+00
 -1      3191 1.34400E+02 3.83090E+01 0.00000E+00
 -1      3192 1.32150E+02 3.70100E+01 0.00000E+00
 -1      3193 1.35707E+02 3.84200E+01 0.00000E+00
 -1      3194 1.37207E+02 3.84200E+01 0.00000E+00
 -1      3195 1.37572E+02 3.73430E+01 0.00000E+00
 -1      3196 1.34957E+02 3.71210E+01 0.00000E+00
 -1      3197 3.77675E+01 2.71353E+01 0.00000E+00
 -1      3198 3.68817E+01 2.59481E+01 0.00000E+00
 -1      3199 3.69268E+01 1.85268E+01 0.00000E+00
 -1      3200 3.72007E+01 1.73898E+01 0.00000E+00
 -1      3201 3.47850E+01 1.05013E+01 0.00000E+00
 -1      3202 3.32850E+01 1.05013E+01 0.00000E+00
 -1      3203 3.17850E+01 1.05013E+01 0.00000E+00
 -1      3204 3.02850E+01 1.05013E+01 0.00000E+00
 -1      3205 3.25350E+01 1.18003E+01 0.00000E+00
 -1      3206 4.00261E+01 1.07761E+01 0.00000E+00
 -1      3207 3.85261E+01 1.07761E+01 0.00000E+00
 -1      3208 6.22984E+01 2.74083E+01 0.00000E+00
 -1      3209 6.18124E+01 2.84756E+01 0.00000E+00
 -1      3210 6.47850E+01 1.05013E+01 0.00000E+00
 -1      3211 6.32850E+01 1.05013E+01 0.00000E+00
 -1      3212 7.37850E+01 1.05013E+01 0.00000E+00
 -1      3213 7.22850E+01 1.05013E+01 0.00000E+00
 -1      3214 7.67850E+01 1.05013E+01 0.00000E+00
 -1      3215 7.52850E+01 1.05013E+01 0.00000E+00
 -1      3216 7.45350E+01 1.18003E+01 0.00000E+00
 -1      3217 7.97850E+01 1.05013E+01 0.00000E+00
 -1      3218 7.82850E+01 1.05013E+01 0.00000E+00
 -1      3219 7.75350E+01 1.18003E+01 0.00000E+00
 -1      3220 8.27850E+01 1.05013E+01 0.00000E+00
 -1      3221 8.12850E+01 1.05013E+01 0.00000E+00
 -1      3222 8.05350E+01 1.18003E+01 0.00000E+00
 -1      3223 8.57850E+01 1.05013E+01 0.00000E+00
 -1      3224 8.42850E+01 1.05013E+01 0.00000E+00
 -1      3225 8.35350E+01 1.18003E+01 0.00000E+00
 -1      3226 8.87850E+01 1.05013E+01 0.00000E+00
 -1      3227 8.72850E+01 1.05013E+01 0.00000E+00
 -1      3228 8.65350E+01 1.18003E+01 0.00000E+00
 -1      3229 9.17850E+01 1.05013E+01 0.00000E+00
 -1      3230 9.02850E+01 1.05013E+01 0.00000E+00
 -1      3231 8.95350E+01 1.18003E+01 0.00000E+00
 -1      3232 9.47850E+01 1.05013E+01 0.00000E+00
 -1      3233 9.32850E+01 1.05013E+01 0.00000E+00
 -1      3234 9.25350E+01 1.18003E+01 0.00000E+00
 -1      3235 9.77850E+01 1.05013E+01 0.00000E+00
 -1      3236 9.62850E+01 1.05013E+01 0.00000E+00
 -1      3237 9.55350E+01 1.18003E+01 0.00000E+00
 -1      3238 1.00785E+02 1.05013E+01 0.00000E+00
 -1      3239 9.92850E+01 1.05013E+01 0.00000E+00
 -1      3240 9.85350E+01 1.18003E+01 0.00000E+00
 -1      3241 1.03785E+02 1.05013E+01 0.00000E+00
 -1      3242 1.02285E+02 1.05013E+01 0.00000E+00
 -1      3243 1.01535E+02 1.18003E+01 0.00000E+00
 -1      3244 1.06785E+02 1.05013E+01 0.00000E+00
 -1      3245 1.05285E+02 1.05013E+01 0.00000E+00
 -1      3246 1.04535E+02 1.18003E+01 0.00000E+00
 -1      3247 1.09785E+02 1.05013E+01 0.00000E+00
 -1      3248 1.08285E+02 1.05013E+01 0.00000E+00
 -1      3249 1.07535E+02 1.18003E+01 0.00000E+00
 -1      3250 1.12785E+02 1.05013E+01 0.00000E+00
 -1      3251 1.11285E+02 1.05013E+01 0.00000E+00
 -1      3252 1.10535E+02 1.18003E+01 0.00000E+00
 -1      3253 1.15785E+02 1.05013E+01 0.00000E+00
 -1      3254 1.14285E+02 1.05013E+01 0.00000E+00
 -1      3255 1.13535E+02 1.18003E+01 0.00000E+00
 -1      3256 1.18785E+02 1.05013E+01 0.00000E+00
 -1      3257 1.17285E+02 1.05013E+01 0.00000E+00
 -1      3258 1.16535E+02 1.18003E+01 0.00000E+00
 -1      3259 1.21785E+02 1.05013E+01 0.00000E+00
 -1      3260 1.20285E+02 1.05013E+01 0.00000E+00
 -1      3261 1.19535E+02 1.18003E+01 0.00000E+00
 -1      3262 1.24785E+02 1.05013E+01 0.00000E+00
 -1      3263 1.23285E+02 1.05013E+01 0.00000E+00
 -1      3264 1.22535E+02 1.18003E+01 0.00000E+00
 -1      3265 1.27785E+02 1.05013E+01 0.00000E+00
 -1      3266 1.26285E+02 1.05013E+01 0.00000E+00
 -1      3267 1.25535E+02 1.18003E+01 0.00000E+00
 -1      3268 1.30785E+02 1.05013E+01 0.00000E+00
 -1      3269 1.29285E+02 1.05013E+01 0.00000E+00
 -1      3270 1.28535E+02 1.18003E+01 0.00000E+00
 -1      3271 1.33785E+02 1.05013E+01 0.00000E+00
 -1      3272 1.32285E+02 1.05013E+01 0.00000E+00
 -1      3273 1.31535E+02 1.18003E+01 0.00000E+00
 -1      3274 1.36785E+02 1.05013E+01 0.00000E+00
 -1      3275 1.35285E+02 1.05013E+01 0.00000E+00
 -1      3276 1.34535E+02 1.18003E+01 0.00000E+00
 -1      3277 1.38879E+02 1.08930E+01 0.00000E+00
 -1      3278 1.37711E+02 1.06123E+01 0.00000E+00
 -1      3279 1.36961E+02 1.19113E+01 0.00000E+00
 -1      3280 1.38813E+02 1.21333E+01 0.00000E+00
 -1      3281 1.16910E+01 2.12875E+01 0.00000E+00
 -1      3282 1.16910E+01 2.27625E+01 0.00000E+00
 -1      3283 1.38309E+02 2.57625E+01 0.00000E+00
 -1      3284 1.38309E+02 2.42875E+01 0.00000E+00
 -1      3285 3.63896E+01 2.41268E+01 0.00000E+00
 -1      3286 3.63625E+01 2.28608E+01 0.00000E+00
 -1      3287 1.38309E+02 3.45625E+01 0.00000E+00
 -1      3288 1.38309E+02 3.30875E+01 0.00000E+00
 -1      3289 4.11593E+01 1.08490E+01 0.00000E+00
 -1      3290 1.38309E+02 2.86625E+01 0.00000E+00
 -1      3291 1.38309E+02 2.72125E+01 0.00000E+00
 -1      3292 1.37010E+02 2.64750E+01 0.00000E+00
 -1      3293 6.40052E+01 2.25179E+01 0.00000E+00
 -1      3294 6.34123E+01 2.38624E+01 0.00000E+00
 -1      3295 6.11304E+01 2.96978E+01 0.00000E+00
 -1      3296 6.04064E+01 3.07962E+01 0.00000E+00
 -1      3297 6.15178E+01 1.16553E+01 0.00000E+00
 -1      3298 1.38309E+02 3.16125E+01 0.00000E+00
 -1      3299 1.38309E+02 3.01375E+01 0.00000E+00
 -1      3300 1.37010E+02 2.94000E+01 0.00000E+00
 -1      3301 1.37010E+02 3.23500E+01 0.00000E+00
 -1      3302 4.08025E+01 3.19315E+01 0.00000E+00
 -1      3303 3.95715E+01 3.11669E+01 0.00000E+00
 -1      3304 7.07850E+01 1.05013E+01 0.00000E+00
 -1      3305 6.92850E+01 1.05013E+01 0.00000E+00
 -1      3306 7.15350E+01 1.18003E+01 0.00000E+00
 -1      3307 6.77850E+01 1.05013E+01 0.00000E+00
 -1      3308 6.62850E+01 1.05013E+01 0.00000E+00
 -1      3309 6.55350E+01 1.18003E+01 0.00000E+00
 -1      3310 6.85350E+01 1.18003E+01 0.00000E+00
 -1      3311 3.76458E+01 1.60604E+01 0.00000E+00
 -1      3312 3.81755E+01 1.48024E+01 0.00000E+00
 -1      3313 4.77950E+01 3.56152E+01 0.00000E+00
 -1      3314 4.66552E+01 3.55574E+01 0.00000E+00
 -1      3315 6.29137E+01 1.61313E+01 0.00000E+00
 -1      3316 6.34682E+01 1.72238E+01 0.00000E+00
 -1      3317 3.74056E+01 1.06387E+01 0.00000E+00
 -1      3318 3.59056E+01 1.06387E+01 0.00000E+00
 -1      3319 3.51556E+01 1.19377E+01 0.00000E+00
 -1      3320 3.73967E+01 1.22126E+01 0.00000E+00
 -1      3321 2.27850E+01 1.05013E+01 0.00000E+00
 -1      3322 2.12850E+01 1.05013E+01 0.00000E+00
 -1      3323 5.35130E+01 3.52768E+01 0.00000E+00
 -1      3324 5.24201E+01 3.54041E+01 0.00000E+00
 -1      3325 5.67629E+01 1.03970E+01 0.00000E+00
 -1      3326 5.71662E+01 1.11245E+01 0.00000E+00
 -1      3327 5.83576E+01 1.09276E+01 0.00000E+00
 -1      3328 5.66108E+01 3.40533E+01 0.00000E+00
 -1      3329 5.51259E+01 3.47641E+01 0.00000E+00
 -1      3330 1.59000E+01 3.83090E+01 0.00000E+00
 -1      3331 1.74000E+01 3.83090E+01 0.00000E+00
 -1      3332 1.81500E+01 3.70100E+01 0.00000E+00
 -1      3333 4.34321E+01 3.29820E+01 0.00000E+00
 -1      3334 4.22460E+01 3.25508E+01 0.00000E+00
 -1      3335 1.12710E+01 3.74352E+01 0.00000E+00
 -1      3336 1.20855E+01 3.78721E+01 0.00000E+00
 -1      3337 1.12065E+01 3.56994E+01 0.00000E+00
 -1      3338 1.26488E+01 1.02017E+01 0.00000E+00
 -1      3339 1.20772E+01 1.14631E+01 0.00000E+00
 -1      3340 1.33763E+01 1.22006E+01 0.00000E+00
 -1      3341 1.41488E+01 1.02017E+01 0.00000E+00
 -1      3342 5.94041E+01 3.21771E+01 0.00000E+00
 -1      3343 5.82652E+01 3.31731E+01 0.00000E+00
 -1      3344 3.82766E+01 2.98620E+01 0.00000E+00
 -1      3345 3.80220E+01 2.84986E+01 0.00000E+00
 -1      3346 3.67575E+01 2.85181E+01 0.00000E+00
 -1      3347 6.16727E+01 1.37297E+01 0.00000E+00
 -1      3348 6.23488E+01 1.49111E+01 0.00000E+00
 -1      3349 5.07024E+01 3.57298E+01 0.00000E+00
 -1      3350 4.92950E+01 3.56152E+01 0.00000E+00
 -1      3351 6.30509E+01 2.49931E+01 0.00000E+00
 -1      3352 6.26895E+01 2.61237E+01 0.00000E+00
 -1      3353 6.41320E+01 2.46669E+01 0.00000E+00
 -1      3354 1.16910E+01 2.42375E+01 0.00000E+00
 -1      3355 1.16910E+01 2.57125E+01 0.00000E+00
 -1      3356 1.29900E+01 2.35000E+01 0.00000E+00
 -1      3357 1.29900E+01 1.46687E+01 0.00000E+00
 -1      3358 1.16910E+01 1.54063E+01 0.00000E+00
 -1      3359 1.16910E+01 1.68750E+01 0.00000E+00
 -1      3360 1.51500E+01 3.70100E+01 0.00000E+00
 -1      3361 5.79654E+01 3.44531E+01 0.00000E+00
 -1      3362 5.13676E+01 3.66843E+01 0.00000E+00
 -1      3363 5.21176E+01 3.79833E+01 0.00000E+00
 -1      3364 1.38309E+02 1.69188E+01 0.00000E+00
 -1      3365 1.38309E+02 1.54563E+01 0.00000E+00
 -1      3366 3.57793E+01 2.21395E+01 0.00000E+00
 -1      3367 3.56321E+01 2.65400E+01 0.00000E+00
 -1      3368 3.60108E+01 2.53334E+01 0.00000E+00
 -1      3369 3.51399E+01 2.47187E+01 0.00000E+00
 -1      3370 5.36176E+01 3.79833E+01 0.00000E+00
 -1      3371 5.43676E+01 3.66843E+01 0.00000E+00
 -1      3372 3.61350E+01 1.92621E+01 0.00000E+00
 -1      3373 3.54383E+01 1.84928E+01 0.00000E+00
 -1      3374 3.53432E+01 1.99974E+01 0.00000E+00
 -1      3375 3.66752E+01 1.64280E+01 0.00000E+00
 -1      3376 2.05350E+01 1.18003E+01 0.00000E+00
 -1      3377 1.97850E+01 1.05013E+01 0.00000E+00
 -1      3378 1.82850E+01 1.05013E+01 0.00000E+00
 -1      3379 2.95350E+01 1.18003E+01 0.00000E+00
 -1      3380 2.87850E+01 1.05013E+01 0.00000E+00
 -1      3381 2.72850E+01 1.05013E+01 0.00000E+00
 -1      3382 6.23063E+01 2.95890E+01 0.00000E+00
 -1      3383 2.42850E+01 1.05013E+01 0.00000E+00
 -1      3384 2.35350E+01 1.18003E+01 0.00000E+00
 -1      3385 2.57850E+01 1.05013E+01 0.00000E+00
 -1      3386 1.16910E+01 1.98188E+01 0.00000E+00
 -1      3387 1.29900E+01 2.05562E+01 0.00000E+00
 -1      3388 1.16910E+01 1.83500E+01 0.00000E+00
 -1      3389 1.38309E+02 1.98687E+01 0.00000E+00
 -1      3390 1.38309E+02 1.83937E+01 0.00000E+00
 -1      3391 1.37010E+02 1.76625E+01 0.00000E+00
 -1      3392 6.58805E+01 2.04627E+01 0.00000E+00
 -1      3393 6.49429E+01 2.14903E+01 0.00000E+00
 -1      3394 6.54310E+01 2.25086E+01 0.00000E+00
 -1      3395 1.38309E+02 2.28156E+01 0.00000E+00
 -1      3396 1.38309E+02 2.13406E+01 0.00000E+00
 -1      3397 1.37010E+02 2.06094E+01 0.00000E+00
 -1      3398 1.37010E+02 2.35531E+01 0.00000E+00
 -1      3399 3.83374E+01 3.25106E+01 0.00000E+00
 -1      3400 3.83070E+01 3.11863E+01 0.00000E+00
 -1      3401 3.70425E+01 3.12057E+01 0.00000E+00
 -1      3402 4.10454E+01 3.31105E+01 0.00000E+00
 -1      3403 6.06220E+01 3.21921E+01 0.00000E+00
 -1      3404 6.47114E+01 1.78480E+01 0.00000E+00
 -1      3405 3.78188E+01 1.37243E+01 0.00000E+00
 -1      3406 5.78748E+01 8.47460E+00 0.00000E+00
 -1      3407 6.34654E+01 1.50314E+01 0.00000E+00
 -1      3408 4.51552E+01 3.55574E+01 0.00000E+00
 -1      3409 5.47954E+01 3.56024E+01 0.00000E+00
 -1      3410 1.28355E+01 3.65731E+01 0.00000E+00
 -1      3411 4.37936E+01 3.39905E+01 0.00000E+00
 -1      3412 1.37758E+02 3.64912E+01 0.00000E+00
 -1      3413 1.38123E+02 3.54142E+01 0.00000E+00
 -1      3414 1.36824E+02 3.46768E+01 0.00000E+00
 -1      3415 1.36451E+02 3.63802E+01 0.00000E+00
 -1      3416 1.12065E+01 3.27619E+01 0.00000E+00
 -1      3417 1.12065E+01 3.42306E+01 0.00000E+00
 -1      3418 1.20210E+01 3.46675E+01 0.00000E+00
 -1      3419 6.22400E+01 1.27242E+01 0.00000E+00
 -1      3420 6.33795E+01 2.70822E+01 0.00000E+00
 -1      3421 1.12065E+01 2.98244E+01 0.00000E+00
 -1      3422 1.12065E+01 3.12931E+01 0.00000E+00
 -1      3423 1.20210E+01 3.17300E+01 0.00000E+00
 -1      3424 1.69669E+01 1.03515E+01 0.00000E+00
 -1      3425 1.54669E+01 1.03515E+01 0.00000E+00
 -1      3426 1.50806E+01 1.13509E+01 0.00000E+00
 -1      3427 1.77169E+01 1.16505E+01 0.00000E+00
 -1      3428 3.66982E+01 1.35869E+01 0.00000E+00
 -1      3429 3.44773E+01 2.26033E+01 0.00000E+00
 -1      3430 3.47379E+01 2.12306E+01 0.00000E+00
 -1      3431 2.34000E+01 3.57110E+01 0.00000E+00
 -1      3432 2.49000E+01 3.57110E+01 0.00000E+00
 -1      3433 2.64000E+01 3.57110E+01 0.00000E+00
 -1      3434 2.79000E+01 3.57110E+01 0.00000E+00
 -1      3435 2.56500E+01 3.44120E+01 0.00000E+00
 -1      3436 2.94000E+01 3.57110E+01 0.00000E+00
 -1      3437 3.09000E+01 3.57110E+01 0.00000E+00
 -1      3438 2.86500E+01 3.44120E+01 0.00000E+00
 -1      3439 3.24000E+01 3.57110E+01 0.00000E+00
 -1      3440 3.39000E+01 3.57110E+01 0.00000E+00
 -1      3441 3.16500E+01 3.44120E+01 0.00000E+00
 -1      3442 3.58615E+01 3.47700E+01 0.00000E+00
 -1      3443 3.73615E+01 3.47700E+01 0.00000E+00
 -1      3444 3.86260E+01 3.47506E+01 0.00000E+00
 -1      3445 4.01260E+01 3.47506E+01 0.00000E+00
 -1      3446 4.15694E+01 3.53699E+01 0.00000E+00
 -1      3447 4.30694E+01 3.53699E+01 0.00000E+00
 -1      3448 5.59805E+01 3.61717E+01 0.00000E+00
 -1      3449 1.28355E+01 3.36356E+01 0.00000E+00
 -1      3450 1.28355E+01 3.51044E+01 0.00000E+00
 -1      3451 1.36500E+01 3.55412E+01 0.00000E+00
 -1      3452 6.24000E+01 3.57110E+01 0.00000E+00
 -1      3453 6.39000E+01 3.57110E+01 0.00000E+00
 -1      3454 6.54000E+01 3.57110E+01 0.00000E+00
 -1      3455 6.69000E+01 3.57110E+01 0.00000E+00
 -1      3456 6.46500E+01 3.44120E+01 0.00000E+00
 -1      3457 6.84000E+01 3.57110E+01 0.00000E+00
 -1      3458 6.99000E+01 3.57110E+01 0.00000E+00
 -1      3459 6.76500E+01 3.44120E+01 0.00000E+00
 -1      3460 7.14000E+01 3.57110E+01 0.00000E+00
 -1      3461 7.29000E+01 3.57110E+01 0.00000E+00
 -1      3462 7.06500E+01 3.44120E+01 0.00000E+00
 -1      3463 7.44000E+01 3.57110E+01 0.00000E+00
 -1      3464 7.59000E+01 3.57110E+01 0.00000E+00
 -1      3465 7.36500E+01 3.44120E+01 0.00000E+00
 -1      3466 7.74000E+01 3.57110E+01 0.00000E+00
 -1      3467 7.89000E+01 3.57110E+01 0.00000E+00
 -1      3468 7.66500E+01 3.44120E+01 0.00000E+00
 -1      3469 8.04000E+01 3.57110E+01 0.00000E+00
 -1      3470 8.19000E+01 3.57110E+01 0.00000E+00
 -1      3471 7.96500E+01 3.44120E+01 0.00000E+00
 -1      3472 8.34000E+01 3.57110E+01 0.00000E+00
 -1      3473 8.49000E+01 3.57110E+01 0.00000E+00
 -1      3474 8.26500E+01 3.44120E+01 0.00000E+00
 -1      3475 8.64000E+01 3.57110E+01 0.00000E+00
 -1      3476 8.79000E+01 3.57110E+01 0.00000E+00
 -1      3477 8.56500E+01 3.44120E+01 0.00000E+00
 -1      3478 8.94000E+01 3.57110E+01 0.00000E+00
 -1      3479 9.09000E+01 3.57110E+01 0.00000E+00
 -1      3480 8.86500E+01 3.44120E+01 0.00000E+00
 -1      3481 9.24000E+01 3.57110E+01 0.00000E+00
 -1      3482 9.39000E+01 3.57110E+01 0.00000E+00
 -1      3483 9.16500E+01 3.44120E+01 0.00000E+00
 -1      3484 9.54000E+01 3.57110E+01 0.00000E+00
 -1      3485 9.69000E+01 3.57110E+01 0.00000E+00
 -1      3486 9.46500E+01 3.44120E+01 0.00000E+00
 -1      3487 9.84000E+01 3.57110E+01 0.00000E+00
 -1      3488 9.99000E+01 3.57110E+01 0.00000E+00
 -1      3489 9.76500E+01 3.44120E+01 0.00000E+00
 -1      3490 1.01400E+02 3.57110E+01 0.00000E+00
 -1      3491 1.02900E+02 3.57110E+01 0.00000E+00
 -1      3492 1.00650E+02 3.44120E+01 0.00000E+00
 -1      3493 1.04400E+02 3.57110E+01 0.00000E+00
 -1      3494 1.05900E+02 3.57110E+01 0.00000E+00
 -1      3495 1.03650E+02 3.44120E+01 0.00000E+00
 -1      3496 1.07400E+02 3.57110E+01 0.00000E+00
 -1      3497 1.08900E+02 3.57110E+01 0.00000E+00
 -1      3498 1.06650E+02 3.44120E+01 0.00000E+00
 -1      3499 1.10400E+02 3.57110E+01 0.00000E+00
 -1      3500 1.11900E+02 3.57110E+01 0.00000E+00
 -1      3501 1.09650E+02 3.44120E+01 0.00000E+00
 -1      3502 1.13400E+02 3.57110E+01 0.00000E+00
 -1      3503 1.14900E+02 3.57110E+01 0.00000E+00
 -1      3504 1.12650E+02 3.44120E+01 0.00000E+00
 -1      3505 1.16400E+02 3.57110E+01 0.00000E+00
 -1      3506 1.17900E+02 3.57110E+01 0.00000E+00
 -1      3507 1.15650E+02 3.44120E+01 0.00000E+00
 -1      3508 1.19400E+02 3.57110E+01 0.00000E+00
 -1      3509 1.20900E+02 3.57110E+01 0.00000E+00
 -1      3510 1.18650E+02 3.44120E+01 0.00000E+00
 -1      3511 1.22400E+02 3.57110E+01 0.00000E+00
 -1      3512 1.23900E+02 3.57110E+01 0.00000E+00
 -1      3513 1.21650E+02 3.44120E+01 0.00000E+00
 -1      3514 1.25400E+02 3.57110E+01 0.00000E+00
 -1      3515 1.26900E+02 3.57110E+01 0.00000E+00
 -1      3516 1.24650E+02 3.44120E+01 0.00000E+00
 -1      3517 1.28400E+02 3.57110E+01 0.00000E+00
 -1      3518 1.29900E+02 3.57110E+01 0.00000E+00
 -1      3519 1.27650E+02 3.44120E+01 0.00000E+00
 -1      3520 1.31400E+02 3.57110E+01 0.00000E+00
 -1      3521 1.32900E+02 3.57110E+01 0.00000E+00
 -1      3522 1.30650E+02 3.44120E+01 0.00000E+00
 -1      3523 7.82850E+01 1.30992E+01 0.00000E+00
 -1      3524 7.67850E+01 1.30992E+01 0.00000E+00
 -1      3525 3.32850E+01 1.30992E+01 0.00000E+00
 -1      3526 3.17850E+01 1.30992E+01 0.00000E+00
 -1      3527 1.38528E+02 1.44149E+01 0.00000E+00
 -1      3528 1.38594E+02 1.31746E+01 0.00000E+00
 -1      3529 1.37668E+02 1.30636E+01 0.00000E+00
 -1      3530 1.37229E+02 1.51462E+01 0.00000E+00
 -1      3531 7.52850E+01 1.30992E+01 0.00000E+00
 -1      3532 7.37850E+01 1.30992E+01 0.00000E+00
 -1      3533 7.60350E+01 1.43982E+01 0.00000E+00
 -1      3534 8.42850E+01 1.30992E+01 0.00000E+00
 -1      3535 8.27850E+01 1.30992E+01 0.00000E+00
 -1      3536 8.72850E+01 1.30992E+01 0.00000E+00
 -1      3537 8.57850E+01 1.30992E+01 0.00000E+00
 -1      3538 8.50350E+01 1.43982E+01 0.00000E+00
 -1      3539 9.02850E+01 1.30992E+01 0.00000E+00
 -1      3540 8.87850E+01 1.30992E+01 0.00000E+00
 -1      3541 8.80350E+01 1.43982E+01 0.00000E+00
 -1      3542 9.32850E+01 1.30992E+01 0.00000E+00
 -1      3543 9.17850E+01 1.30992E+01 0.00000E+00
 -1      3544 9.10350E+01 1.43982E+01 0.00000E+00
 -1      3545 9.62850E+01 1.30992E+01 0.00000E+00
 -1      3546 9.47850E+01 1.30992E+01 0.00000E+00
 -1      3547 9.40350E+01 1.43982E+01 0.00000E+00
 -1      3548 9.92850E+01 1.30992E+01 0.00000E+00
 -1      3549 9.77850E+01 1.30992E+01 0.00000E+00
 -1      3550 9.70350E+01 1.43982E+01 0.00000E+00
 -1      3551 1.02285E+02 1.30992E+01 0.00000E+00
 -1      3552 1.00785E+02 1.30992E+01 0.00000E+00
 -1      3553 1.00035E+02 1.43982E+01 0.00000E+00
 -1      3554 1.05285E+02 1.30992E+01 0.00000E+00
 -1      3555 1.03785E+02 1.30992E+01 0.00000E+00
 -1      3556 1.03035E+02 1.43982E+01 0.00000E+00
 -1      3557 1.08285E+02 1.30992E+01 0.00000E+00
 -1      3558 1.06785E+02 1.30992E+01 0.00000E+00
 -1      3559 1.06035E+02 1.43982E+01 0.00000E+00
 -1      3560 1.11285E+02 1.30992E+01 0.00000E+00
 -1      3561 1.09785E+02 1.30992E+01 0.00000E+00
 -1      3562 1.09035E+02 1.43982E+01 0.00000E+00
 -1      3563 1.14285E+02 1.30992E+01 0.00000E+00
 -1      3564 1.12785E+02 1.30992E+01 0.00000E+00
 -1      3565 1.12035E+02 1.43982E+01 0.00000E+00
 -1      3566 1.17285E+02 1.30992E+01 0.00000E+00
 -1      3567 1.15785E+02 1.30992E+01 0.00000E+00
 -1      3568 1.15035E+02 1.43982E+01 0.00000E+00
 -1      3569 1.20285E+02 1.30992E+01 0.00000E+00
 -1      3570 1.18785E+02 1.30992E+01 0.00000E+00
 -1      3571 1.18035E+02 1.43982E+01 0.00000E+00
 -1      3572 1.23285E+02 1.30992E+01 0.00000E+00
 -1      3573 1.21785E+02 1.30992E+01 0.00000E+00
 -1      3574 1.21035E+02 1.43982E+01 0.00000E+00
 -1      3575 1.26285E+02 1.30992E+01 0.00000E+00
 -1      3576 1.24785E+02 1.30992E+01 0.00000E+00
 -1      3577 1.24035E+02 1.43982E+01 0.00000E+00
 -1      3578 1.29285E+02 1.30992E+01 0.00000E+00
 -1      3579 1.27785E+02 1.30992E+01 0.00000E+00
 -1      3580 1.27035E+02 1.43982E+01 0.00000E+00
 -1      3581 1.32285E+02 1.30992E+01 0.00000E+00
 -1      3582 1.30785E+02 1.30992E+01 0.00000E+00
 -1      3583 1.30035E+02 1.43982E+01 0.00000E+00
 -1      3584 6.46359E+01 2.67629E+01 0.00000E+00
 -1      3585 6.42448E+01 2.80474E+01 0.00000E+00
 -1      3586 6.53587E+01 2.45015E+01 0.00000E+00
 -1      3587 6.49973E+01 2.56322E+01 0.00000E+00
 -1      3588 6.58625E+01 2.65974E+01 0.00000E+00
 -1      3589 6.36157E+01 2.95182E+01 0.00000E+00
 -1      3590 6.29337E+01 3.07404E+01 0.00000E+00
 -1      3591 7.22850E+01 1.30992E+01 0.00000E+00
 -1      3592 7.07850E+01 1.30992E+01 0.00000E+00
 -1      3593 7.30350E+01 1.43982E+01 0.00000E+00
 -1      3594 1.46944E+01 1.23503E+01 0.00000E+00
 -1      3595 1.43081E+01 1.33498E+01 0.00000E+00
 -1      3596 1.60125E+01 1.25001E+01 0.00000E+00
 -1      3597 1.14487E+01 2.70341E+01 0.00000E+00
 -1      3598 1.14487E+01 2.85028E+01 0.00000E+00
 -1      3599 1.22633E+01 2.89397E+01 0.00000E+00
 -1      3600 1.27478E+01 2.62966E+01 0.00000E+00
 -1      3601 2.04000E+01 3.57110E+01 0.00000E+00
 -1      3602 2.19000E+01 3.57110E+01 0.00000E+00
 -1      3603 2.26500E+01 3.44120E+01 0.00000E+00
 -1      3604 3.55600E+01 1.67939E+01 0.00000E+00
 -1      3605 3.60051E+01 1.54644E+01 0.00000E+00
 -1      3606 1.51500E+01 3.55412E+01 0.00000E+00
 -1      3607 8.12850E+01 1.30992E+01 0.00000E+00
 -1      3608 7.97850E+01 1.30992E+01 0.00000E+00
 -1      3609 8.20350E+01 1.43982E+01 0.00000E+00
 -1      3610 1.74000E+01 3.57110E+01 0.00000E+00
 -1      3611 1.89000E+01 3.57110E+01 0.00000E+00
 -1      3612 1.96500E+01 3.44120E+01 0.00000E+00
 -1      3613 1.35711E+02 2.72000E+01 0.00000E+00
 -1      3614 1.35711E+02 2.57500E+01 0.00000E+00
 -1      3615 6.54679E+01 1.65818E+01 0.00000E+00
 -1      3616 6.61489E+01 1.81782E+01 0.00000E+00
 -1      3617 3.56300E+01 2.94340E+01 0.00000E+00
 -1      3618 3.53755E+01 2.80707E+01 0.00000E+00
 -1      3619 6.23871E+01 3.26116E+01 0.00000E+00
 -1      3620 6.13849E+01 3.39925E+01 0.00000E+00
 -1      3621 5.74805E+01 3.61717E+01 0.00000E+00
 -1      3622 6.43380E+01 1.41415E+01 0.00000E+00
 -1      3623 6.49030E+01 1.53617E+01 0.00000E+00
 -1      3624 6.63405E+01 1.56919E+01 0.00000E+00
 -1      3625 5.91349E+01 3.52915E+01 0.00000E+00
 -1      3626 6.06349E+01 3.52915E+01 0.00000E+00
 -1      3627 1.43081E+01 1.48185E+01 0.00000E+00
 -1      3628 6.72339E+01 2.24463E+01 0.00000E+00
 -1      3629 6.62963E+01 2.34739E+01 0.00000E+00
 -1      3630 6.71616E+01 2.44392E+01 0.00000E+00
 -1      3631 3.55830E+01 1.39527E+01 0.00000E+00
 -1      3632 3.45046E+01 2.74560E+01 0.00000E+00
 -1      3633 3.39764E+01 1.82645E+01 0.00000E+00
 -1      3634 3.47682E+01 1.75292E+01 0.00000E+00
 -1      3635 3.40981E+01 1.65656E+01 0.00000E+00
 -1      3636 3.51115E+01 3.34710E+01 0.00000E+00
 -1      3637 1.28355E+01 3.21669E+01 0.00000E+00
 -1      3638 1.36500E+01 3.26037E+01 0.00000E+00
 -1      3639 1.28355E+01 3.06981E+01 0.00000E+00
 -1      3640 7.90350E+01 1.43982E+01 0.00000E+00
 -1      3641 1.34022E+02 3.59901E+01 0.00000E+00
 -1      3642 1.35329E+02 3.61011E+01 0.00000E+00
 -1      3643 1.35515E+02 3.52494E+01 0.00000E+00
 -1      3644 1.33272E+02 3.46911E+01 0.00000E+00
 -1      3645 2.12850E+01 1.30992E+01 0.00000E+00
 -1      3646 1.97850E+01 1.30992E+01 0.00000E+00
 -1      3647 3.10350E+01 1.43982E+01 0.00000E+00
 -1      3648 3.02850E+01 1.30992E+01 0.00000E+00
 -1      3649 2.87850E+01 1.30992E+01 0.00000E+00
 -1      3650 3.40985E+01 2.38099E+01 0.00000E+00
 -1      3651 3.30571E+01 2.29011E+01 0.00000E+00
 -1      3652 3.37197E+01 2.50165E+01 0.00000E+00
 -1      3653 2.65350E+01 1.18003E+01 0.00000E+00
 -1      3654 1.35711E+02 3.01500E+01 0.00000E+00
 -1      3655 1.35711E+02 2.86750E+01 0.00000E+00
 -1      3656 1.34412E+02 2.79500E+01 0.00000E+00
 -1      3657 1.29900E+01 1.76125E+01 0.00000E+00
 -1      3658 6.64053E+01 1.31360E+01 0.00000E+00
 -1      3659 6.49053E+01 1.31360E+01 0.00000E+00
 -1      3660 6.48721E+01 2.91989E+01 0.00000E+00
 -1      3661 6.36965E+01 3.25408E+01 0.00000E+00
 -1      3662 1.35285E+02 1.30992E+01 0.00000E+00
 -1      3663 1.33785E+02 1.30992E+01 0.00000E+00
 -1      3664 1.36742E+02 1.29526E+01 0.00000E+00
 -1      3665 6.66371E+01 1.91965E+01 0.00000E+00
 -1      3666 6.71252E+01 2.02148E+01 0.00000E+00
 -1      3667 6.73936E+01 1.79303E+01 0.00000E+00
 -1      3668 1.35711E+02 2.42781E+01 0.00000E+00
 -1      3669 1.35711E+02 2.28062E+01 0.00000E+00
 -1      3670 1.34412E+02 2.50031E+01 0.00000E+00
 -1      3671 3.53859E+01 3.21147E+01 0.00000E+00
 -1      3672 3.53555E+01 3.07904E+01 0.00000E+00
 -1      3673 3.39735E+01 3.03430E+01 0.00000E+00
 -1      3674 3.34245E+01 3.30557E+01 0.00000E+00
 -1      3675 1.35711E+02 1.84000E+01 0.00000E+00
 -1      3676 1.35711E+02 1.69250E+01 0.00000E+00
 -1      3677 3.40411E+01 2.04613E+01 0.00000E+00
 -1      3678 6.34677E+01 1.28058E+01 0.00000E+00
 -1      3679 6.93451E+01 1.31176E+01 0.00000E+00
 -1      3680 6.78451E+01 1.31176E+01 0.00000E+00
 -1      3681 6.72154E+01 1.44534E+01 0.00000E+00
 -1      3682 7.00951E+01 1.44166E+01 0.00000E+00
 -1      3683 3.44625E+01 1.38153E+01 0.00000E+00
 -1      3684 2.42850E+01 1.30992E+01 0.00000E+00
 -1      3685 2.27850E+01 1.30992E+01 0.00000E+00
 -1      3686 2.20350E+01 1.43982E+01 0.00000E+00
 -1      3687 1.42890E+01 1.98219E+01 0.00000E+00
 -1      3688 1.42890E+01 2.12906E+01 0.00000E+00
 -1      3689 1.34473E+02 1.60304E+01 0.00000E+00
 -1      3690 1.35773E+02 1.52929E+01 0.00000E+00
 -1      3691 1.59000E+01 3.42422E+01 0.00000E+00
 -1      3692 3.37125E+01 1.51143E+01 0.00000E+00
 -1      3693 1.55880E+01 2.20313E+01 0.00000E+00
 -1      3694 1.42890E+01 2.27656E+01 0.00000E+00
 -1      3695 1.42890E+01 2.42406E+01 0.00000E+00
 -1      3696 1.33035E+02 1.43982E+01 0.00000E+00
 -1      3697 1.35702E+02 3.43976E+01 0.00000E+00
 -1      3698 1.35992E+02 1.42516E+01 0.00000E+00
 -1      3699 1.34487E+02 3.38069E+01 0.00000E+00
 -1      3700 1.35795E+02 3.32342E+01 0.00000E+00
 -1      3701 1.35795E+02 3.17593E+01 0.00000E+00
 -1      3702 1.33365E+02 3.35277E+01 0.00000E+00
 -1      3703 2.79000E+01 3.31130E+01 0.00000E+00
 -1      3704 2.94000E+01 3.31130E+01 0.00000E+00
 -1      3705 3.06622E+01 3.30843E+01 0.00000E+00
 -1      3706 3.21622E+01 3.30843E+01 0.00000E+00
 -1      3707 3.24367E+01 3.17280E+01 0.00000E+00
 -1      3708 2.99122E+01 3.17853E+01 0.00000E+00
 -1      3709 4.43741E+01 3.56306E+01 0.00000E+00
 -1      3710 6.77804E+01 1.56735E+01 0.00000E+00
 -1      3711 1.58860E+01 1.50773E+01 0.00000E+00
 -1      3712 1.45679E+01 1.63963E+01 0.00000E+00
 -1      3713 6.69000E+01 3.31130E+01 0.00000E+00
 -1      3714 6.84000E+01 3.31130E+01 0.00000E+00
 -1      3715 6.99000E+01 3.31130E+01 0.00000E+00
 -1      3716 7.14000E+01 3.31130E+01 0.00000E+00
 -1      3717 6.91500E+01 3.18140E+01 0.00000E+00
 -1      3718 7.29000E+01 3.31130E+01 0.00000E+00
 -1      3719 7.44000E+01 3.31130E+01 0.00000E+00
 -1      3720 7.21500E+01 3.18140E+01 0.00000E+00
 -1      3721 7.59000E+01 3.31130E+01 0.00000E+00
 -1      3722 7.74000E+01 3.31130E+01 0.00000E+00
 -1      3723 7.51500E+01 3.18140E+01 0.00000E+00
 -1      3724 7.89000E+01 3.31130E+01 0.00000E+00
 -1      3725 8.04000E+01 3.31130E+01 0.00000E+00
 -1      3726 7.81500E+01 3.18140E+01 0.00000E+00
 -1      3727 8.19000E+01 3.31130E+01 0.00000E+00
 -1      3728 8.34000E+01 3.31130E+01 0.00000E+00
 -1      3729 8.11500E+01 3.18140E+01 0.00000E+00
 -1      3730 8.49000E+01 3.31130E+01 0.00000E+00
 -1      3731 8.64000E+01 3.31130E+01 0.00000E+00
 -1      3732 8.41500E+01 3.18140E+01 0.00000E+00
 -1      3733 8.79000E+01 3.31130E+01 0.00000E+00
 -1      3734 8.94000E+01 3.31130E+01 0.00000E+00
 -1      3735 8.71500E+01 3.18140E+01 0.00000E+00
 -1      3736 9.09000E+01 3.31130E+01 0.00000E+00
 -1      3737 9.24000E+01 3.31130E+01 0.00000E+00
 -1      3738 9.01500E+01 3.18140E+01 0.00000E+00
 -1      3739 9.39000E+01 3.31130E+01 0.00000E+00
 -1      3740 9.54000E+01 3.31130E+01 0.00000E+00
 -1      3741 9.31500E+01 3.18140E+01 0.00000E+00
 -1      3742 9.69000E+01 3.31130E+01 0.00000E+00
 -1      3743 9.84000E+01 3.31130E+01 0.00000E+00
 -1      3744 9.61500E+01 3.18140E+01 0.00000E+00
 -1      3745 9.99000E+01 3.31130E+01 0.00000E+00
 -1      3746 1.01400E+02 3.31130E+01 0.00000E+00
 -1      3747 9.91500E+01 3.18140E+01 0.00000E+00
 -1      3748 1.02900E+02 3.31130E+01 0.00000E+00
 -1      3749 1.04400E+02 3.31130E+01 0.00000E+00
 -1      3750 1.02150E+02 3.18140E+01 0.00000E+00
 -1      3751 1.05900E+02 3.31130E+01 0.00000E+00
 -1      3752 1.07400E+02 3.31130E+01 0.00000E+00
 -1      3753 1.05150E+02 3.18140E+01 0.00000E+00
 -1      3754 1.08900E+02 3.31130E+01 0.00000E+00
 -1      3755 1.10400E+02 3.31130E+01 0.00000E+00
 -1      3756 1.08150E+02 3.18140E+01 0.00000E+00
 -1      3757 1.11900E+02 3.31130E+01 0.00000E+00
 -1      3758 1.13400E+02 3.31130E+01 0.00000E+00
 -1      3759 1.11150E+02 3.18140E+01 0.00000E+00
 -1      3760 1.14900E+02 3.31130E+01 0.00000E+00
 -1      3761 1.16400E+02 3.31130E+01 0.00000E+00
 -1      3762 1.14150E+02 3.18140E+01 0.00000E+00
 -1      3763 1.17900E+02 3.31130E+01 0.00000E+00
 -1      3764 1.19400E+02 3.31130E+01 0.00000E+00
 -1      3765 1.17150E+02 3.18140E+01 0.00000E+00
 -1      3766 1.20900E+02 3.31130E+01 0.00000E+00
 -1      3767 1.22400E+02 3.31130E+01 0.00000E+00
 -1      3768 1.20150E+02 3.18140E+01 0.00000E+00
 -1      3769 1.23900E+02 3.31130E+01 0.00000E+00
 -1      3770 1.25400E+02 3.31130E+01 0.00000E+00
 -1      3771 1.23150E+02 3.18140E+01 0.00000E+00
 -1      3772 1.26900E+02 3.31130E+01 0.00000E+00
 -1      3773 1.28400E+02 3.31130E+01 0.00000E+00
 -1      3774 1.26150E+02 3.18140E+01 0.00000E+00
 -1      3775 1.29900E+02 3.31130E+01 0.00000E+00
 -1      3776 1.31400E+02 3.31130E+01 0.00000E+00
 -1      3777 1.29150E+02 3.18140E+01 0.00000E+00
 -1      3778 3.32065E+01 2.80778E+01 0.00000E+00
 -1      3779 3.34631E+01 2.65472E+01 0.00000E+00
 -1      3780 3.24217E+01 2.56384E+01 0.00000E+00
 -1      3781 9.17850E+01 1.56973E+01 0.00000E+00
 -1      3782 9.02850E+01 1.56973E+01 0.00000E+00
 -1      3783 6.62832E+01 2.89325E+01 0.00000E+00
 -1      3784 6.56542E+01 3.04033E+01 0.00000E+00
 -1      3785 8.87850E+01 1.56973E+01 0.00000E+00
 -1      3786 8.72850E+01 1.56973E+01 0.00000E+00
 -1      3787 8.95350E+01 1.69963E+01 0.00000E+00
 -1      3788 8.57850E+01 1.56973E+01 0.00000E+00
 -1      3789 8.42850E+01 1.56973E+01 0.00000E+00
 -1      3790 8.65350E+01 1.69963E+01 0.00000E+00
 -1      3791 9.47850E+01 1.56973E+01 0.00000E+00
 -1      3792 9.32850E+01 1.56973E+01 0.00000E+00
 -1      3793 9.25350E+01 1.69963E+01 0.00000E+00
 -1      3794 9.77850E+01 1.56973E+01 0.00000E+00
 -1      3795 9.62850E+01 1.56973E+01 0.00000E+00
 -1      3796 9.55350E+01 1.69963E+01 0.00000E+00
 -1      3797 1.00785E+02 1.56973E+01 0.00000E+00
 -1      3798 9.92850E+01 1.56973E+01 0.00000E+00
 -1      3799 9.85350E+01 1.69963E+01 0.00000E+00
 -1      3800 1.03785E+02 1.56973E+01 0.00000E+00
 -1      3801 1.02285E+02 1.56973E+01 0.00000E+00
 -1      3802 1.01535E+02 1.69963E+01 0.00000E+00
 -1      3803 1.06785E+02 1.56973E+01 0.00000E+00
 -1      3804 1.05285E+02 1.56973E+01 0.00000E+00
 -1      3805 1.04535E+02 1.69963E+01 0.00000E+00
 -1      3806 1.09785E+02 1.56973E+01 0.00000E+00
 -1      3807 1.08285E+02 1.56973E+01 0.00000E+00
 -1      3808 1.07535E+02 1.69963E+01 0.00000E+00
 -1      3809 1.12785E+02 1.56973E+01 0.00000E+00
 -1      3810 1.11285E+02 1.56973E+01 0.00000E+00
 -1      3811 1.10535E+02 1.69963E+01 0.00000E+00
 -1      3812 1.15785E+02 1.56973E+01 0.00000E+00
 -1      3813 1.14285E+02 1.56973E+01 0.00000E+00
 -1      3814 1.13535E+02 1.69963E+01 0.00000E+00
 -1      3815 1.18785E+02 1.56973E+01 0.00000E+00
 -1      3816 1.17285E+02 1.56973E+01 0.00000E+00
 -1      3817 1.16535E+02 1.69963E+01 0.00000E+00
 -1      3818 1.21785E+02 1.56973E+01 0.00000E+00
 -1      3819 1.20285E+02 1.56973E+01 0.00000E+00
 -1      3820 1.19535E+02 1.69963E+01 0.00000E+00
 -1      3821 1.24785E+02 1.56973E+01 0.00000E+00
 -1      3822 1.23285E+02 1.56973E+01 0.00000E+00
 -1      3823 1.22535E+02 1.69963E+01 0.00000E+00
 -1      3824 1.27785E+02 1.56973E+01 0.00000E+00
 -1      3825 1.26285E+02 1.56973E+01 0.00000E+00
 -1      3826 1.25535E+02 1.69963E+01 0.00000E+00
 -1      3827 1.30785E+02 1.56973E+01 0.00000E+00
 -1      3828 1.29285E+02 1.56973E+01 0.00000E+00
 -1      3829 1.28535E+02 1.69963E+01 0.00000E+00
 -1      3830 7.67850E+01 1.56973E+01 0.00000E+00
 -1      3831 7.52850E+01 1.56973E+01 0.00000E+00
 -1      3832 2.19000E+01 3.31130E+01 0.00000E+00
 -1      3833 2.34000E+01 3.31130E+01 0.00000E+00
 -1      3834 3.27658E+01 2.07309E+01 0.00000E+00
 -1      3835 3.33711E+01 1.94977E+01 0.00000E+00
 -1      3836 3.27010E+01 1.85341E+01 0.00000E+00
 -1      3837 2.72850E+01 1.30992E+01 0.00000E+00
 -1      3838 2.57850E+01 1.30992E+01 0.00000E+00
 -1      3839 2.80350E+01 1.43982E+01 0.00000E+00
 -1      3840 1.35711E+02 2.13391E+01 0.00000E+00
 -1      3841 1.35711E+02 1.98672E+01 0.00000E+00
 -1      3842 1.34412E+02 1.91297E+01 0.00000E+00
 -1      3843 1.34412E+02 2.20641E+01 0.00000E+00
 -1      3844 6.71793E+01 2.63952E+01 0.00000E+00
 -1      3845 6.68179E+01 2.75259E+01 0.00000E+00
 -1      3846 6.51965E+01 3.25408E+01 0.00000E+00
 -1      3847 1.69946E+01 1.28642E+01 0.00000E+00
 -1      3848 1.66083E+01 1.38636E+01 0.00000E+00
 -1      3849 1.68681E+01 1.54413E+01 0.00000E+00
 -1      3850 1.83127E+01 1.30139E+01 0.00000E+00
 -1      3851 2.49000E+01 3.31130E+01 0.00000E+00
 -1      3852 2.64000E+01 3.31130E+01 0.00000E+00
 -1      3853 2.41500E+01 3.18140E+01 0.00000E+00
 -1      3854 1.89000E+01 3.31130E+01 0.00000E+00
 -1      3855 2.04000E+01 3.31130E+01 0.00000E+00
 -1      3856 2.11500E+01 3.18140E+01 0.00000E+00
 -1      3857 1.51500E+01 3.27735E+01 0.00000E+00
 -1      3858 1.74000E+01 3.29432E+01 0.00000E+00
 -1      3859 1.81500E+01 3.16443E+01 0.00000E+00
 -1      3860 1.51500E+01 3.13048E+01 0.00000E+00
 -1      3861 7.37850E+01 1.56973E+01 0.00000E+00
 -1      3862 7.22850E+01 1.56973E+01 0.00000E+00
 -1      3863 7.45350E+01 1.69963E+01 0.00000E+00
 -1      3864 7.97850E+01 1.56973E+01 0.00000E+00
 -1      3865 7.82850E+01 1.56973E+01 0.00000E+00
 -1      3866 7.75350E+01 1.69963E+01 0.00000E+00
 -1      3867 8.27850E+01 1.56973E+01 0.00000E+00
 -1      3868 8.12850E+01 1.56973E+01 0.00000E+00
 -1      3869 8.35350E+01 1.69963E+01 0.00000E+00
 -1      3870 3.29207E+01 1.58496E+01 0.00000E+00
 -1      3871 1.45679E+01 1.78713E+01 0.00000E+00
 -1      3872 1.32973E+02 1.60304E+01 0.00000E+00
 -1      3873 1.32223E+02 1.73294E+01 0.00000E+00
 -1      3874 6.79905E+01 2.11801E+01 0.00000E+00
 -1      3875 6.88558E+01 2.21454E+01 0.00000E+00
 -1      3876 6.87471E+01 1.99139E+01 0.00000E+00
 -1      3877 6.90546E+01 2.43400E+01 0.00000E+00
 -1      3878 6.81169E+01 2.53676E+01 0.00000E+00
 -1      3879 6.90723E+01 2.62961E+01 0.00000E+00
 -1      3880 2.50350E+01 1.43982E+01 0.00000E+00
 -1      3881 1.30778E+01 2.93766E+01 0.00000E+00
 -1      3882 1.38923E+01 2.98134E+01 0.00000E+00
 -1      3883 1.33200E+01 2.80550E+01 0.00000E+00
 -1      3884 6.76000E+01 2.87303E+01 0.00000E+00
 -1      3885 7.15951E+01 1.70146E+01 0.00000E+00
 -1      3886 7.08451E+01 1.57156E+01 0.00000E+00
 -1      3887 6.94053E+01 1.57340E+01 0.00000E+00
 -1      3888 1.90627E+01 1.43129E+01 0.00000E+00
 -1      3889 1.32615E+02 3.22287E+01 0.00000E+00
 -1      3890 3.14207E+01 1.58496E+01 0.00000E+00
 -1      3891 2.99207E+01 1.58496E+01 0.00000E+00
 -1      3892 3.18063E+01 1.73009E+01 0.00000E+00
 -1      3893 1.32223E+02 2.02638E+01 0.00000E+00
 -1      3894 1.32223E+02 1.87966E+01 0.00000E+00
 -1      3895 1.30035E+02 1.84634E+01 0.00000E+00
 -1      3896 3.18896E+01 2.31974E+01 0.00000E+00
 -1      3897 3.22684E+01 2.19908E+01 0.00000E+00
 -1      3898 1.34496E+02 3.10343E+01 0.00000E+00
 -1      3899 8.05350E+01 1.69963E+01 0.00000E+00
 -1      3900 3.15983E+01 2.10272E+01 0.00000E+00
 -1      3901 2.71500E+01 3.18140E+01 0.00000E+00
 -1      3902 6.85304E+01 1.69725E+01 0.00000E+00
 -1      3903 6.90185E+01 1.79908E+01 0.00000E+00
 -1      3904 2.27850E+01 1.56973E+01 0.00000E+00
 -1      3905 2.12850E+01 1.56973E+01 0.00000E+00
 -1      3906 1.33113E+02 2.57391E+01 0.00000E+00
 -1      3907 1.33113E+02 2.42672E+01 0.00000E+00
 -1      3908 1.33113E+02 2.86891E+01 0.00000E+00
 -1      3909 1.33113E+02 2.72141E+01 0.00000E+00
 -1      3910 1.31814E+02 2.64781E+01 0.00000E+00
 -1      3911 6.59465E+01 3.12418E+01 0.00000E+00
 -1      3912 1.98127E+01 1.56119E+01 0.00000E+00
 -1      3913 1.83404E+01 1.55266E+01 0.00000E+00
 -1      3914 2.05627E+01 1.69109E+01 0.00000E+00
 -1      3915 1.39256E+01 2.54870E+01 0.00000E+00
 -1      3916 1.36834E+01 2.68086E+01 0.00000E+00
 -1      3917 1.44979E+01 2.72455E+01 0.00000E+00
 -1      3918 1.52246E+01 2.47527E+01 0.00000E+00
 -1      3919 1.58669E+01 1.86056E+01 0.00000E+00
 -1      3920 1.68870E+01 2.12938E+01 0.00000E+00
 -1      3921 1.68870E+01 2.27687E+01 0.00000E+00
 -1      3922 1.70170E+01 1.73922E+01 0.00000E+00
 -1      3923 1.67381E+01 1.93428E+01 0.00000E+00
 -1      3924 1.80371E+01 2.00803E+01 0.00000E+00
 -1      3925 1.77393E+01 1.61785E+01 0.00000E+00
 -1      3926 3.26844E+01 3.05811E+01 0.00000E+00
 -1      3927 3.29589E+01 2.92248E+01 0.00000E+00
 -1      3928 3.19174E+01 2.83159E+01 0.00000E+00
 -1      3929 3.14221E+01 3.06098E+01 0.00000E+00
 -1      3930 7.23316E+01 1.83043E+01 0.00000E+00
 -1      3931 7.08918E+01 1.83227E+01 0.00000E+00
 -1      3932 3.11997E+01 2.62203E+01 0.00000E+00
 -1      3933 3.14563E+01 2.46897E+01 0.00000E+00
 -1      3934 7.14000E+01 3.05150E+01 0.00000E+00
 -1      3935 7.29000E+01 3.05150E+01 0.00000E+00
 -1      3936 7.44000E+01 3.05150E+01 0.00000E+00
 -1      3937 7.59000E+01 3.05150E+01 0.00000E+00
 -1      3938 7.36500E+01 2.92160E+01 0.00000E+00
 -1      3939 7.74000E+01 3.05150E+01 0.00000E+00
 -1      3940 7.89000E+01 3.05150E+01 0.00000E+00
 -1      3941 7.66500E+01 2.92160E+01 0.00000E+00
 -1      3942 8.04000E+01 3.05150E+01 0.00000E+00
 -1      3943 8.19000E+01 3.05150E+01 0.00000E+00
 -1      3944 7.96500E+01 2.92160E+01 0.00000E+00
 -1      3945 8.34000E+01 3.05150E+01 0.00000E+00
 -1      3946 8.49000E+01 3.05150E+01 0.00000E+00
 -1      3947 8.26500E+01 2.92160E+01 0.00000E+00
 -1      3948 8.64000E+01 3.05150E+01 0.00000E+00
 -1      3949 8.79000E+01 3.05150E+01 0.00000E+00
 -1      3950 8.56500E+01 2.92160E+01 0.00000E+00
 -1      3951 8.94000E+01 3.05150E+01 0.00000E+00
 -1      3952 9.09000E+01 3.05150E+01 0.00000E+00
 -1      3953 8.86500E+01 2.92160E+01 0.00000E+00
 -1      3954 9.24000E+01 3.05150E+01 0.00000E+00
 -1      3955 9.39000E+01 3.05150E+01 0.00000E+00
 -1      3956 9.16500E+01 2.92160E+01 0.00000E+00
 -1      3957 9.54000E+01 3.05150E+01 0.00000E+00
 -1      3958 9.69000E+01 3.05150E+01 0.00000E+00
 -1      3959 9.46500E+01 2.92160E+01 0.00000E+00
 -1      3960 9.84000E+01 3.05150E+01 0.00000E+00
 -1      3961 9.99000E+01 3.05150E+01 0.00000E+00
 -1      3962 9.76500E+01 2.92160E+01 0.00000E+00
 -1      3963 1.01400E+02 3.05150E+01 0.00000E+00
 -1      3964 1.02900E+02 3.05150E+01 0.00000E+00
 -1      3965 1.00650E+02 2.92160E+01 0.00000E+00
 -1      3966 1.04400E+02 3.05150E+01 0.00000E+00
 -1      3967 1.05900E+02 3.05150E+01 0.00000E+00
 -1      3968 1.03650E+02 2.92160E+01 0.00000E+00
 -1      3969 1.07400E+02 3.05150E+01 0.00000E+00
 -1      3970 1.08900E+02 3.05150E+01 0.00000E+00
 -1      3971 1.06650E+02 2.92160E+01 0.00000E+00
 -1      3972 1.10400E+02 3.05150E+01 0.00000E+00
 -1      3973 1.11900E+02 3.05150E+01 0.00000E+00
 -1      3974 1.09650E+02 2.92160E+01 0.00000E+00
 -1      3975 1.13400E+02 3.05150E+01 0.00000E+00
 -1      3976 1.14900E+02 3.05150E+01 0.00000E+00
 -1      3977 1.12650E+02 2.92160E+01 0.00000E+00
 -1      3978 1.16400E+02 3.05150E+01 0.00000E+00
 -1      3979 1.17900E+02 3.05150E+01 0.00000E+00
 -1      3980 1.15650E+02 2.92160E+01 0.00000E+00
 -1      3981 1.19400E+02 3.05150E+01 0.00000E+00
 -1      3982 1.20900E+02 3.05150E+01 0.00000E+00
 -1      3983 1.18650E+02 2.92160E+01 0.00000E+00
 -1      3984 1.22400E+02 3.05150E+01 0.00000E+00
 -1      3985 1.23900E+02 3.05150E+01 0.00000E+00
 -1      3986 1.21650E+02 2.92160E+01 0.00000E+00
 -1      3987 1.25400E+02 3.05150E+01 0.00000E+00
 -1      3988 1.26900E+02 3.05150E+01 0.00000E+00
 -1      3989 1.24650E+02 2.92160E+01 0.00000E+00
 -1      3990 1.28400E+02 3.05150E+01 0.00000E+00
 -1      3991 1.29900E+02 3.05150E+01 0.00000E+00
 -1      3992 1.27650E+02 2.92160E+01 0.00000E+00
 -1      3993 9.02850E+01 1.82952E+01 0.00000E+00
 -1      3994 8.87850E+01 1.82952E+01 0.00000E+00
 -1      3995 3.06677E+01 2.37794E+01 0.00000E+00
 -1      3996 1.32531E+02 3.06195E+01 0.00000E+00
 -1      3997 9.62850E+01 1.82952E+01 0.00000E+00
 -1      3998 9.47850E+01 1.82952E+01 0.00000E+00
 -1      3999 6.73577E+01 3.09755E+01 0.00000E+00
 -1      4000 9.32850E+01 1.82952E+01 0.00000E+00
 -1      4001 9.17850E+01 1.82952E+01 0.00000E+00
 -1      4002 9.10350E+01 1.95942E+01 0.00000E+00
 -1      4003 9.40350E+01 1.95942E+01 0.00000E+00
 -1      4004 8.72850E+01 1.82952E+01 0.00000E+00
 -1      4005 8.57850E+01 1.82952E+01 0.00000E+00
 -1      4006 8.80350E+01 1.95942E+01 0.00000E+00
 -1      4007 9.92850E+01 1.82952E+01 0.00000E+00
 -1      4008 9.77850E+01 1.82952E+01 0.00000E+00
 -1      4009 9.70350E+01 1.95942E+01 0.00000E+00
 -1      4010 1.02285E+02 1.82952E+01 0.00000E+00
 -1      4011 1.00785E+02 1.82952E+01 0.00000E+00
 -1      4012 1.00035E+02 1.95942E+01 0.00000E+00
 -1      4013 1.05285E+02 1.82952E+01 0.00000E+00
 -1      4014 1.03785E+02 1.82952E+01 0.00000E+00
 -1      4015 1.03035E+02 1.95942E+01 0.00000E+00
 -1      4016 1.08285E+02 1.82952E+01 0.00000E+00
 -1      4017 1.06785E+02 1.82952E+01 0.00000E+00
 -1      4018 1.06035E+02 1.95942E+01 0.00000E+00
 -1      4019 1.11285E+02 1.82952E+01 0.00000E+00
 -1      4020 1.09785E+02 1.82952E+01 0.00000E+00
 -1      4021 1.09035E+02 1.95942E+01 0.00000E+00
 -1      4022 1.14285E+02 1.82952E+01 0.00000E+00
 -1      4023 1.12785E+02 1.82952E+01 0.00000E+00
 -1      4024 1.12035E+02 1.95942E+01 0.00000E+00
 -1      4025 1.17285E+02 1.82952E+01 0.00000E+00
 -1      4026 1.15785E+02 1.82952E+01 0.00000E+00
 -1      4027 1.15035E+02 1.95942E+01 0.00000E+00
 -1      4028 1.20285E+02 1.82952E+01 0.00000E+00
 -1      4029 1.18785E+02 1.82952E+01 0.00000E+00
 -1      4030 1.18035E+02 1.95942E+01 0.00000E+00
 -1      4031 1.23285E+02 1.82952E+01 0.00000E+00
 -1      4032 1.21785E+02 1.82952E+01 0.00000E+00
 -1      4033 1.21035E+02 1.95942E+01 0.00000E+00
 -1      4034 1.26285E+02 1.82952E+01 0.00000E+00
 -1      4035 1.24785E+02 1.82952E+01 0.00000E+00
 -1      4036 1.24035E+02 1.95942E+01 0.00000E+00
 -1      4037 1.28910E+02 1.83793E+01 0.00000E+00
 -1      4038 1.27410E+02 1.83793E+01 0.00000E+00
 -1      4039 1.26660E+02 1.96783E+01 0.00000E+00
 -1      4040 1.28910E+02 1.98465E+01 0.00000E+00
 -1      4041 7.82850E+01 1.82952E+01 0.00000E+00
 -1      4042 7.67850E+01 1.82952E+01 0.00000E+00
 -1      4043 2.42850E+01 1.56973E+01 0.00000E+00
 -1      4044 2.35350E+01 1.69963E+01 0.00000E+00
 -1      4045 2.57850E+01 1.56973E+01 0.00000E+00
 -1      4046 2.04000E+01 3.05150E+01 0.00000E+00
 -1      4047 2.19000E+01 3.05150E+01 0.00000E+00
 -1      4048 3.12010E+01 1.85341E+01 0.00000E+00
 -1      4049 6.86288E+01 3.07452E+01 0.00000E+00
 -1      4050 7.01288E+01 3.07452E+01 0.00000E+00
 -1      4051 7.08788E+01 2.94462E+01 0.00000E+00
 -1      4052 6.83365E+01 2.99067E+01 0.00000E+00
 -1      4053 6.88712E+01 2.85001E+01 0.00000E+00
 -1      4054 2.86028E+01 1.57734E+01 0.00000E+00
 -1      4055 2.71028E+01 1.57734E+01 0.00000E+00
 -1      4056 2.63528E+01 1.70724E+01 0.00000E+00
 -1      4057 2.89885E+01 1.72247E+01 0.00000E+00
 -1      4058 1.32668E+02 2.29991E+01 0.00000E+00
 -1      4059 1.32668E+02 2.15319E+01 0.00000E+00
 -1      4060 1.30480E+02 2.11987E+01 0.00000E+00
 -1      4061 1.31369E+02 2.37350E+01 0.00000E+00
 -1      4062 7.53083E+01 1.82998E+01 0.00000E+00
 -1      4063 7.38083E+01 1.82998E+01 0.00000E+00
 -1      4064 7.31050E+01 1.96079E+01 0.00000E+00
 -1      4065 7.60583E+01 1.95988E+01 0.00000E+00
 -1      4066 8.12850E+01 1.82952E+01 0.00000E+00
 -1      4067 7.97850E+01 1.82952E+01 0.00000E+00
 -1      4068 7.90350E+01 1.95942E+01 0.00000E+00
 -1      4069 6.97550E+01 1.92805E+01 0.00000E+00
 -1      4070 3.02062E+01 2.10538E+01 0.00000E+00
 -1      4071 3.07036E+01 1.97940E+01 0.00000E+00
 -1      4072 2.98090E+01 1.85607E+01 0.00000E+00
 -1      4073 8.42850E+01 1.82952E+01 0.00000E+00
 -1      4074 8.27850E+01 1.82952E+01 0.00000E+00
 -1      4075 8.50350E+01 1.95942E+01 0.00000E+00
 -1      4076 2.34000E+01 3.05150E+01 0.00000E+00
 -1      4077 2.49000E+01 3.05150E+01 0.00000E+00
 -1      4078 2.26500E+01 2.92160E+01 0.00000E+00
 -1      4079 1.81778E+01 2.35296E+01 0.00000E+00
 -1      4080 1.68788E+01 2.42671E+01 0.00000E+00
 -1      4081 2.64000E+01 3.05150E+01 0.00000E+00
 -1      4082 2.79000E+01 3.05150E+01 0.00000E+00
 -1      4083 2.56500E+01 2.92160E+01 0.00000E+00
 -1      4084 6.98111E+01 2.30738E+01 0.00000E+00
 -1      4085 7.07665E+01 2.40023E+01 0.00000E+00
 -1      4086 7.05677E+01 2.18076E+01 0.00000E+00
 -1      4087 1.31232E+02 2.98836E+01 0.00000E+00
 -1      4088 1.30482E+02 2.85846E+01 0.00000E+00
 -1      4089 8.20350E+01 1.95942E+01 0.00000E+00
 -1      4090 2.93397E+01 2.40385E+01 0.00000E+00
 -1      4091 2.97730E+01 2.25461E+01 0.00000E+00
 -1      4092 2.88783E+01 2.13129E+01 0.00000E+00
 -1      4093 6.96073E+01 2.72830E+01 0.00000E+00
 -1      4094 7.03438E+01 2.84594E+01 0.00000E+00
 -1      4095 7.16150E+01 2.82291E+01 0.00000E+00
 -1      4096 7.05450E+01 2.62554E+01 0.00000E+00
 -1      4097 7.06203E+01 2.02458E+01 0.00000E+00
 -1      4098 1.30366E+02 2.47990E+01 0.00000E+00
 -1      4099 1.29921E+02 2.35308E+01 0.00000E+00
 -1      4100 2.42850E+01 1.82952E+01 0.00000E+00
 -1      4101 2.27850E+01 1.82952E+01 0.00000E+00
 -1      4102 1.89000E+01 3.03452E+01 0.00000E+00
 -1      4103 1.96500E+01 2.90462E+01 0.00000E+00
 -1      4104 1.74000E+01 3.01755E+01 0.00000E+00
 -1      4105 2.90299E+01 3.05767E+01 0.00000E+00
 -1      4106 3.02922E+01 3.05480E+01 0.00000E+00
 -1      4107 3.05398E+01 2.94011E+01 0.00000E+00
 -1      4108 2.82799E+01 2.92777E+01 0.00000E+00
 -1      4109 1.92579E+01 1.90060E+01 0.00000E+00
 -1      4110 1.94068E+01 2.09569E+01 0.00000E+00
 -1      4111 1.30424E+02 2.74293E+01 0.00000E+00
 -1      4112 1.30424E+02 2.59543E+01 0.00000E+00
 -1      4113 1.28976E+02 2.57501E+01 0.00000E+00
 -1      4114 1.29092E+02 2.80607E+01 0.00000E+00
 -1      4115 1.65155E+01 2.55135E+01 0.00000E+00
 -1      4116 1.53923E+01 2.99832E+01 0.00000E+00
 -1      4117 1.94809E+01 2.27875E+01 0.00000E+00
 -1      4118 1.94727E+01 2.42859E+01 0.00000E+00
 -1      4119 2.07017E+01 2.17132E+01 0.00000E+00
 -1      4120 3.07460E+01 2.83842E+01 0.00000E+00
 -1      4121 3.09936E+01 2.72373E+01 0.00000E+00
 -1      4122 3.00283E+01 2.62886E+01 0.00000E+00
 -1      4123 2.96160E+01 2.83225E+01 0.00000E+00
 -1      4124 2.20813E+01 1.97384E+01 0.00000E+00
 -1      4125 2.13313E+01 1.84394E+01 0.00000E+00
 -1      4126 2.84911E+01 1.84846E+01 0.00000E+00
 -1      4127 9.77850E+01 2.08932E+01 0.00000E+00
 -1      4128 9.62850E+01 2.08932E+01 0.00000E+00
 -1      4129 2.56028E+01 1.83714E+01 0.00000E+00
 -1      4130 2.48528E+01 1.96704E+01 0.00000E+00
 -1      4131 2.69207E+01 1.84476E+01 0.00000E+00
 -1      4132 7.59000E+01 2.79170E+01 0.00000E+00
 -1      4133 7.74000E+01 2.79170E+01 0.00000E+00
 -1      4134 7.89000E+01 2.79170E+01 0.00000E+00
 -1      4135 8.04000E+01 2.79170E+01 0.00000E+00
 -1      4136 7.81500E+01 2.66180E+01 0.00000E+00
 -1      4137 8.19000E+01 2.79170E+01 0.00000E+00
 -1      4138 8.34000E+01 2.79170E+01 0.00000E+00
 -1      4139 8.11500E+01 2.66180E+01 0.00000E+00
 -1      4140 8.49000E+01 2.79170E+01 0.00000E+00
 -1      4141 8.64000E+01 2.79170E+01 0.00000E+00
 -1      4142 8.41500E+01 2.66180E+01 0.00000E+00
 -1      4143 8.79000E+01 2.79170E+01 0.00000E+00
 -1      4144 8.94000E+01 2.79170E+01 0.00000E+00
 -1      4145 8.71500E+01 2.66180E+01 0.00000E+00
 -1      4146 9.09000E+01 2.79170E+01 0.00000E+00
 -1      4147 9.24000E+01 2.79170E+01 0.00000E+00
 -1      4148 9.01500E+01 2.66180E+01 0.00000E+00
 -1      4149 9.39000E+01 2.79170E+01 0.00000E+00
 -1      4150 9.54000E+01 2.79170E+01 0.00000E+00
 -1      4151 9.31500E+01 2.66180E+01 0.00000E+00
 -1      4152 9.69000E+01 2.79170E+01 0.00000E+00
 -1      4153 9.84000E+01 2.79170E+01 0.00000E+00
 -1      4154 9.61500E+01 2.66180E+01 0.00000E+00
 -1      4155 9.99000E+01 2.79170E+01 0.00000E+00
 -1      4156 1.01400E+02 2.79170E+01 0.00000E+00
 -1      4157 9.91500E+01 2.66180E+01 0.00000E+00
 -1      4158 1.02900E+02 2.79170E+01 0.00000E+00
 -1      4159 1.04400E+02 2.79170E+01 0.00000E+00
 -1      4160 1.02150E+02 2.66180E+01 0.00000E+00
 -1      4161 1.05900E+02 2.79170E+01 0.00000E+00
 -1      4162 1.07400E+02 2.79170E+01 0.00000E+00
 -1      4163 1.05150E+02 2.66180E+01 0.00000E+00
 -1      4164 1.08900E+02 2.79170E+01 0.00000E+00
 -1      4165 1.10400E+02 2.79170E+01 0.00000E+00
 -1      4166 1.08150E+02 2.66180E+01 0.00000E+00
 -1      4167 1.11900E+02 2.79170E+01 0.00000E+00
 -1      4168 1.13400E+02 2.79170E+01 0.00000E+00
 -1      4169 1.11150E+02 2.66180E+01 0.00000E+00
 -1      4170 1.14900E+02 2.79170E+01 0.00000E+00
 -1      4171 1.16400E+02 2.79170E+01 0.00000E+00
 -1      4172 1.14150E+02 2.66180E+01 0.00000E+00
 -1      4173 1.17900E+02 2.79170E+01 0.00000E+00
 -1      4174 1.19400E+02 2.79170E+01 0.00000E+00
 -1      4175 1.17150E+02 2.66180E+01 0.00000E+00
 -1      4176 1.20900E+02 2.79170E+01 0.00000E+00
 -1      4177 1.22400E+02 2.79170E+01 0.00000E+00
 -1      4178 1.20150E+02 2.66180E+01 0.00000E+00
 -1      4179 1.23900E+02 2.79170E+01 0.00000E+00
 -1      4180 1.25400E+02 2.79170E+01 0.00000E+00
 -1      4181 1.23150E+02 2.66180E+01 0.00000E+00
 -1      4182 1.27592E+02 2.80607E+01 0.00000E+00
 -1      4183 8.87850E+01 2.08932E+01 0.00000E+00
 -1      4184 8.72850E+01 2.08932E+01 0.00000E+00
 -1      4185 7.97850E+01 2.08932E+01 0.00000E+00
 -1      4186 7.82850E+01 2.08932E+01 0.00000E+00
 -1      4187 1.00785E+02 2.08932E+01 0.00000E+00
 -1      4188 9.92850E+01 2.08932E+01 0.00000E+00
 -1      4189 9.85350E+01 2.21922E+01 0.00000E+00
 -1      4190 1.81598E+01 2.69523E+01 0.00000E+00
 -1      4191 1.65056E+01 2.74378E+01 0.00000E+00
 -1      4192 7.15757E+01 2.11743E+01 0.00000E+00
 -1      4193 1.03785E+02 2.08932E+01 0.00000E+00
 -1      4194 1.02285E+02 2.08932E+01 0.00000E+00
 -1      4195 1.01535E+02 2.21922E+01 0.00000E+00
 -1      4196 1.06785E+02 2.08932E+01 0.00000E+00
 -1      4197 1.05285E+02 2.08932E+01 0.00000E+00
 -1      4198 1.04535E+02 2.21922E+01 0.00000E+00
 -1      4199 1.09785E+02 2.08932E+01 0.00000E+00
 -1      4200 1.08285E+02 2.08932E+01 0.00000E+00
 -1      4201 1.07535E+02 2.21922E+01 0.00000E+00
 -1      4202 1.12785E+02 2.08932E+01 0.00000E+00
 -1      4203 1.11285E+02 2.08932E+01 0.00000E+00
 -1      4204 1.10535E+02 2.21922E+01 0.00000E+00
 -1      4205 1.15785E+02 2.08932E+01 0.00000E+00
 -1      4206 1.14285E+02 2.08932E+01 0.00000E+00
 -1      4207 1.13535E+02 2.21922E+01 0.00000E+00
 -1      4208 1.18785E+02 2.08932E+01 0.00000E+00
 -1      4209 1.17285E+02 2.08932E+01 0.00000E+00
 -1      4210 1.16535E+02 2.21922E+01 0.00000E+00
 -1      4211 1.21785E+02 2.08932E+01 0.00000E+00
 -1      4212 1.20285E+02 2.08932E+01 0.00000E+00
 -1      4213 1.19535E+02 2.21922E+01 0.00000E+00
 -1      4214 1.24785E+02 2.08932E+01 0.00000E+00
 -1      4215 1.23285E+02 2.08932E+01 0.00000E+00
 -1      4216 1.22535E+02 2.21922E+01 0.00000E+00
 -1      4217 8.27850E+01 2.08932E+01 0.00000E+00
 -1      4218 8.12850E+01 2.08932E+01 0.00000E+00
 -1      4219 8.05350E+01 2.21922E+01 0.00000E+00
 -1      4220 1.61423E+01 2.86842E+01 0.00000E+00
 -1      4221 1.98590E+01 1.83541E+01 0.00000E+00
 -1      4222 2.49000E+01 2.79170E+01 0.00000E+00
 -1      4223 2.64000E+01 2.79170E+01 0.00000E+00
 -1      4224 8.57850E+01 2.08932E+01 0.00000E+00
 -1      4225 8.42850E+01 2.08932E+01 0.00000E+00
 -1      4226 8.65350E+01 2.21922E+01 0.00000E+00
 -1      4227 2.19000E+01 2.79170E+01 0.00000E+00
 -1      4228 2.34000E+01 2.79170E+01 0.00000E+00
 -1      4229 2.41500E+01 2.66180E+01 0.00000E+00
 -1      4230 2.21554E+01 2.15690E+01 0.00000E+00
 -1      4231 7.30075E+01 2.80731E+01 0.00000E+00
 -1      4232 7.45075E+01 2.80731E+01 0.00000E+00
 -1      4233 7.52575E+01 2.67741E+01 0.00000E+00
 -1      4234 7.24725E+01 2.70862E+01 0.00000E+00
 -1      4235 1.29638E+02 2.23228E+01 0.00000E+00
 -1      4236 1.29193E+02 2.10546E+01 0.00000E+00
 -1      4237 1.28068E+02 2.09705E+01 0.00000E+00
 -1      4238 1.28634E+02 2.33867E+01 0.00000E+00
 -1      4239 2.39101E+01 2.13256E+01 0.00000E+00
 -1      4240 2.25305E+01 2.33003E+01 0.00000E+00
 -1      4241 1.84893E+01 1.74775E+01 0.00000E+00
 -1      4242 2.52279E+01 2.14017E+01 0.00000E+00
 -1      4243 1.26842E+02 2.67617E+01 0.00000E+00
 -1      4244 1.27511E+02 2.42872E+01 0.00000E+00
 -1      4245 1.27228E+02 2.30791E+01 0.00000E+00
 -1      4246 9.02850E+01 2.08932E+01 0.00000E+00
 -1      4247 8.95350E+01 2.21922E+01 0.00000E+00
 -1      4248 9.17850E+01 2.08932E+01 0.00000E+00
 -1      4249 7.75583E+01 2.21968E+01 0.00000E+00
 -1      4250 7.68083E+01 2.08978E+01 0.00000E+00
 -1      4251 7.53316E+01 2.09023E+01 0.00000E+00
 -1      4252 2.88216E+01 2.53554E+01 0.00000E+00
 -1      4253 2.79270E+01 2.41222E+01 0.00000E+00
 -1      4254 7.14024E+01 2.51124E+01 0.00000E+00
 -1      4255 7.19375E+01 2.60993E+01 0.00000E+00
 -1      4256 7.33300E+01 2.59432E+01 0.00000E+00
 -1      4257 1.96598E+01 2.71220E+01 0.00000E+00
 -1      4258 7.30524E+01 2.11697E+01 0.00000E+00
 -1      4259 9.47850E+01 2.08932E+01 0.00000E+00
 -1      4260 9.32850E+01 2.08932E+01 0.00000E+00
 -1      4261 9.25350E+01 2.21922E+01 0.00000E+00
 -1      4262 9.55350E+01 2.21922E+01 0.00000E+00
 -1      4263 8.35350E+01 2.21922E+01 0.00000E+00
 -1      4264 2.77411E+01 1.97836E+01 0.00000E+00
 -1      4265 2.74430E+01 2.80889E+01 0.00000E+00
 -1      4266 2.85730E+01 2.81506E+01 0.00000E+00
 -1      4267 2.87791E+01 2.71337E+01 0.00000E+00
 -1      4268 2.66930E+01 2.67899E+01 0.00000E+00
 -1      4269 2.73079E+01 2.12759E+01 0.00000E+00
 -1      4270 7.21590E+01 2.38462E+01 0.00000E+00
 -1      4271 2.86155E+01 2.63724E+01 0.00000E+00
 -1      4272 2.17129E+01 2.50809E+01 0.00000E+00
 -1      4273 2.04098E+01 2.58230E+01 0.00000E+00
 -1      4274 2.34676E+01 2.48374E+01 0.00000E+00
 -1      4275 1.27569E+02 2.54425E+01 0.00000E+00
 -1      4276 8.08425E+01 2.44051E+01 0.00000E+00
 -1      4277 8.23425E+01 2.44051E+01 0.00000E+00
 -1      4278 8.38425E+01 2.44051E+01 0.00000E+00
 -1      4279 8.53425E+01 2.44051E+01 0.00000E+00
 -1      4280 8.68425E+01 2.44051E+01 0.00000E+00
 -1      4281 8.83425E+01 2.44051E+01 0.00000E+00
 -1      4282 8.98425E+01 2.44051E+01 0.00000E+00
 -1      4283 9.13425E+01 2.44051E+01 0.00000E+00
 -1      4284 9.28425E+01 2.44051E+01 0.00000E+00
 -1      4285 9.43425E+01 2.44051E+01 0.00000E+00
 -1      4286 9.58425E+01 2.44051E+01 0.00000E+00
 -1      4287 9.73425E+01 2.44051E+01 0.00000E+00
 -1      4288 9.88425E+01 2.44051E+01 0.00000E+00
 -1      4289 1.00342E+02 2.44051E+01 0.00000E+00
 -1      4290 1.01842E+02 2.44051E+01 0.00000E+00
 -1      4291 1.03342E+02 2.44051E+01 0.00000E+00
 -1      4292 1.04842E+02 2.44051E+01 0.00000E+00
 -1      4293 1.06342E+02 2.44051E+01 0.00000E+00
 -1      4294 1.07842E+02 2.44051E+01 0.00000E+00
 -1      4295 1.09342E+02 2.44051E+01 0.00000E+00
 -1      4296 1.10842E+02 2.44051E+01 0.00000E+00
 -1      4297 1.12342E+02 2.44051E+01 0.00000E+00
 -1      4298 1.13842E+02 2.44051E+01 0.00000E+00
 -1      4299 1.15342E+02 2.44051E+01 0.00000E+00
 -1      4300 1.16842E+02 2.44051E+01 0.00000E+00
 -1      4301 1.18342E+02 2.44051E+01 0.00000E+00
 -1      4302 1.19842E+02 2.44051E+01 0.00000E+00
 -1      4303 1.21342E+02 2.44051E+01 0.00000E+00
 -1      4304 1.22842E+02 2.44051E+01 0.00000E+00
 -1      4305 1.24342E+02 2.44051E+01 0.00000E+00
 -1      4306 2.49676E+01 2.48374E+01 0.00000E+00
 -1      4307 7.93425E+01 2.44051E+01 0.00000E+00
 -1      4308 1.26943E+02 2.08864E+01 0.00000E+00
 -1      4309 1.26193E+02 2.21854E+01 0.00000E+00
 -1      4310 7.38024E+01 2.24687E+01 0.00000E+00
 -1      4311 2.63651E+01 2.29311E+01 0.00000E+00
 -1      4312 7.78425E+01 2.44051E+01 0.00000E+00
 -1      4313 7.44383E+01 2.35788E+01 0.00000E+00
 -1      4314 7.63658E+01 2.44097E+01 0.00000E+00
 -1      4315 1.25070E+02 2.30859E+01 0.00000E+00
 -1      4316 1.25378E+02 2.52988E+01 0.00000E+00
 -1      4317 2.58470E+01 2.42480E+01 0.00000E+00
 -1      4318 2.65295E+01 2.60286E+01 0.00000E+00
 -1      4319 2.75725E+01 2.62005E+01 0.00000E+00
 -1      4320 7.47225E+01 2.57872E+01 0.00000E+00
 -3
    3C                          2078                                     1
 -1       165    8    0    1
 -2         6         7        23      1122      1286      1139
 -1       166    8    0    1
 -2         7         8       165      1123      1287      1288
 -1       167    8    0    1
 -2         8         9       166      1124      1289      1290
 -1       168    8    0    1
 -2         8       166       165      1290      1291      1287
 -1       169    8    0    1
 -2         9        10       167      1125      1292      1293
 -1       170    8    0    1
 -2         9       167       166      1293      1294      1289
 -1       171    8    0    1
 -2        10        11       168      1126      1295      1296
 -1       172    8    0    1
 -2        10       168       167      1296      1297      1292
 -1       173    8    0    1
 -2        11        12       169      1127      1298      1299
 -1       174    8    0    1
 -2        11       169       168      1299      1300      1295
 -1       175    8    0    1
 -2        12        13       170      1128      1301      1302
 -1       176    8    0    1
 -2        12       170       169      1302      1303      1298
 -1       177    8    0    1
 -2        13        14       171      1129      1304      1305
 -1       178    8    0    1
 -2        13       171       170      1305      1306      1301
 -1       179    8    0    1
 -2        14        15       172      1130      1307      1308
 -1       180    8    0    1
 -2        14       172       171      1308      1309      1304
 -1       181    8    0    1
 -2        15        16       173      1131      1310      1311
 -1       182    8    0    1
 -2        15       173       172      1311      1312      1307
 -1       183    8    0    1
 -2        16        17       174      1132      1313      1314
 -1       184    8    0    1
 -2        16       174       173      1314      1315      1310
 -1       185    8    0    1
 -2        17        18       175      1133      1316      1317
 -1       186    8    0    1
 -2        17       175       174      1317      1318      1313
 -1       187    8    0    1
 -2        18        19       176      1134      1319      1320
 -1       188    8    0    1
 -2        18       176       175      1320      1321      1316
 -1       189    8    0    1
 -2        19        20       177      1135      1322      1323
 -1       190    8    0    1
 -2        19       177       176      1323      1324      1319
 -1       191    8    0    1
 -2        20        21       178      1136      1325      1326
 -1       192    8    0    1
 -2        20       178       177      1326      1327      1322
 -1       193    8    0    1
 -2        21        22       179      1137      1328      1329
 -1       194    8    0    1
 -2        21       179       178      1329      1330      1325
 -1       195    8    0    1
 -2        22         5       180      1138      1331      1332
 -1       196    8    0    1
 -2       179        22       180      1328      1332      1333
 -1       197    8    0    1
 -2         5        72       180      1189      1334      1331
 -1       198    8    0    1
 -2        24        23       181      1140      1335      1336
 -1       199    8    0    1
 -2        25        24       182      1141      1337      1338
 -1       200    8    0    1
 -2        24       181       182      1336      1339      1337
 -1       201    8    0    1
 -2        26        25       183      1142      1340      1341
 -1       202    8    0    1
 -2        25       182       183      1338      1342      1340
 -1       203    8    0    1
 -2        27        26       184      1143      1343      1344
 -1       204    8    0    1
 -2        26       183       184      1341      1345      1343
 -1       205    8    0    1
 -2        28        27       185      1144      1346      1347
 -1       206    8    0    1
 -2        27       184       185      1344      1348      1346
 -1       207    8    0    1
 -2        29        28       186      1145      1349      1350
 -1       208    8    0    1
 -2        28       185       186      1347      1351      1349
 -1       209    8    0    1
 -2        30        29       187      1146      1352      1353
 -1       210    8    0    1
 -2        29       186       187      1350      1354      1352
 -1       211    8    0    1
 -2        31        30       188      1147      1355      1356
 -1       212    8    0    1
 -2        30       187       188      1353      1357      1355
 -1       213    8    0    1
 -2        32        31       189      1148      1358      1359
 -1       214    8    0    1
 -2        31       188       189      1356      1360      1358
 -1       215    8    0    1
 -2        33        32       190      1149      1361      1362
 -1       216    8    0    1
 -2        32       189       190      1359      1363      1361
 -1       217    8    0    1
 -2        34        33       191      1150      1364      1365
 -1       218    8    0    1
 -2        33       190       191      1362      1366      1364
 -1       219    8    0    1
 -2        35        34       192      1151      1367      1368
 -1       220    8    0    1
 -2        34       191       192      1365      1369      1367
 -1       221    8    0    1
 -2        36        35       193      1152      1370      1371
 -1       222    8    0    1
 -2        35       192       193      1368      1372      1370
 -1       223    8    0    1
 -2        37        36       194      1153      1373      1374
 -1       224    8    0    1
 -2        36       193       194      1371      1375      1373
 -1       225    8    0    1
 -2        38        37       195      1154      1376      1377
 -1       226    8    0    1
 -2        37       194       195      1374      1378      1376
 -1       227    8    0    1
 -2        39        38       196      1155      1379      1380
 -1       228    8    0    1
 -2        38       195       196      1377      1381      1379
 -1       229    8    0    1
 -2        40        39       197      1156      1382      1383
 -1       230    8    0    1
 -2        39       196       197      1380      1384      1382
 -1       231    8    0    1
 -2        41        40       198      1157      1385      1386
 -1       232    8    0    1
 -2        40       197       198      1383      1387      1385
 -1       233    8    0    1
 -2        42        41       199      1158      1388      1389
 -1       234    8    0    1
 -2        41       198       199      1386      1390      1388
 -1       235    8    0    1
 -2        43        42       200      1159      1391      1392
 -1       236    8    0    1
 -2        42       199       200      1389      1393      1391
 -1       237    8    0    1
 -2        44        43       201      1160      1394      1395
 -1       238    8    0    1
 -2        43       200       201      1392      1396      1394
 -1       239    8    0    1
 -2        45        44       202      1161      1397      1398
 -1       240    8    0    1
 -2        44       201       202      1395      1399      1397
 -1       241    8    0    1
 -2        46        45       203      1162      1400      1401
 -1       242    8    0    1
 -2        45       202       203      1398      1402      1400
 -1       243    8    0    1
 -2        47        46       204      1163      1403      1404
 -1       244    8    0    1
 -2        46       203       204      1401      1405      1403
 -1       245    8    0    1
 -2        48        47       205      1164      1406      1407
 -1       246    8    0    1
 -2        47       204       205      1404      1408      1406
 -1       247    8    0    1
 -2        49        48       206      1165      1409      1410
 -1       248    8    0    1
 -2        48       205       206      1407      1411      1409
 -1       249    8    0    1
 -2        50        49       207      1166      1412      1413
 -1       250    8    0    1
 -2        49       206       207      1410      1414      1412
 -1       251    8    0    1
 -2        51        50       208      1167      1415      1416
 -1       252    8    0    1
 -2        50       207       208      1413      1417      1415
 -1       253    8    0    1
 -2        52        51       209      1168      1418      1419
 -1       254    8    0    1
 -2        51       208       209      1416      1420      1418
 -1       255    8    0    1
 -2        53        52       210      1169      1421      1422
 -1       256    8    0    1
 -2        52       209       210      1419      1423      1421
 -1       257    8    0    1
 -2        54        53       211      1170      1424      1425
 -1       258    8    0    1
 -2        53       210       211      1422      1426      1424
 -1       259    8    0    1
 -2        55        54       212      1171      1427      1428
 -1       260    8    0    1
 -2        54       211       212      1425      1429      1427
 -1       261    8    0    1
 -2        56        55       213      1172      1430      1431
 -1       262    8    0    1
 -2        55       212       213      1428      1432      1430
 -1       263    8    0    1
 -2        57        56       214      1173      1433      1434
 -1       264    8    0    1
 -2        56       213       214      1431      1435      1433
 -1       265    8    0    1
 -2        58        57       215      1174      1436      1437
 -1       266    8    0    1
 -2        57       214       215      1434      1438      1436
 -1       267    8    0    1
 -2        59        58       216      1175      1439      1440
 -1       268    8    0    1
 -2        58       215       216      1437      1441      1439
 -1       269    8    0    1
 -2        60        59       217      1176      1442      1443
 -1       270    8    0    1
 -2        59       216       217      1440      1444      1442
 -1       271    8    0    1
 -2        61        60       218      1177      1445      1446
 -1       272    8    0    1
 -2        60       217       218      1443      1447      1445
 -1       273    8    0    1
 -2        62        61       219      1178      1448      1449
 -1       274    8    0    1
 -2        61       218       219      1446      1450      1448
 -1       275    8    0    1
 -2        63        62       220      1179      1451      1452
 -1       276    8    0    1
 -2        62       219       220      1449      1453      1451
 -1       277    8    0    1
 -2        64        63       221      1180      1454      1455
 -1       278    8    0    1
 -2        63       220       221      1452      1456      1454
 -1       279    8    0    1
 -2        65        64       222      1181      1457      1458
 -1       280    8    0    1
 -2        64       221       222      1455      1459      1457
 -1       281    8    0    1
 -2        66        65       223      1182      1460      1461
 -1       282    8    0    1
 -2        65       222       223      1458      1462      1460
 -1       283    8    0    1
 -2        67        66       224      1183      1463      1464
 -1       284    8    0    1
 -2        66       223       224      1461      1465      1463
 -1       285    8    0    1
 -2        68        67       225      1184      1466      1467
 -1       286    8    0    1
 -2        67       224       225      1464      1468      1466
 -1       287    8    0    1
 -2        69        68       226      1185      1469      1470
 -1       288    8    0    1
 -2        68       225       226      1467      1471      1469
 -1       289    8    0    1
 -2        70        69       227      1186      1472      1473
 -1       290    8    0    1
 -2        69       226       227      1470      1474      1472
 -1       291    8    0    1
 -2        71        70       228      1187      1475      1476
 -1       292    8    0    1
 -2        70       227       228      1473      1477      1475
 -1       293    8    0    1
 -2         4        71       136      1188      1478      1255
 -1       294    8    0    1
 -2       136        71       228      1478      1476      1479
 -1       295    8    0    1
 -2        72        73       229      1190      1480      1481
 -1       296    8    0    1
 -2        72       229       180      1481      1482      1334
 -1       297    8    0    1
 -2        73        74       230      1191      1483      1484
 -1       298    8    0    1
 -2        73       230       229      1484      1485      1480
 -1       299    8    0    1
 -2        74        75       231      1192      1486      1487
 -1       300    8    0    1
 -2        74       231       230      1487      1488      1483
 -1       301    8    0    1
 -2        75        76       232      1193      1489      1490
 -1       302    8    0    1
 -2        75       232       231      1490      1491      1486
 -1       303    8    0    1
 -2        76        77       233      1194      1492      1493
 -1       304    8    0    1
 -2        76       233       232      1493      1494      1489
 -1       305    8    0    1
 -2        77        78       234      1195      1495      1496
 -1       306    8    0    1
 -2        77       234       233      1496      1497      1492
 -1       307    8    0    1
 -2        78        79       235      1196      1498      1499
 -1       308    8    0    1
 -2        78       235       234      1499      1500      1495
 -1       309    8    0    1
 -2        79        80       236      1197      1501      1502
 -1       310    8    0    1
 -2        79       236       235      1502      1503      1498
 -1       311    8    0    1
 -2        80        81       237      1198      1504      1505
 -1       312    8    0    1
 -2        80       237       236      1505      1506      1501
 -1       313    8    0    1
 -2        81        82       238      1199      1507      1508
 -1       314    8    0    1
 -2        81       238       237      1508      1509      1504
 -1       315    8    0    1
 -2        82        83       239      1200      1510      1511
 -1       316    8    0    1
 -2        82       239       238      1511      1512      1507
 -1       317    8    0    1
 -2        83        84       240      1201      1513      1514
 -1       318    8    0    1
 -2        83       240       239      1514      1515      1510
 -1       319    8    0    1
 -2        84        85       241      1202      1516      1517
 -1       320    8    0    1
 -2        84       241       240      1517      1518      1513
 -1       321    8    0    1
 -2        85        86       242      1203      1519      1520
 -1       322    8    0    1
 -2        85       242       241      1520      1521      1516
 -1       323    8    0    1
 -2        86        87       243      1204      1522      1523
 -1       324    8    0    1
 -2        86       243       242      1523      1524      1519
 -1       325    8    0    1
 -2        87        88       244      1205      1525      1526
 -1       326    8    0    1
 -2        87       244       243      1526      1527      1522
 -1       327    8    0    1
 -2        88        89       245      1206      1528      1529
 -1       328    8    0    1
 -2        88       245       244      1529      1530      1525
 -1       329    8    0    1
 -2        89        90       246      1207      1531      1532
 -1       330    8    0    1
 -2        89       246       245      1532      1533      1528
 -1       331    8    0    1
 -2        90        91       247      1208      1534      1535
 -1       332    8    0    1
 -2        90       247       246      1535      1536      1531
 -1       333    8    0    1
 -2        91        92       248      1209      1537      1538
 -1       334    8    0    1
 -2        91       248       247      1538      1539      1534
 -1       335    8    0    1
 -2        92        93       249      1210      1540      1541
 -1       336    8    0    1
 -2        92       249       248      1541      1542      1537
 -1       337    8    0    1
 -2        93        94       250      1211      1543      1544
 -1       338    8    0    1
 -2        93       250       249      1544      1545      1540
 -1       339    8    0    1
 -2        94        95       251      1212      1546      1547
 -1       340    8    0    1
 -2        94       251       250      1547      1548      1543
 -1       341    8    0    1
 -2        95        96       252      1213      1549      1550
 -1       342    8    0    1
 -2        95       252       251      1550      1551      1546
 -1       343    8    0    1
 -2        96        97       253      1214      1552      1553
 -1       344    8    0    1
 -2        96       253       252      1553      1554      1549
 -1       345    8    0    1
 -2        97        98       254      1215      1555      1556
 -1       346    8    0    1
 -2        97       254       253      1556      1557      1552
 -1       347    8    0    1
 -2        98        99       255      1216      1558      1559
 -1       348    8    0    1
 -2        98       255       254      1559      1560      1555
 -1       349    8    0    1
 -2        99       100       256      1217      1561      1562
 -1       350    8    0    1
 -2        99       256       255      1562      1563      1558
 -1       351    8    0    1
 -2       100       101       257      1218      1564      1565
 -1       352    8    0    1
 -2       100       257       256      1565      1566      1561
 -1       353    8    0    1
 -2       101       102       258      1219      1567      1568
 -1       354    8    0    1
 -2       101       258       257      1568      1569      1564
 -1       355    8    0    1
 -2       102       103       259      1220      1570      1571
 -1       356    8    0    1
 -2       102       259       258      1571      1572      1567
 -1       357    8    0    1
 -2       103       104       260      1221      1573      1574
 -1       358    8    0    1
 -2       103       260       259      1574      1575      1570
 -1       359    8    0    1
 -2       104       105       261      1222      1576      1577
 -1       360    8    0    1
 -2       104       261       260      1577      1578      1573
 -1       361    8    0    1
 -2       105       106       262      1223      1579      1580
 -1       362    8    0    1
 -2       105       262       261      1580      1581      1576
 -1       363    8    0    1
 -2       106       107       263      1224      1582      1583
 -1       364    8    0    1
 -2       106       263       262      1583      1584      1579
 -1       365    8    0    1
 -2       107       108       264      1225      1585      1586
 -1       366    8    0    1
 -2       107       264       263      1586      1587      1582
 -1       367    8    0    1
 -2       108       109       265      1226      1588      1589
 -1       368    8    0    1
 -2       108       265       264      1589      1590      1585
 -1       369    8    0    1
 -2       109       110       266      1227      1591      1592
 -1       370    8    0    1
 -2       109       266       265      1592      1593      1588
 -1       371    8    0    1
 -2       110       111       267      1228      1594      1595
 -1       372    8    0    1
 -2       110       267       266      1595      1596      1591
 -1       373    8    0    1
 -2       111       112       268      1229      1597      1598
 -1       374    8    0    1
 -2       111       268       267      1598      1599      1594
 -1       375    8    0    1
 -2       112       113       269      1230      1600      1601
 -1       376    8    0    1
 -2       112       269       268      1601      1602      1597
 -1       377    8    0    1
 -2       113       114       270      1231      1603      1604
 -1       378    8    0    1
 -2       113       270       269      1604      1605      1600
 -1       379    8    0    1
 -2       114       115       271      1232      1606      1607
 -1       380    8    0    1
 -2       114       271       270      1607      1608      1603
 -1       381    8    0    1
 -2       115       116       272      1233      1609      1610
 -1       382    8    0    1
 -2       115       272       271      1610      1611      1606
 -1       383    8    0    1
 -2       116       117       273      1234      1612      1613
 -1       384    8    0    1
 -2       116       273       272      1613      1614      1609
 -1       385    8    0    1
 -2       117       118       274      1235      1615      1616
 -1       386    8    0    1
 -2       117       274       273      1616      1617      1612
 -1       387    8    0    1
 -2       118       119       275      1236      1618      1619
 -1       388    8    0    1
 -2       118       275       274      1619      1620      1615
 -1       389    8    0    1
 -2       119       120       276      1237      1621      1622
 -1       390    8    0    1
 -2       119       276       275      1622      1623      1618
 -1       391    8    0    1
 -2       120         3       121      1238      1239      1624
 -1       392    8    0    1
 -2       121       122       277      1240      1625      1626
 -1       393    8    0    1
 -2       122       123       278      1241      1627      1628
 -1       394    8    0    1
 -2       122       278       277      1628      1629      1625
 -1       395    8    0    1
 -2       123       124       279      1242      1630      1631
 -1       396    8    0    1
 -2       123       279       278      1631      1632      1627
 -1       397    8    0    1
 -2       124       125       280      1243      1633      1634
 -1       398    8    0    1
 -2       124       280       279      1634      1635      1630
 -1       399    8    0    1
 -2       125       126       281      1244      1636      1637
 -1       400    8    0    1
 -2       125       281       280      1637      1638      1633
 -1       401    8    0    1
 -2       126       127       282      1245      1639      1640
 -1       402    8    0    1
 -2       126       282       281      1640      1641      1636
 -1       403    8    0    1
 -2       127       128       283      1246      1642      1643
 -1       404    8    0    1
 -2       127       283       282      1643      1644      1639
 -1       405    8    0    1
 -2       128       129       284      1247      1645      1646
 -1       406    8    0    1
 -2       128       284       283      1646      1647      1642
 -1       407    8    0    1
 -2       129       130       285      1248      1648      1649
 -1       408    8    0    1
 -2       129       285       284      1649      1650      1645
 -1       409    8    0    1
 -2       130       131       286      1249      1651      1652
 -1       410    8    0    1
 -2       130       286       285      1652      1653      1648
 -1       411    8    0    1
 -2       131       132       287      1250      1654      1655
 -1       412    8    0    1
 -2       131       287       286      1655      1656      1651
 -1       413    8    0    1
 -2       132       133       288      1251      1657      1658
 -1       414    8    0    1
 -2       132       288       287      1658      1659      1654
 -1       415    8    0    1
 -2       133       134       289      1252      1660      1661
 -1       416    8    0    1
 -2       133       289       288      1661      1662      1657
 -1       417    8    0    1
 -2       134       135       290      1253      1663      1664
 -1       418    8    0    1
 -2       134       290       289      1664      1665      1660
 -1       419    8    0    1
 -2       135       136       291      1254      1666      1667
 -1       420    8    0    1
 -2       290       135       291      1663      1667      1668
 -1       421    8    0    1
 -2       136       228       291      1479      1669      1666
 -1       422    8    0    1
 -2         2       137       292      1256      1670      1671
 -1       423    8    0    1
 -2       137       138       293      1257      1672      1673
 -1       424    8    0    1
 -2       138       139       294      1258      1674      1675
 -1       425    8    0    1
 -2       139       140       295      1259      1676      1677
 -1       426    8    0    1
 -2       140       141       296      1260      1678      1679
 -1       427    8    0    1
 -2       141       142       297      1261      1680      1681
 -1       428    8    0    1
 -2       142       143       298      1262      1682      1683
 -1       429    8    0    1
 -2       143       144       299      1263      1684      1685
 -1       430    8    0    1
 -2       144       145       300      1264      1686      1687
 -1       431    8    0    1
 -2       145       146       301      1265      1688      1689
 -1       432    8    0    1
 -2       146       147       302      1266      1690      1691
 -1       433    8    0    1
 -2       147       148       303      1267      1692      1693
 -1       434    8    0    1
 -2       148       149       304      1268      1694      1695
 -1       435    8    0    1
 -2       149       150       305      1269      1696      1697
 -1       436    8    0    1
 -2       150         1       306      1270      1698      1699
 -1       437    8    0    1
 -2         1       151       307      1271      1700      1701
 -1       438    8    0    1
 -2       151       152       308      1272      1702      1703
 -1       439    8    0    1
 -2       152       153       309      1273      1704      1705
 -1       440    8    0    1
 -2       153       154       310      1274      1706      1707
 -1       441    8    0    1
 -2       154       155       311      1275      1708      1709
 -1       442    8    0    1
 -2       155       156       312      1276      1710      1711
 -1       443    8    0    1
 -2       156       157       313      1277      1712      1713
 -1       444    8    0    1
 -2       157       158       314      1278      1714      1715
 -1       445    8    0    1
 -2       158       159       315      1279      1716      1717
 -1       446    8    0    1
 -2       159       160       316      1280      1718      1719
 -1       447    8    0    1
 -2       160       161       317      1281      1720      1721
 -1       448    8    0    1
 -2       161       162       318      1282      1722      1723
 -1       449    8    0    1
 -2       162       163       319      1283      1724      1725
 -1       450    8    0    1
 -2       163       164       320      1284      1726      1727
 -1       451    8    0    1
 -2       164         2       321      1285      1728      1729
 -1       452    8    0    1
 -2       295       140       296      1676      1679      1730
 -1       453    8    0    1
 -2       294       139       295      1674      1677      1731
 -1       454    8    0    1
 -2       120       121       276      1624      1732      1621
 -1       455    8    0    1
 -2       121       277       276      1626      1733      1732
 -1       456    8    0    1
 -2       292       137       293      1670      1673      1734
 -1       457    8    0    1
 -2       293       138       294      1672      1675      1735
 -1       458    8    0    1
 -2         2       292       321      1671      1736      1728
 -1       459    8    0    1
 -2       141       297       296      1681      1737      1678
 -1       460    8    0    1
 -2       142       298       297      1683      1738      1680
 -1       461    8    0    1
 -2       143       299       298      1685      1739      1682
 -1       462    8    0    1
 -2       144       300       299      1687      1740      1684
 -1       463    8    0    1
 -2       145       301       300      1689      1741      1686
 -1       464    8    0    1
 -2       146       302       301      1691      1742      1688
 -1       465    8    0    1
 -2       147       303       302      1693      1743      1690
 -1       466    8    0    1
 -2       148       304       303      1695      1744      1692
 -1       467    8    0    1
 -2       149       305       304      1697      1745      1694
 -1       468    8    0    1
 -2       150       306       305      1699      1746      1696
 -1       469    8    0    1
 -2         1       307       306      1701      1747      1698
 -1       470    8    0    1
 -2       151       308       307      1703      1748      1700
 -1       471    8    0    1
 -2       152       309       308      1705      1749      1702
 -1       472    8    0    1
 -2       153       310       309      1707      1750      1704
 -1       473    8    0    1
 -2       154       311       310      1709      1751      1706
 -1       474    8    0    1
 -2       155       312       311      1711      1752      1708
 -1       475    8    0    1
 -2       156       313       312      1713      1753      1710
 -1       476    8    0    1
 -2       157       314       313      1715      1754      1712
 -1       477    8    0    1
 -2       158       315       314      1717      1755      1714
 -1       478    8    0    1
 -2       159       316       315      1719      1756      1716
 -1       479    8    0    1
 -2       160       317       316      1721      1757      1718
 -1       480    8    0    1
 -2       161       318       317      1723      1758      1720
 -1       481    8    0    1
 -2       162       319       318      1725      1759      1722
 -1       482    8    0    1
 -2       163       320       319      1727      1760      1724
 -1       483    8    0    1
 -2       164       321       320      1729      1761      1726
 -1       484    8    0    1
 -2        23         7       165      1286      1288      1762
 -1       485    8    0    1
 -2       166       167       322      1294      1763      1764
 -1       486    8    0    1
 -2       165       166       323      1291      1765      1766
 -1       487    8    0    1
 -2       166       322       323      1764      1767      1765
 -1       488    8    0    1
 -2       168       169       324      1300      1768      1769
 -1       489    8    0    1
 -2       169       170       325      1303      1770      1771
 -1       490    8    0    1
 -2       169       325       324      1771      1772      1768
 -1       491    8    0    1
 -2       170       171       326      1306      1773      1774
 -1       492    8    0    1
 -2       170       326       325      1774      1775      1770
 -1       493    8    0    1
 -2       171       172       327      1309      1776      1777
 -1       494    8    0    1
 -2       171       327       326      1777      1778      1773
 -1       495    8    0    1
 -2       172       173       328      1312      1779      1780
 -1       496    8    0    1
 -2       172       328       327      1780      1781      1776
 -1       497    8    0    1
 -2       173       174       329      1315      1782      1783
 -1       498    8    0    1
 -2       173       329       328      1783      1784      1779
 -1       499    8    0    1
 -2       174       175       330      1318      1785      1786
 -1       500    8    0    1
 -2       174       330       329      1786      1787      1782
 -1       501    8    0    1
 -2       175       176       331      1321      1788      1789
 -1       502    8    0    1
 -2       175       331       330      1789      1790      1785
 -1       503    8    0    1
 -2       176       177       332      1324      1791      1792
 -1       504    8    0    1
 -2       176       332       331      1792      1793      1788
 -1       505    8    0    1
 -2       177       178       333      1327      1794      1795
 -1       506    8    0    1
 -2       177       333       332      1795      1796      1791
 -1       507    8    0    1
 -2       178       179       334      1330      1797      1798
 -1       508    8    0    1
 -2       178       334       333      1798      1799      1794
 -1       509    8    0    1
 -2       179       180       335      1333      1800      1801
 -1       510    8    0    1
 -2       334       179       335      1797      1801      1802
 -1       511    8    0    1
 -2       180       229       335      1482      1803      1800
 -1       512    8    0    1
 -2       181        23       165      1335      1762      1804
 -1       513    8    0    1
 -2       229       230       336      1485      1805      1806
 -1       514    8    0    1
 -2       229       336       335      1806      1807      1803
 -1       515    8    0    1
 -2       181       165       323      1804      1766      1808
 -1       516    8    0    1
 -2       183       182       337      1342      1809      1810
 -1       517    8    0    1
 -2       184       183       338      1345      1811      1812
 -1       518    8    0    1
 -2       183       337       338      1810      1813      1811
 -1       519    8    0    1
 -2       185       184       339      1348      1814      1815
 -1       520    8    0    1
 -2       184       338       339      1812      1816      1814
 -1       521    8    0    1
 -2       186       185       340      1351      1817      1818
 -1       522    8    0    1
 -2       185       339       340      1815      1819      1817
 -1       523    8    0    1
 -2       187       186       341      1354      1820      1821
 -1       524    8    0    1
 -2       186       340       341      1818      1822      1820
 -1       525    8    0    1
 -2       188       187       342      1357      1823      1824
 -1       526    8    0    1
 -2       187       341       342      1821      1825      1823
 -1       527    8    0    1
 -2       189       188       343      1360      1826      1827
 -1       528    8    0    1
 -2       188       342       343      1824      1828      1826
 -1       529    8    0    1
 -2       190       189       344      1363      1829      1830
 -1       530    8    0    1
 -2       189       343       344      1827      1831      1829
 -1       531    8    0    1
 -2       191       190       345      1366      1832      1833
 -1       532    8    0    1
 -2       190       344       345      1830      1834      1832
 -1       533    8    0    1
 -2       192       191       346      1369      1835      1836
 -1       534    8    0    1
 -2       191       345       346      1833      1837      1835
 -1       535    8    0    1
 -2       193       192       347      1372      1838      1839
 -1       536    8    0    1
 -2       192       346       347      1836      1840      1838
 -1       537    8    0    1
 -2       194       193       348      1375      1841      1842
 -1       538    8    0    1
 -2       193       347       348      1839      1843      1841
 -1       539    8    0    1
 -2       195       194       349      1378      1844      1845
 -1       540    8    0    1
 -2       194       348       349      1842      1846      1844
 -1       541    8    0    1
 -2       196       195       350      1381      1847      1848
 -1       542    8    0    1
 -2       195       349       350      1845      1849      1847
 -1       543    8    0    1
 -2       197       196       351      1384      1850      1851
 -1       544    8    0    1
 -2       196       350       351      1848      1852      1850
 -1       545    8    0    1
 -2       198       197       352      1387      1853      1854
 -1       546    8    0    1
 -2       197       351       352      1851      1855      1853
 -1       547    8    0    1
 -2       199       198       353      1390      1856      1857
 -1       548    8    0    1
 -2       198       352       353      1854      1858      1856
 -1       549    8    0    1
 -2       200       199       354      1393      1859      1860
 -1       550    8    0    1
 -2       199       353       354      1857      1861      1859
 -1       551    8    0    1
 -2       201       200       355      1396      1862      1863
 -1       552    8    0    1
 -2       200       354       355      1860      1864      1862
 -1       553    8    0    1
 -2       202       201       356      1399      1865      1866
 -1       554    8    0    1
 -2       201       355       356      1863      1867      1865
 -1       555    8    0    1
 -2       203       202       357      1402      1868      1869
 -1       556    8    0    1
 -2       202       356       357      1866      1870      1868
 -1       557    8    0    1
 -2       204       203       358      1405      1871      1872
 -1       558    8    0    1
 -2       203       357       358      1869      1873      1871
 -1       559    8    0    1
 -2       205       204       359      1408      1874      1875
 -1       560    8    0    1
 -2       204       358       359      1872      1876      1874
 -1       561    8    0    1
 -2       206       205       360      1411      1877      1878
 -1       562    8    0    1
 -2       205       359       360      1875      1879      1877
 -1       563    8    0    1
 -2       207       206       361      1414      1880      1881
 -1       564    8    0    1
 -2       206       360       361      1878      1882      1880
 -1       565    8    0    1
 -2       208       207       362      1417      1883      1884
 -1       566    8    0    1
 -2       207       361       362      1881      1885      1883
 -1       567    8    0    1
 -2       209       208       363      1420      1886      1887
 -1       568    8    0    1
 -2       208       362       363      1884      1888      1886
 -1       569    8    0    1
 -2       210       209       364      1423      1889      1890
 -1       570    8    0    1
 -2       209       363       364      1887      1891      1889
 -1       571    8    0    1
 -2       211       210       365      1426      1892      1893
 -1       572    8    0    1
 -2       210       364       365      1890      1894      1892
 -1       573    8    0    1
 -2       212       211       366      1429      1895      1896
 -1       574    8    0    1
 -2       211       365       366      1893      1897      1895
 -1       575    8    0    1
 -2       213       212       367      1432      1898      1899
 -1       576    8    0    1
 -2       212       366       367      1896      1900      1898
 -1       577    8    0    1
 -2       214       213       368      1435      1901      1902
 -1       578    8    0    1
 -2       213       367       368      1899      1903      1901
 -1       579    8    0    1
 -2       215       214       369      1438      1904      1905
 -1       580    8    0    1
 -2       214       368       369      1902      1906      1904
 -1       581    8    0    1
 -2       216       215       370      1441      1907      1908
 -1       582    8    0    1
 -2       215       369       370      1905      1909      1907
 -1       583    8    0    1
 -2       217       216       371      1444      1910      1911
 -1       584    8    0    1
 -2       216       370       371      1908      1912      1910
 -1       585    8    0    1
 -2       218       217       372      1447      1913      1914
 -1       586    8    0    1
 -2       217       371       372      1911      1915      1913
 -1       587    8    0    1
 -2       219       218       373      1450      1916      1917
 -1       588    8    0    1
 -2       218       372       373      1914      1918      1916
 -1       589    8    0    1
 -2       220       219       374      1453      1919      1920
 -1       590    8    0    1
 -2       219       373       374      1917      1921      1919
 -1       591    8    0    1
 -2       221       220       375      1456      1922      1923
 -1       592    8    0    1
 -2       220       374       375      1920      1924      1922
 -1       593    8    0    1
 -2       222       221       376      1459      1925      1926
 -1       594    8    0    1
 -2       221       375       376      1923      1927      1925
 -1       595    8    0    1
 -2       223       222       377      1462      1928      1929
 -1       596    8    0    1
 -2       222       376       377      1926      1930      1928
 -1       597    8    0    1
 -2       224       223       378      1465      1931      1932
 -1       598    8    0    1
 -2       223       377       378      1929      1933      1931
 -1       599    8    0    1
 -2       225       224       379      1468      1934      1935
 -1       600    8    0    1
 -2       224       378       379      1932      1936      1934
 -1       601    8    0    1
 -2       226       225       380      1471      1937      1938
 -1       602    8    0    1
 -2       225       379       380      1935      1939      1937
 -1       603    8    0    1
 -2       227       226       381      1474      1940      1941
 -1       604    8    0    1
 -2       226       380       381      1938      1942      1940
 -1       605    8    0    1
 -2       228       227       382      1477      1943      1944
 -1       606    8    0    1
 -2       291       228       382      1669      1944      1945
 -1       607    8    0    1
 -2       227       381       382      1941      1946      1943
 -1       608    8    0    1
 -2       230       231       383      1488      1947      1948
 -1       609    8    0    1
 -2       230       383       336      1948      1949      1805
 -1       610    8    0    1
 -2       231       232       384      1491      1950      1951
 -1       611    8    0    1
 -2       231       384       383      1951      1952      1947
 -1       612    8    0    1
 -2       232       233       385      1494      1953      1954
 -1       613    8    0    1
 -2       232       385       384      1954      1955      1950
 -1       614    8    0    1
 -2       233       234       386      1497      1956      1957
 -1       615    8    0    1
 -2       233       386       385      1957      1958      1953
 -1       616    8    0    1
 -2       234       235       387      1500      1959      1960
 -1       617    8    0    1
 -2       234       387       386      1960      1961      1956
 -1       618    8    0    1
 -2       235       236       388      1503      1962      1963
 -1       619    8    0    1
 -2       235       388       387      1963      1964      1959
 -1       620    8    0    1
 -2       236       237       389      1506      1965      1966
 -1       621    8    0    1
 -2       236       389       388      1966      1967      1962
 -1       622    8    0    1
 -2       237       238       390      1509      1968      1969
 -1       623    8    0    1
 -2       237       390       389      1969      1970      1965
 -1       624    8    0    1
 -2       238       239       391      1512      1971      1972
 -1       625    8    0    1
 -2       238       391       390      1972      1973      1968
 -1       626    8    0    1
 -2       239       240       392      1515      1974      1975
 -1       627    8    0    1
 -2       239       392       391      1975      1976      1971
 -1       628    8    0    1
 -2       240       241       393      1518      1977      1978
 -1       629    8    0    1
 -2       240       393       392      1978      1979      1974
 -1       630    8    0    1
 -2       241       242       394      1521      1980      1981
 -1       631    8    0    1
 -2       241       394       393      1981      1982      1977
 -1       632    8    0    1
 -2       242       243       395      1524      1983      1984
 -1       633    8    0    1
 -2       242       395       394      1984      1985      1980
 -1       634    8    0    1
 -2       243       244       396      1527      1986      1987
 -1       635    8    0    1
 -2       243       396       395      1987      1988      1983
 -1       636    8    0    1
 -2       244       245       397      1530      1989      1990
 -1       637    8    0    1
 -2       244       397       396      1990      1991      1986
 -1       638    8    0    1
 -2       245       246       398      1533      1992      1993
 -1       639    8    0    1
 -2       245       398       397      1993      1994      1989
 -1       640    8    0    1
 -2       246       247       399      1536      1995      1996
 -1       641    8    0    1
 -2       246       399       398      1996      1997      1992
 -1       642    8    0    1
 -2       247       248       400      1539      1998      1999
 -1       643    8    0    1
 -2       247       400       399      1999      2000      1995
 -1       644    8    0    1
 -2       248       249       401      1542      2001      2002
 -1       645    8    0    1
 -2       248       401       400      2002      2003      1998
 -1       646    8    0    1
 -2       249       250       402      1545      2004      2005
 -1       647    8    0    1
 -2       249       402       401      2005      2006      2001
 -1       648    8    0    1
 -2       250       251       403      1548      2007      2008
 -1       649    8    0    1
 -2       250       403       402      2008      2009      2004
 -1       650    8    0    1
 -2       251       252       404      1551      2010      2011
 -1       651    8    0    1
 -2       251       404       403      2011      2012      2007
 -1       652    8    0    1
 -2       252       253       405      1554      2013      2014
 -1       653    8    0    1
 -2       252       405       404      2014      2015      2010
 -1       654    8    0    1
 -2       253       254       406      1557      2016      2017
 -1       655    8    0    1
 -2       253       406       405      2017      2018      2013
 -1       656    8    0    1
 -2       254       255       407      1560      2019      2020
 -1       657    8    0    1
 -2       254       407       406      2020      2021      2016
 -1       658    8    0    1
 -2       255       256       408      1563      2022      2023
 -1       659    8    0    1
 -2       255       408       407      2023      2024      2019
 -1       660    8    0    1
 -2       256       257       409      1566      2025      2026
 -1       661    8    0    1
 -2       256       409       408      2026      2027      2022
 -1       662    8    0    1
 -2       257       258       410      1569      2028      2029
 -1       663    8    0    1
 -2       257       410       409      2029      2030      2025
 -1       664    8    0    1
 -2       258       259       411      1572      2031      2032
 -1       665    8    0    1
 -2       258       411       410      2032      2033      2028
 -1       666    8    0    1
 -2       259       260       412      1575      2034      2035
 -1       667    8    0    1
 -2       259       412       411      2035      2036      2031
 -1       668    8    0    1
 -2       260       261       413      1578      2037      2038
 -1       669    8    0    1
 -2       260       413       412      2038      2039      2034
 -1       670    8    0    1
 -2       261       262       414      1581      2040      2041
 -1       671    8    0    1
 -2       261       414       413      2041      2042      2037
 -1       672    8    0    1
 -2       262       263       415      1584      2043      2044
 -1       673    8    0    1
 -2       262       415       414      2044      2045      2040
 -1       674    8    0    1
 -2       263       264       416      1587      2046      2047
 -1       675    8    0    1
 -2       263       416       415      2047      2048      2043
 -1       676    8    0    1
 -2       264       265       417      1590      2049      2050
 -1       677    8    0    1
 -2       264       417       416      2050      2051      2046
 -1       678    8    0    1
 -2       265       266       418      1593      2052      2053
 -1       679    8    0    1
 -2       265       418       417      2053      2054      2049
 -1       680    8    0    1
 -2       266       267       419      1596      2055      2056
 -1       681    8    0    1
 -2       266       419       418      2056      2057      2052
 -1       682    8    0    1
 -2       267       268       420      1599      2058      2059
 -1       683    8    0    1
 -2       267       420       419      2059      2060      2055
 -1       684    8    0    1
 -2       268       269       421      1602      2061      2062
 -1       685    8    0    1
 -2       268       421       420      2062      2063      2058
 -1       686    8    0    1
 -2       269       270       422      1605      2064      2065
 -1       687    8    0    1
 -2       269       422       421      2065      2066      2061
 -1       688    8    0    1
 -2       270       271       423      1608      2067      2068
 -1       689    8    0    1
 -2       270       423       422      2068      2069      2064
 -1       690    8    0    1
 -2       271       272       424      1611      2070      2071
 -1       691    8    0    1
 -2       271       424       423      2071      2072      2067
 -1       692    8    0    1
 -2       272       273       425      1614      2073      2074
 -1       693    8    0    1
 -2       272       425       424      2074      2075      2070
 -1       694    8    0    1
 -2       273       274       426      1617      2076      2077
 -1       695    8    0    1
 -2       273       426       425      2077      2078      2073
 -1       696    8    0    1
 -2       274       275       427      1620      2079      2080
 -1       697    8    0    1
 -2       274       427       426      2080      2081      2076
 -1       698    8    0    1
 -2       275       276       428      1623      2082      2083
 -1       699    8    0    1
 -2       427       275       428      2079      2083      2084
 -1       700    8    0    1
 -2       276       277       428      1733      2085      2082
 -1       701    8    0    1
 -2       279       280       429      1635      2086      2087
 -1       702    8    0    1
 -2       278       279       430      1632      2088      2089
 -1       703    8    0    1
 -2       279       429       430      2087      2090      2088
 -1       704    8    0    1
 -2       277       278       431      1629      2091      2092
 -1       705    8    0    1
 -2       428       277       431      2085      2092      2093
 -1       706    8    0    1
 -2       278       430       431      2089      2094      2091
 -1       707    8    0    1
 -2       280       281       432      1638      2095      2096
 -1       708    8    0    1
 -2       280       432       429      2096      2097      2086
 -1       709    8    0    1
 -2       281       282       433      1641      2098      2099
 -1       710    8    0    1
 -2       281       433       432      2099      2100      2095
 -1       711    8    0    1
 -2       282       283       434      1644      2101      2102
 -1       712    8    0    1
 -2       282       434       433      2102      2103      2098
 -1       713    8    0    1
 -2       283       284       435      1647      2104      2105
 -1       714    8    0    1
 -2       283       435       434      2105      2106      2101
 -1       715    8    0    1
 -2       284       285       436      1650      2107      2108
 -1       716    8    0    1
 -2       284       436       435      2108      2109      2104
 -1       717    8    0    1
 -2       285       286       437      1653      2110      2111
 -1       718    8    0    1
 -2       285       437       436      2111      2112      2107
 -1       719    8    0    1
 -2       286       287       438      1656      2113      2114
 -1       720    8    0    1
 -2       286       438       437      2114      2115      2110
 -1       721    8    0    1
 -2       287       288       439      1659      2116      2117
 -1       722    8    0    1
 -2       287       439       438      2117      2118      2113
 -1       723    8    0    1
 -2       288       289       440      1662      2119      2120
 -1       724    8    0    1
 -2       288       440       439      2120      2121      2116
 -1       725    8    0    1
 -2       289       290       441      1665      2122      2123
 -1       726    8    0    1
 -2       289       441       440      2123      2124      2119
 -1       727    8    0    1
 -2       293       294       442      1735      2125      2126
 -1       728    8    0    1
 -2       321       292       443      1736      2127      2128
 -1       729    8    0    1
 -2       292       293       444      1734      2129      2130
 -1       730    8    0    1
 -2       292       444       443      2130      2131      2127
 -1       731    8    0    1
 -2       294       295       445      1731      2132      2133
 -1       732    8    0    1
 -2       295       296       446      1730      2134      2135
 -1       733    8    0    1
 -2       167       168       447      1297      2136      2137
 -1       734    8    0    1
 -2       322       167       447      1763      2137      2138
 -1       735    8    0    1
 -2       168       324       447      1769      2139      2136
 -1       736    8    0    1
 -2       297       298       448      1738      2140      2141
 -1       737    8    0    1
 -2       298       299       449      1739      2142      2143
 -1       738    8    0    1
 -2       298       449       448      2143      2144      2140
 -1       739    8    0    1
 -2       299       300       450      1740      2145      2146
 -1       740    8    0    1
 -2       300       301       451      1741      2147      2148
 -1       741    8    0    1
 -2       301       302       452      1742      2149      2150
 -1       742    8    0    1
 -2       302       303       453      1743      2151      2152
 -1       743    8    0    1
 -2       303       304       454      1744      2153      2154
 -1       744    8    0    1
 -2       304       305       455      1745      2155      2156
 -1       745    8    0    1
 -2       305       306       456      1746      2157      2158
 -1       746    8    0    1
 -2       306       307       457      1747      2159      2160
 -1       747    8    0    1
 -2       307       308       458      1748      2161      2162
 -1       748    8    0    1
 -2       308       309       459      1749      2163      2164
 -1       749    8    0    1
 -2       309       310       460      1750      2165      2166
 -1       750    8    0    1
 -2       309       460       459      2166      2167      2163
 -1       751    8    0    1
 -2       310       311       461      1751      2168      2169
 -1       752    8    0    1
 -2       311       312       462      1752      2170      2171
 -1       753    8    0    1
 -2       312       313       463      1753      2172      2173
 -1       754    8    0    1
 -2       312       463       462      2173      2174      2170
 -1       755    8    0    1
 -2       313       314       464      1754      2175      2176
 -1       756    8    0    1
 -2       314       315       465      1755      2177      2178
 -1       757    8    0    1
 -2       315       316       466      1756      2179      2180
 -1       758    8    0    1
 -2       316       317       467      1757      2181      2182
 -1       759    8    0    1
 -2       316       467       466      2182      2183      2179
 -1       760    8    0    1
 -2       317       318       468      1758      2184      2185
 -1       761    8    0    1
 -2       318       319       469      1759      2186      2187
 -1       762    8    0    1
 -2       319       320       470      1760      2188      2189
 -1       763    8    0    1
 -2       320       321       471      1761      2190      2191
 -1       764    8    0    1
 -2       320       471       470      2191      2192      2188
 -1       765    8    0    1
 -2       296       297       472      1737      2193      2194
 -1       766    8    0    1
 -2       446       296       472      2134      2194      2195
 -1       767    8    0    1
 -2       181       323       182      1808      2196      1339
 -1       768    8    0    1
 -2       297       448       473      2141      2197      2198
 -1       769    8    0    1
 -2       297       473       472      2198      2199      2193
 -1       770    8    0    1
 -2       337       182       323      1809      2196      2200
 -1       771    8    0    1
 -2       444       293       442      2129      2126      2201
 -1       772    8    0    1
 -2       294       445       442      2133      2202      2125
 -1       773    8    0    1
 -2       441       290       291      2122      1668      2203
 -1       774    8    0    1
 -2       321       443       471      2128      2204      2190
 -1       775    8    0    1
 -2       445       295       446      2132      2135      2205
 -1       776    8    0    1
 -2       469       319       470      2186      2189      2206
 -1       777    8    0    1
 -2       467       317       468      2181      2185      2207
 -1       778    8    0    1
 -2       465       315       466      2177      2180      2208
 -1       779    8    0    1
 -2       463       313       464      2172      2176      2209
 -1       780    8    0    1
 -2       460       310       461      2165      2169      2210
 -1       781    8    0    1
 -2       458       308       459      2161      2164      2211
 -1       782    8    0    1
 -2       457       307       458      2159      2162      2212
 -1       783    8    0    1
 -2       456       306       457      2157      2160      2213
 -1       784    8    0    1
 -2       455       305       456      2155      2158      2214
 -1       785    8    0    1
 -2       454       304       455      2153      2156      2215
 -1       786    8    0    1
 -2       453       303       454      2151      2154      2216
 -1       787    8    0    1
 -2       452       302       453      2149      2152      2217
 -1       788    8    0    1
 -2       451       301       452      2147      2150      2218
 -1       789    8    0    1
 -2       299       450       449      2146      2219      2142
 -1       790    8    0    1
 -2       450       300       451      2145      2148      2220
 -1       791    8    0    1
 -2       461       311       474      2168      2221      2222
 -1       792    8    0    1
 -2       311       462       474      2171      2223      2221
 -1       793    8    0    1
 -2       464       314       465      2175      2178      2224
 -1       794    8    0    1
 -2       468       318       469      2184      2187      2225
 -1       795    8    0    1
 -2       336       383       475      1949      2226      2227
 -1       796    8    0    1
 -2       325       326       476      1775      2228      2229
 -1       797    8    0    1
 -2       324       325       477      1772      2230      2231
 -1       798    8    0    1
 -2       325       476       477      2229      2232      2230
 -1       799    8    0    1
 -2       327       328       478      1781      2233      2234
 -1       800    8    0    1
 -2       328       329       479      1784      2235      2236
 -1       801    8    0    1
 -2       328       479       478      2236      2237      2233
 -1       802    8    0    1
 -2       329       330       480      1787      2238      2239
 -1       803    8    0    1
 -2       329       480       479      2239      2240      2235
 -1       804    8    0    1
 -2       330       331       481      1790      2241      2242
 -1       805    8    0    1
 -2       330       481       480      2242      2243      2238
 -1       806    8    0    1
 -2       331       332       482      1793      2244      2245
 -1       807    8    0    1
 -2       331       482       481      2245      2246      2241
 -1       808    8    0    1
 -2       332       333       483      1796      2247      2248
 -1       809    8    0    1
 -2       332       483       482      2248      2249      2244
 -1       810    8    0    1
 -2       383       384       484      1952      2250      2251
 -1       811    8    0    1
 -2       383       484       475      2251      2252      2226
 -1       812    8    0    1
 -2       338       337       485      1813      2253      2254
 -1       813    8    0    1
 -2       339       338       486      1816      2255      2256
 -1       814    8    0    1
 -2       338       485       486      2254      2257      2255
 -1       815    8    0    1
 -2       340       339       487      1819      2258      2259
 -1       816    8    0    1
 -2       339       486       487      2256      2260      2258
 -1       817    8    0    1
 -2       341       340       488      1822      2261      2262
 -1       818    8    0    1
 -2       340       487       488      2259      2263      2261
 -1       819    8    0    1
 -2       342       341       489      1825      2264      2265
 -1       820    8    0    1
 -2       341       488       489      2262      2266      2264
 -1       821    8    0    1
 -2       343       342       490      1828      2267      2268
 -1       822    8    0    1
 -2       342       489       490      2265      2269      2267
 -1       823    8    0    1
 -2       344       343       491      1831      2270      2271
 -1       824    8    0    1
 -2       343       490       491      2268      2272      2270
 -1       825    8    0    1
 -2       345       344       492      1834      2273      2274
 -1       826    8    0    1
 -2       344       491       492      2271      2275      2273
 -1       827    8    0    1
 -2       346       345       493      1837      2276      2277
 -1       828    8    0    1
 -2       345       492       493      2274      2278      2276
 -1       829    8    0    1
 -2       347       346       494      1840      2279      2280
 -1       830    8    0    1
 -2       346       493       494      2277      2281      2279
 -1       831    8    0    1
 -2       348       347       495      1843      2282      2283
 -1       832    8    0    1
 -2       347       494       495      2280      2284      2282
 -1       833    8    0    1
 -2       349       348       496      1846      2285      2286
 -1       834    8    0    1
 -2       348       495       496      2283      2287      2285
 -1       835    8    0    1
 -2       350       349       497      1849      2288      2289
 -1       836    8    0    1
 -2       349       496       497      2286      2290      2288
 -1       837    8    0    1
 -2       351       350       498      1852      2291      2292
 -1       838    8    0    1
 -2       350       497       498      2289      2293      2291
 -1       839    8    0    1
 -2       352       351       499      1855      2294      2295
 -1       840    8    0    1
 -2       351       498       499      2292      2296      2294
 -1       841    8    0    1
 -2       353       352       500      1858      2297      2298
 -1       842    8    0    1
 -2       352       499       500      2295      2299      2297
 -1       843    8    0    1
 -2       354       353       501      1861      2300      2301
 -1       844    8    0    1
 -2       353       500       501      2298      2302      2300
 -1       845    8    0    1
 -2       355       354       502      1864      2303      2304
 -1       846    8    0    1
 -2       354       501       502      2301      2305      2303
 -1       847    8    0    1
 -2       356       355       503      1867      2306      2307
 -1       848    8    0    1
 -2       355       502       503      2304      2308      2306
 -1       849    8    0    1
 -2       357       356       504      1870      2309      2310
 -1       850    8    0    1
 -2       356       503       504      2307      2311      2309
 -1       851    8    0    1
 -2       358       357       505      1873      2312      2313
 -1       852    8    0    1
 -2       357       504       505      2310      2314      2312
 -1       853    8    0    1
 -2       359       358       506      1876      2315      2316
 -1       854    8    0    1
 -2       358       505       506      2313      2317      2315
 -1       855    8    0    1
 -2       360       359       507      1879      2318      2319
 -1       856    8    0    1
 -2       359       506       507      2316      2320      2318
 -1       857    8    0    1
 -2       361       360       508      1882      2321      2322
 -1       858    8    0    1
 -2       360       507       508      2319      2323      2321
 -1       859    8    0    1
 -2       362       361       509      1885      2324      2325
 -1       860    8    0    1
 -2       361       508       509      2322      2326      2324
 -1       861    8    0    1
 -2       363       362       510      1888      2327      2328
 -1       862    8    0    1
 -2       362       509       510      2325      2329      2327
 -1       863    8    0    1
 -2       364       363       511      1891      2330      2331
 -1       864    8    0    1
 -2       363       510       511      2328      2332      2330
 -1       865    8    0    1
 -2       365       364       512      1894      2333      2334
 -1       866    8    0    1
 -2       364       511       512      2331      2335      2333
 -1       867    8    0    1
 -2       366       365       513      1897      2336      2337
 -1       868    8    0    1
 -2       365       512       513      2334      2338      2336
 -1       869    8    0    1
 -2       367       366       514      1900      2339      2340
 -1       870    8    0    1
 -2       366       513       514      2337      2341      2339
 -1       871    8    0    1
 -2       368       367       515      1903      2342      2343
 -1       872    8    0    1
 -2       367       514       515      2340      2344      2342
 -1       873    8    0    1
 -2       369       368       516      1906      2345      2346
 -1       874    8    0    1
 -2       368       515       516      2343      2347      2345
 -1       875    8    0    1
 -2       370       369       517      1909      2348      2349
 -1       876    8    0    1
 -2       369       516       517      2346      2350      2348
 -1       877    8    0    1
 -2       371       370       518      1912      2351      2352
 -1       878    8    0    1
 -2       370       517       518      2349      2353      2351
 -1       879    8    0    1
 -2       372       371       519      1915      2354      2355
 -1       880    8    0    1
 -2       371       518       519      2352      2356      2354
 -1       881    8    0    1
 -2       373       372       520      1918      2357      2358
 -1       882    8    0    1
 -2       372       519       520      2355      2359      2357
 -1       883    8    0    1
 -2       374       373       521      1921      2360      2361
 -1       884    8    0    1
 -2       373       520       521      2358      2362      2360
 -1       885    8    0    1
 -2       375       374       522      1924      2363      2364
 -1       886    8    0    1
 -2       374       521       522      2361      2365      2363
 -1       887    8    0    1
 -2       376       375       523      1927      2366      2367
 -1       888    8    0    1
 -2       375       522       523      2364      2368      2366
 -1       889    8    0    1
 -2       377       376       524      1930      2369      2370
 -1       890    8    0    1
 -2       376       523       524      2367      2371      2369
 -1       891    8    0    1
 -2       378       377       525      1933      2372      2373
 -1       892    8    0    1
 -2       377       524       525      2370      2374      2372
 -1       893    8    0    1
 -2       379       378       526      1936      2375      2376
 -1       894    8    0    1
 -2       378       525       526      2373      2377      2375
 -1       895    8    0    1
 -2       380       379       527      1939      2378      2379
 -1       896    8    0    1
 -2       379       526       527      2376      2380      2378
 -1       897    8    0    1
 -2       381       380       528      1942      2381      2382
 -1       898    8    0    1
 -2       380       527       528      2379      2383      2381
 -1       899    8    0    1
 -2       385       386       529      1958      2384      2385
 -1       900    8    0    1
 -2       386       387       530      1961      2386      2387
 -1       901    8    0    1
 -2       386       530       529      2387      2388      2384
 -1       902    8    0    1
 -2       387       388       531      1964      2389      2390
 -1       903    8    0    1
 -2       387       531       530      2390      2391      2386
 -1       904    8    0    1
 -2       388       389       532      1967      2392      2393
 -1       905    8    0    1
 -2       388       532       531      2393      2394      2389
 -1       906    8    0    1
 -2       389       390       533      1970      2395      2396
 -1       907    8    0    1
 -2       389       533       532      2396      2397      2392
 -1       908    8    0    1
 -2       390       391       534      1973      2398      2399
 -1       909    8    0    1
 -2       390       534       533      2399      2400      2395
 -1       910    8    0    1
 -2       391       392       535      1976      2401      2402
 -1       911    8    0    1
 -2       391       535       534      2402      2403      2398
 -1       912    8    0    1
 -2       392       393       536      1979      2404      2405
 -1       913    8    0    1
 -2       392       536       535      2405      2406      2401
 -1       914    8    0    1
 -2       393       394       537      1982      2407      2408
 -1       915    8    0    1
 -2       393       537       536      2408      2409      2404
 -1       916    8    0    1
 -2       394       395       538      1985      2410      2411
 -1       917    8    0    1
 -2       394       538       537      2411      2412      2407
 -1       918    8    0    1
 -2       395       396       539      1988      2413      2414
 -1       919    8    0    1
 -2       395       539       538      2414      2415      2410
 -1       920    8    0    1
 -2       396       397       540      1991      2416      2417
 -1       921    8    0    1
 -2       396       540       539      2417      2418      2413
 -1       922    8    0    1
 -2       397       398       541      1994      2419      2420
 -1       923    8    0    1
 -2       397       541       540      2420      2421      2416
 -1       924    8    0    1
 -2       398       399       542      1997      2422      2423
 -1       925    8    0    1
 -2       398       542       541      2423      2424      2419
 -1       926    8    0    1
 -2       399       400       543      2000      2425      2426
 -1       927    8    0    1
 -2       399       543       542      2426      2427      2422
 -1       928    8    0    1
 -2       400       401       544      2003      2428      2429
 -1       929    8    0    1
 -2       400       544       543      2429      2430      2425
 -1       930    8    0    1
 -2       401       402       545      2006      2431      2432
 -1       931    8    0    1
 -2       401       545       544      2432      2433      2428
 -1       932    8    0    1
 -2       402       403       546      2009      2434      2435
 -1       933    8    0    1
 -2       402       546       545      2435      2436      2431
 -1       934    8    0    1
 -2       403       404       547      2012      2437      2438
 -1       935    8    0    1
 -2       403       547       546      2438      2439      2434
 -1       936    8    0    1
 -2       404       405       548      2015      2440      2441
 -1       937    8    0    1
 -2       404       548       547      2441      2442      2437
 -1       938    8    0    1
 -2       405       406       549      2018      2443      2444
 -1       939    8    0    1
 -2       405       549       548      2444      2445      2440
 -1       940    8    0    1
 -2       406       407       550      2021      2446      2447
 -1       941    8    0    1
 -2       406       550       549      2447      2448      2443
 -1       942    8    0    1
 -2       407       408       551      2024      2449      2450
 -1       943    8    0    1
 -2       407       551       550      2450      2451      2446
 -1       944    8    0    1
 -2       408       409       552      2027      2452      2453
 -1       945    8    0    1
 -2       408       552       551      2453      2454      2449
 -1       946    8    0    1
 -2       409       410       553      2030      2455      2456
 -1       947    8    0    1
 -2       409       553       552      2456      2457      2452
 -1       948    8    0    1
 -2       410       411       554      2033      2458      2459
 -1       949    8    0    1
 -2       410       554       553      2459      2460      2455
 -1       950    8    0    1
 -2       411       412       555      2036      2461      2462
 -1       951    8    0    1
 -2       411       555       554      2462      2463      2458
 -1       952    8    0    1
 -2       412       413       556      2039      2464      2465
 -1       953    8    0    1
 -2       412       556       555      2465      2466      2461
 -1       954    8    0    1
 -2       413       414       557      2042      2467      2468
 -1       955    8    0    1
 -2       413       557       556      2468      2469      2464
 -1       956    8    0    1
 -2       414       415       558      2045      2470      2471
 -1       957    8    0    1
 -2       414       558       557      2471      2472      2467
 -1       958    8    0    1
 -2       415       416       559      2048      2473      2474
 -1       959    8    0    1
 -2       415       559       558      2474      2475      2470
 -1       960    8    0    1
 -2       416       417       560      2051      2476      2477
 -1       961    8    0    1
 -2       416       560       559      2477      2478      2473
 -1       962    8    0    1
 -2       417       418       561      2054      2479      2480
 -1       963    8    0    1
 -2       417       561       560      2480      2481      2476
 -1       964    8    0    1
 -2       418       419       562      2057      2482      2483
 -1       965    8    0    1
 -2       418       562       561      2483      2484      2479
 -1       966    8    0    1
 -2       419       420       563      2060      2485      2486
 -1       967    8    0    1
 -2       419       563       562      2486      2487      2482
 -1       968    8    0    1
 -2       420       421       564      2063      2488      2489
 -1       969    8    0    1
 -2       420       564       563      2489      2490      2485
 -1       970    8    0    1
 -2       421       422       565      2066      2491      2492
 -1       971    8    0    1
 -2       421       565       564      2492      2493      2488
 -1       972    8    0    1
 -2       422       423       566      2069      2494      2495
 -1       973    8    0    1
 -2       422       566       565      2495      2496      2491
 -1       974    8    0    1
 -2       423       424       567      2072      2497      2498
 -1       975    8    0    1
 -2       423       567       566      2498      2499      2494
 -1       976    8    0    1
 -2       424       425       568      2075      2500      2501
 -1       977    8    0    1
 -2       424       568       567      2501      2502      2497
 -1       978    8    0    1
 -2       425       426       569      2078      2503      2504
 -1       979    8    0    1
 -2       425       569       568      2504      2505      2500
 -1       980    8    0    1
 -2       426       427       570      2081      2506      2507
 -1       981    8    0    1
 -2       426       570       569      2507      2508      2503
 -1       982    8    0    1
 -2       427       428       431      2084      2093      2509
 -1       983    8    0    1
 -2       432       433       571      2100      2510      2511
 -1       984    8    0    1
 -2       433       434       572      2103      2512      2513
 -1       985    8    0    1
 -2       433       572       571      2513      2514      2510
 -1       986    8    0    1
 -2       430       429       573      2090      2515      2516
 -1       987    8    0    1
 -2       429       432       574      2097      2517      2518
 -1       988    8    0    1
 -2       573       429       574      2515      2518      2519
 -1       989    8    0    1
 -2       432       571       574      2511      2520      2517
 -1       990    8    0    1
 -2       434       435       575      2106      2521      2522
 -1       991    8    0    1
 -2       434       575       572      2522      2523      2512
 -1       992    8    0    1
 -2       435       436       576      2109      2524      2525
 -1       993    8    0    1
 -2       435       576       575      2525      2526      2521
 -1       994    8    0    1
 -2       436       437       577      2112      2527      2528
 -1       995    8    0    1
 -2       436       577       576      2528      2529      2524
 -1       996    8    0    1
 -2       437       438       578      2115      2530      2531
 -1       997    8    0    1
 -2       437       578       577      2531      2532      2527
 -1       998    8    0    1
 -2       438       439       579      2118      2533      2534
 -1       999    8    0    1
 -2       438       579       578      2534      2535      2530
 -1      1000    8    0    1
 -2       439       440       580      2121      2536      2537
 -1      1001    8    0    1
 -2       439       580       579      2537      2538      2533
 -1      1002    8    0    1
 -2       440       441       581      2124      2539      2540
 -1      1003    8    0    1
 -2       440       581       580      2540      2541      2536
 -1      1004    8    0    1
 -2       442       445       582      2202      2542      2543
 -1      1005    8    0    1
 -2       441       291       382      2203      1945      2544
 -1      1006    8    0    1
 -2       471       443       583      2204      2545      2546
 -1      1007    8    0    1
 -2       384       385       584      1955      2547      2548
 -1      1008    8    0    1
 -2       385       529       584      2385      2549      2547
 -1      1009    8    0    1
 -2       443       444       585      2131      2550      2551
 -1      1010    8    0    1
 -2       469       470       586      2206      2552      2553
 -1      1011    8    0    1
 -2       445       446       587      2205      2554      2555
 -1      1012    8    0    1
 -2       444       442       588      2201      2556      2557
 -1      1013    8    0    1
 -2       465       466       589      2208      2558      2559
 -1      1014    8    0    1
 -2       460       461       590      2210      2560      2561
 -1      1015    8    0    1
 -2       458       459       591      2211      2562      2563
 -1      1016    8    0    1
 -2       326       327       592      1778      2564      2565
 -1      1017    8    0    1
 -2       476       326       592      2228      2565      2566
 -1      1018    8    0    1
 -2       327       478       592      2234      2567      2564
 -1      1019    8    0    1
 -2       450       451       593      2220      2568      2569
 -1      1020    8    0    1
 -2       448       449       594      2144      2570      2571
 -1      1021    8    0    1
 -2       449       450       595      2219      2572      2573
 -1      1022    8    0    1
 -2       451       452       596      2218      2574      2575
 -1      1023    8    0    1
 -2       452       453       597      2217      2576      2577
 -1      1024    8    0    1
 -2       453       454       598      2216      2578      2579
 -1      1025    8    0    1
 -2       453       598       597      2579      2580      2576
 -1      1026    8    0    1
 -2       454       455       599      2215      2581      2582
 -1      1027    8    0    1
 -2       455       456       600      2214      2583      2584
 -1      1028    8    0    1
 -2       456       457       601      2213      2585      2586
 -1      1029    8    0    1
 -2       457       458       602      2212      2587      2588
 -1      1030    8    0    1
 -2       458       591       602      2563      2589      2587
 -1      1031    8    0    1
 -2       459       460       603      2167      2590      2591
 -1      1032    8    0    1
 -2       460       590       603      2561      2592      2590
 -1      1033    8    0    1
 -2       464       465       604      2224      2593      2594
 -1      1034    8    0    1
 -2       462       463       605      2174      2595      2596
 -1      1035    8    0    1
 -2       468       469       606      2225      2597      2598
 -1      1036    8    0    1
 -2       463       464       607      2209      2599      2600
 -1      1037    8    0    1
 -2       463       607       605      2600      2601      2595
 -1      1038    8    0    1
 -2       466       467       608      2183      2602      2603
 -1      1039    8    0    1
 -2       467       468       609      2207      2604      2605
 -1      1040    8    0    1
 -2       470       471       610      2192      2606      2607
 -1      1041    8    0    1
 -2       337       323       611      2200      2608      2609
 -1      1042    8    0    1
 -2       485       337       611      2253      2609      2610
 -1      1043    8    0    1
 -2       323       322       611      1767      2611      2608
 -1      1044    8    0    1
 -2       335       336       612      1807      2612      2613
 -1      1045    8    0    1
 -2       334       335       612      1802      2613      2614
 -1      1046    8    0    1
 -2       336       475       612      2227      2615      2612
 -1      1047    8    0    1
 -2       446       472       613      2195      2616      2617
 -1      1048    8    0    1
 -2       450       593       595      2569      2618      2572
 -1      1049    8    0    1
 -2       324       477       614      2231      2619      2620
 -1      1050    8    0    1
 -2       324       614       447      2620      2621      2139
 -1      1051    8    0    1
 -2       484       384       584      2250      2548      2622
 -1      1052    8    0    1
 -2       333       334       612      1799      2614      2623
 -1      1053    8    0    1
 -2       613       472       615      2616      2624      2625
 -1      1054    8    0    1
 -2       472       473       615      2199      2626      2624
 -1      1055    8    0    1
 -2       609       468       606      2604      2598      2627
 -1      1056    8    0    1
 -2       473       448       616      2197      2628      2629
 -1      1057    8    0    1
 -2       448       594       616      2571      2630      2628
 -1      1058    8    0    1
 -2       607       464       604      2599      2594      2631
 -1      1059    8    0    1
 -2       606       469       586      2597      2553      2632
 -1      1060    8    0    1
 -2       471       583       610      2546      2633      2606
 -1      1061    8    0    1
 -2       466       608       589      2603      2634      2558
 -1      1062    8    0    1
 -2       427       431       570      2509      2635      2506
 -1      1063    8    0    1
 -2       431       430       570      2094      2636      2635
 -1      1064    8    0    1
 -2       442       582       588      2543      2637      2556
 -1      1065    8    0    1
 -2       582       445       587      2542      2555      2638
 -1      1066    8    0    1
 -2       441       382       617      2544      2639      2640
 -1      1067    8    0    1
 -2       581       441       617      2539      2640      2641
 -1      1068    8    0    1
 -2       382       381       617      1946      2642      2639
 -1      1069    8    0    1
 -2       601       457       602      2585      2588      2643
 -1      1070    8    0    1
 -2       583       443       585      2545      2551      2644
 -1      1071    8    0    1
 -2       333       612       483      2623      2645      2247
 -1      1072    8    0    1
 -2       585       444       588      2550      2557      2646
 -1      1073    8    0    1
 -2       600       456       601      2583      2586      2647
 -1      1074    8    0    1
 -2       598       454       599      2578      2582      2648
 -1      1075    8    0    1
 -2       611       322       447      2611      2138      2649
 -1      1076    8    0    1
 -2       465       589       604      2559      2650      2593
 -1      1077    8    0    1
 -2       596       452       597      2574      2577      2651
 -1      1078    8    0    1
 -2       459       603       618      2591      2652      2653
 -1      1079    8    0    1
 -2       459       618       591      2653      2654      2562
 -1      1080    8    0    1
 -2       590       461       474      2560      2222      2655
 -1      1081    8    0    1
 -2       587       446       613      2554      2617      2656
 -1      1082    8    0    1
 -2       586       470       610      2552      2607      2657
 -1      1083    8    0    1
 -2       594       449       595      2570      2573      2658
 -1      1084    8    0    1
 -2       474       462       619      2223      2659      2660
 -1      1085    8    0    1
 -2       462       605       619      2596      2661      2659
 -1      1086    8    0    1
 -2       451       596       593      2575      2662      2568
 -1      1087    8    0    1
 -2       599       455       600      2581      2584      2663
 -1      1088    8    0    1
 -2       608       467       609      2602      2605      2664
 -1      1089    8    0    1
 -2       570       430       573      2636      2516      2665
 -1      1090    8    0    1
 -2       617       381       528      2642      2382      2666
 -1      1091    8    0    1
 -2       479       480       620      2240      2667      2668
 -1      1092    8    0    1
 -2       478       479       621      2237      2669      2670
 -1      1093    8    0    1
 -2       479       620       621      2668      2671      2669
 -1      1094    8    0    1
 -2       481       482       622      2246      2672      2673
 -1      1095    8    0    1
 -2       482       483       623      2249      2674      2675
 -1      1096    8    0    1
 -2       482       623       622      2675      2676      2672
 -1      1097    8    0    1
 -2       475       484       624      2252      2677      2678
 -1      1098    8    0    1
 -2       585       588       625      2646      2679      2680
 -1      1099    8    0    1
 -2       484       584       626      2622      2681      2682
 -1      1100    8    0    1
 -2       484       626       624      2682      2683      2677
 -1      1101    8    0    1
 -2       612       475       483      2615      2684      2645
 -1      1102    8    0    1
 -2       609       606       627      2627      2685      2686
 -1      1103    8    0    1
 -2       487       486       628      2260      2687      2688
 -1      1104    8    0    1
 -2       488       487       629      2263      2689      2690
 -1      1105    8    0    1
 -2       487       628       629      2688      2691      2689
 -1      1106    8    0    1
 -2       489       488       630      2266      2692      2693
 -1      1107    8    0    1
 -2       488       629       630      2690      2694      2692
 -1      1108    8    0    1
 -2       490       489       631      2269      2695      2696
 -1      1109    8    0    1
 -2       489       630       631      2693      2697      2695
 -1      1110    8    0    1
 -2       491       490       632      2272      2698      2699
 -1      1111    8    0    1
 -2       490       631       632      2696      2700      2698
 -1      1112    8    0    1
 -2       492       491       633      2275      2701      2702
 -1      1113    8    0    1
 -2       491       632       633      2699      2703      2701
 -1      1114    8    0    1
 -2       493       492       634      2278      2704      2705
 -1      1115    8    0    1
 -2       492       633       634      2702      2706      2704
 -1      1116    8    0    1
 -2       494       493       635      2281      2707      2708
 -1      1117    8    0    1
 -2       493       634       635      2705      2709      2707
 -1      1118    8    0    1
 -2       495       494       636      2284      2710      2711
 -1      1119    8    0    1
 -2       494       635       636      2708      2712      2710
 -1      1120    8    0    1
 -2       496       495       637      2287      2713      2714
 -1      1121    8    0    1
 -2       495       636       637      2711      2715      2713
 -1      1122    8    0    1
 -2       497       496       638      2290      2716      2717
 -1      1123    8    0    1
 -2       496       637       638      2714      2718      2716
 -1      1124    8    0    1
 -2       498       497       639      2293      2719      2720
 -1      1125    8    0    1
 -2       497       638       639      2717      2721      2719
 -1      1126    8    0    1
 -2       499       498       640      2296      2722      2723
 -1      1127    8    0    1
 -2       498       639       640      2720      2724      2722
 -1      1128    8    0    1
 -2       500       499       641      2299      2725      2726
 -1      1129    8    0    1
 -2       499       640       641      2723      2727      2725
 -1      1130    8    0    1
 -2       501       500       642      2302      2728      2729
 -1      1131    8    0    1
 -2       500       641       642      2726      2730      2728
 -1      1132    8    0    1
 -2       502       501       643      2305      2731      2732
 -1      1133    8    0    1
 -2       501       642       643      2729      2733      2731
 -1      1134    8    0    1
 -2       503       502       644      2308      2734      2735
 -1      1135    8    0    1
 -2       502       643       644      2732      2736      2734
 -1      1136    8    0    1
 -2       504       503       645      2311      2737      2738
 -1      1137    8    0    1
 -2       503       644       645      2735      2739      2737
 -1      1138    8    0    1
 -2       505       504       646      2314      2740      2741
 -1      1139    8    0    1
 -2       504       645       646      2738      2742      2740
 -1      1140    8    0    1
 -2       506       505       647      2317      2743      2744
 -1      1141    8    0    1
 -2       505       646       647      2741      2745      2743
 -1      1142    8    0    1
 -2       507       506       648      2320      2746      2747
 -1      1143    8    0    1
 -2       506       647       648      2744      2748      2746
 -1      1144    8    0    1
 -2       508       507       649      2323      2749      2750
 -1      1145    8    0    1
 -2       507       648       649      2747      2751      2749
 -1      1146    8    0    1
 -2       509       508       650      2326      2752      2753
 -1      1147    8    0    1
 -2       508       649       650      2750      2754      2752
 -1      1148    8    0    1
 -2       510       509       651      2329      2755      2756
 -1      1149    8    0    1
 -2       509       650       651      2753      2757      2755
 -1      1150    8    0    1
 -2       511       510       652      2332      2758      2759
 -1      1151    8    0    1
 -2       510       651       652      2756      2760      2758
 -1      1152    8    0    1
 -2       512       511       653      2335      2761      2762
 -1      1153    8    0    1
 -2       511       652       653      2759      2763      2761
 -1      1154    8    0    1
 -2       513       512       654      2338      2764      2765
 -1      1155    8    0    1
 -2       512       653       654      2762      2766      2764
 -1      1156    8    0    1
 -2       514       513       655      2341      2767      2768
 -1      1157    8    0    1
 -2       513       654       655      2765      2769      2767
 -1      1158    8    0    1
 -2       515       514       656      2344      2770      2771
 -1      1159    8    0    1
 -2       514       655       656      2768      2772      2770
 -1      1160    8    0    1
 -2       516       515       657      2347      2773      2774
 -1      1161    8    0    1
 -2       515       656       657      2771      2775      2773
 -1      1162    8    0    1
 -2       517       516       658      2350      2776      2777
 -1      1163    8    0    1
 -2       516       657       658      2774      2778      2776
 -1      1164    8    0    1
 -2       518       517       659      2353      2779      2780
 -1      1165    8    0    1
 -2       517       658       659      2777      2781      2779
 -1      1166    8    0    1
 -2       519       518       660      2356      2782      2783
 -1      1167    8    0    1
 -2       518       659       660      2780      2784      2782
 -1      1168    8    0    1
 -2       520       519       661      2359      2785      2786
 -1      1169    8    0    1
 -2       519       660       661      2783      2787      2785
 -1      1170    8    0    1
 -2       521       520       662      2362      2788      2789
 -1      1171    8    0    1
 -2       520       661       662      2786      2790      2788
 -1      1172    8    0    1
 -2       522       521       663      2365      2791      2792
 -1      1173    8    0    1
 -2       521       662       663      2789      2793      2791
 -1      1174    8    0    1
 -2       523       522       664      2368      2794      2795
 -1      1175    8    0    1
 -2       522       663       664      2792      2796      2794
 -1      1176    8    0    1
 -2       524       523       665      2371      2797      2798
 -1      1177    8    0    1
 -2       523       664       665      2795      2799      2797
 -1      1178    8    0    1
 -2       525       524       666      2374      2800      2801
 -1      1179    8    0    1
 -2       524       665       666      2798      2802      2800
 -1      1180    8    0    1
 -2       526       525       667      2377      2803      2804
 -1      1181    8    0    1
 -2       525       666       667      2801      2805      2803
 -1      1182    8    0    1
 -2       527       526       668      2380      2806      2807
 -1      1183    8    0    1
 -2       526       667       668      2804      2808      2806
 -1      1184    8    0    1
 -2       528       527       669      2383      2809      2810
 -1      1185    8    0    1
 -2       527       668       669      2807      2811      2809
 -1      1186    8    0    1
 -2       530       531       670      2391      2812      2813
 -1      1187    8    0    1
 -2       601       602       671      2643      2814      2815
 -1      1188    8    0    1
 -2       529       530       672      2388      2816      2817
 -1      1189    8    0    1
 -2       530       670       672      2813      2818      2816
 -1      1190    8    0    1
 -2       532       533       673      2397      2819      2820
 -1      1191    8    0    1
 -2       533       534       674      2400      2821      2822
 -1      1192    8    0    1
 -2       533       674       673      2822      2823      2819
 -1      1193    8    0    1
 -2       534       535       675      2403      2824      2825
 -1      1194    8    0    1
 -2       534       675       674      2825      2826      2821
 -1      1195    8    0    1
 -2       535       536       676      2406      2827      2828
 -1      1196    8    0    1
 -2       535       676       675      2828      2829      2824
 -1      1197    8    0    1
 -2       536       537       677      2409      2830      2831
 -1      1198    8    0    1
 -2       536       677       676      2831      2832      2827
 -1      1199    8    0    1
 -2       537       538       596      2412      2833      2834
 -1      1200    8    0    1
 -2       540       541       616      2421      2835      2836
 -1      1201    8    0    1
 -2       541       542       615      2424      2837      2838
 -1      1202    8    0    1
 -2       543       544       678      2430      2839      2840
 -1      1203    8    0    1
 -2       544       545       679      2433      2841      2842
 -1      1204    8    0    1
 -2       544       679       678      2842      2843      2839
 -1      1205    8    0    1
 -2       545       546       680      2436      2844      2845
 -1      1206    8    0    1
 -2       545       680       679      2845      2846      2841
 -1      1207    8    0    1
 -2       546       547       681      2439      2847      2848
 -1      1208    8    0    1
 -2       546       681       680      2848      2849      2844
 -1      1209    8    0    1
 -2       547       548       682      2442      2850      2851
 -1      1210    8    0    1
 -2       547       682       681      2851      2852      2847
 -1      1211    8    0    1
 -2       548       549       683      2445      2853      2854
 -1      1212    8    0    1
 -2       548       683       682      2854      2855      2850
 -1      1213    8    0    1
 -2       549       550       684      2448      2856      2857
 -1      1214    8    0    1
 -2       549       684       683      2857      2858      2853
 -1      1215    8    0    1
 -2       550       551       685      2451      2859      2860
 -1      1216    8    0    1
 -2       550       685       684      2860      2861      2856
 -1      1217    8    0    1
 -2       551       552       686      2454      2862      2863
 -1      1218    8    0    1
 -2       551       686       685      2863      2864      2859
 -1      1219    8    0    1
 -2       552       553       687      2457      2865      2866
 -1      1220    8    0    1
 -2       552       687       686      2866      2867      2862
 -1      1221    8    0    1
 -2       553       554       688      2460      2868      2869
 -1      1222    8    0    1
 -2       553       688       687      2869      2870      2865
 -1      1223    8    0    1
 -2       554       555       689      2463      2871      2872
 -1      1224    8    0    1
 -2       554       689       688      2872      2873      2868
 -1      1225    8    0    1
 -2       555       556       690      2466      2874      2875
 -1      1226    8    0    1
 -2       555       690       689      2875      2876      2871
 -1      1227    8    0    1
 -2       556       557       691      2469      2877      2878
 -1      1228    8    0    1
 -2       556       691       690      2878      2879      2874
 -1      1229    8    0    1
 -2       557       558       692      2472      2880      2881
 -1      1230    8    0    1
 -2       557       692       691      2881      2882      2877
 -1      1231    8    0    1
 -2       558       559       693      2475      2883      2884
 -1      1232    8    0    1
 -2       558       693       692      2884      2885      2880
 -1      1233    8    0    1
 -2       559       560       694      2478      2886      2887
 -1      1234    8    0    1
 -2       559       694       693      2887      2888      2883
 -1      1235    8    0    1
 -2       560       561       695      2481      2889      2890
 -1      1236    8    0    1
 -2       560       695       694      2890      2891      2886
 -1      1237    8    0    1
 -2       561       562       696      2484      2892      2893
 -1      1238    8    0    1
 -2       561       696       695      2893      2894      2889
 -1      1239    8    0    1
 -2       562       563       697      2487      2895      2896
 -1      1240    8    0    1
 -2       562       697       696      2896      2897      2892
 -1      1241    8    0    1
 -2       563       564       698      2490      2898      2899
 -1      1242    8    0    1
 -2       563       698       697      2899      2900      2895
 -1      1243    8    0    1
 -2       564       565       699      2493      2901      2902
 -1      1244    8    0    1
 -2       564       699       698      2902      2903      2898
 -1      1245    8    0    1
 -2       565       566       700      2496      2904      2905
 -1      1246    8    0    1
 -2       565       700       699      2905      2906      2901
 -1      1247    8    0    1
 -2       566       567       701      2499      2907      2908
 -1      1248    8    0    1
 -2       566       701       700      2908      2909      2904
 -1      1249    8    0    1
 -2       567       568       702      2502      2910      2911
 -1      1250    8    0    1
 -2       567       702       701      2911      2912      2907
 -1      1251    8    0    1
 -2       568       569       703      2505      2913      2914
 -1      1252    8    0    1
 -2       568       703       702      2914      2915      2910
 -1      1253    8    0    1
 -2       569       570       704      2508      2916      2917
 -1      1254    8    0    1
 -2       703       569       704      2913      2917      2918
 -1      1255    8    0    1
 -2       570       573       704      2665      2919      2916
 -1      1256    8    0    1
 -2       575       576       705      2526      2920      2921
 -1      1257    8    0    1
 -2       617       528       706      2666      2922      2923
 -1      1258    8    0    1
 -2       528       669       706      2810      2924      2922
 -1      1259    8    0    1
 -2       571       572       707      2514      2925      2926
 -1      1260    8    0    1
 -2       576       577       708      2529      2927      2928
 -1      1261    8    0    1
 -2       576       708       705      2928      2929      2920
 -1      1262    8    0    1
 -2       572       575       709      2523      2930      2931
 -1      1263    8    0    1
 -2       707       572       709      2925      2931      2932
 -1      1264    8    0    1
 -2       575       705       709      2921      2933      2930
 -1      1265    8    0    1
 -2       584       529       710      2549      2934      2935
 -1      1266    8    0    1
 -2       626       584       710      2681      2935      2936
 -1      1267    8    0    1
 -2       529       672       710      2817      2937      2934
 -1      1268    8    0    1
 -2       602       591       711      2589      2938      2939
 -1      1269    8    0    1
 -2       577       578       712      2532      2940      2941
 -1      1270    8    0    1
 -2       577       712       708      2941      2942      2927
 -1      1271    8    0    1
 -2       578       579       713      2535      2943      2944
 -1      1272    8    0    1
 -2       578       713       712      2944      2945      2940
 -1      1273    8    0    1
 -2       579       580       714      2538      2946      2947
 -1      1274    8    0    1
 -2       579       714       713      2947      2948      2943
 -1      1275    8    0    1
 -2       610       583       715      2633      2949      2950
 -1      1276    8    0    1
 -2       581       617       706      2641      2923      2951
 -1      1277    8    0    1
 -2       589       608       716      2634      2952      2953
 -1      1278    8    0    1
 -2       600       601       717      2647      2954      2955
 -1      1279    8    0    1
 -2       611       447       614      2649      2621      2956
 -1      1280    8    0    1
 -2       606       586       718      2632      2957      2958
 -1      1281    8    0    1
 -2       590       474       719      2655      2959      2960
 -1      1282    8    0    1
 -2       588       582       720      2637      2961      2962
 -1      1283    8    0    1
 -2       588       720       625      2962      2963      2679
 -1      1284    8    0    1
 -2       582       587       721      2638      2964      2965
 -1      1285    8    0    1
 -2       531       532       722      2394      2966      2967
 -1      1286    8    0    1
 -2       670       531       722      2812      2967      2968
 -1      1287    8    0    1
 -2       532       673       722      2820      2969      2966
 -1      1288    8    0    1
 -2       486       485       723      2257      2970      2971
 -1      1289    8    0    1
 -2       486       723       628      2971      2972      2687
 -1      1290    8    0    1
 -2       604       589       724      2650      2973      2974
 -1      1291    8    0    1
 -2       589       716       724      2953      2975      2973
 -1      1292    8    0    1
 -2       480       481       725      2243      2976      2977
 -1      1293    8    0    1
 -2       620       480       725      2667      2977      2978
 -1      1294    8    0    1
 -2       481       622       725      2673      2979      2976
 -1      1295    8    0    1
 -2       607       604       726      2631      2980      2981
 -1      1296    8    0    1
 -2       587       613       727      2656      2982      2983
 -1      1297    8    0    1
 -2       597       598       728      2580      2984      2985
 -1      1298    8    0    1
 -2       608       609       729      2664      2986      2987
 -1      1299    8    0    1
 -2       598       599       730      2648      2988      2989
 -1      1300    8    0    1
 -2       583       585       731      2644      2990      2991
 -1      1301    8    0    1
 -2       603       590       732      2592      2992      2993
 -1      1302    8    0    1
 -2       596       597       677      2651      2994      2995
 -1      1303    8    0    1
 -2       477       476       733      2232      2996      2997
 -1      1304    8    0    1
 -2       599       600       734      2663      2998      2999
 -1      1305    8    0    1
 -2       600       717       734      2955      3000      2998
 -1      1306    8    0    1
 -2       605       607       735      2601      3001      3002
 -1      1307    8    0    1
 -2       586       610       736      2657      3003      3004
 -1      1308    8    0    1
 -2       594       595       737      2658      3005      3006
 -1      1309    8    0    1
 -2       595       593       738      2618      3007      3008
 -1      1310    8    0    1
 -2       537       596       677      2834      2995      2830
 -1      1311    8    0    1
 -2       614       477       739      2619      3009      3010
 -1      1312    8    0    1
 -2       477       733       739      2997      3011      3009
 -1      1313    8    0    1
 -2       478       621       740      2670      3012      3013
 -1      1314    8    0    1
 -2       478       740       592      3013      3014      2567
 -1      1315    8    0    1
 -2       483       475       624      2684      2678      3015
 -1      1316    8    0    1
 -2       585       625       731      2680      3016      2990
 -1      1317    8    0    1
 -2       615       473       616      2626      2629      3017
 -1      1318    8    0    1
 -2       616       594       737      2630      3006      3018
 -1      1319    8    0    1
 -2       604       724       726      2974      3019      2980
 -1      1320    8    0    1
 -2       627       606       718      2685      2958      3020
 -1      1321    8    0    1
 -2       607       726       735      2981      3021      3001
 -1      1322    8    0    1
 -2       737       595       738      3005      3008      3022
 -1      1323    8    0    1
 -2       736       610       715      3003      2950      3023
 -1      1324    8    0    1
 -2       571       707       741      2926      3024      3025
 -1      1325    8    0    1
 -2       571       741       574      3025      3026      2520
 -1      1326    8    0    1
 -2       601       671       742      2815      3027      3028
 -1      1327    8    0    1
 -2       601       742       717      3028      3029      2954
 -1      1328    8    0    1
 -2       602       711       671      2939      3030      2814
 -1      1329    8    0    1
 -2       596       538       593      2833      3031      2662
 -1      1330    8    0    1
 -2       538       539       738      2415      3032      3033
 -1      1331    8    0    1
 -2       539       540       737      2418      3034      3035
 -1      1332    8    0    1
 -2       541       615       616      2838      3017      2835
 -1      1333    8    0    1
 -2       543       678       727      2840      3036      3037
 -1      1334    8    0    1
 -2       542       543       727      2427      3037      3038
 -1      1335    8    0    1
 -2       573       574       743      2519      3039      3040
 -1      1336    8    0    1
 -2       704       573       743      2919      3040      3041
 -1      1337    8    0    1
 -2       574       741       743      3026      3042      3039
 -1      1338    8    0    1
 -2       715       583       731      2949      2991      3043
 -1      1339    8    0    1
 -2       580       581       706      2541      2951      3044
 -1      1340    8    0    1
 -2       732       590       719      2992      2960      3045
 -1      1341    8    0    1
 -2       730       599       734      2988      2999      3046
 -1      1342    8    0    1
 -2       729       609       627      2986      2686      3047
 -1      1343    8    0    1
 -2       720       582       721      2961      2965      3048
 -1      1344    8    0    1
 -2       719       474       619      2959      2660      3049
 -1      1345    8    0    1
 -2       716       608       729      2952      2987      3050
 -1      1346    8    0    1
 -2       605       735       744      3002      3051      3052
 -1      1347    8    0    1
 -2       605       744       619      3052      3053      2661
 -1      1348    8    0    1
 -2       611       614       745      2956      3054      3055
 -1      1349    8    0    1
 -2       485       611       745      2610      3055      3056
 -1      1350    8    0    1
 -2       614       739       745      3010      3057      3054
 -1      1351    8    0    1
 -2       718       586       736      2957      3004      3058
 -1      1352    8    0    1
 -2       618       603       732      2652      2993      3059
 -1      1353    8    0    1
 -2       483       624       623      3015      3060      2674
 -1      1354    8    0    1
 -2       476       592       746      2566      3061      3062
 -1      1355    8    0    1
 -2       733       476       746      2996      3062      3063
 -1      1356    8    0    1
 -2       592       740       746      3014      3064      3061
 -1      1357    8    0    1
 -2       721       587       727      2964      2983      3065
 -1      1358    8    0    1
 -2       737       540       616      3034      2836      3018
 -1      1359    8    0    1
 -2       738       539       737      3032      3035      3022
 -1      1360    8    0    1
 -2       593       538       738      3031      3033      3007
 -1      1361    8    0    1
 -2       728       598       730      2984      2989      3066
 -1      1362    8    0    1
 -2       485       745       723      3056      3067      2970
 -1      1363    8    0    1
 -2       711       591       618      2938      2654      3068
 -1      1364    8    0    1
 -2       580       706       747      3044      3069      3070
 -1      1365    8    0    1
 -2       714       580       747      2946      3070      3071
 -1      1366    8    0    1
 -2       706       669       747      2924      3072      3069
 -1      1367    8    0    1
 -2       731       625       748      3016      3073      3074
 -1      1368    8    0    1
 -2       622       623       749      2676      3075      3076
 -1      1369    8    0    1
 -2       628       723       750      2972      3077      3078
 -1      1370    8    0    1
 -2       728       730       751      3066      3079      3080
 -1      1371    8    0    1
 -2       630       629       752      2694      3081      3082
 -1      1372    8    0    1
 -2       631       630       753      2697      3083      3084
 -1      1373    8    0    1
 -2       630       752       753      3082      3085      3083
 -1      1374    8    0    1
 -2       632       631       754      2700      3086      3087
 -1      1375    8    0    1
 -2       631       753       754      3084      3088      3086
 -1      1376    8    0    1
 -2       633       632       755      2703      3089      3090
 -1      1377    8    0    1
 -2       632       754       755      3087      3091      3089
 -1      1378    8    0    1
 -2       634       633       756      2706      3092      3093
 -1      1379    8    0    1
 -2       633       755       756      3090      3094      3092
 -1      1380    8    0    1
 -2       635       634       757      2709      3095      3096
 -1      1381    8    0    1
 -2       634       756       757      3093      3097      3095
 -1      1382    8    0    1
 -2       636       635       758      2712      3098      3099
 -1      1383    8    0    1
 -2       635       757       758      3096      3100      3098
 -1      1384    8    0    1
 -2       637       636       759      2715      3101      3102
 -1      1385    8    0    1
 -2       636       758       759      3099      3103      3101
 -1      1386    8    0    1
 -2       638       637       760      2718      3104      3105
 -1      1387    8    0    1
 -2       637       759       760      3102      3106      3104
 -1      1388    8    0    1
 -2       639       638       761      2721      3107      3108
 -1      1389    8    0    1
 -2       638       760       761      3105      3109      3107
 -1      1390    8    0    1
 -2       640       639       762      2724      3110      3111
 -1      1391    8    0    1
 -2       639       761       762      3108      3112      3110
 -1      1392    8    0    1
 -2       642       641       763      2730      3113      3114
 -1      1393    8    0    1
 -2       643       642       764      2733      3115      3116
 -1      1394    8    0    1
 -2       642       763       764      3114      3117      3115
 -1      1395    8    0    1
 -2       644       643       765      2736      3118      3119
 -1      1396    8    0    1
 -2       643       764       765      3116      3120      3118
 -1      1397    8    0    1
 -2       645       644       766      2739      3121      3122
 -1      1398    8    0    1
 -2       644       765       766      3119      3123      3121
 -1      1399    8    0    1
 -2       646       645       767      2742      3124      3125
 -1      1400    8    0    1
 -2       645       766       767      3122      3126      3124
 -1      1401    8    0    1
 -2       647       646       768      2745      3127      3128
 -1      1402    8    0    1
 -2       646       767       768      3125      3129      3127
 -1      1403    8    0    1
 -2       648       647       769      2748      3130      3131
 -1      1404    8    0    1
 -2       647       768       769      3128      3132      3130
 -1      1405    8    0    1
 -2       649       648       770      2751      3133      3134
 -1      1406    8    0    1
 -2       648       769       770      3131      3135      3133
 -1      1407    8    0    1
 -2       650       649       771      2754      3136      3137
 -1      1408    8    0    1
 -2       649       770       771      3134      3138      3136
 -1      1409    8    0    1
 -2       651       650       772      2757      3139      3140
 -1      1410    8    0    1
 -2       650       771       772      3137      3141      3139
 -1      1411    8    0    1
 -2       652       651       773      2760      3142      3143
 -1      1412    8    0    1
 -2       651       772       773      3140      3144      3142
 -1      1413    8    0    1
 -2       653       652       774      2763      3145      3146
 -1      1414    8    0    1
 -2       652       773       774      3143      3147      3145
 -1      1415    8    0    1
 -2       654       653       775      2766      3148      3149
 -1      1416    8    0    1
 -2       653       774       775      3146      3150      3148
 -1      1417    8    0    1
 -2       655       654       776      2769      3151      3152
 -1      1418    8    0    1
 -2       654       775       776      3149      3153      3151
 -1      1419    8    0    1
 -2       656       655       777      2772      3154      3155
 -1      1420    8    0    1
 -2       655       776       777      3152      3156      3154
 -1      1421    8    0    1
 -2       657       656       778      2775      3157      3158
 -1      1422    8    0    1
 -2       656       777       778      3155      3159      3157
 -1      1423    8    0    1
 -2       658       657       779      2778      3160      3161
 -1      1424    8    0    1
 -2       657       778       779      3158      3162      3160
 -1      1425    8    0    1
 -2       659       658       780      2781      3163      3164
 -1      1426    8    0    1
 -2       658       779       780      3161      3165      3163
 -1      1427    8    0    1
 -2       660       659       781      2784      3166      3167
 -1      1428    8    0    1
 -2       659       780       781      3164      3168      3166
 -1      1429    8    0    1
 -2       661       660       782      2787      3169      3170
 -1      1430    8    0    1
 -2       660       781       782      3167      3171      3169
 -1      1431    8    0    1
 -2       662       661       783      2790      3172      3173
 -1      1432    8    0    1
 -2       661       782       783      3170      3174      3172
 -1      1433    8    0    1
 -2       663       662       784      2793      3175      3176
 -1      1434    8    0    1
 -2       662       783       784      3173      3177      3175
 -1      1435    8    0    1
 -2       664       663       785      2796      3178      3179
 -1      1436    8    0    1
 -2       663       784       785      3176      3180      3178
 -1      1437    8    0    1
 -2       665       664       786      2799      3181      3182
 -1      1438    8    0    1
 -2       664       785       786      3179      3183      3181
 -1      1439    8    0    1
 -2       666       665       787      2802      3184      3185
 -1      1440    8    0    1
 -2       665       786       787      3182      3186      3184
 -1      1441    8    0    1
 -2       667       666       788      2805      3187      3188
 -1      1442    8    0    1
 -2       666       787       788      3185      3189      3187
 -1      1443    8    0    1
 -2       668       667       789      2808      3190      3191
 -1      1444    8    0    1
 -2       667       788       789      3188      3192      3190
 -1      1445    8    0    1
 -2       669       668       790      2811      3193      3194
 -1      1446    8    0    1
 -2       747       669       790      3072      3194      3195
 -1      1447    8    0    1
 -2       668       789       790      3191      3196      3193
 -1      1448    8    0    1
 -2       711       618       791      3068      3197      3198
 -1      1449    8    0    1
 -2       734       717       792      3000      3199      3200
 -1      1450    8    0    1
 -2       674       675       793      2826      3201      3202
 -1      1451    8    0    1
 -2       673       674       794      2823      3203      3204
 -1      1452    8    0    1
 -2       674       793       794      3202      3205      3203
 -1      1453    8    0    1
 -2       676       677       751      2832      3206      3207
 -1      1454    8    0    1
 -2       718       736       795      3058      3208      3209
 -1      1455    8    0    1
 -2       678       679       796      2843      3210      3211
 -1      1456    8    0    1
 -2       681       682       797      2852      3212      3213
 -1      1457    8    0    1
 -2       682       683       798      2855      3214      3215
 -1      1458    8    0    1
 -2       682       798       797      3215      3216      3212
 -1      1459    8    0    1
 -2       683       684       799      2858      3217      3218
 -1      1460    8    0    1
 -2       683       799       798      3218      3219      3214
 -1      1461    8    0    1
 -2       684       685       800      2861      3220      3221
 -1      1462    8    0    1
 -2       684       800       799      3221      3222      3217
 -1      1463    8    0    1
 -2       685       686       801      2864      3223      3224
 -1      1464    8    0    1
 -2       685       801       800      3224      3225      3220
 -1      1465    8    0    1
 -2       686       687       802      2867      3226      3227
 -1      1466    8    0    1
 -2       686       802       801      3227      3228      3223
 -1      1467    8    0    1
 -2       687       688       803      2870      3229      3230
 -1      1468    8    0    1
 -2       687       803       802      3230      3231      3226
 -1      1469    8    0    1
 -2       688       689       804      2873      3232      3233
 -1      1470    8    0    1
 -2       688       804       803      3233      3234      3229
 -1      1471    8    0    1
 -2       689       690       805      2876      3235      3236
 -1      1472    8    0    1
 -2       689       805       804      3236      3237      3232
 -1      1473    8    0    1
 -2       690       691       806      2879      3238      3239
 -1      1474    8    0    1
 -2       690       806       805      3239      3240      3235
 -1      1475    8    0    1
 -2       691       692       807      2882      3241      3242
 -1      1476    8    0    1
 -2       691       807       806      3242      3243      3238
 -1      1477    8    0    1
 -2       692       693       808      2885      3244      3245
 -1      1478    8    0    1
 -2       692       808       807      3245      3246      3241
 -1      1479    8    0    1
 -2       693       694       809      2888      3247      3248
 -1      1480    8    0    1
 -2       693       809       808      3248      3249      3244
 -1      1481    8    0    1
 -2       694       695       810      2891      3250      3251
 -1      1482    8    0    1
 -2       694       810       809      3251      3252      3247
 -1      1483    8    0    1
 -2       695       696       811      2894      3253      3254
 -1      1484    8    0    1
 -2       695       811       810      3254      3255      3250
 -1      1485    8    0    1
 -2       696       697       812      2897      3256      3257
 -1      1486    8    0    1
 -2       696       812       811      3257      3258      3253
 -1      1487    8    0    1
 -2       697       698       813      2900      3259      3260
 -1      1488    8    0    1
 -2       697       813       812      3260      3261      3256
 -1      1489    8    0    1
 -2       698       699       814      2903      3262      3263
 -1      1490    8    0    1
 -2       698       814       813      3263      3264      3259
 -1      1491    8    0    1
 -2       699       700       815      2906      3265      3266
 -1      1492    8    0    1
 -2       699       815       814      3266      3267      3262
 -1      1493    8    0    1
 -2       700       701       816      2909      3268      3269
 -1      1494    8    0    1
 -2       700       816       815      3269      3270      3265
 -1      1495    8    0    1
 -2       701       702       817      2912      3271      3272
 -1      1496    8    0    1
 -2       701       817       816      3272      3273      3268
 -1      1497    8    0    1
 -2       702       703       818      2915      3274      3275
 -1      1498    8    0    1
 -2       702       818       817      3275      3276      3271
 -1      1499    8    0    1
 -2       703       704       819      2918      3277      3278
 -1      1500    8    0    1
 -2       818       703       819      3274      3278      3279
 -1      1501    8    0    1
 -2       704       743       819      3041      3280      3277
 -1      1502    8    0    1
 -2       621       620       820      2671      3281      3282
 -1      1503    8    0    1
 -2       705       708       821      2929      3283      3284
 -1      1504    8    0    1
 -2       671       711       822      3030      3285      3286
 -1      1505    8    0    1
 -2       713       714       823      2948      3287      3288
 -1      1506    8    0    1
 -2       677       597       728      2994      2985      3289
 -1      1507    8    0    1
 -2       708       712       824      2942      3290      3291
 -1      1508    8    0    1
 -2       708       824       821      3291      3292      3283
 -1      1509    8    0    1
 -2       715       731       825      3043      3293      3294
 -1      1510    8    0    1
 -2       627       718       826      3020      3295      3296
 -1      1511    8    0    1
 -2       727       678       796      3036      3211      3297
 -1      1512    8    0    1
 -2       712       713       827      2945      3298      3299
 -1      1513    8    0    1
 -2       824       712       827      3290      3299      3300
 -1      1514    8    0    1
 -2       713       823       827      3288      3301      3298
 -1      1515    8    0    1
 -2       732       719       828      3045      3302      3303
 -1      1516    8    0    1
 -2       680       681       829      2849      3304      3305
 -1      1517    8    0    1
 -2       681       797       829      3213      3306      3304
 -1      1518    8    0    1
 -2       679       680       830      2846      3307      3308
 -1      1519    8    0    1
 -2       796       679       830      3210      3308      3309
 -1      1520    8    0    1
 -2       680       829       830      3305      3310      3307
 -1      1521    8    0    1
 -2       730       734       831      3046      3311      3312
 -1      1522    8    0    1
 -2       735       726       761      3021      3313      3314
 -1      1523    8    0    1
 -2       625       720       832      2963      3315      3316
 -1      1524    8    0    1
 -2       675       676       833      2829      3317      3318
 -1      1525    8    0    1
 -2       793       675       833      3201      3318      3319
 -1      1526    8    0    1
 -2       676       751       833      3207      3320      3317
 -1      1527    8    0    1
 -2       672       670       834      2818      3321      3322
 -1      1528    8    0    1
 -2       724       716       835      2975      3323      3324
 -1      1529    8    0    1
 -2       613       615       836      2625      3325      3326
 -1      1530    8    0    1
 -2       727       613       836      2982      3326      3327
 -1      1531    8    0    1
 -2       716       729       837      3050      3328      3329
 -1      1532    8    0    1
 -2       629       628       838      2691      3330      3331
 -1      1533    8    0    1
 -2       629       838       752      3331      3332      3081
 -1      1534    8    0    1
 -2       719       619       839      3049      3333      3334
 -1      1535    8    0    1
 -2       723       745       840      3067      3335      3336
 -1      1536    8    0    1
 -2       745       739       840      3057      3337      3335
 -1      1537    8    0    1
 -2       623       624       841      3060      3338      3339
 -1      1538    8    0    1
 -2       749       623       841      3075      3339      3340
 -1      1539    8    0    1
 -2       624       626       841      2683      3341      3338
 -1      1540    8    0    1
 -2       729       627       842      3047      3342      3343
 -1      1541    8    0    1
 -2       618       732       843      3059      3344      3345
 -1      1542    8    0    1
 -2       618       843       791      3345      3346      3197
 -1      1543    8    0    1
 -2       720       721       844      3048      3347      3348
 -1      1544    8    0    1
 -2       726       724       762      3019      3349      3350
 -1      1545    8    0    1
 -2       736       715       845      3023      3351      3352
 -1      1546    8    0    1
 -2       715       825       845      3294      3353      3351
 -1      1547    8    0    1
 -2       740       621       846      3012      3354      3355
 -1      1548    8    0    1
 -2       621       820       846      3282      3356      3354
 -1      1549    8    0    1
 -2       622       749       847      3076      3357      3358
 -1      1550    8    0    1
 -2       622       847       725      3358      3359      2979
 -1      1551    8    0    1
 -2       628       750       838      3078      3360      3330
 -1      1552    8    0    1
 -2       729       842       837      3343      3361      3328
 -1      1553    8    0    1
 -2       640       762       835      3111      3362      3363
 -1      1554    8    0    1
 -2       741       707       848      3024      3364      3365
 -1      1555    8    0    1
 -2       742       671       822      3027      3286      3366
 -1      1556    8    0    1
 -2       711       791       849      3198      3367      3368
 -1      1557    8    0    1
 -2       711       849       822      3368      3369      3285
 -1      1558    8    0    1
 -2       763       641       835      3113      3370      3371
 -1      1559    8    0    1
 -2       641       640       835      2727      3363      3370
 -1      1560    8    0    1
 -2       792       717       850      3199      3372      3373
 -1      1561    8    0    1
 -2       717       742       850      3029      3374      3372
 -1      1562    8    0    1
 -2       734       792       831      3200      3375      3311
 -1      1563    8    0    1
 -2       672       834       851      3322      3376      3377
 -1      1564    8    0    1
 -2       672       851       710      3377      3378      2937
 -1      1565    8    0    1
 -2       673       794       852      3204      3379      3380
 -1      1566    8    0    1
 -2       673       852       722      3380      3381      2969
 -1      1567    8    0    1
 -2       718       795       826      3209      3382      3295
 -1      1568    8    0    1
 -2       834       670       853      3321      3383      3384
 -1      1569    8    0    1
 -2       670       722       853      2968      3385      3383
 -1      1570    8    0    1
 -2       820       620       854      3281      3386      3387
 -1      1571    8    0    1
 -2       620       725       854      2978      3388      3386
 -1      1572    8    0    1
 -2       707       709       855      2932      3389      3390
 -1      1573    8    0    1
 -2       707       855       848      3390      3391      3364
 -1      1574    8    0    1
 -2       731       748       856      3074      3392      3393
 -1      1575    8    0    1
 -2       731       856       825      3393      3394      3293
 -1      1576    8    0    1
 -2       709       705       857      2933      3395      3396
 -1      1577    8    0    1
 -2       855       709       857      3389      3396      3397
 -1      1578    8    0    1
 -2       705       821       857      3284      3398      3395
 -1      1579    8    0    1
 -2       732       828       858      3303      3399      3400
 -1      1580    8    0    1
 -2       732       858       843      3400      3401      3344
 -1      1581    8    0    1
 -2       828       719       839      3302      3334      3402
 -1      1582    8    0    1
 -2       627       826       842      3296      3403      3342
 -1      1583    8    0    1
 -2       748       625       832      3073      3316      3404
 -1      1584    8    0    1
 -2       762       724       835      3349      3324      3362
 -1      1585    8    0    1
 -2       730       831       751      3312      3405      3079
 -1      1586    8    0    1
 -2       761       726       762      3313      3350      3112
 -1      1587    8    0    1
 -2       615       542       836      2837      3406      3325
 -1      1588    8    0    1
 -2       832       720       844      3315      3348      3407
 -1      1589    8    0    1
 -2       735       761       760      3314      3109      3408
 -1      1590    8    0    1
 -2       835       716       763      3323      3409      3371
 -1      1591    8    0    1
 -2       750       723       840      3077      3336      3410
 -1      1592    8    0    1
 -2       839       619       744      3333      3053      3411
 -1      1593    8    0    1
 -2       714       747       859      3071      3412      3413
 -1      1594    8    0    1
 -2       823       714       859      3287      3413      3414
 -1      1595    8    0    1
 -2       747       790       859      3195      3415      3412
 -1      1596    8    0    1
 -2       739       733       860      3011      3416      3417
 -1      1597    8    0    1
 -2       739       860       840      3417      3418      3337
 -1      1598    8    0    1
 -2       721       727       796      3065      3297      3419
 -1      1599    8    0    1
 -2       795       736       845      3208      3352      3420
 -1      1600    8    0    1
 -2       733       746       861      3063      3421      3422
 -1      1601    8    0    1
 -2       733       861       860      3422      3423      3416
 -1      1602    8    0    1
 -2       626       710       862      2936      3424      3425
 -1      1603    8    0    1
 -2       841       626       862      3341      3425      3426
 -1      1604    8    0    1
 -2       710       851       862      3378      3427      3424
 -1      1605    8    0    1
 -2       751       831       833      3405      3428      3320
 -1      1606    8    0    1
 -2       728       751       677      3080      3206      3289
 -1      1607    8    0    1
 -2       742       822       863      3366      3429      3430
 -1      1608    8    0    1
 -2       754       753       864      3088      3431      3432
 -1      1609    8    0    1
 -2       755       754       865      3091      3433      3434
 -1      1610    8    0    1
 -2       754       864       865      3432      3435      3433
 -1      1611    8    0    1
 -2       756       755       866      3094      3436      3437
 -1      1612    8    0    1
 -2       755       865       866      3434      3438      3436
 -1      1613    8    0    1
 -2       757       756       867      3097      3439      3440
 -1      1614    8    0    1
 -2       756       866       867      3437      3441      3439
 -1      1615    8    0    1
 -2       758       757       858      3100      3442      3443
 -1      1616    8    0    1
 -2       759       758       828      3103      3444      3445
 -1      1617    8    0    1
 -2       760       759       839      3106      3446      3447
 -1      1618    8    0    1
 -2       763       716       837      3409      3329      3448
 -1      1619    8    0    1
 -2       840       860       868      3418      3449      3450
 -1      1620    8    0    1
 -2       840       868       750      3450      3451      3410
 -1      1621    8    0    1
 -2       766       765       869      3123      3452      3453
 -1      1622    8    0    1
 -2       767       766       870      3126      3454      3455
 -1      1623    8    0    1
 -2       766       869       870      3453      3456      3454
 -1      1624    8    0    1
 -2       768       767       871      3129      3457      3458
 -1      1625    8    0    1
 -2       767       870       871      3455      3459      3457
 -1      1626    8    0    1
 -2       769       768       872      3132      3460      3461
 -1      1627    8    0    1
 -2       768       871       872      3458      3462      3460
 -1      1628    8    0    1
 -2       770       769       873      3135      3463      3464
 -1      1629    8    0    1
 -2       769       872       873      3461      3465      3463
 -1      1630    8    0    1
 -2       771       770       874      3138      3466      3467
 -1      1631    8    0    1
 -2       770       873       874      3464      3468      3466
 -1      1632    8    0    1
 -2       772       771       875      3141      3469      3470
 -1      1633    8    0    1
 -2       771       874       875      3467      3471      3469
 -1      1634    8    0    1
 -2       773       772       876      3144      3472      3473
 -1      1635    8    0    1
 -2       772       875       876      3470      3474      3472
 -1      1636    8    0    1
 -2       774       773       877      3147      3475      3476
 -1      1637    8    0    1
 -2       773       876       877      3473      3477      3475
 -1      1638    8    0    1
 -2       775       774       878      3150      3478      3479
 -1      1639    8    0    1
 -2       774       877       878      3476      3480      3478
 -1      1640    8    0    1
 -2       776       775       879      3153      3481      3482
 -1      1641    8    0    1
 -2       775       878       879      3479      3483      3481
 -1      1642    8    0    1
 -2       777       776       880      3156      3484      3485
 -1      1643    8    0    1
 -2       776       879       880      3482      3486      3484
 -1      1644    8    0    1
 -2       778       777       881      3159      3487      3488
 -1      1645    8    0    1
 -2       777       880       881      3485      3489      3487
 -1      1646    8    0    1
 -2       779       778       882      3162      3490      3491
 -1      1647    8    0    1
 -2       778       881       882      3488      3492      3490
 -1      1648    8    0    1
 -2       780       779       883      3165      3493      3494
 -1      1649    8    0    1
 -2       779       882       883      3491      3495      3493
 -1      1650    8    0    1
 -2       781       780       884      3168      3496      3497
 -1      1651    8    0    1
 -2       780       883       884      3494      3498      3496
 -1      1652    8    0    1
 -2       782       781       885      3171      3499      3500
 -1      1653    8    0    1
 -2       781       884       885      3497      3501      3499
 -1      1654    8    0    1
 -2       783       782       886      3174      3502      3503
 -1      1655    8    0    1
 -2       782       885       886      3500      3504      3502
 -1      1656    8    0    1
 -2       784       783       887      3177      3505      3506
 -1      1657    8    0    1
 -2       783       886       887      3503      3507      3505
 -1      1658    8    0    1
 -2       785       784       888      3180      3508      3509
 -1      1659    8    0    1
 -2       784       887       888      3506      3510      3508
 -1      1660    8    0    1
 -2       786       785       889      3183      3511      3512
 -1      1661    8    0    1
 -2       785       888       889      3509      3513      3511
 -1      1662    8    0    1
 -2       787       786       890      3186      3514      3515
 -1      1663    8    0    1
 -2       786       889       890      3512      3516      3514
 -1      1664    8    0    1
 -2       788       787       891      3189      3517      3518
 -1      1665    8    0    1
 -2       787       890       891      3515      3519      3517
 -1      1666    8    0    1
 -2       789       788       892      3192      3520      3521
 -1      1667    8    0    1
 -2       788       891       892      3518      3522      3520
 -1      1668    8    0    1
 -2       798       799       893      3219      3523      3524
 -1      1669    8    0    1
 -2       794       793       894      3205      3525      3526
 -1      1670    8    0    1
 -2       743       741       895      3042      3527      3528
 -1      1671    8    0    1
 -2       819       743       895      3280      3528      3529
 -1      1672    8    0    1
 -2       741       848       895      3365      3530      3527
 -1      1673    8    0    1
 -2       797       798       896      3216      3531      3532
 -1      1674    8    0    1
 -2       798       893       896      3524      3533      3531
 -1      1675    8    0    1
 -2       800       801       897      3225      3534      3535
 -1      1676    8    0    1
 -2       801       802       898      3228      3536      3537
 -1      1677    8    0    1
 -2       801       898       897      3537      3538      3534
 -1      1678    8    0    1
 -2       802       803       899      3231      3539      3540
 -1      1679    8    0    1
 -2       802       899       898      3540      3541      3536
 -1      1680    8    0    1
 -2       803       804       900      3234      3542      3543
 -1      1681    8    0    1
 -2       803       900       899      3543      3544      3539
 -1      1682    8    0    1
 -2       804       805       901      3237      3545      3546
 -1      1683    8    0    1
 -2       804       901       900      3546      3547      3542
 -1      1684    8    0    1
 -2       805       806       902      3240      3548      3549
 -1      1685    8    0    1
 -2       805       902       901      3549      3550      3545
 -1      1686    8    0    1
 -2       806       807       903      3243      3551      3552
 -1      1687    8    0    1
 -2       806       903       902      3552      3553      3548
 -1      1688    8    0    1
 -2       807       808       904      3246      3554      3555
 -1      1689    8    0    1
 -2       807       904       903      3555      3556      3551
 -1      1690    8    0    1
 -2       808       809       905      3249      3557      3558
 -1      1691    8    0    1
 -2       808       905       904      3558      3559      3554
 -1      1692    8    0    1
 -2       809       810       906      3252      3560      3561
 -1      1693    8    0    1
 -2       809       906       905      3561      3562      3557
 -1      1694    8    0    1
 -2       810       811       907      3255      3563      3564
 -1      1695    8    0    1
 -2       810       907       906      3564      3565      3560
 -1      1696    8    0    1
 -2       811       812       908      3258      3566      3567
 -1      1697    8    0    1
 -2       811       908       907      3567      3568      3563
 -1      1698    8    0    1
 -2       812       813       909      3261      3569      3570
 -1      1699    8    0    1
 -2       812       909       908      3570      3571      3566
 -1      1700    8    0    1
 -2       813       814       910      3264      3572      3573
 -1      1701    8    0    1
 -2       813       910       909      3573      3574      3569
 -1      1702    8    0    1
 -2       814       815       911      3267      3575      3576
 -1      1703    8    0    1
 -2       814       911       910      3576      3577      3572
 -1      1704    8    0    1
 -2       815       816       912      3270      3578      3579
 -1      1705    8    0    1
 -2       815       912       911      3579      3580      3575
 -1      1706    8    0    1
 -2       816       817       913      3273      3581      3582
 -1      1707    8    0    1
 -2       816       913       912      3582      3583      3578
 -1      1708    8    0    1
 -2       795       845       914      3420      3584      3585
 -1      1709    8    0    1
 -2       845       825       915      3353      3586      3587
 -1      1710    8    0    1
 -2       845       915       914      3587      3588      3584
 -1      1711    8    0    1
 -2       826       795       916      3382      3589      3590
 -1      1712    8    0    1
 -2       829       797       917      3306      3591      3592
 -1      1713    8    0    1
 -2       797       896       917      3532      3593      3591
 -1      1714    8    0    1
 -2       749       841       918      3340      3594      3595
 -1      1715    8    0    1
 -2       841       862       918      3426      3596      3594
 -1      1716    8    0    1
 -2       746       740       919      3064      3597      3598
 -1      1717    8    0    1
 -2       861       746       919      3421      3598      3599
 -1      1718    8    0    1
 -2       740       846       919      3355      3600      3597
 -1      1719    8    0    1
 -2       753       752       920      3085      3601      3602
 -1      1720    8    0    1
 -2       753       920       864      3602      3603      3431
 -1      1721    8    0    1
 -2       831       792       921      3375      3604      3605
 -1      1722    8    0    1
 -2       838       750       868      3360      3451      3606
 -1      1723    8    0    1
 -2       799       800       922      3222      3607      3608
 -1      1724    8    0    1
 -2       800       897       922      3535      3609      3607
 -1      1725    8    0    1
 -2       752       838       923      3332      3610      3611
 -1      1726    8    0    1
 -2       752       923       920      3611      3612      3601
 -1      1727    8    0    1
 -2       821       824       924      3292      3613      3614
 -1      1728    8    0    1
 -2       839       759       828      3446      3445      3402
 -1      1729    8    0    1
 -2       748       832       925      3404      3615      3616
 -1      1730    8    0    1
 -2       791       843       926      3346      3617      3618
 -1      1731    8    0    1
 -2       842       826       869      3403      3619      3620
 -1      1732    8    0    1
 -2       764       763       837      3117      3448      3621
 -1      1733    8    0    1
 -2       832       844       927      3407      3622      3623
 -1      1734    8    0    1
 -2       832       927       925      3623      3624      3615
 -1      1735    8    0    1
 -2       764       837       842      3621      3361      3625
 -1      1736    8    0    1
 -2       764       842       765      3625      3626      3120
 -1      1737    8    0    1
 -2       765       842       869      3626      3620      3452
 -1      1738    8    0    1
 -2       847       749       918      3357      3595      3627
 -1      1739    8    0    1
 -2       825       856       928      3394      3628      3629
 -1      1740    8    0    1
 -2       825       928       915      3629      3630      3586
 -1      1741    8    0    1
 -2       828       758       858      3444      3443      3399
 -1      1742    8    0    1
 -2       831       921       833      3605      3631      3428
 -1      1743    8    0    1
 -2       849       791       926      3367      3618      3632
 -1      1744    8    0    1
 -2       792       850       929      3373      3633      3634
 -1      1745    8    0    1
 -2       792       929       921      3634      3635      3604
 -1      1746    8    0    1
 -2       757       867       858      3440      3636      3442
 -1      1747    8    0    1
 -2       868       860       930      3449      3637      3638
 -1      1748    8    0    1
 -2       860       861       930      3423      3639      3637
 -1      1749    8    0    1
 -2       836       542       727      3406      3038      3327
 -1      1750    8    0    1
 -2       893       799       922      3523      3608      3640
 -1      1751    8    0    1
 -2       790       789       931      3196      3641      3642
 -1      1752    8    0    1
 -2       859       790       931      3415      3642      3643
 -1      1753    8    0    1
 -2       789       892       931      3521      3644      3641
 -1      1754    8    0    1
 -2       851       834       932      3376      3645      3646
 -1      1755    8    0    1
 -2       794       894       933      3526      3647      3648
 -1      1756    8    0    1
 -2       794       933       852      3648      3649      3379
 -1      1757    8    0    1
 -2       863       822       934      3429      3650      3651
 -1      1758    8    0    1
 -2       822       849       934      3369      3652      3650
 -1      1759    8    0    1
 -2       853       722       852      3385      3381      3653
 -1      1760    8    0    1
 -2       824       827       935      3300      3654      3655
 -1      1761    8    0    1
 -2       824       935       924      3655      3656      3613
 -1      1762    8    0    1
 -2       854       725       847      3388      3359      3657
 -1      1763    8    0    1
 -2       796       830       927      3309      3658      3659
 -1      1764    8    0    1
 -2       795       914       916      3585      3660      3589
 -1      1765    8    0    1
 -2       826       916       869      3590      3661      3619
 -1      1766    8    0    1
 -2       817       818       936      3276      3662      3663
 -1      1767    8    0    1
 -2       818       819       895      3279      3529      3664
 -1      1768    8    0    1
 -2       856       748       937      3392      3665      3666
 -1      1769    8    0    1
 -2       748       925       937      3616      3667      3665
 -1      1770    8    0    1
 -2       857       821       938      3398      3668      3669
 -1      1771    8    0    1
 -2       821       924       938      3614      3670      3668
 -1      1772    8    0    1
 -2       843       858       939      3401      3671      3672
 -1      1773    8    0    1
 -2       926       843       939      3617      3672      3673
 -1      1774    8    0    1
 -2       858       867       939      3636      3674      3671
 -1      1775    8    0    1
 -2       848       855       940      3391      3675      3676
 -1      1776    8    0    1
 -2       742       863       850      3430      3677      3374
 -1      1777    8    0    1
 -2       721       796       844      3419      3678      3347
 -1      1778    8    0    1
 -2       830       829       941      3310      3679      3680
 -1      1779    8    0    1
 -2       927       830       941      3658      3680      3681
 -1      1780    8    0    1
 -2       829       917       941      3592      3682      3679
 -1      1781    8    0    1
 -2       796       927       844      3659      3622      3678
 -1      1782    8    0    1
 -2       793       833       921      3319      3631      3683
 -1      1783    8    0    1
 -2       834       853       942      3384      3684      3685
 -1      1784    8    0    1
 -2       834       942       932      3685      3686      3645
 -1      1785    8    0    1
 -2       820       854       943      3387      3687      3688
 -1      1786    8    0    1
 -2       848       940       936      3676      3689      3690
 -1      1787    8    0    1
 -2       838       868       923      3606      3691      3610
 -1      1788    8    0    1
 -2       793       921       894      3683      3692      3525
 -1      1789    8    0    1
 -2       820       943       944      3688      3693      3694
 -1      1790    8    0    1
 -2       820       944       846      3694      3695      3356
 -1      1791    8    0    1
 -2       817       936       913      3663      3696      3581
 -1      1792    8    0    1
 -2       823       859       931      3414      3643      3697
 -1      1793    8    0    1
 -2       895       848       936      3530      3690      3698
 -1      1794    8    0    1
 -2       823       931       945      3697      3699      3700
 -1      1795    8    0    1
 -2       827       823       945      3301      3700      3701
 -1      1796    8    0    1
 -2       931       892       945      3644      3702      3699
 -1      1797    8    0    1
 -2       936       818       895      3662      3664      3698
 -1      1798    8    0    1
 -2       866       865       946      3438      3703      3704
 -1      1799    8    0    1
 -2       867       866       947      3441      3705      3706
 -1      1800    8    0    1
 -2       939       867       947      3674      3706      3707
 -1      1801    8    0    1
 -2       866       946       947      3704      3708      3705
 -1      1802    8    0    1
 -2       760       839       744      3447      3411      3709
 -1      1803    8    0    1
 -2       925       927       941      3624      3681      3710
 -1      1804    8    0    1
 -2       847       918       948      3627      3711      3712
 -1      1805    8    0    1
 -2       871       870       949      3459      3713      3714
 -1      1806    8    0    1
 -2       872       871       950      3462      3715      3716
 -1      1807    8    0    1
 -2       871       949       950      3714      3717      3715
 -1      1808    8    0    1
 -2       873       872       951      3465      3718      3719
 -1      1809    8    0    1
 -2       872       950       951      3716      3720      3718
 -1      1810    8    0    1
 -2       874       873       952      3468      3721      3722
 -1      1811    8    0    1
 -2       873       951       952      3719      3723      3721
 -1      1812    8    0    1
 -2       875       874       953      3471      3724      3725
 -1      1813    8    0    1
 -2       874       952       953      3722      3726      3724
 -1      1814    8    0    1
 -2       876       875       954      3474      3727      3728
 -1      1815    8    0    1
 -2       875       953       954      3725      3729      3727
 -1      1816    8    0    1
 -2       877       876       955      3477      3730      3731
 -1      1817    8    0    1
 -2       876       954       955      3728      3732      3730
 -1      1818    8    0    1
 -2       878       877       956      3480      3733      3734
 -1      1819    8    0    1
 -2       877       955       956      3731      3735      3733
 -1      1820    8    0    1
 -2       879       878       957      3483      3736      3737
 -1      1821    8    0    1
 -2       878       956       957      3734      3738      3736
 -1      1822    8    0    1
 -2       880       879       958      3486      3739      3740
 -1      1823    8    0    1
 -2       879       957       958      3737      3741      3739
 -1      1824    8    0    1
 -2       881       880       959      3489      3742      3743
 -1      1825    8    0    1
 -2       880       958       959      3740      3744      3742
 -1      1826    8    0    1
 -2       882       881       960      3492      3745      3746
 -1      1827    8    0    1
 -2       881       959       960      3743      3747      3745
 -1      1828    8    0    1
 -2       883       882       961      3495      3748      3749
 -1      1829    8    0    1
 -2       882       960       961      3746      3750      3748
 -1      1830    8    0    1
 -2       884       883       962      3498      3751      3752
 -1      1831    8    0    1
 -2       883       961       962      3749      3753      3751
 -1      1832    8    0    1
 -2       885       884       963      3501      3754      3755
 -1      1833    8    0    1
 -2       884       962       963      3752      3756      3754
 -1      1834    8    0    1
 -2       886       885       964      3504      3757      3758
 -1      1835    8    0    1
 -2       885       963       964      3755      3759      3757
 -1      1836    8    0    1
 -2       887       886       965      3507      3760      3761
 -1      1837    8    0    1
 -2       886       964       965      3758      3762      3760
 -1      1838    8    0    1
 -2       888       887       966      3510      3763      3764
 -1      1839    8    0    1
 -2       887       965       966      3761      3765      3763
 -1      1840    8    0    1
 -2       889       888       967      3513      3766      3767
 -1      1841    8    0    1
 -2       888       966       967      3764      3768      3766
 -1      1842    8    0    1
 -2       890       889       968      3516      3769      3770
 -1      1843    8    0    1
 -2       889       967       968      3767      3771      3769
 -1      1844    8    0    1
 -2       891       890       969      3519      3772      3773
 -1      1845    8    0    1
 -2       890       968       969      3770      3774      3772
 -1      1846    8    0    1
 -2       892       891       970      3522      3775      3776
 -1      1847    8    0    1
 -2       891       969       970      3773      3777      3775
 -1      1848    8    0    1
 -2       849       926       971      3632      3778      3779
 -1      1849    8    0    1
 -2       849       971       934      3779      3780      3652
 -1      1850    8    0    1
 -2       899       900       972      3544      3781      3782
 -1      1851    8    0    1
 -2       916       914       973      3660      3783      3784
 -1      1852    8    0    1
 -2       898       899       974      3541      3785      3786
 -1      1853    8    0    1
 -2       899       972       974      3782      3787      3785
 -1      1854    8    0    1
 -2       897       898       975      3538      3788      3789
 -1      1855    8    0    1
 -2       898       974       975      3786      3790      3788
 -1      1856    8    0    1
 -2       900       901       976      3547      3791      3792
 -1      1857    8    0    1
 -2       900       976       972      3792      3793      3781
 -1      1858    8    0    1
 -2       901       902       977      3550      3794      3795
 -1      1859    8    0    1
 -2       901       977       976      3795      3796      3791
 -1      1860    8    0    1
 -2       902       903       978      3553      3797      3798
 -1      1861    8    0    1
 -2       902       978       977      3798      3799      3794
 -1      1862    8    0    1
 -2       903       904       979      3556      3800      3801
 -1      1863    8    0    1
 -2       903       979       978      3801      3802      3797
 -1      1864    8    0    1
 -2       904       905       980      3559      3803      3804
 -1      1865    8    0    1
 -2       904       980       979      3804      3805      3800
 -1      1866    8    0    1
 -2       905       906       981      3562      3806      3807
 -1      1867    8    0    1
 -2       905       981       980      3807      3808      3803
 -1      1868    8    0    1
 -2       906       907       982      3565      3809      3810
 -1      1869    8    0    1
 -2       906       982       981      3810      3811      3806
 -1      1870    8    0    1
 -2       907       908       983      3568      3812      3813
 -1      1871    8    0    1
 -2       907       983       982      3813      3814      3809
 -1      1872    8    0    1
 -2       908       909       984      3571      3815      3816
 -1      1873    8    0    1
 -2       908       984       983      3816      3817      3812
 -1      1874    8    0    1
 -2       909       910       985      3574      3818      3819
 -1      1875    8    0    1
 -2       909       985       984      3819      3820      3815
 -1      1876    8    0    1
 -2       910       911       986      3577      3821      3822
 -1      1877    8    0    1
 -2       910       986       985      3822      3823      3818
 -1      1878    8    0    1
 -2       911       912       987      3580      3824      3825
 -1      1879    8    0    1
 -2       911       987       986      3825      3826      3821
 -1      1880    8    0    1
 -2       912       913       988      3583      3827      3828
 -1      1881    8    0    1
 -2       912       988       987      3828      3829      3824
 -1      1882    8    0    1
 -2       896       893       989      3533      3830      3831
 -1      1883    8    0    1
 -2       864       920       990      3603      3832      3833
 -1      1884    8    0    1
 -2       850       863       991      3677      3834      3835
 -1      1885    8    0    1
 -2       850       991       929      3835      3836      3633
 -1      1886    8    0    1
 -2       853       852       992      3653      3837      3838
 -1      1887    8    0    1
 -2       852       933       992      3649      3839      3837
 -1      1888    8    0    1
 -2       855       857       993      3397      3840      3841
 -1      1889    8    0    1
 -2       940       855       993      3675      3841      3842
 -1      1890    8    0    1
 -2       857       938       993      3669      3843      3840
 -1      1891    8    0    1
 -2       914       915       994      3588      3844      3845
 -1      1892    8    0    1
 -2       869       916       870      3661      3846      3456
 -1      1893    8    0    1
 -2       918       862       995      3596      3847      3848
 -1      1894    8    0    1
 -2       948       918       995      3711      3848      3849
 -1      1895    8    0    1
 -2       862       851       995      3427      3850      3847
 -1      1896    8    0    1
 -2       744       735       760      3051      3408      3709
 -1      1897    8    0    1
 -2       865       864       996      3435      3851      3852
 -1      1898    8    0    1
 -2       864       990       996      3833      3853      3851
 -1      1899    8    0    1
 -2       920       923       997      3612      3854      3855
 -1      1900    8    0    1
 -2       920       997       990      3855      3856      3832
 -1      1901    8    0    1
 -2       923       868       998      3691      3857      3858
 -1      1902    8    0    1
 -2       997       923       998      3854      3858      3859
 -1      1903    8    0    1
 -2       868       930       998      3638      3860      3857
 -1      1904    8    0    1
 -2       917       896       999      3593      3861      3862
 -1      1905    8    0    1
 -2       896       989       999      3831      3863      3861
 -1      1906    8    0    1
 -2       893       922      1000      3640      3864      3865
 -1      1907    8    0    1
 -2       893      1000       989      3865      3866      3830
 -1      1908    8    0    1
 -2       922       897      1001      3609      3867      3868
 -1      1909    8    0    1
 -2       897       975      1001      3789      3869      3867
 -1      1910    8    0    1
 -2       894       921       929      3692      3635      3870
 -1      1911    8    0    1
 -2       854       847       948      3657      3712      3871
 -1      1912    8    0    1
 -2       936       940       913      3689      3872      3696
 -1      1913    8    0    1
 -2       913       940       988      3872      3873      3827
 -1      1914    8    0    1
 -2       928       856      1002      3628      3874      3875
 -1      1915    8    0    1
 -2       856       937      1002      3666      3876      3874
 -1      1916    8    0    1
 -2       915       928      1003      3630      3877      3878
 -1      1917    8    0    1
 -2       915      1003       994      3878      3879      3844
 -1      1918    8    0    1
 -2       853       992       942      3838      3880      3684
 -1      1919    8    0    1
 -2       930       861      1004      3639      3881      3882
 -1      1920    8    0    1
 -2       861       919      1004      3599      3883      3881
 -1      1921    8    0    1
 -2       973       914       994      3783      3845      3884
 -1      1922    8    0    1
 -2       917       999      1005      3862      3885      3886
 -1      1923    8    0    1
 -2       917      1005       941      3886      3887      3682
 -1      1924    8    0    1
 -2       851       932       995      3646      3888      3850
 -1      1925    8    0    1
 -2       892       970       945      3776      3889      3702
 -1      1926    8    0    1
 -2       933       894      1006      3647      3890      3891
 -1      1927    8    0    1
 -2       894       929      1006      3870      3892      3890
 -1      1928    8    0    1
 -2       940       993      1007      3842      3893      3894
 -1      1929    8    0    1
 -2       940      1007       988      3894      3895      3873
 -1      1930    8    0    1
 -2       863       934      1008      3651      3896      3897
 -1      1931    8    0    1
 -2       935       827       945      3654      3701      3898
 -1      1932    8    0    1
 -2       922      1001      1000      3868      3899      3864
 -1      1933    8    0    1
 -2       991       863      1008      3834      3897      3900
 -1      1934    8    0    1
 -2       946       865       996      3703      3852      3901
 -1      1935    8    0    1
 -2       937       925      1005      3667      3902      3903
 -1      1936    8    0    1
 -2       932       942      1009      3686      3904      3905
 -1      1937    8    0    1
 -2       938       924      1010      3670      3906      3907
 -1      1938    8    0    1
 -2       924       935      1011      3656      3908      3909
 -1      1939    8    0    1
 -2       924      1011      1010      3909      3910      3906
 -1      1940    8    0    1
 -2       870       916       949      3846      3911      3713
 -1      1941    8    0    1
 -2       995       932      1012      3888      3912      3913
 -1      1942    8    0    1
 -2       932      1009      1012      3905      3914      3912
 -1      1943    8    0    1
 -2       919       846      1013      3600      3915      3916
 -1      1944    8    0    1
 -2      1004       919      1013      3883      3916      3917
 -1      1945    8    0    1
 -2       846       944      1013      3695      3918      3915
 -1      1946    8    0    1
 -2       943       854       948      3687      3871      3919
 -1      1947    8    0    1
 -2       944       943      1014      3693      3920      3921
 -1      1948    8    0    1
 -2       925       941      1005      3710      3887      3902
 -1      1949    8    0    1
 -2       943       948      1015      3919      3922      3923
 -1      1950    8    0    1
 -2      1014       943      1015      3920      3923      3924
 -1      1951    8    0    1
 -2       948       995      1015      3849      3925      3922
 -1      1952    8    0    1
 -2       926       939      1016      3673      3926      3927
 -1      1953    8    0    1
 -2       971       926      1016      3778      3927      3928
 -1      1954    8    0    1
 -2       939       947      1016      3707      3929      3926
 -1      1955    8    0    1
 -2      1005       999      1017      3885      3930      3931
 -1      1956    8    0    1
 -2       934       971      1018      3780      3932      3933
 -1      1957    8    0    1
 -2       951       950      1019      3720      3934      3935
 -1      1958    8    0    1
 -2       952       951      1020      3723      3936      3937
 -1      1959    8    0    1
 -2       951      1019      1020      3935      3938      3936
 -1      1960    8    0    1
 -2       953       952      1021      3726      3939      3940
 -1      1961    8    0    1
 -2       952      1020      1021      3937      3941      3939
 -1      1962    8    0    1
 -2       954       953      1022      3729      3942      3943
 -1      1963    8    0    1
 -2       953      1021      1022      3940      3944      3942
 -1      1964    8    0    1
 -2       955       954      1023      3732      3945      3946
 -1      1965    8    0    1
 -2       954      1022      1023      3943      3947      3945
 -1      1966    8    0    1
 -2       956       955      1024      3735      3948      3949
 -1      1967    8    0    1
 -2       955      1023      1024      3946      3950      3948
 -1      1968    8    0    1
 -2       957       956      1025      3738      3951      3952
 -1      1969    8    0    1
 -2       956      1024      1025      3949      3953      3951
 -1      1970    8    0    1
 -2       958       957      1026      3741      3954      3955
 -1      1971    8    0    1
 -2       957      1025      1026      3952      3956      3954
 -1      1972    8    0    1
 -2       959       958      1027      3744      3957      3958
 -1      1973    8    0    1
 -2       958      1026      1027      3955      3959      3957
 -1      1974    8    0    1
 -2       960       959      1028      3747      3960      3961
 -1      1975    8    0    1
 -2       959      1027      1028      3958      3962      3960
 -1      1976    8    0    1
 -2       961       960      1029      3750      3963      3964
 -1      1977    8    0    1
 -2       960      1028      1029      3961      3965      3963
 -1      1978    8    0    1
 -2       962       961      1030      3753      3966      3967
 -1      1979    8    0    1
 -2       961      1029      1030      3964      3968      3966
 -1      1980    8    0    1
 -2       963       962      1031      3756      3969      3970
 -1      1981    8    0    1
 -2       962      1030      1031      3967      3971      3969
 -1      1982    8    0    1
 -2       964       963      1032      3759      3972      3973
 -1      1983    8    0    1
 -2       963      1031      1032      3970      3974      3972
 -1      1984    8    0    1
 -2       965       964      1033      3762      3975      3976
 -1      1985    8    0    1
 -2       964      1032      1033      3973      3977      3975
 -1      1986    8    0    1
 -2       966       965      1034      3765      3978      3979
 -1      1987    8    0    1
 -2       965      1033      1034      3976      3980      3978
 -1      1988    8    0    1
 -2       967       966      1035      3768      3981      3982
 -1      1989    8    0    1
 -2       966      1034      1035      3979      3983      3981
 -1      1990    8    0    1
 -2       968       967      1036      3771      3984      3985
 -1      1991    8    0    1
 -2       967      1035      1036      3982      3986      3984
 -1      1992    8    0    1
 -2       969       968      1037      3774      3987      3988
 -1      1993    8    0    1
 -2       968      1036      1037      3985      3989      3987
 -1      1994    8    0    1
 -2       970       969      1038      3777      3990      3991
 -1      1995    8    0    1
 -2       969      1037      1038      3988      3992      3990
 -1      1996    8    0    1
 -2       974       972      1039      3787      3993      3994
 -1      1997    8    0    1
 -2      1008       934      1018      3896      3933      3995
 -1      1998    8    0    1
 -2       935       945       970      3898      3889      3996
 -1      1999    8    0    1
 -2       976       977      1040      3796      3997      3998
 -1      2000    8    0    1
 -2       916       973       949      3784      3999      3911
 -1      2001    8    0    1
 -2       972       976      1041      3793      4000      4001
 -1      2002    8    0    1
 -2      1039       972      1041      3993      4001      4002
 -1      2003    8    0    1
 -2       976      1040      1041      3998      4003      4000
 -1      2004    8    0    1
 -2       975       974      1042      3790      4004      4005
 -1      2005    8    0    1
 -2       974      1039      1042      3994      4006      4004
 -1      2006    8    0    1
 -2       977       978      1043      3799      4007      4008
 -1      2007    8    0    1
 -2       977      1043      1040      4008      4009      3997
 -1      2008    8    0    1
 -2       978       979      1044      3802      4010      4011
 -1      2009    8    0    1
 -2       978      1044      1043      4011      4012      4007
 -1      2010    8    0    1
 -2       979       980      1045      3805      4013      4014
 -1      2011    8    0    1
 -2       979      1045      1044      4014      4015      4010
 -1      2012    8    0    1
 -2       980       981      1046      3808      4016      4017
 -1      2013    8    0    1
 -2       980      1046      1045      4017      4018      4013
 -1      2014    8    0    1
 -2       981       982      1047      3811      4019      4020
 -1      2015    8    0    1
 -2       981      1047      1046      4020      4021      4016
 -1      2016    8    0    1
 -2       982       983      1048      3814      4022      4023
 -1      2017    8    0    1
 -2       982      1048      1047      4023      4024      4019
 -1      2018    8    0    1
 -2       983       984      1049      3817      4025      4026
 -1      2019    8    0    1
 -2       983      1049      1048      4026      4027      4022
 -1      2020    8    0    1
 -2       984       985      1050      3820      4028      4029
 -1      2021    8    0    1
 -2       984      1050      1049      4029      4030      4025
 -1      2022    8    0    1
 -2       985       986      1051      3823      4031      4032
 -1      2023    8    0    1
 -2       985      1051      1050      4032      4033      4028
 -1      2024    8    0    1
 -2       986       987      1052      3826      4034      4035
 -1      2025    8    0    1
 -2       986      1052      1051      4035      4036      4031
 -1      2026    8    0    1
 -2       987       988      1053      3829      4037      4038
 -1      2027    8    0    1
 -2      1052       987      1053      4034      4038      4039
 -1      2028    8    0    1
 -2       988      1007      1053      3895      4040      4037
 -1      2029    8    0    1
 -2       989      1000      1054      3866      4041      4042
 -1      2030    8    0    1
 -2      1009       942      1055      3904      4043      4044
 -1      2031    8    0    1
 -2       942       992      1055      3880      4045      4043
 -1      2032    8    0    1
 -2       990       997      1056      3856      4046      4047
 -1      2033    8    0    1
 -2       929       991      1006      3836      4048      3892
 -1      2034    8    0    1
 -2       950       949      1057      3717      4049      4050
 -1      2035    8    0    1
 -2      1019       950      1057      3934      4050      4051
 -1      2036    8    0    1
 -2       949       973      1057      3999      4052      4049
 -1      2037    8    0    1
 -2       973       994      1057      3884      4053      4052
 -1      2038    8    0    1
 -2       992       933      1058      3839      4054      4055
 -1      2039    8    0    1
 -2      1055       992      1058      4045      4055      4056
 -1      2040    8    0    1
 -2       933      1006      1058      3891      4057      4054
 -1      2041    8    0    1
 -2       993       938      1059      3843      4058      4059
 -1      2042    8    0    1
 -2      1007       993      1059      3893      4059      4060
 -1      2043    8    0    1
 -2       938      1010      1059      3907      4061      4058
 -1      2044    8    0    1
 -2       999       989      1060      3863      4062      4063
 -1      2045    8    0    1
 -2      1017       999      1060      3930      4063      4064
 -1      2046    8    0    1
 -2       989      1054      1060      4042      4065      4062
 -1      2047    8    0    1
 -2      1000      1001      1061      3899      4066      4067
 -1      2048    8    0    1
 -2      1000      1061      1054      4067      4068      4041
 -1      2049    8    0    1
 -2       937      1005      1017      3903      3931      4069
 -1      2050    8    0    1
 -2       991      1008      1062      3900      4070      4071
 -1      2051    8    0    1
 -2       991      1062      1006      4071      4072      4048
 -1      2052    8    0    1
 -2      1001       975      1063      3869      4073      4074
 -1      2053    8    0    1
 -2       975      1042      1063      4005      4075      4073
 -1      2054    8    0    1
 -2       996       990      1064      3853      4076      4077
 -1      2055    8    0    1
 -2       990      1056      1064      4047      4078      4076
 -1      2056    8    0    1
 -2       944      1014      1065      3921      4079      4080
 -1      2057    8    0    1
 -2       946       996      1066      3901      4081      4082
 -1      2058    8    0    1
 -2       996      1064      1066      4077      4083      4081
 -1      2059    8    0    1
 -2      1003       928      1067      3877      4084      4085
 -1      2060    8    0    1
 -2       928      1002      1067      3875      4086      4084
 -1      2061    8    0    1
 -2       935       970      1011      3996      4087      3908
 -1      2062    8    0    1
 -2       970      1038      1011      3991      4088      4087
 -1      2063    8    0    1
 -2      1061      1001      1063      4066      4074      4089
 -1      2064    8    0    1
 -2      1008      1018      1068      3995      4090      4091
 -1      2065    8    0    1
 -2      1008      1068      1062      4091      4092      4070
 -1      2066    8    0    1
 -2      1057       994      1069      4053      4093      4094
 -1      2067    8    0    1
 -2      1019      1057      1069      4051      4094      4095
 -1      2068    8    0    1
 -2       994      1003      1069      3879      4096      4093
 -1      2069    8    0    1
 -2       937      1017      1002      4069      4097      3876
 -1      2070    8    0    1
 -2      1059      1010      1070      4061      4098      4099
 -1      2071    8    0    1
 -2      1009      1055      1071      4044      4100      4101
 -1      2072    8    0    1
 -2      1056       997      1072      4046      4102      4103
 -1      2073    8    0    1
 -2       997       998      1072      3859      4104      4102
 -1      2074    8    0    1
 -2       947       946      1073      3708      4105      4106
 -1      2075    8    0    1
 -2      1016       947      1073      3929      4106      4107
 -1      2076    8    0    1
 -2       946      1066      1073      4082      4108      4105
 -1      2077    8    0    1
 -2      1014      1015      1074      3924      4109      4110
 -1      2078    8    0    1
 -2      1010      1011      1075      3910      4111      4112
 -1      2079    8    0    1
 -2      1070      1010      1075      4098      4112      4113
 -1      2080    8    0    1
 -2      1011      1038      1075      4088      4114      4111
 -1      2081    8    0    1
 -2      1013       944      1065      3918      4080      4115
 -1      2082    8    0    1
 -2       930      1004       998      3882      4116      3860
 -1      2083    8    0    1
 -2      1065      1014      1076      4079      4117      4118
 -1      2084    8    0    1
 -2      1014      1074      1076      4110      4119      4117
 -1      2085    8    0    1
 -2       971      1016      1077      3928      4120      4121
 -1      2086    8    0    1
 -2      1018       971      1077      3932      4121      4122
 -1      2087    8    0    1
 -2      1016      1073      1077      4107      4123      4120
 -1      2088    8    0    1
 -2      1009      1071      1074      4101      4124      4125
 -1      2089    8    0    1
 -2      1006      1062      1058      4072      4126      4057
 -1      2090    8    0    1
 -2      1040      1043      1078      4009      4127      4128
 -1      2091    8    0    1
 -2      1071      1055      1079      4100      4129      4130
 -1      2092    8    0    1
 -2      1055      1058      1079      4056      4131      4129
 -1      2093    8    0    1
 -2      1021      1020      1080      3941      4132      4133
 -1      2094    8    0    1
 -2      1022      1021      1081      3944      4134      4135
 -1      2095    8    0    1
 -2      1021      1080      1081      4133      4136      4134
 -1      2096    8    0    1
 -2      1023      1022      1082      3947      4137      4138
 -1      2097    8    0    1
 -2      1022      1081      1082      4135      4139      4137
 -1      2098    8    0    1
 -2      1024      1023      1083      3950      4140      4141
 -1      2099    8    0    1
 -2      1023      1082      1083      4138      4142      4140
 -1      2100    8    0    1
 -2      1025      1024      1084      3953      4143      4144
 -1      2101    8    0    1
 -2      1024      1083      1084      4141      4145      4143
 -1      2102    8    0    1
 -2      1026      1025      1085      3956      4146      4147
 -1      2103    8    0    1
 -2      1025      1084      1085      4144      4148      4146
 -1      2104    8    0    1
 -2      1027      1026      1086      3959      4149      4150
 -1      2105    8    0    1
 -2      1026      1085      1086      4147      4151      4149
 -1      2106    8    0    1
 -2      1028      1027      1087      3962      4152      4153
 -1      2107    8    0    1
 -2      1027      1086      1087      4150      4154      4152
 -1      2108    8    0    1
 -2      1029      1028      1088      3965      4155      4156
 -1      2109    8    0    1
 -2      1028      1087      1088      4153      4157      4155
 -1      2110    8    0    1
 -2      1030      1029      1089      3968      4158      4159
 -1      2111    8    0    1
 -2      1029      1088      1089      4156      4160      4158
 -1      2112    8    0    1
 -2      1031      1030      1090      3971      4161      4162
 -1      2113    8    0    1
 -2      1030      1089      1090      4159      4163      4161
 -1      2114    8    0    1
 -2      1032      1031      1091      3974      4164      4165
 -1      2115    8    0    1
 -2      1031      1090      1091      4162      4166      4164
 -1      2116    8    0    1
 -2      1033      1032      1092      3977      4167      4168
 -1      2117    8    0    1
 -2      1032      1091      1092      4165      4169      4167
 -1      2118    8    0    1
 -2      1034      1033      1093      3980      4170      4171
 -1      2119    8    0    1
 -2      1033      1092      1093      4168      4172      4170
 -1      2120    8    0    1
 -2      1035      1034      1094      3983      4173      4174
 -1      2121    8    0    1
 -2      1034      1093      1094      4171      4175      4173
 -1      2122    8    0    1
 -2      1036      1035      1095      3986      4176      4177
 -1      2123    8    0    1
 -2      1035      1094      1095      4174      4178      4176
 -1      2124    8    0    1
 -2      1037      1036      1096      3989      4179      4180
 -1      2125    8    0    1
 -2      1036      1095      1096      4177      4181      4179
 -1      2126    8    0    1
 -2      1038      1037      1075      3992      4182      4114
 -1      2127    8    0    1
 -2      1042      1039      1097      4006      4183      4184
 -1      2128    8    0    1
 -2      1054      1061      1098      4068      4185      4186
 -1      2129    8    0    1
 -2      1043      1044      1099      4012      4187      4188
 -1      2130    8    0    1
 -2      1043      1099      1078      4188      4189      4127
 -1      2131    8    0    1
 -2      1013      1065      1072      4115      4190      4191
 -1      2132    8    0    1
 -2      1002      1017      1067      4097      4192      4086
 -1      2133    8    0    1
 -2      1044      1045      1100      4015      4193      4194
 -1      2134    8    0    1
 -2      1044      1100      1099      4194      4195      4187
 -1      2135    8    0    1
 -2      1045      1046      1101      4018      4196      4197
 -1      2136    8    0    1
 -2      1045      1101      1100      4197      4198      4193
 -1      2137    8    0    1
 -2      1046      1047      1102      4021      4199      4200
 -1      2138    8    0    1
 -2      1046      1102      1101      4200      4201      4196
 -1      2139    8    0    1
 -2      1047      1048      1103      4024      4202      4203
 -1      2140    8    0    1
 -2      1047      1103      1102      4203      4204      4199
 -1      2141    8    0    1
 -2      1048      1049      1104      4027      4205      4206
 -1      2142    8    0    1
 -2      1048      1104      1103      4206      4207      4202
 -1      2143    8    0    1
 -2      1049      1050      1105      4030      4208      4209
 -1      2144    8    0    1
 -2      1049      1105      1104      4209      4210      4205
 -1      2145    8    0    1
 -2      1050      1051      1106      4033      4211      4212
 -1      2146    8    0    1
 -2      1050      1106      1105      4212      4213      4208
 -1      2147    8    0    1
 -2      1051      1052      1107      4036      4214      4215
 -1      2148    8    0    1
 -2      1051      1107      1106      4215      4216      4211
 -1      2149    8    0    1
 -2      1061      1063      1108      4089      4217      4218
 -1      2150    8    0    1
 -2      1061      1108      1098      4218      4219      4185
 -1      2151    8    0    1
 -2      1004      1013      1072      3917      4191      4220
 -1      2152    8    0    1
 -2      1012      1009      1074      3914      4125      4221
 -1      2153    8    0    1
 -2      1066      1064      1109      4083      4222      4223
 -1      2154    8    0    1
 -2      1063      1042      1110      4075      4224      4225
 -1      2155    8    0    1
 -2      1042      1097      1110      4184      4226      4224
 -1      2156    8    0    1
 -2      1064      1056      1111      4078      4227      4228
 -1      2157    8    0    1
 -2      1064      1111      1109      4228      4229      4222
 -1      2158    8    0    1
 -2      1076      1074      1071      4119      4124      4230
 -1      2159    8    0    1
 -2      1020      1019      1112      3938      4231      4232
 -1      2160    8    0    1
 -2      1080      1020      1112      4132      4232      4233
 -1      2161    8    0    1
 -2      1019      1069      1112      4095      4234      4231
 -1      2162    8    0    1
 -2       998      1004      1072      4116      4220      4104
 -1      2163    8    0    1
 -2      1007      1059      1113      4060      4235      4236
 -1      2164    8    0    1
 -2      1053      1007      1113      4040      4236      4237
 -1      2165    8    0    1
 -2      1059      1070      1113      4099      4238      4235
 -1      2166    8    0    1
 -2      1076      1071      1114      4230      4239      4240
 -1      2167    8    0    1
 -2      1012      1074      1015      4221      4109      4241
 -1      2168    8    0    1
 -2       995      1012      1015      3913      4241      3925
 -1      2169    8    0    1
 -2      1071      1079      1114      4130      4242      4239
 -1      2170    8    0    1
 -2      1075      1037      1096      4182      4180      4243
 -1      2171    8    0    1
 -2      1113      1070      1115      4238      4244      4245
 -1      2172    8    0    1
 -2      1097      1039      1116      4183      4246      4247
 -1      2173    8    0    1
 -2      1039      1041      1116      4002      4248      4246
 -1      2174    8    0    1
 -2      1054      1098      1117      4186      4249      4250
 -1      2175    8    0    1
 -2      1054      1117      1060      4250      4251      4065
 -1      2176    8    0    1
 -2      1068      1018      1118      4090      4252      4253
 -1      2177    8    0    1
 -2      1069      1003      1119      4096      4254      4255
 -1      2178    8    0    1
 -2      1069      1119      1112      4255      4256      4234
 -1      2179    8    0    1
 -2      1072      1065      1056      4190      4257      4103
 -1      2180    8    0    1
 -2      1067      1017      1060      4192      4064      4258
 -1      2181    8    0    1
 -2      1041      1040      1120      4003      4259      4260
 -1      2182    8    0    1
 -2      1116      1041      1120      4248      4260      4261
 -1      2183    8    0    1
 -2      1040      1078      1120      4128      4262      4259
 -1      2184    8    0    1
 -2      1108      1063      1110      4217      4225      4263
 -1      2185    8    0    1
 -2      1058      1062      1079      4126      4264      4131
 -1      2186    8    0    1
 -2      1073      1066      1121      4108      4265      4266
 -1      2187    8    0    1
 -2      1077      1073      1121      4123      4266      4267
 -1      2188    8    0    1
 -2      1066      1109      1121      4223      4268      4265
 -1      2189    8    0    1
 -2      1062      1068      1079      4092      4269      4264
 -1      2190    8    0    1
 -2      1119      1003      1067      4254      4085      4270
 -1      2191    8    0    1
 -2      1018      1077      1118      4122      4271      4252
 -1      2192    8    0    1
 -2      1065      1076      1111      4118      4272      4273
 -1      2193    8    0    1
 -2      1111      1056      1065      4227      4257      4273
 -1      2194    8    0    1
 -2      1076      1114      1111      4240      4274      4272
 -1      2195    8    0    1
 -2      1115      1070      1075      4244      4113      4275
 -1      2196    8    0    1
 -2      1082      1081      1108      4139      4276      4277
 -1      2197    8    0    1
 -2      1083      1082      1110      4142      4278      4279
 -1      2198    8    0    1
 -2      1084      1083      1097      4145      4280      4281
 -1      2199    8    0    1
 -2      1085      1084      1116      4148      4282      4283
 -1      2200    8    0    1
 -2      1086      1085      1120      4151      4284      4285
 -1      2201    8    0    1
 -2      1087      1086      1078      4154      4286      4287
 -1      2202    8    0    1
 -2      1088      1087      1099      4157      4288      4289
 -1      2203    8    0    1
 -2      1089      1088      1100      4160      4290      4291
 -1      2204    8    0    1
 -2      1090      1089      1101      4163      4292      4293
 -1      2205    8    0    1
 -2      1091      1090      1102      4166      4294      4295
 -1      2206    8    0    1
 -2      1092      1091      1103      4169      4296      4297
 -1      2207    8    0    1
 -2      1093      1092      1104      4172      4298      4299
 -1      2208    8    0    1
 -2      1094      1093      1105      4175      4300      4301
 -1      2209    8    0    1
 -2      1095      1094      1106      4178      4302      4303
 -1      2210    8    0    1
 -2      1096      1095      1107      4181      4304      4305
 -1      2211    8    0    1
 -2      1111      1114      1109      4274      4306      4229
 -1      2212    8    0    1
 -2      1106      1094      1105      4302      4301      4213
 -1      2213    8    0    1
 -2      1078      1099      1087      4189      4288      4287
 -1      2214    8    0    1
 -2      1105      1093      1104      4300      4299      4210
 -1      2215    8    0    1
 -2      1101      1102      1090      4201      4294      4293
 -1      2216    8    0    1
 -2      1104      1092      1103      4298      4297      4207
 -1      2217    8    0    1
 -2      1102      1103      1091      4204      4296      4295
 -1      2218    8    0    1
 -2      1106      1107      1095      4216      4304      4303
 -1      2219    8    0    1
 -2      1098      1108      1081      4219      4276      4307
 -1      2220    8    0    1
 -2      1107      1052      1113      4214      4308      4309
 -1      2221    8    0    1
 -2      1052      1053      1113      4039      4237      4308
 -1      2222    8    0    1
 -2      1100      1101      1089      4198      4292      4291
 -1      2223    8    0    1
 -2      1067      1060      1117      4258      4251      4310
 -1      2224    8    0    1
 -2      1082      1108      1110      4277      4263      4278
 -1      2225    8    0    1
 -2      1110      1097      1083      4226      4280      4279
 -1      2226    8    0    1
 -2      1078      1086      1120      4286      4285      4262
 -1      2227    8    0    1
 -2      1079      1068      1114      4269      4311      4242
 -1      2228    8    0    1
 -2      1081      1080      1098      4136      4312      4307
 -1      2229    8    0    1
 -2      1119      1067      1117      4270      4310      4313
 -1      2230    8    0    1
 -2      1100      1088      1099      4290      4289      4195
 -1      2231    8    0    1
 -2      1098      1080      1117      4312      4314      4249
 -1      2232    8    0    1
 -2      1084      1097      1116      4281      4247      4282
 -1      2233    8    0    1
 -2      1107      1113      1115      4309      4245      4315
 -1      2234    8    0    1
 -2      1085      1116      1120      4283      4261      4284
 -1      2235    8    0    1
 -2      1096      1107      1115      4305      4315      4316
 -1      2236    8    0    1
 -2      1068      1118      1114      4253      4317      4311
 -1      2237    8    0    1
 -2      1075      1096      1115      4243      4316      4275
 -1      2238    8    0    1
 -2      1114      1118      1109      4317      4318      4306
 -1      2239    8    0    1
 -2      1109      1118      1121      4318      4319      4268
 -1      2240    8    0    1
 -2      1119      1117      1080      4313      4314      4320
 -1      2241    8    0    1
 -2      1119      1080      1112      4320      4233      4256
 -1      2242    8    0    1
 -2      1118      1077      1121      4271      4267      4319
 -3
    1PSTEP                         1           1           1          
  100CL  101 1.000000000        4320                     0    1           1
 -4  DISP        4    1
 -5  D1          1    2    1    0
 -5  D2          1    2    2    0
 -5  D3          1    2    3    0
 -5  ALL         1    2    0    0    1ALL
 -1         1 3.00429E-03 1.71953E-04-2.22160E-14
 -1         2 7.43829E-03 3.42812E-04-3.92353E-14
 -1         3 1.56464E-02 2.45320E-03-2.26828E-13
 -1         4 1.47758E-02 1.02248E-03-2.34675E-13
 -1         5 0.00000E+00 0.00000E+00 0.00000E+00
 -1         6 0.00000E+00 0.00000E+00 0.00000E+00
 -1         7 0.00000E+00 0.00000E+00 0.00000E+00
 -1         8 0.00000E+00 0.00000E+00 0.00000E+00
 -1         9 0.00000E+00 0.00000E+00 0.00000E+00
 -1        10 0.00000E+00 0.00000E+00 0.00000E+00
 -1        11 0.00000E+00 0.00000E+00 0.00000E+00
 -1        12 0.00000E+00 0.00000E+00 0.00000E+00
 -1        13 0.00000E+00 0.00000E+00 0.00000E+00
 -1        14 0.00000E+00 0.00000E+00 0.00000E+00
 -1        15 0.00000E+00 0.00000E+00 0.00000E+00
 -1        16 0.00000E+00 0.00000E+00 0.00000E+00
 -1        17 0.00000E+00 0.00000E+00 0.00000E+00
 -1        18 0.00000E+00 0.00000E+00 0.00000E+00
 -1        19 0.00000E+00 0.00000E+00 0.00000E+00
 -1        20 0.00000E+00 0.00000E+00 0.00000E+00
 -1        21 0.00000E+00 0.00000E+00 0.00000E+00
 -1        22 0.00000E+00 0.00000E+00 0.00000E+00
 -1        23 4.10910E-04-2.50983E-04 6.25957E-17
 -1        24 7.09076E-04-3.79516E-04-1.44060E-16
 -1        25 9.90531E-04-4.65975E-04-6.10836E-16
 -1        26 1.27097E-03-5.25866E-04-1.33298E-15
 -1        27 1.55524E-03-5.69310E-04-2.30559E-15
 -1        28 1.84589E-03-6.02966E-04-3.52613E-15
 -1        29 2.14420E-03-6.32233E-04-4.98940E-15
 -1        30 2.45040E-03-6.61877E-04-6.69118E-15
 -1        31 2.76360E-03-6.96139E-04-8.63040E-15
 -1        32 3.08143E-03-7.38410E-04-1.08059E-14
 -1        33 3.39995E-03-7.90485E-04-1.32107E-14
 -1        34 3.71372E-03-8.51478E-04-1.58380E-14
 -1        35 4.01672E-03-9.16718E-04-1.86893E-14
 -1        36 4.30401E-03-9.77305E-04-2.17632E-14
 -1        37 4.57394E-03-1.02119E-03-2.50593E-14
 -1        38 4.82985E-03-1.03617E-03-2.85777E-14
 -1        39 5.07990E-03-1.01413E-03-3.23176E-14
 -1        40 5.33453E-03-9.54224E-04-3.62729E-14
 -1        41 5.60277E-03-8.63351E-04-4.04352E-14
 -1        42 5.88922E-03-7.53378E-04-4.48044E-14
 -1        43 6.19344E-03-6.37011E-04-4.93796E-14
 -1        44 6.51124E-03-5.24427E-04-5.41468E-14
 -1        45 6.83687E-03-4.21815E-04-5.90952E-14
 -1        46 7.16494E-03-3.31596E-04-6.42168E-14
 -1        47 7.49130E-03-2.53504E-04-6.94947E-14
 -1        48 7.81340E-03-1.85783E-04-7.49212E-14
 -1        49 8.13001E-03-1.26119E-04-8.04867E-14
 -1        50 8.44085E-03-7.22287E-05-8.61923E-14
 -1        51 8.74628E-03-2.21441E-05-9.20383E-14
 -1        52 9.04697E-03 2.56844E-05-9.80224E-14
 -1        53 9.34369E-03 7.23972E-05-1.04130E-13
 -1        54 9.63722E-03 1.18783E-04-1.10350E-13
 -1        55 9.92829E-03 1.65349E-04-1.16678E-13
 -1        56 1.02175E-02 2.12397E-04-1.23111E-13
 -1        57 1.05053E-02 2.60075E-04-1.29649E-13
 -1        58 1.07922E-02 3.08433E-04-1.36261E-13
 -1        59 1.10784E-02 3.57456E-04-1.42953E-13
 -1        60 1.13641E-02 4.07089E-04-1.49704E-13
 -1        61 1.16496E-02 4.57260E-04-1.56508E-13
 -1        62 1.19350E-02 5.07888E-04-1.63377E-13
 -1        63 1.22203E-02 5.58895E-04-1.70323E-13
 -1        64 1.25056E-02 6.10205E-04-1.77336E-13
 -1        65 1.27910E-02 6.61751E-04-1.84418E-13
 -1        66 1.30764E-02 7.13475E-04-1.91553E-13
 -1        67 1.33619E-02 7.65323E-04-1.98740E-13
 -1        68 1.36474E-02 8.17252E-04-2.05966E-13
 -1        69 1.39330E-02 8.69220E-04-2.13216E-13
 -1        70 1.42187E-02 9.21194E-04-2.20474E-13
 -1        71 1.45044E-02 9.73148E-04-2.27750E-13
 -1        72 4.12640E-04 2.50301E-04 1.08180E-16
 -1        73 7.08953E-04 3.78974E-04-2.12165E-17
 -1        74 9.92360E-04 4.62336E-04-3.83201E-16
 -1        75 1.27546E-03 5.19456E-04-9.80092E-16
 -1        76 1.56412E-03 5.59680E-04-1.81039E-15
 -1        77 1.86216E-03 5.89801E-04-2.87176E-15
 -1        78 2.17262E-03 6.15890E-04-4.15926E-15
 -1        79 2.49811E-03 6.44274E-04-5.66746E-15
 -1        80 2.84046E-03 6.82154E-04-7.39289E-15
 -1        81 3.19995E-03 7.37776E-04-9.33276E-15
 -1        82 3.57385E-03 8.19766E-04-1.14900E-14
 -1        83 3.95450E-03 9.34845E-04-1.38573E-14
 -1        84 4.32828E-03 1.08320E-03-1.64414E-14
 -1        85 4.67754E-03 1.25216E-03-1.92520E-14
 -1        86 4.98814E-03 1.41257E-03-2.22963E-14
 -1        87 5.26032E-03 1.52517E-03-2.55875E-14
 -1        88 5.51419E-03 1.55895E-03-2.91188E-14
 -1        89 5.78120E-03 1.51061E-03-3.28931E-14
 -1        90 6.08538E-03 1.40697E-03-3.69059E-14
 -1        91 6.43116E-03 1.28771E-03-4.11405E-14
 -1        92 6.80653E-03 1.18536E-03-4.55760E-14
 -1        93 7.19383E-03 1.11643E-03-5.01943E-14
 -1        94 7.57839E-03 1.08349E-03-5.49873E-14
 -1        95 7.95153E-03 1.08142E-03-5.99370E-14
 -1        96 8.30985E-03 1.10268E-03-6.50371E-14
 -1        97 8.65325E-03 1.14013E-03-7.02888E-14
 -1        98 8.98336E-03 1.18806E-03-7.56869E-14
 -1        99 9.30238E-03 1.24233E-03-8.12142E-14
 -1       100 9.61254E-03 1.30009E-03-8.68691E-14
 -1       101 9.91580E-03 1.35946E-03-9.26651E-14
 -1       102 1.02138E-02 1.41929E-03-9.86008E-14
 -1       103 1.05080E-02 1.47885E-03-1.04664E-13
 -1       104 1.07993E-02 1.53778E-03-1.10826E-13
 -1       105 1.10885E-02 1.59588E-03-1.17088E-13
 -1       106 1.13763E-02 1.65312E-03-1.23450E-13
 -1       107 1.16630E-02 1.70951E-03-1.29903E-13
 -1       108 1.19492E-02 1.76512E-03-1.36445E-13
 -1       109 1.22349E-02 1.82006E-03-1.43077E-13
 -1       110 1.25203E-02 1.87442E-03-1.49786E-13
 -1       111 1.28057E-02 1.92829E-03-1.56555E-13
 -1       112 1.30909E-02 1.98177E-03-1.63414E-13
 -1       113 1.33762E-02 2.03494E-03-1.70342E-13
 -1       114 1.36616E-02 2.08786E-03-1.77328E-13
 -1       115 1.39470E-02 2.14061E-03-1.84346E-13
 -1       116 1.42324E-02 2.19323E-03-1.91396E-13
 -1       117 1.45180E-02 2.24577E-03-1.98483E-13
 -1       118 1.48036E-02 2.29827E-03-2.05620E-13
 -1       119 1.50892E-02 2.35076E-03-2.12799E-13
 -1       120 1.53750E-02 2.40328E-03-2.19998E-13
 -1       121 1.55947E-02 2.36891E-03-2.27370E-13
 -1       122 1.55430E-02 2.28461E-03-2.27911E-13
 -1       123 1.54913E-02 2.20028E-03-2.28430E-13
 -1       124 1.54396E-02 2.11590E-03-2.28916E-13
 -1       125 1.53879E-02 2.03147E-03-2.29367E-13
 -1       126 1.53371E-02 1.94842E-03-2.29825E-13
 -1       127 1.52856E-02 1.86391E-03-2.30299E-13
 -1       128 1.52341E-02 1.77939E-03-2.30764E-13
 -1       129 1.51828E-02 1.69485E-03-2.31220E-13
 -1       130 1.51315E-02 1.61032E-03-2.31663E-13
 -1       131 1.50803E-02 1.52581E-03-2.32124E-13
 -1       132 1.50301E-02 1.44277E-03-2.32597E-13
 -1       133 1.49790E-02 1.35834E-03-2.33066E-13
 -1       134 1.49280E-02 1.27396E-03-2.33514E-13
 -1       135 1.48770E-02 1.18963E-03-2.33927E-13
 -1       136 1.48260E-02 1.10533E-03-2.34303E-13
 -1       137 7.41087E-03 5.17384E-04-3.88958E-14
 -1       138 7.27282E-03 6.96515E-04-3.80716E-14
 -1       139 7.05255E-03 8.49351E-04-3.69460E-14
 -1       140 6.74392E-03 9.85040E-04-3.54949E-14
 -1       141 6.34477E-03 1.09693E-03-3.37458E-14
 -1       142 5.85942E-03 1.17287E-03-3.17423E-14
 -1       143 5.40084E-03 1.19425E-03-2.99710E-14
 -1       144 4.92223E-03 1.17055E-03-2.82086E-14
 -1       145 4.45648E-03 1.10177E-03-2.65738E-14
 -1       146 4.01289E-03 9.88984E-04-2.50852E-14
 -1       147 3.65531E-03 8.55026E-04-2.39411E-14
 -1       148 3.35998E-03 6.97261E-04-2.30417E-14
 -1       149 3.14102E-03 5.19187E-04-2.24253E-14
 -1       150 3.02454E-03 3.41679E-04-2.21601E-14
 -1       151 3.06882E-03 1.54602E-05-2.25516E-14
 -1       152 3.22822E-03-1.41772E-04-2.32181E-14
 -1       153 3.45961E-03-2.75339E-04-2.41283E-14
 -1       154 3.75576E-03-3.85563E-04-2.52619E-14
 -1       155 4.15129E-03-4.79869E-04-2.67779E-14
 -1       156 4.55286E-03-5.32092E-04-2.83133E-14
 -1       157 4.99277E-03-5.51497E-04-3.00147E-14
 -1       158 5.42491E-03-5.35826E-04-3.17016E-14
 -1       159 5.89009E-03-4.80086E-04-3.35422E-14
 -1       160 6.29111E-03-3.97441E-04-3.51250E-14
 -1       161 6.66840E-03-2.80543E-04-3.66163E-14
 -1       162 6.98195E-03-1.42453E-04-3.78178E-14
 -1       163 7.21771E-03 1.06400E-05-3.86706E-14
 -1       164 7.36739E-03 1.68174E-04-3.91418E-14
 -1       165 2.44964E-04-1.15298E-04-5.27430E-17
 -1       166 2.29305E-04-8.26346E-05-8.77662E-17
 -1       167 2.21897E-04-5.99867E-05-1.06509E-16
 -1       168 2.16978E-04-4.26424E-05-1.16450E-16
 -1       169 2.13364E-04-2.89497E-05-1.21180E-16
 -1       170 2.10636E-04-1.74367E-05-1.23023E-16
 -1       171 2.08863E-04-7.59626E-06-1.23060E-16
 -1       172 2.08131E-04 1.29032E-06-1.22054E-16
 -1       173 2.08525E-04 9.97295E-06-1.19632E-16
 -1       174 2.10089E-04 1.92625E-05-1.15942E-16
 -1       175 2.12769E-04 2.98460E-05-1.10446E-16
 -1       176 2.16677E-04 4.30727E-05-1.01441E-16
 -1       177 2.21990E-04 6.00330E-05-8.70038E-17
 -1       178 2.29758E-04 8.27467E-05-6.28397E-17
 -1       179 2.44367E-04 1.16090E-04-2.16197E-17
 -1       180 3.01943E-04 1.74325E-04 2.24125E-17
 -1       181 4.76766E-04-2.46005E-04-1.42952E-16
 -1       182 7.83482E-04-3.52198E-04-5.28610E-16
 -1       183 1.07912E-03-4.24086E-04-1.15661E-15
 -1       184 1.37187E-03-4.74292E-04-2.02807E-15
 -1       185 1.66574E-03-5.10926E-04-3.14128E-15
 -1       186 1.96310E-03-5.40181E-04-4.49351E-15
 -1       187 2.26514E-03-5.67348E-04-6.08173E-15
 -1       188 2.57213E-03-5.97215E-04-7.90238E-15
 -1       189 2.88334E-03-6.33985E-04-9.95431E-15
 -1       190 3.19700E-03-6.80734E-04-1.22346E-14
 -1       191 3.51032E-03-7.38418E-04-1.47391E-14
 -1       192 3.81980E-03-8.04565E-04-1.74643E-14
 -1       193 4.12192E-03-8.72204E-04-2.04131E-14
 -1       194 4.41440E-03-9.29905E-04-2.35830E-14
 -1       195 4.69746E-03-9.63909E-04-2.69762E-14
 -1       196 4.97449E-03-9.62348E-04-3.05924E-14
 -1       197 5.25121E-03-9.19899E-04-3.44266E-14
 -1       198 5.53365E-03-8.40127E-04-3.84731E-14
 -1       199 5.82587E-03-7.33985E-04-4.27290E-14
 -1       200 6.12888E-03-6.15473E-04-4.71875E-14
 -1       201 6.44095E-03-4.97149E-04-5.18452E-14
 -1       202 6.75883E-03-3.87528E-04-5.66889E-14
 -1       203 7.07904E-03-2.90687E-04-6.17085E-14
 -1       204 7.39860E-03-2.07231E-04-6.68922E-14
 -1       205 7.71548E-03-1.35667E-04-7.22287E-14
 -1       206 8.02848E-03-7.35802E-05-7.77110E-14
 -1       207 8.33716E-03-1.84173E-05-8.33330E-14
 -1       208 8.64156E-03 3.20949E-05-8.90909E-14
 -1       209 8.94203E-03 7.97840E-05-9.49847E-14
 -1       210 9.23907E-03 1.26014E-04-1.01012E-13
 -1       211 9.53324E-03 1.71739E-04-1.07157E-13
 -1       212 9.82510E-03 2.17583E-04-1.13413E-13
 -1       213 1.01151E-02 2.63920E-04-1.19775E-13
 -1       214 1.04038E-02 3.10943E-04-1.26239E-13
 -1       215 1.06914E-02 3.58723E-04-1.32798E-13
 -1       216 1.09783E-02 4.07254E-04-1.39438E-13
 -1       217 1.12646E-02 4.56481E-04-1.46144E-13
 -1       218 1.15505E-02 5.06324E-04-1.52908E-13
 -1       219 1.18363E-02 5.56694E-04-1.59736E-13
 -1       220 1.21219E-02 6.07502E-04-1.66635E-13
 -1       221 1.24074E-02 6.58665E-04-1.73604E-13
 -1       222 1.26929E-02 7.10105E-04-1.80633E-13
 -1       223 1.29784E-02 7.61757E-04-1.87722E-13
 -1       224 1.32640E-02 8.13562E-04-1.94868E-13
 -1       225 1.35495E-02 8.65471E-04-2.02059E-13
 -1       226 1.38352E-02 9.17438E-04-2.09283E-13
 -1       227 1.41208E-02 9.69425E-04-2.16526E-13
 -1       228 1.44065E-02 1.02140E-03-2.23784E-13
 -1       229 6.16212E-04 3.05468E-04-1.43775E-16
 -1       230 9.16608E-04 3.92909E-04-5.28095E-16
 -1       231 1.21135E-03 4.51754E-04-1.13855E-15
 -1       232 1.50698E-03 4.92049E-04-1.97631E-15
 -1       233 1.80767E-03 5.20937E-04-3.04119E-15
 -1       234 2.11647E-03 5.44624E-04-4.32925E-15
 -1       235 2.43569E-03 5.69495E-04-5.83622E-15
 -1       236 2.76690E-03 6.02835E-04-7.55767E-15
 -1       237 3.11060E-03 6.53165E-04-9.49029E-15
 -1       238 3.46546E-03 7.29799E-04-1.16363E-14
 -1       239 3.82744E-03 8.40807E-04-1.39943E-14
 -1       240 4.18920E-03 9.88432E-04-1.65661E-14
 -1       241 4.54085E-03 1.16204E-03-1.93615E-14
 -1       242 4.87353E-03 1.33261E-03-2.23893E-14
 -1       243 5.18560E-03 1.45758E-03-2.56619E-14
 -1       244 5.48658E-03 1.50019E-03-2.91794E-14
 -1       245 5.79339E-03 1.45337E-03-3.29413E-14
 -1       246 6.11954E-03 1.34505E-03-3.69399E-14
 -1       247 6.46755E-03 1.21883E-03-4.11602E-14
 -1       248 6.83063E-03 1.11055E-03-4.55846E-14
 -1       249 7.19876E-03 1.03806E-03-5.01916E-14
 -1       250 7.56348E-03 1.00380E-03-5.49725E-14
 -1       251 7.91954E-03 1.00200E-03-5.99077E-14
 -1       252 8.26469E-03 1.02443E-03-6.49932E-14
 -1       253 8.59873E-03 1.06343E-03-7.02340E-14
 -1       254 8.92258E-03 1.11298E-03-7.56230E-14
 -1       255 9.23768E-03 1.16877E-03-8.11421E-14
 -1       256 9.54557E-03 1.22785E-03-8.67886E-14
 -1       257 9.84770E-03 1.28835E-03-9.25748E-14
 -1       258 1.01453E-02 1.34909E-03-9.84980E-14
 -1       259 1.04395E-02 1.40939E-03-1.04542E-13
 -1       260 1.07311E-02 1.46889E-03-1.10692E-13
 -1       261 1.10207E-02 1.52744E-03-1.16950E-13
 -1       262 1.13090E-02 1.58501E-03-1.23305E-13
 -1       263 1.15962E-02 1.64165E-03-1.29748E-13
 -1       264 1.18828E-02 1.69746E-03-1.36277E-13
 -1       265 1.21689E-02 1.75253E-03-1.42891E-13
 -1       266 1.24547E-02 1.80698E-03-1.49586E-13
 -1       267 1.27403E-02 1.86092E-03-1.56352E-13
 -1       268 1.30258E-02 1.91444E-03-1.63197E-13
 -1       269 1.33113E-02 1.96763E-03-1.70115E-13
 -1       270 1.35968E-02 2.02057E-03-1.77089E-13
 -1       271 1.38823E-02 2.07332E-03-1.84105E-13
 -1       272 1.41678E-02 2.12593E-03-1.91158E-13
 -1       273 1.44534E-02 2.17847E-03-1.98243E-13
 -1       274 1.47390E-02 2.23096E-03-2.05374E-13
 -1       275 1.50247E-02 2.28344E-03-2.12544E-13
 -1       276 1.53104E-02 2.33595E-03-2.19733E-13
 -1       277 1.53214E-02 2.28126E-03-2.21407E-13
 -1       278 1.52697E-02 2.19694E-03-2.21935E-13
 -1       279 1.52180E-02 2.11259E-03-2.22440E-13
 -1       280 1.51663E-02 2.02821E-03-2.22927E-13
 -1       281 1.51155E-02 1.94523E-03-2.23389E-13
 -1       282 1.50639E-02 1.86080E-03-2.23854E-13
 -1       283 1.50124E-02 1.77634E-03-2.24323E-13
 -1       284 1.49610E-02 1.69188E-03-2.24784E-13
 -1       285 1.49097E-02 1.60742E-03-2.25231E-13
 -1       286 1.48584E-02 1.52297E-03-2.25677E-13
 -1       287 1.48082E-02 1.43997E-03-2.26116E-13
 -1       288 1.47571E-02 1.35556E-03-2.26560E-13
 -1       289 1.47061E-02 1.27118E-03-2.26992E-13
 -1       290 1.46551E-02 1.18683E-03-2.27406E-13
 -1       291 1.45308E-02 1.10411E-03-2.25601E-13
 -1       292 7.46038E-03 4.04848E-04-4.08772E-14
 -1       293 7.34130E-03 5.04678E-04-4.03983E-14
 -1       294 7.09860E-03 6.46945E-04-3.89698E-14
 -1       295 6.77675E-03 8.06788E-04-3.73998E-14
 -1       296 6.38241E-03 9.81758E-04-3.55805E-14
 -1       297 5.95607E-03 1.15774E-03-3.33420E-14
 -1       298 5.57360E-03 1.25511E-03-3.09702E-14
 -1       299 5.19667E-03 1.26357E-03-2.88960E-14
 -1       300 4.80752E-03 1.17988E-03-2.69297E-14
 -1       301 4.40649E-03 1.01839E-03-2.50990E-14
 -1       302 3.99486E-03 8.25048E-04-2.36658E-14
 -1       303 3.62185E-03 6.36456E-04-2.25299E-14
 -1       304 3.29613E-03 4.69350E-04-2.16968E-14
 -1       305 3.07002E-03 3.37807E-04-2.12180E-14
 -1       306 2.97601E-03 2.37055E-04-2.11068E-14
 -1       307 3.01079E-03 1.47910E-04-2.13231E-14
 -1       308 3.16600E-03 4.93431E-05-2.18019E-14
 -1       309 3.42101E-03-8.25628E-05-2.27432E-14
 -1       310 3.73445E-03-2.26954E-04-2.38827E-14
 -1       311 4.12347E-03-3.77571E-04-2.52005E-14
 -1       312 4.47685E-03-5.23435E-04-2.71230E-14
 -1       313 4.83531E-03-6.07560E-04-2.89952E-14
 -1       314 5.18873E-03-6.22168E-04-3.09764E-14
 -1       315 5.54846E-03-5.63892E-04-3.31229E-14
 -1       316 5.93713E-03-4.30525E-04-3.51068E-14
 -1       317 6.28988E-03-2.50383E-04-3.72599E-14
 -1       318 6.69075E-03-7.78894E-05-3.86895E-14
 -1       319 7.03067E-03 7.69948E-05-3.98532E-14
 -1       320 7.28258E-03 2.05365E-04-4.06706E-14
 -1       321 7.43669E-03 3.14921E-04-4.12773E-14
 -1       322 4.62375E-04-1.40736E-04-3.62500E-16
 -1       323 4.84258E-04-1.90467E-04-3.05857E-16
 -1       324 4.37961E-04-7.19170E-05-4.14514E-16
 -1       325 4.30251E-04-4.66337E-05-4.23611E-16
 -1       326 4.24808E-04-2.51859E-05-4.26983E-16
 -1       327 4.21744E-04-6.20376E-06-4.25837E-16
 -1       328 4.21276E-04 1.16771E-05-4.20897E-16
 -1       329 4.23577E-04 2.99123E-05-4.11841E-16
 -1       330 4.28613E-04 4.97206E-05-3.98075E-16
 -1       331 4.36599E-04 7.35083E-05-3.77512E-16
 -1       332 4.47705E-04 1.02998E-04-3.46562E-16
 -1       333 4.63012E-04 1.40897E-04-3.00382E-16
 -1       334 4.86720E-04 1.91697E-04-2.29746E-16
 -1       335 5.44341E-04 2.44373E-04-1.99473E-16
 -1       336 8.46693E-04 3.33229E-04-5.95241E-16
 -1       337 8.84517E-04-3.19041E-04-9.56422E-16
 -1       338 1.18151E-03-3.77265E-04-1.73471E-15
 -1       339 1.47760E-03-4.18578E-04-2.74815E-15
 -1       340 1.77474E-03-4.49408E-04-3.99537E-15
 -1       341 2.07446E-03-4.75306E-04-5.47466E-15
 -1       342 2.37782E-03-5.01351E-04-7.18238E-15
 -1       343 2.68533E-03-5.32245E-04-9.11612E-15
 -1       344 2.99689E-03-5.72045E-04-1.12752E-14
 -1       345 3.31156E-03-6.23430E-04-1.36573E-14
 -1       346 3.62744E-03-6.86455E-04-1.62596E-14
 -1       347 3.94164E-03-7.57014E-04-1.90819E-14
 -1       348 4.25090E-03-8.25692E-04-2.21264E-14
 -1       349 4.55296E-03-8.78292E-04-2.53929E-14
 -1       350 4.84827E-03-8.99289E-04-2.88846E-14
 -1       351 5.14053E-03-8.77749E-04-3.25969E-14
 -1       352 5.43522E-03-8.12511E-04-3.65254E-14
 -1       353 5.73666E-03-7.12810E-04-4.06670E-14
 -1       354 6.04608E-03-5.93909E-04-4.50147E-14
 -1       355 6.36172E-03-4.70985E-04-4.95636E-14
 -1       356 6.68044E-03-3.55056E-04-5.43032E-14
 -1       357 6.99923E-03-2.51925E-04-5.92231E-14
 -1       358 7.31590E-03-1.63122E-04-6.43124E-14
 -1       359 7.62920E-03-8.74969E-05-6.95582E-14
 -1       360 7.93863E-03-2.26318E-05-7.49529E-14
 -1       361 8.24415E-03 3.42051E-05-8.04915E-14
 -1       362 8.54600E-03 8.55277E-05-8.61653E-14
 -1       363 8.84458E-03 1.33404E-04-9.19773E-14
 -1       364 9.14035E-03 1.79407E-04-9.79193E-14
 -1       365 9.43375E-03 2.24658E-04-1.03986E-13
 -1       366 9.72522E-03 2.69904E-04-1.10166E-13
 -1       367 1.00151E-02 3.15604E-04-1.16460E-13
 -1       368 1.03039E-02 3.62009E-04-1.22857E-13
 -1       369 1.05917E-02 4.09223E-04-1.29350E-13
 -1       370 1.08788E-02 4.57256E-04-1.35935E-13
 -1       371 1.11653E-02 5.06059E-04-1.42596E-13
 -1       372 1.14516E-02 5.55551E-04-1.49322E-13
 -1       373 1.17375E-02 6.05638E-04-1.56109E-13
 -1       374 1.20234E-02 6.56223E-04-1.62964E-13
 -1       375 1.23091E-02 7.07214E-04-1.69887E-13
 -1       376 1.25947E-02 7.58526E-04-1.76873E-13
 -1       377 1.28803E-02 8.10087E-04-1.83920E-13
 -1       378 1.31659E-02 8.61832E-04-1.91016E-13
 -1       379 1.34516E-02 9.13705E-04-1.98168E-13
 -1       380 1.37372E-02 9.65660E-04-2.05356E-13
 -1       381 1.40229E-02 1.01765E-03-2.12577E-13
 -1       382 1.42768E-02 1.06089E-03-2.19081E-13
 -1       383 1.14525E-03 3.93875E-04-1.21018E-15
 -1       384 1.44313E-03 4.35048E-04-2.04805E-15
 -1       385 1.74355E-03 4.63755E-04-3.10936E-15
 -1       386 2.04913E-03 4.86163E-04-4.39133E-15
 -1       387 2.36198E-03 5.08562E-04-5.88957E-15
 -1       388 2.68382E-03 5.38082E-04-7.60031E-15
 -1       389 3.01590E-03 5.83134E-04-9.52075E-15
 -1       390 3.35872E-03 6.53225E-04-1.16512E-14
 -1       391 3.71145E-03 7.57409E-04-1.39931E-14
 -1       392 4.07085E-03 9.00315E-04-1.65455E-14
 -1       393 4.43020E-03 1.07506E-03-1.93183E-14
 -1       394 4.78048E-03 1.25510E-03-2.23211E-14
 -1       395 5.11611E-03 1.39545E-03-2.55689E-14
 -1       396 5.44140E-03 1.45107E-03-2.90647E-14
 -1       397 5.76993E-03 1.40828E-03-3.28099E-14
 -1       398 6.11277E-03 1.29609E-03-3.67921E-14
 -1       399 6.46987E-03 1.16366E-03-4.09968E-14
 -1       400 6.83327E-03 1.05046E-03-4.54067E-14
 -1       401 7.19455E-03 9.75090E-04-5.00006E-14
 -1       402 7.54846E-03 9.39545E-04-5.47634E-14
 -1       403 7.89281E-03 9.37435E-04-5.96839E-14
 -1       404 8.22731E-03 9.60119E-04-6.47547E-14
 -1       405 8.55262E-03 9.99689E-04-6.99806E-14
 -1       406 8.86983E-03 1.04996E-03-7.53547E-14
 -1       407 9.18014E-03 1.10651E-03-8.08599E-14
 -1       408 9.48474E-03 1.16634E-03-8.64972E-14
 -1       409 9.78471E-03 1.22751E-03-9.22707E-14
 -1       410 1.00810E-02 1.28885E-03-9.81757E-14
 -1       411 1.03744E-02 1.34965E-03-1.04206E-13
 -1       412 1.06656E-02 1.40958E-03-1.10342E-13
 -1       413 1.09552E-02 1.46848E-03-1.16589E-13
 -1       414 1.12434E-02 1.52633E-03-1.22936E-13
 -1       415 1.15308E-02 1.58319E-03-1.29371E-13
 -1       416 1.18176E-02 1.63916E-03-1.35887E-13
 -1       417 1.21038E-02 1.69436E-03-1.42486E-13
 -1       418 1.23898E-02 1.74891E-03-1.49167E-13
 -1       419 1.26756E-02 1.80292E-03-1.55927E-13
 -1       420 1.29612E-02 1.85649E-03-1.62761E-13
 -1       421 1.32468E-02 1.90971E-03-1.69669E-13
 -1       422 1.35324E-02 1.96267E-03-1.76635E-13
 -1       423 1.38180E-02 2.01543E-03-1.83646E-13
 -1       424 1.41036E-02 2.06805E-03-1.90692E-13
 -1       425 1.43892E-02 2.12058E-03-1.97776E-13
 -1       426 1.46748E-02 2.17307E-03-2.04904E-13
 -1       427 1.49605E-02 2.22555E-03-2.12066E-13
 -1       428 1.51410E-02 2.25339E-03-2.16735E-13
 -1       429 1.49447E-02 2.02497E-03-2.16467E-13
 -1       430 1.49964E-02 2.10931E-03-2.15966E-13
 -1       431 1.50687E-02 2.18136E-03-2.16356E-13
 -1       432 1.48938E-02 1.94203E-03-2.16945E-13
 -1       433 1.48422E-02 1.85765E-03-2.17418E-13
 -1       434 1.47906E-02 1.77326E-03-2.17881E-13
 -1       435 1.47392E-02 1.68885E-03-2.18342E-13
 -1       436 1.46878E-02 1.60445E-03-2.18793E-13
 -1       437 1.46366E-02 1.52004E-03-2.19234E-13
 -1       438 1.45863E-02 1.43708E-03-2.19661E-13
 -1       439 1.45352E-02 1.35270E-03-2.20086E-13
 -1       440 1.44841E-02 1.26833E-03-2.20506E-13
 -1       441 1.44331E-02 1.18399E-03-2.20916E-13
 -1       442 7.20571E-03 5.27513E-04-4.13876E-14
 -1       443 7.48618E-03 3.75779E-04-4.32650E-14
 -1       444 7.43942E-03 4.24574E-04-4.27600E-14
 -1       445 6.90274E-03 6.63997E-04-3.97831E-14
 -1       446 6.54900E-03 8.37576E-04-3.80146E-14
 -1       447 4.48129E-04-1.02484E-04-3.95791E-16
 -1       448 5.69647E-03 1.25309E-03-3.21709E-14
 -1       449 5.41024E-03 1.30581E-03-3.00474E-14
 -1       450 5.04689E-03 1.26058E-03-2.75298E-14
 -1       451 4.69795E-03 1.11295E-03-2.53413E-14
 -1       452 4.27288E-03 8.77832E-04-2.33955E-14
 -1       453 3.87299E-03 6.64056E-04-2.21201E-14
 -1       454 3.49333E-03 4.66153E-04-2.08947E-14
 -1       455 3.17930E-03 3.32285E-04-2.02446E-14
 -1       456 2.99556E-03 2.51315E-04-1.99981E-14
 -1       457 2.95880E-03 1.94737E-04-1.98338E-14
 -1       458 3.06364E-03 1.37488E-04-2.03512E-14
 -1       459 3.31325E-03 4.21308E-05-2.09260E-14
 -1       460 3.57000E-03-7.09976E-05-2.19850E-14
 -1       461 3.93659E-03-2.48928E-04-2.35673E-14
 -1       462 4.40611E-03-4.74856E-04-2.57388E-14
 -1       463 4.68249E-03-5.88971E-04-2.75413E-14
 -1       464 5.01616E-03-6.59673E-04-2.99408E-14
 -1       465 5.31515E-03-6.34699E-04-3.21988E-14
 -1       466 5.69472E-03-4.97505E-04-3.50589E-14
 -1       467 6.00199E-03-3.34947E-04-3.72120E-14
 -1       468 6.46343E-03-8.78424E-05-3.96575E-14
 -1       469 6.82795E-03 8.59342E-05-4.11340E-14
 -1       470 7.14428E-03 2.23667E-04-4.24211E-14
 -1       471 7.35455E-03 3.04131E-04-4.30388E-14
 -1       472 6.13994E-03 1.05635E-03-3.54491E-14
 -1       473 5.91596E-03 1.17647E-03-3.42275E-14
 -1       474 4.18907E-03-3.68718E-04-2.40709E-14
 -1       475 9.53657E-04 2.96915E-04-1.03198E-15
 -1       476 6.49326E-04-5.26836E-05-9.04946E-16
 -1       477 6.60664E-04-8.68230E-05-8.93400E-16
 -1       478 6.38655E-04 4.46890E-06-9.01260E-16
 -1       479 6.40073E-04 3.11577E-05-8.87616E-16
 -1       480 6.46216E-04 5.87951E-05-8.66074E-16
 -1       481 6.57373E-04 9.05409E-05-8.33785E-16
 -1       482 6.73542E-04 1.28348E-04-7.87632E-16
 -1       483 6.95262E-04 1.74835E-04-7.22157E-16
 -1       484 1.24936E-03 3.44216E-04-1.79732E-15
 -1       485 9.95858E-04-2.83015E-04-1.43172E-15
 -1       486 1.28972E-03-3.28085E-04-2.35021E-15
 -1       487 1.58471E-03-3.60851E-04-3.49755E-15
 -1       488 1.88149E-03-3.86146E-04-4.87223E-15
 -1       489 2.18115E-03-4.08808E-04-6.47153E-15
 -1       490 2.48486E-03-4.33588E-04-8.29247E-15
 -1       491 2.79372E-03-4.65070E-04-1.03340E-14
 -1       492 3.10845E-03-5.07299E-04-1.25956E-14
 -1       493 3.42882E-03-5.62912E-04-1.50760E-14
 -1       494 3.75306E-03-6.31524E-04-1.77735E-14
 -1       495 4.07745E-03-7.07570E-04-2.06905E-14
 -1       496 4.39721E-03-7.78477E-04-2.38282E-14
 -1       497 4.70909E-03-8.25593E-04-2.71910E-14
 -1       498 5.01439E-03-8.30326E-04-3.07802E-14
 -1       499 5.31903E-03-7.83651E-04-3.45907E-14
 -1       500 5.62950E-03-6.91520E-04-3.86192E-14
 -1       501 5.94833E-03-5.71438E-04-4.28579E-14
 -1       502 6.27304E-03-4.42960E-04-4.73009E-14
 -1       503 6.59893E-03-3.20558E-04-5.19386E-14
 -1       504 6.92192E-03-2.11745E-04-5.67594E-14
 -1       505 7.23976E-03-1.18530E-04-6.17533E-14
 -1       506 7.55185E-03-3.97029E-05-6.69080E-14
 -1       507 7.85859E-03 2.73604E-05-7.22146E-14
 -1       508 8.16076E-03 8.55941E-05-7.76696E-14
 -1       509 8.45923E-03 1.37689E-04-8.32634E-14
 -1       510 8.75474E-03 1.85866E-04-8.89911E-14
 -1       511 9.04794E-03 2.31831E-04-9.48513E-14
 -1       512 9.33931E-03 2.76818E-04-1.00839E-13
 -1       513 9.62926E-03 3.21665E-04-1.06945E-13
 -1       514 9.91811E-03 3.66900E-04-1.13166E-13
 -1       515 1.02061E-02 4.12825E-04-1.19492E-13
 -1       516 1.04934E-02 4.59578E-04-1.25920E-13
 -1       517 1.07803E-02 5.07189E-04-1.32447E-13
 -1       518 1.10668E-02 5.55620E-04-1.39058E-13
 -1       519 1.13530E-02 6.04795E-04-1.45741E-13
 -1       520 1.16390E-02 6.54617E-04-1.52491E-13
 -1       521 1.19249E-02 7.04987E-04-1.59303E-13
 -1       522 1.22107E-02 7.55807E-04-1.66181E-13
 -1       523 1.24965E-02 8.06989E-04-1.73127E-13
 -1       524 1.27822E-02 8.58452E-04-1.80132E-13
 -1       525 1.30679E-02 9.10128E-04-1.87188E-13
 -1       526 1.33535E-02 9.61958E-04-1.94297E-13
 -1       527 1.36392E-02 1.01389E-03-2.01450E-13
 -1       528 1.39249E-02 1.06588E-03-2.08635E-13
 -1       529 1.84379E-03 3.99756E-04-3.98230E-15
 -1       530 2.14510E-03 4.19108E-04-5.39824E-15
 -1       531 2.45132E-03 4.40904E-04-7.02435E-15
 -1       532 2.76448E-03 4.72378E-04-8.85824E-15
 -1       533 3.08729E-03 5.22174E-04-1.08989E-14
 -1       534 3.42305E-03 6.00220E-04-1.31464E-14
 -1       535 3.77477E-03 7.16239E-04-1.56000E-14
 -1       536 4.14260E-03 8.75353E-04-1.82642E-14
 -1       537 4.51884E-03 1.06841E-03-2.11497E-14
 -1       538 4.88963E-03 1.25501E-03-2.42750E-14
 -1       539 5.24799E-03 1.37419E-03-2.76508E-14
 -1       540 5.60034E-03 1.37475E-03-3.12864E-14
 -1       541 5.96381E-03 1.27085E-03-3.51713E-14
 -1       542 6.33962E-03 1.12459E-03-3.92878E-14
 -1       543 6.71616E-03 9.93127E-04-4.36151E-14
 -1       544 7.07973E-03 9.01817E-04-4.81309E-14
 -1       545 7.42763E-03 8.54727E-04-5.28158E-14
 -1       546 7.76087E-03 8.44319E-04-5.76621E-14
 -1       547 8.08279E-03 8.61200E-04-6.26624E-14
 -1       548 8.39638E-03 8.96947E-04-6.78161E-14
 -1       549 8.70380E-03 9.44945E-04-7.31196E-14
 -1       550 9.00649E-03 1.00037E-03-7.85639E-14
 -1       551 9.30548E-03 1.05987E-03-8.41387E-14
 -1       552 9.60149E-03 1.12125E-03-8.98482E-14
 -1       553 9.89510E-03 1.18309E-03-9.56926E-14
 -1       554 1.01868E-02 1.24455E-03-1.01657E-13
 -1       555 1.04769E-02 1.30517E-03-1.07740E-13
 -1       556 1.07659E-02 1.36475E-03-1.13934E-13
 -1       557 1.10539E-02 1.42323E-03-1.20231E-13
 -1       558 1.13412E-02 1.48064E-03-1.26627E-13
 -1       559 1.16280E-02 1.53709E-03-1.33105E-13
 -1       560 1.19144E-02 1.59269E-03-1.39660E-13
 -1       561 1.22006E-02 1.64756E-03-1.46298E-13
 -1       562 1.24865E-02 1.70182E-03-1.53017E-13
 -1       563 1.27723E-02 1.75559E-03-1.59813E-13
 -1       564 1.30581E-02 1.80897E-03-1.66685E-13
 -1       565 1.33437E-02 1.86204E-03-1.73618E-13
 -1       566 1.36294E-02 1.91489E-03-1.80605E-13
 -1       567 1.39151E-02 1.96756E-03-1.87633E-13
 -1       568 1.42007E-02 2.02012E-03-1.94697E-13
 -1       569 1.44864E-02 2.07261E-03-2.01804E-13
 -1       570 1.47721E-02 2.12507E-03-2.08952E-13
 -1       571 1.46205E-02 1.85448E-03-2.10984E-13
 -1       572 1.45689E-02 1.77013E-03-2.11456E-13
 -1       573 1.47231E-02 2.02172E-03-2.10012E-13
 -1       574 1.46718E-02 1.93811E-03-2.10505E-13
 -1       575 1.45174E-02 1.68577E-03-2.11917E-13
 -1       576 1.44660E-02 1.60141E-03-2.12368E-13
 -1       577 1.44147E-02 1.51706E-03-2.12809E-13
 -1       578 1.43644E-02 1.43413E-03-2.13229E-13
 -1       579 1.43132E-02 1.34978E-03-2.13641E-13
 -1       580 1.42622E-02 1.26544E-03-2.14049E-13
 -1       581 1.42112E-02 1.18111E-03-2.14448E-13
 -1       582 7.07965E-03 5.73460E-04-4.24544E-14
 -1       583 7.47609E-03 3.66089E-04-4.57514E-14
 -1       584 1.54570E-03 3.76669E-04-2.78124E-15
 -1       585 7.51613E-03 4.07491E-04-4.58218E-14
 -1       586 6.99189E-03 1.93657E-04-4.38130E-14
 -1       587 6.76760E-03 7.20490E-04-4.06040E-14
 -1       588 7.36835E-03 4.61355E-04-4.43209E-14
 -1       589 5.46317E-03-5.95789E-04-3.40714E-14
 -1       590 3.76099E-03-1.54968E-04-2.16795E-14
 -1       591 3.12567E-03 1.10891E-04-1.92722E-14
 -1       592 6.41869E-04-2.28443E-05-9.07186E-16
 -1       593 4.92072E-03 1.21966E-03-2.59806E-14
 -1       594 5.53850E-03 1.31179E-03-3.10422E-14
 -1       595 5.25079E-03 1.32341E-03-2.85413E-14
 -1       596 4.50340E-03 9.87611E-04-2.33376E-14
 -1       597 4.06584E-03 7.24297E-04-2.15014E-14
 -1       598 3.70923E-03 5.31708E-04-2.03050E-14
 -1       599 3.30645E-03 3.48939E-04-1.91588E-14
 -1       600 3.04702E-03 2.55879E-04-1.88186E-14
 -1       601 2.93094E-03 2.07356E-04-1.83972E-14
 -1       602 2.97714E-03 1.63295E-04-1.87757E-14
 -1       603 3.50870E-03-3.82212E-05-2.06330E-14
 -1       604 5.16157E-03-6.74260E-04-3.13131E-14
 -1       605 4.56353E-03-5.58304E-04-2.62081E-14
 -1       606 6.66192E-03 4.51226E-05-4.23870E-14
 -1       607 4.85100E-03-6.53398E-04-2.85343E-14
 -1       608 5.80139E-03-4.30624E-04-3.71175E-14
 -1       609 6.22873E-03-1.85753E-04-4.00643E-14
 -1       610 7.27792E-03 2.99941E-04-4.48681E-14
 -1       611 7.25056E-04-2.16518E-04-8.08944E-16
 -1       612 7.20392E-04 2.53393E-04-5.56765E-16
 -1       613 6.36311E-03 9.43177E-04-3.80026E-14
 -1       614 6.75790E-04-1.26846E-04-8.69168E-16
 -1       615 6.16013E-03 1.07462E-03-3.67217E-14
 -1       616 5.75766E-03 1.26538E-03-3.30488E-14
 -1       617 1.41170E-02 1.09937E-03-2.13521E-13
 -1       618 3.27113E-03 3.89118E-05-1.89749E-14
 -1       619 4.35361E-03-4.74022E-04-2.45115E-14
 -1       620 8.65069E-04 5.84621E-05-1.51080E-15
 -1       621 8.59690E-04 2.35400E-05-1.53862E-15
 -1       622 8.97488E-04 1.38941E-04-1.40971E-15
 -1       623 9.24396E-04 1.90036E-04-1.32826E-15
 -1       624 1.06298E-03 2.58899E-04-1.52540E-15
 -1       625 7.51817E-03 4.49944E-04-4.79430E-14
 -1       626 1.35260E-03 2.94624E-04-2.43446E-15
 -1       627 6.49547E-03-4.88327E-05-4.33371E-14
 -1       628 1.39895E-03-2.77076E-04-3.00400E-15
 -1       629 1.69075E-03-3.01662E-04-4.27716E-15
 -1       630 1.98515E-03-3.21266E-04-5.77205E-15
 -1       631 2.28331E-03-3.40074E-04-7.48462E-15
 -1       632 2.58690E-03-3.62525E-04-9.41337E-15
 -1       633 2.89790E-03-3.93262E-04-1.15572E-14
 -1       634 3.21803E-03-4.36850E-04-1.39161E-14
 -1       635 3.54773E-03-4.96782E-04-1.64903E-14
 -1       636 3.88471E-03-5.73126E-04-1.92803E-14
 -1       637 4.22301E-03-6.58798E-04-2.22877E-14
 -1       638 4.55487E-03-7.35423E-04-2.55179E-14
 -1       639 4.87624E-03-7.75688E-04-2.89777E-14
 -1       640 5.19170E-03-7.56377E-04-3.26664E-14
 -1       641 5.51088E-03-6.74867E-04-3.65805E-14
 -1       642 5.84059E-03-5.51056E-04-4.07135E-14
 -1       643 6.17806E-03-4.12992E-04-4.50528E-14
 -1       644 6.51590E-03-2.81686E-04-4.95918E-14
 -1       645 6.84752E-03-1.66959E-04-5.43173E-14
 -1       646 7.16979E-03-7.05143E-05-5.92146E-14
 -1       647 7.48261E-03 9.88429E-06-6.42785E-14
 -1       648 7.78745E-03 7.76892E-05-6.94950E-14
 -1       649 8.08624E-03 1.36288E-04-7.48636E-14
 -1       650 8.38071E-03 1.88563E-04-8.03794E-14
 -1       651 8.67223E-03 2.36801E-04-8.60274E-14
 -1       652 8.96179E-03 2.82728E-04-9.18073E-14
 -1       653 9.25005E-03 3.27590E-04-9.77137E-14
 -1       654 9.53747E-03 3.72243E-04-1.03744E-13
 -1       655 9.82435E-03 4.17237E-04-1.09894E-13
 -1       656 1.01109E-02 4.62893E-04-1.16152E-13
 -1       657 1.03971E-02 5.09371E-04-1.22510E-13
 -1       658 1.06832E-02 5.56715E-04-1.28972E-13
 -1       659 1.09692E-02 6.04898E-04-1.35529E-13
 -1       660 1.12551E-02 6.53850E-04-1.42167E-13
 -1       661 1.15409E-02 7.03478E-04-1.48876E-13
 -1       662 1.18268E-02 7.53684E-04-1.55646E-13
 -1       663 1.21125E-02 8.04368E-04-1.62485E-13
 -1       664 1.23983E-02 8.55440E-04-1.69390E-13
 -1       665 1.26840E-02 9.06818E-04-1.76358E-13
 -1       666 1.29698E-02 9.58431E-04-1.83376E-13
 -1       667 1.32555E-02 1.01022E-03-1.90448E-13
 -1       668 1.35412E-02 1.06213E-03-1.97563E-13
 -1       669 1.38269E-02 1.11411E-03-2.04714E-13
 -1       670 2.22576E-03 3.55152E-04-6.43845E-15
 -1       671 2.87633E-03 1.72705E-04-1.71089E-14
 -1       672 1.93356E-03 3.38096E-04-4.89356E-15
 -1       673 2.82208E-03 4.08409E-04-1.01428E-14
 -1       674 3.13405E-03 4.59764E-04-1.23005E-14
 -1       675 3.46392E-03 5.41275E-04-1.46589E-14
 -1       676 3.81961E-03 6.66222E-04-1.72196E-14
 -1       677 4.20494E-03 8.45296E-04-1.99895E-14
 -1       678 6.98687E-03 8.20261E-04-4.62576E-14
 -1       679 7.33262E-03 7.66883E-04-5.08711E-14
 -1       680 7.65537E-03 7.52751E-04-5.56412E-14
 -1       681 7.96318E-03 7.66652E-04-6.05705E-14
 -1       682 8.26229E-03 7.99673E-04-6.56525E-14
 -1       683 8.55664E-03 8.45336E-04-7.08870E-14
 -1       684 8.84842E-03 8.98981E-04-7.62647E-14
 -1       685 9.13873E-03 9.57303E-04-8.17783E-14
 -1       686 9.42810E-03 1.01802E-03-8.74247E-14
 -1       687 9.71679E-03 1.07961E-03-9.32061E-14
 -1       688 1.00049E-02 1.14110E-03-9.91156E-14
 -1       689 1.02926E-02 1.20195E-03-1.05140E-13
 -1       690 1.05798E-02 1.26185E-03-1.11280E-13
 -1       691 1.08667E-02 1.32068E-03-1.17526E-13
 -1       692 1.11532E-02 1.37846E-03-1.23873E-13
 -1       693 1.14396E-02 1.43524E-03-1.30316E-13
 -1       694 1.17258E-02 1.49114E-03-1.36834E-13
 -1       695 1.20118E-02 1.54627E-03-1.43433E-13
 -1       696 1.22977E-02 1.60075E-03-1.50111E-13
 -1       697 1.25835E-02 1.65469E-03-1.56871E-13
 -1       698 1.28693E-02 1.70821E-03-1.63706E-13
 -1       699 1.31551E-02 1.76140E-03-1.70604E-13
 -1       700 1.34408E-02 1.81432E-03-1.77565E-13
 -1       701 1.37265E-02 1.86705E-03-1.84574E-13
 -1       702 1.40122E-02 1.91964E-03-1.91620E-13
 -1       703 1.42979E-02 1.97214E-03-1.98709E-13
 -1       704 1.45105E-02 1.99694E-03-2.04350E-13
 -1       705 1.42442E-02 1.59833E-03-2.05967E-13
 -1       706 1.40191E-02 1.14761E-03-2.09572E-13
 -1       707 1.43473E-02 1.76696E-03-2.05043E-13
 -1       708 1.41929E-02 1.51402E-03-2.06407E-13
 -1       709 1.42957E-02 1.68265E-03-2.05511E-13
 -1       710 1.64276E-03 3.19556E-04-3.55782E-15
 -1       711 2.96875E-03 1.26104E-04-1.72869E-14
 -1       712 1.41425E-02 1.43114E-03-2.06825E-13
 -1       713 1.40913E-02 1.34683E-03-2.07234E-13
 -1       714 1.40402E-02 1.26251E-03-2.07632E-13
 -1       715 7.42583E-03 3.50549E-04-4.76028E-14
 -1       716 5.59713E-03-5.50922E-04-3.61492E-14
 -1       717 2.94407E-03 2.17644E-04-1.72923E-14
 -1       718 6.87960E-03 1.44322E-04-4.53503E-14
 -1       719 3.98212E-03-2.97740E-04-2.20132E-14
 -1       720 7.31787E-03 5.12560E-04-4.60183E-14
 -1       721 6.99979E-03 6.45295E-04-4.37240E-14
 -1       722 2.52096E-03 3.76348E-04-8.18810E-15
 -1       723 1.10937E-03-2.43711E-04-1.95398E-15
 -1       724 5.32236E-03-6.56261E-04-3.32985E-14
 -1       725 8.77701E-04 9.60095E-05-1.46883E-15
 -1       726 4.98610E-03-6.93062E-04-2.97932E-14
 -1       727 6.66114E-03 8.23751E-04-4.13491E-14
 -1       728 3.85376E-03 6.08871E-04-1.96051E-14
 -1       729 6.04738E-03-3.03881E-04-4.01650E-14
 -1       730 3.46781E-03 4.15910E-04-1.83544E-14
 -1       731 7.59059E-03 4.04850E-04-4.92059E-14
 -1       732 3.56048E-03-1.11618E-04-1.95622E-14
 -1       733 8.83660E-04-8.85628E-05-1.54721E-15
 -1       734 3.13100E-03 2.80791E-04-1.76115E-14
 -1       735 4.70545E-03-6.41428E-04-2.71193E-14
 -1       736 7.18760E-03 2.71084E-04-4.66719E-14
 -1       737 5.44032E-03 1.35498E-03-2.99520E-14
 -1       738 5.10129E-03 1.31025E-03-2.67142E-14
 -1       739 9.02894E-04-1.35296E-04-1.52144E-15
 -1       740 8.61416E-04-1.11510E-05-1.55387E-15
 -1       741 1.43985E-02 1.85056E-03-2.04568E-13
 -1       742 2.83082E-03 1.81679E-04-1.60392E-14
 -1       743 1.44545E-02 1.92375E-03-2.04465E-13
 -1       744 4.51119E-03-5.83197E-04-2.53781E-14
 -1       745 9.44539E-04-2.02299E-04-1.49847E-15
 -1       746 8.69641E-04-4.77801E-05-1.55700E-15
 -1       747 1.39336E-02 1.18831E-03-2.06176E-13
 -1       748 7.68330E-03 4.49859E-04-5.19481E-14
 -1       749 1.14914E-03 1.91367E-04-2.11639E-15
 -1       750 1.22216E-03-2.01296E-04-2.52170E-15
 -1       751 3.59275E-03 4.99696E-04-1.75291E-14
 -1       752 1.79417E-03-2.40909E-04-5.08719E-15
 -1       753 2.08467E-03-2.54335E-04-6.69463E-15
 -1       754 2.37988E-03-2.68120E-04-8.51440E-15
 -1       755 2.68229E-03-2.86503E-04-1.05445E-14
 -1       756 2.99514E-03-3.14611E-04-1.27861E-14
 -1       757 3.32144E-03-3.58594E-04-1.52376E-14
 -1       758 3.66342E-03-4.24119E-04-1.79004E-14
 -1       759 4.01697E-03-5.13404E-04-2.07770E-14
 -1       760 4.37303E-03-6.16588E-04-2.38714E-14
 -1       761 4.71974E-03-7.02952E-04-2.71951E-14
 -1       762 5.05327E-03-7.28790E-04-3.07545E-14
 -1       763 5.72803E-03-5.39311E-04-3.85751E-14
 -1       764 6.08261E-03-3.83744E-04-4.28155E-14
 -1       765 6.43669E-03-2.37721E-04-4.72581E-14
 -1       766 6.78042E-03-1.15203E-04-5.18881E-14
 -1       767 7.10898E-03-1.64966E-05-5.66947E-14
 -1       768 7.42307E-03 6.33513E-05-6.16677E-14
 -1       769 7.72578E-03 1.29747E-04-6.67964E-14
 -1       770 8.02051E-03 1.87026E-04-7.20772E-14
 -1       771 8.31010E-03 2.38369E-04-7.75108E-14
 -1       772 8.59664E-03 2.86059E-04-8.30820E-14
 -1       773 8.88156E-03 3.31714E-04-8.87811E-14
 -1       774 9.16575E-03 3.76468E-04-9.46110E-14
 -1       775 9.44976E-03 4.21090E-04-1.00565E-13
 -1       776 9.73385E-03 4.66077E-04-1.06641E-13
 -1       777 1.00182E-02 5.11722E-04-1.12832E-13
 -1       778 1.03028E-02 5.58172E-04-1.19123E-13
 -1       779 1.05876E-02 6.05471E-04-1.25517E-13
 -1       780 1.08727E-02 6.53595E-04-1.32015E-13
 -1       781 1.11580E-02 7.02478E-04-1.38601E-13
 -1       782 1.14434E-02 7.52035E-04-1.45264E-13
 -1       783 1.17290E-02 8.02170E-04-1.51995E-13
 -1       784 1.20146E-02 8.52789E-04-1.58795E-13
 -1       785 1.23003E-02 9.03802E-04-1.65660E-13
 -1       786 1.25860E-02 9.55130E-04-1.72589E-13
 -1       787 1.28717E-02 1.00670E-03-1.79576E-13
 -1       788 1.31574E-02 1.05846E-03-1.86611E-13
 -1       789 1.34432E-02 1.11035E-03-1.93695E-13
 -1       790 1.36884E-02 1.14931E-03-1.99925E-13
 -1       791 3.06171E-03 5.13492E-05-1.67317E-14
 -1       792 2.95613E-03 2.33397E-04-1.60058E-14
 -1       793 3.15116E-03 3.92723E-04-1.37248E-14
 -1       794 2.85658E-03 3.45002E-04-1.14559E-14
 -1       795 7.13031E-03 2.25506E-04-4.89185E-14
 -1       796 7.27298E-03 6.72553E-04-4.89193E-14
 -1       797 8.14792E-03 7.08086E-04-6.34900E-14
 -1       798 8.42594E-03 7.52097E-04-6.86522E-14
 -1       799 8.70401E-03 8.03693E-04-7.39638E-14
 -1       800 8.98321E-03 8.60088E-04-7.94164E-14
 -1       801 9.26382E-03 9.19242E-04-8.50024E-14
 -1       802 9.54573E-03 9.79693E-04-9.07219E-14
 -1       803 9.82872E-03 1.04044E-03-9.65726E-14
 -1       804 1.01126E-02 1.10084E-03-1.02545E-13
 -1       805 1.03970E-02 1.16052E-03-1.08629E-13
 -1       806 1.06819E-02 1.21930E-03-1.14823E-13
 -1       807 1.09671E-02 1.27711E-03-1.21119E-13
 -1       808 1.12525E-02 1.33398E-03-1.27517E-13
 -1       809 1.15380E-02 1.39000E-03-1.34005E-13
 -1       810 1.18236E-02 1.44525E-03-1.40569E-13
 -1       811 1.21093E-02 1.49985E-03-1.47212E-13
 -1       812 1.23950E-02 1.55391E-03-1.53933E-13
 -1       813 1.26807E-02 1.60752E-03-1.60729E-13
 -1       814 1.29665E-02 1.66078E-03-1.67596E-13
 -1       815 1.32522E-02 1.71377E-03-1.74525E-13
 -1       816 1.35380E-02 1.76654E-03-1.81513E-13
 -1       817 1.38237E-02 1.81916E-03-1.88543E-13
 -1       818 1.41095E-02 1.87168E-03-1.95613E-13
 -1       819 1.42820E-02 1.89773E-03-2.00032E-13
 -1       820 1.08493E-03 4.99970E-05-2.32789E-15
 -1       821 1.39711E-02 1.51094E-03-2.00034E-13
 -1       822 2.82411E-03 1.38811E-04-1.57474E-14
 -1       823 1.38183E-02 1.25957E-03-2.01255E-13
 -1       824 1.39206E-02 1.42811E-03-2.00453E-13
 -1       825 7.57248E-03 3.85504E-04-5.09073E-14
 -1       826 6.78510E-03 6.62130E-05-4.69755E-14
 -1       827 1.38694E-02 1.34384E-03-2.00863E-13
 -1       828 3.73823E-03-2.59662E-04-1.97003E-14
 -1       829 7.86735E-03 6.75512E-04-5.84785E-14
 -1       830 7.57892E-03 6.60197E-04-5.36229E-14
 -1       831 3.21581E-03 3.28073E-04-1.65564E-14
 -1       832 7.50057E-03 5.04649E-04-4.94708E-14
 -1       833 3.36603E-03 4.35549E-04-1.55732E-14
 -1       834 2.01361E-03 2.80330E-04-5.84401E-15
 -1       835 5.44480E-03-6.39618E-04-3.51008E-14
 -1       836 6.42217E-03 9.59274E-04-3.93602E-14
 -1       837 5.85483E-03-4.47973E-04-3.94379E-14
 -1       838 1.50686E-03-2.24247E-04-3.69565E-15
 -1       839 4.16110E-03-4.41059E-04-2.25893E-14
 -1       840 1.06040E-03-1.67724E-04-1.99257E-15
 -1       841 1.24758E-03 2.40330E-04-2.28275E-15
 -1       842 6.35100E-03-1.75398E-04-4.41139E-14
 -1       843 3.28471E-03-6.66683E-05-1.72594E-14
 -1       844 7.26603E-03 5.94400E-04-4.74410E-14
 -1       845 7.39717E-03 3.28876E-04-4.99548E-14
 -1       846 1.08300E-03 9.08230E-06-2.35833E-15
 -1       847 1.11846E-03 1.38418E-04-2.20973E-15
 -1       848 1.41254E-02 1.76339E-03-1.98651E-13
 -1       849 2.86363E-03 8.18660E-05-1.52182E-14
 -1       850 2.79766E-03 1.92506E-04-1.48006E-14
 -1       851 1.73354E-03 2.65324E-04-4.37894E-15
 -1       852 2.57269E-03 3.15095E-04-9.38456E-15
 -1       853 2.29284E-03 2.95396E-04-7.51362E-15
 -1       854 1.09672E-03 9.20198E-05-2.27939E-15
 -1       855 1.40738E-02 1.67911E-03-1.99128E-13
 -1       856 7.73143E-03 4.32062E-04-5.36952E-14
 -1       857 1.40224E-02 1.59503E-03-1.99587E-13
 -1       858 3.43764E-03-1.97305E-04-1.73653E-14
 -1       859 1.37533E-02 1.20444E-03-2.00592E-13
 -1       860 1.03556E-03-1.13537E-04-2.03030E-15
 -1       861 1.01650E-03-6.60234E-05-2.04736E-15
 -1       862 1.49163E-03 2.55832E-04-3.24699E-15
 -1       863 2.68896E-03 1.48570E-04-1.39713E-14
 -1       864 2.17864E-03-1.85052E-04-7.63872E-15
 -1       865 2.46847E-03-1.92302E-04-9.55965E-15
 -1       866 2.76690E-03-2.04365E-04-1.16870E-14
 -1       867 3.07900E-03-2.27285E-04-1.40197E-14
 -1       868 1.19145E-03-1.40214E-04-2.57324E-15
 -1       869 6.72984E-03-5.48696E-05-4.94724E-14
 -1       870 7.06430E-03 4.53194E-05-5.41917E-14
 -1       871 7.37750E-03 1.22127E-04-5.90761E-14
 -1       872 7.67580E-03 1.84450E-04-6.41178E-14
 -1       873 7.96439E-03 2.38272E-04-6.93118E-14
 -1       874 8.24738E-03 2.87221E-04-7.46582E-14
 -1       875 8.52756E-03 3.33496E-04-8.01516E-14
 -1       876 8.80671E-03 3.78472E-04-8.57761E-14
 -1       877 9.08589E-03 4.23030E-04-9.15265E-14
 -1       878 9.36568E-03 4.67736E-04-9.74059E-14
 -1       879 9.64631E-03 5.12944E-04-1.03408E-13
 -1       880 9.92787E-03 5.58857E-04-1.09529E-13
 -1       881 1.02103E-02 6.05569E-04-1.15759E-13
 -1       882 1.04935E-02 6.53096E-04-1.22088E-13
 -1       883 1.07774E-02 7.01404E-04-1.28522E-13
 -1       884 1.10618E-02 7.50427E-04-1.35051E-13
 -1       885 1.13465E-02 8.00084E-04-1.41663E-13
 -1       886 1.16317E-02 8.50287E-04-1.48349E-13
 -1       887 1.19170E-02 9.00947E-04-1.55109E-13
 -1       888 1.22025E-02 9.51983E-04-1.61936E-13
 -1       889 1.24881E-02 1.00332E-03-1.68829E-13
 -1       890 1.27738E-02 1.05490E-03-1.75782E-13
 -1       891 1.30595E-02 1.10666E-03-1.82785E-13
 -1       892 1.33452E-02 1.15855E-03-1.89836E-13
 -1       893 8.56998E-03 7.15512E-04-7.16638E-14
 -1       894 2.86633E-03 2.83550E-04-1.27960E-14
 -1       895 1.42037E-02 1.83055E-03-1.99345E-13
 -1       896 8.30812E-03 6.66150E-04-6.64201E-14
 -1       897 9.10668E-03 8.26011E-04-8.25789E-14
 -1       898 9.38059E-03 8.84394E-04-8.82380E-14
 -1       899 9.65738E-03 9.43514E-04-9.40286E-14
 -1       900 9.93645E-03 1.00270E-03-9.99454E-14
 -1       901 1.02173E-02 1.06151E-03-1.05981E-13
 -1       902 1.04995E-02 1.11968E-03-1.12120E-13
 -1       903 1.07827E-02 1.17709E-03-1.18368E-13
 -1       904 1.10667E-02 1.23371E-03-1.24718E-13
 -1       905 1.13513E-02 1.28958E-03-1.31167E-13
 -1       906 1.16362E-02 1.34475E-03-1.37699E-13
 -1       907 1.19214E-02 1.39932E-03-1.44311E-13
 -1       908 1.22069E-02 1.45337E-03-1.50998E-13
 -1       909 1.24924E-02 1.50700E-03-1.57757E-13
 -1       910 1.27781E-02 1.56027E-03-1.64591E-13
 -1       911 1.30638E-02 1.61328E-03-1.71489E-13
 -1       912 1.33495E-02 1.66607E-03-1.78450E-13
 -1       913 1.36352E-02 1.71871E-03-1.85464E-13
 -1       914 7.39717E-03 2.94027E-04-5.28114E-14
 -1       915 7.58517E-03 3.64056E-04-5.38008E-14
 -1       916 7.07923E-03 1.55819E-04-5.10042E-14
 -1       917 8.05041E-03 6.23087E-04-6.13289E-14
 -1       918 1.38815E-03 2.06952E-04-3.04803E-15
 -1       919 1.04707E-03-2.82289E-05-2.20701E-15
 -1       920 1.89396E-03-1.78486E-04-5.92553E-15
 -1       921 2.97965E-03 2.68282E-04-1.47596E-14
 -1       922 8.83628E-03 7.69306E-04-7.70525E-14
 -1       923 1.61242E-03-1.69572E-04-4.42285E-15
 -1       924 1.36984E-02 1.42432E-03-1.94108E-13
 -1       925 7.73159E-03 5.11665E-04-5.40770E-14
 -1       926 2.96609E-03-1.63786E-05-1.48803E-14
 -1       927 7.56164E-03 5.67022E-04-5.19856E-14
 -1       928 7.79218E-03 4.20900E-04-5.66566E-14
 -1       929 2.78648E-03 2.18247E-04-1.36098E-14
 -1       930 1.16680E-03-8.62025E-05-2.59960E-15
 -1       931 1.35493E-02 1.18148E-03-1.95206E-13
 -1       932 1.81945E-03 2.14973E-04-5.24487E-15
 -1       933 2.60827E-03 2.58232E-04-1.06124E-14
 -1       934 2.66534E-03 1.04850E-04-1.34825E-14
 -1       935 1.36471E-02 1.34012E-03-1.94523E-13
 -1       936 1.39210E-02 1.77123E-03-1.92516E-13
 -1       937 7.82976E-03 4.85160E-04-5.58750E-14
 -1       938 1.37496E-02 1.50834E-03-1.93677E-13
 -1       939 3.03503E-03-1.20204E-04-1.44670E-14
 -1       940 1.38521E-02 1.67587E-03-1.92759E-13
 -1       941 7.80632E-03 5.89092E-04-5.65889E-14
 -1       942 2.08640E-03 2.27524E-04-6.83412E-15
 -1       943 1.31442E-03 8.15414E-05-3.26077E-15
 -1       944 1.30636E-03 3.56907E-05-3.31189E-15
 -1       945 1.36073E-02 1.25115E-03-1.95347E-13
 -1       946 2.54558E-03-1.12988E-04-1.06193E-14
 -1       947 2.78567E-03-1.13243E-04-1.24726E-14
 -1       948 1.39448E-03 1.49523E-04-3.37539E-15
 -1       949 7.35294E-03 1.86546E-04-5.64990E-14
 -1       950 7.64115E-03 2.41634E-04-6.14552E-14
 -1       951 7.91932E-03 2.89704E-04-6.65646E-14
 -1       952 8.19270E-03 3.34765E-04-7.18267E-14
 -1       953 8.46447E-03 3.78742E-04-7.72362E-14
 -1       954 8.73645E-03 4.22612E-04-8.27848E-14
 -1       955 9.00963E-03 4.66867E-04-8.84608E-14
 -1       956 9.28447E-03 5.11762E-04-9.42622E-14
 -1       957 9.56110E-03 5.57425E-04-1.00194E-13
 -1       958 9.83945E-03 6.03904E-04-1.06245E-13
 -1       959 1.01194E-02 6.51196E-04-1.12409E-13
 -1       960 1.04006E-02 6.99262E-04-1.18681E-13
 -1       961 1.06830E-02 7.48040E-04-1.25052E-13
 -1       962 1.09663E-02 7.97454E-04-1.31519E-13
 -1       963 1.12502E-02 8.47425E-04-1.38076E-13
 -1       964 1.15348E-02 8.97870E-04-1.44713E-13
 -1       965 1.18197E-02 9.48712E-04-1.51429E-13
 -1       966 1.21049E-02 9.99881E-04-1.58218E-13
 -1       967 1.23904E-02 1.05131E-03-1.65074E-13
 -1       968 1.26759E-02 1.10296E-03-1.71994E-13
 -1       969 1.29616E-02 1.15476E-03-1.78966E-13
 -1       970 1.32473E-02 1.20668E-03-1.85984E-13
 -1       971 2.71309E-03 3.31835E-05-1.31773E-14
 -1       972 9.76308E-03 9.08130E-04-9.73445E-14
 -1       973 7.38892E-03 2.36521E-04-5.54625E-14
 -1       974 9.48918E-03 8.50961E-04-9.14832E-14
 -1       975 9.21901E-03 7.94342E-04-8.57519E-14
 -1       976 1.00399E-02 9.65362E-04-1.03325E-13
 -1       977 1.03191E-02 1.02233E-03-1.09420E-13
 -1       978 1.06000E-02 1.07884E-03-1.15619E-13
 -1       979 1.08822E-02 1.13480E-03-1.21921E-13
 -1       980 1.11655E-02 1.19019E-03-1.28324E-13
 -1       981 1.14495E-02 1.24502E-03-1.34821E-13
 -1       982 1.17341E-02 1.29935E-03-1.41401E-13
 -1       983 1.20191E-02 1.35324E-03-1.48058E-13
 -1       984 1.23044E-02 1.40675E-03-1.54791E-13
 -1       985 1.25898E-02 1.45996E-03-1.61587E-13
 -1       986 1.28754E-02 1.51292E-03-1.68456E-13
 -1       987 1.31611E-02 1.56569E-03-1.75389E-13
 -1       988 1.34468E-02 1.61831E-03-1.82381E-13
 -1       989 8.44127E-03 6.35192E-04-6.93655E-14
 -1       990 1.98951E-03-1.14757E-04-6.78905E-15
 -1       991 2.62876E-03 1.66912E-04-1.28328E-14
 -1       992 2.34919E-03 2.40911E-04-8.62441E-15
 -1       993 1.38008E-02 1.59210E-03-1.93226E-13
 -1       994 7.63411E-03 3.39116E-04-5.70183E-14
 -1       995 1.55668E-03 2.04197E-04-3.87557E-15
 -1       996 2.26545E-03-1.13842E-04-8.60268E-15
 -1       997 1.71558E-03-1.13411E-04-5.18173E-15
 -1       998 1.43946E-03-1.01373E-04-3.78555E-15
 -1       999 8.19738E-03 5.88744E-04-6.41924E-14
 -1      1000 8.69383E-03 6.85577E-04-7.46877E-14
 -1      1001 8.95352E-03 7.38938E-04-8.01518E-14
 -1      1002 7.93992E-03 4.76126E-04-5.89004E-14
 -1      1003 7.86484E-03 4.06547E-04-5.99486E-14
 -1      1004 1.19313E-03-4.33323E-05-2.78280E-15
 -1      1005 7.97351E-03 5.47974E-04-5.93727E-14
 -1      1006 2.56772E-03 1.99292E-04-1.13630E-14
 -1      1007 1.33955E-02 1.53466E-03-1.82849E-13
 -1      1008 2.54267E-03 1.22761E-04-1.22102E-14
 -1      1009 1.90410E-03 1.69113E-04-6.15317E-15
 -1      1010 1.34765E-02 1.42109E-03-1.87787E-13
 -1      1011 1.34252E-02 1.33697E-03-1.88204E-13
 -1      1012 1.65202E-03 1.60524E-04-4.66466E-15
 -1      1013 1.24654E-03-4.12813E-06-3.04986E-15
 -1      1014 1.53115E-03 6.69036E-05-4.40608E-15
 -1      1015 1.53173E-03 1.31667E-04-4.16370E-15
 -1      1016 2.75169E-03-3.58949E-05-1.28362E-14
 -1      1017 8.09042E-03 5.21870E-04-6.21233E-14
 -1      1018 2.51405E-03 6.42798E-05-1.16766E-14
 -1      1019 7.88640E-03 3.39674E-04-6.38344E-14
 -1      1020 8.14566E-03 3.79853E-04-6.90120E-14
 -1      1021 8.40630E-03 4.20995E-04-7.43390E-14
 -1      1022 8.66948E-03 4.63557E-04-7.98074E-14
 -1      1023 8.93569E-03 5.07529E-04-8.54079E-14
 -1      1024 9.20499E-03 5.52786E-04-9.11376E-14
 -1      1025 9.47723E-03 5.99174E-04-9.69954E-14
 -1      1026 9.75211E-03 6.46544E-04-1.02979E-13
 -1      1027 1.00293E-02 6.94761E-04-1.09075E-13
 -1      1028 1.03085E-02 7.43704E-04-1.15283E-13
 -1      1029 1.05892E-02 7.93266E-04-1.21597E-13
 -1      1030 1.08713E-02 8.43353E-04-1.28006E-13
 -1      1031 1.11544E-02 8.93879E-04-1.34504E-13
 -1      1032 1.14382E-02 9.44771E-04-1.41088E-13
 -1      1033 1.17227E-02 9.95963E-04-1.47757E-13
 -1      1034 1.20076E-02 1.04740E-03-1.54507E-13
 -1      1035 1.22928E-02 1.09903E-03-1.61324E-13
 -1      1036 1.25783E-02 1.15082E-03-1.68205E-13
 -1      1037 1.28639E-02 1.20273E-03-1.75143E-13
 -1      1038 1.31495E-02 1.25473E-03-1.82135E-13
 -1      1039 9.59065E-03 8.17405E-04-9.47418E-14
 -1      1040 1.01396E-02 9.27583E-04-1.06714E-13
 -1      1041 9.86357E-03 8.72405E-04-1.00671E-13
 -1      1042 9.32169E-03 7.62966E-04-8.89387E-14
 -1      1043 1.04181E-02 9.82681E-04-1.12867E-13
 -1      1044 1.06985E-02 1.03754E-03-1.19128E-13
 -1      1045 1.09804E-02 1.09208E-03-1.25486E-13
 -1      1046 1.12634E-02 1.14627E-03-1.31939E-13
 -1      1047 1.15472E-02 1.20012E-03-1.38483E-13
 -1      1048 1.18317E-02 1.25365E-03-1.45109E-13
 -1      1049 1.21166E-02 1.30691E-03-1.51813E-13
 -1      1050 1.24018E-02 1.35994E-03-1.58585E-13
 -1      1051 1.26873E-02 1.41277E-03-1.65423E-13
 -1      1052 1.29729E-02 1.46544E-03-1.72327E-13
 -1      1053 1.31842E-02 1.50008E-03-1.77574E-13
 -1      1054 8.55001E-03 6.08850E-04-7.23248E-14
 -1      1055 2.15668E-03 1.80658E-04-7.86260E-15
 -1      1056 1.81707E-03-5.64557E-05-5.96801E-15
 -1      1057 7.64411E-03 2.91736E-04-5.95938E-14
 -1      1058 2.36743E-03 1.88936E-04-9.53712E-15
 -1      1059 1.34360E-02 1.47790E-03-1.85325E-13
 -1      1060 8.31368E-03 5.63373E-04-6.71516E-14
 -1      1061 8.79992E-03 6.57990E-04-7.77279E-14
 -1      1062 2.43718E-03 1.50015E-04-1.08028E-14
 -1      1063 9.05769E-03 7.09611E-04-8.32677E-14
 -1      1064 2.08108E-03-5.08893E-05-7.67470E-15
 -1      1065 1.52918E-03 1.69812E-05-4.44972E-15
 -1      1066 2.34412E-03-4.23839E-05-9.58319E-15
 -1      1067 8.04443E-03 4.69207E-04-6.22597E-14
 -1      1068 2.35687E-03 9.71615E-05-1.03300E-14
 -1      1069 7.87437E-03 3.75558E-04-6.18875E-14
 -1      1070 1.32078E-02 1.38229E-03-1.80949E-13
 -1      1071 1.99354E-03 1.27787E-04-7.10218E-15
 -1      1072 1.54921E-03-5.20598E-05-4.46655E-15
 -1      1073 2.54597E-03-3.84147E-05-1.11536E-14
 -1      1074 1.74980E-03 1.11825E-04-5.53298E-15
 -1      1075 1.31786E-02 1.31852E-03-1.81551E-13
 -1      1076 1.74781E-03 4.97828E-05-5.70807E-15
 -1      1077 2.52664E-03 1.67294E-05-1.14237E-14
 -1      1078 1.02363E-02 8.88718E-04-1.10113E-13
 -1      1079 2.20219E-03 1.35933E-04-8.70289E-15
 -1      1080 8.35066E-03 4.59045E-04-7.14591E-14
 -1      1081 8.60356E-03 5.00626E-04-7.68461E-14
 -1      1082 8.86211E-03 5.44595E-04-8.23674E-14
 -1      1083 9.12558E-03 5.90518E-04-8.80222E-14
 -1      1084 9.39334E-03 6.37965E-04-9.38084E-14
 -1      1085 9.66477E-03 6.86581E-04-9.97217E-14
 -1      1086 9.93929E-03 7.36082E-04-1.05753E-13
 -1      1087 1.02164E-02 7.86251E-04-1.11896E-13
 -1      1088 1.04956E-02 8.36924E-04-1.18150E-13
 -1      1089 1.07765E-02 8.87976E-04-1.24504E-13
 -1      1090 1.10587E-02 9.39316E-04-1.30948E-13
 -1      1091 1.13419E-02 9.90875E-04-1.37476E-13
 -1      1092 1.16259E-02 1.04260E-03-1.44092E-13
 -1      1093 1.19105E-02 1.09445E-03-1.50799E-13
 -1      1094 1.21955E-02 1.14641E-03-1.57574E-13
 -1      1095 1.24807E-02 1.19843E-03-1.64416E-13
 -1      1096 1.27662E-02 1.25052E-03-1.71321E-13
 -1      1097 9.41689E-03 7.30295E-04-9.21399E-14
 -1      1098 8.64023E-03 5.82107E-04-7.53035E-14
 -1      1099 1.05150E-02 9.42071E-04-1.16329E-13
 -1      1100 1.07956E-02 9.95409E-04-1.22649E-13
 -1      1101 1.10776E-02 1.04865E-03-1.29059E-13
 -1      1102 1.13607E-02 1.10177E-03-1.35560E-13
 -1      1103 1.16446E-02 1.15474E-03-1.42151E-13
 -1      1104 1.19291E-02 1.20757E-03-1.48825E-13
 -1      1105 1.22140E-02 1.26028E-03-1.55570E-13
 -1      1106 1.24993E-02 1.31288E-03-1.62385E-13
 -1      1107 1.27848E-02 1.36538E-03-1.69264E-13
 -1      1108 8.89246E-03 6.29456E-04-8.07818E-14
 -1      1109 2.17079E-03 1.09678E-05-8.57829E-15
 -1      1110 9.15182E-03 6.79074E-04-8.63959E-14
 -1      1111 1.91946E-03-2.41137E-07-6.77750E-15
 -1      1112 8.11172E-03 4.16292E-04-6.66097E-14
 -1      1113 1.31959E-02 1.44120E-03-1.79268E-13
 -1      1114 2.03565E-03 7.15341E-05-7.66073E-15
 -1      1115 1.29507E-02 1.35078E-03-1.74315E-13
 -1      1116 9.68657E-03 7.82571E-04-9.80120E-14
 -1      1117 8.40079E-03 5.38256E-04-7.00462E-14
 -1      1118 2.29840E-03 4.36723E-05-9.70267E-15
 -1      1119 8.08546E-03 4.44312E-04-6.46133E-14
 -1      1120 9.95995E-03 8.35481E-04-1.04006E-13
 -1      1121 2.34822E-03 1.36229E-05-9.95300E-15
 -1      1122 0.00000E+00 0.00000E+00 0.00000E+00
 -1      1123 0.00000E+00 0.00000E+00 0.00000E+00
 -1      1124 0.00000E+00 0.00000E+00 0.00000E+00
 -1      1125 0.00000E+00 0.00000E+00 0.00000E+00
 -1      1126 0.00000E+00 0.00000E+00 0.00000E+00
 -1      1127 0.00000E+00 0.00000E+00 0.00000E+00
 -1      1128 0.00000E+00 0.00000E+00 0.00000E+00
 -1      1129 0.00000E+00 0.00000E+00 0.00000E+00
 -1      1130 0.00000E+00 0.00000E+00 0.00000E+00
 -1      1131 0.00000E+00 0.00000E+00 0.00000E+00
 -1      1132 0.00000E+00 0.00000E+00 0.00000E+00
 -1      1133 0.00000E+00 0.00000E+00 0.00000E+00
 -1      1134 0.00000E+00 0.00000E+00 0.00000E+00
 -1      1135 0.00000E+00 0.00000E+00 0.00000E+00
 -1      1136 0.00000E+00 0.00000E+00 0.00000E+00
 -1      1137 0.00000E+00 0.00000E+00 0.00000E+00
 -1      1138 0.00000E+00 0.00000E+00 0.00000E+00
 -1      1139 2.10876E-04-1.44424E-04 2.66578E-17
 -1      1140 5.54396E-04-3.22077E-04-7.64769E-17
 -1      1141 8.45294E-04-4.31520E-04-4.07646E-16
 -1      1142 1.12860E-03-5.02793E-04-1.00446E-15
 -1      1143 1.41236E-03-5.52202E-04-1.85329E-15
 -1      1144 1.70051E-03-5.88679E-04-2.95048E-15
 -1      1145 1.99527E-03-6.18338E-04-4.29249E-15
 -1      1146 2.29759E-03-6.46238E-04-5.87429E-15
 -1      1147 2.60721E-03-6.76955E-04-7.69422E-15
 -1      1148 2.92256E-03-7.14502E-04-9.75153E-15
 -1      1149 3.24055E-03-7.61764E-04-1.20418E-14
 -1      1150 3.55657E-03-8.19505E-04-1.45584E-14
 -1      1151 3.86494E-03-8.85107E-04-1.72965E-14
 -1      1152 4.16019E-03-9.51585E-04-2.02595E-14
 -1      1153 4.43894E-03-1.00776E-03-2.34442E-14
 -1      1154 4.70194E-03-1.04039E-03-2.68510E-14
 -1      1155 4.95494E-03-1.03825E-03-3.04798E-14
 -1      1156 5.20728E-03-9.96315E-04-3.43263E-14
 -1      1157 5.46879E-03-9.17956E-04-3.83840E-14
 -1      1158 5.74628E-03-8.13542E-04-4.26494E-14
 -1      1159 6.04174E-03-6.96495E-04-4.71205E-14
 -1      1160 6.35276E-03-5.79057E-04-5.17937E-14
 -1      1161 6.67437E-03-4.69702E-04-5.66484E-14
 -1      1162 7.00102E-03-3.72619E-04-6.16796E-14
 -1      1163 7.32802E-03-2.88571E-04-6.68781E-14
 -1      1164 7.65207E-03-2.16211E-04-7.22313E-14
 -1      1165 7.97130E-03-1.53240E-04-7.77269E-14
 -1      1166 8.28496E-03-9.71871E-05-8.33611E-14
 -1      1167 8.59310E-03-4.58349E-05-8.91379E-14
 -1      1168 8.89618E-03 2.61025E-06-9.50509E-14
 -1      1169 9.19493E-03 4.94956E-05-1.01094E-13
 -1      1170 9.49012E-03 9.57711E-05-1.07258E-13
 -1      1171 9.78248E-03 1.42065E-04-1.13531E-13
 -1      1172 1.00727E-02 1.88759E-04-1.19909E-13
 -1      1173 1.03612E-02 2.36060E-04-1.26391E-13
 -1      1174 1.06486E-02 2.84052E-04-1.32965E-13
 -1      1175 1.09352E-02 3.32740E-04-1.39616E-13
 -1      1176 1.12212E-02 3.82080E-04-1.46339E-13
 -1      1177 1.15068E-02 4.32002E-04-1.53119E-13
 -1      1178 1.17923E-02 4.82425E-04-1.59952E-13
 -1      1179 1.20776E-02 5.33267E-04-1.66856E-13
 -1      1180 1.23630E-02 5.84449E-04-1.73839E-13
 -1      1181 1.26483E-02 6.35900E-04-1.80891E-13
 -1      1182 1.29337E-02 6.87555E-04-1.87997E-13
 -1      1183 1.32191E-02 7.39359E-04-1.95156E-13
 -1      1184 1.35046E-02 7.91263E-04-2.02358E-13
 -1      1185 1.37902E-02 8.43225E-04-2.09592E-13
 -1      1186 1.40758E-02 8.95207E-04-2.16845E-13
 -1      1187 1.43615E-02 9.47177E-04-2.24113E-13
 -1      1188 1.46401E-02 9.97819E-04-2.31219E-13
 -1      1189 2.27077E-04 1.56018E-04 5.53621E-17
 -1      1190 5.56355E-04 3.24383E-04 1.67374E-17
 -1      1191 8.47024E-04 4.29437E-04-2.29607E-16
 -1      1192 1.13219E-03 4.97762E-04-7.11318E-16
 -1      1193 1.41938E-03 5.44054E-04-1.42680E-15
 -1      1194 1.71350E-03 5.76878E-04-2.37356E-15
 -1      1195 2.01817E-03 6.02604E-04-3.54825E-15
 -1      1196 2.33633E-03 6.27286E-04-4.94449E-15
 -1      1197 2.67021E-03 6.57647E-04-6.56113E-15
 -1      1198 3.02088E-03 7.01619E-04-8.39300E-15
 -1      1199 3.38721E-03 7.68273E-04-1.04436E-14
 -1      1200 3.76423E-03 8.66470E-04-1.27059E-14
 -1      1201 4.14163E-03 1.00126E-03-1.51830E-14
 -1      1202 4.50388E-03 1.16755E-03-1.78827E-14
 -1      1203 4.83453E-03 1.34364E-03-2.08099E-14
 -1      1204 5.12577E-03 1.49134E-03-2.39770E-14
 -1      1205 5.38751E-03 1.56987E-03-2.73876E-14
 -1      1206 5.64656E-03 1.55876E-03-3.10392E-14
 -1      1207 5.93176E-03 1.47197E-03-3.49327E-14
 -1      1208 6.25730E-03 1.34847E-03-3.90547E-14
 -1      1209 6.61858E-03 1.22893E-03-4.33879E-14
 -1      1210 7.00020E-03 1.13928E-03-4.79136E-14
 -1      1211 7.38595E-03 1.08809E-03-5.26155E-14
 -1      1212 7.76444E-03 1.07231E-03-5.74843E-14
 -1      1213 8.12986E-03 1.08427E-03-6.25118E-14
 -1      1214 8.48056E-03 1.11586E-03-6.76869E-14
 -1      1215 8.81729E-03 1.16038E-03-7.30089E-14
 -1      1216 9.14193E-03 1.21285E-03-7.84700E-14
 -1      1217 9.45663E-03 1.26984E-03-8.40607E-14
 -1      1218 9.76348E-03 1.32906E-03-8.97861E-14
 -1      1219 1.00643E-02 1.38909E-03-9.56511E-14
 -1      1220 1.03605E-02 1.44906E-03-1.01650E-13
 -1      1221 1.06533E-02 1.50846E-03-1.07762E-13
 -1      1222 1.09436E-02 1.56705E-03-1.13972E-13
 -1      1223 1.12322E-02 1.62475E-03-1.20280E-13
 -1      1224 1.15195E-02 1.68157E-03-1.26686E-13
 -1      1225 1.18060E-02 1.73756E-03-1.33183E-13
 -1      1226 1.20919E-02 1.79281E-03-1.39774E-13
 -1      1227 1.23775E-02 1.84743E-03-1.46448E-13
 -1      1228 1.26630E-02 1.90151E-03-1.53183E-13
 -1      1229 1.29483E-02 1.95516E-03-1.59994E-13
 -1      1230 1.32336E-02 2.00846E-03-1.66890E-13
 -1      1231 1.35189E-02 2.06148E-03-1.73846E-13
 -1      1232 1.38043E-02 2.11429E-03-1.80846E-13
 -1      1233 1.40897E-02 2.16696E-03-1.87871E-13
 -1      1234 1.43752E-02 2.21952E-03-1.94939E-13
 -1      1235 1.46608E-02 2.27203E-03-2.02058E-13
 -1      1236 1.49464E-02 2.32452E-03-2.09214E-13
 -1      1237 1.52321E-02 2.37702E-03-2.16403E-13
 -1      1238 1.55107E-02 2.42823E-03-2.23418E-13
 -1      1239 1.56205E-02 2.41105E-03-2.27098E-13
 -1      1240 1.55689E-02 2.32676E-03-2.27644E-13
 -1      1241 1.55171E-02 2.24245E-03-2.28170E-13
 -1      1242 1.54654E-02 2.15809E-03-2.28672E-13
 -1      1243 1.54137E-02 2.07368E-03-2.29143E-13
 -1      1244 1.53625E-02 1.98994E-03-2.29593E-13
 -1      1245 1.53113E-02 1.90617E-03-2.30060E-13
 -1      1246 1.52598E-02 1.82165E-03-2.30530E-13
 -1      1247 1.52084E-02 1.73712E-03-2.30993E-13
 -1      1248 1.51571E-02 1.65259E-03-2.31440E-13
 -1      1249 1.51059E-02 1.56807E-03-2.31888E-13
 -1      1250 1.50552E-02 1.48430E-03-2.32359E-13
 -1      1251 1.50046E-02 1.40056E-03-2.32836E-13
 -1      1252 1.49535E-02 1.31616E-03-2.33290E-13
 -1      1253 1.49025E-02 1.23180E-03-2.33722E-13
 -1      1254 1.48515E-02 1.14748E-03-2.34113E-13
 -1      1255 1.48009E-02 1.06391E-03-2.34494E-13
 -1      1256 7.47649E-03 4.17779E-04-3.91257E-14
 -1      1257 7.37924E-03 5.73169E-04-3.85548E-14
 -1      1258 7.17214E-03 7.31365E-04-3.75826E-14
 -1      1259 6.88197E-03 8.85441E-04-3.63056E-14
 -1      1260 6.51164E-03 1.03370E-03-3.47137E-14
 -1      1261 6.06935E-03 1.15824E-03-3.28434E-14
 -1      1262 5.61227E-03 1.22808E-03-3.09558E-14
 -1      1263 5.16827E-03 1.23103E-03-2.91846E-14
 -1      1264 4.71751E-03 1.17089E-03-2.74701E-14
 -1      1265 4.27107E-03 1.05370E-03-2.58832E-14
 -1      1266 3.86334E-03 9.02284E-04-2.45485E-14
 -1      1267 3.51500E-03 7.38176E-04-2.35017E-14
 -1      1268 3.22876E-03 5.67313E-04-2.27185E-14
 -1      1269 3.03815E-03 4.02928E-04-2.22667E-14
 -1      1270 2.96073E-03 2.52778E-04-2.21615E-14
 -1      1271 2.98951E-03 1.13672E-04-2.23651E-14
 -1      1272 3.11915E-03-2.67744E-05-2.28736E-14
 -1      1273 3.34141E-03-1.68714E-04-2.36865E-14
 -1      1274 3.62894E-03-3.02213E-04-2.47306E-14
 -1      1275 3.98788E-03-4.27659E-04-2.60698E-14
 -1      1276 4.38695E-03-5.26976E-04-2.76195E-14
 -1      1277 4.79220E-03-5.81999E-04-2.92504E-14
 -1      1278 5.20574E-03-5.89344E-04-3.09557E-14
 -1      1279 5.63321E-03-5.43931E-04-3.27256E-14
 -1      1280 6.05377E-03-4.52510E-04-3.44330E-14
 -1      1281 6.44642E-03-3.26512E-04-3.59647E-14
 -1      1282 6.80959E-03-1.78627E-04-3.73014E-14
 -1      1283 7.11004E-03-2.51922E-05-3.83164E-14
 -1      1284 7.32661E-03 1.22886E-04-3.89670E-14
 -1      1285 7.45365E-03 2.69042E-04-3.92527E-14
 -1      1286 1.68201E-04-1.06122E-04-1.03948E-17
 -1      1287 1.14792E-04-5.17112E-05-5.31801E-17
 -1      1288 1.19762E-04-6.29936E-05-4.13217E-17
 -1      1289 1.10235E-04-3.70702E-05-7.25331E-17
 -1      1290 1.12359E-04-4.36135E-05-6.67869E-17
 -1      1291 2.31031E-04-9.62989E-05-1.57155E-16
 -1      1292 1.07821E-04-2.67032E-05-8.28873E-17
 -1      1293 1.09108E-04-3.15337E-05-7.99599E-17
 -1      1294 2.22509E-04-6.95425E-05-1.91511E-16
 -1      1295 1.06066E-04-1.86777E-05-8.88639E-17
 -1      1296 1.06995E-04-2.24906E-05-8.74138E-17
 -1      1297 2.17315E-04-4.99554E-05-2.11135E-16
 -1      1298 1.04726E-04-1.23123E-05-9.16828E-17
 -1      1299 1.05421E-04-1.53650E-05-9.11543E-17
 -1      1300 2.13525E-04-3.47311E-05-2.22031E-16
 -1      1301 1.03708E-04-6.97836E-06-9.31194E-17
 -1      1302 1.04209E-04-9.56946E-06-9.30245E-17
 -1      1303 2.10600E-04-2.23707E-05-2.27588E-16
 -1      1304 1.03085E-04-2.42797E-06-9.33227E-17
 -1      1305 1.03365E-04-4.68242E-06-9.34447E-17
 -1      1306 2.08482E-04-1.19791E-05-2.29797E-16
 -1      1307 1.02907E-04 1.70933E-06-9.25367E-17
 -1      1308 1.02944E-04-3.93198E-07-9.28755E-17
 -1      1309 2.07289E-04-2.93785E-06-2.29526E-16
 -1      1310 1.03209E-04 5.83474E-06-9.07206E-17
 -1      1311 1.02988E-04 3.68447E-06-9.12627E-17
 -1      1312 2.07120E-04 5.49639E-06-2.26693E-16
 -1      1313 1.03999E-04 1.03858E-05-8.80101E-17
 -1      1314 1.03517E-04 7.97064E-06-8.87962E-17
 -1      1315 2.08041E-04 1.41246E-05-2.21597E-16
 -1      1316 1.05236E-04 1.57332E-05-8.35784E-17
 -1      1317 1.04513E-04 1.28751E-05-8.49608E-17
 -1      1318 2.10040E-04 2.37284E-05-2.13859E-16
 -1      1319 1.06954E-04 2.25809E-05-7.69784E-17
 -1      1320 1.05951E-04 1.89113E-05-7.92687E-17
 -1      1321 2.13091E-04 3.53107E-05-2.02190E-16
 -1      1322 1.09218E-04 3.15111E-05-6.68275E-17
 -1      1323 1.07849E-04 2.67212E-05-7.07713E-17
 -1      1324 2.17242E-04 5.01001E-05-1.84911E-16
 -1      1325 1.12541E-04 4.36865E-05-5.02934E-17
 -1      1326 1.10385E-04 3.70876E-05-5.73950E-17
 -1      1327 2.22789E-04 6.95596E-05-1.58781E-16
 -1      1328 1.19283E-04 6.25299E-05-2.33917E-17
 -1      1329 1.14675E-04 5.19076E-05-3.63750E-17
 -1      1330 2.31470E-04 9.68006E-05-1.18652E-16
 -1      1331 1.58596E-04 1.05691E-04 1.84856E-17
 -1      1332 1.37995E-04 8.12048E-05-7.71139E-18
 -1      1333 2.61478E-04 1.40946E-04-7.06358E-17
 -1      1334 3.38199E-04 2.10098E-04-1.39591E-18
 -1      1335 4.26509E-04-2.48566E-04-1.02999E-16
 -1      1336 5.83168E-04-3.17141E-04-2.14496E-16
 -1      1337 7.34845E-04-3.71455E-04-3.95246E-16
 -1      1338 8.83432E-04-4.14798E-04-6.39612E-16
 -1      1339 6.24964E-04-3.06842E-04-3.72396E-16
 -1      1340 1.02987E-03-4.50391E-04-9.45126E-16
 -1      1341 1.17513E-03-4.79486E-04-1.31354E-15
 -1      1342 9.28462E-04-3.95287E-04-8.78651E-16
 -1      1343 1.32009E-03-5.04033E-04-1.74332E-15
 -1      1344 1.46529E-03-5.24657E-04-2.23502E-15
 -1      1345 1.22449E-03-4.54459E-04-1.62847E-15
 -1      1346 1.61122E-03-5.42563E-04-2.78724E-15
 -1      1347 1.75817E-03-5.58276E-04-3.40042E-15
 -1      1348 1.51873E-03-4.95901E-04-2.62100E-15
 -1      1349 1.90639E-03-5.72648E-04-4.07384E-15
 -1      1350 2.05600E-03-5.86200E-04-4.80677E-15
 -1      1351 1.81475E-03-5.27046E-04-3.85359E-15
 -1      1352 2.20711E-03-5.99651E-04-5.59887E-15
 -1      1353 2.35968E-03-6.13498E-04-6.44997E-15
 -1      1354 2.11458E-03-5.53644E-04-5.32327E-15
 -1      1355 2.51367E-03-6.28403E-04-7.35977E-15
 -1      1356 2.66892E-03-6.44794E-04-8.32902E-15
 -1      1357 2.41904E-03-5.80779E-04-7.02715E-15
 -1      1358 2.82522E-03-6.63256E-04-9.35654E-15
 -1      1359 2.98226E-03-6.84073E-04-1.04409E-14
 -1      1360 2.72794E-03-6.13089E-04-8.96310E-15
 -1      1361 3.13967E-03-7.07647E-04-1.15829E-14
 -1      1362 3.29700E-03-7.34001E-04-1.27828E-14
 -1      1363 3.04009E-03-6.54464E-04-1.11290E-14
 -1      1364 3.45375E-03-7.63176E-04-1.40374E-14
 -1      1365 3.60936E-03-7.94792E-04-1.53473E-14
 -1      1366 3.35329E-03-7.07246E-04-1.35206E-14
 -1      1367 3.76328E-03-8.28320E-04-1.67140E-14
 -1      1368 3.91498E-03-8.62864E-04-1.81358E-14
 -1      1369 3.66449E-03-7.70964E-04-1.61354E-14
 -1      1370 4.06401E-03-8.97201E-04-1.96134E-14
 -1      1371 4.21007E-03-9.29935E-04-2.11468E-14
 -1      1372 3.97024E-03-8.40948E-04-1.89724E-14
 -1      1373 4.35298E-03-9.59269E-04-2.27355E-14
 -1      1374 4.49283E-03-9.83563E-04-2.43802E-14
 -1      1375 4.26767E-03-9.07583E-04-2.20315E-14
 -1      1376 4.62991E-03-1.00091E-03-2.60799E-14
 -1      1377 4.76479E-03-1.00993E-03-2.78355E-14
 -1      1378 4.55565E-03-9.57310E-04-2.53127E-14
 -1      1379 4.89819E-03-1.00929E-03-2.96461E-14
 -1      1380 5.03103E-03-9.98395E-04-3.15118E-14
 -1      1381 4.83592E-03-9.76066E-04-2.88168E-14
 -1      1382 5.16423E-03-9.77090E-04-3.34317E-14
 -1      1383 5.29875E-03-9.45804E-04-3.54046E-14
 -1      1384 5.11300E-03-9.54302E-04-3.25411E-14
 -1      1385 5.43540E-03-9.05627E-04-3.74309E-14
 -1      1386 5.57485E-03-8.57855E-04-3.95094E-14
 -1      1387 5.39280E-03-8.91025E-04-3.64813E-14
 -1      1388 5.71750E-03-8.04337E-04-4.16392E-14
 -1      1389 5.86356E-03-7.46745E-04-4.38196E-14
 -1      1390 5.68035E-03-7.94284E-04-4.06315E-14
 -1      1391 6.01297E-03-6.86978E-04-4.60524E-14
 -1      1392 6.16551E-03-6.26568E-04-4.83363E-14
 -1      1393 5.97813E-03-6.77784E-04-4.49889E-14
 -1      1394 6.32079E-03-5.66929E-04-5.06673E-14
 -1      1395 6.47835E-03-5.09145E-04-5.30458E-14
 -1      1396 6.28567E-03-5.55852E-04-4.95467E-14
 -1      1397 6.63765E-03-4.53955E-04-5.54708E-14
 -1      1398 6.79815E-03-4.01939E-04-5.79384E-14
 -1      1399 6.60048E-03-4.39551E-04-5.42962E-14
 -1      1400 6.95934E-03-3.53252E-04-6.04504E-14
 -1      1401 7.12077E-03-3.08066E-04-6.30045E-14
 -1      1402 6.91925E-03-3.35196E-04-5.92269E-14
 -1      1403 7.28203E-03-2.66165E-04-6.55985E-14
 -1      1404 7.44278E-03-2.27460E-04-6.82331E-14
 -1      1405 7.23883E-03-2.44856E-04-6.43259E-14
 -1      1406 7.60278E-03-1.91565E-04-7.09049E-14
 -1      1407 7.76182E-03-1.58261E-04-7.36136E-14
 -1      1408 7.55679E-03-1.67735E-04-6.95837E-14
 -1      1409 7.91978E-03-1.27138E-04-7.63576E-14
 -1      1410 8.07656E-03-9.79302E-05-7.91358E-14
 -1      1411 7.87155E-03-1.01574E-04-7.49929E-14
 -1      1412 8.23214E-03-7.02805E-05-8.19488E-14
 -1      1413 8.38651E-03-4.39341E-05-8.47985E-14
 -1      1414 8.18230E-03-4.36811E-05-8.05431E-14
 -1      1415 8.53969E-03-1.86118E-05-8.76825E-14
 -1      1416 8.69173E-03 5.90559E-06-9.06012E-14
 -1      1417 8.48882E-03 8.48006E-06-8.62326E-14
 -1      1418 8.84270E-03 2.98172E-05-9.35529E-14
 -1      1419 8.99267E-03 5.32987E-05-9.65357E-14
 -1      1420 8.79127E-03 5.70155E-05-9.20591E-14
 -1      1421 9.14171E-03 7.64810E-05-9.95539E-14
 -1      1422 9.28991E-03 9.94969E-05-1.02602E-13
 -1      1423 9.09008E-03 1.03535E-04-9.80185E-14
 -1      1424 9.43735E-03 1.22425E-04-1.05678E-13
 -1      1425 9.58410E-03 1.45360E-04-1.08783E-13
 -1      1426 9.38576E-03 1.49191E-04-1.04104E-13
 -1      1427 9.73024E-03 1.68343E-04-1.11914E-13
 -1      1428 9.87584E-03 1.91438E-04-1.15072E-13
 -1      1429 9.67885E-03 1.94753E-04-1.10303E-13
 -1      1430 1.00210E-02 2.14662E-04-1.18258E-13
 -1      1431 1.01657E-02 2.38054E-04-1.21469E-13
 -1      1432 9.96986E-03 2.40699E-04-1.16611E-13
 -1      1433 1.03101E-02 2.61613E-04-1.24704E-13
 -1      1434 1.04541E-02 2.85364E-04-1.27964E-13
 -1      1435 1.02593E-02 2.87293E-04-1.23023E-13
 -1      1436 1.05979E-02 3.09295E-04-1.31245E-13
 -1      1437 1.07415E-02 3.33418E-04-1.34548E-13
 -1      1438 1.05474E-02 3.34651E-04-1.29531E-13
 -1      1439 1.08849E-02 3.57717E-04-1.37871E-13
 -1      1440 1.10281E-02 3.82196E-04-1.41211E-13
 -1      1441 1.08347E-02 3.82793E-04-1.36128E-13
 -1      1442 1.11712E-02 4.06837E-04-1.44566E-13
 -1      1443 1.13142E-02 4.31637E-04-1.47941E-13
 -1      1444 1.11213E-02 4.31676E-04-1.42801E-13
 -1      1445 1.14572E-02 4.56580E-04-1.51327E-13
 -1      1446 1.16000E-02 4.81661E-04-1.54725E-13
 -1      1447 1.14075E-02 4.81226E-04-1.49536E-13
 -1      1448 1.17428E-02 5.06863E-04-1.58142E-13
 -1      1449 1.18856E-02 5.32179E-04-1.61576E-13
 -1      1450 1.16934E-02 5.31353E-04-1.56333E-13
 -1      1451 1.20284E-02 5.57596E-04-1.65025E-13
 -1      1452 1.21711E-02 5.83106E-04-1.68493E-13
 -1      1453 1.19791E-02 5.81966E-04-1.63196E-13
 -1      1454 1.23138E-02 6.08696E-04-1.71980E-13
 -1      1455 1.24565E-02 6.34360E-04-1.75486E-13
 -1      1456 1.22646E-02 6.32974E-04-1.70128E-13
 -1      1457 1.25993E-02 6.60088E-04-1.79007E-13
 -1      1458 1.27420E-02 6.85871E-04-1.82541E-13
 -1      1459 1.25502E-02 6.84298E-04-1.77128E-13
 -1      1460 1.28847E-02 7.11702E-04-1.86092E-13
 -1      1461 1.30274E-02 7.37574E-04-1.89651E-13
 -1      1462 1.28357E-02 7.35865E-04-1.84190E-13
 -1      1463 1.31702E-02 7.63481E-04-1.93225E-13
 -1      1464 1.33129E-02 7.89415E-04-1.96815E-13
 -1      1465 1.31212E-02 7.87612E-04-1.91304E-13
 -1      1466 1.34557E-02 8.15372E-04-2.00414E-13
 -1      1467 1.35985E-02 8.41346E-04-2.04017E-13
 -1      1468 1.34068E-02 8.39485E-04-1.98470E-13
 -1      1469 1.37413E-02 8.67331E-04-2.07630E-13
 -1      1470 1.38841E-02 8.93323E-04-2.11250E-13
 -1      1471 1.36923E-02 8.91437E-04-2.05673E-13
 -1      1472 1.40269E-02 9.19318E-04-2.14874E-13
 -1      1473 1.41697E-02 9.45311E-04-2.18501E-13
 -1      1474 1.39780E-02 9.43427E-04-2.12904E-13
 -1      1475 1.43126E-02 9.71299E-04-2.22133E-13
 -1      1476 1.44554E-02 9.97279E-04-2.25771E-13
 -1      1477 1.42636E-02 9.95418E-04-2.20155E-13
 -1      1478 1.46652E-02 1.03925E-03-2.31029E-13
 -1      1479 1.46162E-02 1.06338E-03-2.29041E-13
 -1      1480 6.53635E-04 3.46743E-04-1.45256E-16
 -1      1481 4.99224E-04 2.85771E-04-4.40186E-17
 -1      1482 4.53239E-04 2.47717E-04-9.54504E-17
 -1      1483 9.51414E-04 4.32564E-04-5.20946E-16
 -1      1484 8.03843E-04 3.93999E-04-3.04417E-16
 -1      1485 7.62705E-04 3.57585E-04-3.66989E-16
 -1      1486 1.24374E-03 4.89277E-04-1.12555E-15
 -1      1487 1.09766E-03 4.63706E-04-7.94287E-16
 -1      1488 1.06247E-03 4.28952E-04-8.65654E-16
 -1      1489 1.53790E-03 5.27962E-04-1.96039E-15
 -1      1490 1.39020E-03 5.10381E-04-1.51413E-15
 -1      1491 1.35908E-03 4.76333E-04-1.59082E-15
 -1      1492 1.83857E-03 5.55832E-04-3.02285E-15
 -1      1493 1.68715E-03 5.42844E-04-2.46287E-15
 -1      1494 1.65802E-03 5.08723E-04-2.54239E-15
 -1      1495 2.14909E-03 5.78996E-04-4.30897E-15
 -1      1496 1.99240E-03 5.67591E-04-3.63827E-15
 -1      1497 1.96321E-03 5.32750E-04-3.71838E-15
 -1      1498 2.47189E-03 6.03774E-04-5.81509E-15
 -1      1499 2.30880E-03 5.90726E-04-5.03472E-15
 -1      1500 2.27743E-03 5.54587E-04-5.11510E-15
 -1      1501 2.80852E-03 6.37491E-04-7.53706E-15
 -1      1502 2.63839E-03 6.19006E-04-6.64936E-15
 -1      1503 2.60263E-03 5.81023E-04-6.72856E-15
 -1      1504 3.15908E-03 6.88840E-04-9.47459E-15
 -1      1505 2.98209E-03 6.60442E-04-8.47913E-15
 -1      1506 2.93981E-03 6.20115E-04-8.55548E-15
 -1      1507 3.52130E-03 7.67417E-04-1.16268E-14
 -1      1508 3.33896E-03 7.24317E-04-1.05240E-14
 -1      1509 3.28856E-03 6.81303E-04-1.05962E-14
 -1      1510 3.88945E-03 8.81545E-04-1.39891E-14
 -1      1511 3.70515E-03 8.19994E-04-1.27810E-14
 -1      1512 3.64635E-03 7.74338E-04-1.28480E-14
 -1      1513 4.25384E-03 1.03331E-03-1.65714E-14
 -1      1514 4.07292E-03 9.53421E-04-1.52525E-14
 -1      1515 4.00782E-03 9.05956E-04-1.53135E-14
 -1      1516 4.60222E-03 1.21109E-03-1.93757E-14
 -1      1517 4.43090E-03 1.12071E-03-1.79447E-14
 -1      1518 4.36467E-03 1.07344E-03-1.79983E-14
 -1      1519 4.92462E-03 1.38429E-03-2.24144E-14
 -1      1520 4.76706E-03 1.30090E-03-2.08656E-14
 -1      1521 4.70737E-03 1.25682E-03-2.09103E-14
 -1      1522 5.22074E-03 1.50871E-03-2.56945E-14
 -1      1523 5.07542E-03 1.45498E-03-2.40234E-14
 -1      1524 5.03006E-03 1.41665E-03-2.40603E-14
 -1      1525 5.50368E-03 1.54771E-03-2.92189E-14
 -1      1526 5.36245E-03 1.53960E-03-2.74268E-14
 -1      1527 5.33624E-03 1.50724E-03-2.74545E-14
 -1      1528 5.79478E-03 1.49557E-03-3.29866E-14
 -1      1529 5.64680E-03 1.53141E-03-3.10726E-14
 -1      1530 5.63965E-03 1.50229E-03-3.10951E-14
 -1      1531 6.11079E-03 1.38203E-03-3.69889E-14
 -1      1532 5.94906E-03 1.44357E-03-3.49592E-14
 -1      1533 5.95626E-03 1.41398E-03-3.49758E-14
 -1      1534 6.45537E-03 1.25207E-03-4.12112E-14
 -1      1535 6.27980E-03 1.31654E-03-3.90733E-14
 -1      1536 6.29392E-03 1.28421E-03-3.90836E-14
 -1      1537 6.82087E-03 1.14187E-03-4.56351E-14
 -1      1538 6.63628E-03 1.19312E-03-4.33985E-14
 -1      1539 6.64980E-03 1.15768E-03-4.34037E-14
 -1      1540 7.19507E-03 1.06928E-03-5.02454E-14
 -1      1541 7.00767E-03 1.10067E-03-4.79180E-14
 -1      1542 7.01516E-03 1.06288E-03-4.79167E-14
 -1      1543 7.56732E-03 1.03585E-03-5.50248E-14
 -1      1544 7.38201E-03 1.04806E-03-5.26144E-14
 -1      1545 7.38098E-03 1.00902E-03-5.26073E-14
 -1      1546 7.93078E-03 1.03515E-03-5.99665E-14
 -1      1547 7.75046E-03 1.03198E-03-5.74772E-14
 -1      1548 7.74077E-03 9.92580E-04-5.74629E-14
 -1      1549 8.28231E-03 1.05852E-03-6.50642E-14
 -1      1550 8.10814E-03 1.04435E-03-6.24964E-14
 -1      1551 8.09098E-03 1.00520E-03-6.24753E-14
 -1      1552 8.62139E-03 1.09817E-03-7.03055E-14
 -1      1553 8.45338E-03 1.07673E-03-6.76654E-14
 -1      1554 8.43042E-03 1.03814E-03-6.76386E-14
 -1      1555 8.94900E-03 1.14808E-03-7.56935E-14
 -1      1556 8.78654E-03 1.12214E-03-7.29827E-14
 -1      1557 8.75939E-03 1.08427E-03-7.29510E-14
 -1      1558 9.26676E-03 1.20398E-03-8.12153E-14
 -1      1559 9.10900E-03 1.17548E-03-7.84385E-14
 -1      1560 9.07900E-03 1.13835E-03-7.84020E-14
 -1      1561 9.57644E-03 1.26303E-03-8.68702E-14
 -1      1562 9.42250E-03 1.23324E-03-8.40255E-14
 -1      1563 9.39067E-03 1.19679E-03-8.39855E-14
 -1      1564 9.87972E-03 1.32340E-03-9.26586E-14
 -1      1565 9.72878E-03 1.29313E-03-8.97472E-14
 -1      1566 9.69585E-03 1.25727E-03-8.97016E-14
 -1      1567 1.01780E-02 1.38396E-03-9.85852E-14
 -1      1568 1.00294E-02 1.35371E-03-9.56045E-14
 -1      1569 9.99589E-03 1.31835E-03-9.55539E-14
 -1      1570 1.04726E-02 1.44408E-03-1.04632E-13
 -1      1571 1.03257E-02 1.41410E-03-1.01595E-13
 -1      1572 1.02919E-02 1.37916E-03-1.01535E-13
 -1      1573 1.07643E-02 1.50340E-03-1.10792E-13
 -1      1574 1.06187E-02 1.47385E-03-1.07699E-13
 -1      1575 1.05849E-02 1.43923E-03-1.07633E-13
 -1      1576 1.10540E-02 1.56178E-03-1.17046E-13
 -1      1577 1.09094E-02 1.53271E-03-1.13905E-13
 -1      1578 1.08756E-02 1.49835E-03-1.13834E-13
 -1      1579 1.13422E-02 1.61921E-03-1.23400E-13
 -1      1580 1.11982E-02 1.59062E-03-1.20212E-13
 -1      1581 1.11647E-02 1.55646E-03-1.20138E-13
 -1      1582 1.16293E-02 1.67574E-03-1.29848E-13
 -1      1583 1.14859E-02 1.64758E-03-1.26613E-13
 -1      1584 1.14525E-02 1.61357E-03-1.26536E-13
 -1      1585 1.19158E-02 1.73144E-03-1.36384E-13
 -1      1586 1.17726E-02 1.70368E-03-1.33105E-13
 -1      1587 1.17394E-02 1.66979E-03-1.33022E-13
 -1      1588 1.22018E-02 1.78643E-03-1.43008E-13
 -1      1589 1.20588E-02 1.75902E-03-1.39686E-13
 -1      1590 1.20258E-02 1.72520E-03-1.39596E-13
 -1      1591 1.24874E-02 1.84082E-03-1.49710E-13
 -1      1592 1.23446E-02 1.81369E-03-1.46350E-13
 -1      1593 1.23117E-02 1.77994E-03-1.46251E-13
 -1      1594 1.27729E-02 1.89470E-03-1.56477E-13
 -1      1595 1.26302E-02 1.86782E-03-1.53086E-13
 -1      1596 1.25975E-02 1.83410E-03-1.52982E-13
 -1      1597 1.30584E-02 1.94818E-03-1.63327E-13
 -1      1598 1.29157E-02 1.92149E-03-1.59891E-13
 -1      1599 1.28830E-02 1.88781E-03-1.59788E-13
 -1      1600 1.33438E-02 2.00135E-03-1.70247E-13
 -1      1601 1.32011E-02 1.97480E-03-1.66779E-13
 -1      1602 1.31685E-02 1.94114E-03-1.66667E-13
 -1      1603 1.36292E-02 2.05426E-03-1.77222E-13
 -1      1604 1.34865E-02 2.02783E-03-1.73728E-13
 -1      1605 1.34540E-02 1.99418E-03-1.73611E-13
 -1      1606 1.39146E-02 2.10700E-03-1.84237E-13
 -1      1607 1.37719E-02 2.08065E-03-1.80727E-13
 -1      1608 1.37395E-02 2.04700E-03-1.80604E-13
 -1      1609 1.42001E-02 2.15960E-03-1.91281E-13
 -1      1610 1.40574E-02 2.13331E-03-1.87757E-13
 -1      1611 1.40250E-02 2.09967E-03-1.87637E-13
 -1      1612 1.44857E-02 2.21213E-03-1.98376E-13
 -1      1613 1.43429E-02 2.18587E-03-1.94820E-13
 -1      1614 1.43106E-02 2.15222E-03-1.94704E-13
 -1      1615 1.47713E-02 2.26462E-03-2.05509E-13
 -1      1616 1.46285E-02 2.23838E-03-2.01937E-13
 -1      1617 1.45962E-02 2.20472E-03-2.01815E-13
 -1      1618 1.50570E-02 2.31710E-03-2.12677E-13
 -1      1619 1.49141E-02 2.29086E-03-2.09088E-13
 -1      1620 1.48818E-02 2.25720E-03-2.08963E-13
 -1      1621 1.53427E-02 2.36961E-03-2.19868E-13
 -1      1622 1.51998E-02 2.34335E-03-2.16272E-13
 -1      1623 1.51675E-02 2.30969E-03-2.16141E-13
 -1      1624 1.54848E-02 2.38609E-03-2.23685E-13
 -1      1625 1.54322E-02 2.28292E-03-2.24655E-13
 -1      1626 1.54581E-02 2.32508E-03-2.24390E-13
 -1      1627 1.53805E-02 2.19860E-03-2.25178E-13
 -1      1628 1.54064E-02 2.24076E-03-2.24920E-13
 -1      1629 1.52956E-02 2.23909E-03-2.21673E-13
 -1      1630 1.53288E-02 2.11423E-03-2.25675E-13
 -1      1631 1.53546E-02 2.15642E-03-2.25429E-13
 -1      1632 1.52438E-02 2.15476E-03-2.22187E-13
 -1      1633 1.52771E-02 2.02983E-03-2.26145E-13
 -1      1634 1.53029E-02 2.07204E-03-2.25913E-13
 -1      1635 1.51921E-02 2.07040E-03-2.22681E-13
 -1      1636 1.52263E-02 1.94682E-03-2.26604E-13
 -1      1637 1.52517E-02 1.98833E-03-2.26376E-13
 -1      1638 1.51408E-02 1.98672E-03-2.23153E-13
 -1      1639 1.51747E-02 1.86236E-03-2.27075E-13
 -1      1640 1.52005E-02 1.90459E-03-2.26842E-13
 -1      1641 1.50897E-02 1.90301E-03-2.23622E-13
 -1      1642 1.51232E-02 1.77787E-03-2.27542E-13
 -1      1643 1.51490E-02 1.82011E-03-2.27306E-13
 -1      1644 1.50381E-02 1.81857E-03-2.24089E-13
 -1      1645 1.50718E-02 1.69338E-03-2.27999E-13
 -1      1646 1.50975E-02 1.73562E-03-2.27771E-13
 -1      1647 1.49866E-02 1.73411E-03-2.24551E-13
 -1      1648 1.50206E-02 1.60889E-03-2.28443E-13
 -1      1649 1.50462E-02 1.65113E-03-2.28222E-13
 -1      1650 1.49353E-02 1.64965E-03-2.25003E-13
 -1      1651 1.49694E-02 1.52441E-03-2.28894E-13
 -1      1652 1.49949E-02 1.56665E-03-2.28668E-13
 -1      1653 1.48840E-02 1.56520E-03-2.25448E-13
 -1      1654 1.49191E-02 1.44139E-03-2.29351E-13
 -1      1655 1.49442E-02 1.48290E-03-2.29122E-13
 -1      1656 1.48333E-02 1.48147E-03-2.25892E-13
 -1      1657 1.48681E-02 1.35697E-03-2.29810E-13
 -1      1658 1.48936E-02 1.39918E-03-2.29583E-13
 -1      1659 1.47826E-02 1.39777E-03-2.26339E-13
 -1      1660 1.48170E-02 1.27259E-03-2.30247E-13
 -1      1661 1.48426E-02 1.31477E-03-2.30033E-13
 -1      1662 1.47316E-02 1.31337E-03-2.26780E-13
 -1      1663 1.47661E-02 1.18824E-03-2.30667E-13
 -1      1664 1.47916E-02 1.23041E-03-2.30460E-13
 -1      1665 1.46806E-02 1.22901E-03-2.27206E-13
 -1      1666 1.46784E-02 1.10473E-03-2.29953E-13
 -1      1667 1.47039E-02 1.14689E-03-2.29760E-13
 -1      1668 1.45929E-02 1.14548E-03-2.26509E-13
 -1      1669 1.44686E-02 1.06276E-03-2.24697E-13
 -1      1670 7.47720E-03 4.24735E-04-3.98939E-14
 -1      1671 7.49825E-03 3.78487E-04-4.00661E-14
 -1      1672 7.32107E-03 5.38002E-04-3.92497E-14
 -1      1673 7.41219E-03 4.80646E-04-3.96655E-14
 -1      1674 7.05850E-03 6.88273E-04-3.79913E-14
 -1      1675 7.19049E-03 6.19734E-04-3.85564E-14
 -1      1676 6.71767E-03 8.57217E-04-3.64964E-14
 -1      1677 6.88368E-03 7.75951E-04-3.72262E-14
 -1      1678 6.31096E-03 1.03658E-03-3.47286E-14
 -1      1679 6.49837E-03 9.50270E-04-3.56071E-14
 -1      1680 5.87262E-03 1.20296E-03-3.26243E-14
 -1      1681 6.06994E-03 1.13124E-03-3.36290E-14
 -1      1682 5.48787E-03 1.27870E-03-3.05692E-14
 -1      1683 5.66349E-03 1.25433E-03-3.14522E-14
 -1      1684 5.09810E-03 1.26544E-03-2.86576E-14
 -1      1685 5.27951E-03 1.28301E-03-2.95353E-14
 -1      1686 4.69689E-03 1.16416E-03-2.68490E-14
 -1      1687 4.88343E-03 1.22142E-03-2.76648E-14
 -1      1688 4.28087E-03 9.89929E-04-2.51771E-14
 -1      1689 4.47716E-03 1.07787E-03-2.59153E-14
 -1      1690 3.87535E-03 7.98003E-04-2.38714E-14
 -1      1691 4.05452E-03 8.87129E-04-2.44386E-14
 -1      1692 3.50823E-03 6.11994E-04-2.28344E-14
 -1      1693 3.67315E-03 6.96338E-04-2.32804E-14
 -1      1694 3.19890E-03 4.48856E-04-2.20916E-14
 -1      1695 3.33217E-03 5.20833E-04-2.23969E-14
 -1      1696 3.00327E-03 3.21629E-04-2.17072E-14
 -1      1697 3.07766E-03 3.75840E-04-2.18386E-14
 -1      1698 2.94173E-03 2.20504E-04-2.16759E-14
 -1      1699 2.95370E-03 2.64903E-04-2.16479E-14
 -1      1700 3.00512E-03 1.25979E-04-2.19547E-14
 -1      1701 2.96142E-03 1.69594E-04-2.17892E-14
 -1      1702 3.19062E-03 1.58958E-05-2.25377E-14
 -1      1703 3.08939E-03 7.12934E-05-2.22078E-14
 -1      1704 3.46313E-03-1.23041E-04-2.34794E-14
 -1      1705 3.32843E-03-5.86667E-05-2.30286E-14
 -1      1706 3.78961E-03-2.72735E-04-2.46322E-14
 -1      1707 3.63388E-03-2.01996E-04-2.40701E-14
 -1      1708 4.19228E-03-4.28367E-04-2.60608E-14
 -1      1709 4.00994E-03-3.50369E-04-2.53112E-14
 -1      1710 4.54934E-03-5.59574E-04-2.78044E-14
 -1      1711 4.38188E-03-5.08391E-04-2.70404E-14
 -1      1712 4.91774E-03-6.29012E-04-2.95983E-14
 -1      1713 4.74704E-03-6.04476E-04-2.87494E-14
 -1      1714 5.27682E-03-6.27749E-04-3.14349E-14
 -1      1715 5.11307E-03-6.37503E-04-3.05915E-14
 -1      1716 5.65617E-03-5.49795E-04-3.34246E-14
 -1      1717 5.47560E-03-5.97969E-04-3.25013E-14
 -1      1718 6.04601E-03-4.11491E-04-3.51953E-14
 -1      1719 5.87353E-03-4.79458E-04-3.44036E-14
 -1      1720 6.41374E-03-2.26825E-04-3.70036E-14
 -1      1721 6.23391E-03-3.12665E-04-3.62525E-14
 -1      1722 6.80670E-03-5.69793E-05-3.83017E-14
 -1      1723 6.63827E-03-1.38081E-04-3.76972E-14
 -1      1724 7.13054E-03 9.43972E-05-3.92936E-14
 -1      1725 6.99162E-03 2.59449E-05-3.88644E-14
 -1      1726 7.35912E-03 2.18184E-04-3.99252E-14
 -1      1727 7.26618E-03 1.65249E-04-3.96868E-14
 -1      1728 7.48529E-03 3.26496E-04-4.02674E-14
 -1      1729 7.44125E-03 2.81516E-04-4.02208E-14
 -1      1730 6.54618E-03 8.67590E-04-3.65443E-14
 -1      1731 6.92990E-03 6.82529E-04-3.82245E-14
 -1      1732 1.54525E-02 2.35242E-03-2.23554E-13
 -1      1733 1.53159E-02 2.30860E-03-2.20571E-13
 -1      1734 7.44730E-03 4.29708E-04-4.06494E-14
 -1      1735 7.24189E-03 5.29653E-04-3.97063E-14
 -1      1736 7.50171E-03 3.58159E-04-4.10856E-14
 -1      1737 6.12510E-03 1.07448E-03-3.45268E-14
 -1      1738 5.74043E-03 1.24344E-03-3.22331E-14
 -1      1739 5.37905E-03 1.30800E-03-3.00228E-14
 -1      1740 5.02292E-03 1.26466E-03-2.80022E-14
 -1      1741 4.64436E-03 1.11994E-03-2.60929E-14
 -1      1742 4.24140E-03 9.11136E-04-2.44494E-14
 -1      1743 3.83215E-03 6.95457E-04-2.31488E-14
 -1      1744 3.45484E-03 5.06372E-04-2.21475E-14
 -1      1745 3.14995E-03 3.63936E-04-2.14782E-14
 -1      1746 2.97267E-03 2.69825E-04-2.11767E-14
 -1      1747 2.94249E-03 2.02095E-04-2.12299E-14
 -1      1748 3.05061E-03 1.30813E-04-2.15847E-14
 -1      1749 3.28038E-03 2.91021E-05-2.23058E-14
 -1      1750 3.59206E-03-1.13652E-04-2.33619E-14
 -1      1751 3.96718E-03-2.79105E-04-2.46056E-14
 -1      1752 4.33779E-03-4.57344E-04-2.62307E-14
 -1      1753 4.68765E-03-5.95534E-04-2.81404E-14
 -1      1754 5.02219E-03-6.58322E-04-3.00709E-14
 -1      1755 5.35649E-03-6.35148E-04-3.21316E-14
 -1      1756 5.70408E-03-5.20844E-04-3.41908E-14
 -1      1757 6.07534E-03-3.38786E-04-3.62439E-14
 -1      1758 6.45752E-03-1.35213E-04-3.80260E-14
 -1      1759 6.85383E-03 4.26732E-05-3.93080E-14
 -1      1760 7.17713E-03 1.84131E-04-4.02842E-14
 -1      1761 7.40214E-03 2.89239E-04-4.09860E-14
 -1      1762 2.89716E-04-1.66694E-04-9.34040E-17
 -1      1763 3.36750E-04-9.77113E-05-3.04254E-16
 -1      1764 3.42279E-04-1.14499E-04-2.85701E-16
 -1      1765 3.49296E-04-1.34352E-04-2.62892E-16
 -1      1766 3.59477E-04-1.57534E-04-2.30542E-16
 -1      1767 4.67467E-04-1.64199E-04-4.14762E-16
 -1      1768 3.22318E-04-4.82195E-05-3.42201E-16
 -1      1769 3.25165E-04-5.84313E-05-3.36536E-16
 -1      1770 3.17631E-04-3.01478E-05-3.48923E-16
 -1      1771 3.19802E-04-3.87375E-05-3.46037E-16
 -1      1772 4.31728E-04-5.82611E-05-5.07989E-16
 -1      1773 3.14418E-04-1.48529E-05-3.51024E-16
 -1      1774 3.15838E-04-2.22021E-05-3.50428E-16
 -1      1775 4.25374E-04-3.51529E-05-5.15525E-16
 -1      1776 3.12811E-04-1.25548E-06-3.49465E-16
 -1      1777 3.13405E-04-7.89413E-06-3.50699E-16
 -1      1778 4.21218E-04-1.52598E-05-5.17110E-16
 -1      1779 3.12962E-04 1.17468E-05-3.44505E-16
 -1      1780 3.12658E-04 5.26310E-06-3.47500E-16
 -1      1781 4.19468E-04 2.79756E-06-5.13695E-16
 -1      1782 3.14970E-04 2.53408E-05-3.35981E-16
 -1      1783 3.13729E-04 1.84092E-05-3.40765E-16
 -1      1784 4.20338E-04 2.04561E-05-5.05455E-16
 -1      1785 3.18770E-04 4.05358E-05-3.23255E-16
 -1      1786 3.16640E-04 3.26531E-05-3.30465E-16
 -1      1787 4.23906E-04 3.91027E-05-4.92052E-16
 -1      1788 3.24480E-04 5.92845E-05-3.04308E-16
 -1      1789 3.21380E-04 4.94382E-05-3.15001E-16
 -1      1790 4.30186E-04 6.05521E-05-4.72265E-16
 -1      1791 3.32212E-04 8.31195E-05-2.76065E-16
 -1      1792 3.28056E-04 7.05068E-05-2.91894E-16
 -1      1793 4.39298E-04 8.69365E-05-4.43059E-16
 -1      1794 3.42898E-04 1.14670E-04-2.33456E-16
 -1      1795 3.37030E-04 9.78484E-05-2.57457E-16
 -1      1796 4.51584E-04 1.20496E-04-4.00138E-16
 -1      1797 3.60766E-04 1.59090E-04-1.68905E-16
 -1      1798 3.50509E-04 1.35063E-04-2.05185E-16
 -1      1799 4.69066E-04 1.64863E-04-3.37065E-16
 -1      1800 4.16638E-04 2.15518E-04-1.24128E-16
 -1      1801 3.87113E-04 1.84113E-04-1.53618E-16
 -1      1802 5.08340E-04 2.18183E-04-2.80402E-16
 -1      1803 5.71828E-04 2.76723E-04-2.34567E-16
 -1      1804 3.47145E-04-1.77094E-04-1.66290E-16
 -1      1805 8.77720E-04 3.66417E-04-6.26737E-16
 -1      1806 7.25448E-04 3.26053E-04-4.03052E-16
 -1      1807 6.91268E-04 2.95380E-04-4.32271E-16
 -1      1808 4.69376E-04-2.16533E-04-2.99240E-16
 -1      1809 8.27789E-04-3.39318E-04-8.05034E-16
 -1      1810 9.78458E-04-3.74649E-04-1.12738E-15
 -1      1811 1.12740E-03-4.04031E-04-1.50917E-15
 -1      1812 1.27594E-03-4.28238E-04-1.95113E-15
 -1      1813 1.03093E-03-3.53173E-04-1.38614E-15
 -1      1814 1.42402E-03-4.48808E-04-2.45205E-15
 -1      1815 1.57226E-03-4.66173E-04-3.01273E-15
 -1      1816 1.32857E-03-4.01472E-04-2.28097E-15
 -1      1817 1.72087E-03-4.81471E-04-3.63244E-15
 -1      1818 1.87009E-03-4.95123E-04-4.31107E-15
 -1      1819 1.62579E-03-4.35992E-04-3.41033E-15
 -1      1820 2.02015E-03-5.08042E-04-5.04769E-15
 -1      1821 2.17109E-03-5.20666E-04-5.84248E-15
 -1      1822 1.92450E-03-4.62857E-04-4.77263E-15
 -1      1823 2.32311E-03-5.33795E-04-6.69563E-15
 -1      1824 2.47606E-03-5.47865E-04-7.60558E-15
 -1      1825 2.22612E-03-4.87459E-04-6.36535E-15
 -1      1826 2.63015E-03-5.63581E-04-8.57291E-15
 -1      1827 2.78500E-03-5.81335E-04-9.59757E-15
 -1      1828 2.53152E-03-5.14795E-04-8.18585E-15
 -1      1829 2.94085E-03-6.01672E-04-1.06790E-14
 -1      1830 3.09708E-03-6.24850E-04-1.18161E-14
 -1      1831 2.84098E-03-5.49436E-04-1.02321E-14
 -1      1832 3.25396E-03-6.51106E-04-1.30088E-14
 -1      1833 3.41061E-03-6.80417E-04-1.42573E-14
 -1      1834 3.15408E-03-5.95035E-04-1.25017E-14
 -1      1835 3.56729E-03-7.12512E-04-1.55616E-14
 -1      1836 3.72302E-03-7.46895E-04-1.69214E-14
 -1      1837 3.46951E-03-6.53293E-04-1.49931E-14
 -1      1838 3.87797E-03-7.82612E-04-1.83366E-14
 -1      1839 4.03127E-03-8.18547E-04-1.98069E-14
 -1      1840 3.78490E-03-7.22443E-04-1.77055E-14
 -1      1841 4.18295E-03-8.53041E-04-2.13324E-14
 -1      1842 4.33265E-03-8.84410E-04-2.29138E-14
 -1      1843 4.09708E-03-7.95663E-04-2.06386E-14
 -1      1844 4.48018E-03-9.10590E-04-2.45509E-14
 -1      1845 4.62608E-03-9.29743E-04-2.62436E-14
 -1      1846 4.40300E-03-8.60511E-04-2.37932E-14
 -1      1847 4.76999E-03-9.40047E-04-2.79914E-14
 -1      1848 4.91332E-03-9.40216E-04-2.97952E-14
 -1      1849 4.70146E-03-9.00889E-04-2.71709E-14
 -1      1850 5.05566E-03-9.29420E-04-3.16548E-14
 -1      1851 5.19886E-03-9.07521E-04-3.35677E-14
 -1      1852 4.99454E-03-9.02206E-04-3.07716E-14
 -1      1853 5.34250E-03-8.75065E-04-3.55348E-14
 -1      1854 5.48814E-03-8.33150E-04-3.75549E-14
 -1      1855 5.28726E-03-8.57723E-04-3.45918E-14
 -1      1856 5.63542E-03-7.83454E-04-3.96287E-14
 -1      1857 5.78508E-03-7.27779E-04-4.17532E-14
 -1      1858 5.58498E-03-7.71918E-04-3.86278E-14
 -1      1859 5.93689E-03-6.68226E-04-4.39292E-14
 -1      1860 6.09070E-03-6.06603E-04-4.61558E-14
 -1      1861 5.89058E-03-6.58313E-04-4.28736E-14
 -1      1862 6.24647E-03-5.44738E-04-4.84310E-14
 -1      1863 6.40344E-03-4.83933E-04-5.07551E-14
 -1      1864 6.20355E-03-5.33438E-04-4.73199E-14
 -1      1865 6.56174E-03-4.25374E-04-5.31277E-14
 -1      1866 6.72042E-03-3.69747E-04-5.55458E-14
 -1      1867 6.52111E-03-4.11163E-04-5.19642E-14
 -1      1868 6.87969E-03-3.17557E-04-5.80074E-14
 -1      1869 7.03869E-03-2.68997E-04-6.05113E-14
 -1      1870 6.84004E-03-3.00052E-04-5.67926E-14
 -1      1871 7.19764E-03-2.24060E-04-6.30572E-14
 -1      1872 7.35588E-03-1.82636E-04-6.56427E-14
 -1      1873 7.15775E-03-2.03548E-04-6.17945E-14
 -1      1874 7.51360E-03-1.44424E-04-6.82685E-14
 -1      1875 7.67040E-03-1.09176E-04-7.09325E-14
 -1      1876 7.47260E-03-1.21493E-04-6.69594E-14
 -1      1877 7.82638E-03-7.64736E-05-7.36329E-14
 -1      1878 7.98137E-03-4.60378E-05-7.63692E-14
 -1      1879 7.78381E-03-5.17818E-05-7.22788E-14
 -1      1880 8.13541E-03-1.74518E-05-7.91418E-14
 -1      1881 8.28846E-03 9.54400E-06-8.19472E-14
 -1      1882 8.09115E-03 8.39497E-06-7.77436E-14
 -1      1883 8.44056E-03 3.53041E-05-8.47880E-14
 -1      1884 8.59175E-03 6.00454E-05-8.76641E-14
 -1      1885 8.39475E-03 6.18051E-05-8.33492E-14
 -1      1886 8.74204E-03 8.40407E-05-9.05743E-14
 -1      1887 8.89152E-03 1.07460E-04-9.35161E-14
 -1      1888 8.69493E-03 1.10816E-04-8.90928E-14
 -1      1889 9.04021E-03 1.30496E-04-9.64899E-14
 -1      1890 9.18821E-03 1.53275E-04-9.94968E-14
 -1      1891 8.99210E-03 1.57277E-04-9.49693E-14
 -1      1892 9.33553E-03 1.75923E-04-1.02535E-13
 -1      1893 9.48228E-03 1.98530E-04-1.05602E-13
 -1      1894 9.28671E-03 2.02539E-04-1.00971E-13
 -1      1895 9.62847E-03 2.21170E-04-1.08697E-13
 -1      1896 9.77421E-03 2.43905E-04-1.11819E-13
 -1      1897 9.57918E-03 2.47522E-04-1.07096E-13
 -1      1898 9.91949E-03 2.66770E-04-1.14967E-13
 -1      1899 1.00644E-02 2.89806E-04-1.18143E-13
 -1      1900 9.86993E-03 2.92814E-04-1.13330E-13
 -1      1901 1.02090E-02 3.13022E-04-1.21346E-13
 -1      1902 1.03533E-02 3.36443E-04-1.24571E-13
 -1      1903 1.01593E-02 3.38750E-04-1.19673E-13
 -1      1904 1.04973E-02 3.60064E-04-1.27822E-13
 -1      1905 1.06411E-02 3.83896E-04-1.31095E-13
 -1      1906 1.04476E-02 3.85491E-04-1.26117E-13
 -1      1907 1.07848E-02 4.07925E-04-1.34388E-13
 -1      1908 1.09282E-02 4.32155E-04-1.37705E-13
 -1      1909 1.07351E-02 4.33082E-04-1.32655E-13
 -1      1910 1.10716E-02 4.56568E-04-1.41037E-13
 -1      1911 1.12148E-02 4.81162E-04-1.44386E-13
 -1      1912 1.10219E-02 4.81489E-04-1.39276E-13
 -1      1913 1.13579E-02 5.05919E-04-1.47750E-13
 -1      1914 1.15009E-02 5.30833E-04-1.51130E-13
 -1      1915 1.13084E-02 5.30642E-04-1.45969E-13
 -1      1916 1.16439E-02 5.55885E-04-1.54527E-13
 -1      1917 1.17868E-02 5.81070E-04-1.57941E-13
 -1      1918 1.15945E-02 5.80445E-04-1.52725E-13
 -1      1919 1.19297E-02 6.06370E-04-1.61371E-13
 -1      1920 1.20726E-02 6.31779E-04-1.64817E-13
 -1      1921 1.18804E-02 6.30800E-04-1.59546E-13
 -1      1922 1.22154E-02 6.57280E-04-1.68279E-13
 -1      1923 1.23582E-02 6.82868E-04-1.71759E-13
 -1      1924 1.21662E-02 6.81608E-04-1.66436E-13
 -1      1925 1.25010E-02 7.08530E-04-1.75255E-13
 -1      1926 1.26438E-02 7.34259E-04-1.78769E-13
 -1      1927 1.24519E-02 7.32779E-04-1.73389E-13
 -1      1928 1.27866E-02 7.60043E-04-1.82294E-13
 -1      1929 1.29294E-02 7.85878E-04-1.85834E-13
 -1      1930 1.27375E-02 7.84235E-04-1.80405E-13
 -1      1931 1.30722E-02 8.11754E-04-1.89390E-13
 -1      1932 1.32150E-02 8.37665E-04-1.92954E-13
 -1      1933 1.30231E-02 8.35906E-04-1.87476E-13
 -1      1934 1.33578E-02 8.63605E-04-1.96531E-13
 -1      1935 1.35006E-02 8.89567E-04-2.00122E-13
 -1      1936 1.33088E-02 8.87731E-04-1.94601E-13
 -1      1937 1.36434E-02 9.15546E-04-2.03720E-13
 -1      1938 1.37862E-02 9.41538E-04-2.07324E-13
 -1      1939 1.35944E-02 9.39659E-04-2.01768E-13
 -1      1940 1.39290E-02 9.67536E-04-2.10936E-13
 -1      1941 1.40719E-02 9.93536E-04-2.14555E-13
 -1      1942 1.38800E-02 9.91646E-04-2.08971E-13
 -1      1943 1.41988E-02 1.01516E-03-2.17806E-13
 -1      1944 1.43417E-02 1.04115E-03-2.21434E-13
 -1      1945 1.44038E-02 1.08251E-03-2.22340E-13
 -1      1946 1.41499E-02 1.03927E-03-2.15830E-13
 -1      1947 1.17750E-03 4.25606E-04-1.24011E-15
 -1      1948 1.02782E-03 3.99057E-04-9.05092E-16
 -1      1949 9.93945E-04 3.69263E-04-9.37740E-16
 -1      1950 1.47613E-03 4.65169E-04-2.07848E-15
 -1      1951 1.32654E-03 4.47377E-04-1.63105E-15
 -1      1952 1.29362E-03 4.18498E-04-1.66437E-15
 -1      1953 1.77785E-03 4.92574E-04-3.14055E-15
 -1      1954 1.62632E-03 4.80026E-04-2.58149E-15
 -1      1955 1.59359E-03 4.51522E-04-2.61389E-15
 -1      1956 2.08577E-03 5.14085E-04-4.42413E-15
 -1      1957 1.93083E-03 5.03709E-04-3.75488E-15
 -1      1958 1.89704E-03 4.74997E-04-3.78492E-15
 -1      1959 2.40217E-03 5.36056E-04-5.92515E-15
 -1      1960 2.24275E-03 5.24616E-04-5.14752E-15
 -1      1961 2.20644E-03 4.95099E-04-5.17396E-15
 -1      1962 2.72864E-03 5.65794E-04-7.64006E-15
 -1      1963 2.56405E-03 5.49492E-04-6.75649E-15
 -1      1964 2.52374E-03 5.18501E-04-6.77789E-15
 -1      1965 3.06595E-03 6.12044E-04-9.56730E-15
 -1      1966 2.89594E-03 5.86333E-04-8.57688E-15
 -1      1967 2.85041E-03 5.53088E-04-8.59325E-15
 -1      1968 3.41366E-03 6.84753E-04-1.17063E-14
 -1      1969 3.23869E-03 6.44579E-04-1.06105E-14
 -1      1970 3.18740E-03 6.08244E-04-1.06193E-14
 -1      1971 3.76956E-03 7.93292E-04-1.40551E-14
 -1      1972 3.59105E-03 7.34249E-04-1.28542E-14
 -1      1973 3.53478E-03 6.94187E-04-1.28553E-14
 -1      1974 4.12887E-03 9.41916E-04-1.66207E-14
 -1      1975 3.94958E-03 8.62918E-04-1.53104E-14
 -1      1976 3.89102E-03 8.19326E-04-1.53024E-14
 -1      1977 4.48390E-03 1.12201E-03-1.94063E-14
 -1      1978 4.30788E-03 1.02949E-03-1.79852E-14
 -1      1979 4.25162E-03 9.84351E-04-1.79660E-14
 -1      1980 4.82588E-03 1.30459E-03-2.24250E-14
 -1      1981 4.65710E-03 1.21572E-03-2.08857E-14
 -1      1982 4.60817E-03 1.17314E-03-2.08546E-14
 -1      1983 5.15080E-03 1.44259E-03-2.56845E-14
 -1      1984 4.99001E-03 1.38191E-03-2.40246E-14
 -1      1985 4.95161E-03 1.34631E-03-2.39808E-14
 -1      1986 5.46519E-03 1.49274E-03-2.91922E-14
 -1      1987 5.30778E-03 1.47979E-03-2.74073E-14
 -1      1988 5.27993E-03 1.45236E-03-2.73528E-14
 -1      1989 5.78390E-03 1.44401E-03-3.29442E-14
 -1      1990 5.62237E-03 1.47914E-03-3.10373E-14
 -1      1991 5.60364E-03 1.45640E-03-3.09738E-14
 -1      1992 6.11893E-03 1.32708E-03-3.69313E-14
 -1      1993 5.94881E-03 1.39102E-03-3.49086E-14
 -1      1994 5.93800E-03 1.36790E-03-3.48358E-14
 -1      1995 6.47097E-03 1.19120E-03-4.11406E-14
 -1      1996 6.29330E-03 1.25896E-03-3.90096E-14
 -1      1997 6.28921E-03 1.23286E-03-3.89291E-14
 -1      1998 6.83271E-03 1.07560E-03-4.55502E-14
 -1      1999 6.65145E-03 1.12953E-03-4.33208E-14
 -1      2000 6.65117E-03 1.10061E-03-4.32344E-14
 -1      2001 7.19560E-03 9.99563E-04-5.01472E-14
 -1      2002 7.01475E-03 1.03255E-03-4.78267E-14
 -1      2003 7.01430E-03 1.00175E-03-4.77327E-14
 -1      2004 7.55345E-03 9.64442E-04-5.49128E-14
 -1      2005 7.37565E-03 9.77328E-04-5.25101E-14
 -1      2006 7.37181E-03 9.45667E-04-5.24079E-14
 -1      2007 7.90280E-03 9.63373E-04-5.98399E-14
 -1      2008 7.72944E-03 9.60233E-04-5.73577E-14
 -1      2009 7.72047E-03 9.28241E-04-5.72482E-14
 -1      2010 8.24236E-03 9.87214E-04-6.49215E-14
 -1      2011 8.07389E-03 9.72687E-04-6.23607E-14
 -1      2012 8.05943E-03 9.40670E-04-6.22444E-14
 -1      2013 8.57220E-03 1.02779E-03-7.01506E-14
 -1      2014 8.40847E-03 1.00579E-03-6.75175E-14
 -1      2015 8.38906E-03 9.73928E-04-6.73922E-14
 -1      2016 8.89312E-03 1.07880E-03-7.55275E-14
 -1      2017 8.73369E-03 1.05225E-03-7.28218E-14
 -1      2018 8.71023E-03 1.02066E-03-7.26897E-14
 -1      2019 9.20631E-03 1.13584E-03-8.10393E-14
 -1      2020 9.05058E-03 1.10674E-03-7.82679E-14
 -1      2021 9.02403E-03 1.07547E-03-7.81289E-14
 -1      2022 9.51303E-03 1.19594E-03-8.66833E-14
 -1      2023 9.36038E-03 1.16561E-03-8.38441E-14
 -1      2024 9.33159E-03 1.13469E-03-8.37002E-14
 -1      2025 9.81452E-03 1.25723E-03-9.24610E-14
 -1      2026 9.66434E-03 1.22650E-03-8.95541E-14
 -1      2027 9.63400E-03 1.19591E-03-8.94039E-14
 -1      2028 1.01119E-02 1.31859E-03-9.83710E-14
 -1      2029 9.96363E-03 1.28794E-03-9.53999E-14
 -1      2030 9.93227E-03 1.25766E-03-9.52420E-14
 -1      2031 1.04060E-02 1.37935E-03-1.04403E-13
 -1      2032 1.02592E-02 1.34906E-03-1.01373E-13
 -1      2033 1.02272E-02 1.31905E-03-1.01208E-13
 -1      2034 1.06976E-02 1.43920E-03-1.10549E-13
 -1      2035 1.05520E-02 1.40940E-03-1.07463E-13
 -1      2036 1.05197E-02 1.37962E-03-1.07291E-13
 -1      2037 1.09874E-02 1.49801E-03-1.16795E-13
 -1      2038 1.08427E-02 1.46873E-03-1.13658E-13
 -1      2039 1.08101E-02 1.43915E-03-1.13480E-13
 -1      2040 1.12758E-02 1.55576E-03-1.23144E-13
 -1      2041 1.11317E-02 1.52701E-03-1.19958E-13
 -1      2042 1.10991E-02 1.49758E-03-1.19774E-13
 -1      2043 1.15632E-02 1.61253E-03-1.29581E-13
 -1      2044 1.14196E-02 1.58426E-03-1.26351E-13
 -1      2045 1.13870E-02 1.55496E-03-1.26164E-13
 -1      2046 1.18500E-02 1.66843E-03-1.36105E-13
 -1      2047 1.17067E-02 1.64058E-03-1.32833E-13
 -1      2048 1.16741E-02 1.61138E-03-1.32639E-13
 -1      2049 1.21362E-02 1.72356E-03-1.42712E-13
 -1      2050 1.19932E-02 1.69608E-03-1.39398E-13
 -1      2051 1.19606E-02 1.66696E-03-1.39199E-13
 -1      2052 1.24222E-02 1.77805E-03-1.49400E-13
 -1      2053 1.22792E-02 1.75087E-03-1.46046E-13
 -1      2054 1.22468E-02 1.72181E-03-1.45840E-13
 -1      2055 1.27079E-02 1.83200E-03-1.56164E-13
 -1      2056 1.25650E-02 1.80508E-03-1.52772E-13
 -1      2057 1.25327E-02 1.77606E-03-1.52562E-13
 -1      2058 1.29935E-02 1.88553E-03-1.63001E-13
 -1      2059 1.28507E-02 1.85882E-03-1.59573E-13
 -1      2060 1.28184E-02 1.82982E-03-1.59358E-13
 -1      2061 1.32791E-02 1.93873E-03-1.69910E-13
 -1      2062 1.31363E-02 1.91217E-03-1.66447E-13
 -1      2063 1.31040E-02 1.88320E-03-1.66227E-13
 -1      2064 1.35646E-02 1.99166E-03-1.76874E-13
 -1      2065 1.34218E-02 1.96522E-03-1.73385E-13
 -1      2066 1.33896E-02 1.93627E-03-1.73160E-13
 -1      2067 1.38501E-02 2.04441E-03-1.83887E-13
 -1      2068 1.37074E-02 2.01806E-03-1.80376E-13
 -1      2069 1.36752E-02 1.98911E-03-1.80146E-13
 -1      2070 1.41357E-02 2.09702E-03-1.90933E-13
 -1      2071 1.39929E-02 2.07073E-03-1.87407E-13
 -1      2072 1.39608E-02 2.04178E-03-1.87174E-13
 -1      2073 1.44213E-02 2.14954E-03-1.98022E-13
 -1      2074 1.42785E-02 2.12329E-03-1.94471E-13
 -1      2075 1.42464E-02 2.09435E-03-1.94238E-13
 -1      2076 1.47069E-02 2.20202E-03-2.05150E-13
 -1      2077 1.45641E-02 2.17578E-03-2.01581E-13
 -1      2078 1.45320E-02 2.14684E-03-2.01345E-13
 -1      2079 1.49926E-02 2.25449E-03-2.12309E-13
 -1      2080 1.48498E-02 2.22826E-03-2.08726E-13
 -1      2081 1.48177E-02 2.19931E-03-2.08488E-13
 -1      2082 1.52257E-02 2.29467E-03-2.18235E-13
 -1      2083 1.50828E-02 2.26842E-03-2.14641E-13
 -1      2084 1.50507E-02 2.23947E-03-2.14402E-13
 -1      2085 1.52312E-02 2.26732E-03-2.19070E-13
 -1      2086 1.50554E-02 2.02658E-03-2.19694E-13
 -1      2087 1.50813E-02 2.06877E-03-2.19451E-13
 -1      2088 1.51072E-02 2.11094E-03-2.19201E-13
 -1      2089 1.51330E-02 2.15311E-03-2.18949E-13
 -1      2090 1.49705E-02 2.06714E-03-2.16218E-13
 -1      2091 1.51692E-02 2.18914E-03-2.19143E-13
 -1      2092 1.51951E-02 2.23130E-03-2.18879E-13
 -1      2093 1.51048E-02 2.21737E-03-2.16545E-13
 -1      2094 1.50325E-02 2.14533E-03-2.16161E-13
 -1      2095 1.50046E-02 1.94363E-03-2.20167E-13
 -1      2096 1.50300E-02 1.98511E-03-2.19930E-13
 -1      2097 1.49192E-02 1.98350E-03-2.16708E-13
 -1      2098 1.49530E-02 1.85922E-03-2.20639E-13
 -1      2099 1.49788E-02 1.90143E-03-2.20402E-13
 -1      2100 1.48680E-02 1.89984E-03-2.17183E-13
 -1      2101 1.49015E-02 1.77480E-03-2.21100E-13
 -1      2102 1.49272E-02 1.81701E-03-2.20872E-13
 -1      2103 1.48164E-02 1.81545E-03-2.17652E-13
 -1      2104 1.48500E-02 1.69037E-03-2.21564E-13
 -1      2105 1.48758E-02 1.73259E-03-2.21333E-13
 -1      2106 1.47649E-02 1.73105E-03-2.18116E-13
 -1      2107 1.47987E-02 1.60594E-03-2.22011E-13
 -1      2108 1.48244E-02 1.64816E-03-2.21788E-13
 -1      2109 1.47135E-02 1.64665E-03-2.18573E-13
 -1      2110 1.47475E-02 1.52152E-03-2.22454E-13
 -1      2111 1.47731E-02 1.56373E-03-2.22234E-13
 -1      2112 1.46622E-02 1.56224E-03-2.19017E-13
 -1      2113 1.46972E-02 1.43854E-03-2.22888E-13
 -1      2114 1.47223E-02 1.48002E-03-2.22669E-13
 -1      2115 1.46114E-02 1.47856E-03-2.19453E-13
 -1      2116 1.46461E-02 1.35414E-03-2.23323E-13
 -1      2117 1.46716E-02 1.39634E-03-2.23105E-13
 -1      2118 1.45607E-02 1.39489E-03-2.19878E-13
 -1      2119 1.45951E-02 1.26977E-03-2.23750E-13
 -1      2120 1.46206E-02 1.31195E-03-2.23537E-13
 -1      2121 1.45096E-02 1.31052E-03-2.20302E-13
 -1      2122 1.45441E-02 1.18542E-03-2.24163E-13
 -1      2123 1.45696E-02 1.22759E-03-2.23959E-13
 -1      2124 1.44586E-02 1.22616E-03-2.20717E-13
 -1      2125 7.15086E-03 5.31299E-04-4.02061E-14
 -1      2126 7.28679E-03 4.75771E-04-4.09208E-14
 -1      2127 7.51108E-03 3.75609E-04-4.20860E-14
 -1      2128 7.50005E-03 3.59904E-04-4.22874E-14
 -1      2129 7.41794E-03 4.23742E-04-4.15946E-14
 -1      2130 7.48429E-03 3.99235E-04-4.18364E-14
 -1      2131 7.50677E-03 3.87051E-04-4.30336E-14
 -1      2132 6.81245E-03 6.85918E-04-3.86319E-14
 -1      2133 6.98186E-03 6.05597E-04-3.94223E-14
 -1      2134 6.42355E-03 8.83279E-04-3.68496E-14
 -1      2135 6.61274E-03 7.81886E-04-3.77679E-14
 -1      2136 3.28373E-04-7.00414E-05-3.28703E-16
 -1      2137 3.32189E-04-8.29315E-05-3.17712E-16
 -1      2138 4.51396E-04-1.20280E-04-4.63090E-16
 -1      2139 4.40189E-04-8.60084E-05-4.91821E-16
 -1      2140 5.61599E-03 1.29067E-03-3.16575E-14
 -1      2141 5.77703E-03 1.22872E-03-3.28385E-14
 -1      2142 5.31734E-03 1.32915E-03-2.95664E-14
 -1      2143 5.46515E-03 1.32149E-03-3.06013E-14
 -1      2144 5.53765E-03 1.31781E-03-3.11853E-14
 -1      2145 4.97137E-03 1.25314E-03-2.73248E-14
 -1      2146 5.12667E-03 1.30401E-03-2.83057E-14
 -1      2147 4.61452E-03 1.07185E-03-2.53072E-14
 -1      2148 4.78660E-03 1.17033E-03-2.62183E-14
 -1      2149 4.19242E-03 8.26538E-04-2.36051E-14
 -1      2150 4.38452E-03 9.40485E-04-2.43149E-14
 -1      2151 3.78252E-03 6.05868E-04-2.23827E-14
 -1      2152 3.97221E-03 7.08596E-04-2.29470E-14
 -1      2153 3.40059E-03 4.18503E-04-2.13384E-14
 -1      2154 3.57489E-03 4.96471E-04-2.17506E-14
 -1      2155 3.10065E-03 3.01744E-04-2.07608E-14
 -1      2156 3.22614E-03 3.47823E-04-2.09980E-14
 -1      2157 2.94656E-03 2.39088E-04-2.05748E-14
 -1      2158 2.99905E-03 2.62256E-04-2.06298E-14
 -1      2159 2.94911E-03 1.96177E-04-2.06005E-14
 -1      2160 2.92882E-03 2.12560E-04-2.04940E-14
 -1      2161 3.09473E-03 1.39240E-04-2.11035E-14
 -1      2162 3.00825E-03 1.67674E-04-2.08667E-14
 -1      2163 3.37636E-03 3.72727E-05-2.18725E-14
 -1      2164 3.23697E-03 9.13621E-05-2.14076E-14
 -1      2165 3.68015E-03-1.01137E-04-2.29806E-14
 -1      2166 3.51981E-03-2.69577E-05-2.24193E-14
 -1      2167 3.44414E-03 2.71497E-05-2.14999E-14
 -1      2168 4.06939E-03-2.92607E-04-2.44447E-14
 -1      2169 3.88372E-03-2.02148E-04-2.37933E-14
 -1      2170 4.48520E-03-5.08883E-04-2.65076E-14
 -1      2171 4.32389E-03-4.21193E-04-2.55479E-14
 -1      2172 4.77986E-03-6.30442E-04-2.83505E-14
 -1      2173 4.63485E-03-5.75161E-04-2.74192E-14
 -1      2174 4.57787E-03-5.47856E-04-2.67085E-14
 -1      2175 5.09422E-03-6.83016E-04-3.05470E-14
 -1      2176 4.95781E-03-6.71089E-04-2.95573E-14
 -1      2177 5.39595E-03-6.33013E-04-3.27468E-14
 -1      2178 5.25285E-03-6.69506E-04-3.16749E-14
 -1      2179 5.75636E-03-4.75557E-04-3.51627E-14
 -1      2180 5.59457E-03-5.56354E-04-3.41665E-14
 -1      2181 6.08844E-03-2.78336E-04-3.73045E-14
 -1      2182 5.92303E-03-3.83571E-04-3.62259E-14
 -1      2183 5.81220E-03-4.25350E-04-3.61972E-14
 -1      2184 6.53299E-03-4.26743E-05-3.92296E-14
 -1      2185 6.33873E-03-1.40922E-04-3.85087E-14
 -1      2186 6.91256E-03 1.30551E-04-4.05364E-14
 -1      2187 6.73586E-03 5.27520E-05-3.99501E-14
 -1      2188 7.22523E-03 2.55692E-04-4.15751E-14
 -1      2189 7.08775E-03 2.05413E-04-4.11642E-14
 -1      2190 7.42920E-03 3.27264E-04-4.21780E-14
 -1      2191 7.34082E-03 2.96915E-04-4.18740E-14
 -1      2192 7.27489E-03 2.98098E-04-4.27582E-14
 -1      2193 6.00905E-03 1.11496E-03-3.44645E-14
 -1      2194 6.19821E-03 1.00737E-03-3.55882E-14
 -1      2195 6.30742E-03 9.34647E-04-3.67839E-14
 -1      2196 6.22277E-04-2.71270E-04-4.87335E-16
 -1      2197 5.78181E-03 1.23431E-03-3.32693E-14
 -1      2198 5.88230E-03 1.17878E-03-3.38661E-14
 -1      2199 5.98487E-03 1.12423E-03-3.49090E-14
 -1      2200 6.79302E-04-2.61218E-04-6.56728E-16
 -1      2201 7.35986E-03 4.38737E-04-4.20966E-14
 -1      2202 7.05835E-03 5.51456E-04-4.06187E-14
 -1      2203 1.44820E-02 1.14405E-03-2.23263E-13
 -1      2204 7.47347E-03 3.54922E-04-4.31743E-14
 -1      2205 6.70322E-03 7.15823E-04-3.89456E-14
 -1      2206 6.99158E-03 1.97250E-04-4.18129E-14
 -1      2207 6.19675E-03-1.96952E-04-3.84849E-14
 -1      2208 5.48126E-03-6.00989E-04-3.36904E-14
 -1      2209 4.86935E-03-6.60785E-04-2.88089E-14
 -1      2210 3.77499E-03-1.26196E-04-2.28255E-14
 -1      2211 3.16416E-03 1.26747E-04-2.06760E-14
 -1      2212 2.96951E-03 1.87172E-04-2.01219E-14
 -1      2213 2.92849E-03 2.17181E-04-1.99436E-14
 -1      2214 3.04705E-03 2.63313E-04-2.01508E-14
 -1      2215 3.31950E-03 3.55931E-04-2.06064E-14
 -1      2216 3.69338E-03 5.22892E-04-2.15513E-14
 -1      2217 4.10752E-03 7.47817E-04-2.28163E-14
 -1      2218 4.52595E-03 1.00132E-03-2.44325E-14
 -1      2219 5.23476E-03 1.33084E-03-2.88622E-14
 -1      2220 4.89945E-03 1.21833E-03-2.65081E-14
 -1      2221 4.21593E-03-3.55529E-04-2.47096E-14
 -1      2222 4.10871E-03-2.92494E-04-2.38874E-14
 -1      2223 4.33059E-03-4.18019E-04-2.49676E-14
 -1      2224 5.16213E-03-6.88073E-04-3.11419E-14
 -1      2225 6.62594E-03 3.44335E-05-4.04414E-14
 -1      2226 1.04654E-03 3.46924E-04-1.18918E-15
 -1      2227 8.96445E-04 3.17691E-04-8.71034E-16
 -1      2228 5.33961E-04-3.74995E-05-7.32975E-16
 -1      2229 5.37553E-04-5.07737E-05-7.30048E-16
 -1      2230 5.41908E-04-6.51610E-05-7.25020E-16
 -1      2231 5.46946E-04-8.07649E-05-7.17511E-16
 -1      2232 6.52337E-04-6.88643E-05-9.85797E-16
 -1      2233 5.27490E-04 9.11162E-06-7.26930E-16
 -1      2234 5.27831E-04-1.95209E-06-7.30942E-16
 -1      2235 5.29543E-04 3.14517E-05-7.13866E-16
 -1      2236 5.28057E-04 2.01915E-05-7.21320E-16
 -1      2237 6.36747E-04 1.76981E-05-9.81027E-16
 -1      2238 5.35226E-04 5.51959E-05-6.94079E-16
 -1      2239 5.31940E-04 4.30026E-05-7.05111E-16
 -1      2240 6.40479E-04 4.44608E-05-9.62270E-16
 -1      2241 5.44753E-04 8.32144E-05-6.64291E-16
 -1      2242 5.39540E-04 6.86093E-05-6.80581E-16
 -1      2243 6.48998E-04 7.37784E-05-9.33430E-16
 -1      2244 5.58169E-04 1.17454E-04-6.21451E-16
 -1      2245 5.50996E-04 9.94362E-05-6.44938E-16
 -1      2246 6.62446E-04 1.08306E-04-8.91472E-16
 -1      2247 5.76195E-04 1.60752E-04-5.60139E-16
 -1      2248 5.66600E-04 1.37813E-04-5.93790E-16
 -1      2249 6.80938E-04 1.50408E-04-8.32478E-16
 -1      2250 1.34550E-03 3.90672E-04-1.99023E-15
 -1      2251 1.19599E-03 3.71115E-04-1.56182E-15
 -1      2252 1.09971E-03 3.24271E-04-1.45326E-15
 -1      2253 9.36946E-04-3.03410E-04-1.25948E-15
 -1      2254 1.08556E-03-3.31197E-04-1.65506E-15
 -1      2255 1.23382E-03-3.54611E-04-2.10796E-15
 -1      2256 1.38221E-03-3.74181E-04-2.61912E-15
 -1      2257 1.14079E-03-3.08678E-04-1.93415E-15
 -1      2258 1.53058E-03-3.90946E-04-3.18787E-15
 -1      2259 1.67927E-03-4.05328E-04-3.81472E-15
 -1      2260 1.43601E-03-3.46588E-04-2.96567E-15
 -1      2261 1.82838E-03-4.18248E-04-4.49859E-15
 -1      2262 1.97807E-03-4.30147E-04-5.23945E-15
 -1      2263 1.73232E-03-3.74398E-04-4.22531E-15
 -1      2264 2.12855E-03-4.41834E-04-6.03676E-15
 -1      2265 2.27987E-03-4.53787E-04-6.89113E-15
 -1      2266 2.03073E-03-3.97126E-04-5.71090E-15
 -1      2267 2.43227E-03-4.66722E-04-7.80102E-15
 -1      2268 2.58566E-03-4.81147E-04-8.76703E-15
 -1      2269 2.33247E-03-4.19675E-04-7.41959E-15
 -1      2270 2.74037E-03-4.97664E-04-9.78953E-15
 -1      2271 2.89609E-03-5.16755E-04-1.08671E-14
 -1      2272 2.63879E-03-4.46848E-04-9.35100E-15
 -1      2273 3.05320E-03-5.38825E-04-1.19996E-14
 -1      2274 3.21115E-03-5.64212E-04-1.31870E-14
 -1      2275 2.95073E-03-4.83175E-04-1.15024E-14
 -1      2276 3.37031E-03-5.92973E-04-1.44297E-14
 -1      2277 3.52983E-03-6.25058E-04-1.57275E-14
 -1      2278 3.26872E-03-5.32334E-04-1.38723E-14
 -1      2279 3.68998E-03-6.60005E-04-1.70796E-14
 -1      2280 3.84970E-03-6.97051E-04-1.84877E-14
 -1      2281 3.59185E-03-5.95885E-04-1.64605E-14
 -1      2282 4.00903E-03-7.35047E-04-1.99496E-14
 -1      2283 4.16703E-03-7.72292E-04-2.14672E-14
 -1      2284 3.91730E-03-6.71205E-04-1.92666E-14
 -1      2285 4.32344E-03-8.06972E-04-2.30408E-14
 -1      2286 4.47799E-03-8.36579E-04-2.46700E-14
 -1      2287 4.24032E-03-7.49143E-04-2.22938E-14
 -1      2288 4.63024E-03-8.59057E-04-2.63557E-14
 -1      2289 4.78109E-03-8.71922E-04-2.80966E-14
 -1      2290 4.55610E-03-8.13102E-04-2.55433E-14
 -1      2291 4.93006E-03-8.73701E-04-2.98933E-14
 -1      2292 5.07911E-03-8.63178E-04-3.17462E-14
 -1      2293 4.86320E-03-8.42568E-04-2.90189E-14
 -1      2294 5.22780E-03-8.40199E-04-3.36534E-14
 -1      2295 5.37819E-03-8.05555E-04-3.56149E-14
 -1      2296 5.16585E-03-8.21956E-04-3.27174E-14
 -1      2297 5.52981E-03-7.60504E-04-3.76305E-14
 -1      2298 5.68388E-03-7.07373E-04-3.96997E-14
 -1      2299 5.47161E-03-7.49537E-04-3.66367E-14
 -1      2300 5.83992E-03-6.48179E-04-4.18203E-14
 -1      2301 5.99788E-03-5.85567E-04-4.39922E-14
 -1      2302 5.78590E-03-6.38502E-04-4.07705E-14
 -1      2303 6.15744E-03-5.21483E-04-4.62150E-14
 -1      2304 6.31779E-03-4.57880E-04-4.84859E-14
 -1      2305 6.10845E-03-5.09396E-04-4.51119E-14
 -1      2306 6.47888E-03-3.96127E-04-5.08050E-14
 -1      2307 6.63966E-03-3.37218E-04-5.31720E-14
 -1      2308 6.43487E-03-3.80447E-04-4.96518E-14
 -1      2309 6.80033E-03-2.81856E-04-5.55838E-14
 -1      2310 6.96001E-03-2.30274E-04-5.80391E-14
 -1      2311 6.76020E-03-2.62881E-04-5.43793E-14
 -1      2312 7.11902E-03-1.82643E-04-6.05373E-14
 -1      2313 7.27676E-03-1.38768E-04-6.30759E-14
 -1      2314 7.08107E-03-1.61140E-04-5.92847E-14
 -1      2315 7.43356E-03-9.84794E-05-6.56550E-14
 -1      2316 7.58908E-03-6.14160E-05-6.82736E-14
 -1      2317 7.39615E-03-7.51766E-05-6.43561E-14
 -1      2318 7.74359E-03-2.72421E-05-7.09303E-14
 -1      2319 7.89694E-03 4.42119E-06-7.36232E-14
 -1      2320 7.70549E-03-2.70460E-06-6.95854E-14
 -1      2321 8.04933E-03 3.39529E-05-7.63528E-14
 -1      2322 8.20072E-03 6.16845E-05-7.91179E-14
 -1      2323 8.00980E-03 5.93038E-05-7.49662E-14
 -1      2324 8.35124E-03 8.79661E-05-8.19169E-14
 -1      2325 8.50094E-03 1.13062E-04-8.47498E-14
 -1      2326 8.30997E-03 1.13810E-04-8.04898E-14
 -1      2327 8.64987E-03 1.37259E-04-8.76174E-14
 -1      2328 8.79813E-03 1.60755E-04-9.05202E-14
 -1      2329 8.60685E-03 1.63351E-04-8.61487E-14
 -1      2330 8.94574E-03 1.83768E-04-9.34534E-14
 -1      2331 9.09279E-03 2.06439E-04-9.64182E-14
 -1      2332 8.90113E-03 2.09925E-04-9.19425E-14
 -1      2333 9.23931E-03 2.28920E-04-9.94153E-14
 -1      2334 9.38539E-03 2.51306E-04-1.02443E-13
 -1      2335 9.19338E-03 2.55008E-04-9.78649E-14
 -1      2336 9.53102E-03 2.73696E-04-1.05500E-13
 -1      2337 9.67630E-03 2.96152E-04-1.08586E-13
 -1      2338 9.48404E-03 2.99631E-04-1.03911E-13
 -1      2339 9.82123E-03 3.18730E-04-1.11700E-13
 -1      2340 9.96588E-03 3.41468E-04-1.14840E-13
 -1      2341 9.77345E-03 3.44461E-04-1.10074E-13
 -1      2342 1.01102E-02 3.64392E-04-1.18007E-13
 -1      2343 1.02544E-02 3.87523E-04-1.21200E-13
 -1      2344 1.00619E-02 3.89898E-04-1.16347E-13
 -1      2345 1.03983E-02 4.10867E-04-1.24418E-13
 -1      2346 1.05421E-02 4.34432E-04-1.27660E-13
 -1      2347 1.03496E-02 4.36146E-04-1.22724E-13
 -1      2348 1.06857E-02 4.58210E-04-1.30925E-13
 -1      2349 1.08292E-02 4.82205E-04-1.34212E-13
 -1      2350 1.06367E-02 4.83275E-04-1.29199E-13
 -1      2351 1.09726E-02 5.06400E-04-1.37518E-13
 -1      2352 1.11158E-02 5.30793E-04-1.40844E-13
 -1      2353 1.09234E-02 5.31271E-04-1.35765E-13
 -1      2354 1.12590E-02 5.55366E-04-1.44187E-13
 -1      2355 1.14021E-02 5.80112E-04-1.47548E-13
 -1      2356 1.12098E-02 5.80068E-04-1.42409E-13
 -1      2357 1.15452E-02 6.05013E-04-1.50922E-13
 -1      2358 1.16882E-02 6.30062E-04-1.54315E-13
 -1      2359 1.14959E-02 6.29571E-04-1.49123E-13
 -1      2360 1.18311E-02 6.55240E-04-1.57726E-13
 -1      2361 1.19741E-02 6.80541E-04-1.61151E-13
 -1      2362 1.17819E-02 6.79680E-04-1.55904E-13
 -1      2363 1.21170E-02 7.05947E-04-1.64592E-13
 -1      2364 1.22598E-02 7.31452E-04-1.68050E-13
 -1      2365 1.20678E-02 7.30290E-04-1.62751E-13
 -1      2366 1.24027E-02 7.57041E-04-1.71525E-13
 -1      2367 1.25456E-02 7.82707E-04-1.75015E-13
 -1      2368 1.23536E-02 7.81308E-04-1.69663E-13
 -1      2369 1.26884E-02 8.08438E-04-1.78519E-13
 -1      2370 1.28312E-02 8.34228E-04-1.82037E-13
 -1      2371 1.26393E-02 8.32648E-04-1.76636E-13
 -1      2372 1.29741E-02 8.60067E-04-1.85570E-13
 -1      2373 1.31169E-02 8.85948E-04-1.89117E-13
 -1      2374 1.29250E-02 8.84233E-04-1.83669E-13
 -1      2375 1.32597E-02 9.11864E-04-1.92675E-13
 -1      2376 1.34026E-02 9.37809E-04-1.96243E-13
 -1      2377 1.32107E-02 9.36001E-04-1.90752E-13
 -1      2378 1.35454E-02 9.63776E-04-1.99821E-13
 -1      2379 1.36882E-02 9.89761E-04-2.03410E-13
 -1      2380 1.34964E-02 9.87896E-04-1.97880E-13
 -1      2381 1.38311E-02 1.01576E-03-2.07008E-13
 -1      2382 1.39739E-02 1.04176E-03-2.10612E-13
 -1      2383 1.37821E-02 1.03987E-03-2.05047E-13
 -1      2384 1.94748E-03 4.41326E-04-4.25074E-15
 -1      2385 1.79575E-03 4.31413E-04-3.60370E-15
 -1      2386 2.25471E-03 4.60444E-04-5.70613E-15
 -1      2387 2.10035E-03 4.50798E-04-4.95193E-15
 -1      2388 1.99451E-03 4.08176E-04-4.72560E-15
 -1      2389 2.56856E-03 4.84197E-04-7.37312E-15
 -1      2390 2.41069E-03 4.71312E-04-6.51343E-15
 -1      2391 2.29825E-03 4.26534E-04-6.24624E-15
 -1      2392 2.89087E-03 5.20642E-04-9.24964E-15
 -1      2393 2.72859E-03 5.00289E-04-8.28527E-15
 -1      2394 2.60769E-03 4.50693E-04-7.97520E-15
 -1      2395 3.22355E-03 5.79374E-04-1.13355E-14
 -1      2396 3.05595E-03 5.46556E-04-1.02662E-14
 -1      2397 2.92527E-03 4.88732E-04-9.91235E-15
 -1      2398 3.56838E-03 6.70793E-04-1.36287E-14
 -1      2399 3.39468E-03 6.20285E-04-1.24564E-14
 -1      2400 3.25428E-03 5.50364E-04-1.20565E-14
 -1      2401 3.92586E-03 8.03355E-04-1.61332E-14
 -1      2402 3.74613E-03 7.31473E-04-1.48543E-14
 -1      2403 3.59851E-03 6.46375E-04-1.44072E-14
 -1      2404 4.29258E-03 9.77223E-04-1.88529E-14
 -1      2405 4.10912E-03 8.85650E-04-1.74654E-14
 -1      2406 3.96036E-03 7.86081E-04-1.69664E-14
 -1      2407 4.65826E-03 1.17333E-03-2.18014E-14
 -1      2408 4.47666E-03 1.07507E-03-2.02984E-14
 -1      2409 4.33618E-03 9.70360E-04-1.97429E-14
 -1      2410 5.01173E-03 1.34487E-03-2.49905E-14
 -1      2411 4.83694E-03 1.26618E-03-2.33657E-14
 -1      2412 4.71302E-03 1.17543E-03-2.27501E-14
 -1      2413 5.34932E-03 1.43311E-03-2.84285E-14
 -1      2414 5.18077E-03 1.40280E-03-2.66774E-14
 -1      2415 5.07543E-03 1.34435E-03-2.60018E-14
 -1      2416 5.68540E-03 1.40698E-03-3.21167E-14
 -1      2417 5.51505E-03 1.43399E-03-3.02417E-14
 -1      2418 5.42275E-03 1.40913E-03-2.95069E-14
 -1      2419 6.03600E-03 1.29095E-03-3.60467E-14
 -1      2420 5.85764E-03 1.35619E-03-3.40518E-14
 -1      2421 5.77379E-03 1.34696E-03-3.32645E-14
 -1      2422 6.40228E-03 1.14496E-03-4.02035E-14
 -1      2423 6.21813E-03 1.21787E-03-3.80973E-14
 -1      2424 6.14298E-03 1.20452E-03-3.72641E-14
 -1      2425 6.77239E-03 1.01771E-03-4.45650E-14
 -1      2426 6.58881E-03 1.07712E-03-4.23609E-14
 -1      2427 6.52399E-03 1.05271E-03-4.14843E-14
 -1      2428 7.13395E-03 9.31949E-04-4.91142E-14
 -1      2429 6.95486E-03 9.69213E-04-4.68163E-14
 -1      2430 6.89750E-03 9.35877E-04-4.59021E-14
 -1      2431 7.48401E-03 8.89848E-04-5.38337E-14
 -1      2432 7.31082E-03 9.05848E-04-5.14541E-14
 -1      2433 7.25451E-03 8.65780E-04-5.05003E-14
 -1      2434 7.82225E-03 8.84066E-04-5.87169E-14
 -1      2435 7.65466E-03 8.83059E-04-5.62556E-14
 -1      2436 7.59513E-03 8.38431E-04-5.52641E-14
 -1      2437 8.15036E-03 9.04882E-04-6.37527E-14
 -1      2438 7.98751E-03 8.91706E-04-6.12140E-14
 -1      2439 7.92225E-03 8.43871E-04-6.01868E-14
 -1      2440 8.47007E-03 9.43746E-04-6.89400E-14
 -1      2441 8.31116E-03 9.22495E-04-6.63279E-14
 -1      2442 8.23953E-03 8.72368E-04-6.52628E-14
 -1      2443 8.78287E-03 9.94024E-04-7.42759E-14
 -1      2444 8.62722E-03 9.67777E-04-7.15906E-14
 -1      2445 8.54971E-03 9.16122E-04-7.04910E-14
 -1      2446 9.08996E-03 1.05098E-03-7.97486E-14
 -1      2447 8.93702E-03 1.02189E-03-7.69950E-14
 -1      2448 8.85459E-03 9.69330E-04-7.58637E-14
 -1      2449 9.39235E-03 1.11141E-03-8.53558E-14
 -1      2450 9.24165E-03 1.08091E-03-8.25359E-14
 -1      2451 9.15538E-03 1.02793E-03-8.13717E-14
 -1      2452 9.69089E-03 1.17326E-03-9.10970E-14
 -1      2453 9.54202E-03 1.14225E-03-8.82096E-14
 -1      2454 9.45290E-03 1.08919E-03-8.70140E-14
 -1      2455 9.98632E-03 1.23527E-03-9.69662E-14
 -1      2456 9.83893E-03 1.20431E-03-9.40148E-14
 -1      2457 9.74777E-03 1.15137E-03-9.27894E-14
 -1      2458 1.02793E-02 1.29670E-03-1.02961E-13
 -1      2459 1.01331E-02 1.26609E-03-9.99489E-14
 -1      2460 1.00405E-02 1.21341E-03-9.86911E-14
 -1      2461 1.05703E-02 1.35717E-03-1.09071E-13
 -1      2462 1.04250E-02 1.32707E-03-1.06001E-13
 -1      2463 1.03315E-02 1.27471E-03-1.04715E-13
 -1      2464 1.08598E-02 1.41654E-03-1.15288E-13
 -1      2465 1.07152E-02 1.38701E-03-1.12167E-13
 -1      2466 1.06211E-02 1.33497E-03-1.10852E-13
 -1      2467 1.11481E-02 1.47479E-03-1.21608E-13
 -1      2468 1.10041E-02 1.44581E-03-1.18435E-13
 -1      2469 1.09097E-02 1.39410E-03-1.17097E-13
 -1      2470 1.14356E-02 1.53197E-03-1.28019E-13
 -1      2471 1.12920E-02 1.50351E-03-1.24802E-13
 -1      2472 1.11974E-02 1.45209E-03-1.23440E-13
 -1      2473 1.17225E-02 1.58821E-03-1.34516E-13
 -1      2474 1.15792E-02 1.56021E-03-1.31257E-13
 -1      2475 1.14845E-02 1.50904E-03-1.29876E-13
 -1      2476 1.20090E-02 1.64362E-03-1.41095E-13
 -1      2477 1.18658E-02 1.61601E-03-1.37796E-13
 -1      2478 1.17711E-02 1.56506E-03-1.36393E-13
 -1      2479 1.22951E-02 1.69832E-03-1.47755E-13
 -1      2480 1.21520E-02 1.67105E-03-1.44416E-13
 -1      2481 1.20574E-02 1.62028E-03-1.42993E-13
 -1      2482 1.25810E-02 1.75245E-03-1.54495E-13
 -1      2483 1.24380E-02 1.72545E-03-1.51114E-13
 -1      2484 1.23435E-02 1.67483E-03-1.49670E-13
 -1      2485 1.28667E-02 1.80611E-03-1.61309E-13
 -1      2486 1.27239E-02 1.77933E-03-1.57893E-13
 -1      2487 1.26294E-02 1.72883E-03-1.56429E-13
 -1      2488 1.31524E-02 1.85940E-03-1.68194E-13
 -1      2489 1.30096E-02 1.83280E-03-1.64744E-13
 -1      2490 1.29152E-02 1.78238E-03-1.63262E-13
 -1      2491 1.34381E-02 1.91241E-03-1.75139E-13
 -1      2492 1.32953E-02 1.88594E-03-1.71659E-13
 -1      2493 1.32009E-02 1.83559E-03-1.70160E-13
 -1      2494 1.37237E-02 1.96520E-03-1.82135E-13
 -1      2495 1.35809E-02 1.93882E-03-1.78631E-13
 -1      2496 1.34866E-02 1.88853E-03-1.77118E-13
 -1      2497 1.40093E-02 2.01783E-03-1.89172E-13
 -1      2498 1.38665E-02 1.99153E-03-1.85650E-13
 -1      2499 1.37722E-02 1.94127E-03-1.84124E-13
 -1      2500 1.42950E-02 2.07037E-03-1.96248E-13
 -1      2501 1.41521E-02 2.04411E-03-1.92704E-13
 -1      2502 1.40579E-02 1.99387E-03-1.91170E-13
 -1      2503 1.45806E-02 2.12285E-03-2.03365E-13
 -1      2504 1.44378E-02 2.09661E-03-1.99802E-13
 -1      2505 1.43436E-02 2.04638E-03-1.98259E-13
 -1      2506 1.48663E-02 2.17531E-03-2.10512E-13
 -1      2507 1.47235E-02 2.14908E-03-2.06934E-13
 -1      2508 1.46292E-02 2.09885E-03-2.05381E-13
 -1      2509 1.50146E-02 2.20345E-03-2.14213E-13
 -1      2510 1.47314E-02 1.85607E-03-2.14202E-13
 -1      2511 1.47572E-02 1.89825E-03-2.13966E-13
 -1      2512 1.46798E-02 1.77169E-03-2.14670E-13
 -1      2513 1.47055E-02 1.81388E-03-2.14437E-13
 -1      2514 1.45947E-02 1.81230E-03-2.11226E-13
 -1      2515 1.48339E-02 2.02335E-03-2.13240E-13
 -1      2516 1.48597E-02 2.06551E-03-2.12989E-13
 -1      2517 1.47828E-02 1.94007E-03-2.13725E-13
 -1      2518 1.48082E-02 1.98153E-03-2.13483E-13
 -1      2519 1.46974E-02 1.97992E-03-2.10264E-13
 -1      2520 1.46461E-02 1.89630E-03-2.10750E-13
 -1      2521 1.46283E-02 1.68732E-03-2.15131E-13
 -1      2522 1.46540E-02 1.72951E-03-2.14902E-13
 -1      2523 1.45432E-02 1.72795E-03-2.11691E-13
 -1      2524 1.45769E-02 1.60294E-03-2.15586E-13
 -1      2525 1.46026E-02 1.64513E-03-2.15362E-13
 -1      2526 1.44917E-02 1.64359E-03-2.12154E-13
 -1      2527 1.45256E-02 1.51856E-03-2.16025E-13
 -1      2528 1.45512E-02 1.56074E-03-2.15804E-13
 -1      2529 1.44403E-02 1.55923E-03-2.12600E-13
 -1      2530 1.44753E-02 1.43561E-03-2.16446E-13
 -1      2531 1.45004E-02 1.47708E-03-2.16236E-13
 -1      2532 1.43895E-02 1.47559E-03-2.13027E-13
 -1      2533 1.44242E-02 1.35124E-03-2.16868E-13
 -1      2534 1.44497E-02 1.39343E-03-2.16659E-13
 -1      2535 1.43388E-02 1.39195E-03-2.13444E-13
 -1      2536 1.43732E-02 1.26689E-03-2.17283E-13
 -1      2537 1.43987E-02 1.30907E-03-2.17078E-13
 -1      2538 1.42877E-02 1.30761E-03-2.13860E-13
 -1      2539 1.43222E-02 1.18255E-03-2.17687E-13
 -1      2540 1.43477E-02 1.22472E-03-2.17483E-13
 -1      2541 1.42367E-02 1.22327E-03-2.14262E-13
 -1      2542 6.98274E-03 5.75163E-04-4.11518E-14
 -1      2543 7.13817E-03 5.12334E-04-4.19576E-14
 -1      2544 1.43550E-02 1.12244E-03-2.20005E-13
 -1      2545 7.51246E-03 3.73247E-04-4.45319E-14
 -1      2546 7.44429E-03 3.59166E-04-4.44180E-14
 -1      2547 1.64507E-03 4.20087E-04-3.01107E-15
 -1      2548 1.49501E-03 4.06849E-04-2.47288E-15
 -1      2549 1.69456E-03 3.88905E-04-3.41797E-15
 -1      2550 7.50446E-03 3.95136E-04-4.43121E-14
 -1      2551 7.52983E-03 3.88202E-04-4.45684E-14
 -1      2552 7.06532E-03 2.44861E-04-4.31567E-14
 -1      2553 6.90288E-03 1.81786E-04-4.25090E-14
 -1      2554 6.63463E-03 7.46730E-04-3.93523E-14
 -1      2555 6.80762E-03 6.56612E-04-4.02433E-14
 -1      2556 7.30158E-03 4.53104E-04-4.28778E-14
 -1      2557 7.42435E-03 4.18179E-04-4.35696E-14
 -1      2558 5.54011E-03-5.69130E-04-3.46403E-14
 -1      2559 5.37795E-03-6.43529E-04-3.32092E-14
 -1      2560 3.87819E-03-1.70877E-04-2.26767E-14
 -1      2561 3.69558E-03-8.02072E-05-2.18946E-14
 -1      2562 3.20791E-03 1.15909E-04-2.01350E-14
 -1      2563 3.08221E-03 1.53193E-04-1.98524E-14
 -1      2564 5.29053E-04-1.32894E-05-7.33314E-16
 -1      2565 5.31100E-04-2.50458E-05-7.34100E-16
 -1      2566 6.43024E-04-3.71295E-05-9.93454E-16
 -1      2567 6.37688E-04-8.89960E-06-9.91584E-16
 -1      2568 4.84965E-03 1.18668E-03-2.57440E-14
 -1      2569 5.00112E-03 1.26747E-03-2.68359E-14
 -1      2570 5.46846E-03 1.34153E-03-3.06294E-14
 -1      2571 5.59012E-03 1.31160E-03-3.16868E-14
 -1      2572 5.17116E-03 1.32673E-03-2.81225E-14
 -1      2573 5.32071E-03 1.35097E-03-2.93772E-14
 -1      2574 4.43700E-03 9.28004E-04-2.34437E-14
 -1      2575 4.63126E-03 1.05616E-03-2.44066E-14
 -1      2576 4.00974E-03 6.66287E-04-2.18755E-14
 -1      2577 4.20081E-03 7.80604E-04-2.25046E-14
 -1      2578 3.62015E-03 4.60758E-04-2.06537E-14
 -1      2579 3.81363E-03 5.58413E-04-2.12597E-14
 -1      2580 3.90605E-03 6.00841E-04-2.09564E-14
 -1      2581 3.23703E-03 3.05047E-04-1.97431E-14
 -1      2582 3.39808E-03 3.62581E-04-2.00628E-14
 -1      2583 2.99495E-03 2.35408E-04-1.94413E-14
 -1      2584 3.09081E-03 2.59256E-04-1.95630E-14
 -1      2585 2.91151E-03 2.05900E-04-1.91457E-14
 -1      2586 2.93365E-03 2.15086E-04-1.92270E-14
 -1      2587 2.99744E-03 1.77684E-04-1.95944E-14
 -1      2588 2.93901E-03 1.90398E-04-1.93396E-14
 -1      2589 3.02499E-03 1.61624E-04-1.90653E-14
 -1      2590 3.55635E-03-1.64590E-05-2.13603E-14
 -1      2591 3.42119E-03 3.78028E-05-2.08333E-14
 -1      2592 3.64857E-03-6.77383E-05-2.12098E-14
 -1      2593 5.22257E-03-6.86307E-04-3.18363E-14
 -1      2594 5.09954E-03-6.99615E-04-3.07057E-14
 -1      2595 4.65034E-03-5.88299E-04-2.69486E-14
 -1      2596 4.52701E-03-5.26119E-04-2.60492E-14
 -1      2597 6.71956E-03 1.00932E-04-4.18099E-14
 -1      2598 6.53998E-03 1.19999E-05-4.10650E-14
 -1      2599 4.94084E-03-6.86155E-04-2.93147E-14
 -1      2600 4.79969E-03-6.46216E-04-2.81166E-14
 -1      2601 4.72881E-03-6.29559E-04-2.74300E-14
 -1      2602 5.85608E-03-3.85589E-04-3.72354E-14
 -1      2603 5.71704E-03-4.72865E-04-3.61548E-14
 -1      2604 6.30276E-03-1.16400E-04-3.99237E-14
 -1      2605 6.08415E-03-2.47903E-04-3.86903E-14
 -1      2606 7.33282E-03 3.28613E-04-4.39822E-14
 -1      2607 7.22364E-03 2.99029E-04-4.36722E-14
 -1      2608 6.00792E-04-2.08328E-04-6.05256E-16
 -1      2609 7.98851E-04-2.67063E-04-9.60874E-16
 -1      2610 8.56928E-04-2.52199E-04-1.17263E-15
 -1      2611 5.88833E-04-1.79814E-04-6.41360E-16
 -1      2612 7.78413E-04 2.94570E-04-6.44409E-16
 -1      2613 6.27289E-04 2.52767E-04-4.25265E-16
 -1      2614 5.99083E-04 2.26157E-04-4.40498E-16
 -1      2615 8.33995E-04 2.78727E-04-8.41910E-16
 -1      2616 6.21971E-03 9.89483E-04-3.67833E-14
 -1      2617 6.41222E-03 8.72049E-04-3.80741E-14
 -1      2618 5.10043E-03 1.30929E-03-2.73229E-14
 -1      2619 6.65335E-04-1.05815E-04-9.66390E-16
 -1      2620 5.52777E-04-9.78656E-05-7.06859E-16
 -1      2621 5.59286E-04-1.16652E-04-6.92507E-16
 -1      2622 1.39677E-03 3.62831E-04-2.32681E-15
 -1      2623 5.84201E-04 1.95197E-04-4.91604E-16
 -1      2624 6.10843E-03 1.06255E-03-3.61569E-14
 -1      2625 6.23144E-03 1.00647E-03-3.74261E-14
 -1      2626 6.01411E-03 1.13063E-03-3.55334E-14
 -1      2627 6.42168E-03-4.85408E-05-4.12726E-14
 -1      2628 5.70059E-03 1.27939E-03-3.26909E-14
 -1      2629 5.80756E-03 1.23826E-03-3.37095E-14
 -1      2630 5.63511E-03 1.31431E-03-3.21137E-14
 -1      2631 5.01429E-03-7.00530E-04-2.99808E-14
 -1      2632 6.82103E-03 1.52115E-04-4.31425E-14
 -1      2633 7.41309E-03 3.55792E-04-4.53406E-14
 -1      2634 5.60831E-03-5.34041E-04-3.56472E-14
 -1      2635 1.49204E-02 2.15321E-03-2.12651E-13
 -1      2636 1.48842E-02 2.11720E-03-2.12460E-13
 -1      2637 7.24344E-03 4.80311E-04-4.34199E-14
 -1      2638 6.91674E-03 6.12690E-04-4.15681E-14
 -1      2639 1.41969E-02 1.08013E-03-2.16301E-13
 -1      2640 1.42751E-02 1.14168E-03-2.17222E-13
 -1      2641 1.41641E-02 1.14023E-03-2.13993E-13
 -1      2642 1.40700E-02 1.05851E-03-2.13056E-13
 -1      2643 2.90562E-03 1.93399E-04-1.86256E-14
 -1      2644 7.54180E-03 3.87611E-04-4.58192E-14
 -1      2645 7.02290E-04 2.12172E-04-7.16088E-16
 -1      2646 7.48084E-03 4.11208E-04-4.51028E-14
 -1      2647 2.95066E-03 2.15625E-04-1.86466E-14
 -1      2648 3.50184E-03 4.00924E-04-1.97766E-14
 -1      2649 5.78815E-04-1.54600E-04-6.69630E-16
 -1      2650 5.30053E-03-6.69246E-04-3.27505E-14
 -1      2651 4.31590E-03 8.48911E-04-2.24749E-14
 -1      2652 3.38878E-03 3.26484E-05-1.98483E-14
 -1      2653 3.30110E-03 7.83534E-05-1.99947E-14
 -1      2654 3.19336E-03 1.02566E-04-1.91751E-14
 -1      2655 3.99933E-03-2.41996E-04-2.29192E-14
 -1      2656 6.53978E-03 8.10816E-04-3.93505E-14
 -1      2657 7.15023E-03 2.80282E-04-4.43763E-14
 -1      2658 5.38826E-03 1.35683E-03-2.98569E-14
 -1      2659 4.41806E-03-4.73850E-04-2.51984E-14
 -1      2660 4.30905E-03-4.20513E-04-2.43614E-14
 -1      2661 4.48246E-03-5.23220E-04-2.54215E-14
 -1      2662 4.74053E-03 1.12415E-03-2.47118E-14
 -1      2663 3.14986E-03 2.70344E-04-1.90311E-14
 -1      2664 5.98209E-03-3.09740E-04-3.86396E-14
 -1      2665 1.47476E-02 2.07341E-03-2.09489E-13
 -1      2666 1.40210E-02 1.08262E-03-2.11082E-13
 -1      2667 7.53356E-04 5.95033E-05-1.24838E-15
 -1      2668 7.49648E-04 4.37575E-05-1.26299E-15
 -1      2669 7.47351E-04 2.82544E-05-1.27475E-15
 -1      2670 7.46559E-04 1.29993E-05-1.28401E-15
 -1      2671 8.59279E-04 4.07025E-05-1.60709E-15
 -1      2672 7.83461E-04 1.35138E-04-1.15237E-15
 -1      2673 7.73722E-04 1.13789E-04-1.18304E-15
 -1      2674 8.07681E-04 1.84705E-04-1.07495E-15
 -1      2675 7.94851E-04 1.58673E-04-1.11704E-15
 -1      2676 9.07762E-04 1.63352E-04-1.44633E-15
 -1      2677 1.15328E-03 3.01610E-04-1.73056E-15
 -1      2678 1.00619E-03 2.79274E-04-1.33907E-15
 -1      2679 7.45982E-03 4.31391E-04-4.61577E-14
 -1      2680 7.53790E-03 4.15956E-04-4.69171E-14
 -1      2681 1.44740E-03 3.35240E-04-2.67515E-15
 -1      2682 1.30020E-03 3.20122E-04-2.17565E-15
 -1      2683 1.20617E-03 2.78894E-04-2.02082E-15
 -1      2684 8.17363E-04 2.33411E-04-9.48501E-16
 -1      2685 6.55184E-03 1.84443E-05-4.29177E-14
 -1      2686 6.34330E-03-9.83656E-05-4.17456E-14
 -1      2687 1.34301E-03-3.03575E-04-2.74380E-15
 -1      2688 1.48991E-03-3.18662E-04-3.32056E-15
 -1      2689 1.63714E-03-3.31702E-04-3.95311E-15
 -1      2690 1.78492E-03-3.43110E-04-4.64221E-15
 -1      2691 1.54339E-03-2.90406E-04-3.68352E-15
 -1      2692 1.93330E-03-3.53591E-04-5.38710E-15
 -1      2693 2.08247E-03-3.63617E-04-6.18701E-15
 -1      2694 1.83676E-03-3.11487E-04-5.06579E-15
 -1      2695 2.23262E-03-3.73843E-04-7.04225E-15
 -1      2696 2.38388E-03-3.84823E-04-7.95205E-15
 -1      2697 2.13315E-03-3.29596E-04-6.66851E-15
 -1      2698 2.53658E-03-3.97141E-04-8.91653E-15
 -1      2699 2.69073E-03-4.11437E-04-9.93637E-15
 -1      2700 2.43407E-03-3.49135E-04-8.48792E-15
 -1      2701 2.84677E-03-4.28188E-04-1.10105E-14
 -1      2702 3.00452E-03-4.48069E-04-1.21383E-14
 -1      2703 2.74151E-03-3.74769E-04-1.05236E-14
 -1      2704 3.16449E-03-4.71375E-04-1.33205E-14
 -1      2705 3.32615E-03-4.98659E-04-1.45567E-14
 -1      2706 3.05755E-03-4.11331E-04-1.27751E-14
 -1      2707 3.48992E-03-5.29918E-04-1.58470E-14
 -1      2708 3.65480E-03-5.65101E-04-1.71917E-14
 -1      2709 3.38352E-03-4.63357E-04-1.52408E-14
 -1      2710 3.82102E-03-6.03704E-04-1.85913E-14
 -1      2711 3.98706E-03-6.44579E-04-2.00446E-14
 -1      2712 3.71865E-03-5.33314E-04-1.79219E-14
 -1      2713 4.15277E-03-6.86426E-04-2.15535E-14
 -1      2714 4.31671E-03-7.26503E-04-2.31178E-14
 -1      2715 4.05851E-03-6.18366E-04-2.08202E-14
 -1      2716 4.47837E-03-7.62709E-04-2.47382E-14
 -1      2717 4.63752E-03-7.91014E-04-2.64151E-14
 -1      2718 4.39491E-03-7.05789E-04-2.39391E-14
 -1      2719 4.79348E-03-8.09292E-04-2.81488E-14
 -1      2720 4.94818E-03-8.14001E-04-2.99388E-14
 -1      2721 4.72025E-03-7.70905E-04-2.72832E-14
 -1      2722 5.10107E-03-8.04089E-04-3.17852E-14
 -1      2723 5.25527E-03-7.79195E-04-3.36875E-14
 -1      2724 5.03458E-03-7.84745E-04-3.08569E-14
 -1      2725 5.41012E-03-7.40123E-04-3.56457E-14
 -1      2726 5.56820E-03-6.89585E-04-3.76585E-14
 -1      2727 5.34741E-03-7.32296E-04-3.46571E-14
 -1      2728 5.72872E-03-6.29679E-04-3.97240E-14
 -1      2729 5.89193E-03-5.64753E-04-4.18428E-14
 -1      2730 5.66989E-03-6.23134E-04-3.86803E-14
 -1      2731 6.05720E-03-4.96945E-04-4.40127E-14
 -1      2732 6.22328E-03-4.29338E-04-4.62332E-14
 -1      2733 6.00431E-03-4.85371E-04-4.29164E-14
 -1      2734 6.38989E-03-3.63481E-04-4.85013E-14
 -1      2735 6.55554E-03-3.00913E-04-5.08172E-14
 -1      2736 6.34407E-03-3.45955E-04-4.73543E-14
 -1      2737 6.72034E-03-2.42384E-04-5.31797E-14
 -1      2738 6.88315E-03-1.88132E-04-5.55869E-14
 -1      2739 6.68068E-03-2.20523E-04-5.19842E-14
 -1      2740 7.04436E-03-1.38384E-04-5.80367E-14
 -1      2741 7.20335E-03-9.27348E-05-6.05287E-14
 -1      2742 7.00879E-03-1.14226E-04-5.67939E-14
 -1      2743 7.36060E-03-5.10978E-05-6.30626E-14
 -1      2744 7.51586E-03-1.28882E-05-6.56345E-14
 -1      2745 7.32681E-03-2.60078E-05-6.17731E-14
 -1      2746 7.66955E-03 2.21417E-05-6.82469E-14
 -1      2747 7.82166E-03 5.45380E-05-7.08963E-14
 -1      2748 7.63570E-03 4.75042E-05-6.69128E-14
 -1      2749 7.97250E-03 8.46066E-05-7.35819E-14
 -1      2750 8.12215E-03 1.12787E-04-7.63064E-14
 -1      2751 7.93737E-03 1.10005E-04-7.22040E-14
 -1      2752 8.27084E-03 1.39382E-04-7.90648E-14
 -1      2753 8.41867E-03 1.64718E-04-8.18576E-14
 -1      2754 8.23380E-03 1.64758E-04-7.76442E-14
 -1      2755 8.56577E-03 1.89059E-04-8.46844E-14
 -1      2756 8.71227E-03 2.12638E-04-8.75440E-14
 -1      2757 8.52661E-03 2.14409E-04-8.32251E-14
 -1      2758 8.85822E-03 2.35667E-04-9.04380E-14
 -1      2759 9.00375E-03 2.58303E-04-9.33632E-14
 -1      2760 8.81700E-03 2.60985E-04-8.89376E-14
 -1      2761 9.14888E-03 2.80705E-04-9.63208E-14
 -1      2762 9.29370E-03 3.02975E-04-9.93090E-14
 -1      2763 9.10581E-03 3.05976E-04-9.47821E-14
 -1      2764 9.43823E-03 3.25221E-04-1.02328E-13
 -1      2765 9.58253E-03 3.47510E-04-1.05376E-13
 -1      2766 9.39360E-03 3.50424E-04-1.00751E-13
 -1      2767 9.72661E-03 3.69907E-04-1.08452E-13
 -1      2768 9.87053E-03 3.92451E-04-1.11557E-13
 -1      2769 9.68072E-03 3.95020E-04-1.06837E-13
 -1      2770 1.00143E-02 4.15178E-04-1.14692E-13
 -1      2771 1.01579E-02 4.38107E-04-1.17849E-13
 -1      2772 9.96741E-03 4.40185E-04-1.13040E-13
 -1      2773 1.03014E-02 4.61253E-04-1.21034E-13
 -1      2774 1.04448E-02 4.84622E-04-1.24243E-13
 -1      2775 1.02538E-02 4.86145E-04-1.19349E-13
 -1      2776 1.05882E-02 5.08214E-04-1.27477E-13
 -1      2777 1.07314E-02 5.32027E-04-1.30734E-13
 -1      2778 1.05400E-02 5.32988E-04-1.25759E-13
 -1      2779 1.08746E-02 5.56053E-04-1.34013E-13
 -1      2780 1.10177E-02 5.80285E-04-1.37313E-13
 -1      2781 1.08261E-02 5.80714E-04-1.32265E-13
 -1      2782 1.11608E-02 6.04709E-04-1.40633E-13
 -1      2783 1.13039E-02 6.29316E-04-1.43971E-13
 -1      2784 1.11120E-02 6.29264E-04-1.38860E-13
 -1      2785 1.14469E-02 6.54090E-04-1.47325E-13
 -1      2786 1.15898E-02 6.79023E-04-1.50696E-13
 -1      2787 1.13979E-02 6.78550E-04-1.45530E-13
 -1      2788 1.17328E-02 7.04096E-04-1.54086E-13
 -1      2789 1.18757E-02 7.29300E-04-1.57492E-13
 -1      2790 1.16838E-02 7.28472E-04-1.52269E-13
 -1      2791 1.20186E-02 7.54621E-04-1.60913E-13
 -1      2792 1.21616E-02 7.80049E-04-1.64349E-13
 -1      2793 1.19696E-02 7.78928E-04-1.59075E-13
 -1      2794 1.23044E-02 8.05571E-04-1.67804E-13
 -1      2795 1.24473E-02 8.31177E-04-1.71274E-13
 -1      2796 1.22554E-02 8.29819E-04-1.65946E-13
 -1      2797 1.25902E-02 8.56856E-04-1.74758E-13
 -1      2798 1.27331E-02 8.82601E-04-1.78257E-13
 -1      2799 1.25411E-02 8.81058E-04-1.72882E-13
 -1      2800 1.28759E-02 9.08402E-04-1.81768E-13
 -1      2801 1.30188E-02 9.34252E-04-1.85295E-13
 -1      2802 1.28269E-02 9.32567E-04-1.79874E-13
 -1      2803 1.31616E-02 9.60141E-04-1.88834E-13
 -1      2804 1.33045E-02 9.86066E-04-1.92384E-13
 -1      2805 1.31126E-02 9.84281E-04-1.86918E-13
 -1      2806 1.34474E-02 1.01202E-03-1.95945E-13
 -1      2807 1.35902E-02 1.03799E-03-1.99514E-13
 -1      2808 1.33983E-02 1.03614E-03-1.94012E-13
 -1      2809 1.37331E-02 1.06399E-03-2.03092E-13
 -1      2810 1.38759E-02 1.08999E-03-2.06681E-13
 -1      2811 1.36841E-02 1.08810E-03-2.01145E-13
 -1      2812 2.33746E-03 3.93501E-04-6.79341E-15
 -1      2813 2.18742E-03 3.84280E-04-5.97549E-15
 -1      2814 2.90143E-03 1.80895E-04-1.79770E-14
 -1      2815 2.87674E-03 1.89191E-04-1.77924E-14
 -1      2816 2.03838E-03 3.75793E-04-5.20973E-15
 -1      2817 1.88995E-03 3.67411E-04-4.49600E-15
 -1      2818 2.07899E-03 3.44354E-04-5.70248E-15
 -1      2819 2.95358E-03 4.56818E-04-1.05814E-14
 -1      2820 2.79628E-03 4.34894E-04-9.55712E-15
 -1      2821 3.27871E-03 5.20085E-04-1.27828E-14
 -1      2822 3.11431E-03 4.84543E-04-1.16563E-14
 -1      2823 2.97613E-03 4.24449E-04-1.12564E-14
 -1      2824 3.62298E-03 6.19065E-04-1.51885E-14
 -1      2825 3.44844E-03 5.63971E-04-1.39599E-14
 -1      2826 3.29726E-03 4.87854E-04-1.35140E-14
 -1      2827 3.99119E-03 7.64934E-04-1.78017E-14
 -1      2828 3.80477E-03 6.85221E-04-1.64690E-14
 -1      2829 3.64218E-03 5.88635E-04-1.59736E-14
 -1      2830 4.38105E-03 9.60937E-04-2.06335E-14
 -1      2831 4.18551E-03 8.57210E-04-1.91895E-14
 -1      2832 4.01818E-03 7.41386E-04-1.86398E-14
 -1      2833 4.74870E-03 1.14556E-03-2.38939E-14
 -1      2834 4.54638E-03 1.02887E-03-2.23295E-14
 -1      2835 5.84733E-03 1.27825E-03-3.41804E-14
 -1      2836 5.65762E-03 1.34321E-03-3.22415E-14
 -1      2837 6.22883E-03 1.09802E-03-3.80744E-14
 -1      2838 6.02883E-03 1.18715E-03-3.60212E-14
 -1      2839 7.02683E-03 8.54739E-04-4.72425E-14
 -1      2840 6.84397E-03 8.99206E-04-4.49857E-14
 -1      2841 7.37574E-03 8.03253E-04-5.18881E-14
 -1      2842 7.20462E-03 8.23578E-04-4.95442E-14
 -1      2843 7.16075E-03 7.79180E-04-4.85889E-14
 -1      2844 7.70451E-03 7.91494E-04-5.66962E-14
 -1      2845 7.54235E-03 7.93457E-04-5.42730E-14
 -1      2846 7.49605E-03 7.47376E-04-5.32810E-14
 -1      2847 8.01969E-03 8.07767E-04-6.16599E-14
 -1      2848 7.86348E-03 7.96819E-04-5.91594E-14
 -1      2849 7.81095E-03 7.50103E-04-5.81309E-14
 -1      2850 8.32625E-03 8.43216E-04-6.67768E-14
 -1      2851 8.17380E-03 8.23584E-04-6.41985E-14
 -1      2852 8.11372E-03 7.75946E-04-6.31360E-14
 -1      2853 8.62736E-03 8.91118E-04-7.20439E-14
 -1      2854 8.47731E-03 8.65946E-04-6.93917E-14
 -1      2855 8.40985E-03 8.17217E-04-6.82923E-14
 -1      2856 8.92489E-03 9.46618E-04-7.74518E-14
 -1      2857 8.77645E-03 9.18144E-04-7.47306E-14
 -1      2858 8.70251E-03 8.68393E-04-7.35970E-14
 -1      2859 9.21988E-03 1.00634E-03-8.29960E-14
 -1      2860 9.07262E-03 9.76102E-04-8.02067E-14
 -1      2861 8.99332E-03 9.25545E-04-7.90425E-14
 -1      2862 9.51291E-03 1.06803E-03-8.86753E-14
 -1      2863 9.36657E-03 1.03704E-03-8.58187E-14
 -1      2864 9.28305E-03 9.85937E-04-8.46227E-14
 -1      2865 9.80440E-03 1.13024E-03-9.44834E-14
 -1      2866 9.65880E-03 1.09913E-03-9.15634E-14
 -1      2867 9.57204E-03 1.04772E-03-9.03363E-14
 -1      2868 1.00946E-02 1.19209E-03-1.00418E-13
 -1      2869 9.94962E-03 1.16125E-03-9.74356E-14
 -1      2870 9.86046E-03 1.10972E-03-9.61805E-14
 -1      2871 1.03838E-02 1.25310E-03-1.06470E-13
 -1      2872 1.02393E-02 1.22272E-03-1.03431E-13
 -1      2873 1.01484E-02 1.17120E-03-1.02147E-13
 -1      2874 1.06721E-02 1.31302E-03-1.12636E-13
 -1      2875 1.05280E-02 1.28320E-03-1.09538E-13
 -1      2876 1.04359E-02 1.23177E-03-1.08227E-13
 -1      2877 1.09597E-02 1.37181E-03-1.18905E-13
 -1      2878 1.08160E-02 1.34256E-03-1.15759E-13
 -1      2879 1.07230E-02 1.29127E-03-1.14418E-13
 -1      2880 1.12468E-02 1.42949E-03-1.25274E-13
 -1      2881 1.11033E-02 1.40079E-03-1.22078E-13
 -1      2882 1.10097E-02 1.34965E-03-1.20714E-13
 -1      2883 1.15335E-02 1.48616E-03-1.31730E-13
 -1      2884 1.13902E-02 1.45795E-03-1.28491E-13
 -1      2885 1.12962E-02 1.40697E-03-1.27107E-13
 -1      2886 1.18199E-02 1.54194E-03-1.38269E-13
 -1      2887 1.16767E-02 1.51416E-03-1.34990E-13
 -1      2888 1.15825E-02 1.46332E-03-1.33585E-13
 -1      2889 1.21060E-02 1.59696E-03-1.44889E-13
 -1      2890 1.19630E-02 1.56954E-03-1.41569E-13
 -1      2891 1.18687E-02 1.51884E-03-1.40146E-13
 -1      2892 1.23920E-02 1.65134E-03-1.51587E-13
 -1      2893 1.22490E-02 1.62422E-03-1.48228E-13
 -1      2894 1.21547E-02 1.57363E-03-1.46786E-13
 -1      2895 1.26779E-02 1.70520E-03-1.58364E-13
 -1      2896 1.25349E-02 1.67832E-03-1.54965E-13
 -1      2897 1.24406E-02 1.62783E-03-1.53504E-13
 -1      2898 1.29636E-02 1.75864E-03-1.65213E-13
 -1      2899 1.28208E-02 1.73197E-03-1.61781E-13
 -1      2900 1.27264E-02 1.68155E-03-1.60300E-13
 -1      2901 1.32494E-02 1.81176E-03-1.72127E-13
 -1      2902 1.31065E-02 1.78524E-03-1.68664E-13
 -1      2903 1.30122E-02 1.73489E-03-1.67166E-13
 -1      2904 1.35351E-02 1.86464E-03-1.79097E-13
 -1      2905 1.33922E-02 1.83823E-03-1.75605E-13
 -1      2906 1.32979E-02 1.78792E-03-1.74093E-13
 -1      2907 1.38208E-02 1.91733E-03-1.86113E-13
 -1      2908 1.36779E-02 1.89100E-03-1.82599E-13
 -1      2909 1.35836E-02 1.84073E-03-1.81076E-13
 -1      2910 1.41065E-02 1.96990E-03-1.93170E-13
 -1      2911 1.39636E-02 1.94363E-03-1.89637E-13
 -1      2912 1.38694E-02 1.89338E-03-1.88103E-13
 -1      2913 1.43922E-02 2.02239E-03-2.00268E-13
 -1      2914 1.42493E-02 1.99615E-03-1.96713E-13
 -1      2915 1.41551E-02 1.94592E-03-1.95170E-13
 -1      2916 1.46413E-02 2.06101E-03-2.06655E-13
 -1      2917 1.44984E-02 2.03479E-03-2.03090E-13
 -1      2918 1.44042E-02 1.98456E-03-2.01536E-13
 -1      2919 1.46168E-02 2.00934E-03-2.07186E-13
 -1      2920 1.43551E-02 1.59988E-03-2.09174E-13
 -1      2921 1.43808E-02 1.64205E-03-2.08946E-13
 -1      2922 1.39720E-02 1.10674E-03-2.09117E-13
 -1      2923 1.40680E-02 1.12349E-03-2.11553E-13
 -1      2924 1.39230E-02 1.13085E-03-2.07153E-13
 -1      2925 1.44581E-02 1.76855E-03-2.08252E-13
 -1      2926 1.44839E-02 1.81072E-03-2.08017E-13
 -1      2927 1.43038E-02 1.51554E-03-2.09611E-13
 -1      2928 1.43294E-02 1.55771E-03-2.09396E-13
 -1      2929 1.42185E-02 1.55618E-03-2.06195E-13
 -1      2930 1.44065E-02 1.68422E-03-2.08717E-13
 -1      2931 1.44323E-02 1.72638E-03-2.08484E-13
 -1      2932 1.43214E-02 1.72481E-03-2.05285E-13
 -1      2933 1.42699E-02 1.64049E-03-2.05746E-13
 -1      2934 1.74214E-03 3.58246E-04-3.83551E-15
 -1      2935 1.59459E-03 3.47808E-04-3.22856E-15
 -1      2936 1.49669E-03 3.08097E-04-3.03532E-15
 -1      2937 1.78748E-03 3.28342E-04-4.26345E-15
 -1      2938 3.03250E-03 1.43586E-04-1.83151E-14
 -1      2939 2.95864E-03 1.61617E-04-1.80729E-14
 -1      2940 1.42534E-02 1.43264E-03-2.10029E-13
 -1      2941 1.42786E-02 1.47409E-03-2.09823E-13
 -1      2942 1.41676E-02 1.47258E-03-2.06625E-13
 -1      2943 1.42023E-02 1.34830E-03-2.10444E-13
 -1      2944 1.42278E-02 1.39047E-03-2.10238E-13
 -1      2945 1.41169E-02 1.38898E-03-2.07040E-13
 -1      2946 1.41512E-02 1.26398E-03-2.10850E-13
 -1      2947 1.41767E-02 1.30614E-03-2.10647E-13
 -1      2948 1.40658E-02 1.30466E-03-2.07447E-13
 -1      2949 7.47212E-03 3.71336E-04-4.67096E-14
 -1      2950 7.36993E-03 3.48743E-04-4.62635E-14
 -1      2951 1.41151E-02 1.16435E-03-2.12019E-13
 -1      2952 5.66909E-03-5.04933E-04-3.67018E-14
 -1      2953 5.51432E-03-5.88469E-04-3.51767E-14
 -1      2954 2.91184E-03 2.04589E-04-1.78843E-14
 -1      2955 2.97445E-03 2.18039E-04-1.80913E-14
 -1      2956 6.94994E-04-1.68259E-04-9.27332E-16
 -1      2957 6.92470E-03 1.96175E-04-4.46277E-14
 -1      2958 6.76216E-03 1.23941E-04-4.39077E-14
 -1      2959 4.11218E-03-3.18274E-04-2.30983E-14
 -1      2960 3.90291E-03-2.10700E-04-2.19126E-14
 -1      2961 7.20633E-03 5.07898E-04-4.42619E-14
 -1      2962 7.34882E-03 4.61548E-04-4.52059E-14
 -1      2963 7.44123E-03 4.57320E-04-4.70176E-14
 -1      2964 6.87417E-03 6.52430E-04-4.21981E-14
 -1      2965 7.02660E-03 5.81637E-04-4.31316E-14
 -1      2966 2.64146E-03 4.17876E-04-8.58435E-15
 -1      2967 2.48867E-03 4.04401E-04-7.66303E-15
 -1      2968 2.37242E-03 3.61386E-04-7.34906E-15
 -1      2969 2.67009E-03 3.85565E-04-9.20088E-15
 -1      2970 1.05046E-03-2.64749E-04-1.76031E-15
 -1      2971 1.19660E-03-2.85730E-04-2.22389E-15
 -1      2972 1.25217E-03-2.62216E-04-2.52400E-15
 -1      2973 5.37390E-03-6.47963E-04-3.37594E-14
 -1      2974 5.24092E-03-6.89937E-04-3.23742E-14
 -1      2975 5.44673E-03-6.25763E-04-3.47764E-14
 -1      2976 7.65417E-04 9.43308E-05-1.20861E-15
 -1      2977 7.58646E-04 7.63074E-05-1.23047E-15
 -1      2978 8.68264E-04 7.65209E-05-1.57097E-15
 -1      2979 8.84473E-04 1.16449E-04-1.51861E-15
 -1      2980 5.07167E-03-7.09580E-04-3.06241E-14
 -1      2981 4.93455E-03-6.97881E-04-2.92367E-14
 -1      2982 6.49462E-03 8.64224E-04-3.97183E-14
 -1      2983 6.68592E-03 7.52025E-04-4.10303E-14
 -1      2984 3.80465E-03 5.45742E-04-2.00154E-14
 -1      2985 3.97799E-03 6.43102E-04-2.06040E-14
 -1      2986 6.10350E-03-2.40260E-04-4.01799E-14
 -1      2987 5.90266E-03-3.66943E-04-3.86923E-14
 -1      2988 3.39167E-03 3.53132E-04-1.88085E-14
 -1      2989 3.59317E-03 4.39926E-04-1.93717E-14
 -1      2990 7.57877E-03 4.00187E-04-4.75404E-14
 -1      2991 7.55595E-03 3.92219E-04-4.75042E-14
 -1      2992 3.67580E-03-1.07045E-04-2.06701E-14
 -1      2993 3.55348E-03-5.04456E-05-2.01576E-14
 -1      2994 4.17888E-03 7.75456E-04-2.08194E-14
 -1      2995 4.37388E-03 9.05226E-04-2.17063E-14
 -1      2996 7.63059E-04-6.94896E-05-1.28973E-15
 -1      2997 7.69965E-04-8.90350E-05-1.28176E-15
 -1      2998 3.07547E-03 2.45508E-04-1.82580E-14
 -1      2999 3.20698E-03 2.84272E-04-1.84243E-14
 -1      3000 3.00972E-03 2.28604E-04-1.74995E-14
 -1      3001 4.79170E-03-6.64991E-04-2.78976E-14
 -1      3002 4.66165E-03-6.16572E-04-2.67347E-14
 -1      3003 7.23864E-03 3.10582E-04-4.58065E-14
 -1      3004 7.09511E-03 2.63443E-04-4.52761E-14
 -1      3005 5.35019E-03 1.36878E-03-2.93223E-14
 -1      3006 5.47597E-03 1.36023E-03-3.05754E-14
 -1      3007 5.03363E-03 1.28991E-03-2.64271E-14
 -1      3008 5.17865E-03 1.34340E-03-2.77016E-14
 -1      3009 7.78014E-04-1.10078E-04-1.27026E-15
 -1      3010 7.87093E-04-1.32868E-04-1.25411E-15
 -1      3011 8.90418E-04-1.10991E-04-1.61701E-15
 -1      3012 8.57516E-04 6.33914E-06-1.62943E-15
 -1      3013 7.47216E-04-2.33468E-06-1.29061E-15
 -1      3014 7.49259E-04-1.79933E-05-1.29458E-15
 -1      3015 8.74864E-04 2.19029E-04-1.15786E-15
 -1      3016 7.59700E-03 4.16664E-04-4.86159E-14
 -1      3017 5.93546E-03 1.18760E-03-3.49290E-14
 -1      3018 5.58130E-03 1.34482E-03-3.15532E-14
 -1      3019 5.15407E-03-7.07960E-04-3.15897E-14
 -1      3020 6.67631E-03 7.00332E-05-4.43912E-14
 -1      3021 4.85684E-03-6.92519E-04-2.85082E-14
 -1      3022 5.27237E-03 1.37046E-03-2.83794E-14
 -1      3023 7.32813E-03 3.34156E-04-4.71766E-14
 -1      3024 1.43728E-02 1.80876E-03-2.04813E-13
 -1      3025 1.45095E-02 1.85253E-03-2.07781E-13
 -1      3026 1.45351E-02 1.89433E-03-2.07538E-13
 -1      3027 2.83070E-03 1.78301E-04-1.66182E-14
 -1      3028 2.86503E-03 1.90260E-04-1.72475E-14
 -1      3029 2.86301E-03 1.91561E-04-1.67087E-14
 -1      3030 2.89183E-03 1.62512E-04-1.72477E-14
 -1      3031 4.92682E-03 1.25138E-03-2.52139E-14
 -1      3032 5.18250E-03 1.36438E-03-2.72554E-14
 -1      3033 5.00179E-03 1.30189E-03-2.55551E-14
 -1      3034 5.51780E-03 1.38646E-03-3.06898E-14
 -1      3035 5.33953E-03 1.39088E-03-2.88659E-14
 -1      3036 6.81354E-03 8.05415E-04-4.38318E-14
 -1      3037 6.66002E-03 9.04785E-04-4.25504E-14
 -1      3038 6.46285E-03 9.77810E-04-4.03861E-14
 -1      3039 1.45631E-02 1.93094E-03-2.07487E-13
 -1      3040 1.45888E-02 1.97274E-03-2.07243E-13
 -1      3041 1.44825E-02 1.96036E-03-2.04418E-13
 -1      3042 1.44265E-02 1.88716E-03-2.04525E-13
 -1      3043 7.54469E-03 3.88823E-04-4.84413E-14
 -1      3044 1.41406E-02 1.20651E-03-2.11826E-13
 -1      3045 3.78293E-03-1.84164E-04-2.08291E-14
 -1      3046 3.28516E-03 3.17434E-04-1.80333E-14
 -1      3047 6.24841E-03-1.68102E-04-4.17952E-14
 -1      3048 7.16758E-03 5.48668E-04-4.49073E-14
 -1      3049 4.19080E-03-3.81293E-04-2.33086E-14
 -1      3050 5.79673E-03-4.41517E-04-3.81939E-14
 -1      3051 4.62308E-03-6.25508E-04-2.63092E-14
 -1      3052 4.56104E-03-5.79264E-04-2.58669E-14
 -1      3053 4.45944E-03-5.38154E-04-2.50139E-14
 -1      3054 8.05387E-04-1.63381E-04-1.24427E-15
 -1      3055 8.32473E-04-2.12533E-04-1.20748E-15
 -1      3056 9.66459E-04-2.41734E-04-1.54615E-15
 -1      3057 9.20286E-04-1.67355E-04-1.59234E-15
 -1      3058 7.03859E-03 2.34743E-04-4.60553E-14
 -1      3059 3.42184E-03-1.14534E-05-1.93269E-14
 -1      3060 9.90059E-04 2.23525E-04-1.49983E-15
 -1      3061 7.52634E-04-3.42063E-05-1.29580E-15
 -1      3062 7.57242E-04-5.13258E-05-1.29406E-15
 -1      3063 8.73792E-04-6.73673E-05-1.63549E-15
 -1      3064 8.62589E-04-2.89386E-05-1.63888E-15
 -1      3065 6.81959E-03 7.12429E-04-4.25773E-14
 -1      3066 3.66609E-03 4.84253E-04-1.90308E-14
 -1      3067 1.02425E-03-2.23492E-04-1.79441E-15
 -1      3068 3.09455E-03 1.12109E-04-1.81722E-14
 -1      3069 1.39763E-02 1.16795E-03-2.07886E-13
 -1      3070 1.40979E-02 1.22686E-03-2.10120E-13
 -1      3071 1.39869E-02 1.22540E-03-2.06918E-13
 -1      3072 1.38802E-02 1.15120E-03-2.05456E-13
 -1      3073 7.61915E-03 4.37984E-04-4.99716E-14
 -1      3074 7.65627E-03 4.23925E-04-5.06106E-14
 -1      3075 1.03519E-03 1.92148E-04-1.77186E-15
 -1      3076 1.01975E-03 1.64727E-04-1.82062E-15
 -1      3077 1.16404E-03-2.23233E-04-2.30667E-15
 -1      3078 1.30759E-03-2.38253E-04-2.83432E-15
 -1      3079 3.54090E-03 4.37433E-04-1.79998E-14
 -1      3080 3.73056E-03 5.31567E-04-1.86118E-14
 -1      3081 1.74176E-03-2.71167E-04-4.74825E-15
 -1      3082 1.88781E-03-2.79461E-04-5.49636E-15
 -1      3083 2.03469E-03-2.87210E-04-6.29833E-15
 -1      3084 2.18263E-03-2.94927E-04-7.15443E-15
 -1      3085 1.93783E-03-2.46963E-04-5.93303E-15
 -1      3086 2.33188E-03-3.03097E-04-8.06373E-15
 -1      3087 2.48269E-03-3.12383E-04-9.02666E-15
 -1      3088 2.23071E-03-2.59503E-04-7.64489E-15
 -1      3089 2.63549E-03-3.23225E-04-1.00434E-14
 -1      3090 2.79048E-03-3.36490E-04-1.11135E-14
 -1      3091 2.52955E-03-2.74397E-04-9.56934E-15
 -1      3092 2.94823E-03-3.52556E-04-1.22364E-14
 -1      3093 3.10873E-03-3.72451E-04-1.34127E-14
 -1      3094 2.83743E-03-2.96393E-04-1.17049E-14
 -1      3095 3.27257E-03-3.96543E-04-1.46421E-14
 -1      3096 3.43935E-03-4.25742E-04-1.59246E-14
 -1      3097 3.15780E-03-3.31386E-04-1.40509E-14
 -1      3098 3.60985E-03-4.60047E-04-1.72602E-14
 -1      3099 3.78213E-03-4.99692E-04-1.86498E-14
 -1      3100 3.49377E-03-3.85921E-04-1.66079E-14
 -1      3101 3.95699E-03-5.44298E-04-2.00942E-14
 -1      3102 4.13128E-03-5.92076E-04-2.15924E-14
 -1      3103 3.84519E-03-4.65466E-04-1.93765E-14
 -1      3104 4.30500E-03-6.41297E-04-2.31463E-14
 -1      3105 4.47577E-03-6.87182E-04-2.47569E-14
 -1      3106 4.20417E-03-5.68041E-04-2.23615E-14
 -1      3107 4.64234E-03-7.27162E-04-2.64244E-14
 -1      3108 4.80584E-03-7.53741E-04-2.81492E-14
 -1      3109 4.55625E-03-6.73337E-04-2.55711E-14
 -1      3110 4.96469E-03-7.64830E-04-2.99317E-14
 -1      3111 5.12370E-03-7.55817E-04-3.17725E-14
 -1      3112 4.89126E-03-7.39296E-04-2.90116E-14
 -1      3113 5.60866E-03-6.19136E-04-3.76386E-14
 -1      3114 5.77770E-03-5.49443E-04-3.97044E-14
 -1      3115 5.95007E-03-4.74253E-04-4.18217E-14
 -1      3116 6.12387E-03-3.99505E-04-4.39920E-14
 -1      3117 5.89595E-03-4.66176E-04-4.07292E-14
 -1      3118 6.29863E-03-3.27113E-04-4.62114E-14
 -1      3119 6.47145E-03-2.59146E-04-4.84781E-14
 -1      3120 6.25374E-03-3.08272E-04-4.50691E-14
 -1      3121 6.64264E-03-1.96553E-04-5.07923E-14
 -1      3122 6.81048E-03-1.39504E-04-5.31519E-14
 -1      3123 6.60636E-03-1.70954E-04-4.96037E-14
 -1      3124 6.97549E-03-8.81109E-05-5.55561E-14
 -1      3125 7.13695E-03-4.14855E-05-5.80018E-14
 -1      3126 6.94463E-03-5.99234E-05-5.43211E-14
 -1      3127 7.29553E-03 4.69077E-07-6.04876E-14
 -1      3128 7.45112E-03 3.87713E-05-6.30151E-14
 -1      3129 7.26691E-03 2.86068E-05-5.92083E-14
 -1      3130 7.60432E-03 7.36156E-05-6.55822E-14
 -1      3131 7.75531E-03 1.05823E-04-6.81879E-14
 -1      3132 7.57553E-03 1.00725E-04-6.42569E-14
 -1      3133 7.90456E-03 1.35619E-04-7.08325E-14
 -1      3134 8.05230E-03 1.63595E-04-7.35119E-14
 -1      3135 7.87412E-03 1.61628E-04-6.94627E-14
 -1      3136 8.19885E-03 1.89978E-04-7.62282E-14
 -1      3137 8.34445E-03 2.15170E-04-7.89818E-14
 -1      3138 8.16602E-03 2.15148E-04-7.48181E-14
 -1      3139 8.48929E-03 2.39379E-04-8.17690E-14
 -1      3140 8.63356E-03 2.62869E-04-8.45897E-14
 -1      3141 8.45382E-03 2.64019E-04-8.03177E-14
 -1      3142 8.77737E-03 2.85818E-04-8.74433E-14
 -1      3143 8.92087E-03 3.08394E-04-9.03294E-14
 -1      3144 8.73932E-03 3.10175E-04-8.59522E-14
 -1      3145 9.06410E-03 3.30739E-04-9.32471E-14
 -1      3146 9.20717E-03 3.52954E-04-9.61971E-14
 -1      3147 9.02371E-03 3.54976E-04-9.17173E-14
 -1      3148 9.35010E-03 3.75146E-04-9.91769E-14
 -1      3149 9.49296E-03 3.97373E-04-1.02187E-13
 -1      3150 9.30770E-03 3.99356E-04-9.76084E-14
 -1      3151 9.63575E-03 4.19708E-04-1.05228E-13
 -1      3152 9.77853E-03 4.42180E-04-1.08297E-13
 -1      3153 9.59168E-03 4.43930E-04-1.03622E-13
 -1      3154 9.92127E-03 4.64833E-04-1.11394E-13
 -1      3155 1.00640E-02 4.87681E-04-1.14519E-13
 -1      3156 9.87586E-03 4.89081E-04-1.09754E-13
 -1      3157 1.02068E-02 5.10745E-04-1.17671E-13
 -1      3158 1.03495E-02 5.34027E-04-1.20845E-13
 -1      3159 1.01603E-02 5.35014E-04-1.15996E-13
 -1      3160 1.04923E-02 5.57534E-04-1.24047E-13
 -1      3161 1.06351E-02 5.81259E-04-1.27273E-13
 -1      3162 1.04450E-02 5.81813E-04-1.22339E-13
 -1      3163 1.07779E-02 6.05199E-04-1.30521E-13
 -1      3164 1.09207E-02 6.29346E-04-1.33793E-13
 -1      3165 1.07300E-02 6.29478E-04-1.28783E-13
 -1      3166 1.10635E-02 6.53689E-04-1.37090E-13
 -1      3167 1.12063E-02 6.78217E-04-1.40404E-13
 -1      3168 1.10152E-02 6.77956E-04-1.35322E-13
 -1      3169 1.13492E-02 7.02917E-04-1.43736E-13
 -1      3170 1.14920E-02 7.27777E-04-1.47085E-13
 -1      3171 1.13006E-02 7.27166E-04-1.41945E-13
 -1      3172 1.16349E-02 7.52784E-04-1.50452E-13
 -1      3173 1.17777E-02 7.77926E-04-1.53838E-13
 -1      3174 1.15861E-02 7.77012E-04-1.48639E-13
 -1      3175 1.19206E-02 8.03190E-04-1.57240E-13
 -1      3176 1.20635E-02 8.28565E-04-1.60656E-13
 -1      3177 1.18717E-02 8.27394E-04-1.55404E-13
 -1      3178 1.22063E-02 8.54039E-04-1.64091E-13
 -1      3179 1.23492E-02 8.79602E-04-1.67542E-13
 -1      3180 1.21574E-02 8.78219E-04-1.62237E-13
 -1      3181 1.24921E-02 9.05242E-04-1.71005E-13
 -1      3182 1.26350E-02 9.30953E-04-1.74486E-13
 -1      3183 1.24431E-02 9.29401E-04-1.69132E-13
 -1      3184 1.27778E-02 9.56723E-04-1.77981E-13
 -1      3185 1.29207E-02 9.82547E-04-1.81486E-13
 -1      3186 1.27288E-02 9.80863E-04-1.76088E-13
 -1      3187 1.30636E-02 1.00842E-03-1.85007E-13
 -1      3188 1.32064E-02 1.03432E-03-1.88540E-13
 -1      3189 1.30145E-02 1.03254E-03-1.83098E-13
 -1      3190 1.33493E-02 1.06026E-03-1.92084E-13
 -1      3191 1.34922E-02 1.08623E-03-1.95637E-13
 -1      3192 1.33003E-02 1.08438E-03-1.90157E-13
 -1      3193 1.36148E-02 1.10570E-03-1.98754E-13
 -1      3194 1.37576E-02 1.13170E-03-2.02322E-13
 -1      3195 1.38110E-02 1.16880E-03-2.03055E-13
 -1      3196 1.35658E-02 1.12981E-03-1.96813E-13
 -1      3197 3.16154E-03 6.79158E-05-1.78921E-14
 -1      3198 3.00547E-03 1.06024E-04-1.70649E-14
 -1      3199 2.93530E-03 2.12637E-04-1.66935E-14
 -1      3200 3.02798E-03 2.37362E-04-1.68499E-14
 -1      3201 3.30696E-03 4.53620E-04-1.42496E-14
 -1      3202 3.14659E-03 4.18322E-04-1.30687E-14
 -1      3203 2.99182E-03 3.91650E-04-1.19377E-14
 -1      3204 2.84118E-03 3.70277E-04-1.08559E-14
 -1      3205 3.00055E-03 3.57803E-04-1.26248E-14
 -1      3206 3.91223E-03 6.52131E-04-1.87984E-14
 -1      3207 3.72209E-03 5.71837E-04-1.74408E-14
 -1      3208 7.15618E-03 2.67665E-04-4.78373E-14
 -1      3209 7.00649E-03 2.08014E-04-4.71691E-14
 -1      3210 7.29691E-03 7.09682E-04-4.99383E-14
 -1      3211 7.12806E-03 7.31216E-04-4.76312E-14
 -1      3212 8.20353E-03 7.48366E-04-6.46138E-14
 -1      3213 8.05910E-03 7.29611E-04-6.20727E-14
 -1      3214 8.48980E-03 7.94295E-04-6.98118E-14
 -1      3215 8.34689E-03 7.70147E-04-6.71941E-14
 -1      3216 8.28821E-03 7.24643E-04-6.60957E-14
 -1      3217 8.77475E-03 8.47873E-04-7.51535E-14
 -1      3218 8.63229E-03 8.20327E-04-7.24649E-14
 -1      3219 8.56559E-03 7.73952E-04-7.13320E-14
 -1      3220 9.05957E-03 9.06047E-04-8.06344E-14
 -1      3221 8.91710E-03 8.76519E-04-7.78768E-14
 -1      3222 8.84378E-03 8.29084E-04-7.67123E-14
 -1      3223 9.34466E-03 9.66652E-04-8.62521E-14
 -1      3224 9.20204E-03 9.36135E-04-8.34257E-14
 -1      3225 9.12342E-03 8.87720E-04-8.22299E-14
 -1      3226 9.63010E-03 1.02821E-03-9.20004E-14
 -1      3227 9.48731E-03 9.97369E-04-8.91104E-14
 -1      3228 9.40454E-03 9.48168E-04-8.78828E-14
 -1      3229 9.91582E-03 1.08975E-03-9.78779E-14
 -1      3230 9.77291E-03 1.05901E-03-9.49231E-14
 -1      3231 9.68693E-03 1.00924E-03-9.36670E-14
 -1      3232 1.02017E-02 1.15069E-03-1.03874E-13
 -1      3233 1.00587E-02 1.12031E-03-1.00861E-13
 -1      3234 9.97033E-03 1.07015E-03-9.95756E-14
 -1      3235 1.04877E-02 1.21071E-03-1.09984E-13
 -1      3236 1.03447E-02 1.18082E-03-1.06915E-13
 -1      3237 1.02545E-02 1.13043E-03-1.05603E-13
 -1      3238 1.07737E-02 1.26968E-03-1.16202E-13
 -1      3239 1.06307E-02 1.24033E-03-1.13081E-13
 -1      3240 1.05392E-02 1.18981E-03-1.11742E-13
 -1      3241 1.10597E-02 1.32760E-03-1.22523E-13
 -1      3242 1.09167E-02 1.29877E-03-1.19351E-13
 -1      3243 1.08242E-02 1.24820E-03-1.17987E-13
 -1      3244 1.13457E-02 1.38451E-03-1.28938E-13
 -1      3245 1.12027E-02 1.35617E-03-1.25720E-13
 -1      3246 1.11096E-02 1.30560E-03-1.24332E-13
 -1      3247 1.16316E-02 1.44052E-03-1.35442E-13
 -1      3248 1.14887E-02 1.41262E-03-1.32179E-13
 -1      3249 1.13951E-02 1.36208E-03-1.30774E-13
 -1      3250 1.19175E-02 1.49575E-03-1.42024E-13
 -1      3251 1.17746E-02 1.46822E-03-1.38722E-13
 -1      3252 1.16807E-02 1.41773E-03-1.37297E-13
 -1      3253 1.22034E-02 1.55031E-03-1.48684E-13
 -1      3254 1.20604E-02 1.52311E-03-1.45343E-13
 -1      3255 1.19664E-02 1.47265E-03-1.43901E-13
 -1      3256 1.24892E-02 1.60433E-03-1.55422E-13
 -1      3257 1.23463E-02 1.57738E-03-1.52044E-13
 -1      3258 1.22521E-02 1.52698E-03-1.50583E-13
 -1      3259 1.27750E-02 1.65790E-03-1.62237E-13
 -1      3260 1.26321E-02 1.63116E-03-1.58821E-13
 -1      3261 1.25378E-02 1.58080E-03-1.57342E-13
 -1      3262 1.30607E-02 1.71112E-03-1.69117E-13
 -1      3263 1.29178E-02 1.68455E-03-1.65669E-13
 -1      3264 1.28236E-02 1.63423E-03-1.64174E-13
 -1      3265 1.33465E-02 1.76407E-03-1.76060E-13
 -1      3266 1.32036E-02 1.73762E-03-1.72583E-13
 -1      3267 1.31093E-02 1.68734E-03-1.71070E-13
 -1      3268 1.36322E-02 1.81682E-03-1.83055E-13
 -1      3269 1.34894E-02 1.79046E-03-1.79551E-13
 -1      3270 1.33951E-02 1.74020E-03-1.78029E-13
 -1      3271 1.39180E-02 1.86942E-03-1.90094E-13
 -1      3272 1.37751E-02 1.84313E-03-1.86568E-13
 -1      3273 1.36808E-02 1.79289E-03-1.85036E-13
 -1      3274 1.42037E-02 1.92192E-03-1.97168E-13
 -1      3275 1.40608E-02 1.89568E-03-1.93626E-13
 -1      3276 1.39666E-02 1.84545E-03-1.92081E-13
 -1      3277 1.43962E-02 1.94734E-03-2.02201E-13
 -1      3278 1.42899E-02 1.93495E-03-1.99383E-13
 -1      3279 1.41957E-02 1.88472E-03-1.97830E-13
 -1      3280 1.43682E-02 1.91075E-03-2.02257E-13
 -1      3281 9.72587E-04 5.49367E-05-1.97674E-15
 -1      3282 9.69526E-04 3.59154E-05-1.99406E-15
 -1      3283 1.40819E-02 1.51249E-03-2.03223E-13
 -1      3284 1.41076E-02 1.55463E-03-2.03003E-13
 -1      3285 2.87707E-03 1.45282E-04-1.65602E-14
 -1      3286 2.83408E-03 1.61799E-04-1.64729E-14
 -1      3287 1.39293E-02 1.26104E-03-2.04451E-13
 -1      3288 1.39548E-02 1.30319E-03-2.04252E-13
 -1      3289 4.05923E-03 7.16730E-04-1.98657E-14
 -1      3290 1.40315E-02 1.42963E-03-2.03640E-13
 -1      3291 1.40567E-02 1.47106E-03-2.03432E-13
 -1      3292 1.39458E-02 1.46952E-03-2.00248E-13
 -1      3293 7.60367E-03 3.99473E-04-5.00947E-14
 -1      3294 7.51476E-03 3.79436E-04-4.92845E-14
 -1      3295 6.81799E-03 1.22367E-04-4.62138E-14
 -1      3296 6.63275E-03 2.76176E-05-4.51946E-14
 -1      3297 6.97693E-03 7.10191E-04-4.51201E-14
 -1      3298 1.39803E-02 1.34533E-03-2.04051E-13
 -1      3299 1.40059E-02 1.38748E-03-2.03848E-13
 -1      3300 1.38950E-02 1.38597E-03-2.00663E-13
 -1      3301 1.38438E-02 1.30170E-03-2.01068E-13
 -1      3302 3.87472E-03-2.64758E-04-2.09077E-14
 -1      3303 3.66792E-03-1.74122E-04-1.96974E-14
 -1      3304 7.91331E-03 7.14358E-04-5.95696E-14
 -1      3305 7.76518E-03 7.03835E-04-5.71039E-14
 -1      3306 8.00982E-03 6.84309E-04-6.10098E-14
 -1      3307 7.61402E-03 6.98362E-04-5.46763E-14
 -1      3308 7.45835E-03 7.00292E-04-5.22877E-14
 -1      3309 7.42974E-03 6.51081E-04-5.12943E-14
 -1      3310 7.72630E-03 6.57420E-04-5.60752E-14
 -1      3311 3.16966E-03 2.83581E-04-1.71348E-14
 -1      3312 3.33576E-03 3.45609E-04-1.74977E-14
 -1      3313 4.85601E-03-7.14196E-04-2.85575E-14
 -1      3314 4.72672E-03-6.85104E-04-2.72335E-14
 -1      3315 7.41880E-03 4.87614E-04-4.77722E-14
 -1      3316 7.52031E-03 4.61639E-04-4.87467E-14
 -1      3317 3.59574E-03 5.32196E-04-1.64471E-14
 -1      3318 3.42255E-03 4.78662E-04-1.51787E-14
 -1      3319 3.25746E-03 4.01021E-04-1.46935E-14
 -1      3320 3.48058E-03 4.50014E-04-1.65956E-14
 -1      3321 2.11677E-03 3.14055E-04-6.20451E-15
 -1      3322 1.97377E-03 3.06873E-04-5.42715E-15
 -1      3323 5.50498E-03-6.11077E-04-3.56927E-14
 -1      3324 5.37712E-03-6.63045E-04-3.42655E-14
 -1      3325 6.27322E-03 1.01243E-03-3.80920E-14
 -1      3326 6.36651E-03 9.41145E-04-3.87435E-14
 -1      3327 6.52503E-03 8.80253E-04-4.04041E-14
 -1      3328 5.92608E-03-3.81517E-04-3.98665E-14
 -1      3329 5.71313E-03-5.06378E-04-3.78424E-14
 -1      3330 1.45169E-03-2.51004E-04-3.41731E-15
 -1      3331 1.59645E-03-2.61810E-04-4.05519E-15
 -1      3332 1.64879E-03-2.32821E-04-4.43534E-15
 -1      3333 4.27736E-03-4.54743E-04-2.36118E-14
 -1      3334 4.09861E-03-3.67145E-04-2.23702E-14
 -1      3335 1.00042E-03-1.85787E-04-1.81589E-15
 -1      3336 1.08175E-03-2.04486E-04-2.05414E-15
 -1      3337 9.78913E-04-1.51339E-04-1.82791E-15
 -1      3338 1.15422E-03 2.50952E-04-1.95608E-15
 -1      3339 1.08320E-03 2.16651E-04-1.84458E-15
 -1      3340 1.19563E-03 2.15106E-04-2.27154E-15
 -1      3341 1.29791E-03 2.67019E-04-2.42859E-15
 -1      3342 6.39900E-03-1.04606E-04-4.37870E-14
 -1      3343 6.18559E-03-2.31228E-04-4.21796E-14
 -1      3344 3.42454E-03-6.88172E-05-1.84544E-14
 -1      3345 3.29257E-03 5.86070E-06-1.81745E-14
 -1      3346 3.17076E-03 1.05922E-05-1.70555E-14
 -1      3347 7.13485E-03 5.94516E-04-4.56094E-14
 -1      3348 7.28953E-03 5.32856E-04-4.67713E-14
 -1      3349 5.17860E-03-7.15879E-04-3.20870E-14
 -1      3350 5.02532E-03-7.28141E-04-3.03476E-14
 -1      3351 7.42105E-03 3.54628E-04-4.88156E-14
 -1      3352 7.30408E-03 3.20768E-04-4.83459E-14
 -1      3353 7.50535E-03 3.70180E-04-5.04737E-14
 -1      3354 9.68592E-04 1.70940E-05-2.00731E-15
 -1      3355 9.69723E-04-1.87665E-06-2.01690E-15
 -1      3356 1.08043E-03 2.95268E-05-2.42273E-15
 -1      3357 1.13059E-03 1.63685E-04-2.23930E-15
 -1      3358 1.00618E-03 1.39658E-04-1.86240E-15
 -1      3359 9.94685E-04 1.16456E-04-1.89871E-15
 -1      3360 1.36247E-03-2.13681E-04-3.15465E-15
 -1      3361 6.08460E-03-3.12898E-04-4.18050E-14
 -1      3362 5.24264E-03-7.13250E-04-3.29555E-14
 -1      3363 5.30843E-03-7.15113E-04-3.39461E-14
 -1      3364 1.42363E-02 1.76519E-03-2.01851E-13
 -1      3365 1.42619E-02 1.80698E-03-2.01613E-13
 -1      3366 2.79791E-03 1.63591E-04-1.59473E-14
 -1      3367 2.95060E-03 8.11532E-05-1.60224E-14
 -1      3368 2.91083E-03 1.16992E-04-1.62938E-14
 -1      3369 2.82893E-03 1.20926E-04-1.55397E-14
 -1      3370 5.47196E-03-6.65418E-04-3.59102E-14
 -1      3371 5.57805E-03-6.01771E-04-3.68821E-14
 -1      3372 2.85991E-03 1.95237E-04-1.60757E-14
 -1      3373 2.85814E-03 2.01823E-04-1.54512E-14
 -1      3374 2.79727E-03 1.82054E-04-1.54669E-14
 -1      3375 3.06654E-03 2.58842E-04-1.63356E-14
 -1      3376 1.87235E-03 2.71514E-04-5.14997E-15
 -1      3377 1.83091E-03 2.99398E-04-4.70141E-15
 -1      3378 1.68788E-03 2.91217E-04-4.02789E-15
 -1      3379 2.71189E-03 3.22527E-04-1.04555E-14
 -1      3380 2.69356E-03 3.53886E-04-9.82458E-15
 -1      3381 2.54782E-03 3.40778E-04-8.84315E-15
 -1      3382 6.95726E-03 1.65592E-04-4.79935E-14
 -1      3383 2.25986E-03 3.21686E-04-7.03310E-15
 -1      3384 2.15177E-03 2.84942E-04-6.71608E-15
 -1      3385 2.40350E-03 3.30351E-04-7.91290E-15
 -1      3386 9.77809E-04 7.44056E-05-1.95545E-15
 -1      3387 1.08730E-03 7.04857E-05-2.38259E-15
 -1      3388 9.85139E-04 9.47695E-05-1.92951E-15
 -1      3389 1.41847E-02 1.68089E-03-2.02324E-13
 -1      3390 1.42105E-02 1.72304E-03-2.02088E-13
 -1      3391 1.40996E-02 1.72126E-03-1.98897E-13
 -1      3392 7.72621E-03 4.37913E-04-5.28609E-14
 -1      3393 7.67170E-03 4.18417E-04-5.14736E-14
 -1      3394 7.67198E-03 4.12488E-04-5.23378E-14
 -1      3395 1.41333E-02 1.59669E-03-2.02780E-13
 -1      3396 1.41590E-02 1.63883E-03-2.02553E-13
 -1      3397 1.40480E-02 1.63707E-03-1.99366E-13
 -1      3398 1.39967E-02 1.55298E-03-1.99818E-13
 -1      3399 3.59307E-03-2.16301E-04-1.85772E-14
 -1      3400 3.51573E-03-1.41338E-04-1.85197E-14
 -1      3401 3.36979E-03-1.20610E-04-1.73778E-14
 -1      3402 3.96353E-03-3.42358E-04-2.11821E-14
 -1      3403 6.55406E-03-4.24858E-05-4.55912E-14
 -1      3404 7.62101E-03 4.60886E-04-5.07478E-14
 -1      3405 3.39931E-03 3.88273E-04-1.70974E-14
 -1      3406 6.35590E-03 1.04428E-03-3.93961E-14
 -1      3407 7.39524E-03 5.27781E-04-4.84948E-14
 -1      3408 4.54907E-03-6.34242E-04-2.55479E-14
 -1      3409 5.65004E-03-5.51230E-04-3.74253E-14
 -1      3410 1.13879E-03-1.84501E-04-2.32557E-15
 -1      3411 4.35338E-03-5.18171E-04-2.40284E-14
 -1      3412 1.38434E-02 1.19637E-03-2.03390E-13
 -1      3413 1.38968E-02 1.23346E-03-2.04118E-13
 -1      3414 1.37858E-02 1.23200E-03-2.00933E-13
 -1      3415 1.37208E-02 1.17686E-03-2.00265E-13
 -1      3416 9.56949E-04-1.00645E-04-1.86107E-15
 -1      3417 9.67245E-04-1.25096E-04-1.84705E-15
 -1      3418 1.04517E-03-1.39666E-04-2.09191E-15
 -1      3419 7.12779E-03 6.36014E-04-4.63416E-14
 -1      3420 7.27534E-03 2.96952E-04-4.94827E-14
 -1      3421 9.40477E-04-5.64374E-05-1.87487E-15
 -1      3422 9.47971E-04-7.78389E-05-1.87000E-15
 -1      3423 1.02311E-03-8.88593E-05-2.11987E-15
 -1      3424 1.56502E-03 2.86496E-04-3.47038E-15
 -1      3425 1.42155E-03 2.75286E-04-2.89658E-15
 -1      3426 1.36828E-03 2.48804E-04-2.81200E-15
 -1      3427 1.61152E-03 2.60399E-04-3.85846E-15
 -1      3428 3.29571E-03 3.65010E-04-1.61244E-14
 -1      3429 2.73807E-03 1.47722E-04-1.49021E-14
 -1      3430 2.74744E-03 1.64072E-04-1.50427E-14
 -1      3431 2.13125E-03-2.18595E-04-7.23141E-15
 -1      3432 2.27707E-03-2.23345E-04-8.13982E-15
 -1      3433 2.42448E-03-2.28602E-04-9.10081E-15
 -1      3434 2.57396E-03-2.35168E-04-1.01148E-14
 -1      3435 2.32147E-03-1.86319E-04-8.63956E-15
 -1      3436 2.72601E-03-2.43334E-04-1.11803E-14
 -1      3437 2.88116E-03-2.54364E-04-1.22981E-14
 -1      3438 2.61558E-03-1.94471E-04-1.06630E-14
 -1      3439 3.04017E-03-2.68561E-04-1.34676E-14
 -1      3440 3.20338E-03-2.87677E-04-1.46891E-14
 -1      3441 2.92117E-03-2.10173E-04-1.28928E-14
 -1      3442 3.39373E-03-2.76250E-04-1.63689E-14
 -1      3443 3.56822E-03-3.08455E-04-1.77064E-14
 -1      3444 3.72081E-03-3.40703E-04-1.88748E-14
 -1      3445 3.90556E-03-3.90239E-04-2.03095E-14
 -1      3446 4.10488E-03-4.76271E-04-2.17527E-14
 -1      3447 4.29146E-03-5.38458E-04-2.32985E-14
 -1      3448 5.77807E-03-5.01121E-04-3.90692E-14
 -1      3449 1.11093E-03-1.26542E-04-2.37162E-15
 -1      3450 1.12413E-03-1.54566E-04-2.35161E-15
 -1      3451 1.20418E-03-1.69808E-04-2.62621E-15
 -1      3452 6.57402E-03-1.42611E-04-4.84175E-14
 -1      3453 6.74832E-03-8.19228E-05-5.07312E-14
 -1      3454 6.91827E-03-2.92455E-05-5.30898E-14
 -1      3455 7.08248E-03 1.75438E-05-5.54917E-14
 -1      3456 6.89665E-03 4.23849E-06-5.18623E-14
 -1      3457 7.24231E-03 5.85347E-05-5.79335E-14
 -1      3458 7.39789E-03 9.55706E-05-6.04148E-14
 -1      3459 7.22214E-03 9.06100E-05-5.66614E-14
 -1      3460 7.55009E-03 1.28843E-04-6.29368E-14
 -1      3461 7.69941E-03 1.59602E-04-6.54983E-14
 -1      3462 7.52830E-03 1.58271E-04-6.16220E-14
 -1      3463 7.84640E-03 1.87997E-04-6.80981E-14
 -1      3464 7.99161E-03 2.14821E-04-7.07369E-14
 -1      3465 7.82159E-03 2.14919E-04-6.67391E-14
 -1      3466 8.13539E-03 2.40215E-04-7.34131E-14
 -1      3467 8.27816E-03 2.64650E-04-7.61239E-14
 -1      3468 8.10704E-03 2.65286E-04-7.20094E-14
 -1      3469 8.42014E-03 2.88265E-04-7.88693E-14
 -1      3470 8.56163E-03 3.11334E-04-8.16508E-14
 -1      3471 8.38826E-03 3.12166E-04-7.74276E-14
 -1      3472 8.70275E-03 3.33984E-04-8.44643E-14
 -1      3473 8.84370E-03 3.56373E-04-8.73122E-14
 -1      3474 8.66762E-03 3.57257E-04-8.29827E-14
 -1      3475 8.98454E-03 3.78610E-04-9.01922E-14
 -1      3476 9.12541E-03 4.00780E-04-9.31032E-14
 -1      3477 8.94654E-03 4.01627E-04-8.86697E-14
 -1      3478 9.26630E-03 4.22971E-04-9.60454E-14
 -1      3479 9.40731E-03 4.45225E-04-9.90188E-14
 -1      3480 9.22585E-03 4.45965E-04-9.44866E-14
 -1      3481 9.54843E-03 4.67608E-04-1.02022E-13
 -1      3482 9.68970E-03 4.90135E-04-1.05056E-13
 -1      3483 9.50595E-03 4.90705E-04-1.00427E-13
 -1      3484 9.83110E-03 5.12852E-04-1.08119E-13
 -1      3485 9.97267E-03 5.35759E-04-1.11209E-13
 -1      3486 9.78698E-03 5.36109E-04-1.06486E-13
 -1      3487 1.01144E-02 5.58882E-04-1.14326E-13
 -1      3488 1.02562E-02 5.82213E-04-1.17470E-13
 -1      3489 1.00689E-02 5.82311E-04-1.12662E-13
 -1      3490 1.03982E-02 6.05765E-04-1.20639E-13
 -1      3491 1.05403E-02 6.29525E-04-1.23833E-13
 -1      3492 1.03518E-02 6.29355E-04-1.18943E-13
 -1      3493 1.06825E-02 6.53497E-04-1.27052E-13
 -1      3494 1.08248E-02 6.77664E-04-1.30293E-13
 -1      3495 1.06353E-02 6.77225E-04-1.25324E-13
 -1      3496 1.09672E-02 7.02024E-04-1.33558E-13
 -1      3497 1.11097E-02 7.26560E-04-1.36849E-13
 -1      3498 1.09194E-02 7.25862E-04-1.31802E-13
 -1      3499 1.12522E-02 7.51265E-04-1.40156E-13
 -1      3500 1.13948E-02 7.76125E-04-1.43481E-13
 -1      3501 1.12040E-02 7.75189E-04-1.38369E-13
 -1      3502 1.15375E-02 8.01128E-04-1.46827E-13
 -1      3503 1.16802E-02 8.26264E-04-1.50191E-13
 -1      3504 1.14890E-02 8.25114E-04-1.45017E-13
 -1      3505 1.18229E-02 8.51519E-04-1.53570E-13
 -1      3506 1.19657E-02 8.76883E-04-1.56968E-13
 -1      3507 1.17742E-02 8.75547E-04-1.51739E-13
 -1      3508 1.21085E-02 9.02344E-04-1.60384E-13
 -1      3509 1.22513E-02 9.27894E-04-1.63816E-13
 -1      3510 1.20597E-02 9.26401E-04-1.58531E-13
 -1      3511 1.23941E-02 9.53522E-04-1.67262E-13
 -1      3512 1.25370E-02 9.79220E-04-1.70722E-13
 -1      3513 1.23452E-02 9.77596E-04-1.65392E-13
 -1      3514 1.26798E-02 1.00498E-03-1.74199E-13
 -1      3515 1.28227E-02 1.03079E-03-1.77690E-13
 -1      3516 1.26309E-02 1.02906E-03-1.72313E-13
 -1      3517 1.29656E-02 1.05665E-03-1.81192E-13
 -1      3518 1.31084E-02 1.08255E-03-1.84707E-13
 -1      3519 1.29166E-02 1.08074E-03-1.79289E-13
 -1      3520 1.32513E-02 1.10848E-03-1.88235E-13
 -1      3521 1.33942E-02 1.13444E-03-1.91773E-13
 -1      3522 1.32023E-02 1.13257E-03-1.86314E-13
 -1      3523 8.63696E-03 7.55960E-04-7.28546E-14
 -1      3524 8.50173E-03 7.29516E-04-7.01988E-14
 -1      3525 3.00038E-03 3.24422E-04-1.33176E-14
 -1      3526 2.86111E-03 3.06242E-04-1.21811E-14
 -1      3527 1.43011E-02 1.84057E-03-2.01962E-13
 -1      3528 1.43291E-02 1.87716E-03-2.01911E-13
 -1      3529 1.42428E-02 1.86415E-03-1.99699E-13
 -1      3530 1.41645E-02 1.79698E-03-1.99006E-13
 -1      3531 8.36729E-03 7.04485E-04-6.75799E-14
 -1      3532 8.23319E-03 6.81072E-04-6.49964E-14
 -1      3533 8.44036E-03 6.87021E-04-6.90655E-14
 -1      3534 9.18477E-03 8.70445E-04-8.38286E-14
 -1      3535 9.04674E-03 8.40881E-04-8.10336E-14
 -1      3536 9.46260E-03 9.30393E-04-8.95175E-14
 -1      3537 9.32337E-03 9.00295E-04-8.66558E-14
 -1      3538 9.24362E-03 8.53811E-04-8.54292E-14
 -1      3539 9.74247E-03 9.90751E-04-9.53357E-14
 -1      3540 9.60228E-03 9.60552E-04-9.24117E-14
 -1      3541 9.51882E-03 9.13016E-04-9.11536E-14
 -1      3542 1.00239E-02 1.05088E-03-1.01276E-13
 -1      3543 9.88302E-03 1.02086E-03-9.82903E-14
 -1      3544 9.79668E-03 9.72505E-04-9.70052E-14
 -1      3545 1.03066E-02 1.11038E-03-1.07333E-13
 -1      3546 1.01652E-02 1.08071E-03-1.04290E-13
 -1      3547 1.00766E-02 1.03174E-03-1.02978E-13
 -1      3548 1.05903E-02 1.16904E-03-1.13501E-13
 -1      3549 1.04483E-02 1.13982E-03-1.10404E-13
 -1      3550 1.03582E-02 1.09040E-03-1.09066E-13
 -1      3551 1.08745E-02 1.22680E-03-1.19773E-13
 -1      3552 1.07323E-02 1.19803E-03-1.16624E-13
 -1      3553 1.06409E-02 1.14831E-03-1.15261E-13
 -1      3554 1.11593E-02 1.28365E-03-1.26142E-13
 -1      3555 1.10169E-02 1.25533E-03-1.22945E-13
 -1      3556 1.09245E-02 1.20540E-03-1.21559E-13
 -1      3557 1.14444E-02 1.33967E-03-1.32607E-13
 -1      3558 1.13018E-02 1.31176E-03-1.29364E-13
 -1      3559 1.12088E-02 1.26169E-03-1.27955E-13
 -1      3560 1.17297E-02 1.39493E-03-1.39156E-13
 -1      3561 1.15870E-02 1.36739E-03-1.35872E-13
 -1      3562 1.14936E-02 1.31723E-03-1.34444E-13
 -1      3563 1.20152E-02 1.44955E-03-1.45781E-13
 -1      3564 1.18724E-02 1.42232E-03-1.42458E-13
 -1      3565 1.17787E-02 1.37211E-03-1.41016E-13
 -1      3566 1.23008E-02 1.50363E-03-1.52486E-13
 -1      3567 1.21580E-02 1.47665E-03-1.49124E-13
 -1      3568 1.20640E-02 1.42642E-03-1.47664E-13
 -1      3569 1.25865E-02 1.55726E-03-1.59264E-13
 -1      3570 1.24436E-02 1.53050E-03-1.55866E-13
 -1      3571 1.23496E-02 1.48026E-03-1.54389E-13
 -1      3572 1.28722E-02 1.61054E-03-1.66112E-13
 -1      3573 1.27293E-02 1.58394E-03-1.62680E-13
 -1      3574 1.26352E-02 1.53370E-03-1.61187E-13
 -1      3575 1.31579E-02 1.66354E-03-1.73025E-13
 -1      3576 1.30151E-02 1.63707E-03-1.69559E-13
 -1      3577 1.29209E-02 1.58683E-03-1.68052E-13
 -1      3578 1.34437E-02 1.71632E-03-1.79995E-13
 -1      3579 1.33008E-02 1.68995E-03-1.76504E-13
 -1      3580 1.32066E-02 1.63972E-03-1.74978E-13
 -1      3581 1.37295E-02 1.76895E-03-1.87013E-13
 -1      3582 1.35866E-02 1.74265E-03-1.83498E-13
 -1      3583 1.34923E-02 1.69242E-03-1.81962E-13
 -1      3584 7.39922E-03 3.23707E-04-5.14217E-14
 -1      3585 7.27109E-03 2.75725E-04-5.08957E-14
 -1      3586 7.58825E-03 3.82594E-04-5.23900E-14
 -1      3587 7.50053E-03 3.57445E-04-5.19079E-14
 -1      3588 7.50264E-03 3.40627E-04-5.33498E-14
 -1      3589 7.09865E-03 2.03406E-04-5.00085E-14
 -1      3590 6.93186E-03 1.26695E-04-4.90241E-14
 -1      3591 8.09960E-03 6.59647E-04-6.24525E-14
 -1      3592 7.96561E-03 6.40682E-04-5.99473E-14
 -1      3593 8.18153E-03 6.39367E-04-6.38997E-14
 -1      3594 1.31669E-03 2.23670E-04-2.72368E-15
 -1      3595 1.26689E-03 1.99701E-04-2.63193E-15
 -1      3596 1.43735E-03 2.30345E-04-3.21774E-15
 -1      3597 9.51494E-04-1.90739E-05-1.94744E-15
 -1      3598 9.56102E-04-3.87567E-05-1.94963E-15
 -1      3599 1.02900E-03-4.68122E-05-2.20707E-15
 -1      3600 1.06198E-03-9.48382E-06-2.36219E-15
 -1      3601 1.84316E-03-2.09103E-04-5.57262E-15
 -1      3602 1.98673E-03-2.14024E-04-6.37575E-15
 -1      3603 2.03431E-03-1.80571E-04-6.82406E-15
 -1      3604 2.96065E-03 2.37275E-04-1.54330E-14
 -1      3605 3.08770E-03 2.79879E-04-1.57001E-14
 -1      3606 1.34442E-03-1.80225E-04-3.18728E-15
 -1      3607 8.90945E-03 8.11860E-04-7.82728E-14
 -1      3608 8.77279E-03 7.83445E-04-7.55472E-14
 -1      3609 8.97172E-03 7.95667E-04-7.98373E-14
 -1      3610 1.55832E-03-1.96795E-04-4.12661E-15
 -1      3611 1.70043E-03-2.03488E-04-4.82291E-15
 -1      3612 1.75121E-03-1.73729E-04-5.21806E-15
 -1      3613 1.38095E-02 1.42622E-03-1.97281E-13
 -1      3614 1.38347E-02 1.46762E-03-1.97074E-13
 -1      3615 7.62668E-03 4.94844E-04-5.17952E-14
 -1      3616 7.71891E-03 4.72214E-04-5.30517E-14
 -1      3617 3.11886E-03-2.50461E-05-1.61084E-14
 -1      3618 3.01603E-03 2.93631E-05-1.58555E-14
 -1      3619 6.73950E-03 1.24808E-05-4.82786E-14
 -1      3620 6.53603E-03-1.03179E-04-4.68172E-14
 -1      3621 5.95916E-03-4.15831E-04-4.11740E-14
 -1      3622 7.42229E-03 5.61053E-04-4.97353E-14
 -1      3623 7.53322E-03 5.22549E-04-5.07649E-14
 -1      3624 7.65966E-03 5.26032E-04-5.30708E-14
 -1      3625 6.19543E-03-2.83165E-04-4.35281E-14
 -1      3626 6.38002E-03-2.03877E-04-4.57410E-14
 -1      3627 1.24860E-03 1.71187E-04-2.68867E-15
 -1      3628 7.77401E-03 4.28426E-04-5.52130E-14
 -1      3629 7.68855E-03 4.07042E-04-5.37977E-14
 -1      3630 7.70378E-03 3.98674E-04-5.52662E-14
 -1      3631 3.16104E-03 3.28880E-04-1.52267E-14
 -1      3632 2.90875E-03 4.58793E-05-1.51127E-14
 -1      3633 2.78058E-03 1.97329E-04-1.42562E-14
 -1      3634 2.86482E-03 2.14682E-04-1.48400E-14
 -1      3635 2.87033E-03 2.31402E-04-1.42351E-14
 -1      3636 3.26052E-03-2.04158E-04-1.57196E-14
 -1      3637 1.09918E-03-1.00317E-04-2.38512E-15
 -1      3638 1.17622E-03-1.12197E-04-2.66546E-15
 -1      3639 1.08904E-03-7.56719E-05-2.39362E-15
 -1      3640 8.70379E-03 7.39634E-04-7.43807E-14
 -1      3641 1.34962E-02 1.14590E-03-1.94458E-13
 -1      3642 1.36188E-02 1.16539E-03-1.97566E-13
 -1      3643 1.36513E-02 1.19295E-03-1.97902E-13
 -1      3644 1.34472E-02 1.17000E-03-1.92524E-13
 -1      3645 1.91237E-03 2.44866E-04-5.60913E-15
 -1      3646 1.77521E-03 2.38366E-04-4.87184E-15
 -1      3647 2.73276E-03 2.63050E-04-1.17386E-14
 -1      3648 2.72496E-03 2.92353E-04-1.10936E-14
 -1      3649 2.58940E-03 2.80933E-04-1.00547E-14
 -1      3650 2.73756E-03 1.27185E-04-1.46510E-14
 -1      3651 2.66057E-03 1.30336E-04-1.37858E-14
 -1      3652 2.74846E-03 1.02280E-04-1.43956E-14
 -1      3653 2.43078E-03 3.00329E-04-8.48512E-15
 -1      3654 1.37582E-02 1.34198E-03-1.97695E-13
 -1      3655 1.37838E-02 1.38410E-03-1.97490E-13
 -1      3656 1.36727E-02 1.38222E-03-1.94323E-13
 -1      3657 1.10415E-03 1.14243E-04-2.32233E-15
 -1      3658 7.56922E-03 6.02891E-04-5.28480E-14
 -1      3659 7.42660E-03 6.00378E-04-5.04896E-14
 -1      3660 7.24412E-03 2.41149E-04-5.19548E-14
 -1      3661 6.89514E-03 6.13765E-05-5.02946E-14
 -1      3662 1.40152E-02 1.82147E-03-1.94072E-13
 -1      3663 1.38723E-02 1.79522E-03-1.90540E-13
 -1      3664 1.41565E-02 1.85113E-03-1.97486E-13
 -1      3665 7.76430E-03 4.62233E-04-5.39378E-14
 -1      3666 7.79646E-03 4.55390E-04-5.48250E-14
 -1      3667 7.79448E-03 4.91092E-04-5.50145E-14
 -1      3668 1.38603E-02 1.50965E-03-1.96857E-13
 -1      3669 1.38860E-02 1.55168E-03-1.96637E-13
 -1      3670 1.37239E-02 1.46633E-03-1.93900E-13
 -1      3671 3.23266E-03-1.44806E-04-1.59451E-14
 -1      3672 3.16455E-03-8.26968E-05-1.59017E-14
 -1      3673 3.00200E-03-5.89825E-05-1.47392E-14
 -1      3674 3.06037E-03-1.68326E-04-1.43113E-14
 -1      3675 1.39629E-02 1.67751E-03-1.95949E-13
 -1      3676 1.39887E-02 1.71964E-03-1.95711E-13
 -1      3677 2.72123E-03 1.67295E-04-1.44412E-14
 -1      3678 7.26523E-03 6.18381E-04-4.82228E-14
 -1      3679 7.83717E-03 6.24537E-04-5.75781E-14
 -1      3680 7.70108E-03 6.11920E-04-5.51449E-14
 -1      3681 7.68885E-03 5.66979E-04-5.43113E-14
 -1      3682 7.93183E-03 5.98783E-04-5.89846E-14
 -1      3683 3.06612E-03 3.16194E-04-1.43058E-14
 -1      3684 2.18462E-03 2.57267E-04-7.23656E-15
 -1      3685 2.04875E-03 2.51078E-04-6.39740E-15
 -1      3686 1.95114E-03 2.19491E-04-6.07831E-15
 -1      3687 1.20339E-03 8.71825E-05-2.82344E-15
 -1      3688 1.19675E-03 6.50715E-05-2.85186E-15
 -1      3689 1.38865E-02 1.72356E-03-1.92649E-13
 -1      3690 1.40232E-02 1.76733E-03-1.95589E-13
 -1      3691 1.39902E-03-1.55922E-04-3.51145E-15
 -1      3692 2.92110E-03 2.65485E-04-1.38197E-14
 -1      3693 1.30629E-03 5.83596E-05-3.36229E-15
 -1      3694 1.19298E-03 4.33770E-05-2.87471E-15
 -1      3695 1.19207E-03 2.17507E-05-2.89271E-15
 -1      3696 1.37781E-02 1.74500E-03-1.88993E-13
 -1      3697 1.36838E-02 1.22051E-03-1.98235E-13
 -1      3698 1.40623E-02 1.80091E-03-1.95935E-13
 -1      3699 1.35783E-02 1.21631E-03-1.95282E-13
 -1      3700 1.37128E-02 1.25535E-03-1.98305E-13
 -1      3701 1.37383E-02 1.29748E-03-1.98110E-13
 -1      3702 1.34762E-02 1.20483E-03-1.92598E-13
 -1      3703 2.50721E-03-1.50079E-04-1.01530E-14
 -1      3704 2.65340E-03-1.52733E-04-1.12142E-14
 -1      3705 2.77763E-03-1.54943E-04-1.21466E-14
 -1      3706 2.92993E-03-1.61699E-04-1.33010E-14
 -1      3707 2.90810E-03-1.09826E-04-1.35154E-14
 -1      3708 2.66310E-03-1.08618E-04-1.15926E-14
 -1      3709 4.45607E-03-6.04870E-04-2.46954E-14
 -1      3710 7.77211E-03 5.41649E-04-5.53724E-14
 -1      3711 1.38815E-03 1.76866E-04-3.28429E-15
 -1      3712 1.25467E-03 1.44437E-04-2.83466E-15
 -1      3713 7.20842E-03 1.24491E-04-5.53927E-14
 -1      3714 7.36220E-03 1.58595E-04-5.78312E-14
 -1      3715 7.51133E-03 1.88591E-04-6.03113E-14
 -1      3716 7.65716E-03 2.16396E-04-6.28292E-14
 -1      3717 7.49968E-03 2.20154E-04-5.90034E-14
 -1      3718 7.80018E-03 2.42059E-04-6.53853E-14
 -1      3719 7.94140E-03 2.66620E-04-6.79806E-14
 -1      3720 7.78244E-03 2.69612E-04-6.40363E-14
 -1      3721 8.08110E-03 2.90126E-04-7.06135E-14
 -1      3722 8.21996E-03 3.13085E-04-7.32846E-14
 -1      3723 8.05767E-03 3.14816E-04-6.92220E-14
 -1      3724 8.35813E-03 3.35562E-04-7.59902E-14
 -1      3725 8.49605E-03 3.57802E-04-7.87298E-14
 -1      3726 8.32975E-03 3.58473E-04-7.45556E-14
 -1      3727 8.63379E-03 3.79875E-04-8.15044E-14
 -1      3728 8.77161E-03 4.01897E-04-8.43133E-14
 -1      3729 8.60121E-03 4.01835E-04-8.00319E-14
 -1      3730 8.90954E-03 4.23936E-04-8.71529E-14
 -1      3731 9.04774E-03 4.46036E-04-9.00266E-14
 -1      3732 8.87347E-03 4.45517E-04-8.56412E-14
 -1      3733 9.18619E-03 4.68259E-04-9.29323E-14
 -1      3734 9.32499E-03 4.90614E-04-9.58683E-14
 -1      3735 9.14725E-03 4.89827E-04-9.13807E-14
 -1      3736 9.46410E-03 5.13152E-04-9.88359E-14
 -1      3737 9.60357E-03 5.35864E-04-1.01833E-13
 -1      3738 9.42282E-03 5.34917E-04-9.72482E-14
 -1      3739 9.74337E-03 5.58788E-04-1.04860E-13
 -1      3740 9.88350E-03 5.81905E-04-1.07917E-13
 -1      3741 9.70020E-03 5.80855E-04-1.03239E-13
 -1      3742 1.00239E-02 6.05244E-04-1.11002E-13
 -1      3743 1.01647E-02 6.28780E-04-1.14112E-13
 -1      3744 9.97927E-03 6.27647E-04-1.09346E-13
 -1      3745 1.03056E-02 6.52532E-04-1.17249E-13
 -1      3746 1.04469E-02 6.76474E-04-1.20415E-13
 -1      3747 1.02598E-02 6.75263E-04-1.15562E-13
 -1      3748 1.05883E-02 7.00616E-04-1.23602E-13
 -1      3749 1.07300E-02 7.24936E-04-1.26813E-13
 -1      3750 1.05416E-02 7.23643E-04-1.21883E-13
 -1      3751 1.08718E-02 7.49434E-04-1.30050E-13
 -1      3752 1.10138E-02 7.74092E-04-1.33308E-13
 -1      3753 1.08245E-02 7.72714E-04-1.28302E-13
 -1      3754 1.11560E-02 7.98905E-04-1.36588E-13
 -1      3755 1.12983E-02 8.23858E-04-1.39889E-13
 -1      3756 1.11081E-02 8.22393E-04-1.34811E-13
 -1      3757 1.14406E-02 8.48942E-04-1.43209E-13
 -1      3758 1.15831E-02 8.74145E-04-1.46551E-13
 -1      3759 1.13924E-02 8.72595E-04-1.41406E-13
 -1      3760 1.17256E-02 8.99459E-04-1.49910E-13
 -1      3761 1.18682E-02 9.24871E-04-1.53286E-13
 -1      3762 1.16771E-02 9.23238E-04-1.48083E-13
 -1      3763 1.20109E-02 9.50373E-04-1.56681E-13
 -1      3764 1.21536E-02 9.75955E-04-1.60095E-13
 -1      3765 1.19622E-02 9.74247E-04-1.54834E-13
 -1      3766 1.22964E-02 1.00161E-03-1.63522E-13
 -1      3767 1.24392E-02 1.02733E-03-1.66966E-13
 -1      3768 1.22476E-02 1.02555E-03-1.61654E-13
 -1      3769 1.25820E-02 1.05310E-03-1.70427E-13
 -1      3770 1.27248E-02 1.07893E-03-1.73900E-13
 -1      3771 1.25331E-02 1.07710E-03-1.68541E-13
 -1      3772 1.28676E-02 1.10480E-03-1.77387E-13
 -1      3773 1.30105E-02 1.13071E-03-1.80885E-13
 -1      3774 1.28187E-02 1.12883E-03-1.75485E-13
 -1      3775 1.31534E-02 1.15665E-03-1.84394E-13
 -1      3776 1.32962E-02 1.18261E-03-1.87918E-13
 -1      3777 1.31044E-02 1.18070E-03-1.82478E-13
 -1      3778 2.82898E-03 1.98736E-05-1.40768E-14
 -1      3779 2.78531E-03 6.52244E-05-1.42411E-14
 -1      3780 2.67672E-03 7.73321E-05-1.33937E-14
 -1      3781 9.84961E-03 9.54434E-04-9.86776E-14
 -1      3782 9.71107E-03 9.25176E-04-9.57203E-14
 -1      3783 7.39150E-03 2.74218E-04-5.41789E-14
 -1      3784 7.23833E-03 2.08310E-04-5.32638E-14
 -1      3785 9.57325E-03 8.95943E-04-9.27932E-14
 -1      3786 9.43618E-03 8.66727E-04-8.98959E-14
 -1      3787 9.62601E-03 8.78906E-04-9.44340E-14
 -1      3788 9.30001E-03 8.37686E-04-8.70324E-14
 -1      3789 9.16477E-03 8.08809E-04-8.42021E-14
 -1      3790 9.35411E-03 8.21710E-04-8.86396E-14
 -1      3791 1.01284E-02 1.01270E-03-1.04682E-13
 -1      3792 9.98872E-03 9.83606E-04-1.01665E-13
 -1      3793 9.90130E-03 9.36335E-04-1.00353E-13
 -1      3794 1.04090E-02 1.07047E-03-1.10800E-13
 -1      3795 1.02685E-02 1.04165E-03-1.07728E-13
 -1      3796 1.01793E-02 9.93602E-04-1.06389E-13
 -1      3797 1.06911E-02 1.12758E-03-1.17024E-13
 -1      3798 1.05499E-02 1.09911E-03-1.13899E-13
 -1      3799 1.04593E-02 1.05046E-03-1.12535E-13
 -1      3800 1.09742E-02 1.18399E-03-1.23347E-13
 -1      3801 1.08325E-02 1.15587E-03-1.20173E-13
 -1      3802 1.07409E-02 1.10677E-03-1.18787E-13
 -1      3803 1.12582E-02 1.23970E-03-1.29770E-13
 -1      3804 1.11161E-02 1.21193E-03-1.26547E-13
 -1      3805 1.10237E-02 1.16250E-03-1.25139E-13
 -1      3806 1.15427E-02 1.29476E-03-1.36284E-13
 -1      3807 1.14004E-02 1.26731E-03-1.33015E-13
 -1      3808 1.13073E-02 1.21764E-03-1.31587E-13
 -1      3809 1.18276E-02 1.34926E-03-1.42876E-13
 -1      3810 1.16851E-02 1.32208E-03-1.39570E-13
 -1      3811 1.15917E-02 1.27223E-03-1.38123E-13
 -1      3812 1.21129E-02 1.40326E-03-1.49548E-13
 -1      3813 1.19702E-02 1.37632E-03-1.46201E-13
 -1      3814 1.18765E-02 1.32635E-03-1.44739E-13
 -1      3815 1.23983E-02 1.45685E-03-1.56294E-13
 -1      3816 1.22555E-02 1.43010E-03-1.52913E-13
 -1      3817 1.21616E-02 1.38005E-03-1.51433E-13
 -1      3818 1.26839E-02 1.51011E-03-1.63109E-13
 -1      3819 1.25411E-02 1.48352E-03-1.59693E-13
 -1      3820 1.24470E-02 1.43341E-03-1.58199E-13
 -1      3821 1.29695E-02 1.56310E-03-1.69991E-13
 -1      3822 1.28267E-02 1.53664E-03-1.66542E-13
 -1      3823 1.27326E-02 1.48649E-03-1.65032E-13
 -1      3824 1.32553E-02 1.61589E-03-1.76935E-13
 -1      3825 1.31124E-02 1.58952E-03-1.73456E-13
 -1      3826 1.30182E-02 1.53934E-03-1.71932E-13
 -1      3827 1.35410E-02 1.66851E-03-1.83931E-13
 -1      3828 1.33981E-02 1.64222E-03-1.80427E-13
 -1      3829 1.33039E-02 1.59203E-03-1.78893E-13
 -1      3830 8.50742E-03 6.71832E-04-7.05569E-14
 -1      3831 8.38044E-03 6.46726E-04-6.79350E-14
 -1      3832 1.94045E-03-1.45546E-04-6.42284E-15
 -1      3833 2.08047E-03-1.46812E-04-7.27791E-15
 -1      3834 2.64466E-03 1.55965E-04-1.34545E-14
 -1      3835 2.70312E-03 1.74987E-04-1.38562E-14
 -1      3836 2.69008E-03 1.85556E-04-1.32781E-14
 -1      3837 2.45475E-03 2.71752E-04-9.06568E-15
 -1      3838 2.31975E-03 2.64028E-04-8.12611E-15
 -1      3839 2.47557E-03 2.44580E-04-9.65433E-15
 -1      3840 1.39116E-02 1.59358E-03-1.96411E-13
 -1      3841 1.39373E-02 1.63561E-03-1.96180E-13
 -1      3842 1.38264E-02 1.63399E-03-1.93003E-13
 -1      3843 1.37752E-02 1.55022E-03-1.93459E-13
 -1      3844 7.61319E-03 3.58577E-04-5.54460E-14
 -1      3845 7.52213E-03 3.25581E-04-5.49449E-14
 -1      3846 7.05980E-03 1.06381E-04-5.26467E-14
 -1      3847 1.52252E-03 2.28860E-04-3.62582E-15
 -1      3848 1.47092E-03 2.05335E-04-3.51843E-15
 -1      3849 1.47166E-03 1.75430E-04-3.69369E-15
 -1      3850 1.64164E-03 2.32991E-04-4.19369E-15
 -1      3851 2.22130E-03-1.47702E-04-8.18482E-15
 -1      3852 2.36348E-03-1.48730E-04-9.14344E-15
 -1      3853 2.12506E-03-1.12703E-04-7.73726E-15
 -1      3854 1.66238E-03-1.40983E-04-4.86923E-15
 -1      3855 1.80119E-03-1.43705E-04-5.61983E-15
 -1      3856 1.85030E-03-1.13398E-04-6.02819E-15
 -1      3857 1.31412E-03-1.22156E-04-3.22842E-15
 -1      3858 1.52207E-03-1.33451E-04-4.17379E-15
 -1      3859 1.57503E-03-1.07143E-04-4.52898E-15
 -1      3860 1.30053E-03-9.38950E-05-3.24082E-15
 -1      3861 8.25543E-03 6.22874E-04-6.53491E-14
 -1      3862 8.13201E-03 6.00121E-04-6.28027E-14
 -1      3863 8.32137E-03 6.08653E-04-6.68036E-14
 -1      3864 8.76614E-03 7.24686E-04-7.59100E-14
 -1      3865 8.63594E-03 6.97791E-04-7.32149E-14
 -1      3866 8.56873E-03 6.57926E-04-7.20509E-14
 -1      3867 9.03066E-03 7.80314E-04-8.14039E-14
 -1      3868 8.89771E-03 7.52179E-04-7.86399E-14
 -1      3869 9.08651E-03 7.65307E-04-8.29745E-14
 -1      3870 2.81804E-03 2.40462E-04-1.32620E-14
 -1      3871 1.24119E-03 1.19437E-04-2.87827E-15
 -1      3872 1.37436E-02 1.69732E-03-1.89119E-13
 -1      3873 1.36494E-02 1.64713E-03-1.87570E-13
 -1      3874 7.84167E-03 4.52574E-04-5.63181E-14
 -1      3875 7.88010E-03 4.49029E-04-5.78203E-14
 -1      3876 7.89700E-03 4.77676E-04-5.74221E-14
 -1      3877 7.83491E-03 4.17004E-04-5.83411E-14
 -1      3878 7.73002E-03 3.89886E-04-5.68893E-14
 -1      3879 7.75990E-03 3.79073E-04-5.85253E-14
 -1      3880 2.21552E-03 2.31061E-04-7.76644E-15
 -1      3881 1.10266E-03-5.53226E-05-2.48038E-15
 -1      3882 1.17712E-03-6.42881E-05-2.76915E-15
 -1      3883 1.11749E-03-3.53607E-05-2.56484E-15
 -1      3884 7.51905E-03 2.98558E-04-5.62886E-14
 -1      3885 8.08879E-03 5.63868E-04-6.18062E-14
 -1      3886 8.01590E-03 5.79339E-04-6.03933E-14
 -1      3887 7.90114E-03 5.59736E-04-5.80193E-14
 -1      3888 1.68655E-03 2.08936E-04-4.60161E-15
 -1      3889 1.34273E-02 1.22890E-03-1.90662E-13
 -1      3890 2.70068E-03 2.30366E-04-1.21322E-14
 -1      3891 2.58092E-03 2.22114E-04-1.10495E-14
 -1      3892 2.67118E-03 2.02014E-04-1.25200E-14
 -1      3893 1.35981E-02 1.56341E-03-1.88036E-13
 -1      3894 1.36238E-02 1.60526E-03-1.87806E-13
 -1      3895 1.34211E-02 1.57649E-03-1.82627E-13
 -1      3896 2.59088E-03 1.16568E-04-1.28978E-14
 -1      3897 2.60754E-03 1.36166E-04-1.31340E-14
 -1      3898 1.36272E-02 1.29563E-03-1.94942E-13
 -1      3899 8.82429E-03 7.10428E-04-7.74431E-14
 -1      3900 2.57016E-03 1.43910E-04-1.25807E-14
 -1      3901 2.40280E-03-1.10465E-04-9.65103E-15
 -1      3902 7.85778E-03 5.22661E-04-5.67424E-14
 -1      3903 7.90705E-03 5.11042E-04-5.76560E-14
 -1      3904 1.98955E-03 1.95553E-04-6.55744E-15
 -1      3905 1.85910E-03 1.90067E-04-5.75900E-15
 -1      3906 1.35874E-02 1.42272E-03-1.90951E-13
 -1      3907 1.36130E-02 1.46471E-03-1.90736E-13
 -1      3908 1.35361E-02 1.33855E-03-1.91366E-13
 -1      3909 1.35617E-02 1.38063E-03-1.91162E-13
 -1      3910 1.34508E-02 1.37903E-03-1.88007E-13
 -1      3911 7.21556E-03 1.80257E-04-5.37738E-14
 -1      3912 1.73129E-03 1.85883E-04-5.02068E-15
 -1      3913 1.60197E-03 1.81171E-04-4.33192E-15
 -1      3914 1.77616E-03 1.63895E-04-5.45039E-15
 -1      3915 1.16210E-03 2.89197E-06-2.77016E-15
 -1      3916 1.14442E-03-1.68140E-05-2.69018E-15
 -1      3917 1.21677E-03-2.35309E-05-2.99271E-15
 -1      3918 1.27305E-03 1.57526E-05-3.25601E-15
 -1      3919 1.34897E-03 1.13915E-04-3.39575E-15
 -1      3920 1.42029E-03 7.43230E-05-3.88472E-15
 -1      3921 1.41596E-03 5.07728E-05-3.91371E-15
 -1      3922 1.46097E-03 1.40158E-04-3.83004E-15
 -1      3923 1.41884E-03 1.05468E-04-3.77331E-15
 -1      3924 1.52540E-03 9.83475E-05-4.36002E-15
 -1      3925 1.53939E-03 1.65848E-04-4.09411E-15
 -1      3926 2.88702E-03-6.73490E-05-1.37028E-14
 -1      3927 2.85626E-03-1.82879E-05-1.39021E-14
 -1      3928 2.72780E-03 5.90271E-06-1.30706E-14
 -1      3929 2.76739E-03-6.86359E-05-1.27200E-14
 -1      3930 8.15008E-03 5.51562E-04-6.31999E-14
 -1      3931 8.04297E-03 5.30632E-04-6.07855E-14
 -1      3932 2.60217E-03 5.52696E-05-1.24769E-14
 -1      3933 2.58439E-03 8.81819E-05-1.26247E-14
 -1      3934 7.76872E-03 2.96771E-04-6.26892E-14
 -1      3935 7.90328E-03 3.18014E-04-6.52416E-14
 -1      3936 8.03673E-03 3.38850E-04-6.78326E-14
 -1      3937 8.16995E-03 3.59704E-04-7.04616E-14
 -1      3938 8.01830E-03 3.62253E-04-6.64478E-14
 -1      3939 8.30292E-03 3.80606E-04-7.31256E-14
 -1      3940 8.43617E-03 4.01674E-04-7.58255E-14
 -1      3941 8.27756E-03 4.01928E-04-7.16988E-14
 -1      3942 8.56963E-03 4.22955E-04-7.85618E-14
 -1      3943 8.70362E-03 4.44470E-04-8.13296E-14
 -1      3944 8.53892E-03 4.43203E-04-7.70948E-14
 -1      3945 8.83807E-03 4.66256E-04-8.41322E-14
 -1      3946 8.97315E-03 4.88283E-04-8.69672E-14
 -1      3947 8.80321E-03 4.86120E-04-8.26267E-14
 -1      3948 9.10878E-03 5.10590E-04-8.98350E-14
 -1      3949 9.24506E-03 5.33130E-04-9.27348E-14
 -1      3950 9.07067E-03 5.30517E-04-8.82926E-14
 -1      3951 9.38190E-03 5.55942E-04-9.56649E-14
 -1      3952 9.51935E-03 5.78976E-04-9.86274E-14
 -1      3953 9.34123E-03 5.76197E-04-9.40855E-14
 -1      3954 9.65733E-03 6.02263E-04-1.01620E-13
 -1      3955 9.79586E-03 6.25756E-04-1.04642E-13
 -1      3956 9.61465E-03 6.22982E-04-1.00005E-13
 -1      3957 9.93486E-03 6.49479E-04-1.07693E-13
 -1      3958 1.00743E-02 6.73392E-04-1.10772E-13
 -1      3959 9.89060E-03 6.70712E-04-1.06044E-13
 -1      3960 1.02142E-02 6.97511E-04-1.13877E-13
 -1      3961 1.03545E-02 7.21801E-04-1.17009E-13
 -1      3962 1.01687E-02 7.19251E-04-1.12196E-13
 -1      3963 1.04951E-02 7.46272E-04-1.20166E-13
 -1      3964 1.06360E-02 7.70893E-04-1.23349E-13
 -1      3965 1.04487E-02 7.68478E-04-1.18454E-13
 -1      3966 1.07772E-02 7.95672E-04-1.26556E-13
 -1      3967 1.09187E-02 8.20582E-04-1.29786E-13
 -1      3968 1.07301E-02 8.18286E-04-1.24813E-13
 -1      3969 1.10603E-02 8.45625E-04-1.33039E-13
 -1      3970 1.12022E-02 8.70781E-04-1.36310E-13
 -1      3971 1.10127E-02 8.68584E-04-1.31268E-13
 -1      3972 1.13442E-02 8.96049E-04-1.39607E-13
 -1      3973 1.14864E-02 9.21412E-04-1.42922E-13
 -1      3974 1.12962E-02 9.19289E-04-1.37809E-13
 -1      3975 1.16287E-02 9.46867E-04-1.46257E-13
 -1      3976 1.17711E-02 9.72401E-04-1.49613E-13
 -1      3977 1.15803E-02 9.70331E-04-1.44436E-13
 -1      3978 1.19136E-02 9.98009E-04-1.52987E-13
 -1      3979 1.20562E-02 1.02368E-03-1.56379E-13
 -1      3980 1.18651E-02 1.02165E-03-1.51142E-13
 -1      3981 1.21988E-02 1.04942E-03-1.59788E-13
 -1      3982 1.23415E-02 1.07520E-03-1.63213E-13
 -1      3983 1.21501E-02 1.07319E-03-1.57922E-13
 -1      3984 1.24843E-02 1.10103E-03-1.66655E-13
 -1      3985 1.26271E-02 1.12690E-03-1.70112E-13
 -1      3986 1.24355E-02 1.12490E-03-1.64770E-13
 -1      3987 1.27699E-02 1.15281E-03-1.73581E-13
 -1      3988 1.29127E-02 1.17875E-03-1.77064E-13
 -1      3989 1.27210E-02 1.17675E-03-1.71678E-13
 -1      3990 1.30555E-02 1.20472E-03-1.80559E-13
 -1      3991 1.31984E-02 1.23071E-03-1.84065E-13
 -1      3992 1.30067E-02 1.22871E-03-1.78641E-13
 -1      3993 9.67719E-03 8.61827E-04-9.60783E-14
 -1      3994 9.54113E-03 8.33715E-04-9.31478E-14
 -1      3995 2.51535E-03 9.72479E-05-1.20063E-14
 -1      3996 1.34472E-02 1.27336E-03-1.90255E-13
 -1      3997 1.02293E-02 9.74398E-04-1.08097E-13
 -1      3998 1.00903E-02 9.46291E-04-1.05050E-13
 -1      3999 7.37084E-03 2.18182E-04-5.60274E-14
 -1      4000 9.95186E-03 9.18153E-04-1.02028E-13
 -1      4001 9.81413E-03 8.89965E-04-9.90389E-14
 -1      4002 9.72700E-03 8.44500E-04-9.77245E-14
 -1      4003 1.00014E-02 8.99732E-04-1.03710E-13
 -1      4004 9.40608E-03 8.05771E-04-9.02492E-14
 -1      4005 9.27213E-03 7.77963E-04-8.73824E-14
 -1      4006 9.45618E-03 7.89595E-04-9.18611E-14
 -1      4007 1.05089E-02 1.03034E-03-1.14275E-13
 -1      4008 1.03689E-02 1.00241E-03-1.11172E-13
 -1      4009 1.02786E-02 9.54975E-04-1.09809E-13
 -1      4010 1.07902E-02 1.08586E-03-1.20553E-13
 -1      4011 1.06494E-02 1.05815E-03-1.17401E-13
 -1      4012 1.05581E-02 1.01003E-03-1.16014E-13
 -1      4013 1.10728E-02 1.14091E-03-1.26932E-13
 -1      4014 1.09314E-02 1.11344E-03-1.23730E-13
 -1      4015 1.08393E-02 1.06478E-03-1.22321E-13
 -1      4016 1.13563E-02 1.19549E-03-1.33405E-13
 -1      4017 1.12145E-02 1.16825E-03-1.30158E-13
 -1      4018 1.11217E-02 1.11918E-03-1.28728E-13
 -1      4019 1.16405E-02 1.24962E-03-1.39965E-13
 -1      4020 1.14984E-02 1.22261E-03-1.36675E-13
 -1      4021 1.14052E-02 1.17322E-03-1.35226E-13
 -1      4022 1.19253E-02 1.30337E-03-1.46603E-13
 -1      4023 1.17829E-02 1.27654E-03-1.43273E-13
 -1      4024 1.16893E-02 1.22692E-03-1.41808E-13
 -1      4025 1.22104E-02 1.35679E-03-1.53319E-13
 -1      4026 1.20678E-02 1.33012E-03-1.49951E-13
 -1      4027 1.19740E-02 1.28032E-03-1.48470E-13
 -1      4028 1.24958E-02 1.40992E-03-1.60105E-13
 -1      4029 1.23530E-02 1.38339E-03-1.56703E-13
 -1      4030 1.22591E-02 1.33346E-03-1.55206E-13
 -1      4031 1.27813E-02 1.46283E-03-1.66958E-13
 -1      4032 1.26385E-02 1.43640E-03-1.63523E-13
 -1      4033 1.25445E-02 1.38638E-03-1.62012E-13
 -1      4034 1.30669E-02 1.51556E-03-1.73877E-13
 -1      4035 1.29241E-02 1.48921E-03-1.70410E-13
 -1      4036 1.28300E-02 1.43913E-03-1.68885E-13
 -1      4037 1.33155E-02 1.55919E-03-1.79986E-13
 -1      4038 1.31726E-02 1.53290E-03-1.76498E-13
 -1      4039 1.30785E-02 1.48278E-03-1.74961E-13
 -1      4040 1.32898E-02 1.51739E-03-1.80219E-13
 -1      4041 8.62467E-03 6.44914E-04-7.35493E-14
 -1      4042 8.50094E-03 6.20033E-04-7.08883E-14
 -1      4043 2.11832E-03 2.01093E-04-7.40625E-15
 -1      4044 2.02803E-03 1.73068E-04-7.04650E-15
 -1      4045 2.24557E-03 2.06665E-04-8.30545E-15
 -1      4046 1.76412E-03-8.40825E-05-5.64091E-15
 -1      4047 1.89873E-03-8.30925E-05-6.44303E-15
 -1      4048 2.58895E-03 1.78024E-04-1.21490E-14
 -1      4049 7.50392E-03 2.47847E-04-5.80890E-14
 -1      4050 7.64306E-03 2.71351E-04-6.05714E-14
 -1      4051 7.76895E-03 3.20274E-04-6.17467E-14
 -1      4052 7.52058E-03 2.71582E-04-5.75621E-14
 -1      4053 7.64040E-03 3.21439E-04-5.83502E-14
 -1      4054 2.47709E-03 2.17031E-04-1.01326E-14
 -1      4055 2.35351E-03 2.10495E-04-9.14083E-15
 -1      4056 2.25888E-03 1.82002E-04-8.74211E-15
 -1      4057 2.46328E-03 1.89989E-04-1.04907E-14
 -1      4058 1.35928E-02 1.49314E-03-1.89500E-13
 -1      4059 1.36184E-02 1.53499E-03-1.89276E-13
 -1      4060 1.34157E-02 1.50629E-03-1.84095E-13
 -1      4061 1.34562E-02 1.44950E-03-1.86564E-13
 -1      4062 8.38168E-03 5.96405E-04-6.83010E-14
 -1      4063 8.26324E-03 5.73173E-04-6.57115E-14
 -1      4064 8.20492E-03 5.40419E-04-6.46586E-14
 -1      4065 8.43361E-03 5.84330E-04-6.97631E-14
 -1      4066 8.87851E-03 6.96613E-04-7.89798E-14
 -1      4067 8.75057E-03 6.70379E-04-7.62456E-14
 -1      4068 8.67598E-03 6.31983E-04-7.50513E-14
 -1      4069 7.96492E-03 4.99790E-04-5.90087E-14
 -1      4070 2.47828E-03 1.35181E-04-1.15576E-14
 -1      4071 2.52706E-03 1.55863E-04-1.18552E-14
 -1      4072 2.49013E-03 1.70487E-04-1.11436E-14
 -1      4073 9.13946E-03 7.50484E-04-8.45486E-14
 -1      4074 9.00817E-03 7.23282E-04-8.17474E-14
 -1      4075 9.18990E-03 7.35465E-04-8.61254E-14
 -1      4076 2.03327E-03-8.12503E-05-7.29631E-15
 -1      4077 2.16814E-03-7.86936E-05-8.20097E-15
 -1      4078 1.94654E-03-5.28455E-05-6.86314E-15
 -1      4079 1.52538E-03 4.21232E-05-4.50197E-15
 -1      4080 1.41470E-03 2.67975E-05-3.93350E-15
 -1      4081 2.30319E-03-7.55684E-05-9.15617E-15
 -1      4082 2.43918E-03-7.22623E-05-1.01618E-14
 -1      4083 2.20966E-03-4.48230E-05-8.66908E-15
 -1      4084 7.92325E-03 4.45439E-04-5.94773E-14
 -1      4085 7.96537E-03 4.40202E-04-6.11493E-14
 -1      4086 8.00002E-03 4.72544E-04-6.06150E-14
 -1      4087 1.33362E-02 1.27181E-03-1.87107E-13
 -1      4088 1.32873E-02 1.29583E-03-1.85173E-13
 -1      4089 8.92933E-03 6.82697E-04-8.05204E-14
 -1      4090 2.42359E-03 8.35088E-05-1.10562E-14
 -1      4091 2.44444E-03 1.10389E-04-1.13111E-14
 -1      4092 2.38425E-03 1.23222E-04-1.06300E-14
 -1      4093 7.75845E-03 3.61850E-04-5.94799E-14
 -1      4094 7.76652E-03 3.40131E-04-6.07877E-14
 -1      4095 7.88304E-03 3.61292E-04-6.29053E-14
 -1      4096 7.87447E-03 3.94808E-04-6.09642E-14
 -1      4097 8.02124E-03 4.96749E-04-6.05453E-14
 -1      4098 1.33421E-02 1.40169E-03-1.84369E-13
 -1      4099 1.33218E-02 1.43008E-03-1.83140E-13
 -1      4100 2.06794E-03 1.52091E-04-7.54523E-15
 -1      4101 1.94439E-03 1.46735E-04-6.68730E-15
 -1      4102 1.62782E-03-8.06390E-05-4.89142E-15
 -1      4103 1.68054E-03-5.39347E-05-5.26125E-15
 -1      4104 1.49197E-03-7.64333E-05-4.19426E-15
 -1      4105 2.54390E-03-7.14776E-05-1.09525E-14
 -1      4106 2.65969E-03-6.82754E-05-1.18693E-14
 -1      4107 2.64493E-03-3.20569E-05-1.20434E-14
 -1      4108 2.44149E-03-3.71236E-05-1.04178E-14
 -1      4109 1.63845E-03 1.21232E-04-4.89408E-15
 -1      4110 1.63636E-03 8.85720E-05-5.02593E-15
 -1      4111 1.33019E-02 1.32775E-03-1.84877E-13
 -1      4112 1.33275E-02 1.36978E-03-1.84671E-13
 -1      4113 1.31932E-02 1.35040E-03-1.81253E-13
 -1      4114 1.31640E-02 1.28662E-03-1.81848E-13
 -1      4115 1.38569E-03 5.88275E-06-3.79227E-15
 -1      4116 1.31146E-03-7.02520E-05-3.34350E-15
 -1      4117 1.63630E-03 5.84359E-05-5.10686E-15
 -1      4118 1.63574E-03 3.30822E-05-5.13141E-15
 -1      4119 1.74139E-03 8.04743E-05-5.69409E-15
 -1      4120 2.63020E-03-2.04257E-06-1.21831E-14
 -1      4121 2.61506E-03 2.98373E-05-1.23468E-14
 -1      4122 2.51321E-03 4.49982E-05-1.16129E-14
 -1      4123 2.53179E-03-6.12002E-06-1.13530E-14
 -1      4124 1.86908E-03 1.18956E-04-6.36008E-15
 -1      4125 1.82080E-03 1.38846E-04-5.90997E-15
 -1      4126 2.39461E-03 1.65898E-04-1.02241E-14
 -1      4127 1.03273E-02 9.35303E-04-1.11522E-13
 -1      4128 1.01884E-02 9.08159E-04-1.08444E-13
 -1      4129 2.17296E-03 1.55813E-04-8.34365E-15
 -1      4130 2.09475E-03 1.30632E-04-7.94628E-15
 -1      4131 2.27552E-03 1.59586E-04-9.18059E-15
 -1      4132 8.25315E-03 4.22052E-04-7.02773E-14
 -1      4133 8.38041E-03 4.41861E-04-7.29370E-14
 -1      4134 8.50860E-03 4.62345E-04-7.56313E-14
 -1      4135 8.63806E-03 4.83389E-04-7.83608E-14
 -1      4136 8.47841E-03 4.80295E-04-7.41729E-14
 -1      4137 8.76848E-03 5.04986E-04-8.11261E-14
 -1      4138 8.90006E-03 5.27036E-04-8.39222E-14
 -1      4139 8.73364E-03 5.22785E-04-7.96264E-14
 -1      4140 9.03258E-03 5.49540E-04-8.67517E-14
 -1      4141 9.16612E-03 5.72406E-04-8.96150E-14
 -1      4142 8.99429E-03 5.67608E-04-8.52163E-14
 -1      4143 9.30054E-03 5.95641E-04-9.25097E-14
 -1      4144 9.43586E-03 6.19164E-04-9.54360E-14
 -1      4145 9.25966E-03 6.14236E-04-9.09367E-14
 -1      4146 9.57195E-03 6.42986E-04-9.83942E-14
 -1      4147 9.70881E-03 6.67036E-04-1.01382E-13
 -1      4148 9.52908E-03 6.62243E-04-9.67857E-14
 -1      4149 9.84634E-03 6.91326E-04-1.04398E-13
 -1      4150 9.98452E-03 7.15799E-04-1.07443E-13
 -1      4151 9.80195E-03 7.11294E-04-1.02756E-13
 -1      4152 1.01233E-02 7.40465E-04-1.10518E-13
 -1      4153 1.02625E-02 7.65277E-04-1.13618E-13
 -1      4154 1.00777E-02 7.61129E-04-1.08841E-13
 -1      4155 1.04023E-02 7.90245E-04-1.16746E-13
 -1      4156 1.05424E-02 8.15330E-04-1.19898E-13
 -1      4157 1.03558E-02 8.11553E-04-1.15038E-13
 -1      4158 1.06830E-02 8.40541E-04-1.23074E-13
 -1      4159 1.08239E-02 8.65847E-04-1.26276E-13
 -1      4160 1.06359E-02 8.62420E-04-1.21339E-13
 -1      4161 1.09650E-02 8.91254E-04-1.29501E-13
 -1      4162 1.11065E-02 9.16737E-04-1.32746E-13
 -1      4163 1.09174E-02 9.13620E-04-1.27736E-13
 -1      4164 1.12481E-02 9.42302E-04-1.36017E-13
 -1      4165 1.13900E-02 9.67928E-04-1.39307E-13
 -1      4166 1.12001E-02 9.65073E-04-1.34225E-13
 -1      4167 1.15320E-02 9.93619E-04-1.42616E-13
 -1      4168 1.16742E-02 1.01936E-03-1.45946E-13
 -1      4169 1.14838E-02 1.01672E-03-1.40798E-13
 -1      4170 1.18165E-02 1.04515E-03-1.49297E-13
 -1      4171 1.19590E-02 1.07098E-03-1.52669E-13
 -1      4172 1.17681E-02 1.06851E-03-1.47456E-13
 -1      4173 1.21015E-02 1.09686E-03-1.56058E-13
 -1      4174 1.22441E-02 1.12276E-03-1.59463E-13
 -1      4175 1.20529E-02 1.12042E-03-1.54195E-13
 -1      4176 1.23867E-02 1.14869E-03-1.62886E-13
 -1      4177 1.25294E-02 1.17465E-03-1.66324E-13
 -1      4178 1.23380E-02 1.17241E-03-1.61001E-13
 -1      4179 1.26722E-02 1.20064E-03-1.69777E-13
 -1      4180 1.28150E-02 1.22664E-03-1.73243E-13
 -1      4181 1.26234E-02 1.22447E-03-1.67873E-13
 -1      4182 1.30212E-02 1.26058E-03-1.78350E-13
 -1      4183 9.50464E-03 7.73103E-04-9.34767E-14
 -1      4184 9.37075E-03 7.46464E-04-9.05752E-14
 -1      4185 8.72319E-03 6.18894E-04-7.65541E-14
 -1      4186 8.59940E-03 5.94964E-04-7.38537E-14
 -1      4187 1.06068E-02 9.89497E-04-1.17756E-13
 -1      4188 1.04668E-02 9.62412E-04-1.14626E-13
 -1      4189 1.03755E-02 9.15308E-04-1.13238E-13
 -1      4190 1.53369E-03-1.61676E-05-4.53458E-15
 -1      4191 1.39266E-03-2.61780E-05-3.80125E-15
 -1      4192 8.07905E-03 4.94569E-04-6.22388E-14
 -1      4193 1.08880E-02 1.04351E-03-1.24094E-13
 -1      4194 1.07472E-02 1.01653E-03-1.20912E-13
 -1      4195 1.06551E-02 9.68693E-04-1.19502E-13
 -1      4196 1.11704E-02 1.09729E-03-1.30525E-13
 -1      4197 1.10290E-02 1.07043E-03-1.27298E-13
 -1      4198 1.09364E-02 1.02201E-03-1.25868E-13
 -1      4199 1.14539E-02 1.15081E-03-1.37048E-13
 -1      4200 1.13120E-02 1.12408E-03-1.33775E-13
 -1      4201 1.12189E-02 1.07521E-03-1.32324E-13
 -1      4202 1.17380E-02 1.20410E-03-1.43653E-13
 -1      4203 1.15959E-02 1.17749E-03-1.40341E-13
 -1      4204 1.15025E-02 1.12826E-03-1.38869E-13
 -1      4205 1.20228E-02 1.25718E-03-1.50337E-13
 -1      4206 1.18803E-02 1.23066E-03-1.46985E-13
 -1      4207 1.17867E-02 1.18117E-03-1.45500E-13
 -1      4208 1.23079E-02 1.31006E-03-1.57094E-13
 -1      4209 1.21653E-02 1.28364E-03-1.53706E-13
 -1      4210 1.20714E-02 1.23394E-03-1.52206E-13
 -1      4211 1.25932E-02 1.36279E-03-1.63921E-13
 -1      4212 1.24505E-02 1.33644E-03-1.60499E-13
 -1      4213 1.23566E-02 1.28659E-03-1.58984E-13
 -1      4214 1.28788E-02 1.41540E-03-1.70813E-13
 -1      4215 1.27360E-02 1.38911E-03-1.67360E-13
 -1      4216 1.26419E-02 1.33914E-03-1.65832E-13
 -1      4217 8.97716E-03 6.68513E-04-8.20638E-14
 -1      4218 8.84918E-03 6.43350E-04-7.92923E-14
 -1      4219 8.76721E-03 6.05167E-04-7.80631E-14
 -1      4220 1.36843E-03-4.79023E-05-3.65157E-15
 -1      4221 1.69667E-03 1.34993E-04-5.16128E-15
 -1      4222 2.12255E-03-1.79299E-05-8.18962E-15
 -1      4223 2.25015E-03-1.17636E-05-9.14107E-15
 -1      4224 9.23812E-03 7.20137E-04-8.77047E-14
 -1      4225 9.10686E-03 6.94080E-04-8.48675E-14
 -1      4226 9.28454E-03 7.04281E-04-8.92882E-14
 -1      4227 1.86506E-03-2.72801E-05-6.43806E-15
 -1      4228 1.99434E-03-2.30745E-05-7.28866E-15
 -1      4229 2.04226E-03 6.15131E-06-7.71850E-15
 -1      4230 1.86230E-03 8.81342E-05-6.46227E-15
 -1      4231 8.00514E-03 3.81907E-04-6.52630E-14
 -1      4232 8.13100E-03 4.00547E-04-6.78526E-14
 -1      4233 8.23370E-03 4.38874E-04-6.90597E-14
 -1      4234 7.99651E-03 3.98257E-04-6.42780E-14
 -1      4235 1.33159E-02 1.45956E-03-1.82301E-13
 -1      4236 1.32957E-02 1.48792E-03-1.81069E-13
 -1      4237 1.31900E-02 1.47065E-03-1.78433E-13
 -1      4238 1.32018E-02 1.41175E-03-1.80117E-13
 -1      4239 2.00591E-03 9.92490E-05-7.44919E-15
 -1      4240 1.88956E-03 6.03311E-05-6.71715E-15
 -1      4241 1.58875E-03 1.45152E-04-4.48021E-15
 -1      4242 2.10983E-03 1.03485E-04-8.24385E-15
 -1      4243 1.29724E-02 1.28451E-03-1.76430E-13
 -1      4244 1.30792E-02 1.36654E-03-1.77634E-13
 -1      4245 1.30733E-02 1.39597E-03-1.76800E-13
 -1      4246 9.63961E-03 7.99898E-04-9.64103E-14
 -1      4247 9.55174E-03 7.56133E-04-9.50953E-14
 -1      4248 9.77559E-03 8.26871E-04-9.93743E-14
 -1      4249 8.52196E-03 5.59511E-04-7.26964E-14
 -1      4250 8.47997E-03 5.72254E-04-7.12296E-14
 -1      4251 8.36329E-03 5.50191E-04-6.86378E-14
 -1      4252 2.40203E-03 5.59245E-05-1.07293E-14
 -1      4253 2.31928E-03 7.24295E-05-1.00791E-14
 -1      4254 7.97929E-03 4.27076E-04-6.23097E-14
 -1      4255 7.98791E-03 4.13321E-04-6.32928E-14
 -1      4256 8.10264E-03 4.32430E-04-6.56533E-14
 -1      4257 1.66464E-03-1.67488E-05-5.25807E-15
 -1      4258 8.18656E-03 5.14221E-04-6.47386E-14
 -1      4259 1.00501E-02 8.81033E-04-1.05391E-13
 -1      4260 9.91242E-03 8.53911E-04-1.02367E-13
 -1      4261 9.82316E-03 8.08815E-04-1.01027E-13
 -1      4262 1.00980E-02 8.61959E-04-1.07077E-13
 -1      4263 9.02260E-03 6.53751E-04-8.36091E-14
 -1      4264 2.31611E-03 1.41160E-04-9.78640E-15
 -1      4265 2.34177E-03-1.10654E-05-9.83358E-15
 -1      4266 2.43902E-03-7.08190E-06-1.06098E-14
 -1      4267 2.43257E-03 1.82364E-05-1.07383E-14
 -1      4268 2.25524E-03 1.43019E-05-9.31696E-15
 -1      4269 2.26968E-03 1.15726E-04-9.56543E-15
 -1      4270 8.07117E-03 4.58277E-04-6.34779E-14
 -1      4271 2.40379E-03 3.39972E-05-1.06092E-14
 -1      4272 1.82676E-03 2.61753E-05-6.30319E-15
 -1      4273 1.72051E-03 8.88737E-06-5.62503E-15
 -1      4274 1.97103E-03 3.68637E-05-7.28546E-15
 -1      4275 1.30646E-02 1.33469E-03-1.77936E-13
 -1      4276 8.75412E-03 5.65076E-04-7.88540E-14
 -1      4277 8.88191E-03 5.87925E-04-8.16217E-14
 -1      4278 9.01127E-03 6.11476E-04-8.44213E-14
 -1      4279 9.14211E-03 6.35404E-04-8.72546E-14
 -1      4280 9.27425E-03 6.59843E-04-9.01215E-14
 -1      4281 9.40760E-03 6.84552E-04-9.30201E-14
 -1      4282 9.54203E-03 7.09623E-04-9.59495E-14
 -1      4283 9.67745E-03 7.34876E-04-9.89104E-14
 -1      4284 9.81376E-03 7.60380E-04-1.01900E-13
 -1      4285 9.95088E-03 7.86001E-04-1.04918E-13
 -1      4286 1.00887E-02 8.11789E-04-1.07968E-13
 -1      4287 1.02272E-02 8.37648E-04-1.11044E-13
 -1      4288 1.03663E-02 8.63617E-04-1.14145E-13
 -1      4289 1.05059E-02 8.89623E-04-1.17275E-13
 -1      4290 1.06459E-02 9.15697E-04-1.20429E-13
 -1      4291 1.07864E-02 9.41790E-04-1.23606E-13
 -1      4292 1.09272E-02 9.67923E-04-1.26810E-13
 -1      4293 1.10683E-02 9.94061E-04-1.30034E-13
 -1      4294 1.12097E-02 1.02022E-03-1.33280E-13
 -1      4295 1.13514E-02 1.04638E-03-1.36551E-13
 -1      4296 1.14932E-02 1.07255E-03-1.39840E-13
 -1      4297 1.16353E-02 1.09872E-03-1.43151E-13
 -1      4298 1.17774E-02 1.12489E-03-1.46484E-13
 -1      4299 1.19198E-02 1.15105E-03-1.49836E-13
 -1      4300 1.20622E-02 1.17721E-03-1.53206E-13
 -1      4301 1.22047E-02 1.20337E-03-1.56593E-13
 -1      4302 1.23473E-02 1.22953E-03-1.59998E-13
 -1      4303 1.24900E-02 1.25568E-03-1.63420E-13
 -1      4304 1.26327E-02 1.28182E-03-1.66859E-13
 -1      4305 1.27754E-02 1.30797E-03-1.70314E-13
 -1      4306 2.09322E-03 4.37059E-05-8.18337E-15
 -1      4307 8.62813E-03 5.42725E-04-7.61213E-14
 -1      4308 1.30844E-02 1.45337E-03-1.75807E-13
 -1      4309 1.29903E-02 1.40331E-03-1.74264E-13
 -1      4310 8.22320E-03 5.02234E-04-6.61545E-14
 -1      4311 2.19451E-03 8.39061E-05-9.01135E-15
 -1      4312 8.50401E-03 5.21342E-04-7.34248E-14
 -1      4313 8.24976E-03 4.91015E-04-6.73576E-14
 -1      4314 8.38389E-03 5.00772E-04-7.08038E-14
 -1      4315 1.28677E-02 1.35811E-03-1.71800E-13
 -1      4316 1.28584E-02 1.30062E-03-1.72832E-13
 -1      4317 2.15938E-03 5.86393E-05-8.71842E-15
 -1      4318 2.23084E-03 2.89035E-05-9.19642E-15
 -1      4319 2.31735E-03 3.12726E-05-9.89069E-15
 -1      4320 8.21837E-03 4.52552E-04-6.80456E-14
 -3
    1PSTEP                         2           1           1          
  100CL  101 1.000000000        4320                     0    1           1
 -4  STRESS      6    1
 -5  SXX         1    4    1    1
 -5  SYY         1    4    2    2
 -5  SZZ         1    4    3    3
 -5  SXY         1    4    1    2
 -5  SYZ         1    4    2    3
 -5  SZX         1    4    3    1
 -1         1-7.36641E-01-2.44176E+01-3.36963E+00-1.53378E+00-1.68661E-12-1.93300E-13
 -1         2-7.21243E-01-2.47501E+01-3.38212E+00 7.63421E-02 3.77805E-13 2.29712E-14
 -1         3 2.00000E+01 1.67011E-04-1.57507E-04 1.62930E-04-6.47980E-13-6.22524E-13
 -1         4 1.99999E+01 1.42509E-04-1.72405E-04-1.41804E-04 2.43952E-13 9.19188E-14
 -1         5 3.24758E+01 6.10011E+00 2.62128E+00 6.10123E+00-7.41004E-14 5.25990E-12
 -1         6 3.53816E+01 1.20991E+01 4.94857E+00-8.47349E+00-3.16080E-13 4.84679E-12
 -1         7 2.11676E+01 6.18922E+00-8.30885E-02-4.48795E+00-4.49779E-14 8.00058E-13
 -1         8 2.00278E+01 6.03534E+00 7.28894E-02-2.92839E+00-5.86059E-14-4.17266E-13
 -1         9 1.94097E+01 5.85004E+00 5.98882E-02-2.11435E+00-4.98837E-14-1.06024E-12
 -1        10 1.90238E+01 5.72865E+00 5.24458E-02-1.51974E+00-3.27360E-14-1.37001E-12
 -1        11 1.87386E+01 5.63954E+00 4.39627E-02-1.05069E+00-2.33511E-14-1.51128E-12
 -1        12 1.85223E+01 5.57240E+00 3.58549E-02-6.76095E-01-1.03251E-14-1.55585E-12
 -1        13 1.83648E+01 5.52398E+00 2.90510E-02-3.59897E-01-3.45557E-15-1.55735E-12
 -1        14 1.82770E+01 5.49709E+00 2.47270E-02-8.66102E-02 4.02022E-15-1.54153E-12
 -1        15 1.82664E+01 5.49385E+00 2.34990E-02 1.67175E-01 1.19568E-14-1.51061E-12
 -1        16 1.83375E+01 5.51557E+00 2.57643E-02 4.26970E-01 1.96232E-14-1.46579E-12
 -1        17 1.84902E+01 5.56220E+00 3.15729E-02 7.20607E-01 2.43599E-14-1.39395E-12
 -1        18 1.87162E+01 5.63204E+00 4.02138E-02 1.07066E+00 3.83218E-14-1.26001E-12
 -1        19 1.90239E+01 5.72777E+00 5.04378E-02 1.52222E+00 5.13565E-14-1.03835E-12
 -1        20 1.94335E+01 5.85713E+00 5.96384E-02 2.11215E+00 6.30850E-14-6.25733E-13
 -1        21 2.00585E+01 6.05805E+00 7.09230E-02 2.92404E+00 6.99302E-14 1.68460E-13
 -1        22 2.15240E+01 6.45835E+00 1.67751E-01 4.26165E+00 1.09773E-14 1.75441E-12
 -1        23 2.32621E+01-1.39903E+00-9.51648E-01-6.43533E-01-2.19966E-13 3.74624E-12
 -1        24 2.00006E+01-9.94032E-02-3.03211E-01 7.32229E-02-5.62406E-14 2.77332E-12
 -1        25 1.96352E+01-5.69258E-02-6.69487E-02 6.57254E-02-2.14915E-14 1.82350E-12
 -1        26 1.97555E+01-2.36386E-02-8.54826E-03 3.88334E-02 5.78509E-15 1.20960E-12
 -1        27 2.01172E+01-1.31716E-02-1.47632E-03 3.03696E-02-2.13878E-14 7.50228E-13
 -1        28 2.06115E+01-6.25335E-03 3.15694E-05 2.62238E-02-2.03227E-14 4.16162E-13
 -1        29 2.11618E+01-3.92646E-04 3.70741E-03 2.36060E-02 1.02268E-14 1.43140E-13
 -1        30 2.16923E+01 5.57249E-03 1.03963E-02 2.03214E-02-1.94880E-15-8.62210E-14
 -1        31 2.21123E+01 1.18454E-02 1.97646E-02 1.42306E-02-2.24237E-14-3.98163E-13
 -1        32 2.23135E+01 1.76561E-02 3.03379E-02 3.24201E-03-3.49550E-14-6.19672E-13
 -1        33 2.21836E+01 2.11719E-02 3.85689E-02-1.38473E-02 5.03430E-14-7.90113E-13
 -1        34 2.16421E+01 1.98271E-02 3.87481E-02-3.56786E-02 6.84186E-15-7.10512E-13
 -1        35 2.06969E+01 1.15391E-02 2.51152E-02-5.65953E-02 4.13016E-15-8.88959E-13
 -1        36 1.94991E+01-3.31864E-03-3.48094E-03-6.68178E-02-2.07258E-14-9.54369E-13
 -1        37 1.83494E+01-2.04716E-02-3.90269E-02-5.68835E-02-2.00831E-14-9.67748E-13
 -1        38 1.76144E+01-3.27897E-02-6.55469E-02-2.53164E-02 1.14663E-14-1.14476E-12
 -1        39 1.75649E+01-3.42832E-02-6.87615E-02 1.70799E-02-1.35178E-14-1.18630E-12
 -1        40 1.82338E+01-2.42254E-02-4.68893E-02 5.25533E-02 2.46960E-15-1.28572E-12
 -1        41 1.93982E+01-7.69860E-03-1.22079E-02 6.79238E-02 1.07905E-15-1.34054E-12
 -1        42 2.07016E+01 8.03241E-03 1.86646E-02 6.20399E-02-4.84597E-14-1.53102E-12
 -1        43 2.18212E+01 1.78788E-02 3.54991E-02 4.32937E-02-4.18501E-14-1.66779E-12
 -1        44 2.25728E+01 2.07177E-02 3.77764E-02 2.19565E-02 4.42192E-14-1.46192E-12
 -1        45 2.29215E+01 1.83130E-02 3.07089E-02 4.76314E-03-1.60296E-14-1.33445E-12
 -1        46 2.29322E+01 1.33375E-02 2.02978E-02-6.03783E-03-5.03739E-14-1.52147E-12
 -1        47 2.27101E+01 7.96721E-03 1.05934E-02-1.11295E-02-2.05398E-14-1.50744E-12
 -1        48 2.23585E+01 3.43395E-03 3.34328E-03-1.22872E-02 4.50670E-14-1.34182E-12
 -1        49 2.19584E+01 1.69798E-04-1.25406E-03-1.12382E-02 3.18264E-14-1.10098E-12
 -1        50 2.15642E+01-1.87085E-03-3.70550E-03-9.23522E-03-3.45184E-15-1.27114E-12
 -1        51 2.12074E+01-2.93785E-03-4.67752E-03-7.03722E-03-1.90573E-14-1.20558E-12
 -1        52 2.09024E+01-3.31991E-03-4.74657E-03-5.03335E-03-9.48577E-15-1.18876E-12
 -1        53 2.06528E+01-3.26803E-03-4.33074E-03-3.37968E-03 1.05954E-14-1.09091E-12
 -1        54 2.04556E+01-2.97216E-03-3.70215E-03-2.10311E-03 3.25254E-14-8.32762E-13
 -1        55 2.03046E+01-2.56335E-03-3.02317E-03-1.16830E-03-3.46391E-14-9.18468E-13
 -1        56 2.01923E+01-2.12526E-03-2.38210E-03-5.16340E-04 2.91056E-14-9.41881E-13
 -1        57 2.01113E+01-1.70699E-03-1.82063E-03-8.49571E-05 1.37698E-14-1.00017E-12
 -1        58 2.00550E+01-1.33408E-03-1.35278E-03 1.82104E-04 5.57028E-14-1.11303E-12
 -1        59 2.00173E+01-1.01689E-03-9.77248E-04 3.31670E-04-5.36831E-14-1.20989E-12
 -1        60 1.99935E+01-7.56541E-04-6.85016E-04 4.00715E-04-9.18207E-15-9.14463E-13
 -1        61 1.99798E+01-5.49005E-04-4.63878E-04 4.17321E-04 4.57813E-14-4.95954E-13
 -1        62 1.99732E+01-3.87688E-04-3.01022E-04 4.02127E-04-8.30243E-14-6.02122E-13
 -1        63 1.99714E+01-2.65049E-04-1.84365E-04 3.69835E-04-1.40141E-13-1.02457E-12
 -1        64 1.99727E+01-1.73529E-04-1.03106E-04 3.30556E-04 3.41332E-14-1.24201E-12
 -1        65 1.99760E+01-1.06001E-04-4.77842E-05 2.90903E-04 4.36896E-14-5.62946E-13
 -1        66 1.99804E+01-5.59277E-05-9.86351E-06 2.54744E-04 2.77398E-15-2.22284E-13
 -1        67 1.99852E+01-1.73454E-05 1.91860E-05 2.23510E-04 5.07693E-14-2.06394E-13
 -1        68 1.99900E+01 1.51765E-05 4.93192E-05 1.95678E-04 7.69507E-14-4.87386E-14
 -1        69 1.99944E+01 4.52921E-05 9.13956E-05 1.63678E-04 1.60401E-14-1.35451E-13
 -1        70 1.99979E+01 6.16350E-05 1.35978E-04 9.76068E-05 3.50842E-15-3.72789E-14
 -1        71 1.99998E+01-1.26033E-05 8.44046E-05-1.20951E-05-1.25934E-13-2.03421E-13
 -1        72 2.13162E+01-4.05145E-01-9.87125E-01-3.32821E-01 7.18765E-14 4.80455E-12
 -1        73 2.00324E+01-6.71101E-02-2.85252E-01-5.81809E-02 4.96829E-14 3.65326E-12
 -1        74 1.97697E+01-2.38229E-02-6.54655E-02-2.10225E-02 2.14481E-14 2.79224E-12
 -1        75 1.99914E+01-1.46463E-02-1.67524E-02-1.57174E-02 1.94872E-14 2.16925E-12
 -1        76 2.05228E+01-1.07681E-02-1.10087E-02-1.44519E-02 9.81734E-15 1.74577E-12
 -1        77 2.12889E+01-8.10314E-03-1.25631E-02-1.62278E-02 9.40762E-15 1.50976E-12
 -1        78 2.22544E+01-4.85947E-03-1.26413E-02-2.12772E-02 3.23916E-15 1.39793E-12
 -1        79 2.33820E+01 4.68327E-04-7.83192E-03-2.98468E-02 2.48364E-14 1.19490E-12
 -1        80 2.45960E+01 9.14661E-03 5.95550E-03-4.12090E-02-1.92488E-14 9.54927E-13
 -1        81 2.57393E+01 2.12955E-02 3.34034E-02-5.15510E-02 3.63851E-14 7.15443E-13
 -1        82 2.65323E+01 3.38863E-02 7.50708E-02-5.10519E-02-2.88862E-14 6.22375E-13
 -1        83 2.65715E+01 3.84446E-02 1.17363E-01-2.28857E-02 6.11529E-14 6.29649E-13
 -1        84 2.54540E+01 2.38446E-02 1.24232E-01 4.73118E-02-9.93259E-15 5.82014E-13
 -1        85 2.31045E+01-1.06710E-02 5.46604E-02 1.44018E-01-1.15194E-14 7.76726E-13
 -1        86 2.01748E+01-4.80428E-02-8.55490E-02 2.03659E-01-1.33502E-14 6.84897E-13
 -1        87 1.80118E+01-5.88921E-02-2.16059E-01 1.56622E-01-2.53283E-14 4.46143E-13
 -1        88 1.78878E+01-3.75471E-02-2.24898E-01 6.51916E-03-8.43379E-15 2.96260E-13
 -1        89 1.99116E+01-2.59802E-03-1.04271E-01-1.37588E-01 3.34934E-14-1.93463E-13
 -1        90 2.29271E+01 2.43711E-02 4.38376E-02-1.85525E-01-2.67034E-14-3.95378E-13
 -1        91 2.55216E+01 3.41512E-02 1.24231E-01-1.44448E-01 3.22411E-14-5.09509E-13
 -1        92 2.69313E+01 2.95221E-02 1.21112E-01-7.22556E-02-3.56616E-15-1.91635E-13
 -1        93 2.71522E+01 1.90624E-02 7.98275E-02-1.40077E-02-4.17927E-14-1.58999E-13
 -1        94 2.65675E+01 8.51219E-03 3.61033E-02 1.78497E-02-6.02014E-15-2.26978E-13
 -1        95 2.55935E+01 9.66979E-04 6.37918E-03 2.94492E-02 3.79229E-14-2.40115E-13
 -1        96 2.45269E+01-3.35596E-03-8.98059E-03 2.98238E-02 1.94045E-14-8.43717E-14
 -1        97 2.35326E+01-5.24937E-03-1.46281E-02 2.55185E-02-4.84123E-14-2.20154E-14
 -1        98 2.26811E+01-5.65306E-03-1.50896E-02 2.00735E-02 1.71652E-14 1.95224E-13
 -1        99 2.19883E+01-5.28003E-03-1.33339E-02 1.50374E-02-8.28484E-14-1.04604E-13
 -1       100 2.14434E+01-4.57813E-03-1.09381E-02 1.09099E-02 7.79777E-14 2.19083E-14
 -1       101 2.10253E+01-3.79548E-03-8.61097E-03 7.72575E-03-1.92457E-15-2.81980E-13
 -1       102 2.07107E+01-3.05414E-03-6.60965E-03 5.35230E-03-2.56845E-14-6.68709E-13
 -1       103 2.04781E+01-2.40479E-03-4.98496E-03 3.62128E-03 1.34536E-14-7.65850E-13
 -1       104 2.03092E+01-1.86085E-03-3.70636E-03 2.37909E-03-5.73739E-15-2.39990E-13
 -1       105 2.01890E+01-1.41809E-03-2.71877E-03 1.50067E-03-4.69277E-14-2.26370E-13
 -1       106 2.01052E+01-1.06495E-03-1.96583E-03 8.89364E-04-2.95935E-14-3.24512E-13
 -1       107 2.00486E+01-7.87826E-04-1.39806E-03 4.72242E-04-7.69922E-15-6.07246E-13
 -1       108 2.00118E+01-5.73417E-04-9.74600E-04 1.94946E-04 7.00811E-14-9.45689E-13
 -1       109 1.99893E+01-4.09778E-04-6.62649E-04 1.71539E-05-4.59253E-14-9.51334E-13
 -1       110 1.99767E+01-2.86590E-04-4.36200E-04-9.09654E-05-1.10524E-13-4.35629E-13
 -1       111 1.99710E+01-1.95136E-04-2.74727E-04-1.51438E-04 1.33780E-13-3.03164E-13
 -1       112 1.99700E+01-1.28128E-04-1.62022E-04-1.80494E-04-4.07716E-14-8.25057E-13
 -1       113 1.99718E+01-7.94887E-05-8.52193E-05-1.90060E-04 3.52070E-14-4.82477E-13
 -1       114 1.99755E+01-4.41113E-05-3.39301E-05-1.88863E-04-9.40189E-14-1.02091E-13
 -1       115 1.99801E+01-1.75933E-05 7.31174E-07-1.83250E-04 6.02305E-14 3.78011E-13
 -1       116 1.99851E+01 3.91713E-06 2.75769E-05-1.77600E-04 9.06815E-14-2.46179E-13
 -1       117 1.99900E+01 2.38231E-05 5.71127E-05-1.73978E-04-1.29230E-13-1.21011E-12
 -1       118 1.99945E+01 4.36809E-05 1.00258E-04-1.70081E-04 8.69283E-14-1.16979E-12
 -1       119 1.99980E+01 5.84376E-05 1.49265E-04-1.45157E-04-6.35737E-14-1.50219E-12
 -1       120 1.99998E+01-4.51646E-05 6.29342E-05-2.84211E-05 3.31778E-13-1.17043E-12
 -1       121 1.99998E+01-1.53255E-04 5.76977E-05 2.52176E-06-9.10943E-13 2.05388E-13
 -1       122 1.99999E+01-1.93892E-03 1.17224E-04-1.10865E-04-1.13243E-14-5.29280E-14
 -1       123 1.99998E+01-5.10729E-03 4.27307E-05-1.50511E-04 6.48171E-13-1.03957E-13
 -1       124 1.99998E+01-8.68879E-03-2.02811E-05-1.43953E-04 1.01929E-12 5.19596E-14
 -1       125 1.99998E+01-1.20522E-02-5.77035E-05-1.17134E-04 1.07406E-12-2.25126E-13
 -1       126 1.99998E+01-1.47693E-02-7.77555E-05-8.53713E-05-2.61934E-13-5.98379E-14
 -1       127 1.99997E+01-1.66969E-02-8.63543E-05-5.04637E-05-4.35083E-13 4.37304E-13
 -1       128 1.99997E+01-1.76666E-02-8.93260E-05-1.58123E-05-9.94825E-14-2.07781E-13
 -1       129 1.99997E+01-1.76329E-02-8.87130E-05 1.83393E-05 1.25113E-14 5.72770E-14
 -1       130 1.99997E+01-1.66024E-02-8.46985E-05 5.23114E-05-3.17923E-13-1.32520E-13
 -1       131 1.99998E+01-1.46332E-02-7.48207E-05 8.72615E-05-1.45983E-12-1.03241E-13
 -1       132 1.99998E+01-1.19010E-02-5.56788E-05 1.17158E-04-2.07161E-12 3.05471E-13
 -1       133 1.99998E+01-8.54644E-03-1.85775E-05 1.42427E-04-1.24472E-12-4.45351E-14
 -1       134 1.99998E+01-4.99017E-03 4.83970E-05 1.57710E-04-9.47206E-13 1.98610E-13
 -1       135 1.99999E+01-1.93265E-03 9.93042E-05 1.52487E-04 3.17088E-13-4.58828E-14
 -1       136 1.99999E+01-2.06942E-04 5.03752E-05-4.99269E-05 6.15546E-14-7.53771E-14
 -1       137-1.52873E+00-2.06423E+01-3.18105E+00-4.11299E+00 2.76718E-12 6.67463E-13
 -1       138-1.68463E+00-8.86253E+00-2.39194E+00-3.21352E+00 4.88859E-12 2.42686E-12
 -1       139 2.86651E+00 3.19753E+00-1.20045E+00 3.33165E+00 4.93156E-12 3.53972E-12
 -1       140 1.59164E+01 1.00794E+01 2.97405E-01 1.25610E+01 3.88761E-12 4.47387E-12
 -1       141 3.67205E+01 9.55242E+00 1.89059E+00 1.79763E+01 2.35709E-12 4.53343E-12
 -1       142 5.79003E+01 4.51739E+00 3.22882E+00 1.45102E+01 8.51770E-13 2.75174E-12
 -1       143 6.81074E+01 9.38561E-01 3.82367E+00 3.09976E+00 3.11105E-14 3.89286E-13
 -1       144 6.42563E+01 2.38528E+00 3.62706E+00-1.01186E+01 5.03212E-13-2.60336E-12
 -1       145 4.80050E+01 7.47250E+00 2.67700E+00-1.80468E+01 1.96873E-12-4.68109E-12
 -1       146 2.64702E+01 1.10091E+01 1.21597E+00-1.67764E+01 3.65202E-12-5.49044E-12
 -1       147 9.55821E+00 8.40545E+00-3.13706E-01-9.01826E+00 5.00960E-12-4.81765E-12
 -1       148 2.00236E-01-1.15592E+00-1.71235E+00-1.32308E-01 5.22515E-12-3.39834E-12
 -1       149-2.00234E+00-1.43006E+01-2.79327E+00 4.48892E+00 3.82588E-12-1.43603E-12
 -1       150-1.01669E+00-2.35177E+01-3.35018E+00 2.88363E+00 1.15291E-12-2.33814E-13
 -1       151-1.63771E+00-1.74077E+01-2.91145E+00-4.18293E+00-4.14252E-12-1.23303E-12
 -1       152-9.25778E-01-5.24586E+00-1.97292E+00-1.76536E+00-5.78582E-12-2.97184E-12
 -1       153 4.83822E+00 5.60124E+00-7.52985E-01 5.35557E+00-5.64726E-12-4.44500E-12
 -1       154 1.78027E+01 1.07722E+01 5.98308E-01 1.36395E+01-4.32049E-12-5.15266E-12
 -1       155 3.72235E+01 9.74840E+00 1.96720E+00 1.84308E+01-2.65754E-12-4.72455E-12
 -1       156 5.48498E+01 4.88588E+00 2.96044E+00 1.51809E+01-1.02231E-12-3.56482E-12
 -1       157 6.51924E+01 1.12357E+00 3.46674E+00 4.85656E+00-1.79495E-13-1.49798E-12
 -1       158 6.37035E+01 1.74875E+00 3.39347E+00-7.55062E+00-2.30356E-13 7.20229E-13
 -1       159 5.04231E+01 6.22788E+00 2.72131E+00-1.66474E+01-1.09120E-12 3.06777E-12
 -1       160 3.18779E+01 1.05570E+01 1.62061E+00-1.78575E+01-2.52631E-12 4.19342E-12
 -1       161 1.42325E+01 1.00558E+01 2.79281E-01-1.18242E+01-3.65280E-12 3.99419E-12
 -1       162 2.54669E+00 3.00475E+00-1.10778E+00-3.04883E+00-4.61703E-12 3.18484E-12
 -1       163-1.52725E+00-8.79230E+00-2.25883E+00 3.07131E+00-4.10150E-12 1.93490E-12
 -1       164-1.32776E+00-1.95925E+01-3.02996E+00 3.61247E+00-2.24876E-12 5.63924E-13
 -1       165 2.14542E+01 3.65616E+00-5.31849E-02-3.26486E+00-7.19716E-13 1.67266E-13
 -1       166 2.03634E+01 4.21609E+00-4.31370E-02-2.41089E+00-6.54869E-13-5.81379E-13
 -1       167 1.97255E+01 4.52006E+00-3.03283E-02-1.76915E+00-5.16573E-13-9.83375E-13
 -1       168 1.92903E+01 4.68630E+00-2.24523E-02-1.25998E+00-3.71928E-13-1.19553E-12
 -1       169 1.89658E+01 4.79235E+00-1.76976E-02-8.50876E-01-2.49513E-13-1.28108E-12
 -1       170 1.87190E+01 4.86545E+00-1.51103E-02-5.07445E-01-1.32961E-13-1.30585E-12
 -1       171 1.85579E+01 4.91232E+00-1.36926E-02-2.16118E-01-7.31186E-15-1.29671E-12
 -1       172 1.84907E+01 4.93493E+00-1.31791E-02 4.44236E-02 9.31645E-14-1.27911E-12
 -1       173 1.85257E+01 4.93179E+00-1.35240E-02 2.97278E-01 2.01896E-13-1.24572E-12
 -1       174 1.86669E+01 4.89914E+00-1.48226E-02 5.67826E-01 3.12714E-13-1.18737E-12
 -1       175 1.89091E+01 4.83243E+00-1.74096E-02 8.77636E-01 4.21484E-13-1.09979E-12
 -1       176 1.92608E+01 4.71864E+00-2.21078E-02 1.26635E+00 5.51479E-13-9.34956E-13
 -1       177 1.97348E+01 4.53364E+00-3.08312E-02 1.76260E+00 6.70452E-13-6.48464E-13
 -1       178 2.04125E+01 4.20740E+00-4.37831E-02 2.40126E+00 7.41050E-13-1.20473E-13
 -1       179 2.16097E+01 3.43250E+00-5.47752E-02 3.15799E+00 7.11070E-13 8.43492E-13
 -1       180 2.28446E+01 1.10069E+00-3.29404E-01 2.73719E+00 5.30911E-13 2.10484E-12
 -1       181 2.24636E+01 8.32987E-01 1.21981E-03-1.70161E+00-6.32567E-13 1.09188E-12
 -1       182 2.11546E+01 1.86046E-01-8.76408E-03-5.14691E-01-5.38410E-13 7.85728E-13
 -1       183 2.06211E+01 1.07978E-01 1.40620E-02-2.97439E-02-3.84260E-13 5.20368E-13
 -1       184 2.05436E+01 5.69558E-02 1.00595E-02 2.09277E-01-2.97621E-13 2.61274E-13
 -1       185 2.06971E+01 2.98514E-02 4.84151E-03 3.37959E-01-2.16206E-13 1.24899E-13
 -1       186 2.09784E+01 7.58549E-03 1.58559E-03 3.96662E-01-1.82450E-13 7.28822E-15
 -1       187 2.13112E+01-1.70302E-02-4.32274E-04 3.91718E-01-1.52322E-13-1.16812E-13
 -1       188 2.16272E+01-4.68882E-02-1.83774E-03 3.15888E-01-1.33876E-13-1.54963E-13
 -1       189 2.18564E+01-8.09181E-02-2.74367E-03 1.59100E-01-1.53216E-13-1.32545E-13
 -1       190 2.19279E+01-1.12244E-01-2.95813E-03-7.93303E-02-9.46773E-14-2.18891E-13
 -1       191 2.17827E+01-1.26880E-01-2.29535E-03-3.74918E-01-2.86611E-14-3.27295E-13
 -1       192 2.13968E+01-1.06497E-01-8.59495E-04-6.64024E-01-1.03890E-13-4.33290E-13
 -1       193 2.08122E+01-3.85861E-02 8.60917E-04-8.45228E-01-3.14537E-14-4.58083E-13
 -1       194 2.01561E+01 6.75177E-02 2.20765E-03-8.12394E-01-2.23777E-14-4.34283E-13
 -1       195 1.96230E+01 1.72307E-01 2.86893E-03-5.18720E-01-1.45844E-13-5.09492E-13
 -1       196 1.94040E+01 2.23027E-01 3.05748E-03-3.18985E-02-5.71617E-14-6.74456E-13
 -1       197 1.95914E+01 1.91107E-01 2.98746E-03 4.78290E-01-5.19719E-14-7.15315E-13
 -1       198 2.01275E+01 9.52156E-02 2.49166E-03 8.29650E-01-3.64459E-14-7.63605E-13
 -1       199 2.08373E+01-1.38778E-02 1.29343E-03 9.27135E-01-1.38455E-13-8.24809E-13
 -1       200 2.15213E+01-9.12932E-02-4.38799E-04 7.94845E-01-5.71739E-14-8.37073E-13
 -1       201 2.20348E+01-1.21233E-01-2.01000E-03 5.30918E-01 5.15720E-14-8.26922E-13
 -1       202 2.23173E+01-1.12913E-01-2.91221E-03 2.40581E-01 7.20209E-14-9.25049E-13
 -1       203 2.23780E+01-8.47241E-02-3.00659E-03-4.99041E-03 1.35057E-14-7.67792E-13
 -1       204 2.22654E+01-5.23416E-02-2.49428E-03-1.76102E-01-3.05780E-14-6.07063E-13
 -1       205 2.20399E+01-2.46621E-02-1.69650E-03-2.72964E-01 3.72942E-14-5.44769E-13
 -1       206 2.17565E+01-4.77607E-03-8.83157E-04-3.10540E-01 1.30349E-13-5.53881E-13
 -1       207 2.14575E+01 7.59014E-03-2.12337E-04-3.07479E-01-3.74545E-14-6.39041E-13
 -1       208 2.11714E+01 1.40642E-02 2.59443E-04-2.80331E-01 8.94610E-15-6.01742E-13
 -1       209 2.09146E+01 1.64788E-02 5.41118E-04-2.41539E-01 6.44750E-14-5.87155E-13
 -1       210 2.06947E+01 1.63792E-02 6.71748E-04-1.99445E-01-8.85181E-15-4.91732E-13
 -1       211 2.05133E+01 1.48992E-02 6.96873E-04-1.59076E-01 7.65833E-14-4.70441E-13
 -1       212 2.03683E+01 1.27971E-02 6.56577E-04-1.23088E-01-2.57344E-14-4.96298E-13
 -1       213 2.02554E+01 1.05421E-02 5.81373E-04-9.25643E-02-3.60641E-15-4.36409E-13
 -1       214 2.01700E+01 8.40079E-03 4.92278E-04-6.76317E-02 4.31181E-14-4.24880E-13
 -1       215 2.01069E+01 6.50625E-03 4.02541E-04-4.78844E-02-8.88329E-14-6.98257E-13
 -1       216 2.00618E+01 4.90862E-03 3.19707E-04-3.26617E-02-2.83345E-14-6.37526E-13
 -1       217 2.00305E+01 3.60945E-03 2.47429E-04-2.12202E-02 4.56529E-14-7.88842E-13
 -1       218 2.00098E+01 2.58417E-03 1.86871E-04-1.28345E-02 9.77186E-14-6.11414E-13
 -1       219 1.99968E+01 1.79622E-03 1.37706E-04-6.84921E-03-1.25789E-14-5.33229E-13
 -1       220 1.99895E+01 1.20536E-03 9.87898E-05-2.70269E-03-1.68124E-13-5.42092E-13
 -1       221 1.99862E+01 7.72326E-04 6.85905E-05 6.74078E-05-7.72575E-14-4.15045E-13
 -1       222 1.99855E+01 4.60984E-04 4.54524E-05 1.82775E-03 5.08399E-13-3.30182E-13
 -1       223 1.99866E+01 2.38809E-04 2.77591E-05 2.85705E-03 3.14858E-13-2.83952E-14
 -1       224 1.99887E+01 7.62313E-05 1.41243E-05 3.35435E-03 1.50577E-13 9.28411E-14
 -1       225 1.99913E+01-5.48913E-05 3.68640E-06 3.44536E-03 3.66996E-14 1.25265E-13
 -1       226 1.99940E+01-1.84452E-04-3.15198E-06 3.18587E-03-6.24206E-14-1.51755E-13
 -1       227 1.99964E+01-3.47312E-04-6.39371E-06 2.56468E-03 3.49684E-15-2.54780E-13
 -1       228 1.99984E+01-5.57599E-04-3.00706E-06 1.55133E-03-3.94456E-14-1.37720E-13
 -1       229 2.16163E+01 2.70701E-01-4.76018E-02 9.10710E-01 5.70859E-13 1.80256E-12
 -1       230 2.08197E+01 1.35060E-01 9.82180E-03 1.79988E-01 4.24141E-13 1.39287E-12
 -1       231 2.06626E+01 7.71613E-02 1.32696E-02-1.57495E-01 3.07384E-13 1.06093E-12
 -1       232 2.08747E+01 5.51583E-02 7.80399E-03-3.68232E-01 1.94172E-13 8.36133E-13
 -1       233 2.13386E+01 4.59727E-02 3.61192E-03-5.27917E-01 1.20784E-13 7.33059E-13
 -1       234 2.19895E+01 3.86171E-02 1.04096E-03-6.58153E-01 7.75215E-14 5.99858E-13
 -1       235 2.27765E+01 2.52488E-02-7.06740E-04-7.53393E-01 1.14404E-13 5.24392E-13
 -1       236 2.36349E+01-3.07653E-03-1.70083E-03-7.83709E-01 1.14371E-13 4.59169E-13
 -1       237 2.44614E+01-5.61721E-02-1.16246E-03-6.93003E-01 1.30730E-13 3.37876E-13
 -1       238 2.50967E+01-1.38495E-01 1.95723E-03-4.06540E-01 2.71627E-14 3.72834E-13
 -1       239 2.53300E+01-2.33257E-01 7.30460E-03 1.31736E-01 2.06475E-14 3.36715E-13
 -1       240 2.49555E+01-2.79779E-01 1.05006E-02 8.70866E-01-1.25091E-14 4.06029E-13
 -1       241 2.39142E+01-1.79168E-01 4.81481E-03 1.53616E+00-6.14257E-14 4.12574E-13
 -1       242 2.24977E+01 9.32132E-02-1.33100E-02 1.65791E+00 1.05738E-13 2.57556E-13
 -1       243 2.13664E+01 4.06977E-01-3.41160E-02 9.25707E-01 1.85140E-13 1.40763E-13
 -1       244 2.12225E+01 4.90227E-01-3.63182E-02-3.92808E-01 2.03801E-13-2.34855E-13
 -1       245 2.21909E+01 2.66779E-01-1.66540E-02-1.48222E+00 2.00722E-13-4.21035E-13
 -1       246 2.36974E+01-5.22964E-02 7.29455E-03-1.75112E+00 6.21868E-14-4.19009E-13
 -1       247 2.49901E+01-2.42087E-01 1.61231E-02-1.28449E+00-5.95791E-14-2.95413E-13
 -1       248 2.56550E+01-2.60817E-01 9.03498E-03-5.39519E-01-2.84055E-13-2.28063E-13
 -1       249 2.56719E+01-1.84255E-01 1.16501E-03 1.03721E-01-5.56933E-15-3.19866E-14
 -1       250 2.52236E+01-9.42435E-02-3.26248E-03 4.99653E-01 3.47162E-14-1.40947E-13
 -1       251 2.45270E+01-2.74172E-02-3.93515E-03 6.68732E-01 1.30965E-14-2.42729E-13
 -1       252 2.37527E+01 1.11476E-02-2.81621E-03 6.86445E-01-7.63174E-14-1.61217E-13
 -1       253 2.30081E+01 2.86406E-02-1.37369E-03 6.23656E-01-2.18088E-14-5.48613E-14
 -1       254 2.23480E+01 3.35338E-02-2.45911E-04 5.28657E-01-8.06063E-14-8.67952E-14
 -1       255 2.17923E+01 3.20333E-02 4.37683E-04 4.28876E-01 1.54949E-13 1.53703E-14
 -1       256 2.13410E+01 2.78710E-02 7.62093E-04 3.37552E-01-3.76727E-14-2.44061E-13
 -1       257 2.09840E+01 2.30206E-02 8.54945E-04 2.59690E-01 8.52848E-14-2.19841E-13
 -1       258 2.07074E+01 1.84066E-02 8.20397E-04 1.96047E-01 1.78187E-13-2.60221E-13
 -1       259 2.04971E+01 1.43909E-02 7.26919E-04 1.45450E-01-8.50184E-14-2.78628E-13
 -1       260 2.03399E+01 1.10591E-02 6.14137E-04 1.06030E-01 3.98410E-14-3.73526E-13
 -1       261 2.02244E+01 8.37340E-03 5.02720E-04 7.58131E-02 2.11460E-14-5.31229E-13
 -1       262 2.01411E+01 6.25073E-03 4.02174E-04 5.29878E-02 1.39199E-14-6.47888E-13
 -1       263 2.00824E+01 4.59809E-03 3.15913E-04 3.59921E-02 6.72133E-14-4.92076E-13
 -1       264 2.00422E+01 3.32822E-03 2.44241E-04 2.35275E-02 1.37364E-13-5.16936E-13
 -1       265 2.00156E+01 2.36487E-03 1.86014E-04 1.45386E-02-1.66382E-13-4.28828E-13
 -1       266 1.99988E+01 1.64386E-03 1.39511E-04 8.18084E-03-1.07428E-13-4.89944E-13
 -1       267 1.99892E+01 1.11211E-03 1.02875E-04 3.78741E-03 1.36944E-15-2.46584E-13
 -1       268 1.99845E+01 7.26184E-04 7.43240E-05 8.38877E-04 1.14415E-14-1.11479E-13
 -1       269 1.99831E+01 4.50599E-04 5.22318E-05-1.06306E-03-1.69275E-13-8.73906E-14
 -1       270 1.99839E+01 2.56215E-04 3.51656E-05-2.21699E-03-2.01912E-13 5.87147E-14
 -1       271 1.99860E+01 1.18624E-04 2.19483E-05-2.83874E-03 8.73343E-14-1.22073E-13
 -1       272 1.99888E+01 1.61416E-05 1.19311E-05-3.07342E-03 3.89503E-13-2.71158E-13
 -1       273 1.99919E+01-7.22716E-05 5.76288E-06-3.00159E-03 1.99882E-13-2.95400E-13
 -1       274 1.99949E+01-1.67959E-04 5.81249E-06-2.64232E-03 6.47101E-14-4.28421E-13
 -1       275 1.99973E+01-3.05322E-04 7.16340E-06-1.95486E-03 1.13025E-13-2.70296E-13
 -1       276 1.99990E+01-4.38900E-04 2.62809E-06-9.19363E-04-9.47213E-14-1.77890E-13
 -1       277 1.99993E+01-1.51785E-03-5.19286E-06-1.56821E-03-9.17120E-14 5.68515E-13
 -1       278 1.99996E+01-3.36812E-03-3.02942E-06-2.39253E-03 2.38745E-13 3.46032E-13
 -1       279 1.99998E+01-5.55522E-03-1.57745E-06-2.68001E-03 2.77532E-13 1.81568E-13
 -1       280 1.99999E+01-7.76582E-03 2.05386E-06-2.52646E-03 2.77767E-13-8.24554E-14
 -1       281 2.00000E+01-9.69357E-03 6.39573E-06-2.08503E-03 1.80822E-13-7.03792E-13
 -1       282 2.00001E+01-1.12099E-02 9.75026E-06-1.45812E-03 2.37070E-15-2.88035E-13
 -1       283 2.00001E+01-1.21510E-02 1.18024E-05-7.34978E-04-3.12799E-13 3.44055E-13
 -1       284 2.00001E+01-1.24551E-02 1.24342E-05 2.59527E-05 8.05277E-14-7.05989E-14
 -1       285 2.00001E+01-1.21058E-02 1.17112E-05 7.81813E-04-9.01342E-14-2.89811E-13
 -1       286 2.00001E+01-1.11277E-02 9.56746E-06 1.49132E-03-2.35633E-13-3.46144E-13
 -1       287 2.00000E+01-9.62082E-03 6.00141E-06 2.09059E-03-3.57633E-13-3.14540E-13
 -1       288 1.99999E+01-7.65696E-03 1.81552E-06 2.51948E-03-3.60265E-13 5.47176E-13
 -1       289 1.99998E+01-5.46090E-03-2.59494E-06 2.65705E-03-2.40638E-13 3.39649E-13
 -1       290 1.99995E+01-3.29308E-03-6.88447E-06 2.32525E-03-2.34736E-13 6.13303E-13
 -1       291 1.99991E+01-1.79184E-03-1.07339E-05 2.24699E-03-2.23988E-13 1.04603E-13
 -1       292-1.00450E+00-1.10872E+01-9.99967E-01 7.30812E-01 7.36480E-13 1.16072E-12
 -1       293 2.86096E+00-8.46978E+00-7.29192E-01 3.50299E+00 1.15152E-12 1.64904E-12
 -1       294 9.31554E+00-5.31484E+00-5.64498E-01 5.22487E+00 1.79495E-12 1.38423E-12
 -1       295 1.88446E+01-1.37558E+00-1.48574E-01 6.96224E+00 1.88663E-12 1.87325E-12
 -1       296 3.02497E+01 1.42877E+00 2.67519E-01 6.51343E+00 1.56809E-12 1.60927E-12
 -1       297 3.88805E+01 4.36943E+00 4.96302E-01 3.62048E+00 1.54333E-12 7.98889E-13
 -1       298 4.68302E+01 6.37888E+00 1.06414E+00 2.54976E+00 1.35597E-12 6.11261E-13
 -1       299 4.82284E+01 6.71917E+00 1.18009E+00-1.09581E+00 1.47937E-12-3.41518E-13
 -1       300 4.41916E+01 5.85483E+00 9.79726E-01-4.60175E+00 1.51450E-12-1.23293E-12
 -1       301 3.56473E+01 3.58718E+00 5.47120E-01-6.46376E+00 1.66668E-12-1.57940E-12
 -1       302 2.51403E+01 8.33237E-01 1.26593E-01-7.53079E+00 1.90048E-12-2.09466E-12
 -1       303 1.47678E+01-2.86934E+00-3.31051E-01-6.46875E+00 1.90270E-12-1.94569E-12
 -1       304 6.11258E+00-6.94415E+00-7.17945E-01-4.41741E+00 1.51032E-12-1.81400E-12
 -1       305 6.56592E-01-1.02218E+01-9.61460E-01-2.13592E+00 7.90423E-13-1.57360E-12
 -1       306-1.32305E+00-1.14685E+01-1.03864E+00-7.61781E-02-2.13760E-13-1.41992E-12
 -1       307-1.47577E-01-1.05405E+01-9.52658E-01 1.94183E+00-1.16840E-12-1.59854E-12
 -1       308 4.30528E+00-7.67049E+00-6.81192E-01 4.31895E+00-1.77450E-12-1.82925E-12
 -1       309 1.11198E+01-4.10243E+00-4.13125E-01 6.07274E+00-2.35417E-12-1.95015E-12
 -1       310 1.99504E+01-2.59266E-01-3.09278E-02 7.50453E+00-2.40513E-12-2.13857E-12
 -1       311 3.05710E+01 1.61610E+00 2.61536E-01 6.06370E+00-1.82951E-12-1.54285E-12
 -1       312 3.91254E+01 5.20814E+00 7.12551E-01 6.14645E+00-1.67472E-12-1.83920E-12
 -1       313 4.51254E+01 6.45001E+00 9.87228E-01 3.36998E+00-1.38127E-12-1.21728E-12
 -1       314 4.68491E+01 6.67617E+00 1.02866E+00-3.55445E-01-1.20573E-12-3.67328E-13
 -1       315 4.26902E+01 6.34681E+00 7.69854E-01-3.42392E+00-1.30464E-12 2.46109E-13
 -1       316 3.68345E+01 4.72125E+00 6.19774E-01-6.67999E+00-1.33809E-12 9.81243E-13
 -1       317 2.82380E+01 9.04377E-01 1.77600E-01-6.40391E+00-1.09500E-12 1.00644E-12
 -1       318 1.79070E+01-1.42431E+00-1.11100E-01-7.18323E+00-1.49464E-12 1.24012E-12
 -1       319 8.68939E+00-5.05087E+00-5.17716E-01-5.50063E+00-1.41048E-12 1.31956E-12
 -1       320 2.58303E+00-8.55906E+00-7.88774E-01-3.43700E+00-1.00259E-12 1.42563E-12
 -1       321-6.71190E-01-9.83745E+00-8.17369E-01-1.62771E+00-1.17878E-13 1.35580E-12
 -1       322 2.04694E+01 3.05089E+00-1.82872E-02-1.65013E+00-6.80525E-13-5.25763E-13
 -1       323 2.12377E+01 2.19303E+00-1.69107E-02-1.95523E+00-7.62130E-13-9.99999E-14
 -1       324 1.94645E+01 3.86220E+00-1.38749E-02-8.78612E-01-3.88030E-13-9.55449E-13
 -1       325 1.91193E+01 4.08800E+00-1.15587E-02-5.54972E-01-2.40098E-13-1.01401E-12
 -1       326 1.88713E+01 4.23953E+00-1.00190E-02-2.81797E-01-7.79100E-14-1.00746E-12
 -1       327 1.87292E+01 4.32620E+00-9.20072E-03-4.75686E-02 6.06139E-14-1.00784E-12
 -1       328 1.87050E+01 4.34728E+00-9.08746E-03 1.65079E-01 1.85131E-13-9.84414E-13
 -1       329 1.88073E+01 4.29694E+00-9.72224E-03 3.77596E-01 3.18652E-13-9.45352E-13
 -1       330 1.90340E+01 4.16881E+00-1.12425E-02 6.09314E-01 4.49148E-13-8.83296E-13
 -1       331 1.93910E+01 3.94338E+00-1.38670E-02 8.89465E-01 5.93310E-13-7.40288E-13
 -1       332 1.98763E+01 3.59051E+00-1.78195E-02 1.22662E+00 7.17377E-13-5.56352E-13
 -1       333 2.05114E+01 3.04296E+00-2.17711E-02 1.60308E+00 8.15236E-13-2.20646E-13
 -1       334 2.12753E+01 2.14028E+00-2.86829E-02 1.85410E+00 8.28555E-13 3.81353E-13
 -1       335 2.17017E+01 1.17786E+00-2.21216E-02 1.53391E+00 7.48299E-13 9.55352E-13
 -1       336 2.12013E+01 5.20350E-01 9.76599E-03 4.98365E-01 6.03431E-13 7.34492E-13
 -1       337 2.11289E+01 6.95419E-01 1.27501E-02-6.03836E-01-5.82864E-13 3.57678E-15
 -1       338 2.08812E+01 3.73743E-01 7.44106E-03 2.73814E-03-4.46408E-13-5.92358E-14
 -1       339 2.08279E+01 2.11969E-01 4.19083E-03 3.54885E-01-3.37764E-13-1.03920E-13
 -1       340 2.09174E+01 1.02711E-01 1.62126E-03 5.55461E-01-2.47819E-13-1.47138E-13
 -1       341 2.11039E+01 3.37652E-03-8.30834E-05 6.38300E-01-1.89719E-13-1.53967E-13
 -1       342 2.13448E+01-1.06137E-01-1.45492E-03 6.06760E-01-1.22997E-13-1.46673E-13
 -1       343 2.15985E+01-2.31080E-01-2.68874E-03 4.49989E-01-1.37169E-13-1.35774E-13
 -1       344 2.18195E+01-3.58870E-01-3.61555E-03 1.58365E-01-1.46316E-13-8.87721E-14
 -1       345 2.19557E+01-4.52635E-01-3.76759E-03-2.55673E-01-1.27780E-13-9.33956E-14
 -1       346 2.19523E+01-4.52151E-01-2.75081E-03-7.31728E-01-1.47572E-13-2.08466E-13
 -1       347 2.17708E+01-2.95071E-01-7.13770E-04-1.14318E+00-7.43228E-14-2.15726E-13
 -1       348 2.14253E+01 3.39201E-02 1.59564E-03-1.31180E+00-1.60811E-14-1.62564E-13
 -1       349 2.10194E+01 4.46917E-01 3.39414E-03-1.08446E+00-1.51547E-13-2.68977E-13
 -1       350 2.07309E+01 7.58319E-01 4.31012E-03-4.54579E-01-1.91252E-13-3.95905E-13
 -1       351 2.07160E+01 7.95920E-01 4.49414E-03 3.73094E-01-1.25752E-13-5.80102E-13
 -1       352 2.09934E+01 5.39125E-01 3.81554E-03 1.07609E+00-9.53129E-14-6.64398E-13
 -1       353 2.14316E+01 1.34664E-01 2.22862E-03 1.40835E+00-1.25286E-13-6.62487E-13
 -1       354 2.18463E+01-2.21424E-01-3.25794E-04 1.33003E+00-1.02532E-13-6.14186E-13
 -1       355 2.21146E+01-4.16573E-01-2.51856E-03 9.70974E-01-2.80056E-14-6.16165E-13
 -1       356 2.22034E+01-4.47749E-01-3.67373E-03 5.10059E-01 5.62684E-14-6.67506E-13
 -1       357 2.21402E+01-3.72783E-01-3.68781E-03 8.52756E-02 1.12370E-13-5.74034E-13
 -1       358 2.19736E+01-2.56359E-01-2.95400E-03-2.33719E-01 9.89133E-14-4.00575E-13
 -1       359 2.17492E+01-1.42917E-01-1.95356E-03-4.32435E-01 1.40839E-13-3.50904E-13
 -1       360 2.15018E+01-5.33892E-02-1.01037E-03-5.27226E-01 8.17165E-14-4.10501E-13
 -1       361 2.12550E+01 7.59400E-03-2.75025E-04-5.45562E-01 9.12108E-15-4.73651E-13
 -1       362 2.10238E+01 4.36051E-02 2.19526E-04-5.14651E-01-8.98514E-15-4.56083E-13
 -1       363 2.08167E+01 6.09279E-02 5.03350E-04-4.56562E-01 3.30646E-14-4.30318E-13
 -1       364 2.06376E+01 6.57252E-02 6.29049E-04-3.87153E-01 1.77124E-13-4.37062E-13
 -1       365 2.04872E+01 6.29497E-02 6.49069E-04-3.16746E-01 5.77702E-14-4.16360E-13
 -1       366 2.03640E+01 5.61609E-02 6.06233E-04-2.51388E-01-1.03216E-16-3.00049E-13
 -1       367 2.02655E+01 4.77179E-02 5.31515E-04-1.94113E-01 8.42656E-14-2.47480E-13
 -1       368 2.01885E+01 3.90709E-02 4.45389E-04-1.45976E-01-1.01707E-13-2.75656E-13
 -1       369 2.01296E+01 3.10342E-02 3.60267E-04-1.06833E-01-1.80723E-13-3.65859E-13
 -1       370 2.00856E+01 2.40024E-02 2.82900E-04-7.58789E-02-1.07200E-13-4.09287E-13
 -1       371 2.00534E+01 1.81076E-02 2.16319E-04-5.20059E-02-6.56553E-14-4.01548E-13
 -1       372 2.00306E+01 1.33285E-02 1.61265E-04-3.40268E-02 1.81419E-13-3.47133E-13
 -1       373 2.00150E+01 9.56088E-03 1.17164E-04-2.08057E-02 1.76650E-13-4.47454E-13
 -1       374 2.00048E+01 6.66375E-03 8.27692E-05-1.13263E-02 6.13881E-14-2.60132E-13
 -1       375 1.99985E+01 4.48578E-03 5.65488E-05-4.72220E-03-1.09639E-13 1.98540E-14
 -1       376 1.99951E+01 2.88039E-03 3.69130E-05-2.83070E-04 1.90040E-13 4.11535E-15
 -1       377 1.99937E+01 1.71246E-03 2.23456E-05 2.55194E-03 4.90824E-13-2.20492E-13
 -1       378 1.99936E+01 8.59741E-04 1.14455E-05 4.20630E-03 3.41358E-13-2.76258E-14
 -1       379 1.99943E+01 2.10846E-04 3.02468E-06 4.97988E-03 1.29997E-13-5.26626E-14
 -1       380 1.99955E+01-3.36872E-04-3.39544E-06 5.06200E-03-2.42493E-13 3.24244E-13
 -1       381 1.99968E+01-8.83651E-04-1.05322E-05 4.55746E-03-2.13254E-13 3.90611E-13
 -1       382 1.99979E+01-1.34704E-03-1.54145E-05 3.59469E-03-8.50992E-14 2.30242E-13
 -1       383 2.09610E+01 2.92619E-01 1.18992E-02-1.08326E-01 4.55276E-13 5.65627E-13
 -1       384 2.09952E+01 2.05452E-01 7.56420E-03-5.00436E-01 2.92278E-13 4.18174E-13
 -1       385 2.12512E+01 1.64236E-01 4.22565E-03-7.89826E-01 1.79236E-13 3.35082E-13
 -1       386 2.16760E+01 1.32764E-01 2.15726E-03-1.01791E+00 1.53770E-13 2.45671E-13
 -1       387 2.22299E+01 8.49513E-02 3.05500E-04-1.18445E+00 9.57817E-14 2.02093E-13
 -1       388 2.28750E+01-6.58360E-03-1.96187E-03-1.25326E+00 1.75549E-13 2.25038E-13
 -1       389 2.35643E+01-1.70147E-01-4.61584E-03-1.15154E+00 1.35465E-13 1.94036E-13
 -1       390 2.42286E+01-4.17730E-01-7.08160E-03-7.78913E-01 8.05822E-15 2.59451E-13
 -1       391 2.47614E+01-7.03056E-01-8.46880E-03-5.08529E-02 1.34723E-14 2.49811E-13
 -1       392 2.50051E+01-8.59616E-01-9.07861E-03 9.93961E-01-1.14483E-14 3.09715E-13
 -1       393 2.47782E+01-6.02811E-01-1.15824E-02 2.02344E+00 2.77721E-14 2.89144E-13
 -1       394 2.40846E+01 1.97440E-01-1.23813E-02 2.35394E+00 2.27725E-13 1.52988E-13
 -1       395 2.32823E+01 1.18956E+00-2.17346E-02 1.46811E+00 3.02449E-13-1.37011E-13
 -1       396 2.30674E+01 1.52371E+00-2.28488E-02-4.06580E-01 3.89700E-13-4.21915E-13
 -1       397 2.36544E+01 8.88144E-01-1.69098E-02-2.04348E+00 3.32045E-13-6.42503E-13
 -1       398 2.45753E+01-1.29174E-01-7.03408E-03-2.47645E+00 7.75252E-14-7.14501E-13
 -1       399 2.51697E+01-7.51202E-01-1.00155E-03-1.79771E+00-2.21974E-13-5.50942E-13
 -1       400 2.52363E+01-8.33295E-01-9.06413E-03-7.08044E-01-1.93021E-13-4.21839E-13
 -1       401 2.49010E+01-6.01324E-01-1.00291E-02 2.37972E-01-1.62651E-13-4.35032E-13
 -1       402 2.43483E+01-3.16796E-01-8.27304E-03 8.25124E-01 1.67162E-13-2.35166E-13
 -1       403 2.37139E+01-9.86173E-02-4.67409E-03 1.08152E+00 9.68799E-14-3.81455E-13
 -1       404 2.30812E+01 3.11445E-02-1.58306E-03 1.11297E+00-1.89496E-13-3.47130E-13
 -1       405 2.24956E+01 9.25512E-02 4.24883E-04 1.02052E+00-1.07290E-13-3.00942E-13
 -1       406 2.19794E+01 1.11742E-01 1.46553E-03 8.75066E-01-9.19177E-14-3.44165E-13
 -1       407 2.15405E+01 1.08700E-01 1.83843E-03 7.18539E-01 1.56218E-13-4.63518E-14
 -1       408 2.11776E+01 9.58668E-02 1.82753E-03 5.72388E-01 1.13821E-13-7.02852E-14
 -1       409 2.08845E+01 8.00597E-02 1.63284E-03 4.45595E-01 8.81066E-15-1.14810E-13
 -1       410 2.06524E+01 6.46148E-02 1.37396E-03 3.40346E-01 1.67882E-13 1.44676E-13
 -1       411 2.04718E+01 5.09348E-02 1.11339E-03 2.55508E-01 9.00414E-14-1.35093E-13
 -1       412 2.03337E+01 3.94348E-02 8.79187E-04 1.88570E-01 7.73423E-14-3.69177E-13
 -1       413 2.02297E+01 3.00680E-02 6.80826E-04 1.36652E-01 1.82041E-14-3.75124E-13
 -1       414 2.01529E+01 2.25998E-02 5.18692E-04 9.69884E-02 1.31518E-13-4.71779E-13
 -1       415 2.00972E+01 1.67410E-02 3.89276E-04 6.71208E-02 2.58490E-14-3.48517E-13
 -1       416 2.00578E+01 1.22076E-02 2.87783E-04 4.49612E-02 5.41374E-14-2.97680E-13
 -1       417 2.00306E+01 8.74553E-03 2.09348E-04 2.87814E-02-1.80306E-13-6.87218E-14
 -1       418 2.00125E+01 6.13683E-03 1.49543E-04 1.71785E-02-3.72583E-14-1.67674E-13
 -1       419 2.00010E+01 4.19902E-03 1.04535E-04 9.03088E-03-2.97682E-13-9.67932E-14
 -1       420 1.99944E+01 2.78123E-03 7.10845E-05 3.45494E-03 4.68923E-14 2.41770E-13
 -1       421 1.99911E+01 1.75929E-03 4.64863E-05-2.33978E-04-2.64379E-13 2.15316E-13
 -1       422 1.99901E+01 1.03073E-03 2.84799E-05-2.55508E-03-1.18138E-13 1.44464E-14
 -1       423 1.99906E+01 5.09900E-04 1.51718E-05-3.88954E-03 1.24997E-13-1.91588E-13
 -1       424 1.99920E+01 1.22469E-04 5.02623E-06-4.50203E-03 2.97721E-13-1.53555E-14
 -1       425 1.99938E+01-2.01167E-04-2.53957E-06-4.55549E-03 2.59543E-13 2.75586E-13
 -1       426 1.99957E+01-5.21471E-04-7.27309E-06-4.12226E-03 1.45383E-13 2.84012E-13
 -1       427 1.99975E+01-8.94962E-04-8.74730E-06-3.21307E-03-7.01114E-14 5.27130E-13
 -1       428 1.99985E+01-1.23122E-03-9.76062E-06-2.47543E-03-1.61867E-13 5.81273E-13
 -1       429 2.00001E+01-4.84383E-03 5.83777E-07-4.21656E-03 9.63882E-14 2.18085E-13
 -1       430 1.99994E+01-3.41499E-03-8.40578E-06-4.19639E-03 6.93645E-14 2.65476E-13
 -1       431 1.99989E+01-2.34264E-03-1.36658E-05-3.55385E-03-7.22238E-15 5.20189E-13
 -1       432 2.00005E+01-6.09051E-03 5.87044E-06-3.70580E-03-3.06383E-14-6.19462E-13
 -1       433 2.00008E+01-7.10914E-03 9.27462E-06-2.83316E-03 4.44917E-14-4.33373E-13
 -1       434 2.00009E+01-7.80954E-03 1.14703E-05-1.74927E-03 1.78519E-13-8.00467E-14
 -1       435 2.00010E+01-8.15675E-03 1.24772E-05-5.62366E-04-1.56022E-13 3.39311E-13
 -1       436 2.00010E+01-8.13734E-03 1.24194E-05 6.49215E-04 8.17645E-14-2.26272E-13
 -1       437 2.00009E+01-7.75479E-03 1.13101E-05 1.81993E-03-9.14435E-14-5.27212E-13
 -1       438 2.00008E+01-7.04375E-03 8.99470E-06 2.85914E-03 9.07054E-15-5.41243E-13
 -1       439 2.00005E+01-6.01882E-03 5.43297E-06 3.70243E-03 1.07553E-14 2.23170E-13
 -1       440 2.00000E+01-4.75149E-03 2.61266E-07 4.19288E-03-3.57524E-15 2.54254E-13
 -1       441 1.99994E+01-3.35561E-03-9.16477E-06 4.18848E-03-2.45192E-13 3.40483E-13
 -1       442 1.08139E+01-5.82138E+00-5.13272E-02 6.67245E+00 4.94327E-14 7.64548E-13
 -1       443 1.21651E+00-4.21561E+00-3.98273E-02-1.38452E-01 1.54100E-13 1.55095E-12
 -1       444 3.27371E+00-4.80397E+00-6.12460E-02 3.80460E+00 1.21861E-13 1.26034E-12
 -1       445 1.92972E+01-5.70091E+00-3.03852E-02 6.39370E+00 2.77681E-13 6.57224E-13
 -1       446 2.71791E+01-4.15466E+00-1.97217E-02 3.79133E+00 3.29625E-13 1.97120E-13
 -1       447 1.99020E+01 3.54033E+00-1.96772E-02-1.25713E+00-5.37814E-13-8.15035E-13
 -1       448 3.57894E+01 5.77373E+00 3.95155E-02-6.10330E-01 1.35979E-12-1.31756E-13
 -1       449 3.75803E+01 7.79752E+00 1.47273E-01-2.24118E-01 1.58956E-12 5.97994E-14
 -1       450 3.70950E+01 6.97741E+00 1.15966E-01 2.67878E-01 1.65334E-12 1.49103E-13
 -1       451 3.47560E+01 3.25507E+00 3.50913E-02 1.17305E-01 1.19699E-12 1.11397E-13
 -1       452 3.08651E+01-1.61889E+00 5.35174E-03-2.45521E+00 7.63840E-13-1.57735E-13
 -1       453 2.40124E+01-4.52873E+00-2.93314E-02-5.48520E+00 4.86181E-13-6.62539E-13
 -1       454 1.56727E+01-5.96865E+00-5.04441E-02-6.95367E+00 6.69742E-14-1.01250E-12
 -1       455 7.12031E+00-5.67347E+00-8.71707E-02-5.96974E+00-6.59750E-14-1.46505E-12
 -1       456 1.76506E+00-5.21538E+00-1.17029E-01-2.53005E+00-1.10086E-13-1.79849E-12
 -1       457 1.60746E+00-4.26469E+00-3.31367E-02 1.82815E+00-1.67696E-13-1.77700E-12
 -1       458 5.02342E+00-5.16360E+00-5.84740E-02 5.41961E+00-2.22822E-13-1.68587E-12
 -1       459 1.34146E+01-5.54557E+00 3.73828E-02 7.44102E+00-1.60164E-13-1.03753E-12
 -1       460 1.95040E+01-5.45908E+00-1.74708E-02 6.68190E+00-5.35044E-13-8.31057E-13
 -1       461 2.65380E+01-2.95197E+00-2.62673E-02 4.63264E+00-9.97230E-13-5.89792E-13
 -1       462 3.22255E+01 1.70069E+00-3.41521E-02 6.88599E-01-1.13068E-12-2.75072E-13
 -1       463 3.42638E+01 5.30750E+00-1.10573E-02-5.97159E-02-1.40478E-12-3.00301E-13
 -1       464 3.54252E+01 7.96934E+00 2.67011E-02-1.16267E-01-1.48964E-12-3.01620E-13
 -1       465 3.58668E+01 7.71628E+00 6.43562E-02 1.36389E-01-1.41401E-12-3.47528E-13
 -1       466 3.38232E+01 4.20464E+00-9.17275E-03-1.03302E-01-9.96092E-13-4.27838E-13
 -1       467 3.13834E+01 2.74448E-01 6.49893E-03-1.41548E+00-5.99507E-13-4.45560E-13
 -1       468 2.53238E+01-3.89544E+00-2.00188E-02-4.89763E+00-1.82576E-13-6.93889E-16
 -1       469 1.78793E+01-5.36310E+00-1.86303E-02-6.96237E+00-5.09315E-14 3.18672E-13
 -1       470 1.02517E+01-5.37393E+00-1.58025E-02-7.04329E+00 1.90167E-13 8.45296E-13
 -1       471 4.44989E+00-4.75902E+00-2.02413E-02-5.07498E+00 1.81313E-13 1.44892E-12
 -1       472 3.25143E+01-1.04488E-01-3.81688E-02 4.56564E-01 8.46764E-13-2.63997E-13
 -1       473 3.17369E+01 2.22341E+00-1.14505E-01-2.02038E+00 8.02101E-13-6.66800E-13
 -1       474 2.97428E+01-1.87418E+00-3.81142E-02 9.35528E-01-6.10200E-13 1.64535E-13
 -1       475 2.10338E+01 9.65743E-01 4.49425E-03 3.26641E-01 6.09868E-13 1.00671E-13
 -1       476 1.91957E+01 3.50181E+00-4.31079E-03-2.46413E-01-1.58543E-13-8.95234E-13
 -1       477 1.95312E+01 3.23056E+00-5.05551E-03-4.66641E-01-3.03486E-13-8.75308E-13
 -1       478 1.88595E+01 3.76261E+00-3.65446E-03 8.44638E-02 1.07296E-13-9.15176E-13
 -1       479 1.88945E+01 3.74537E+00-3.72867E-03 2.15788E-01 2.46178E-13-8.75838E-13
 -1       480 1.90732E+01 3.62043E+00-4.20429E-03 3.47072E-01 3.67934E-13-8.33756E-13
 -1       481 1.93989E+01 3.37071E+00-5.04541E-03 5.00947E-01 5.02310E-13-7.13311E-13
 -1       482 1.98547E+01 2.97911E+00-6.03642E-03 6.82332E-01 6.15229E-13-5.79832E-13
 -1       483 2.04256E+01 2.40980E+00-5.56463E-03 8.75896E-01 7.04738E-13-3.66839E-13
 -1       484 2.09374E+01 6.49660E-01 5.93982E-03-3.19661E-01 4.57221E-13 4.27185E-14
 -1       485 2.08695E+01 1.05377E+00 3.27766E-03-3.84655E-01-5.14959E-13-3.05397E-13
 -1       486 2.08176E+01 6.31594E-01 2.06134E-03 1.60849E-01-3.92111E-13-2.74775E-13
 -1       487 2.08253E+01 3.66982E-01 1.03894E-03 5.26845E-01-3.06395E-13-2.52859E-13
 -1       488 2.09165E+01 1.54718E-01 2.20868E-04 7.46632E-01-2.27225E-13-2.54173E-13
 -1       489 2.10916E+01-5.75199E-02-4.00809E-04 8.32561E-01-1.49607E-13-1.96187E-13
 -1       490 2.13433E+01-2.95629E-01-1.01110E-03 7.77186E-01-1.13293E-13-1.91756E-13
 -1       491 2.16576E+01-5.58191E-01-1.57337E-03 5.61868E-01-1.01662E-13-1.64667E-13
 -1       492 2.20047E+01-8.04585E-01-1.86660E-03 1.71760E-01-1.42958E-13-1.23807E-13
 -1       493 2.23241E+01-9.40834E-01-1.21162E-03-3.76031E-01-1.44097E-13-2.62412E-14
 -1       494 2.25234E+01-8.32837E-01 2.16316E-04-9.92241E-01-9.94944E-14 6.78095E-14
 -1       495 2.25046E+01-3.65461E-01 6.01638E-04-1.48317E+00-3.19255E-14 2.26128E-14
 -1       496 2.22484E+01 4.28033E-01-6.62776E-04-1.57379E+00-1.36194E-13-1.05268E-13
 -1       497 2.18992E+01 1.25499E+00-2.22092E-03-1.06690E+00-3.36166E-13-4.86491E-14
 -1       498 2.17154E+01 1.66730E+00-2.77856E-03-6.35178E-02-2.79155E-13-1.68464E-13
 -1       499 2.18536E+01 1.40791E+00-1.82713E-03 9.99544E-01-2.28542E-13-3.64874E-13
 -1       500 2.22119E+01 6.41069E-01-1.82965E-04 1.64727E+00-1.57297E-13-5.10836E-13
 -1       501 2.25281E+01-1.87510E-01 2.34729E-05 1.69031E+00-6.52770E-14-4.93842E-13
 -1       502 2.26237E+01-7.33883E-01-6.28528E-04 1.27952E+00-2.61021E-14-4.61146E-13
 -1       503 2.24870E+01-9.15490E-01-1.61173E-03 6.84927E-01 5.57481E-14-4.93805E-13
 -1       504 2.22029E+01-8.27402E-01-1.95503E-03 1.20574E-01 1.88454E-13-3.19096E-13
 -1       505 2.18659E+01-6.10492E-01-1.68049E-03-3.08141E-01 2.37353E-13-2.16709E-13
 -1       506 2.15383E+01-3.72793E-01-1.16615E-03-5.79248E-01 1.25018E-14-2.91376E-13
 -1       507 2.12484E+01-1.71818E-01-6.58683E-04-7.13921E-01-1.06448E-13-5.58474E-13
 -1       508 2.10033E+01-2.64503E-02-2.55467E-04-7.47429E-01 1.65554E-14-6.51713E-13
 -1       509 2.08000E+01 6.56594E-02 2.06322E-05-7.14328E-01 7.06565E-14-4.87562E-13
 -1       510 2.06327E+01 1.15416E-01 1.85237E-04-6.42793E-01 1.18640E-13-4.23185E-13
 -1       511 2.04957E+01 1.35201E-01 2.65906E-04-5.53461E-01 7.53473E-14-3.57786E-13
 -1       512 2.03840E+01 1.35739E-01 2.89476E-04-4.60220E-01 8.01334E-14-3.63748E-13
 -1       513 2.02935E+01 1.25172E-01 2.78205E-04-3.71624E-01 6.12449E-14-4.42295E-13
 -1       514 2.02211E+01 1.09172E-01 2.48323E-04-2.92344E-01 3.23840E-14-3.67679E-13
 -1       515 2.01636E+01 9.14140E-02 2.10698E-04-2.24388E-01-7.21890E-14-4.33463E-13
 -1       516 2.01187E+01 7.41073E-02 1.72046E-04-1.68064E-01-1.94036E-14-3.51710E-13
 -1       517 2.00841E+01 5.84472E-02 1.36137E-04-1.22670E-01-1.38643E-13-3.21081E-13
 -1       518 2.00579E+01 4.49658E-02 1.04788E-04-8.69743E-02-1.01521E-13-7.85923E-14
 -1       519 2.00385E+01 3.37835E-02 7.85990E-05-5.95402E-02-1.70947E-14-3.25407E-13
 -1       520 2.00243E+01 2.47829E-02 5.74547E-05-3.89192E-02 1.03702E-16-2.69920E-13
 -1       521 2.00143E+01 1.77230E-02 4.08622E-05-2.37680E-02 2.58004E-13-4.86093E-13
 -1       522 2.00075E+01 1.23116E-02 2.81600E-05-1.29062E-02 4.91588E-14-2.50886E-13
 -1       523 2.00030E+01 8.24788E-03 1.86366E-05-5.33936E-03 5.50312E-14-6.92892E-15
 -1       524 2.00003E+01 5.24558E-03 1.15788E-05-2.58935E-04 1.46134E-13 4.46055E-14
 -1       525 1.99987E+01 3.04304E-03 6.38562E-06 2.96825E-03 5.45224E-13-1.53511E-13
 -1       526 1.99981E+01 1.40510E-03 2.45374E-06 4.81752E-03 2.29845E-13 1.48553E-13
 -1       527 1.99980E+01 1.19699E-04-3.04501E-07 5.62362E-03 2.39032E-13 3.60105E-13
 -1       528 1.99982E+01-1.00172E-03-2.80599E-06 5.60341E-03-1.14227E-13 6.02284E-13
 -1       529 2.10912E+01 3.93412E-01 1.92927E-03-1.18119E+00 2.57808E-13-1.40759E-13
 -1       530 2.13368E+01 2.95489E-01 8.79461E-04-1.48376E+00 1.58853E-13-2.08557E-13
 -1       531 2.16930E+01 1.38115E-01-3.04253E-04-1.69752E+00 1.35094E-13-2.28709E-13
 -1       532 2.21780E+01-1.41766E-01-1.94560E-03-1.77255E+00 6.37434E-14-1.36379E-13
 -1       533 2.28296E+01-5.98530E-01-3.85400E-03-1.61506E+00 2.46591E-15-7.48045E-15
 -1       534 2.36839E+01-1.22153E+00-6.17029E-03-1.09567E+00-3.77340E-14 6.34521E-14
 -1       535 2.47114E+01-1.82371E+00-9.79556E-03-9.75304E-02-4.38918E-14 1.60893E-13
 -1       536 2.57133E+01-1.91486E+00-1.84794E-02 1.33997E+00-4.31991E-14 2.62081E-13
 -1       537 2.62531E+01-7.74103E-01-1.90125E-02 2.70280E+00 1.46101E-13 3.02664E-13
 -1       538 2.57314E+01 1.59138E+00-1.06969E-01 2.77918E+00 5.12219E-13 2.07458E-13
 -1       539 2.54813E+01 3.38109E+00-8.96496E-02 7.56422E-01 6.83446E-13-1.41782E-13
 -1       540 2.55722E+01 2.90290E+00-9.20121E-02-1.84301E+00 6.69433E-13-7.40562E-13
 -1       541 2.60539E+01 6.16283E-01-6.89396E-02-3.04689E+00 2.28711E-13-8.78758E-13
 -1       542 2.61654E+01-1.34704E+00-4.98665E-02-2.44300E+00-2.53458E-13-9.57824E-13
 -1       543 2.55128E+01-1.94910E+00-1.51152E-02-9.76712E-01-4.35657E-13-7.03951E-13
 -1       544 2.44762E+01-1.61038E+00-6.94245E-03 3.77144E-01-2.14045E-13-4.09940E-13
 -1       545 2.35218E+01-9.59547E-01-7.59922E-03 1.18417E+00-1.00948E-13-5.48334E-13
 -1       546 2.27698E+01-3.92578E-01-4.17183E-03 1.54468E+00 1.26344E-13-2.87895E-13
 -1       547 2.22010E+01-2.12739E-02-1.54135E-03 1.60679E+00-3.22794E-14-1.99355E-13
 -1       548 2.17642E+01 1.77206E-01 7.26225E-05 1.49902E+00-1.31504E-13-3.94862E-13
 -1       549 2.14167E+01 2.58483E-01 9.12986E-04 1.31160E+00-2.14935E-15-3.05267E-13
 -1       550 2.11320E+01 2.71946E-01 1.23439E-03 1.10004E+00-5.15853E-14-4.01362E-13
 -1       551 2.08956E+01 2.51418E-01 1.25913E-03 8.95055E-01 2.93604E-14-3.07993E-13
 -1       552 2.06994E+01 2.17077E-01 1.13862E-03 7.11470E-01 7.39835E-15-7.48074E-14
 -1       553 2.05380E+01 1.79783E-01 9.64024E-04 5.54727E-01-1.49921E-14-1.20252E-13
 -1       554 2.04071E+01 1.44784E-01 7.83642E-04 4.25143E-01 2.01079E-13 5.25347E-14
 -1       555 2.03026E+01 1.14213E-01 6.19681E-04 3.20515E-01 7.51885E-14 1.60521E-13
 -1       556 2.02204E+01 8.85996E-02 4.80085E-04 2.37607E-01 3.11743E-14 1.98313E-13
 -1       557 2.01570E+01 6.77126E-02 3.65729E-04 1.72962E-01 2.22173E-13 1.80613E-13
 -1       558 2.01088E+01 5.10098E-02 2.74385E-04 1.23301E-01 1.65782E-13-7.87878E-14
 -1       559 2.00730E+01 3.78616E-02 2.02753E-04 8.57044E-02-2.17838E-14-2.12867E-13
 -1       560 2.00468E+01 2.76555E-02 1.47420E-04 5.76681E-02-1.17211E-13-2.47430E-14
 -1       561 2.00282E+01 1.98395E-02 1.05257E-04 3.70977E-02-1.46248E-13 4.62745E-14
 -1       562 2.00153E+01 1.39358E-02 7.35560E-05 2.22766E-02-1.28924E-13 1.96003E-13
 -1       563 2.00068E+01 9.53990E-03 5.00431E-05 1.18208E-02-2.52993E-13 3.65175E-14
 -1       564 2.00014E+01 6.31329E-03 3.28224E-05 4.63384E-03-1.79494E-13 1.72624E-13
 -1       565 1.99982E+01 3.97416E-03 2.03329E-05-1.36899E-04 7.83825E-14 5.10882E-14
 -1       566 1.99967E+01 2.28725E-03 1.12777E-05-3.13781E-03 1.00040E-13-3.30083E-14
 -1       567 1.99963E+01 1.05465E-03 4.53023E-06-4.84239E-03 1.16810E-13 2.43575E-13
 -1       568 1.99965E+01 1.04283E-04-6.75288E-07-5.58013E-03-1.23924E-13 2.53346E-13
 -1       569 1.99971E+01-7.22573E-04-6.93935E-06-5.57038E-03 9.95663E-14 6.13203E-13
 -1       570 1.99980E+01-1.53846E-03-9.75664E-06-4.91659E-03-7.07441E-14 9.28259E-13
 -1       571 2.00015E+01-3.92273E-03 3.48244E-06-3.93115E-03 2.44188E-13-4.29581E-13
 -1       572 2.00019E+01-4.25163E-03 4.50364E-06-2.72461E-03 3.44897E-13-1.71052E-13
 -1       573 1.99998E+01-2.72832E-03-2.51912E-06-5.28456E-03-6.17459E-14 3.45987E-14
 -1       574 2.00008E+01-3.41987E-03 2.23375E-06-4.83673E-03-2.36722E-13 4.17074E-14
 -1       575 2.00021E+01-4.42479E-03 5.33540E-06-1.36086E-03 1.15686E-13 7.81003E-15
 -1       576 2.00022E+01-4.46572E-03 5.59600E-06 6.16408E-05 2.12455E-13 4.90189E-14
 -1       577 2.00021E+01-4.38623E-03 5.30004E-06 1.47254E-03 1.33466E-13-5.13263E-13
 -1       578 2.00019E+01-4.18646E-03 4.45825E-06 2.78352E-03 2.18685E-13-4.73568E-13
 -1       579 2.00015E+01-3.84228E-03 3.08251E-06 3.95169E-03 4.14779E-13-3.87641E-13
 -1       580 2.00008E+01-3.31878E-03 1.27012E-06 4.82897E-03 9.95830E-14 4.53253E-14
 -1       581 1.99998E+01-2.61543E-03-2.52080E-06 5.20565E-03-3.53481E-13 7.04683E-14
 -1       582 1.76838E+01-5.49756E+00 7.70295E-02 6.44887E+00-3.80973E-13 4.21246E-13
 -1       583 5.40822E+00-1.51717E+00 1.78566E-01-2.97743E+00 2.99701E-13 1.36352E-12
 -1       584 2.09558E+01 4.89945E-01 3.44012E-03-8.01311E-01 3.14404E-13-3.54253E-14
 -1       585 5.63056E+00-1.20211E+00 1.85150E-01 2.15790E+00-2.77799E-14 1.09372E-12
 -1       586 1.66790E+01-5.07530E+00 9.09242E-02-6.96797E+00 7.00745E-13 1.83874E-13
 -1       587 2.43555E+01-5.75880E+00 1.19893E-02 4.24938E+00-2.89685E-13-2.28314E-13
 -1       588 9.90779E+00-3.41774E+00 1.43554E-01 5.87369E+00-4.20997E-13 7.25905E-13
 -1       589 3.00548E+01 5.53605E+00-1.70309E-01 1.61894E+00-1.03935E-12-6.53796E-13
 -1       590 2.48522E+01-5.26907E+00-2.19787E-04 4.27752E+00 1.02002E-15 8.43874E-14
 -1       591 1.10299E+01-3.67707E+00 1.23189E-01 6.63136E+00 3.98070E-13-1.09494E-12
 -1       592 1.89653E+01 3.67903E+00-3.85477E-03-6.46027E-02-1.19991E-14-9.04608E-13
 -1       593 3.14405E+01 4.33084E+00-1.30675E-01 2.11787E+00 1.16168E-12 3.80716E-13
 -1       594 3.17876E+01 6.31432E+00-1.57108E-01-1.39299E+00 1.27197E-12-3.93748E-13
 -1       595 3.10664E+01 6.84814E+00-1.74317E-01 4.17463E-01 1.49381E-12-1.54160E-13
 -1       596 3.07392E+01-6.97430E-01-1.03310E-01 1.48207E+00 6.01890E-13 6.11906E-13
 -1       597 2.79007E+01-4.71558E+00-2.93534E-02-2.22079E+00-1.14748E-13 2.20164E-13
 -1       598 2.25785E+01-5.93294E+00 4.12193E-02-5.38475E+00-4.44277E-13-1.62821E-13
 -1       599 1.41828E+01-4.76968E+00 1.03053E-01-6.81645E+00-6.17770E-13-8.25132E-13
 -1       600 6.97092E+00-2.92516E+00 1.39316E-01-4.78644E+00-3.85379E-13-1.40150E-12
 -1       601 4.79834E+00-1.40359E+00 1.89474E-01-9.18912E-01-1.05516E-13-1.72704E-12
 -1       602 6.43222E+00-2.20709E+00 1.68601E-01 4.32505E+00 1.97134E-13-1.51532E-12
 -1       603 2.04374E+01-5.47348E+00 6.79509E-02 6.17225E+00 2.75745E-13-2.90037E-13
 -1       604 2.98072E+01 7.42502E+00-1.76196E-01 2.65381E-01-1.29168E-12-3.87748E-13
 -1       605 2.98691E+01 2.70331E+00-1.50137E-01-1.64427E+00-9.75706E-13 2.85480E-13
 -1       606 2.29847E+01-5.46256E+00 1.93255E-02-5.14507E+00 4.15841E-13-3.50130E-13
 -1       607 3.01342E+01 6.17484E+00-1.66305E-01-1.30468E+00-1.26099E-12-7.77156E-16
 -1       608 2.96518E+01 1.28586E+00-1.26734E-01 1.54619E+00-5.29375E-13-6.92897E-13
 -1       609 2.81357E+01-3.28022E+00-5.00325E-02-1.37543E+00 7.00247E-14-6.30114E-13
 -1       610 9.91151E+00-3.46930E+00 1.33461E-01-6.39495E+00 6.96013E-13 6.59209E-13
 -1       611 2.07989E+01 1.82885E+00-5.77867E-03-1.03312E+00-6.37343E-13-4.02374E-13
 -1       612 2.11771E+01 1.37092E+00-4.64483E-04 1.00418E+00 7.34083E-13 2.10846E-13
 -1       613 2.93067E+01-3.31522E+00-3.95300E-02 2.40530E-01-5.50645E-14-7.76677E-13
 -1       614 1.99504E+01 2.86112E+00-6.39143E-03-7.18955E-01-4.52916E-13-7.91971E-13
 -1       615 2.94992E+01-1.28835E+00-1.10378E-01-2.08317E+00 2.29721E-13-1.00628E-12
 -1       616 2.97793E+01 3.47542E+00-1.29916E-01-2.65371E+00 7.41948E-13-8.25971E-13
 -1       617 1.99985E+01-1.73094E-03-5.78757E-06 5.18638E-03-2.26296E-13 7.58578E-13
 -1       618 1.71814E+01-4.43439E+00 9.67284E-02 6.51054E+00 5.95531E-13-4.71533E-13
 -1       619 2.88526E+01-1.94610E-01-9.09881E-02-1.28155E+00-4.98518E-13 4.43257E-13
 -1       620 1.90349E+01 3.15842E+00-1.13444E-03 1.59443E-01 2.63019E-13-7.57323E-13
 -1       621 1.89298E+01 3.23435E+00-1.07856E-03 1.38363E-01 1.62217E-13-7.92614E-13
 -1       622 1.97137E+01 2.58523E+00-1.55081E-03 2.20924E-01 4.86802E-13-5.62734E-13
 -1       623 2.02223E+01 2.07147E+00-1.89966E-03 2.64266E-01 5.75581E-13-4.27733E-13
 -1       624 2.06680E+01 1.33847E+00 2.71631E-03 3.42059E-02 5.56759E-13-2.32621E-13
 -1       625 1.07086E+01-9.56977E-01 1.30395E-01 4.05095E+00-1.69328E-13 5.69253E-13
 -1       626 2.06116E+01 1.00284E+00 1.55820E-03-5.60287E-01 4.28691E-13-2.67732E-13
 -1       627 2.54346E+01-4.64864E+00-9.62999E-03-2.41723E+00 4.15159E-13-5.00912E-13
 -1       628 2.06106E+01 8.24640E-01 2.47568E-04 3.79171E-01-3.03809E-13-4.26807E-13
 -1       629 2.06609E+01 4.77890E-01 1.05583E-04 7.25871E-01-2.42611E-13-3.70576E-13
 -1       630 2.07773E+01 1.58271E-01-3.57423E-05 9.51102E-01-1.50300E-13-2.97186E-13
 -1       631 2.09898E+01-1.86270E-01-2.60845E-04 1.04969E+00-9.62776E-14-2.79409E-13
 -1       632 2.13225E+01-5.80806E-01-5.45110E-04 1.00070E+00-5.98425E-14-2.22333E-13
 -1       633 2.17866E+01-1.00907E+00-9.17719E-04 7.68497E-01-4.51864E-14-1.43448E-13
 -1       634 2.23626E+01-1.38805E+00-1.02442E-03 3.13560E-01-4.17217E-14 3.85394E-14
 -1       635 2.29579E+01-1.53004E+00 9.09483E-04-3.63302E-01-5.55320E-14 1.09604E-13
 -1       636 2.34100E+01-1.19834E+00 8.37449E-04-1.15771E+00-1.47409E-13 1.25265E-13
 -1       637 2.35025E+01-1.87085E-01-5.31682E-03-1.76280E+00-1.80984E-13 8.36212E-14
 -1       638 2.32146E+01 1.30384E+00-1.36196E-02-1.72336E+00-2.13386E-13 7.33376E-15
 -1       639 2.28436E+01 2.54160E+00-1.72530E-02-7.95873E-01-3.95125E-13-4.21780E-14
 -1       640 2.27829E+01 2.70645E+00-2.00698E-02 6.30363E-01-4.29848E-13-2.06220E-13
 -1       641 2.31400E+01 1.63891E+00-9.57210E-03 1.72967E+00-3.09141E-13-3.52856E-13
 -1       642 2.34732E+01 1.47874E-01-7.70230E-03 1.97119E+00-7.14208E-14-4.02357E-13
 -1       643 2.34713E+01-9.89627E-01-1.53730E-03 1.48272E+00 2.91331E-14-3.65993E-13
 -1       644 2.30863E+01-1.46644E+00-8.99234E-04 7.12448E-01 1.97967E-14-1.76735E-13
 -1       645 2.25036E+01-1.41497E+00-1.05589E-03 1.98166E-03 1.13501E-13-1.96445E-13
 -1       646 2.19042E+01-1.09118E+00-9.02720E-04-5.05798E-01 2.31506E-13-2.87605E-13
 -1       647 2.13926E+01-7.00565E-01-5.92553E-04-8.02847E-01 8.30088E-14-3.61583E-13
 -1       648 2.09998E+01-3.55902E-01-3.20720E-04-9.34045E-01-1.26790E-13-2.53366E-13
 -1       649 2.07157E+01-9.76442E-02-1.25789E-04-9.51303E-01-7.97205E-14-1.81676E-13
 -1       650 2.05165E+01 7.29765E-02-7.37663E-06-8.97517E-01 1.25050E-13-3.04304E-13
 -1       651 2.03781E+01 1.71265E-01 5.74260E-05-8.04374E-01 1.87602E-13-2.47589E-13
 -1       652 2.02814E+01 2.16546E-01 8.88060E-05-6.93843E-01 9.92518E-14-2.09481E-13
 -1       653 2.02124E+01 2.26400E-01 9.84138E-05-5.80373E-01 8.15549E-14-2.28842E-13
 -1       654 2.01620E+01 2.14692E-01 9.53002E-05-4.72863E-01 7.98620E-14-1.63613E-13
 -1       655 2.01243E+01 1.91433E-01 8.54662E-05-3.76262E-01 3.88167E-14-2.95392E-13
 -1       656 2.00954E+01 1.63370E-01 7.27882E-05-2.92792E-01 2.53868E-14-2.39502E-13
 -1       657 2.00730E+01 1.34756E-01 5.96365E-05-2.22880E-01-1.61138E-13-1.73422E-13
 -1       658 2.00554E+01 1.08052E-01 4.73449E-05-1.65844E-01-1.22440E-13-1.59108E-13
 -1       659 2.00416E+01 8.45040E-02 3.65648E-05-1.20384E-01-1.83496E-13-2.13004E-13
 -1       660 2.00308E+01 6.45713E-02 2.75226E-05-8.49222E-02-2.35578E-13-1.95769E-13
 -1       661 2.00225E+01 4.82316E-02 2.01955E-05-5.78280E-02-6.57800E-14-3.01914E-13
 -1       662 2.00161E+01 3.51928E-02 1.44272E-05-3.75535E-02 2.95929E-14-2.33795E-13
 -1       663 2.00112E+01 2.50309E-02 9.99506E-06-2.27103E-02 1.55020E-13-3.58406E-13
 -1       664 2.00076E+01 1.72766E-02 6.66477E-06-1.21047E-02 1.73238E-13-2.95844E-13
 -1       665 2.00049E+01 1.14658E-02 4.19091E-06-4.74512E-03 1.50670E-13-2.11646E-13
 -1       666 2.00030E+01 7.16577E-03 2.27110E-06 1.65111E-04 3.56923E-13 1.11006E-13
 -1       667 2.00017E+01 3.98506E-03 8.97001E-07 3.24379E-03 5.25348E-13-2.80124E-14
 -1       668 2.00008E+01 1.57712E-03 1.59199E-06 4.95523E-03 4.17034E-13 1.06229E-13
 -1       669 2.00002E+01-3.70967E-04-1.66423E-06 5.60845E-03 1.46514E-13 2.24878E-13
 -1       670 2.06715E+01 4.59656E-01 3.11895E-04-1.81480E+00 1.56458E-13-2.30883E-13
 -1       671 7.83131E+00-2.28263E-01 1.49018E-01 1.76172E+00 1.68609E-13-1.38053E-12
 -1       672 2.05894E+01 6.46702E-01 5.04335E-04-1.46433E+00 2.33431E-13-2.60870E-13
 -1       673 2.12745E+01-3.82255E-01-1.22763E-04-2.26275E+00-1.39079E-14-1.53895E-13
 -1       674 2.20346E+01-1.22047E+00 1.74642E-03-2.22289E+00-9.29154E-14-1.22590E-13
 -1       675 2.33067E+01-2.29723E+00 5.03489E-03-1.79231E+00-1.61749E-13 1.98500E-14
 -1       676 2.51542E+01-3.21665E+00 8.39326E-03-7.47523E-01-2.09335E-13 1.90423E-13
 -1       677 2.73870E+01-3.02596E+00-6.59002E-05 1.08512E+00-1.04909E-13 4.94664E-13
 -1       678 2.44089E+01-2.98232E+00 4.01059E-03 1.13557E+00-4.36772E-13-8.62464E-13
 -1       679 2.27875E+01-1.85351E+00-3.27149E-03 1.85158E+00-2.44599E-13-6.15700E-13
 -1       680 2.17388E+01-8.46476E-01-2.05972E-03 2.09848E+00-9.95269E-14-5.18081E-13
 -1       681 2.11328E+01-1.54278E-01-8.43243E-04 2.05097E+00-2.54303E-14-3.32709E-13
 -1       682 2.08016E+01 2.38926E-01-1.20614E-04 1.86500E+00-1.71403E-14-1.81974E-13
 -1       683 2.06167E+01 4.20132E-01 2.69480E-04 1.62353E+00-5.31628E-14-2.18920E-13
 -1       684 2.05022E+01 4.72048E-01 4.21540E-04 1.37053E+00 6.05633E-14-2.59538E-13
 -1       685 2.04194E+01 4.54090E-01 4.48671E-04 1.12952E+00 4.00322E-14-3.43308E-13
 -1       686 2.03510E+01 4.03672E-01 4.13717E-04 9.12397E-01-1.02745E-13-3.36718E-13
 -1       687 2.02905E+01 3.42278E-01 3.54580E-04 7.24096E-01 2.28148E-14-2.45390E-13
 -1       688 2.02365E+01 2.81222E-01 2.91032E-04 5.65349E-01-6.60242E-14-1.42703E-13
 -1       689 2.01889E+01 2.25820E-01 2.32136E-04 4.34492E-01-5.98074E-14 5.04152E-14
 -1       690 2.01478E+01 1.78064E-01 1.81335E-04 3.28641E-01-2.54627E-14 1.57921E-13
 -1       691 2.01133E+01 1.38220E-01 1.39289E-04 2.44431E-01 2.28620E-13 3.61719E-14
 -1       692 2.00850E+01 1.05735E-01 1.05401E-04 1.78462E-01 3.55266E-13 1.56224E-14
 -1       693 2.00624E+01 7.97193E-02 7.86039E-05 1.27546E-01 3.00652E-13-4.00009E-14
 -1       694 2.00447E+01 5.92007E-02 5.77366E-05 8.88321E-02-1.29175E-13-1.26033E-13
 -1       695 2.00311E+01 4.32450E-02 4.17076E-05 5.98501E-02-1.01655E-13-5.92076E-14
 -1       696 2.00210E+01 3.10085E-02 2.95566E-05 3.85136E-02-2.14075E-13-4.62963E-14
 -1       697 2.00135E+01 2.17553E-02 2.04622E-05 2.30958E-02-2.21748E-13 7.73374E-14
 -1       698 2.00083E+01 1.48566E-02 1.37577E-05 1.21942E-02-1.32915E-13 7.53735E-14
 -1       699 2.00046E+01 9.78151E-03 8.85693E-06 4.69131E-03 8.53256E-14-8.23185E-14
 -1       700 2.00022E+01 6.08341E-03 5.31188E-06-2.84129E-04 2.02349E-13 2.59057E-14
 -1       701 2.00007E+01 3.38636E-03 2.58825E-06-3.39155E-03-5.08825E-14-1.56843E-13
 -1       702 1.99998E+01 1.37802E-03 1.01151E-06-5.11637E-03-9.72337E-14-1.08914E-13
 -1       703 1.99994E+01-2.26245E-04 2.20828E-06-5.79798E-03-1.53284E-13-7.61802E-14
 -1       704 1.99996E+01-1.41576E-03-8.64717E-07-5.74395E-03-3.29935E-13-2.67654E-14
 -1       705 2.00034E+01-8.60258E-04 1.69611E-06-6.34134E-04 1.56740E-13 3.03309E-13
 -1       706 1.99999E+01-1.52753E-03-4.93288E-06 5.57035E-03-1.52386E-13 4.32343E-14
 -1       707 2.00029E+01-1.17755E-03 4.22622E-07-3.41663E-03 2.62278E-13-4.05495E-13
 -1       708 2.00034E+01-8.37644E-04 1.77175E-06 7.90924E-04 2.32322E-13-6.49543E-13
 -1       709 2.00033E+01-9.92069E-04 1.09390E-06-2.05676E-03 1.61770E-13-3.79976E-13
 -1       710 2.05783E+01 8.01049E-01 9.26953E-04-1.05033E+00 3.21678E-13-2.76939E-13
 -1       711 1.14711E+01-1.52407E+00 1.35711E-01 5.01520E+00 4.99904E-13-1.01129E-12
 -1       712 2.00032E+01-9.25955E-04 1.07608E-06 2.16101E-03 4.24913E-13-3.92303E-13
 -1       713 2.00028E+01-1.08411E-03 3.38021E-07 3.47461E-03 4.92978E-13-2.61725E-13
 -1       714 2.00020E+01-1.22930E-03 2.37748E-07 4.60999E-03 3.36451E-13-5.34782E-13
 -1       715 9.81882E+00-1.37382E+00 1.39806E-01-4.69273E+00 6.55625E-13 4.54026E-13
 -1       716 2.70913E+01 2.82465E+00-1.15830E-01 2.30949E+00-5.57901E-13-7.11702E-13
 -1       717 8.53874E+00-8.42103E-01 1.61276E-01-3.15399E+00-3.39364E-13-1.25095E-12
 -1       718 2.06671E+01-4.89089E+00 5.31894E-02-5.39346E+00 7.26415E-13-2.04821E-13
 -1       719 2.71336E+01-3.80075E+00-4.04686E-02 1.07434E+00-4.60873E-14 4.32945E-13
 -1       720 1.53714E+01-3.27054E+00 1.04662E-01 5.69642E+00-5.01276E-13 3.56219E-13
 -1       721 2.19217E+01-5.12123E+00 3.16975E-02 4.54190E+00-6.23362E-13-3.85120E-13
 -1       722 2.08704E+01 1.50137E-01 5.00797E-05-2.09392E+00 3.58244E-14-1.90992E-13
 -1       723 2.05822E+01 1.28516E+00 8.46593E-04-9.08737E-02-4.02207E-13-4.52269E-13
 -1       724 2.65800E+01 5.34531E+00-1.44772E-01 1.39172E+00-9.69239E-13-5.45957E-13
 -1       725 1.93022E+01 2.94474E+00-1.35121E-03 1.81918E-01 3.80784E-13-6.48723E-13
 -1       726 2.68682E+01 5.92656E+00-1.51275E-01-7.75726E-01-9.60912E-13-6.88937E-14
 -1       727 2.64304E+01-4.64189E+00-8.50645E-03 1.26537E+00-4.76928E-13-7.88704E-13
 -1       728 2.52661E+01-5.21380E+00-4.50921E-02-2.91300E+00-4.44507E-13 2.12026E-13
 -1       729 2.76399E+01-1.68937E+00-6.15683E-02 1.03061E+00 6.57807E-15-8.49747E-13
 -1       730 1.99116E+01-4.84512E+00 7.90436E-02-5.50961E+00-7.09377E-13-2.60670E-13
 -1       731 8.49941E+00 3.58776E-01 1.46349E-01-5.67668E-01 2.43180E-13 1.13756E-12
 -1       732 2.32223E+01-4.99515E+00 2.88547E-02 4.11328E+00 3.89751E-13 1.27924E-13
 -1       733 1.95061E+01 2.74382E+00-1.52032E-03-8.68478E-02-1.92340E-13-7.70274E-13
 -1       734 1.29031E+01-2.71803E+00 1.23762E-01-5.72346E+00-6.20361E-13-8.22564E-13
 -1       735 2.71092E+01 3.66492E+00-1.34259E-01-2.01389E+00-7.69752E-13 3.67432E-13
 -1       736 1.49446E+01-3.43069E+00 1.02273E-01-6.28028E+00 8.69492E-13 3.49710E-13
 -1       737 2.77122E+01 5.15055E+00-1.74190E-01-8.56859E-01 1.10413E-12-5.40557E-13
 -1       738 2.73109E+01 4.30415E+00-1.89612E-01 1.67638E+00 8.95714E-13 6.35169E-14
 -1       739 1.99025E+01 2.37697E+00-2.07722E-03-2.30782E-01-3.35722E-13-7.26638E-13
 -1       740 1.89878E+01 3.18109E+00-1.26990E-03 1.00152E-01 4.01159E-14-8.21716E-13
 -1       741 2.00021E+01-1.33918E-03 5.18067E-07-4.59683E-03-2.28257E-14 6.93384E-14
 -1       742 9.47994E+00 3.79754E-01 1.12059E-01-5.16507E-01-2.20114E-14-1.21197E-12
 -1       743 2.00010E+01-1.47788E-03-2.96543E-07-5.35269E-03-9.86972E-14 9.31585E-14
 -1       744 2.70813E+01 1.48104E+00-8.57852E-02-2.16770E+00-5.54060E-13 6.00443E-13
 -1       745 2.04275E+01 1.77966E+00-8.83987E-04-3.65733E-01-4.48302E-13-5.67528E-13
 -1       746 1.91889E+01 3.01393E+00-1.49341E-03 2.75975E-02-9.09609E-14-7.63784E-13
 -1       747 2.00013E+01-7.16628E-04-8.51747E-07 5.22232E-03-6.62311E-14-6.20985E-13
 -1       748 1.16131E+01 5.82453E-01 6.82109E-02 1.76758E+00 8.59859E-14 5.93879E-13
 -1       749 1.99518E+01 1.89616E+00 4.23556E-04-1.97160E-01 4.42914E-13-4.35963E-13
 -1       750 2.02656E+01 1.43458E+00 2.24916E-06 1.98495E-01-3.08255E-13-5.59742E-13
 -1       751 2.32238E+01-4.48292E+00 3.41496E-02-3.50838E+00-5.17079E-13 5.74466E-14
 -1       752 2.03816E+01 5.43696E-01 1.23323E-04 9.45530E-01-1.22019E-13-3.75764E-13
 -1       753 2.05192E+01 1.21298E-01-1.89801E-05 1.19438E+00-9.78509E-14-3.01469E-13
 -1       754 2.07833E+01-3.61877E-01-1.63188E-04 1.34367E+00-4.54664E-14-2.61848E-13
 -1       755 2.12314E+01-9.32019E-01-4.04909E-04 1.35761E+00 4.84550E-14-1.92607E-13
 -1       756 2.19081E+01-1.55531E+00-7.08461E-04 1.16662E+00 1.13344E-13-9.97858E-14
 -1       757 2.28232E+01-2.09557E+00-6.12327E-03 6.53826E-01 2.47709E-14 8.84024E-14
 -1       758 2.38694E+01-2.21783E+00-9.65149E-04-2.12985E-01-3.05344E-14 1.86540E-13
 -1       759 2.46143E+01-1.48452E+00-1.70214E-02-1.28759E+00-1.78994E-13 3.66774E-13
 -1       760 2.47489E+01 3.74764E-01-3.67939E-02-2.06909E+00-2.81634E-13 3.51916E-13
 -1       761 2.44346E+01 2.82671E+00-5.41589E-02-1.74480E+00-4.48544E-13 1.64757E-13
 -1       762 2.41455E+01 4.24080E+00-6.76661E-02-1.56816E-01-6.16698E-13-2.23996E-14
 -1       763 2.47609E+01 9.37067E-01-2.33557E-02 2.20857E+00-1.93928E-13-4.66344E-13
 -1       764 2.46476E+01-1.14290E+00-2.83409E-02 1.61996E+00 1.81322E-15-3.41553E-13
 -1       765 2.39801E+01-2.11824E+00-1.61931E-03 5.71112E-01 1.10182E-13-3.39485E-13
 -1       766 2.29614E+01-2.13260E+00-6.25686E-04-3.57110E-01 1.18238E-13-2.50928E-13
 -1       767 2.19957E+01-1.67408E+00-6.51652E-04-9.21968E-01 1.64330E-13-2.17777E-14
 -1       768 2.12354E+01-1.09211E+00-3.86551E-04-1.18316E+00 1.54703E-13-1.06038E-13
 -1       769 2.07062E+01-5.76187E-01-1.41100E-04-1.24525E+00 1.66238E-14-1.29572E-13
 -1       770 2.03668E+01-1.86386E-01-1.47210E-05-1.19390E+00-1.01731E-13-1.08251E-13
 -1       771 2.01651E+01 7.55039E-02 3.26399E-05-1.08403E+00-5.45495E-15-8.28987E-14
 -1       772 2.00548E+01 2.31269E-01 4.07494E-05-9.48749E-01 1.14618E-13-7.58616E-14
 -1       773 2.00010E+01 3.08223E-01 4.12509E-05-8.07462E-01 2.10649E-13-4.25973E-14
 -1       774 1.99799E+01 3.31338E-01 3.69196E-05-6.71370E-01-4.56715E-14 3.83081E-15
 -1       775 1.99761E+01 3.20582E-01 3.14129E-05-5.46706E-01-1.15922E-14-1.55174E-13
 -1       776 1.99803E+01 2.90677E-01 2.58917E-05-4.36586E-01-4.57326E-14-2.19040E-13
 -1       777 1.99873E+01 2.51819E-01 2.07956E-05-3.42094E-01 5.74324E-14-2.18571E-13
 -1       778 1.99943E+01 2.10664E-01 1.63189E-05-2.62993E-01-7.26148E-14-3.69687E-13
 -1       779 2.00002E+01 1.71249E-01 1.25293E-05-1.98217E-01-7.29403E-14-8.15796E-14
 -1       780 2.00044E+01 1.35777E-01 9.41580E-06-1.46237E-01-1.73065E-13-8.96821E-14
 -1       781 2.00071E+01 1.05224E-01 6.92225E-06-1.05318E-01-1.14172E-13 1.49583E-13
 -1       782 2.00085E+01 7.97795E-02 4.97077E-06-7.37041E-02-2.96324E-13 2.71925E-13
 -1       783 2.00088E+01 5.91712E-02 3.47631E-06-4.97360E-02-9.19630E-15 2.31425E-13
 -1       784 2.00085E+01 4.28774E-02 2.35377E-06-3.19169E-02 1.26282E-13 2.53846E-13
 -1       785 2.00078E+01 3.02692E-02 1.50564E-06-1.89481E-02 1.72828E-13 3.77694E-13
 -1       786 2.00067E+01 2.06975E-02 8.85021E-07-9.73742E-03 1.29429E-13 3.19103E-13
 -1       787 2.00056E+01 1.35433E-02 3.21339E-07-3.39313E-03 3.09012E-13-9.76828E-14
 -1       788 2.00044E+01 8.23901E-03-2.48822E-08 7.95219E-04 4.72194E-13-1.80809E-13
 -1       789 2.00032E+01 4.27705E-03 1.54991E-06 3.35412E-03 4.19323E-13-2.67442E-13
 -1       790 2.00022E+01 1.49380E-03-1.76441E-06 4.66449E-03 1.89727E-13-4.40415E-13
 -1       791 1.64599E+01-2.54632E+00 5.24421E-02 5.26790E+00 5.91201E-13-4.81320E-13
 -1       792 1.24778E+01-8.44425E-01 9.33796E-02-4.04000E+00-4.17031E-13-8.42149E-13
 -1       793 2.07437E+01-1.86044E+00-2.35244E-03-3.20384E+00-2.56000E-13-1.58173E-13
 -1       794 1.99655E+01-5.96810E-01 3.10552E-03-2.82900E+00-9.25614E-14-2.37286E-13
 -1       795 1.85564E+01-3.35416E+00 4.53382E-02-5.05890E+00 7.36775E-13 8.44116E-15
 -1       796 2.15390E+01-2.80455E+00 3.12533E-02 3.12351E+00-4.38366E-13-6.91638E-13
 -1       797 1.95885E+01 3.13479E-01 1.79071E-04 2.13932E+00-1.51208E-13-2.73654E-13
 -1       798 1.96093E+01 5.95164E-01 1.57971E-04 1.80197E+00-4.70031E-14-2.11037E-13
 -1       799 1.96951E+01 6.90858E-01 1.71245E-04 1.50476E+00 5.28247E-14-7.77921E-14
 -1       800 1.97902E+01 6.81490E-01 1.65972E-04 1.24360E+00 7.05533E-14-1.19291E-13
 -1       801 1.98717E+01 6.19303E-01 1.42505E-04 1.01527E+00 8.38412E-15-1.54486E-13
 -1       802 1.99329E+01 5.35647E-01 1.15197E-04 8.17777E-01-1.00544E-13-3.63864E-13
 -1       803 1.99749E+01 4.48148E-01 9.08393E-05 6.49415E-01-5.59362E-14-3.57018E-13
 -1       804 2.00013E+01 3.65924E-01 7.06931E-05 5.08189E-01-2.33598E-13-3.15107E-13
 -1       805 2.00163E+01 2.93078E-01 5.44647E-05 3.91656E-01-1.03265E-13-3.36405E-13
 -1       806 2.00235E+01 2.30901E-01 4.15526E-05 2.97039E-01 2.01993E-13-3.57302E-13
 -1       807 2.00256E+01 1.79200E-01 3.13682E-05 2.21416E-01 2.34760E-13-2.07787E-13
 -1       808 2.00248E+01 1.37066E-01 2.34012E-05 1.61901E-01 3.46841E-13-7.93499E-14
 -1       809 2.00224E+01 1.03299E-01 1.72241E-05 1.15779E-01 8.64130E-14 2.75170E-14
 -1       810 2.00193E+01 7.66438E-02 1.24829E-05 8.05907E-02-1.14258E-13-1.37839E-14
 -1       811 2.00161E+01 5.59033E-02 8.88425E-06 5.41792E-02-2.61203E-13 1.27748E-13
 -1       812 2.00130E+01 3.99932E-02 6.18090E-06 3.46995E-02-3.22640E-13 2.03938E-13
 -1       813 2.00102E+01 2.79615E-02 4.14651E-06 2.06100E-02-9.60735E-14 2.16865E-15
 -1       814 2.00079E+01 1.89890E-02 2.68637E-06 1.06496E-02 8.45343E-14-1.03834E-13
 -1       815 2.00058E+01 1.23786E-02 1.64798E-06 3.80736E-03-9.06403E-15-5.26936E-14
 -1       816 2.00042E+01 7.53630E-03 1.27581E-06-7.07214E-04-3.98380E-14 2.07991E-13
 -1       817 2.00029E+01 3.96949E-03 2.25524E-07-3.47495E-03 1.01734E-13 1.41621E-13
 -1       818 2.00018E+01 1.26014E-03 7.96171E-07-4.95032E-03-1.48790E-13-1.46168E-13
 -1       819 2.00014E+01-1.27070E-04-4.96104E-06-5.30883E-03-3.18343E-13-2.92904E-14
 -1       820 1.89245E+01 2.75793E+00-1.07661E-04 8.71263E-02 1.82525E-13-6.93064E-13
 -1       821 2.00046E+01 3.11216E-03 1.20902E-06 1.01835E-04 1.77461E-13-1.42637E-13
 -1       822 1.12179E+01 4.79394E-02 9.85455E-02 2.86254E+00 3.05114E-13-9.90638E-13
 -1       823 2.00035E+01 1.74047E-03 1.28793E-06 3.67066E-03 1.39284E-13-6.91292E-13
 -1       824 2.00045E+01 2.95351E-03 7.52302E-07 1.28423E-03 1.29466E-13-2.52601E-13
 -1       825 1.11336E+01 4.07711E-02 8.44858E-02-2.88178E+00 5.59840E-13 5.95843E-13
 -1       826 2.29126E+01-4.32842E+00 9.43653E-03-3.29042E+00 5.15889E-13-3.08608E-13
 -1       827 2.00041E+01 2.46242E-03-6.12298E-07 2.48301E-03 3.01012E-13-1.67968E-13
 -1       828 2.51036E+01-3.93300E+00-1.39300E-02 1.36248E+00 1.55093E-13 3.60432E-13
 -1       829 1.97463E+01-2.68850E-01 6.28516E-04 2.51549E+00-2.12364E-13-4.15403E-13
 -1       830 2.02902E+01-1.28584E+00 1.44961E-03 2.89746E+00-2.11780E-13-6.35366E-13
 -1       831 1.74134E+01-2.97339E+00 6.17653E-02-5.19192E+00-5.65525E-13-4.59112E-13
 -1       832 1.49567E+01-1.44509E+00 6.64059E-02 4.43807E+00-3.04232E-13 1.68320E-13
 -1       833 2.16812E+01-3.11459E+00 1.56606E-02-3.49133E+00-3.59467E-13-8.10082E-14
 -1       834 1.98309E+01 8.93028E-01 1.81912E-04-1.62396E+00 2.00222E-13-2.61063E-13
 -1       835 2.48774E+01 3.30017E+00-6.41430E-02 1.85407E+00-5.85367E-13-5.28712E-13
 -1       836 2.81270E+01-3.19639E+00 3.76749E-02-9.52690E-01-2.92421E-13-8.75001E-13
 -1       837 2.59824E+01 1.33866E-01-3.09365E-02 2.12373E+00-4.67751E-14-6.30197E-13
 -1       838 2.03156E+01 9.54250E-01-5.31149E-04 6.10512E-01-2.07890E-13-4.70192E-13
 -1       839 2.68199E+01-1.76601E+00-3.67230E-02-1.12290E+00-1.48356E-13 5.40344E-13
 -1       840 2.01020E+01 1.88482E+00 9.08900E-05-2.65342E-02-3.21292E-13-6.56209E-13
 -1       841 2.02931E+01 1.44068E+00 2.51632E-04-3.79282E-01 4.59798E-13-3.43905E-13
 -1       842 2.56325E+01-3.18737E+00-1.05318E-02-8.73005E-02 1.45614E-13-7.20746E-13
 -1       843 2.09660E+01-3.75133E+00 1.79884E-02 4.21352E+00 4.67285E-13-1.23068E-13
 -1       844 1.95089E+01-3.17130E+00 6.07580E-02 4.39744E+00-5.23861E-13-3.97030E-13
 -1       845 1.38742E+01-1.53188E+00 7.71424E-02-4.87102E+00 5.57875E-13 2.82201E-13
 -1       846 1.89250E+01 2.74887E+00-2.64491E-04 1.81556E-01 9.80070E-14-7.08955E-13
 -1       847 1.94718E+01 2.32395E+00 2.84539E-04-1.19321E-01 3.50131E-13-5.29168E-13
 -1       848 2.00036E+01 1.60026E-03-1.75397E-06-3.61758E-03-1.78160E-13 1.01845E-13
 -1       849 1.47961E+01-9.31742E-01 4.50361E-02 4.13255E+00 4.42399E-13-6.04256E-13
 -1       850 1.20256E+01 4.53913E-01 6.40387E-02-2.04467E+00-1.38556E-13-8.74151E-13
 -1       851 1.99756E+01 1.09311E+00 1.39688E-04-1.20613E+00 2.19974E-13-2.89071E-13
 -1       852 1.97197E+01 1.69762E-01 1.17711E-03-2.42299E+00-3.88872E-14-2.66433E-13
 -1       853 1.97205E+01 6.22428E-01 3.62841E-04-2.02304E+00 6.92752E-14-2.58866E-13
 -1       854 1.91108E+01 2.61712E+00 1.92749E-04-1.99406E-02 2.68223E-13-6.31572E-13
 -1       855 2.00043E+01 2.35107E-03-1.09883E-06-2.37338E-03-6.40708E-14-2.90110E-13
 -1       856 1.20009E+01 9.30684E-01 4.43633E-02-3.45272E-01 3.10894E-13 5.54569E-13
 -1       857 2.00046E+01 2.89554E-03 2.19131E-07-1.11484E-03 1.59338E-13 2.02095E-14
 -1       858 2.32005E+01-3.58248E+00 7.04613E-03 2.25843E+00 2.47498E-13 1.55876E-13
 -1       859 2.00029E+01 1.70961E-03 9.93841E-06 4.18896E-03-5.46227E-15-7.95768E-13
 -1       860 1.96801E+01 2.28696E+00-7.57845E-04 7.15119E-02-2.27101E-13-6.50801E-13
 -1       861 1.93158E+01 2.60370E+00-9.00413E-04 1.45608E-01-8.83336E-14-7.37070E-13
 -1       862 2.01551E+01 1.23786E+00 8.07439E-05-8.18144E-01 3.29944E-13-3.02913E-13
 -1       863 1.23557E+01 9.55860E-01 5.02275E-02 4.97992E-01 1.54279E-13-9.66871E-13
 -1       864 2.01059E+01 8.04653E-02-1.94060E-05 1.48476E+00-1.66546E-14-2.80760E-13
 -1       865 2.03920E+01-5.34374E-01 8.87123E-05 1.74585E+00 5.52423E-14-1.81516E-13
 -1       866 2.09400E+01-1.29219E+00 9.28600E-04 1.91270E+00 1.44009E-13-1.64942E-13
 -1       867 2.18656E+01-2.16046E+00 6.83753E-03 1.89311E+00 1.91879E-13-8.12308E-14
 -1       868 1.98474E+01 1.84503E+00 2.34992E-04 2.60371E-01-2.03243E-13-5.88118E-13
 -1       869 2.34810E+01-3.00706E+00 5.88076E-03-1.08096E+00 1.98989E-13-4.15553E-13
 -1       870 2.19734E+01-2.32948E+00-4.63380E-03-1.64415E+00 3.16731E-13-2.25676E-13
 -1       871 2.09175E+01-1.49160E+00 5.52662E-04-1.78567E+00 1.89374E-13-7.85527E-14
 -1       872 2.02612E+01-7.79934E-01 3.85671E-05-1.68654E+00 8.59210E-14-2.17589E-15
 -1       873 1.98913E+01-2.52276E-01 8.03039E-05-1.49557E+00 9.45991E-15-5.12491E-14
 -1       874 1.97118E+01 9.92261E-02 8.45724E-05-1.28277E+00 2.92971E-14 1.37405E-13
 -1       875 1.96492E+01 3.09449E-01 4.62161E-05-1.07757E+00 7.24482E-15 6.44329E-14
 -1       876 1.96531E+01 4.15821E-01 3.31709E-05-8.91288E-01 1.78241E-13-1.39593E-13
 -1       877 1.96909E+01 4.50935E-01 2.19889E-05-7.27284E-01 4.78398E-14-2.47712E-13
 -1       878 1.97424E+01 4.40453E-01 1.43470E-05-5.85633E-01-2.98172E-14-1.47751E-13
 -1       879 1.97960E+01 4.03366E-01 9.39193E-06-4.65173E-01-3.54767E-14-2.42642E-13
 -1       880 1.98453E+01 3.53055E-01 6.12925E-06-3.64231E-01-4.91969E-14-1.74972E-13
 -1       881 1.98875E+01 2.98475E-01 3.93627E-06-2.80881E-01-1.50510E-13-3.74913E-13
 -1       882 1.99218E+01 2.45255E-01 2.45221E-06-2.13080E-01 2.64068E-13-3.38339E-13
 -1       883 1.99485E+01 1.96625E-01 1.45490E-06-1.58757E-01 4.13487E-14 1.93043E-14
 -1       884 1.99685E+01 1.54156E-01 7.96203E-07-1.15899E-01-4.43712E-14 2.64253E-13
 -1       885 1.99829E+01 1.18330E-01 3.73736E-07-8.26155E-02-2.23053E-13 2.95049E-13
 -1       886 1.99928E+01 8.89503E-02 1.16307E-07-5.71844E-02-2.62235E-13 3.20148E-13
 -1       887 1.99993E+01 6.54356E-02-2.98513E-08-3.80842E-02-6.11640E-16 2.35240E-13
 -1       888 2.00032E+01 4.70194E-02-1.14097E-07-2.40034E-02 1.71857E-13 1.89872E-14
 -1       889 2.00052E+01 3.28766E-02-2.00548E-07-1.38376E-02 1.93478E-13-1.91319E-13
 -1       890 2.00059E+01 2.21958E-02-3.08995E-07-6.68089E-03 1.45393E-13-5.24479E-14
 -1       891 2.00057E+01 1.42366E-02 4.17139E-07-1.81192E-03 2.37829E-13-9.79398E-14
 -1       892 2.00050E+01 8.26343E-03-1.05906E-05 1.35889E-03 2.99822E-13-4.66124E-13
 -1       893 1.87448E+01 9.19703E-01 5.77931E-06 1.46704E+00-7.27551E-14-3.57018E-13
 -1       894 1.79488E+01-6.05199E-01 1.90702E-02-3.37743E+00-2.22622E-13-3.53045E-13
 -1       895 2.00026E+01 6.29121E-04 1.61132E-06-4.54684E-03-3.31616E-13 2.12872E-13
 -1       896 1.83937E+01 8.03464E-01 1.20186E-04 1.80085E+00-1.61232E-13-2.31319E-13
 -1       897 1.93012E+01 8.40679E-01 3.05473E-05 9.92368E-01 3.94827E-14-8.38168E-14
 -1       898 1.94972E+01 7.38603E-01 2.16117E-05 8.10742E-01 7.40640E-15-1.13633E-13
 -1       899 1.96463E+01 6.28021E-01 1.35523E-05 6.55206E-01-7.30999E-14-4.23343E-14
 -1       900 1.97569E+01 5.20984E-01 8.36744E-06 5.22516E-01-6.36372E-14 5.67573E-14
 -1       901 1.98373E+01 4.23671E-01 5.27282E-06 4.10585E-01-1.01416E-13-2.16898E-13
 -1       902 1.98946E+01 3.38692E-01 3.42307E-06 3.17553E-01 4.95197E-14-3.73118E-13
 -1       903 1.99348E+01 2.66581E-01 2.28891E-06 2.41471E-01-1.08414E-14-6.26493E-14
 -1       904 1.99624E+01 2.06731E-01 1.56907E-06 1.80274E-01 7.64348E-14 2.11708E-13
 -1       905 1.99808E+01 1.57965E-01 1.09454E-06 1.31861E-01 2.45366E-13 5.28910E-14
 -1       906 1.99928E+01 1.18876E-01 7.71515E-07 9.41923E-02-3.02006E-14 2.26328E-13
 -1       907 2.00002E+01 8.80177E-02 5.48861E-07 6.53736E-02-2.05944E-13 2.78038E-14
 -1       908 2.00044E+01 6.40140E-02 3.94875E-07 4.37073E-02-3.74107E-13-2.33027E-14
 -1       909 2.00065E+01 4.56136E-02 2.62831E-07 2.77197E-02-2.66379E-13-9.64444E-15
 -1       910 2.00072E+01 3.17109E-02 8.25371E-08 1.61655E-02-7.89730E-14 1.87522E-13
 -1       911 2.00069E+01 2.13471E-02-3.07653E-07 8.02012E-03-9.54788E-14 4.38067E-13
 -1       912 2.00062E+01 1.36987E-02-6.37325E-07 2.45297E-03 1.64854E-15 3.77179E-13
 -1       913 2.00051E+01 8.02982E-03-1.04348E-05-1.19741E-03 2.45617E-14 2.16092E-13
 -1       914 1.69694E+01-1.67013E+00 2.55497E-02-4.19950E+00 5.16219E-13 1.00183E-13
 -1       915 1.43918E+01-2.93416E-01 3.48254E-02-3.40376E+00 4.22793E-13 1.99446E-13
 -1       916 2.08360E+01-3.14237E+00 1.57856E-02-3.50611E+00 5.05956E-13-7.70525E-14
 -1       917 1.80360E+01 4.74654E-01 1.12848E-03 2.25849E+00-3.31246E-13-3.36183E-13
 -1       918 1.98013E+01 1.62169E+00 2.89958E-04-6.02733E-01 3.31703E-13-3.82959E-13
 -1       919 1.90728E+01 2.71573E+00-6.42861E-04 2.01002E-01 8.48179E-15-7.18608E-13
 -1       920 1.99824E+01 5.88380E-01-3.16310E-05 1.17443E+00-4.89483E-14-3.81750E-13
 -1       921 1.61143E+01-1.21618E+00 3.65563E-02-4.18865E+00-3.77864E-13-5.69388E-13
 -1       922 1.90510E+01 9.12908E-01 2.55959E-05 1.20654E+00 1.24314E-13-1.69312E-13
 -1       923 1.99410E+01 1.05047E+00 3.68566E-04 8.29344E-01-8.47582E-14-4.62849E-13
 -1       924 2.00054E+01 7.70116E-03-9.13236E-07 4.82584E-04 7.31085E-14-5.12792E-13
 -1       925 1.50348E+01 8.95363E-02 2.76865E-02 2.91279E+00-5.14328E-14-2.12512E-14
 -1       926 1.86489E+01-2.03120E+00 2.80147E-02 3.98790E+00 4.39820E-13-3.57699E-13
 -1       927 1.77337E+01-1.28733E+00 2.76018E-02 3.72576E+00-3.03844E-13-3.15490E-13
 -1       928 1.38878E+01 8.26561E-01 1.93083E-02-1.58711E+00 3.96577E-13 5.71672E-13
 -1       929 1.47812E+01 1.19432E-01 2.85827E-02-2.96470E+00-1.96689E-13-6.60268E-13
 -1       930 1.94409E+01 2.20213E+00 3.39832E-04 2.97344E-01-1.11478E-13-6.57845E-13
 -1       931 2.00040E+01 4.58466E-03 5.05084E-07 3.04989E-03 1.44904E-13-6.70091E-13
 -1       932 1.92219E+01 1.34902E+00 2.46720E-04-1.21673E+00 1.87495E-13-3.82177E-13
 -1       933 1.81003E+01 2.91852E-01 1.07027E-04-2.61908E+00-8.23816E-14-3.63856E-13
 -1       934 1.40044E+01 5.10275E-01 2.63404E-02 2.26952E+00 3.24427E-13-7.49197E-13
 -1       935 2.00053E+01 7.05475E-03-1.36582E-06 1.30112E-03 5.03178E-14 1.66929E-13
 -1       936 2.00039E+01 3.91392E-03 5.94338E-06-3.38701E-03 1.90165E-13 2.35486E-13
 -1       937 1.39766E+01 8.96193E-01 3.02384E-02 1.52799E+00 1.37305E-13 2.77509E-13
 -1       938 2.00055E+01 7.65013E-03-1.30817E-06-2.82453E-04 3.01992E-13 5.64461E-14
 -1       939 2.07937E+01-2.35360E+00 6.49027E-03 2.95178E+00 3.62277E-13-1.33830E-13
 -1       940 2.00051E+01 5.64843E-03-3.19842E-06-2.10122E-03 8.37522E-14-8.83523E-14
 -1       941 1.77593E+01-1.63878E-01 6.83999E-03 2.87383E+00-3.05815E-13-4.58965E-13
 -1       942 1.88675E+01 1.12926E+00-7.46486E-05-1.61216E+00 1.22014E-13-3.47669E-13
 -1       943 1.88300E+01 2.34814E+00-9.84788E-05-8.27554E-02 1.85011E-13-5.93597E-13
 -1       944 1.87639E+01 2.38653E+00 4.40128E-04 1.57532E-01 1.27202E-13-6.46979E-13
 -1       945 2.00047E+01 5.49771E-03 7.73317E-06 2.36455E-03-3.03871E-15-5.94982E-13
 -1       946 1.96628E+01-6.26026E-01 2.36391E-04 2.24762E+00 1.20431E-13-2.85885E-13
 -1       947 2.00503E+01-1.40456E+00-1.08269E-04 2.64009E+00 2.09553E-13-2.73940E-13
 -1       948 1.92108E+01 1.98351E+00-7.31185E-04-4.56894E-01 2.36747E-13-4.63902E-13
 -1       949 2.01764E+01-1.80611E+00 6.77777E-03-2.67112E+00 3.62664E-13 1.10872E-13
 -1       950 1.94848E+01-8.85536E-01 8.89638E-04-2.25907E+00 1.43602E-13-1.29655E-14
 -1       951 1.91845E+01-2.36245E-01 2.20285E-04-1.84100E+00 2.33380E-14-4.24145E-15
 -1       952 1.91011E+01 1.81850E-01 6.48781E-05-1.47690E+00 4.29533E-14 7.16835E-14
 -1       953 1.91367E+01 4.27493E-01-4.69984E-05-1.17619E+00 8.32401E-14 5.08897E-14
 -1       954 1.92311E+01 5.49790E-01-2.47140E-05-9.33162E-01-1.11158E-13 7.53057E-14
 -1       955 1.93485E+01 5.88425E-01-1.72977E-05-7.37824E-01 6.54290E-14-2.49297E-13
 -1       956 1.94686E+01 5.73313E-01-1.41910E-05-5.80583E-01 4.53292E-15-3.54575E-13
 -1       957 1.95801E+01 5.26326E-01-1.17810E-05-4.53832E-01-3.18488E-14-1.49622E-13
 -1       958 1.96778E+01 4.63032E-01-9.68416E-06-3.51747E-01-6.82045E-14-1.58780E-13
 -1       959 1.97598E+01 3.94068E-01-7.89789E-06-2.69820E-01-1.62305E-13-1.24408E-13
 -1       960 1.98262E+01 3.26308E-01-6.39613E-06-2.04469E-01-1.86417E-16-1.03647E-13
 -1       961 1.98785E+01 2.63839E-01-5.13384E-06-1.52765E-01 2.90179E-13-6.84394E-14
 -1       962 1.99184E+01 2.08771E-01-4.07299E-06-1.12262E-01 1.70288E-13 6.06517E-14
 -1       963 1.99481E+01 1.61866E-01-3.18507E-06-8.08904E-02-1.39855E-13 9.66297E-14
 -1       964 1.99695E+01 1.23021E-01-2.44410E-06-5.68987E-02-2.55624E-13-3.46693E-14
 -1       965 1.99844E+01 9.16185E-02-1.82296E-06-3.88060E-02-1.76653E-13-2.04165E-13
 -1       966 1.99942E+01 6.67745E-02-1.30081E-06-2.53735E-02-1.45759E-15-7.74649E-14
 -1       967 2.00004E+01 4.75026E-02-9.29431E-07-1.55775E-02 1.87056E-13-9.30866E-14
 -1       968 2.00039E+01 3.28182E-02 1.25057E-07-8.57473E-03 3.12172E-14-1.58835E-13
 -1       969 2.00055E+01 2.17812E-02-4.93200E-07-3.71789E-03 1.42044E-13-1.61267E-13
 -1       970 2.00058E+01 1.35617E-02 1.25987E-06-4.01293E-04 7.11624E-14-2.06838E-13
 -1       971 1.67327E+01-5.07931E-01 1.69317E-02 3.26685E+00 3.19800E-13-4.58580E-13
 -1       972 1.94817E+01 6.73683E-01-4.73320E-05 4.63317E-01-1.57228E-13 1.44443E-13
 -1       973 1.91237E+01-1.73554E+00 7.09523E-03-3.23042E+00 3.88207E-13 2.75491E-14
 -1       974 1.92856E+01 7.99470E-01-6.12683E-05 5.66562E-01-1.70965E-13 2.42259E-14
 -1       975 1.90282E+01 9.26149E-01-8.03051E-05 6.83950E-01-4.50758E-15-1.91809E-13
 -1       976 1.96298E+01 5.56346E-01-3.64204E-05 3.73030E-01-4.28727E-14 1.46674E-13
 -1       977 1.97403E+01 4.51386E-01-2.78265E-05 2.95268E-01 1.39529E-13 1.09427E-13
 -1       978 1.98219E+01 3.60348E-01-2.10405E-05 2.29557E-01-1.45457E-13 1.86919E-13
 -1       979 1.98813E+01 2.83286E-01-1.56899E-05 1.75128E-01-7.10808E-14 7.50556E-15
 -1       980 1.99239E+01 2.19371E-01-1.15036E-05 1.30929E-01 9.59803E-14 2.05259E-13
 -1       981 1.99539E+01 1.67304E-01-8.26776E-06 9.57224E-02-5.18272E-14 3.96724E-13
 -1       982 1.99745E+01 1.25582E-01-5.80046E-06 6.82028E-02 4.45219E-14 3.43437E-13
 -1       983 1.99883E+01 9.26709E-02-3.94073E-06 4.70912E-02-5.11272E-14 2.33040E-13
 -1       984 1.99971E+01 6.71039E-02-2.54513E-06 3.12022E-02-2.04569E-13-7.76272E-14
 -1       985 2.00024E+01 4.75371E-02-1.56446E-06 1.94847E-02-2.35245E-13-1.12147E-13
 -1       986 2.00051E+01 3.27782E-02-5.92388E-07 1.10311E-02-1.24748E-13-1.47192E-13
 -1       987 2.00062E+01 2.18008E-02 1.83385E-06 5.13666E-03-8.83386E-14-7.08905E-14
 -1       988 2.00062E+01 1.36555E-02 1.01943E-05 1.08716E-03 1.35484E-13-1.15952E-13
 -1       989 1.77080E+01 1.14174E+00-3.38055E-04 1.19661E+00-3.77096E-14-2.83011E-13
 -1       990 1.94245E+01 6.54068E-01-1.41289E-04 1.38251E+00 2.85016E-14-4.16742E-13
 -1       991 1.37830E+01 1.03642E+00 2.39946E-02-1.08382E+00-1.51609E-14-7.39838E-13
 -1       992 1.84735E+01 8.17987E-01-2.67454E-04-2.05673E+00 2.03699E-14-3.39391E-13
 -1       993 2.00054E+01 6.90592E-03 9.80708E-07-1.09545E-03 2.72016E-13 9.92958E-15
 -1       994 1.66443E+01-4.88181E-01 1.01398E-02-3.11569E+00 2.92319E-13 5.01140E-14
 -1       995 1.95273E+01 1.55224E+00 6.26459E-04-8.45580E-01 2.36646E-13-3.74306E-13
 -1       996 1.94563E+01 9.31599E-02-9.82861E-05 1.79772E+00 1.27883E-13-3.37243E-13
 -1       997 1.94681E+01 1.13535E+00-1.17854E-04 1.00236E+00-1.25402E-14-4.83539E-13
 -1       998 1.94683E+01 1.64316E+00-1.75522E-04 6.33179E-01-4.54375E-14-5.64160E-13
 -1       999 1.70028E+01 1.04868E+00 8.88495E-04 1.50437E+00-3.81736E-13-3.89889E-13
 -1      1000 1.82622E+01 1.12288E+00-1.87743E-04 9.82140E-01-5.08955E-14-3.78432E-13
 -1      1001 1.86936E+01 1.04078E+00-1.13198E-04 8.19247E-01-6.87822E-14-3.10404E-13
 -1      1002 1.44143E+01 1.21641E+00 5.60897E-03 1.48135E-01 2.36436E-13 3.08729E-13
 -1      1003 1.56978E+01 5.70035E-01 5.68496E-03-1.98705E+00 2.40092E-13 2.99448E-13
 -1      1004 1.91314E+01 2.36122E+00-4.48604E-04 3.24306E-01-1.00578E-14-6.52620E-13
 -1      1005 1.61334E+01 7.97362E-01 5.65994E-03 1.95916E+00-3.63901E-13-3.81210E-13
 -1      1006 1.60203E+01 8.23319E-01 8.42606E-03-2.10629E+00-6.23645E-14-5.15522E-13
 -1      1007 2.00061E+01 1.62814E-02-6.82924E-06 1.17026E-03 6.76710E-14 5.11770E-15
 -1      1008 1.42669E+01 1.13858E+00 1.50817E-02 7.07371E-01 1.70912E-13-7.44875E-13
 -1      1009 1.83880E+01 1.55132E+00-6.35398E-05-1.02258E+00 1.57044E-13-4.43864E-13
 -1      1010 2.00058E+01 1.35641E-02-4.64521E-06 1.97362E-04 1.58552E-13-4.01324E-13
 -1      1011 2.00057E+01 1.31182E-02-8.19768E-06 1.37193E-04 1.22036E-13-4.04092E-13
 -1      1012 1.88709E+01 1.73610E+00-2.45987E-03-7.54315E-01 2.01163E-13-4.52795E-13
 -1      1013 1.89030E+01 2.41034E+00 5.62246E-04 2.85742E-01 7.03169E-14-6.69976E-13
 -1      1014 1.84798E+01 2.09937E+00-8.38114E-04 1.82260E-02 1.48679E-13-5.82127E-13
 -1      1015 1.88174E+01 1.96176E+00-9.28483E-04-4.82502E-01 2.11988E-13-5.00075E-13
 -1      1016 1.86323E+01-1.09995E+00 5.91764E-03 3.14256E+00 3.00919E-13-2.89428E-13
 -1      1017 1.56678E+01 1.24888E+00 2.93398E-03 7.38144E-01-2.41440E-13-7.00593E-14
 -1      1018 1.58887E+01 6.05590E-01 7.76696E-03 2.07809E+00 2.66196E-13-6.13507E-13
 -1      1019 1.81122E+01-7.07559E-02 6.99810E-04-2.14241E+00 5.56522E-14 7.53861E-14
 -1      1020 1.82728E+01 3.62521E-01 1.11344E-04-1.60299E+00 8.71853E-14 5.46806E-14
 -1      1021 1.84932E+01 6.07836E-01-3.76137E-04-1.20296E+00 1.33187E-13 1.69496E-13
 -1      1022 1.87313E+01 7.20515E-01-1.60855E-04-9.05603E-01-1.05183E-13 1.24703E-13
 -1      1023 1.89590E+01 7.46908E-01-9.95191E-05-6.84766E-01-1.52155E-13 1.18708E-14
 -1      1024 1.91650E+01 7.18004E-01-7.71847E-05-5.18952E-01-1.20472E-13-5.66176E-14
 -1      1025 1.93444E+01 6.56068E-01-6.56479E-05-3.93303E-01 1.29160E-13-2.24929E-13
 -1      1026 1.94962E+01 5.77191E-01-5.70536E-05-2.97411E-01 4.89374E-14-1.87554E-13
 -1      1027 1.96212E+01 4.92622E-01-4.94217E-05-2.23886E-01-7.25653E-14 4.55462E-14
 -1      1028 1.97219E+01 4.09814E-01-4.22742E-05-1.67393E-01-8.30334E-14 3.46993E-14
 -1      1029 1.98011E+01 3.33324E-01-3.55712E-05-1.24008E-01 1.18814E-13-8.62575E-14
 -1      1030 1.98620E+01 2.65584E-01-2.93995E-05-9.07846E-02 2.34866E-13-1.98600E-13
 -1      1031 1.99079E+01 2.07534E-01-2.38563E-05-6.54747E-02-2.34919E-14-2.64027E-13
 -1      1032 1.99416E+01 1.59121E-01-1.90015E-05-4.63325E-02-3.32182E-13-2.35635E-13
 -1      1033 1.99656E+01 1.19684E-01-1.48397E-05-3.19890E-02-3.64084E-13-1.43460E-13
 -1      1034 1.99822E+01 8.82306E-02-1.13403E-05-2.13625E-02 1.19341E-13 4.34081E-14
 -1      1035 1.99932E+01 6.36246E-02-8.61786E-06-1.35963E-02 6.00912E-14 1.60156E-14
 -1      1036 2.00000E+01 4.47167E-02-4.13852E-06-8.02917E-03 1.71230E-14-2.40303E-13
 -1      1037 2.00038E+01 3.03637E-02-8.16255E-06-4.03462E-03 1.52959E-13-3.45385E-14
 -1      1038 2.00055E+01 1.98053E-02 1.45429E-05-1.37479E-03 8.22101E-14-2.61379E-13
 -1      1039 1.92106E+01 8.03970E-01-1.59537E-04 3.23601E-01-1.10841E-13 1.36377E-13
 -1      1040 1.95796E+01 5.56461E-01-9.88710E-05 2.23733E-01-2.19930E-14-2.04398E-13
 -1      1041 1.94198E+01 6.75117E-01-1.25187E-04 2.72258E-01-1.43144E-13-1.29049E-13
 -1      1042 1.89384E+01 9.37789E-01-2.04658E-04 3.75711E-01-1.89643E-13 2.82734E-13
 -1      1043 1.97007E+01 4.50859E-01-7.81484E-05 1.79671E-01-2.84414E-14 3.36556E-14
 -1      1044 1.97914E+01 3.59420E-01-6.14586E-05 1.41059E-01-6.28882E-14 6.54128E-15
 -1      1045 1.98585E+01 2.82054E-01-4.78909E-05 1.08266E-01-2.27773E-13 1.95634E-13
 -1      1046 1.99074E+01 2.17905E-01-3.68780E-05 8.11719E-02-1.11924E-13 3.52599E-13
 -1      1047 1.99424E+01 1.65681E-01-2.80092E-05 5.93382E-02-2.90658E-15 4.03648E-13
 -1      1048 1.99668E+01 1.23886E-01-2.09404E-05 4.21439E-02 6.39432E-14 3.04906E-13
 -1      1049 1.99833E+01 9.09796E-02-1.53610E-05 2.88972E-02 6.10296E-14 2.19765E-13
 -1      1050 1.99941E+01 6.54782E-02-1.13932E-05 1.89082E-02-4.08174E-14 7.09682E-14
 -1      1051 2.00007E+01 4.60035E-02-4.61092E-06 1.15553E-02-1.90389E-13-8.91007E-14
 -1      1052 2.00043E+01 3.13380E-02-1.39526E-05 6.22514E-03-7.18463E-14 9.99744E-14
 -1      1053 2.00055E+01 2.32058E-02 2.75992E-05 3.32893E-03 4.17473E-14 1.35035E-14
 -1      1054 1.75245E+01 1.26527E+00-2.38297E-04 5.34018E-01-1.47047E-13 4.91796E-14
 -1      1055 1.77646E+01 1.34546E+00 4.19231E-04-1.34346E+00 7.72404E-14-4.80167E-13
 -1      1056 1.88739E+01 1.24073E+00-3.89039E-04 1.07744E+00 7.25758E-14-5.28725E-13
 -1      1057 1.83947E+01-7.66341E-01 2.03304E-04-2.70887E+00 1.26191E-13 6.02684E-14
 -1      1058 1.70037E+01 1.13906E+00 3.10852E-03-1.65930E+00-1.10091E-14-5.02283E-13
 -1      1059 2.00059E+01 1.53996E-02 4.37610E-07 4.85985E-04 9.26095E-14 2.34008E-13
 -1      1060 1.67269E+01 1.30696E+00 3.83420E-04 6.15761E-01-3.13457E-13-2.79941E-13
 -1      1061 1.81250E+01 1.18355E+00-3.86681E-04 4.78175E-01-5.17002E-14 2.44027E-13
 -1      1062 1.54454E+01 1.30835E+00 4.69538E-03-7.85608E-01 2.74387E-14-6.24470E-13
 -1      1063 1.85851E+01 1.06833E+00-2.62777E-04 4.26946E-01-1.35387E-13 1.82627E-13
 -1      1064 1.86633E+01 7.80311E-01-4.20325E-04 1.50669E+00 1.19185E-13-4.76617E-13
 -1      1065 1.85655E+01 2.02346E+00-5.47215E-04 3.77669E-01 9.94719E-14-6.05589E-13
 -1      1066 1.84613E+01 2.22880E-01-2.31978E-05 2.04765E+00 1.92899E-13-3.96487E-13
 -1      1067 1.54601E+01 1.17664E+00-7.76881E-04-6.57854E-01 7.45220E-14 4.61015E-13
 -1      1068 1.57959E+01 1.30131E+00 2.47420E-03 6.62979E-01 1.45858E-13-6.28832E-13
 -1      1069 1.70106E+01 2.01720E-01 3.04053E-03-2.20972E+00 5.53979E-14 2.95386E-13
 -1      1070 2.00052E+01 2.21569E-02 3.55738E-05 3.68914E-04-1.38282E-14-1.30578E-13
 -1      1071 1.75809E+01 1.66367E+00 1.00993E-03-5.48887E-01 1.25735E-13-4.84483E-13
 -1      1072 1.90197E+01 1.70393E+00 1.45078E-03 7.04740E-01 1.20687E-14-5.40864E-13
 -1      1073 1.84465E+01-3.50628E-01 5.64915E-04 2.56010E+00 1.82012E-13-3.22562E-13
 -1      1074 1.82128E+01 1.85016E+00 2.84731E-03-3.78182E-01 1.48049E-13-4.89418E-13
 -1      1075 2.00053E+01 2.12114E-02-5.25594E-06-6.60236E-04 2.93208E-14-6.35421E-13
 -1      1076 1.81013E+01 1.83233E+00 7.21390E-04 3.15335E-01 1.38406E-13-5.87708E-13
 -1      1077 1.71894E+01 9.83883E-02 3.60627E-03 2.50192E+00 2.23064E-13-4.92768E-13
 -1      1078 1.95854E+01 5.29368E-01 5.69559E-05 9.15234E-02-5.83469E-14 7.42827E-15
 -1      1079 1.67682E+01 1.52360E+00 1.70353E-03-6.32324E-01 5.32100E-14-4.98770E-13
 -1      1080 1.77074E+01 8.63305E-01-1.58367E-03-1.08294E+00 2.27166E-14 2.26625E-13
 -1      1081 1.81520E+01 9.30038E-01-2.32829E-04-7.66840E-01-2.64093E-14-2.02865E-13
 -1      1082 1.85283E+01 9.25379E-01-1.14991E-04-5.43040E-01-1.39935E-13-1.50697E-13
 -1      1083 1.88412E+01 8.71758E-01-1.00179E-04-3.85077E-01-1.16596E-13-1.24025E-13
 -1      1084 1.90996E+01 7.88826E-01-8.56803E-05-2.73286E-01-3.55674E-14 5.93782E-15
 -1      1085 1.93108E+01 6.91311E-01-6.98485E-05-1.94024E-01 1.36818E-15-1.83138E-14
 -1      1086 1.94813E+01 5.89856E-01-5.37235E-05-1.37711E-01 3.07730E-15-1.19804E-13
 -1      1087 1.96169E+01 4.91712E-01-3.88575E-05-9.76172E-02-1.67503E-13-1.28679E-13
 -1      1088 1.97231E+01 4.01414E-01-2.62057E-05-6.90090E-02-7.26056E-14-4.08162E-14
 -1      1089 1.98049E+01 3.21418E-01-1.60983E-05-4.85537E-02 3.27720E-14-1.88116E-13
 -1      1090 1.98666E+01 2.52671E-01-8.45479E-06-3.39050E-02 5.63024E-14-4.78193E-13
 -1      1091 1.99124E+01 1.95085E-01-2.97800E-06-2.34080E-02-1.58362E-13-3.06570E-13
 -1      1092 1.99455E+01 1.47918E-01 7.08139E-07-1.58930E-02-9.43437E-14-1.73094E-14
 -1      1093 1.99688E+01 1.10064E-01 2.95175E-06-1.05292E-02-4.26028E-14 2.89454E-13
 -1      1094 1.99847E+01 8.02500E-02 3.93005E-06-6.72474E-03-1.02206E-13 1.32025E-13
 -1      1095 1.99949E+01 5.71692E-02 2.07672E-06-4.05510E-03-5.80517E-14 7.62653E-14
 -1      1096 2.00013E+01 3.95118E-02 2.13816E-05-2.26625E-03-2.53673E-15-1.33011E-13
 -1      1097 1.89767E+01 8.93625E-01 5.79131E-05 1.07671E-01-7.92892E-14 5.34225E-14
 -1      1098 1.76825E+01 1.22487E+00 2.74395E-04-3.43904E-02-2.93599E-13 1.05654E-13
 -1      1099 1.97032E+01 4.28376E-01 4.93365E-05 7.70704E-02-9.37475E-14-3.93832E-15
 -1      1100 1.97924E+01 3.40854E-01 4.10102E-05 6.24992E-02-2.26674E-13 7.90006E-14
 -1      1101 1.98588E+01 2.66790E-01 3.29371E-05 4.90335E-02-1.93700E-13-4.31958E-14
 -1      1102 1.99075E+01 2.05420E-01 2.56490E-05 3.72919E-02 6.81906E-14-9.78536E-14
 -1      1103 1.99425E+01 1.55533E-01 1.93830E-05 2.74875E-02 2.05515E-13-2.09349E-13
 -1      1104 1.99669E+01 1.15699E-01 1.41883E-05 1.95824E-02 5.59948E-14-4.33880E-14
 -1      1105 1.99836E+01 8.44319E-02 1.00928E-05 1.34001E-02 1.24370E-14-2.73899E-14
 -1      1106 1.99943E+01 6.03010E-02 9.05927E-06 8.70797E-03-5.75109E-14-8.34565E-14
 -1      1107 2.00009E+01 4.19004E-02 3.45415E-05 5.11054E-03-2.35164E-13-1.70077E-13
 -1      1108 1.82289E+01 1.13327E+00 3.45319E-05 4.51669E-02-5.67667E-14 1.85710E-13
 -1      1109 1.76735E+01 1.00232E+00 2.44159E-03 1.42723E+00 2.04345E-13-5.26289E-13
 -1      1110 1.86493E+01 1.01935E+00 4.67214E-05 8.85559E-02-1.15874E-13 1.50836E-13
 -1      1111 1.81731E+01 1.37170E+00-1.29823E-03 9.91063E-01 1.17283E-13-5.05870E-13
 -1      1112 1.73540E+01 6.16328E-01-2.59001E-04-1.56185E+00 7.35539E-14 3.04776E-13
 -1      1113 2.00053E+01 2.30728E-02-9.92952E-07 1.70244E-03-1.52678E-14 9.23853E-14
 -1      1114 1.72799E+01 1.58133E+00-2.60618E-03 4.01655E-01 1.34534E-13-5.63006E-13
 -1      1115 2.00030E+01 3.26055E-02-7.54160E-05 1.32732E-03-3.06028E-13 3.63150E-14
 -1      1116 1.92324E+01 7.65704E-01 6.33318E-05 1.10689E-01-3.07758E-14 3.13526E-14
 -1      1117 1.70086E+01 1.27040E+00 9.90223E-04-1.43330E-01-3.01171E-13 1.01231E-13
 -1      1118 1.68648E+01 9.82026E-01-2.38475E-03 1.45847E+00 1.77066E-13-5.90580E-13
 -1      1119 1.64621E+01 8.96989E-01 5.25639E-04-1.27949E+00 9.07149E-14 4.32694E-13
 -1      1120 1.94314E+01 6.42710E-01 6.23316E-05 1.03789E-01-1.33771E-13-8.93672E-14
 -1      1121 1.74082E+01 5.91025E-01 3.73803E-04 1.90564E+00 2.20464E-13-5.23336E-13
 -1      1122 2.79858E+01 9.08030E+00 2.28174E+00-6.50928E+00-8.77631E-14 2.76951E-12
 -1      1123 2.08860E+01 6.33738E+00 2.38560E-01-3.60721E+00-4.88776E-14 3.20889E-13
 -1      1124 1.97523E+01 5.95423E+00 9.50893E-02-2.50558E+00-3.32234E-14-7.09745E-13
 -1      1125 1.92284E+01 5.78896E+00 6.81161E-02-1.81040E+00-2.16008E-14-1.18541E-12
 -1      1126 1.88869E+01 5.68262E+00 5.51901E-02-1.28052E+00-1.46202E-14-1.41296E-12
 -1      1127 1.86338E+01 5.60353E+00 4.46539E-02-8.59752E-01-8.16361E-15-1.50505E-12
 -1      1128 1.84458E+01 5.54453E+00 3.59614E-02-5.15315E-01-3.10169E-15-1.53026E-12
 -1      1129 1.83226E+01 5.50564E+00 2.95595E-02-2.21650E-01 1.71738E-16-1.52251E-12
 -1      1130 1.82733E+01 5.48992E+00 2.64686E-02 4.06642E-02 2.24668E-15-1.49628E-12
 -1      1131 1.83038E+01 5.49931E+00 2.72211E-02 2.96106E-01 7.01349E-15-1.46158E-12
 -1      1132 1.84163E+01 5.53452E+00 3.20521E-02 5.71338E-01 1.04083E-14-1.40565E-12
 -1      1133 1.86076E+01 5.59458E+00 4.09284E-02 8.91930E-01 1.50054E-14-1.29465E-12
 -1      1134 1.88767E+01 5.67882E+00 5.27067E-02 1.29112E+00 2.06987E-14-1.12138E-12
 -1      1135 1.92409E+01 5.79244E+00 6.72038E-02 1.80997E+00 2.73184E-14-8.02699E-13
 -1      1136 1.97765E+01 5.96032E+00 9.12357E-02 2.50607E+00 3.60129E-14-1.99857E-13
 -1      1137 2.08223E+01 6.30302E+00 1.87690E-01 3.55169E+00 4.14946E-14 9.71213E-13
 -1      1138 2.53096E+01 8.01544E+00 1.40846E+00 5.63473E+00 8.75966E-14 3.36831E-12
 -1      1139 2.87260E+01 3.51694E+00 1.17423E+00-4.09348E+00-3.63959E-13 4.32410E-12
 -1      1140 2.06583E+01-1.82655E-01-6.20798E-01-8.01063E-02-1.21660E-13 3.46692E-12
 -1      1141 1.96310E+01-9.76364E-02-2.32268E-01 6.99565E-02-4.62495E-14 2.29739E-12
 -1      1142 1.96138E+01-5.07817E-02-6.12583E-02 4.62546E-02-1.67965E-14 1.50834E-12
 -1      1143 1.98935E+01-2.79304E-02-1.96489E-02 3.37996E-02-2.03522E-14 9.87564E-13
 -1      1144 2.03423E+01-1.52054E-02-8.64055E-03 2.79925E-02-2.16632E-14 5.87766E-13
 -1      1145 2.08807E+01-5.37986E-03-7.33372E-04 2.47547E-02-1.51253E-14 2.74621E-13
 -1      1146 2.14377E+01 4.35043E-03 9.79390E-03 2.17534E-02 1.53192E-15 4.89955E-14
 -1      1147 2.19322E+01 1.51319E-02 2.38496E-02 1.69236E-02-3.30213E-14-2.65026E-13
 -1      1148 2.22637E+01 2.66427E-02 4.03606E-02 8.23162E-03-1.27376E-14-5.14966E-13
 -1      1149 2.23177E+01 3.66757E-02 5.55483E-02-5.88930E-03-1.81192E-15-7.61031E-13
 -1      1150 2.19891E+01 4.08899E-02 6.22500E-02-2.53032E-02 2.09611E-14-7.16833E-13
 -1      1151 2.12315E+01 3.38032E-02 5.14931E-02-4.65135E-02-5.75495E-16-8.31307E-13
 -1      1152 2.01182E+01 1.19299E-02 1.77294E-02-6.18899E-02-1.50314E-14-9.41393E-13
 -1      1153 1.88820E+01-2.15175E-02-3.37714E-02-6.19003E-02 1.94441E-15-9.67552E-13
 -1      1154 1.78796E+01-5.42448E-02-8.38416E-02-4.10905E-02-1.17866E-14-1.06837E-12
 -1      1155 1.74587E+01-7.00308E-02-1.07896E-01-4.08545E-03 9.86971E-15-1.15799E-12
 -1      1156 1.77864E+01-6.01231E-02-9.27977E-02 3.48682E-02 2.19963E-15-1.26816E-12
 -1      1157 1.87577E+01-3.02326E-02-4.71299E-02 6.03421E-02 1.21821E-15-1.33349E-12
 -1      1158 2.00553E+01 4.07585E-03 5.58417E-03 6.52034E-02-1.69845E-14-1.42288E-12
 -1      1159 2.13138E+01 2.88871E-02 4.37996E-02 5.30809E-02-3.65363E-14-1.64433E-12
 -1      1160 2.22693E+01 3.90933E-02 5.91753E-02 3.32245E-02 4.43829E-15-1.61355E-12
 -1      1161 2.28165E+01 3.71516E-02 5.55531E-02 1.40400E-02 1.30495E-14-1.35386E-12
 -1      1162 2.29802E+01 2.85513E-02 4.17803E-02-1.50466E-05-5.88735E-14-1.49138E-12
 -1      1163 2.28551E+01 1.81804E-02 2.57338E-02-8.11843E-03-8.95009E-15-1.49434E-12
 -1      1164 2.25510E+01 8.98340E-03 1.19994E-02-1.14336E-02-3.28427E-15-1.47783E-12
 -1      1165 2.21625E+01 2.12974E-03 2.19660E-03-1.16592E-02 4.43350E-14-1.19007E-12
 -1      1166 2.17572E+01-2.31286E-03-3.81518E-03-1.02594E-02-1.62445E-14-1.19575E-12
 -1      1167 2.13773E+01-4.77510E-03-6.88619E-03-8.23659E-03-1.00227E-14-1.31361E-12
 -1      1168 2.10446E+01-5.81225E-03-7.96365E-03-6.17292E-03-1.29507E-14-1.19313E-12
 -1      1169 2.07671E+01-5.92535E-03-7.83314E-03-4.35296E-03-6.22440E-16-1.21495E-12
 -1      1170 2.05446E+01-5.50121E-03-7.05923E-03-2.87921E-03 4.69708E-14-9.21158E-13
 -1      1171 2.03717E+01-4.81076E-03-6.01102E-03-1.75589E-03-2.52971E-14-9.53587E-13
 -1      1172 2.02415E+01-4.02966E-03-4.91112E-03-9.41585E-04 5.66647E-15-8.96344E-13
 -1      1173 2.01463E+01-3.26322E-03-3.88200E-03-3.79167E-04 1.11814E-14-1.04450E-12
 -1      1174 2.00788E+01-2.56830E-03-2.98198E-03-1.12342E-05 4.68170E-14-9.67879E-13
 -1      1175 2.00328E+01-1.97022E-03-2.23049E-03 2.12954E-04-3.51254E-15-1.29673E-12
 -1      1176 2.00030E+01-1.47493E-03-1.62485E-03 3.35141E-04-4.29545E-15-1.15645E-12
 -1      1177 1.99849E+01-1.07724E-03-1.15101E-03 3.88049E-04 1.82814E-14-6.63566E-13
 -1      1178 1.99753E+01-7.66277E-04-7.90027E-04 3.96399E-04-4.15250E-14-5.51682E-13
 -1      1179 1.99715E+01-5.28794E-04-5.21865E-04 3.78271E-04-7.93634E-14-7.24195E-13
 -1      1180 1.99715E+01-3.51199E-04-3.27412E-04 3.46466E-04-4.59313E-14-1.19192E-12
 -1      1181 1.99741E+01-2.20563E-04-1.89308E-04 3.09689E-04 4.97523E-14-1.01987E-12
 -1      1182 1.99780E+01-1.25046E-04-9.19700E-05 2.73453E-04 4.08594E-14-2.83807E-13
 -1      1183 1.99827E+01-5.39003E-05-2.09026E-05 2.40601E-04-2.77742E-14-2.82609E-13
 -1      1184 1.99877E+01 2.67717E-06 3.86002E-05 2.11212E-04 5.02027E-14-4.86625E-14
 -1      1185 1.99923E+01 5.34451E-05 1.02173E-04 1.81122E-04 7.61548E-14-1.33173E-13
 -1      1186 1.99964E+01 1.03474E-04 1.76897E-04 1.35226E-04 5.33121E-15-9.78419E-14
 -1      1187 1.99991E+01 1.58577E-04 2.19039E-04 4.16727E-05-3.02448E-14-2.35066E-13
 -1      1188 1.99999E+01-3.72128E-05-5.24475E-05-4.85745E-05 2.17067E-14-6.78215E-14
 -1      1189 2.76887E+01 5.14442E-01 2.91685E-01 1.92383E+00-6.02643E-14 5.33357E-12
 -1      1190 2.05706E+01-7.18710E-02-5.75935E-01 1.18308E-01 3.53502E-14 4.29001E-12
 -1      1191 1.97896E+01-4.79653E-02-1.95071E-01 1.75855E-02 2.86368E-14 3.24671E-12
 -1      1192 1.98053E+01-3.17545E-02-6.09498E-02 3.02171E-03 2.61926E-14 2.50876E-12
 -1      1193 2.01990E+01-2.55215E-02-3.10433E-02-1.77272E-03 1.82671E-14 1.98686E-12
 -1      1194 2.08540E+01-2.23518E-02-2.75083E-02-4.67528E-03 1.40350E-14 1.62969E-12
 -1      1195 2.17229E+01-1.89289E-02-2.71279E-02-8.88889E-03 3.71903E-15 1.46507E-12
 -1      1196 2.27752E+01-1.22880E-02-2.22689E-02-1.60810E-02 1.47694E-14 1.34018E-12
 -1      1197 2.39617E+01 1.02275E-03-7.07613E-03-2.72558E-02 5.87312E-15 1.09451E-12
 -1      1198 2.51749E+01 2.41354E-02 2.53153E-02-4.17755E-02 1.29497E-15 8.83876E-13
 -1      1199 2.62040E+01 5.67085E-02 7.90808E-02-5.48243E-02 1.76569E-14 6.26617E-13
 -1      1200 2.67033E+01 8.88816E-02 1.45184E-01-5.43284E-02-4.31773E-15 6.59910E-13
 -1      1201 2.62372E+01 9.61278E-02 1.87594E-01-2.23175E-02 2.25826E-14 5.99465E-13
 -1      1202 2.45022E+01 5.11753E-02 1.48466E-01 4.97792E-02-1.58189E-14 6.76209E-13
 -1      1203 2.17334E+01-3.96596E-02-4.65835E-04 1.36391E-01-3.19983E-14 7.44738E-13
 -1      1204 1.89685E+01-1.23131E-01-1.99179E-01 1.74858E-01 1.15203E-14 5.38444E-13
 -1      1205 1.76559E+01-1.28394E-01-3.07079E-01 1.17595E-01-4.00253E-14 4.09717E-13
 -1      1206 1.86140E+01-6.17164E-02-2.36457E-01-8.00817E-03 2.96135E-14 3.23352E-14
 -1      1207 2.12825E+01 1.35309E-02-5.62223E-02-1.14941E-01-1.17098E-14-2.90296E-13
 -1      1208 2.42433E+01 5.22677E-02 9.71405E-02-1.47203E-01 3.92967E-14-4.60715E-13
 -1      1209 2.63261E+01 5.41105E-02 1.51272E-01-1.16141E-01 3.36623E-14-3.40394E-13
 -1      1210 2.71490E+01 3.91910E-02 1.27322E-01-6.20146E-02-1.70280E-14-1.60136E-13
 -1      1211 2.69392E+01 2.17914E-02 7.65713E-02-1.68525E-02 1.42846E-14-2.05894E-13
 -1      1212 2.61269E+01 8.40906E-03 3.16072E-02 1.01594E-02-3.02753E-15-2.40578E-13
 -1      1213 2.50811E+01-1.10937E-05 3.06820E-03 2.18477E-02 2.17925E-16-2.51528E-13
 -1      1214 2.40345E+01-4.46137E-03-1.11561E-02 2.41961E-02-2.88550E-15-1.29896E-14
 -1      1215 2.31029E+01-6.30809E-03-1.62224E-02 2.20197E-02-1.79512E-14 1.24158E-13
 -1      1216 2.23268E+01-6.64923E-03-1.64860E-02 1.82372E-02-1.28290E-14 6.00839E-14
 -1      1217 2.17068E+01-6.21715E-03-1.46763E-02 1.43149E-02-4.63040E-14-9.27539E-14
 -1      1218 2.12255E+01-5.45066E-03-1.22353E-02 1.08590E-02 3.05993E-14-1.23943E-13
 -1      1219 2.08600E+01-4.59206E-03-9.82676E-03 8.04015E-03 5.07320E-15-4.77525E-13
 -1      1220 2.05876E+01-3.76453E-03-7.70784E-03 5.83709E-03 5.83977E-14-8.18540E-13
 -1      1221 2.03880E+01-3.02351E-03-5.94424E-03 4.16011E-03-4.66376E-14-5.26965E-13
 -1      1222 2.02445E+01-2.38796E-03-4.52091E-03 2.90667E-03-3.07674E-14-2.18603E-13
 -1      1223 2.01434E+01-1.85820E-03-3.39420E-03 1.98342E-03-6.44610E-14-2.21498E-13
 -1      1224 2.00740E+01-1.42586E-03-2.51476E-03 1.31269E-03 7.98485E-15-4.52220E-13
 -1      1225 2.00280E+01-1.07905E-03-1.83650E-03 8.32559E-04 4.64740E-14-7.47697E-13
 -1      1226 1.99988E+01-8.05110E-04-1.31954E-03 4.94767E-04 5.54754E-15-1.04714E-12
 -1      1227 1.99817E+01-5.91887E-04-9.30474E-04 2.62091E-04-3.03363E-14-7.51395E-13
 -1      1228 1.99729E+01-4.28302E-04-6.41815E-04 1.06015E-04-4.77351E-14-2.73873E-13
 -1      1229 1.99698E+01-3.04521E-04-4.31054E-04 4.75472E-06 8.50582E-15-6.74926E-13
 -1      1230 1.99704E+01-2.11896E-04-2.79751E-04-5.83067E-05 5.33039E-15-5.67393E-13
 -1      1231 1.99733E+01-1.42783E-04-1.72628E-04-9.58557E-05 5.50200E-14-4.33731E-13
 -1      1232 1.99775E+01-9.02310E-05-9.65568E-05-1.17628E-04-4.30024E-14 1.30783E-13
 -1      1233 1.99824E+01-4.74978E-05-3.91388E-05-1.31134E-04-1.82310E-14 2.68537E-13
 -1      1234 1.99875E+01-7.67903E-06 1.31549E-05-1.41899E-04 5.68386E-14-8.22606E-13
 -1      1235 1.99922E+01 3.66478E-05 7.58532E-05-1.52756E-04-2.18085E-14-1.13967E-12
 -1      1236 1.99963E+01 8.88067E-05 1.56621E-04-1.57823E-04 6.11690E-14-1.22782E-12
 -1      1237 1.99991E+01 1.20095E-04 2.00513E-04-1.20776E-04 7.33228E-14-1.41859E-12
 -1      1238 1.99999E+01-3.76916E-05-5.79540E-05 4.09267E-05-2.44166E-15-9.01240E-13
 -1      1239 1.99998E+01 1.08851E-04-5.78182E-05 3.09809E-05-9.84851E-13-1.05259E-13
 -1      1240 1.99999E+01-7.31825E-04 1.86350E-04-3.55530E-05-4.26180E-13-2.02292E-14
 -1      1241 1.99999E+01-3.37700E-03 1.21742E-04-1.31537E-04 2.86206E-13-1.46078E-13
 -1      1242 1.99998E+01-6.88315E-03 1.41885E-05-1.47705E-04 9.23779E-13 4.12935E-14
 -1      1243 1.99998E+01-1.04520E-02-6.47667E-05-1.31303E-04 1.33579E-12-4.51640E-14
 -1      1244 1.99997E+01-1.35512E-02-1.12274E-04-1.00950E-04 2.68491E-13-2.26194E-13
 -1      1245 1.99997E+01-1.59076E-02-1.36314E-04-6.86668E-05-4.24029E-13 1.18022E-13
 -1      1246 1.99997E+01-1.73731E-02-1.47505E-04-3.35465E-05-2.27510E-13 1.91111E-14
 -1      1247 1.99997E+01-1.78450E-02-1.49927E-04 1.25116E-06-1.45695E-13-1.03467E-13
 -1      1248 1.99997E+01-1.73065E-02-1.45550E-04 3.57828E-05 3.63212E-14 9.91836E-15
 -1      1249 1.99997E+01-1.57878E-02-1.32676E-04 7.01052E-05-8.89437E-13-1.37827E-13
 -1      1250 1.99997E+01-1.34001E-02-1.07464E-04 1.03112E-04-1.95273E-12 1.02895E-13
 -1      1251 1.99998E+01-1.02999E-02-6.12865E-05 1.30647E-04-1.65718E-12 1.19229E-13
 -1      1252 1.99998E+01-6.74992E-03 1.81961E-05 1.48122E-04-1.15644E-12 5.68410E-14
 -1      1253 1.99999E+01-3.23651E-03 1.41377E-04 1.54257E-04-3.83544E-13 1.99167E-13
 -1      1254 2.00000E+01-7.49944E-04 1.85006E-04 2.20621E-05 3.79439E-13-2.03794E-13
 -1      1255 1.99997E+01 1.11188E-04-6.59089E-05-2.76285E-05 1.33691E-13 1.05996E-13
 -1      1256-1.05931E+00-2.46444E+01-3.79244E+00-2.31072E+00 1.65590E-12 3.68497E-13
 -1      1257-1.95253E+00-1.58758E+01-3.16866E+00-4.33637E+00 3.97804E-12 1.62809E-12
 -1      1258-1.39639E-02-3.11002E+00-2.03884E+00-5.60376E-01 5.17986E-12 3.14693E-12
 -1      1259 8.91535E+00 7.21203E+00-4.06469E-01 7.89540E+00 4.42801E-12 4.12670E-12
 -1      1260 2.66527E+01 1.07918E+01 1.47958E+00 1.59708E+01 3.27294E-12 4.71001E-12
 -1      1261 4.87681E+01 7.72636E+00 3.13566E+00 1.71515E+01 1.63447E-12 3.74345E-12
 -1      1262 6.55498E+01 2.86443E+00 4.27270E+00 9.37040E+00 3.87024E-13 1.66478E-12
 -1      1263 6.86550E+01 1.75469E+00 4.43265E+00-3.69054E+00 1.95399E-13-1.12418E-12
 -1      1264 5.80331E+01 5.24667E+00 3.76398E+00-1.48814E+01 1.20892E-12-3.88289E-12
 -1      1265 3.79852E+01 9.99836E+00 2.36255E+00-1.82152E+01 2.86671E-12-5.30864E-12
 -1      1266 1.78733E+01 1.04556E+01 6.31612E-01-1.32079E+01 4.44178E-12-5.30731E-12
 -1      1267 4.31156E+00 3.89601E+00-1.08903E+00-4.30238E+00 5.31752E-12-4.28546E-12
 -1      1268-1.36557E+00-8.30415E+00-2.52330E+00 2.87248E+00 4.70868E-12-2.51166E-12
 -1      1269-1.64100E+00-2.03288E+01-3.48424E+00 4.23108E+00 2.57572E-12-8.84015E-13
 -1      1270-8.96339E-01-2.56915E+01-3.83227E+00 7.22509E-01-2.86410E-13-2.12205E-13
 -1      1271-1.32335E+00-2.24531E+01-3.60325E+00-3.26394E+00-3.01481E-12-6.89837E-13
 -1      1272-1.66995E+00-1.21811E+01-2.77155E+00-3.62257E+00-5.15521E-12-2.20440E-12
 -1      1273 1.38896E+00 1.68267E-01-1.51996E+00 1.35178E+00-5.89861E-12-3.91021E-12
 -1      1274 1.10693E+01 8.90589E+00 7.60670E-02 9.63129E+00-5.15787E-12-4.96181E-12
 -1      1275 2.78172E+01 1.11224E+01 1.60471E+00 1.65706E+01-3.53351E-12-5.14433E-12
 -1      1276 4.73863E+01 7.85153E+00 2.98735E+00 1.77000E+01-1.82881E-12-4.24660E-12
 -1      1277 6.20524E+01 3.23244E+00 3.84007E+00 1.05326E+01-6.00409E-13-2.59792E-12
 -1      1278 6.68679E+01 1.56368E+00 4.14876E+00-1.41859E+00-1.38528E-13-3.73410E-13
 -1      1279 5.89602E+01 4.38068E+00 3.68440E+00-1.27174E+01-6.14508E-13 1.95399E-12
 -1      1280 4.23062E+01 9.03951E+00 2.68057E+00-1.81987E+01-1.85774E-12 3.91132E-12
 -1      1281 2.31668E+01 1.11665E+01 1.22120E+00-1.52628E+01-3.14282E-12 4.24372E-12
 -1      1282 8.01024E+00 7.15755E+00-3.25429E-01-7.42056E+00-4.28768E-12 3.74545E-12
 -1      1283-6.21819E-03-3.12269E+00-1.87631E+00 5.67946E-01-4.62941E-12 2.73004E-12
 -1      1284-1.73557E+00-1.53491E+01-3.05139E+00 3.98311E+00-3.21121E-12 1.22785E-12
 -1      1285-1.17204E+00-2.37737E+01-3.67530E+00 2.13477E+00-1.01541E-12 3.24261E-13
 -1      1286 2.25384E+01 1.85714E+00-7.13774E-01-2.63689E+00-1.37168E-13 2.22927E-12
 -1      1287 2.07464E+01 4.71196E+00-4.12419E-02-2.97371E+00-3.67234E-13-1.66006E-13
 -1      1288 2.12559E+01 4.81901E+00-9.69442E-02-3.86059E+00-4.74454E-13 3.76629E-13
 -1      1289 1.98474E+01 5.02900E+00-1.69604E-02-2.25299E+00-3.61544E-13-9.20233E-13
 -1      1290 2.01970E+01 5.13853E+00 1.17135E-02-2.67102E+00-4.11594E-13-6.01859E-13
 -1      1291 2.09342E+01 3.94916E+00-2.05508E-02-2.70851E+00-6.39631E-13-1.46522E-13
 -1      1292 1.93510E+01 5.11976E+00-5.09568E-03-1.64383E+00-2.82267E-13-1.28673E-12
 -1      1293 1.95819E+01 5.19819E+00 1.75495E-02-1.94389E+00-3.24740E-13-1.12253E-12
 -1      1294 2.00507E+01 4.39713E+00-2.10113E-02-2.07655E+00-5.58907E-13-7.61717E-13
 -1      1295 1.89980E+01 5.15879E+00-9.79542E-04-1.15509E+00-2.01783E-13-1.46184E-12
 -1      1296 1.91675E+01 5.21559E+00 1.61752E-02-1.39149E+00-2.30621E-13-1.38434E-12
 -1      1297 1.95126E+01 4.61466E+00-1.79874E-02-1.50944E+00-4.22292E-13-1.07597E-12
 -1      1298 1.87323E+01 5.17990E+00 3.30679E-04-7.63367E-01-1.29006E-13-1.52946E-12
 -1      1299 1.88603E+01 5.22184E+00 1.35802E-02-9.52602E-01-1.55972E-13-1.49896E-12
 -1      1300 1.91311E+01 4.74426E+00-1.48912E-02-1.05159E+00-2.97594E-13-1.22615E-12
 -1      1301 1.85339E+01 5.19389E+00 5.75326E-04-4.33109E-01-6.56905E-14-1.54179E-12
 -1      1302 1.86265E+01 5.22370E+00 1.03050E-02-5.93523E-01-8.30204E-14-1.53966E-12
 -1      1303 1.88440E+01 4.83104E+00-1.28076E-02-6.76404E-01-1.79167E-13-1.28686E-12
 -1      1304 1.84130E+01 5.20576E+00 1.19465E-03-1.50377E-01 5.41624E-15-1.53058E-12
 -1      1305 1.84649E+01 5.22231E+00 6.94951E-03-2.89802E-01-1.45561E-14-1.53492E-12
 -1      1306 1.86393E+01 4.88933E+00-1.16685E-02-3.59983E-01-7.09259E-14-1.28850E-12
 -1      1307 1.83775E+01 5.21712E+00 2.61205E-03 1.07138E-01 6.38734E-14-1.50379E-12
 -1      1308 1.83846E+01 5.21934E+00 3.98605E-03-2.27779E-02 4.49064E-14-1.52155E-12
 -1      1309 1.85248E+01 4.92328E+00-1.10730E-02-8.50075E-02 4.19909E-14-1.28040E-12
 -1      1310 1.84338E+01 5.22779E+00 5.03795E-03 3.63708E-01 1.28691E-13-1.45818E-12
 -1      1311 1.83934E+01 5.21485E+00 1.61406E-03 2.30845E-01 1.06457E-13-1.48462E-12
 -1      1312 1.85087E+01 4.93309E+00-1.09389E-02 1.70628E-01 1.36613E-13-1.25361E-12
 -1      1313 1.85839E+01 5.23578E+00 8.35468E-03 6.45859E-01 1.92487E-13-1.39179E-12
 -1      1314 1.84954E+01 5.20762E+00-6.48402E-05 4.96491E-01 1.69252E-13-1.43272E-12
 -1      1315 1.85971E+01 4.91619E+00-1.13082E-02 4.31158E-01 2.43987E-13-1.20672E-12
 -1      1316 1.88213E+01 5.23857E+00 1.23388E-02 9.75843E-01 2.59303E-13-1.27867E-12
 -1      1317 1.86883E+01 5.19517E+00-1.27537E-03 7.98900E-01 2.28475E-13-1.35209E-12
 -1      1318 1.87901E+01 4.86848E+00-1.21811E-02 7.20217E-01 3.51645E-13-1.13159E-12
 -1      1319 1.91546E+01 5.23204E+00 1.62174E-02 1.39606E+00 3.39645E-13-1.07837E-12
 -1      1320 1.89710E+01 5.17119E+00-2.91453E-03 1.16866E+00 3.04878E-13-1.20002E-12
 -1      1321 1.90880E+01 4.78172E+00-1.41377E-02 1.06790E+00 4.62233E-13-1.00601E-12
 -1      1322 1.96002E+01 5.21015E+00 1.82389E-02 1.93928E+00 4.17888E-13-7.25878E-13
 -1      1323 1.93530E+01 5.12559E+00-7.20693E-03 1.64190E+00 3.77108E-13-9.43575E-13
 -1      1324 1.95033E+01 4.63908E+00-1.73617E-02 1.50829E+00 5.83332E-13-7.80404E-13
 -1      1325 2.02539E+01 5.15805E+00 1.93926E-02 2.66613E+00 4.65628E-13-6.34631E-14
 -1      1326 1.98799E+01 5.02852E+00-1.82200E-02 2.25220E+00 4.18478E-13-4.63705E-13
 -1      1327 2.00814E+01 4.40146E+00-2.04914E-02 2.07148E+00 6.73744E-13-3.65402E-13
 -1      1328 2.15073E+01 4.91349E+00 2.12309E-02 3.72939E+00 4.02123E-13 1.19139E-12
 -1      1329 2.07605E+01 4.75575E+00-3.91962E-02 3.04088E+00 3.92866E-13 4.31086E-13
 -1      1330 2.10072E+01 3.92262E+00-1.54762E-02 2.76484E+00 6.96540E-13 3.84637E-13
 -1      1331 2.72962E+01 3.16217E+00 8.82070E-01 4.38294E+00 1.93762E-13 3.53806E-12
 -1      1332 2.23748E+01 3.51883E+00-1.72458E-01 3.62332E+00 2.01048E-13 1.90992E-12
 -1      1333 2.25615E+01 2.53787E+00-2.40349E-02 3.11889E+00 6.57023E-13 1.51243E-12
 -1      1334 2.17922E+01 3.43596E-01-7.55811E-01 1.02557E+00 3.53724E-13 3.40206E-12
 -1      1335 2.23991E+01 1.20491E-01-3.97405E-01-1.13014E+00-3.96877E-13 2.37640E-12
 -1      1336 2.12465E+01 2.95504E-01-1.57913E-01-6.73112E-01-3.63598E-13 1.91200E-12
 -1      1337 2.07521E+01 1.51834E-01-7.07844E-02-2.73030E-01-2.91409E-13 1.72823E-12
 -1      1338 2.04418E+01 9.09117E-02-1.23343E-02-2.03376E-01-2.71366E-13 1.30278E-12
 -1      1339 2.15690E+01 3.55822E-01-1.03203E-01-1.02017E+00-6.28705E-13 9.57012E-13
 -1      1340 2.02078E+01 6.72924E-02 3.74932E-03-5.74686E-03-2.08790E-13 1.14708E-12
 -1      1341 2.02139E+01 4.45819E-02 1.38343E-02 1.39615E-02-1.84016E-13 8.57182E-13
 -1      1342 2.07456E+01 1.33162E-01-3.61158E-02-2.52458E-01-4.70020E-13 6.76702E-13
 -1      1343 2.01875E+01 3.64323E-02 1.26681E-02 1.12197E-01-1.47786E-13 7.16590E-13
 -1      1344 2.03403E+01 2.33902E-02 1.07662E-02 1.24393E-01-1.56951E-13 4.93154E-13
 -1      1345 2.05200E+01 6.13456E-02-1.00002E-02 9.62716E-02-3.44058E-13 4.01646E-13
 -1      1346 2.04289E+01 2.04322E-02 7.67391E-03 1.76835E-01-1.15836E-13 4.24417E-13
 -1      1347 2.06558E+01 1.09964E-02 5.69267E-03 1.83722E-01-1.09269E-13 2.71349E-13
 -1      1348 2.05846E+01 3.09232E-02-5.13798E-03 2.77159E-01-2.64069E-13 1.99284E-13
 -1      1349 2.08069E+01 8.74606E-03 3.44513E-03 2.07275E-01-1.11047E-13 1.95552E-13
 -1      1350 2.10642E+01 8.73670E-05 2.69346E-03 2.09177E-01-7.90000E-14 7.46382E-14
 -1      1351 2.08198E+01 1.20039E-02-3.17491E-03 3.70336E-01-2.15428E-13 6.51111E-14
 -1      1352 2.12398E+01-3.13668E-03 1.50829E-03 2.06335E-01-6.77793E-14 9.85670E-15
 -1      1353 2.14878E+01-1.21179E-02 1.36661E-03 2.02295E-01-7.94280E-14-9.14269E-14
 -1      1354 2.11413E+01-6.25923E-03-6.65941E-04 3.97433E-01-1.52784E-13-4.16858E-14
 -1      1355 2.16532E+01-1.71765E-02 1.30328E-03 1.69904E-01-7.36876E-14-1.37336E-13
 -1      1356 2.18472E+01-2.64609E-02 1.21503E-03 1.58309E-01-8.48115E-14-2.64101E-13
 -1      1357 2.14799E+01-2.79626E-02 2.80548E-03 3.57561E-01-1.61079E-13-1.47603E-13
 -1      1358 2.19663E+01-3.34963E-02 2.43486E-03 9.21075E-02-7.81480E-14-2.65417E-13
 -1      1359 2.20547E+01-4.17454E-02 2.03795E-03 7.15535E-02-8.76968E-14-3.57922E-13
 -1      1360 2.17670E+01-5.37163E-02 7.16896E-03 2.41604E-01-1.33955E-13-1.51949E-13
 -1      1361 2.20906E+01-4.96764E-02 4.53759E-03-2.86801E-02-7.86576E-14-4.24899E-13
 -1      1362 2.20222E+01-5.39479E-02 3.51444E-03-5.79012E-02-1.70593E-14-5.08210E-13
 -1      1363 2.19309E+01-8.00246E-02 1.19664E-02 4.34981E-02-1.44178E-13-1.86743E-13
 -1      1364 2.19434E+01-5.99628E-02 6.77188E-03-1.81734E-01 1.82250E-14-5.24466E-13
 -1      1365 2.16842E+01-5.60752E-02 4.79563E-03-2.15620E-01-4.93529E-15-5.06498E-13
 -1      1366 2.19028E+01-9.80483E-02 1.59400E-02-2.25701E-01-4.84508E-14-2.75979E-13
 -1      1367 2.14776E+01-5.59367E-02 7.62181E-03-3.36197E-01-5.47340E-14-5.83103E-13
 -1      1368 2.10362E+01-4.02783E-02 4.48899E-03-3.65566E-01-6.19678E-14-6.51382E-13
 -1      1369 2.16354E+01-9.44306E-02 1.68234E-02-5.22467E-01-6.98955E-14-4.11807E-13
 -1      1370 2.07234E+01-3.03681E-02 5.44587E-03-4.40437E-01-3.93088E-15-6.72677E-13
 -1      1371 2.01727E+01-3.28260E-03 1.37201E-03-4.52144E-01-3.22370E-14-7.04256E-13
 -1      1372 2.11328E+01-5.69783E-02 1.19810E-02-7.63593E-01-6.14656E-14-4.40576E-13
 -1      1373 1.98213E+01 1.55928E-02-1.44846E-04-4.37368E-01-1.41952E-14-6.94361E-13
 -1      1374 1.92990E+01 4.68121E-02-4.27040E-03-4.20273E-01-2.87422E-14-7.14415E-13
 -1      1375 2.04791E+01 1.45019E-02 3.17500E-04-8.42600E-01-3.26244E-14-4.48303E-13
 -1      1376 1.90129E+01 6.69368E-02-7.06239E-03-2.96980E-01-9.95298E-14-7.51531E-13
 -1      1377 1.86822E+01 8.94154E-02-9.82587E-03-2.50811E-01-8.05614E-14-8.46332E-13
 -1      1378 1.98445E+01 9.94071E-02-1.51648E-02-6.79146E-01-8.74023E-14-4.73298E-13
 -1      1379 1.85641E+01 9.95135E-02-1.14805E-02-4.75098E-02-2.74121E-14-9.14119E-13
 -1      1380 1.85434E+01 1.02112E-01-1.17174E-02 1.28693E-02-4.28511E-14-9.50461E-13
 -1      1381 1.94389E+01 1.61147E-01-2.71802E-02-2.81874E-01-1.06515E-13-6.03517E-13
 -1      1382 1.86431E+01 9.59044E-02-1.07912E-02 2.25844E-01-3.40509E-14-9.41042E-13
 -1      1383 1.89469E+01 7.72745E-02-8.33911E-03 2.77245E-01-2.77729E-14-9.85725E-13
 -1      1384 1.94196E+01 1.68628E-01-2.86162E-02 2.27373E-01-3.66027E-14-7.12974E-13
 -1      1385 1.92331E+01 5.88868E-02-5.80524E-03 4.24481E-01-1.97802E-14-9.93296E-13
 -1      1386 1.97642E+01 2.84885E-02-1.67659E-03 4.49161E-01-1.99580E-14-1.01509E-12
 -1      1387 1.98056E+01 1.17964E-01-1.86640E-02 6.66463E-01-5.64037E-14-7.72608E-13
 -1      1388 2.01429E+01 8.90660E-03 3.81986E-05 4.90929E-01-5.37278E-14-1.06605E-12
 -1      1389 2.07435E+01-2.00100E-02 4.43141E-03 4.85802E-01-9.14059E-14-1.19070E-12
 -1      1390 2.04674E+01 3.58494E-02-3.34826E-03 8.92618E-01-7.93497E-14-7.88496E-13
 -1      1391 2.11079E+01-3.17380E-02 3.71827E-03 4.31504E-01-6.41215E-14-1.19673E-12
 -1      1392 2.16313E+01-5.03631E-02 7.31212E-03 4.05990E-01-4.78398E-14-1.26572E-12
 -1      1393 2.12000E+01-4.04090E-02 9.43051E-03 8.71219E-01-1.23424E-13-8.66664E-13
 -1      1394 2.19046E+01-5.19920E-02 4.44594E-03 2.96139E-01 2.74260E-15-1.19335E-12
 -1      1395 2.22634E+01-5.86769E-02 6.91080E-03 2.63518E-01 6.33339E-14-1.14044E-12
 -1      1396 2.18198E+01-8.54333E-02 1.57526E-02 6.67160E-01-1.21084E-15-8.50348E-13
 -1      1397 2.24139E+01-5.32016E-02 3.22481E-03 1.42079E-01 6.53514E-14-1.16238E-12
 -1      1398 2.25870E+01-5.10758E-02 4.68609E-03 1.12527E-01 5.47652E-14-1.12981E-12
 -1      1399 2.22230E+01-9.54865E-02 1.60039E-02 3.85228E-01 5.64071E-14-8.93616E-13
 -1      1400 2.26204E+01-4.28636E-02 1.45517E-03 9.50344E-03-1.28959E-14-1.03067E-12
 -1      1401 2.26337E+01-3.62930E-02 2.19996E-03-1.20744E-02-2.78224E-14-1.12530E-12
 -1      1402 2.23885E+01-8.12443E-02 1.26829E-02 1.14719E-01 4.51184E-14-8.51456E-13
 -1      1403 2.25763E+01-2.85777E-02 6.46401E-05-8.40211E-02-2.97002E-14-1.02988E-12
 -1      1404 2.24768E+01-2.09893E-02 3.40061E-04-9.69219E-02-3.15793E-14-1.02964E-12
 -1      1405 2.23512E+01-5.66613E-02 8.24788E-03-9.42780E-02-4.00721E-15-6.90829E-13
 -1      1406 2.23606E+01-1.52737E-02-6.54867E-04-1.37750E-01-5.65650E-15-1.05795E-12
 -1      1407 2.21961E+01-8.58690E-03-6.85391E-04-1.43485E-01 4.74998E-14-9.76360E-13
 -1      1408 2.21701E+01-3.20417E-02 4.21655E-03-2.27830E-01-3.92460E-14-5.86564E-13
 -1      1409 2.20502E+01-5.09770E-03-8.10820E-04-1.59427E-01 1.04253E-13-9.33513E-13
 -1      1410 2.18596E+01-2.76850E-05-1.04198E-03-1.60161E-01 9.15948E-14-8.35769E-13
 -1      1411 2.19056E+01-1.24926E-02 1.19804E-03-2.94209E-01 1.04052E-13-5.43740E-13
 -1      1412 2.17059E+01 1.63397E-03-6.39735E-04-1.59036E-01 2.40504E-14-8.79715E-13
 -1      1413 2.15159E+01 5.06991E-03-9.95153E-04-1.56751E-01-2.53290E-14-8.77062E-13
 -1      1414 2.16071E+01 7.49608E-04-7.58819E-04-3.10621E-01 6.30952E-14-6.68808E-13
 -1      1415 2.13692E+01 5.47018E-03-3.49347E-04-1.45513E-01 2.60636E-14-9.50923E-13
 -1      1416 2.11955E+01 7.55636E-03-7.67432E-04-1.41711E-01 1.56520E-14-8.98840E-13
 -1      1417 2.13099E+01 8.45880E-03-1.84948E-03-2.94832E-01-2.98798E-14-6.11038E-13
 -1      1418 2.10643E+01 7.20287E-03-6.83051E-05-1.25586E-01-3.39082E-14-9.04588E-13
 -1      1419 2.09148E+01 8.29510E-03-4.99622E-04-1.21275E-01-3.13443E-15-8.80985E-13
 -1      1420 2.10360E+01 1.20750E-02-2.32417E-03-2.61373E-01 7.94666E-15-5.78597E-13
 -1      1421 2.08027E+01 7.56408E-03 1.45905E-04-1.03763E-01-1.85235E-14-8.24547E-13
 -1      1422 2.06795E+01 7.98359E-03-2.62583E-04-9.95505E-02 9.70589E-15-7.65506E-13
 -1      1423 2.07968E+01 1.30033E-02-2.40310E-03-2.20611E-01 3.68917E-14-5.69466E-13
 -1      1424 2.05873E+01 7.12171E-03 2.81268E-04-8.27593E-02 1.18534E-13-7.18881E-13
 -1      1425 2.04894E+01 7.12027E-03-8.18616E-05-7.89699E-02 1.04984E-13-5.83146E-13
 -1      1426 2.05963E+01 1.23529E-02-2.25223E-03-1.79191E-01 6.38000E-14-4.70897E-13
 -1      1427 2.04159E+01 6.27282E-03 3.48149E-04-6.40084E-02 1.24358E-15-6.74714E-13
 -1      1428 2.03405E+01 6.03184E-03 4.12124E-05-6.07795E-02-1.07117E-14-6.72550E-13
 -1      1429 2.04337E+01 1.09014E-02-1.98564E-03-1.40915E-01-4.29518E-15-5.19349E-13
 -1      1430 2.02835E+01 5.27394E-03 3.64385E-04-4.80991E-02-2.29094E-14-6.46284E-13
 -1      1431 2.02271E+01 4.91628E-03 1.15726E-04-4.54555E-02 1.88736E-14-6.91324E-13
 -1      1432 2.03057E+01 9.14856E-03-1.67660E-03-1.07618E-01-1.70713E-14-4.64409E-13
 -1      1433 2.01841E+01 4.27845E-03 3.47557E-04-3.51068E-02 7.94005E-15-6.62176E-13
 -1      1434 2.01432E+01 3.88273E-03 1.53586E-04-3.30111E-02 5.24683E-15-7.20744E-13
 -1      1435 2.02075E+01 7.39069E-03-1.36907E-03-7.98850E-02 8.30260E-15-4.15617E-13
 -1      1436 2.01115E+01 3.36940E-03 3.11921E-04-2.48226E-02-6.39368E-14-7.82695E-13
 -1      1437 2.00828E+01 2.98274E-03 1.65953E-04-2.32068E-02-2.86675E-14-8.74732E-13
 -1      1438 2.01343E+01 5.78605E-03-1.08715E-03-5.75599E-02-1.41324E-14-5.69268E-13
 -1      1439 2.00603E+01 2.58445E-03 2.67791E-04-1.69013E-02 3.00161E-14-8.75523E-13
 -1      1440 2.00409E+01 2.23254E-03 1.61921E-04-1.56875E-02-2.16282E-14-8.45589E-13
 -1      1441 2.00811E+01 4.40519E-03-8.42102E-04-4.00992E-02-4.97071E-14-7.52910E-13
 -1      1442 2.00254E+01 1.93356E-03 2.21982E-04-1.09540E-02 3.51163E-14-9.02528E-13
 -1      1443 2.00130E+01 1.62809E-03 1.48305E-04-1.00652E-02 4.99029E-14-8.68268E-13
 -1      1444 2.00436E+01 3.26602E-03-6.37195E-04-2.67947E-02-2.30794E-15-6.65528E-13
 -1      1445 2.00028E+01 1.41093E-03 1.78596E-04-6.60067E-03 2.40530E-14-6.90467E-13
 -1      1446 1.99955E+01 1.15483E-03 1.29899E-04-5.96722E-03 8.49100E-14-5.94557E-13
 -1      1447 2.00182E+01 2.35706E-03-4.71065E-04-1.69082E-02 4.31713E-14-7.49321E-13
 -1      1448 1.99891E+01 1.00268E-03 1.39789E-04-3.49836E-03-4.01915E-15-5.55026E-13
 -1      1449 1.99855E+01 7.93676E-04 1.09869E-04-3.06028E-03-1.11766E-13-6.16002E-13
 -1      1450 2.00019E+01 1.65221E-03-3.39871E-04-9.74731E-03 8.23981E-14-6.25951E-13
 -1      1451 1.99820E+01 6.91601E-04 1.06406E-04-1.35320E-03-1.14748E-13-5.74554E-13
 -1      1452 1.99807E+01 5.24588E-04 9.01533E-05-1.06098E-03-2.01734E-13-8.08042E-13
 -1      1453 1.99922E+01 1.11970E-03-2.38683E-04-4.70263E-03-8.04481E-14-4.70762E-13
 -1      1454 1.99792E+01 4.59898E-04 7.84666E-05 7.66452E-05-9.48832E-14-7.78672E-13
 -1      1455 1.99796E+01 3.28440E-04 7.18090E-05 2.62466E-04 3.23838E-14-8.66363E-13
 -1      1456 1.99872E+01 7.27161E-04-1.62313E-04-1.26186E-03-1.91872E-13-4.88267E-13
 -1      1457 1.99794E+01 2.90651E-04 5.55280E-05 9.82981E-04 2.43096E-13-7.70407E-13
 -1      1458 1.99808E+01 1.87846E-04 5.53078E-05 1.09275E-03 2.87747E-13-4.64495E-13
 -1      1459 1.99854E+01 4.44191E-04-1.05777E-04 9.89447E-04 2.20906E-13-4.04034E-13
 -1      1460 1.99815E+01 1.68339E-04 3.69728E-05 1.51179E-03 1.67850E-13-2.64695E-13
 -1      1461 1.99835E+01 8.72688E-05 4.08532E-05 1.56770E-03 1.51126E-13-1.20415E-13
 -1      1462 1.99858E+01 2.43287E-04-6.44956E-05 2.37377E-03 4.52424E-13-1.94547E-13
 -1      1463 1.99847E+01 7.87480E-05 2.23660E-05 1.76762E-03 6.40155E-14-1.06744E-13
 -1      1464 1.99869E+01 1.26541E-05 2.88506E-05 1.78447E-03 9.52109E-14-8.05533E-14
 -1      1465 1.99875E+01 9.95865E-05-3.43040E-05 3.12978E-03 2.40792E-13 7.93350E-15
 -1      1466 1.99883E+01 8.43840E-06 1.20270E-05 1.81697E-03 8.41725E-14-4.63366E-14
 -1      1467 1.99906E+01-4.92909E-05 2.05965E-05 1.80250E-03 8.28414E-14 7.00280E-14
 -1      1468 1.99899E+01-1.01533E-05-1.12374E-05 3.41971E-03 6.90737E-14 4.71264E-14
 -1      1469 1.99920E+01-5.61877E-05 7.96890E-06 1.68977E-03 1.89677E-14-1.32650E-13
 -1      1470 1.99941E+01-1.11743E-04 1.88834E-05 1.64385E-03 1.60499E-14-9.83530E-14
 -1      1471 1.99927E+01-1.09641E-04 8.68865E-06 3.33456E-03-2.07176E-14-2.81686E-14
 -1      1472 1.99954E+01-1.29687E-04 1.36533E-05 1.38032E-03 2.42118E-14-1.74217E-13
 -1      1473 1.99970E+01-1.86489E-04 2.21187E-05 1.29260E-03 2.73706E-14-6.51778E-14
 -1      1474 1.99953E+01-2.25630E-04 2.80721E-05 2.89483E-03-2.03820E-14-2.14958E-13
 -1      1475 1.99980E+01-2.31725E-04 2.35214E-05 8.50572E-04-3.72180E-14-5.94642E-14
 -1      1476 1.99990E+01-2.51445E-04 1.68067E-05 7.21777E-04-8.40601E-14-6.08384E-14
 -1      1477 1.99975E+01-3.90307E-04 4.46059E-05 2.07646E-03 7.56292E-15-2.29532E-13
 -1      1478 1.99997E+01-1.44413E-04 2.63661E-05 4.65979E-05-5.87399E-14-4.79235E-14
 -1      1479 1.99993E+01-5.14501E-04 3.37249E-05 7.34934E-04 1.07336E-14-9.27339E-14
 -1      1480 2.09400E+01 7.41633E-02-1.45157E-01 3.51742E-01 3.30368E-13 2.69501E-12
 -1      1481 2.20079E+01 2.18075E-01-2.26784E-01 5.81194E-01 2.83218E-13 3.19567E-12
 -1      1482 2.22381E+01 8.49885E-01-9.09762E-02 1.80221E+00 5.52239E-13 2.08984E-12
 -1      1483 2.03520E+01 3.63842E-02-1.90903E-02 4.98118E-02 2.31124E-13 2.06760E-12
 -1      1484 2.05835E+01 1.19029E-01-5.81315E-02 1.04667E-01 2.34035E-13 2.45057E-12
 -1      1485 2.10927E+01 1.83260E-01-5.72048E-02 5.31058E-01 4.91794E-13 1.63967E-12
 -1      1486 2.03596E+01 2.27382E-02 4.78770E-03-1.06369E-01 1.58928E-13 1.59740E-12
 -1      1487 2.02870E+01 6.31488E-02 3.29415E-03-7.19726E-02 1.60257E-13 1.87720E-12
 -1      1488 2.06697E+01 8.04152E-02-1.57478E-02 1.66418E-02 3.64962E-13 1.24785E-12
 -1      1489 2.07224E+01 1.74325E-02 4.38426E-03-2.07120E-01 1.05401E-13 1.27296E-12
 -1      1490 2.04797E+01 4.28240E-02 1.19428E-02-1.80456E-01 1.08945E-13 1.46317E-12
 -1      1491 2.07161E+01 4.80598E-02-7.90111E-03-2.56528E-01 2.47921E-13 9.72495E-13
 -1      1492 2.13331E+01 1.50146E-02 1.17686E-03-2.85834E-01 6.94011E-14 1.09669E-12
 -1      1493 2.09689E+01 3.50011E-02 8.63465E-03-2.61996E-01 6.76304E-14 1.20137E-12
 -1      1494 2.10632E+01 3.59698E-02-8.68185E-03-4.42185E-01 1.58572E-13 7.97384E-13
 -1      1495 2.21378E+01 1.22925E-02-6.87724E-04-3.51528E-01 4.90480E-14 9.77152E-13
 -1      1496 2.16746E+01 3.03509E-02 4.93959E-03-3.29242E-01 4.49328E-14 1.04570E-12
 -1      1497 2.16259E+01 2.96485E-02-9.95161E-03-5.87820E-01 9.33355E-14 6.90853E-13
 -1      1498 2.30895E+01 6.60614E-03-4.99090E-04-3.99753E-01 7.18627E-14 8.39096E-13
 -1      1499 2.25493E+01 2.35673E-02 2.55238E-03-3.80723E-01 5.70854E-14 9.35363E-13
 -1      1500 2.23506E+01 2.17139E-02-9.91183E-03-7.01918E-01 9.88545E-14 5.72034E-13
 -1      1501 2.41149E+01-5.18002E-03 2.95098E-03-4.13171E-01 5.52841E-14 6.95905E-13
 -1      1502 2.35377E+01 9.23267E-03 1.53719E-03-4.02853E-01 6.97627E-14 8.11080E-13
 -1      1503 2.31840E+01 5.51455E-03-7.31152E-03-7.67517E-01 1.14076E-13 5.19803E-13
 -1      1504 2.50814E+01-2.61522E-02 1.16779E-02-3.60042E-01 8.71811E-14 5.28955E-13
 -1      1505 2.45451E+01-1.87214E-02 2.58775E-03-3.68787E-01 5.84298E-14 6.34055E-13
 -1      1506 2.40468E+01-2.65548E-02-1.63925E-04-7.42422E-01 1.16696E-13 4.07337E-13
 -1      1507 2.57699E+01-5.65245E-02 2.67137E-02-1.98319E-01 1.81339E-14 5.00893E-13
 -1      1508 2.54072E+01-6.43036E-02 6.94492E-03-2.40772E-01 3.27299E-14 5.08669E-13
 -1      1509 2.48117E+01-8.07695E-02 1.34582E-02-5.61315E-01 7.54188E-14 3.34798E-13
 -1      1510 2.58812E+01-8.74736E-02 4.37369E-02 1.02827E-01 5.15976E-14 4.70218E-13
 -1      1511 2.58755E+01-1.21669E-01 1.47419E-02 1.41444E-02-2.08462E-14 4.71393E-13
 -1      1512 2.52915E+01-1.53355E-01 3.27009E-02-1.56627E-01 1.20789E-14 3.86648E-13
 -1      1513 2.51293E+01-9.41280E-02 4.79799E-02 5.11754E-01 3.34802E-16 4.77299E-13
 -1      1514 2.56534E+01-1.63125E-01 2.16059E-02 3.83617E-01 2.45151E-14 4.80130E-13
 -1      1515 2.52630E+01-2.14533E-01 4.93278E-02 4.80252E-01 1.59837E-14 3.74919E-13
 -1      1516 2.34660E+01-4.45395E-02 1.88609E-02 8.70406E-01-3.54725E-14 5.80508E-13
 -1      1517 2.45383E+01-1.38518E-01 1.68727E-02 7.50679E-01-5.20591E-14 4.68792E-13
 -1      1518 2.45633E+01-1.98500E-01 4.67530E-02 1.19434E+00-4.06532E-14 4.15841E-13
 -1      1519 2.13615E+01 5.92800E-02-4.49195E-02 9.16670E-01 3.37248E-14 4.88234E-13
 -1      1520 2.26764E+01-1.68819E-02-8.66325E-03 8.86128E-01 4.33893E-14 5.16115E-13
 -1      1521 2.32823E+01-3.83107E-02 1.48562E-02 1.61110E+00 3.07389E-14 3.30881E-13
 -1      1522 1.97799E+01 1.56367E-01-1.10027E-01 4.87895E-01 8.67865E-14 2.92516E-13
 -1      1523 2.07394E+01 1.55241E-01-4.80760E-02 5.97417E-01 9.62286E-14 4.09117E-13
 -1      1524 2.19092E+01 2.22085E-01-3.83864E-02 1.32240E+00 1.41200E-13 2.19862E-13
 -1      1525 1.96611E+01 1.59689E-01-1.14788E-01-2.53118E-01 8.12683E-14 2.38212E-14
 -1      1526 1.97074E+01 2.55415E-01-7.11836E-02-5.15807E-02 5.79120E-14 1.08441E-13
 -1      1527 2.11858E+01 4.22113E-01-7.13137E-02 2.85841E-01 1.78316E-13-4.58036E-14
 -1      1528 2.11146E+01 6.66771E-02-4.95612E-02-8.46627E-01 1.05582E-13-3.06005E-13
 -1      1529 2.02030E+01 1.99613E-01-5.22018E-02-6.80339E-01 1.18718E-13-1.00871E-13
 -1      1530 2.15785E+01 3.63672E-01-6.36420E-02-9.43184E-01 2.32606E-13-3.69892E-13
 -1      1531 2.33136E+01-3.87875E-02 3.10897E-02-9.74831E-01-1.71061E-14-4.32654E-13
 -1      1532 2.19528E+01 4.89792E-02-4.65383E-03-9.26291E-01 5.00932E-14-3.29167E-13
 -1      1533 2.28562E+01 9.75096E-02-2.88587E-02-1.63336E+00 1.48246E-13-3.89376E-13
 -1      1534 2.52160E+01-8.97919E-02 7.19245E-02-7.00149E-01-1.87229E-14-4.17791E-13
 -1      1535 2.40333E+01-7.72538E-02 3.40516E-02-7.52210E-01-1.17510E-14-3.78628E-13
 -1      1536 2.43119E+01-1.55440E-01 3.30121E-03-1.52708E+00 3.69843E-15-4.03899E-13
 -1      1537 2.62427E+01-8.57393E-02 6.43294E-02-2.84222E-01-1.64712E-13-2.28477E-13
 -1      1538 2.55892E+01-1.23527E-01 4.26824E-02-3.74114E-01-1.23169E-13-3.44176E-13
 -1      1539 2.53337E+01-2.56360E-01 1.58292E-02-9.12147E-01-1.43812E-13-2.07639E-13
 -1      1540 2.63711E+01-5.55646E-02 3.81116E-02 6.42512E-02-1.95208E-14-1.07347E-13
 -1      1541 2.62610E+01-1.07015E-01 2.94452E-02-1.34858E-02-5.82520E-15-8.32667E-14
 -1      1542 2.56963E+01-2.20235E-01 1.54006E-02-2.13815E-01-1.64320E-13-1.03144E-13
 -1      1543 2.58703E+01-2.55255E-02 1.35158E-02 2.71961E-01 1.71772E-14-1.80994E-13
 -1      1544 2.61385E+01-6.71534E-02 1.27005E-02 2.23428E-01-5.11830E-15-1.56507E-13
 -1      1545 2.54838E+01-1.32533E-01 1.06911E-02 3.04902E-01 3.96714E-14-8.97789E-14
 -1      1546 2.50491E+01-4.88561E-03-1.40232E-03 3.56119E-01 4.46167E-14-1.76949E-13
 -1      1547 2.55067E+01-3.05205E-02 7.03849E-04 3.33857E-01-6.49697E-15-1.86105E-13
 -1      1548 2.49042E+01-5.36257E-02 5.88804E-03 5.85656E-01 1.15307E-14-2.00614E-13
 -1      1549 2.41382E+01 6.21641E-03-7.87173E-03 3.60554E-01-2.66922E-14-1.42584E-13
 -1      1550 2.46464E+01-5.74382E-03-4.81906E-03 3.55554E-01 3.09071E-15-1.85026E-13
 -1      1551 2.41586E+01-2.68232E-03 2.64752E-03 6.77773E-01 1.05601E-16-2.11595E-13
 -1      1552 2.32741E+01 1.07626E-02-9.28049E-03 3.24143E-01-5.12177E-15-6.04829E-14
 -1      1553 2.37527E+01 7.81919E-03-6.04805E-03 3.28390E-01 1.49260E-14-3.96315E-14
 -1      1554 2.33900E+01 2.30816E-02 7.91613E-04 6.54715E-01-7.83262E-14-9.87214E-14
 -1      1555 2.25207E+01 1.16081E-02-8.37374E-03 2.72416E-01-3.74572E-14 6.65371E-14
 -1      1556 2.29339E+01 1.36478E-02-5.24146E-03 2.80590E-01-9.89001E-14-4.06359E-14
 -1      1557 2.26810E+01 3.23776E-02-1.55845E-04 5.75773E-01-4.48560E-14-6.55747E-14
 -1      1558 2.18970E+01 1.06884E-02-6.74204E-03 2.19395E-01 2.84744E-14-5.75581E-14
 -1      1559 2.22354E+01 1.49883E-02-3.84824E-03 2.28506E-01 8.16300E-14 5.28622E-14
 -1      1560 2.20689E+01 3.27816E-02-5.95501E-04 4.78530E-01 5.22824E-14-1.49785E-14
 -1      1561 2.13986E+01 9.10831E-03-5.11490E-03 1.71578E-01 3.28329E-14-1.33199E-13
 -1      1562 2.16662E+01 1.40768E-02-2.54550E-03 1.80164E-01-6.56129E-14-2.02449E-13
 -1      1563 2.15632E+01 2.91976E-02-7.72327E-04 3.83157E-01 1.89688E-14-9.47528E-14
 -1      1564 2.10102E+01 7.42448E-03-3.74838E-03 1.31235E-01 4.32627E-14-1.96979E-13
 -1      1565 2.12166E+01 1.22353E-02-1.54590E-03 1.38705E-01 9.56728E-14-7.47935E-14
 -1      1566 2.11581E+01 2.43283E-02-8.14576E-04 2.98708E-01 4.05184E-14-2.73810E-13
 -1      1567 2.07138E+01 5.88254E-03-2.68489E-03 9.85266E-02 4.99930E-14-4.39190E-13
 -1      1568 2.08697E+01 1.01658E-02-8.53019E-04 1.04737E-01 1.08570E-13-2.80798E-13
 -1      1569 2.08412E+01 1.94827E-02-7.86480E-04 2.28047E-01 1.47508E-13-2.58810E-13
 -1      1570 2.04915E+01 4.56797E-03-1.88860E-03 7.26963E-02-3.40706E-14-4.95037E-13
 -1      1571 2.06072E+01 8.20274E-03-4.02951E-04 7.77123E-02-8.35248E-15-4.75319E-13
 -1      1572 2.05980E+01 1.51996E-02-7.21630E-04 1.70973E-01 1.03299E-13-2.85861E-13
 -1      1573 2.03276E+01 3.49088E-03-1.30501E-03 5.26878E-02 7.63853E-15-2.90312E-13
 -1      1574 2.04120E+01 6.48153E-03-1.25469E-04 5.66574E-02-3.98095E-14-4.97073E-13
 -1      1575 2.04147E+01 1.16331E-02-6.39255E-04 1.25978E-01-1.19770E-13-2.92932E-13
 -1      1576 2.02091E+01 2.62998E-03-8.83096E-04 3.74315E-02-2.33699E-14-3.62901E-13
 -1      1577 2.02695E+01 5.03714E-03 3.63101E-05 4.05230E-02-8.56520E-18-3.68045E-13
 -1      1578 2.02789E+01 8.76394E-03-5.51179E-04 9.11504E-02 6.02639E-14-4.56694E-13
 -1      1579 2.01250E+01 1.95371E-03-5.81405E-04 2.59649E-02-1.82752E-14-4.53279E-13
 -1      1580 2.01673E+01 3.85811E-03 1.23335E-04 2.83390E-02-2.34138E-14-4.38774E-13
 -1      1581 2.01800E+01 6.50638E-03-4.64802E-04 6.46089E-02-5.54114E-15-5.80778E-13
 -1      1582 2.00669E+01 1.42981E-03-3.68150E-04 1.74699E-02 4.32627E-14-5.40081E-13
 -1      1583 2.00957E+01 2.91432E-03 1.63443E-04 1.92688E-02 4.59118E-14-4.44628E-13
 -1      1584 2.01096E+01 4.75836E-03-3.84587E-04 4.46722E-02 7.08771E-14-5.77356E-13
 -1      1585 2.00281E+01 1.02906E-03-2.19558E-04 1.12727E-02 1.44850E-13-7.12346E-13
 -1      1586 2.00469E+01 2.17049E-03 1.74988E-04 1.26174E-02 9.20708E-14-6.00966E-13
 -1      1587 2.00605E+01 3.42279E-03-3.12956E-04 2.99146E-02 1.04484E-13-4.68655E-13
 -1      1588 2.00032E+01 7.26391E-04-1.18007E-04 6.82955E-03-1.16851E-13-6.87213E-13
 -1      1589 2.00149E+01 1.59231E-03 1.69862E-04 7.82037E-03-5.50390E-14-7.29699E-13
 -1      1590 2.00275E+01 2.41513E-03-2.50933E-04 1.91615E-02-9.69277E-15-4.89662E-13
 -1      1591 1.99883E+01 5.00918E-04-5.04584E-05 3.70789E-03-1.15695E-13-4.47452E-13
 -1      1592 1.99950E+01 1.14892E-03 1.55670E-04 4.42666E-03-1.11221E-13-6.71425E-13
 -1      1593 2.00061E+01 1.66478E-03-1.98605E-04 1.14645E-02-1.15529E-13-4.66081E-13
 -1      1594 1.99805E+01 3.35467E-04-7.26045E-06 1.56795E-03 1.32204E-13-2.43786E-13
 -1      1595 1.99837E+01 8.13604E-04 1.37199E-04 2.08049E-03-6.84858E-14-3.60214E-13
 -1      1596 1.99932E+01 1.11407E-03-1.55461E-04 6.06830E-03-1.31600E-13-4.51132E-13
 -1      1597 1.99775E+01 2.16013E-04 1.87463E-05 1.46216E-04-3.39637E-14-5.16635E-13
 -1      1598 1.99783E+01 5.63676E-04 1.17395E-04 5.04777E-04 7.62334E-14-2.39938E-13
 -1      1599 1.99862E+01 7.16453E-04-1.20627E-04 2.37995E-03 7.58430E-14-7.83237E-14
 -1      1600 1.99777E+01 1.31098E-04 3.28886E-05-7.58395E-04-1.04240E-13-2.62050E-13
 -1      1601 1.99770E+01 3.80057E-04 9.79893E-05-5.13083E-04-1.19160E-13-4.82837E-13
 -1      1602 1.99833E+01 4.34505E-04-9.30175E-05-5.96657E-05-9.48848E-14-2.18117E-13
 -1      1603 1.99798E+01 7.12770E-05 3.91759E-05-1.29587E-03-1.71963E-13-2.46925E-14
 -1      1604 1.99782E+01 2.46660E-04 7.99246E-05-1.13282E-03-5.01146E-14-1.63727E-13
 -1      1605 1.99831E+01 2.38111E-04-7.14104E-05-1.59945E-03-1.34344E-13 1.00833E-13
 -1      1606 1.99831E+01 2.85629E-05 4.08128E-05-1.57381E-03 7.83495E-14 1.09333E-13
 -1      1607 1.99810E+01 1.49680E-04 6.36702E-05-1.47048E-03-3.62770E-14 1.85782E-14
 -1      1608 1.99847E+01 1.02777E-04-5.44359E-05-2.49724E-03-1.00597E-13-7.18643E-14
 -1      1609 1.99870E+01-4.28832E-06 4.09820E-05-1.66341E-03 2.33454E-13-2.33677E-13
 -1      1610 1.99847E+01 7.66379E-05 4.96254E-05-1.60509E-03 2.12097E-13 5.64396E-14
 -1      1611 1.99872E+01 7.90556E-06-4.03523E-05-2.93435E-03 2.34968E-13-1.79601E-13
 -1      1612 1.99910E+01-3.42945E-05 4.39392E-05-1.60227E-03 1.44579E-14-7.54343E-13
 -1      1613 1.99887E+01 1.52479E-05 3.88613E-05-1.58229E-03 1.66466E-13-3.47736E-13
 -1      1614 1.99903E+01-6.51406E-05-2.64634E-05-3.02478E-03 3.15898E-13-2.64944E-13
 -1      1615 1.99946E+01-6.88873E-05 5.41499E-05-1.39496E-03 5.52426E-14-7.82583E-13
 -1      1616 1.99925E+01-4.75152E-05 3.37049E-05-1.41582E-03-3.53254E-14-7.86238E-13
 -1      1617 1.99933E+01-1.35326E-04-8.87751E-06-2.81973E-03 1.00716E-13-3.11218E-13
 -1      1618 1.99975E+01-1.16200E-04 6.61007E-05-1.01051E-03-1.68386E-14-8.93069E-13
 -1      1619 1.99959E+01-1.26484E-04 3.49757E-05-1.08938E-03 9.93390E-14-7.73910E-13
 -1      1620 1.99961E+01-2.24980E-04 1.44277E-05-2.31077E-03 8.34379E-14-3.43826E-13
 -1      1621 1.99993E+01-1.79814E-04 2.37643E-05-4.43428E-04 1.58906E-14-7.32229E-13
 -1      1622 1.99984E+01-2.14239E-04 3.28576E-05-5.77447E-04-7.19676E-14-9.70187E-13
 -1      1623 1.99982E+01-3.51851E-04 3.53709E-05-1.45418E-03 5.24966E-14-2.63299E-13
 -1      1624 1.99997E+01-1.65495E-04 1.59232E-05-7.29405E-05-3.31169E-13-4.04389E-13
 -1      1625 1.99996E+01-1.80855E-03 2.95609E-05-8.67371E-04-6.94806E-14 1.86498E-13
 -1      1626 1.99996E+01-9.12569E-04 4.90990E-06-7.16125E-04-3.91352E-13 3.42728E-13
 -1      1627 1.99997E+01-4.25493E-03 7.40694E-06-1.27746E-03 3.80039E-13 8.22042E-14
 -1      1628 1.99997E+01-2.77354E-03 1.81409E-05-1.22029E-03 1.13209E-13 2.20755E-13
 -1      1629 1.99995E+01-2.34438E-03 3.14988E-05-2.00317E-03 2.09610E-14 4.31902E-13
 -1      1630 1.99998E+01-7.07983E-03-6.17245E-06-1.39877E-03 6.12968E-13 1.75352E-14
 -1      1631 1.99998E+01-5.39700E-03 5.96300E-06-1.39850E-03 5.37204E-13 1.36072E-13
 -1      1632 1.99997E+01-4.42233E-03 1.24431E-05-2.56294E-03 3.49592E-13 2.52671E-13
 -1      1633 1.99999E+01-9.83162E-03-1.04918E-05-1.29851E-03 6.91139E-13-1.47271E-13
 -1      1634 1.99998E+01-8.23689E-03-1.62495E-06-1.33583E-03 6.55048E-13 5.00137E-14
 -1      1635 1.99998E+01-6.68381E-03-9.95450E-06-2.62303E-03 3.14549E-13 2.52836E-14
 -1      1636 1.99999E+01-1.21347E-02-9.75790E-06-1.05609E-03 5.01338E-14-3.73707E-13
 -1      1637 1.99999E+01-1.08372E-02-3.03390E-06-1.11368E-03 5.60292E-13-5.02350E-13
 -1      1638 1.99999E+01-8.80496E-03-2.57034E-05-2.31743E-03 1.66542E-13-4.54117E-13
 -1      1639 1.99999E+01-1.38513E-02-7.31489E-06-7.22752E-04-2.65333E-13 9.82416E-14
 -1      1640 1.99999E+01-1.29265E-02-3.14293E-06-7.93350E-04-1.48119E-13-1.98615E-13
 -1      1641 2.00000E+01-1.05615E-02-3.39608E-05-1.77924E-03 1.21291E-13-5.30701E-13
 -1      1642 1.99999E+01-1.48083E-02-4.76541E-06-3.43909E-04-1.62826E-13 2.14354E-14
 -1      1643 1.99999E+01-1.43415E-02-2.65745E-06-4.19656E-04-4.13662E-13 5.04711E-13
 -1      1644 2.00000E+01-1.18096E-02-3.84010E-05-1.10025E-03-2.38371E-13 1.63854E-13
 -1      1645 1.99999E+01-1.49508E-02-3.07988E-06 5.18563E-05 3.31856E-14 2.12366E-14
 -1      1646 1.99999E+01-1.49666E-02-3.11714E-06-2.49668E-05-6.79688E-14-8.11881E-14
 -1      1647 2.00000E+01-1.24406E-02-3.99745E-05-3.55438E-04-1.23841E-13-6.52901E-15
 -1      1648 1.99999E+01-1.42737E-02-2.44242E-06 4.43356E-04-2.21175E-13-2.30966E-13
 -1      1649 1.99999E+01-1.47690E-02-4.69800E-06 3.68704E-04-2.41879E-14 7.99192E-15
 -1      1650 2.00000E+01-1.24171E-02-3.96702E-05 4.05352E-04 7.65265E-14-9.47604E-14
 -1      1651 1.99999E+01-1.28199E-02-2.68138E-06 8.09305E-04-7.66477E-13-2.42116E-13
 -1      1652 1.99999E+01-1.37645E-02-7.36204E-06 7.40752E-04-3.38530E-13-2.18270E-13
 -1      1653 2.00000E+01-1.17436E-02-3.74871E-05 1.14069E-03-1.88871E-13-4.07821E-13
 -1      1654 1.99999E+01-1.07301E-02-3.22000E-06 1.11610E-03-1.21458E-12 7.89461E-14
 -1      1655 1.99999E+01-1.20341E-02-9.81397E-06 1.06108E-03-9.09899E-13-2.64343E-13
 -1      1656 2.00000E+01-1.04786E-02-3.29341E-05 1.79835E-03-3.20298E-13-5.18522E-13
 -1      1657 1.99998E+01-8.11260E-03-1.48809E-06 1.33081E-03-7.90232E-13 2.53143E-13
 -1      1658 1.99999E+01-9.70414E-03-1.06001E-05 1.29565E-03-1.13602E-12 4.86877E-13
 -1      1659 1.99999E+01-8.71047E-03-2.41409E-05 2.31757E-03-4.18121E-13 3.39116E-13
 -1      1660 1.99998E+01-5.29844E-03 4.65246E-06 1.38972E-03-6.20939E-13 3.00924E-13
 -1      1661 1.99998E+01-6.96375E-03-6.37600E-06 1.38740E-03-7.48513E-13 1.50245E-13
 -1      1662 1.99998E+01-6.57859E-03-9.00879E-06 2.60690E-03-3.49034E-13 3.04612E-13
 -1      1663 1.99997E+01-2.75143E-03 2.69974E-06 1.19911E-03-9.31220E-14 3.40096E-13
 -1      1664 1.99997E+01-4.17629E-03 5.27456E-06 1.25527E-03-5.15297E-13 3.98583E-13
 -1      1665 1.99997E+01-4.33171E-03 1.13209E-05 2.53328E-03-2.15383E-13 4.38357E-13
 -1      1666 1.99994E+01-1.11415E-03-1.66883E-05 9.97123E-04-8.40061E-14-1.03395E-13
 -1      1667 1.99995E+01-1.99252E-03 3.87559E-06 1.21728E-03 3.08174E-14-2.69110E-14
 -1      1668 1.99994E+01-2.43197E-03 4.67427E-05 2.28595E-03-3.13669E-13 4.79694E-13
 -1      1669 1.99987E+01-1.10860E-03 1.24601E-05 1.90224E-03-7.53402E-14-1.45306E-13
 -1      1670-7.89774E-01-1.53321E+01-1.77088E+00-1.36875E+00 1.72085E-12 8.24202E-13
 -1      1671-6.82371E-01-1.71348E+01-1.90109E+00 1.11094E-01 5.85726E-13 6.01130E-13
 -1      1672 1.33329E+00-8.50408E+00-1.24560E+00 3.29210E-01 2.92466E-12 1.95682E-12
 -1      1673 5.77580E-01-1.36233E+01-1.73019E+00-2.57075E-01 1.92357E-12 1.25482E-12
 -1      1674 6.57915E+00-9.33330E-01-6.53776E-01 4.08747E+00 3.41038E-12 2.34868E-12
 -1      1675 3.59987E+00-6.45407E+00-1.39323E+00 1.27458E+00 3.24418E-12 1.91108E-12
 -1      1676 1.72148E+01 4.48200E+00 1.18765E-01 9.34613E+00 2.90734E-12 3.11673E-12
 -1      1677 1.05942E+01 9.52180E-01-7.85715E-01 5.53903E+00 3.27782E-12 2.72227E-12
 -1      1678 3.25494E+01 5.52599E+00 8.69750E-01 1.18253E+01 2.01761E-12 3.04645E-12
 -1      1679 2.30005E+01 5.09799E+00 1.53208E-03 9.78451E+00 2.63667E-12 2.99627E-12
 -1      1680 4.70315E+01 4.57242E+00 1.52244E+00 8.92480E+00 1.28184E-12 1.80234E-12
 -1      1681 3.77578E+01 5.97835E+00 8.05809E-01 1.06104E+01 1.84575E-12 2.56839E-12
 -1      1682 5.63386E+01 3.57340E+00 2.08427E+00 3.18279E+00 7.25420E-13 5.91582E-13
 -1      1683 5.16154E+01 4.71680E+00 1.67829E+00 8.12482E+00 1.04020E-12 1.63991E-12
 -1      1684 5.54314E+01 3.95951E+00 1.96887E+00-5.10130E+00 9.61120E-13-1.36008E-12
 -1      1685 5.71428E+01 3.44398E+00 2.07855E+00 5.44435E-01 7.59393E-13-4.31981E-14
 -1      1686 4.56853E+01 5.79295E+00 1.40706E+00-1.10069E+01 1.64296E-12-2.86093E-12
 -1      1687 5.30731E+01 4.13745E+00 1.98248E+00-7.56031E+00 1.07789E-12-1.97065E-12
 -1      1688 3.10055E+01 6.48136E+00 5.66653E-01-1.16777E+01 2.50910E-12-3.48477E-12
 -1      1689 4.08447E+01 5.70885E+00 1.41681E+00-1.20303E+01 1.90292E-12-3.07110E-12
 -1      1690 1.72263E+01 4.30216E+00-2.73320E-01-8.62508E+00 3.32556E-12-3.42304E-12
 -1      1691 2.53615E+01 6.05574E+00 6.31898E-01-1.17364E+01 2.83529E-12-3.68283E-12
 -1      1692 7.29044E+00-1.77094E+00-1.05707E+00-3.68846E+00 3.46279E-12-2.68763E-12
 -1      1693 1.23824E+01 2.81389E+00-1.93611E-01-7.39046E+00 3.47367E-12-3.25562E-12
 -1      1694 1.83094E+00-9.92782E+00-1.64725E+00-1.13583E-01 2.63589E-12-1.65218E-12
 -1      1695 3.75154E+00-3.96347E+00-9.64678E-01-2.19712E+00 3.33156E-12-2.47202E-12
 -1      1696-1.93041E-01-1.60335E+01-1.92368E+00 5.08262E-01 1.00259E-12-9.21652E-13
 -1      1697-4.17612E-02-1.19563E+01-1.56824E+00 9.27811E-01 2.23244E-12-1.41953E-12
 -1      1698-7.43932E-01-1.72405E+01-1.90221E+00-4.83120E-01-8.96699E-13-7.74852E-13
 -1      1699-8.04610E-01-1.68771E+01-1.89093E+00 1.07704E+00 4.19165E-13-7.78072E-13
 -1      1700-3.35294E-01-1.35400E+01-1.61301E+00-8.62012E-01-2.58882E-12-1.31134E-12
 -1      1701-3.91089E-01-1.66524E+01-1.90876E+00-4.88210E-03-1.43496E-12-8.98615E-13
 -1      1702 2.36320E+00-6.33762E+00-1.04263E+00 1.35259E+00-3.72058E-12-2.25639E-12
 -1      1703 1.21188E+00-1.17654E+01-1.62684E+00 1.83321E-01-2.91900E-12-1.60008E-12
 -1      1704 8.31477E+00 8.67631E-01-4.05052E-01 5.46062E+00-4.00036E-12-3.07088E-12
 -1      1705 4.84240E+00-4.21879E+00-1.17723E+00 2.43616E+00-3.97193E-12-2.48107E-12
 -1      1706 1.85653E+01 5.27653E+00 2.40087E-01 1.01464E+01-3.38773E-12-3.57070E-12
 -1      1707 1.21589E+01 2.55246E+00-5.45715E-01 6.75544E+00-3.89189E-12-3.28060E-12
 -1      1708 3.31344E+01 5.70345E+00 9.51782E-01 1.17221E+01-2.31443E-12-3.07721E-12
 -1      1709 2.43596E+01 5.49074E+00 1.99883E-01 1.00861E+01-2.92888E-12-3.28071E-12
 -1      1710 4.60157E+01 5.27516E+00 1.63425E+00 1.07011E+01-1.38924E-12-2.71649E-12
 -1      1711 3.78043E+01 6.73787E+00 9.66829E-01 1.22377E+01-2.06807E-12-3.19167E-12
 -1      1712 5.41262E+01 3.61372E+00 1.87200E+00 4.41998E+00-8.36248E-13-1.40388E-12
 -1      1713 4.94504E+01 4.89965E+00 1.55558E+00 8.88859E+00-1.17933E-12-2.32703E-12
 -1      1714 5.43615E+01 3.67661E+00 1.76785E+00-3.52680E+00-6.77375E-13 1.00531E-13
 -1      1715 5.50790E+01 3.51121E+00 1.84410E+00 1.80135E+00-6.46094E-13-8.50112E-13
 -1      1716 4.60987E+01 5.44927E+00 1.32014E+00-9.58295E+00-1.14470E-12 1.50369E-12
 -1      1717 5.19772E+01 3.97767E+00 1.71093E+00-5.65518E+00-8.12461E-13 5.06595E-13
 -1      1718 3.40175E+01 6.95873E+00 7.73930E-01-1.22955E+01-1.86229E-12 2.53442E-12
 -1      1719 4.25950E+01 5.67027E+00 1.44551E+00-1.16135E+01-1.30090E-12 2.00884E-12
 -1      1720 2.14708E+01 4.77722E+00 1.93508E-02-9.38015E+00-2.22133E-12 2.45826E-12
 -1      1721 2.95786E+01 5.63395E+00 7.88225E-01-1.15353E+01-1.82221E-12 2.47713E-12
 -1      1722 1.00119E+01 7.83333E-01-7.22895E-01-5.49220E+00-2.94653E-12 2.15894E-12
 -1      1723 1.59300E+01 4.28202E+00 8.52310E-02-9.07738E+00-2.60858E-12 2.51987E-12
 -1      1724 3.33366E+00-6.40018E+00-1.34112E+00-1.43708E+00-2.72160E-12 1.66794E-12
 -1      1725 6.03905E+00-9.61562E-01-6.21703E-01-4.07305E+00-2.99538E-12 2.11053E-12
 -1      1726 5.35843E-01-1.32305E+01-1.70418E+00 1.19378E-01-1.63403E-12 9.72108E-13
 -1      1727 1.14205E+00-8.42477E+00-1.22993E+00-3.02604E-01-2.47413E-12 1.55584E-12
 -1      1728-5.33587E-01-1.63989E+01-1.79023E+00-5.18710E-01 6.23668E-14 7.03104E-13
 -1      1729-4.68284E-01-1.41619E+01-1.57799E+00 6.33639E-01-1.10600E-12 9.76108E-13
 -1      1730 2.50283E+01 3.65655E-01 2.85298E-01 6.98061E+00 1.77613E-12 1.80678E-12
 -1      1731 1.39252E+01-3.46699E+00-4.21868E-01 6.07344E+00 1.96121E-12 1.67233E-12
 -1      1732 1.99995E+01-3.88805E-04 4.18175E-05-4.47605E-04-4.67714E-13 3.01191E-14
 -1      1733 1.99992E+01-9.33158E-04 2.30069E-05-1.23327E-03-1.06733E-13 3.97687E-13
 -1      1734 4.17335E-01-1.05193E+01-1.20169E+00 2.06778E+00 1.06010E-12 1.45101E-12
 -1      1735 5.72432E+00-7.56847E+00-9.09523E-01 4.19770E+00 1.50502E-12 1.57052E-12
 -1      1736-1.33984E+00-1.13799E+01-1.28959E+00-4.53524E-01 2.51521E-13 1.33032E-12
 -1      1737 3.57306E+01 3.42465E+00 8.26105E-01 5.38392E+00 1.61586E-12 1.29807E-12
 -1      1738 4.36603E+01 6.04505E+00 1.18431E+00 3.22869E+00 1.45203E-12 7.98028E-13
 -1      1739 4.89648E+01 7.23215E+00 1.70476E+00 7.89110E-01 1.42042E-12 1.69378E-13
 -1      1740 4.75774E+01 6.95435E+00 1.63912E+00-2.97305E+00 1.52567E-12-8.75855E-13
 -1      1741 4.08310E+01 5.33940E+00 1.19208E+00-5.66165E+00 1.62258E-12-1.51257E-12
 -1      1742 3.10372E+01 2.57896E+00 6.15862E-01-7.18875E+00 1.82487E-12-1.94555E-12
 -1      1743 2.00352E+01-9.21027E-01-4.46366E-02-7.05634E+00 1.98042E-12-2.11497E-12
 -1      1744 1.02186E+01-5.19484E+00-6.55432E-01-5.39442E+00 1.78724E-12-1.98175E-12
 -1      1745 2.96141E+00-9.23904E+00-1.12143E+00-3.17196E+00 1.19937E-12-1.77477E-12
 -1      1746-7.96894E-01-1.17464E+01-1.36364E+00-1.04250E+00 3.15081E-13-1.54354E-12
 -1      1747-1.23570E+00-1.18885E+01-1.37325E+00 9.06018E-01-7.13457E-13-1.55465E-12
 -1      1748 1.63735E+00-9.82711E+00-1.13223E+00 3.03528E+00-1.56719E-12-1.79928E-12
 -1      1749 7.39467E+00-6.39325E+00-7.63489E-01 5.06907E+00-2.15417E-12-1.97528E-12
 -1      1750 1.54693E+01-2.17859E+00-2.28531E-01 6.79850E+00-2.48357E-12-2.09216E-12
 -1      1751 2.58827E+01 1.13558E+00 3.82201E-01 7.22735E+00-2.15500E-12-1.97997E-12
 -1      1752 3.51121E+01 3.83339E+00 6.97349E-01 6.10887E+00-1.81104E-12-1.78535E-12
 -1      1753 4.33450E+01 6.45972E+00 1.36098E+00 4.97475E+00-1.53744E-12-1.59273E-12
 -1      1754 4.73913E+01 7.25352E+00 1.59184E+00 1.57493E+00-1.29591E-12-7.89618E-13
 -1      1755 4.60429E+01 7.17869E+00 1.44219E+00-2.00463E+00-1.25222E-12-1.66533E-14
 -1      1756 4.10126E+01 6.11328E+00 1.18855E+00-5.26402E+00-1.34437E-12 6.62470E-13
 -1      1757 3.28342E+01 3.24775E+00 6.36732E-01-6.50616E+00-1.24828E-12 1.10401E-12
 -1      1758 2.35617E+01 4.94782E-02 2.37414E-01-7.07413E+00-1.35619E-12 1.24567E-12
 -1      1759 1.32063E+01-3.27465E+00-3.42704E-01-6.37709E+00-1.53599E-12 1.31983E-12
 -1      1760 5.24692E+00-7.34151E+00-9.00676E-01-4.36645E+00-1.26321E-12 1.45679E-12
 -1      1761 4.99823E-01-1.01021E+01-1.16562E+00-2.41408E+00-5.70544E-13 1.43041E-12
 -1      1762 2.32048E+01 1.95668E+00-2.66269E-02-2.50101E+00-4.78628E-13 1.80783E-12
 -1      1763 2.00904E+01 3.74988E+00-3.70797E-02-1.71288E+00-5.85317E-13-6.66307E-13
 -1      1764 2.04116E+01 3.58578E+00-3.69138E-02-2.01542E+00-6.81394E-13-4.76168E-13
 -1      1765 2.07845E+01 3.17371E+00-4.63541E-02-2.18674E+00-6.84551E-13-2.26964E-13
 -1      1766 2.10588E+01 2.78760E+00-1.35333E-01-2.48017E+00-7.35535E-13 1.23124E-13
 -1      1767 2.08336E+01 2.70473E+00-2.79145E-03-1.79085E+00-7.17917E-13-3.03327E-13
 -1      1768 1.92047E+01 4.31979E+00-2.10174E-02-8.68145E-01-3.20698E-13-1.01231E-12
 -1      1769 1.93854E+01 4.27237E+00-1.34881E-02-1.06927E+00-3.86548E-13-9.69927E-13
 -1      1770 1.89115E+01 4.47182E+00-1.68755E-02-5.33465E-01-1.80037E-13-1.04767E-12
 -1      1771 1.90496E+01 4.44076E+00-1.03404E-02-7.03519E-01-2.52773E-13-1.03855E-12
 -1      1772 1.92961E+01 3.98702E+00-7.54093E-03-7.14359E-01-3.18242E-13-9.93806E-13
 -1      1773 1.87096E+01 4.57291E+00-1.39556E-02-2.50336E-01-4.14532E-14-1.04310E-12
 -1      1774 1.88005E+01 4.55375E+00-9.25713E-03-3.95352E-01-1.10607E-13-1.04777E-12
 -1      1775 1.89983E+01 4.17152E+00-6.97431E-03-4.16368E-01-1.51540E-13-1.01329E-12
 -1      1776 1.86079E+01 4.62899E+00-1.18590E-02-2.24452E-03 7.92242E-14-1.03071E-12
 -1      1777 1.86465E+01 4.62001E+00-9.48575E-03-1.32198E-01 2.33600E-14-1.04186E-12
 -1      1778 1.88028E+01 4.28903E+00-6.25020E-03-1.63321E-01-1.09795E-14-1.01176E-12
 -1      1779 1.86162E+01 4.63908E+00-1.04686E-02 2.31071E-01 1.96734E-13-1.00802E-12
 -1      1780 1.85977E+01 4.64058E+00-1.08064E-02 1.05111E-01 1.40064E-13-1.02182E-12
 -1      1781 1.87197E+01 4.34286E+00-5.70262E-03 5.92405E-02 1.19656E-13-1.00386E-12
 -1      1782 1.87409E+01 4.59815E+00-9.94731E-03 4.72994E-01 3.17652E-13-9.62746E-13
 -1      1783 1.86629E+01 4.61201E+00-1.31235E-02 3.38808E-01 2.60429E-13-9.94461E-13
 -1      1784 1.87590E+01 4.32944E+00-5.52566E-03 2.70819E-01 2.44993E-13-9.69086E-13
 -1      1785 1.89780E+01 4.50057E+00-1.06006E-02 7.43757E-01 4.42636E-13-8.84792E-13
 -1      1786 1.88433E+01 4.52891E+00-1.65573E-02 5.91153E-01 3.81689E-13-9.32069E-13
 -1      1787 1.89249E+01 4.24253E+00-5.66297E-03 4.91943E-01 3.75545E-13-9.15736E-13
 -1      1788 1.93343E+01 4.32850E+00-1.34014E-02 1.07770E+00 5.80643E-13-7.42658E-13
 -1      1789 1.91386E+01 4.37964E+00-2.14945E-02 8.87593E-01 5.06323E-13-8.25121E-13
 -1      1790 1.92176E+01 4.07049E+00-6.27448E-03 7.46847E-01 5.11187E-13-8.15053E-13
 -1      1791 1.98126E+01 4.05006E+00-2.11027E-02 1.49217E+00 7.03455E-13-5.11674E-13
 -1      1792 1.95531E+01 4.14045E+00-2.89497E-02 1.25252E+00 6.29557E-13-6.52138E-13
 -1      1793 1.96414E+01 3.79047E+00-6.53397E-03 1.05498E+00 6.38667E-13-6.49158E-13
 -1      1794 2.04477E+01 3.57925E+00-4.04592E-02 1.98808E+00 7.89150E-13-9.79355E-14
 -1      1795 2.01002E+01 3.75904E+00-4.14472E-02 1.69168E+00 7.29991E-13-3.43295E-13
 -1      1796 2.02044E+01 3.35935E+00-3.98207E-03 1.41357E+00 7.57609E-13-3.79471E-13
 -1      1797 2.14259E+01 2.67396E+00-5.26891E-02 2.43619E+00 7.67773E-13 6.63178E-13
 -1      1798 2.08691E+01 3.10943E+00-5.03416E-02 2.16075E+00 7.64997E-13 2.06606E-13
 -1      1799 2.09433E+01 2.66061E+00 3.39846E-03 1.74662E+00 8.11626E-13 8.37976E-14
 -1      1800 2.22477E+01 1.19314E+00-1.18007E-01 2.00344E+00 6.55018E-13 1.59658E-12
 -1      1801 2.17976E+01 2.23858E+00-5.98253E-04 2.36046E+00 7.15206E-13 9.89597E-13
 -1      1802 2.15106E+01 1.68976E+00-1.77002E-02 1.70908E+00 7.93830E-13 6.69159E-13
 -1      1803 2.15911E+01 7.72909E-01-5.57971E-02 1.19663E+00 6.72351E-13 1.39093E-12
 -1      1804 2.22461E+01 2.41881E+00 8.69263E-02-2.73974E+00-6.40434E-13 7.36119E-13
 -1      1805 2.09912E+01 3.20803E-01-3.75775E-03 3.06616E-01 5.19657E-13 1.07561E-12
 -1      1806 2.13909E+01 4.52577E-01-9.49759E-03 6.97586E-01 5.67053E-13 1.26905E-12
 -1      1807 2.14390E+01 8.51870E-01-3.85697E-04 1.00946E+00 6.67875E-13 8.63629E-13
 -1      1808 2.19917E+01 1.72116E+00 7.76692E-02-1.99768E+00-6.85042E-13 4.85598E-13
 -1      1809 2.12140E+01 5.07359E-01 3.29526E-02-5.88153E-01-5.41109E-13 3.96292E-13
 -1      1810 2.09049E+01 3.68103E-01 1.07559E-02-2.90629E-01-4.69961E-13 2.47868E-13
 -1      1811 2.07946E+01 2.78597E-01 2.73965E-02-3.40534E-02-4.10275E-13 2.29053E-13
 -1      1812 2.07350E+01 2.02703E-01 1.24331E-02 1.16725E-01-3.68455E-13 9.83597E-14
 -1      1813 2.09515E+01 5.09543E-01-8.07801E-03-2.82688E-01-5.20754E-13-2.20561E-14
 -1      1814 2.07129E+01 1.56630E-01 1.66049E-02 2.69495E-01-3.16839E-13 8.79652E-14
 -1      1815 2.07754E+01 1.13404E-01 7.77196E-03 3.52758E-01-2.67261E-13 3.35929E-15
 -1      1816 2.08144E+01 2.78024E-01-7.40718E-03 1.86594E-01-4.05426E-13-7.87686E-14
 -1      1817 2.08234E+01 8.14458E-02 8.69001E-03 4.39283E-01-2.40190E-13-1.02592E-14
 -1      1818 2.09533E+01 4.75671E-02 3.08954E-03 4.78933E-01-2.12494E-13-7.23920E-14
 -1      1819 2.08461E+01 1.47479E-01-6.09683E-03 4.60597E-01-2.96147E-13-1.30543E-13
 -1      1820 2.10498E+01 1.78959E-02 4.10665E-03 5.13511E-01-1.82163E-13-6.59538E-14
 -1      1821 2.12062E+01-1.70069E-02-1.29850E-03 5.14602E-01-1.54838E-13-1.46124E-13
 -1      1822 2.09952E+01 4.72513E-02-4.58783E-03 6.01774E-01-2.28451E-13-1.43843E-13
 -1      1823 2.13308E+01-5.00027E-02 1.36069E-03 4.98132E-01-1.43702E-13-1.32782E-13
 -1      1824 2.14780E+01-9.03742E-02-5.78438E-03 4.57531E-01-1.20277E-13-1.36824E-13
 -1      1825 2.12185E+01-5.35555E-02-2.84246E-03 6.27832E-01-1.68240E-13-1.65201E-13
 -1      1826 2.16102E+01-1.28037E-01-5.30084E-04 3.84651E-01-1.22498E-13-1.12600E-13
 -1      1827 2.17131E+01-1.72938E-01-1.01261E-02 2.97333E-01-1.35770E-13-1.21115E-13
 -1      1828 2.14748E+01-1.67177E-01-8.57892E-04 5.34415E-01-1.32169E-13-1.26183E-13
 -1      1829 2.18300E+01-2.11318E-01-2.10457E-03 1.63474E-01-1.58976E-13-1.19137E-13
 -1      1830 2.18549E+01-2.52386E-01-1.32177E-02 2.94039E-02-1.23697E-13-1.37005E-13
 -1      1831 2.17211E+01-2.89732E-01 1.56362E-03 3.10518E-01-1.51385E-13-1.35717E-13
 -1      1832 2.19289E+01-2.80182E-01-3.65484E-03-1.59586E-01-9.93346E-14-1.41982E-13
 -1      1833 2.18497E+01-3.00157E-01-1.32718E-02-3.26649E-01-7.11688E-14-1.97103E-13
 -1      1834 2.19082E+01-3.96559E-01 4.63517E-03-4.36179E-02-1.44010E-13-7.16641E-14
 -1      1835 2.18507E+01-2.98921E-01-5.27318E-03-5.42731E-01-9.31711E-14-2.70310E-13
 -1      1836 2.16607E+01-2.75047E-01-8.65965E-03-7.07309E-01-1.04661E-13-3.16585E-13
 -1      1837 2.19808E+01-4.39817E-01 8.04258E-03-4.92890E-01-1.47855E-13-1.52709E-13
 -1      1838 2.15663E+01-2.25561E-01-6.58387E-03-8.92259E-01-7.95921E-14-2.99763E-13
 -1      1839 2.12906E+01-1.42028E-01 5.43394E-04-9.97317E-01-5.61634E-14-3.16311E-13
 -1      1840 2.18886E+01-3.59766E-01 1.02824E-02-9.44389E-01-1.12878E-13-2.28023E-13
 -1      1841 2.11063E+01-3.94890E-02-6.24628E-03-1.07051E+00-2.65808E-14-3.33725E-13
 -1      1842 2.08066E+01 9.24753E-02 1.10616E-02-1.05509E+00-1.62956E-14-2.80533E-13
 -1      1843 2.16148E+01-1.20688E-01 8.40185E-03-1.24393E+00-5.02866E-14-1.94992E-13
 -1      1844 2.05875E+01 2.20920E-01-2.29991E-03-9.49061E-01-6.49650E-14-3.33606E-13
 -1      1845 2.03502E+01 3.52026E-01 1.73850E-02-7.84774E-01-1.22382E-13-3.46984E-13
 -1      1846 2.12169E+01 2.39089E-01 5.78490E-04-1.22020E+00-8.02572E-14-1.93813E-13
 -1      1847 2.01932E+01 4.48784E-01 5.62406E-03-4.98639E-01-1.78586E-13-4.29688E-13
 -1      1848 2.00982E+01 5.12464E-01 1.58248E-02-2.23041E-01-1.22829E-13-4.86097E-13
 -1      1849 2.08440E+01 5.86554E-01-1.01544E-02-7.86853E-01-1.83910E-13-3.58196E-13
 -1      1850 2.00890E+01 5.24116E-01 1.41484E-02 1.51059E-01-8.22970E-14-5.88291E-13
 -1      1851 2.01738E+01 4.84152E-01 8.14874E-03 4.40138E-01-8.39979E-14-6.21389E-13
 -1      1852 2.06788E+01 7.52939E-01-1.60514E-02-4.27900E-02-1.41209E-13-5.02188E-13
 -1      1853 2.03230E+01 4.04169E-01 1.75250E-02 7.58810E-01-1.08958E-13-7.20013E-13
 -1      1854 2.05642E+01 2.84217E-01-2.51434E-04 9.56212E-01-6.34900E-14-7.26105E-13
 -1      1855 2.08186E+01 6.48489E-01-1.21950E-02 7.39000E-01-1.22548E-13-6.39733E-13
 -1      1856 2.07992E+01 1.58316E-01 1.28620E-02 1.10948E+00-7.72572E-14-7.34746E-13
 -1      1857 2.11247E+01 2.25421E-02-5.08492E-03 1.16154E+00-1.22061E-13-7.14474E-13
 -1      1858 2.12009E+01 3.32327E-01-1.70269E-03 1.26416E+00-8.50891E-14-6.68199E-13
 -1      1859 2.13448E+01-8.85291E-02 2.66306E-03 1.12950E+00-1.39400E-13-6.78426E-13
 -1      1860 2.16674E+01-1.83999E-01-6.18916E-03 1.05176E+00-7.41568E-14-6.78577E-13
 -1      1861 2.16512E+01-3.56860E-02 6.95195E-03 1.38730E+00-1.37067E-13-6.47017E-13
 -1      1862 2.18067E+01-2.45382E-01-7.27983E-03 8.91116E-01-5.32096E-14-6.89764E-13
 -1      1863 2.20578E+01-2.81327E-01-5.14457E-03 7.40221E-01 2.24369E-14-7.63549E-13
 -1      1864 2.20059E+01-3.05799E-01 9.93823E-03 1.15950E+00-7.75538E-14-6.27355E-13
 -1      1865 2.21004E+01-2.92189E-01-1.30478E-02 5.31596E-01 3.57752E-14-7.69641E-13
 -1      1866 2.22463E+01-2.80396E-01-3.61181E-03 3.66827E-01 5.43645E-14-7.93195E-13
 -1      1867 2.21865E+01-4.19108E-01 8.58670E-03 7.41228E-01 2.76480E-14-6.58004E-13
 -1      1868 2.22092E+01-2.58549E-01-1.40498E-02 1.73516E-01 4.02968E-14-7.27921E-13
 -1      1869 2.22493E+01-2.21993E-01-2.29893E-03 3.44571E-02 7.62151E-14-6.77823E-13
 -1      1870 2.21949E+01-4.00023E-01 5.63240E-03 2.93531E-01 6.81352E-14-6.29475E-13
 -1      1871 2.21595E+01-1.87255E-01-1.17668E-02-1.11114E-01 5.93926E-14-6.28522E-13
 -1      1872 2.21137E+01-1.45465E-01-1.31587E-03-2.08066E-01 6.02790E-14-5.27702E-13
 -1      1873 2.20732E+01-3.07748E-01 2.89235E-03-7.99778E-02 1.08961E-13-4.90740E-13
 -1      1874 2.19961E+01-1.11397E-01-8.09870E-03-2.98901E-01 6.36973E-14-4.88241E-13
 -1      1875 2.18921E+01-7.55392E-02-5.79233E-04-3.53890E-01 9.01002E-14-3.67997E-13
 -1      1876 2.18710E+01-1.95901E-01 9.33855E-04-3.38465E-01 1.26099E-13-4.35244E-13
 -1      1877 2.17646E+01-4.85218E-02-4.43209E-03-3.97350E-01 6.70954E-14-4.11716E-13
 -1      1878 2.16291E+01-2.25849E-02-1.07830E-05-4.18690E-01 8.53322E-14-4.45081E-13
 -1      1879 2.16295E+01-9.68556E-02-3.02938E-04-4.84007E-01 1.06309E-13-3.71794E-13
 -1      1880 2.15035E+01-4.05113E-03-1.47003E-03-4.27340E-01 4.61881E-14-5.09346E-13
 -1      1881 2.13579E+01 1.21965E-02 4.18994E-04-4.25450E-01-6.66714E-15-5.93813E-13
 -1      1882 2.13782E+01-2.33557E-02-1.02836E-03-5.39225E-01 1.73649E-14-4.85531E-13
 -1      1883 2.12413E+01 2.32873E-02 5.88804E-04-4.11738E-01-7.78678E-14-5.20168E-13
 -1      1884 2.11002E+01 3.18373E-02 7.16430E-04-3.95940E-01-3.74917E-14-5.21636E-13
 -1      1885 2.11363E+01 2.40026E-02-1.41798E-03-5.31788E-01 1.78049E-14-4.31526E-13
 -1      1886 2.09965E+01 3.73417E-02 1.82173E-03-3.69938E-01 1.36463E-14-5.06345E-13
 -1      1887 2.08687E+01 4.05100E-02 8.90657E-04-3.47310E-01 1.13799E-13-4.71937E-13
 -1      1888 2.09155E+01 5.00343E-02-1.58771E-03-4.86431E-01 6.26110E-15-5.24480E-13
 -1      1889 2.07795E+01 4.22516E-02 2.41481E-03-3.16224E-01 1.71718E-13-5.11359E-13
 -1      1890 2.06693E+01 4.20360E-02 9.60421E-04-2.91564E-01 8.89896E-14-4.85678E-13
 -1      1891 2.07216E+01 6.08377E-02-1.61124E-03-4.22105E-01 1.13112E-13-3.78035E-13
 -1      1892 2.05946E+01 4.14815E-02 2.56687E-03-2.60061E-01 2.46638E-14-4.73132E-13
 -1      1893 2.05032E+01 3.93773E-02 9.50610E-04-2.36303E-01 3.96699E-14-4.44831E-13
 -1      1894 2.05566E+01 6.18540E-02-1.53839E-03-3.51844E-01 1.33321E-13-4.95942E-13
 -1      1895 2.04423E+01 3.75829E-02 2.44629E-03-2.07102E-01-4.95246E-14-4.32790E-13
 -1      1896 2.03687E+01 3.46098E-02 8.86865E-04-1.85819E-01-2.82864E-14-4.02186E-13
 -1      1897 2.04201E+01 5.72422E-02-1.40543E-03-2.83769E-01-6.14195E-15-3.14405E-13
 -1      1898 2.03202E+01 3.22786E-02 2.17880E-03-1.60271E-01-5.87811E-15-3.44890E-13
 -1      1899 2.02627E+01 2.90797E-02 7.91637E-04-1.42133E-01 6.50181E-14-3.40796E-13
 -1      1900 2.03098E+01 4.98869E-02-1.23980E-03-2.22369E-01 3.26282E-14-2.69910E-13
 -1      1901 2.02248E+01 2.66468E-02 1.85015E-03-1.20699E-01-3.44611E-14-3.21337E-13
 -1      1902 2.01811E+01 2.35950E-02 6.82445E-04-1.05811E-01 1.77874E-15-3.16235E-13
 -1      1903 2.02228E+01 4.16395E-02-1.06206E-03-1.69647E-01 2.64539E-14-2.97395E-13
 -1      1904 2.01521E+01 2.13082E-02 1.51424E-03-8.84127E-02-5.11409E-14-4.49386E-13
 -1      1905 2.01198E+01 1.85944E-02 5.71707E-04-7.65619E-02-9.19894E-14-5.36189E-13
 -1      1906 2.01555E+01 3.35967E-02-8.86837E-04-1.26031E-01-1.55193E-13-3.20218E-13
 -1      1907 2.00982E+01 1.65770E-02 1.20190E-03-6.28293E-02-7.17451E-14-6.34110E-13
 -1      1908 2.00748E+01 1.42769E-02 4.67404E-04-5.36456E-02-3.77566E-14-6.24672E-13
 -1      1909 2.01047E+01 2.63413E-02-7.23724E-04-9.10251E-02-1.32300E-13-3.73608E-13
 -1      1910 2.00591E+01 1.25743E-02 9.28284E-04-4.30756E-02-9.92176E-14-5.86508E-13
 -1      1911 2.00429E+01 1.06944E-02 3.74039E-04-3.61341E-02-4.63645E-14-6.14535E-13
 -1      1912 2.00672E+01 2.01252E-02-5.78230E-04-6.36621E-02-7.23601E-14-4.59203E-13
 -1      1913 2.00317E+01 9.30562E-03 6.98593E-04-2.81908E-02 8.62320E-14-5.91979E-13
 -1      1914 2.00209E+01 7.81450E-03 2.93586E-04-2.30713E-02 1.40756E-13-4.54938E-13
 -1      1915 2.00402E+01 1.49993E-02-4.52771E-04-4.27868E-02 5.67780E-14-3.63081E-13
 -1      1916 2.00133E+01 6.71311E-03 5.12069E-04-1.72439E-02 1.35316E-13-5.09802E-13
 -1      1917 2.00064E+01 5.56114E-03 2.26299E-04-1.35638E-02 1.18024E-13-4.24247E-13
 -1      1918 2.00214E+01 1.09007E-02-3.47579E-04-2.72335E-02 1.64001E-13-4.63268E-13
 -1      1919 2.00015E+01 4.70895E-03 3.64737E-04-9.39694E-03 9.16029E-14-3.20012E-13
 -1      1920 1.99975E+01 3.84030E-03 1.71322E-04-6.82580E-03 3.23793E-15-2.80605E-13
 -1      1921 2.00089E+01 7.70954E-03-2.61468E-04-1.59239E-02 1.74917E-13-3.55946E-13
 -1      1922 1.99945E+01 3.19528E-03 2.51162E-04-3.93208E-03-1.19916E-13-2.26485E-13
 -1      1923 1.99926E+01 2.55478E-03 1.27132E-04-2.19637E-03-1.15059E-13-7.96516E-14
 -1      1924 2.00009E+01 5.28355E-03-1.92427E-04-7.91621E-03-6.62462E-14-1.71399E-13
 -1      1925 1.99910E+01 2.07560E-03 1.65516E-04-2.58899E-04 5.88865E-14-1.50114E-13
 -1      1926 1.99905E+01 1.61209E-03 9.18222E-05 8.59566E-04 3.53355E-13-1.12004E-13
 -1      1927 1.99963E+01 3.47844E-03-1.38058E-04-2.42197E-03 6.19587E-14 4.25709E-14
 -1      1928 1.99898E+01 1.26022E-03 1.02228E-04 2.09038E-03 5.38675E-13-2.63174E-13
 -1      1929 1.99903E+01 9.27601E-04 6.32939E-05 2.75852E-03 4.82825E-13-1.02516E-13
 -1      1930 1.99941E+01 2.15800E-03-9.58869E-05 1.19396E-03 3.00703E-13-1.43262E-13
 -1      1931 1.99902E+01 6.67878E-04 5.63382E-05 3.47062E-03 3.22828E-13 1.47175E-14
 -1      1932 1.99912E+01 4.24677E-04 3.94116E-05 3.80876E-03 2.77941E-13 1.35874E-13
 -1      1933 1.99934E+01 1.19798E-03-6.35590E-05 3.42316E-03 4.40938E-13-1.17536E-13
 -1      1934 1.99916E+01 2.24657E-04 2.38043E-05 4.13452E-03 1.50635E-13 4.64785E-14
 -1      1935 1.99928E+01 3.28402E-05 1.82855E-05 4.22045E-03 7.85688E-14 8.40609E-14
 -1      1936 1.99938E+01 4.85402E-04-3.90264E-05 4.62675E-03 2.28342E-13-8.48025E-14
 -1      1937 1.99934E+01-1.37852E-04 1.78569E-06 4.24263E-03-1.77657E-13 2.31382E-13
 -1      1938 1.99947E+01-3.12326E-04 1.93781E-07 4.11436E-03-1.83801E-13 5.14854E-14
 -1      1939 1.99948E+01-8.31829E-05-2.03937E-05 5.04930E-03-6.99977E-14 1.50600E-13
 -1      1940 1.99954E+01-4.88717E-04-1.23601E-05 3.87944E-03-1.74449E-13 2.18523E-14
 -1      1941 1.99966E+01-6.72993E-04-1.46419E-05 3.53651E-03-1.19670E-13-1.31349E-14
 -1      1942 1.99961E+01-5.97818E-04-6.84706E-06 4.83471E-03-2.05208E-13 3.05727E-13
 -1      1943 1.99972E+01-8.23496E-04-1.51757E-05 3.08375E-03-4.41617E-14-8.70726E-14
 -1      1944 1.99981E+01-1.02419E-03-2.83082E-05 2.53645E-03-2.83079E-14-2.39846E-14
 -1      1945 1.99985E+01-1.52051E-03 2.91894E-06 2.93980E-03-1.10164E-13 2.20352E-13
 -1      1946 1.99974E+01-1.11181E-03 3.24470E-06 4.08785E-03-1.29958E-13 2.97410E-13
 -1      1947 2.08141E+01 1.86915E-01 1.22182E-02-1.52494E-01 3.97574E-13 8.12536E-13
 -1      1948 2.09081E+01 2.41220E-01 1.87556E-02 5.23377E-02 4.29863E-13 9.77969E-13
 -1      1949 2.10320E+01 3.93997E-01-4.09126E-03 1.89414E-01 5.33655E-13 6.69379E-13
 -1      1950 2.09447E+01 1.33687E-01 1.12968E-02-4.49013E-01 2.44823E-13 6.29843E-13
 -1      1951 2.08460E+01 1.58503E-01 1.65741E-02-3.13300E-01 2.96909E-13 7.43832E-13
 -1      1952 2.09307E+01 2.37350E-01-4.92187E-03-3.05049E-01 3.78107E-13 5.04248E-13
 -1      1953 2.13070E+01 1.08164E-01 8.64921E-03-6.71054E-01 1.49811E-13 5.41291E-13
 -1      1954 2.10786E+01 1.22543E-01 1.08640E-02-5.65022E-01 1.79119E-13 6.03008E-13
 -1      1955 2.10858E+01 1.73313E-01-6.18867E-03-6.44188E-01 2.42171E-13 3.82960E-13
 -1      1956 2.18445E+01 8.70341E-02 6.10759E-03-8.48507E-01 1.08770E-13 4.24442E-13
 -1      1957 2.15222E+01 1.00496E-01 6.63114E-03-7.60027E-01 1.26500E-13 5.12230E-13
 -1      1958 2.14336E+01 1.37957E-01-6.83401E-03-9.02586E-01 1.69199E-13 2.96784E-13
 -1      1959 2.25111E+01 5.30281E-02 2.73791E-03-9.77190E-01 1.12410E-13 3.73101E-13
 -1      1960 2.21234E+01 7.31640E-02 3.45082E-03-9.09669E-01 8.71009E-14 4.01726E-13
 -1      1961 2.19293E+01 9.95611E-02-7.04915E-03-1.10098E+00 1.32747E-13 2.33162E-13
 -1      1962 2.32541E+01-1.23073E-02-2.28865E-03-1.02268E+00 1.45911E-13 3.45898E-13
 -1      1963 2.28364E+01 2.24014E-02 3.73798E-04-9.94171E-01 1.42366E-13 4.02453E-13
 -1      1964 2.25361E+01 3.18400E-02-7.05297E-03-1.22157E+00 1.39834E-13 2.32898E-13
 -1      1965 2.39973E+01-1.27268E-01-8.76752E-03-9.19050E-01 1.31610E-13 2.62868E-13
 -1      1966 2.36031E+01-7.14850E-02-2.95513E-03-9.63722E-01 1.13754E-13 3.17601E-13
 -1      1967 2.32134E+01-9.23004E-02-6.45486E-03-1.21045E+00 1.51032E-13 2.07496E-13
 -1      1968 2.46284E+01-2.96667E-01-1.46933E-02-5.77896E-01 1.85156E-14 3.02145E-13
 -1      1969 2.43354E+01-2.22286E-01-6.28373E-03-7.41870E-01 6.89344E-14 2.99070E-13
 -1      1970 2.39045E+01-2.91931E-01-4.15823E-03-9.80742E-01 8.42954E-14 2.34664E-13
 -1      1971 2.49976E+01-4.81486E-01-1.58851E-02 6.97147E-02 1.67869E-14 3.12720E-13
 -1      1972 2.49004E+01-4.14989E-01-9.05644E-03-2.50032E-01 6.70471E-15 3.09965E-13
 -1      1973 2.45218E+01-5.49462E-01 1.02262E-03-4.37294E-01 1.36835E-14 2.48593E-13
 -1      1974 2.49395E+01-5.60170E-01-8.57617E-03 9.72781E-01-4.73406E-15 3.94507E-13
 -1      1975 2.51192E+01-5.66065E-01-1.13784E-02 5.23073E-01-3.75047E-15 3.41214E-13
 -1      1976 2.49311E+01-7.59413E-01 8.92971E-03 4.50677E-01-1.61173E-14 2.92495E-13
 -1      1977 2.43393E+01-3.47986E-01 2.16537E-03 1.81333E+00 1.78416E-15 3.84442E-13
 -1      1978 2.48101E+01-5.00646E-01-1.43650E-02 1.39738E+00-1.05194E-14 3.82867E-13
 -1      1979 2.49531E+01-6.95592E-01 1.51562E-02 1.51055E+00 2.29860E-14 3.21153E-13
 -1      1980 2.33221E+01 2.01705E-01 2.90374E-03 2.01234E+00 1.80486E-13 1.80026E-13
 -1      1981 2.39565E+01-7.24116E-02-1.41392E-02 1.91601E+00 8.92807E-14 2.98383E-13
 -1      1982 2.44729E+01-1.73343E-01 6.18396E-03 2.23186E+00 1.26335E-13 2.37796E-13
 -1      1983 2.23605E+01 8.12231E-01-2.29191E-02 1.16655E+00 2.28536E-13-6.34388E-15
 -1      1984 2.28950E+01 5.79043E-01-1.25236E-02 1.57640E+00 1.85699E-13 4.71428E-14
 -1      1985 2.36927E+01 6.86838E-01-1.75776E-02 1.98165E+00 2.57173E-13 1.10432E-14
 -1      1986 2.21425E+01 9.63179E-01-4.80428E-02-4.38427E-01 2.90934E-13-2.96211E-13
 -1      1987 2.22649E+01 9.99318E-01-2.99876E-03 3.03325E-01 2.76647E-13-1.47145E-13
 -1      1988 2.31439E+01 1.31587E+00-4.42888E-02 5.51610E-01 3.38424E-13-3.08662E-13
 -1      1989 2.28994E+01 5.12312E-01-4.09320E-02-1.78765E+00 2.16119E-13-5.57318E-13
 -1      1990 2.25013E+01 7.86745E-01 8.54675E-04-1.18635E+00 2.88790E-13-4.30277E-13
 -1      1991 2.33339E+01 1.18164E+00-3.39038E-02-1.26678E+00 3.88897E-13-5.19406E-13
 -1      1992 2.41279E+01-1.22832E-01-5.23768E-03-2.12072E+00 7.07566E-14-5.29441E-13
 -1      1993 2.34252E+01 1.55055E-01-2.97782E-03-1.97509E+00 1.52277E-13-5.16542E-13
 -1      1994 2.41143E+01 3.90403E-01-7.58738E-03-2.32285E+00 2.00461E-13-6.80315E-13
 -1      1995 2.51021E+01-4.91858E-01 2.34909E-02-1.53868E+00-1.78768E-13-3.93820E-13
 -1      1996 2.44471E+01-3.75036E-01-9.14105E-03-1.77809E+00-8.39381E-14-4.41418E-13
 -1      1997 2.48792E+01-4.13693E-01 6.68158E-03-2.16159E+00-7.73626E-14-6.43995E-13
 -1      1998 2.54801E+01-5.24450E-01 2.39453E-02-6.14383E-01-2.32765E-13-3.48990E-13
 -1      1999 2.51076E+01-5.55905E-01-1.60315E-02-9.95091E-01-1.44322E-13-2.93560E-13
 -1      2000 2.52024E+01-7.86134E-01-2.80525E-03-1.24568E+00-1.99249E-13-4.58307E-13
 -1      2001 2.53155E+01-3.71490E-01 1.46689E-02 1.81023E-01-9.89313E-14-2.70359E-13
 -1      2002 2.52653E+01-4.65403E-01-1.75507E-02-1.48958E-01-2.43605E-13-3.41183E-13
 -1      2003 2.50687E+01-7.15301E-01-9.51597E-03-2.15579E-01-1.88615E-13-4.49036E-13
 -1      2004 2.48009E+01-1.91356E-01 4.38095E-03 6.71213E-01 9.94673E-14-2.26170E-13
 -1      2005 2.49971E+01-2.79027E-01-1.33165E-02 4.64142E-01 6.47468E-14-1.71194E-13
 -1      2006 2.46275E+01-4.62876E-01-1.03879E-02 5.47087E-01 1.25056E-14-3.09912E-13
 -1      2007 2.41236E+01-5.58354E-02-1.61100E-03 8.81014E-01 1.29718E-14-3.88043E-13
 -1      2008 2.44582E+01-1.14406E-01-7.72853E-03 7.88415E-01 6.97341E-14-2.86978E-13
 -1      2009 2.40349E+01-2.11450E-01-7.30155E-03 9.62870E-01 1.60339E-13-3.23262E-13
 -1      2010 2.34131E+01 2.37802E-02-3.88300E-03 9.02607E-01-1.29756E-13-2.88586E-13
 -1      2011 2.37967E+01-6.79033E-03-2.60783E-03 8.87958E-01-9.21615E-14-3.45715E-13
 -1      2012 2.34005E+01-3.67192E-02-3.70582E-03 1.10165E+00-6.33200E-14-3.79136E-13
 -1      2013 2.27450E+01 6.08954E-02-4.00858E-03 8.22684E-01-9.86199E-14-1.86763E-13
 -1      2014 2.31196E+01 4.94881E-02 9.72525E-04 8.50998E-01-1.36947E-13-2.37199E-13
 -1      2015 2.27889E+01 5.94625E-02-1.38150E-03 1.06799E+00-1.58477E-13-2.95587E-13
 -1      2016 2.21565E+01 7.19948E-02-3.25808E-03 7.00983E-01-7.04588E-14-2.10463E-13
 -1      2017 2.24914E+01 7.14447E-02 3.02092E-03 7.47756E-01-6.41175E-14-2.04248E-13
 -1      2018 2.22353E+01 1.00023E-01-2.94818E-04 9.47420E-01-6.58668E-14-3.61796E-13
 -1      2019 2.16600E+01 6.94988E-02-2.33842E-03 5.72052E-01 2.06296E-13 4.73911E-14
 -1      2020 2.19433E+01 7.41168E-02 3.89292E-03 6.22884E-01 3.59469E-14-7.13932E-14
 -1      2021 2.17557E+01 1.08175E-01 2.02922E-05 7.95765E-01-4.84682E-15-1.48956E-13
 -1      2022 2.12541E+01 6.10835E-02-1.54068E-03 4.53017E-01-1.03916E-14-1.19750E-13
 -1      2023 2.14850E+01 6.75541E-02 4.00429E-03 5.00613E-01 1.10654E-13-2.91758E-14
 -1      2024 2.13536E+01 1.00283E-01-2.38094E-05 6.44274E-01 1.61381E-13-5.01551E-14
 -1      2025 2.09302E+01 5.09324E-02-9.39113E-04 3.50686E-01 3.94311E-14-1.80751E-13
 -1      2026 2.11133E+01 5.75451E-02 3.69704E-03 3.92011E-01-2.40320E-14-2.00937E-13
 -1      2027 2.10253E+01 8.60494E-02-1.76015E-04 5.07885E-01 1.29003E-14-1.48170E-13
 -1      2028 2.06770E+01 4.10819E-02-5.19374E-04 2.66394E-01 2.02856E-13-9.62124E-14
 -1      2029 2.08190E+01 4.70673E-02 3.20464E-03 3.00709E-01 1.33542E-13-6.06974E-14
 -1      2030 2.07628E+01 7.05660E-02-3.17471E-04 3.92033E-01 8.89193E-14 8.89098E-14
 -1      2031 2.04824E+01 3.23811E-02-2.41890E-04 1.98900E-01-3.97557E-14-2.46352E-13
 -1      2032 2.05906E+01 3.74715E-02 2.66648E-03 2.26573E-01 1.03877E-13-2.04916E-13
 -1      2033 2.05570E+01 5.61889E-02-4.08052E-04 2.97174E-01 1.89050E-13-4.51627E-14
 -1      2034 2.03353E+01 2.50743E-02-6.70896E-05 1.45964E-01 7.63490E-14-4.65271E-13
 -1      2035 2.04163E+01 2.92467E-02 2.15597E-03 1.67813E-01-7.14155E-14-3.35567E-13
 -1      2036 2.03982E+01 4.38062E-02-4.45545E-04 2.21453E-01 3.40043E-14-2.10962E-13
 -1      2037 2.02261E+01 1.91242E-02 3.69924E-05 1.05130E-01 3.67066E-14-5.27479E-13
 -1      2038 2.02857E+01 2.24619E-02 1.70576E-03 1.22093E-01 8.90719E-14-4.11433E-13
 -1      2039 2.02779E+01 3.35833E-02-4.41783E-04 1.62165E-01 9.08969E-14-3.79530E-13
 -1      2040 2.01464E+01 1.43793E-02 9.39733E-05 7.40965E-02 2.78668E-14-5.72803E-13
 -1      2041 2.01894E+01 1.70020E-02 1.32575E-03 8.70718E-02 9.08425E-14-5.04121E-13
 -1      2042 2.01882E+01 2.53659E-02-4.11075E-04 1.16486E-01 9.31261E-14-4.06313E-13
 -1      2043 2.00895E+01 1.06556E-02 1.20522E-04 5.08476E-02 3.26376E-14-4.35218E-13
 -1      2044 2.01198E+01 1.26863E-02 1.01419E-03 6.06333E-02 1.37355E-14-5.00246E-13
 -1      2045 2.01225E+01 1.88837E-02-3.65626E-04 8.18079E-02 2.95350E-14-4.68870E-13
 -1      2046 2.00498E+01 7.77324E-03 1.28084E-04 3.36893E-02 6.22481E-14-4.24934E-13
 -1      2047 2.00707E+01 9.32444E-03 7.64137E-04 4.09634E-02 5.66316E-14-4.12589E-13
 -1      2048 2.00755E+01 1.38462E-02-3.14360E-04 5.58618E-02 8.60030E-14-2.96190E-13
 -1      2049 2.00230E+01 5.57124E-03 1.24363E-04 2.12315E-02-1.90713E-13-2.58596E-13
 -1      2050 2.00368E+01 6.74027E-03 5.66843E-04 2.65552E-02-4.64507E-14-3.06612E-13
 -1      2051 2.00426E+01 9.98320E-03-2.63155E-04 3.67434E-02-5.49026E-14-1.77553E-13
 -1      2052 2.00056E+01 3.91151E-03 1.14438E-04 1.23534E-02-1.23276E-14-3.35398E-13
 -1      2053 2.00144E+01 4.78001E-03 4.13475E-04 1.61828E-02-1.20698E-13-2.45167E-13
 -1      2054 2.00203E+01 7.05963E-03-2.15502E-04 2.28906E-02-1.27583E-13-1.01694E-13
 -1      2055 1.99951E+01 2.67829E-03 1.01563E-04 6.16407E-03-2.01193E-13-1.29631E-13
 -1      2056 2.00002E+01 3.31353E-03 2.95892E-04 8.86426E-03-2.05850E-13-2.70507E-13
 -1      2057 2.00058E+01 4.87731E-03-1.73193E-04 1.30440E-02-2.02329E-13-1.89560E-13
 -1      2058 1.99895E+01 1.77568E-03 8.77133E-05 1.96538E-03 5.32121E-14 1.20422E-13
 -1      2059 1.99920E+01 2.23251E-03 2.06932E-04 3.82449E-03 4.95833E-14 4.27713E-14
 -1      2060 1.99970E+01 3.27215E-03-1.36886E-04 6.20320E-03-1.16989E-13 5.82956E-14
 -1      2061 1.99872E+01 1.12458E-03 7.39546E-05-7.80914E-04-2.33791E-13-2.68753E-14
 -1      2062 1.99880E+01 1.44750E-03 1.40453E-04 4.60565E-04-1.55428E-13-8.36412E-14
 -1      2063 1.99922E+01 2.10944E-03-1.06526E-04 1.58579E-03-7.19764E-14 2.33638E-13
 -1      2064 1.99871E+01 6.59481E-04 6.06922E-05-2.48070E-03-1.37922E-13-8.00044E-15
 -1      2065 1.99867E+01 8.84598E-04 9.12616E-05-1.68754E-03-1.44869E-13-1.45914E-14
 -1      2066 1.99902E+01 1.27869E-03-8.16327E-05-1.40893E-03-2.37176E-13 6.97787E-14
 -1      2067 1.99884E+01 3.25308E-04 4.78332E-05-3.42967E-03 5.21977E-14-3.04887E-13
 -1      2068 1.99873E+01 4.82260E-04 5.50048E-05-2.96122E-03-8.37495E-14-1.97031E-13
 -1      2069 1.99901E+01 6.88574E-04-6.14958E-05-3.23026E-03 1.90571E-14-4.62047E-14
 -1      2070 1.99905E+01 7.36035E-05 3.50028E-05-3.83001E-03 3.43270E-13-1.83911E-13
 -1      2071 1.99891E+01 1.87728E-04 2.81418E-05-3.60239E-03 2.93878E-13-1.44312E-13
 -1      2072 1.99911E+01 2.61649E-04-4.53154E-05-4.20062E-03 2.45054E-13-7.83503E-14
 -1      2073 1.99929E+01-1.41019E-04 2.25750E-05-3.80067E-03 2.57255E-13-6.18308E-14
 -1      2074 1.99914E+01-4.71851E-05 8.17812E-06-3.76692E-03 2.87112E-13-1.47295E-14
 -1      2075 1.99928E+01-7.12877E-05-3.19822E-05-4.53396E-03 2.02579E-13 1.64629E-13
 -1      2076 1.99953E+01-3.60903E-04 1.17196E-05-3.38575E-03 3.60817E-14-1.28158E-13
 -1      2077 1.99938E+01-2.66932E-04-5.53990E-06-3.53358E-03 1.38125E-13-5.94553E-14
 -1      2078 1.99947E+01-3.73019E-04-1.92728E-05-4.34653E-03 2.29507E-13 2.43297E-13
 -1      2079 1.99974E+01-6.26182E-04-1.10308E-06-2.56462E-03 4.34013E-14 1.48075E-13
 -1      2080 1.99962E+01-5.09150E-04-1.07840E-05-2.92154E-03 1.22066E-14 6.86779E-15
 -1      2081 1.99966E+01-7.03711E-04-7.77802E-06-3.68702E-03-5.46194E-15 3.97279E-13
 -1      2082 1.99987E+01-8.80956E-04-1.56418E-05-1.66166E-03-1.16712E-13 2.92405E-13
 -1      2083 1.99978E+01-7.58045E-04-1.13205E-05-2.21293E-03-1.26788E-15 1.61673E-13
 -1      2084 1.99980E+01-1.02766E-03 5.20324E-06-2.84546E-03-6.51096E-14 5.45676E-13
 -1      2085 1.99989E+01-1.36030E-03 6.96274E-06-2.01929E-03-1.36393E-13 6.38079E-13
 -1      2086 2.00001E+01-6.27808E-03 8.13890E-06-3.35692E-03 2.60866E-13 3.58552E-14
 -1      2087 1.99999E+01-5.20889E-03-2.79693E-06-3.44532E-03 1.50182E-13 2.79753E-13
 -1      2088 1.99997E+01-4.46730E-03 3.39005E-06-3.43988E-03 1.25630E-13 8.92510E-14
 -1      2089 1.99994E+01-3.41932E-03-1.43956E-05-3.27473E-03 1.47771E-13 2.89221E-13
 -1      2090 1.99997E+01-4.13413E-03-6.88241E-06-4.24562E-03 1.08298E-13 1.83468E-13
 -1      2091 1.99993E+01-2.86765E-03-5.64120E-07-2.96820E-03 6.43222E-14 3.80862E-13
 -1      2092 1.99990E+01-1.95547E-03-1.86467E-05-2.52283E-03-5.38471E-14 5.36124E-13
 -1      2093 1.99986E+01-1.79716E-03-1.57898E-05-3.00438E-03-3.73999E-14 5.72523E-13
 -1      2094 1.99992E+01-2.89115E-03-4.68436E-06-3.88999E-03 7.21787E-15 4.48560E-13
 -1      2095 2.00003E+01-7.85347E-03 1.41744E-05-2.87416E-03 1.16048E-14-5.59691E-13
 -1      2096 2.00002E+01-6.91094E-03 1.35177E-05-3.12540E-03 9.08026E-14-2.77909E-13
 -1      2097 2.00003E+01-5.49987E-03-1.06356E-05-3.98042E-03 1.75620E-15-2.52164E-13
 -1      2098 2.00005E+01-9.11206E-03 2.02246E-05-2.11986E-03 9.60474E-14-4.38808E-13
 -1      2099 2.00004E+01-8.36797E-03 2.39274E-05-2.47886E-03 7.38725E-14-4.75905E-13
 -1      2100 2.00006E+01-6.65426E-03-1.41778E-05-3.28255E-03 1.51625E-14-4.59598E-13
 -1      2101 2.00005E+01-9.92776E-03 2.52771E-05-1.21401E-03-9.44648E-14 1.52208E-13
 -1      2102 2.00005E+01-9.46314E-03 2.97157E-05-1.62910E-03 1.59692E-13-1.19741E-13
 -1      2103 2.00008E+01-7.52784E-03-1.63113E-05-2.29813E-03 1.70097E-13-3.43768E-13
 -1      2104 2.00006E+01-1.02519E-02 2.89087E-05-2.39470E-04-6.99376E-14 3.63626E-14
 -1      2105 2.00006E+01-1.01010E-02 3.10710E-05-6.76917E-04-2.09522E-13 2.76088E-13
 -1      2106 2.00009E+01-8.05918E-03-1.70832E-05-1.15852E-03-1.78184E-14 1.17867E-13
 -1      2107 2.00006E+01-1.00697E-02 3.05031E-05 7.43248E-04-3.21576E-15-2.99378E-13
 -1      2108 2.00006E+01-1.02419E-02 2.91754E-05 3.08735E-04 1.57311E-13-1.50831E-13
 -1      2109 2.00009E+01-8.22494E-03-1.71184E-05 4.38569E-05-8.42777E-15 9.43356E-14
 -1      2110 2.00005E+01-9.39628E-03 2.91064E-05 1.68003E-03-1.45167E-13-3.90980E-13
 -1      2111 2.00005E+01-9.87837E-03 2.49802E-05 1.27312E-03-6.64676E-14-4.15037E-13
 -1      2112 2.00009E+01-8.02098E-03-1.66296E-05 1.23807E-03-5.39508E-14-4.08059E-13
 -1      2113 2.00004E+01-8.29935E-03 2.32292E-05 2.49297E-03-1.47821E-13-4.90133E-13
 -1      2114 2.00004E+01-9.04014E-03 1.95562E-05 2.15084E-03-1.38114E-13-3.18061E-13
 -1      2115 2.00008E+01-7.46453E-03-1.55791E-05 2.34660E-03-5.44565E-14-5.38026E-13
 -1      2116 2.00002E+01-6.82376E-03 1.23298E-05 3.12004E-03-1.84243E-13 4.44131E-13
 -1      2117 2.00003E+01-7.78218E-03 1.33793E-05 2.87564E-03-1.17357E-13-2.66065E-14
 -1      2118 2.00006E+01-6.58265E-03-1.34096E-05 3.29326E-03 6.63451E-14-3.19283E-13
 -1      2119 1.99999E+01-5.11457E-03-3.42984E-06 3.41919E-03-6.84853E-14 3.07814E-13
 -1      2120 2.00000E+01-6.17887E-03 7.34318E-06 3.34149E-03-1.64959E-13 3.20224E-13
 -1      2121 2.00002E+01-5.41523E-03-9.97546E-06 3.96809E-03-3.72559E-14 3.06131E-13
 -1      2122 1.99994E+01-3.33438E-03-1.58661E-05 3.26568E-03-2.01083E-13 4.50996E-13
 -1      2123 1.99997E+01-4.38613E-03 7.21402E-06 3.40528E-03-1.90471E-13 2.90912E-13
 -1      2124 1.99997E+01-4.04793E-03-2.66979E-06 4.20344E-03-1.18315E-13 2.41395E-13
 -1      2125 1.03517E+01-5.56781E+00-2.02679E-01 6.08661E+00 8.97504E-13 1.04168E-12
 -1      2126 6.78886E+00-6.88538E+00-3.76602E-01 5.01681E+00 5.69378E-13 1.13445E-12
 -1      2127 2.84623E-01-7.37904E+00-4.17553E-01 5.56169E-01 4.16847E-13 1.31617E-12
 -1      2128 3.50045E-01-6.73731E+00-3.23566E-01-1.06503E+00 3.35842E-15 1.36513E-12
 -1      2129 3.20408E+00-6.44007E+00-2.79183E-01 3.83021E+00 6.60361E-13 1.40543E-12
 -1      2130 1.18134E+00-7.62725E+00-4.67648E-01 2.09994E+00 4.14613E-13 1.21825E-12
 -1      2131 2.08975E+00-4.82216E+00-1.81248E-01 1.82529E+00 1.34240E-13 1.39766E-12
 -1      2132 1.91351E+01-3.63547E+00-4.44550E-02 6.64405E+00 1.09079E-12 1.16912E-12
 -1      2133 1.42901E+01-5.49087E+00-3.61042E-01 5.85404E+00 9.83325E-13 1.01283E-12
 -1      2134 2.83363E+01-1.48765E+00 5.87703E-02 5.09390E+00 9.28368E-13 8.52485E-13
 -1      2135 2.31636E+01-3.10238E+00-1.99230E-01 5.30954E+00 1.00919E-12 1.00969E-12
 -1      2136 1.95830E+01 4.09846E+00-2.82876E-02-1.26207E+00-4.48648E-13-8.98727E-13
 -1      2137 1.98171E+01 4.01838E+00-2.16136E-02-1.50878E+00-5.37464E-13-7.92956E-13
 -1      2138 2.01896E+01 3.31560E+00-1.37172E-02-1.45409E+00-5.87595E-13-6.76313E-13
 -1      2139 1.96941E+01 3.72027E+00-6.53633E-03-1.06516E+00-4.52941E-13-8.80270E-13
 -1      2140 4.11840E+01 6.17467E+00 5.75426E-01 1.23473E+00 1.38228E-12 2.22933E-13
 -1      2141 3.73604E+01 4.97160E+00 2.03637E-01 1.40572E+00 1.41956E-12 2.95597E-13
 -1      2142 4.23947E+01 7.15084E+00 4.90605E-01-2.86578E-01 1.50518E-12-9.77135E-14
 -1      2143 4.17764E+01 6.77724E+00 4.04014E-01 8.40020E-01 1.47021E-12 2.58571E-13
 -1      2144 3.72648E+01 7.11177E+00 3.32525E-01-4.11257E-01 1.48787E-12-2.32037E-14
 -1      2145 4.02314E+01 6.08469E+00 3.24209E-01-1.80286E+00 1.52728E-12-4.59022E-13
 -1      2146 4.21032E+01 6.77766E+00 4.91764E-01-7.29501E-01 1.56480E-12-8.50986E-14
 -1      2147 3.50467E+01 3.03864E+00 9.27496E-02-2.84658E+00 1.35295E-12-6.93667E-13
 -1      2148 3.89088E+01 4.54333E+00 4.01299E-01-2.30666E+00 1.36952E-12-5.21916E-13
 -1      2149 2.80336E+01-7.49011E-01-7.90462E-02-4.84992E+00 1.24079E-12-1.11222E-12
 -1      2150 3.28186E+01 9.29634E-01 1.98128E-01-4.44912E+00 1.25971E-12-8.13127E-13
 -1      2151 1.93025E+01-3.78698E+00-2.83551E-01-5.96716E+00 1.14209E-12-1.28891E-12
 -1      2152 2.44637E+01-1.83102E+00 7.10025E-02-6.47181E+00 1.22236E-12-1.33638E-12
 -1      2153 1.09167E+01-6.32500E+00-4.04834E-01-5.74238E+00 7.19647E-13-1.40705E-12
 -1      2154 1.54179E+01-4.44300E+00-9.13213E-02-6.76858E+00 9.81104E-13-1.40557E-12
 -1      2155 3.84725E+00-7.64232E+00-4.91646E-01-3.97931E+00 3.45279E-13-1.50840E-12
 -1      2156 6.86022E+00-6.21242E+00-2.79531E-01-5.37723E+00 7.07323E-13-1.55703E-12
 -1      2157 2.53947E-01-8.00430E+00-4.91199E-01-1.12626E+00-1.66242E-13-1.57235E-12
 -1      2158 1.39641E+00-7.48754E+00-4.16672E-01-2.55544E+00 3.42060E-13-1.61532E-12
 -1      2159 9.11522E-01-7.08806E+00-3.57590E-01 2.12587E+00-6.43763E-13-1.65384E-12
 -1      2160 2.52387E-01-7.47325E+00-4.19019E-01 6.79938E-01-1.74610E-13-1.60161E-12
 -1      2161 4.80611E+00-6.21344E+00-2.51154E-01 5.01527E+00-9.98368E-13-1.69131E-12
 -1      2162 2.41845E+00-7.55537E+00-4.59477E-01 3.56116E+00-6.64635E-13-1.63825E-12
 -1      2163 1.25597E+01-4.85682E+00-6.32850E-02 6.88544E+00-1.23412E-12-1.40499E-12
 -1      2164 8.89437E+00-6.34755E+00-2.94949E-01 5.94104E+00-9.18488E-13-1.42346E-12
 -1      2165 1.97017E+01-3.00926E+00 1.59676E-02 7.04800E+00-1.50796E-12-1.37046E-12
 -1      2166 1.52944E+01-4.87556E+00-2.90069E-01 6.38700E+00-1.34670E-12-1.36416E-12
 -1      2167 1.63479E+01-5.68682E+00-5.79877E-02 7.00042E+00-3.65763E-13-9.85531E-13
 -1      2168 2.80856E+01-6.53903E-01 3.04401E-02 5.28799E+00-1.42072E-12-1.08663E-12
 -1      2169 2.34107E+01-1.88184E+00-1.05880E-01 5.93866E+00-1.63125E-12-1.39078E-12
 -1      2170 3.55353E+01 3.54243E+00 3.76022E-01 3.41528E+00-1.43602E-12-1.02746E-12
 -1      2171 3.14400E+01 1.56379E+00 3.45089E-02 3.33417E+00-1.43340E-12-8.45601E-13
 -1      2172 3.90166E+01 5.90011E+00 3.37401E-01 1.76602E+00-1.39266E-12-7.48679E-13
 -1      2173 3.63971E+01 4.80656E+00 1.16028E-01 2.69657E+00-1.50027E-12-9.94760E-13
 -1      2174 3.36775E+01 3.74567E+00 1.69119E-01 3.34847E-01-1.28192E-12-3.56881E-13
 -1      2175 4.05194E+01 7.17252E+00 3.27483E-01 7.09986E-02-1.38528E-12-3.88582E-13
 -1      2176 3.97236E+01 6.95559E+00 2.75090E-01 1.24356E+00-1.40349E-12-7.41573E-13
 -1      2177 3.88500E+01 6.76902E+00 2.06018E-01-1.37435E+00-1.34109E-12-8.02136E-14
 -1      2178 4.08675E+01 7.11528E+00 4.08553E-01-3.81889E-01-1.35586E-12-3.54938E-13
 -1      2179 3.52342E+01 4.02383E+00 1.29213E-01-3.05398E+00-1.08705E-12 1.89071E-13
 -1      2180 3.77130E+01 5.26601E+00 2.61351E-01-1.91668E+00-1.14059E-12-8.11573E-14
 -1      2181 2.96615E+01 4.33233E-01-4.52510E-02-3.77898E+00-7.91284E-13 2.33036E-13
 -1      2182 3.38350E+01 2.42597E+00 2.82649E-01-3.94750E+00-9.72052E-13 2.07612E-13
 -1      2183 3.29429E+01 2.50755E+00 1.84338E-01-7.07412E-01-8.11240E-13-3.80918E-13
 -1      2184 2.17136E+01-2.90353E+00-1.52654E-01-5.96290E+00-7.31692E-13 6.58751E-13
 -1      2185 2.64045E+01-1.44674E+00 3.60750E-02-5.70587E+00-6.62914E-13 4.94604E-13
 -1      2186 1.32820E+01-5.21090E+00-3.26130E-01-6.27093E+00-6.74794E-13 7.77045E-13
 -1      2187 1.78905E+01-3.43415E+00-2.21681E-02-7.06047E+00-7.79710E-13 6.98330E-13
 -1      2188 6.42936E+00-6.68771E+00-3.75428E-01-5.28962E+00-3.85025E-13 1.13486E-12
 -1      2189 9.74073E+00-5.17474E+00-1.39140E-01-6.42696E+00-6.19838E-13 1.03721E-12
 -1      2190 1.88408E+00-6.95251E+00-3.48981E-01-3.23531E+00 3.18356E-14 1.35203E-12
 -1      2191 3.82097E+00-6.47652E+00-2.75942E-01-4.49557E+00-4.08007E-13 1.43033E-12
 -1      2192 7.23473E+00-5.34142E+00-1.33333E-01-6.06405E+00 1.48659E-13 1.16548E-12
 -1      2193 3.49936E+01 2.07355E+00 6.97132E-02 2.08508E+00 1.21499E-12 3.01204E-13
 -1      2194 3.14158E+01 4.34857E-01-1.31928E-03 3.18586E+00 1.15002E-12 6.71685E-13
 -1      2195 3.04039E+01-1.91435E+00 1.66516E-01 2.15422E+00 6.13759E-13 1.15463E-14
 -1      2196 2.13265E+01 1.09849E+00-1.85643E-02-1.27778E+00-6.46788E-13 3.27946E-13
 -1      2197 3.35040E+01 3.80221E+00-1.38132E-01-1.43453E+00 1.07897E-12-3.91437E-13
 -1      2198 3.50664E+01 3.16483E+00 1.49646E-01 4.51022E-01 1.15430E-12 3.83027E-15
 -1      2199 3.24986E+01 1.30162E+00 7.89629E-02-7.45649E-01 8.44075E-13-4.49640E-13
 -1      2200 2.11873E+01 1.33138E+00-2.08534E-02-1.26172E+00-6.89948E-13-1.03615E-14
 -1      2201 6.78899E+00-5.63208E+00-1.52779E-01 5.30682E+00 1.21181E-13 1.09487E-12
 -1      2202 1.50493E+01-5.92657E+00-8.06858E-02 6.56758E+00 1.87628E-13 7.67018E-13
 -1      2203 1.99992E+01-2.61461E-03-1.55278E-05 3.23298E-03-2.29544E-13 3.55535E-13
 -1      2204 2.47080E+00-4.84911E+00-1.54335E-01-2.64235E+00 1.54265E-13 1.52817E-12
 -1      2205 2.35246E+01-4.86694E+00 6.61539E-02 5.20999E+00 3.53606E-13 4.91246E-13
 -1      2206 1.40292E+01-5.55377E+00-5.46108E-02-7.02583E+00 5.70655E-14 6.05713E-13
 -1      2207 2.88086E+01-1.78664E+00 1.00620E-01-3.26522E+00-3.99070E-13-1.72751E-13
 -1      2208 3.55295E+01 6.27951E+00 2.61505E-01-4.43267E-03-1.21470E-12-3.46806E-13
 -1      2209 3.55941E+01 7.01590E+00 2.91166E-01-6.23097E-02-1.44662E-12-3.37785E-13
 -1      2210 2.32366E+01-4.24256E+00 5.18260E-02 5.68893E+00-8.06355E-13-7.48207E-13
 -1      2211 9.04365E+00-5.50861E+00-7.88899E-02 6.55573E+00-2.78277E-13-1.44965E-12
 -1      2212 3.10731E+00-5.08115E+00-1.78579E-01 3.59004E+00-1.87156E-13-1.77125E-12
 -1      2213 1.43340E+00-5.10298E+00-2.18220E-01-3.07010E-01-1.65579E-13-1.82515E-12
 -1      2214 4.18322E+00-5.75685E+00-2.27239E-01-4.28316E+00-5.21805E-14-1.66622E-12
 -1      2215 1.13469E+01-6.03161E+00-1.24096E-01-6.54434E+00 2.12608E-14-1.31348E-12
 -1      2216 1.99026E+01-5.38248E+00-3.19583E-02-6.20192E+00 3.25295E-13-8.89400E-13
 -1      2217 2.78369E+01-2.94922E+00 1.21361E-01-4.09782E+00 6.46760E-13-5.04652E-13
 -1      2218 3.34255E+01 9.80913E-01 2.13063E-01-1.18964E+00 1.00564E-12-7.87703E-14
 -1      2219 3.80998E+01 7.83571E+00 4.20305E-01 1.63928E-02 1.64085E-12 1.18718E-13
 -1      2220 3.64683E+01 5.49321E+00 3.27168E-01 2.29833E-01 1.43446E-12 8.70970E-14
 -1      2221 3.02286E+01-3.27817E-01 9.25024E-02 3.21403E+00-1.18008E-12-6.21891E-13
 -1      2222 2.85443E+01-2.19920E+00 1.01253E-01 2.77092E+00-8.06077E-13-1.69920E-13
 -1      2223 3.07469E+01-2.48196E-01-1.35471E-01 7.54327E-01-8.63809E-13-7.85483E-14
 -1      2224 3.63104E+01 8.27794E+00 3.44009E-01 1.05307E-02-1.45778E-12-3.18613E-13
 -1      2225 2.18268E+01-4.58198E+00 6.46789E-02-6.01238E+00-1.58873E-13 2.42723E-13
 -1      2226 2.10193E+01 6.11639E-01 8.87382E-03 9.68037E-02 5.26027E-13 3.28294E-13
 -1      2227 2.11541E+01 7.80161E-01 2.06437E-02 4.33078E-01 6.01141E-13 4.11333E-13
 -1      2228 1.90268E+01 3.86346E+00-1.14760E-02-2.67231E-01-1.15003E-13-9.56333E-13
 -1      2229 1.91614E+01 3.79151E+00-6.95601E-03-3.99174E-01-2.06045E-13-9.63005E-13
 -1      2230 1.93176E+01 3.64992E+00-1.35955E-02-5.14699E-01-2.67979E-13-9.55100E-13
 -1      2231 1.95003E+01 3.53929E+00-9.32795E-03-6.69839E-01-3.55607E-13-9.26486E-13
 -1      2232 1.93687E+01 3.38060E+00 1.02367E-03-3.54821E-01-2.26758E-13-8.85046E-13
 -1      2233 1.87797E+01 4.04974E+00-8.60268E-03 1.22373E-01 1.51245E-13-9.57397E-13
 -1      2234 1.87955E+01 4.04103E+00-7.00552E-03 2.00819E-02 8.28185E-14-9.70826E-13
 -1      2235 1.88508E+01 4.01621E+00-7.92078E-03 2.94359E-01 2.90310E-13-9.17448E-13
 -1      2236 1.87979E+01 4.04124E+00-8.56001E-03 1.92862E-01 2.08434E-13-9.37643E-13
 -1      2237 1.88821E+01 3.76649E+00 1.93837E-03 1.50499E-01 1.72894E-13-8.95357E-13
 -1      2238 1.90555E+01 3.88908E+00-8.08469E-03 4.75495E-01 4.16232E-13-8.68717E-13
 -1      2239 1.89355E+01 3.95088E+00-1.09052E-02 3.65615E-01 3.41803E-13-8.96795E-13
 -1      2240 1.89902E+01 3.69741E+00 2.51260E-03 2.80888E-01 3.05696E-13-8.58916E-13
 -1      2241 1.93972E+01 3.64876E+00-9.84618E-03 6.91455E-01 5.55118E-13-7.34883E-13
 -1      2242 1.92086E+01 3.75887E+00-1.39339E-02 5.59848E-01 4.67564E-13-8.13926E-13
 -1      2243 1.92430E+01 3.51414E+00 2.93992E-03 4.22611E-01 4.27922E-13-7.77157E-13
 -1      2244 1.98635E+01 3.26884E+00-1.46967E-02 9.47821E-01 6.72606E-13-5.78908E-13
 -1      2245 1.96143E+01 3.44560E+00-1.73919E-02 7.92433E-01 5.98728E-13-6.62066E-13
 -1      2246 1.96360E+01 3.19957E+00 3.87388E-03 5.90249E-01 5.53617E-13-6.42520E-13
 -1      2247 2.04416E+01 2.70140E+00-2.45254E-02 1.22103E+00 7.73287E-13-3.03516E-13
 -1      2248 2.01397E+01 2.98032E+00-1.99565E-02 1.05539E+00 7.04368E-13-4.65258E-13
 -1      2249 2.01456E+01 2.73330E+00 6.68810E-03 7.75275E-01 6.54575E-13-4.71397E-13
 -1      2250 2.09869E+01 4.17319E-01 1.07180E-02-4.22232E-01 3.69905E-13 2.29855E-13
 -1      2251 2.09838E+01 4.95569E-01 2.02028E-02-2.02426E-01 4.48705E-13 3.02496E-13
 -1      2252 2.09457E+01 7.95877E-01-4.71546E-03-7.92044E-03 5.44543E-13 8.10094E-14
 -1      2253 2.10047E+01 9.04782E-01 1.40693E-02-5.12558E-01-5.30622E-13-1.57784E-13
 -1      2254 2.08786E+01 6.86870E-01-1.70078E-03-1.80925E-01-4.68943E-13-1.83202E-13
 -1      2255 2.08723E+01 5.32623E-01 1.65075E-02 6.80195E-02-4.11282E-13-1.54713E-13
 -1      2256 2.08312E+01 4.06052E-01 1.56453E-03 2.63380E-01-3.65751E-13-1.85614E-13
 -1      2257 2.08241E+01 8.26498E-01-3.87547E-03-1.00680E-01-4.61927E-13-2.83485E-13
 -1      2258 2.08457E+01 3.11997E-01 1.16363E-02 4.30971E-01-3.16952E-13-1.65468E-13
 -1      2259 2.08775E+01 2.22724E-01 8.87519E-04 5.44552E-01-2.63300E-13-2.05572E-13
 -1      2260 2.07989E+01 4.89954E-01-5.70189E-03 3.51109E-01-3.59324E-13-2.61237E-13
 -1      2261 2.09316E+01 1.47328E-01 7.99984E-03 6.43741E-01-2.26397E-13-1.83367E-13
 -1      2262 2.10131E+01 6.67089E-02-1.10477E-03 6.94022E-01-1.98568E-13-1.92704E-13
 -1      2263 2.08516E+01 2.53291E-01-5.93930E-03 6.42607E-01-2.65438E-13-2.54941E-13
 -1      2264 2.11092E+01-9.33936E-03 6.18509E-03 7.29827E-01-1.72582E-13-1.68062E-13
 -1      2265 2.12173E+01-9.66968E-02-3.97230E-03 7.19464E-01-1.29090E-13-1.84950E-13
 -1      2266 2.09883E+01 4.25510E-02-5.68144E-03 7.95426E-01-2.06217E-13-2.34249E-13
 -1      2267 2.13533E+01-1.82407E-01 5.45087E-03 6.87561E-01-1.20270E-13-1.69628E-13
 -1      2268 2.14660E+01-2.81568E-01-7.47812E-03 6.11702E-01-1.17538E-13-1.87007E-13
 -1      2269 2.12047E+01-1.81526E-01-5.35367E-03 8.11449E-01-1.35080E-13-1.75038E-13
 -1      2270 2.16351E+01-3.75751E-01 4.97741E-03 5.02702E-01-1.13777E-13-1.63815E-13
 -1      2271 2.17298E+01-4.78689E-01-1.09169E-02 3.56643E-01-1.10320E-13-1.27418E-13
 -1      2272 2.14908E+01-4.30861E-01-4.74903E-03 6.77147E-01-1.06182E-13-1.95682E-13
 -1      2273 2.19156E+01-5.65752E-01 3.75679E-03 1.63813E-01-1.30346E-13-9.38670E-14
 -1      2274 2.19686E+01-6.45634E-01-1.26661E-02-4.68396E-02-1.34889E-13-1.04103E-13
 -1      2275 2.18261E+01-6.83848E-01-3.11240E-03 3.74982E-01-1.19742E-13-1.49310E-13
 -1      2276 2.21371E+01-6.91000E-01 7.94115E-04-3.13455E-01-1.42547E-13-8.47112E-14
 -1      2277 2.21268E+01-7.01327E-01-1.03688E-02-5.59327E-01-1.43988E-13-9.59911E-14
 -1      2278 2.21674E+01-8.72106E-01 7.78437E-04-9.57693E-02-1.51874E-13-7.76450E-14
 -1      2279 2.22257E+01-6.56669E-01-4.69133E-03-8.54026E-01-1.18219E-13-9.23933E-14
 -1      2280 2.21417E+01-5.45237E-01-2.29878E-03-1.07185E+00-7.65976E-14-9.65738E-14
 -1      2281 2.24383E+01-8.80746E-01 7.21043E-03-6.83755E-01-1.31000E-13 2.91336E-14
 -1      2282 2.21162E+01-3.70984E-01-1.21614E-02-1.29942E+00-5.73413E-14-1.03407E-13
 -1      2283 2.19722E+01-1.18285E-01 9.73302E-03-1.39639E+00-2.85341E-14-6.67480E-14
 -1      2284 2.25392E+01-5.86161E-01 1.29415E-02-1.24931E+00-6.92597E-14 6.54732E-14
 -1      2285 2.18133E+01 1.70687E-01-1.70649E-02-1.42848E+00-6.55148E-14-1.11928E-13
 -1      2286 2.16546E+01 5.00000E-01 1.90890E-02-1.31964E+00-1.69731E-13-1.62783E-13
 -1      2287 2.24005E+01 4.47405E-02 1.09273E-02-1.55471E+00-6.57276E-14-4.38208E-14
 -1      2288 2.14465E+01 7.97516E-01-1.28903E-02-1.06995E+00-2.60715E-13-1.66153E-13
 -1      2289 2.13390E+01 1.05113E+00 1.77716E-02-7.45657E-01-2.56828E-13-2.23105E-13
 -1      2290 2.20801E+01 8.44704E-01-7.88719E-04-1.35188E+00-2.45681E-13-5.59294E-14
 -1      2291 2.12304E+01 1.19843E+00 9.98798E-04-2.66968E-01-2.29441E-13-2.93398E-13
 -1      2292 2.12275E+01 1.22900E+00 5.00965E-03 1.64990E-01-1.95267E-13-3.83503E-13
 -1      2293 2.17924E+01 1.45024E+00-1.37788E-02-5.82181E-01-3.22860E-13-1.12733E-13
 -1      2294 2.13074E+01 1.13644E+00 1.56123E-02 6.71152E-01-1.87269E-13-4.79307E-13
 -1      2295 2.14146E+01 9.26479E-01-9.86782E-03 1.03545E+00-1.44670E-13-4.92037E-13
 -1      2296 2.17674E+01 1.52441E+00-1.50761E-02 4.79051E-01-2.63865E-13-2.69343E-13
 -1      2297 2.16252E+01 6.51195E-01 1.99776E-02 1.35074E+00-1.07265E-13-5.79740E-13
 -1      2298 2.17999E+01 3.26522E-01-1.62070E-02 1.51480E+00-1.02639E-13-5.85518E-13
 -1      2299 2.20346E+01 1.02698E+00-2.23060E-03 1.35389E+00-1.84382E-13-4.41698E-13
 -1      2300 2.19901E+01 2.58901E-02 1.18554E-02 1.54666E+00-1.24087E-13-5.87082E-13
 -1      2301 2.21646E+01-2.50259E-01-1.35089E-02 1.49584E+00-9.07972E-14-5.64591E-13
 -1      2302 2.23919E+01 2.38478E-01 9.27883E-03 1.69731E+00-1.05541E-13-5.29949E-13
 -1      2303 2.22318E+01-4.52618E-01-7.08658E-04 1.30805E+00-5.11518E-14-5.57861E-13
 -1      2304 2.23546E+01-5.94940E-01-6.49822E-03 1.11578E+00-3.01582E-15-5.38473E-13
 -1      2305 2.26021E+01-4.47075E-01 1.24727E-02 1.49978E+00-6.47249E-14-4.77879E-13
 -1      2306 2.22899E+01-6.66330E-01-9.83357E-03 8.33396E-01 2.51014E-15-5.09063E-13
 -1      2307 2.23399E+01-6.79894E-01-3.81511E-04 5.93676E-01 6.62231E-14-5.96177E-13
 -1      2308 2.25733E+01-8.16817E-01 7.99678E-03 9.84192E-01 6.26734E-15-4.52173E-13
 -1      2309 2.21906E+01-6.52369E-01-1.31117E-02 3.20577E-01 9.79798E-14-5.03609E-13
 -1      2310 2.21726E+01-5.86953E-01 3.05082E-03 1.02872E-01 1.56522E-13-4.67992E-13
 -1      2311 2.23518E+01-8.69240E-01 2.10320E-03 3.97517E-01 1.25016E-13-4.58445E-13
 -1      2312 2.19925E+01-5.10742E-01-1.19776E-02-1.07244E-01 1.87027E-13-3.84460E-13
 -1      2313 2.19237E+01-4.17214E-01 4.11270E-03-2.69243E-01 1.45987E-13-2.70209E-13
 -1      2314 2.20335E+01-7.19956E-01-1.71415E-03-1.01234E-01 2.18213E-13-2.40446E-13
 -1      2315 2.17485E+01-3.31851E-01-8.82352E-03-4.03553E-01 5.63885E-14-3.01630E-13
 -1      2316 2.16484E+01-2.43282E-01 3.78582E-03-5.03671E-01 8.67626E-14-3.19301E-13
 -1      2317 2.16975E+01-4.93863E-01-3.20813E-03-4.50607E-01 1.07932E-13-2.39794E-13
 -1      2318 2.14945E+01-1.70326E-01-5.36925E-03-5.71436E-01 6.06752E-15-4.13463E-13
 -1      2319 2.13794E+01-1.01442E-01 2.93996E-03-6.18461E-01 8.03665E-16-4.53814E-13
 -1      2320 2.13878E+01-2.74714E-01-3.30147E-03-6.51931E-01-4.24495E-14-4.38484E-13
 -1      2321 2.12508E+01-4.82863E-02-2.44794E-03-6.36616E-01 6.16551E-14-5.28051E-13
 -1      2322 2.11327E+01-1.79125E-03 2.07365E-03-6.44601E-01 4.06200E-14-5.45677E-13
 -1      2323 2.11205E+01-1.01410E-01-2.85003E-03-7.34348E-01-4.45299E-14-6.33325E-13
 -1      2324 2.10277E+01 3.21355E-02-3.12567E-04-6.30052E-01 4.88431E-14-4.99949E-13
 -1      2325 2.09148E+01 5.93386E-02 1.38038E-03-6.12826E-01 6.36834E-14-4.44966E-13
 -1      2326 2.08967E+01 1.75024E-02-2.31544E-03-7.33130E-01 5.63404E-14-6.07119E-13
 -1      2327 2.08297E+01 7.78864E-02 1.06804E-03-5.79414E-01 1.23082E-13-5.50898E-13
 -1      2328 2.07272E+01 9.07162E-02 8.91117E-04-5.48222E-01 8.73102E-14-4.61770E-13
 -1      2329 2.07117E+01 8.85830E-02-1.87035E-03-6.79739E-01 6.19460E-14-4.35898E-13
 -1      2330 2.06585E+01 9.83506E-02 1.83757E-03-5.06071E-01 3.90513E-14-3.95422E-13
 -1      2331 2.05687E+01 1.01545E-01 5.71486E-04-4.69037E-01 1.21452E-13-3.77444E-13
 -1      2332 2.05599E+01 1.23484E-01-1.54060E-03-5.98561E-01 1.02974E-13-3.72015E-13
 -1      2333 2.05135E+01 1.02154E-01 2.16254E-03-4.24929E-01 1.11645E-13-4.39007E-13
 -1      2334 2.04373E+01 9.95113E-02 3.72640E-04-3.87382E-01 1.00823E-13-4.55932E-13
 -1      2335 2.04358E+01 1.33778E-01-1.30024E-03-5.06798E-01 5.77577E-14-3.46637E-13
 -1      2336 2.03931E+01 9.60523E-02 2.19196E-03-3.45471E-01 2.71613E-14-4.80420E-13
 -1      2337 2.03303E+01 9.03125E-02 2.52416E-04-3.10564E-01 4.61178E-14-3.53023E-13
 -1      2338 2.03351E+01 1.28912E-01-1.11604E-03-4.15604E-01 8.51737E-14-4.74892E-13
 -1      2339 2.02952E+01 8.48424E-02 2.04336E-03-2.73098E-01 4.43350E-14-3.76655E-13
 -1      2340 2.02446E+01 7.78344E-02 1.80284E-04-2.42434E-01 6.59279E-14-2.92029E-13
 -1      2341 2.02540E+01 1.15793E-01-9.63408E-04-3.31530E-01 5.07429E-14-3.97114E-13
 -1      2342 2.02169E+01 7.16859E-02 1.80192E-03-2.10371E-01 1.17710E-14-3.69032E-13
 -1      2343 2.01771E+01 6.45432E-02 1.36262E-04-1.84524E-01-8.63265E-14-4.30835E-13
 -1      2344 2.01894E+01 9.90875E-02-8.28420E-04-2.57868E-01-3.20383E-14-3.17035E-13
 -1      2345 2.01557E+01 5.85172E-02 1.52521E-03-1.57998E-01-5.99423E-14-3.56971E-13
 -1      2346 2.01250E+01 5.18819E-02 1.08142E-04-1.36913E-01-8.83560E-14-3.68279E-13
 -1      2347 2.01386E+01 8.17306E-02-7.05049E-04-1.95741E-01-5.00379E-14-4.82649E-13
 -1      2348 2.01086E+01 4.64129E-02 1.24944E-03-1.15578E-01-1.54494E-13-3.33158E-13
 -1      2349 2.00855E+01 4.05995E-02 8.88635E-05-9.88454E-02-8.97591E-14-2.73897E-13
 -1      2350 2.00993E+01 6.54157E-02-5.91734E-04-1.44926E-01-1.11842E-13-3.29146E-13
 -1      2351 2.00732E+01 3.58829E-02 9.95374E-04-8.21064E-02-1.39496E-13-1.72884E-13
 -1      2352 2.00562E+01 3.09987E-02 7.45334E-05-6.91530E-02-8.69288E-14-2.42318E-13
 -1      2353 2.00692E+01 5.10005E-02-4.88850E-04-1.04439E-01-6.33082E-14-1.27461E-13
 -1      2354 2.00471E+01 2.70818E-02 7.73201E-04-5.63189E-02-7.44544E-14-2.83643E-13
 -1      2355 2.00350E+01 2.31109E-02 6.30898E-05-4.65233E-02 4.63508E-14-2.94830E-13
 -1      2356 2.00468E+01 3.88072E-02-3.97194E-04-7.29372E-02-1.05144E-13-2.36087E-13
 -1      2357 2.00284E+01 1.99554E-02 5.86257E-04-3.69018E-02 1.10580E-13-3.02328E-13
 -1      2358 2.00200E+01 1.68150E-02 5.34626E-05-2.96653E-02 9.04848E-14-3.81935E-13
 -1      2359 2.00303E+01 2.88356E-02-3.17257E-04-4.89697E-02 2.28643E-14-3.22400E-13
 -1      2360 2.00154E+01 1.43381E-02 4.33729E-04-2.26167E-02 2.68295E-13-5.15196E-13
 -1      2361 2.00098E+01 1.19146E-02 4.50668E-05-1.74008E-02 2.01655E-13-4.00134E-13
 -1      2362 2.00184E+01 2.09066E-02-2.48990E-04-3.11375E-02 8.89343E-14-4.22001E-13
 -1      2363 2.00067E+01 1.00146E-02 3.12519E-04-1.23646E-02-1.15356E-14-2.96229E-13
 -1      2364 2.00032E+01 8.18540E-03 3.75094E-05-8.70837E-03-3.39086E-14-1.70559E-13
 -1      2365 2.00102E+01 1.47545E-02-1.91826E-04-1.81774E-02 1.66693E-13-3.05353E-13
 -1      2366 2.00012E+01 6.75737E-03 2.18480E-04-5.21363E-03-3.30739E-14-1.17630E-14
 -1      2367 1.99992E+01 5.40327E-03 3.04209E-05-2.73717E-03 1.29903E-13 1.94490E-14
 -1      2368 2.00047E+01 1.00847E-02-1.44809E-04-9.00133E-03 4.29066E-14-1.60999E-13
 -1      2369 1.99980E+01 4.34696E-03 1.47201E-04-4.02209E-04 1.60058E-13 2.00552E-14
 -1      2370 1.99971E+01 3.35781E-03 2.33792E-05 1.19560E-03 2.89666E-13-5.57608E-14
 -1      2371 2.00013E+01 6.60568E-03-1.06774E-04-2.70819E-03 9.34190E-14 5.42584E-14
 -1      2372 1.99964E+01 2.58126E-03 9.45221E-05 2.66884E-03 4.86677E-13-1.94948E-13
 -1      2373 1.99962E+01 1.85785E-03 1.59449E-05 3.61668E-03 4.83975E-13-1.16231E-13
 -1      2374 1.99992E+01 4.04579E-03-7.64995E-05 1.42226E-03 3.36134E-13-2.88652E-14
 -1      2375 1.99960E+01 1.27787E-03 5.67676E-05 4.45096E-03 2.63546E-13-1.09342E-13
 -1      2376 1.99962E+01 7.30908E-04 7.56285E-06 4.91255E-03 1.62677E-13-1.82648E-14
 -1      2377 1.99982E+01 2.15895E-03-5.27814E-05 3.94339E-03 3.98990E-13-4.87124E-14
 -1      2378 1.99962E+01 2.71565E-04 3.08952E-05 5.26359E-03 1.89935E-13 1.13884E-13
 -1      2379 1.99967E+01-1.76371E-04-5.39934E-07 5.34434E-03 3.98219E-14 3.14595E-13
 -1      2380 1.99979E+01 7.22411E-04-3.49334E-05 5.26052E-03 2.63881E-13 3.30446E-13
 -1      2381 1.99969E+01-5.93594E-04 1.12470E-05 5.31536E-03-1.98007E-13 4.75241E-13
 -1      2382 1.99975E+01-9.90982E-04-6.63239E-06 5.06787E-03-2.35943E-13 5.23600E-13
 -1      2383 1.99980E+01-4.51182E-04-2.10435E-05 5.64994E-03 5.15726E-14 3.87631E-13
 -1      2384 2.13936E+01 2.59244E-01 7.51582E-03-1.10866E+00 1.99486E-13 2.17899E-14
 -1      2385 2.11889E+01 2.90370E-01 7.63219E-03-9.80696E-01 2.19313E-13 8.97585E-14
 -1      2386 2.17883E+01 1.82478E-01 4.58880E-03-1.34100E+00 1.09089E-13-2.65053E-14
 -1      2387 2.15192E+01 2.25741E-01 4.90191E-03-1.24733E+00 1.56314E-13 3.17628E-15
 -1      2388 2.11932E+01 3.36484E-01-6.15705E-03-1.33574E+00 2.15488E-13-1.77954E-13
 -1      2389 2.22835E+01 4.93284E-02-3.77859E-04-1.47897E+00 1.53489E-13-1.21864E-14
 -1      2390 2.19710E+01 1.27562E-01 4.00122E-03-1.43760E+00 1.12814E-13-1.90048E-14
 -1      2391 2.14965E+01 2.09935E-01-6.84123E-03-1.59526E+00 1.45972E-13-2.13480E-13
 -1      2392 2.28644E+01-1.85802E-01-8.14365E-03-1.46070E+00 1.00464E-13 3.71834E-14
 -1      2393 2.25343E+01-4.89959E-02 4.77256E-03-1.50801E+00 1.21767E-13 3.81396E-14
 -1      2394 2.19158E+01-8.88501E-03-9.01832E-03-1.74287E+00 1.05454E-13-1.81483E-13
 -1      2395 2.35158E+01-5.52661E-01-1.84028E-02-1.18881E+00 2.82240E-15 1.32699E-13
 -1      2396 2.32041E+01-3.46347E-01 7.16933E-03-1.37490E+00 7.16090E-14 9.16307E-14
 -1      2397 2.24785E+01-3.79641E-01-1.29070E-02-1.70709E+00 3.66287E-14-7.16235E-14
 -1      2398 2.42033E+01-1.01222E+00-2.89022E-02-5.57204E-01 7.52870E-16 1.58114E-13
 -1      2399 2.39615E+01-7.70560E-01 9.53493E-03-9.24187E-01-1.75398E-14 1.64670E-13
 -1      2400 2.32233E+01-9.22808E-01-1.69835E-02-1.37549E+00-6.44363E-15 3.46372E-14
 -1      2401 2.48338E+01-1.36615E+00-3.48631E-02 4.70333E-01-2.61405E-14 2.05643E-13
 -1      2402 2.47341E+01-1.21840E+00 7.04923E-03-5.99586E-02-5.28050E-15 1.92110E-13
 -1      2403 2.41616E+01-1.53966E+00-1.89962E-02-6.21752E-01-3.45743E-14 1.09742E-13
 -1      2404 2.52271E+01-1.19067E+00-2.48287E-02 1.70376E+00 2.19548E-14 2.34230E-13
 -1      2405 2.53338E+01-1.38083E+00-9.70190E-03 1.16647E+00-1.36341E-14 2.49221E-13
 -1      2406 2.51916E+01-1.89103E+00-1.79631E-02 5.97885E-01-5.36329E-14 2.30558E-13
 -1      2407 2.51633E+01-7.41899E-02 1.07151E-02 2.47462E+00 2.21587E-13 1.86255E-13
 -1      2408 2.54220E+01-7.46275E-01-4.54690E-02 2.29994E+00 9.67160E-14 2.50893E-13
 -1      2409 2.59365E+01-1.34816E+00-3.30559E-02 2.04887E+00 6.27796E-14 3.26000E-13
 -1      2410 2.46591E+01 1.52723E+00 4.71483E-04 2.01321E+00 4.20497E-13 3.47864E-14
 -1      2411 2.49406E+01 6.75754E-01-8.68153E-02 2.44808E+00 3.32685E-13 1.60940E-13
 -1      2412 2.60812E+01 4.50832E-01-4.15412E-02 2.87160E+00 3.12382E-13 2.53717E-13
 -1      2413 2.42756E+01 2.45259E+00-4.66972E-02 1.45115E-01 5.25739E-13-3.09991E-13
 -1      2414 2.43853E+01 2.19384E+00-6.18728E-02 1.10706E+00 5.09440E-13-1.31384E-13
 -1      2415 2.57829E+01 2.49575E+00-5.83554E-02 1.80093E+00 6.10137E-13 5.29056E-14
 -1      2416 2.45903E+01 1.71491E+00-8.33266E-02-1.90664E+00 4.98331E-13-6.51129E-13
 -1      2417 2.43869E+01 2.28497E+00-2.02533E-02-1.09253E+00 5.50893E-13-5.24436E-13
 -1      2418 2.55540E+01 3.20958E+00-8.95619E-02-5.64418E-01 6.89782E-13-4.53138E-13
 -1      2419 2.52837E+01 6.47263E-02-7.02944E-02-2.69481E+00 1.18974E-13-8.00954E-13
 -1      2420 2.49250E+01 9.15050E-01-3.43168E-04-2.51626E+00 3.13083E-13-7.31675E-13
 -1      2421 2.59300E+01 1.76838E+00-4.45651E-02-2.54817E+00 4.34347E-13-8.20930E-13
 -1      2422 2.56521E+01-1.09893E+00-7.94906E-03-2.06260E+00-2.49517E-13-7.69450E-13
 -1      2423 2.53588E+01-6.27643E-01-7.16897E-03-2.41810E+00-5.72840E-14-8.03926E-13
 -1      2424 2.61985E+01-3.69963E-01-1.62517E-02-2.81446E+00-4.11476E-15-8.94656E-13
 -1      2425 2.53176E+01-1.34174E+00 5.67891E-03-8.10513E-01-3.02234E-13-5.47519E-13
 -1      2426 2.52707E+01-1.32599E+00-2.32065E-02-1.32845E+00-2.89558E-13-6.25614E-13
 -1      2427 2.58773E+01-1.66858E+00-2.92951E-02-1.72811E+00-3.74801E-13-9.10419E-13
 -1      2428 2.46841E+01-1.04362E+00 1.25193E-02 2.92208E-01-2.15011E-13-4.54972E-13
 -1      2429 2.48127E+01-1.25211E+00-3.20429E-02-1.65418E-01-2.19375E-13-4.19167E-13
 -1      2430 2.49057E+01-1.81250E+00-3.46054E-02-2.75902E-01-3.35991E-13-4.89296E-13
 -1      2431 2.39423E+01-5.86371E-01 8.61136E-03 9.91778E-01 4.13172E-14-3.77947E-13
 -1      2432 2.41858E+01-8.19182E-01-2.52208E-02 7.09126E-01-1.23078E-13-4.82096E-13
 -1      2433 2.39598E+01-1.30623E+00-2.17819E-02 8.05062E-01-1.42314E-13-4.98622E-13
 -1      2434 2.32519E+01-2.12145E-01 4.98685E-03 1.30557E+00 1.04642E-13-2.78918E-13
 -1      2435 2.35487E+01-3.84718E-01-1.42312E-02 1.18358E+00 1.45666E-13-2.86982E-13
 -1      2436 2.31157E+01-6.87240E-01-1.72513E-02 1.38102E+00 1.98218E-14-4.59699E-13
 -1      2437 2.26515E+01 2.27744E-02 2.40565E-03 1.35618E+00-1.17516E-13-2.57930E-13
 -1      2438 2.29572E+01-7.87923E-02-5.06201E-03 1.34375E+00 3.71326E-14-2.56161E-13
 -1      2439 2.24661E+01-2.13909E-01-1.08287E-02 1.58555E+00 5.16883E-14-1.77465E-13
 -1      2440 2.21399E+01 1.42377E-01 1.08807E-03 1.25800E+00-1.26383E-13-3.41164E-13
 -1      2441 2.24284E+01 9.45602E-02 9.02552E-04 1.30677E+00-1.93401E-13-3.22773E-13
 -1      2442 2.19703E+01 7.33786E-02-6.11571E-03 1.55792E+00-1.08273E-13-2.98854E-13
 -1      2443 2.17073E+01 1.86730E-01 5.97323E-04 1.09225E+00-6.22878E-14-3.72021E-13
 -1      2444 2.19650E+01 1.72205E-01 4.18398E-03 1.16778E+00-1.55813E-14-3.33441E-13
 -1      2445 2.15814E+01 2.14228E-01-3.43452E-03 1.40731E+00-3.78126E-14-3.56829E-13
 -1      2446 2.13446E+01 1.89037E-01 4.95289E-04 9.08326E-01 4.68007E-14-2.78732E-13
 -1      2447 2.15658E+01 1.92307E-01 5.58365E-03 9.89817E-01-7.84698E-14-3.71141E-13
 -1      2448 2.12665E+01 2.61910E-01-2.15946E-03 1.20609E+00-6.40910E-14-3.44463E-13
 -1      2449 2.10439E+01 1.71192E-01 5.23928E-04 7.32705E-01 9.99738E-14-1.83275E-13
 -1      2450 2.12280E+01 1.82493E-01 5.81784E-03 8.09248E-01 7.99760E-14-2.33631E-13
 -1      2451 2.10063E+01 2.58511E-01-1.64029E-03 9.96922E-01 9.42801E-15-3.63784E-13
 -1      2452 2.07982E+01 1.45869E-01 5.64474E-04 5.77462E-01-2.62889E-14-7.35354E-14
 -1      2453 2.09477E+01 1.59722E-01 5.41750E-03 6.44313E-01 7.01468E-14-3.85879E-14
 -1      2454 2.07903E+01 2.31234E-01-1.44709E-03 8.02251E-01 1.92047E-14-2.09350E-13
 -1      2455 2.06005E+01 1.19681E-01 5.76975E-04 4.46468E-01-1.23894E-14 6.81262E-14
 -1      2456 2.07194E+01 1.33317E-01 4.73054E-03 5.02330E-01-7.00297E-15-6.57828E-14
 -1      2457 2.06120E+01 1.95650E-01-1.35406E-03 6.31987E-01-1.62668E-14-1.08846E-13
 -1      2458 2.04438E+01 9.56876E-02 5.56837E-04 3.39314E-01 2.38074E-13-9.52020E-15
 -1      2459 2.05366E+01 1.07886E-01 3.96316E-03 3.84630E-01 2.02440E-13 7.30256E-14
 -1      2460 2.04665E+01 1.59801E-01-1.26574E-03 4.88871E-01 6.76932E-14-5.92733E-14
 -1      2461 2.03216E+01 7.50319E-02 5.12042E-04 2.53627E-01 6.36136E-14-8.98304E-14
 -1      2462 2.03929E+01 8.53898E-02 3.22538E-03 2.89598E-01 1.17205E-13 1.16430E-14
 -1      2463 2.03495E+01 1.27347E-01-1.15470E-03 3.71880E-01 1.69033E-13 1.56610E-13
 -1      2464 2.02278E+01 5.78955E-02 4.52921E-04 1.86331E-01 1.32293E-14-1.95368E-14
 -1      2465 2.02816E+01 6.64119E-02 2.56802E-03 2.14390E-01 8.05438E-14-3.53339E-14
 -1      2466 2.02570E+01 9.95884E-02-1.02266E-03 2.78249E-01 2.68009E-14 9.23089E-14
 -1      2467 2.01571E+01 4.40240E-02 3.88292E-04 1.34298E-01 1.86446E-13-1.14692E-13
 -1      2468 2.01970E+01 5.08727E-02 2.00829E-03 1.55853E-01 1.04294E-13-5.44278E-14
 -1      2469 2.01849E+01 7.66542E-02-8.80389E-04 2.04609E-01 1.22943E-13 2.61883E-13
 -1      2470 2.01047E+01 3.29974E-02 3.24457E-04 9.46504E-02 7.37455E-14-2.69160E-13
 -1      2471 2.01337E+01 3.84122E-02 1.54580E-03 1.10971E-01 1.42468E-13-2.67275E-13
 -1      2472 2.01298E+01 5.81449E-02-7.38868E-04 1.47582E-01 1.98483E-13 5.55417E-14
 -1      2473 2.00666E+01 2.43627E-02 2.65351E-04 6.48786E-02-3.48717E-14-1.93602E-13
 -1      2474 2.00873E+01 2.85823E-02 1.17192E-03 7.70545E-02-1.40053E-14-2.36595E-13
 -1      2475 2.00884E+01 4.34684E-02-6.06242E-04 1.04063E-01 7.66369E-14-2.68732E-13
 -1      2476 2.00396E+01 1.76930E-02 2.13052E-04 4.28633E-02-1.70707E-13-2.83803E-14
 -1      2477 2.00539E+01 2.09367E-02 8.74875E-04 5.18056E-02-4.55507E-14-7.45116E-14
 -1      2478 2.00579E+01 3.20022E-02-4.87406E-04 7.13392E-02-8.78729E-14-5.00031E-14
 -1      2479 2.00210E+01 1.26099E-02 1.68308E-04 2.68552E-02-1.05345E-13-5.33782E-14
 -1      2480 2.00306E+01 1.50697E-02 6.42375E-04 3.33092E-02-1.71412E-13 1.55931E-14
 -1      2481 2.00360E+01 2.31658E-02-3.84558E-04 4.71131E-02-9.45055E-14-7.65252E-14
 -1      2482 2.00086E+01 8.78955E-03 1.30985E-04 1.54357E-02-2.24106E-13-1.63381E-14
 -1      2483 2.00148E+01 1.06285E-02 4.62916E-04 2.00010E-02-1.00018E-13 3.37038E-14
 -1      2484 2.00206E+01 1.64477E-02-2.97977E-04 2.94803E-02-1.80848E-13 1.95108E-13
 -1      2485 2.00009E+01 5.95936E-03 1.00385E-04 7.47249E-03-1.57727E-13 1.52263E-13
 -1      2486 2.00045E+01 7.31394E-03 3.26289E-04 1.06244E-02-2.49773E-13 9.47830E-15
 -1      2487 2.00102E+01 1.14111E-02-2.26727E-04 1.68923E-02-1.93703E-13 6.04265E-14
 -1      2488 1.99965E+01 3.89229E-03 7.54590E-05 2.07675E-03-2.03140E-13 3.90328E-13
 -1      2489 1.99983E+01 4.87596E-03 2.23728E-04 4.18525E-03-1.18638E-13 2.53737E-13
 -1      2490 2.00034E+01 7.68871E-03-1.69198E-04 8.11063E-03-2.06706E-13 6.46870E-14
 -1      2491 1.99943E+01 2.39949E-03 5.49490E-05-1.43549E-03-5.11332E-14 6.20152E-14
 -1      2492 1.99950E+01 3.10650E-03 1.47874E-04-8.83385E-05-6.54893E-14 2.66515E-13
 -1      2493 1.99993E+01 4.97480E-03-1.23498E-04 2.16237E-03-2.02067E-14 1.66432E-13
 -1      2494 1.99937E+01 1.32311E-03 3.75340E-05-3.57599E-03 2.18119E-13-7.52668E-16
 -1      2495 1.99936E+01 1.83226E-03 9.26454E-05-2.78213E-03 1.89457E-14 8.62473E-14
 -1      2496 1.99972E+01 3.01477E-03-8.76746E-05-1.70062E-03 1.57471E-14-8.59197E-14
 -1      2497 1.99941E+01 5.28862E-04 2.18501E-05-4.71207E-03 1.87964E-13 1.20592E-13
 -1      2498 1.99935E+01 9.07657E-04 5.31093E-05-4.32585E-03 1.44120E-13 8.40167E-14
 -1      2499 1.99963E+01 1.59570E-03-5.99157E-05-4.03697E-03 1.25565E-13 1.09410E-13
 -1      2500 1.99951E+01-1.01274E-04 7.88907E-06-5.08774E-03 6.55964E-14 1.92730E-13
 -1      2501 1.99943E+01 2.06154E-04 2.53688E-05-5.01827E-03 6.62342E-14 2.25945E-13
 -1      2502 1.99963E+01 5.35356E-04-3.88458E-05-5.24755E-03 2.58444E-14 4.06026E-13
 -1      2503 1.99964E+01-6.78955E-04-4.91303E-06-4.84363E-03 2.07861E-13 4.95036E-13
 -1      2504 1.99955E+01-3.92051E-04 4.98909E-06-5.04920E-03 2.58036E-13 5.12995E-13
 -1      2505 1.99967E+01-3.18179E-04-2.13433E-05-5.60191E-03-2.93155E-15 2.89744E-13
 -1      2506 1.99977E+01-1.27199E-03-1.81853E-05-4.04591E-03-1.91837E-13 7.04768E-13
 -1      2507 1.99968E+01-9.62480E-04-3.19108E-06-4.49897E-03 5.54053E-14 7.25751E-13
 -1      2508 1.99975E+01-1.13898E-03-7.70048E-06-5.26796E-03 1.33016E-14 8.39468E-13
 -1      2509 1.99982E+01-1.56646E-03-7.67437E-06-3.38683E-03 2.51609E-15 5.51266E-13
 -1      2510 2.00012E+01-5.49147E-03 1.35159E-05-3.36773E-03 1.14580E-13-3.71223E-13
 -1      2511 2.00010E+01-5.00072E-03 9.25883E-06-3.82063E-03 1.33809E-13-5.45055E-13
 -1      2512 2.00014E+01-6.00688E-03 1.41577E-05-2.22329E-03 2.75397E-13-1.03141E-13
 -1      2513 2.00013E+01-5.66522E-03 1.53497E-05-2.78582E-03 1.45766E-13-2.24757E-13
 -1      2514 2.00017E+01-4.10709E-03-5.58803E-06-3.33799E-03 2.48531E-13-2.32434E-13
 -1      2515 2.00000E+01-3.75928E-03 1.44174E-05-4.72912E-03 6.92012E-14 1.69459E-13
 -1      2516 1.99995E+01-3.07659E-03-1.85522E-05-4.73935E-03 3.21709E-14 2.57790E-13
 -1      2517 2.00007E+01-4.73050E-03 1.31985E-05-4.25628E-03-1.47681E-13-3.33763E-13
 -1      2518 2.00004E+01-4.13280E-03-4.95962E-07-4.52136E-03-1.78828E-13 1.07481E-13
 -1      2519 2.00003E+01-3.08839E-03-7.11493E-06-5.07302E-03-1.44563E-13-2.79858E-14
 -1      2520 2.00012E+01-3.69019E-03-6.61038E-06-4.39989E-03 5.44844E-14-2.29079E-13
 -1      2521 2.00016E+01-6.26794E-03 1.55837E-05-9.49104E-04 5.23691E-14 2.18948E-13
 -1      2522 2.00015E+01-6.09679E-03 1.80459E-05-1.56504E-03 1.15059E-13-8.59493E-14
 -1      2523 2.00020E+01-4.35789E-03-3.94884E-06-2.04717E-03 2.17404E-13-2.03523E-13
 -1      2524 2.00016E+01-6.27989E-03 1.70026E-05 3.66619E-04 1.60025E-13-7.31794E-14
 -1      2525 2.00016E+01-6.28861E-03 1.78145E-05-2.62003E-04-1.60786E-14 2.66120E-13
 -1      2526 2.00021E+01-4.46422E-03-2.66844E-06-6.50445E-04 1.82423E-13 1.52072E-13
 -1      2527 2.00015E+01-6.05155E-03 1.72760E-05 1.65548E-03 3.16963E-14-4.82364E-13
 -1      2528 2.00015E+01-6.23856E-03 1.59765E-05 1.04830E-03 7.08183E-14-3.76674E-13
 -1      2529 2.00021E+01-4.44445E-03-2.44829E-06 7.69125E-04 1.88093E-13-3.37775E-13
 -1      2530 2.00013E+01-5.60096E-03 1.46275E-05 2.82725E-03 1.02214E-13-5.03716E-13
 -1      2531 2.00014E+01-5.94786E-03 1.40080E-05 2.28874E-03 4.44346E-14-5.46534E-13
 -1      2532 2.00020E+01-4.30391E-03-3.22054E-06 2.13288E-03 2.02931E-13-5.14979E-13
 -1      2533 2.00009E+01-4.92474E-03 8.05178E-06 3.82750E-03 2.20551E-13-6.92283E-14
 -1      2534 2.00011E+01-5.41838E-03 1.29289E-05 3.39079E-03 2.26348E-13-5.07324E-13
 -1      2535 2.00017E+01-4.03140E-03-4.55536E-06 3.37723E-03 3.42940E-13-4.38300E-13
 -1      2536 2.00004E+01-4.05136E-03-4.04238E-06 4.49899E-03 4.51384E-14 2.78581E-13
 -1      2537 2.00007E+01-4.64860E-03 1.33567E-05 4.24550E-03 3.12296E-14 3.38629E-13
 -1      2538 2.00011E+01-3.59404E-03-1.83944E-06 4.40728E-03 2.07994E-13-1.39592E-13
 -1      2539 1.99995E+01-3.00108E-03-1.43638E-05 4.66536E-03-3.44617E-13 1.54123E-13
 -1      2540 2.00000E+01-3.67122E-03 9.94901E-06 4.69055E-03-1.96216E-13 1.09194E-13
 -1      2541 2.00003E+01-2.99140E-03-5.10179E-06 5.03221E-03-3.58438E-14 6.21720E-14
 -1      2542 1.82954E+01-5.68872E+00-3.04219E-02 6.47317E+00-5.74540E-14 5.24556E-13
 -1      2543 1.43945E+01-5.53492E+00 3.70522E-02 6.47752E+00-2.01450E-13 5.62467E-13
 -1      2544 1.99987E+01-2.28893E-03-2.43412E-06 3.92454E-03-1.89135E-13 4.31598E-13
 -1      2545 3.30611E+00-2.76488E+00 7.60426E-02-1.52258E+00 2.55504E-13 1.48442E-12
 -1      2546 4.86088E+00-3.10803E+00 7.88918E-02-4.09545E+00 2.22850E-13 1.38228E-12
 -1      2547 2.11184E+01 3.22684E-01 9.39757E-03-8.06313E-01 2.35446E-13 1.32264E-13
 -1      2548 2.10003E+01 3.63412E-01 1.27641E-02-6.43604E-01 2.90987E-13 1.91203E-13
 -1      2549 2.09978E+01 4.31749E-01-6.11707E-03-9.94722E-01 2.92595E-13-8.19700E-14
 -1      2550 4.51349E+00-2.88317E+00 8.27114E-02 3.06830E+00 5.05151E-14 1.06593E-12
 -1      2551 3.50800E+00-2.54979E+00 9.64769E-02 9.52461E-01 5.39881E-14 1.34115E-12
 -1      2552 1.35741E+01-5.12763E+00 5.67145E-02-6.92788E+00 4.80199E-13 5.04694E-13
 -1      2553 1.71204E+01-5.28972E+00-2.96654E-03-7.02379E+00 3.17635E-13 2.50445E-13
 -1      2554 2.53865E+01-5.08699E+00-1.09772E-01 4.11705E+00 3.84415E-14-3.76643E-14
 -1      2555 2.19907E+01-5.65080E+00 2.09836E-02 5.20015E+00-4.68792E-14 2.31398E-13
 -1      2556 1.02398E+01-4.67822E+00 1.92259E-02 6.36598E+00-1.65035E-13 7.23088E-13
 -1      2557 6.63752E+00-3.96500E+00 6.35314E-02 4.80955E+00-1.94594E-13 9.76608E-13
 -1      2558 3.18696E+01 4.89923E+00-1.30917E-01 8.71181E-01-1.03412E-12-5.64965E-13
 -1      2559 3.27031E+01 6.53407E+00-1.23167E-01 7.67450E-01-1.20326E-12-5.08871E-13
 -1      2560 2.56226E+01-4.22552E+00-2.11690E-02 4.57692E+00-5.05707E-13-2.09582E-13
 -1      2561 2.23057E+01-5.23023E+00 3.69624E-03 5.47262E+00-2.47163E-13-3.33580E-13
 -1      2562 1.20058E+01-4.64057E+00 4.40628E-02 6.97826E+00 1.39500E-13-1.05474E-12
 -1      2563 8.18672E+00-4.39580E+00 4.07015E-02 5.98080E+00 1.00225E-13-1.39883E-12
 -1      2564 1.88423E+01 3.99665E+00-9.84078E-03-5.87169E-02 2.87355E-14-9.69229E-13
 -1      2565 1.89215E+01 3.95669E+00-6.37549E-03-1.71914E-01-5.09747E-14-9.63658E-13
 -1      2566 1.90849E+01 3.60227E+00 9.44250E-04-1.53818E-01-8.12176E-14-9.00986E-13
 -1      2567 1.89168E+01 3.73220E+00 1.33028E-03 1.11748E-02 4.57593E-14-9.20877E-13
 -1      2568 3.29739E+01 3.91532E+00-7.21935E-02 1.32359E+00 1.16535E-12 2.83440E-13
 -1      2569 3.39857E+01 5.52933E+00-8.50410E-02 1.07244E+00 1.42830E-12 2.24876E-13
 -1      2570 3.45260E+01 6.97287E+00-4.15370E-02-6.88683E-01 1.40155E-12-1.26371E-13
 -1      2571 3.37110E+01 5.99046E+00-1.03357E-01-1.09640E+00 1.29519E-12-2.75946E-13
 -1      2572 3.38621E+01 6.86877E+00-1.03540E-01 5.18876E-01 1.59306E-12 2.48412E-14
 -1      2573 3.41011E+01 7.24567E+00-8.54866E-02-8.51199E-02 1.55026E-12-3.23977E-14
 -1      2574 3.09865E+01-1.16780E+00-4.38211E-02-4.00672E-01 6.37487E-13 2.51688E-13
 -1      2575 3.23229E+01 1.00814E+00-1.91244E-01 5.40138E-01 9.14935E-13 3.61933E-13
 -1      2576 2.60535E+01-4.57716E+00-2.81724E-02-3.80233E+00 1.15824E-13-1.83936E-13
 -1      2577 2.88887E+01-3.31684E+00-1.43083E-01-2.45861E+00 3.24921E-13 4.71845E-14
 -1      2578 1.92674E+01-5.83145E+00 1.95862E-02-6.09146E+00-2.02616E-13-5.60836E-13
 -1      2579 2.31101E+01-5.37339E+00-4.99343E-02-5.48507E+00 2.78666E-14-3.64542E-13
 -1      2580 2.54789E+01-5.28102E+00 9.13351E-02-3.89005E+00-2.70034E-13-2.02061E-14
 -1      2581 1.08352E+01-5.08595E+00 4.79475E-02-6.32902E+00-3.72480E-13-1.17403E-12
 -1      2582 1.47276E+01-5.44187E+00-2.57109E-02-6.96951E+00-2.61180E-13-9.02528E-13
 -1      2583 4.40523E+00-3.94563E+00 2.62950E-02-3.59240E+00-2.63706E-13-1.61932E-12
 -1      2584 6.93465E+00-4.28178E+00 1.05549E-02-5.44486E+00-2.00673E-13-1.41015E-12
 -1      2585 3.13349E+00-2.73626E+00 8.69455E-02 4.79159E-01-1.53225E-13-1.70641E-12
 -1      2586 3.38369E+00-3.19199E+00 7.61774E-02-1.83273E+00-8.49598E-14-1.77230E-12
 -1      2587 5.76288E+00-3.67969E+00 5.20141E-02 4.94963E+00-1.42664E-14-1.57530E-12
 -1      2588 4.03887E+00-3.14397E+00 8.00767E-02 3.03428E+00 6.91114E-15-1.61332E-12
 -1      2589 8.87224E+00-3.08126E+00 1.50702E-01 5.50740E+00 3.09558E-13-1.37146E-12
 -1      2590 2.00042E+01-5.37988E+00 5.37342E-02 6.53990E+00-1.53377E-13-5.70030E-13
 -1      2591 1.69902E+01-5.39879E+00 5.19871E-02 6.85226E+00 4.27991E-14-6.63126E-13
 -1      2592 2.27405E+01-5.41946E+00 4.69587E-02 5.22822E+00 1.27842E-13-1.25400E-13
 -1      2593 3.25824E+01 7.48589E+00-1.25947E-01 3.69809E-01-1.32822E-12-3.78364E-13
 -1      2594 3.23957E+01 7.61239E+00-1.43889E-01-4.75785E-02-1.38078E-12-2.92932E-13
 -1      2595 3.19607E+01 3.90096E+00-9.92501E-02-7.44469E-01-1.20201E-12-1.79301E-14
 -1      2596 3.10105E+01 2.16718E+00-1.33801E-01-5.54915E-01-1.03778E-12 9.24261E-15
 -1      2597 2.05883E+01-5.32642E+00 2.78132E-02-5.95824E+00 2.30954E-13 3.88162E-14
 -1      2598 2.38330E+01-4.82648E+00-9.17144E-02-5.10334E+00 8.80407E-14-2.27734E-13
 -1      2599 3.25857E+01 6.98933E+00-1.25911E-01-5.84496E-01-1.38289E-12-1.43885E-13
 -1      2600 3.21328E+01 5.68785E+00-1.36031E-01-7.99238E-01-1.33482E-12-1.26177E-13
 -1      2601 3.02705E+01 4.53005E+00-7.32752E-02-1.53073E+00-1.13520E-12 1.21764E-13
 -1      2602 3.04990E+01 8.47891E-01-6.32727E-02 2.47574E-01-5.66394E-13-5.74540E-13
 -1      2603 3.14652E+01 2.57454E+00-1.35519E-01 6.17688E-01-7.83651E-13-5.60968E-13
 -1      2604 2.69459E+01-3.47126E+00 1.65759E-02-3.00239E+00-3.19328E-14-3.52468E-13
 -1      2605 2.94022E+01-1.71000E+00-1.37992E-01-1.48020E+00-2.70906E-13-5.50643E-13
 -1      2606 7.29076E+00-4.01988E+00 7.08468E-02-5.64478E+00 4.58855E-13 1.05316E-12
 -1      2607 9.99983E+00-4.42781E+00 3.67495E-02-6.76348E+00 4.34264E-13 7.70217E-13
 -1      2608 2.09996E+01 1.98009E+00-1.11648E-02-1.44466E+00-6.89152E-13-2.70024E-13
 -1      2609 2.09528E+01 1.25350E+00-5.47483E-03-8.16471E-01-6.15493E-13-2.06591E-13
 -1      2610 2.08367E+01 1.44296E+00 2.89150E-03-7.02296E-01-5.69004E-13-3.26038E-13
 -1      2611 2.06498E+01 2.43190E+00-6.04567E-03-1.35697E+00-6.64182E-13-4.48067E-13
 -1      2612 2.11996E+01 9.28460E-01-2.09483E-03 7.38808E-01 6.72724E-13 4.63353E-13
 -1      2613 2.14452E+01 1.28517E+00-4.32249E-03 1.26599E+00 7.29687E-13 5.65978E-13
 -1      2614 2.12025E+01 1.75434E+00-1.53718E-02 1.41785E+00 7.83890E-13 3.01686E-13
 -1      2615 2.10724E+01 1.15784E+00-9.70889E-03 6.48810E-01 6.84865E-13 1.69167E-13
 -1      2616 3.05423E+01-1.86597E+00-1.41348E-01 3.96867E-01 4.16052E-13-5.28771E-13
 -1      2617 2.84454E+01-3.64377E+00 7.79598E-04 1.82064E+00 1.36585E-13-3.09169E-13
 -1      2618 3.15853E+01 5.76844E+00-4.73867E-02 1.27948E+00 1.35225E-12 1.13576E-13
 -1      2619 1.97494E+01 3.06324E+00 2.53272E-03-5.88630E-01-3.73644E-13-8.33414E-13
 -1      2620 1.97015E+01 3.34306E+00-1.63683E-02-7.99999E-01-4.05553E-13-8.78473E-13
 -1      2621 1.99256E+01 3.19030E+00-1.42875E-02-9.80950E-01-5.08540E-13-8.15175E-13
 -1      2622 2.09154E+01 5.56874E-01-5.70111E-03-5.65948E-01 3.89153E-13 1.75970E-14
 -1      2623 2.08768E+01 2.19182E+00-1.31484E-02 1.33695E+00 7.65673E-13-9.08475E-15
 -1      2624 3.10501E+01-7.55797E-01-4.17710E-02-8.58480E-01 5.07636E-13-6.82676E-13
 -1      2625 2.95356E+01-2.15510E+00-1.01750E-02-8.39411E-01 9.58712E-14-8.65585E-13
 -1      2626 3.03328E+01 2.35879E-01-2.49290E-01-1.98148E+00 5.00572E-13-8.15792E-13
 -1      2627 2.58420E+01-4.43013E+00 4.15585E-02-3.32687E+00 2.12802E-13-4.31433E-13
 -1      2628 3.25790E+01 4.38097E+00-1.05197E-01-1.75365E+00 1.03201E-12-5.17031E-13
 -1      2629 3.09367E+01 2.98600E+00-4.73591E-02-2.30268E+00 7.72271E-13-7.43627E-13
 -1      2630 3.06677E+01 4.87674E+00-1.72767E-01-2.03096E+00 1.02487E-12-6.14453E-13
 -1      2631 3.02819E+01 6.98560E+00-7.04075E-02-5.26258E-01-1.27576E-12-2.04725E-13
 -1      2632 1.99535E+01-5.29419E+00 9.10096E-02-6.11765E+00 5.71654E-13-4.07521E-14
 -1      2633 7.56816E+00-2.56305E+00 1.54297E-01-4.74510E+00 4.63615E-13 1.06246E-12
 -1      2634 3.00717E+01 3.53647E+00-6.52858E-02 1.67954E+00-7.90423E-13-6.34937E-13
 -1      2635 1.99984E+01-1.91554E-03-1.31768E-05-4.24418E-03-6.02933E-14 6.63995E-13
 -1      2636 1.99988E+01-2.41552E-03 7.74096E-06-4.54469E-03 8.08457E-14 5.88933E-13
 -1      2637 1.37898E+01-4.56964E+00 1.14255E-01 6.29103E+00-3.67484E-13 5.40387E-13
 -1      2638 2.11907E+01-5.65027E+00 9.27315E-02 5.40319E+00-3.08781E-13 1.44343E-13
 -1      2639 1.99982E+01-1.58362E-03-1.89296E-05 4.37965E-03-1.39041E-13 5.17769E-13
 -1      2640 1.99990E+01-2.51586E-03 4.88427E-07 4.71099E-03-2.74010E-13 5.94061E-13
 -1      2641 1.99992E+01-2.14116E-03 4.18889E-06 5.20458E-03-3.66398E-13 4.18494E-13
 -1      2642 1.99976E+01-1.27061E-03-6.11952E-06 4.85418E-03-1.82130E-13 6.48453E-13
 -1      2643 5.28627E+00-1.86747E+00 1.48360E-01 1.75124E+00 1.32880E-14-1.62981E-12
 -1      2644 5.46066E+00-1.42524E+00 1.84586E-01-3.70172E-01 1.82923E-13 1.30768E-12
 -1      2645 2.08300E+01 1.94881E+00 1.15154E-02 9.69538E-01 7.12092E-13-8.42399E-14
 -1      2646 7.69113E+00-2.36772E+00 1.66631E-01 4.00436E+00-2.58848E-13 9.13353E-13
 -1      2647 5.78672E+00-2.26849E+00 1.39517E-01-2.83756E+00-2.70284E-13-1.59500E-12
 -1      2648 1.84696E+01-5.47747E+00 9.27228E-02-6.19979E+00-5.33795E-13-5.12888E-13
 -1      2649 2.03666E+01 2.69911E+00-1.27091E-02-1.18294E+00-5.79177E-13-6.16333E-13
 -1      2650 3.02292E+01 6.65190E+00-6.39406E-02 9.35157E-01-1.16762E-12-5.38819E-13
 -1      2651 2.99451E+01-2.74546E+00 8.46274E-02-4.16633E-01 2.59112E-13 3.85109E-13
 -1      2652 1.85431E+01-5.12829E+00-2.32220E-02 6.32247E+00 4.58286E-13-3.87995E-13
 -1      2653 1.55634E+01-4.96591E+00 1.08013E-01 6.90042E+00 2.66509E-13-7.57353E-13
 -1      2654 1.41323E+01-3.97703E+00 1.35707E-01 6.65266E+00 4.79672E-13-7.67039E-13
 -1      2655 2.73949E+01-3.72820E+00-1.56932E-02 2.57745E+00-2.99857E-13 1.08163E-13
 -1      2656 2.72017E+01-4.57945E+00 5.05123E-02 2.25362E+00-1.54876E-13-4.88998E-13
 -1      2657 1.33213E+01-4.34182E+00 1.17208E-01-6.75906E+00 6.84786E-13 4.65267E-13
 -1      2658 3.17530E+01 6.74562E+00-5.55271E-02-5.30066E-01 1.39622E-12-2.91576E-13
 -1      2659 3.04850E+01 5.90363E-01-8.21420E-02-3.65731E-01-8.20663E-13 9.29812E-14
 -1      2660 2.92692E+01-8.07207E-01-2.70456E-02-1.56938E-01-5.66165E-13 2.52492E-13
 -1      2661 2.93595E+01 1.28058E+00-1.02997E-01-1.48122E+00-7.33691E-13 3.98681E-13
 -1      2662 3.14336E+01 2.07485E+00 1.52495E-03 1.99601E+00 8.71442E-13 4.95687E-13
 -1      2663 1.05637E+01-3.87322E+00 1.36138E-01-5.91953E+00-4.66099E-13-1.17131E-12
 -1      2664 2.91803E+01-1.01909E+00-4.23506E-02 1.01201E-01-2.33182E-13-6.63913E-13
 -1      2665 1.99989E+01-2.13094E-03-8.11919E-06-5.15009E-03-7.22480E-14 4.78346E-13
 -1      2666 1.99983E+01-1.38338E-03-1.35408E-05 5.39551E-03-1.76494E-13 6.37735E-13
 -1      2667 1.90523E+01 3.38100E+00-5.56767E-03 2.49311E-01 3.18353E-13-7.93782E-13
 -1      2668 1.89615E+01 3.44334E+00-6.15493E-03 1.91552E-01 2.53895E-13-8.14053E-13
 -1      2669 1.89082E+01 3.48164E+00-6.03303E-03 1.73015E-01 2.08893E-13-8.37135E-13
 -1      2670 1.88945E+01 3.49203E+00-4.50979E-03 1.14298E-01 1.29491E-13-8.47985E-13
 -1      2671 1.89895E+01 3.21375E+00 6.46296E-03 1.49144E-01 2.14702E-13-7.80573E-13
 -1      2672 1.97805E+01 2.76895E+00-7.75943E-03 4.45174E-01 5.59717E-13-5.80603E-13
 -1      2673 1.95498E+01 2.96407E+00-9.33177E-03 3.67456E-01 4.94511E-13-6.32082E-13
 -1      2674 2.03127E+01 2.21987E+00-9.05430E-03 5.56189E-01 6.40077E-13-4.05647E-13
 -1      2675 2.00379E+01 2.51196E+00-8.26242E-03 4.83640E-01 5.89950E-13-5.04288E-13
 -1      2676 1.99773E+01 2.35585E+00 7.36620E-03 2.43407E-01 5.30411E-13-4.95925E-13
 -1      2677 2.08060E+01 9.81854E-01 1.37655E-03-1.49360E-01 5.08390E-13-1.00569E-13
 -1      2678 2.08617E+01 1.16736E+00 8.63348E-03 1.87269E-01 5.74697E-13-6.63149E-14
 -1      2679 1.02723E+01-2.18975E+00 1.05116E-01 4.97436E+00-2.72810E-13 6.50008E-13
 -1      2680 8.15940E+00-1.09423E+00 1.27221E-01 3.12118E+00-1.26892E-13 7.74186E-13
 -1      2681 2.07915E+01 7.37073E-01 3.35607E-03-6.84996E-01 3.76458E-13-1.45589E-13
 -1      2682 2.07877E+01 8.43122E-01 9.29840E-03-4.31228E-01 4.34899E-13-1.02949E-13
 -1      2683 2.06273E+01 1.16410E+00-1.25647E-03-2.69610E-01 4.97816E-13-2.39412E-13
 -1      2684 2.07602E+01 1.68128E+00-2.30649E-04 6.23294E-01 6.55103E-13-1.35820E-13
 -1      2685 2.44492E+01-4.86134E+00 9.70826E-02-3.66857E+00 4.10026E-13-4.61214E-13
 -1      2686 2.64179E+01-4.19837E+00-1.61263E-01-2.01767E+00 2.34514E-13-5.47118E-13
 -1      2687 2.07274E+01 7.48886E-01 8.94913E-03 2.62304E-01-3.43846E-13-3.47202E-13
 -1      2688 2.07205E+01 5.82107E-01-2.03525E-03 4.55430E-01-3.08217E-13-3.47932E-13
 -1      2689 2.07574E+01 4.41914E-01 8.25463E-03 6.18848E-01-2.76964E-13-2.99391E-13
 -1      2690 2.07922E+01 3.03800E-01-1.41199E-03 7.38427E-01-2.36468E-13-3.28745E-13
 -1      2691 2.06213E+01 6.45368E-01-4.46204E-03 5.58047E-01-2.83000E-13-3.83276E-13
 -1      2692 2.08614E+01 1.75623E-01 7.85291E-03 8.41689E-01-1.92486E-13-2.78782E-13
 -1      2693 2.09377E+01 3.70222E-02-1.97014E-03 8.93766E-01-1.41896E-13-2.54417E-13
 -1      2694 2.07020E+01 3.11512E-01-5.91077E-03 8.43703E-01-2.02653E-13-3.42100E-13
 -1      2695 2.10560E+01-1.00964E-01 8.44966E-03 9.33653E-01-1.08357E-13-2.11936E-13
 -1      2696 2.11688E+01-2.57034E-01-3.70477E-03 9.15184E-01-1.00236E-13-2.17283E-13
 -1      2697 2.08637E+01-2.16696E-02-7.40082E-03 1.00616E+00-1.21925E-13-2.85995E-13
 -1      2698 2.13496E+01-4.13939E-01 9.78208E-03 8.80656E-01-8.51581E-14-1.99327E-13
 -1      2699 2.14904E+01-5.89353E-01-6.47652E-03 7.82799E-01-8.26125E-14-1.88929E-13
 -1      2700 2.11327E+01-3.92858E-01-9.02653E-03 1.03228E+00-9.27116E-14-2.44786E-13
 -1      2701 2.17394E+01-7.56410E-01 1.09837E-02 6.56287E-01-6.96938E-14-1.55312E-13
 -1      2702 2.18928E+01-9.29464E-01-9.85237E-03 4.71101E-01-9.34157E-14-1.50564E-13
 -1      2703 2.15283E+01-8.06070E-01-1.01649E-02 8.93599E-01-4.99883E-14-1.96858E-13
 -1      2704 2.21972E+01-1.07008E+00 1.03653E-02 2.35408E-01-9.41237E-14-6.76902E-14
 -1      2705 2.23359E+01-1.18238E+00-1.15989E-02-3.18562E-02-8.98324E-14-3.39617E-14
 -1      2706 2.20488E+01-1.21011E+00-9.43408E-03 5.52685E-01-5.01550E-14-2.24759E-14
 -1      2707 2.26449E+01-1.22333E+00 6.30131E-03-3.71715E-01-1.09069E-13 3.00216E-14
 -1      2708 2.27312E+01-1.18337E+00-8.46438E-03-6.81254E-01-9.61418E-14 6.53242E-14
 -1      2709 2.26451E+01-1.46967E+00-4.07434E-03-1.53972E-02-5.33204E-14 7.03192E-14
 -1      2710 2.29506E+01-1.03244E+00-4.95706E-03-1.06508E+00-1.09003E-13 1.01356E-13
 -1      2711 2.29519E+01-7.45503E-01 1.35374E-03-1.32558E+00-8.00362E-14 5.95276E-14
 -1      2712 2.31916E+01-1.36298E+00 7.33301E-03-7.56244E-01-1.05673E-13 1.29153E-13
 -1      2713 2.29683E+01-3.39533E-01-2.34856E-02-1.60046E+00-9.26212E-14 4.29661E-14
 -1      2714 2.28861E+01 1.96345E-01 1.33154E-02-1.66781E+00-1.47965E-13-2.74932E-14
 -1      2715 2.34904E+01-6.73506E-01 1.55720E-02-1.48041E+00-1.71065E-13 1.04113E-13
 -1      2716 2.26931E+01 7.72492E-01-3.57017E-02-1.62445E+00-1.52705E-13-1.00326E-13
 -1      2717 2.25799E+01 1.36017E+00 1.66980E-02-1.38445E+00-2.59242E-13-4.38065E-14
 -1      2718 2.34045E+01 5.79583E-01 8.12454E-03-1.78757E+00-1.74829E-13 5.74549E-14
 -1      2719 2.23515E+01 1.83069E+00-2.69695E-02-9.23702E-01-3.75188E-13-8.81222E-14
 -1      2720 2.22916E+01 2.12993E+00 1.98270E-03-4.17066E-01-3.17007E-13-9.40372E-14
 -1      2721 2.30558E+01 1.93315E+00-1.15543E-02-1.30298E+00-3.27951E-13-1.47976E-14
 -1      2722 2.22681E+01 2.18591E+00-2.89259E-03 2.70710E-01-3.47423E-13-2.11497E-13
 -1      2723 2.23013E+01 1.99447E+00-2.63756E-02 8.04917E-01-3.22987E-13-2.89546E-13
 -1      2724 2.28341E+01 2.61211E+00-2.41818E-02-8.47453E-02-4.08007E-13-1.48164E-13
 -1      2725 2.25191E+01 1.60598E+00 1.80052E-02 1.35925E+00-2.78937E-13-3.56052E-13
 -1      2726 2.26376E+01 1.05099E+00-3.37153E-02 1.66841E+00-2.55441E-13-4.32806E-13
 -1      2727 2.29822E+01 2.20758E+00-7.25114E-03 1.22937E+00-3.58030E-13-2.67476E-13
 -1      2728 2.28561E+01 4.75131E-01 1.49347E-02 1.80644E+00-1.36433E-13-4.59732E-13
 -1      2729 2.29636E+01-9.18577E-02-2.71967E-02 1.80554E+00-3.42029E-14-4.65055E-13
 -1      2730 2.33488E+01 9.11688E-01 4.75354E-03 1.89416E+00-1.93496E-13-3.97769E-13
 -1      2731 2.29976E+01-5.43764E-01 2.86483E-03 1.59064E+00-3.60386E-14-4.22667E-13
 -1      2732 2.30260E+01-8.89423E-01-1.01526E-02 1.36832E+00-1.96661E-14-4.08065E-13
 -1      2733 2.35130E+01-4.00818E-01 1.44826E-02 1.75237E+00-1.70404E-14-4.17312E-13
 -1      2734 2.28458E+01-1.09507E+00-8.44289E-03 1.00015E+00-8.78605E-15-3.10945E-13
 -1      2735 2.27859E+01-1.18497E+00 2.98459E-03 6.98084E-01 4.84168E-14-3.29655E-13
 -1      2736 2.32946E+01-1.22035E+00 9.38649E-03 1.09905E+00 1.37969E-14-2.66246E-13
 -1      2737 2.24868E+01-1.18122E+00-1.23401E-02 3.45041E-01 1.12343E-13-3.37343E-13
 -1      2738 2.23641E+01-1.09889E+00 9.21667E-03 6.73127E-02 2.14727E-13-2.46833E-13
 -1      2739 2.27872E+01-1.44674E+00-1.45949E-03 3.48294E-01 5.56965E-14-2.05341E-13
 -1      2740 2.20489E+01-9.80659E-01-1.07683E-02-1.92847E-01 2.10262E-13-2.91317E-13
 -1      2741 2.18996E+01-8.25893E-01 1.02476E-02-3.99318E-01 2.34678E-13-2.80524E-13
 -1      2742 2.21828E+01-1.26370E+00-7.74397E-03-2.62490E-01 1.88525E-13-2.38571E-13
 -1      2743 2.16278E+01-6.74352E-01-7.32835E-03-5.56393E-01 1.90731E-13-3.51173E-13
 -1      2744 2.14787E+01-5.15723E-01 8.59577E-03-6.84375E-01 5.09607E-14-3.29170E-13
 -1      2745 2.16252E+01-9.06085E-01-9.15802E-03-6.63024E-01 1.71884E-13-3.78794E-13
 -1      2746 2.12694E+01-3.78140E-01-4.09146E-03-7.57553E-01-7.44284E-14-3.67643E-13
 -1      2747 2.11343E+01-2.48598E-01 6.15467E-03-8.19022E-01-1.22225E-13-4.33883E-13
 -1      2748 2.11768E+01-5.36154E-01-7.91431E-03-8.74527E-01-5.15513E-14-3.07257E-13
 -1      2749 2.09833E+01-1.43654E-01-1.68127E-03-8.33394E-01-1.20306E-13-4.30932E-13
 -1      2750 2.08665E+01-5.20262E-02 3.90509E-03-8.45964E-01-6.00290E-14-4.78059E-13
 -1      2751 2.08436E+01-2.32332E-01-5.92446E-03-9.46586E-01-9.34659E-14-1.79066E-13
 -1      2752 2.07616E+01 1.82687E-02-5.93160E-05-8.23186E-01 4.36924E-14-4.75333E-13
 -1      2753 2.06628E+01 7.52309E-02 2.17653E-03-8.03685E-01 1.14306E-13-4.15334E-13
 -1      2754 2.06064E+01-1.60322E-02-4.09147E-03-9.26706E-01 1.17341E-14-2.58166E-13
 -1      2755 2.05910E+01 1.16352E-01 9.48724E-04-7.60072E-01 1.68013E-13-3.51981E-13
 -1      2756 2.05082E+01 1.46319E-01 9.90299E-04-7.22129E-01 1.29998E-13-3.13856E-13
 -1      2757 2.04410E+01 1.19695E-01-2.70758E-03-8.52106E-01 1.76099E-13-3.09035E-13
 -1      2758 2.04591E+01 1.65839E-01 1.51254E-03-6.69090E-01 1.20540E-13-2.86721E-13
 -1      2759 2.03902E+01 1.76903E-01 2.48780E-04-6.22695E-01 1.17087E-13-2.79031E-13
 -1      2760 2.03255E+01 1.92279E-01-1.76866E-03-7.49506E-01 1.46813E-13-2.50687E-13
 -1      2761 2.03562E+01 1.81897E-01 1.76555E-03-5.67740E-01 6.32718E-14-2.85363E-13
 -1      2762 2.02992E+01 1.80897E-01-1.70946E-04-5.19644E-01 6.52877E-14-2.75429E-13
 -1      2763 2.02440E+01 2.20322E-01-1.17437E-03-6.37020E-01 8.48401E-14-1.92332E-13
 -1      2764 2.02751E+01 1.77003E-01 1.80893E-03-4.67388E-01 6.01563E-14-2.11522E-13
 -1      2765 2.02284E+01 1.69088E-01-3.75727E-04-4.21778E-01 6.09063E-14-2.70530E-13
 -1      2766 2.01851E+01 2.19672E-01-8.13937E-04-5.26244E-01 6.48034E-14-2.41373E-13
 -1      2767 2.02109E+01 1.60393E-01 1.71880E-03-3.74779E-01 2.95106E-14-2.84493E-13
 -1      2768 2.01731E+01 1.49144E-01-4.46674E-04-3.33953E-01 4.98400E-14-3.44142E-13
 -1      2769 2.01414E+01 2.02355E-01-5.98537E-04-4.24042E-01 4.32012E-14-2.08413E-13
 -1      2770 2.01601E+01 1.38404E-01 1.55141E-03-2.93360E-01 3.55231E-14-2.68734E-13
 -1      2771 2.01298E+01 1.26146E-01-4.40483E-04-2.58317E-01-4.68650E-14-2.42613E-13
 -1      2772 2.01084E+01 1.76803E-01-4.67197E-04-3.33955E-01 8.98462E-14-3.40009E-13
 -1      2773 2.01199E+01 1.15097E-01 1.34715E-03-2.24357E-01-1.01276E-13-2.63672E-13
 -1      2774 2.00960E+01 1.03234E-01-3.94510E-04-1.95253E-01-5.92105E-14-2.61500E-13
 -1      2775 2.00829E+01 1.48546E-01-3.81963E-04-2.57273E-01-1.29670E-13-1.55411E-13
 -1      2776 2.00885E+01 9.28817E-02 1.13373E-03-1.67594E-01-9.10330E-14-2.10096E-13
 -1      2777 2.00699E+01 8.21740E-02-3.32084E-04-1.44078E-01-1.75665E-13-2.53058E-13
 -1      2778 2.00631E+01 1.20955E-01-3.21011E-04-1.93843E-01-9.69261E-14-2.04176E-13
 -1      2779 2.00641E+01 7.30281E-02 9.28960E-04-1.22077E-01-1.56442E-13-2.02173E-13
 -1      2780 2.00499E+01 6.38124E-02-2.66922E-04-1.03533E-01-1.00942E-13-1.14380E-13
 -1      2781 2.00475E+01 9.58916E-02-2.72727E-04-1.42658E-01-1.32729E-13-1.04443E-13
 -1      2782 2.00454E+01 5.60650E-02 7.43178E-04-8.64097E-02-1.96396E-13-1.82775E-13
 -1      2783 2.00348E+01 4.84135E-02-2.06441E-04-7.21125E-02-1.13155E-13-2.44983E-13
 -1      2784 2.00354E+01 7.42092E-02-2.31459E-04-1.02266E-01-2.71720E-13-2.72785E-13
 -1      2785 2.00313E+01 4.20621E-02 5.81395E-04-5.90625E-02 4.67746E-14-3.28304E-13
 -1      2786 2.00235E+01 3.58927E-02-1.54109E-04-4.82779E-02 7.80703E-15-3.13541E-13
 -1      2787 2.00259E+01 5.61264E-02-1.94769E-04-7.10559E-02-1.13427E-13-2.07590E-13
 -1      2788 2.00209E+01 3.08259E-02 4.45008E-04-3.85401E-02-3.06168E-14-2.89478E-13
 -1      2789 2.00153E+01 2.59756E-02-1.11043E-04-3.05847E-02 8.82195E-14-3.32814E-13
 -1      2790 2.00187E+01 4.14858E-02-1.61783E-04-4.74338E-02-1.11763E-14-3.06857E-13
 -1      2791 2.00133E+01 2.20289E-02 3.33132E-04-2.34782E-02 1.92050E-13-3.45631E-13
 -1      2792 2.00094E+01 1.83008E-02-7.70614E-05-1.77490E-02 1.42281E-13-3.46977E-13
 -1      2793 2.00132E+01 2.99288E-02-1.32285E-04-2.99296E-02 8.98268E-14-2.13681E-13
 -1      2794 2.00079E+01 1.52914E-02 2.43598E-04-1.26898E-02 1.04001E-13-2.59763E-13
 -1      2795 2.00054E+01 1.24828E-02-5.13480E-05-8.67699E-03 1.43481E-13-1.96127E-13
 -1      2796 2.00090E+01 2.10086E-02-1.06264E-04-1.72513E-02 1.55395E-13-3.75174E-13
 -1      2797 2.00043E+01 1.02293E-02 1.73632E-04-5.18152E-03 1.35961E-13-1.13362E-13
 -1      2798 2.00026E+01 8.14750E-03-3.28767E-05-2.46926E-03 1.67141E-13-1.50910E-13
 -1      2799 2.00059E+01 1.42587E-02-8.36821E-05-8.30626E-03 2.13497E-13-2.80311E-13
 -1      2800 2.00018E+01 6.48063E-03 1.20292E-04-1.49903E-04 1.65467E-13-1.95417E-14
 -1      2801 2.00009E+01 4.94947E-03-2.06146E-05 1.58890E-03 3.89059E-13-6.18306E-14
 -1      2802 2.00037E+01 9.23067E-03-6.45283E-05-2.20108E-03 2.10307E-13-5.22883E-14
 -1      2803 2.00004E+01 3.71559E-03 8.08907E-05 3.03166E-03 5.61606E-13-1.21448E-13
 -1      2804 1.99999E+01 2.57830E-03-1.32634E-05 4.04365E-03 4.27972E-13 1.27203E-13
 -1      2805 2.00022E+01 5.51313E-03-4.86495E-05 1.77102E-03 4.91005E-13 3.17946E-14
 -1      2806 1.99995E+01 1.64149E-03 5.30369E-05 4.83318E-03 3.15603E-13 2.87471E-13
 -1      2807 1.99994E+01 7.57677E-04-9.54506E-06 5.29602E-03 3.34826E-13 3.57208E-13
 -1      2808 2.00011E+01 2.73978E-03-3.56322E-05 4.14811E-03 4.66049E-13 1.38876E-14
 -1      2809 1.99992E+01-1.57464E-05 3.18086E-05 5.58425E-03 1.64794E-13 3.48541E-13
 -1      2810 1.99992E+01-7.36700E-04-3.37574E-06 5.60665E-03 6.55609E-14 4.38413E-13
 -1      2811 2.00004E+01 5.65101E-04-3.00964E-05 5.32799E-03 3.05720E-13 1.82165E-13
 -1      2812 2.11901E+01 2.90946E-01 3.81324E-03-1.75845E+00 1.42747E-13-2.19815E-13
 -1      2813 2.10158E+01 3.90302E-01 3.90606E-03-1.64367E+00 1.67262E-13-1.98657E-13
 -1      2814 6.99427E+00-1.22528E+00 1.24010E-01 3.03114E+00 1.60545E-13-1.42675E-12
 -1      2815 6.31623E+00-7.67313E-01 1.72765E-01 4.79890E-01 3.23118E-14-1.54352E-12
 -1      2816 2.09703E+01 4.66164E-01 4.45631E-03-1.47653E+00 1.96311E-13-2.24113E-13
 -1      2817 2.08515E+01 5.31386E-01 4.16074E-03-1.31700E+00 2.42680E-13-1.96493E-13
 -1      2818 2.06172E+01 5.48954E-01-4.58788E-03-1.64229E+00 2.00311E-13-2.52656E-13
 -1      2819 2.20671E+01-5.18782E-01-2.20963E-03-1.94588E+00-1.08320E-14-1.01775E-13
 -1      2820 2.17539E+01-2.29229E-01 1.23791E-02-2.00460E+00 2.25486E-14-1.49961E-13
 -1      2821 2.28778E+01-1.26494E+00-8.31780E-03-1.67055E+00-6.58987E-14-4.42892E-14
 -1      2822 2.24742E+01-8.54609E-01 2.29200E-02-1.89605E+00-4.89375E-14-6.46472E-14
 -1      2823 2.15863E+01-8.24380E-01-2.41139E-02-2.25590E+00-5.31049E-14-1.49135E-13
 -1      2824 2.40244E+01-2.12559E+00-1.98889E-02-9.65684E-01-9.78705E-14 6.14520E-14
 -1      2825 2.35442E+01-1.68711E+00 3.19874E-02-1.41368E+00-8.98814E-14 2.74114E-14
 -1      2826 2.25553E+01-1.79419E+00-3.44462E-02-2.02760E+00-1.06842E-13-4.23455E-14
 -1      2827 2.54221E+01-2.62109E+00-3.48535E-02 2.58486E-01-1.23322E-13 2.29182E-13
 -1      2828 2.49668E+01-2.43515E+00 3.59551E-02-3.85985E-01-1.23528E-13 1.73132E-13
 -1      2829 2.40549E+01-2.85401E+00-5.49333E-02-1.31320E+00-1.90473E-13 7.83783E-14
 -1      2830 2.68213E+01-1.81719E+00 1.25487E-02 1.82789E+00 4.60786E-14 3.99493E-13
 -1      2831 2.65261E+01-2.40940E+00 1.88910E-02 1.19566E+00-8.02112E-14 3.44051E-13
 -1      2832 2.59923E+01-3.33078E+00-1.04226E-01 4.41904E-02-1.69339E-13 2.98673E-13
 -1      2833 2.82635E+01 8.88973E-01-8.83101E-02 2.39307E+00 6.02407E-13 4.37324E-13
 -1      2834 2.81887E+01-8.56472E-01-1.16242E-01 2.23979E+00 3.35315E-13 4.75800E-13
 -1      2835 2.76602E+01 1.78839E+00-1.76499E-01-2.78866E+00 4.49252E-13-9.00714E-13
 -1      2836 2.75470E+01 3.38122E+00-9.85894E-02-2.26068E+00 6.92557E-13-8.33014E-13
 -1      2837 2.75889E+01-1.44305E+00-1.06647E-01-2.18917E+00 1.90820E-16-9.95252E-13
 -1      2838 2.77446E+01-5.56209E-02-6.81576E-02-2.64372E+00 2.63234E-13-9.83248E-13
 -1      2839 2.45513E+01-2.21356E+00 4.40563E-02 7.11072E-01-3.37685E-13-6.92914E-13
 -1      2840 2.51143E+01-2.49688E+00 9.26517E-03 2.42797E-02-4.54969E-13-7.45248E-13
 -1      2841 2.32104E+01-1.33711E+00 2.77963E-02 1.49122E+00-1.74359E-13-5.73390E-13
 -1      2842 2.36591E+01-1.78412E+00-1.36639E-02 1.12878E+00-1.92291E-13-5.66854E-13
 -1      2843 2.34705E+01-2.46847E+00-4.72694E-02 1.52261E+00-3.39581E-13-8.20085E-13
 -1      2844 2.22897E+01-5.75904E-01 1.63264E-02 1.80383E+00 2.47841E-14-4.08765E-13
 -1      2845 2.26475E+01-9.40106E-01-8.52653E-03 1.65072E+00-1.09784E-13-4.98306E-13
 -1      2846 2.21744E+01-1.38258E+00-3.42992E-02 1.99459E+00-1.63503E-13-5.12967E-13
 -1      2847 2.16863E+01-6.46307E-02 7.81391E-03 1.81986E+00-2.94132E-14-2.65144E-13
 -1      2848 2.19634E+01-2.94121E-01-1.35781E-03 1.80224E+00 7.06989E-14-3.23328E-13
 -1      2849 2.13858E+01-5.16185E-01-2.01145E-02 2.08304E+00-5.17332E-14-4.69693E-13
 -1      2850 2.12920E+01 2.18328E-01 2.61661E-03 1.67786E+00-5.44931E-14-3.32569E-13
 -1      2851 2.15090E+01 9.92917E-02 2.38310E-03 1.73777E+00-3.02702E-14-2.37155E-13
 -1      2852 2.09435E+01 3.55828E-02-1.00433E-02 1.96162E+00-5.56618E-14-1.99967E-13
 -1      2853 2.10204E+01 3.42241E-01-5.21208E-05 1.46570E+00-5.53581E-14-2.62946E-13
 -1      2854 2.11957E+01 2.95949E-01 4.14251E-03 1.56232E+00-9.39983E-14-3.34989E-13
 -1      2855 2.06996E+01 3.27127E-01-4.25110E-03 1.74549E+00-3.71425E-14-2.31796E-13
 -1      2856 2.08183E+01 3.71109E-01-1.19021E-03 1.23434E+00-7.12527E-15-3.06274E-13
 -1      2857 2.09637E+01 3.66543E-01 4.84226E-03 1.34211E+00 6.10306E-14-2.43602E-13
 -1      2858 2.05561E+01 4.45356E-01-1.46412E-03 1.49694E+00 1.13589E-14-2.04427E-13
 -1      2859 2.06579E+01 3.50122E-01-1.50473E-03 1.01165E+00 7.03184E-14-2.92632E-13
 -1      2860 2.07797E+01 3.66456E-01 4.92394E-03 1.11608E+00 2.13428E-14-3.27309E-13
 -1      2861 2.04596E+01 4.62747E-01-3.72289E-04 1.24923E+00 4.83871E-14-3.10851E-13
 -1      2862 2.05254E+01 3.07158E-01-1.43137E-03 8.11376E-01-3.54314E-14-2.61499E-13
 -1      2863 2.06273E+01 3.31950E-01 4.64058E-03 9.05245E-01-4.76233E-14-3.05043E-13
 -1      2864 2.03842E+01 4.28476E-01-9.92104E-05 1.01982E+00-3.65078E-14-3.53475E-13
 -1      2865 2.04146E+01 2.57835E-01-1.20846E-03 6.38864E-01 4.12607E-14-2.20557E-13
 -1      2866 2.04989E+01 2.84304E-01 4.15931E-03 7.19402E-01 6.22287E-14-1.86205E-13
 -1      2867 2.03195E+01 3.72375E-01-1.49622E-04 8.17001E-01-2.36046E-14-2.55862E-13
 -1      2868 2.03223E+01 2.10110E-01-9.55065E-04 4.94710E-01-2.74157E-14-9.23738E-14
 -1      2869 2.03909E+01 2.34916E-01 3.59453E-03 5.61635E-01-2.53846E-14-1.34541E-13
 -1      2870 2.02619E+01 3.10992E-01-2.80586E-04 6.43503E-01-3.49227E-14-1.82933E-13
 -1      2871 2.02462E+01 1.67531E-01-7.23695E-04 3.76998E-01 3.51958E-14 1.54584E-13
 -1      2872 2.03013E+01 1.89277E-01 3.02064E-03 4.31306E-01 8.15600E-14 5.33537E-14
 -1      2873 2.02108E+01 2.52684E-01-3.91742E-04 4.98802E-01-4.34678E-14-9.29812E-14
 -1      2874 2.01846E+01 1.31264E-01-5.32282E-04 2.82667E-01 1.74979E-14 5.45564E-14
 -1      2875 2.02281E+01 1.49582E-01 2.48176E-03 3.25906E-01 3.15810E-14 1.76213E-13
 -1      2876 2.01663E+01 2.01100E-01-4.53886E-04 3.80583E-01-6.57191E-14 1.59369E-13
 -1      2877 2.01356E+01 1.01286E-01-3.82405E-04 2.08298E-01 2.11813E-13 1.23700E-13
 -1      2878 2.01693E+01 1.16310E-01 2.00057E-03 2.42165E-01 1.30069E-13 1.25941E-13
 -1      2879 2.01286E+01 1.57348E-01-4.68733E-04 2.85698E-01 1.12811E-13 4.78524E-14
 -1      2880 2.00974E+01 7.70297E-02-2.68997E-04 1.50545E-01 2.80361E-13-1.74774E-14
 -1      2881 2.01231E+01 8.91127E-02 1.58570E-03 1.76674E-01 3.15114E-13 7.89189E-14
 -1      2882 2.00974E+01 1.21265E-01-4.48461E-04 2.10748E-01 3.02681E-13 1.03195E-13
 -1      2883 2.00681E+01 5.77334E-02-1.85133E-04 1.06349E-01 1.65728E-13-1.88515E-13
 -1      2884 2.00873E+01 6.72958E-02 1.23727E-03 1.26213E-01 2.52928E-13-3.57995E-14
 -1      2885 2.00722E+01 9.21108E-02-4.06417E-04 1.52433E-01 3.43874E-13-5.04966E-14
 -1      2886 2.00461E+01 4.26072E-02-1.24161E-04 7.30279E-02-1.33351E-13-1.37441E-13
 -1      2887 2.00602E+01 5.00667E-02 9.50686E-04 8.79040E-02-2.07876E-14-1.32119E-13
 -1      2888 2.00522E+01 6.89423E-02-3.53611E-04 1.07730E-01 8.01808E-14-8.38586E-14
 -1      2889 2.00299E+01 3.09131E-02-8.04730E-05 4.82993E-02-8.80687E-14-2.26744E-14
 -1      2890 2.00400E+01 3.66524E-02 7.19113E-04 5.92618E-02-6.39412E-14-6.33934E-14
 -1      2891 2.00368E+01 5.07988E-02-2.97906E-04 7.39779E-02-1.30070E-13-1.79066E-13
 -1      2892 2.00184E+01 2.19964E-02-4.96551E-05 3.02607E-02-1.44144E-13 9.17491E-14
 -1      2893 2.00254E+01 2.63509E-02 5.34939E-04 3.81964E-02-1.89104E-13 9.81672E-14
 -1      2894 2.00252E+01 3.67869E-02-2.44323E-04 4.88987E-02-1.93851E-13-1.14609E-14
 -1      2895 2.00103E+01 1.52925E-02-2.83791E-05 1.73571E-02-2.65620E-13 8.82353E-15
 -1      2896 2.00151E+01 1.85495E-02 3.90647E-04 2.29847E-02-1.26207E-13 1.09323E-13
 -1      2897 2.00166E+01 2.61151E-02-1.95687E-04 3.05871E-02-1.63924E-13-1.28730E-14
 -1      2898 2.00049E+01 1.03232E-02-1.42248E-05 8.33984E-03-1.53468E-13 1.25524E-13
 -1      2899 2.00080E+01 1.27246E-02 2.79304E-04 1.22317E-02-1.95893E-13 1.07145E-13
 -1      2900 2.00104E+01 1.81006E-02-1.53289E-04 1.74801E-02-2.12358E-13 8.33391E-14
 -1      2901 2.00015E+01 6.68631E-03-5.53399E-06 2.22479E-03 8.52714E-14-1.19663E-14
 -1      2902 2.00033E+01 8.43518E-03 1.94767E-04 4.82769E-03-3.37831E-14 4.68305E-14
 -1      2903 2.00060E+01 1.21645E-02-1.17428E-04 8.31951E-03-3.85069E-14 5.47609E-14
 -1      2904 1.99995E+01 4.04462E-03-1.19604E-06-1.74579E-03 6.46128E-14-6.15974E-14
 -1      2905 2.00005E+01 5.31083E-03 1.31802E-04-9.14485E-05 1.36837E-13-1.77239E-14
 -1      2906 2.00031E+01 7.81893E-03-8.78921E-05 2.11234E-03 1.52170E-13-5.67017E-14
 -1      2907 1.99985E+01 2.11504E-03-3.16169E-07-4.13744E-03 4.45422E-14 2.09146E-14
 -1      2908 1.99989E+01 3.04061E-03 8.59031E-05-3.18117E-03 4.61661E-15-1.51500E-13
 -1      2909 2.00012E+01 4.65441E-03-6.39777E-05-1.90549E-03 6.56820E-14-1.02204E-13
 -1      2910 1.99982E+01 6.58755E-04-1.75469E-06-5.35700E-03-1.09746E-13 1.48450E-13
 -1      2911 1.99981E+01 1.36365E-03 5.33493E-05-4.92246E-03 4.30648E-14 9.84965E-14
 -1      2912 2.00001E+01 2.32765E-03-4.50711E-05-4.30461E-03-6.15051E-14-6.40758E-14
 -1      2913 1.99983E+01-5.21713E-04-3.52599E-07-5.66568E-03-5.96336E-14 2.40717E-13
 -1      2914 1.99980E+01 3.90875E-05 2.65191E-05-5.65208E-03-1.39248E-13 6.11533E-14
 -1      2915 1.99995E+01 5.55141E-04-2.65692E-05-5.50092E-03-1.51628E-13-6.28536E-14
 -1      2916 1.99987E+01-1.54865E-03-1.04355E-05-5.34666E-03-1.70245E-13 4.41129E-13
 -1      2917 1.99984E+01-1.01394E-03 1.39003E-06-5.65781E-03-1.51772E-13 3.00418E-13
 -1      2918 1.99995E+01-8.30745E-04-9.26319E-06-5.78197E-03-2.03274E-13 1.29151E-14
 -1      2919 1.99998E+01-2.06984E-03 7.66993E-06-5.52020E-03-2.61040E-13-7.99671E-14
 -1      2920 2.00028E+01-2.66813E-03 1.58999E-06-2.89429E-04 1.81548E-13 2.04085E-13
 -1      2921 2.00028E+01-2.64656E-03 4.54232E-06-9.94158E-04 1.46487E-13 2.46042E-13
 -1      2922 1.99991E+01-1.22105E-03 1.31358E-05 5.56777E-03-6.62643E-14 4.50519E-13
 -1      2923 1.99992E+01-1.66805E-03-2.33260E-06 5.37498E-03-2.01569E-13 4.67950E-13
 -1      2924 2.00000E+01-9.90073E-04-2.51651E-05 5.60741E-03-5.53784E-14 9.84350E-14
 -1      2925 2.00024E+01-2.71212E-03 1.93270E-06-3.06886E-03 2.74671E-13-3.25641E-13
 -1      2926 2.00022E+01-2.55593E-03 3.97547E-06-3.66964E-03 2.87968E-13-4.01588E-13
 -1      2927 2.00027E+01-2.61766E-03 3.45126E-06 1.12790E-03 1.37633E-13-5.83778E-13
 -1      2928 2.00028E+01-2.65565E-03 2.62468E-06 4.29086E-04 2.80540E-13-3.77576E-13
 -1      2929 2.00034E+01-8.11386E-04 1.39331E-05 7.92093E-05 1.89697E-13-1.81534E-13
 -1      2930 2.00027E+01-2.71111E-03 6.24200E-07-1.70994E-03 7.32627E-14-2.26221E-13
 -1      2931 2.00026E+01-2.62599E-03 5.08132E-06-2.38711E-03 2.85105E-13-2.64167E-13
 -1      2932 2.00031E+01-1.06011E-03 6.90826E-06-2.74187E-03 1.55934E-13-3.24993E-13
 -1      2933 2.00034E+01-8.92288E-04 1.19945E-05-1.34632E-03 1.57096E-13-3.38411E-14
 -1      2934 2.08422E+01 5.91417E-01 4.27788E-03-1.11923E+00 2.87854E-13-1.97881E-13
 -1      2935 2.07797E+01 6.58567E-01 6.36766E-03-9.18892E-01 3.25527E-13-1.54420E-13
 -1      2936 2.05826E+01 8.95287E-01-2.73600E-03-8.08640E-01 3.76898E-13-2.83262E-13
 -1      2937 2.05720E+01 7.18955E-01-3.32136E-03-1.26021E+00 2.79782E-13-2.69999E-13
 -1      2938 1.11778E+01-2.59635E+00 1.18281E-01 5.86673E+00 4.37261E-13-1.05027E-12
 -1      2939 9.13314E+00-1.77206E+00 1.82422E-01 4.62743E+00 3.85386E-13-1.26080E-12
 -1      2940 2.00025E+01-2.56175E-03 4.13464E-06 2.46765E-03 2.85453E-13-4.56244E-13
 -1      2941 2.00027E+01-2.65909E-03 1.03712E-06 1.81796E-03 2.77884E-13-4.25218E-13
 -1      2942 2.00033E+01-8.46873E-04 1.25826E-05 1.47786E-03 2.99843E-13-4.21719E-13
 -1      2943 2.00021E+01-2.47230E-03 1.82297E-06 3.70726E-03 4.34169E-13-3.21311E-13
 -1      2944 2.00023E+01-2.63270E-03 1.82291E-06 3.12664E-03 4.09733E-13-2.97817E-13
 -1      2945 2.00030E+01-9.77740E-04 8.07648E-06 2.82272E-03 4.79690E-13-3.78396E-13
 -1      2946 2.00014E+01-2.31064E-03-5.68561E-06 4.70617E-03 2.05476E-13-3.33592E-13
 -1      2947 2.00018E+01-2.52960E-03 2.71194E-06 4.27001E-03 4.03525E-13-4.13214E-13
 -1      2948 2.00024E+01-1.12975E-03 6.80980E-06 4.05691E-03 3.65696E-13-3.52480E-13
 -1      2949 7.59234E+00-1.44285E+00 1.32537E-01-3.81435E+00 4.64767E-13 9.24177E-13
 -1      2950 9.76767E+00-2.47936E+00 9.51975E-02-5.57658E+00 6.68632E-13 5.24025E-13
 -1      2951 1.99998E+01-2.06451E-03-1.00131E-05 5.39900E-03-2.19395E-13 7.78606E-14
 -1      2952 2.84236E+01 2.31190E+00-5.76122E-02 2.03613E+00-5.43607E-13-6.94667E-13
 -1      2953 2.83951E+01 4.00163E+00-2.06216E-01 1.86903E+00-8.01692E-13-6.30024E-13
 -1      2954 6.61941E+00-1.14002E+00 1.42808E-01-2.08407E+00-2.07008E-13-1.48587E-12
 -1      2955 7.72266E+00-1.89526E+00 1.36551E-01-3.98816E+00-3.47680E-13-1.28930E-12
 -1      2956 2.03722E+01 2.39804E+00-2.57161E-05-8.92385E-01-5.43697E-13-6.06135E-13
 -1      2957 1.88610E+01-4.85851E+00 1.31603E-01-6.07494E+00 7.43988E-13-5.18717E-14
 -1      2958 2.15054E+01-5.30797E+00-6.96854E-02-5.34096E+00 5.66741E-13-2.91137E-13
 -1      2959 2.81632E+01-2.97928E+00-1.18515E-01 1.12589E+00-3.25580E-13 3.03785E-13
 -1      2960 2.61119E+01-4.37662E+00 2.12071E-02 2.61165E+00-5.26801E-14 2.70839E-13
 -1      2961 1.62421E+01-4.48213E+00 1.07730E-02 6.13503E+00-4.14613E-13 4.23425E-13
 -1      2962 1.27796E+01-3.26464E+00 1.46303E-01 5.72183E+00-4.61436E-13 5.41553E-13
 -1      2963 1.31392E+01-2.09912E+00 1.67723E-01 4.87163E+00-3.63862E-13 4.98018E-13
 -1      2964 2.28070E+01-5.55988E+00-8.57395E-02 4.48286E+00-4.20053E-13-3.25536E-13
 -1      2965 2.00273E+01-5.19790E+00 1.07066E-01 5.39336E+00-5.08454E-13 3.58324E-14
 -1      2966 2.15348E+01-1.09018E-02 1.91577E-03-1.93670E+00 4.66636E-14-1.87512E-13
 -1      2967 2.12983E+01 1.63335E-01 6.30830E-03-1.88817E+00 9.17557E-14-2.05070E-13
 -1      2968 2.07512E+01 2.99025E-01-7.58205E-03-1.95790E+00 1.00547E-13-1.98648E-13
 -1      2969 2.10360E+01-1.26843E-01-1.38818E-02-2.18425E+00 1.69142E-14-1.76115E-13
 -1      2970 2.07278E+01 1.18059E+00 4.67013E-03-2.42320E-01-4.55005E-13-3.87401E-13
 -1      2971 2.06987E+01 9.41414E-01-3.40619E-03 3.78422E-02-3.85680E-13-3.75722E-13
 -1      2972 2.05876E+01 1.04584E+00-2.14432E-03 1.51122E-01-3.59928E-13-4.25427E-13
 -1      2973 2.82539E+01 5.42364E+00-1.63485E-01 1.55437E+00-1.00753E-12-6.05085E-13
 -1      2974 2.80705E+01 6.32277E+00-1.91706E-01 7.68765E-01-1.12216E-12-4.78083E-13
 -1      2975 2.69503E+01 4.09560E+00-1.04090E-01 1.86007E+00-7.81930E-13-6.22377E-13
 -1      2976 1.93498E+01 3.14789E+00-5.90542E-03 3.36760E-01 4.50308E-13-6.86220E-13
 -1      2977 1.91817E+01 3.27144E+00-8.00079E-03 2.69892E-01 3.70459E-13-7.46147E-13
 -1      2978 1.91769E+01 3.07141E+00 7.16661E-03 1.70196E-01 3.15555E-13-7.10327E-13
 -1      2979 1.95169E+01 2.78758E+00 7.45891E-03 2.00255E-01 4.31641E-13-6.01094E-13
 -1      2980 2.82945E+01 6.67475E+00-1.75517E-01-1.89385E-01-1.14561E-12-2.43169E-13
 -1      2981 2.84525E+01 6.05792E+00-1.73407E-01-1.10008E+00-1.10012E-12-2.58404E-14
 -1      2982 2.75369E+01-4.16598E+00-1.22934E-01 8.53323E-01-2.44735E-13-7.93962E-13
 -1      2983 2.56246E+01-5.04467E+00 7.38101E-02 2.70319E+00-3.72181E-13-5.74027E-13
 -1      2984 2.41299E+01-5.48599E+00 5.53970E-02-3.98077E+00-4.47281E-13 2.02754E-14
 -1      2985 2.63320E+01-5.02325E+00-1.02053E-01-2.54887E+00-2.67369E-13 2.09124E-13
 -1      2986 2.80703E+01-2.24093E+00 4.75076E-02-3.42228E-02 2.19512E-14-7.59948E-13
 -1      2987 2.83885E+01-4.24267E-01-2.04127E-01 1.19023E+00-2.67057E-13-7.51524E-13
 -1      2988 1.72651E+01-4.68663E+00 1.50898E-01-6.08866E+00-6.83745E-13-4.94715E-13
 -1      2989 2.09296E+01-5.56250E+00-5.06906E-02-5.51326E+00-5.65631E-13-2.21628E-13
 -1      2990 6.98750E+00-4.03377E-01 1.35711E-01 7.60017E-01 1.33133E-13 1.10131E-12
 -1      2991 7.02355E+00-5.16938E-01 1.72621E-01-1.78258E+00 2.68639E-13 1.24784E-12
 -1      2992 2.37845E+01-5.25454E+00-6.37433E-02 4.29466E+00 1.97259E-13 9.41018E-14
 -1      2993 2.20501E+01-5.15143E+00 1.15432E-01 5.07831E+00 3.64278E-13-7.81111E-14
 -1      2994 2.77291E+01-3.83830E+00-2.35889E-02-2.46678E-01-1.18936E-13 4.38038E-13
 -1      2995 2.84938E+01-2.11543E+00-1.50895E-01 1.24687E+00 2.50203E-13 5.62238E-13
 -1      2996 1.93452E+01 3.11285E+00-7.55049E-03-1.71515E-01-1.68432E-13-8.37560E-13
 -1      2997 1.95200E+01 2.97819E+00-4.87339E-03-2.74276E-01-2.54506E-13-8.21213E-13
 -1      2998 1.00678E+01-2.74669E+00 1.54375E-01-5.23981E+00-4.98657E-13-1.10023E-12
 -1      2999 1.32904E+01-3.83481E+00 1.77494E-02-6.30445E+00-6.02018E-13-7.93782E-13
 -1      3000 1.06911E+01-1.75842E+00 1.76555E-01-4.48548E+00-4.66613E-13-1.07439E-12
 -1      3001 2.85549E+01 4.83152E+00-1.75117E-01-1.59133E+00-1.01191E-12 1.54168E-13
 -1      3002 2.84850E+01 3.26603E+00-1.51434E-01-1.86826E+00-8.89677E-13 3.30388E-13
 -1      3003 1.25814E+01-3.36774E+00 1.52286E-01-6.28527E+00 7.98278E-13 4.47115E-13
 -1      3004 1.55687E+01-4.34509E+00 1.57653E-02-6.65738E+00 7.88730E-13 2.37629E-13
 -1      3005 2.92622E+01 5.97230E+00-1.96523E-01-1.80969E-01 1.26815E-12-3.27573E-13
 -1      3006 2.97889E+01 5.68363E+00-1.59183E-01-1.25635E+00 1.18361E-12-4.93772E-13
 -1      3007 2.92190E+01 4.30159E+00-1.96997E-01 1.81404E+00 1.04111E-12 2.33258E-13
 -1      3008 2.91097E+01 5.47674E+00-2.09110E-01 9.81260E-01 1.17778E-12-4.05370E-14
 -1      3009 1.97142E+01 2.79003E+00-8.00325E-03-3.53333E-01-3.21378E-13-7.95608E-13
 -1      3010 1.99195E+01 2.60108E+00-9.30846E-03-4.68814E-01-3.98438E-13-7.71577E-13
 -1      3011 1.97108E+01 2.57225E+00 3.32633E-03-1.57439E-01-2.70570E-13-7.35315E-13
 -1      3012 1.89646E+01 3.22241E+00 5.23143E-03 1.20540E-01 1.01309E-13-8.03406E-13
 -1      3013 1.89178E+01 3.46335E+00-6.79032E-03 8.78009E-02 8.01576E-14-8.66845E-13
 -1      3014 1.89786E+01 3.42484E+00-3.52578E-03 1.93287E-02 1.06221E-14-8.57141E-13
 -1      3015 2.05485E+01 1.84884E+00-3.65013E-03 4.56013E-01 6.34858E-13-2.81662E-13
 -1      3016 9.40809E+00-2.32149E-01 1.59117E-01 1.78594E+00 2.04316E-14 8.05994E-13
 -1      3017 2.99347E+01 1.12456E+00-6.64360E-02-2.50604E+00 5.11494E-13-8.98920E-13
 -1      3018 2.89001E+01 4.48977E+00-1.17443E-01-1.77032E+00 9.24288E-13-6.68424E-13
 -1      3019 2.68609E+01 5.79727E+00-1.07766E-01 3.60535E-01-9.60371E-13-3.57315E-13
 -1      3020 2.32193E+01-4.81541E+00 5.50418E-02-3.98007E+00 5.51767E-13-3.52107E-13
 -1      3021 2.71546E+01 4.85581E+00-1.05714E-01-1.43889E+00-8.78742E-13 1.28564E-13
 -1      3022 2.76477E+01 4.82516E+00-1.51241E-01 4.48707E-01 1.01744E-12-2.29840E-13
 -1      3023 1.24229E+01-2.41518E+00 1.49268E-01-5.57904E+00 7.48096E-13 3.90910E-13
 -1      3024 2.00025E+01-1.24664E-03-1.31561E-09-4.01960E-03 1.54953E-13-1.88640E-13
 -1      3025 2.00019E+01-2.61817E-03 4.97454E-06-4.26212E-03 8.84489E-14-2.72469E-13
 -1      3026 2.00014E+01-2.38445E-03 3.59894E-06-4.71115E-03-9.23460E-14 4.35998E-14
 -1      3027 8.52598E+00 3.77680E-03 6.67363E-02 5.44667E-01 9.31230E-14-1.30612E-12
 -1      3028 7.45483E+00-4.71839E-01 1.79030E-01-6.94920E-01-7.75283E-14-1.44476E-12
 -1      3029 8.98818E+00-1.81319E-01 1.41194E-01-1.73675E+00-2.16438E-13-1.21969E-12
 -1      3030 9.63404E+00-8.70670E-01 1.65541E-01 3.46333E+00 2.99490E-13-1.20526E-12
 -1      3031 2.81918E+01 2.73561E+00-2.18919E-01 2.41174E+00 8.31737E-13 2.84675E-13
 -1      3032 2.64468E+01 3.87282E+00-1.21873E-01 1.27760E+00 7.86510E-13-2.49384E-14
 -1      3033 2.65059E+01 2.89140E+00-1.13081E-01 2.28717E+00 7.01994E-13 1.26808E-13
 -1      3034 2.65235E+01 3.95307E+00-1.72122E-01-1.32470E+00 9.04957E-13-6.80824E-13
 -1      3035 2.65635E+01 4.32064E+00-1.19627E-01-7.10319E-02 9.21513E-13-3.57318E-13
 -1      3036 2.52244E+01-3.76784E+00 1.51974E-02 1.16880E+00-5.17125E-13-8.16843E-13
 -1      3037 2.60511E+01-3.20092E+00-1.55690E-02-6.69013E-02-5.02088E-13-8.48651E-13
 -1      3038 2.66962E+01-2.87313E+00-2.90531E-02-8.49066E-01-3.74620E-13-8.80622E-13
 -1      3039 2.00010E+01-2.43826E-03 6.91260E-06-5.09194E-03-1.46934E-13 8.28412E-14
 -1      3040 2.00004E+01-2.12152E-03-6.11978E-07-5.30197E-03-8.71734E-14-7.36158E-14
 -1      3041 2.00003E+01-1.43377E-03-5.78453E-06-5.54510E-03-2.50626E-13-2.28408E-15
 -1      3042 2.00016E+01-1.40389E-03-3.42787E-06-4.98473E-03-3.62835E-14 1.43025E-13
 -1      3043 9.02365E+00-4.78627E-01 1.57481E-01-2.62890E+00 4.44544E-13 9.03833E-13
 -1      3044 2.00004E+01-2.33189E-03 1.59273E-05 5.18616E-03-6.54605E-16-8.57753E-14
 -1      3045 2.52661E+01-4.52189E+00 1.20798E-02 2.60654E+00 1.64618E-13 2.81296E-13
 -1      3046 1.64916E+01-3.78532E+00 1.44210E-01-5.74572E+00-6.83967E-13-5.53002E-13
 -1      3047 2.67527E+01-3.27035E+00-1.12306E-02-6.97605E-01 2.14679E-13-6.34548E-13
 -1      3048 1.87568E+01-4.23279E+00 1.06798E-01 5.23005E+00-5.60316E-13 2.11428E-14
 -1      3049 2.81201E+01-2.06102E+00-4.87917E-02-1.68292E-01-2.37577E-13 4.07396E-13
 -1      3050 2.75482E+01 6.45155E-01-6.38337E-02 1.79801E+00-2.62734E-13-7.82555E-13
 -1      3051 2.71278E+01 2.57769E+00-9.20713E-02-2.06381E+00-6.66259E-13 5.12618E-13
 -1      3052 2.84241E+01 2.02496E+00-1.28728E-01-1.86198E+00-7.58588E-13 4.49502E-13
 -1      3053 2.79232E+01 8.22838E-01-7.53870E-02-1.73562E+00-5.28827E-13 5.38153E-13
 -1      3054 2.02013E+01 2.31372E+00-2.27745E-03-5.56839E-01-4.43650E-13-6.74848E-13
 -1      3055 2.05939E+01 1.80185E+00-7.33574E-03-6.80029E-01-5.42688E-13-4.97180E-13
 -1      3056 2.06430E+01 1.42865E+00 2.19190E-04-3.79192E-01-4.94988E-13-4.36118E-13
 -1      3057 2.01761E+01 2.09462E+00 4.75431E-03-3.02530E-01-3.84626E-13-6.57496E-13
 -1      3058 1.78989E+01-4.18764E+00 1.07843E-01-5.91367E+00 8.15570E-13 7.38437E-14
 -1      3059 2.04015E+01-4.71219E+00 9.28591E-02 5.42209E+00 4.77507E-13-1.77393E-13
 -1      3060 2.04478E+01 1.71662E+00 4.04204E-03 1.53974E-01 5.70471E-13-3.36411E-13
 -1      3061 1.90706E+01 3.33772E+00-7.28316E-03-2.34630E-02-3.99856E-14-8.21510E-13
 -1      3062 1.91951E+01 3.25174E+00-3.65733E-03-1.08131E-01-1.26286E-13-8.30592E-13
 -1      3063 1.93517E+01 2.89096E+00 3.24113E-03-2.79012E-02-1.45488E-13-7.85306E-13
 -1      3064 1.90925E+01 3.11108E+00 4.11554E-03 6.54678E-02-2.43817E-14-7.88533E-13
 -1      3065 2.43021E+01-4.99014E+00 2.38734E-02 3.10182E+00-4.87360E-13-6.01205E-13
 -1      3066 2.28265E+01-5.15816E+00 6.37355E-02-4.24292E+00-5.77455E-13-7.55674E-14
 -1      3067 2.05026E+01 1.53991E+00 1.51677E-03-2.33258E-01-4.28173E-13-4.82416E-13
 -1      3068 1.40881E+01-3.04381E+00 1.11292E-01 5.86330E+00 5.56277E-13-7.68927E-13
 -1      3069 2.00006E+01-1.15628E-03-6.53579E-06 5.38885E-03-1.78373E-13-3.08818E-13
 -1      3070 2.00011E+01-2.00801E-03-7.08077E-06 5.05897E-03 4.37753E-14-3.81512E-13
 -1      3071 2.00017E+01-8.94034E-04 2.36804E-05 4.91362E-03 2.05599E-13-5.45125E-13
 -1      3072 2.00008E+01-4.45433E-04 3.36477E-05 5.37218E-03-1.62863E-14-2.46730E-13
 -1      3073 1.10778E+01-1.50189E-01 8.99006E-02 2.86988E+00-2.85605E-14 5.68351E-13
 -1      3074 1.00205E+01 4.47472E-01 7.79870E-02 6.66658E-01 1.66608E-13 8.01997E-13
 -1      3075 2.00829E+01 1.97461E+00-4.33577E-03 2.79799E-02 5.09188E-13-4.28902E-13
 -1      3076 1.98291E+01 2.22832E+00-4.76396E-03 1.79031E-02 4.51017E-13-4.93633E-13
 -1      3077 2.04267E+01 1.36778E+00 2.60188E-03 5.27212E-02-3.63059E-13-5.16646E-13
 -1      3078 2.04370E+01 1.11894E+00-3.06164E-03 2.89963E-01-3.05051E-13-5.11445E-13
 -1      3079 2.18013E+01-4.44762E+00 1.69418E-01-4.36967E+00-6.06265E-13-8.62366E-14
 -1      3080 2.39688E+01-5.06140E+00-1.28229E-01-3.30475E+00-4.98476E-13 1.36283E-13
 -1      3081 2.05333E+01 5.26149E-01 6.33548E-03 8.29689E-01-1.77354E-13-3.78105E-13
 -1      3082 2.05839E+01 3.41182E-01-5.24490E-04 9.50706E-01-1.40567E-13-3.48545E-13
 -1      3083 2.06635E+01 1.57344E-01 7.69108E-03 1.06531E+00-1.24463E-13-2.98398E-13
 -1      3084 2.07613E+01-4.34587E-02-2.93642E-04 1.12562E+00-9.51118E-14-3.13055E-13
 -1      3085 2.04324E+01 3.25721E-01-6.47313E-03 1.07378E+00-1.13465E-13-3.40230E-13
 -1      3086 2.09065E+01-2.51851E-01 1.01650E-02 1.18689E+00-6.79893E-14-2.72592E-13
 -1      3087 2.10614E+01-4.85962E-01-1.38740E-03 1.17722E+00-4.78522E-14-2.50540E-13
 -1      3088 2.06244E+01-1.30398E-01-1.00043E-02 1.27373E+00-7.66188E-14-2.81699E-13
 -1      3089 2.13024E+01-7.26624E-01 1.36972E-02 1.16599E+00-1.24502E-14-2.09188E-13
 -1      3090 2.15172E+01-9.91623E-01-4.54295E-03 1.06932E+00-5.19040E-15-1.83965E-13
 -1      3091 2.09693E+01-6.61607E-01-1.41757E-02 1.35751E+00-1.30470E-14-2.16851E-13
 -1      3092 2.18767E+01-1.24364E+00 1.73316E-02 9.51525E-01 3.87238E-14-9.34487E-14
 -1      3093 2.21400E+01-1.50014E+00-9.52772E-03 7.48383E-01 3.32360E-14-1.11610E-14
 -1      3094 2.15207E+01-1.26511E+00-1.82447E-02 1.27267E+00 8.52021E-14-1.47925E-13
 -1      3095 2.26080E+01-1.69287E+00 1.82097E-02 4.83842E-01-2.06155E-14 7.70130E-14
 -1      3096 2.28794E+01-1.83632E+00-1.29919E-02 1.74546E-01-1.08030E-14 8.94397E-14
 -1      3097 2.22843E+01-1.85761E+00-2.82701E-02 9.28777E-01 5.55066E-14 2.10075E-15
 -1      3098 2.34114E+01-1.84576E+00 1.82025E-02-2.77116E-01-3.00275E-14 1.73603E-13
 -1      3099 2.35938E+01-1.71767E+00-1.49117E-02-6.59653E-01-1.11136E-13 1.46459E-13
 -1      3100 2.32914E+01-2.19299E+00-2.28916E-02 2.36581E-01 3.17454E-15 1.57246E-13
 -1      3101 2.39981E+01-1.37242E+00-8.08139E-03-1.19490E+00-1.47636E-13 2.41916E-13
 -1      3102 2.40534E+01-7.81450E-01-2.74073E-03-1.51616E+00-1.82312E-13 2.32460E-13
 -1      3103 2.42133E+01-1.84999E+00-9.31693E-03-7.46224E-01-1.15775E-13 2.57485E-13
 -1      3104 2.41080E+01-1.23008E-03-5.29370E-02-1.86451E+00-2.27031E-13 2.02841E-13
 -1      3105 2.40234E+01 9.67001E-01-7.70712E-04-1.88551E+00-2.57246E-13 1.81232E-13
 -1      3106 2.47863E+01-5.11316E-01 1.36785E-02-1.71233E+00-2.35850E-13 3.99311E-13
 -1      3107 2.37974E+01 1.94331E+00-6.80666E-02-1.69389E+00-3.45533E-13 9.46389E-14
 -1      3108 2.36534E+01 2.78821E+00-1.49843E-02-1.26027E+00-4.39489E-13 7.13203E-14
 -1      3109 2.47260E+01 1.59494E+00-1.22401E-02-1.94174E+00-3.34840E-13 2.30458E-13
 -1      3110 2.34836E+01 3.33816E+00-4.50194E-02-4.61882E-01-5.18769E-13-6.04481E-14
 -1      3111 2.34229E+01 3.44285E+00-5.55827E-02 2.36245E-01-5.30714E-13-1.15948E-13
 -1      3112 2.43617E+01 3.57641E+00-4.48966E-02-9.74847E-01-5.51243E-13 7.19563E-14
 -1      3113 2.39411E+01 1.41566E+00 2.34372E-03 1.95092E+00-2.68823E-13-4.01671E-13
 -1      3114 2.40520E+01 4.54384E-01-5.44893E-02 2.06994E+00-1.49865E-13-4.00236E-13
 -1      3115 2.40840E+01-4.18700E-01-1.66586E-04 1.79633E+00-6.51666E-14-3.64345E-13
 -1      3116 2.40334E+01-1.10358E+00-2.47925E-02 1.52677E+00 5.32395E-14-3.73709E-13
 -1      3117 2.47748E+01-1.49192E-01-1.70272E-02 1.95341E+00-1.14710E-13-4.01406E-13
 -1      3118 2.37127E+01-1.53582E+00-9.75761E-03 1.02535E+00 1.09385E-13-3.13961E-13
 -1      3119 2.35300E+01-1.76846E+00 6.76160E-03 6.38598E-01 9.22394E-14-2.16237E-13
 -1      3120 2.43334E+01-1.58448E+00 8.18414E-03 1.11970E+00 8.48488E-14-3.73585E-13
 -1      3121 2.30163E+01-1.82385E+00-1.56242E-02 1.74943E-01 3.83716E-14-1.99776E-13
 -1      3122 2.27560E+01-1.73376E+00 1.74371E-02-1.63245E-01 8.88740E-14-2.13751E-13
 -1      3123 2.34294E+01-2.14672E+00-1.27531E-02 8.60192E-02 7.88008E-14-3.01424E-13
 -1      3124 2.22517E+01-1.57193E+00-1.07896E-02-4.66154E-01 8.45745E-14-1.00800E-13
 -1      3125 2.19777E+01-1.34426E+00 1.72816E-02-6.98394E-01 1.94581E-13-1.53412E-13
 -1      3126 2.24259E+01-1.92961E+00-1.84004E-02-6.56265E-01 1.53174E-13-1.01934E-13
 -1      3127 2.15772E+01-1.11252E+00-5.16747E-03-8.50725E-01 1.80800E-13-1.61441E-13
 -1      3128 2.13380E+01-8.68386E-01 1.33277E-02-9.80659E-01 1.06368E-13-2.37375E-13
 -1      3129 2.15661E+01-1.40343E+00-1.79903E-02-1.06431E+00 1.65161E-13-5.37532E-14
 -1      3130 2.10574E+01-6.51158E-01-1.31260E-03-1.02889E+00 2.85599E-14-1.76135E-13
 -1      3131 2.08701E+01-4.47732E-01 8.88166E-03-1.08125E+00-6.56718E-14-1.28768E-13
 -1      3132 2.09338E+01-8.48820E-01-1.41162E-02-1.22056E+00 1.04343E-13-1.56482E-13
 -1      3133 2.06900E+01-2.78168E-01 6.68870E-04-1.06730E+00-1.03355E-13-6.56795E-14
 -1      3134 2.05522E+01-1.31085E-01 5.25306E-03-1.06739E+00-6.01445E-14-5.70947E-14
 -1      3135 2.05115E+01-3.90786E-01-9.83067E-03-1.22296E+00-5.98876E-14-1.33536E-13
 -1      3136 2.04454E+01-1.43556E-02 1.53809E-03-1.01978E+00-4.01299E-14-1.33053E-13
 -1      3137 2.03472E+01 8.00679E-02 2.65802E-03-9.87792E-01 5.28829E-14-1.92092E-13
 -1      3138 2.02505E+01-6.11233E-02-6.27507E-03-1.14057E+00-6.25951E-14-1.32198E-13
 -1      3139 2.02892E+01 1.51182E-01 1.83537E-03-9.24446E-01 1.10378E-13-2.11121E-13
 -1      3140 2.02197E+01 2.03761E-01 9.57813E-04-8.75006E-01 1.15582E-13-1.55676E-13
 -1      3141 2.01011E+01 1.50228E-01-3.73099E-03-1.01696E+00 4.60937E-14-9.98373E-14
 -1      3142 2.01921E+01 2.40257E-01 1.87543E-03-8.06763E-01 1.86831E-13-1.00398E-13
 -1      3143 2.01426E+01 2.62800E-01-6.76761E-05-7.49948E-01 1.38537E-13-1.13596E-13
 -1      3144 2.00233E+01 2.68147E-01-2.05605E-03-8.78082E-01 1.81754E-13-7.14060E-14
 -1      3145 2.01326E+01 2.75328E-01 1.80125E-03-6.83212E-01-1.57005E-14-3.00908E-14
 -1      3146 2.00965E+01 2.78064E-01-6.28520E-04-6.25640E-01 5.03958E-14-3.84992E-14
 -1      3147 1.99883E+01 3.19070E-01-1.02866E-03-7.39049E-01 8.36920E-14-2.21967E-14
 -1      3148 2.00959E+01 2.75359E-01 1.67236E-03-5.64036E-01 1.14002E-14-1.76216E-13
 -1      3149 2.00688E+01 2.66184E-01-8.85070E-04-5.09794E-01 4.74084E-14-1.41888E-13
 -1      3150 1.99772E+01 3.25716E-01-4.40553E-04-6.08484E-01-6.73117E-14-1.34732E-13
 -1      3151 2.00726E+01 2.54760E-01 1.51441E-03-4.55176E-01 1.49672E-14-1.98110E-13
 -1      3152 2.00518E+01 2.39329E-01-9.52663E-04-4.06537E-01-2.52736E-14-2.26357E-13
 -1      3153 1.99780E+01 3.05603E-01-1.30281E-04-4.91008E-01 1.40588E-14-1.69915E-13
 -1      3154 2.00570E+01 2.23719E-01 1.34097E-03-3.59606E-01 4.24904E-14-2.79267E-13
 -1      3155 2.00408E+01 2.05834E-01-9.10572E-04-3.17587E-01 5.08509E-14-2.64630E-13
 -1      3156 1.99839E+01 2.71300E-01 1.42384E-05-3.88686E-01-1.09922E-14-2.16098E-13
 -1      3157 2.00460E+01 1.89001E-01 1.16215E-03-2.78301E-01-3.00676E-14-2.80088E-13
 -1      3158 2.00331E+01 1.71055E-01-8.11447E-04-2.43073E-01-1.60522E-13-2.84973E-13
 -1      3159 1.99910E+01 2.31302E-01 6.61145E-05-3.01918E-01-1.23059E-15-2.98681E-13
 -1      3160 2.00376E+01 1.54800E-01 9.86454E-04-2.10931E-01-1.89745E-13-1.89047E-13
 -1      3161 2.00273E+01 1.38177E-01-6.88969E-04-1.82144E-01-1.04952E-13-2.35379E-13
 -1      3162 1.99973E+01 1.90995E-01 7.06370E-05-2.30035E-01-1.09885E-13-2.03767E-13
 -1      3163 2.00308E+01 1.23487E-01 8.20650E-04-1.56390E-01-1.57335E-13-1.45262E-13
 -1      3164 2.00227E+01 1.08879E-01-5.63627E-04-1.33396E-01-1.85030E-13-1.72982E-13
 -1      3165 2.00023E+01 1.53523E-01 5.44222E-05-1.71726E-01-5.34332E-14-1.03375E-13
 -1      3166 2.00251E+01 9.62006E-02 6.69543E-04-1.13163E-01-1.98741E-13-1.94882E-13
 -1      3167 2.00187E+01 8.38504E-02-4.46983E-04-9.51798E-02-1.77232E-13-2.23178E-14
 -1      3168 2.00057E+01 1.20483E-01 3.21388E-05-1.25350E-01-1.83493E-13-6.12271E-14
 -1      3169 2.00203E+01 7.32834E-02 5.35957E-04-7.95843E-02-2.08710E-13 4.37837E-14
 -1      3170 2.00153E+01 6.31590E-02-3.44742E-04-6.58044E-02-2.37299E-13-2.34209E-14
 -1      3171 2.00077E+01 9.24642E-02 1.11464E-05-8.91563E-02-1.54995E-13 2.72577E-13
 -1      3172 2.00162E+01 5.45995E-02 4.20997E-04-5.40122E-02-1.10730E-13-1.45016E-13
 -1      3173 2.00123E+01 4.65133E-02-2.58925E-04-4.36666E-02 1.28806E-14-1.08203E-13
 -1      3174 2.00085E+01 6.94252E-02-5.45432E-06-6.14320E-02-2.17242E-13 2.45813E-13
 -1      3175 2.00127E+01 3.97484E-02 3.24441E-04-3.49264E-02 8.57957E-14 3.31911E-14
 -1      3176 2.00098E+01 3.34369E-02-1.89363E-04-2.73237E-02 1.01821E-13-1.38465E-14
 -1      3177 2.00085E+01 5.09682E-02-1.68963E-05-4.05972E-02 1.04844E-13 2.82771E-13
 -1      3178 2.00098E+01 2.82059E-02 2.45160E-04-2.09847E-02 1.35328E-13 1.88951E-14
 -1      3179 2.00076E+01 2.33802E-02-1.34735E-04-1.55288E-02 1.52958E-13 3.76557E-14
 -1      3180 2.00080E+01 3.65166E-02-2.35949E-05-2.52535E-02 1.22972E-13 3.10522E-13
 -1      3181 2.00074E+01 1.94127E-02 1.81515E-04-1.10449E-02 1.38548E-13 3.39299E-14
 -1      3182 2.00058E+01 1.57883E-02-9.31275E-05-7.23946E-03 1.50724E-13 8.63877E-15
 -1      3183 2.00071E+01 2.54299E-02-2.65135E-05-1.42052E-02 1.47084E-13 4.44858E-13
 -1      3184 2.00054E+01 1.28255E-02 1.31556E-04-4.16584E-03 1.58370E-13-4.13369E-14
 -1      3185 2.00043E+01 1.01378E-02-6.26166E-05-1.61047E-03 3.73130E-13 8.28429E-15
 -1      3186 2.00060E+01 1.70728E-02-2.65367E-05-6.46120E-03 1.71065E-13 6.48732E-14
 -1      3187 2.00038E+01 7.94189E-03 9.31941E-05 4.05177E-04 4.33202E-13 9.89605E-14
 -1      3188 2.00030E+01 5.95218E-03-4.08467E-05 2.02211E-03 4.07913E-13-8.00361E-14
 -1      3189 2.00049E+01 1.08512E-02-2.48708E-05-1.22109E-03 4.37543E-13-1.87202E-13
 -1      3190 2.00026E+01 4.30994E-03 6.40624E-05 3.24694E-03 4.04732E-13-8.80124E-14
 -1      3191 2.00020E+01 2.81857E-03-2.25304E-05 4.15666E-03 4.57066E-13-1.35555E-13
 -1      3192 2.00037E+01 6.23412E-03-2.02469E-05 2.13464E-03 4.01903E-13-2.54935E-13
 -1      3193 2.00016E+01 1.66921E-03 4.61400E-05 4.76514E-03 3.33157E-13-1.76193E-13
 -1      3194 2.00012E+01 4.86710E-04-1.29499E-05 5.14357E-03 2.00532E-13-1.13880E-13
 -1      3195 2.00017E+01 3.22114E-04-3.28551E-05 4.96879E-03-1.15925E-15-5.59701E-13
 -1      3196 2.00026E+01 2.83312E-03-3.39898E-05 4.04576E-03 3.65835E-13-3.90168E-13
 -1      3197 1.66367E+01-3.48849E+00 3.97984E-02 5.88318E+00 5.72570E-13-4.66287E-13
 -1      3198 1.39623E+01-2.06821E+00 7.72964E-02 5.18225E+00 5.28647E-13-7.40505E-13
 -1      3199 1.05423E+01-8.51187E-01 1.22554E-01-3.60019E+00-3.75540E-13-1.03129E-12
 -1      3200 1.24833E+01-1.82678E+00 4.65370E-02-4.88835E+00-5.04707E-13-8.27755E-13
 -1      3201 2.21532E+01-2.08580E+00 3.68345E-02-2.49638E+00-2.27458E-13-5.34850E-14
 -1      3202 2.14713E+01-1.49031E+00 3.15241E-02-2.66819E+00-1.67207E-13-1.14416E-13
 -1      3203 2.10495E+01-9.20874E-01 1.78842E-02-2.54455E+00-1.01620E-13-1.74045E-13
 -1      3204 2.06630E+01-4.66710E-01 1.50864E-02-2.52788E+00-5.68894E-14-1.80473E-13
 -1      3205 2.02510E+01-1.23148E+00-2.47569E-02-3.02245E+00-1.64826E-13-2.06366E-13
 -1      3206 2.56189E+01-3.92311E+00 3.09864E-02-1.23111E+00-3.41289E-13 2.98359E-13
 -1      3207 2.44615E+01-3.73814E+00 9.76856E-02-2.00396E+00-3.57443E-13 1.60542E-13
 -1      3208 1.69471E+01-3.29309E+00 1.30288E-01-5.59741E+00 8.35235E-13 1.87433E-13
 -1      3209 1.93195E+01-4.22350E+00-4.78203E-02-5.26718E+00 7.14678E-13-7.77989E-14
 -1      3210 2.22847E+01-2.20662E+00 5.56768E-02 2.40495E+00-3.77963E-13-6.12599E-13
 -1      3211 2.29260E+01-2.96263E+00-3.49424E-03 2.19772E+00-4.26891E-13-6.74759E-13
 -1      3212 2.02053E+01 2.80006E-01 1.07537E-03 1.99862E+00-1.21133E-13-2.00984E-13
 -1      3213 2.03781E+01 8.06812E-02 9.33659E-03 2.10015E+00-1.18336E-13-2.83279E-13
 -1      3214 2.01144E+01 5.06256E-01-2.09615E-03 1.71270E+00-3.18016E-14-2.39709E-13
 -1      3215 2.02130E+01 4.19654E-01 6.66124E-03 1.83460E+00-3.08343E-14-2.08279E-13
 -1      3216 1.95927E+01 4.54353E-01-3.17863E-03 1.96879E+00-9.69885E-14-2.54479E-13
 -1      3217 2.00964E+01 5.77849E-01-3.24835E-03 1.43884E+00 4.06401E-14-2.20682E-13
 -1      3218 2.01588E+01 5.58625E-01 4.94140E-03 1.56382E+00 6.09780E-14-1.37387E-13
 -1      3219 1.96556E+01 6.45460E-01 5.32283E-04 1.65180E+00-1.06807E-14-1.17172E-13
 -1      3220 2.01015E+01 5.63389E-01-3.41750E-03 1.18797E+00 3.08055E-14-2.43754E-13
 -1      3221 2.01474E+01 5.80255E-01 3.92644E-03 1.30648E+00 7.40076E-14-2.32431E-13
 -1      3222 1.97490E+01 6.89115E-01 1.89629E-03 1.37281E+00 8.88768E-14-1.12000E-13
 -1      3223 2.01082E+01 5.06991E-01-3.14479E-03 9.65059E-01-5.39976E-14-2.82287E-13
 -1      3224 2.01463E+01 5.40446E-01 3.31858E-03 1.07204E+00 5.53485E-16-2.66558E-13
 -1      3225 1.98372E+01 6.52970E-01 2.08198E-03 1.12816E+00 3.18486E-14-1.43875E-13
 -1      3226 2.01091E+01 4.34733E-01-2.70194E-03 7.71864E-01-7.42651E-14-3.29276E-13
 -1      3227 2.01429E+01 4.73517E-01 2.89816E-03 8.65071E-01-7.97397E-14-3.63272E-13
 -1      3228 1.99073E+01 5.79424E-01 1.77760E-03 9.15300E-01-4.53617E-14-2.85071E-13
 -1      3229 2.01037E+01 3.60899E-01-2.22593E-03 6.08027E-01-2.61902E-14-2.44650E-13
 -1      3230 2.01340E+01 3.98995E-01 2.54760E-03 6.87027E-01-2.72772E-14-2.85610E-13
 -1      3231 1.99574E+01 4.93228E-01 1.33516E-03 7.32431E-01-1.05737E-13-3.29418E-13
 -1      3232 2.00936E+01 2.92595E-01-1.78242E-03 4.71759E-01-1.77747E-13-1.09234E-13
 -1      3233 2.01203E+01 3.27124E-01 2.21962E-03 5.37232E-01-1.09661E-13-1.95134E-13
 -1      3234 1.99904E+01 4.07858E-01 9.14564E-04 5.77721E-01-1.33745E-13-4.00192E-13
 -1      3235 2.00810E+01 2.32805E-01-1.39795E-03 3.60400E-01-6.35796E-14-7.03430E-14
 -1      3236 2.01041E+01 2.62662E-01 1.90337E-03 4.13637E-01-8.85972E-14-1.07508E-13
 -1      3237 2.00101E+01 3.29945E-01 5.74160E-04 4.48947E-01-1.62694E-13-2.67285E-13
 -1      3238 2.00677E+01 1.82273E-01-1.07855E-03 2.70872E-01 2.09813E-13-1.85215E-13
 -1      3239 2.00871E+01 2.07301E-01 1.60271E-03 3.13430E-01 8.01378E-14-1.00312E-13
 -1      3240 2.00204E+01 2.62175E-01 3.23344E-04 3.43491E-01 5.83043E-14-3.90420E-13
 -1      3241 2.00549E+01 1.40608E-01-8.20407E-04 2.00001E-01 2.71347E-13-6.12867E-14
 -1      3242 2.00708E+01 1.61119E-01 1.32490E-03 2.33492E-01 2.70368E-13-1.53933E-13
 -1      3243 2.00247E+01 2.05070E-01 1.51076E-04 2.58493E-01 2.48096E-13-2.94634E-13
 -1      3244 2.00433E+01 1.06902E-01-6.15734E-04 1.44740E-01 3.42519E-13-3.06029E-14
 -1      3245 2.00561E+01 1.23414E-01 1.07582E-03 1.70700E-01 3.39249E-13-6.36303E-14
 -1      3246 2.00251E+01 1.58056E-01 4.02253E-05 1.91042E-01 2.58442E-13-8.14315E-14
 -1      3247 2.00334E+01 8.00732E-02-4.55801E-04 1.02295E-01-2.32103E-14 5.97876E-14
 -1      3248 2.00434E+01 9.31590E-02 8.58586E-04 1.22116E-01 1.69944E-13 3.19277E-14
 -1      3249 2.00233E+01 1.20055E-01-2.59342E-05 1.38332E-01 2.13092E-13-7.03242E-14
 -1      3250 2.00251E+01 5.90281E-02-3.32357E-04 7.01960E-02-1.24009E-13-3.36238E-14
 -1      3251 2.00328E+01 6.92501E-02 6.73709E-04 8.50957E-02-1.16603E-13-5.38832E-14
 -1      3252 2.00205E+01 8.98256E-02-6.12998E-05 9.77734E-02 1.04333E-14-2.81442E-14
 -1      3253 2.00185E+01 4.27522E-02-2.38196E-04 4.63165E-02-2.39428E-13 4.93755E-14
 -1      3254 2.00243E+01 5.06250E-02 5.19744E-04 5.73321E-02-1.84975E-13 5.17310E-14
 -1      3255 2.00173E+01 6.61281E-02-7.64644E-05 6.70575E-02-2.18170E-13 6.13427E-14
 -1      3256 2.00133E+01 3.03412E-02-1.67283E-04 2.88673E-02-2.94172E-13 1.41267E-13
 -1      3257 2.00175E+01 3.63190E-02 3.94014E-04 3.68631E-02-2.83348E-13 2.94489E-14
 -1      3258 2.00142E+01 4.78139E-02-7.90553E-05 4.41828E-02-2.66109E-13 2.01651E-13
 -1      3259 2.00093E+01 2.10108E-02-1.14683E-04 1.63743E-02-8.84215E-14-6.42419E-14
 -1      3260 2.00123E+01 2.54854E-02 2.93200E-04 2.20560E-02-1.22846E-13 4.44474E-14
 -1      3261 2.00113E+01 3.38595E-02-7.43296E-05 2.74569E-02-2.24950E-13 1.44860E-13
 -1      3262 2.00062E+01 1.40914E-02-7.64057E-05 7.64680E-03 7.44776E-14-1.59403E-13
 -1      3263 2.00084E+01 1.73959E-02 2.13876E-04 1.15795E-02-2.80409E-14-9.40755E-14
 -1      3264 2.00088E+01 2.33759E-02-6.58202E-05 1.54794E-02-1.22697E-14-1.91021E-14
 -1      3265 2.00040E+01 9.01548E-03-4.94736E-05 1.74289E-03 5.99581E-14-3.68168E-14
 -1      3266 2.00055E+01 1.14320E-02 1.52723E-04 4.36950E-03 5.38995E-14-2.18151E-13
 -1      3267 2.00066E+01 1.56029E-02-5.57393E-05 7.11575E-03 7.04855E-14-1.52450E-13
 -1      3268 2.00025E+01 5.30184E-03-3.13973E-05-2.06193E-03-1.62936E-14 1.30066E-14
 -1      3269 2.00034E+01 7.06907E-03 1.06756E-04-4.04731E-04 1.51938E-13 4.33469E-14
 -1      3270 2.00049E+01 9.89359E-03-4.54575E-05 1.46645E-03-3.77837E-14 6.12891E-14
 -1      3271 2.00013E+01 2.55699E-03-1.93611E-05-4.30601E-03 2.06933E-14-1.21788E-13
 -1      3272 2.00019E+01 3.86700E-03 7.24107E-05-3.36874E-03 2.78315E-14 3.22993E-14
 -1      3273 2.00034E+01 5.70816E-03-3.38399E-05-2.15374E-03 2.92526E-14 2.53712E-13
 -1      3274 2.00006E+01 4.53415E-04-3.17583E-06-5.37800E-03-1.84068E-13-2.01439E-13
 -1      3275 2.00009E+01 1.44697E-03 4.48696E-05-4.99389E-03-1.38761E-13-1.61737E-13
 -1      3276 2.00022E+01 2.57910E-03-2.80268E-05-4.27098E-03-2.43617E-14 2.87134E-14
 -1      3277 2.00005E+01-7.92283E-04 3.59499E-06-5.51219E-03-2.82455E-13 1.87875E-14
 -1      3278 2.00004E+01-1.31017E-04 9.97597E-06-5.54502E-03-2.43932E-13-8.95120E-14
 -1      3279 2.00016E+01 5.66723E-04-1.56459E-05-5.13365E-03-2.66094E-13-1.41362E-13
 -1      3280 2.00012E+01-8.18468E-04-3.60910E-06-5.32674E-03-1.98445E-13 8.30128E-14
 -1      3281 1.89756E+01 2.94826E+00-4.94675E-03 1.18028E-01 2.28152E-13-7.24627E-13
 -1      3282 1.89260E+01 2.98791E+00-3.60009E-03 1.16765E-01 1.66251E-13-7.44082E-13
 -1      3283 2.00040E+01 1.10504E-03-8.90243E-06 4.28445E-04 1.97241E-13-3.96100E-13
 -1      3284 2.00040E+01 1.09511E-03-7.72829E-06-2.48218E-04 1.61116E-13 5.27533E-14
 -1      3285 1.11449E+01-8.05490E-01 4.32340E-02 3.88588E+00 3.82295E-13-9.81104E-13
 -1      3286 9.70357E+00-2.21522E-02 1.88441E-01 2.33201E+00 2.48700E-13-1.20029E-12
 -1      3287 2.00027E+01 2.00517E-04-8.80397E-06 4.13910E-03 1.85323E-13-6.80796E-13
 -1      3288 2.00031E+01 3.08004E-04-9.67614E-06 3.57710E-03 3.42472E-13-4.44706E-13
 -1      3289 2.68549E+01-3.86723E+00 1.23376E-01-7.52065E-01-2.76664E-13 4.27401E-13
 -1      3290 2.00038E+01 9.85664E-04-5.15344E-06 1.70563E-03 2.91469E-13-2.67544E-13
 -1      3291 2.00039E+01 1.02586E-03-1.14453E-05 1.05363E-03 2.54657E-13-4.49688E-13
 -1      3292 2.00046E+01 3.12738E-03 3.38968E-05 6.92292E-04 2.17521E-13-2.31998E-13
 -1      3293 9.68650E+00 1.17663E-01 6.00421E-02-1.81571E+00 4.15050E-13 8.80379E-13
 -1      3294 1.04710E+01-6.14272E-01 1.25081E-01-3.76009E+00 5.93713E-13 5.00350E-13
 -1      3295 2.19912E+01-4.44721E+00 1.15856E-01-4.25413E+00 6.04725E-13-2.62329E-13
 -1      3296 2.38322E+01-4.65312E+00-1.19919E-01-2.94547E+00 4.50827E-13-3.87294E-13
 -1      3297 2.37150E+01-3.94928E+00-4.21381E-03 2.37465E+00-5.25364E-13-6.86257E-13
 -1      3298 2.00034E+01 6.60211E-04-3.21899E-06 2.96770E-03 4.16663E-13-2.88775E-13
 -1      3299 2.00037E+01 7.38604E-04-1.23980E-05 2.33721E-03 4.14527E-13-3.28509E-13
 -1      3300 2.00044E+01 2.78929E-03 2.81763E-05 1.88442E-03 1.68039E-13-1.93481E-13
 -1      3301 2.00038E+01 2.16290E-03 1.58123E-05 3.08401E-03 2.91317E-13-4.04785E-13
 -1      3302 2.59389E+01-4.01975E+00-8.42861E-02 1.36567E+00 6.00839E-14 3.67532E-13
 -1      3303 2.42035E+01-4.39359E+00 2.43665E-02 2.74307E+00 2.41428E-13 2.38068E-13
 -1      3304 2.04680E+01-1.96464E-01 8.16478E-03 2.27156E+00-1.21308E-13-3.47343E-13
 -1      3305 2.07781E+01-5.62965E-01 1.24012E-02 2.31950E+00-1.62821E-13-4.39990E-13
 -1      3306 1.96387E+01 1.63685E-02-1.09790E-02 2.32551E+00-1.69209E-13-3.29701E-13
 -1      3307 2.10775E+01-1.02554E+00 2.24964E-02 2.46741E+00-1.38037E-13-5.34557E-13
 -1      3308 2.15993E+01-1.60065E+00 9.88838E-03 2.40214E+00-2.24556E-13-5.62827E-13
 -1      3309 2.07874E+01-2.08674E+00-4.27206E-02 3.00550E+00-3.25566E-13-7.12473E-13
 -1      3310 1.99456E+01-7.93635E-01-2.42339E-02 2.70446E+00-1.89171E-13-4.83538E-13
 -1      3311 1.53390E+01-2.76507E+00 1.46572E-01-5.42006E+00-6.03982E-13-6.16895E-13
 -1      3312 1.82957E+01-4.02977E+00-5.61703E-02-5.39332E+00-6.33840E-13-3.59178E-13
 -1      3313 2.55117E+01 4.31263E+00-1.15288E-01-1.28079E+00-7.05561E-13 7.60572E-14
 -1      3314 2.57122E+01 3.23707E+00-9.08240E-02-1.92475E+00-5.92720E-13 2.60784E-13
 -1      3315 1.50639E+01-2.43731E+00 2.65743E-02 5.06943E+00-4.04198E-13 2.57828E-13
 -1      3316 1.28601E+01-1.23457E+00 7.73702E-02 4.21825E+00-2.37508E-13 3.82736E-13
 -1      3317 2.36145E+01-3.18704E+00 5.84211E-02-2.11223E+00-2.96685E-13 4.92540E-14
 -1      3318 2.26278E+01-2.63615E+00 5.44523E-02-2.56785E+00-2.71997E-13-2.16485E-14
 -1      3319 2.10555E+01-2.56150E+00-5.62212E-02-3.35635E+00-2.98761E-13-1.42567E-13
 -1      3320 2.20907E+01-3.97437E+00-1.22713E-01-3.57131E+00-4.14602E-13-4.50612E-14
 -1      3321 2.02565E+01 6.74121E-01 4.48330E-03-1.72024E+00 1.70581E-13-2.51234E-13
 -1      3322 2.02154E+01 7.75765E-01 6.43803E-04-1.54172E+00 2.21970E-13-2.48968E-13
 -1      3323 2.59556E+01 3.18899E+00-5.94663E-02 2.06720E+00-6.16784E-13-6.30294E-13
 -1      3324 2.56713E+01 4.20159E+00-1.40209E-01 1.57816E+00-7.99638E-13-5.01994E-13
 -1      3325 2.87840E+01-2.33417E+00-4.39924E-02-1.49689E+00-4.30628E-14-9.46548E-13
 -1      3326 2.86771E+01-3.26573E+00 6.35749E-03-3.69717E-01-1.99367E-13-8.29781E-13
 -1      3327 2.73571E+01-3.90956E+00 1.49306E-02 1.33721E-01-3.40285E-13-7.59226E-13
 -1      3328 2.69206E+01-5.53518E-01 2.83026E-02 1.69355E+00-8.34749E-15-7.85205E-13
 -1      3329 2.64106E+01 1.29821E+00-1.40100E-01 2.18228E+00-2.90420E-13-6.80608E-13
 -1      3330 2.04734E+01 9.05433E-01 5.66534E-03 4.89359E-01-2.49082E-13-4.63318E-13
 -1      3331 2.04897E+01 7.08157E-01-1.71904E-03 6.69564E-01-2.14062E-13-4.32197E-13
 -1      3332 2.03365E+01 7.46917E-01-3.74757E-03 7.82330E-01-1.67587E-13-4.04171E-13
 -1      3333 2.76901E+01-1.15465E+00-1.28804E-01-1.12045E+00-3.25948E-13 5.09967E-13
 -1      3334 2.70054E+01-2.60319E+00-4.59555E-03-8.80007E-02-1.00590E-13 4.74357E-13
 -1      3335 2.02584E+01 1.82896E+00-3.64550E-03-1.91642E-01-3.82069E-13-6.30171E-13
 -1      3336 2.03437E+01 1.59224E+00 8.76478E-04-6.06937E-02-3.71572E-13-5.66620E-13
 -1      3337 2.00020E+01 2.13144E+00-7.31765E-04-1.33506E-01-3.20856E-13-6.84239E-13
 -1      3338 2.04766E+01 1.38767E+00-9.90014E-04-1.72397E-01 5.06831E-13-2.97000E-13
 -1      3339 2.02600E+01 1.75117E+00 8.65272E-04-5.68804E-02 5.19344E-13-3.78706E-13
 -1      3340 2.01237E+01 1.67162E+00 1.57437E-03-2.86374E-01 4.60541E-13-3.92422E-13
 -1      3341 2.04487E+01 1.22143E+00-3.53546E-04-4.70896E-01 4.45592E-13-3.10898E-13
 -1      3342 2.57576E+01-3.69408E+00 9.55093E-02-1.13367E+00 2.89243E-13-6.03274E-13
 -1      3343 2.63484E+01-2.70879E+00-1.58187E-01 3.36108E-01 7.79030E-14-8.03690E-13
 -1      3344 2.18465E+01-4.41336E+00-4.55633E-02 4.17109E+00 4.32945E-13 2.73358E-14
 -1      3345 1.93352E+01-3.99347E+00 9.32365E-02 5.26025E+00 5.31922E-13-2.52871E-13
 -1      3346 1.88926E+01-3.22316E+00 5.89022E-02 4.80896E+00 5.32949E-13-3.12942E-13
 -1      3347 2.05925E+01-4.13875E+00 3.07151E-02 4.41062E+00-6.16840E-13-3.95409E-13
 -1      3348 1.76272E+01-3.18012E+00 1.14748E-01 5.00798E+00-5.15837E-13-4.81837E-14
 -1      3349 2.53172E+01 4.93341E+00-8.41134E-02 6.18129E-01-7.95142E-13-2.57997E-13
 -1      3350 2.54170E+01 5.00103E+00-1.28048E-01-5.09873E-01-7.50108E-13-1.94254E-14
 -1      3351 1.19348E+01-1.43577E+00 1.11369E-01-4.76792E+00 6.03066E-13 3.24463E-13
 -1      3352 1.41955E+01-2.54723E+00 1.96398E-02-5.59337E+00 6.81788E-13 3.45279E-13
 -1      3353 1.25425E+01-7.08542E-01 1.24673E-01-3.88571E+00 5.33990E-13 4.24577E-13
 -1      3354 1.89206E+01 2.98217E+00-5.57075E-03 1.53626E-01 1.33662E-13-7.46726E-13
 -1      3355 1.89594E+01 2.96021E+00-1.57965E-03 1.43074E-01 6.41174E-14-7.62924E-13
 -1      3356 1.89314E+01 2.77021E+00 7.22867E-03 1.35482E-01 1.38964E-13-7.10738E-13
 -1      3357 1.97124E+01 2.12910E+00 5.75077E-03-1.59179E-01 3.95873E-13-4.88164E-13
 -1      3358 1.95916E+01 2.44588E+00-3.66609E-03 4.50400E-02 4.23126E-13-5.48941E-13
 -1      3359 1.93812E+01 2.62063E+00-6.31872E-03 3.57588E-02 3.56579E-13-5.77380E-13
 -1      3360 2.02861E+01 1.18680E+00-2.53546E-03 4.09141E-01-2.62713E-13-5.17197E-13
 -1      3361 2.59676E+01-1.60643E+00-1.44664E-02 1.10975E+00 4.30610E-14-6.92224E-13
 -1      3362 2.45744E+01 3.91448E+00-5.18997E-02 8.98441E-01-6.12156E-13-2.92165E-13
 -1      3363 2.38178E+01 3.11752E+00-2.01277E-02 1.23453E+00-4.89421E-13-3.15241E-13
 -1      3364 2.00033E+01 2.02221E-04-8.39334E-06-3.53022E-03 4.28720E-14-1.63961E-13
 -1      3365 2.00028E+01 1.08075E-04 6.58132E-07-4.10810E-03-1.01386E-13 1.21427E-13
 -1      3366 1.02537E+01 2.38177E-01 1.24790E-01 1.23404E+00 1.50515E-13-1.16041E-12
 -1      3367 1.54681E+01-1.75700E+00 4.85708E-03 4.66551E+00 5.30607E-13-5.38250E-13
 -1      3368 1.34146E+01-1.19547E+00 1.37770E-01 4.50364E+00 4.81112E-13-8.09811E-13
 -1      3369 1.29827E+01-4.88124E-01 4.68509E-02 3.57707E+00 3.53211E-13-7.85039E-13
 -1      3370 2.39465E+01 2.32556E+00-6.58353E-02 1.75687E+00-3.99975E-13-4.13285E-13
 -1      3371 2.48632E+01 2.09365E+00-2.95169E-02 2.09003E+00-3.76116E-13-5.37619E-13
 -1      3372 1.04699E+01-1.60517E-01 1.33059E-01-2.56854E+00-2.49207E-13-1.05810E-12
 -1      3373 1.22402E+01-1.58982E-01 8.75171E-02-2.95456E+00-2.97370E-13-8.66668E-13
 -1      3374 1.06370E+01 3.58310E-01 3.35369E-02-1.34724E+00-6.28629E-14-1.02776E-12
 -1      3375 1.49474E+01-1.87480E+00 1.19197E-01-4.72483E+00-4.96672E-13-6.81705E-13
 -1      3376 1.99029E+01 9.93898E-01 3.16579E-04-1.41660E+00 2.18015E-13-2.82260E-13
 -1      3377 2.02838E+01 8.65499E-01 2.04375E-03-1.33601E+00 2.32578E-13-2.74590E-13
 -1      3378 2.02819E+01 9.54190E-01 1.34330E-03-1.12584E+00 2.72069E-13-2.69052E-13
 -1      3379 1.98000E+01-2.24307E-01-1.39688E-02-2.62419E+00-5.41618E-14-2.51551E-13
 -1      3380 2.05215E+01-1.08539E-01 1.15755E-02-2.35046E+00-3.57929E-14-2.12555E-13
 -1      3381 2.03141E+01 1.71042E-01 5.30727E-03-2.25048E+00-1.52037E-14-2.26088E-13
 -1      3382 2.08293E+01-3.86409E+00 5.82721E-02-4.25239E+00 5.92706E-13-1.35033E-13
 -1      3383 2.02050E+01 5.47395E-01 1.42999E-03-1.91532E+00 1.09600E-13-2.29953E-13
 -1      3384 1.97712E+01 7.57558E-01-1.84101E-03-1.82383E+00 1.37921E-13-2.60009E-13
 -1      3385 2.03072E+01 3.85111E-01 7.39759E-03-2.06131E+00 4.17781E-14-2.13248E-13
 -1      3386 1.90679E+01 2.87682E+00-5.41393E-03 7.39679E-02 2.59450E-13-6.93980E-13
 -1      3387 1.90289E+01 2.70838E+00 9.67633E-03 3.29894E-02 2.26912E-13-6.59401E-13
 -1      3388 1.92036E+01 2.77185E+00-4.36478E-03 7.44941E-02 3.29582E-13-6.32654E-13
 -1      3389 2.00038E+01 6.51430E-04-1.34295E-05-2.22813E-03 5.81837E-14-3.08691E-13
 -1      3390 2.00036E+01 5.66203E-04-1.03922E-06-2.88289E-03 5.74152E-14-2.86750E-13
 -1      3391 2.00040E+01 2.03695E-03 1.47968E-05-2.99932E-03-1.22732E-13-1.04363E-13
 -1      3392 1.17332E+01 7.17164E-01 2.57120E-02 6.11572E-01 2.22339E-13 6.10831E-13
 -1      3393 1.05398E+01 6.60709E-01 1.36622E-01-4.22030E-01 2.83917E-13 8.14009E-13
 -1      3394 1.14762E+01 5.25907E-01 5.63153E-02-1.53363E+00 4.52283E-13 5.54792E-13
 -1      3395 2.00040E+01 9.85836E-04-1.25376E-05-8.91745E-04 1.40821E-13 1.83160E-13
 -1      3396 2.00039E+01 9.25779E-04-3.53484E-06-1.56933E-03 2.37181E-13-1.90902E-13
 -1      3397 2.00045E+01 2.70607E-03 2.83778E-05-1.74215E-03 1.00747E-13-1.92252E-13
 -1      3398 2.00046E+01 3.09982E-03 3.38701E-05-5.05153E-04 1.12285E-13-7.87926E-15
 -1      3399 2.40310E+01-3.75213E+00-2.15084E-02 1.82132E+00 2.09878E-13 2.82830E-13
 -1      3400 2.32765E+01-4.25220E+00 3.01071E-02 3.09007E+00 3.18520E-13 1.45389E-13
 -1      3401 2.21176E+01-3.68795E+00 1.37198E-02 3.29826E+00 3.38689E-13 7.65360E-15
 -1      3402 2.61204E+01-2.92102E+00 1.47044E-02 8.71626E-02 3.26475E-14 4.27630E-13
 -1      3403 2.44722E+01-3.82787E+00 2.39580E-02-1.71638E+00 3.63463E-13-4.65537E-13
 -1      3404 1.31720E+01-3.46581E-01 1.01531E-01 3.16513E+00-1.30189E-13 3.47208E-13
 -1      3405 2.04459E+01-3.66688E+00 1.18453E-01-4.41208E+00-5.51045E-13-2.37407E-13
 -1      3406 2.71068E+01-2.17606E+00-2.54530E-02-1.69579E+00-2.58977E-13-9.49525E-13
 -1      3407 1.73662E+01-2.35896E+00 9.56230E-02 4.49234E+00-4.14994E-13-3.70641E-14
 -1      3408 2.58099E+01 1.85009E+00-8.81633E-02-2.04534E+00-4.92398E-13 3.86954E-13
 -1      3409 2.58375E+01 1.73899E+00-8.22117E-02 2.22570E+00-3.34271E-13-5.97643E-13
 -1      3410 2.01822E+01 1.66096E+00 2.91208E-05 8.19570E-02-3.10883E-13-5.92171E-13
 -1      3411 2.70439E+01-1.17579E-01-3.40441E-02-1.71486E+00-3.58304E-13 5.95440E-13
 -1      3412 2.00021E+01 4.03030E-04-9.74527E-06 4.70910E-03-3.15422E-14-6.59039E-13
 -1      3413 2.00024E+01 1.80315E-04-1.29261E-05 4.43603E-03 1.74034E-13-6.75489E-13
 -1      3414 2.00032E+01 1.79004E-03 2.29185E-05 3.93017E-03 4.86690E-14-7.29950E-13
 -1      3415 2.00026E+01 1.68782E-03 3.99826E-05 4.39453E-03 2.07289E-14-6.22374E-13
 -1      3416 1.95908E+01 2.51120E+00-2.98784E-03-1.08389E-02-2.07312E-13-6.95718E-13
 -1      3417 1.97872E+01 2.32870E+00-3.49944E-03-7.48034E-02-2.83217E-13-6.86202E-13
 -1      3418 1.98936E+01 2.09361E+00 2.59887E-03 2.32307E-02-2.74784E-13-6.53062E-13
 -1      3419 2.17775E+01-3.87270E+00 7.56357E-02 3.72298E+00-5.49207E-13-5.91811E-13
 -1      3420 1.62590E+01-2.44415E+00 8.67620E-02-5.06030E+00 6.81767E-13 1.74499E-13
 -1      3421 1.92476E+01 2.80140E+00-4.80943E-03 8.40192E-02-8.73598E-14-7.44422E-13
 -1      3422 1.94091E+01 2.67203E+00-2.31193E-03 3.30191E-02-1.41701E-13-7.60823E-13
 -1      3423 1.95006E+01 2.45383E+00 2.44041E-03 1.09508E-01-1.63316E-13-7.01892E-13
 -1      3424 2.03675E+01 1.01467E+00 4.51859E-04-9.33755E-01 3.23078E-13-2.98166E-13
 -1      3425 2.03877E+01 1.12697E+00 1.97427E-03-6.85210E-01 3.80542E-13-3.01105E-13
 -1      3426 2.02245E+01 1.34261E+00 1.44230E-03-6.00779E-01 3.96397E-13-3.21725E-13
 -1      3427 2.00681E+01 1.16684E+00 1.35752E-03-1.01424E+00 2.74477E-13-2.86644E-13
 -1      3428 1.97625E+01-2.96421E+00 9.84850E-02-4.28178E+00-4.71005E-13-2.27547E-13
 -1      3429 1.16266E+01 4.62027E-01 1.91480E-02 1.59837E+00 2.40954E-13-9.76080E-13
 -1      3430 1.10451E+01 7.37794E-01 1.27344E-01 5.20755E-03 9.11615E-14-1.08753E-12
 -1      3431 2.03286E+01 1.14384E-01 6.57859E-03 1.33190E+00-6.72395E-14-2.82068E-13
 -1      3432 2.04575E+01-1.46084E-01 3.42800E-03 1.42019E+00-2.97833E-14-2.74162E-13
 -1      3433 2.06125E+01-4.27185E-01 1.07600E-02 1.53260E+00-2.69825E-15-2.24310E-13
 -1      3434 2.08307E+01-7.42840E-01 3.65099E-03 1.56081E+00 5.69792E-14-1.86894E-13
 -1      3435 2.02146E+01-2.39038E-01-1.26077E-02 1.61795E+00 2.37243E-14-2.23994E-13
 -1      3436 2.11224E+01-1.07993E+00 1.68722E-02 1.61621E+00 1.07744E-13-1.70877E-13
 -1      3437 2.14516E+01-1.44510E+00 1.86742E-03 1.54967E+00 1.30537E-13-1.38950E-13
 -1      3438 2.06101E+01-9.30776E-01-1.90074E-02 1.83445E+00 9.24174E-14-1.60428E-13
 -1      3439 2.19479E+01-1.81032E+00 2.89850E-02 1.49708E+00 1.43089E-13-9.09056E-14
 -1      3440 2.24206E+01-2.15920E+00 7.88774E-03 1.26020E+00 1.15690E-13-8.38912E-15
 -1      3441 2.13223E+01-1.75493E+00-2.37945E-02 1.91445E+00 1.68265E-13-1.09720E-13
 -1      3442 2.30871E+01-2.75894E+00 2.03874E-02 1.37537E+00 1.28089E-13 1.01035E-13
 -1      3443 2.36743E+01-2.93209E+00-8.75861E-04 9.81189E-01 9.87565E-14 1.47328E-13
 -1      3444 2.45841E+01-3.00766E+00 1.66412E-02 4.67213E-01 6.61467E-14 2.51243E-13
 -1      3445 2.50287E+01-2.67218E+00-1.27058E-02-7.55727E-02-4.56492E-14 3.40427E-13
 -1      3446 2.56377E+01-1.70405E+00-6.12374E-02-1.17483E+00-1.58000E-13 4.29405E-13
 -1      3447 2.57798E+01-5.37666E-01-3.65998E-02-1.60645E+00-2.59709E-13 4.77939E-13
 -1      3448 2.53445E+01 6.38148E-01 3.34404E-03 2.11816E+00-1.40256E-13-5.44726E-13
 -1      3449 1.97585E+01 2.06522E+00-2.20150E-03 1.61460E-01-2.11241E-13-6.09260E-13
 -1      3450 1.99712E+01 1.86414E+00-1.36098E-03 1.18318E-01-2.59285E-13-6.26844E-13
 -1      3451 2.00599E+01 1.65050E+00 3.82417E-03 2.27059E-01-2.47578E-13-5.82336E-13
 -1      3452 2.37205E+01-2.61065E+00-1.41474E-02-2.82175E-01 8.55045E-14-3.97780E-13
 -1      3453 2.32632E+01-2.49294E+00 3.83492E-02-6.94277E-01 1.56912E-13-3.93167E-13
 -1      3454 2.24838E+01-2.26749E+00-7.42453E-03-1.03311E+00 2.58549E-13-2.78015E-13
 -1      3455 2.20252E+01-1.93924E+00 2.73103E-02-1.26645E+00 2.77807E-13-1.54787E-13
 -1      3456 2.25970E+01-2.74249E+00-5.03074E-02-1.38986E+00 2.47192E-13-3.08763E-13
 -1      3457 2.14788E+01-1.60636E+00-5.25049E-04-1.36840E+00 1.87127E-13-6.21257E-14
 -1      3458 2.11138E+01-1.25654E+00 1.84014E-02-1.46485E+00 1.82807E-13-7.80368E-14
 -1      3459 2.13401E+01-1.94536E+00-3.48068E-02-1.73087E+00 2.49174E-13-1.59833E-13
 -1      3460 2.07672E+01-9.45882E-01 3.34923E-03-1.44459E+00 1.36844E-13-8.61557E-14
 -1      3461 2.05081E+01-6.58653E-01 1.06179E-02-1.45378E+00 8.30707E-14-5.22327E-14
 -1      3462 2.05316E+01-1.15865E+00-2.12276E-02-1.74161E+00 1.55170E-13-4.52446E-14
 -1      3463 2.03129E+01-4.16590E-01 4.68894E-03-1.37687E+00 6.42065E-16-1.52552E-13
 -1      3464 2.01433E+01-2.10001E-01 5.41771E-03-1.33804E+00-4.97565E-14-1.20847E-13
 -1      3465 2.00402E+01-5.28962E-01-1.36742E-02-1.59264E+00 2.81516E-14-3.26102E-14
 -1      3466 2.00488E+01-4.27092E-02 4.39990E-03-1.24219E+00-5.04286E-14-4.97488E-14
 -1      3467 1.99459E+01 9.09339E-02 2.17831E-03-1.18004E+00 2.89979E-14 2.77103E-14
 -1      3468 1.97813E+01-8.34989E-02-8.01803E-03-1.38911E+00 2.24989E-14 5.88411E-14
 -1      3469 1.99131E+01 1.94551E-01 3.61481E-03-1.08292E+00-6.98532E-15-8.66364E-15
 -1      3470 1.98551E+01 2.70768E-01 2.75163E-04-1.01178E+00 7.40226E-14-1.76765E-14
 -1      3471 1.96704E+01 2.00947E-01-4.32148E-03-1.17946E+00 1.08639E-14 1.43316E-13
 -1      3472 1.98575E+01 3.25974E-01 2.84274E-03-9.21087E-01 1.82687E-13-1.03394E-13
 -1      3473 1.98277E+01 3.60765E-01-7.54598E-04-8.49105E-01 1.87942E-13-1.05741E-13
 -1      3474 1.96471E+01 3.61400E-01-2.00512E-03-9.83509E-01 1.00995E-13-8.79810E-14
 -1      3475 1.98480E+01 3.82038E-01 2.22483E-03-7.67855E-01 1.06640E-13-1.59277E-13
 -1      3476 1.98347E+01 3.89060E-01-1.25652E-03-6.99628E-01 5.93515E-15-1.45738E-13
 -1      3477 1.96713E+01 4.33309E-01-6.42598E-04-8.08343E-01 1.11999E-13-2.08110E-13
 -1      3478 1.98624E+01 3.88272E-01 1.76571E-03-6.28693E-01-5.65256E-14-1.28595E-13
 -1      3479 1.98580E+01 3.78111E-01-1.43998E-03-5.66722E-01-7.23773E-15-1.80222E-13
 -1      3480 1.97176E+01 4.46202E-01 1.01581E-04-6.55554E-01-9.44087E-15-2.05892E-13
 -1      3481 1.98868E+01 3.64222E-01 1.42896E-03-5.06011E-01-3.05499E-14-1.78115E-13
 -1      3482 1.98867E+01 3.44573E-01-1.43606E-03-4.51503E-01-4.09328E-14-2.54287E-13
 -1      3483 1.97709E+01 4.22646E-01 4.63115E-04-5.24560E-01-3.06676E-14-1.71838E-13
 -1      3484 1.99134E+01 3.23951E-01 1.17486E-03-4.00450E-01-5.23099E-14-2.73309E-13
 -1      3485 1.99149E+01 3.00117E-01-1.32745E-03-3.53759E-01 2.00730E-14-2.16609E-13
 -1      3486 1.98225E+01 3.78978E-01 5.96438E-04-4.13933E-01-5.19590E-14-2.43051E-13
 -1      3487 1.99379E+01 2.77044E-01 9.74282E-04-3.11539E-01-2.38102E-14-3.21661E-13
 -1      3488 1.99397E+01 2.52474E-01-1.16701E-03-2.72460E-01-7.19347E-14-4.04052E-13
 -1      3489 1.98681E+01 3.26463E-01 6.01146E-04-3.21868E-01-1.09775E-13-2.69626E-13
 -1      3490 1.99585E+01 2.29648E-01 8.09028E-04-2.38110E-01 7.65781E-14-3.48237E-13
 -1      3491 1.99599E+01 2.06425E-01-9.88304E-04-2.06082E-01 8.18320E-14-1.73650E-13
 -1      3492 1.99061E+01 2.72450E-01 5.40149E-04-2.46377E-01 7.97549E-14-3.33069E-13
 -1      3493 1.99747E+01 1.85409E-01 6.68785E-04-1.78582E-01 2.72518E-14 5.60190E-14
 -1      3494 1.99756E+01 1.64655E-01-8.11963E-04-1.52841E-01-5.79156E-14 1.79696E-14
 -1      3495 1.99363E+01 2.21402E-01 4.51875E-04-1.85399E-01 1.58869E-13-1.36462E-13
 -1      3496 1.99868E+01 1.46224E-01 5.48078E-04-1.31178E-01-1.10177E-13 8.64832E-14
 -1      3497 1.99871E+01 1.28413E-01-6.49818E-04-1.10871E-01-4.29719E-14 2.55008E-13
 -1      3498 1.99594E+01 1.75738E-01 3.58629E-04-1.36890E-01-3.09602E-14 1.16615E-13
 -1      3499 1.99953E+01 1.12829E-01 4.44024E-04-9.40821E-02-1.43999E-13 3.26473E-13
 -1      3500 1.99952E+01 9.80229E-02-5.07760E-04-7.83543E-02-2.29681E-13 2.97756E-13
 -1      3501 1.99763E+01 1.36492E-01 2.72337E-04-9.88949E-02-1.11316E-13 3.09156E-13
 -1      3502 2.00009E+01 8.52288E-02 3.54936E-04-6.55587E-02-3.31641E-13 2.82037E-13
 -1      3503 2.00005E+01 7.32439E-02-3.87796E-04-5.35993E-02-1.75886E-13 3.30328E-13
 -1      3504 1.99883E+01 1.03809E-01 1.98455E-04-6.96051E-02-2.59161E-13 3.15094E-13
 -1      3505 2.00043E+01 6.30001E-02 2.79561E-04-4.40178E-02 2.48243E-14 2.83669E-13
 -1      3506 2.00036E+01 5.35221E-02-2.89516E-04-3.50967E-02 8.00873E-14 1.36622E-13
 -1      3507 1.99963E+01 7.73010E-02 1.38581E-04-4.73986E-02-1.22810E-13 3.32161E-13
 -1      3508 2.00061E+01 4.55006E-02 2.16716E-04-2.80576E-02 1.36046E-13 1.08650E-13
 -1      3509 2.00053E+01 3.81605E-02-2.11114E-04-2.15396E-02 2.03874E-13 1.72892E-13
 -1      3510 2.00014E+01 5.62906E-02 9.21720E-05-3.08585E-02 9.33042E-14 5.03984E-14
 -1      3511 2.00067E+01 3.20034E-02 1.65192E-04-1.64780E-02 1.88781E-13 1.32340E-13
 -1      3512 2.00058E+01 2.64240E-02-1.50282E-04-1.18279E-02 1.55487E-13 1.68863E-13
 -1      3513 2.00042E+01 3.99798E-02 5.76201E-05-1.87772E-02 1.89528E-13-7.62777E-14
 -1      3514 2.00065E+01 2.17777E-02 1.23804E-04-8.28151E-03 9.53700E-14 1.43748E-13
 -1      3515 2.00056E+01 1.76014E-02-1.04249E-04-5.06171E-03 2.26190E-13-1.14650E-14
 -1      3516 2.00056E+01 2.75467E-02 3.25763E-05-1.01496E-02 1.37519E-13-1.26469E-13
 -1      3517 2.00058E+01 1.41406E-02 9.10622E-05-2.66068E-03 2.98763E-13-9.03817E-14
 -1      3518 2.00050E+01 1.10471E-02-6.82348E-05-5.22407E-04 3.73818E-13-1.65766E-13
 -1      3519 2.00058E+01 1.82135E-02 1.58174E-05-4.16228E-03 2.12252E-13-7.47616E-14
 -1      3520 2.00048E+01 8.44498E-03 5.85452E-05 1.03645E-03 4.56399E-13-4.28306E-13
 -1      3521 2.00041E+01 6.16774E-03-3.09849E-05 2.33388E-03 3.59165E-13-3.99391E-13
 -1      3522 2.00053E+01 1.12788E-02 6.43681E-06-1.56948E-04 2.88155E-13-3.32535E-13
 -1      3523 1.92119E+01 7.95899E-01-6.44333E-03 1.49011E+00-2.87369E-14-1.92125E-13
 -1      3524 1.91771E+01 7.64519E-01 5.55238E-03 1.63230E+00-4.75520E-14-2.20705E-13
 -1      3525 1.93598E+01-1.21856E+00 2.21552E-02-3.30248E+00-2.38873E-13-2.52770E-13
 -1      3526 1.89667E+01-6.16659E-01 8.57490E-04-3.07402E+00-1.49065E-13-2.81877E-13
 -1      3527 2.00024E+01-3.75136E-04-2.27491E-06-4.56487E-03-1.91064E-13 1.64330E-13
 -1      3528 2.00018E+01-4.62424E-04 2.93483E-06-4.94641E-03-2.43429E-13 9.36279E-14
 -1      3529 2.00020E+01 2.38629E-04-3.72543E-06-4.91581E-03-3.10945E-13 2.39740E-14
 -1      3530 2.00031E+01 1.11647E-03-6.15969E-06-4.09901E-03-2.51867E-13 1.55559E-13
 -1      3531 1.89958E+01 6.87489E-01-7.01195E-03 1.80528E+00-8.72449E-14-2.35168E-13
 -1      3532 1.89982E+01 5.71109E-01 1.03547E-02 1.96999E+00-1.38439E-13-2.65657E-13
 -1      3533 1.85871E+01 8.69407E-01 5.25693E-03 1.63012E+00-1.16452E-13-2.90649E-13
 -1      3534 1.95797E+01 7.23849E-01-4.61261E-03 1.00693E+00 1.12012E-14-8.00576E-14
 -1      3535 1.95428E+01 7.64013E-01 2.03610E-03 1.11568E+00 1.93675E-14-1.07083E-13
 -1      3536 1.97096E+01 6.31938E-01-3.81233E-03 8.16689E-01-6.17154E-14-1.67830E-13
 -1      3537 1.96821E+01 6.81472E-01 1.55019E-03 9.11272E-01-1.02153E-14-9.83124E-14
 -1      3538 1.94111E+01 7.94282E-01 4.05174E-03 9.00427E-01 2.62002E-14-1.22618E-13
 -1      3539 1.98063E+01 5.33654E-01-3.11488E-03 6.54151E-01-7.79087E-14-1.42342E-13
 -1      3540 1.97880E+01 5.84269E-01 1.34217E-03 7.35323E-01-7.37189E-14-1.48471E-13
 -1      3541 1.95808E+01 6.86817E-01 3.17681E-03 7.32001E-01-2.52205E-14-7.35969E-14
 -1      3542 1.98758E+01 4.39672E-01-2.51602E-03 5.16716E-01-1.39511E-13-1.53770E-13
 -1      3543 1.98650E+01 4.86975E-01 1.23198E-03 5.85272E-01-5.40493E-14-1.27934E-13
 -1      3544 1.97082E+01 5.77066E-01 2.40041E-03 5.87972E-01-7.94467E-14 5.28719E-14
 -1      3545 1.99243E+01 3.55172E-01-2.00923E-03 4.02113E-01-1.44022E-13-2.94064E-13
 -1      3546 1.99190E+01 3.97133E-01 1.13883E-03 4.59047E-01-1.70490E-13-2.87974E-13
 -1      3547 1.98018E+01 4.74151E-01 1.76272E-03 4.65730E-01-8.78689E-14-9.65347E-14
 -1      3548 1.99572E+01 2.82116E-01-1.58633E-03 3.08007E-01 1.30142E-13-4.01284E-13
 -1      3549 1.99556E+01 3.18074E-01 1.03488E-03 3.54506E-01-3.05661E-14-3.68286E-13
 -1      3550 1.98693E+01 3.82446E-01 1.26368E-03 3.63321E-01-1.95463E-14-2.80157E-13
 -1      3551 1.99789E+01 2.20677E-01-1.23806E-03 2.31947E-01 1.36879E-13-1.37261E-13
 -1      3552 1.99795E+01 2.50725E-01 9.17110E-04 2.69310E-01 1.51615E-13-2.41723E-13
 -1      3553 1.99170E+01 3.03490E-01 8.86112E-04 2.78846E-01 3.00751E-14-2.78346E-13
 -1      3554 1.99926E+01 1.70097E-01-9.54824E-04 1.71438E-01 2.09789E-13 4.02442E-14
 -1      3555 1.99944E+01 1.94710E-01 7.91785E-04 2.00987E-01 1.47457E-13-5.41353E-15
 -1      3556 1.99501E+01 2.37214E-01 6.07682E-04 2.10293E-01-1.53598E-14 1.60576E-13
 -1      3557 2.00009E+01 1.29187E-01-7.27193E-04 1.24060E-01 1.62161E-13 3.19760E-14
 -1      3558 2.00033E+01 1.49009E-01 6.66856E-04 1.47064E-01 2.78571E-13-1.92172E-14
 -1      3559 1.99725E+01 1.82700E-01 4.06617E-04 1.55575E-01 2.07386E-13 1.01590E-13
 -1      3560 2.00056E+01 9.66180E-02-5.46369E-04 8.75520E-02-8.08508E-14 1.23199E-13
 -1      3561 2.00081E+01 1.12335E-01 5.48895E-04 1.05179E-01 2.03586E-14 1.15193E-13
 -1      3562 1.99873E+01 1.38631E-01 2.64099E-04 1.12617E-01 6.80955E-14 1.15576E-13
 -1      3563 2.00078E+01 7.10709E-02-4.04417E-04 5.98808E-02-3.05563E-13-2.81344E-14
 -1      3564 2.00102E+01 8.33518E-02 4.42253E-04 7.31677E-02-1.86496E-13 2.40818E-14
 -1      3565 1.99968E+01 1.03561E-01 1.64910E-04 7.94490E-02-6.73199E-14 1.64732E-13
 -1      3566 2.00085E+01 5.13208E-02-2.94386E-04 3.92688E-02-3.03590E-13 7.14373E-14
 -1      3567 2.00106E+01 6.07781E-02 3.49187E-04 4.91111E-02-3.12602E-13 1.46011E-14
 -1      3568 2.00024E+01 7.60683E-02 9.72348E-05 5.42731E-02-3.15839E-13-6.29092E-14
 -1      3569 2.00082E+01 3.62712E-02-2.10284E-04 2.42037E-02-1.95355E-13 2.33009E-14
 -1      3570 2.00101E+01 4.34492E-02 2.70317E-04 3.13552E-02-2.40044E-13 7.95760E-14
 -1      3571 2.00055E+01 5.48274E-02 5.21388E-05 3.55031E-02-3.40930E-13 9.96566E-15
 -1      3572 2.00074E+01 2.49650E-02-1.47029E-04 1.34288E-02-8.14021E-15 1.74171E-13
 -1      3573 2.00090E+01 3.03367E-02 2.05126E-04 1.85100E-02-1.20750E-13 4.88564E-14
 -1      3574 2.00068E+01 3.86533E-02 2.30621E-05 2.17799E-02-1.76224E-13 4.52325E-14
 -1      3575 2.00063E+01 1.65805E-02-1.00330E-04 5.92342E-03-5.47616E-14 2.67362E-13
 -1      3576 2.00076E+01 2.05503E-02 1.52720E-04 9.43373E-03 4.37705E-15 1.96860E-13
 -1      3577 2.00070E+01 2.65075E-02 4.71907E-06 1.19682E-02-7.08605E-14 3.94345E-13
 -1      3578 2.00052E+01 1.04169E-02-6.57166E-05 8.76348E-04-3.39614E-14 3.10529E-13
 -1      3579 2.00062E+01 1.33293E-02 1.11932E-04 3.20693E-03 7.45147E-14 2.35662E-13
 -1      3580 2.00065E+01 1.74936E-02-8.25675E-06 5.13977E-03-4.63762E-14 4.05135E-13
 -1      3581 2.00040E+01 5.85284E-03-4.27336E-05-2.31937E-03 6.80638E-14 2.10376E-13
 -1      3582 2.00048E+01 7.99760E-03 7.56823E-05-8.92619E-04-1.92696E-14 2.96284E-13
 -1      3583 2.00056E+01 1.08485E-02-1.45174E-05 5.48396E-04 2.20131E-14 2.99950E-13
 -1      3584 1.55433E+01-1.55210E+00 7.91319E-02-4.49534E+00 5.60293E-13 1.34219E-13
 -1      3585 1.75305E+01-2.58685E+00-4.22104E-02-4.65267E+00 6.40203E-13 2.87166E-14
 -1      3586 1.27610E+01-1.68908E-01 3.28787E-02-3.18427E+00 4.53519E-13 4.62373E-13
 -1      3587 1.40582E+01-9.33133E-01 2.56775E-02-4.12680E+00 4.89019E-13 2.47399E-13
 -1      3588 1.57445E+01-9.56807E-01 6.68195E-02-3.82448E+00 4.49961E-13 1.22563E-13
 -1      3589 1.98705E+01-3.14955E+00 9.69630E-02-4.22304E+00 5.92883E-13-3.99576E-14
 -1      3590 2.16129E+01-3.83482E+00-7.60083E-02-3.45433E+00 5.09108E-13-2.39631E-13
 -1      3591 1.88151E+01 3.80228E-01-5.96157E-03 2.19943E+00-2.08046E-13-3.16817E-13
 -1      3592 1.89129E+01 1.22663E-01 1.87973E-02 2.39207E+00-2.71865E-13-4.17143E-13
 -1      3593 1.82279E+01 6.47018E-01 3.68943E-03 2.02247E+00-2.38007E-13-2.54038E-13
 -1      3594 2.00484E+01 1.53280E+00-1.07214E-03-4.93305E-01 3.91665E-13-3.61629E-13
 -1      3595 1.98821E+01 1.75712E+00 1.52334E-03-4.02130E-01 3.94141E-13-4.09539E-13
 -1      3596 1.99705E+01 1.42684E+00-2.80468E-03-7.09176E-01 3.29771E-13-3.36640E-13
 -1      3597 1.90230E+01 2.93895E+00-5.95775E-03 1.46467E-01 2.51042E-14-7.75214E-13
 -1      3598 1.91320E+01 2.86257E+00-1.47484E-03 1.17135E-01-4.45041E-14-7.41417E-13
 -1      3599 1.91995E+01 2.66893E+00 3.66003E-03 1.75241E-01-4.10096E-14-7.13268E-13
 -1      3600 1.90051E+01 2.74447E+00 5.23826E-03 1.94231E-01 5.34879E-14-7.14118E-13
 -1      3601 2.01920E+01 5.76017E-01 4.22289E-03 1.05518E+00-8.19844E-14-3.85059E-13
 -1      3602 2.02584E+01 3.50544E-01 2.13453E-03 1.18767E+00-6.81100E-14-3.41917E-13
 -1      3603 2.00247E+01 3.27686E-01-7.19619E-03 1.33101E+00-4.54843E-14-3.38066E-13
 -1      3604 1.43580E+01-9.87260E-01 8.53831E-02-4.08612E+00-3.93127E-13-7.10799E-13
 -1      3605 1.65250E+01-2.16308E+00-2.66100E-02-4.71084E+00-4.57492E-13-5.22304E-13
 -1      3606 2.00806E+01 1.38794E+00-1.58712E-03 4.32722E-01-1.99847E-13-5.33921E-13
 -1      3607 1.94128E+01 7.89731E-01-5.51322E-03 1.22886E+00 1.05164E-13-1.06720E-13
 -1      3608 1.93705E+01 8.06085E-01 3.15919E-03 1.35302E+00 1.07076E-13-1.02756E-13
 -1      3609 1.91910E+01 8.82693E-01 4.90389E-03 1.09798E+00 6.74382E-14-1.38034E-13
 -1      3610 2.01342E+01 1.01124E+00 3.10818E-03 7.17650E-01-1.44435E-13-4.64218E-13
 -1      3611 2.01647E+01 7.91736E-01 3.45222E-04 8.88472E-01-9.34036E-14-4.25792E-13
 -1      3612 1.99524E+01 8.16261E-01-3.32361E-03 1.00295E+00-7.36967E-14-4.12302E-13
 -1      3613 2.00049E+01 5.27429E-03-1.47676E-05 8.50165E-04 4.85110E-14-4.28298E-13
 -1      3614 2.00050E+01 5.34591E-03-2.28810E-05 3.26070E-04 1.94463E-13-4.05786E-13
 -1      3615 1.49028E+01-6.37863E-01 3.27138E-02 3.65076E+00-1.64388E-13 5.51642E-14
 -1      3616 1.33196E+01 2.92272E-01 3.01365E-02 2.41450E+00 7.56513E-15 2.83246E-13
 -1      3617 1.96262E+01-2.90398E+00-6.40187E-03 4.08158E+00 4.63005E-13-2.58325E-13
 -1      3618 1.77912E+01-2.21598E+00 1.09901E-01 4.59129E+00 5.36939E-13-4.26997E-13
 -1      3619 2.34118E+01-3.52893E+00 8.08212E-02-2.06799E+00 4.15280E-13-3.50801E-13
 -1      3620 2.43105E+01-3.18611E+00-6.15708E-02-6.67233E-01 1.94138E-13-5.52936E-13
 -1      3621 2.52269E+01-6.77132E-01-8.65921E-02 1.83163E+00-2.52732E-14-4.63861E-13
 -1      3622 1.84398E+01-2.29606E+00-1.22107E-02 4.10378E+00-3.90205E-13-3.16643E-13
 -1      3623 1.64453E+01-1.34071E+00 6.08424E-02 4.02723E+00-3.07336E-13-4.21677E-14
 -1      3624 1.64482E+01-5.60114E-01 6.67837E-02 3.32853E+00-1.89748E-13-1.31020E-13
 -1      3625 2.52120E+01-2.01000E+00 9.28285E-03 8.54506E-01 4.91707E-14-5.23993E-13
 -1      3626 2.47555E+01-2.60984E+00-6.80244E-04 2.69547E-01 1.24266E-13-5.44092E-13
 -1      3627 1.96228E+01 1.96102E+00-5.39032E-03-3.52504E-01 3.43467E-13-4.63774E-13
 -1      3628 1.28448E+01 8.32200E-01-1.17604E-02-1.03175E+00 3.19079E-13 5.00117E-13
 -1      3629 1.26660E+01 4.75922E-01 7.57912E-02-2.20658E+00 4.47772E-13 5.85774E-13
 -1      3630 1.41298E+01 3.15957E-01 4.81865E-02-2.44817E+00 4.06455E-13 4.18120E-13
 -1      3631 1.89662E+01-2.15155E+00 7.19297E-02-3.99697E+00-3.88450E-13-3.19357E-13
 -1      3632 1.67724E+01-1.56731E+00 2.00111E-02 4.14219E+00 4.31591E-13-4.76019E-13
 -1      3633 1.33224E+01 2.21777E-01 2.14697E-03-2.55026E+00-1.55089E-13-7.51579E-13
 -1      3634 1.37642E+01-3.37454E-01 7.84735E-02-3.47721E+00-2.91146E-13-7.56548E-13
 -1      3635 1.53657E+01-4.89771E-01 3.11221E-02-3.49383E+00-2.97031E-13-6.24972E-13
 -1      3636 2.23930E+01-2.85550E+00-1.08388E-02 2.09220E+00 2.18756E-13 2.37137E-14
 -1      3637 1.95608E+01 2.24111E+00-1.30879E-03 1.86871E-01-1.75045E-13-6.58569E-13
 -1      3638 1.96470E+01 2.03320E+00 3.00589E-03 2.79375E-01-1.72002E-13-6.17550E-13
 -1      3639 1.93734E+01 2.39705E+00-3.37323E-03 2.19961E-01-9.51469E-14-7.06617E-13
 -1      3640 1.89153E+01 9.23449E-01 5.47709E-03 1.33450E+00 3.73901E-14-3.17188E-13
 -1      3641 2.00037E+01 4.54205E-03 4.31709E-05 3.14955E-03 2.96569E-13-4.89560E-13
 -1      3642 2.00031E+01 2.96002E-03-6.85348E-06 3.85276E-03 1.97367E-13-5.73866E-13
 -1      3643 2.00034E+01 3.06816E-03-2.33829E-05 3.63218E-03 1.04680E-13-7.81291E-13
 -1      3644 2.00045E+01 6.42215E-03-1.06526E-05 2.19263E-03 1.97028E-13-5.32954E-13
 -1      3645 1.95226E+01 1.12003E+00 1.65635E-03-1.41782E+00 1.85619E-13-3.23356E-13
 -1      3646 1.95954E+01 1.22220E+00-2.23149E-03-1.21291E+00 1.96669E-13-3.44493E-13
 -1      3647 1.80231E+01-1.29928E-01 1.57303E-02-2.97823E+00-1.56865E-13-3.72394E-13
 -1      3648 1.90698E+01-1.32902E-01 2.26219E-02-2.72432E+00-9.40809E-14-3.11794E-13
 -1      3649 1.89254E+01 2.16769E-01-4.94354E-03-2.51670E+00-5.16150E-14-3.04024E-13
 -1      3650 1.28399E+01 3.36364E-01 1.17027E-01 2.52170E+00 3.08049E-13-8.54358E-13
 -1      3651 1.31357E+01 7.13192E-01 2.52287E-02 1.43581E+00 2.24713E-13-8.68011E-13
 -1      3652 1.42206E+01-2.27945E-01-6.62108E-03 3.15346E+00 3.83776E-13-6.66939E-13
 -1      3653 1.97031E+01 3.92833E-01-6.12486E-03-2.22230E+00 1.30348E-14-2.68074E-13
 -1      3654 2.00047E+01 4.73106E-03-6.82576E-06 1.83895E-03 1.29975E-13 8.89981E-14
 -1      3655 2.00048E+01 4.95694E-03-2.63581E-05 1.30901E-03 5.52192E-14-5.72291E-14
 -1      3656 2.00054E+01 7.55467E-03 6.32125E-05 8.87081E-04 3.64324E-14-1.90448E-13
 -1      3657 1.92996E+01 2.48968E+00 8.27376E-03-7.23900E-02 2.99409E-13-5.71282E-13
 -1      3658 1.90732E+01-1.26670E+00 2.67512E-02 3.29289E+00-2.74452E-13-5.66269E-13
 -1      3659 1.96717E+01-2.08702E+00 3.03214E-02 3.48791E+00-3.28969E-13-5.42285E-13
 -1      3660 1.89515E+01-2.41854E+00 4.67058E-02-3.94015E+00 5.15588E-13 8.20680E-14
 -1      3661 2.23411E+01-3.14121E+00 2.02360E-02-2.30157E+00 3.73904E-13-2.27810E-13
 -1      3662 2.00029E+01 2.47800E-03-1.62447E-05-4.17585E-03-3.31305E-14 7.69875E-14
 -1      3663 2.00035E+01 4.08752E-03 5.16254E-05-3.37600E-03 7.60873E-14 2.26726E-13
 -1      3664 2.00023E+01 1.02875E-03 2.28272E-05-4.71421E-03-1.99958E-13 5.42767E-14
 -1      3665 1.29608E+01 7.60955E-01 8.42978E-02 1.65715E+00 1.12287E-13 4.38448E-13
 -1      3666 1.29150E+01 8.86594E-01 2.04468E-02 6.65506E-01 2.15109E-13 4.75422E-13
 -1      3667 1.44889E+01 5.09959E-01 3.71145E-02 2.17952E+00 4.58934E-14 1.02779E-13
 -1      3668 2.00050E+01 5.34193E-03-1.96658E-05-1.07527E-04 2.46973E-13-4.80266E-14
 -1      3669 2.00050E+01 5.22418E-03-1.74066E-05-6.46101E-04 2.45809E-13-2.78606E-14
 -1      3670 2.00055E+01 7.86657E-03 6.27351E-05 1.01221E-04 2.22264E-13-2.40827E-13
 -1      3671 2.19151E+01-2.97857E+00 9.40754E-03 2.63148E+00 3.23302E-13 2.70305E-14
 -1      3672 2.09215E+01-3.00580E+00 3.81887E-02 3.54526E+00 4.25311E-13-1.56481E-13
 -1      3673 1.97148E+01-2.23080E+00-4.97291E-03 3.48169E+00 3.94425E-13-2.64228E-13
 -1      3674 2.13085E+01-2.24115E+00 3.32912E-03 2.40474E+00 2.60580E-13-9.16788E-14
 -1      3675 2.00046E+01 3.96430E-03-3.96812E-05-2.26078E-03-3.01931E-14-2.09595E-13
 -1      3676 2.00043E+01 3.64740E-03-3.85403E-06-2.82529E-03-2.67467E-14 4.67992E-14
 -1      3677 1.21445E+01 7.26168E-01 6.96932E-02-7.21435E-01 8.46068E-15-9.29784E-13
 -1      3678 2.06168E+01-2.94632E+00 6.08310E-02 3.74368E+00-4.22233E-13-6.24414E-13
 -1      3679 1.87705E+01-2.26114E-01 1.24052E-03 2.69102E+00-2.59934E-13-4.90014E-13
 -1      3680 1.90617E+01-6.98079E-01 3.19467E-02 2.90598E+00-2.61314E-13-5.13410E-13
 -1      3681 1.76982E+01-7.54238E-01-1.16939E-02 3.28362E+00-2.80568E-13-4.04524E-13
 -1      3682 1.78937E+01 1.55668E-01 2.86599E-04 2.55563E+00-3.24183E-13-3.86584E-13
 -1      3683 1.85997E+01-1.58573E+00 3.26860E-02-3.77505E+00-3.15276E-13-3.38573E-13
 -1      3684 1.92962E+01 8.80302E-01 5.87217E-03-1.81629E+00 9.28710E-14-3.00561E-13
 -1      3685 1.93462E+01 1.00747E+00-4.22724E-03-1.62007E+00 1.63844E-13-3.04078E-13
 -1      3686 1.90589E+01 1.24575E+00 5.12749E-03-1.41339E+00 1.63871E-13-3.65942E-13
 -1      3687 1.89690E+01 2.47290E+00-3.75779E-03-5.70130E-02 2.27410E-13-6.22946E-13
 -1      3688 1.88752E+01 2.54013E+00-5.04750E-03 6.33398E-03 1.86421E-13-6.43161E-13
 -1      3689 2.00045E+01 4.88343E-03-1.27870E-06-2.74161E-03 2.26979E-13 3.76163E-14
 -1      3690 2.00038E+01 2.74813E-03-4.18836E-06-3.49388E-03 1.11640E-14 1.82758E-13
 -1      3691 1.98924E+01 1.43846E+00-8.94193E-04 5.47476E-01-1.42506E-13-5.23740E-13
 -1      3692 1.71410E+01-9.07637E-01 4.02391E-02-3.74616E+00-2.84880E-13-4.60145E-13
 -1      3693 1.88111E+01 2.38399E+00 9.61907E-03 3.69992E-02 1.66410E-13-6.16691E-13
 -1      3694 1.88368E+01 2.56246E+00-5.07979E-03 1.15582E-01 1.59879E-13-6.70972E-13
 -1      3695 1.88483E+01 2.56420E+00-1.96768E-04 1.73345E-01 1.08142E-13-6.79161E-13
 -1      3696 2.00045E+01 6.00792E-03-6.37406E-07-2.30697E-03 1.40442E-13 1.91915E-13
 -1      3697 2.00037E+01 3.13871E-03-1.08596E-05 3.38433E-03 8.50209E-14-6.90256E-13
 -1      3698 2.00032E+01 2.23107E-03-6.76660E-06-3.99286E-03-8.23053E-14 3.23932E-13
 -1      3699 2.00043E+01 5.13982E-03 1.72573E-05 2.70996E-03-2.35742E-14-6.63106E-13
 -1      3700 2.00041E+01 3.58549E-03-1.98136E-06 3.00155E-03 8.40628E-14-6.91541E-13
 -1      3701 2.00044E+01 3.92278E-03-2.68535E-05 2.43026E-03 2.25962E-13-3.65760E-13
 -1      3702 2.00048E+01 6.88705E-03-4.40892E-06 1.85830E-03 5.76293E-14-4.79644E-13
 -1      3703 2.00559E+01-5.69534E-01 7.47665E-03 1.98284E+00 9.74506E-14-2.12671E-13
 -1      3704 2.03371E+01-9.55202E-01 1.36734E-02 2.08960E+00 1.33345E-13-2.22932E-13
 -1      3705 2.05411E+01-1.33273E+00 1.25704E-02 2.25836E+00 1.74281E-13-2.07363E-13
 -1      3706 2.09941E+01-1.78722E+00 1.55187E-02 2.28757E+00 2.11082E-13-1.61501E-13
 -1      3707 2.03601E+01-1.89984E+00-1.82040E-02 2.80169E+00 2.80596E-13-2.08023E-13
 -1      3708 1.98090E+01-1.03059E+00-1.81800E-02 2.44403E+00 1.49910E-13-2.85744E-13
 -1      3709 2.57761E+01 8.25457E-01-9.76135E-02-2.09883E+00-4.31266E-13 4.92134E-13
 -1      3710 1.64113E+01-6.65640E-02 2.66202E-03 2.89701E+00-1.83588E-13-2.52092E-13
 -1      3711 1.95026E+01 1.81305E+00 1.36376E-03-5.35687E-01 2.76552E-13-4.26849E-13
 -1      3712 1.93540E+01 2.14576E+00 5.93826E-04-2.90211E-01 2.99661E-13-4.97924E-13
 -1      3713 2.11657E+01-2.08705E+00 1.81041E-02-2.15796E+00 3.16773E-13-1.12332E-14
 -1      3714 2.06162E+01-1.61811E+00 2.57295E-02-2.19818E+00 2.75222E-13-1.80311E-14
 -1      3715 2.02375E+01-1.19248E+00 1.15114E-02-2.03481E+00 1.96616E-13 1.03734E-14
 -1      3716 1.99068E+01-8.19220E-01 1.00335E-02-1.95779E+00 1.20548E-13 2.59536E-15
 -1      3717 1.97624E+01-1.36829E+00-2.03755E-02-2.46645E+00 2.76411E-13 5.00013E-14
 -1      3718 1.97456E+01-5.01822E-01 1.07491E-02-1.77312E+00 3.28680E-14 2.67265E-14
 -1      3719 1.95532E+01-2.40985E-01 3.39544E-03-1.66160E+00 3.43423E-14 2.57772E-14
 -1      3720 1.92958E+01-5.74135E-01-1.48654E-02-2.04830E+00 6.55014E-14-4.21201E-14
 -1      3721 1.95101E+01-2.75169E-02 8.28620E-03-1.49137E+00 7.91744E-14 4.98661E-14
 -1      3722 1.94127E+01 1.38675E-01-8.83151E-06-1.37723E+00 7.79608E-14 1.06223E-13
 -1      3723 1.91231E+01-3.31261E-02-7.80914E-03-1.65600E+00 3.83878E-14 3.05756E-15
 -1      3724 1.94321E+01 2.70172E-01 5.90596E-03-1.23208E+00 1.81136E-14 8.84453E-14
 -1      3725 1.93942E+01 3.64653E-01-1.59748E-03-1.12648E+00 3.66112E-14 1.05283E-13
 -1      3726 1.91114E+01 3.02470E-01-3.60984E-03-1.32382E+00 5.90773E-14 6.14104E-14
 -1      3727 1.94443E+01 4.35071E-01 4.08719E-03-1.00642E+00-3.45448E-14 9.11443E-14
 -1      3728 1.94409E+01 4.78502E-01-2.17814E-03-9.12902E-01 1.85710E-14 2.17071E-14
 -1      3729 1.91830E+01 4.88804E-01-1.05277E-03-1.05241E+00-4.32196E-15 9.69450E-14
 -1      3730 1.95027E+01 5.06326E-01 2.79745E-03-8.14770E-01 1.15262E-13-1.79646E-13
 -1      3731 1.95174E+01 5.15506E-01-2.30313E-03-7.33694E-01 8.96005E-14-2.29036E-13
 -1      3732 1.92922E+01 5.70285E-01 3.14275E-04-8.33708E-01-5.39843E-14-8.61418E-14
 -1      3733 1.95804E+01 5.15390E-01 1.93110E-03-6.53735E-01-1.79717E-14-2.70236E-13
 -1      3734 1.96028E+01 5.03057E-01-2.20815E-03-5.84382E-01-2.48130E-14-1.93098E-13
 -1      3735 1.94123E+01 5.82479E-01 9.86341E-04-6.57797E-01 3.34833E-14-3.32858E-13
 -1      3736 1.96613E+01 4.85991E-01 1.36395E-03-5.19368E-01-4.79675E-14-1.55546E-13
 -1      3737 1.96854E+01 4.61442E-01-2.00772E-03-4.60736E-01-1.66105E-14-1.86053E-13
 -1      3738 1.95284E+01 5.51520E-01 1.25761E-03-5.16080E-01-6.55335E-15-2.63855E-13
 -1      3739 1.97367E+01 4.35327E-01 9.93142E-04-4.08069E-01 2.68280E-15-2.26446E-13
 -1      3740 1.97591E+01 4.05077E-01-1.76132E-03-3.59095E-01-8.11989E-15-1.39541E-13
 -1      3741 1.96329E+01 4.96280E-01 1.29768E-03-4.01873E-01-5.35495E-14-1.41851E-13
 -1      3742 1.98023E+01 3.75337E-01 7.46820E-04-3.16676E-01-1.11615E-13-1.60301E-13
 -1      3743 1.98216E+01 3.43733E-01-1.50262E-03-2.76294E-01-1.87273E-13-2.36824E-13
 -1      3744 1.97223E+01 4.29959E-01 1.21009E-03-3.10031E-01-9.71653E-14-1.92630E-13
 -1      3745 1.98566E+01 3.13889E-01 5.77999E-04-2.42397E-01-4.92204E-14-2.45550E-13
 -1      3746 1.98723E+01 2.83645E-01-1.25170E-03-2.09550E-01 1.80375E-13-2.31271E-13
 -1      3747 1.97959E+01 3.61369E-01 1.05979E-03-2.36524E-01-9.19901E-14-8.30459E-14
 -1      3748 1.99000E+01 2.55812E-01 4.57235E-04-1.82720E-01 3.05325E-13-1.89781E-13
 -1      3749 1.99121E+01 2.28464E-01-1.02048E-03-1.56378E-01 2.00583E-13-5.28849E-14
 -1      3750 1.98547E+01 2.96026E-01 8.87194E-04-1.78106E-01 1.30589E-13-9.83933E-14
 -1      3751 1.99333E+01 2.03762E-01 3.66689E-04-1.35375E-01 1.07086E-13-3.11322E-14
 -1      3752 1.99424E+01 1.80025E-01-8.15351E-04-1.14558E-01 2.23260E-14 1.70085E-13
 -1      3753 1.99003E+01 2.37049E-01 7.16466E-04-1.32094E-01 2.63040E-13-2.51149E-14
 -1      3754 1.99582E+01 1.58898E-01 2.95836E-04-9.83165E-02-9.77079E-14 1.62558E-13
 -1      3755 1.99647E+01 1.38946E-01-6.38902E-04-8.21138E-02-1.76689E-13 1.66402E-13
 -1      3756 1.99347E+01 1.85882E-01 5.60929E-04-9.62354E-02-7.11906E-15 1.10536E-13
 -1      3757 1.99762E+01 1.21407E-01 2.38579E-04-6.97212E-02-2.70210E-13 5.29464E-14
 -1      3758 1.99805E+01 1.05078E-01-4.91074E-04-5.73070E-02-2.26996E-13 1.40288E-13
 -1      3759 1.99598E+01 1.42858E-01 4.26807E-04-6.86205E-02-2.18982E-13 3.62522E-14
 -1      3760 1.99886E+01 9.08800E-02 1.91400E-04-4.79895E-02-1.69067E-13 1.41061E-13
 -1      3761 1.99914E+01 7.78235E-02-3.70125E-04-3.86353E-02-1.19112E-13 1.38324E-13
 -1      3762 1.99776E+01 1.07615E-01 3.15841E-04-4.76345E-02-1.75401E-13-5.36199E-14
 -1      3763 1.99968E+01 6.65834E-02 1.52217E-04-3.17429E-02-3.69077E-14 1.07273E-13
 -1      3764 1.99984E+01 5.63603E-02-2.73342E-04-2.48208E-02 6.69826E-14-3.23550E-14
 -1      3765 1.99898E+01 7.94000E-02 2.27082E-04-3.19186E-02-1.40892E-13-1.58029E-13
 -1      3766 2.00019E+01 4.76395E-02 1.19634E-04-1.98159E-02 1.34476E-13-2.50896E-14
 -1      3767 2.00026E+01 3.97874E-02-1.97222E-04-1.47971E-02 1.91952E-13-1.03296E-13
 -1      3768 1.99977E+01 5.72725E-02 1.58200E-04-2.03427E-02 9.85843E-14-1.37776E-13
 -1      3769 2.00046E+01 3.31429E-02 9.27947E-05-1.12384E-02 1.48476E-13-2.06102E-13
 -1      3770 2.00047E+01 2.72080E-02-1.39021E-04-7.68599E-03 1.40462E-13-7.37295E-14
 -1      3771 2.00024E+01 4.02474E-02 1.07247E-04-1.19759E-02 1.25940E-13-6.23117E-14
 -1      3772 2.00057E+01 2.22169E-02 7.09222E-05-5.22930E-03 1.65867E-13-1.70912E-13
 -1      3773 2.00055E+01 1.77924E-02-9.46221E-05-2.79602E-03 2.01090E-13-1.14942E-13
 -1      3774 2.00048E+01 2.73526E-02 7.02600E-05-6.07034E-03 9.64600E-14-1.88872E-13
 -1      3775 2.00058E+01 1.40807E-02 5.42374E-05-1.16255E-03 2.39794E-13-2.47256E-13
 -1      3776 2.00054E+01 1.07997E-02-3.67288E-05 4.61616E-04 1.97519E-13-4.08841E-13
 -1      3777 2.00056E+01 1.76875E-02 3.22033E-05-2.03140E-03 1.51178E-13-1.54657E-13
 -1      3778 1.76000E+01-1.28872E+00 2.58508E-03 3.62405E+00 3.81886E-13-3.82945E-13
 -1      3779 1.59203E+01-6.43315E-01 8.62445E-02 3.68173E+00 3.69107E-13-5.26955E-13
 -1      3780 1.53436E+01-4.13401E-02 6.21612E-03 2.84744E+00 3.23554E-13-6.21480E-13
 -1      3781 1.96143E+01 5.93519E-01-2.94743E-03 4.95173E-01-1.34142E-13 1.03764E-13
 -1      3782 1.95605E+01 6.51600E-01 1.45204E-06 5.57312E-01-9.73379E-14 4.77647E-14
 -1      3783 1.81655E+01-1.67466E+00 4.56631E-02-3.70121E+00 4.61779E-13 8.30534E-14
 -1      3784 1.98346E+01-2.45227E+00-1.60476E-02-3.38097E+00 4.52787E-13-2.46973E-14
 -1      3785 1.94594E+01 7.09157E-01-3.68045E-03 6.13870E-01-1.04732E-13-6.42599E-14
 -1      3786 1.93866E+01 7.69581E-01-1.58111E-04 6.85926E-01-5.38662E-14-3.80514E-14
 -1      3787 1.93947E+01 7.40816E-01 3.84548E-03 5.14413E-01-1.52238E-13 9.69248E-14
 -1      3788 1.92542E+01 8.26639E-01-4.64864E-03 7.51281E-01 1.58220E-14-2.02559E-13
 -1      3789 1.91582E+01 8.84029E-01-2.02916E-04 8.34502E-01 6.60693E-14-1.23955E-13
 -1      3790 1.91716E+01 8.68448E-01 5.03157E-03 6.24669E-01-1.17471E-13-6.79940E-14
 -1      3791 1.97297E+01 4.86783E-01-2.36694E-03 3.93503E-01-3.03824E-14 1.75599E-15
 -1      3792 1.96909E+01 5.39644E-01 1.63103E-04 4.46434E-01-4.02937E-14 1.06419E-13
 -1      3793 1.95640E+01 6.18174E-01 2.91415E-03 4.17657E-01-1.23947E-13 1.92772E-13
 -1      3794 1.98145E+01 3.92309E-01-1.89440E-03 3.07677E-01 4.23499E-14-1.19142E-13
 -1      3795 1.97873E+01 4.38665E-01 2.81835E-04 3.52045E-01 2.99618E-14-3.58072E-14
 -1      3796 1.96911E+01 5.06195E-01 2.18804E-03 3.33638E-01 8.89792E-14 5.60516E-14
 -1      3797 1.98761E+01 3.11172E-01-1.50504E-03 2.36453E-01-1.14579E-13 4.66926E-14
 -1      3798 1.98573E+01 3.50717E-01 3.48880E-04 2.73004E-01-2.38003E-14-1.03544E-13
 -1      3799 1.97855E+01 4.07565E-01 1.62663E-03 2.61923E-01-6.62546E-15 1.09624E-13
 -1      3800 1.99202E+01 2.43108E-01-1.18381E-03 1.78391E-01 1.24664E-14 1.38662E-13
 -1      3801 1.99075E+01 2.76106E-01 3.71390E-04 2.07980E-01-6.03704E-14 8.82542E-14
 -1      3802 1.98547E+01 3.23040E-01 1.19647E-03 2.01890E-01-1.70985E-13 1.83523E-13
 -1      3803 1.99511E+01 1.87117E-01-9.20256E-04 1.31896E-01 2.19339E-13 1.10325E-13
 -1      3804 1.99429E+01 2.14140E-01 3.61492E-04 1.55438E-01 1.42932E-13 1.90134E-13
 -1      3805 1.99048E+01 2.52196E-01 8.69878E-04 1.52624E-01 8.38323E-14 4.00904E-14
 -1      3806 1.99725E+01 1.41842E-01-7.06021E-04 9.53161E-02-6.15787E-14 2.74528E-13
 -1      3807 1.99673E+01 1.63605E-01 3.31109E-04 1.13729E-01 8.84808E-14 2.41026E-13
 -1      3808 1.99404E+01 1.93943E-01 6.24195E-04 1.12975E-01-6.52468E-15 3.06964E-13
 -1      3809 1.99867E+01 1.05813E-01-5.33868E-04 6.70409E-02-5.96782E-14 2.65393E-13
 -1      3810 1.99837E+01 1.23064E-01 2.89945E-04 8.11968E-02 2.34102E-14 2.82472E-13
 -1      3811 1.99653E+01 1.46856E-01 4.41125E-04 8.16666E-02-2.04570E-14 3.42039E-13
 -1      3812 1.99959E+01 7.75741E-02-3.97305E-04 4.55737E-02-2.04458E-13 1.24846E-13
 -1      3813 1.99944E+01 9.10436E-02 2.45055E-04 5.62671E-02-1.19337E-13 2.41340E-13
 -1      3814 1.99821E+01 1.09401E-01 3.06109E-04 5.74033E-02-3.24427E-14 2.91416E-13
 -1      3815 2.00015E+01 5.57699E-02-2.90594E-04 2.95783E-02-3.35228E-13-6.61251E-14
 -1      3816 2.00009E+01 6.61305E-02 2.01131E-04 3.75071E-02-3.40173E-13-7.63523E-14
 -1      3817 1.99932E+01 8.00641E-02 2.07658E-04 3.89504E-02-7.60988E-14-1.10210E-14
 -1      3818 2.00045E+01 3.91803E-02-2.08263E-04 1.79021E-02-1.38180E-13-5.29137E-14
 -1      3819 2.00046E+01 4.70326E-02 1.60893E-04 2.36608E-02-2.44344E-13-8.74865E-14
 -1      3820 2.00000E+01 5.74279E-02 1.36722E-04 2.51881E-02-2.52663E-13-8.72902E-16
 -1      3821 2.00059E+01 2.67288E-02-1.47182E-04 9.57335E-03-9.85750E-14 5.32522E-14
 -1      3822 2.00063E+01 3.26043E-02 1.25738E-04 1.36578E-02-4.32091E-14-6.05053E-14
 -1      3823 2.00039E+01 4.02221E-02 8.75540E-05 1.51396E-02-1.37537E-13-1.52654E-13
 -1      3824 2.00061E+01 1.75052E-02-1.02131E-04 3.79232E-03-1.00876E-13 1.83017E-13
 -1      3825 2.00067E+01 2.18641E-02 1.02134E-04 6.62419E-03-6.76864E-14 1.87196E-13
 -1      3826 2.00057E+01 2.73046E-02 4.84571E-05 7.99560E-03-1.57578E-13-4.51011E-14
 -1      3827 2.00056E+01 1.06821E-02-7.11108E-05-1.13242E-04 7.39607E-14-2.41511E-14
 -1      3828 2.00063E+01 1.39438E-02 8.97593E-05 1.83251E-03 4.37393E-14 1.26697E-13
 -1      3829 2.00061E+01 1.76435E-02-1.64060E-05 3.05366E-03 2.19175E-14-5.34448E-14
 -1      3830 1.82086E+01 1.01387E+00-1.11080E-02 1.34037E+00-7.99698E-14-3.10523E-13
 -1      3831 1.80418E+01 9.81855E-01 3.88943E-03 1.49215E+00-1.19495E-13-2.52272E-13
 -1      3832 1.97105E+01 6.22912E-01 7.59979E-04 1.27541E+00-1.26644E-14-4.01122E-13
 -1      3833 1.97765E+01 3.70567E-01 5.86024E-03 1.43802E+00 1.09344E-14-3.57976E-13
 -1      3834 1.29445E+01 9.17241E-01-1.85426E-02-3.24867E-01 6.57851E-14-8.53834E-13
 -1      3835 1.29939E+01 8.02989E-01 8.38185E-02-1.54102E+00-6.70445E-14-7.95204E-13
 -1      3836 1.42499E+01 6.17901E-01 4.36314E-02-1.99646E+00-1.08168E-13-6.96724E-13
 -1      3837 1.91112E+01 5.07164E-01 1.31633E-02-2.23947E+00-1.22678E-14-2.89064E-13
 -1      3838 1.90986E+01 7.11765E-01-5.29689E-03-2.04054E+00 3.94958E-14-2.88923E-13
 -1      3839 1.83020E+01 5.70348E-01 5.54009E-03-2.32903E+00-1.35777E-14-3.46212E-13
 -1      3840 2.00050E+01 4.88210E-03-2.72989E-05-1.11854E-03 1.73640E-13-3.18397E-14
 -1      3841 2.00049E+01 4.62143E-03-5.07218E-06-1.67313E-03 1.15161E-13-1.96093E-13
 -1      3842 2.00054E+01 6.47515E-03 8.87700E-05-1.56277E-03 1.63207E-13-7.36377E-15
 -1      3843 2.00056E+01 7.50921E-03 8.16205E-05-6.80673E-04 2.74693E-13 2.91124E-14
 -1      3844 1.55454E+01-4.07341E-01 1.53925E-02-3.24691E+00 3.78751E-13 6.30086E-14
 -1      3845 1.66905E+01-1.11991E+00-2.70635E-02-3.65045E+00 3.86705E-13 8.62886E-14
 -1      3846 2.15740E+01-2.66607E+00 4.42730E-02-2.49930E+00 3.81264E-13-1.27243E-13
 -1      3847 1.98425E+01 1.39636E+00-4.24295E-04-8.31537E-01 2.80940E-13-3.29820E-13
 -1      3848 1.96794E+01 1.59511E+00 6.54912E-03-7.26027E-01 2.88089E-13-3.73434E-13
 -1      3849 1.93473E+01 1.75778E+00-8.21630E-03-6.47556E-01 2.26320E-13-4.17667E-13
 -1      3850 1.97471E+01 1.31468E+00-1.66030E-03-1.01971E+00 2.23029E-13-3.34565E-13
 -1      3851 1.97958E+01 9.24050E-02 3.43101E-03 1.63470E+00 6.59362E-14-3.01810E-13
 -1      3852 1.99442E+01-2.16006E-01 9.29193E-03 1.78010E+00 9.98813E-14-2.64601E-13
 -1      3853 1.94240E+01 3.68472E-01-6.42532E-03 1.58883E+00 7.38595E-14-3.58468E-13
 -1      3854 1.97058E+01 1.09424E+00-6.96304E-04 9.13532E-01-4.76354E-14-4.59032E-13
 -1      3855 1.97306E+01 8.62728E-01 2.90744E-03 1.08933E+00-3.01625E-14-4.29235E-13
 -1      3856 1.94425E+01 8.92671E-01-1.96226E-03 1.19087E+00-2.60953E-15-4.53920E-13
 -1      3857 1.96627E+01 1.74132E+00-6.82956E-04 4.52850E-01-1.26923E-13-5.70279E-13
 -1      3858 1.97067E+01 1.34670E+00 1.43302E-03 7.32653E-01-6.47322E-14-5.18654E-13
 -1      3859 1.94684E+01 1.39387E+00 1.43230E-03 8.16815E-01-2.59089E-14-5.19153E-13
 -1      3860 1.94586E+01 1.92434E+00 1.89026E-03 4.61747E-01-8.18731E-14-6.01698E-13
 -1      3861 1.76757E+01 9.00183E-01-1.50729E-02 1.66412E+00-2.63339E-13-2.36814E-13
 -1      3862 1.75095E+01 7.81945E-01 9.73975E-03 1.87639E+00-3.62384E-13-3.08147E-13
 -1      3863 1.74019E+01 1.11209E+00 1.48987E-02 1.34506E+00-2.04370E-13-3.39388E-13
 -1      3864 1.86424E+01 1.00698E+00-8.03135E-03 1.10114E+00 8.52118E-15-3.14293E-13
 -1      3865 1.84942E+01 1.02545E+00 1.20105E-03 1.21885E+00-6.27858E-14-3.85322E-13
 -1      3866 1.80197E+01 1.14526E+00 1.09776E-02 1.08626E+00-1.88229E-14-3.12569E-13
 -1      3867 1.89864E+01 9.33114E-01-6.00487E-03 9.10974E-01 2.39625E-14-2.14360E-13
 -1      3868 1.88642E+01 9.78300E-01 8.34857E-05 1.00822E+00 4.43168E-14-2.12857E-13
 -1      3869 1.88805E+01 9.90906E-01 6.53059E-03 7.50795E-01-1.32023E-14-2.68894E-13
 -1      3870 1.62950E+01-2.97633E-01-1.07011E-02-3.23508E+00-2.25696E-13-5.08326E-13
 -1      3871 1.91518E+01 2.28875E+00-5.31346E-03-2.25672E-01 2.53088E-13-5.50808E-13
 -1      3872 2.00052E+01 7.05519E-03 4.61855E-05-1.63443E-03 9.12772E-14-1.84789E-14
 -1      3873 2.00056E+01 9.41903E-03-5.73591E-05-6.69049E-04 1.32991E-13-1.64064E-13
 -1      3874 1.33466E+01 1.11347E+00 6.12966E-02-9.26391E-02 2.51343E-13 4.33369E-13
 -1      3875 1.41233E+01 1.03953E+00 2.11158E-02-6.69724E-01 3.50825E-13 3.97570E-13
 -1      3876 1.41455E+01 1.05472E+00 6.70423E-03 7.96678E-01 1.43587E-13 3.61711E-13
 -1      3877 1.47394E+01 6.44007E-01-2.10924E-02-1.80723E+00 3.50137E-13 4.53231E-13
 -1      3878 1.50821E+01 1.65336E-01 2.59722E-02-2.66555E+00 3.61074E-13 1.88393E-13
 -1      3879 1.61786E+01 7.80688E-02 2.79347E-02-2.52970E+00 2.75680E-13 1.25805E-13
 -1      3880 1.86861E+01 9.81250E-01 4.39629E-03-1.83140E+00 6.04367E-14-3.39014E-13
 -1      3881 1.92280E+01 2.48237E+00 2.09904E-04 2.38293E-01-5.30174E-14-6.95841E-13
 -1      3882 1.92808E+01 2.28517E+00-2.82473E-04 3.11612E-01-6.12420E-14-6.64341E-13
 -1      3883 1.90942E+01 2.52858E+00-5.96921E-03 2.63699E-01 1.13483E-14-6.78862E-13
 -1      3884 1.79516E+01-1.11436E+00 3.41189E-02-3.22481E+00 3.29595E-13 4.78940E-14
 -1      3885 1.66207E+01 9.40411E-01 2.03931E-02 1.72192E+00-4.17694E-13-4.31489E-13
 -1      3886 1.70525E+01 5.99855E-01-1.62548E-02 2.13009E+00-3.58427E-13-3.79178E-13
 -1      3887 1.69449E+01 3.53667E-01 2.72934E-02 2.42083E+00-3.28097E-13-3.81927E-13
 -1      3888 1.93904E+01 1.45202E+00 4.74026E-03-1.03235E+00 2.18492E-13-3.84675E-13
 -1      3889 2.00053E+01 9.35028E-03-1.01042E-06 1.02639E-03 1.11906E-14-3.70268E-13
 -1      3890 1.68867E+01 1.42747E-01 1.56015E-02-2.76962E+00-1.62992E-13-4.48774E-13
 -1      3891 1.69885E+01 5.08037E-01-2.79933E-02-2.39064E+00-7.73396E-14-4.22443E-13
 -1      3892 1.54723E+01 5.34957E-01 5.28361E-02-2.51125E+00-1.32905E-13-5.93513E-13
 -1      3893 2.00057E+01 1.13163E-02-6.16104E-05-6.85647E-05 1.72520E-13-7.75983E-15
 -1      3894 2.00056E+01 1.06286E-02-3.96863E-05-4.38736E-04 8.19022E-14-2.02830E-14
 -1      3895 2.00063E+01 1.52364E-02 1.11099E-04 1.19599E-03 1.53920E-13-9.63335E-14
 -1      3896 1.40070E+01 7.64925E-01-2.91659E-02 1.46679E+00 2.59374E-13-7.27595E-13
 -1      3897 1.34779E+01 1.09423E+00 8.61230E-02 5.97861E-01 1.68359E-13-8.63160E-13
 -1      3898 2.00050E+01 6.35976E-03 3.15030E-05 1.83106E-03 6.77685E-14-1.76392E-13
 -1      3899 1.85037E+01 1.09151E+00 8.40971E-03 8.99362E-01-7.00938E-14-3.77119E-13
 -1      3900 1.39729E+01 1.08997E+00 1.33839E-02-1.54700E-01 6.81295E-14-7.60544E-13
 -1      3901 1.95241E+01-2.74848E-01-1.25070E-02 2.02172E+00 1.26348E-13-3.03563E-13
 -1      3902 1.56174E+01 4.48727E-01 1.65219E-02 2.41885E+00-1.67078E-13-1.64854E-13
 -1      3903 1.50321E+01 8.00503E-01-1.08839E-02 1.73605E+00-8.07295E-14-4.07938E-14
 -1      3904 1.86174E+01 1.34072E+00 2.83049E-05-1.31127E+00 1.36533E-13-4.06784E-13
 -1      3905 1.87934E+01 1.44456E+00-6.26101E-03-1.12561E+00 1.69816E-13-4.09420E-13
 -1      3906 2.00056E+01 1.05305E-02-3.36820E-05 2.80434E-04 9.77185E-14-4.02605E-13
 -1      3907 2.00056E+01 1.04352E-02-6.19343E-05-4.10765E-05 1.58933E-13-1.00718E-13
 -1      3908 2.00055E+01 9.96093E-03-3.38432E-05 6.90725E-04 1.19927E-13-1.08859E-13
 -1      3909 2.00056E+01 1.02737E-02-4.88483E-05 3.49680E-04 1.26674E-13-4.44706E-13
 -1      3910 2.00059E+01 1.35613E-02 7.13607E-05 1.62667E-04 1.87088E-13-4.79619E-13
 -1      3911 2.04039E+01-2.47180E+00-1.71781E-02-3.05864E+00 4.27158E-13 4.21043E-14
 -1      3912 1.90391E+01 1.53844E+00-2.69330E-03-9.75082E-01 1.93727E-13-4.18133E-13
 -1      3913 1.92037E+01 1.64745E+00 5.82851E-04-8.04019E-01 2.18472E-13-4.11942E-13
 -1      3914 1.86566E+01 1.65750E+00 9.26075E-03-8.90153E-01 1.82114E-13-4.48348E-13
 -1      3915 1.89060E+01 2.56382E+00-7.09229E-03 2.33663E-01 9.45701E-14-6.92742E-13
 -1      3916 1.89945E+01 2.56481E+00 2.03999E-03 2.46509E-01 3.80023E-14-6.95044E-13
 -1      3917 1.90081E+01 2.39208E+00-3.80451E-04 3.09929E-01 3.45364E-14-6.61261E-13
 -1      3918 1.88456E+01 2.40575E+00 6.16501E-03 2.30475E-01 1.02471E-13-6.63428E-13
 -1      3919 1.90181E+01 2.19095E+00 7.70838E-03-2.68794E-01 2.02780E-13-5.31884E-13
 -1      3920 1.86584E+01 2.21845E+00-2.01230E-03-4.09803E-02 1.74182E-13-5.77134E-13
 -1      3921 1.86232E+01 2.23263E+00-3.65734E-03 9.32481E-02 1.30619E-13-6.19059E-13
 -1      3922 1.90262E+01 1.97468E+00 2.74040E-03-4.74037E-01 2.24436E-13-4.77472E-13
 -1      3923 1.88041E+01 2.14511E+00-8.04480E-03-2.69799E-01 1.85972E-13-5.39420E-13
 -1      3924 1.86453E+01 2.05154E+00 6.07026E-03-2.36042E-01 1.79302E-13-5.33490E-13
 -1      3925 1.91626E+01 1.76802E+00 9.66973E-04-6.69993E-01 2.19132E-13-4.35952E-13
 -1      3926 1.97364E+01-1.72662E+00 1.98766E-02 3.07004E+00 3.54152E-13-2.10886E-13
 -1      3927 1.86600E+01-1.54357E+00 2.91008E-02 3.54460E+00 3.66969E-13-3.20913E-13
 -1      3928 1.76294E+01-8.45606E-01-1.78225E-02 3.20749E+00 3.00387E-13-3.71488E-13
 -1      3929 1.93491E+01-1.26368E+00-1.38302E-03 2.88009E+00 2.66228E-13-2.80236E-13
 -1      3930 1.62770E+01 1.12408E+00-1.93772E-02 1.14880E+00-3.76689E-13-3.01409E-13
 -1      3931 1.58785E+01 1.05056E+00 1.23997E-02 1.33040E+00-3.83423E-13-2.57461E-13
 -1      3932 1.62211E+01 2.59967E-02-1.28981E-02 2.66934E+00 3.09150E-13-5.62238E-13
 -1      3933 1.50964E+01 6.18806E-01 6.93876E-02 2.17137E+00 3.20742E-13-6.73438E-13
 -1      3934 1.88172E+01-4.61988E-01 1.52779E-02-2.21668E+00 7.16120E-14 2.28441E-16
 -1      3935 1.86609E+01-1.62113E-01-2.00598E-03-1.99077E+00 6.26141E-14-3.30908E-14
 -1      3936 1.87426E+01 8.01142E-02 1.20985E-02-1.72741E+00 5.04061E-14 1.40048E-14
 -1      3937 1.86877E+01 2.60827E-01-4.68410E-03-1.54112E+00 2.87077E-14 7.89500E-14
 -1      3938 1.81882E+01 1.47191E-01-2.87197E-03-1.86457E+00 1.05974E-13 1.02722E-14
 -1      3939 1.88046E+01 4.06655E-01 7.69053E-03-1.34217E+00 2.50835E-14 2.11635E-13
 -1      3940 1.88114E+01 5.06742E-01-5.23353E-03-1.19154E+00 1.32484E-13 1.54269E-13
 -1      3941 1.83866E+01 4.85190E-01-6.42631E-04-1.39871E+00 8.72082E-14 1.15373E-13
 -1      3942 1.89373E+01 5.82526E-01 4.97243E-03-1.04113E+00 1.43301E-14 9.48744E-14
 -1      3943 1.89763E+01 6.25987E-01-4.65793E-03-9.21714E-01-9.12205E-14 6.20641E-14
 -1      3944 1.86205E+01 6.68188E-01 2.04189E-03-1.05011E+00 2.55531E-14 1.67681E-13
 -1      3945 1.90959E+01 6.54173E-01 3.08259E-03-8.08426E-01-1.47768E-13-5.09519E-14
 -1      3946 1.91487E+01 6.60323E-01-3.94977E-03-7.13654E-01-5.91508E-14-1.18345E-13
 -1      3947 1.88543E+01 7.37604E-01 2.64733E-03-7.92277E-01-1.21587E-13 2.47746E-14
 -1      3948 1.92563E+01 6.57230E-01 1.89054E-03-6.27519E-01-2.40659E-14-1.96103E-13
 -1      3949 1.93120E+01 6.39793E-01-3.30496E-03-5.51962E-01-2.69096E-15-2.60571E-13
 -1      3950 1.90707E+01 7.36067E-01 2.70290E-03-5.99783E-01-1.64686E-13-9.19523E-15
 -1      3951 1.94055E+01 6.17515E-01 1.14662E-03-4.85979E-01 1.09115E-13-3.16045E-13
 -1      3952 1.94581E+01 5.86500E-01-2.74550E-03-4.25508E-01 8.46172E-14-1.80597E-13
 -1      3953 1.92625E+01 6.90241E-01 2.53931E-03-4.54620E-01 1.72973E-14-1.24835E-13
 -1      3954 1.95369E+01 5.53803E-01 6.89814E-04-3.74698E-01 4.39365E-14-2.10261E-13
 -1      3955 1.95834E+01 5.16343E-01-2.26421E-03-3.26237E-01-1.58912E-14-1.43146E-13
 -1      3956 1.94271E+01 6.19384E-01 2.27342E-03-3.44245E-01 8.64895E-14-2.86650E-13
 -1      3957 1.96483E+01 4.79354E-01 4.14922E-04-2.87002E-01-1.20362E-13-8.59235E-14
 -1      3958 1.96875E+01 4.40322E-01-1.85097E-03-2.48230E-01-1.06419E-13-5.39801E-14
 -1      3959 1.95644E+01 5.37211E-01 1.96505E-03-2.59817E-01 1.55361E-15-2.50445E-14
 -1      3960 1.97398E+01 4.03119E-01 2.53302E-04-2.17929E-01-9.88979E-14-1.89225E-15
 -1      3961 1.97716E+01 3.65642E-01-1.49738E-03-1.87047E-01-6.12588E-14-9.18748E-15
 -1      3962 1.96762E+01 4.53099E-01 1.65000E-03-1.95011E-01-6.81395E-14 3.36705E-14
 -1      3963 1.98128E+01 3.30748E-01 1.60563E-04-1.63699E-01 3.77436E-14-8.11027E-14
 -1      3964 1.98378E+01 2.96657E-01-1.19691E-03-1.39271E-01 2.06995E-13-9.11244E-14
 -1      3965 1.97652E+01 3.73069E-01 1.35052E-03-1.45220E-01-2.61582E-14-6.06070E-15
 -1      3966 1.98696E+01 2.65464E-01 1.08480E-04-1.21363E-01 2.29892E-13-7.69196E-14
 -1      3967 1.98887E+01 2.35659E-01-9.44198E-04-1.02210E-01 1.96319E-13-5.90648E-14
 -1      3968 1.98344E+01 3.00624E-01 1.07968E-03-1.07027E-01 2.15859E-13-1.33963E-13
 -1      3969 1.99126E+01 2.08766E-01 7.95080E-05-8.85659E-02 9.83811E-14-8.96384E-14
 -1      3970 1.99268E+01 1.83512E-01-7.34321E-04-7.37044E-02-6.10313E-14-6.25123E-14
 -1      3971 1.98872E+01 2.37452E-01 8.44022E-04-7.78445E-02 1.03085E-13-2.63449E-13
 -1      3972 1.99445E+01 1.60996E-01 6.30567E-05-6.33988E-02-2.64156E-13-8.68285E-14
 -1      3973 1.99547E+01 1.40152E-01-5.62474E-04-5.20039E-02-2.79237E-13-8.63142E-14
 -1      3974 1.99264E+01 1.83993E-01 6.45444E-04-5.56835E-02-2.04866E-13-2.54445E-13
 -1      3975 1.99673E+01 1.21764E-01 5.29894E-05-4.43013E-02-2.97851E-13-1.05277E-13
 -1      3976 1.99743E+01 1.04950E-01-4.23854E-04-3.56800E-02-2.90103E-13-2.63178E-13
 -1      3977 1.99548E+01 1.39887E-01 4.82724E-04-3.89912E-02-2.70779E-13-1.55910E-13
 -1      3978 1.99831E+01 9.02596E-02 4.59601E-05-2.99946E-02-3.22583E-14-2.48024E-13
 -1      3979 1.99878E+01 7.69736E-02-3.13770E-04-2.35685E-02 9.74053E-14-1.25652E-15
 -1      3980 1.99748E+01 1.04301E-01 3.52724E-04-2.65458E-02-2.03540E-13-1.13747E-13
 -1      3981 1.99936E+01 6.54704E-02 4.02722E-05-1.94339E-02 7.49590E-14-1.00151E-13
 -1      3982 1.99965E+01 5.51695E-02-2.28443E-04-1.47250E-02 1.62498E-13-8.20859E-14
 -1      3983 1.99883E+01 7.61642E-02 2.51159E-04-1.73804E-02 7.64161E-14 6.25538E-14
 -1      3984 2.00002E+01 4.63258E-02 3.46306E-05-1.17764E-02 1.38954E-13-2.19029E-13
 -1      3985 2.00017E+01 3.84944E-02-1.55678E-04-8.39935E-03-3.92233E-15-2.19114E-13
 -1      3986 1.99970E+01 5.43252E-02 1.73640E-04-1.07321E-02 7.04682E-14-1.07594E-13
 -1      3987 2.00038E+01 3.17697E-02 1.94533E-05-6.30575E-03 8.24480E-15-1.18324E-13
 -1      3988 2.00045E+01 2.58814E-02-1.01196E-04-3.96027E-03 1.33277E-13-8.41063E-14
 -1      3989 2.00021E+01 3.77276E-02 1.31458E-04-5.99431E-03 6.75714E-14-1.19031E-13
 -1      3990 2.00054E+01 2.09122E-02 2.17208E-05-2.57462E-03 1.32357E-13-1.24199E-13
 -1      3991 2.00055E+01 1.65420E-02-6.66617E-05-9.60238E-04 6.93607E-14-1.20957E-13
 -1      3992 2.00048E+01 2.50649E-02 5.03352E-05-2.70260E-03 1.30562E-13-1.06510E-13
 -1      3993 1.93398E+01 7.35418E-01-3.07824E-03 3.96395E-01-1.37855E-13 7.27458E-14
 -1      3994 1.92419E+01 8.00104E-01-1.55266E-03 4.41875E-01-1.46776E-13 9.91931E-14
 -1      3995 1.50439E+01 8.48271E-01-1.35619E-03 1.45659E+00 2.33280E-13-6.47841E-13
 -1      3996 2.00055E+01 1.02517E-02-2.39679E-05 5.82452E-04 1.23164E-14-4.81252E-14
 -1      3997 1.96562E+01 5.01469E-01-2.00678E-03 2.61209E-01 8.72732E-14 2.12853E-14
 -1      3998 1.96015E+01 5.56065E-01-6.58273E-04 2.96701E-01-3.60523E-14-9.50683E-14
 -1      3999 1.96143E+01-1.74739E+00 4.41455E-03-2.94038E+00 3.80396E-13 6.34172E-14
 -1      4000 1.95199E+01 6.12863E-01-2.47781E-03 3.24882E-01-1.11434E-13-2.16102E-14
 -1      4001 1.94463E+01 6.73493E-01-1.04770E-03 3.65447E-01-1.25645E-13 1.06835E-14
 -1      4002 1.93267E+01 7.43928E-01 3.93838E-03 2.97822E-01-1.16833E-13 1.04108E-14
 -1      4003 1.95083E+01 6.19102E-01 3.00151E-03 2.47802E-01-4.87496E-14-2.78473E-13
 -1      4004 1.91037E+01 8.64396E-01-3.89618E-03 4.75011E-01-1.86461E-13 9.02665E-14
 -1      4005 1.89749E+01 9.29612E-01-2.15844E-03 5.25495E-01-8.56197E-14 2.16724E-14
 -1      4006 1.90898E+01 8.76673E-01 5.17558E-03 3.49648E-01-1.84494E-13 2.63889E-13
 -1      4007 1.97584E+01 4.03506E-01-1.62110E-03 2.05913E-01-8.84615E-14 1.14996E-13
 -1      4008 1.97183E+01 4.51187E-01-3.75576E-04 2.36284E-01 7.98387E-14 1.32399E-13
 -1      4009 1.96465E+01 5.06151E-01 2.28055E-03 2.01453E-01-4.11133E-14-5.64386E-14
 -1      4010 1.98341E+01 3.19581E-01-1.29899E-03 1.59075E-01-1.11675E-13-1.84369E-14
 -1      4011 1.98051E+01 3.60204E-01-1.81453E-04 1.84490E-01-9.86980E-14 1.21828E-13
 -1      4012 1.97508E+01 4.06998E-01 1.72209E-03 1.60092E-01-4.21850E-14 5.06437E-14
 -1      4013 1.98895E+01 2.49239E-01-1.02903E-03 1.20331E-01-4.82783E-14 1.84836E-13
 -1      4014 1.98689E+01 2.83126E-01-5.57798E-05 1.41145E-01-1.14807E-13-5.46462E-15
 -1      4015 1.98284E+01 3.22109E-01 1.28937E-03 1.24390E-01-1.55676E-13 4.72444E-14
 -1      4016 1.99294E+01 1.91400E-01-8.04229E-04 8.89892E-02-6.44482E-14 3.42881E-13
 -1      4017 1.99150E+01 2.19146E-01 1.98747E-05 1.05690E-01-5.17068E-14 2.76692E-13
 -1      4018 1.98855E+01 2.50981E-01 9.55262E-04 9.44637E-02-1.43089E-13 2.69235E-13
 -1      4019 1.99575E+01 1.44665E-01-6.19195E-04 6.41653E-02 6.52410E-16 3.57203E-13
 -1      4020 1.99477E+01 1.66995E-01 6.07527E-05 7.73045E-02-4.13729E-14 3.63156E-13
 -1      4021 1.99267E+01 1.92513E-01 6.98912E-04 7.00279E-02-6.72452E-14 3.36433E-13
 -1      4022 1.99769E+01 1.07517E-01-4.69033E-04 4.49002E-02-1.59377E-14 2.68366E-13
 -1      4023 1.99704E+01 1.25197E-01 7.86274E-05 5.50402E-02 8.72992E-14 3.75220E-13
 -1      4024 1.99558E+01 1.45292E-01 5.03864E-04 5.05463E-02 3.91023E-14 4.23299E-13
 -1      4025 1.99897E+01 7.84529E-02-3.48919E-04 3.02480E-02-3.32298E-14 1.22276E-13
 -1      4026 1.99857E+01 9.22323E-02 8.21461E-05 3.79234E-02-1.08250E-14 2.49128E-13
 -1      4027 1.99759E+01 1.07784E-01 3.56993E-04 3.53587E-02 5.62102E-14 2.00225E-13
 -1      4028 1.99979E+01 5.60586E-02-2.55418E-04 1.93317E-02-1.87780E-13 2.99481E-14
 -1      4029 1.99956E+01 6.66360E-02 7.74221E-05 2.50253E-02-1.07085E-13 6.04565E-14
 -1      4030 1.99893E+01 7.84656E-02 2.47640E-04 2.37722E-02-2.49721E-15 1.28466E-13
 -1      4031 2.00027E+01 3.90730E-02-1.74655E-04 1.13914E-02-1.37456E-13-4.34297E-14
 -1      4032 2.00015E+01 4.70559E-02 6.82407E-05 1.55142E-02-1.94581E-13-9.38122E-14
 -1      4033 1.99978E+01 5.58941E-02 1.67193E-04 1.51211E-02-9.77994E-14-6.95970E-14
 -1      4034 2.00051E+01 2.63541E-02-1.03288E-04 5.78744E-03-6.99782E-14-5.19757E-14
 -1      4035 2.00047E+01 3.22797E-02 4.95985E-05 8.63184E-03-1.38957E-13 1.06636E-14
 -1      4036 2.00027E+01 3.88499E-02 1.30286E-04 8.82332E-03-1.82397E-13 6.45688E-14
 -1      4037 2.00059E+01 1.82117E-02-4.21137E-05 2.33855E-03 6.28498E-14-8.77959E-14
 -1      4038 2.00059E+01 2.27063E-02 7.23803E-05 4.30402E-03 1.72322E-14-7.40269E-14
 -1      4039 2.00049E+01 2.72861E-02 2.41563E-05 4.74096E-03 1.37509E-14 9.98803E-14
 -1      4040 2.00057E+01 1.96139E-02-4.74258E-05 2.20146E-03 3.55802E-14-5.31089E-14
 -1      4041 1.78712E+01 1.18168E+00-1.01345E-02 7.68148E-01-7.86082E-14-1.16968E-13
 -1      4042 1.75944E+01 1.20379E+00-3.74818E-03 8.54501E-01-3.58605E-14-1.60466E-13
 -1      4043 1.82993E+01 1.22274E+00-1.09394E-02-1.48422E+00 8.99440E-14-4.22519E-13
 -1      4044 1.81171E+01 1.46047E+00 1.28605E-02-1.17964E+00 1.17927E-13-4.62616E-13
 -1      4045 1.81027E+01 1.08969E+00 2.00574E-03-1.69471E+00 4.20724E-14-4.27658E-13
 -1      4046 1.91655E+01 1.17454E+00-7.59290E-03 1.04601E+00 3.12309E-14-5.25798E-13
 -1      4047 1.91596E+01 9.50474E-01 4.90099E-03 1.23133E+00 5.31162E-14-4.91944E-13
 -1      4048 1.48493E+01 8.71952E-01-2.25460E-02-1.64323E+00-3.64249E-14-6.25763E-13
 -1      4049 1.92800E+01-1.27480E+00 1.39260E-02-2.71403E+00 2.76580E-13 5.54639E-14
 -1      4050 1.89543E+01-8.20293E-01 3.76991E-03-2.47320E+00 1.20315E-13-4.09681E-14
 -1      4051 1.82198E+01-4.28455E-01-1.16962E-02-2.42189E+00 4.42227E-14 6.72175E-14
 -1      4052 1.86933E+01-1.29026E+00-2.39419E-02-2.97753E+00 2.78556E-13 7.45220E-14
 -1      4053 1.75703E+01-6.27325E-01 1.25919E-02-2.91807E+00 2.04389E-13 1.05422E-13
 -1      4054 1.75107E+01 7.32544E-01 3.51180E-03-2.14071E+00-4.43921E-14-4.29254E-13
 -1      4055 1.77037E+01 9.47321E-01-1.81733E-02-1.87086E+00 9.51886E-15-4.34869E-13
 -1      4056 1.74434E+01 1.26443E+00 2.22225E-02-1.49361E+00 4.67419E-14-4.96323E-13
 -1      4057 1.66004E+01 1.01155E+00 3.51347E-02-1.86892E+00-3.24194E-14-5.07770E-13
 -1      4058 2.00057E+01 1.13348E-02-4.02013E-05 4.19610E-05 1.80847E-13 1.77491E-13
 -1      4059 2.00056E+01 1.08622E-02-7.22271E-05-2.88747E-04 1.78975E-13 1.96685E-13
 -1      4060 2.00061E+01 1.61538E-02 1.03264E-04 8.37544E-04 3.62137E-14 2.09381E-13
 -1      4061 2.00060E+01 1.47007E-02 7.68479E-05 3.37456E-04 1.14554E-13-1.34610E-13
 -1      4062 1.71872E+01 1.19491E+00-1.62741E-02 9.17259E-01-1.54457E-13-2.87858E-13
 -1      4063 1.68341E+01 1.17233E+00-5.04644E-03 1.03848E+00-3.10257E-13-3.60780E-13
 -1      4064 1.62549E+01 1.30167E+00 2.28674E-02 6.84191E-01-2.95597E-13-1.60167E-13
 -1      4065 1.71889E+01 1.30613E+00 2.14202E-02 5.72293E-01-2.06299E-13-2.00250E-13
 -1      4066 1.83943E+01 1.10389E+00-7.00066E-03 6.55757E-01-1.00961E-13-1.05899E-13
 -1      4067 1.81785E+01 1.15029E+00-3.48785E-03 7.22558E-01-5.86717E-14-8.90075E-14
 -1      4068 1.78631E+01 1.23874E+00 1.26291E-02 5.06505E-01-1.08493E-13 2.06559E-13
 -1      4069 1.48860E+01 1.07872E+00 2.11078E-02 1.10478E+00-3.38685E-14 1.07403E-13
 -1      4070 1.47575E+01 1.18650E+00-2.70202E-02-7.70375E-02 8.34142E-14-7.04294E-13
 -1      4071 1.47359E+01 1.20726E+00 4.99277E-02-9.33739E-01 1.11573E-14-6.96539E-13
 -1      4072 1.57170E+01 1.06511E+00 6.18828E-03-1.42605E+00-1.82693E-14-5.86427E-13
 -1      4073 1.87955E+01 9.91569E-01-5.10072E-03 5.60635E-01-7.32284E-14 5.59404E-15
 -1      4074 1.86281E+01 1.05169E+00-2.79867E-03 6.17301E-01-1.42529E-13-6.12718E-14
 -1      4075 1.87823E+01 1.01074E+00 6.85657E-03 4.01384E-01-1.09199E-13 2.30543E-13
 -1      4076 1.90430E+01 7.09278E-01-4.58678E-03 1.44556E+00 7.11253E-14-4.47073E-13
 -1      4077 1.90706E+01 4.50084E-01 9.42703E-03 1.65643E+00 1.18943E-13-4.16009E-13
 -1      4078 1.87830E+01 1.01113E+00 2.72742E-03 1.28767E+00 9.57828E-14-4.99160E-13
 -1      4079 1.85412E+01 2.07211E+00 8.10101E-03 2.04417E-01 1.17411E-13-6.15022E-13
 -1      4080 1.86598E+01 2.18864E+00-7.28371E-03 2.64187E-01 1.15782E-13-6.37939E-13
 -1      4081 1.89681E+01 1.49331E-01-3.67717E-03 1.91989E+00 1.51547E-13-3.87143E-13
 -1      4082 1.90788E+01-1.82097E-01 1.42230E-02 2.15834E+00 1.49689E-13-3.54778E-13
 -1      4083 1.85589E+01 4.99289E-01-3.65966E-03 1.77178E+00 1.55137E-13-4.35581E-13
 -1      4084 1.47425E+01 1.01632E+00 2.68652E-02-1.11812E+00 2.74052E-13 5.52997E-13
 -1      4085 1.55784E+01 8.94588E-01 1.64734E-02-1.31509E+00 1.67495E-13 4.69564E-13
 -1      4086 1.48813E+01 1.16212E+00-2.00356E-02-2.70334E-01 1.94331E-13 3.45126E-13
 -1      4087 2.00058E+01 1.36307E-02 4.98682E-05-1.35860E-04-9.02993E-16-2.21274E-13
 -1      4088 2.00056E+01 1.63671E-02-2.71786E-05-5.43866E-04 4.57538E-14-3.85527E-13
 -1      4089 1.83831E+01 1.13629E+00 9.21375E-03 4.52475E-01-1.15704E-13 1.74738E-13
 -1      4090 1.57662E+01 9.34048E-01-1.58335E-02 1.36125E+00 2.01082E-13-6.08073E-13
 -1      4091 1.51486E+01 1.27915E+00 5.38549E-02 6.85293E-01 1.54765E-13-6.80666E-13
 -1      4092 1.55498E+01 1.30003E+00-1.02550E-02-2.80974E-02 8.44420E-14-6.34262E-13
 -1      4093 1.68251E+01-1.39359E-01 3.75419E-03-2.64842E+00 1.59878E-13 1.83151E-13
 -1      4094 1.77326E+01-2.59639E-01 2.11026E-02-2.46583E+00 6.86779E-14 1.98044E-13
 -1      4095 1.75569E+01 4.48380E-02-6.92864E-03-2.17737E+00 4.29563E-14 2.49426E-13
 -1      4096 1.63110E+01 3.46085E-01-1.88851E-02-2.11226E+00 1.44744E-13 2.68664E-13
 -1      4097 1.50232E+01 1.19463E+00-1.34064E-02 4.25611E-01 4.90951E-14 1.54366E-13
 -1      4098 2.00055E+01 1.77323E-02-2.05986E-06 2.54186E-04 1.15195E-13-3.01049E-13
 -1      4099 2.00054E+01 1.86264E-02-6.48188E-05 4.76692E-04 7.50086E-14-3.01387E-14
 -1      4100 1.76476E+01 1.49699E+00-6.61800E-03-9.40213E-01 9.91938E-14-4.67155E-13
 -1      4101 1.79605E+01 1.59009E+00-1.27949E-02-8.00717E-01 1.42806E-13-4.55038E-13
 -1      4102 1.92451E+01 1.42676E+00 3.88574E-03 8.52742E-01 5.18983E-15-5.41492E-13
 -1      4103 1.89563E+01 1.49116E+00 8.52650E-03 8.88557E-01 3.99590E-14-5.38056E-13
 -1      4104 1.92395E+01 1.66705E+00-3.71555E-03 6.72348E-01-1.34127E-14-5.67687E-13
 -1      4105 1.90651E+01-5.01402E-01-3.60138E-03 2.40342E+00 1.53596E-13-3.13477E-13
 -1      4106 1.92688E+01-8.52331E-01 1.85188E-02 2.61153E+00 2.03323E-13-2.95407E-13
 -1      4107 1.85319E+01-7.17719E-01 2.57738E-03 2.84093E+00 2.32915E-13-3.02035E-13
 -1      4108 1.84489E+01-5.98473E-02-1.19395E-03 2.29716E+00 1.83427E-13-3.66396E-13
 -1      4109 1.85385E+01 1.90581E+00 5.08740E-03-4.37875E-01 1.94566E-13-5.04235E-13
 -1      4110 1.83267E+01 1.95877E+00-8.75820E-03-1.76431E-01 1.50014E-13-5.31466E-13
 -1      4111 2.00055E+01 1.71112E-02-2.89269E-05-2.88339E-04 8.69438E-14-4.70462E-13
 -1      4112 2.00054E+01 1.73214E-02-6.22046E-05-1.19992E-04 1.81954E-13-5.81928E-13
 -1      4113 2.00052E+01 2.18875E-02 4.99381E-05-2.18410E-04-1.45928E-14-4.34505E-13
 -1      4114 2.00054E+01 2.07127E-02 5.35010E-05-9.78981E-04 2.76759E-14-5.01685E-13
 -1      4115 1.87601E+01 2.21772E+00 6.29030E-03 3.33673E-01 8.27986E-14-6.35070E-13
 -1      4116 1.92943E+01 2.00532E+00 6.60723E-05 4.69665E-01-3.67198E-14-6.18476E-13
 -1      4117 1.82975E+01 1.95808E+00-1.01474E-03 1.64623E-01 1.48180E-13-5.87843E-13
 -1      4118 1.83405E+01 1.90628E+00-6.73986E-03 3.35121E-01 1.09169E-13-6.03110E-13
 -1      4119 1.81191E+01 1.85023E+00-2.55879E-03-2.79402E-02 1.36798E-13-5.44552E-13
 -1      4120 1.78966E+01-4.83749E-01 1.19916E-02 2.82797E+00 2.54188E-13-3.90868E-13
 -1      4121 1.70264E+01-1.73289E-01 3.62193E-02 2.85569E+00 2.68121E-13-4.71652E-13
 -1      4122 1.64870E+01 3.11603E-01-2.21398E-02 2.30639E+00 2.32855E-13-5.71798E-13
 -1      4123 1.77880E+01-1.64838E-01-1.89853E-02 2.53948E+00 1.99422E-13-3.90591E-13
 -1      4124 1.79378E+01 1.76815E+00 1.47722E-02-4.59962E-01 1.38367E-13-4.70034E-13
 -1      4125 1.82769E+01 1.69720E+00-4.38853E-03-6.87760E-01 1.51353E-13-4.70254E-13
 -1      4126 1.61792E+01 1.19094E+00-2.07714E-02-1.25603E+00-2.15453E-15-5.40011E-13
 -1      4127 1.96412E+01 4.86994E-01-1.77797E-03 1.36629E-01-6.23455E-14-1.24680E-14
 -1      4128 1.95809E+01 5.40382E-01-1.23262E-03 1.54837E-01-6.51952E-14-1.28402E-14
 -1      4129 1.72289E+01 1.40205E+00-1.81228E-02-1.00856E+00 5.96736E-14-4.69781E-13
 -1      4130 1.72516E+01 1.62818E+00 3.13660E-02-5.89114E-01 9.26391E-14-4.95067E-13
 -1      4131 1.68557E+01 1.31759E+00-7.26515E-03-1.12618E+00 1.62314E-14-4.78403E-13
 -1      4132 1.79952E+01 6.20557E-01 5.63821E-03-1.34461E+00 5.95038E-14 1.43660E-13
 -1      4133 1.80923E+01 7.11455E-01-1.17883E-02-1.15222E+00 1.17033E-13 1.39650E-13
 -1      4134 1.83334E+01 7.75452E-01 4.61160E-03-9.77765E-01 8.73556E-14-2.73026E-14
 -1      4135 1.84372E+01 8.04268E-01-9.93396E-03-8.41520E-01-5.58101E-14-3.42824E-14
 -1      4136 1.79799E+01 9.21403E-01 1.93396E-02-9.13971E-01 7.51352E-15 5.04453E-14
 -1      4137 1.86358E+01 8.26569E-01 2.53848E-03-7.18801E-01-1.78361E-13-4.34060E-16
 -1      4138 1.87397E+01 8.20589E-01-7.34439E-03-6.18505E-01-1.31931E-13-1.98734E-16
 -1      4139 1.83841E+01 9.48607E-01 1.61541E-02-6.47762E-01-1.03836E-13-2.48619E-13
 -1      4140 1.89033E+01 8.11209E-01 1.28148E-03-5.30822E-01-1.73762E-13 5.56516E-15
 -1      4141 1.89996E+01 7.83354E-01-5.48966E-03-4.56019E-01-1.69138E-13-5.12786E-14
 -1      4142 1.87184E+01 9.14369E-01 1.24403E-02-4.59179E-01-1.23760E-13-1.06838E-13
 -1      4143 1.91337E+01 7.54238E-01 5.10593E-04-3.93082E-01-8.49747E-14 1.26501E-14
 -1      4144 1.92191E+01 7.13836E-01-4.14446E-03-3.36711E-01 2.60493E-14-9.70535E-14
 -1      4145 1.89963E+01 8.42229E-01 9.58392E-03-3.25844E-01-7.45711E-14-4.97043E-14
 -1      4146 1.93280E+01 6.73896E-01 5.76475E-05-2.91419E-01 3.01555E-14-1.04367E-13
 -1      4147 1.94010E+01 6.27777E-01-3.14691E-03-2.48568E-01 6.20067E-15-1.09508E-13
 -1      4148 1.92253E+01 7.49095E-01 7.42348E-03-2.31402E-01-6.99587E-15-2.39082E-14
 -1      4149 1.94885E+01 5.83397E-01-1.86565E-04-2.15914E-01 3.11967E-14-5.35273E-14
 -1      4150 1.95492E+01 5.36353E-01-2.39407E-03-1.83129E-01 8.59763E-15 3.81879E-15
 -1      4151 1.94116E+01 6.47391E-01 5.75940E-03-1.64373E-01 5.06195E-15-5.47290E-14
 -1      4152 1.96186E+01 4.91886E-01-2.97845E-04-1.59558E-01-1.46833E-13-2.19620E-14
 -1      4153 1.96678E+01 4.47070E-01-1.81884E-03-1.34372E-01-1.43190E-13-4.71517E-14
 -1      4154 1.95611E+01 5.45885E-01 4.45593E-03-1.16695E-01-9.20939E-14-1.72003E-13
 -1      4155 1.97219E+01 4.05287E-01-3.27968E-04-1.17350E-01-9.59565E-14 4.76664E-14
 -1      4156 1.97608E+01 3.64582E-01-1.37599E-03-9.79737E-02 5.90009E-15 9.74809E-15
 -1      4157 1.96792E+01 4.50347E-01 3.42503E-03-8.27038E-02-1.08787E-13-9.66094E-14
 -1      4158 1.98023E+01 3.27060E-01-3.11831E-04-8.56872E-02 8.58848E-14-8.65589E-14
 -1      4159 1.98324E+01 2.91406E-01-1.03398E-03-7.07968E-02 1.82772E-13-2.07993E-13
 -1      4160 1.97709E+01 3.64187E-01 2.60770E-03-5.84135E-02-3.86225E-14-3.41261E-14
 -1      4161 1.98638E+01 2.58862E-01-2.72426E-04-6.19427E-02 1.60684E-13-3.75191E-13
 -1      4162 1.98865E+01 2.28536E-01-7.69982E-04-5.05397E-02 1.71441E-14-3.84047E-13
 -1      4163 1.98409E+01 2.89042E-01 1.96175E-03-4.10204E-02 4.03781E-14-3.68931E-13
 -1      4164 1.99097E+01 2.01100E-01-2.24329E-04-4.41793E-02-1.03980E-13-3.16444E-13
 -1      4165 1.99264E+01 1.75940E-01-5.66976E-04-3.54970E-02-2.39852E-13-2.63578E-13
 -1      4166 1.98933E+01 2.25290E-01 1.45498E-03-2.85492E-02-2.98454E-14-4.77560E-13
 -1      4167 1.99432E+01 1.53366E-01-1.76226E-04-3.09511E-02-2.56441E-13-1.09245E-13
 -1      4168 1.99551E+01 1.32947E-01-4.11887E-04-2.43923E-02-2.24955E-13-4.94751E-14
 -1      4169 1.99317E+01 1.72476E-01 1.06146E-03-1.96060E-02-1.69807E-13-9.82766E-14
 -1      4170 1.99669E+01 1.14769E-01-1.32791E-04-2.11675E-02-2.00429E-13 9.96296E-14
 -1      4171 1.99752E+01 9.85269E-02-2.94498E-04-1.62620E-02 2.19737E-14 2.14259E-13
 -1      4172 1.99591E+01 1.29644E-01 7.59566E-04-1.32034E-02-4.47969E-14 1.20141E-13
 -1      4173 1.99832E+01 8.41760E-02-9.59895E-05-1.39982E-02 2.82732E-14 1.15252E-13
 -1      4174 1.99887E+01 7.14942E-02-2.06564E-04-1.03734E-02-5.93771E-14 6.82473E-14
 -1      4175 1.99781E+01 9.55772E-02 5.30548E-04-8.63918E-03-6.68565E-14 2.48296E-13
 -1      4176 1.99939E+01 6.03725E-02-6.61996E-05-8.80423E-03-2.10339E-14 1.74548E-14
 -1      4177 1.99973E+01 5.06371E-02-1.40721E-04-6.16391E-03-5.02314E-14-9.19024E-14
 -1      4178 1.99907E+01 6.89639E-02 3.54935E-04-5.41316E-03-1.01771E-13 6.90220E-14
 -1      4179 2.00004E+01 4.21117E-02-5.89344E-05-5.11680E-03-2.65391E-14-1.59754E-13
 -1      4180 2.00024E+01 3.48353E-02-4.95474E-05-3.20416E-03 1.30426E-13-1.30258E-13
 -1      4181 1.99985E+01 4.84536E-02 1.91625E-04-3.17303E-03-4.49669E-14-1.14821E-14
 -1      4182 2.00045E+01 2.56613E-02-5.02018E-05-2.17892E-03 8.75554E-14-3.78467E-13
 -1      4183 1.90909E+01 8.43388E-01-3.17924E-03 2.18911E-01-1.20444E-13 1.04142E-13
 -1      4184 1.89527E+01 9.08206E-01-3.84157E-03 2.35461E-01-1.61185E-13 2.14263E-13
 -1      4185 1.78968E+01 1.19224E+00-7.15801E-03 2.34122E-01-1.74670E-13 2.47910E-13
 -1      4186 1.75871E+01 1.22802E+00-1.03282E-02 2.38605E-01-2.45119E-13 1.40291E-13
 -1      4187 1.97458E+01 3.91308E-01-1.45470E-03 1.09742E-01-7.19644E-14 3.42679E-14
 -1      4188 1.97009E+01 4.37961E-01-8.02186E-04 1.26267E-01-5.72476E-14 2.56769E-14
 -1      4189 1.96553E+01 4.83377E-01 4.24772E-03 8.47465E-02-4.04681E-14-1.37000E-15
 -1      4190 1.87648E+01 1.86359E+00-5.41661E-03 5.55634E-01 6.87336E-14-5.62771E-13
 -1      4191 1.89379E+01 2.05144E+00-6.06444E-03 4.85171E-01 3.65040E-14-5.89233E-13
 -1      4192 1.55107E+01 1.21764E+00 2.65705E-04 3.06064E-02-2.56502E-14 1.97736E-13
 -1      4193 1.98241E+01 3.09333E-01-1.17441E-03 8.58132E-02-3.03220E-13 2.12132E-13
 -1      4194 1.97912E+01 3.49100E-01-5.02830E-04 1.00213E-01-1.57419E-13 7.46076E-14
 -1      4195 1.97560E+01 3.87931E-01 3.19954E-03 6.99612E-02-1.63624E-13 2.52469E-14
 -1      4196 1.98820E+01 2.40638E-01-9.33386E-04 6.53639E-02-1.56924E-13 1.34313E-13
 -1      4197 1.98583E+01 2.73811E-01-2.99350E-04 7.74999E-02-2.24149E-13 1.77291E-13
 -1      4198 1.98316E+01 3.06236E-01 2.38613E-03 5.57725E-02-2.12818E-13 1.07205E-14
 -1      4199 1.99241E+01 1.84196E-01-7.29343E-04 4.84619E-02 9.97135E-14 1.43670E-13
 -1      4200 1.99072E+01 2.11335E-01-1.64669E-04 5.84026E-02-3.12323E-14 1.59929E-13
 -1      4201 1.98876E+01 2.37836E-01 1.75748E-03 4.30709E-02-1.34635E-13-1.11107E-13
 -1      4202 1.99540E+01 1.38656E-01-5.59809E-04 3.48874E-02 1.06692E-13 4.40629E-14
 -1      4203 1.99423E+01 1.60462E-01-7.83549E-05 4.28266E-02 1.29477E-13 1.24398E-13
 -1      4204 1.99281E+01 1.81696E-01 1.27525E-03 3.22491E-02 1.98363E-13-1.81920E-13
 -1      4205 1.99746E+01 1.02535E-01-4.21750E-04 2.42638E-02 5.96444E-14 7.32132E-14
 -1      4206 1.99668E+01 1.19760E-01-2.53245E-05 3.04585E-02 7.32501E-14 9.79304E-14
 -1      4207 1.99569E+01 1.36457E-01 9.08992E-04 2.33774E-02 1.35087E-13-1.31806E-13
 -1      4208 1.99884E+01 7.43533E-02-3.11745E-04 1.61494E-02 6.13582E-14 1.47830E-14
 -1      4209 1.99834E+01 8.77373E-02 5.29130E-06 2.08773E-02 1.08209E-13 1.48449E-13
 -1      4210 1.99768E+01 1.00629E-01 6.34017E-04 1.63359E-02-2.32950E-14 1.03175E-14
 -1      4211 1.99972E+01 5.27201E-02-2.19171E-04 1.00967E-02-1.21679E-13-1.55471E-13
 -1      4212 1.99942E+01 6.29542E-02 2.13573E-05 1.36266E-02-8.69539E-15 6.74065E-14
 -1      4213 1.99899E+01 7.27242E-02 4.29275E-04 1.09094E-02 1.28315E-14-9.07711E-14
 -1      4214 2.00025E+01 3.63520E-02-9.23820E-05 5.68950E-03-1.61471E-13-3.10410E-14
 -1      4215 2.00008E+01 4.39538E-02-3.75363E-06 8.25274E-03-2.06768E-13-1.39561E-13
 -1      4216 1.99981E+01 5.13295E-02 2.60396E-04 6.82328E-03-1.58848E-13-1.88636E-13
 -1      4217 1.84026E+01 1.09191E+00-5.22702E-03 2.43218E-01-1.11772E-13 2.35606E-13
 -1      4218 1.81664E+01 1.14472E+00-7.71676E-03 2.51092E-01-3.94579E-14 2.62151E-13
 -1      4219 1.80192E+01 1.20472E+00 2.28127E-02 1.30834E-02-1.61250E-13 1.11707E-13
 -1      4220 1.90960E+01 2.03168E+00 5.45181E-03 5.08212E-01-1.31661E-14-5.79026E-13
 -1      4221 1.85359E+01 1.79828E+00-6.66334E-04-5.78512E-01 1.77290E-13-4.79650E-13
 -1      4222 1.81549E+01 8.72746E-01-1.06651E-02 1.47479E+00 1.68250E-13-4.92167E-13
 -1      4223 1.80565E+01 6.26569E-01 6.35047E-03 1.74866E+00 2.16623E-13-4.61160E-13
 -1      4224 1.87906E+01 9.71788E-01-3.98683E-03 2.36912E-01-2.03515E-13 2.69276E-13
 -1      4225 1.86102E+01 1.03358E+00-5.44308E-03 2.49633E-01-1.22544E-13 1.79380E-13
 -1      4226 1.88475E+01 9.71087E-01 1.27802E-02 1.01612E-01-1.08533E-13 1.26376E-13
 -1      4227 1.85093E+01 1.28872E+00-1.10299E-02 1.03194E+00 1.00724E-13-4.98754E-13
 -1      4228 1.84233E+01 1.08914E+00 6.37693E-03 1.24205E+00 1.21464E-13-4.90887E-13
 -1      4229 1.79475E+01 1.19241E+00 7.03318E-03 1.20439E+00 1.53250E-13-5.07740E-13
 -1      4230 1.78035E+01 1.73779E+00-9.98607E-03-8.13741E-02 1.34212E-13-5.42051E-13
 -1      4231 1.77377E+01 3.01859E-01 1.43978E-02-1.84587E+00 6.64439E-14 2.28267E-13
 -1      4232 1.77982E+01 4.72394E-01-9.92074E-03-1.58405E+00 8.15981E-14 1.75080E-13
 -1      4233 1.75452E+01 7.36372E-01-3.69261E-03-1.31209E+00 5.16364E-14 2.35333E-13
 -1      4234 1.71918E+01 4.27102E-01 8.02955E-03-1.87419E+00 7.15320E-14 3.27573E-13
 -1      4235 2.00055E+01 1.93028E-02 8.51848E-07 1.06607E-03 6.27118E-14 2.45606E-13
 -1      4236 2.00055E+01 1.96299E-02-8.30739E-05 1.53011E-03-4.92546E-16 1.37996E-13
 -1      4237 2.00053E+01 2.33566E-02 3.27047E-05 2.48797E-03 1.61811E-14 1.37623E-13
 -1      4238 2.00052E+01 2.28584E-02 7.75441E-05 1.10362E-03 1.63896E-14 2.61264E-14
 -1      4239 1.73783E+01 1.61194E+00-1.41802E-02-8.45205E-02 1.25174E-13-5.52815E-13
 -1      4240 1.77619E+01 1.72420E+00 2.14831E-02 3.62340E-01 1.44116E-13-5.58727E-13
 -1      4241 1.88300E+01 1.83663E+00-9.64651E-03-6.20441E-01 2.09420E-13-4.77397E-13
 -1      4242 1.69694E+01 1.53255E+00-1.93666E-02-9.00453E-02 1.02681E-13-5.49703E-13
 -1      4243 2.00037E+01 3.00344E-02 8.47176E-05-1.45684E-03 1.31490E-14-3.82466E-13
 -1      4244 2.00042E+01 2.73370E-02 5.74196E-06 8.11249E-04-1.85042E-13-2.08156E-15
 -1      4245 2.00042E+01 2.76506E-02-6.52083E-05 1.67788E-03-1.64596E-13-8.45403E-14
 -1      4246 1.92181E+01 7.79472E-01-2.68196E-03 2.12359E-01 4.82904E-16 1.06056E-13
 -1      4247 1.91304E+01 8.40547E-01 9.66470E-03 1.11499E-01-6.31292E-14 5.32113E-14
 -1      4248 1.93237E+01 7.15954E-01-2.60331E-03 1.93725E-01-7.48418E-14-4.14531E-14
 -1      4249 1.74020E+01 1.28444E+00 2.70579E-02-8.88290E-02-3.30282E-13 6.52995E-14
 -1      4250 1.72324E+01 1.25110E+00-1.22491E-02 2.11218E-01-3.00118E-13 8.51074E-14
 -1      4251 1.68368E+01 1.27153E+00-1.26974E-02 2.20849E-01-3.21436E-13-8.69840E-14
 -1      4252 1.64686E+01 8.34770E-01 3.62698E-02 1.74430E+00 1.91992E-13-6.01643E-13
 -1      4253 1.62950E+01 1.11600E+00-1.75506E-02 1.10405E+00 1.60781E-13-6.04757E-13
 -1      4254 1.61180E+01 7.56698E-01 2.14632E-02-1.62151E+00 1.39755E-13 3.84075E-13
 -1      4255 1.67323E+01 5.65167E-01 1.13018E-02-1.73685E+00 6.89917E-14 3.07435E-13
 -1      4256 1.69252E+01 7.24487E-01-5.43830E-03-1.43836E+00 9.13952E-14 3.46450E-13
 -1      4257 1.86899E+01 1.65001E+00 6.52193E-04 7.23113E-01 8.92384E-14-5.38469E-13
 -1      4258 1.60659E+01 1.25544E+00-4.45363E-03 3.31709E-02-1.86666E-13 8.11803E-14
 -1      4259 1.95034E+01 5.95858E-01-2.15331E-03 1.65297E-01-3.82035E-14-1.39403E-13
 -1      4260 1.94233E+01 6.55173E-01-1.83949E-03 1.84356E-01-1.02004E-13-9.96252E-14
 -1      4261 1.93514E+01 7.12339E-01 7.35341E-03 1.08706E-01-8.65174E-14-7.01750E-14
 -1      4262 1.95231E+01 5.92108E-01 5.59913E-03 9.85203E-02-1.17756E-13-6.29221E-14
 -1      4263 1.84857E+01 1.09597E+00 1.70735E-02 7.19908E-02-7.66462E-14 1.64997E-13
 -1      4264 1.62129E+01 1.45702E+00 3.89802E-02-7.11275E-01 4.30569E-14-5.49349E-13
 -1      4265 1.79148E+01 3.89238E-01-1.08850E-02 1.98303E+00 2.24488E-13-4.33337E-13
 -1      4266 1.79189E+01 1.52030E-01 1.22621E-02 2.23483E+00 1.97414E-13-4.29450E-13
 -1      4267 1.73201E+01 3.72653E-01 1.50389E-02 2.18742E+00 2.12945E-13-5.20912E-13
 -1      4268 1.75462E+01 7.90477E-01-1.08152E-03 1.66813E+00 2.17519E-13-5.25901E-13
 -1      4269 1.62188E+01 1.40245E+00-1.75562E-02-2.06383E-02 1.00762E-13-5.85968E-13
 -1      4270 1.59060E+01 1.00454E+00-2.38239E-02-1.00159E+00 8.01672E-14 4.68650E-13
 -1      4271 1.70106E+01 5.53622E-01 2.54060E-03 1.95978E+00 1.99953E-13-5.62056E-13
 -1      4272 1.81325E+01 1.61011E+00 1.84251E-03 6.34923E-01 1.26171E-13-5.48414E-13
 -1      4273 1.83821E+01 1.70785E+00 4.34342E-03 6.68215E-01 1.07857E-13-5.37293E-13
 -1      4274 1.77061E+01 1.45734E+00-1.19233E-02 7.33371E-01 1.28512E-13-5.29172E-13
 -1      4275 2.00042E+01 2.68428E-02-5.04819E-05 7.64146E-05-1.52605E-13-2.06337E-13
 -1      4276 1.81296E+01 1.03258E+00-1.17262E-02-3.60687E-01-7.42165E-14-5.41766E-14
 -1      4277 1.83266E+01 1.01679E+00-1.39410E-02-2.61297E-01-5.56681E-14-2.62865E-14
 -1      4278 1.85435E+01 9.72257E-01-9.27707E-03-2.26036E-01-7.20282E-14-3.23112E-14
 -1      4279 1.87064E+01 9.37162E-01-1.01789E-02-1.56646E-01-4.38055E-14-2.27235E-14
 -1      4280 1.88754E+01 8.82089E-01-7.22866E-03-1.36678E-01-6.17090E-14-5.77763E-14
 -1      4281 1.90091E+01 8.35769E-01-7.43286E-03-8.85278E-02-4.73203E-14 3.84713E-14
 -1      4282 1.91410E+01 7.76353E-01-5.67420E-03-7.88551E-02-8.76355E-14 1.89159E-14
 -1      4283 1.92498E+01 7.25131E-01-5.44199E-03-4.55493E-02-4.39015E-14-1.30344E-14
 -1      4284 1.93524E+01 6.65931E-01-4.47883E-03-4.25484E-02-1.12839E-13-9.34008E-15
 -1      4285 1.94399E+01 6.14355E-01-3.98409E-03-1.95625E-02-1.39176E-13-1.37074E-13
 -1      4286 1.95193E+01 5.58480E-01-3.53523E-03-2.06013E-02-6.67156E-14-1.24782E-13
 -1      4287 1.95888E+01 5.09591E-01-2.90700E-03-4.75822E-03-7.64495E-14-8.10793E-14
 -1      4288 1.96496E+01 4.58946E-01-2.77623E-03-7.98610E-03-1.09448E-13-5.67832E-14
 -1      4289 1.97040E+01 4.14581E-01-2.10759E-03 2.93378E-03-1.16991E-13-1.38263E-13
 -1      4290 1.97500E+01 3.70129E-01-2.16074E-03-1.24280E-03-1.46770E-13-3.71622E-14
 -1      4291 1.97919E+01 3.31210E-01-1.51399E-03 6.29436E-03-8.94767E-14-1.19287E-13
 -1      4292 1.98262E+01 2.93224E-01-1.66199E-03 1.95009E-03-7.64667E-14-1.78560E-13
 -1      4293 1.98578E+01 2.60021E-01-1.07449E-03 7.16632E-03-8.81872E-14-2.31746E-13
 -1      4294 1.98830E+01 2.28304E-01-1.26061E-03 3.10528E-03 1.34203E-14-2.66102E-13
 -1      4295 1.99064E+01 2.00644E-01-7.50971E-04 6.72782E-03-2.35195E-14-1.97903E-13
 -1      4296 1.99246E+01 1.74703E-01-9.41050E-04 3.17558E-03 3.92632E-14-1.62775E-13
 -1      4297 1.99415E+01 1.52145E-01-5.14758E-04 5.70022E-03 8.64154E-14-8.58176E-14
 -1      4298 1.99542E+01 1.31329E-01-6.89910E-04 2.73717E-03 6.59579E-14-5.67741E-14
 -1      4299 1.99662E+01 1.13284E-01-3.43973E-04 4.50106E-03 8.56439E-15 5.92094E-14
 -1      4300 1.99749E+01 9.68774E-02-4.94912E-04 2.12124E-03-8.63084E-14 8.34363E-14
 -1      4301 1.99830E+01 8.27036E-02-2.20988E-04 3.35297E-03-8.36541E-14 8.57930E-14
 -1      4302 1.99886E+01 6.99949E-02-3.42618E-04 1.50757E-03-8.25898E-14 5.99377E-14
 -1      4303 1.99940E+01 5.90482E-02-1.27501E-04 2.36695E-03-5.48516E-14 5.12026E-14
 -1      4304 1.99974E+01 4.94274E-02-1.98700E-04 9.96357E-04-1.31830E-13 5.37375E-15
 -1      4305 2.00005E+01 4.10909E-02-7.12156E-05 1.46645E-03-1.33732E-13-9.44889E-14
 -1      4306 1.74319E+01 1.30584E+00-1.66560E-03 9.14937E-01 1.63642E-13-5.42534E-13
 -1      4307 1.78504E+01 1.05906E+00-1.82829E-02-4.19428E-01-1.51874E-13 1.52634E-14
 -1      4308 2.00047E+01 2.72143E-02-1.68345E-05 3.78847E-03-5.17366E-14 1.05388E-13
 -1      4309 2.00035E+01 3.20515E-02 7.04823E-05 3.24413E-03-1.57083E-13-1.44554E-13
 -1      4310 1.63482E+01 1.24109E+00 2.37941E-02-3.72740E-01-9.58407E-14 2.46417E-13
 -1      4311 1.66658E+01 1.45983E+00 2.96081E-02 5.08439E-01 1.36653E-13-5.88697E-13
 -1      4312 1.76166E+01 1.04408E+00-1.32725E-02-5.58390E-01-1.73856E-13 1.66710E-13
 -1      4313 1.66831E+01 1.09743E+00-1.05112E-02-6.90720E-01-6.39523E-14 2.90130E-13
 -1      4314 1.72898E+01 1.05171E+00-1.51024E-02-6.48040E-01-1.38862E-13 2.01898E-13
 -1      4315 2.00021E+01 3.75442E-02 1.01656E-04 3.04287E-03-2.64157E-13-8.36287E-14
 -1      4316 2.00019E+01 3.60985E-02-8.00115E-05-4.02256E-04-1.58337E-13-1.53627E-14
 -1      4317 1.70410E+01 1.29567E+00-8.04947E-03 9.08522E-01 1.55258E-13-5.75723E-13
 -1      4318 1.72868E+01 9.89290E-01 2.51844E-03 1.43336E+00 1.94113E-13-5.60431E-13
 -1      4319 1.71273E+01 7.57888E-01-1.14411E-02 1.68224E+00 2.01662E-13-5.66089E-13
 -1      4320 1.71579E+01 8.98519E-01 1.55327E-02-1.16994E+00 7.75391E-14 3.40203E-13
 -3
    1PSTEP                         3           1           1          
  100CL  101 1.000000000        4320                     0    1           1
 -4  TOSTRAIN    6    1
 -5  EXX         1    4    1    1
 -5  EYY         1    4    2    2
 -5  EZZ         1    4    3    3
 -5  EXY         1    4    1    2
 -5  EYZ         1    4    2    3
 -5  EZX         1    4    3    1
 -1         1 3.61883E-05-1.10408E-04 1.98888E-05-9.49485E-06-1.04407E-17-1.19657E-18
 -1         2 3.67544E-05-1.11996E-04 2.02823E-05 4.72594E-07 2.33882E-18 1.42143E-19
 -1         3 9.52379E-05-2.85703E-05-2.85724E-05 1.00861E-09-4.01130E-18-3.85372E-18
 -1         4 9.52378E-05-2.85704E-05-2.85724E-05-8.77833E-10 1.51018E-18 5.69021E-19
 -1         5 1.42187E-04-2.10905E-05-4.26261E-05 3.77695E-05-4.58615E-19 3.25612E-17
 -1         6 1.44130E-04 2.59674E-10-4.42649E-05-5.24549E-05-1.95675E-18 3.00044E-17
 -1         7 9.20751E-05-6.48244E-07-3.94768E-05-2.77826E-05-2.78356E-19 4.95273E-18
 -1         8 8.66442E-05 2.45110E-08-3.68859E-05-1.81281E-05-3.62795E-19-2.58311E-18
 -1         9 8.39842E-05 4.37028E-08-3.58001E-05-1.30888E-05-3.08704E-19-6.56336E-18
 -1        10 8.23309E-05 2.74645E-08-3.51109E-05-9.40792E-06-2.02626E-19-8.48098E-18
 -1        11 8.11124E-05 2.26531E-08-3.46166E-05-6.50427E-06-1.44499E-19-9.35554E-18
 -1        12 8.01898E-05 2.35626E-08-3.42503E-05-4.18535E-06-6.39047E-20-9.63146E-18
 -1        13 7.95186E-05 2.77132E-08-3.39885E-05-2.22794E-06-2.13909E-20-9.64075E-18
 -1        14 7.91452E-05 3.12447E-08-3.38453E-05-5.36158E-07 2.48866E-20-9.54278E-18
 -1        15 7.91012E-05 3.26778E-08-3.38314E-05 1.03489E-06 7.40161E-20-9.35139E-18
 -1        16 7.94051E-05 3.13962E-08-3.39531E-05 2.64315E-06 1.21460E-19-9.07391E-18
 -1        17 8.00575E-05 2.69625E-08-3.42102E-05 4.46090E-06 1.50812E-19-8.62924E-18
 -1        18 8.10216E-05 2.43333E-08-3.45917E-05 6.62792E-06 2.37222E-19-7.80009E-18
 -1        19 8.23355E-05 2.59934E-08-3.51194E-05 9.42325E-06 3.17915E-19-6.42785E-18
 -1        20 8.40878E-05 4.38007E-08-3.58455E-05 1.30752E-05 3.90535E-19-3.87360E-18
 -1        21 8.67611E-05 9.14944E-08-3.69717E-05 1.81012E-05 4.32887E-19 1.04286E-18
 -1        22 9.30294E-05-2.34153E-07-3.91760E-05 2.63816E-05 6.77626E-20 1.08607E-17
 -1        23 1.14130E-04-3.85341E-05-3.57646E-05-3.98378E-06-1.36166E-18 2.31906E-17
 -1        24 9.58161E-05-2.86125E-05-2.98741E-05 4.53285E-07-3.48167E-19 1.71682E-17
 -1        25 9.36779E-05-2.82257E-05-2.82878E-05 4.06871E-07-1.33039E-19 1.12883E-17
 -1        26 9.41198E-05-2.83225E-05-2.82291E-05 2.40397E-07 3.58128E-20 7.48801E-18
 -1        27 9.58173E-05-2.87995E-05-2.87271E-05 1.88003E-07-1.32402E-19 4.64424E-18
 -1        28 9.81589E-05-2.94748E-05-2.94359E-05 1.62338E-07-1.25805E-19 2.57622E-18
 -1        29 1.00766E-04-3.02383E-05-3.02129E-05 1.46132E-07 6.33081E-20 8.86082E-19
 -1        30 1.03274E-04-3.09773E-05-3.09474E-05 1.25799E-07-1.20646E-20-5.33763E-19
 -1        31 1.05251E-04-3.15608E-05-3.15118E-05 8.80940E-08-1.38812E-19-2.46482E-18
 -1        32 1.06186E-04-3.18357E-05-3.17572E-05 2.00696E-08-2.16389E-19-3.83606E-18
 -1        33 1.05551E-04-3.16452E-05-3.15375E-05-8.57215E-08 3.11642E-19-4.89117E-18
 -1        34 1.02974E-04-3.08782E-05-3.07611E-05-2.20868E-07 4.23525E-20-4.39840E-18
 -1        35 9.85045E-05-2.95480E-05-2.94640E-05-3.50352E-07 2.55673E-20-5.50309E-18
 -1        36 9.28625E-05-2.78667E-05-2.78677E-05-4.13634E-07-1.28303E-19-5.90798E-18
 -1        37 8.74631E-05-2.62551E-05-2.63700E-05-3.52136E-07-1.24324E-19-5.99083E-18
 -1        38 8.40185E-05-2.52259E-05-2.54287E-05-1.56721E-07 7.09754E-20-7.08656E-18
 -1        39 8.37898E-05-2.51578E-05-2.53712E-05 1.05733E-07-8.36743E-20-7.34377E-18
 -1        40 8.69293E-05-2.60967E-05-2.62370E-05 3.25330E-07 1.52929E-20-7.95924E-18
 -1        41 9.24008E-05-2.77309E-05-2.77589E-05 4.20481E-07 6.68155E-21-8.29858E-18
 -1        42 9.85410E-05-2.95621E-05-2.94963E-05 3.84056E-07-2.99984E-19-9.47774E-18
 -1        43 1.03834E-04-3.11387E-05-3.10296E-05 2.68009E-07-2.59073E-19-1.03244E-17
 -1        44 1.07406E-04-3.22022E-05-3.20966E-05 1.35921E-07 2.73742E-19-9.05000E-18
 -1        45 1.09080E-04-3.27017E-05-3.26249E-05 2.94861E-08-9.92245E-20-8.26089E-18
 -1        46 1.09153E-04-3.27257E-05-3.26826E-05-3.73770E-08-3.11842E-19-9.41860E-18
 -1        47 1.08117E-04-3.24202E-05-3.24039E-05-6.88968E-08-1.27152E-19-9.33179E-18
 -1        48 1.06459E-04-3.19291E-05-3.19297E-05-7.60638E-08 2.78986E-19-8.30651E-18
 -1        49 1.04565E-04-3.13665E-05-3.13753E-05-6.95696E-08 1.97021E-19-6.81560E-18
 -1        50 1.02695E-04-3.08096E-05-3.08210E-05-5.71704E-08-2.13679E-20-7.86897E-18
 -1        51 1.00998E-04-3.03035E-05-3.03143E-05-4.35638E-08-1.17974E-19-7.46309E-18
 -1        52 9.95467E-05-2.98696E-05-2.98784E-05-3.11588E-08-5.87213E-20-7.35900E-18
 -1        53 9.83575E-05-2.95134E-05-2.95199E-05-2.09218E-08 6.55900E-20-6.75323E-18
 -1        54 9.74171E-05-2.92311E-05-2.92356E-05-1.30193E-08 2.01348E-19-5.15520E-18
 -1        55 9.66964E-05-2.90144E-05-2.90173E-05-7.23235E-09-2.14433E-19-5.68576E-18
 -1        56 9.61602E-05-2.88528E-05-2.88544E-05-3.19639E-09 1.80178E-19-5.83069E-18
 -1        57 9.57734E-05-2.87360E-05-2.87367E-05-5.25925E-10 8.52406E-20-6.19154E-18
 -1        58 9.55036E-05-2.86543E-05-2.86545E-05 1.12731E-09 3.44827E-19-6.89018E-18
 -1        59 9.53232E-05-2.85996E-05-2.85993E-05 2.05319E-09-3.32324E-19-7.48982E-18
 -1        60 9.52093E-05-2.85648E-05-2.85644E-05 2.48062E-09-5.68413E-20-5.66096E-18
 -1        61 9.51435E-05-2.85446E-05-2.85440E-05 2.58341E-09 2.83409E-19-3.07019E-18
 -1        62 9.51115E-05-2.85346E-05-2.85340E-05 2.48936E-09-5.13960E-19-3.72742E-18
 -1        63 9.51026E-05-2.85316E-05-2.85311E-05 2.28945E-09-8.67537E-19-6.34255E-18
 -1        64 9.51087E-05-2.85332E-05-2.85327E-05 2.04630E-09 2.11301E-19-7.68860E-18
 -1        65 9.51242E-05-2.85376E-05-2.85373E-05 1.80083E-09 2.70459E-19-3.48490E-18
 -1        66 9.51448E-05-2.85437E-05-2.85434E-05 1.57699E-09 1.71723E-20-1.37604E-18
 -1        67 9.51677E-05-2.85504E-05-2.85502E-05 1.38363E-09 3.14286E-19-1.27768E-18
 -1        68 9.51905E-05-2.85572E-05-2.85570E-05 1.21134E-09 4.76361E-19-3.01715E-19
 -1        69 9.52113E-05-2.85634E-05-2.85631E-05 1.01325E-09 9.92957E-20-8.38506E-19
 -1        70 9.52277E-05-2.85683E-05-2.85678E-05 6.04233E-10 2.17188E-20-2.30774E-19
 -1        71 9.52369E-05-2.85713E-05-2.85707E-05-7.48746E-11-7.79590E-19-1.25927E-18
 -1        72 1.03495E-04-3.09708E-05-3.45736E-05-2.06032E-06 4.44957E-19 2.97425E-17
 -1        73 9.58956E-05-2.85297E-05-2.98801E-05-3.60168E-07 3.07546E-19 2.26154E-17
 -1        74 9.42690E-05-2.82624E-05-2.85202E-05-1.30139E-07 1.32772E-19 1.72853E-17
 -1        75 9.52419E-05-2.86049E-05-2.86180E-05-9.72982E-08 1.20640E-19 1.34287E-17
 -1        76 9.77586E-05-2.93538E-05-2.93553E-05-8.94640E-08 6.07721E-20 1.08071E-17
 -1        77 1.01405E-04-3.04334E-05-3.04610E-05-1.00458E-07 5.82401E-20 9.34620E-18
 -1        78 1.05998E-04-3.17971E-05-3.18453E-05-1.31716E-07 2.00529E-20 8.65390E-18
 -1        79 1.11353E-04-3.33895E-05-3.34408E-05-1.84766E-07 1.53750E-19 7.39698E-18
 -1        80 1.17102E-04-3.51021E-05-3.51218E-05-2.55103E-07-1.19157E-19 5.91142E-18
 -1        81 1.22490E-04-3.67168E-05-3.66418E-05-3.19125E-07 2.25240E-19 4.42887E-18
 -1        82 1.26188E-04-3.78491E-05-3.75942E-05-3.16036E-07-1.78820E-19 3.85280E-18
 -1        83 1.26309E-04-3.79439E-05-3.74554E-05-1.41673E-07 3.78554E-19 3.89778E-18
 -1        84 1.20998E-04-3.64268E-05-3.58054E-05 2.92882E-07-6.14910E-20 3.60301E-18
 -1        85 1.09958E-04-3.31353E-05-3.27308E-05 8.91537E-07-7.13079E-20 4.80834E-18
 -1        86 9.62611E-05-2.89276E-05-2.91598E-05 1.26074E-06-8.26568E-20 4.23940E-18
 -1        87 8.61633E-05-2.57029E-05-2.66759E-05 9.69566E-07-1.56784E-19 2.76196E-18
 -1        88 8.55552E-05-2.54116E-05-2.65714E-05 4.03567E-08-5.22216E-20 1.83396E-18
 -1        89 9.49697E-05-2.83085E-05-2.89379E-05-8.51738E-07 2.07343E-19-1.19786E-18
 -1        90 1.09079E-04-3.26996E-05-3.25791E-05-1.14849E-06-1.65313E-19-2.44771E-18
 -1        91 1.21305E-04-3.64742E-05-3.59166E-05-8.94204E-07 1.99582E-19-3.15387E-18
 -1        92 1.28029E-04-3.85057E-05-3.79387E-05-4.47296E-07-2.20675E-20-1.18626E-18
 -1        93 1.29155E-04-3.88122E-05-3.84360E-05-8.67141E-08-2.58717E-19-9.84266E-19
 -1        94 1.26448E-04-3.79646E-05-3.77938E-05 1.10498E-07-3.72661E-20-1.40508E-18
 -1        95 1.21863E-04-3.65667E-05-3.65332E-05 1.82305E-07 2.34761E-19-1.48642E-18
 -1        96 1.16812E-04-3.50416E-05-3.50764E-05 1.84623E-07 1.20123E-19-5.22315E-19
 -1        97 1.12088E-04-3.36221E-05-3.36802E-05 1.57972E-07-2.99695E-19-1.36293E-19
 -1        98 1.08035E-04-3.24069E-05-3.24654E-05 1.24265E-07 1.06260E-19 1.20851E-18
 -1        99 1.04733E-04-3.14180E-05-3.14678E-05 9.30885E-08-5.12872E-19-6.47543E-19
 -1       100 1.02134E-04-3.06397E-05-3.06790E-05 6.75373E-08 4.82719E-19 1.35625E-19
 -1       101 1.00138E-04-3.00419E-05-3.00717E-05 4.78261E-08-1.19153E-20-1.74560E-18
 -1       102 9.86361E-05-2.95918E-05-2.96138E-05 3.31333E-08-1.59001E-19-4.13963E-18
 -1       103 9.75254E-05-2.92588E-05-2.92748E-05 2.24174E-08 8.32848E-20-4.74097E-18
 -1       104 9.67186E-05-2.90168E-05-2.90282E-05 1.47277E-08-3.55177E-20-1.48566E-18
 -1       105 9.61438E-05-2.88442E-05-2.88523E-05 9.28989E-09-2.90505E-19-1.40134E-18
 -1       106 9.57435E-05-2.87240E-05-2.87296E-05 5.50558E-09-1.83199E-19-2.00888E-18
 -1       107 9.54728E-05-2.86427E-05-2.86464E-05 2.92340E-09-4.76617E-20-3.75914E-18
 -1       108 9.52967E-05-2.85897E-05-2.85922E-05 1.20681E-09 4.33835E-19-5.85427E-18
 -1       109 9.51885E-05-2.85571E-05-2.85587E-05 1.06191E-10-2.84300E-19-5.88921E-18
 -1       110 9.51282E-05-2.85389E-05-2.85398E-05-5.63119E-10-6.84195E-19-2.69675E-18
 -1       111 9.51008E-05-2.85306E-05-2.85311E-05-9.37473E-10 8.28163E-19-1.87673E-18
 -1       112 9.50955E-05-2.85289E-05-2.85291E-05-1.11734E-09-2.52396E-19-5.10750E-18
 -1       113 9.51043E-05-2.85315E-05-2.85315E-05-1.17656E-09 2.17948E-19-2.98676E-18
 -1       114 9.51215E-05-2.85366E-05-2.85365E-05-1.16915E-09-5.82022E-19-6.31993E-19
 -1       115 9.51434E-05-2.85431E-05-2.85430E-05-1.13440E-09 3.72855E-19 2.34007E-18
 -1       116 9.51671E-05-2.85502E-05-2.85500E-05-1.09943E-09 5.61362E-19-1.52397E-18
 -1       117 9.51905E-05-2.85572E-05-2.85570E-05-1.07701E-09-7.99996E-19-7.49115E-18
 -1       118 9.52116E-05-2.85635E-05-2.85631E-05-1.05288E-09 5.38128E-19-7.24157E-18
 -1       119 9.52281E-05-2.85685E-05-2.85679E-05-8.98588E-10-3.93551E-19-9.29930E-18
 -1       120 9.52369E-05-2.85714E-05-2.85707E-05-1.75940E-10 2.05386E-18-7.24555E-18
 -1       121 9.52373E-05-2.85720E-05-2.85707E-05 1.56109E-11-5.63917E-18 1.27145E-18
 -1       122 9.52400E-05-2.85806E-05-2.85679E-05-6.86310E-10-7.01028E-20-3.27650E-19
 -1       123 9.52445E-05-2.85956E-05-2.85637E-05-9.31735E-10 4.01249E-18-6.43543E-19
 -1       124 9.52495E-05-2.86125E-05-2.85588E-05-8.91137E-10 6.30992E-18 3.21655E-19
 -1       125 9.52543E-05-2.86284E-05-2.85542E-05-7.25115E-10 6.64897E-18-1.39364E-18
 -1       126 9.52581E-05-2.86413E-05-2.85503E-05-5.28489E-10-1.62149E-18-3.70425E-19
 -1       127 9.52608E-05-2.86504E-05-2.85476E-05-3.12394E-10-2.69337E-18 2.70712E-18
 -1       128 9.52622E-05-2.86551E-05-2.85462E-05-9.78854E-11-6.15844E-19-1.28626E-18
 -1       129 9.52622E-05-2.86549E-05-2.85463E-05 1.13529E-10 7.74508E-20 3.54572E-19
 -1       130 9.52607E-05-2.86500E-05-2.85477E-05 3.23833E-10-1.96809E-18-8.20362E-19
 -1       131 9.52579E-05-2.86407E-05-2.85505E-05 5.40190E-10-9.03703E-18-6.39111E-19
 -1       132 9.52541E-05-2.86277E-05-2.85544E-05 7.25263E-10-1.28242E-17 1.89101E-18
 -1       133 9.52493E-05-2.86118E-05-2.85590E-05 8.81691E-10-7.70541E-18-2.75693E-19
 -1       134 9.52444E-05-2.85950E-05-2.85638E-05 9.76298E-10-5.86365E-18 1.22949E-18
 -1       135 9.52400E-05-2.85806E-05-2.85680E-05 9.43965E-10 1.96293E-18-2.84037E-19
 -1       136 9.52376E-05-2.85723E-05-2.85707E-05-3.09071E-10 3.81053E-19-4.66620E-19
 -1       137 2.67537E-05-9.15685E-05 1.65251E-05-2.54614E-05 1.71300E-17 4.13199E-18
 -1       138 8.05578E-06-3.63789E-05 3.67718E-06-1.98933E-05 3.02628E-17 1.50236E-17
 -1       139 1.07971E-05 1.28463E-05-1.43794E-05 2.06245E-05 3.05292E-17 2.19127E-17
 -1       140 6.09685E-05 2.48347E-05-3.57208E-05 7.77588E-05 2.40667E-17 2.76950E-17
 -1       141 1.58512E-04-9.67099E-06-5.71014E-05 1.11282E-04 1.45904E-17 2.80639E-17
 -1       142 2.64650E-04-6.58160E-05-7.37928E-05 8.98250E-05 5.27262E-18 1.70338E-17
 -1       143 3.17518E-04-9.82893E-05-8.04291E-05 1.91890E-05 1.92647E-19 2.40976E-18
 -1       144 2.97393E-04-8.56178E-05-7.79305E-05-6.26391E-05 3.11519E-18-1.61163E-17
 -1       145 2.14096E-04-3.68195E-05-6.65059E-05-1.11718E-04 1.21881E-17-2.89783E-17
 -1       146 1.08584E-04 1.28728E-05-4.77515E-05-1.03854E-04 2.26082E-17-3.39897E-17
 -1       147 3.39557E-05 2.68195E-05-2.71562E-05-5.58273E-05 3.10116E-17-2.98245E-17
 -1       148 5.05103E-06-3.34421E-06-6.78878E-06-8.19049E-07 3.23461E-17-2.10380E-17
 -1       149 1.48849E-05-6.12472E-05 9.98862E-06 2.77885E-05 2.36822E-17-8.89025E-18
 -1       150 3.35413E-05-1.05750E-04 1.90958E-05 1.78510E-05 7.13773E-18-1.44754E-18
 -1       151 2.12287E-05-7.63949E-05 1.33436E-05-2.58943E-05-2.56458E-17-7.63304E-18
 -1       152 5.90406E-06-2.08393E-05-5.78217E-07-1.09284E-05-3.58151E-17-1.83982E-17
 -1       153 1.61131E-05 2.08365E-05-1.84992E-05 3.31535E-05-3.49592E-17-2.75176E-17
 -1       154 6.85315E-05 2.50088E-05-3.79722E-05 8.44348E-05-2.67446E-17-3.18984E-17
 -1       155 1.60518E-04-9.56577E-06-5.77351E-05 1.14095E-04-1.64511E-17-2.92464E-17
 -1       156 2.49980E-04-5.93199E-05-7.12393E-05 9.39772E-05-6.32861E-18-2.20673E-17
 -1       157 3.03883E-04-9.27342E-05-7.82289E-05 3.00644E-05-1.11124E-18-9.27247E-18
 -1       158 2.96004E-04-8.75255E-05-7.73439E-05-4.67419E-05-1.42601E-18 4.45857E-18
 -1       159 2.27325E-04-4.62640E-05-6.79713E-05-1.03055E-04-6.75477E-18 1.89922E-17
 -1       160 1.34403E-04 2.41614E-06-5.29041E-05-1.10546E-04-1.56394E-17 2.59577E-17
 -1       161 5.30096E-05 2.71537E-05-3.33678E-05-7.31974E-05-2.26132E-17 2.47245E-17
 -1       162 9.41715E-06 1.22527E-05-1.32058E-05-1.88737E-05-2.85810E-17 1.97155E-17
 -1       163 8.51471E-06-3.64594E-05 3.98588E-06 1.90129E-05-2.53902E-17 1.19779E-17
 -1       164 2.59951E-05-8.70722E-05 1.54577E-05 2.23629E-05-1.39216E-17 3.49107E-18
 -1       165 9.70157E-05-1.31626E-05-3.61252E-05-2.02111E-05-4.45539E-18 1.03537E-18
 -1       166 9.10071E-05-8.95229E-06-3.53189E-05-1.49246E-05-4.05394E-18-3.59898E-18
 -1       167 8.75170E-05-6.61186E-06-3.47809E-05-1.09519E-05-3.19784E-18-6.08756E-18
 -1       168 8.51958E-05-5.20974E-06-3.43592E-05-7.79986E-06-2.30241E-18-7.40089E-18
 -1       169 8.34925E-05-4.24805E-06-3.40245E-05-5.26733E-06-1.54460E-18-7.93049E-18
 -1       170 8.22091E-05-3.55108E-06-3.37640E-05-3.14133E-06-8.23091E-19-8.08382E-18
 -1       171 8.13729E-05-3.09972E-06-3.35941E-05-1.33787E-06-4.52633E-20-8.02724E-18
 -1       172 8.10201E-05-2.89687E-06-3.35280E-05 2.75003E-07 5.76733E-19-7.91833E-18
 -1       173 8.11914E-05-2.96119E-06-3.35751E-05 1.84029E-06 1.24983E-18-7.71161E-18
 -1       174 8.19125E-05-3.31661E-06-3.37364E-05 3.51511E-06 1.93585E-18-7.35041E-18
 -1       175 8.31647E-05-3.97654E-06-3.39994E-05 5.43299E-06 2.60918E-18-6.80823E-18
 -1       176 8.50087E-05-5.01411E-06-3.43616E-05 7.83932E-06 3.41393E-18-5.78780E-18
 -1       177 8.75424E-05-6.55968E-06-3.48160E-05 1.09113E-05 4.15041E-18-4.01433E-18
 -1       178 9.12545E-05-9.06297E-06-3.53798E-05 1.48649E-05 4.58741E-18-7.45773E-19
 -1       179 9.80782E-05-1.44476E-05-3.60354E-05 1.95494E-05 4.40182E-18 5.22164E-18
 -1       180 1.07682E-04-2.69231E-05-3.57761E-05 1.69445E-05 3.28661E-18 1.30301E-17
 -1       181 1.05778E-04-2.81260E-05-3.32750E-05-1.05338E-05-3.91591E-18 6.75932E-18
 -1       182 1.00483E-04-2.93223E-05-3.05283E-05-3.18618E-06-3.33302E-18 4.86402E-18
 -1       183 9.80215E-05-2.89646E-05-2.95460E-05-1.84129E-07-2.37874E-18 3.22132E-18
 -1       184 9.77311E-05-2.90912E-05-2.93815E-05 1.29553E-06-1.84241E-18 1.61741E-18
 -1       185 9.85082E-05-2.94321E-05-2.95869E-05 2.09213E-06-1.33841E-18 7.73176E-19
 -1       186 9.98840E-05-2.99353E-05-2.99724E-05 2.45553E-06-1.12945E-18 4.51260E-20
 -1       187 1.01507E-04-3.05251E-05-3.04223E-05 2.42492E-06-9.42950E-19-7.23124E-19
 -1       188 1.03056E-04-3.11167E-05-3.08378E-05 1.95550E-06-8.28755E-19-9.59296E-19
 -1       189 1.04197E-04-3.16048E-05-3.11208E-05 9.84905E-07-9.48480E-19-8.20518E-19
 -1       190 1.04583E-04-3.18559E-05-3.11794E-05-4.91092E-07-5.86100E-19-1.35504E-18
 -1       191 1.03912E-04-3.17190E-05-3.09478E-05-2.32092E-06-1.77430E-19-2.02611E-18
 -1       192 1.02043E-04-3.10727E-05-3.04188E-05-4.11063E-06-6.43135E-19-2.68227E-18
 -1       193 9.91596E-05-2.99167E-05-2.96725E-05-5.23236E-06-1.94710E-19-2.83575E-18
 -1       194 9.58817E-05-2.84760E-05-2.88803E-05-5.02911E-06-1.38529E-19-2.68841E-18
 -1       195 9.31925E-05-2.72164E-05-2.82653E-05-3.21112E-06-9.02838E-19-3.15400E-18
 -1       196 9.20768E-05-2.66623E-05-2.80240E-05-1.97467E-07-3.53841E-19-4.17520E-18
 -1       197 9.30153E-05-2.70820E-05-2.82466E-05 2.96084E-06-3.21727E-19-4.42813E-18
 -1       198 9.57054E-05-2.83037E-05-2.88777E-05 5.13593E-06-2.25622E-19-4.72707E-18
 -1       199 9.92434E-05-2.98355E-05-2.97416E-05 5.73941E-06-8.57101E-19-5.10595E-18
 -1       200 1.02613E-04-3.11788E-05-3.06164E-05 4.92047E-06-3.53936E-19-5.18188E-18
 -1       201 1.05104E-04-3.20527E-05-3.13147E-05 3.28664E-06 3.19252E-19-5.11905E-18
 -1       202 1.06438E-04-3.24154E-05-3.17344E-05 1.48931E-06 4.45842E-19-5.72650E-18
 -1       203 1.06687E-04-3.23677E-05-3.18618E-05-3.08930E-08 8.36114E-20-4.75300E-18
 -1       204 1.06104E-04-3.20534E-05-3.17448E-05-1.09016E-06-1.89299E-19-3.75801E-18
 -1       205 1.04990E-04-3.16006E-05-3.14584E-05-1.68977E-06 2.30867E-19-3.37238E-18
 -1       206 1.03610E-04-3.11022E-05-3.10781E-05-1.92239E-06 8.06920E-19-3.42879E-18
 -1       207 1.02168E-04-3.06171E-05-3.06654E-05-1.90344E-06-2.31861E-19-3.95597E-18
 -1       208 1.00796E-04-3.01782E-05-3.02637E-05-1.73539E-06 5.53806E-20-3.72507E-18
 -1       209 9.95690E-05-2.98003E-05-2.98990E-05-1.49524E-06 3.99131E-19-3.63477E-18
 -1       210 9.85220E-05-2.94869E-05-2.95841E-05-1.23466E-06-5.47970E-20-3.04405E-18
 -1       211 9.76603E-05-2.92348E-05-2.93227E-05-9.84759E-07 4.74087E-19-2.91225E-18
 -1       212 9.69725E-05-2.90375E-05-2.91127E-05-7.61975E-07-1.59309E-19-3.07232E-18
 -1       213 9.64385E-05-2.88869E-05-2.89486E-05-5.73017E-07-2.23248E-20-2.70158E-18
 -1       214 9.60347E-05-2.87749E-05-2.88239E-05-4.18673E-07 2.66922E-19-2.63021E-18
 -1       215 9.57374E-05-2.86938E-05-2.87315E-05-2.96428E-07-5.49918E-19-4.32254E-18
 -1       216 9.55248E-05-2.86368E-05-2.86652E-05-2.02191E-07-1.75404E-19-3.94659E-18
 -1       217 9.53778E-05-2.85982E-05-2.86190E-05-1.31363E-07 2.82614E-19-4.88331E-18
 -1       218 9.52807E-05-2.85733E-05-2.85882E-05-7.94517E-08 6.04925E-19-3.78494E-18
 -1       219 9.52202E-05-2.85585E-05-2.85688E-05-4.23999E-08-7.78694E-20-3.30094E-18
 -1       220 9.51864E-05-2.85509E-05-2.85577E-05-1.67309E-08-1.04077E-18-3.35581E-18
 -1       221 9.51711E-05-2.85481E-05-2.85525E-05 4.17287E-10-4.78261E-19-2.56933E-18
 -1       222 9.51684E-05-2.85486E-05-2.85512E-05 1.13146E-08 3.14723E-18-2.04398E-18
 -1       223 9.51739E-05-2.85512E-05-2.85525E-05 1.76865E-08 1.94912E-18-1.75780E-19
 -1       224 9.51841E-05-2.85549E-05-2.85553E-05 2.07650E-08 9.32141E-19 5.74730E-19
 -1       225 9.51967E-05-2.85593E-05-2.85589E-05 2.13284E-08 2.27188E-19 7.75447E-19
 -1       226 9.52098E-05-2.85637E-05-2.85626E-05 1.97221E-08-3.86413E-19-9.39439E-19
 -1       227 9.52216E-05-2.85680E-05-2.85659E-05 1.58766E-08 2.16471E-20-1.57721E-18
 -1       228 9.52312E-05-2.85718E-05-2.85683E-05 9.60347E-09-2.44187E-19-8.52555E-19
 -1       229 1.02616E-04-2.95234E-05-3.14938E-05 5.63773E-06 3.53393E-18 1.11587E-17
 -1       230 9.89343E-05-2.91133E-05-2.98886E-05 1.11421E-06 2.62564E-18 8.62252E-18
 -1       231 9.82640E-05-2.91695E-05-2.95650E-05-9.74969E-07 1.90285E-18 6.56768E-18
 -1       232 9.93135E-05-2.95695E-05-2.98627E-05-2.27953E-06 1.20202E-18 5.17606E-18
 -1       233 1.01542E-04-3.02700E-05-3.05322E-05-3.26806E-06 7.47705E-19 4.53799E-18
 -1       234 1.04655E-04-3.12312E-05-3.14638E-05-4.07428E-06 4.79894E-19 3.71340E-18
 -1       235 1.08425E-04-3.24167E-05-3.25774E-05-4.66386E-06 7.08218E-19 3.24625E-18
 -1       236 1.12554E-04-3.37763E-05-3.37678E-05-4.85153E-06 7.08012E-19 2.84247E-18
 -1       237 1.16565E-04-3.52106E-05-3.48701E-05-4.29002E-06 8.09284E-19 2.09162E-18
 -1       238 1.19703E-04-3.65148E-05-3.56453E-05-2.51668E-06 1.68176E-19 2.30802E-18
 -1       239 1.20942E-04-3.73069E-05-3.58178E-05 8.15509E-07 1.27816E-19 2.08443E-18
 -1       240 1.19221E-04-3.69980E-05-3.52011E-05 5.39108E-06-7.74373E-20 2.51350E-18
 -1       241 1.14126E-04-3.50232E-05-3.38842E-05 9.50953E-06-3.80253E-19 2.55406E-18
 -1       242 1.07018E-04-3.16767E-05-3.23361E-05 1.02632E-05 6.54565E-19 1.59439E-18
 -1       243 1.01212E-04-2.85367E-05-3.12673E-05 5.73057E-06 1.14611E-18 8.71402E-19
 -1       244 1.00411E-04-2.79316E-05-3.11911E-05-2.43167E-06 1.26160E-18-1.45385E-18
 -1       245 1.05314E-04-3.04071E-05-3.21617E-05-9.17563E-06 1.24256E-18-2.60641E-18
 -1       246 1.12909E-04-3.41129E-05-3.37440E-05-1.08403E-05 3.84968E-19-2.59388E-18
 -1       247 1.19323E-04-3.68759E-05-3.52775E-05-7.95163E-06-3.68830E-19-1.82877E-18
 -1       248 1.22526E-04-3.79049E-05-3.62344E-05-3.33988E-06-1.75844E-18-1.41183E-18
 -1       249 1.22509E-04-3.75533E-05-3.64054E-05 6.42082E-07-3.44769E-20-1.98012E-19
 -1       250 1.20252E-04-3.64778E-05-3.59146E-05 3.09309E-06 2.14908E-19-8.72537E-19
 -1       251 1.16840E-04-3.51634E-05-3.50181E-05 4.13977E-06 8.10778E-20-1.50259E-18
 -1       252 1.13096E-04-3.38754E-05-3.39618E-05 4.24942E-06-4.72442E-19-9.98015E-19
 -1       253 1.09523E-04-3.27304E-05-3.29162E-05 3.86073E-06-1.35004E-19-3.39619E-19
 -1       254 1.06371E-04-3.17656E-05-3.19747E-05 3.27264E-06-4.98992E-19-5.37299E-19
 -1       255 1.03726E-04-3.09799E-05-3.11755E-05 2.65494E-06 9.59207E-19 9.51485E-20
 -1       256 1.01583E-04-3.03555E-05-3.05233E-05 2.08960E-06-2.33213E-19-1.51086E-18
 -1       257 9.98895E-05-2.98687E-05-3.00059E-05 1.60760E-06 5.27953E-19-1.36092E-18
 -1       258 9.85794E-05-2.94956E-05-2.96044E-05 1.21362E-06 1.10306E-18-1.61089E-18
 -1       259 9.75838E-05-2.92141E-05-2.92987E-05 9.00406E-07-5.26306E-19-1.72484E-18
 -1       260 9.68400E-05-2.90052E-05-2.90699E-05 6.56374E-07 2.46635E-19-2.31230E-18
 -1       261 9.62939E-05-2.88528E-05-2.89015E-05 4.69319E-07 1.30904E-19-3.28856E-18
 -1       262 9.59006E-05-2.87439E-05-2.87801E-05 3.28020E-07 8.61707E-20-4.01073E-18
 -1       263 9.56236E-05-2.86678E-05-2.86943E-05 2.22808E-07 4.16082E-19-3.04618E-18
 -1       264 9.54339E-05-2.86162E-05-2.86353E-05 1.45646E-07 8.50350E-19-3.20008E-18
 -1       265 9.53086E-05-2.85827E-05-2.85962E-05 9.00009E-08-1.02998E-18-2.65465E-18
 -1       266 9.52300E-05-2.85621E-05-2.85715E-05 5.06433E-08-6.65032E-19-3.03298E-18
 -1       267 9.51849E-05-2.85508E-05-2.85571E-05 2.34459E-08 8.47749E-21-1.52647E-18
 -1       268 9.51630E-05-2.85459E-05-2.85499E-05 5.19305E-09 7.08285E-20-6.90105E-19
 -1       269 9.51568E-05-2.85452E-05-2.85477E-05-6.58083E-09-1.04789E-18-5.40989E-19
 -1       270 9.51609E-05-2.85472E-05-2.85486E-05-1.37242E-08-1.24993E-18 3.63472E-19
 -1       271 9.51713E-05-2.85509E-05-2.85515E-05-1.75732E-08 5.40641E-19-7.55690E-19
 -1       272 9.51849E-05-2.85554E-05-2.85555E-05-1.90259E-08 2.41121E-18-1.67859E-18
 -1       273 9.51997E-05-2.85602E-05-2.85598E-05-1.85813E-08 1.23736E-18-1.82867E-18
 -1       274 9.52138E-05-2.85649E-05-2.85638E-05-1.63572E-08 4.00586E-19-2.65213E-18
 -1       275 9.52256E-05-2.85690E-05-2.85671E-05-1.21015E-08 6.99679E-19-1.67326E-18
 -1       276 9.52339E-05-2.85721E-05-2.85693E-05-5.69129E-09-5.86370E-19-1.10122E-18
 -1       277 9.52369E-05-2.85776E-05-2.85683E-05-9.70798E-09-5.67741E-19 3.51938E-18
 -1       278 9.52408E-05-2.85868E-05-2.85660E-05-1.48109E-08 1.47795E-18 2.14210E-18
 -1       279 9.52450E-05-2.85976E-05-2.85632E-05-1.65905E-08 1.71805E-18 1.12399E-18
 -1       280 9.52489E-05-2.86083E-05-2.85602E-05-1.56400E-08 1.71951E-18-5.10438E-19
 -1       281 9.52521E-05-2.86176E-05-2.85576E-05-1.29073E-08 1.11937E-18-4.35681E-18
 -1       282 9.52545E-05-2.86249E-05-2.85555E-05-9.02645E-09 1.46758E-20-1.78307E-18
 -1       283 9.52559E-05-2.86295E-05-2.85542E-05-4.54987E-09-1.93637E-18 2.12986E-18
 -1       284 9.52564E-05-2.86309E-05-2.85537E-05 1.60659E-10 4.98505E-19-4.37041E-19
 -1       285 9.52558E-05-2.86292E-05-2.85542E-05 4.83979E-09-5.57973E-19-1.79406E-18
 -1       286 9.52543E-05-2.86245E-05-2.85556E-05 9.23201E-09-1.45868E-18-2.14280E-18
 -1       287 9.52519E-05-2.86173E-05-2.85577E-05 1.29417E-08-2.21392E-18-1.94715E-18
 -1       288 9.52487E-05-2.86078E-05-2.85604E-05 1.55968E-08-2.23021E-18 3.38728E-18
 -1       289 9.52449E-05-2.85971E-05-2.85633E-05 1.64484E-08-1.48966E-18 2.10259E-18
 -1       290 9.52406E-05-2.85864E-05-2.85661E-05 1.43944E-08-1.45313E-18 3.79664E-18
 -1       291 9.52362E-05-2.85786E-05-2.85676E-05 1.39099E-08-1.38659E-18 6.47541E-19
 -1       292 1.24840E-05-4.99325E-05 1.25120E-05 4.52408E-06 4.55910E-18 7.18506E-18
 -1       293 2.67650E-05-4.33777E-05 4.54025E-06 2.16852E-05 7.12905E-18 1.02084E-17
 -1       294 5.27587E-05-3.78102E-05-8.40337E-06 3.23445E-05 1.11116E-17 8.56890E-18
 -1       295 9.19134E-05-3.32590E-05-2.56632E-05 4.30996E-05 1.16793E-17 1.15961E-17
 -1       296 1.41623E-04-3.67923E-05-4.39810E-05 4.03213E-05 9.70721E-18 9.96111E-18
 -1       297 1.78194E-04-3.54458E-05-5.94223E-05 2.24125E-05 9.55395E-18 4.94455E-18
 -1       298 2.12368E-04-3.80448E-05-7.09456E-05 1.57842E-05 8.39420E-18 3.78412E-18
 -1       299 2.18374E-04-3.85875E-05-7.28771E-05-6.78360E-06 9.15791E-18-2.11398E-18
 -1       300 2.00673E-04-3.66504E-05-6.68296E-05-2.84870E-05 9.37544E-18-7.63325E-18
 -1       301 1.63843E-04-3.46245E-05-5.34439E-05-4.00137E-05 1.03174E-17-9.77794E-18
 -1       302 1.18344E-04-3.21277E-05-3.65022E-05-4.66192E-05 1.17642E-17-1.29664E-17
 -1       303 7.48950E-05-3.42875E-05-1.85743E-05-4.00447E-05 1.17788E-17-1.20446E-17
 -1       304 4.00534E-05-4.07740E-05-2.23084E-06-2.73459E-05 9.34976E-18-1.12296E-17
 -1       305 1.91027E-05-4.82396E-05 9.08616E-06-1.32224E-05 4.89363E-18-9.74162E-18
 -1       306 1.15670E-05-5.12379E-05 1.33277E-05-4.71579E-07-1.32321E-18-8.78998E-18
 -1       307 1.57160E-05-4.86209E-05 1.07322E-05 1.20208E-05-7.23271E-18-9.89546E-18
 -1       308 3.24323E-05-4.17034E-05 1.56368E-06 2.67364E-05-1.09843E-17-1.13239E-17
 -1       309 5.94024E-05-3.48307E-05-1.19921E-05 3.75932E-05-1.45726E-17-1.20725E-17
 -1       310 9.54167E-05-2.96911E-05-2.82775E-05 4.64566E-05-1.48896E-17-1.32381E-17
 -1       311 1.42894E-04-3.63507E-05-4.47361E-05 3.75372E-05-1.13255E-17-9.55072E-18
 -1       312 1.77853E-04-3.21107E-05-5.99406E-05 3.80494E-05-1.03672E-17-1.13867E-17
 -1       313 2.04258E-04-3.51608E-05-6.89780E-05 2.08618E-05-8.55112E-18-7.53573E-18
 -1       314 2.12084E-04-3.66055E-05-7.15663E-05-2.20037E-06-7.46405E-18-2.27405E-18
 -1       315 1.93120E-04-3.18629E-05-6.63869E-05-2.11957E-05-8.07614E-18 1.52328E-18
 -1       316 1.67773E-04-3.10240E-05-5.64141E-05-4.13523E-05-8.28348E-18 6.07407E-18
 -1       317 1.32921E-04-3.62872E-05-4.07863E-05-3.96432E-05-6.77870E-18 6.23056E-18
 -1       318 8.74648E-05-3.22051E-05-2.40757E-05-4.44676E-05-9.25214E-18 7.67687E-18
 -1       319 4.93332E-05-3.57256E-05-7.66321E-06-3.40515E-05-8.73249E-18 8.16847E-18
 -1       320 2.56542E-05-4.33206E-05 4.78112E-06-2.12767E-05-6.20642E-18 8.82540E-18
 -1       321 1.20250E-05-4.47185E-05 1.11201E-05-1.00763E-05-7.29772E-19 8.39230E-18
 -1       322 9.31410E-05-1.46878E-05-3.36875E-05-1.02151E-05-4.21277E-18-3.25471E-18
 -1       323 9.80231E-05-1.98724E-05-3.35530E-05-1.21038E-05-4.71795E-18-6.19042E-19
 -1       324 8.71904E-05-9.39519E-06-3.33899E-05-5.43903E-06-2.40209E-18-5.91469E-18
 -1       325 8.52209E-05-7.83015E-06-3.32083E-05-3.43554E-06-1.48632E-18-6.27720E-18
 -1       326 8.38211E-05-6.75642E-06-3.30632E-05-1.74446E-06-4.82300E-19-6.23666E-18
 -1       327 8.30197E-05-6.14198E-06-3.29802E-05-2.94473E-07 3.75229E-19-6.23898E-18
 -1       328 8.28738E-05-6.00705E-06-3.29750E-05 1.02192E-06 1.14605E-18-6.09399E-18
 -1       329 8.34340E-05-6.39205E-06-3.30524E-05 2.33750E-06 1.97261E-18-5.85218E-18
 -1       330 8.46986E-05-7.32386E-06-3.32004E-05 3.77194E-06 2.78044E-18-5.46803E-18
 -1       331 8.67245E-05-8.90360E-06-3.34009E-05 5.50621E-06 3.67287E-18-4.58273E-18
 -1       332 8.95453E-05-1.12716E-05-3.36089E-05 7.59334E-06 4.44091E-18-3.44408E-18
 -1       333 9.33575E-05-1.47807E-05-3.37528E-05 9.92383E-06 5.04670E-18-1.36591E-18
 -1       334 9.82942E-05-2.01605E-05-3.35874E-05 1.14778E-05 5.12915E-18 2.36077E-18
 -1       335 1.01690E-04-2.53620E-05-3.27905E-05 9.49566E-06 4.63232E-18 5.91409E-18
 -1       336 1.00201E-04-2.78237E-05-3.09844E-05 3.08512E-06 3.73554E-18 4.54686E-18
 -1       337 9.96023E-05-2.68909E-05-3.11169E-05-3.73803E-06-3.60820E-18 2.21395E-20
 -1       338 9.88897E-05-2.80612E-05-3.03288E-05 1.69504E-08-2.76348E-18-3.66695E-19
 -1       339 9.88719E-05-2.87508E-05-3.00371E-05 2.19691E-06-2.09092E-18-6.43315E-19
 -1       340 9.94577E-05-2.93952E-05-3.00210E-05 3.43857E-06-1.53411E-18-9.10853E-19
 -1       341 1.00490E-04-3.01322E-05-3.01536E-05 3.95138E-06-1.17445E-18-9.53129E-19
 -1       342 1.01795E-04-3.09959E-05-3.03478E-05 3.75613E-06-7.61409E-19-9.07973E-19
 -1       343 1.03184E-04-3.19515E-05-3.05376E-05 2.78564E-06-8.49143E-19-8.40503E-19
 -1       344 1.04420E-04-3.28745E-05-3.06753E-05 9.80357E-07-9.05766E-19-5.49540E-19
 -1       345 1.05203E-04-3.35154E-05-3.07367E-05-1.58274E-06-7.91020E-19-5.78163E-19
 -1       346 1.05185E-04-3.35096E-05-3.07276E-05-4.52975E-06-9.13542E-19-1.29050E-18
 -1       347 1.04093E-04-3.25052E-05-3.06830E-05-7.07684E-06-4.60089E-19-1.33545E-18
 -1       348 1.01975E-04-3.04483E-05-3.06485E-05-8.12066E-06-9.95502E-20-1.00635E-18
 -1       349 9.94489E-05-2.79043E-05-3.06500E-05-6.71333E-06-9.38149E-19-1.66510E-18
 -1       350 9.76293E-05-2.60107E-05-3.06784E-05-2.81406E-06-1.18394E-18-2.45084E-18
 -1       351 9.75041E-05-2.58106E-05-3.07099E-05 2.30963E-06-7.78471E-19-3.59111E-18
 -1       352 9.91929E-05-2.74287E-05-3.07426E-05 6.66153E-06-5.90036E-19-4.11294E-18
 -1       353 1.01860E-04-2.99785E-05-3.07983E-05 8.71837E-06-7.75580E-19-4.10112E-18
 -1       354 1.04347E-04-3.22630E-05-3.08943E-05 8.23352E-06-6.34725E-19-3.80210E-18
 -1       355 1.05906E-04-3.35723E-05-3.10091E-05 6.01079E-06-1.73370E-19-3.81436E-18
 -1       356 1.06375E-04-3.38460E-05-3.10969E-05 3.15751E-06 3.48329E-19-4.13218E-18
 -1       357 1.05967E-04-3.33987E-05-3.11139E-05 5.27896E-07 6.95618E-19-3.55354E-18
 -1       358 1.05007E-04-3.26074E-05-3.10387E-05-1.44683E-06 6.12319E-19-2.47975E-18
 -1       359 1.03775E-04-3.17481E-05-3.08754E-05-2.67698E-06 8.71857E-19-2.17227E-18
 -1       360 1.02467E-04-3.09696E-05-3.06453E-05-3.26378E-06 5.05863E-19-2.54120E-18
 -1       361 1.01204E-04-3.03277E-05-3.03764E-05-3.37729E-06 5.64638E-20-2.93213E-18
 -1       362 1.00051E-04-2.98266E-05-3.00952E-05-3.18593E-06-5.56225E-20-2.82337E-18
 -1       363 9.90394E-05-2.94487E-05-2.98228E-05-2.82634E-06 2.04686E-19-2.66387E-18
 -1       364 9.81795E-05-2.91702E-05-2.95732E-05-2.39666E-06 1.09648E-18-2.70562E-18
 -1       365 9.74670E-05-2.89685E-05-2.93542E-05-1.96081E-06 3.57625E-19-2.57747E-18
 -1       366 9.68904E-05-2.88249E-05-2.91688E-05-1.55621E-06-6.38894E-22-1.85745E-18
 -1       367 9.64336E-05-2.87243E-05-2.90164E-05-1.20165E-06 5.21644E-19-1.53202E-18
 -1       368 9.60794E-05-2.86553E-05-2.88944E-05-9.03663E-07-6.29616E-19-1.70644E-18
 -1       369 9.58105E-05-2.86093E-05-2.87992E-05-6.61348E-07-1.11876E-18-2.26484E-18
 -1       370 9.56108E-05-2.85798E-05-2.87266E-05-4.69727E-07-6.63618E-19-2.53368E-18
 -1       371 9.54663E-05-2.85618E-05-2.86726E-05-3.21941E-07-4.06438E-19-2.48577E-18
 -1       372 9.53647E-05-2.85520E-05-2.86335E-05-2.10642E-07 1.12307E-18-2.14892E-18
 -1       373 9.52958E-05-2.85475E-05-2.86060E-05-1.28797E-07 1.09355E-18-2.76995E-18
 -1       374 9.52513E-05-2.85467E-05-2.85874E-05-7.01150E-08 3.80022E-19-1.61034E-18
 -1       375 9.52246E-05-2.85481E-05-2.85755E-05-2.92327E-08-6.78721E-19 1.22906E-19
 -1       376 9.52108E-05-2.85508E-05-2.85684E-05-1.75234E-09 1.17644E-18 2.54760E-20
 -1       377 9.52057E-05-2.85543E-05-2.85648E-05 1.57977E-08 3.03843E-18-1.36495E-18
 -1       378 9.52064E-05-2.85582E-05-2.85635E-05 2.60390E-08 2.11317E-18-1.71017E-19
 -1       379 9.52107E-05-2.85623E-05-2.85636E-05 3.08278E-08 8.04746E-19-3.26007E-19
 -1       380 9.52171E-05-2.85666E-05-2.85645E-05 3.13362E-08-1.50115E-18 2.00723E-18
 -1       381 9.52241E-05-2.85710E-05-2.85656E-05 2.82128E-08-1.32015E-18 2.41807E-18
 -1       382 9.52301E-05-2.85748E-05-2.85666E-05 2.22528E-08-5.26805E-19 1.42531E-18
 -1       383 9.93795E-05-2.85679E-05-3.03057E-05-6.70591E-07 2.81839E-18 3.50151E-18
 -1       384 9.96728E-05-2.90256E-05-3.02506E-05-3.09794E-06 1.80934E-18 2.58869E-18
 -1       385 1.00955E-04-2.95828E-05-3.05733E-05-4.88940E-06 1.10956E-18 2.07432E-18
 -1       386 1.03026E-04-3.03366E-05-3.11451E-05-6.30132E-06 9.51907E-19 1.52082E-18
 -1       387 1.05735E-04-3.13529E-05-3.18769E-05-7.33233E-06 5.92935E-19 1.25105E-18
 -1       388 1.08941E-04-3.27071E-05-3.26785E-05-7.75830E-06 1.08673E-18 1.39309E-18
 -1       389 1.12461E-04-3.44669E-05-3.34422E-05-7.12859E-06 8.38594E-19 1.20118E-18
 -1       390 1.15981E-04-3.65913E-05-3.40492E-05-4.82184E-06 4.98889E-20 1.60613E-18
 -1       391 1.18928E-04-3.87092E-05-3.44094E-05-3.14804E-07 8.33997E-20 1.54645E-18
 -1       392 1.20313E-04-3.98020E-05-3.45368E-05 6.15309E-06-7.08695E-20 1.91729E-18
 -1       393 1.18869E-04-3.82514E-05-3.45914E-05 1.25261E-05 1.71916E-19 1.78993E-18
 -1       394 1.14424E-04-3.34487E-05-3.47475E-05 1.45720E-05 1.40973E-18 9.47089E-19
 -1       395 1.09200E-04-2.75649E-05-3.50634E-05 9.08830E-06 1.87230E-18-8.48161E-19
 -1       396 1.07701E-04-2.56651E-05-3.52390E-05-2.51692E-06 2.41242E-18-2.61186E-18
 -1       397 1.11395E-04-2.95386E-05-3.51413E-05-1.26501E-05 2.05551E-18-3.97742E-18
 -1       398 1.17220E-04-3.57126E-05-3.49565E-05-1.53304E-05 4.79922E-19-4.42309E-18
 -1       399 1.20930E-04-3.95325E-05-3.48884E-05-1.11287E-05-1.37412E-18-3.41060E-18
 -1       400 1.21376E-04-4.00070E-05-3.49046E-05-4.38313E-06-1.19490E-18-2.61138E-18
 -1       401 1.19450E-04-3.84220E-05-3.47616E-05 1.47316E-06-1.00689E-18-2.69306E-18
 -1       402 1.16409E-04-3.62800E-05-3.43701E-05 5.10791E-06 1.03481E-18-1.45580E-18
 -1       403 1.13071E-04-3.43399E-05-3.37583E-05 6.69510E-06 5.99734E-19-2.36139E-18
 -1       404 1.09868E-04-3.28226E-05-3.30252E-05 6.88979E-06-1.17307E-18-2.14890E-18
 -1       405 1.06989E-04-3.16964E-05-3.22667E-05 6.31752E-06-6.64173E-19-1.86297E-18
 -1       406 1.04502E-04-3.08691E-05-3.15518E-05 5.41708E-06-5.69016E-19-2.13055E-18
 -1       407 1.02416E-04-3.02571E-05-3.09186E-05 4.44810E-06 9.67063E-19-2.86940E-19
 -1       408 1.00706E-04-2.97998E-05-3.03819E-05 3.54335E-06 7.04607E-19-4.35099E-19
 -1       409 9.93332E-05-2.94561E-05-2.99416E-05 2.75844E-06 5.45410E-20-7.10726E-19
 -1       410 9.82503E-05-2.91976E-05-2.95891E-05 2.10690E-06 1.03927E-18 8.95615E-19
 -1       411 9.74103E-05-2.90044E-05-2.93129E-05 1.58172E-06 5.57399E-19-8.36293E-19
 -1       412 9.67693E-05-2.88615E-05-2.91002E-05 1.16734E-06 4.78786E-19-2.28538E-18
 -1       413 9.62882E-05-2.87574E-05-2.89393E-05 8.45944E-07 1.12693E-19-2.32219E-18
 -1       414 9.59333E-05-2.86830E-05-2.88197E-05 6.00404E-07 8.14161E-19-2.92054E-18
 -1       415 9.56767E-05-2.86312E-05-2.87324E-05 4.15510E-07 1.60018E-19-2.15749E-18
 -1       416 9.54953E-05-2.85962E-05-2.86700E-05 2.78331E-07 3.35136E-19-1.84278E-18
 -1       417 9.53708E-05-2.85737E-05-2.86266E-05 1.78171E-07-1.11618E-18-4.25421E-19
 -1       418 9.52884E-05-2.85602E-05-2.85973E-05 1.06343E-07-2.30647E-19-1.03798E-18
 -1       419 9.52369E-05-2.85531E-05-2.85784E-05 5.59054E-08-1.84279E-18-5.99196E-19
 -1       420 9.52073E-05-2.85503E-05-2.85671E-05 2.13877E-08 2.90286E-19 1.49667E-18
 -1       421 9.51932E-05-2.85504E-05-2.85610E-05-1.44843E-09-1.63663E-18 1.33291E-18
 -1       422 9.51895E-05-2.85524E-05-2.85586E-05-1.58172E-08-7.31332E-19 8.94304E-20
 -1       423 9.51925E-05-2.85556E-05-2.85586E-05-2.40781E-08 7.73789E-19-1.18602E-18
 -1       424 9.51996E-05-2.85594E-05-2.85601E-05-2.78697E-08 1.84304E-18-9.50578E-20
 -1       425 9.52087E-05-2.85635E-05-2.85622E-05-2.82007E-08 1.60670E-18 1.70601E-18
 -1       426 9.52182E-05-2.85677E-05-2.85645E-05-2.55188E-08 8.99993E-19 1.75817E-18
 -1       427 9.52273E-05-2.85720E-05-2.85666E-05-1.98904E-08-4.34023E-19 3.26319E-18
 -1       428 9.52325E-05-2.85751E-05-2.85675E-05-1.53241E-08-1.00203E-18 3.59836E-18
 -1       429 9.52453E-05-2.85946E-05-2.85646E-05-2.61025E-08 5.96689E-19 1.35005E-18
 -1       430 9.52402E-05-2.85868E-05-2.85658E-05-2.59776E-08 4.29399E-19 1.64343E-18
 -1       431 9.52361E-05-2.85809E-05-2.85665E-05-2.20000E-08-4.47100E-20 3.22022E-18
 -1       432 9.52492E-05-2.86012E-05-2.85634E-05-2.29406E-08-1.89666E-19-3.83477E-18
 -1       433 9.52519E-05-2.86064E-05-2.85623E-05-1.75386E-08 2.75425E-19-2.68278E-18
 -1       434 9.52536E-05-2.86100E-05-2.85615E-05-1.08288E-08 1.10512E-18-4.95527E-19
 -1       435 9.52544E-05-2.86117E-05-2.85611E-05-3.48131E-09-9.65851E-19 2.10050E-18
 -1       436 9.52543E-05-2.86116E-05-2.85611E-05 4.01895E-09 5.06161E-19-1.40073E-18
 -1       437 9.52535E-05-2.86097E-05-2.85616E-05 1.12662E-08-5.66079E-19-3.26369E-18
 -1       438 9.52517E-05-2.86061E-05-2.85624E-05 1.76994E-08 5.61510E-20-3.35055E-18
 -1       439 9.52490E-05-2.86008E-05-2.85635E-05 2.29198E-08 6.65802E-20 1.38153E-18
 -1       440 9.52451E-05-2.85941E-05-2.85647E-05 2.59559E-08-2.21325E-20 1.57395E-18
 -1       441 9.52400E-05-2.85865E-05-2.85658E-05 2.59287E-08-1.51786E-18 2.10775E-18
 -1       442 5.98843E-05-4.30959E-05-7.37659E-06 4.13057E-05 3.05885E-19 4.73290E-18
 -1       443 1.18721E-05-2.17553E-05 4.09478E-06-8.57083E-07 9.53959E-19 9.60122E-18
 -1       444 2.25394E-05-2.74653E-05 1.89443E-06 2.35523E-05 7.54124E-19 7.80213E-18
 -1       445 1.00079E-04-5.46713E-05-1.95680E-05 3.95801E-05 1.71874E-18 4.06862E-18
 -1       446 1.35388E-04-5.85832E-05-3.29860E-05 2.34701E-05 2.04061E-18 1.22036E-18
 -1       447 8.97420E-05-1.15446E-05-3.35828E-05-7.78223E-06-3.32932E-18-5.04545E-18
 -1       448 1.62121E-04-2.36903E-05-5.91878E-05-3.77824E-06 8.41781E-18-8.15587E-19
 -1       449 1.67604E-04-1.67655E-05-6.41242E-05-1.38740E-06 9.83998E-18 3.70074E-19
 -1       450 1.66509E-04-1.99327E-05-6.24083E-05 1.65829E-06 1.02354E-17 9.23107E-19
 -1       451 1.60804E-04-3.42012E-05-5.41344E-05 7.26172E-07 7.40974E-18 6.89485E-19
 -1       452 1.49282E-04-5.18096E-05-4.17548E-05-1.51989E-05 4.72840E-18-9.75994E-19
 -1       453 1.20856E-04-5.58269E-05-2.79735E-05-3.39560E-05 3.00983E-18-4.10197E-18
 -1       454 8.32304E-05-5.07396E-05-1.41031E-05-4.30465E-05 4.15681E-19-6.26792E-18
 -1       455 4.21357E-05-3.70638E-05-2.48202E-06-3.69555E-05-4.08588E-19-9.06939E-18
 -1       456 1.60228E-05-2.71895E-05 4.37175E-06-1.56622E-05-6.81332E-19-1.11331E-17
 -1       457 1.37943E-05-2.25571E-05 3.63826E-06 1.13171E-05-1.03812E-18-1.10002E-17
 -1       458 3.13812E-05-3.16814E-05-7.81871E-08 3.35500E-05-1.37971E-18-1.04365E-17
 -1       459 7.17477E-05-4.56245E-05-1.10634E-05 4.60635E-05-9.91240E-19-6.42279E-18
 -1       460 1.00700E-04-5.38335E-05-2.01474E-05 4.13642E-05-3.31211E-18-5.14477E-18
 -1       461 1.30626E-04-5.19309E-05-3.38194E-05 2.86783E-05-6.17333E-18-3.65124E-18
 -1       462 1.51074E-04-3.78891E-05-4.86286E-05 4.26276E-06-6.99948E-18-1.70254E-18
 -1       463 1.55595E-04-2.36587E-05-5.65831E-05-3.69670E-07-8.69659E-18-1.85913E-18
 -1       464 1.57269E-04-1.26964E-05-6.18651E-05-7.19747E-07-9.22112E-18-1.86715E-18
 -1       465 1.59679E-04-1.45860E-05-6.19551E-05 8.44312E-07-8.75324E-18-2.15141E-18
 -1       466 1.55069E-04-2.82836E-05-5.43691E-05-6.39486E-07-6.16608E-18-2.64846E-18
 -1       467 1.49043E-04-4.35358E-05-4.51945E-05-8.76248E-06-3.71124E-18-2.75826E-18
 -1       468 1.26183E-04-5.46980E-05-3.07073E-05-3.03187E-05-1.13031E-18-4.12929E-21
 -1       469 9.28277E-05-5.10538E-05-1.79690E-05-4.31004E-05-3.15732E-19 1.97271E-18
 -1       470 5.65172E-05-4.02129E-05-7.04348E-06-4.36013E-05 1.17706E-18 5.23276E-18
 -1       471 2.80175E-05-2.89901E-05 3.45226E-07-3.14165E-05 1.12242E-18 8.96944E-18
 -1       472 1.55034E-04-4.68920E-05-4.64814E-05 2.82635E-06 5.24189E-18-1.63424E-18
 -1       473 1.48115E-04-3.45872E-05-4.90600E-05-1.25071E-05 4.96525E-18-4.12759E-18
 -1       474 1.44364E-04-5.13600E-05-3.99939E-05 5.79137E-06-3.77744E-18 1.01856E-18
 -1       475 9.87749E-05-2.54559E-05-3.14065E-05 2.02206E-06 3.77537E-18 6.23200E-19
 -1       476 8.64116E-05-1.07410E-05-3.24455E-05-1.52541E-06-9.81456E-19-5.54192E-18
 -1       477 8.83979E-05-1.25109E-05-3.25409E-05-2.88873E-06-1.87872E-18-5.41857E-18
 -1       478 8.44372E-05-9.01972E-06-3.23347E-05 5.22871E-07 6.64214E-19-5.66538E-18
 -1       479 8.46288E-05-9.15178E-06-3.23605E-05 1.33583E-06 1.52396E-18-5.42186E-18
 -1       480 8.56588E-05-1.00013E-05-3.24395E-05 2.14854E-06 2.27769E-18-5.16135E-18
 -1       481 8.75675E-05-1.16545E-05-3.25520E-05 3.10110E-06 3.10954E-18-4.41574E-18
 -1       482 9.02991E-05-1.41690E-05-3.26485E-05 4.22396E-06 3.80856E-18-3.58944E-18
 -1       483 9.38300E-05-1.76962E-05-3.26485E-05 5.42222E-06 4.36267E-18-2.27091E-18
 -1       484 9.87654E-05-2.68255E-05-3.08104E-05-1.97885E-06 2.83042E-18 2.64450E-19
 -1       485 9.78683E-05-2.48003E-05-3.13033E-05-2.38120E-06-3.18784E-18-1.89055E-18
 -1       486 9.82263E-05-2.67348E-05-3.06319E-05 9.95732E-07-2.42736E-18-1.70099E-18
 -1       487 9.86421E-05-2.80043E-05-3.02697E-05 3.26142E-06-1.89673E-18-1.56532E-18
 -1       488 9.93810E-05-2.91443E-05-3.01007E-05 4.62201E-06-1.40663E-18-1.57345E-18
 -1       489 1.00519E-04-3.04041E-05-3.00505E-05 5.15395E-06-9.26141E-19-1.21449E-18
 -1       490 1.02058E-04-3.18967E-05-3.00729E-05 4.81115E-06-7.01337E-19-1.18706E-18
 -1       491 1.03931E-04-3.35953E-05-3.01495E-05 3.47823E-06-6.29333E-19-1.01937E-18
 -1       492 1.05936E-04-3.52639E-05-3.02947E-05 1.06327E-06-8.84975E-19-7.66426E-19
 -1       493 1.07651E-04-3.63700E-05-3.05533E-05-2.32781E-06-8.92030E-19-1.62446E-19
 -1       494 1.08444E-04-3.61424E-05-3.09855E-05-6.14244E-06-6.15915E-19 4.19773E-19
 -1       495 1.07686E-04-3.38906E-05-3.16245E-05-9.18154E-06-1.97636E-19 1.39984E-19
 -1       496 1.05334E-04-2.97442E-05-3.23980E-05-9.74251E-06-8.43107E-19-6.51660E-19
 -1       497 1.02492E-04-2.53053E-05-3.30880E-05-6.60462E-06-2.08103E-18-3.01161E-19
 -1       498 1.01029E-04-2.30784E-05-3.34170E-05-3.93206E-07-1.72809E-18-1.04288E-18
 -1       499 1.02056E-04-2.45125E-05-3.32395E-05 6.18765E-06-1.41478E-18-2.25874E-18
 -1       500 1.04855E-04-2.86783E-05-3.26479E-05 1.01974E-05-9.73742E-19-3.16232E-18
 -1       501 1.07544E-04-3.30759E-05-3.19150E-05 1.04638E-05-4.04098E-19-3.05712E-18
 -1       502 1.08781E-04-3.58133E-05-3.12741E-05 7.92081E-06-1.61584E-19-2.85471E-18
 -1       503 1.08391E-04-3.64815E-05-3.08241E-05 4.24002E-06 3.45108E-19-3.05689E-18
 -1       504 1.06913E-04-3.56557E-05-3.05458E-05 7.46410E-07 1.16662E-18-1.97535E-18
 -1       505 1.04998E-04-3.41417E-05-3.03728E-05-1.90754E-06 1.46933E-18-1.34153E-18
 -1       506 1.03097E-04-3.25425E-05-3.02419E-05-3.58582E-06 7.73925E-20-1.80376E-18
 -1       507 1.01429E-04-3.11722E-05-3.01126E-05-4.41951E-06-6.58965E-19-3.45722E-18
 -1       508 1.00054E-04-3.01303E-05-2.99681E-05-4.62694E-06 1.02486E-19-4.03441E-18
 -1       509 9.89537E-05-2.94016E-05-2.98080E-05-4.42203E-06 4.37397E-19-3.01824E-18
 -1       510 9.80858E-05-2.89259E-05-2.96393E-05-3.97919E-06 7.34441E-19-2.61972E-18
 -1       511 9.74049E-05-2.86361E-05-2.94714E-05-3.42619E-06 4.66436E-19-2.21487E-18
 -1       512 9.68722E-05-2.84740E-05-2.93125E-05-2.84898E-06 4.96064E-19-2.25178E-18
 -1       513 9.64567E-05-2.83951E-05-2.91683E-05-2.30053E-06 3.79135E-19-2.73801E-18
 -1       514 9.61344E-05-2.83677E-05-2.90420E-05-1.80975E-06 2.00472E-19-2.27611E-18
 -1       515 9.58862E-05-2.83701E-05-2.89347E-05-1.38907E-06-4.46884E-19-2.68334E-18
 -1       516 9.56971E-05-2.83883E-05-2.88460E-05-1.04040E-06-1.20118E-19-2.17726E-18
 -1       517 9.55548E-05-2.84134E-05-2.87744E-05-7.59384E-07-8.58267E-19-1.98764E-18
 -1       518 9.54495E-05-2.84402E-05-2.87179E-05-5.38412E-07-6.28466E-19-4.86524E-19
 -1       519 9.53729E-05-2.84656E-05-2.86743E-05-3.68582E-07-1.05824E-19-2.01442E-18
 -1       520 9.53185E-05-2.84883E-05-2.86413E-05-2.40928E-07 6.41944E-22-1.67093E-18
 -1       521 9.52810E-05-2.85076E-05-2.86170E-05-1.47135E-07 1.59717E-18-3.00915E-18
 -1       522 9.52562E-05-2.85235E-05-2.85996E-05-7.98957E-08 3.04316E-19-1.55311E-18
 -1       523 9.52406E-05-2.85365E-05-2.85874E-05-3.30532E-08 3.40670E-19-4.28933E-20
 -1       524 9.52318E-05-2.85468E-05-2.85792E-05-1.60293E-09 9.04640E-19 2.76129E-19
 -1       525 9.52277E-05-2.85551E-05-2.85739E-05 1.83749E-08 3.37520E-18-9.50305E-19
 -1       526 9.52269E-05-2.85620E-05-2.85707E-05 2.98228E-08 1.42285E-18 9.19612E-19
 -1       527 9.52283E-05-2.85680E-05-2.85687E-05 3.48129E-08 1.47972E-18 2.22922E-18
 -1       528 9.52311E-05-2.85737E-05-2.85675E-05 3.46878E-08-7.07117E-19 3.72843E-18
 -1       529 9.98697E-05-2.82597E-05-3.06832E-05-7.31211E-06 1.59596E-18-8.71367E-19
 -1       530 1.01181E-04-2.90754E-05-3.08991E-05-9.18516E-06 9.83373E-19-1.29107E-18
 -1       531 1.03103E-04-3.03318E-05-3.11887E-05-1.05085E-05 8.36300E-19-1.41582E-18
 -1       532 1.05815E-04-3.23551E-05-3.14895E-05-1.09729E-05 3.94602E-19-8.44248E-19
 -1       533 1.09573E-04-3.54584E-05-3.17771E-05-9.99797E-06 1.52664E-20-4.63105E-20
 -1       534 1.14534E-04-3.96421E-05-3.21185E-05-6.78271E-06-2.33594E-19 3.92799E-19
 -1       535 1.20293E-04-4.39723E-05-3.27433E-05-6.03760E-07-2.71711E-19 9.96000E-19
 -1       536 1.25206E-04-4.58254E-05-3.40858E-05 8.29502E-06-2.67435E-19 1.62241E-18
 -1       537 1.26148E-04-4.11635E-05-3.64892E-05 1.67316E-05 9.04426E-19 1.87365E-18
 -1       538 1.20410E-04-2.90284E-05-3.95419E-05 1.72045E-05 3.17093E-18 1.28430E-18
 -1       539 1.16637E-04-2.01733E-05-4.16589E-05 4.68261E-06 4.23090E-18-8.77692E-19
 -1       540 1.17757E-04-2.25770E-05-4.11169E-05-1.14091E-05 4.14406E-18-4.58439E-18
 -1       541 1.23284E-04-3.41867E-05-3.84286E-05-1.88617E-05 1.41583E-18-5.43992E-18
 -1       542 1.26593E-04-4.37224E-05-3.56923E-05-1.51233E-05-1.56904E-18-5.92936E-18
 -1       543 1.24295E-04-4.57066E-05-3.37344E-05-6.04631E-06-2.69693E-18-4.35778E-18
 -1       544 1.18864E-04-4.26246E-05-3.26985E-05 2.33470E-06-1.32504E-18-2.53772E-18
 -1       545 1.13390E-04-3.81610E-05-3.22680E-05 7.33060E-06-6.24917E-19-3.39445E-18
 -1       546 1.08994E-04-3.43917E-05-3.19873E-05 9.56229E-06 7.82130E-19-1.78221E-18
 -1       547 1.05752E-04-3.18148E-05-3.16926E-05 9.94677E-06-1.99825E-19-1.23410E-18
 -1       548 1.03386E-04-3.02480E-05-3.13445E-05 9.27966E-06-8.14074E-19-2.44438E-18
 -1       549 1.01614E-04-2.93657E-05-3.09602E-05 8.11941E-06-1.33056E-20-1.88975E-18
 -1       550 1.00238E-04-2.88953E-05-3.05711E-05 6.80977E-06-3.19338E-19-2.48462E-18
 -1       551 9.91417E-05-2.86554E-05-3.02040E-05 5.54082E-06 1.81755E-19-1.90662E-18
 -1       552 9.82567E-05-2.85385E-05-2.98752E-05 4.40434E-06 4.57983E-20-4.63093E-19
 -1       553 9.75419E-05-2.84853E-05-2.95923E-05 3.43402E-06-9.28078E-20-7.44414E-19
 -1       554 9.69688E-05-2.84647E-05-2.93561E-05 2.63184E-06 1.24478E-18 3.25215E-19
 -1       555 9.65149E-05-2.84607E-05-2.91639E-05 1.98414E-06 4.65452E-19 9.93702E-19
 -1       556 9.61605E-05-2.84651E-05-2.90106E-05 1.47090E-06 1.92984E-19 1.22765E-18
 -1       557 9.58884E-05-2.84738E-05-2.88907E-05 1.07072E-06 1.37536E-18 1.11808E-18
 -1       558 9.56831E-05-2.84844E-05-2.87985E-05 7.63291E-07 1.02627E-18-4.87734E-19
 -1       559 9.55312E-05-2.84957E-05-2.87288E-05 5.30551E-07-1.34852E-19-1.31775E-18
 -1       560 9.54213E-05-2.85068E-05-2.86771E-05 3.56993E-07-7.25591E-19-1.53171E-19
 -1       561 9.53439E-05-2.85174E-05-2.86396E-05 2.29653E-07-9.05344E-19 2.86461E-19
 -1       562 9.52911E-05-2.85271E-05-2.86129E-05 1.37903E-07-7.98100E-19 1.21335E-18
 -1       563 9.52566E-05-2.85357E-05-2.85945E-05 7.31764E-08-1.56615E-18 2.26061E-19
 -1       564 9.52355E-05-2.85434E-05-2.85822E-05 2.86857E-08-1.11115E-18 1.06862E-18
 -1       565 9.52240E-05-2.85500E-05-2.85745E-05-8.47471E-10 4.85225E-19 3.16260E-19
 -1       566 9.52192E-05-2.85559E-05-2.85699E-05-1.94245E-08 6.19292E-19-2.04337E-19
 -1       567 9.52188E-05-2.85611E-05-2.85676E-05-2.99767E-08 7.23108E-19 1.50784E-18
 -1       568 9.52212E-05-2.85659E-05-2.85666E-05-3.45437E-08-7.67149E-19 1.56833E-18
 -1       569 9.52254E-05-2.85707E-05-2.85663E-05-3.44833E-08 6.16363E-19 3.79602E-18
 -1       570 9.52306E-05-2.85758E-05-2.85664E-05-3.04360E-08-4.37940E-19 5.74637E-18
 -1       571 9.52510E-05-2.85923E-05-2.85680E-05-2.43357E-08 1.51164E-18-2.65931E-18
 -1       572 9.52533E-05-2.85944E-05-2.85681E-05-1.68666E-08 2.13508E-18-1.05889E-18
 -1       573 9.52411E-05-2.85841E-05-2.85673E-05-3.27139E-08-3.82237E-19 2.14182E-19
 -1       574 9.52470E-05-2.85889E-05-2.85677E-05-2.99417E-08-1.46542E-18 2.58189E-19
 -1       575 9.52545E-05-2.85955E-05-2.85681E-05-8.42435E-09 7.16151E-19 4.83478E-20
 -1       576 9.52548E-05-2.85958E-05-2.85681E-05 3.81586E-10 1.31520E-18 3.03451E-19
 -1       577 9.52543E-05-2.85953E-05-2.85681E-05 9.11574E-09 8.26216E-19-3.17734E-18
 -1       578 9.52530E-05-2.85941E-05-2.85681E-05 1.72313E-08 1.35377E-18-2.93161E-18
 -1       579 9.52506E-05-2.85918E-05-2.85680E-05 2.44628E-08 2.56768E-18-2.39968E-18
 -1       580 9.52467E-05-2.85884E-05-2.85678E-05 2.98936E-08 6.16466E-19 2.80585E-19
 -1       581 9.52407E-05-2.85835E-05-2.85674E-05 3.22254E-08-2.18822E-18 4.36232E-19
 -1       582 9.19522E-05-5.15515E-05-1.70421E-05 3.99216E-05-2.35856E-18 2.60774E-18
 -1       583 2.76657E-05-1.52057E-05-4.70833E-06-1.84317E-05 1.85535E-18 8.44100E-18
 -1       584 9.90849E-05-2.76088E-05-3.06205E-05-4.96050E-06 1.94631E-18-2.19300E-19
 -1       585 2.82650E-05-1.40325E-05-5.44470E-06 1.33584E-05-1.71882E-19 6.77055E-18
 -1       586 8.65444E-05-4.81252E-05-1.61437E-05-4.31351E-05 4.33781E-18 1.13833E-18
 -1       587 1.24188E-04-6.22335E-05-2.65096E-05 2.63057E-05-1.79333E-18-1.41343E-18
 -1       588 5.18574E-05-3.06340E-05-8.58790E-06 3.63609E-05-2.60611E-18 4.49351E-18
 -1       589 1.35453E-04-1.63300E-05-5.16550E-05 1.00220E-05-6.43417E-18-4.04728E-18
 -1       590 1.25871E-04-6.05936E-05-2.79769E-05 2.64799E-05 6.14099E-21 5.22434E-19
 -1       591 5.76004E-05-3.34429E-05-9.91747E-06 4.10513E-05 2.46434E-18-6.77822E-18
 -1       592 8.50606E-05-9.56858E-06-3.23674E-05-3.99922E-07-7.42797E-20-5.59996E-18
 -1       593 1.43716E-04-2.41053E-05-5.17242E-05 1.31106E-05 7.19168E-18 2.35682E-18
 -1       594 1.42574E-04-1.51183E-05-5.51795E-05-8.62324E-06 7.87444E-18-2.43763E-18
 -1       595 1.38401E-04-1.15213E-05-5.49937E-05 2.58429E-06 9.24759E-18-9.54288E-19
 -1       596 1.47521E-04-4.70866E-05-4.34087E-05 9.17471E-06 3.72597E-18 3.78772E-18
 -1       597 1.39639E-04-6.22714E-05-3.32614E-05-1.37478E-05-7.10317E-19 1.36309E-18
 -1       598 1.15933E-04-6.05660E-05-2.35831E-05-3.33341E-05-2.75010E-18-1.00796E-18
 -1       599 7.42038E-05-4.31211E-05-1.29566E-05-4.21971E-05-3.82404E-18-5.10790E-18
 -1       600 3.71746E-05-2.40868E-05-5.11625E-06-2.96304E-05-2.38572E-18-8.67595E-18
 -1       601 2.45837E-05-1.38092E-05-3.94738E-06-5.68850E-06-6.53201E-19-1.06910E-17
 -1       602 3.35417E-05-1.99397E-05-5.23304E-06 2.67741E-05 1.22044E-18-9.38057E-18
 -1       603 1.05043E-04-5.53576E-05-2.10535E-05 3.82092E-05 1.70693E-18-1.79548E-18
 -1       604 1.31583E-04-6.97275E-06-5.40279E-05 1.64284E-06-7.99589E-18-2.40035E-18
 -1       605 1.38586E-04-2.95827E-05-4.72469E-05-1.01788E-05-6.04009E-18 1.76712E-18
 -1       606 1.17227E-04-5.88751E-05-2.49397E-05-3.18505E-05 2.57413E-18-2.16753E-18
 -1       607 1.34913E-04-1.34073E-05-5.26620E-05-8.07661E-06-7.80583E-18-4.84397E-21
 -1       608 1.39543E-04-3.60555E-05-4.48002E-05 9.57164E-06-3.27709E-18-4.28937E-18
 -1       609 1.38737E-04-5.57425E-05-3.57461E-05-8.51456E-06 4.33502E-19-3.90085E-18
 -1       610 5.19631E-05-3.08704E-05-8.56762E-06-3.95878E-05 4.30864E-18 4.08085E-18
 -1       611 9.64381E-05-2.09957E-05-3.23529E-05-6.39550E-06-3.94546E-18-2.49088E-18
 -1       612 9.88854E-05-2.37241E-05-3.22136E-05 6.21635E-06 4.54431E-18 1.30524E-18
 -1       613 1.44348E-04-5.75969E-05-3.73189E-05 1.48899E-06-3.40848E-19-4.80786E-18
 -1       614 9.09236E-05-1.48670E-05-3.26183E-05-4.45067E-06-2.80377E-18-4.90268E-18
 -1       615 1.42471E-04-4.81190E-05-4.08268E-05-1.28958E-05 1.42212E-18-6.22945E-18
 -1       616 1.37027E-04-2.58067E-05-4.81254E-05-1.64277E-05 4.59293E-18-5.11317E-18
 -1       617 9.52335E-05-2.85775E-05-2.85669E-05 3.21062E-08-1.40088E-18 4.69596E-18
 -1       618 8.80129E-05-4.57992E-05-1.77494E-05 4.03033E-05 3.68655E-18-2.91895E-18
 -1       619 1.37801E-04-4.20147E-05-4.13732E-05-7.93338E-06-3.08614E-18 2.74407E-18
 -1       620 8.61321E-05-1.21510E-05-3.17102E-05 9.87026E-07 1.62821E-18-4.68819E-18
 -1       621 8.55229E-05-1.16394E-05-3.16682E-05 8.56533E-07 1.00420E-18-4.90666E-18
 -1       622 9.01836E-05-1.58495E-05-3.18629E-05 1.36763E-06 3.01353E-18-3.48359E-18
 -1       623 9.33400E-05-1.90221E-05-3.18572E-05 1.63593E-06 3.56312E-18-2.64787E-18
 -1       624 9.65031E-05-2.31559E-05-3.14249E-05 2.11751E-07 3.44660E-18-1.44004E-18
 -1       625 5.21742E-05-2.00413E-05-1.33100E-05 2.50773E-05-1.04826E-18 3.52384E-18
 -1       626 9.67157E-05-2.46719E-05-3.08704E-05-3.46845E-06 2.65380E-18-1.65739E-18
 -1       627 1.27772E-04-5.84578E-05-2.97401E-05-1.49638E-05 2.57000E-18-3.10089E-18
 -1       628 9.69671E-05-2.55172E-05-3.06205E-05 2.34725E-06-1.88072E-18-2.64214E-18
 -1       629 9.77023E-05-2.72400E-05-3.01977E-05 4.49349E-06-1.50188E-18-2.29404E-18
 -1       630 9.87133E-05-2.89281E-05-2.99081E-05 5.88777E-06-9.30429E-19-1.83972E-18
 -1       631 1.00218E-04-3.08721E-05-2.97206E-05 6.49810E-06-5.96004E-19-1.72968E-18
 -1       632 1.02366E-04-3.32257E-05-2.96336E-05 6.19480E-06-3.70455E-19-1.37635E-18
 -1       633 1.05188E-04-3.59274E-05-2.96865E-05 4.75736E-06-2.79725E-19-8.88013E-19
 -1       634 1.08473E-04-3.85549E-05-2.99686E-05 1.94109E-06-2.58277E-19 2.38575E-19
 -1       635 1.11508E-04-4.00843E-05-3.06070E-05-2.24901E-06-3.43770E-19 6.78499E-19
 -1       636 1.13187E-04-3.91504E-05-3.17269E-05-7.16676E-06-9.12526E-19 7.75453E-19
 -1       637 1.12192E-04-3.44583E-05-3.33331E-05-1.09126E-05-1.12038E-18 5.17657E-19
 -1       638 1.08703E-04-2.69355E-05-3.50913E-05-1.06684E-05-1.32097E-18 4.53982E-20
 -1       639 1.05173E-04-2.05062E-05-3.63467E-05-4.92683E-06-2.44599E-18-2.61103E-19
 -1       640 1.04652E-04-1.96304E-05-3.65089E-05 3.90225E-06-2.66095E-18-1.27660E-18
 -1       641 1.07863E-04-2.52391E-05-3.54440E-05 1.07075E-05-1.91373E-18-2.18435E-18
 -1       642 1.11577E-04-3.28180E-05-3.37811E-05 1.22026E-05-4.42130E-19-2.49077E-18
 -1       643 1.13184E-04-3.82407E-05-3.21240E-05 9.17872E-06 1.80349E-19-2.26567E-18
 -1       644 1.12031E-04-3.99622E-05-3.08898E-05 4.41040E-06 1.22551E-19-1.09407E-18
 -1       645 1.09183E-04-3.88844E-05-3.01316E-05 1.22674E-08 7.02626E-19-1.21609E-18
 -1       646 1.05866E-04-3.64865E-05-2.97371E-05-3.13113E-06 1.43314E-18-1.78041E-18
 -1       647 1.02871E-04-3.38960E-05-2.95628E-05-4.97000E-06 5.13865E-19-2.23837E-18
 -1       648 1.00508E-04-3.16940E-05-2.94928E-05-5.78218E-06-7.84889E-19-1.56845E-18
 -1       649 9.87857E-05-3.00586E-05-2.94549E-05-5.88902E-06-4.93508E-19-1.12466E-18
 -1       650 9.75932E-05-2.89617E-05-2.94135E-05-5.55606E-06 7.74120E-19-1.88379E-18
 -1       651 9.67939E-05-2.82961E-05-2.93560E-05-4.97945E-06 1.16135E-18-1.53269E-18
 -1       652 9.62684E-05-2.79423E-05-2.92823E-05-4.29522E-06 6.14416E-19-1.29679E-18
 -1       653 9.59260E-05-2.77969E-05-2.91978E-05-3.59279E-06 5.04864E-19-1.41664E-18
 -1       654 9.57029E-05-2.77807E-05-2.91092E-05-2.92725E-06 4.94384E-19-1.01284E-18
 -1       655 9.55564E-05-2.78375E-05-2.90221E-05-2.32924E-06 2.40294E-19-1.82861E-18
 -1       656 9.54589E-05-2.79299E-05-2.89408E-05-1.81252E-06 1.57157E-19-1.48263E-18
 -1       657 9.53929E-05-2.80341E-05-2.88679E-05-1.37973E-06-9.97523E-19-1.07357E-18
 -1       658 9.53474E-05-2.81361E-05-2.88047E-05-1.02665E-06-7.57963E-19-9.84952E-19
 -1       659 9.53154E-05-2.82285E-05-2.87514E-05-7.45233E-07-1.13593E-18-1.31860E-18
 -1       660 9.52926E-05-2.83080E-05-2.87076E-05-5.25709E-07-1.45834E-18-1.21191E-18
 -1       661 9.52762E-05-2.83739E-05-2.86723E-05-3.57983E-07-4.07210E-19-1.86899E-18
 -1       662 9.52643E-05-2.84268E-05-2.86446E-05-2.32474E-07 1.83194E-19-1.44730E-18
 -1       663 9.52556E-05-2.84682E-05-2.86231E-05-1.40588E-07 9.59650E-19-2.21871E-18
 -1       664 9.52495E-05-2.85000E-05-2.86069E-05-7.49336E-08 1.07242E-18-1.83142E-18
 -1       665 9.52451E-05-2.85239E-05-2.85948E-05-2.93746E-08 9.32717E-19-1.31019E-18
 -1       666 9.52422E-05-2.85416E-05-2.85859E-05 1.02212E-09 2.20952E-18 6.87178E-19
 -1       667 9.52403E-05-2.85548E-05-2.85795E-05 2.00806E-08 3.25215E-18-1.73410E-19
 -1       668 9.52394E-05-2.85650E-05-2.85748E-05 3.06752E-08 2.58164E-18 6.57606E-19
 -1       669 9.52395E-05-2.85734E-05-2.85712E-05 3.47190E-08 9.06994E-19 1.39210E-18
 -1       670 9.77788E-05-2.73424E-05-3.01859E-05-1.12345E-05 9.68547E-19-1.42928E-18
 -1       671 3.74052E-05-1.24874E-05-1.01519E-05 1.09059E-05 1.04381E-18-8.54640E-18
 -1       672 9.71202E-05-2.63346E-05-3.03349E-05-9.06491E-06 1.44505E-18-1.61491E-18
 -1       673 1.01853E-04-3.22122E-05-2.98466E-05-1.40075E-05-8.60980E-20-9.52684E-19
 -1       674 1.06668E-04-3.72923E-05-2.97262E-05-1.37607E-05-5.75196E-19-7.58889E-19
 -1       675 1.14259E-04-4.42416E-05-2.99895E-05-1.10953E-05-1.00130E-18 1.22884E-19
 -1       676 1.24365E-04-5.12639E-05-3.12993E-05-4.62752E-06-1.29590E-18 1.17881E-18
 -1       677 1.34737E-04-5.35335E-05-3.48018E-05 6.71738E-06-6.49429E-19 3.06219E-18
 -1       678 1.20487E-04-4.90771E-05-3.05902E-05 7.02973E-06-2.70387E-18-5.33905E-18
 -1       679 1.11164E-04-4.13751E-05-2.99212E-05 1.14621E-05-1.51418E-18-3.81147E-18
 -1       680 1.04730E-04-3.50833E-05-2.98560E-05 1.29906E-05-6.16119E-19-3.20717E-18
 -1       681 1.00854E-04-3.09232E-05-2.99734E-05 1.26965E-05-1.57426E-19-2.05962E-18
 -1       682 9.87139E-05-2.85786E-05-3.00584E-05 1.15452E-05-1.06107E-19-1.12651E-18
 -1       683 9.75740E-05-2.74521E-05-3.00513E-05 1.00504E-05-3.29103E-19-1.35522E-18
 -1       684 9.69545E-05-2.70416E-05-2.99612E-05 8.48423E-06 3.74915E-19-1.60666E-18
 -1       685 9.65858E-05-2.70088E-05-2.98171E-05 6.99225E-06 2.47818E-19-2.12524E-18
 -1       686 9.63320E-05-2.71511E-05-2.96475E-05 5.64817E-06-6.36042E-19-2.08444E-18
 -1       687 9.61322E-05-2.73571E-05-2.94738E-05 4.48250E-06 1.41235E-19-1.51908E-18
 -1       688 9.59622E-05-2.75706E-05-2.93097E-05 3.49978E-06-4.08721E-19-8.83401E-19
 -1       689 9.58145E-05-2.77662E-05-2.91627E-05 2.68971E-06-3.70236E-19 3.12094E-19
 -1       690 9.56872E-05-2.79349E-05-2.90361E-05 2.03444E-06-1.57626E-19 9.77608E-19
 -1       691 9.55799E-05-2.80753E-05-2.89301E-05 1.51315E-06 1.41526E-18 2.23921E-19
 -1       692 9.54917E-05-2.81895E-05-2.88434E-05 1.10477E-06 2.19927E-18 9.67100E-20
 -1       693 9.54212E-05-2.82810E-05-2.87741E-05 7.89572E-07 1.86118E-18-2.47625E-19
 -1       694 9.53662E-05-2.83534E-05-2.87195E-05 5.49913E-07-7.99655E-19-7.80205E-19
 -1       695 9.53244E-05-2.84100E-05-2.86775E-05 3.70501E-07-6.29292E-19-3.66523E-19
 -1       696 9.52936E-05-2.84538E-05-2.86455E-05 2.38418E-07-1.32523E-18-2.86596E-19
 -1       697 9.52714E-05-2.84872E-05-2.86217E-05 1.42974E-07-1.37273E-18 4.78755E-19
 -1       698 9.52561E-05-2.85125E-05-2.86044E-05 7.54879E-08-8.22807E-19 4.66598E-19
 -1       699 9.52460E-05-2.85314E-05-2.85919E-05 2.90414E-08 5.28206E-19-5.09591E-19
 -1       700 9.52398E-05-2.85456E-05-2.85832E-05-1.75889E-09 1.25264E-18 1.60369E-19
 -1       701 9.52364E-05-2.85563E-05-2.85772E-05-2.09953E-08-3.14987E-19-9.70931E-19
 -1       702 9.52351E-05-2.85646E-05-2.85731E-05-3.16728E-08-6.01923E-19-6.74227E-19
 -1       703 9.52355E-05-2.85716E-05-2.85702E-05-3.58923E-08-9.48903E-19-4.71592E-19
 -1       704 9.52384E-05-2.85776E-05-2.85689E-05-3.55578E-08-2.04246E-18-1.65690E-19
 -1       705 9.52556E-05-2.85804E-05-2.85751E-05-3.92559E-09 9.70292E-19 1.87762E-18
 -1       706 9.52398E-05-2.85786E-05-2.85691E-05 3.44831E-08-9.43342E-19 2.67641E-19
 -1       707 9.52535E-05-2.85811E-05-2.85739E-05-2.11506E-08 1.62362E-18-2.51021E-18
 -1       708 9.52555E-05-2.85803E-05-2.85751E-05 4.89620E-09 1.43819E-18-4.02098E-18
 -1       709 9.52551E-05-2.85808E-05-2.85747E-05-1.27323E-08 1.00143E-18-2.35223E-18
 -1       710 9.68464E-05-2.55844E-05-3.05376E-05-6.50207E-06 1.99134E-18-1.71439E-18
 -1       711 5.66076E-05-2.38386E-05-1.35638E-05 3.10465E-05 3.09470E-18-6.26031E-18
 -1       712 9.52547E-05-2.85804E-05-2.85747E-05 1.33777E-08 2.63041E-18-2.42854E-18
 -1       713 9.52529E-05-2.85806E-05-2.85738E-05 2.15095E-08 3.05177E-18-1.62020E-18
 -1       714 9.52493E-05-2.85801E-05-2.85725E-05 2.85381E-08 2.08279E-18-3.31055E-18
 -1       715 4.85192E-05-2.07686E-05-1.13985E-05-2.90502E-05 4.05868E-18 2.81067E-18
 -1       716 1.25137E-04-2.50857E-05-4.32887E-05 1.42968E-05-3.45375E-18-4.40580E-18
 -1       717 4.16333E-05-1.64386E-05-1.02272E-05-1.95247E-05-2.10081E-18-7.74400E-18
 -1       718 1.05326E-04-5.28904E-05-2.22842E-05-3.33881E-05 4.49679E-18-1.26790E-18
 -1       719 1.34695E-04-5.68032E-05-3.35253E-05 6.65067E-06-2.85308E-19 2.68007E-18
 -1       720 7.77197E-05-3.76826E-05-1.67885E-05 3.52636E-05-3.10311E-18 2.20522E-18
 -1       721 1.11660E-04-5.57488E-05-2.38497E-05 2.81165E-05-3.85906E-18-2.38408E-18
 -1       722 9.91683E-05-2.91000E-05-3.00291E-05-1.29624E-05 2.21770E-19-1.18233E-18
 -1       723 9.61735E-05-2.32846E-05-3.12351E-05-5.62551E-07-2.48985E-18-2.79976E-18
 -1       724 1.19142E-04-1.23108E-05-4.62970E-05 8.61543E-06-6.00017E-18-3.37975E-18
 -1       725 8.77106E-05-1.35501E-05-3.17878E-05 1.12616E-06 2.35723E-18-4.01590E-18
 -1       726 1.19693E-04-9.94531E-06-4.75700E-05-4.80212E-06-5.94834E-18-4.26481E-19
 -1       727 1.32503E-04-5.98499E-05-3.11670E-05 7.83322E-06-2.95243E-18-4.88246E-18
 -1       728 1.27828E-04-6.08577E-05-2.88609E-05-1.80329E-05-2.75168E-18 1.31253E-18
 -1       729 1.34120E-04-4.74422E-05-3.73653E-05 6.37996E-06 4.07370E-20-5.26042E-18
 -1       730 1.01626E-04-5.16300E-05-2.11471E-05-3.41071E-05-4.39134E-18-1.61365E-18
 -1       731 3.97518E-05-1.06426E-05-1.19577E-05-3.51414E-06 1.50540E-18 7.04191E-18
 -1       732 1.17677E-04-5.70023E-05-2.59013E-05 2.54632E-05 2.41279E-18 7.91870E-19
 -1       733 8.89687E-05-1.47979E-05-3.17929E-05-5.37629E-07-1.19067E-18-4.76836E-18
 -1       734 6.51492E-05-3.15527E-05-1.39607E-05-3.54309E-05-3.84034E-18-5.09223E-18
 -1       735 1.24047E-04-2.10836E-05-4.46023E-05-1.24669E-05-4.76504E-18 2.27460E-18
 -1       736 7.59197E-05-3.78322E-05-1.59615E-05-3.88779E-05 5.38263E-18 2.16483E-18
 -1       737 1.24854E-04-1.48137E-05-4.77763E-05-5.30437E-06 6.83508E-18-3.34630E-18
 -1       738 1.24174E-04-1.82487E-05-4.60672E-05 1.03776E-05 5.54484E-18 3.93228E-19
 -1       739 9.13810E-05-1.71102E-05-3.18377E-05-1.42865E-06-2.07828E-18-4.49824E-18
 -1       740 8.58755E-05-1.19756E-05-3.16759E-05 6.19991E-07 2.48337E-19-5.08681E-18
 -1       741 9.52500E-05-2.85808E-05-2.85725E-05-2.84566E-08-1.41302E-19 4.29238E-19
 -1       742 4.44400E-05-1.18945E-05-1.35517E-05-3.19743E-06-1.36252E-19-7.50265E-18
 -1       743 9.52451E-05-2.85799E-05-2.85708E-05-3.31357E-08-6.10983E-19 5.76695E-19
 -1       744 1.26965E-04-3.15124E-05-4.12118E-05-1.34191E-05-3.42989E-18 3.71699E-18
 -1       745 9.47326E-05-2.07063E-05-3.17287E-05-2.26406E-06-2.77520E-18-3.51327E-18
 -1       746 8.70722E-05-1.30585E-05-3.17254E-05 1.70842E-07-5.63091E-19-4.72819E-18
 -1       747 9.52454E-05-2.85767E-05-2.85723E-05 3.23287E-08-4.10002E-19-3.84419E-18
 -1       748 5.43710E-05-1.39140E-05-1.70974E-05 1.09421E-05 5.32299E-19 3.67639E-18
 -1       749 9.22993E-05-1.94739E-05-3.12094E-05-1.22051E-06 2.74185E-18-2.69882E-18
 -1       750 9.44534E-05-2.21195E-05-3.10002E-05 1.22878E-06-1.90825E-18-3.46507E-18
 -1       751 1.16945E-04-5.45728E-05-2.66100E-05-2.17185E-05-3.20088E-18 3.55633E-19
 -1       752 9.62783E-05-2.65277E-05-2.98927E-05 5.85328E-06-7.55358E-19-2.32616E-18
 -1       753 9.75373E-05-2.87355E-05-2.94865E-05 7.39376E-06-6.05744E-19-1.86623E-18
 -1       754 9.94855E-05-3.14135E-05-2.91743E-05 8.31797E-06-2.81460E-19-1.62096E-18
 -1       755 1.02434E-04-3.47682E-05-2.90011E-05 8.40422E-06 2.99958E-19-1.19233E-18
 -1       756 1.06547E-04-3.87024E-05-2.90787E-05 7.22191E-06 7.01655E-19-6.17721E-19
 -1       757 1.11684E-04-4.25747E-05-2.96400E-05 4.04749E-06 1.53344E-19 5.47236E-19
 -1       758 1.16833E-04-4.46588E-05-3.09354E-05-1.31848E-06-1.89021E-19 1.15477E-18
 -1       759 1.19356E-04-4.22082E-05-3.31236E-05-7.97082E-06-1.10806E-18 2.27050E-18
 -1       760 1.17369E-04-3.35184E-05-3.60662E-05-1.28087E-05-1.74346E-18 2.17853E-18
 -1       761 1.12394E-04-2.13687E-05-3.92026E-05-1.08011E-05-2.77671E-18 1.01992E-18
 -1       762 1.09017E-04-1.42026E-05-4.08741E-05-9.70766E-07-3.81763E-18-1.38669E-19
 -1       763 1.16604E-04-3.08771E-05-3.68225E-05 1.36721E-05-1.20051E-18-2.88688E-18
 -1       764 1.19043E-04-4.06128E-05-3.37132E-05 1.00283E-05 1.12166E-20-2.11436E-18
 -1       765 1.17219E-04-4.43418E-05-3.12389E-05 3.53545E-06 6.82082E-19-2.10158E-18
 -1       766 1.12387E-04-4.29563E-05-2.97584E-05-2.21068E-06 7.31954E-19-1.55336E-18
 -1       767 1.07134E-04-3.93932E-05-2.90339E-05-5.70742E-06 1.01728E-18-1.34815E-19
 -1       768 1.02681E-04-3.55362E-05-2.87779E-05-7.32433E-06 9.57683E-19-6.56426E-19
 -1       769 9.94244E-05-3.23239E-05-2.87579E-05-7.70872E-06 1.02908E-19-8.02114E-19
 -1       770 9.72512E-05-2.99830E-05-2.88293E-05-7.39082E-06-6.29765E-19-6.70122E-19
 -1       771 9.59164E-05-2.84478E-05-2.89150E-05-6.71066E-06-3.37687E-20-5.13182E-19
 -1       772 9.51684E-05-2.75484E-05-2.89798E-05-5.87321E-06 7.09542E-19-4.69619E-19
 -1       773 9.48024E-05-2.71052E-05-2.90130E-05-4.99857E-06 1.30401E-18-2.63698E-19
 -1       774 9.46689E-05-2.69649E-05-2.90158E-05-4.15610E-06-2.82728E-19 2.37147E-20
 -1       775 9.46661E-05-2.70107E-05-2.89951E-05-3.38437E-06-7.17610E-20-9.60599E-19
 -1       776 9.47290E-05-2.71592E-05-2.89584E-05-2.70267E-06-2.83106E-19-1.35596E-18
 -1       777 9.48179E-05-2.73542E-05-2.89129E-05-2.11773E-06 3.55534E-19-1.35306E-18
 -1       778 9.49102E-05-2.75602E-05-2.88642E-05-1.62805E-06-4.49520E-19-2.28854E-18
 -1       779 9.49942E-05-2.77562E-05-2.88163E-05-1.22706E-06-4.51535E-19-5.05017E-19
 -1       780 9.50650E-05-2.79312E-05-2.87716E-05-9.05275E-07-1.07135E-18-5.55175E-19
 -1       781 9.51215E-05-2.80805E-05-2.87318E-05-6.51966E-07-7.06782E-19 9.25987E-19
 -1       782 9.51644E-05-2.82036E-05-2.86975E-05-4.56263E-07-1.83439E-18 1.68334E-18
 -1       783 9.51957E-05-2.83023E-05-2.86686E-05-3.07890E-07-5.69294E-20 1.43263E-18
 -1       784 9.52175E-05-2.83794E-05-2.86449E-05-1.97581E-07 7.81743E-19 1.57143E-18
 -1       785 9.52318E-05-2.84384E-05-2.86257E-05-1.17298E-07 1.06989E-18 2.33810E-18
 -1       786 9.52405E-05-2.84825E-05-2.86106E-05-6.02793E-08 8.01227E-19 1.97540E-18
 -1       787 9.52452E-05-2.85149E-05-2.85987E-05-2.10051E-08 1.91293E-18-6.04703E-19
 -1       788 9.52472E-05-2.85384E-05-2.85895E-05 4.92279E-09 2.92310E-18-1.11929E-18
 -1       789 9.52474E-05-2.85557E-05-2.85822E-05 2.07636E-08 2.59581E-18-1.65560E-18
 -1       790 9.52464E-05-2.85674E-05-2.85767E-05 2.88754E-08 1.17450E-18-2.72638E-18
 -1       791 8.19431E-05-3.57144E-05-1.96268E-05 3.26108E-05 3.65971E-18-2.97961E-18
 -1       792 6.04912E-05-2.19799E-05-1.61745E-05-2.50095E-05-2.58162E-18-5.21333E-18
 -1       793 1.01440E-04-3.84897E-05-2.69872E-05-1.98333E-05-1.58476E-18-9.79167E-19
 -1       794 9.59222E-05-3.13686E-05-2.76548E-05-1.75128E-05-5.72997E-19-1.46892E-18
 -1       795 9.30906E-05-4.25461E-05-2.15016E-05-3.13170E-05 4.56099E-18 5.22447E-20
 -1       796 1.06528E-04-4.41696E-05-2.66146E-05 1.93360E-05-2.71369E-18-4.28158E-18
 -1       797 9.28307E-05-2.64911E-05-2.84306E-05 1.32434E-05-9.36051E-19-1.69405E-18
 -1       798 9.25273E-05-2.51795E-05-2.88628E-05 1.11551E-05-2.90972E-19-1.30642E-18
 -1       799 9.27988E-05-2.48463E-05-2.91219E-05 9.31521E-06 3.27011E-19-4.81570E-19
 -1       800 9.32653E-05-2.50268E-05-2.92445E-05 7.69849E-06 4.36759E-19-7.38470E-19
 -1       801 9.37421E-05-2.54392E-05-2.92721E-05 6.28503E-06 5.19011E-20-9.56340E-19
 -1       802 9.41533E-05-2.59251E-05-2.92403E-05 5.06243E-06-6.22414E-19-2.25249E-18
 -1       803 9.44783E-05-2.64017E-05-2.91754E-05 4.02019E-06-3.46272E-19-2.21011E-18
 -1       804 9.47215E-05-2.68309E-05-2.90957E-05 3.14593E-06-1.44608E-18-1.95066E-18
 -1       805 9.48969E-05-2.71992E-05-2.90131E-05 2.42454E-06-6.39257E-19-2.08251E-18
 -1       806 9.50199E-05-2.75055E-05-2.89346E-05 1.83881E-06 1.25043E-18-2.21187E-18
 -1       807 9.51041E-05-2.77547E-05-2.88639E-05 1.37067E-06 1.45327E-18-1.28630E-18
 -1       808 9.51604E-05-2.79542E-05-2.88026E-05 1.00225E-06 2.14711E-18-4.91214E-19
 -1       809 9.51972E-05-2.81116E-05-2.87509E-05 7.16727E-07 5.34937E-19 1.70343E-19
 -1       810 9.52205E-05-2.82341E-05-2.87084E-05 4.98895E-07-7.07313E-19-8.53286E-20
 -1       811 9.52347E-05-2.83282E-05-2.86742E-05 3.35395E-07-1.61697E-18 7.90820E-19
 -1       812 9.52428E-05-2.83996E-05-2.86471E-05 2.14806E-07-1.99729E-18 1.26247E-18
 -1       813 9.52469E-05-2.84529E-05-2.86260E-05 1.27586E-07-5.94741E-19 1.34250E-20
 -1       814 9.52484E-05-2.84922E-05-2.86098E-05 6.59259E-08 5.23307E-19-6.42780E-19
 -1       815 9.52483E-05-2.85208E-05-2.85975E-05 2.35694E-08-5.61107E-20-3.26198E-19
 -1       816 9.52473E-05-2.85415E-05-2.85882E-05-4.37799E-09-2.46616E-19 1.28756E-18
 -1       817 9.52461E-05-2.85566E-05-2.85812E-05-2.15116E-08 6.29784E-19 8.76702E-19
 -1       818 9.52449E-05-2.85680E-05-2.85758E-05-3.06448E-08-9.21084E-19-9.04852E-19
 -1       819 9.52449E-05-2.85740E-05-2.85732E-05-3.28642E-08-1.97070E-18-1.81322E-19
 -1       820 8.61771E-05-1.39019E-05-3.09755E-05 5.39354E-07 1.12992E-18-4.29040E-18
 -1       821 9.52556E-05-2.85632E-05-2.85825E-05 6.30405E-10 1.09857E-18-8.82994E-19
 -1       822 5.32095E-05-1.59381E-05-1.56249E-05 1.77205E-05 1.88878E-18-6.13249E-18
 -1       823 9.52521E-05-2.85681E-05-2.85788E-05 2.27231E-08 8.62235E-19-4.27943E-18
 -1       824 9.52552E-05-2.85638E-05-2.85821E-05 7.95001E-09 8.01455E-19-1.56372E-18
 -1       825 5.28381E-05-1.58317E-05-1.55610E-05-1.78396E-05 3.46566E-18 3.68864E-18
 -1       826 1.15277E-04-5.33572E-05-2.65038E-05-2.03693E-05 3.19363E-18-1.91043E-18
 -1       827 9.52543E-05-2.85656E-05-2.85809E-05 1.53710E-08 1.86341E-18-1.03980E-18
 -1       828 1.25180E-04-5.45710E-05-3.03101E-05 8.43442E-06 9.60110E-19 2.23123E-18
 -1       829 9.44131E-05-2.94901E-05-2.78219E-05 1.55721E-05-1.31464E-18-2.57155E-18
 -1       830 9.84547E-05-3.51111E-05-2.71422E-05 1.79366E-05-1.31102E-18-3.93323E-18
 -1       831 8.70803E-05-3.91235E-05-2.03344E-05-3.21404E-05-3.50083E-18-2.84206E-18
 -1       832 7.31919E-05-2.83430E-05-1.89861E-05 2.74738E-05-1.88332E-18 1.04202E-18
 -1       833 1.07671E-04-4.58269E-05-2.64492E-05-2.16130E-05-2.22527E-18-5.01464E-19
 -1       834 9.31570E-05-2.40776E-05-2.96048E-05-1.00531E-05 1.23947E-18-1.61610E-18
 -1       835 1.13841E-04-1.97324E-05-4.05591E-05 1.14776E-05-3.62375E-18-3.27298E-18
 -1       836 1.38451E-04-5.54562E-05-3.54358E-05-5.89760E-06-1.81025E-18-5.41659E-18
 -1       837 1.23578E-04-3.64360E-05-3.74562E-05 1.31469E-05-2.89566E-19-3.90122E-18
 -1       838 9.53784E-05-2.44775E-05-3.03880E-05 3.77936E-06-1.28694E-18-2.91071E-18
 -1       839 1.30289E-04-4.66713E-05-3.59662E-05-6.95129E-06-9.18382E-19 3.34505E-18
 -1       840 9.30311E-05-1.97419E-05-3.14093E-05-1.64259E-07-1.98895E-18-4.06225E-18
 -1       841 9.45755E-05-2.21302E-05-3.10471E-05-2.34793E-06 2.84637E-18-2.12893E-18
 -1       842 1.26628E-04-5.17808E-05-3.21147E-05-5.40432E-07 9.01423E-19-4.46174E-18
 -1       843 1.05171E-04-4.78406E-05-2.45067E-05 2.60837E-05 2.89272E-18-7.61870E-19
 -1       844 9.73430E-05-4.30580E-05-2.30501E-05 2.72222E-05-3.24293E-18-2.45777E-18
 -1       845 6.81457E-05-2.72251E-05-1.72645E-05-3.01539E-05 3.45349E-18 1.74695E-18
 -1       846 8.61923E-05-1.39454E-05-3.09639E-05 1.12392E-06 6.06710E-19-4.38877E-18
 -1       847 8.94027E-05-1.67509E-05-3.11355E-05-7.38653E-07 2.16748E-18-3.27580E-18
 -1       848 9.52531E-05-2.85690E-05-2.85789E-05-2.23946E-08-1.10290E-18 6.30472E-19
 -1       849 7.17243E-05-2.56385E-05-1.95918E-05 2.55824E-05 2.73865E-18-3.74065E-18
 -1       850 5.65250E-05-1.51095E-05-1.75230E-05-1.26575E-05-8.57737E-19-5.41139E-18
 -1       851 9.35602E-05-2.33315E-05-3.00975E-05-7.46650E-06 1.36175E-18-1.78949E-18
 -1       852 9.36593E-05-2.73644E-05-2.84080E-05-1.49995E-05-2.40730E-19-1.64935E-18
 -1       853 9.30175E-05-2.52087E-05-2.90596E-05-1.25236E-05 4.28846E-19-1.60251E-18
 -1       854 8.72649E-05-1.48390E-05-3.10390E-05-1.23442E-07 1.66043E-18-3.90973E-18
 -1       855 9.52552E-05-2.85664E-05-2.85809E-05-1.46924E-08-3.96629E-19-1.79592E-18
 -1       856 5.57540E-05-1.27756E-05-1.82624E-05-2.13740E-06 1.92459E-18 3.43306E-18
 -1       857 9.52557E-05-2.85642E-05-2.85821E-05-6.90141E-09 9.86375E-19 1.25106E-19
 -1       858 1.15586E-04-5.02131E-05-2.79922E-05 1.39807E-05 1.53213E-18 9.64953E-19
 -1       859 9.52496E-05-2.85675E-05-2.85780E-05 2.59316E-08-3.38140E-20-4.92618E-18
 -1       860 9.04487E-05-1.72231E-05-3.13851E-05 4.42693E-07-1.40587E-18-4.02877E-18
 -1       861 8.82618E-05-1.51942E-05-3.13179E-05 9.01380E-07-5.46826E-19-4.56281E-18
 -1       862 9.42083E-05-2.28986E-05-3.05610E-05-5.06470E-06 2.04251E-18-1.87517E-18
 -1       863 5.73994E-05-1.31710E-05-1.87773E-05 3.08281E-06 9.55059E-19-5.98540E-18
 -1       864 9.56274E-05-2.83395E-05-2.88377E-05 9.19134E-06-1.03100E-19-1.73804E-18
 -1       865 9.78681E-05-3.16762E-05-2.83676E-05 1.08076E-05 3.41976E-19-1.12367E-18
 -1       866 1.01559E-04-3.60690E-05-2.80639E-05 1.18405E-05 8.91484E-19-1.02107E-18
 -1       867 1.07199E-04-4.15342E-05-2.81176E-05 1.17193E-05 1.18782E-18-5.02856E-19
 -1       868 9.18752E-05-1.95679E-05-3.09880E-05 1.61182E-06-1.25817E-18-3.64073E-18
 -1       869 1.16102E-04-4.78721E-05-2.92205E-05-6.69165E-06 1.23184E-18-2.57247E-18
 -1       870 1.07970E-04-4.24767E-05-2.80848E-05-1.01781E-05 1.96072E-18-1.39704E-18
 -1       871 1.01737E-04-3.69858E-05-2.77486E-05-1.10541E-05 1.17231E-18-4.86280E-19
 -1       872 9.75961E-05-3.26586E-05-2.78302E-05-1.04405E-05 5.31892E-19-1.34686E-20
 -1       873 9.50806E-05-2.96175E-05-2.80553E-05-9.25831E-06 5.85617E-20-3.17257E-19
 -1       874 9.37237E-05-2.76873E-05-2.83010E-05-7.94097E-06 1.81363E-19 8.50602E-19
 -1       875 9.31253E-05-2.65967E-05-2.85121E-05-6.67064E-06 4.48488E-20 3.98870E-19
 -1       876 9.29922E-05-2.60958E-05-2.86698E-05-5.51749E-06 1.10340E-18-8.64147E-19
 -1       877 9.31221E-05-2.59826E-05-2.87740E-05-4.50224E-06 2.96151E-19-1.53345E-18
 -1       878 9.33824E-05-2.61061E-05-2.88326E-05-3.62535E-06-1.84583E-19-9.14651E-19
 -1       879 9.36904E-05-2.63592E-05-2.88562E-05-2.87964E-06-2.19618E-19-1.50207E-18
 -1       880 9.39971E-05-2.66692E-05-2.88548E-05-2.25476E-06-3.04552E-19-1.08316E-18
 -1       881 9.42761E-05-2.69894E-05-2.88371E-05-1.73879E-06-9.31731E-19-2.32089E-18
 -1       882 9.45154E-05-2.72919E-05-2.88101E-05-1.31906E-06 1.63471E-18-2.09448E-18
 -1       883 9.47120E-05-2.75616E-05-2.87788E-05-9.82782E-07 2.55968E-19 1.19503E-19
 -1       884 9.48679E-05-2.77924E-05-2.87467E-05-7.17472E-07-2.74679E-19 1.63585E-18
 -1       885 9.49877E-05-2.79835E-05-2.87161E-05-5.11429E-07-1.38080E-18 1.82650E-18
 -1       886 9.50769E-05-2.81376E-05-2.86883E-05-3.53999E-07-1.62336E-18 1.98187E-18
 -1       887 9.51413E-05-2.82588E-05-2.86639E-05-2.35759E-07-3.78634E-21 1.45625E-18
 -1       888 9.51860E-05-2.83521E-05-2.86431E-05-1.48592E-07 1.06388E-18 1.17540E-19
 -1       889 9.52158E-05-2.84223E-05-2.86258E-05-8.56613E-08 1.19772E-18-1.18436E-18
 -1       890 9.52344E-05-2.84741E-05-2.86115E-05-4.13579E-08 9.00053E-19-3.24677E-19
 -1       891 9.52449E-05-2.85118E-05-2.85999E-05-1.12167E-08 1.47227E-18-6.06294E-19
 -1       892 9.52501E-05-2.85392E-05-2.85904E-05 8.41220E-09 1.85604E-18-2.88553E-18
 -1       893 8.79471E-05-2.23988E-05-2.80921E-05 9.08170E-06-4.50389E-19-2.21011E-18
 -1       894 8.63079E-05-2.85503E-05-2.46858E-05-2.09079E-05-1.37814E-18-2.18553E-18
 -1       895 9.52498E-05-2.85722E-05-2.85761E-05-2.81471E-08-2.05286E-18 1.31778E-18
 -1       896 8.64413E-05-2.24509E-05-2.74240E-05 1.11481E-05-9.98101E-19-1.43197E-18
 -1       897 9.07094E-05-2.35699E-05-2.87740E-05 6.14323E-06 2.44417E-19-5.18866E-19
 -1       898 9.17889E-05-2.43361E-05-2.89083E-05 5.01888E-06 4.58490E-20-7.03444E-19
 -1       899 9.26565E-05-2.50756E-05-2.89632E-05 4.05603E-06-4.52523E-19-2.62070E-19
 -1       900 9.33360E-05-2.57432E-05-2.89683E-05 3.23462E-06-3.93944E-19 3.51355E-19
 -1       901 9.38579E-05-2.63215E-05-2.89442E-05 2.54172E-06-6.27814E-19-1.34270E-18
 -1       902 9.42525E-05-2.68081E-05-2.89047E-05 1.96580E-06 3.06551E-19-2.30978E-18
 -1       903 9.45469E-05-2.72089E-05-2.88591E-05 1.49482E-06-6.71134E-20-3.87829E-19
 -1       904 9.47637E-05-2.75333E-05-2.88130E-05 1.11598E-06 4.73168E-19 1.31057E-18
 -1       905 9.49212E-05-2.77918E-05-2.87697E-05 8.16282E-07 1.51893E-18 3.27420E-19
 -1       906 9.50339E-05-2.79950E-05-2.87309E-05 5.83095E-07-1.86956E-19 1.40108E-18
 -1       907 9.51132E-05-2.81525E-05-2.86974E-05 4.04694E-07-1.27489E-18 1.72119E-19
 -1       908 9.51676E-05-2.82729E-05-2.86692E-05 2.70569E-07-2.31590E-18-1.44255E-19
 -1       909 9.52038E-05-2.83635E-05-2.86458E-05 1.71598E-07-1.64901E-18-5.97037E-20
 -1       910 9.52269E-05-2.84306E-05-2.86270E-05 1.00072E-07-4.88880E-19 1.16085E-18
 -1       911 9.52406E-05-2.84797E-05-2.86118E-05 4.96483E-08-5.91059E-19 2.71184E-18
 -1       912 9.52479E-05-2.85150E-05-2.85998E-05 1.51851E-08 1.02052E-20 2.33492E-18
 -1       913 9.52510E-05-2.85405E-05-2.85903E-05-7.41252E-09 1.52049E-19 1.33771E-18
 -1       914 8.31563E-05-3.22316E-05-2.17345E-05-2.59969E-05 3.19564E-18 6.20187E-19
 -1       915 6.89020E-05-2.20067E-05-1.99748E-05-2.10709E-05 2.61729E-18 1.23466E-18
 -1       916 1.03685E-04-4.47519E-05-2.52014E-05-2.17045E-05 3.13211E-18-4.77005E-19
 -1       917 8.52061E-05-2.35071E-05-2.64385E-05 1.39811E-05-2.05057E-18-2.08113E-18
 -1       918 9.19747E-05-2.05656E-05-3.06029E-05-3.73120E-06 2.05340E-18-2.37070E-18
 -1       919 8.69440E-05-1.43139E-05-3.11295E-05 1.24430E-06 5.25061E-20-4.44852E-18
 -1       920 9.43138E-05-2.57444E-05-2.93870E-05 7.27025E-06-3.03013E-19-2.36322E-18
 -1       921 7.84198E-05-2.88639E-05-2.11089E-05-2.59298E-05-2.33915E-18-3.52476E-18
 -1       922 8.94149E-05-2.28686E-05-2.85198E-05 7.46907E-06 7.69563E-19-1.04812E-18
 -1       923 9.34560E-05-2.34854E-05-2.99861E-05 5.13404E-06-5.24694E-19-2.86526E-18
 -1       924 9.52530E-05-2.85425E-05-2.85902E-05 2.98742E-09 4.52577E-19-3.17443E-18
 -1       925 7.14267E-05-2.10914E-05-2.14743E-05 1.80315E-05-3.18392E-19-1.31575E-19
 -1       926 9.16662E-05-3.63538E-05-2.36062E-05 2.46870E-05 2.72270E-18-2.21432E-18
 -1       927 8.62458E-05-3.15034E-05-2.33634E-05 2.30642E-05-1.88093E-18-1.95305E-18
 -1       928 6.49242E-05-1.59314E-05-2.09286E-05-9.82499E-06 2.45500E-18 3.53893E-18
 -1       929 7.01753E-05-2.05881E-05-2.11505E-05-1.83529E-05-1.21760E-18-4.08738E-18
 -1       930 8.94294E-05-1.72869E-05-3.09170E-05 1.84070E-06-6.90102E-19-4.07238E-18
 -1       931 9.52506E-05-2.85553E-05-2.85837E-05 1.88803E-08 8.97023E-19-4.14818E-18
 -1       932 8.96052E-05-2.10363E-05-2.93858E-05-7.53214E-06 1.16068E-18-2.36586E-18
 -1       933 8.57749E-05-2.44680E-05-2.62740E-05-1.62134E-05-5.09974E-19-2.25244E-18
 -1       934 6.59212E-05-1.76141E-05-2.06099E-05 1.40494E-05 2.00837E-18-4.63787E-18
 -1       935 9.52531E-05-2.85454E-05-2.85890E-05 8.05455E-09 3.11491E-19 1.03337E-18
 -1       936 9.52512E-05-2.85584E-05-2.85826E-05-2.09672E-08 1.17721E-18 1.45777E-18
 -1       937 6.52316E-05-1.57421E-05-2.11028E-05 9.45896E-06 8.49993E-19 1.71793E-18
 -1       938 9.52533E-05-2.85428E-05-2.85902E-05-1.74852E-09 1.86947E-18 3.49428E-19
 -1       939 1.02371E-04-4.09222E-05-2.63121E-05 1.82730E-05 2.24267E-18-8.28471E-19
 -1       940 9.52544E-05-2.85518E-05-2.85868E-05-1.30076E-08 5.18466E-19-5.46943E-19
 -1       941 8.47925E-05-2.61606E-05-2.51038E-05 1.77904E-05-1.89314E-18-2.84121E-18
 -1       942 8.82320E-05-2.15760E-05-2.85671E-05-9.98006E-06 7.55324E-19-2.15224E-18
 -1       943 8.63124E-05-1.57182E-05-3.02550E-05-5.12295E-07 1.14531E-18-3.67465E-18
 -1       944 8.59418E-05-1.54417E-05-3.02127E-05 9.75201E-07 7.87442E-19-4.00511E-18
 -1       945 9.52526E-05-2.85520E-05-2.85860E-05 1.46377E-08-1.88111E-20-3.68322E-18
 -1       946 9.45262E-05-3.10711E-05-2.71942E-05 1.39138E-05 7.45526E-19-1.76976E-18
 -1       947 9.74845E-05-3.53316E-05-2.66373E-05 1.63434E-05 1.29723E-18-1.69582E-18
 -1       948 8.86474E-05-1.79976E-05-3.02810E-05-2.82839E-06 1.46558E-18-2.87177E-18
 -1       949 9.86485E-05-3.74336E-05-2.62110E-05-1.65355E-05 2.24506E-18 6.86349E-19
 -1       950 9.40484E-05-3.20535E-05-2.65661E-05-1.39847E-05 8.88966E-19-8.02622E-20
 -1       951 9.16917E-05-2.85317E-05-2.70678E-05-1.13967E-05 1.44472E-19-2.62567E-20
 -1       952 9.06977E-05-2.64214E-05-2.75468E-05-9.14270E-06 2.65901E-19 4.43754E-19
 -1       953 9.05163E-05-2.53023E-05-2.79490E-05-7.28120E-06 5.15296E-19 3.15031E-19
 -1       954 9.07914E-05-2.48550E-05-2.82586E-05-5.77672E-06-6.88121E-19 4.66178E-19
 -1       955 9.12954E-05-2.48387E-05-2.84815E-05-4.56748E-06 4.05037E-19-1.54327E-18
 -1       956 9.18884E-05-2.50821E-05-2.86313E-05-3.59408E-06 2.80609E-20-2.19499E-18
 -1       957 9.24867E-05-2.54652E-05-2.87235E-05-2.80943E-06-1.97159E-19-9.26233E-19
 -1       958 9.30424E-05-2.59062E-05-2.87727E-05-2.17748E-06-4.22219E-19-9.82925E-19
 -1       959 9.35313E-05-2.63517E-05-2.87913E-05-1.67032E-06-1.00474E-18-7.70145E-19
 -1       960 9.39445E-05-2.67693E-05-2.87894E-05-1.26576E-06-1.15397E-21-6.41627E-19
 -1       961 9.42825E-05-2.71414E-05-2.87748E-05-9.45689E-07 1.79635E-18-4.23672E-19
 -1       962 9.45514E-05-2.74607E-05-2.87531E-05-6.94952E-07 1.05417E-18 3.75463E-19
 -1       963 9.47597E-05-2.77265E-05-2.87285E-05-5.00750E-07-8.65769E-19 5.98184E-19
 -1       964 9.49170E-05-2.79420E-05-2.87036E-05-3.52230E-07-1.58243E-18-2.14620E-19
 -1       965 9.50327E-05-2.81128E-05-2.86800E-05-2.40228E-07-1.09357E-18-1.26388E-18
 -1       966 9.51153E-05-2.82452E-05-2.86586E-05-1.57074E-07-9.02314E-21-4.79545E-19
 -1       967 9.51723E-05-2.83458E-05-2.86399E-05-9.64319E-08 1.15797E-18-5.76251E-19
 -1       968 9.52098E-05-2.84207E-05-2.86239E-05-5.30817E-08 1.93249E-19-9.83266E-19
 -1       969 9.52330E-05-2.84755E-05-2.86104E-05-2.30155E-08 8.79320E-19-9.98320E-19
 -1       970 9.52461E-05-2.85151E-05-2.85990E-05-2.48419E-09 4.40529E-19-1.28043E-18
 -1       971 8.03810E-05-2.63468E-05-2.30976E-05 2.02234E-05 1.97970E-18-2.83883E-18
 -1       972 9.18078E-05-2.46230E-05-2.87937E-05 2.86815E-06-9.73317E-19 8.94170E-19
 -1       973 9.35343E-05-3.55942E-05-2.48064E-05-1.99978E-05 2.40318E-18 1.70561E-19
 -1       974 9.06941E-05-2.37437E-05-2.86932E-05 3.50729E-06-1.05836E-18 1.49970E-19
 -1       975 8.92875E-05-2.27728E-05-2.85066E-05 4.23398E-06-2.79037E-20-1.18739E-18
 -1       976 9.26804E-05-2.53932E-05-2.88375E-05 2.30923E-06-2.65402E-19 9.07982E-19
 -1       977 9.33566E-05-2.60509E-05-2.88454E-05 1.82785E-06 8.63749E-19 6.77405E-19
 -1       978 9.38751E-05-2.66010E-05-2.88318E-05 1.42107E-06-9.00447E-19 1.15712E-18
 -1       979 9.42681E-05-2.70528E-05-2.88066E-05 1.08413E-06-4.40024E-19 4.64630E-20
 -1       980 9.45623E-05-2.74181E-05-2.87761E-05 8.10514E-07 5.94163E-19 1.27065E-18
 -1       981 9.47796E-05-2.77089E-05-2.87446E-05 5.92567E-07-3.20835E-19 2.45591E-18
 -1       982 9.49375E-05-2.79371E-05-2.87145E-05 4.22208E-07 2.75612E-19 2.12604E-18
 -1       983 9.50501E-05-2.81134E-05-2.86871E-05 2.91517E-07-3.16501E-19 1.44263E-18
 -1       984 9.51285E-05-2.82478E-05-2.86632E-05 1.93156E-07-1.26638E-18-4.80549E-19
 -1       985 9.51814E-05-2.83484E-05-2.86427E-05 1.20620E-07-1.45628E-18-6.94240E-19
 -1       986 9.52157E-05-2.84227E-05-2.86256E-05 6.82875E-08-7.72251E-19-9.11186E-19
 -1       987 9.52364E-05-2.84765E-05-2.86114E-05 3.17984E-08-5.46858E-19-4.38846E-19
 -1       988 9.52479E-05-2.85152E-05-2.85997E-05 6.73004E-09 8.38713E-19-7.17800E-19
 -1       989 8.26934E-05-1.98599E-05-2.69298E-05 7.40759E-06-2.33441E-19-1.75197E-18
 -1       990 9.15636E-05-2.46345E-05-2.86844E-05 8.55838E-06 1.76438E-19-2.57983E-18
 -1       991 6.41182E-05-1.47889E-05-2.10563E-05-6.70938E-06-9.38544E-20-4.57995E-18
 -1       992 8.68007E-05-2.24951E-05-2.75605E-05-1.27321E-05 1.26100E-19-2.10099E-18
 -1       993 9.52542E-05-2.85463E-05-2.85891E-05-6.78133E-09 1.68391E-18 6.14689E-20
 -1       994 7.99413E-05-2.61167E-05-2.30318E-05-1.92876E-05 1.80960E-18 3.10229E-19
 -1       995 9.07689E-05-2.05055E-05-3.01107E-05-5.23454E-06 1.46495E-18-2.31713E-18
 -1       996 9.25162E-05-2.73510E-05-2.79283E-05 1.11287E-05 7.91656E-19-2.08770E-18
 -1       997 9.10837E-05-2.24050E-05-2.94341E-05 6.20507E-06-7.76301E-20-2.99334E-18
 -1       998 9.03592E-05-1.99871E-05-3.01601E-05 3.91968E-06-2.81280E-19-3.49242E-18
 -1       999 7.94664E-05-1.92973E-05-2.57836E-05 9.31279E-06-2.36313E-18-2.41360E-18
 -1      1000 8.53591E-05-2.07416E-05-2.76939E-05 6.07991E-06-3.15067E-19-2.34268E-18
 -1      1001 8.75305E-05-2.17489E-05-2.81925E-05 5.07153E-06-4.25795E-19-1.92155E-18
 -1      1002 6.68936E-05-1.48074E-05-2.23028E-05 9.17024E-07 1.46365E-18 1.91118E-18
 -1      1003 7.39290E-05-1.97191E-05-2.32127E-05-1.23008E-05 1.48628E-18 1.85372E-18
 -1      1004 8.77292E-05-1.60860E-05-3.07058E-05 2.00761E-06-6.22624E-20-4.04003E-18
 -1      1005 7.56787E-05-1.92589E-05-2.41599E-05 1.21281E-05-2.25272E-18-2.35987E-18
 -1      1006 7.50988E-05-1.89776E-05-2.40222E-05-1.30389E-05-3.86070E-19-3.19133E-18
 -1      1007 9.52438E-05-2.85026E-05-2.86034E-05 7.24449E-09 4.18916E-19 3.16810E-20
 -1      1008 6.62897E-05-1.49811E-05-2.19361E-05 4.37896E-06 1.05803E-18-4.61113E-18
 -1      1009 8.53460E-05-1.88813E-05-2.84851E-05-6.33024E-06 9.72173E-19-2.74773E-18
 -1      1010 9.52465E-05-2.85151E-05-2.85991E-05 1.22177E-09 9.81512E-19-2.48438E-18
 -1      1011 9.52467E-05-2.85171E-05-2.85984E-05 8.49289E-10 7.55460E-19-2.50152E-18
 -1      1012 8.73849E-05-1.86878E-05-2.94503E-05-4.66957E-06 1.24530E-18-2.80302E-18
 -1      1013 8.65702E-05-1.55273E-05-3.04450E-05 1.76888E-06 4.35296E-19-4.14747E-18
 -1      1014 8.50010E-05-1.64015E-05-2.94028E-05 1.12828E-07 9.20394E-19-3.60365E-18
 -1      1015 8.68055E-05-1.75390E-05-2.96890E-05-2.98691E-06 1.31231E-18-3.09570E-18
 -1      1016 9.02882E-05-3.18639E-05-2.50180E-05 1.94540E-05 1.86284E-18-1.79169E-18
 -1      1017 7.28203E-05-1.64397E-05-2.41527E-05 4.56947E-06-1.49463E-18-4.33703E-19
 -1      1018 7.47844E-05-1.98255E-05-2.35263E-05 1.28644E-05 1.64788E-18-3.79790E-18
 -1      1019 8.63487E-05-2.62125E-05-2.57702E-05-1.32626E-05 3.44514E-19 4.66675E-19
 -1      1020 8.64953E-05-2.43779E-05-2.66214E-05-9.92326E-06 5.39718E-19 3.38498E-19
 -1      1021 8.71949E-05-2.35238E-05-2.72889E-05-7.44688E-06 8.24493E-19 1.04926E-18
 -1      1022 8.81678E-05-2.33278E-05-2.77891E-05-5.60611E-06-6.51134E-19 7.71969E-19
 -1      1023 8.92142E-05-2.35275E-05-2.81518E-05-4.23902E-06-9.41910E-19 7.34858E-20
 -1      1024 9.02363E-05-2.39594E-05-2.84047E-05-3.21256E-06-7.45776E-19-3.50490E-19
 -1      1025 9.11792E-05-2.45107E-05-2.85725E-05-2.43473E-06 7.99564E-19-1.39242E-18
 -1      1026 9.20145E-05-2.51031E-05-2.86765E-05-1.84111E-06 3.02946E-19-1.16105E-18
 -1      1027 9.27307E-05-2.56844E-05-2.87343E-05-1.38596E-06-4.49214E-19 2.81953E-19
 -1      1028 9.33282E-05-2.62225E-05-2.87597E-05-1.03624E-06-5.14016E-19 2.14805E-19
 -1      1029 9.38146E-05-2.66999E-05-2.87636E-05-7.67666E-07 7.35518E-19-5.33975E-19
 -1      1030 9.42017E-05-2.71096E-05-2.87539E-05-5.62000E-07 1.45393E-18-1.22943E-18
 -1      1031 9.45031E-05-2.74516E-05-2.87364E-05-4.05320E-07-1.45426E-19-1.63445E-18
 -1      1032 9.47326E-05-2.77302E-05-2.87154E-05-2.86821E-07-2.05636E-18-1.45869E-18
 -1      1033 9.49035E-05-2.79524E-05-2.86934E-05-1.98027E-07-2.25386E-18-8.88088E-19
 -1      1034 9.50275E-05-2.81259E-05-2.86721E-05-1.32244E-07 7.38780E-19 2.68717E-19
 -1      1035 9.51148E-05-2.82587E-05-2.86526E-05-8.41675E-08 3.71993E-19 9.91444E-20
 -1      1036 9.51743E-05-2.83585E-05-2.86354E-05-4.97044E-08 1.05999E-19-1.48759E-18
 -1      1037 9.52129E-05-2.84323E-05-2.86203E-05-2.49762E-08 9.46891E-19-2.13810E-19
 -1      1038 9.52358E-05-2.84850E-05-2.86075E-05-8.51061E-09 5.08920E-19-1.61806E-18
 -1      1039 9.03309E-05-2.36151E-05-2.85930E-05 2.00324E-06-6.86158E-19 8.44238E-19
 -1      1040 9.24415E-05-2.53209E-05-2.87663E-05 1.38502E-06-1.36147E-19-1.26532E-18
 -1      1041 9.15110E-05-2.45275E-05-2.87076E-05 1.68540E-06-8.86129E-19-7.98874E-19
 -1      1042 8.88436E-05-2.25890E-05-2.83956E-05 2.32583E-06-1.17398E-18 1.75026E-18
 -1      1043 9.31688E-05-2.59968E-05-2.87883E-05 1.11225E-06-1.76066E-19 2.08344E-19
 -1      1044 9.37314E-05-2.65618E-05-2.87872E-05 8.73225E-07-3.89308E-19 4.04936E-20
 -1      1045 9.41615E-05-2.70261E-05-2.87725E-05 6.70216E-07-1.41002E-18 1.21107E-18
 -1      1046 9.44859E-05-2.74015E-05-2.87506E-05 5.02493E-07-6.92863E-19 2.18276E-18
 -1      1047 9.47270E-05-2.77001E-05-2.87259E-05 3.67332E-07-1.79932E-20 2.49877E-18
 -1      1048 9.49030E-05-2.79340E-05-2.87011E-05 2.60891E-07 3.95839E-19 1.88751E-18
 -1      1049 9.50288E-05-2.81144E-05-2.86777E-05 1.78887E-07 3.77803E-19 1.36045E-18
 -1      1050 9.51165E-05-2.82512E-05-2.86566E-05 1.17051E-07-2.52679E-19 4.39327E-19
 -1      1051 9.51757E-05-2.83534E-05-2.86382E-05 7.15326E-08-1.17860E-18-5.51576E-19
 -1      1052 9.52137E-05-2.84283E-05-2.86224E-05 3.85366E-08-4.44763E-19 6.18889E-19
 -1      1053 9.52313E-05-2.84689E-05-2.86124E-05 2.06077E-08 2.58435E-19 8.35931E-20
 -1      1054 8.16430E-05-1.90096E-05-2.68437E-05 3.30582E-06-9.10289E-19 3.04444E-19
 -1      1055 8.26706E-05-1.89716E-05-2.72981E-05-8.31665E-06 4.78154E-19-2.97246E-18
 -1      1056 8.81040E-05-2.10540E-05-2.87371E-05 6.66987E-06 4.49279E-19-3.27306E-18
 -1      1057 8.86882E-05-2.99277E-05-2.51824E-05-1.67692E-05 7.81184E-19 3.73087E-19
 -1      1058 7.93385E-05-1.88714E-05-2.59035E-05-1.02719E-05-6.81525E-20-3.10937E-18
 -1      1059 9.52442E-05-2.85065E-05-2.86019E-05 3.00848E-09 5.73297E-19 1.44862E-18
 -1      1060 7.77841E-05-1.76724E-05-2.57608E-05 3.81185E-06-1.94045E-18-1.73297E-18
 -1      1061 8.46192E-05-2.02563E-05-2.75854E-05 2.96013E-06-3.20049E-19 1.51064E-18
 -1      1062 7.16739E-05-1.58414E-05-2.39116E-05-4.86329E-06 1.69857E-19-3.86576E-18
 -1      1063 8.69744E-05-2.14624E-05-2.80775E-05 2.64300E-06-8.38110E-19 1.13055E-18
 -1      1064 8.77585E-05-2.29454E-05-2.77785E-05 9.32712E-06 7.37810E-19-2.95048E-18
 -1      1065 8.55173E-05-1.68858E-05-2.94154E-05 2.33795E-06 6.15778E-19-3.74889E-18
 -1      1066 8.75927E-05-2.53120E-05-2.66918E-05 1.26759E-05 1.19414E-18-2.45444E-18
 -1      1067 7.19396E-05-1.64817E-05-2.37704E-05-4.07243E-06 4.61327E-19 2.85390E-18
 -1      1068 7.33558E-05-1.63724E-05-2.44127E-05 4.10415E-06 9.02928E-19-3.89277E-18
 -1      1069 8.07104E-05-2.33446E-05-2.45746E-05-1.36792E-05 3.42942E-19 1.82858E-18
 -1      1070 9.52311E-05-2.84734E-05-2.86103E-05 2.28375E-09-8.56029E-20-8.08342E-19
 -1      1071 8.13407E-05-1.71948E-05-2.74875E-05-3.39787E-06 7.78356E-19-2.99918E-18
 -1      1072 8.81336E-05-1.90591E-05-2.95982E-05 4.36268E-06 7.47103E-20-3.34821E-18
 -1      1073 8.83404E-05-2.80226E-05-2.58485E-05 1.58482E-05 1.12674E-18-1.99681E-18
 -1      1074 8.40807E-05-1.72121E-05-2.86479E-05-2.34113E-06 9.16497E-19-3.02973E-18
 -1      1075 9.52331E-05-2.84780E-05-2.86093E-05-4.08717E-09 1.81510E-19-3.93356E-18
 -1      1076 8.35778E-05-1.71346E-05-2.84731E-05 1.95207E-06 8.56799E-19-3.63819E-18
 -1      1077 8.17086E-05-2.40929E-05-2.46797E-05 1.54881E-05 1.38087E-18-3.05047E-18
 -1      1078 9.25073E-05-2.54584E-05-2.87351E-05 5.66573E-07-3.61195E-19 4.59845E-20
 -1      1079 7.76695E-05-1.67017E-05-2.61230E-05-3.91439E-06 3.29398E-19-3.08762E-18
 -1      1080 8.30897E-05-2.11830E-05-2.65371E-05-6.70391E-06 1.40627E-19 1.40292E-18
 -1      1081 8.51097E-05-2.15023E-05-2.72611E-05-4.74711E-06-1.63486E-19-1.25584E-18
 -1      1082 8.69082E-05-2.20623E-05-2.77915E-05-3.36168E-06-8.66264E-19-9.32887E-19
 -1      1083 8.84746E-05-2.27646E-05-2.81618E-05-2.38381E-06-7.21783E-19-7.67776E-19
 -1      1084 8.98236E-05-2.35287E-05-2.84124E-05-1.69177E-06-2.20179E-19 3.67581E-20
 -1      1085 9.09687E-05-2.42948E-05-2.85748E-05-1.20110E-06 8.46981E-21-1.13371E-19
 -1      1086 9.19254E-05-2.50215E-05-2.86733E-05-8.52495E-07 1.90497E-20-7.41646E-19
 -1      1087 9.27114E-05-2.56826E-05-2.87268E-05-6.04297E-07-1.03692E-18-7.96582E-19
 -1      1088 9.33461E-05-2.62643E-05-2.87494E-05-4.27198E-07-4.49464E-19-2.52672E-19
 -1      1089 9.38497E-05-2.67621E-05-2.87519E-05-3.00571E-07 2.02874E-19-1.16453E-18
 -1      1090 9.42421E-05-2.71777E-05-2.87419E-05-2.09888E-07 3.48538E-19-2.96024E-18
 -1      1091 9.45423E-05-2.75173E-05-2.87250E-05-1.44907E-07-9.80338E-19-1.89782E-18
 -1      1092 9.47674E-05-2.77892E-05-2.87049E-05-9.83850E-08-5.84032E-19-1.07153E-19
 -1      1093 9.49324E-05-2.80028E-05-2.86841E-05-6.51805E-08-2.63732E-19 1.79186E-18
 -1      1094 9.50505E-05-2.81674E-05-2.86642E-05-4.16294E-08-6.32703E-19 8.17295E-19
 -1      1095 9.51324E-05-2.82920E-05-2.86459E-05-2.51030E-08-3.59367E-19 4.72119E-19
 -1      1096 9.51876E-05-2.83851E-05-2.86296E-05-1.40292E-08-1.57036E-20-8.23402E-19
 -1      1097 8.90885E-05-2.28543E-05-2.83859E-05 6.66536E-07-4.90838E-19 3.30711E-19
 -1      1098 8.24524E-05-1.94285E-05-2.70093E-05-2.12893E-07-1.81751E-18 6.54048E-19
 -1      1099 9.32128E-05-2.61076E-05-2.87592E-05 4.77103E-07-5.80342E-19-2.43800E-20
 -1      1100 9.37623E-05-2.66517E-05-2.87615E-05 3.86900E-07-1.40322E-18 4.89051E-19
 -1      1101 9.41846E-05-2.70993E-05-2.87507E-05 3.03541E-07-1.19909E-18-2.67402E-19
 -1      1102 9.45041E-05-2.74611E-05-2.87326E-05 2.30854E-07 4.22133E-19-6.05761E-19
 -1      1103 9.47419E-05-2.77486E-05-2.87113E-05 1.70161E-07 1.27224E-18-1.29597E-18
 -1      1104 9.49154E-05-2.79733E-05-2.86894E-05 1.21224E-07 3.46634E-19-2.68592E-19
 -1      1105 9.50391E-05-2.81459E-05-2.86685E-05 8.29531E-08 7.69911E-20-1.69556E-19
 -1      1106 9.51248E-05-2.82762E-05-2.86494E-05 5.39065E-08-3.56020E-19-5.16635E-19
 -1      1107 9.51826E-05-2.83733E-05-2.86324E-05 3.16367E-08-1.45578E-18-1.05286E-18
 -1      1108 8.51852E-05-2.06448E-05-2.76600E-05 2.79605E-07-3.51414E-19 1.14963E-18
 -1      1109 8.27242E-05-2.04784E-05-2.66681E-05 8.83521E-06 1.26499E-18-3.25798E-18
 -1      1110 8.73499E-05-2.17878E-05-2.80978E-05 5.48203E-07-7.17321E-19 9.33746E-19
 -1      1111 8.45806E-05-1.94278E-05-2.79273E-05 6.13515E-06 7.26036E-19-3.13158E-18
 -1      1112 8.17578E-05-2.18561E-05-2.56731E-05-9.66862E-06 4.55332E-19 1.88671E-18
 -1      1113 9.52302E-05-2.84691E-05-2.86119E-05 1.05389E-08-9.45149E-20 5.71909E-19
 -1      1114 8.00301E-05-1.71517E-05-2.69571E-05 2.48644E-06 8.32829E-19-3.48528E-18
 -1      1115 9.52058E-05-2.84203E-05-2.86226E-05 8.21673E-09-1.89446E-18 2.24807E-19
 -1      1116 9.04888E-05-2.38287E-05-2.85684E-05 6.85215E-07-1.90517E-19 1.94088E-19
 -1      1117 7.91772E-05-1.82499E-05-2.61082E-05-8.87281E-07-1.86439E-18 6.26670E-19
 -1      1118 7.89090E-05-1.94128E-05-2.55068E-05 9.02862E-06 1.09612E-18-3.65597E-18
 -1      1119 7.71086E-05-1.92466E-05-2.47961E-05-7.92064E-06 5.61569E-19 2.67858E-18
 -1      1120 9.16124E-05-2.46988E-05-2.86771E-05 6.42503E-07-8.28107E-19-5.53226E-19
 -1      1121 8.20515E-05-2.20550E-05-2.57114E-05 1.17968E-05 1.36478E-18-3.23970E-18
 -1      1122 1.17034E-04 2.59674E-10-4.20861E-05-4.02955E-05-5.42948E-19 1.71448E-17
 -1      1123 9.00628E-05 7.64908E-11-3.77545E-05-2.23303E-05-3.02603E-19 1.98656E-18
 -1      1124 8.54168E-05 4.43612E-11-3.62708E-05-1.55107E-05-2.05723E-19-4.39367E-18
 -1      1125 8.31965E-05 3.27490E-11-3.54147E-05-1.12072E-05-1.33725E-19-7.33822E-18
 -1      1126 8.17405E-05 2.58504E-11-3.48364E-05-7.92700E-06-9.04737E-20-8.74687E-18
 -1      1127 8.06634E-05 2.10526E-11-3.44121E-05-5.32227E-06-5.04779E-20-9.31697E-18
 -1      1128 7.98650E-05 1.75668E-11-3.41007E-05-3.19004E-06-1.92303E-20-9.47304E-18
 -1      1129 7.93429E-05 1.52844E-11-3.38995E-05-1.37212E-06 1.07203E-21-9.42505E-18
 -1      1130 7.91350E-05 1.42544E-11-3.38214E-05 2.51731E-07 1.39033E-20-9.26271E-18
 -1      1131 7.92659E-05 1.45780E-11-3.38748E-05 1.83304E-06 4.34171E-20-9.04786E-18
 -1      1132 7.97445E-05 1.63738E-11-3.40629E-05 3.53685E-06 6.44407E-20-8.70166E-18
 -1      1133 8.05571E-05 1.97112E-11-3.43797E-05 5.52147E-06 9.29089E-20-8.01452E-18
 -1      1134 8.17011E-05 2.48786E-11-3.48283E-05 7.99265E-06 1.28140E-19-6.94189E-18
 -1      1135 8.32525E-05 3.24742E-11-3.54419E-05 1.12046E-05 1.69036E-19-4.96909E-18
 -1      1136 8.55286E-05 4.47386E-11-3.63324E-05 1.55137E-05 2.22876E-19-1.23720E-18
 -1      1137 8.98815E-05 7.20154E-11-3.78567E-05 2.19866E-05 2.57180E-19 6.01227E-18
 -1      1138 1.07059E-04 1.68868E-10-4.09002E-05 3.48816E-05 5.42101E-19 2.08516E-17
 -1      1139 1.30089E-04-2.59673E-05-4.04697E-05-2.53406E-05-2.25311E-18 2.67688E-17
 -1      1140 9.95207E-05-2.94948E-05-3.22071E-05-4.95896E-07-7.53224E-19 2.14620E-17
 -1      1141 9.39525E-05-2.81775E-05-2.90109E-05 4.33064E-07-2.86284E-19 1.42219E-17
 -1      1142 9.35593E-05-2.81741E-05-2.82389E-05 2.86338E-07-1.03977E-19 9.33737E-18
 -1      1143 9.47987E-05-2.85241E-05-2.84729E-05 2.09235E-07-1.25986E-19 6.11346E-18
 -1      1144 9.69023E-05-2.91205E-05-2.90799E-05 1.73287E-07-1.34104E-19 3.63854E-18
 -1      1145 9.94405E-05-2.98541E-05-2.98253E-05 1.53244E-07-9.36335E-20 1.70002E-18
 -1      1146 1.02064E-04-3.06186E-05-3.05849E-05 1.34664E-07 9.48321E-21 3.03317E-19
 -1      1147 1.04383E-04-3.12937E-05-3.12397E-05 1.04765E-07-2.04417E-19-1.64065E-18
 -1      1148 1.05922E-04-3.17361E-05-3.16512E-05 5.09576E-08-7.88485E-20-3.18787E-18
 -1      1149 1.06143E-04-3.17871E-05-3.16703E-05-3.64576E-08-1.12265E-20-4.71114E-18
 -1      1150 1.04563E-04-3.13072E-05-3.11750E-05-1.56639E-07 1.29755E-19-4.43750E-18
 -1      1151 1.00980E-04-3.02433E-05-3.01337E-05-2.87941E-07-3.56019E-21-5.14620E-18
 -1      1152 9.57585E-05-2.87088E-05-2.86729E-05-3.83128E-07-9.30495E-20-5.82759E-18
 -1      1153 8.99934E-05-2.70285E-05-2.71044E-05-3.83192E-07 1.20355E-20-5.98953E-18
 -1      1154 8.53384E-05-2.56809E-05-2.58641E-05-2.54370E-07-7.29706E-20-6.61374E-18
 -1      1155 8.33907E-05-2.51203E-05-2.53547E-05-2.52909E-08 6.11055E-20-7.16848E-18
 -1      1156 8.49156E-05-2.55629E-05-2.57651E-05 2.15851E-07 1.36220E-20-7.85057E-18
 -1      1157 8.94329E-05-2.68733E-05-2.69779E-05 3.73547E-07 7.54389E-21-8.25497E-18
 -1      1158 9.54874E-05-2.86389E-05-2.86296E-05 4.03640E-07-1.05142E-19-8.80830E-18
 -1      1159 1.01390E-04-3.03732E-05-3.02809E-05 3.28596E-07-2.26174E-19-1.01791E-17
 -1      1160 1.05904E-04-3.17117E-05-3.15874E-05 2.05676E-07 2.74756E-20-9.98864E-18
 -1      1161 1.08517E-04-3.24974E-05-3.23835E-05 8.69143E-08 8.07924E-20-8.38101E-18
 -1      1162 1.09329E-04-3.27526E-05-3.26707E-05-9.31456E-11-3.64456E-19-9.23232E-18
 -1      1163 1.08771E-04-3.26003E-05-3.25536E-05-5.02569E-08-5.54062E-20-9.25067E-18
 -1      1164 1.07356E-04-3.21901E-05-3.21715E-05-7.07793E-08-2.03329E-20-9.14846E-18
 -1      1165 1.05529E-04-3.16537E-05-3.16532E-05-7.21759E-08 2.74455E-19-7.36710E-18
 -1      1166 1.03614E-04-3.10873E-05-3.10966E-05-6.35108E-08-1.00562E-19-7.40223E-18
 -1      1167 1.01813E-04-3.05518E-05-3.05649E-05-5.09884E-08-6.20460E-20-8.13183E-18
 -1      1168 1.00232E-04-3.00799E-05-3.00933E-05-3.82133E-08-8.01716E-20-7.38603E-18
 -1      1169 9.89108E-05-2.96844E-05-2.96962E-05-2.69469E-08-3.85425E-21-7.52112E-18
 -1      1170 9.78492E-05-2.93655E-05-2.93751E-05-1.78237E-08 2.90771E-19-5.70241E-18
 -1      1171 9.70237E-05-2.91168E-05-2.91242E-05-1.08698E-08-1.56602E-19-5.90315E-18
 -1      1172 9.64009E-05-2.89286E-05-2.89341E-05-5.82886E-09 3.50787E-20-5.54879E-18
 -1      1173 9.59448E-05-2.87904E-05-2.87942E-05-2.34722E-09 6.92176E-20-6.46595E-18
 -1      1174 9.56213E-05-2.86920E-05-2.86945E-05-6.95452E-11 2.89819E-19-5.99163E-18
 -1      1175 9.54004E-05-2.86245E-05-2.86261E-05 1.31829E-09-2.17445E-20-8.02736E-18
 -1      1176 9.52566E-05-2.85804E-05-2.85813E-05 2.07468E-09-2.65909E-20-7.15898E-18
 -1      1177 9.51694E-05-2.85534E-05-2.85538E-05 2.40221E-09 1.13171E-19-4.10779E-18
 -1      1178 9.51226E-05-2.85386E-05-2.85388E-05 2.45390E-09-2.57059E-19-3.41518E-18
 -1      1179 9.51037E-05-2.85324E-05-2.85324E-05 2.34167E-09-4.91297E-19-4.48311E-18
 -1      1180 9.51035E-05-2.85320E-05-2.85318E-05 2.14479E-09-2.84336E-19-7.37858E-18
 -1      1181 9.51152E-05-2.85352E-05-2.85350E-05 1.91712E-09 3.07991E-19-6.31351E-18
 -1      1182 9.51338E-05-2.85405E-05-2.85403E-05 1.69280E-09 2.52939E-19-1.75690E-18
 -1      1183 9.51560E-05-2.85470E-05-2.85468E-05 1.48944E-09-1.71935E-19-1.74948E-18
 -1      1184 9.51792E-05-2.85538E-05-2.85536E-05 1.30750E-09 3.10778E-19-3.01244E-19
 -1      1185 9.52014E-05-2.85604E-05-2.85601E-05 1.12123E-09 4.71435E-19-8.24402E-19
 -1      1186 9.52204E-05-2.85660E-05-2.85655E-05 8.37114E-10 3.30027E-20-6.05688E-19
 -1      1187 9.52334E-05-2.85697E-05-2.85694E-05 2.57974E-10-1.87230E-19-1.45517E-18
 -1      1188 9.52379E-05-2.85714E-05-2.85715E-05-3.00699E-10 1.34374E-19-4.19848E-19
 -1      1189 1.30700E-04-3.75223E-05-3.89013E-05 1.19094E-05-3.73118E-19 3.30173E-17
 -1      1190 9.88805E-05-2.89060E-05-3.20264E-05 7.32381E-07 2.18852E-19 2.65572E-17
 -1      1191 9.45832E-05-2.82205E-05-2.91312E-05 1.08863E-07 1.77275E-19 2.00987E-17
 -1      1192 9.44435E-05-2.83575E-05-2.85382E-05 1.87058E-08 1.62147E-19 1.55304E-17
 -1      1193 9.62663E-05-2.89328E-05-2.89670E-05-1.09740E-08 1.13086E-19 1.22997E-17
 -1      1194 9.93761E-05-2.98586E-05-2.98905E-05-2.89422E-08 8.68804E-20 1.00885E-17
 -1      1195 1.03508E-04-3.10841E-05-3.11349E-05-5.50265E-08 2.30237E-20 9.06950E-18
 -1      1196 1.08503E-04-3.25627E-05-3.26245E-05-9.95488E-08 9.14299E-20 8.29626E-18
 -1      1197 1.14112E-04-3.42160E-05-3.42661E-05-1.68726E-07 3.63575E-20 6.77542E-18
 -1      1198 1.19810E-04-3.58854E-05-3.58781E-05-2.58610E-07 8.01952E-21 5.47157E-18
 -1      1199 1.24587E-04-3.72772E-05-3.71387E-05-3.39388E-07 1.09314E-19 3.87907E-18
 -1      1200 1.26824E-04-3.79317E-05-3.75832E-05-3.36319E-07-2.67345E-20 4.08513E-18
 -1      1201 1.24534E-04-3.72920E-05-3.67258E-05-1.38156E-07 1.39800E-19 3.71096E-18
 -1      1202 1.16392E-04-3.49716E-05-3.43693E-05 3.08157E-07-9.79249E-20 4.18625E-18
 -1      1203 1.03550E-04-3.12360E-05-3.09933E-05 8.44327E-07-1.98085E-19 4.61019E-18
 -1      1204 9.07864E-05-2.73996E-05-2.78704E-05 1.08245E-06 7.13096E-20 3.33318E-18
 -1      1205 8.46977E-05-2.53954E-05-2.65015E-05 7.27969E-07-2.47770E-19 2.53637E-18
 -1      1206 8.90643E-05-2.65476E-05-2.76293E-05-4.95744E-08 1.83303E-19 2.00112E-19
 -1      1207 1.01406E-04-3.02588E-05-3.06906E-05-7.11542E-07-7.24875E-20-1.79698E-18
 -1      1208 1.15231E-04-3.45232E-05-3.42454E-05-9.11257E-07 2.43257E-19-2.85207E-18
 -1      1209 1.25069E-04-3.75672E-05-3.69657E-05-7.18965E-07 2.08377E-19-2.10699E-18
 -1      1210 1.29043E-04-3.87796E-05-3.82340E-05-3.83900E-07-1.05403E-19-9.91293E-19
 -1      1211 1.28141E-04-3.84902E-05-3.81511E-05-1.04325E-07 8.84289E-20-1.27456E-18
 -1      1212 1.24357E-04-3.73292E-05-3.71856E-05 6.28914E-08-1.87423E-20-1.48930E-18
 -1      1213 1.19429E-04-3.58345E-05-3.58155E-05 1.35248E-07 1.34892E-21-1.55708E-18
 -1      1214 1.14472E-04-3.43403E-05-3.43818E-05 1.49785E-07-1.78617E-20-8.04152E-20
 -1      1215 1.10046E-04-3.30110E-05-3.30723E-05 1.36312E-07-1.11126E-19 7.68577E-19
 -1      1216 1.06351E-04-3.19035E-05-3.19644E-05 1.12897E-07-7.94193E-20 3.71940E-19
 -1      1217 1.03395E-04-3.10183E-05-3.10707E-05 8.86161E-08-2.86645E-19-5.74169E-19
 -1      1218 1.01099E-04-3.03306E-05-3.03726E-05 6.72226E-08 1.89425E-19-7.67266E-19
 -1      1219 9.93540E-05-2.98079E-05-2.98403E-05 4.97724E-08 3.14052E-20-2.95611E-18
 -1      1220 9.80524E-05-2.94177E-05-2.94421E-05 3.61344E-08 3.61509E-19-5.06715E-18
 -1      1221 9.70985E-05-2.91316E-05-2.91497E-05 2.57531E-08-2.88709E-19-3.26217E-18
 -1      1222 9.64121E-05-2.89256E-05-2.89388E-05 1.79937E-08-1.90465E-19-1.35326E-18
 -1      1223 9.59284E-05-2.87803E-05-2.87898E-05 1.22783E-08-3.99044E-19-1.37118E-18
 -1      1224 9.55962E-05-2.86804E-05-2.86871E-05 8.12615E-09 4.94296E-20-2.79946E-18
 -1      1225 9.53754E-05-2.86139E-05-2.86186E-05 5.15394E-09 2.87696E-19-4.62860E-18
 -1      1226 9.52354E-05-2.85717E-05-2.85749E-05 3.06284E-09 3.43417E-20-6.48228E-18
 -1      1227 9.51529E-05-2.85467E-05-2.85488E-05 1.62247E-09-1.87796E-19-4.65150E-18
 -1      1228 9.51105E-05-2.85338E-05-2.85351E-05 6.56284E-10-2.95503E-19-1.69540E-18
 -1      1229 9.50952E-05-2.85291E-05-2.85299E-05 2.94340E-11 5.26551E-20-4.17811E-18
 -1      1230 9.50977E-05-2.85297E-05-2.85301E-05-3.60947E-10 3.29976E-20-3.51243E-18
 -1      1231 9.51113E-05-2.85337E-05-2.85339E-05-5.93392E-10 3.40600E-19-2.68500E-18
 -1      1232 9.51314E-05-2.85396E-05-2.85397E-05-7.28172E-10-2.66205E-19 8.09607E-19
 -1      1233 9.51545E-05-2.85465E-05-2.85464E-05-8.11784E-10-1.12859E-19 1.66237E-18
 -1      1234 9.51784E-05-2.85536E-05-2.85534E-05-8.78420E-10 3.51858E-19-5.09232E-18
 -1      1235 9.52010E-05-2.85603E-05-2.85600E-05-9.45633E-10-1.35005E-19-7.05512E-18
 -1      1236 9.52202E-05-2.85660E-05-2.85655E-05-9.77001E-10 3.78665E-19-7.60079E-18
 -1      1237 9.52335E-05-2.85699E-05-2.85694E-05-7.47659E-10 4.53903E-19-8.78173E-18
 -1      1238 9.52378E-05-2.85714E-05-2.85715E-05 2.53356E-10-1.51150E-20-5.57911E-18
 -1      1239 9.52369E-05-2.85705E-05-2.85715E-05 1.91787E-10-6.09670E-18-6.51601E-19
 -1      1240 9.52385E-05-2.85751E-05-2.85694E-05-2.20090E-10-2.63826E-18-1.25228E-19
 -1      1241 9.52421E-05-2.85875E-05-2.85658E-05-8.14279E-10 1.77175E-18-9.04294E-19
 -1      1242 9.52470E-05-2.86039E-05-2.85613E-05-9.14364E-10 5.71863E-18 2.55626E-19
 -1      1243 9.52520E-05-2.86208E-05-2.85565E-05-8.12831E-10 8.26919E-18-2.79587E-19
 -1      1244 9.52563E-05-2.86354E-05-2.85522E-05-6.24928E-10 1.66209E-18-1.40025E-18
 -1      1245 9.52596E-05-2.86466E-05-2.85489E-05-4.25080E-10-2.62494E-18 7.30610E-19
 -1      1246 9.52617E-05-2.86535E-05-2.85469E-05-2.07669E-10-1.40839E-18 1.18307E-19
 -1      1247 9.52623E-05-2.86558E-05-2.85462E-05 7.74525E-12-9.01924E-19-6.40510E-19
 -1      1248 9.52616E-05-2.86532E-05-2.85470E-05 2.21513E-10 2.24846E-19 6.13994E-20
 -1      1249 9.52594E-05-2.86460E-05-2.85491E-05 4.33984E-10-5.50604E-18-8.53214E-19
 -1      1250 9.52561E-05-2.86347E-05-2.85524E-05 6.38312E-10-1.20883E-17 6.36967E-19
 -1      1251 9.52518E-05-2.86200E-05-2.85567E-05 8.08766E-10-1.02588E-17 7.38084E-19
 -1      1252 9.52468E-05-2.86033E-05-2.85614E-05 9.16946E-10-7.15892E-18 3.51873E-19
 -1      1253 9.52420E-05-2.85869E-05-2.85660E-05 9.54925E-10-2.37432E-18 1.23294E-18
 -1      1254 9.52387E-05-2.85752E-05-2.85694E-05 1.36575E-10 2.34891E-18-1.26158E-18
 -1      1255 9.52368E-05-2.85704E-05-2.85715E-05-1.71034E-10 8.27608E-19 6.56167E-19
 -1      1256 3.55797E-05-1.10423E-04 1.86603E-05-1.43045E-05 1.02508E-17 2.28119E-18
 -1      1257 1.79086E-05-6.82829E-05 1.03801E-05-2.68442E-05 2.46275E-17 1.00788E-17
 -1      1258 7.28903E-06-1.18771E-05-5.24592E-06-3.46900E-06 3.20653E-17 1.94809E-17
 -1      1259 3.27318E-05 2.21874E-05-2.49747E-05 4.88763E-05 2.74100E-17 2.55482E-17
 -1      1260 1.09387E-04 1.12005E-05-4.64464E-05 9.88666E-05 2.02610E-17 2.91617E-17
 -1      1261 2.16712E-04-3.73561E-05-6.57747E-05 1.06176E-04 1.01178E-17 2.31731E-17
 -1      1262 3.01946E-04-8.61063E-05-7.73884E-05 5.80072E-05 2.39573E-18 1.03058E-17
 -1      1263 3.18089E-04-9.60552E-05-7.94774E-05-2.28462E-05 1.20967E-18-6.95901E-18
 -1      1264 2.63476E-04-6.32974E-05-7.24759E-05-9.21230E-05 7.48417E-18-2.40379E-17
 -1      1265 1.63223E-04-1.00284E-05-5.72977E-05-1.12761E-04 1.77479E-17-3.28615E-17
 -1      1266 6.92722E-05 2.33527E-05-3.74621E-05-8.17633E-05 2.74955E-17-3.28598E-17
 -1      1267 1.65213E-05 1.39488E-05-1.69110E-05-2.66338E-05 3.29174E-17-2.65308E-17
 -1      1268 8.96507E-06-3.39880E-05 1.79817E-06 1.77820E-05 2.91481E-17-1.55486E-17
 -1      1269 2.62043E-05-8.94819E-05 1.47938E-05 2.61924E-05 1.59454E-17-5.47226E-18
 -1      1270 3.79086E-05-1.15585E-04 1.97338E-05 4.47268E-06-1.77273E-18-1.31351E-18
 -1      1271 3.09216E-05-9.98813E-05 1.68080E-05-2.02054E-05-1.86644E-17-4.27037E-18
 -1      1272 1.34088E-05-5.16603E-05 6.58939E-06-2.24254E-05-3.19128E-17-1.36465E-17
 -1      1273 8.54506E-06 9.88413E-07-9.46249E-06 8.36817E-06-3.65122E-17-2.42074E-17
 -1      1274 3.98796E-05 2.64870E-05-2.81738E-05 5.96223E-05-3.19298E-17-3.07151E-17
 -1      1275 1.14281E-04 1.09324E-05-4.79865E-05 1.02580E-04-2.18746E-17-3.18484E-17
 -1      1276 2.10165E-04-3.45741E-05-6.46857E-05 1.09572E-04-1.13214E-17-2.62868E-17
 -1      1277 2.85384E-04-7.87395E-05-7.49780E-05 6.52019E-05-3.71683E-18-1.60809E-17
 -1      1278 3.10258E-04-9.40063E-05-7.80035E-05-8.78176E-06-8.57568E-19-2.31155E-18
 -1      1279 2.69242E-04-6.86320E-05-7.29423E-05-7.87265E-05-3.80402E-18 1.20965E-17
 -1      1280 1.84715E-04-2.12215E-05-6.05864E-05-1.12659E-04-1.14997E-17 2.42133E-17
 -1      1281 9.26214E-05 1.83339E-05-4.32324E-05-9.44840E-05-1.94572E-17 2.62665E-17
 -1      1282 2.83838E-05 2.31053E-05-2.32179E-05-4.59368E-05-2.65409E-17 2.31875E-17
 -1      1283 7.11180E-06-1.21806E-05-4.46493E-06 3.51586E-06-2.86568E-17 1.69000E-17
 -1      1284 1.80218E-05-6.62524E-05 9.87625E-06 2.46573E-05-1.98790E-17 7.60106E-18
 -1      1285 3.36317E-05-1.06283E-04 1.81353E-05 1.32152E-05-6.28668E-18 2.00726E-18
 -1      1286 1.05693E-04-2.23346E-05-3.82498E-05-1.63236E-05-8.49151E-19 1.38003E-17
 -1      1287 9.21201E-05-7.14096E-06-3.65655E-05-1.84087E-05-2.27333E-18-1.02761E-18
 -1      1288 9.44726E-05-7.27939E-06-3.77115E-05-2.38989E-05-2.93687E-18 2.33167E-18
 -1      1289 8.73515E-05-4.38162E-06-3.56185E-05-1.39471E-05-2.23813E-18-5.69667E-18
 -1      1290 8.88189E-05-4.40048E-06-3.61379E-05-1.65349E-05-2.54798E-18-3.72581E-18
 -1      1291 9.40742E-05-1.10711E-05-3.56455E-05-1.67670E-05-3.95961E-18-9.07013E-19
 -1      1292 8.48410E-05-3.25720E-06-3.49825E-05-1.01761E-05-1.74738E-18-7.96547E-18
 -1      1293 8.57960E-05-3.24592E-06-3.53165E-05-1.20336E-05-2.01022E-18-6.94895E-18
 -1      1294 8.92278E-05-7.67510E-06-3.50255E-05-1.28549E-05-3.45988E-18-4.71541E-18
 -1      1295 8.30985E-05-2.57297E-06-3.45144E-05-7.15054E-06-1.24910E-18-9.04946E-18
 -1      1296 8.37996E-05-2.56906E-06-3.47559E-05-8.61398E-06-1.42762E-18-8.56972E-18
 -1      1297 8.63506E-05-5.87491E-06-3.45532E-05-9.34415E-06-2.61420E-18-6.66067E-18
 -1      1298 8.18011E-05-2.09471E-06-3.41587E-05-4.72560E-06-7.98580E-19-9.46811E-18
 -1      1299 8.23318E-05-2.09678E-06-3.43384E-05-5.89706E-06-9.65512E-19-9.27926E-18
 -1      1300 8.43441E-05-4.71710E-06-3.41785E-05-6.50983E-06-1.84225E-18-7.59037E-18
 -1      1301 8.08360E-05-1.74499E-06-3.38941E-05-2.68115E-06-4.06668E-19-9.54441E-18
 -1      1302 8.12207E-05-1.74930E-06-3.40227E-05-3.67419E-06-5.13950E-19-9.53121E-18
 -1      1303 8.28501E-05-3.89673E-06-3.38825E-05-4.18726E-06-1.10912E-18-7.96629E-18
 -1      1304 8.02423E-05-1.51662E-06-3.37353E-05-9.30906E-07 3.35306E-20-9.47506E-18
 -1      1305 8.04577E-05-1.52020E-06-3.38058E-05-1.79401E-06-9.01230E-20-9.50186E-18
 -1      1306 8.17905E-05-3.32837E-06-3.36679E-05-2.22847E-06-4.39063E-19-7.97642E-18
 -1      1307 8.00552E-05-1.41391E-06-3.36942E-05 6.63235E-07 3.95404E-19-9.30920E-18
 -1      1308 8.00840E-05-1.41545E-06-3.37010E-05-1.41006E-07 2.77986E-19-9.41910E-18
 -1      1309 8.11959E-05-3.00397E-06-3.35500E-05-5.26237E-07 2.59942E-19-7.92626E-18
 -1      1310 8.03048E-05-1.44702E-06-3.37784E-05 2.25152E-06 7.96648E-19-9.02683E-18
 -1      1311 8.01354E-05-1.44593E-06-3.37184E-05 1.42904E-06 6.59021E-19-9.19052E-18
 -1      1312 8.11050E-05-2.93444E-06-3.35403E-05 1.05627E-06 8.45698E-19-7.76049E-18
 -1      1313 8.10033E-05-1.62814E-06-3.39884E-05 3.99818E-06 1.19160E-18-8.61583E-18
 -1      1314 8.06342E-05-1.62380E-06-3.38618E-05 3.07352E-06 1.04774E-18-8.86921E-18
 -1      1315 8.15504E-05-3.14062E-06-3.36442E-05 2.66907E-06 1.51040E-18-7.47021E-18
 -1      1316 8.21238E-05-1.95957E-06-3.43124E-05 6.04093E-06 1.60521E-18-7.91560E-18
 -1      1317 8.15721E-05-1.95685E-06-3.41253E-05 4.94557E-06 1.41436E-18-8.37008E-18
 -1      1318 8.25390E-05-3.64232E-06-3.38560E-05 4.45849E-06 2.17685E-18-7.00507E-18
 -1      1319 8.37149E-05-2.47242E-06-3.47608E-05 8.64228E-06 2.10260E-18-6.67561E-18
 -1      1320 8.29548E-05-2.47256E-06-3.45027E-05 7.23455E-06 1.88737E-18-7.42874E-18
 -1      1321 8.40843E-05-4.47824E-06-3.41669E-05 6.61084E-06 2.86143E-18-6.22772E-18
 -1      1322 8.58650E-05-3.21607E-06-3.53565E-05 1.20051E-05 2.58687E-18-4.49356E-18
 -1      1323 8.48454E-05-3.22936E-06-3.50038E-05 1.01641E-05 2.33445E-18-5.84115E-18
 -1      1324 8.62703E-05-5.74619E-06-3.45718E-05 9.33704E-06 3.61109E-18-4.83105E-18
 -1      1325 8.90508E-05-4.39968E-06-3.62104E-05 1.65046E-05 2.88240E-18-3.92891E-19
 -1      1326 8.75085E-05-4.42846E-06-3.56702E-05 1.39422E-05 2.59054E-18-2.87054E-18
 -1      1327 8.93671E-05-7.69910E-06-3.50731E-05 1.28234E-05 4.17078E-18-2.26203E-18
 -1      1328 9.53659E-05-7.35742E-06-3.76428E-05 2.30867E-05 2.48932E-18 7.37543E-18
 -1      1329 9.21214E-05-6.95536E-06-3.66384E-05 1.88245E-05 2.43204E-18 2.66874E-18
 -1      1330 9.44527E-05-1.13091E-05-3.56877E-05 1.71157E-05 4.31187E-18 2.38112E-18
 -1      1331 1.24205E-04-2.51968E-05-3.93117E-05 2.71325E-05 1.19972E-18 2.19024E-17
 -1      1332 1.01766E-04-1.49613E-05-3.78122E-05 2.24301E-05 1.24440E-18 1.18233E-17
 -1      1333 1.03845E-04-2.01113E-05-3.59708E-05 1.93074E-05 4.06723E-18 9.36268E-18
 -1      1334 1.04361E-04-2.84158E-05-3.52216E-05 6.34880E-06 2.18966E-18 2.10602E-17
 -1      1335 1.07058E-04-3.08572E-05-3.40632E-05-6.99609E-06-2.45692E-18 1.47110E-17
 -1      1336 1.00977E-04-2.87194E-05-3.15262E-05-4.16688E-06-2.25094E-18 1.18363E-17
 -1      1337 9.87040E-05-2.88218E-05-3.01999E-05-1.69018E-06-1.80397E-18 1.06986E-17
 -1      1338 9.72296E-05-2.87520E-05-2.93912E-05-1.25900E-06-1.67988E-18 8.06481E-18
 -1      1339 1.02349E-04-2.89710E-05-3.18126E-05-6.31532E-06-3.89196E-18 5.92439E-18
 -1      1340 9.61260E-05-2.85532E-05-2.89465E-05-3.55758E-08-1.29252E-18 7.10094E-18
 -1      1341 9.61731E-05-2.86844E-05-2.88748E-05 8.64285E-08-1.13915E-18 5.30645E-18
 -1      1342 9.86497E-05-2.89508E-05-2.99987E-05-1.56284E-06-2.90964E-18 4.18913E-18
 -1      1343 9.60607E-05-2.86839E-05-2.88310E-05 6.94553E-07-9.14865E-19 4.43599E-18
 -1      1344 9.68095E-05-2.89615E-05-2.90396E-05 7.70054E-07-9.71593E-19 3.05287E-18
 -1      1345 9.76411E-05-2.90079E-05-2.94496E-05 5.95967E-07-2.12986E-18 2.48641E-18
 -1      1346 9.72405E-05-2.90979E-05-2.91768E-05 1.09469E-06-7.17080E-19 2.62732E-18
 -1      1347 9.83372E-05-2.94641E-05-2.94969E-05 1.13732E-06-6.76425E-19 1.67979E-18
 -1      1348 9.79853E-05-2.92520E-05-2.94753E-05 1.71575E-06-1.63471E-18 1.23366E-18
 -1      1349 9.90630E-05-2.96874E-05-2.97202E-05 1.28313E-06-6.87435E-19 1.21057E-18
 -1      1350 1.00302E-04-3.00952E-05-3.00791E-05 1.29491E-06-4.89047E-19 4.62030E-19
 -1      1351 9.91293E-05-2.96809E-05-2.97748E-05 2.29256E-06-1.33360E-18 4.03069E-19
 -1      1352 1.01144E-04-3.03596E-05-3.03308E-05 1.27731E-06-4.19587E-19 6.10261E-20
 -1      1353 1.02338E-04-3.07566E-05-3.06731E-05 1.25230E-06-4.91698E-19-5.65977E-19
 -1      1354 1.00683E-04-3.02307E-05-3.01961E-05 2.46030E-06-9.45805E-19-2.58051E-19
 -1      1355 1.03133E-04-3.10168E-05-3.09024E-05 1.05179E-06-4.56159E-19-8.50196E-19
 -1      1356 1.04070E-04-3.13380E-05-3.11666E-05 9.80010E-07-5.25025E-19-1.63492E-18
 -1      1357 1.02321E-04-3.08227E-05-3.06322E-05 2.21348E-06-9.97160E-19-9.13740E-19
 -1      1358 1.04646E-04-3.15435E-05-3.13210E-05 5.70189E-07-4.83782E-19-1.64306E-18
 -1      1359 1.05079E-04-3.17084E-05-3.14373E-05 4.42951E-07-5.42882E-19-2.21571E-18
 -1      1360 1.03719E-04-3.13617E-05-3.09848E-05 1.49564E-06-8.29245E-19-9.40637E-19
 -1      1361 1.05258E-04-3.18011E-05-3.14655E-05-1.77544E-07-4.86931E-19-2.63033E-18
 -1      1362 1.04940E-04-3.17222E-05-3.13664E-05-3.58436E-07-1.05611E-19-3.14607E-18
 -1      1363 1.04530E-04-3.17280E-05-3.11585E-05 2.69274E-07-8.92534E-19-1.15603E-18
 -1      1364 1.04568E-04-3.16429E-05-3.12298E-05-1.12502E-06 1.12821E-19-3.24671E-18
 -1      1365 1.03332E-04-3.12514E-05-3.08745E-05-1.33479E-06-3.05527E-20-3.13545E-18
 -1      1366 1.04416E-04-3.17793E-05-3.10737E-05-1.39720E-06-2.99929E-19-1.70844E-18
 -1      1367 1.02343E-04-3.09596E-05-3.05661E-05-2.08122E-06-3.38830E-19-3.60968E-18
 -1      1368 1.00223E-04-3.02499E-05-2.99727E-05-2.26303E-06-3.83617E-19-4.03235E-18
 -1      1369 1.03137E-04-3.13815E-05-3.06928E-05-3.23432E-06-4.32675E-19-2.54928E-18
 -1      1370 9.87185E-05-2.97573E-05-2.95355E-05-2.72652E-06-2.43323E-20-4.16417E-18
 -1      1371 9.60633E-05-2.88358E-05-2.88069E-05-2.79899E-06-1.99561E-19-4.35963E-18
 -1      1372 1.00697E-04-3.04781E-05-3.00512E-05-4.72700E-06-3.80500E-19-2.72737E-18
 -1      1373 9.43650E-05-2.82417E-05-2.83391E-05-2.70751E-06-8.78764E-20-4.29837E-18
 -1      1374 9.18394E-05-2.73410E-05-2.76573E-05-2.60169E-06-1.77933E-19-4.42254E-18
 -1      1375 9.74985E-05-2.91873E-05-2.92751E-05-5.21610E-06-2.01961E-19-2.77521E-18
 -1      1376 9.04523E-05-2.68325E-05-2.72906E-05-1.83845E-06-6.16144E-19-4.65233E-18
 -1      1377 8.88490E-05-2.62490E-05-2.68633E-05-1.55264E-06-4.98724E-19-5.23916E-18
 -1      1378 9.43773E-05-2.78543E-05-2.85635E-05-4.20424E-06-5.41062E-19-2.92993E-18
 -1      1379 8.82745E-05-2.60298E-05-2.67169E-05-2.94108E-07-1.69685E-19-5.65881E-18
 -1      1380 8.81729E-05-2.59876E-05-2.66923E-05 7.96669E-08-2.65267E-19-5.88381E-18
 -1      1381 9.23750E-05-2.69637E-05-2.81296E-05-1.74494E-06-6.59375E-19-3.73606E-18
 -1      1382 8.86549E-05-2.61608E-05-2.68213E-05 1.39808E-06-2.10792E-19-5.82550E-18
 -1      1383 9.01250E-05-2.66871E-05-2.72171E-05 1.71628E-06-1.71934E-19-6.10213E-18
 -1      1384 9.22743E-05-2.68984E-05-2.81195E-05 1.40755E-06-2.26581E-19-4.41364E-18
 -1      1385 9.15102E-05-2.71871E-05-2.75876E-05 2.62774E-06-1.22449E-19-6.14898E-18
 -1      1386 9.40767E-05-2.80965E-05-2.82832E-05 2.78052E-06-1.23554E-19-6.28387E-18
 -1      1387 9.41703E-05-2.77053E-05-2.85510E-05 4.12573E-06-3.49169E-19-4.78280E-18
 -1      1388 9.59058E-05-2.87332E-05-2.87881E-05 3.03908E-06-3.32600E-19-6.59931E-18
 -1      1389 9.88007E-05-2.97352E-05-2.95839E-05 3.00735E-06-5.65845E-19-7.37099E-18
 -1      1390 9.74173E-05-2.90636E-05-2.93063E-05 5.52573E-06-4.91213E-19-4.88117E-18
 -1      1391 1.00554E-04-3.03105E-05-3.00910E-05 2.67121E-06-3.96941E-19-7.40828E-18
 -1      1392 1.03068E-04-3.11522E-05-3.07952E-05 2.51327E-06-2.96154E-19-7.83540E-18
 -1      1393 1.00996E-04-3.04915E-05-3.01830E-05 5.39326E-06-7.64060E-19-5.36507E-18
 -1      1394 1.04376E-04-3.15462E-05-3.11968E-05 1.83324E-06 1.69837E-20-7.38740E-18
 -1      1395 1.06090E-04-3.20941E-05-3.16881E-05 1.63130E-06 3.92064E-19-7.05990E-18
 -1      1396 1.04004E-04-3.16005E-05-3.09742E-05 4.13004E-06-7.50418E-21-5.26406E-18
 -1      1397 1.06804E-04-3.22778E-05-3.19285E-05 8.79534E-07 4.04554E-19-7.19568E-18
 -1      1398 1.07623E-04-3.25170E-05-3.21718E-05 6.96595E-07 3.39028E-19-6.99409E-18
 -1      1399 1.05938E-04-3.22248E-05-3.15346E-05 2.38475E-06 3.49189E-19-5.53191E-18
 -1      1400 1.07775E-04-3.25211E-05-3.22467E-05 5.88308E-08-7.98196E-20-6.38034E-18
 -1      1401 1.07828E-04-3.25099E-05-3.22716E-05-7.47461E-08-1.72232E-19-6.96615E-18
 -1      1402 1.06710E-04-3.23886E-05-3.18071E-05 7.10164E-07 2.79309E-19-5.27092E-18
 -1      1403 1.07547E-04-3.23881E-05-3.22108E-05-5.20131E-07-1.83862E-19-6.37546E-18
 -1      1404 1.07062E-04-3.22101E-05-3.20781E-05-5.99993E-07-1.95494E-19-6.37395E-18
 -1      1405 1.06503E-04-3.22118E-05-3.18100E-05-5.83626E-07-2.48022E-20-4.27656E-18
 -1      1406 1.06502E-04-3.20155E-05-3.19250E-05-8.52740E-07-3.50170E-20-6.54925E-18
 -1      1407 1.05709E-04-3.17487E-05-3.16998E-05-8.88242E-07 2.94046E-19-6.04414E-18
 -1      1408 1.05612E-04-3.18302E-05-3.16057E-05-1.41038E-06-2.42953E-19-3.63110E-18
 -1      1409 1.05009E-04-3.15234E-05-3.14969E-05-9.86926E-07 6.45376E-19-5.77889E-18
 -1      1410 1.04095E-04-3.12266E-05-3.12329E-05-9.91471E-07 5.67015E-19-5.17380E-18
 -1      1411 1.04328E-04-3.13548E-05-3.12701E-05-1.82129E-06 6.44132E-19-3.36601E-18
 -1      1412 1.03360E-04-3.09998E-05-3.10138E-05-9.84509E-07 1.48883E-19-5.44586E-18
 -1      1413 1.02451E-04-3.07114E-05-3.07489E-05-9.70366E-07-1.56798E-19-5.42943E-18
 -1      1414 1.02891E-04-3.08626E-05-3.08719E-05-1.92289E-06 3.90589E-19-4.14024E-18
 -1      1415 1.01751E-04-3.05009E-05-3.05369E-05-9.00794E-07 1.61345E-19-5.88666E-18
 -1      1416 1.00921E-04-3.02423E-05-3.02938E-05-8.77260E-07 9.68930E-20-5.56425E-18
 -1      1417 1.01466E-04-3.03998E-05-3.04636E-05-1.82515E-06-1.84970E-19-3.78261E-18
 -1      1418 1.00296E-04-3.00574E-05-3.01025E-05-7.77435E-07-2.09909E-19-5.59982E-18
 -1      1419 9.95830E-05-2.98380E-05-2.98925E-05-7.50748E-07-1.94040E-20-5.45371E-18
 -1      1420 1.00158E-04-2.99906E-05-3.00798E-05-1.61802E-06 4.91941E-20-3.58179E-18
 -1      1421 9.90495E-05-2.96823E-05-2.97283E-05-6.42340E-07-1.14669E-19-5.10434E-18
 -1      1422 9.84629E-05-2.95038E-05-2.95548E-05-6.16265E-07 6.00831E-20-4.73884E-18
 -1      1423 9.90172E-05-2.96443E-05-2.97397E-05-1.36569E-06 2.28377E-19-3.52526E-18
 -1      1424 9.80243E-05-2.93770E-05-2.94193E-05-5.12319E-07 7.33783E-19-4.45022E-18
 -1      1425 9.75586E-05-2.92366E-05-2.92812E-05-4.88861E-07 6.49903E-19-3.60995E-18
 -1      1426 9.80630E-05-2.93612E-05-2.94516E-05-1.10928E-06 3.94952E-19-2.91508E-18
 -1      1427 9.72092E-05-2.91362E-05-2.91729E-05-3.96243E-07 7.69940E-21-4.17680E-18
 -1      1428 9.68509E-05-2.90292E-05-2.90663E-05-3.76254E-07-6.63113E-20-4.16341E-18
 -1      1429 9.72905E-05-2.91362E-05-2.92160E-05-8.72328E-07-2.65897E-20-3.21502E-18
 -1      1430 9.65801E-05-2.89518E-05-2.89822E-05-2.97756E-07-1.41820E-19-4.00081E-18
 -1      1431 9.63124E-05-2.88726E-05-2.89023E-05-2.81391E-07 1.16836E-19-4.27962E-18
 -1      1432 9.66830E-05-2.89621E-05-2.90292E-05-6.66208E-07-1.05678E-19-2.87491E-18
 -1      1433 9.61081E-05-2.88145E-05-2.88389E-05-2.17328E-07 4.91527E-20-4.09918E-18
 -1      1434 9.59140E-05-2.87577E-05-2.87808E-05-2.04354E-07 3.24797E-20-4.46175E-18
 -1      1435 9.62178E-05-2.88308E-05-2.88850E-05-4.94526E-07 5.13969E-20-2.57286E-18
 -1      1436 9.57640E-05-2.87152E-05-2.87341E-05-1.53664E-07-3.95799E-19-4.84525E-18
 -1      1437 9.56280E-05-2.86758E-05-2.86932E-05-1.43661E-07-1.77465E-19-5.41501E-18
 -1      1438 9.58708E-05-2.87341E-05-2.87767E-05-3.56323E-07-8.74859E-20-3.52404E-18
 -1      1439 9.55210E-05-2.86456E-05-2.86599E-05-1.04627E-07 1.85814E-19-5.41990E-18
 -1      1440 9.54294E-05-2.86195E-05-2.86323E-05-9.71132E-08-1.33888E-19-5.23460E-18
 -1      1441 9.56190E-05-2.86651E-05-2.86975E-05-2.48233E-07-3.07711E-19-4.66087E-18
 -1      1442 9.53558E-05-2.85988E-05-2.86094E-05-6.78104E-08 2.17386E-19-5.58708E-18
 -1      1443 9.52974E-05-2.85824E-05-2.85916E-05-6.23086E-08 3.08923E-19-5.37499E-18
 -1      1444 9.54421E-05-2.86173E-05-2.86414E-05-1.65872E-07-1.42871E-20-4.11993E-18
 -1      1445 9.52489E-05-2.85689E-05-2.85765E-05-4.08613E-08 1.48900E-19-4.27432E-18
 -1      1446 9.52147E-05-2.85596E-05-2.85660E-05-3.69399E-08 5.25633E-19-3.68059E-18
 -1      1447 9.53223E-05-2.85856E-05-2.86031E-05-1.04670E-07 2.67251E-19-4.63865E-18
 -1      1448 9.51848E-05-2.85513E-05-2.85567E-05-2.16565E-08-2.48805E-20-3.43588E-18
 -1      1449 9.51675E-05-2.85470E-05-2.85513E-05-1.89446E-08-6.91884E-19-3.81335E-18
 -1      1450 9.52453E-05-2.85658E-05-2.85781E-05-6.03405E-08 5.10083E-19-3.87493E-18
 -1      1451 9.51510E-05-2.85425E-05-2.85461E-05-8.37693E-09-7.10344E-19-3.55676E-18
 -1      1452 9.51455E-05-2.85415E-05-2.85442E-05-6.56800E-09-1.24883E-18-5.00216E-18
 -1      1453 9.51997E-05-2.85546E-05-2.85630E-05-2.91115E-08-4.98012E-19-2.91424E-18
 -1      1454 9.51383E-05-2.85396E-05-2.85420E-05 4.74470E-10-5.87372E-19-4.82035E-18
 -1      1455 9.51404E-05-2.85408E-05-2.85424E-05 1.62479E-09 2.00471E-19-5.36320E-18
 -1      1456 9.51762E-05-2.85494E-05-2.85549E-05-7.81149E-09-1.18778E-18-3.02260E-18
 -1      1457 9.51396E-05-2.85407E-05-2.85422E-05 6.08512E-09 1.50488E-18-4.76918E-18
 -1      1458 9.51465E-05-2.85432E-05-2.85441E-05 6.76465E-09 1.78129E-18-2.87544E-18
 -1      1459 9.51680E-05-2.85483E-05-2.85517E-05 6.12515E-09 1.36752E-18-2.50117E-18
 -1      1460 9.51497E-05-2.85442E-05-2.85451E-05 9.35870E-09 1.03907E-18-1.63859E-18
 -1      1461 9.51593E-05-2.85475E-05-2.85478E-05 9.70479E-09 9.35541E-19-7.45425E-19
 -1      1462 9.51701E-05-2.85498E-05-2.85518E-05 1.46948E-08 2.80072E-18-1.20434E-18
 -1      1463 9.51649E-05-2.85492E-05-2.85495E-05 1.09424E-08 3.96287E-19-6.60793E-19
 -1      1464 9.51758E-05-2.85527E-05-2.85526E-05 1.10467E-08 5.89401E-19-4.98663E-19
 -1      1465 9.51784E-05-2.85530E-05-2.85539E-05 1.93748E-08 1.49062E-18 4.91121E-20
 -1      1466 9.51824E-05-2.85547E-05-2.85547E-05 1.12479E-08 5.21068E-19-2.86845E-19
 -1      1467 9.51933E-05-2.85583E-05-2.85578E-05 1.11584E-08 5.12828E-19 4.33507E-19
 -1      1468 9.51902E-05-2.85571E-05-2.85571E-05 2.11696E-08 4.27599E-19 2.91735E-19
 -1      1469 9.52001E-05-2.85603E-05-2.85599E-05 1.04605E-08 1.17419E-19-8.21164E-19
 -1      1470 9.52101E-05-2.85636E-05-2.85627E-05 1.01762E-08 9.93565E-20-6.08852E-19
 -1      1471 9.52033E-05-2.85615E-05-2.85608E-05 2.06425E-08-1.28252E-19-1.74377E-19
 -1      1472 9.52162E-05-2.85655E-05-2.85646E-05 8.54482E-09 1.49883E-19-1.07849E-18
 -1      1473 9.52241E-05-2.85681E-05-2.85668E-05 8.00178E-09 1.69437E-19-4.03482E-19
 -1      1474 9.52160E-05-2.85658E-05-2.85643E-05 1.79204E-08-1.26174E-19-1.33070E-18
 -1      1475 9.52289E-05-2.85697E-05-2.85681E-05 5.26545E-09-2.30397E-19-3.68112E-19
 -1      1476 9.52335E-05-2.85712E-05-2.85695E-05 4.46814E-09-5.20372E-19-3.76619E-19
 -1      1477 9.52268E-05-2.85698E-05-2.85671E-05 1.28543E-08 4.68181E-20-1.42091E-18
 -1      1478 9.52369E-05-2.85718E-05-2.85707E-05 2.88463E-10-3.63628E-19-2.96669E-19
 -1      1479 9.52354E-05-2.85729E-05-2.85695E-05 4.54959E-09 6.64463E-20-5.74067E-19
 -1      1480 9.98156E-05-2.93537E-05-3.07114E-05 2.17745E-06 2.04516E-18 1.66834E-17
 -1      1481 1.04812E-04-3.00774E-05-3.28313E-05 3.59787E-06 1.75325E-18 1.97825E-17
 -1      1482 1.04811E-04-2.75916E-05-3.34160E-05 1.11565E-05 3.41862E-18 1.29371E-17
 -1      1483 9.68894E-05-2.88737E-05-2.92171E-05 3.08359E-07 1.43076E-18 1.27994E-17
 -1      1484 9.79298E-05-2.87552E-05-2.98519E-05 6.47940E-07 1.44878E-18 1.51702E-17
 -1      1485 1.00261E-04-2.91781E-05-3.06667E-05 3.28750E-06 3.04440E-18 1.01504E-17
 -1      1486 9.69110E-05-2.89837E-05-2.90948E-05-6.58477E-07 9.83829E-19 9.88874E-18
 -1      1487 9.65099E-05-2.86854E-05-2.90560E-05-4.45545E-07 9.92054E-19 1.16207E-17
 -1      1488 9.83346E-05-2.91227E-05-2.97180E-05 1.03021E-07 2.25929E-18 7.72478E-18
 -1      1489 9.86467E-05-2.95266E-05-2.96074E-05-1.28217E-06 6.52483E-19 7.88024E-18
 -1      1490 9.74443E-05-2.90699E-05-2.92611E-05-1.11711E-06 6.74427E-19 9.05772E-18
 -1      1491 9.85906E-05-2.93542E-05-2.97007E-05-1.58803E-06 1.53474E-18 6.02018E-18
 -1      1492 1.01563E-04-3.04060E-05-3.04917E-05-1.76945E-06 4.29624E-19 6.78902E-18
 -1      1493 9.97894E-05-2.98012E-05-2.99644E-05-1.62188E-06 4.18663E-19 7.43703E-18
 -1      1494 1.00262E-04-2.99066E-05-3.01830E-05-2.73733E-06 9.81645E-19 4.93618E-18
 -1      1495 1.05402E-04-3.15660E-05-3.16463E-05-2.17613E-06 3.03630E-19 6.04903E-18
 -1      1496 1.03162E-04-3.08263E-05-3.09836E-05-2.03817E-06 2.78158E-19 6.47337E-18
 -1      1497 1.02952E-04-3.07388E-05-3.09839E-05-3.63889E-06 5.77789E-19 4.27670E-18
 -1      1498 1.09941E-04-3.29529E-05-3.29968E-05-2.47466E-06 4.44864E-19 5.19438E-18
 -1      1499 1.07340E-04-3.21047E-05-3.22348E-05-2.35686E-06 3.53385E-19 5.79032E-18
 -1      1500 1.06415E-04-3.18119E-05-3.20077E-05-4.34521E-06 6.11956E-19 3.54116E-18
 -1      1501 1.14836E-04-3.44788E-05-3.44284E-05-2.55773E-06 3.42235E-19 4.30796E-18
 -1      1502 1.12069E-04-3.35835E-05-3.36312E-05-2.49385E-06 4.31865E-19 5.02095E-18
 -1      1503 1.10402E-04-3.30832E-05-3.31626E-05-4.75130E-06 7.06185E-19 3.21783E-18
 -1      1504 1.19456E-04-3.59718E-05-3.57376E-05-2.22883E-06 5.39692E-19 3.27442E-18
 -1      1505 1.16905E-04-3.51573E-05-3.50254E-05-2.28297E-06 3.61710E-19 3.92510E-18
 -1      1506 1.14547E-04-3.44788E-05-3.43154E-05-4.59595E-06 7.22393E-19 2.52162E-18
 -1      1507 1.22756E-04-3.71214E-05-3.66061E-05-1.22769E-06 1.12258E-19 3.10076E-18
 -1      1508 1.21069E-04-3.66122E-05-3.61711E-05-1.49049E-06 2.02626E-19 3.14887E-18
 -1      1509 1.18247E-04-3.58491E-05-3.52658E-05-3.47481E-06 4.66900E-19 2.07256E-18
 -1      1510 1.23306E-04-3.74522E-05-3.66399E-05 6.36549E-07 3.19417E-19 2.91088E-18
 -1      1511 1.23369E-04-3.75654E-05-3.67209E-05 8.75604E-08-1.29053E-19 2.91814E-18
 -1      1512 1.20608E-04-3.69077E-05-3.57559E-05-9.69595E-07 7.48036E-20 2.39353E-18
 -1      1513 1.19729E-04-3.64158E-05-3.55361E-05 3.16800E-06 2.07788E-21 2.95466E-18
 -1      1514 1.22361E-04-3.74554E-05-3.63118E-05 2.37477E-06 1.51764E-19 2.97219E-18
 -1      1515 1.20536E-04-3.71820E-05-3.55486E-05 2.97299E-06 9.89440E-20 2.32092E-18
 -1      1516 1.11779E-04-3.37619E-05-3.33694E-05 5.38823E-06-2.19593E-19 3.59354E-18
 -1      1517 1.17023E-04-3.57385E-05-3.47765E-05 4.64706E-06-3.22270E-19 2.90199E-18
 -1      1518 1.17185E-04-3.61025E-05-3.45843E-05 7.39356E-06-2.51675E-19 2.57424E-18
 -1      1519 1.01701E-04-3.01699E-05-3.08150E-05 5.67462E-06 2.08777E-19 3.02232E-18
 -1      1520 1.08019E-04-3.24629E-05-3.24120E-05 5.48556E-06 2.68602E-19 3.19501E-18
 -1      1521 1.10901E-04-3.34640E-05-3.31349E-05 9.97347E-06 1.90290E-19 2.04828E-18
 -1      1522 9.41238E-05-2.73552E-05-2.90043E-05 3.02031E-06 5.37270E-19 1.81090E-18
 -1      1523 9.86058E-05-2.88197E-05-3.00784E-05 3.69829E-06 5.95716E-19 2.53252E-18
 -1      1524 1.04067E-04-3.01864E-05-3.17989E-05 8.18631E-06 8.74085E-19 1.36102E-18
 -1      1525 9.35603E-05-2.71629E-05-2.88621E-05-1.56692E-06 5.03085E-19 1.47410E-19
 -1      1526 9.35818E-05-2.68355E-05-2.88573E-05-3.19309E-07 3.58507E-19 6.71353E-19
 -1      1527 1.00384E-04-2.81535E-05-3.12080E-05 1.76949E-06 1.10387E-18-2.83544E-19
 -1      1528 1.00521E-04-2.97754E-05-3.04950E-05-5.24103E-06 6.53605E-19-1.89460E-18
 -1      1529 9.59940E-05-2.78363E-05-2.93951E-05-4.21162E-06 7.34894E-19-6.24475E-19
 -1      1530 1.02326E-04-2.90038E-05-3.16491E-05-5.83876E-06 1.43996E-18-2.28977E-18
 -1      1531 1.11028E-04-3.35342E-05-3.31017E-05-6.03467E-06-1.05894E-19-2.67842E-18
 -1      1532 1.04474E-04-3.11213E-05-3.14533E-05-5.73418E-06 3.10102E-19-2.03786E-18
 -1      1533 1.08741E-04-3.21462E-05-3.29284E-05-1.01113E-05 9.17720E-19-2.41047E-18
 -1      1534 1.20102E-04-3.65532E-05-3.55521E-05-4.33426E-06-1.15918E-19-2.58631E-18
 -1      1535 1.14506E-04-3.47498E-05-3.40608E-05-4.65654E-06-7.27654E-20-2.34395E-18
 -1      1536 1.15988E-04-3.54762E-05-3.44936E-05-9.45336E-06 2.28831E-20-2.50031E-18
 -1      1537 1.24996E-04-3.79898E-05-3.70608E-05-1.75947E-06-1.01964E-18-1.41436E-18
 -1      1538 1.21969E-04-3.72052E-05-3.61763E-05-2.31594E-06-7.62475E-19-2.13050E-18
 -1      1539 1.20980E-04-3.74344E-05-3.57495E-05-5.64662E-06-8.90258E-19-1.28540E-18
 -1      1540 1.25602E-04-3.79920E-05-3.74121E-05 3.97745E-07-1.20848E-19-6.64522E-19
 -1      1541 1.25163E-04-3.80673E-05-3.72226E-05-8.34834E-08-3.60518E-20-5.15420E-19
 -1      1542 1.22656E-04-3.77797E-05-3.63210E-05-1.32362E-06-1.01723E-18-6.38514E-19
 -1      1543 1.23209E-04-3.70985E-05-3.68568E-05 1.68357E-06 1.06336E-19-1.12044E-18
 -1      1544 1.24547E-04-3.76786E-05-3.71842E-05 1.38313E-06-3.16843E-20-9.68853E-19
 -1      1545 1.21526E-04-3.70519E-05-3.61652E-05 1.88749E-06 2.45587E-19-5.55773E-19
 -1      1546 1.19290E-04-3.58056E-05-3.57841E-05 2.20454E-06 2.76202E-19-1.09540E-18
 -1      1547 1.21503E-04-3.65845E-05-3.63913E-05 2.06673E-06-4.02126E-20-1.15206E-18
 -1      1548 1.18660E-04-3.58412E-05-3.54728E-05 3.62549E-06 7.13857E-20-1.24189E-18
 -1      1549 1.14946E-04-3.44423E-05-3.45295E-05 2.23200E-06-1.65238E-19-8.82635E-19
 -1      1550 1.17379E-04-3.52295E-05-3.52238E-05 2.20105E-06 1.91329E-20-1.14537E-18
 -1      1551 1.15041E-04-3.45288E-05-3.44958E-05 4.19574E-06 6.53473E-22-1.30986E-18
 -1      1552 1.10827E-04-3.31842E-05-3.33083E-05 2.00660E-06-3.17042E-20-3.74442E-19
 -1      1553 1.13106E-04-3.38865E-05-3.39724E-05 2.03289E-06 9.24027E-20-2.45322E-19
 -1      1554 1.11347E-04-3.33055E-05-3.34435E-05 4.05300E-06-4.84875E-19-6.11134E-19
 -1      1555 1.07237E-04-3.21051E-05-3.22288E-05 1.68639E-06-2.31879E-19 4.11909E-19
 -1      1556 1.09197E-04-3.26902E-05-3.28071E-05 1.73698E-06-6.12236E-19-2.51542E-19
 -1      1557 1.07959E-04-3.22470E-05-3.24484E-05 3.56431E-06-2.77678E-19-4.05931E-19
 -1      1558 1.04266E-04-3.12209E-05-3.13288E-05 1.35816E-06 1.76272E-19-3.56316E-19
 -1      1559 1.05867E-04-3.16880E-05-3.18046E-05 1.41456E-06 5.05328E-19 3.27233E-19
 -1      1560 1.05044E-04-3.13701E-05-3.15767E-05 2.96233E-06 3.23649E-19-9.27187E-20
 -1      1561 1.01892E-04-3.05187E-05-3.06068E-05 1.06215E-06 2.03252E-19-8.24563E-19
 -1      1562 1.03156E-04-3.08811E-05-3.09840E-05 1.11530E-06-4.06175E-19-1.25326E-18
 -1      1563 1.02641E-04-3.06645E-05-3.08500E-05 2.37193E-06 1.17427E-19-5.86565E-19
 -1      1564 1.00043E-04-2.99739E-05-3.00431E-05 8.12410E-07 2.67815E-19-1.21940E-18
 -1      1565 1.01016E-04-3.02490E-05-3.03343E-05 8.58648E-07 5.92261E-19-4.63009E-19
 -1      1566 1.00719E-04-3.01089E-05-3.02645E-05 1.84914E-06 2.50831E-19-1.69502E-18
 -1      1567 9.86324E-05-2.95592E-05-2.96123E-05 6.09926E-07 3.09481E-19-2.71879E-18
 -1      1568 9.93663E-05-2.97642E-05-2.98325E-05 6.48369E-07 6.72102E-19-1.73828E-18
 -1      1569 9.92171E-05-2.96792E-05-2.98047E-05 1.41172E-06 9.13143E-19-1.60216E-18
 -1      1570 9.75746E-05-2.92491E-05-2.92890E-05 4.50025E-07-2.10913E-19-3.06451E-18
 -1      1571 9.81184E-05-2.93992E-05-2.94525E-05 4.81076E-07-5.17062E-20-2.94245E-18
 -1      1572 9.80652E-05-2.93524E-05-2.94509E-05 1.05841E-06 6.39467E-19-1.76962E-18
 -1      1573 9.67951E-05-2.90210E-05-2.90507E-05 3.26163E-07 4.72866E-20-1.79717E-18
 -1      1574 9.71911E-05-2.91290E-05-2.91699E-05 3.50736E-07-2.46439E-19-3.07712E-18
 -1      1575 9.71973E-05-2.91076E-05-2.91836E-05 7.79862E-07-7.41436E-19-1.81339E-18
 -1      1576 9.62312E-05-2.88563E-05-2.88781E-05 2.31719E-07-1.44671E-19-2.24653E-18
 -1      1577 9.65140E-05-2.89324E-05-2.89634E-05 2.50856E-07-5.41803E-23-2.27837E-18
 -1      1578 9.65544E-05-2.89273E-05-2.89850E-05 5.64265E-07 3.73061E-19-2.82715E-18
 -1      1579 9.58316E-05-2.87399E-05-2.87556E-05 1.60735E-07-1.13133E-19-2.80601E-18
 -1      1580 9.60291E-05-2.87922E-05-2.88153E-05 1.75432E-07-1.44941E-19-2.71622E-18
 -1      1581 9.60868E-05-2.87970E-05-2.88401E-05 3.99960E-07-3.43032E-20-3.59529E-18
 -1      1582 9.55554E-05-2.86597E-05-2.86709E-05 1.08147E-07 2.67818E-19-3.34336E-18
 -1      1583 9.56895E-05-2.86945E-05-2.87115E-05 1.19283E-07 2.84216E-19-2.75246E-18
 -1      1584 9.57536E-05-2.87047E-05-2.87366E-05 2.76542E-07 4.38763E-19-3.57411E-18
 -1      1585 9.53706E-05-2.86063E-05-2.86140E-05 6.97835E-08 8.96693E-19-4.40976E-18
 -1      1586 9.54582E-05-2.86284E-05-2.86407E-05 7.81078E-08 5.69963E-19-3.72027E-18
 -1      1587 9.55219E-05-2.86412E-05-2.86643E-05 1.85185E-07 6.46804E-19-2.90120E-18
 -1      1588 9.52524E-05-2.85724E-05-2.85776E-05 4.22782E-08-7.23363E-19-4.25418E-18
 -1      1589 9.53066E-05-2.85854E-05-2.85942E-05 4.84118E-08-3.40718E-19-4.51719E-18
 -1      1590 9.53658E-05-2.85988E-05-2.86153E-05 1.18619E-07-6.00024E-20-3.03124E-18
 -1      1591 9.51820E-05-2.85523E-05-2.85557E-05 2.29536E-08-7.16204E-19-2.76994E-18
 -1      1592 9.52125E-05-2.85591E-05-2.85652E-05 2.74031E-08-6.88511E-19-4.15644E-18
 -1      1593 9.52650E-05-2.85719E-05-2.85835E-05 7.09706E-08-7.15182E-19-2.88526E-18
 -1      1594 9.51449E-05-2.85420E-05-2.85441E-05 9.70633E-09 8.18403E-19-1.50915E-18
 -1      1595 9.51591E-05-2.85445E-05-2.85487E-05 1.28792E-08-4.23960E-19-2.22989E-18
 -1      1596 9.52042E-05-2.85561E-05-2.85640E-05 3.75657E-08-8.14668E-19-2.79272E-18
 -1      1597 9.51306E-05-2.85383E-05-2.85395E-05 9.05149E-10-2.10251E-19-3.19821E-18
 -1      1598 9.51339E-05-2.85380E-05-2.85407E-05 3.12481E-09 4.71921E-19-1.48533E-18
 -1      1599 9.51714E-05-2.85481E-05-2.85533E-05 1.47330E-08 4.69504E-19-4.84861E-19
 -1      1600 9.51315E-05-2.85389E-05-2.85395E-05-4.69483E-09-6.45298E-19-1.62221E-18
 -1      1601 9.51277E-05-2.85369E-05-2.85386E-05-3.17623E-09-7.37658E-19-2.98899E-18
 -1      1602 9.51580E-05-2.85454E-05-2.85486E-05-3.69359E-10-5.87382E-19-1.35025E-18
 -1      1603 9.51418E-05-2.85423E-05-2.85425E-05-8.02205E-09-1.06453E-18-1.52858E-19
 -1      1604 9.51338E-05-2.85392E-05-2.85403E-05-7.01268E-09-3.10233E-19-1.01355E-18
 -1      1605 9.51575E-05-2.85461E-05-2.85480E-05-9.90135E-09-8.31653E-19 6.24201E-19
 -1      1606 9.51577E-05-2.85473E-05-2.85472E-05-9.74264E-09 4.85021E-19 6.76821E-19
 -1      1607 9.51474E-05-2.85437E-05-2.85442E-05-9.10299E-09-2.24572E-19 1.15008E-19
 -1      1608 9.51651E-05-2.85490E-05-2.85499E-05-1.54591E-08-6.22743E-19-4.44874E-19
 -1      1609 9.51762E-05-2.85530E-05-2.85527E-05-1.02973E-08 1.44519E-18-1.44657E-18
 -1      1610 9.51649E-05-2.85492E-05-2.85494E-05-9.93629E-09 1.31298E-18 3.49388E-19
 -1      1611 9.51774E-05-2.85531E-05-2.85534E-05-1.81650E-08 1.45456E-18-1.11181E-18
 -1      1612 9.51951E-05-2.85588E-05-2.85583E-05-9.91880E-09 8.95012E-20-4.66974E-18
 -1      1613 9.51840E-05-2.85552E-05-2.85551E-05-9.79515E-09 1.03051E-18-2.15265E-18
 -1      1614 9.51918E-05-2.85578E-05-2.85575E-05-1.87248E-08 1.95556E-18-1.64013E-18
 -1      1615 9.52126E-05-2.85642E-05-2.85634E-05-8.63545E-09 3.41978E-19-4.84456E-18
 -1      1616 9.52025E-05-2.85610E-05-2.85605E-05-8.76460E-09-2.18681E-19-4.86719E-18
 -1      1617 9.52065E-05-2.85625E-05-2.85617E-05-1.74555E-08 6.23479E-19-1.92659E-18
 -1      1618 9.52265E-05-2.85686E-05-2.85674E-05-6.25553E-09-1.04239E-19-5.52852E-18
 -1      1619 9.52188E-05-2.85662E-05-2.85652E-05-6.74378E-09 6.14955E-19-4.79087E-18
 -1      1620 9.52197E-05-2.85669E-05-2.85654E-05-1.43048E-08 5.16520E-19-2.12845E-18
 -1      1621 9.52349E-05-2.85713E-05-2.85700E-05-2.74503E-09 9.83703E-20-4.53284E-18
 -1      1622 9.52308E-05-2.85702E-05-2.85687E-05-3.57467E-09-4.45514E-19-6.00592E-18
 -1      1623 9.52301E-05-2.85706E-05-2.85682E-05-9.00209E-09 3.24979E-19-1.62995E-18
 -1      1624 9.52369E-05-2.85718E-05-2.85707E-05-4.51536E-10-2.05010E-18-2.50336E-18
 -1      1625 9.52388E-05-2.85795E-05-2.85681E-05-5.36944E-09-4.30118E-19 1.15451E-18
 -1      1626 9.52373E-05-2.85751E-05-2.85695E-05-4.43315E-09-2.42266E-18 2.12165E-18
 -1      1627 9.52429E-05-2.85913E-05-2.85649E-05-7.90809E-09 2.35263E-18 5.08883E-19
 -1      1628 9.52404E-05-2.85842E-05-2.85669E-05-7.55418E-09 7.00820E-19 1.36658E-18
 -1      1629 9.52388E-05-2.85819E-05-2.85672E-05-1.24006E-08 1.29758E-19 2.67368E-18
 -1      1630 9.52474E-05-2.86049E-05-2.85611E-05-8.65907E-09 3.79457E-18 1.08551E-19
 -1      1631 9.52447E-05-2.85968E-05-2.85634E-05-8.65739E-09 3.32555E-18 8.42350E-19
 -1      1632 9.52429E-05-2.85921E-05-2.85646E-05-1.58658E-08 2.16414E-18 1.56415E-18
 -1      1633 9.52516E-05-2.86181E-05-2.85573E-05-8.03840E-09 4.27848E-18-9.11675E-19
 -1      1634 9.52491E-05-2.86104E-05-2.85594E-05-8.26942E-09 4.05506E-18 3.09609E-19
 -1      1635 9.52469E-05-2.86030E-05-2.85617E-05-1.62378E-08 1.94721E-18 1.56518E-19
 -1      1636 9.52551E-05-2.86291E-05-2.85540E-05-6.53768E-09 3.10352E-19-2.31342E-18
 -1      1637 9.52531E-05-2.86229E-05-2.85558E-05-6.89421E-09 3.46848E-18-3.10979E-18
 -1      1638 9.52505E-05-2.86132E-05-2.85589E-05-1.43460E-08 1.03098E-18-2.81120E-18
 -1      1639 9.52576E-05-2.86373E-05-2.85516E-05-4.47418E-09-1.64254E-18 6.08162E-19
 -1      1640 9.52562E-05-2.86329E-05-2.85529E-05-4.91121E-09-9.16925E-19-1.22952E-18
 -1      1641 9.52533E-05-2.86217E-05-2.85565E-05-1.10144E-08 7.50847E-19-3.28529E-18
 -1      1642 9.52590E-05-2.86419E-05-2.85502E-05-2.12896E-09-1.00797E-18 1.32696E-19
 -1      1643 9.52583E-05-2.86396E-05-2.85509E-05-2.59787E-09-2.56077E-18 3.12440E-18
 -1      1644 9.52552E-05-2.86277E-05-2.85548E-05-6.81106E-09-1.47563E-18 1.01434E-18
 -1      1645 9.52592E-05-2.86425E-05-2.85500E-05 3.21015E-10 2.05435E-19 1.31465E-19
 -1      1646 9.52592E-05-2.86426E-05-2.85500E-05-1.54556E-10-4.20759E-19-5.02593E-19
 -1      1647 9.52562E-05-2.86307E-05-2.85539E-05-2.20033E-09-7.66636E-19-4.04177E-20
 -1      1648 9.52582E-05-2.86393E-05-2.85510E-05 2.74459E-09-1.36918E-18-1.42979E-18
 -1      1649 9.52589E-05-2.86417E-05-2.85503E-05 2.28245E-09-1.49735E-19 4.94738E-20
 -1      1650 9.52561E-05-2.86306E-05-2.85539E-05 2.50932E-09 4.73736E-19-5.86612E-19
 -1      1651 9.52560E-05-2.86324E-05-2.85530E-05 5.00999E-09-4.74486E-18-1.49882E-18
 -1      1652 9.52575E-05-2.86369E-05-2.85517E-05 4.58561E-09-2.09566E-18-1.35119E-18
 -1      1653 9.52551E-05-2.86273E-05-2.85549E-05 7.06141E-09-1.16920E-18-2.52461E-18
 -1      1654 9.52529E-05-2.86224E-05-2.85560E-05 6.90918E-09-7.51882E-18 4.88714E-19
 -1      1655 9.52549E-05-2.86286E-05-2.85542E-05 6.56860E-09-5.63271E-18-1.63641E-18
 -1      1656 9.52531E-05-2.86213E-05-2.85566E-05 1.11326E-08-1.98280E-18-3.20990E-18
 -1      1657 9.52489E-05-2.86098E-05-2.85596E-05 8.23832E-09-4.89191E-18 1.56707E-18
 -1      1658 9.52514E-05-2.86175E-05-2.85574E-05 8.02067E-09-7.03251E-18 3.01400E-18
 -1      1659 9.52503E-05-2.86128E-05-2.85590E-05 1.43468E-08-2.58837E-18 2.09929E-18
 -1      1660 9.52445E-05-2.85963E-05-2.85635E-05 8.60305E-09-3.84391E-18 1.86286E-18
 -1      1661 9.52472E-05-2.86043E-05-2.85613E-05 8.58864E-09-4.63365E-18 9.30091E-19
 -1      1662 9.52468E-05-2.86025E-05-2.85619E-05 1.61380E-08-2.16069E-18 1.88569E-18
 -1      1663 9.52404E-05-2.85840E-05-2.85670E-05 7.42306E-09-5.76469E-19 2.10536E-18
 -1      1664 9.52428E-05-2.85909E-05-2.85650E-05 7.77070E-09-3.18994E-18 2.46742E-18
 -1      1665 9.52428E-05-2.85916E-05-2.85647E-05 1.56822E-08-1.33333E-18 2.71364E-18
 -1      1666 9.52371E-05-2.85759E-05-2.85691E-05 6.17267E-09-5.20038E-19-6.40066E-19
 -1      1667 9.52385E-05-2.85802E-05-2.85678E-05 7.53553E-09 1.90774E-19-1.66592E-19
 -1      1668 9.52386E-05-2.85822E-05-2.85669E-05 1.41511E-08-1.94176E-18 2.96954E-18
 -1      1669 9.52336E-05-2.85749E-05-2.85680E-05 1.17758E-08-4.66392E-19-8.99516E-19
 -1      1670 2.06720E-05-6.93518E-05 1.45985E-05-8.47322E-06 1.06527E-17 5.10210E-18
 -1      1671 2.39447E-05-7.79035E-05 1.64002E-05 6.87725E-07 3.62599E-18 3.72102E-18
 -1      1672 2.02771E-05-4.06209E-05 4.31257E-06 2.03797E-06 1.81045E-17 1.21138E-17
 -1      1673 2.46840E-05-6.32265E-05 1.03978E-05-1.59141E-06 1.19084E-17 7.76814E-18
 -1      1674 3.35966E-05-1.29093E-05-1.11787E-05 2.53034E-05 2.11148E-17 1.45397E-17
 -1      1675 2.83527E-05-3.38860E-05-2.55702E-06 7.89023E-06 2.00823E-17 1.18309E-17
 -1      1676 7.54025E-05-3.41933E-06-3.04298E-05 5.78570E-05 1.79969E-17 1.92937E-17
 -1      1677 5.02106E-05-9.47788E-06-2.02363E-05 3.42892E-05 2.02915E-17 1.68534E-17
 -1      1678 1.45860E-04-2.14274E-05-5.02517E-05 7.32045E-05 1.24895E-17 1.88592E-17
 -1      1679 1.02241E-04-8.58386E-06-4.01334E-05 6.05708E-05 1.63223E-17 1.85475E-17
 -1      1680 2.15252E-04-4.75893E-05-6.64701E-05 5.52488E-05 7.93500E-18 1.11563E-17
 -1      1681 1.70107E-04-2.66225E-05-5.86430E-05 6.56833E-05 1.14261E-17 1.58988E-17
 -1      1682 2.60197E-04-6.64450E-05-7.56634E-05 1.97030E-05 4.49076E-18 3.66236E-18
 -1      1683 2.36652E-04-5.36729E-05-7.24827E-05 5.02965E-05 6.43925E-18 1.01517E-17
 -1      1684 2.55490E-04-6.31456E-05-7.54687E-05-3.15795E-05 5.94977E-18-8.41951E-18
 -1      1685 2.64219E-04-6.82020E-05-7.66547E-05 3.37031E-06 4.70146E-18-2.67371E-19
 -1      1686 2.07263E-04-3.96893E-05-6.68400E-05-6.81381E-05 1.01709E-17-1.77106E-17
 -1      1687 2.43986E-04-5.89487E-05-7.22890E-05-4.68019E-05 6.67250E-18-1.21998E-17
 -1      1688 1.37576E-04-1.42394E-05-5.08543E-05-7.22903E-05 1.55337E-17-2.15739E-17
 -1      1689 1.84319E-04-3.31886E-05-5.97583E-05-7.44735E-05 1.17801E-17-1.90108E-17
 -1      1690 7.62746E-05-3.73209E-06-3.20565E-05-5.33933E-05 2.05863E-17-2.11902E-17
 -1      1691 1.11215E-04-8.29651E-06-4.18727E-05-7.26542E-05 1.75505E-17-2.27996E-17
 -1      1692 3.87564E-05-1.73378E-05-1.29187E-05-2.28333E-05 2.14367E-17-1.66374E-17
 -1      1693 5.52203E-05-4.01300E-06-2.26309E-05-4.57505E-05 2.15036E-17-2.01535E-17
 -1      1694 2.52546E-05-4.75377E-05 3.72290E-06-7.03135E-07 1.63164E-17-1.02283E-17
 -1      1695 2.49047E-05-2.28549E-05-4.29094E-06-1.36012E-05 2.06227E-17-1.53029E-17
 -1      1696 2.47338E-05-7.33259E-05 1.40203E-05 3.14638E-06 6.20706E-18-5.70572E-18
 -1      1697 1.91219E-05-5.46346E-05 9.67223E-06 5.74359E-06 1.38185E-17-8.78749E-18
 -1      1698 2.38042E-05-7.83176E-05 1.66339E-05-2.99074E-06-5.55103E-18-4.79675E-18
 -1      1699 2.29800E-05-7.65164E-05 1.62551E-05 6.66737E-06 2.59510E-18-4.81665E-18
 -1      1700 2.00505E-05-6.16929E-05 1.21409E-05-5.33627E-06-1.60267E-17-8.11775E-18
 -1      1701 2.46535E-05-7.60114E-05 1.52584E-05-3.02225E-08-8.88283E-18-5.56310E-18
 -1      1702 2.17965E-05-3.20657E-05 7.12848E-07 8.37319E-06-2.30317E-17-1.39684E-17
 -1      1703 2.49026E-05-5.54328E-05 7.32960E-06 1.13485E-06-1.80714E-17-9.90520E-18
 -1      1704 3.89333E-05-7.16803E-06-1.50465E-05 3.38039E-05-2.47630E-17-1.90125E-17
 -1      1705 3.07677E-05-2.53255E-05-6.49672E-06 1.50810E-05-2.45877E-17-1.53597E-17
 -1      1706 8.05255E-05-1.73856E-06-3.29166E-05 6.28108E-05-2.09734E-17-2.21042E-17
 -1      1707 5.50329E-05-4.43573E-06-2.36149E-05 4.18194E-05-2.40922E-17-2.03068E-17
 -1      1708 1.48275E-04-2.15352E-05-5.09504E-05 7.25656E-05-1.43271E-17-1.90498E-17
 -1      1709 1.07869E-04-8.93857E-06-4.16915E-05 6.24375E-05-1.81316E-17-2.03085E-17
 -1      1710 2.09252E-04-4.29515E-05-6.54905E-05 6.62446E-05-8.60003E-18-1.68161E-17
 -1      1711 1.69014E-04-2.33023E-05-5.90278E-05 7.57571E-05-1.28021E-17-1.97579E-17
 -1      1712 2.49907E-04-6.27893E-05-7.35713E-05 2.73618E-05-5.17707E-18-8.69013E-18
 -1      1713 2.26256E-04-4.95340E-05-7.02355E-05 5.50246E-05-7.30058E-18-1.44055E-17
 -1      1714 2.51087E-04-6.26771E-05-7.44933E-05-2.18326E-05-4.19302E-18 6.22146E-19
 -1      1715 2.54630E-04-6.45986E-05-7.49188E-05 1.11512E-05-3.99948E-18-5.26230E-18
 -1      1716 2.09847E-04-4.17923E-05-6.73536E-05-5.93230E-05-7.08617E-18 9.30974E-18
 -1      1717 2.39384E-04-5.77560E-05-7.17882E-05-3.50083E-05-5.02905E-18 3.13656E-18
 -1      1718 1.50942E-04-1.65653E-05-5.48521E-05-7.61150E-05-1.15277E-17 1.56913E-17
 -1      1719 1.92668E-04-3.59137E-05-6.20670E-05-7.18934E-05-8.05317E-18 1.24378E-17
 -1      1720 9.53898E-05-7.95157E-06-3.74051E-05-5.80676E-05-1.37516E-17 1.52161E-17
 -1      1721 1.31676E-04-1.65528E-05-4.65502E-05-7.14088E-05-1.12808E-17 1.53338E-17
 -1      1722 4.75895E-05-9.53990E-06-1.88642E-05-3.39993E-05-1.82383E-17 1.33645E-17
 -1      1723 6.96180E-05-2.48826E-06-2.84684E-05-5.61933E-05-1.61478E-17 1.55990E-17
 -1      1724 2.69336E-05-3.33235E-05-2.00556E-06-8.89619E-06-1.68483E-17 1.03249E-17
 -1      1725 3.10192E-05-1.23179E-05-1.02140E-05-2.52141E-05-1.85441E-17 1.30655E-17
 -1      1726 2.38869E-05-6.13332E-05 1.00200E-05 7.39008E-07-1.01170E-17 6.01785E-18
 -1      1727 1.92308E-05-3.99924E-05 4.54706E-06-1.87326E-06-1.53160E-17 9.63140E-18
 -1      1728 2.34436E-05-7.47705E-05 1.56644E-05-3.21106E-06 3.85824E-19 4.35206E-18
 -1      1729 2.02557E-05-6.45145E-05 1.33860E-05 3.92253E-06-6.84699E-18 6.04231E-18
 -1      1730 1.18252E-04-3.44210E-05-3.49185E-05 4.32133E-05 1.09945E-17 1.11851E-17
 -1      1731 7.18659E-05-3.57999E-05-1.69492E-05 3.75975E-05 1.21414E-17 1.03524E-17
 -1      1732 9.52363E-05-2.85726E-05-2.85700E-05-2.77089E-09-2.89537E-18 1.86451E-19
 -1      1733 9.52354E-05-2.85747E-05-2.85688E-05-7.63454E-09-6.60730E-19 2.46187E-18
 -1      1734 1.87315E-05-4.89712E-05 8.70899E-06 1.28006E-05 6.56239E-18 8.98194E-18
 -1      1735 3.93701E-05-4.29186E-05-1.69656E-06 2.59858E-05 9.31652E-18 9.72203E-18
 -1      1736 1.17191E-05-5.04339E-05 1.20302E-05-2.80753E-06 1.55701E-18 8.23485E-18
 -1      1737 1.64073E-04-3.59160E-05-5.20023E-05 3.33290E-05 1.00030E-17 8.03580E-18
 -1      1738 1.97578E-04-3.52778E-05-6.53680E-05 1.99871E-05 8.98871E-18 4.93990E-18
 -1      1739 2.20399E-04-3.79463E-05-7.21635E-05 4.88496E-06 8.79220E-18 1.04831E-18
 -1      1740 2.14283E-04-3.71934E-05-7.00972E-05-1.84046E-05 9.44484E-18-5.42313E-18
 -1      1741 1.85103E-04-3.46073E-05-6.02812E-05-3.50483E-05 1.00444E-17-9.36480E-18
 -1      1742 1.43232E-04-3.29379E-05-4.50904E-05-4.45018E-05 1.12969E-17-1.20448E-17
 -1      1743 9.67850E-05-3.29437E-05-2.75185E-05-4.36821E-05 1.22591E-17-1.30926E-17
 -1      1744 5.70176E-05-3.83990E-05-1.02979E-05-3.33941E-05 1.10639E-17-1.22680E-17
 -1      1745 2.89026E-05-4.66240E-05 3.62791E-06-1.96360E-05 7.42467E-18-1.09869E-17
 -1      1746 1.49338E-05-5.28486E-05 1.14254E-05-6.45356E-06 1.95114E-18-9.55538E-18
 -1      1747 1.30611E-05-5.28848E-05 1.22096E-05 5.60868E-06-4.41664E-18-9.62399E-18
 -1      1748 2.34531E-05-4.75173E-05 6.30810E-06 1.87898E-05-9.70064E-18-1.11385E-17
 -1      1749 4.54366E-05-3.99172E-05-5.06627E-06 3.13799E-05-1.33340E-17-1.22278E-17
 -1      1750 7.71019E-05-3.21467E-05-2.00749E-05 4.20859E-05-1.53736E-17-1.29520E-17
 -1      1751 1.21083E-04-3.21138E-05-3.67776E-05 4.47407E-05-1.33416E-17-1.22566E-17
 -1      1752 1.60728E-04-3.29021E-05-5.23157E-05 3.78168E-05-1.12111E-17-1.10521E-17
 -1      1753 1.95232E-04-3.31051E-05-6.46687E-05 3.07961E-05-9.51747E-18-9.85946E-18
 -1      1754 2.13037E-04-3.54354E-05-7.04839E-05 9.74954E-06-8.02225E-18-4.88823E-18
 -1      1755 2.06936E-04-3.36516E-05-6.91632E-05-1.24096E-05-7.75162E-18-1.02915E-19
 -1      1756 1.84867E-04-3.11765E-05-6.16629E-05-3.25868E-05-8.32252E-18 4.10049E-18
 -1      1757 1.50804E-04-3.23502E-05-4.85136E-05-4.02762E-05-7.72769E-18 6.83386E-18
 -1      1758 1.11789E-04-3.37631E-05-3.25997E-05-4.37922E-05-8.39579E-18 7.71139E-18
 -1      1759 6.80546E-05-3.39701E-05-1.58199E-05-3.94772E-05-9.50879E-18 8.17006E-18
 -1      1760 3.67599E-05-4.11685E-05-1.29667E-06-2.70304E-05-7.81981E-18 9.01804E-18
 -1      1761 1.84768E-05-4.71539E-05 8.16694E-06-1.49443E-05-3.53255E-18 8.85467E-18
 -1      1762 1.07742E-04-2.37942E-05-3.60718E-05-1.54824E-05-2.96292E-18 1.11912E-17
 -1      1763 9.03646E-05-1.07910E-05-3.42341E-05-1.06036E-05-3.62340E-18-4.12476E-18
 -1      1764 9.21282E-05-1.20315E-05-3.44577E-05-1.24764E-05-4.21813E-18-2.94767E-18
 -1      1765 9.45062E-05-1.45130E-05-3.44467E-05-1.35369E-05-4.23769E-18-1.40496E-18
 -1      1766 9.64910E-05-1.66164E-05-3.47107E-05-1.53534E-05-4.55333E-18 7.62118E-19
 -1      1767 9.53476E-05-1.68786E-05-3.36394E-05-1.10862E-05-4.44424E-18-1.87771E-18
 -1      1768 8.53097E-05-6.83480E-06-3.37064E-05-5.37423E-06-1.98527E-18-6.26669E-18
 -1      1769 8.62272E-05-7.32952E-06-3.38610E-05-6.61932E-06-2.39292E-18-6.00431E-18
 -1      1770 8.36903E-05-5.69786E-06-3.34850E-05-3.30240E-06-1.11452E-18-6.48555E-18
 -1      1771 8.43831E-05-6.05245E-06-3.36069E-05-4.35512E-06-1.56477E-18-6.42918E-18
 -1      1772 8.62012E-05-8.56924E-06-3.32975E-05-4.42222E-06-1.97007E-18-6.15212E-18
 -1      1773 8.25805E-05-4.93229E-06-3.33272E-05-1.54970E-06-2.56615E-19-6.45728E-18
 -1      1774 8.30339E-05-5.16006E-06-3.34072E-05-2.44742E-06-6.84710E-19-6.48619E-18
 -1      1775 8.45188E-05-7.26609E-06-3.31330E-05-2.57752E-06-9.38104E-19-6.27275E-18
 -1      1776 8.20129E-05-4.52290E-06-3.32520E-05-1.38947E-08 4.90436E-19-6.38061E-18
 -1      1777 8.22063E-05-4.62421E-06-3.32830E-05-8.18369E-07 1.44610E-19-6.44960E-18
 -1      1778 8.34189E-05-6.42826E-06-3.30181E-05-1.01104E-06-6.79682E-20-6.26329E-18
 -1      1779 8.20362E-05-4.48873E-06-3.32717E-05 1.43044E-06 1.21787E-18-6.24009E-18
 -1      1780 8.19467E-05-4.45477E-06-3.32491E-05 6.50687E-07 8.67060E-19-6.32556E-18
 -1      1781 8.29455E-05-6.05398E-06-3.29737E-05 3.66727E-07 7.40726E-19-6.21438E-18
 -1      1782 8.26880E-05-4.86261E-06-3.33889E-05 2.92806E-06 1.96642E-18-5.95986E-18
 -1      1783 8.23011E-05-4.68058E-06-3.33124E-05 2.09738E-06 1.61218E-18-6.15619E-18
 -1      1784 8.31517E-05-6.17432E-06-3.30098E-05 1.67650E-06 1.51662E-18-5.99910E-18
 -1      1785 8.39573E-05-5.66505E-06-3.35913E-05 4.60421E-06 2.74014E-18-5.47729E-18
 -1      1786 8.32836E-05-5.32906E-06-3.34677E-05 3.65952E-06 2.36284E-18-5.76995E-18
 -1      1787 8.40658E-05-6.82495E-06-3.31233E-05 3.04536E-06 2.32480E-18-5.66883E-18
 -1      1788 8.59037E-05-6.98938E-06-3.38678E-05 6.67150E-06 3.59446E-18-4.59740E-18
 -1      1789 8.49102E-05-6.45470E-06-3.36998E-05 5.49462E-06 3.13439E-18-5.10786E-18
 -1      1790 8.57064E-05-8.06147E-06-3.32986E-05 4.62334E-06 3.16449E-18-5.04556E-18
 -1      1791 8.85902E-05-8.98760E-06-3.41900E-05 9.23727E-06 4.35473E-18-3.16751E-18
 -1      1792 8.72366E-05-8.17527E-06-3.39858E-05 7.75372E-06 3.89726E-18-4.03701E-18
 -1      1793 8.81247E-05-9.99993E-06-3.35052E-05 6.53084E-06 3.95365E-18-4.01860E-18
 -1      1794 9.23145E-05-1.21091E-05-3.45169E-05 1.23071E-05 4.88521E-18-6.06290E-19
 -1      1795 9.04046E-05-1.07552E-05-3.42821E-05 1.04723E-05 4.51899E-18-2.12521E-18
 -1      1796 9.14182E-05-1.28609E-05-3.36815E-05 8.75065E-06 4.68997E-18-2.34911E-18
 -1      1797 9.82836E-05-1.78001E-05-3.46793E-05 1.50812E-05 4.75288E-18 4.10536E-18
 -1      1798 9.50067E-05-1.49343E-05-3.44948E-05 1.33761E-05 4.73569E-18 1.27899E-18
 -1      1799 9.59244E-05-1.72543E-05-3.37037E-05 1.08124E-05 5.02436E-18 5.18755E-19
 -1      1800 1.04405E-04-2.59322E-05-3.40488E-05 1.24023E-05 4.05485E-18 9.88371E-18
 -1      1801 1.00601E-04-2.04786E-05-3.43402E-05 1.46124E-05 4.42744E-18 6.12617E-18
 -1      1802 1.00043E-04-2.26577E-05-3.32277E-05 1.05800E-05 4.91419E-18 4.14241E-18
 -1      1803 1.01790E-04-2.70842E-05-3.22143E-05 7.40774E-06 4.16219E-18 8.61054E-18
 -1      1804 1.02354E-04-2.03862E-05-3.48217E-05-1.69603E-05-3.96463E-18 4.55683E-18
 -1      1805 9.95050E-05-2.84544E-05-3.04636E-05 1.89810E-06 3.21693E-18 6.65855E-18
 -1      1806 1.01229E-04-2.83898E-05-3.12502E-05 4.31839E-06 3.51037E-18 7.85605E-18
 -1      1807 1.00874E-04-2.65701E-05-3.18459E-05 6.24906E-06 4.13445E-18 5.34629E-18
 -1      1808 1.02153E-04-2.33316E-05-3.35056E-05-1.23666E-05-4.24075E-18 3.00612E-18
 -1      1809 1.00247E-04-2.79368E-05-3.08736E-05-3.64094E-06-3.34970E-18 2.45323E-18
 -1      1810 9.90060E-05-2.81267E-05-3.03388E-05-1.79913E-06-2.90929E-18 1.53443E-18
 -1      1811 9.85850E-05-2.84191E-05-2.99742E-05-2.10807E-07-2.53980E-18 1.41795E-18
 -1      1812 9.84308E-05-2.86740E-05-2.98518E-05 7.22583E-07-2.28091E-18 6.08904E-19
 -1      1813 9.90525E-05-2.74927E-05-3.06970E-05-1.74997E-06-3.22371E-18-1.36536E-19
 -1      1814 9.83853E-05-2.88677E-05-2.97345E-05 1.66830E-06-1.96138E-18 5.44546E-19
 -1      1815 9.87574E-05-2.91502E-05-2.98042E-05 2.18374E-06-1.65447E-18 2.07986E-20
 -1      1816 9.87296E-05-2.84003E-05-3.01673E-05 1.15511E-06-2.50978E-18-4.87620E-19
 -1      1817 9.90304E-05-2.93723E-05-2.98227E-05 2.71937E-06-1.48689E-18-6.35076E-20
 -1      1818 9.97052E-05-2.97112E-05-2.99865E-05 2.96482E-06-1.31544E-18-4.48147E-19
 -1      1819 9.90650E-05-2.90691E-05-3.00198E-05 2.85131E-06-1.83329E-18-8.08122E-19
 -1      1820 1.00206E-04-2.99918E-05-3.00772E-05 3.17888E-06-1.12767E-18-4.08286E-19
 -1      1821 1.01008E-04-3.03737E-05-3.02764E-05 3.18563E-06-9.58523E-19-9.04578E-19
 -1      1822 9.99161E-05-2.97616E-05-3.00825E-05 3.72527E-06-1.41422E-18-8.90455E-19
 -1      1823 1.01645E-04-3.07126E-05-3.03946E-05 3.08367E-06-8.89588E-19-8.21986E-19
 -1      1824 1.02413E-04-3.11049E-05-3.05813E-05 2.83233E-06-7.44575E-19-8.47008E-19
 -1      1825 1.01121E-04-3.05630E-05-3.02491E-05 3.88658E-06-1.04149E-18-1.02267E-18
 -1      1826 1.03090E-04-3.14807E-05-3.06914E-05 2.38117E-06-7.58323E-19-6.97047E-19
 -1      1827 1.03657E-04-3.18278E-05-3.08199E-05 1.84064E-06-8.40485E-19-7.49763E-19
 -1      1828 1.02501E-04-3.14731E-05-3.04435E-05 3.30829E-06-8.18194E-19-7.81137E-19
 -1      1829 1.04257E-04-3.21891E-05-3.08939E-05 1.01198E-06-9.84136E-19-7.37518E-19
 -1      1830 1.04450E-04-3.24042E-05-3.09236E-05 1.82024E-07-7.65748E-19-8.48125E-19
 -1      1831 1.03845E-04-3.24120E-05-3.06088E-05 1.92225E-06-9.37146E-19-8.40147E-19
 -1      1832 1.04829E-04-3.26559E-05-3.09441E-05-9.87914E-07-6.14933E-19-8.78935E-19
 -1      1833 1.04494E-04-3.26242E-05-3.08482E-05-2.02212E-06-4.40570E-19-1.22016E-18
 -1      1834 1.04885E-04-3.31924E-05-3.07088E-05-2.70015E-07-8.91492E-19-4.43635E-19
 -1      1835 1.04485E-04-3.26311E-05-3.08133E-05-3.35976E-06-5.76767E-19-1.67335E-18
 -1      1836 1.03551E-04-3.22412E-05-3.05921E-05-4.37858E-06-6.47911E-19-1.95982E-18
 -1      1837 1.05287E-04-3.35070E-05-3.07345E-05-3.05122E-06-9.15292E-19-9.45342E-19
 -1      1838 1.03028E-04-3.18736E-05-3.05181E-05-5.52351E-06-4.92715E-19-1.85567E-18
 -1      1839 1.01586E-04-3.10922E-05-3.02096E-05-6.17387E-06-3.47676E-19-1.95812E-18
 -1      1840 1.04731E-04-3.29973E-05-3.07066E-05-5.84622E-06-6.98769E-19-1.41157E-18
 -1      1841 1.00572E-04-3.03310E-05-3.01252E-05-6.62695E-06-1.64549E-19-2.06593E-18
 -1      1842 9.89313E-05-2.92992E-05-2.98032E-05-6.53153E-06-1.00878E-19-1.73663E-18
 -1      1843 1.03088E-04-3.14650E-05-3.06659E-05-7.70049E-06-3.11296E-19-1.20709E-18
 -1      1844 9.77234E-05-2.83554E-05-2.97373E-05-5.87514E-06-4.02162E-19-2.06519E-18
 -1      1845 9.63779E-05-2.74202E-05-2.94918E-05-4.85813E-06-7.57598E-19-2.14799E-18
 -1      1846 1.00691E-04-2.91722E-05-3.06487E-05-7.55360E-06-4.96829E-19-1.19980E-18
 -1      1847 9.55090E-05-2.67184E-05-2.94618E-05-3.08681E-06-1.10554E-18-2.65998E-18
 -1      1848 9.49508E-05-2.62940E-05-2.93684E-05-1.38073E-06-7.60358E-19-3.00917E-18
 -1      1849 9.84337E-05-2.69695E-05-3.06634E-05-4.87099E-06-1.13849E-18-2.21741E-18
 -1      1850 9.48931E-05-2.62230E-05-2.93800E-05 9.35130E-07-5.09464E-19-3.64180E-18
 -1      1851 9.53623E-05-2.65258E-05-2.94725E-05 2.72467E-06-5.19986E-19-3.84669E-18
 -1      1852 9.74180E-05-2.59329E-05-3.06933E-05-2.64890E-07-8.74158E-19-3.10878E-18
 -1      1853 9.61736E-05-2.71332E-05-2.95268E-05 4.69740E-06-6.74503E-19-4.45722E-18
 -1      1854 9.75192E-05-2.80237E-05-2.97847E-05 5.91941E-06-3.93030E-19-4.49494E-18
 -1      1855 9.82273E-05-2.66354E-05-3.07254E-05 4.57476E-06-7.58621E-19-3.96025E-18
 -1      1856 9.87991E-05-2.89776E-05-2.98780E-05 6.86820E-06-4.78259E-19-4.54843E-18
 -1      1857 1.00569E-04-3.00636E-05-3.02346E-05 7.19048E-06-7.55615E-19-4.42293E-18
 -1      1858 1.00484E-04-2.87020E-05-3.07698E-05 7.82574E-06-5.26742E-19-4.13647E-18
 -1      1859 1.01765E-04-3.09180E-05-3.03534E-05 6.99214E-06-8.62951E-19-4.19977E-18
 -1      1860 1.03450E-04-3.18208E-05-3.07201E-05 6.51091E-06-4.59069E-19-4.20071E-18
 -1      1861 1.03142E-04-3.11102E-05-3.08462E-05 8.58804E-06-8.48508E-19-4.00534E-18
 -1      1862 1.04202E-04-3.23105E-05-3.08365E-05 5.51643E-06-3.29400E-19-4.26996E-18
 -1      1863 1.05446E-04-3.28434E-05-3.11337E-05 4.58232E-06 1.38894E-19-4.72674E-18
 -1      1864 1.05213E-04-3.29074E-05-3.09528E-05 7.17786E-06-4.80099E-19-3.88363E-18
 -1      1865 1.05676E-04-3.29447E-05-3.12167E-05 3.29083E-06 2.21463E-19-4.76445E-18
 -1      1866 1.06341E-04-3.31105E-05-3.13971E-05 2.27083E-06 3.36543E-19-4.91026E-18
 -1      1867 1.06237E-04-3.37031E-05-3.10554E-05 4.58855E-06 1.71154E-19-4.07335E-18
 -1      1868 1.06147E-04-3.29385E-05-3.14249E-05 1.07415E-06 2.49458E-19-4.50618E-18
 -1      1869 1.06269E-04-3.28385E-05-3.14785E-05 2.13306E-07 4.71807E-19-4.19605E-18
 -1      1870 1.06253E-04-3.36199E-05-3.11087E-05 1.81710E-06 4.21793E-19-3.89675E-18
 -1      1871 1.05806E-04-3.25314E-05-3.14450E-05-6.87847E-07 3.67669E-19-3.89085E-18
 -1      1872 1.05513E-04-3.22818E-05-3.13895E-05-1.28803E-06 3.73151E-19-3.26673E-18
 -1      1873 1.05546E-04-3.30028E-05-3.10798E-05-4.95100E-07 6.74519E-19-3.03792E-18
 -1      1874 1.04914E-04-3.19418E-05-3.13024E-05-1.85034E-06 3.94312E-19-3.02244E-18
 -1      1875 1.04357E-04-3.16333E-05-3.11693E-05-2.19075E-06 5.57761E-19-2.27808E-18
 -1      1876 1.04426E-04-3.21785E-05-3.09600E-05-2.09526E-06 7.80610E-19-2.69437E-18
 -1      1877 1.03716E-04-3.13170E-05-3.10440E-05-2.45979E-06 4.15351E-19-2.54872E-18
 -1      1878 1.03028E-04-3.10063E-05-3.08666E-05-2.59189E-06 5.28248E-19-2.75526E-18
 -1      1879 1.03137E-04-3.13601E-05-3.07624E-05-2.99623E-06 6.58102E-19-2.30158E-18
 -1      1880 1.02406E-04-3.07365E-05-3.07205E-05-2.64544E-06 2.85926E-19-3.15309E-18
 -1      1881 1.01686E-04-3.04538E-05-3.05267E-05-2.63374E-06-4.12726E-20-3.67599E-18
 -1      1882 1.01836E-04-3.06500E-05-3.05118E-05-3.33806E-06 1.07496E-19-3.00567E-18
 -1      1883 1.01115E-04-3.02347E-05-3.03752E-05-2.54886E-06-4.82039E-19-3.22009E-18
 -1      1884 1.00431E-04-2.99925E-05-3.01852E-05-2.45106E-06-2.32092E-19-3.22918E-18
 -1      1885 1.00617E-04-3.00784E-05-3.02358E-05-3.29202E-06 1.10221E-19-2.67135E-18
 -1      1886 9.99274E-05-2.98198E-05-3.00397E-05-2.29010E-06 8.44775E-20-3.13452E-18
 -1      1887 9.93155E-05-2.96208E-05-2.98660E-05-2.15002E-06 7.04473E-19-2.92152E-18
 -1      1888 9.95283E-05-2.96387E-05-2.99583E-05-3.01124E-06 3.87588E-20-3.24678E-18
 -1      1889 9.88861E-05-2.94872E-05-2.97338E-05-1.95758E-06 1.06302E-18-3.16555E-18
 -1      1890 9.83636E-05-2.93287E-05-2.95830E-05-1.80492E-06 5.50887E-19-3.00658E-18
 -1      1891 9.85895E-05-2.93102E-05-2.96968E-05-2.61303E-06 7.00216E-19-2.34022E-18
 -1      1892 9.80067E-05-2.92270E-05-2.94679E-05-1.60990E-06 1.52681E-19-2.92891E-18
 -1      1893 9.75765E-05-2.91041E-05-2.93420E-05-1.46283E-06 2.45576E-19-2.75371E-18
 -1      1894 9.78026E-05-2.90699E-05-2.94623E-05-2.17808E-06 8.25319E-19-3.07011E-18
 -1      1895 9.72869E-05-2.90278E-05-2.92453E-05-1.28206E-06-3.06581E-19-2.67917E-18
 -1      1896 9.69433E-05-2.89346E-05-2.91434E-05-1.15031E-06-1.75107E-19-2.48972E-18
 -1      1897 9.71589E-05-2.88970E-05-2.92601E-05-1.75667E-06-3.80222E-20-1.94632E-18
 -1      1898 9.67134E-05-2.88782E-05-2.90645E-05-9.92155E-07-3.63873E-20-2.13503E-18
 -1      1899 9.64464E-05-2.88094E-05-2.89845E-05-8.79872E-07 4.02493E-19-2.10969E-18
 -1      1900 9.66440E-05-2.87747E-05-2.90912E-05-1.37657E-06 2.01984E-19-1.67087E-18
 -1      1901 9.62679E-05-2.87683E-05-2.89218E-05-7.47184E-07-2.13330E-19-1.98923E-18
 -1      1902 9.60657E-05-2.87187E-05-2.88606E-05-6.55020E-07 1.10110E-20-1.95765E-18
 -1      1903 9.62408E-05-2.86898E-05-2.89542E-05-1.05020E-06 1.63762E-19-1.84102E-18
 -1      1904 9.59300E-05-2.86895E-05-2.88120E-05-5.47317E-07-3.16587E-19-2.78192E-18
 -1      1905 9.57810E-05-2.86548E-05-2.87664E-05-4.73954E-07-5.69458E-19-3.31926E-18
 -1      1906 9.59317E-05-2.86323E-05-2.88458E-05-7.80189E-07-9.60717E-19-1.98231E-18
 -1      1907 9.56801E-05-2.86344E-05-2.87296E-05-3.88943E-07-4.44136E-19-3.92544E-18
 -1      1908 9.55735E-05-2.86110E-05-2.86965E-05-3.32092E-07-2.33731E-19-3.86702E-18
 -1      1909 9.56999E-05-2.85945E-05-2.87620E-05-5.63489E-07-8.18998E-19-2.31281E-18
 -1      1910 9.55003E-05-2.85973E-05-2.86694E-05-2.66659E-07-6.14204E-19-3.63076E-18
 -1      1911 9.54265E-05-2.85823E-05-2.86462E-05-2.23687E-07-2.87018E-19-3.80426E-18
 -1      1912 9.55300E-05-2.85707E-05-2.86989E-05-3.94099E-07-4.47944E-19-2.84268E-18
 -1      1913 9.53749E-05-2.85734E-05-2.86267E-05-1.74514E-07 5.33817E-19-3.66463E-18
 -1      1914 9.53260E-05-2.85645E-05-2.86110E-05-1.42822E-07 8.71348E-19-2.81628E-18
 -1      1915 9.54088E-05-2.85568E-05-2.86525E-05-2.64871E-07 3.51483E-19-2.24764E-18
 -1      1916 9.52910E-05-2.85591E-05-2.85975E-05-1.06748E-07 8.37669E-19-3.15592E-18
 -1      1917 9.52604E-05-2.85545E-05-2.85875E-05-8.39664E-08 7.30624E-19-2.62629E-18
 -1      1918 9.53251E-05-2.85496E-05-2.86193E-05-1.68588E-07 1.01525E-18-2.86785E-18
 -1      1919 9.52378E-05-2.85516E-05-2.85785E-05-5.81715E-08 5.67066E-19-1.98103E-18
 -1      1920 9.52206E-05-2.85498E-05-2.85726E-05-4.22550E-08 2.00443E-20-1.73708E-18
 -1      1921 9.52697E-05-2.85470E-05-2.85963E-05-9.85767E-08 1.08282E-18-2.20347E-18
 -1      1922 9.52070E-05-2.85487E-05-2.85669E-05-2.43414E-08-7.42336E-19-1.40205E-18
 -1      1923 9.51991E-05-2.85489E-05-2.85639E-05-1.35966E-08-7.12270E-19-4.93082E-19
 -1      1924 9.52351E-05-2.85473E-05-2.85812E-05-4.90051E-08-4.10095E-19-1.06104E-18
 -1      1925 9.51919E-05-2.85489E-05-2.85607E-05-1.60271E-09 3.64535E-19-9.29277E-19
 -1      1926 9.51904E-05-2.85503E-05-2.85597E-05 5.32112E-09 2.18744E-18-6.93358E-19
 -1      1927 9.52157E-05-2.85494E-05-2.85718E-05-1.49931E-08 3.83554E-19 2.63534E-19
 -1      1928 9.51877E-05-2.85510E-05-2.85582E-05 1.29404E-08 3.33466E-18-1.62917E-18
 -1      1929 9.51903E-05-2.85532E-05-2.85585E-05 1.70765E-08 2.98891E-18-6.34621E-19
 -1      1930 9.52068E-05-2.85525E-05-2.85665E-05 7.39121E-09 1.86149E-18-8.86859E-19
 -1      1931 9.51905E-05-2.85544E-05-2.85582E-05 2.14848E-08 1.99846E-18 9.11084E-20
 -1      1932 9.51956E-05-2.85569E-05-2.85593E-05 2.35780E-08 1.72059E-18 8.41126E-19
 -1      1933 9.52051E-05-2.85562E-05-2.85640E-05 2.11910E-08 2.72961E-18-7.27602E-19
 -1      1934 9.51977E-05-2.85584E-05-2.85596E-05 2.55946E-08 9.32503E-19 2.87724E-19
 -1      1935 9.52039E-05-2.85611E-05-2.85611E-05 2.61266E-08 4.86378E-19 5.20377E-19
 -1      1936 9.52081E-05-2.85602E-05-2.85635E-05 2.86418E-08 1.41355E-18-5.24968E-19
 -1      1937 9.52070E-05-2.85627E-05-2.85618E-05 2.62639E-08-1.09978E-18 1.43236E-18
 -1      1938 9.52134E-05-2.85654E-05-2.85634E-05 2.54698E-08-1.13782E-18 3.18719E-19
 -1      1939 9.52137E-05-2.85644E-05-2.85640E-05 3.12576E-08-4.33319E-19 9.32284E-19
 -1      1940 9.52169E-05-2.85672E-05-2.85642E-05 2.40156E-08-1.07992E-18 1.35276E-19
 -1      1941 9.52228E-05-2.85697E-05-2.85657E-05 2.18927E-08-7.40817E-19-8.13114E-20
 -1      1942 9.52205E-05-2.85687E-05-2.85651E-05 2.99292E-08-1.27034E-18 1.89260E-18
 -1      1943 9.52258E-05-2.85713E-05-2.85663E-05 1.90899E-08-2.73382E-19-5.39021E-19
 -1      1944 9.52306E-05-2.85736E-05-2.85674E-05 1.57018E-08-1.75239E-19-1.48476E-19
 -1      1945 9.52331E-05-2.85765E-05-2.85671E-05 1.81988E-08-6.81970E-19 1.36409E-18
 -1      1946 9.52273E-05-2.85730E-05-2.85661E-05 2.53057E-08-8.04501E-19 1.84111E-18
 -1      1947 9.88304E-05-2.88618E-05-2.99433E-05-9.44010E-07 2.46117E-18 5.02999E-18
 -1      1948 9.91911E-05-2.87469E-05-3.01240E-05 3.23995E-07 2.66106E-18 6.05410E-18
 -1      1949 9.95954E-05-2.81637E-05-3.06280E-05 1.17256E-06 3.30359E-18 4.14378E-18
 -1      1950 9.95297E-05-2.93006E-05-3.00582E-05-2.77961E-06 1.51557E-18 3.89903E-18
 -1      1951 9.90163E-05-2.90488E-05-2.99274E-05-1.93948E-06 1.83801E-18 4.60466E-18
 -1      1952 9.93382E-05-2.87638E-05-3.02636E-05-1.88840E-06 2.34068E-18 3.12152E-18
 -1      1953 1.01295E-04-2.99358E-05-3.05519E-05-4.15414E-06 9.27399E-19 3.35085E-18
 -1      1954 1.00184E-04-2.95442E-05-3.02356E-05-3.49776E-06 1.10883E-18 3.73291E-18
 -1      1955 1.00170E-04-2.92884E-05-3.03996E-05-3.98783E-06 1.49916E-18 2.37070E-18
 -1      1956 1.03888E-04-3.08006E-05-3.13016E-05-5.25266E-06 6.73342E-19 2.62749E-18
 -1      1957 1.02334E-04-3.02769E-05-3.08580E-05-4.70493E-06 7.83092E-19 3.17094E-18
 -1      1958 1.01877E-04-2.99527E-05-3.08490E-05-5.58744E-06 1.04742E-18 1.83724E-18
 -1      1959 1.07116E-04-3.19102E-05-3.22215E-05-6.04927E-06 6.95871E-19 2.30968E-18
 -1      1960 1.05240E-04-3.12614E-05-3.16930E-05-5.63128E-06 5.39194E-19 2.48687E-18
 -1      1961 1.04293E-04-3.08434E-05-3.15033E-05-6.81556E-06 8.21771E-19 1.44339E-18
 -1      1962 1.10755E-04-3.32755E-05-3.32135E-05-6.33085E-06 9.03261E-19 2.14127E-18
 -1      1963 1.08712E-04-3.25172E-05-3.26536E-05-6.15439E-06 8.81312E-19 2.49138E-18
 -1      1964 1.07279E-04-3.20327E-05-3.22734E-05-7.56212E-06 8.65640E-19 1.44175E-18
 -1      1965 1.14467E-04-3.48754E-05-3.41418E-05-5.68936E-06 8.14723E-19 1.62728E-18
 -1      1966 1.12502E-04-3.40548E-05-3.36306E-05-5.96590E-06 7.04185E-19 1.96610E-18
 -1      1967 1.10681E-04-3.35923E-05-3.30608E-05-7.49325E-06 9.34959E-19 1.28451E-18
 -1      1968 1.17723E-04-3.65752E-05-3.48297E-05-3.57745E-06 1.14634E-19 1.87042E-18
 -1      1969 1.16209E-04-3.58143E-05-3.44772E-05-4.59253E-06 4.26746E-19 1.85138E-18
 -1      1970 1.14254E-04-3.55335E-05-3.37521E-05-6.07126E-06 5.21845E-19 1.45268E-18
 -1      1971 1.19747E-04-3.79810E-05-3.50987E-05 4.31567E-07 1.03927E-19 1.93589E-18
 -1      1972 1.19179E-04-3.75351E-05-3.50222E-05-1.54782E-06 4.15443E-20 1.91883E-18
 -1      1973 1.17554E-04-3.76491E-05-3.42414E-05-2.70706E-06 8.46967E-20 1.53891E-18
 -1      1974 1.19572E-04-3.82831E-05-3.48685E-05 6.02198E-06-2.93153E-20 2.44219E-18
 -1      1975 1.20440E-04-3.85639E-05-3.51302E-05 3.23807E-06-2.32272E-20 2.11228E-18
 -1      1976 1.19792E-04-3.92449E-05-3.44885E-05 2.78991E-06-9.97778E-20 1.81069E-18
 -1      1977 1.16395E-04-3.64306E-05-3.42630E-05 1.12254E-05 1.10445E-20 2.37987E-18
 -1      1978 1.18879E-04-3.78066E-05-3.47963E-05 8.65046E-06-6.51421E-20 2.37013E-18
 -1      1979 1.19796E-04-3.89813E-05-3.45814E-05 9.35104E-06 1.42288E-19 1.98809E-18
 -1      1980 1.10765E-04-3.23610E-05-3.35916E-05 1.24573E-05 1.11729E-18 1.11446E-18
 -1      1981 1.14202E-04-3.45482E-05-3.41874E-05 1.18610E-05 5.52690E-19 1.84717E-18
 -1      1982 1.16777E-04-3.57956E-05-3.46842E-05 1.38163E-05 7.82076E-19 1.47209E-18
 -1      1983 1.05351E-04-2.80431E-05-3.32130E-05 7.22148E-06 1.41476E-18-3.92679E-20
 -1      1984 1.08215E-04-2.99319E-05-3.35940E-05 9.75864E-06 1.14953E-18 2.91829E-19
 -1      1985 1.11866E-04-3.05509E-05-3.49116E-05 1.22674E-05 1.59202E-18 6.83714E-20
 -1      1986 1.04133E-04-2.69770E-05-3.32369E-05-2.71407E-06 1.80106E-18-1.83369E-18
 -1      1987 1.04600E-04-2.70440E-05-3.32488E-05 1.87772E-06 1.71259E-18-9.10899E-19
 -1      1988 1.08393E-04-2.67335E-05-3.51535E-05 3.41473E-06 2.09506E-18-1.91076E-18
 -1      1989 1.08371E-04-3.02154E-05-3.36402E-05-1.10664E-05 1.33786E-18-3.45007E-18
 -1      1990 1.06024E-04-2.83996E-05-3.32646E-05-7.34406E-06 1.78774E-18-2.66363E-18
 -1      1991 1.09474E-04-2.76589E-05-3.51837E-05-7.84196E-06 2.40745E-18-3.21537E-18
 -1      1992 1.15078E-04-3.50458E-05-3.43179E-05-1.31283E-05 4.38015E-19-3.27754E-18
 -1      1993 1.11332E-04-3.27220E-05-3.37003E-05-1.22268E-05 9.42642E-19-3.19766E-18
 -1      1994 1.14283E-04-3.25790E-05-3.50428E-05-1.43796E-05 1.24094E-18-4.21147E-18
 -1      1995 1.20203E-04-3.82359E-05-3.50456E-05-9.52517E-06-1.10665E-18-2.43792E-18
 -1      1996 1.16964E-04-3.66973E-05-3.44322E-05-1.10072E-05-5.19628E-19-2.73261E-18
 -1      1997 1.19054E-04-3.75212E-05-3.49188E-05-1.33812E-05-4.78931E-19-3.98664E-18
 -1      1998 1.22049E-04-3.89318E-05-3.55369E-05-3.80332E-06-1.44092E-18-2.16042E-18
 -1      1999 1.20377E-04-3.84923E-05-3.51502E-05-6.16009E-06-8.93395E-19-1.81726E-18
 -1      2000 1.21138E-04-3.97429E-05-3.48937E-05-7.71134E-06-1.23344E-18-2.83714E-18
 -1      2001 1.21060E-04-3.79550E-05-3.55645E-05 1.12062E-06-6.12425E-19-1.67366E-18
 -1      2002 1.21001E-04-3.82844E-05-3.55120E-05-9.22118E-07-1.50802E-18-2.11209E-18
 -1      2003 1.20410E-04-3.92050E-05-3.48359E-05-1.33454E-06-1.16760E-18-2.77975E-18
 -1      2004 1.18367E-04-3.63474E-05-3.51357E-05 4.15513E-06 6.15747E-19-1.40011E-18
 -1      2005 1.19452E-04-3.70199E-05-3.53750E-05 2.87326E-06 4.00792E-19-1.05977E-18
 -1      2006 1.17950E-04-3.73715E-05-3.45704E-05 3.38673E-06 7.74109E-20-1.91851E-18
 -1      2007 1.14956E-04-3.47259E-05-3.43902E-05 5.45390E-06 8.03060E-20-2.40217E-18
 -1      2008 1.16642E-04-3.54740E-05-3.48136E-05 4.88067E-06 4.31686E-19-1.77653E-18
 -1      2009 1.14765E-04-3.53321E-05-3.40683E-05 5.96063E-06 9.92574E-19-2.00115E-18
 -1      2010 1.11462E-04-3.33285E-05-3.34997E-05 5.58757E-06-8.03250E-19-1.78649E-18
 -1      2011 1.13331E-04-3.40239E-05-3.39980E-05 5.49688E-06-5.70521E-19-2.14013E-18
 -1      2012 1.11489E-04-3.35988E-05-3.33945E-05 6.81975E-06-3.91981E-19-2.34702E-18
 -1      2013 1.08228E-04-3.21972E-05-3.25990E-05 5.09280E-06-6.10503E-19-1.15616E-18
 -1      2014 1.10021E-04-3.27937E-05-3.30941E-05 5.26808E-06-8.47769E-19-1.46837E-18
 -1      2015 1.08435E-04-3.22704E-05-3.26471E-05 6.61138E-06-9.81049E-19-1.82982E-18
 -1      2016 1.05409E-04-3.13046E-05-3.17705E-05 4.33942E-06-4.36174E-19-1.30286E-18
 -1      2017 1.06995E-04-3.17946E-05-3.22182E-05 4.62896E-06-3.96916E-19-1.26439E-18
 -1      2018 1.05740E-04-3.12880E-05-3.19090E-05 5.86498E-06-4.07750E-19-2.23969E-18
 -1      2019 1.03047E-04-3.06085E-05-3.10532E-05 3.54127E-06 1.27707E-18 2.93373E-19
 -1      2020 1.04381E-04-3.10002E-05-3.14350E-05 3.85595E-06 2.22531E-19-4.41956E-19
 -1      2021 1.03444E-04-3.05645E-05-3.12340E-05 4.92616E-06-3.00051E-20-9.22106E-19
 -1      2022 1.01125E-04-3.00699E-05-3.04576E-05 2.80439E-06-6.43282E-20-7.41310E-19
 -1      2023 1.02207E-04-3.03769E-05-3.07703E-05 3.09903E-06 6.84995E-19-1.80612E-19
 -1      2024 1.01541E-04-3.00276E-05-3.06486E-05 3.98836E-06 9.99029E-19-3.10485E-19
 -1      2025 9.95964E-05-2.96565E-05-2.99776E-05 2.17091E-06 2.44098E-19-1.11894E-18
 -1      2026 1.00452E-04-2.98932E-05-3.02265E-05 2.42674E-06-1.48767E-19-1.24389E-18
 -1      2027 9.99976E-05-2.96261E-05-3.01599E-05 3.14405E-06 7.98593E-20-9.17242E-19
 -1      2028 9.84038E-05-2.93422E-05-2.95997E-05 1.64910E-06 1.25577E-18-5.95601E-19
 -1      2029 9.90664E-05-2.95219E-05-2.97935E-05 1.86153E-06 8.26689E-19-3.75746E-19
 -1      2030 9.87702E-05-2.93247E-05-2.97635E-05 2.42687E-06 5.50452E-19 5.50394E-19
 -1      2031 9.74892E-05-2.91060E-05-2.93079E-05 1.23129E-06-2.46106E-19-1.52504E-18
 -1      2032 9.79930E-05-2.92405E-05-2.94559E-05 1.40259E-06 6.43044E-19-1.26853E-18
 -1      2033 9.78106E-05-2.90989E-05-2.94493E-05 1.83965E-06 1.17031E-18-2.79578E-19
 -1      2034 9.67992E-05-2.89310E-05-2.90866E-05 9.03584E-07 4.72635E-19-2.88025E-18
 -1      2035 9.71758E-05-2.90300E-05-2.91977E-05 1.03884E-06-4.42098E-19-2.07732E-18
 -1      2036 9.70725E-05-2.89311E-05-2.92050E-05 1.37090E-06 2.10503E-19-1.30595E-18
 -1      2037 9.62874E-05-2.88034E-05-2.89216E-05 6.50807E-07 2.27232E-19-3.26535E-18
 -1      2038 9.65640E-05-2.88750E-05-2.90035E-05 7.55812E-07 5.51397E-19-2.54697E-18
 -1      2039 9.65141E-05-2.88079E-05-2.90185E-05 1.00388E-06 5.62695E-19-2.34947E-18
 -1      2040 9.59146E-05-2.87122E-05-2.88007E-05 4.58693E-07 1.72509E-19-3.54592E-18
 -1      2041 9.61139E-05-2.87630E-05-2.88600E-05 5.39016E-07 5.62358E-19-3.12075E-18
 -1      2042 9.60986E-05-2.87189E-05-2.88785E-05 7.21104E-07 5.76495E-19-2.51527E-18
 -1      2043 9.56487E-05-2.86487E-05-2.87139E-05 3.14771E-07 2.02042E-19-2.69421E-18
 -1      2044 9.57892E-05-2.86837E-05-2.87559E-05 3.75349E-07 8.50300E-20-3.09676E-18
 -1      2045 9.57952E-05-2.86560E-05-2.87752E-05 5.06430E-07 1.82836E-19-2.90253E-18
 -1      2046 9.54638E-05-2.86057E-05-2.86530E-05 2.08553E-07 3.85346E-19-2.63055E-18
 -1      2047 9.55601E-05-2.86291E-05-2.86820E-05 2.53583E-07 3.50576E-19-2.55412E-18
 -1      2048 9.55782E-05-2.86129E-05-2.87005E-05 3.45811E-07 5.32399E-19-1.83356E-18
 -1      2049 9.53393E-05-2.85779E-05-2.86116E-05 1.31433E-07-1.18061E-18-1.60083E-18
 -1      2050 9.54030E-05-2.85927E-05-2.86310E-05 1.64389E-07-2.87551E-19-1.89808E-18
 -1      2051 9.54270E-05-2.85843E-05-2.86478E-05 2.27459E-07-3.39873E-19-1.09913E-18
 -1      2052 9.52591E-05-2.85610E-05-2.85845E-05 7.64735E-08-7.63134E-20-2.07628E-18
 -1      2053 9.52991E-05-2.85698E-05-2.85968E-05 1.00179E-07-7.47176E-19-1.51770E-18
 -1      2054 9.53249E-05-2.85665E-05-2.86115E-05 1.41704E-07-7.89799E-19-6.29534E-19
 -1      2055 9.52109E-05-2.85519E-05-2.85678E-05 3.81586E-08-1.24548E-18-8.02480E-19
 -1      2056 9.52340E-05-2.85564E-05-2.85751E-05 5.48740E-08-1.27431E-18-1.67456E-18
 -1      2057 9.52591E-05-2.85563E-05-2.85875E-05 8.07486E-08-1.25251E-18-1.17347E-18
 -1      2058 9.51853E-05-2.85481E-05-2.85585E-05 1.21667E-08 3.29408E-19 7.45470E-19
 -1      2059 9.51966E-05-2.85497E-05-2.85622E-05 2.36754E-08 3.06944E-19 2.64775E-19
 -1      2060 9.52194E-05-2.85514E-05-2.85725E-05 3.84008E-08-7.24215E-19 3.60877E-19
 -1      2061 9.51752E-05-2.85478E-05-2.85543E-05-4.83423E-09-1.44728E-18-1.66371E-19
 -1      2062 9.51785E-05-2.85475E-05-2.85556E-05 2.85112E-09-9.62172E-19-5.17779E-19
 -1      2063 9.51983E-05-2.85501E-05-2.85639E-05 9.81679E-09-4.45568E-19 1.44633E-18
 -1      2064 9.51754E-05-2.85499E-05-2.85536E-05-1.53567E-08-8.53802E-19-4.95265E-20
 -1      2065 9.51735E-05-2.85484E-05-2.85533E-05-1.04466E-08-8.96806E-19-9.03279E-20
 -1      2066 9.51899E-05-2.85513E-05-2.85597E-05-8.72193E-09-1.46823E-18 4.31963E-19
 -1      2067 9.51821E-05-2.85533E-05-2.85550E-05-2.12313E-08 3.23129E-19-1.88739E-18
 -1      2068 9.51770E-05-2.85511E-05-2.85538E-05-1.83313E-08-5.18449E-19-1.21972E-18
 -1      2069 9.51900E-05-2.85539E-05-2.85585E-05-1.99969E-08 1.17973E-19-2.86029E-19
 -1      2070 9.51925E-05-2.85575E-05-2.85577E-05-2.37096E-08 2.12501E-18-1.13850E-18
 -1      2071 9.51857E-05-2.85549E-05-2.85559E-05-2.23005E-08 1.81924E-18-8.93363E-19
 -1      2072 9.51954E-05-2.85574E-05-2.85593E-05-2.60038E-08 1.51700E-18-4.85026E-19
 -1      2073 9.52044E-05-2.85620E-05-2.85610E-05-2.35280E-08 1.59253E-18-3.82762E-19
 -1      2074 9.51970E-05-2.85593E-05-2.85590E-05-2.33190E-08 1.77736E-18-9.11829E-20
 -1      2075 9.52037E-05-2.85614E-05-2.85611E-05-2.80674E-08 1.25406E-18 1.01913E-18
 -1      2076 9.52161E-05-2.85664E-05-2.85641E-05-2.09594E-08 2.23363E-19-7.93362E-19
 -1      2077 9.52091E-05-2.85639E-05-2.85623E-05-2.18746E-08 8.55061E-19-3.68057E-19
 -1      2078 9.52133E-05-2.85656E-05-2.85634E-05-2.69071E-08 1.42076E-18 1.50613E-18
 -1      2079 9.52264E-05-2.85706E-05-2.85668E-05-1.58762E-08 2.68675E-19 9.16657E-19
 -1      2080 9.52206E-05-2.85684E-05-2.85653E-05-1.80857E-08 7.55644E-20 4.25149E-20
 -1      2081 9.52227E-05-2.85699E-05-2.85655E-05-2.28244E-08-3.38120E-20 2.45935E-18
 -1      2082 9.52332E-05-2.85737E-05-2.85684E-05-1.02864E-08-7.22506E-19 1.81012E-18
 -1      2083 9.52289E-05-2.85719E-05-2.85673E-05-1.36991E-08-7.84875E-21 1.00083E-18
 -1      2084 9.52299E-05-2.85734E-05-2.85670E-05-1.76148E-08-4.03060E-19 3.37799E-18
 -1      2085 9.52347E-05-2.85763E-05-2.85679E-05-1.25003E-08-8.44336E-19 3.95001E-18
 -1      2086 9.52473E-05-2.86014E-05-2.85625E-05-2.07810E-08 1.61488E-18 2.21961E-19
 -1      2087 9.52449E-05-2.85960E-05-2.85638E-05-2.13282E-08 9.29697E-19 1.73181E-18
 -1      2088 9.52428E-05-2.85922E-05-2.85645E-05-2.12945E-08 7.77709E-19 5.52506E-19
 -1      2089 9.52402E-05-2.85869E-05-2.85658E-05-2.02721E-08 9.14776E-19 1.79042E-18
 -1      2090 9.52427E-05-2.85907E-05-2.85652E-05-2.62824E-08 6.70415E-19 1.13575E-18
 -1      2091 9.52386E-05-2.85840E-05-2.85663E-05-1.83746E-08 3.98185E-19 2.35772E-18
 -1      2092 9.52362E-05-2.85793E-05-2.85673E-05-1.56175E-08-3.33339E-19 3.31887E-18
 -1      2093 9.52342E-05-2.85780E-05-2.85670E-05-1.85985E-08-2.31523E-19 3.54419E-18
 -1      2094 9.52383E-05-2.85840E-05-2.85661E-05-2.40809E-08 4.46821E-20 2.77680E-18
 -1      2095 9.52508E-05-2.86093E-05-2.85606E-05-1.77924E-08 7.18394E-20-3.46475E-18
 -1      2096 9.52489E-05-2.86046E-05-2.85618E-05-1.93477E-08 5.62111E-19-1.72039E-18
 -1      2097 9.52473E-05-2.85980E-05-2.85640E-05-2.46407E-08 1.08717E-20-1.56102E-18
 -1      2098 9.52533E-05-2.86155E-05-2.85590E-05-1.31230E-08 5.94579E-19-2.71643E-18
 -1      2099 9.52519E-05-2.86119E-05-2.85599E-05-1.53453E-08 4.57306E-19-2.94608E-18
 -1      2100 9.52506E-05-2.86040E-05-2.85629E-05-2.03205E-08 9.38628E-20-2.84513E-18
 -1      2101 9.52548E-05-2.86195E-05-2.85579E-05-7.51530E-09-5.84782E-19 9.42238E-19
 -1      2102 9.52540E-05-2.86173E-05-2.85585E-05-1.00849E-08 9.88570E-19-7.41253E-19
 -1      2103 9.52528E-05-2.86084E-05-2.85619E-05-1.42265E-08 1.05298E-18-2.12809E-18
 -1      2104 9.52554E-05-2.86211E-05-2.85575E-05-1.48244E-09-4.32947E-19 2.25102E-19
 -1      2105 9.52551E-05-2.86204E-05-2.85576E-05-4.19044E-09-1.29704E-18 1.70912E-18
 -1      2106 9.52540E-05-2.86111E-05-2.85613E-05-7.17178E-09-1.10304E-19 7.29655E-19
 -1      2107 9.52551E-05-2.86202E-05-2.85577E-05 4.60106E-09-1.99071E-20-1.85329E-18
 -1      2108 9.52554E-05-2.86210E-05-2.85575E-05 1.91122E-09 9.73829E-19-9.33718E-19
 -1      2109 9.52544E-05-2.86119E-05-2.85611E-05 2.71495E-10-5.21719E-20 5.83982E-19
 -1      2110 9.52538E-05-2.86169E-05-2.85586E-05 1.04002E-08-8.98654E-19-2.42035E-18
 -1      2111 9.52547E-05-2.86193E-05-2.85579E-05 7.88120E-09-4.11466E-19-2.56928E-18
 -1      2112 9.52539E-05-2.86109E-05-2.85613E-05 7.66423E-09-3.33981E-19-2.52608E-18
 -1      2113 9.52517E-05-2.86115E-05-2.85600E-05 1.54326E-08-9.15083E-19-3.03415E-18
 -1      2114 9.52531E-05-2.86151E-05-2.85591E-05 1.33147E-08-8.54989E-19-1.96895E-18
 -1      2115 9.52526E-05-2.86081E-05-2.85620E-05 1.45266E-08-3.37112E-19-3.33063E-18
 -1      2116 9.52487E-05-2.86042E-05-2.85619E-05 1.93146E-08-1.14055E-18 2.74938E-18
 -1      2117 9.52506E-05-2.86089E-05-2.85607E-05 1.78016E-08-7.26497E-19-1.64707E-19
 -1      2118 9.52503E-05-2.86036E-05-2.85629E-05 2.03869E-08 4.10708E-19-1.97651E-18
 -1      2119 9.52447E-05-2.85956E-05-2.85639E-05 2.11664E-08-4.23956E-19 1.90551E-18
 -1      2120 9.52471E-05-2.86009E-05-2.85626E-05 2.06854E-08-1.02117E-18 1.98234E-18
 -1      2121 9.52470E-05-2.85975E-05-2.85641E-05 2.45643E-08-2.30632E-19 1.89510E-18
 -1      2122 9.52399E-05-2.85864E-05-2.85658E-05 2.02161E-08-1.24480E-18 2.79188E-18
 -1      2123 9.52428E-05-2.85919E-05-2.85647E-05 2.10803E-08-1.17911E-18 1.80088E-18
 -1      2124 9.52426E-05-2.85903E-05-2.85653E-05 2.60213E-08-7.32428E-19 1.49435E-18
 -1      2125 5.75376E-05-4.10121E-05-7.79933E-06 3.76790E-05 5.55611E-18 6.44849E-18
 -1      2126 4.27022E-05-4.19479E-05-1.65546E-06 3.10564E-05 3.52450E-18 7.02296E-18
 -1      2127 1.24933E-05-3.49484E-05 8.14654E-06 3.44295E-06 2.58049E-18 8.14761E-18
 -1      2128 1.17538E-05-3.21203E-05 7.58387E-06-6.59302E-06 2.07523E-20 8.45085E-18
 -1      2129 2.48565E-05-3.48454E-05 3.29340E-06 2.37108E-05 4.08863E-18 8.70030E-18
 -1      2130 1.71895E-05-3.73398E-05 6.98155E-06 1.29996E-05 2.56630E-18 7.54113E-18
 -1      2131 1.70989E-05-2.56891E-05 3.04035E-06 1.12994E-05 8.30833E-19 8.65244E-18
 -1      2132 9.63766E-05-4.45841E-05-2.23540E-05 4.11298E-05 6.75255E-18 7.23747E-18
 -1      2133 7.64081E-05-4.60457E-05-1.42896E-05 3.62393E-05 6.08593E-18 6.26995E-18
 -1      2134 1.36976E-04-4.76485E-05-3.80754E-05 3.15336E-05 5.74733E-18 5.27702E-18
 -1      2135 1.15019E-04-4.75795E-05-2.96076E-05 3.28686E-05 6.24687E-18 6.25026E-18
 -1      2136 8.74376E-05-8.41876E-06-3.39653E-05-7.81279E-06-2.77734E-18-5.56356E-18
 -1      2137 8.86575E-05-9.14412E-06-3.41536E-05-9.34006E-06-3.32716E-18-4.90875E-18
 -1      2138 9.14241E-05-1.30342E-05-3.36442E-05-9.00154E-06-3.63749E-18-4.18671E-18
 -1      2139 8.84762E-05-1.04096E-05-3.34803E-05-6.59385E-06-2.80392E-18-5.44931E-18
 -1      2140 1.86472E-04-3.02532E-05-6.49152E-05 7.64357E-06 8.55673E-18 1.37939E-18
 -1      2141 1.70514E-04-2.99887E-05-5.95046E-05 8.70207E-06 8.78797E-18 1.82959E-18
 -1      2142 1.90963E-04-2.72132E-05-6.84432E-05-1.77405E-06 9.31736E-18-6.05099E-19
 -1      2143 1.88676E-04-2.79851E-05-6.74384E-05 5.20012E-06 9.10095E-18 1.60026E-18
 -1      2144 1.66817E-04-1.98448E-05-6.18116E-05-2.54588E-06 9.21106E-18-1.43784E-19
 -1      2145 1.82423E-04-2.89619E-05-6.46221E-05-1.11605E-05 9.45458E-18-2.84264E-18
 -1      2146 1.90106E-04-2.85754E-05-6.74880E-05-4.51596E-06 9.68752E-18-5.26431E-19
 -1      2147 1.62416E-04-3.57296E-05-5.39660E-05-1.76217E-05 8.37514E-18-4.29403E-18
 -1      2148 1.78216E-04-3.45224E-05-6.01635E-05-1.42793E-05 8.47774E-18-3.23101E-18
 -1      2149 1.34676E-04-4.35018E-05-3.93544E-05-3.00233E-05 7.68111E-18-6.88595E-18
 -1      2150 1.54668E-04-4.27400E-05-4.72684E-05-2.75422E-05 7.79789E-18-5.03392E-18
 -1      2151 9.77316E-05-4.52031E-05-2.35152E-05-3.69396E-05 7.07103E-18-7.97863E-18
 -1      2152 1.19008E-04-4.37688E-05-3.19943E-05-4.00636E-05 7.56655E-18-8.27297E-18
 -1      2153 6.15984E-05-4.51360E-05-8.48737E-06-3.55481E-05 4.45539E-18-8.71046E-18
 -1      2154 7.98963E-05-4.30523E-05-1.61133E-05-4.19007E-05 6.07492E-18-8.70136E-18
 -1      2155 2.99402E-05-4.11857E-05 3.08037E-06-2.46338E-05 2.13749E-18-9.33790E-18
 -1      2156 4.19419E-05-3.89839E-05-2.25653E-06-3.32876E-05 4.37874E-18-9.63860E-18
 -1      2157 1.33457E-05-3.77768E-05 8.73289E-06-6.97206E-06-1.02915E-18-9.73368E-18
 -1      2158 1.79413E-05-3.70546E-05 6.71746E-06-1.58194E-05 2.11758E-18-1.00001E-17
 -1      2159 1.49772E-05-3.45440E-05 7.12082E-06 1.31601E-05-3.98487E-18-1.02377E-17
 -1      2160 1.24765E-05-3.53488E-05 8.32019E-06 4.20914E-06-1.08092E-18-9.91410E-18
 -1      2161 3.21214E-05-3.60949E-05 8.14503E-07 3.10469E-05-6.17995E-18-1.04702E-17
 -1      2162 2.29662E-05-3.87765E-05 5.15047E-06 2.20453E-05-4.11404E-18-1.01417E-17
 -1      2163 6.68369E-05-4.09798E-05-1.13055E-05 4.26241E-05-7.63939E-18-8.69760E-18
 -1      2164 5.18434E-05-4.25113E-05-5.04283E-06 3.67778E-05-5.68571E-18-8.81205E-18
 -1      2165 9.80938E-05-4.24979E-05-2.37703E-05 4.36305E-05-9.33515E-18-8.48388E-18
 -1      2166 8.02099E-05-4.46517E-05-1.62653E-05 3.95386E-05-8.33650E-18-8.44492E-18
 -1      2167 8.60540E-05-5.03514E-05-1.55062E-05 4.33360E-05-2.26412E-18-6.10081E-18
 -1      2168 1.34632E-04-4.32796E-05-3.90432E-05 3.27352E-05-8.79495E-18-6.72714E-18
 -1      2169 1.14319E-04-4.22537E-05-3.12596E-05 3.67631E-05-1.00988E-17-8.60882E-18
 -1      2170 1.63618E-04-3.44332E-05-5.40348E-05 2.11422E-05-8.88961E-18-6.36079E-18
 -1      2171 1.47431E-04-3.75169E-05-4.69839E-05 2.06401E-05-8.87338E-18-5.23466E-18
 -1      2172 1.76882E-04-2.81242E-05-6.25600E-05 1.09325E-05-8.62152E-18-4.63496E-18
 -1      2173 1.66287E-04-2.92733E-05-5.83099E-05 1.66931E-05-9.28729E-18-6.15835E-18
 -1      2174 1.54776E-04-3.05157E-05-5.26563E-05 2.07286E-06-7.93564E-18-2.20949E-18
 -1      2175 1.82235E-04-2.41978E-05-6.65719E-05 4.39515E-07-8.57494E-18-2.40563E-18
 -1      2176 1.78830E-04-2.40191E-05-6.53746E-05 7.69824E-06-8.68802E-18-4.59071E-18
 -1      2177 1.75036E-04-2.35609E-05-6.41891E-05-8.50788E-06-8.30092E-18-4.96573E-19
 -1      2178 1.83859E-04-2.50835E-05-6.66013E-05-2.36408E-06-8.39325E-18-2.19742E-18
 -1      2179 1.61849E-04-3.13581E-05-5.54677E-05-1.89056E-05-6.72947E-18 1.17145E-18
 -1      2180 1.71690E-04-2.91728E-05-6.01541E-05-1.18652E-05-7.06108E-18-5.02714E-19
 -1      2181 1.40691E-04-4.02460E-05-4.32080E-05-2.33937E-05-4.89850E-18 1.44334E-18
 -1      2182 1.57250E-04-3.71873E-05-5.04554E-05-2.44369E-05-6.01753E-18 1.28495E-18
 -1      2183 1.53026E-04-3.53839E-05-4.97657E-05-4.37922E-06-5.02206E-18-2.35814E-18
 -1      2184 1.07764E-04-4.46277E-05-2.75985E-05-3.69132E-05-4.52909E-18 4.07719E-18
 -1      2185 1.27751E-04-4.46615E-05-3.54821E-05-3.53221E-05-4.10409E-18 3.06202E-18
 -1      2186 7.11574E-05-4.33221E-05-1.30831E-05-3.88201E-05-4.17672E-18 4.81009E-18
 -1      2187 9.01306E-05-4.18793E-05-2.07575E-05-4.37077E-05-4.82639E-18 4.32326E-18
 -1      2188 4.07062E-05-4.04947E-05-1.41868E-06-3.27452E-05-2.38397E-18 7.02550E-18
 -1      2189 5.39757E-05-3.83581E-05-7.18542E-06-3.97859E-05-3.83664E-18 6.42062E-18
 -1      2190 1.94025E-05-3.53002E-05 5.57880E-06-2.00281E-05 1.97147E-19 8.36953E-18
 -1      2191 2.78415E-05-3.59049E-05 2.47964E-06-2.78297E-05-2.52585E-18 8.85446E-18
 -1      2192 4.22722E-05-3.55802E-05-3.33965E-06-3.75393E-05 9.20301E-19 7.21460E-18
 -1      2193 1.63574E-04-4.02164E-05-5.26211E-05 1.29076E-05 7.52144E-18 1.86517E-18
 -1      2194 1.48980E-04-4.28071E-05-4.55072E-05 1.97220E-05 7.11931E-18 4.15808E-18
 -1      2195 1.47277E-04-5.27880E-05-3.99064E-05 1.33357E-05 3.79937E-18 7.11508E-20
 -1      2196 1.00012E-04-2.52089E-05-3.21240E-05-7.91007E-06-4.00398E-18 2.03015E-18
 -1      2197 1.54308E-04-2.95597E-05-5.39523E-05-8.88041E-06 6.67928E-18-2.42273E-18
 -1      2198 1.62248E-04-3.52380E-05-5.39034E-05 2.79204E-06 7.14578E-18 2.45640E-20
 -1      2199 1.52783E-04-4.03412E-05-4.79101E-05-4.61592E-06 5.22503E-18-2.78293E-18
 -1      2200 9.90197E-05-2.38979E-05-3.22688E-05-7.81067E-06-4.27111E-18-6.41627E-20
 -1      2201 4.05926E-05-3.62997E-05-2.38024E-06 3.28518E-05 7.50471E-19 6.77775E-18
 -1      2202 8.02452E-05-4.96055E-05-1.34167E-05 4.06565E-05 1.16128E-18 4.74825E-18
 -1      2203 9.52379E-05-2.85827E-05-2.85666E-05 2.00137E-08-1.42098E-18 2.20093E-18
 -1      2204 1.89135E-05-2.64002E-05 2.66267E-06-1.63574E-05 9.54924E-19 9.46009E-18
 -1      2205 1.18880E-04-5.68769E-05-2.63387E-05 3.22523E-05 2.18894E-18 3.04085E-18
 -1      2206 7.48177E-05-4.64102E-05-1.23678E-05-4.34932E-05 3.53213E-19 3.74950E-18
 -1      2207 1.39592E-04-4.98067E-05-3.81237E-05-2.02132E-05-2.47048E-18-1.06896E-18
 -1      2208 1.59844E-04-2.12275E-05-5.84819E-05-2.74404E-08-7.51953E-18-2.14723E-18
 -1      2209 1.59057E-04-1.78556E-05-5.94849E-05-3.85727E-07-8.95526E-18-2.09090E-18
 -1      2210 1.16637E-04-5.34719E-05-2.68876E-05 3.52172E-05-4.99157E-18-4.63158E-18
 -1      2211 5.10471E-05-3.90383E-05-5.42572E-06 4.05831E-05-1.72287E-18-8.97389E-18
 -1      2212 2.23106E-05-2.83798E-05 1.96939E-06 2.22241E-05-1.15874E-18-1.09648E-17
 -1      2213 1.44274E-05-2.60359E-05 4.20312E-06-1.90054E-06-1.02499E-18-1.12986E-17
 -1      2214 2.84688E-05-3.30650E-05 1.16596E-06-2.65148E-05-3.22720E-19-1.03145E-17
 -1      2215 6.28265E-05-4.47545E-05-8.18415E-06-4.05126E-05 1.31714E-19-8.13099E-18
 -1      2216 1.02509E-04-5.40175E-05-2.08953E-05-3.83928E-05 2.01382E-18-5.50593E-18
 -1      2217 1.36596E-04-5.39843E-05-3.49759E-05-2.53674E-05 4.00350E-18-3.12470E-18
 -1      2218 1.57463E-04-4.33841E-05-4.81374E-05-7.36442E-06 6.22527E-18-4.88314E-19
 -1      2219 1.69633E-04-1.77158E-05-6.36207E-05 1.01479E-07 1.01576E-17 7.34907E-19
 -1      2220 1.65344E-04-2.64068E-05-5.83870E-05 1.42277E-06 8.87987E-18 5.38713E-19
 -1      2221 1.44282E-04-4.48770E-05-4.22750E-05 1.98964E-05-7.30524E-18-3.84976E-18
 -1      2222 1.38922E-04-5.13946E-05-3.71537E-05 1.71533E-05-4.98998E-18-1.05223E-18
 -1      2223 1.46962E-04-4.49125E-05-4.42147E-05 4.66965E-06-5.34742E-18-4.85985E-19
 -1      2224 1.60590E-04-1.29447E-05-6.20595E-05 6.51902E-08-9.02429E-18-1.97240E-18
 -1      2225 1.10390E-04-5.30924E-05-2.43274E-05-3.72195E-05-9.84252E-19 1.50264E-18
 -1      2226 9.92056E-05-2.71277E-05-3.08591E-05 5.99261E-07 3.25637E-18 2.03230E-18
 -1      2227 9.95900E-05-2.65346E-05-3.12364E-05 2.68096E-06 3.72136E-18 2.54635E-18
 -1      2228 8.51008E-05-8.76726E-06-3.27550E-05-1.65429E-06-7.11924E-19-5.92016E-18
 -1      2229 8.58383E-05-9.30869E-06-3.28230E-05-2.47107E-06-1.27552E-18-5.96146E-18
 -1      2230 8.67939E-05-1.01966E-05-3.28755E-05-3.18623E-06-1.65892E-18-5.91251E-18
 -1      2231 8.78156E-05-1.09904E-05-3.29581E-05-4.14662E-06-2.20137E-18-5.73540E-18
 -1      2232 8.74011E-05-1.15730E-05-3.24942E-05-2.19651E-06-1.40374E-18-5.47885E-18
 -1      2233 8.36540E-05-7.53134E-06-3.26544E-05 7.57549E-07 9.36282E-19-5.92675E-18
 -1      2234 8.37394E-05-7.59766E-06-3.26570E-05 1.24316E-07 5.12686E-19-6.00988E-18
 -1      2235 8.40394E-05-7.79354E-06-3.27048E-05 1.82222E-06 1.79716E-18-5.67944E-18
 -1      2236 8.37529E-05-7.59791E-06-3.26681E-05 1.19391E-06 1.29031E-18-5.80445E-18
 -1      2237 8.45311E-05-9.04146E-06-3.23458E-05 9.31663E-07 1.07029E-18-5.54269E-18
 -1      2238 8.51961E-05-8.69113E-06-3.28165E-05 2.94354E-06 2.57667E-18-5.37777E-18
 -1      2239 8.45404E-05-8.22139E-06-3.27467E-05 2.26333E-06 2.11592E-18-5.55159E-18
 -1      2240 8.51440E-05-9.52575E-06-3.23989E-05 1.73883E-06 1.89240E-18-5.31710E-18
 -1      2241 8.71693E-05-1.03212E-05-3.29697E-05 4.28044E-06 3.43644E-18-4.54927E-18
 -1      2242 8.61197E-05-9.52159E-06-3.28770E-05 3.46572E-06 2.89444E-18-5.03859E-18
 -1      2243 8.66088E-05-1.07602E-05-3.24962E-05 2.61616E-06 2.64904E-18-4.81097E-18
 -1      2244 8.99392E-05-1.27895E-05-3.31161E-05 5.86746E-06 4.16375E-18-3.58371E-18
 -1      2245 8.85038E-05-1.15879E-05-3.30255E-05 4.90554E-06 3.70641E-18-4.09851E-18
 -1      2246 8.89282E-05-1.28209E-05-3.26037E-05 3.65392E-06 3.42715E-18-3.97750E-18
 -1      2247 9.35170E-05-1.63035E-05-3.31783E-05 7.55877E-06 4.78702E-18-1.87890E-18
 -1      2248 9.16740E-05-1.45504E-05-3.31236E-05 6.53336E-06 4.36038E-18-2.88016E-18
 -1      2249 9.20172E-05-1.57733E-05-3.26523E-05 4.79932E-06 4.05213E-18-2.91817E-18
 -1      2250 9.93261E-05-2.80094E-05-3.05264E-05-2.61382E-06 2.28989E-18 1.42292E-18
 -1      2251 9.91858E-05-2.76458E-05-3.05885E-05-1.25311E-06 2.77771E-18 1.87259E-18
 -1      2252 9.86113E-05-2.61258E-05-3.10819E-05-4.90313E-08 3.37097E-18 5.01487E-19
 -1      2253 9.87098E-05-2.57183E-05-3.12323E-05-3.17298E-06-3.28481E-18-9.76758E-19
 -1      2254 9.84432E-05-2.65534E-05-3.08160E-05-1.12001E-06-2.90297E-18-1.13411E-18
 -1      2255 9.86073E-05-2.73048E-05-3.04998E-05 4.21073E-07-2.54603E-18-9.57745E-19
 -1      2256 9.86141E-05-2.78276E-05-3.03315E-05 1.63045E-06-2.26417E-18-1.14904E-18
 -1      2257 9.79873E-05-2.58075E-05-3.09479E-05-6.23260E-07-2.85955E-18-1.75491E-18
 -1      2258 9.88027E-05-2.83104E-05-3.01698E-05 2.66791E-06-1.96208E-18-1.02432E-18
 -1      2259 9.90974E-05-2.87657E-05-3.01390E-05 3.37104E-06-1.62995E-18-1.27259E-18
 -1      2260 9.83508E-05-2.73715E-05-3.04399E-05 2.17353E-06-2.22438E-18-1.61718E-18
 -1      2261 9.94523E-05-2.92121E-05-3.00746E-05 3.98506E-06-1.40151E-18-1.13513E-18
 -1      2262 9.99685E-05-2.96994E-05-3.01192E-05 4.29632E-06-1.22923E-18-1.19293E-18
 -1      2263 9.89398E-05-2.85733E-05-3.01781E-05 3.97804E-06-1.64318E-18-1.57821E-18
 -1      2264 1.00524E-04-3.02093E-05-3.01132E-05 4.51797E-06-1.06836E-18-1.04038E-18
 -1      2265 1.01178E-04-3.07652E-05-3.01912E-05 4.45383E-06-7.99126E-19-1.14493E-18
 -1      2266 9.98917E-05-2.97726E-05-3.00711E-05 4.92407E-06-1.27658E-18-1.45012E-18
 -1      2267 1.01935E-04-3.13811E-05-3.02181E-05 4.25633E-06-7.44530E-19-1.05008E-18
 -1      2268 1.02632E-04-3.19958E-05-3.02991E-05 3.78673E-06-7.27615E-19-1.15766E-18
 -1      2269 1.01242E-04-3.11492E-05-3.00586E-05 5.02325E-06-8.36212E-19-1.08357E-18
 -1      2270 1.03554E-04-3.27037E-05-3.03468E-05 3.11196E-06-7.04336E-19-1.01409E-18
 -1      2271 1.04175E-04-3.33064E-05-3.04107E-05 2.20779E-06-6.82937E-19-7.88779E-19
 -1      2272 1.02960E-04-3.27461E-05-3.01083E-05 4.19186E-06-6.57318E-19-1.21136E-18
 -1      2273 1.05163E-04-3.40074E-05-3.04819E-05 1.01408E-06-8.06903E-19-5.81081E-19
 -1      2274 1.05553E-04-3.44400E-05-3.05217E-05-2.89960E-07-8.35032E-19-6.44444E-19
 -1      2275 1.04915E-04-3.44321E-05-3.02180E-05 2.32132E-06-7.41263E-19-9.24297E-19
 -1      2276 1.06401E-04-3.49161E-05-3.06335E-05-1.94044E-06-8.82440E-19-5.24402E-19
 -1      2277 1.06382E-04-3.49345E-05-3.06572E-05-3.46250E-06-8.91353E-19-5.94230E-19
 -1      2278 1.06804E-04-3.58217E-05-3.04181E-05-5.92857E-07-9.40169E-19-4.80660E-19
 -1      2279 1.06781E-04-3.48712E-05-3.08352E-05-5.28683E-06-7.31830E-19-5.71959E-19
 -1      2280 1.06219E-04-3.42240E-05-3.08630E-05-6.63523E-06-4.74173E-19-5.97838E-19
 -1      2281 1.08097E-04-3.62591E-05-3.07622E-05-4.23277E-06-8.10956E-19 1.80349E-19
 -1      2282 1.05863E-04-3.33439E-05-3.11226E-05-8.04403E-06-3.54966E-19-6.40139E-19
 -1      2283 1.04784E-04-3.19660E-05-3.11735E-05-8.64433E-06-1.76640E-19-4.13203E-19
 -1      2284 1.08148E-04-3.50086E-05-3.12998E-05-7.73383E-06-4.28748E-19 4.05311E-19
 -1      2285 1.03653E-04-3.03247E-05-3.14869E-05-8.84300E-06-4.05568E-19-6.92889E-19
 -1      2286 1.02376E-04-2.85814E-05-3.15585E-05-8.16922E-06-1.05071E-18-1.00771E-18
 -1      2287 1.06590E-04-3.18033E-05-3.20126E-05-9.62437E-06-4.06883E-19-2.71272E-19
 -1      2288 1.01005E-04-2.68218E-05-3.18386E-05-6.62351E-06-1.61396E-18-1.02857E-18
 -1      2289 1.00087E-04-2.55042E-05-3.19012E-05-4.61597E-06-1.58988E-18-1.38112E-18
 -1      2290 1.03938E-04-2.75195E-05-3.27535E-05-8.36875E-06-1.52088E-18-3.46229E-19
 -1      2291 9.93835E-05-2.46237E-05-3.20364E-05-1.65266E-06-1.42035E-18-1.81628E-18
 -1      2292 9.93203E-05-2.44797E-05-3.20568E-05 1.02137E-06-1.20881E-18-2.37407E-18
 -1      2293 1.01721E-04-2.42064E-05-3.32693E-05-3.60397E-06-1.99865E-18-6.97871E-19
 -1      2294 9.98179E-05-2.50498E-05-3.19882E-05 4.15475E-06-1.15928E-18-2.96714E-18
 -1      2295 1.00665E-04-2.61663E-05-3.19628E-05 6.40993E-06-8.95579E-19-3.04594E-18
 -1      2296 1.01498E-04-2.38156E-05-3.33458E-05 2.96555E-06-1.63345E-18-1.66736E-18
 -1      2297 1.02018E-04-2.78208E-05-3.17283E-05 8.36170E-06-6.64024E-19-3.58886E-18
 -1      2298 1.03366E-04-2.95647E-05-3.16863E-05 9.37731E-06-6.35385E-19-3.62464E-18
 -1      2299 1.03463E-04-2.65845E-05-3.29557E-05 8.38123E-06-1.14141E-18-2.73432E-18
 -1      2300 1.04661E-04-3.13081E-05-3.13950E-05 9.57455E-06-7.68160E-19-3.63432E-18
 -1      2301 1.05922E-04-3.28361E-05-3.13705E-05 9.25999E-06-5.62077E-19-3.49509E-18
 -1      2302 1.06274E-04-3.08661E-05-3.22850E-05 1.05071E-05-6.53353E-19-3.28064E-18
 -1      2303 1.06513E-04-3.39140E-05-3.11164E-05 8.09744E-06-3.16653E-19-3.45342E-18
 -1      2304 1.07310E-04-3.47590E-05-3.11162E-05 6.90718E-06-1.86695E-20-3.33340E-18
 -1      2305 1.08250E-04-3.44354E-05-3.15906E-05 9.28436E-06-4.00678E-19-2.95830E-18
 -1      2306 1.07108E-04-3.50016E-05-3.09376E-05 5.15912E-06 1.55378E-20-3.15134E-18
 -1      2307 1.07352E-04-3.51512E-05-3.09447E-05 3.67514E-06 4.09952E-19-3.69062E-18
 -1      2308 1.08648E-04-3.61487E-05-3.10427E-05 6.09262E-06 3.87964E-20-2.79917E-18
 -1      2309 1.06620E-04-3.47887E-05-3.08314E-05 1.98452E-06 6.06545E-19-3.11758E-18
 -1      2310 1.06418E-04-3.44746E-05-3.08222E-05 6.36825E-07 9.68948E-19-2.89710E-18
 -1      2311 1.07676E-04-3.60734E-05-3.06794E-05 2.46082E-06 7.73911E-19-2.83799E-18
 -1      2312 1.05473E-04-3.38328E-05-3.07452E-05-6.63894E-07 1.15778E-18-2.37999E-18
 -1      2313 1.04989E-04-3.33122E-05-3.07040E-05-1.66674E-06 9.03731E-19-1.67272E-18
 -1      2314 1.05952E-04-3.49023E-05-3.04560E-05-6.26688E-07 1.35084E-18-1.48848E-18
 -1      2315 1.04051E-04-3.26369E-05-3.06372E-05-2.49819E-06 3.49070E-19-1.86723E-18
 -1      2316 1.03430E-04-3.20902E-05-3.05607E-05-3.11796E-06 5.37103E-19-1.97663E-18
 -1      2317 1.04032E-04-3.33436E-05-3.03062E-05-2.78947E-06 6.68150E-19-1.48444E-18
 -1      2318 1.02606E-04-3.15099E-05-3.04887E-05-3.53746E-06 3.75606E-20-2.55953E-18
 -1      2319 1.01947E-04-3.10292E-05-3.03831E-05-3.82857E-06 4.97508E-21-2.80932E-18
 -1      2320 1.02244E-04-3.18575E-05-3.01773E-05-4.03576E-06-2.62782E-19-2.71443E-18
 -1      2321 1.01267E-04-3.05847E-05-3.03009E-05-3.94095E-06 3.81675E-19-3.26889E-18
 -1      2322 1.00632E-04-3.02011E-05-3.01772E-05-3.99039E-06 2.51457E-19-3.37800E-18
 -1      2323 1.00723E-04-3.06510E-05-3.00408E-05-4.54597E-06-2.75660E-19-3.92058E-18
 -1      2324 1.00086E-04-2.98860E-05-3.00869E-05-3.90032E-06 3.02362E-19-3.09492E-18
 -1      2325 9.95077E-05-2.95978E-05-2.99565E-05-3.79369E-06 3.94231E-19-2.75455E-18
 -1      2326 9.94862E-05-2.97657E-05-2.98884E-05-4.53843E-06 3.48774E-19-3.75836E-18
 -1      2327 9.90765E-05-2.93874E-05-2.98630E-05-3.58685E-06 7.61934E-19-3.41032E-18
 -1      2328 9.85699E-05-2.91795E-05-2.97356E-05-3.39376E-06 5.40492E-19-2.85857E-18
 -1      2329 9.85035E-05-2.91637E-05-2.97237E-05-4.20791E-06 3.83476E-19-2.69842E-18
 -1      2330 9.82306E-05-2.90464E-05-2.96439E-05-3.13282E-06 2.41746E-19-2.44785E-18
 -1      2331 9.78003E-05-2.89011E-05-2.95262E-05-2.90356E-06 7.51844E-19-2.33656E-18
 -1      2332 9.77301E-05-2.87811E-05-2.95550E-05-3.70538E-06 6.37460E-19-2.30295E-18
 -1      2333 9.75341E-05-2.88216E-05-2.94406E-05-2.63051E-06 6.91135E-19-2.71766E-18
 -1      2334 9.71779E-05-2.87228E-05-2.93366E-05-2.39808E-06 6.24142E-19-2.82244E-18
 -1      2335 9.71242E-05-2.85551E-05-2.93913E-05-3.13732E-06 3.57548E-19-2.14585E-18
 -1      2336 9.69697E-05-2.86788E-05-2.92598E-05-2.13863E-06 1.68141E-19-2.97403E-18
 -1      2337 9.66814E-05-2.86135E-05-2.91711E-05-1.92254E-06 2.85491E-19-2.18538E-18
 -1      2338 9.66512E-05-2.84347E-05-2.92396E-05-2.57279E-06 5.27266E-19-2.93981E-18
 -1      2339 9.65195E-05-2.85920E-05-2.91046E-05-1.69061E-06 2.74455E-19-2.33167E-18
 -1      2340 9.62912E-05-2.85504E-05-2.90311E-05-1.50078E-06 4.08125E-19-1.80780E-18
 -1      2341 9.62835E-05-2.83815E-05-2.91043E-05-2.05233E-06 3.14122E-19-2.45832E-18
 -1      2342 9.61662E-05-2.85426E-05-2.89752E-05-1.30229E-06 7.28676E-20-2.28448E-18
 -1      2343 9.59891E-05-2.85173E-05-2.89160E-05-1.14229E-06-5.34403E-19-2.66707E-18
 -1      2344 9.59996E-05-2.83690E-05-2.89875E-05-1.59632E-06-1.98332E-19-1.96260E-18
 -1      2345 9.58936E-05-2.85174E-05-2.88702E-05-9.78083E-07-3.71072E-19-2.20982E-18
 -1      2346 9.57592E-05-2.85031E-05-2.88236E-05-8.47556E-07-5.46966E-19-2.27982E-18
 -1      2347 9.57824E-05-2.83792E-05-2.88896E-05-1.21173E-06-3.09759E-19-2.98783E-18
 -1      2348 9.56872E-05-2.85073E-05-2.87869E-05-7.15482E-07-9.56395E-19-2.06241E-18
 -1      2349 9.55873E-05-2.85004E-05-2.87512E-05-6.11900E-07-5.55652E-19-1.69555E-18
 -1      2350 9.56181E-05-2.84009E-05-2.88095E-05-8.97159E-07-6.92357E-19-2.03757E-18
 -1      2351 9.55339E-05-2.85065E-05-2.87225E-05-5.08278E-07-8.63544E-19-1.07023E-18
 -1      2352 9.54615E-05-2.85043E-05-2.86957E-05-4.28090E-07-5.38131E-19-1.50006E-18
 -1      2353 9.54956E-05-2.84268E-05-2.87455E-05-6.46529E-07-3.91908E-19-7.89045E-19
 -1      2354 9.54226E-05-2.85109E-05-2.86737E-05-3.48641E-07-4.60908E-19-1.75589E-18
 -1      2355 9.53716E-05-2.85115E-05-2.86541E-05-2.88001E-07 2.86933E-19-1.82514E-18
 -1      2356 9.54059E-05-2.84529E-05-2.86955E-05-4.51516E-07-6.50891E-19-1.46149E-18
 -1      2357 9.53439E-05-2.85178E-05-2.86377E-05-2.28440E-07 6.84540E-19-1.87155E-18
 -1      2358 9.53093E-05-2.85200E-05-2.86238E-05-1.83642E-07 5.60144E-19-2.36436E-18
 -1      2359 9.53414E-05-2.84769E-05-2.86574E-05-3.03146E-07 1.41541E-19-1.99581E-18
 -1      2360 9.52902E-05-2.85257E-05-2.86118E-05-1.40008E-07 1.66087E-18-3.18931E-18
 -1      2361 9.52678E-05-2.85288E-05-2.86023E-05-1.07719E-07 1.24834E-18-2.47702E-18
 -1      2362 9.52964E-05-2.84979E-05-2.86288E-05-1.92756E-07 5.50545E-19-2.61238E-18
 -1      2363 9.52551E-05-2.85337E-05-2.85938E-05-7.65429E-08-7.14109E-20-1.83380E-18
 -1      2364 9.52416E-05-2.85371E-05-2.85875E-05-5.39090E-08-2.09910E-19-1.05584E-18
 -1      2365 9.52660E-05-2.85155E-05-2.86080E-05-1.12527E-07 1.03191E-18-1.89028E-18
 -1      2366 9.52336E-05-2.85412E-05-2.85817E-05-3.22748E-08-2.04743E-19-7.28188E-20
 -1      2367 9.52266E-05-2.85446E-05-2.85779E-05-1.69444E-08 8.04164E-19 1.20398E-19
 -1      2368 9.52465E-05-2.85300E-05-2.85933E-05-5.57225E-08 2.65612E-19-9.96659E-19
 -1      2369 9.52220E-05-2.85480E-05-2.85740E-05-2.48986E-09 9.90835E-19 1.24151E-19
 -1      2370 9.52194E-05-2.85513E-05-2.85719E-05 7.40135E-09 1.79317E-18-3.45186E-19
 -1      2371 9.52348E-05-2.85416E-05-2.85832E-05-1.67650E-08 5.78308E-19 3.35885E-19
 -1      2372 9.52172E-05-2.85541E-05-2.85695E-05 1.65214E-08 3.01276E-18-1.20682E-18
 -1      2373 9.52175E-05-2.85572E-05-2.85686E-05 2.23889E-08 2.99604E-18-7.19524E-19
 -1      2374 9.52288E-05-2.85510E-05-2.85765E-05 8.80445E-09 2.08083E-18-1.78690E-19
 -1      2375 9.52170E-05-2.85597E-05-2.85672E-05 2.75536E-08 1.63147E-18-6.76878E-19
 -1      2376 9.52191E-05-2.85626E-05-2.85670E-05 3.04110E-08 1.00705E-18-1.13068E-19
 -1      2377 9.52266E-05-2.85585E-05-2.85722E-05 2.44115E-08 2.46994E-18-3.01553E-19
 -1      2378 9.52197E-05-2.85648E-05-2.85663E-05 3.25842E-08 1.17579E-18 7.04995E-19
 -1      2379 9.52228E-05-2.85676E-05-2.85665E-05 3.30840E-08 2.46516E-19 1.94749E-18
 -1      2380 9.52272E-05-2.85650E-05-2.85696E-05 3.25651E-08 1.63355E-18 2.04562E-18
 -1      2381 9.52242E-05-2.85698E-05-2.85661E-05 3.29046E-08-1.22576E-18 2.94197E-18
 -1      2382 9.52276E-05-2.85726E-05-2.85665E-05 3.13726E-08-1.46060E-18 3.24133E-18
 -1      2383 9.52294E-05-2.85707E-05-2.85681E-05 3.49758E-08 3.19259E-19 2.39962E-18
 -1      2384 1.01493E-04-2.93385E-05-3.08968E-05-6.86310E-06 1.23492E-18 1.34891E-19
 -1      2385 1.00474E-04-2.88980E-05-3.06483E-05-6.07097E-06 1.35765E-18 5.55647E-19
 -1      2386 1.03487E-04-3.02638E-05-3.13650E-05-8.30141E-06 6.75312E-19-1.64080E-19
 -1      2387 1.02143E-04-2.96737E-05-3.10408E-05-7.72155E-06 9.67657E-19 1.96646E-20
 -1      2388 1.00448E-04-2.86649E-05-3.07860E-05-8.26887E-06 1.33398E-18-1.10162E-18
 -1      2389 1.06042E-04-3.15981E-05-3.19058E-05-9.15551E-06 9.50170E-19-7.54422E-20
 -1      2390 1.04436E-04-3.07854E-05-3.15503E-05-8.89941E-06 6.98375E-19-1.17648E-19
 -1      2391 1.02074E-04-2.96998E-05-3.10417E-05-9.87543E-06 9.03635E-19-1.32154E-18
 -1      2392 1.09155E-04-3.35366E-05-3.24368E-05-9.04244E-06 6.21924E-19 2.30188E-19
 -1      2393 1.07369E-04-3.24320E-05-3.20991E-05-9.33532E-06 7.53795E-19 2.36101E-19
 -1      2394 1.04386E-04-3.13377E-05-3.13385E-05-1.07892E-05 6.52810E-19-1.12346E-18
 -1      2395 1.12796E-04-3.61995E-05-3.28921E-05-7.35928E-06 1.74833E-20 8.21473E-19
 -1      2396 1.10980E-04-3.48083E-05-3.26198E-05-8.51127E-06 4.43296E-19 5.67241E-19
 -1      2397 1.07601E-04-3.39015E-05-3.16312E-05-1.05677E-05 2.26748E-19-4.43385E-19
 -1      2398 1.16741E-04-3.93550E-05-3.32678E-05-3.44936E-06 4.65868E-21 9.78800E-19
 -1      2399 1.15190E-04-3.79137E-05-3.30845E-05-5.72116E-06-1.08576E-19 1.01940E-18
 -1      2400 1.11929E-04-3.75461E-05-3.19387E-05-8.51493E-06-3.98900E-20 2.14423E-19
 -1      2401 1.20258E-04-4.19325E-05-3.36913E-05 2.91158E-06-1.61816E-19 1.27303E-18
 -1      2402 1.19512E-04-4.11464E-05-3.35603E-05-3.71172E-07-3.26968E-20 1.18925E-18
 -1      2403 1.17282E-04-4.18211E-05-3.24075E-05-3.84894E-06-2.14035E-19 6.79356E-19
 -1      2404 1.21865E-04-4.16730E-05-3.44559E-05 1.05471E-05 1.35904E-19 1.44998E-18
 -1      2405 1.22624E-04-4.27527E-05-3.42648E-05 7.22098E-06-8.44055E-20 1.54279E-18
 -1      2406 1.22687E-04-4.49672E-05-3.33721E-05 3.70119E-06-3.32020E-19 1.42726E-18
 -1      2407 1.19916E-04-3.63161E-05-3.57905E-05 1.53191E-05 1.37174E-18 1.15299E-18
 -1      2408 1.22188E-04-3.98058E-05-3.54675E-05 1.42377E-05 5.98700E-19 1.55315E-18
 -1      2409 1.25480E-04-4.34247E-05-3.52835E-05 1.26835E-05 3.88609E-19 2.01808E-18
 -1      2410 1.15242E-04-2.79554E-05-3.74068E-05 1.24627E-05 2.60304E-18 2.15365E-19
 -1      2411 1.17924E-04-3.22876E-05-3.70083E-05 1.51548E-05 2.05948E-18 9.96323E-19
 -1      2412 1.23612E-04-3.50527E-05-3.81007E-05 1.77766E-05 1.93378E-18 1.57061E-18
 -1      2413 1.12161E-04-2.29338E-05-3.84055E-05 8.98332E-07 3.25451E-18-1.91899E-18
 -1      2414 1.13075E-04-2.43009E-05-3.82648E-05 6.85325E-06 3.15372E-18-8.13324E-19
 -1      2415 1.19294E-04-2.48648E-05-4.06759E-05 1.11486E-05 3.77703E-18 3.27537E-19
 -1      2416 1.14766E-04-2.68438E-05-3.79757E-05-1.18030E-05 3.08489E-18-4.03079E-18
 -1      2417 1.12893E-04-2.39286E-05-3.81991E-05-6.76331E-06 3.41026E-18-3.24651E-18
 -1      2418 1.17229E-04-2.10941E-05-4.15173E-05-3.49401E-06 4.27005E-18-2.80511E-18
 -1      2419 1.20407E-04-3.57110E-05-3.65468E-05-1.66821E-05 7.36522E-19-4.95827E-18
 -1      2420 1.17384E-04-3.12492E-05-3.69160E-05-1.55769E-05 1.93806E-18-4.52940E-18
 -1      2421 1.21014E-04-2.85584E-05-3.97814E-05-1.57744E-05 2.68880E-18-5.08191E-18
 -1      2422 1.23734E-04-4.18676E-05-3.51139E-05-1.27685E-05-1.54464E-18-4.76327E-18
 -1      2423 1.21663E-04-3.92054E-05-3.53644E-05-1.49692E-05-3.54609E-19-4.97666E-18
 -1      2424 1.25307E-04-3.91650E-05-3.69754E-05-1.74228E-05-2.54375E-20-5.53835E-18
 -1      2425 1.22468E-04-4.25653E-05-3.42241E-05-5.01746E-06-1.87098E-18-3.38941E-18
 -1      2426 1.22264E-04-4.23820E-05-3.43172E-05-8.22371E-06-1.79248E-18-3.87286E-18
 -1      2427 1.25651E-04-4.48714E-05-3.47234E-05-1.06978E-05-2.32020E-18-5.63593E-18
 -1      2428 1.19016E-04-4.02505E-05-3.37125E-05 1.80891E-06-1.33103E-18-2.81650E-18
 -1      2429 1.19990E-04-4.13633E-05-3.38105E-05-1.02402E-06-1.35803E-18-2.59484E-18
 -1      2430 1.21237E-04-4.41611E-05-3.31551E-05-1.70796E-06-2.07994E-18-3.02897E-18
 -1      2431 1.14836E-04-3.70078E-05-3.33246E-05 6.13958E-06 2.55771E-19-2.33967E-18
 -1      2432 1.16377E-04-3.84160E-05-3.35010E-05 4.38983E-06-7.61906E-19-2.98440E-18
 -1      2433 1.15992E-04-4.04173E-05-3.24660E-05 4.98371E-06-8.80987E-19-3.08670E-18
 -1      2434 1.11019E-04-3.42344E-05-3.28902E-05 8.08209E-06 6.47787E-19-1.72663E-18
 -1      2435 1.12706E-04-3.54526E-05-3.31591E-05 7.32689E-06 9.01743E-19-1.77656E-18
 -1      2436 1.11081E-04-3.62703E-05-3.21228E-05 8.54918E-06 1.22707E-19-2.84575E-18
 -1      2437 1.07828E-04-3.22542E-05-3.23803E-05 8.39541E-06-7.27484E-19-1.59671E-18
 -1      2438 1.09440E-04-3.31639E-05-3.27075E-05 8.31848E-06 2.29870E-19-1.58576E-18
 -1      2439 1.07302E-04-3.30975E-05-3.18404E-05 9.81529E-06 3.19976E-19-1.09860E-18
 -1      2440 1.05223E-04-3.09519E-05-3.18266E-05 7.78761E-06-7.82369E-19-2.11197E-18
 -1      2441 1.06666E-04-3.15916E-05-3.21714E-05 8.08955E-06-1.19725E-18-1.99812E-18
 -1      2442 1.04524E-04-3.10280E-05-3.15201E-05 9.64427E-06-6.70263E-19-1.85005E-18
 -1      2443 1.03100E-04-3.01221E-05-3.12743E-05 6.76153E-06-3.85594E-19-2.30299E-18
 -1      2444 1.04343E-04-3.05646E-05-3.16047E-05 7.22911E-06-9.64575E-20-2.06416E-18
 -1      2445 1.02468E-04-2.98056E-05-3.11530E-05 8.71190E-06-2.34078E-19-2.20894E-18
 -1      2446 1.01370E-04-2.95928E-05-3.07600E-05 5.62297E-06 2.89718E-19-1.72548E-18
 -1      2447 1.02411E-04-2.99005E-05-3.10564E-05 6.12744E-06-4.85765E-19-2.29754E-18
 -1      2448 1.00898E-04-2.91305E-05-3.07652E-05 7.46624E-06-3.96754E-19-2.13239E-18
 -1      2449 9.99639E-05-2.92483E-05-3.03048E-05 4.53579E-06 6.18887E-19-1.13456E-18
 -1      2450 1.00817E-04-2.94651E-05-3.05588E-05 5.00963E-06 4.95089E-19-1.44629E-18
 -1      2451 9.96633E-05-2.87757E-05-3.03862E-05 6.17142E-06 5.83626E-20-2.25200E-18
 -1      2452 9.88300E-05-2.90179E-05-2.99175E-05 3.57477E-06-1.62742E-19-4.55219E-19
 -1      2453 9.95152E-05-2.91725E-05-3.01277E-05 3.98861E-06 4.34241E-19-2.38878E-19
 -1      2454 9.86734E-05-2.85973E-05-3.00377E-05 4.96632E-06 1.18887E-19-1.29597E-18
 -1      2455 9.79257E-05-2.88602E-05-2.95975E-05 2.76385E-06-7.66962E-20 4.21734E-19
 -1      2456 9.84664E-05-2.89710E-05-2.97670E-05 3.10966E-06-4.33525E-20-4.07227E-19
 -1      2457 9.78749E-05-2.85121E-05-2.97317E-05 3.91230E-06-1.00700E-19-6.73811E-19
 -1      2458 9.72138E-05-2.87505E-05-2.93394E-05 2.10052E-06 1.47379E-18-5.89346E-20
 -1      2459 9.76336E-05-2.88299E-05-2.94733E-05 2.38105E-06 1.25320E-18 4.52063E-19
 -1      2460 9.72331E-05-2.84751E-05-2.94722E-05 3.02634E-06 4.19053E-19-3.66930E-19
 -1      2461 9.66615E-05-2.86743E-05-2.91356E-05 1.57007E-06 3.93798E-19-5.56093E-19
 -1      2462 9.69822E-05-2.87306E-05-2.92393E-05 1.79275E-06 7.25556E-19 7.20759E-20
 -1      2463 9.67222E-05-2.84627E-05-2.92582E-05 2.30211E-06 1.04639E-18 9.69491E-19
 -1      2464 9.62396E-05-2.86219E-05-2.89775E-05 1.15348E-06 8.18958E-20-1.20942E-19
 -1      2465 9.64806E-05-2.86612E-05-2.90564E-05 1.32718E-06 4.98604E-19-2.18734E-19
 -1      2466 9.63209E-05-2.84628E-05-2.90857E-05 1.72249E-06 1.65910E-19 5.71436E-19
 -1      2467 9.59227E-05-2.85868E-05-2.88569E-05 8.31367E-07 1.15419E-18-7.10000E-19
 -1      2468 9.61006E-05-2.86135E-05-2.89160E-05 9.64807E-07 6.45632E-19-3.36934E-19
 -1      2469 9.60104E-05-2.84693E-05-2.89493E-05 1.26663E-06 7.61074E-19 1.62118E-18
 -1      2470 9.56889E-05-2.85643E-05-2.87665E-05 5.85931E-07 4.56520E-19-1.66623E-18
 -1      2471 9.58177E-05-2.85817E-05-2.88100E-05 6.86962E-07 8.81943E-19-1.65456E-18
 -1      2472 9.57743E-05-2.84789E-05-2.88435E-05 9.13601E-07 1.22871E-18 3.43829E-19
 -1      2473 9.55201E-05-2.85509E-05-2.87001E-05 4.01629E-07-2.15873E-19-1.19849E-18
 -1      2474 9.56112E-05-2.85617E-05-2.87314E-05 4.77004E-07-8.66999E-20-1.46464E-18
 -1      2475 9.55979E-05-2.84899E-05-2.87627E-05 6.44197E-07 4.74419E-19-1.66358E-18
 -1      2476 9.54011E-05-2.85440E-05-2.86523E-05 2.65344E-07-1.05676E-18-1.75687E-19
 -1      2477 9.54638E-05-2.85500E-05-2.86742E-05 3.20701E-07-2.81981E-19-4.61262E-19
 -1      2478 9.54690E-05-2.85011E-05-2.87023E-05 4.41624E-07-5.43975E-19-3.09543E-19
 -1      2479 9.53198E-05-2.85416E-05-2.86186E-05 1.66246E-07-6.52134E-19-3.30437E-19
 -1      2480 9.53614E-05-2.85443E-05-2.86336E-05 2.06200E-07-1.06112E-18 9.65285E-20
 -1      2481 9.53770E-05-2.85120E-05-2.86578E-05 2.91653E-07-5.85034E-19-4.73727E-19
 -1      2482 9.52665E-05-2.85421E-05-2.85957E-05 9.55541E-08-1.38732E-18-1.01141E-19
 -1      2483 9.52927E-05-2.85426E-05-2.86055E-05 1.23816E-07-6.19157E-19 2.08643E-19
 -1      2484 9.53132E-05-2.85221E-05-2.86258E-05 1.82497E-07-1.11954E-18 1.20781E-18
 -1      2485 9.52337E-05-2.85445E-05-2.85807E-05 4.62583E-08-9.76407E-19 9.42581E-19
 -1      2486 9.52488E-05-2.85435E-05-2.85868E-05 6.57700E-08-1.54621E-18 5.86752E-20
 -1      2487 9.52706E-05-2.85313E-05-2.86034E-05 1.04571E-07-1.19911E-18 3.74069E-19
 -1      2488 9.52155E-05-2.85479E-05-2.85716E-05 1.28561E-08-1.25753E-18 2.41632E-18
 -1      2489 9.52228E-05-2.85461E-05-2.85749E-05 2.59087E-08-7.34426E-19 1.57075E-18
 -1      2490 9.52437E-05-2.85395E-05-2.85881E-05 5.02087E-08-1.27961E-18 4.00443E-19
 -1      2491 9.52075E-05-2.85519E-05-2.85665E-05-8.88635E-09-3.16539E-19 3.83904E-19
 -1      2492 9.52095E-05-2.85497E-05-2.85680E-05-5.46857E-10-4.05410E-19 1.64986E-18
 -1      2493 9.52281E-05-2.85466E-05-2.85782E-05 1.33861E-08-1.25089E-19 1.03029E-18
 -1      2494 9.52063E-05-2.85562E-05-2.85642E-05-2.21371E-08 1.35026E-18-4.65937E-21
 -1      2495 9.52049E-05-2.85537E-05-2.85645E-05-1.72227E-08 1.17283E-19 5.33912E-19
 -1      2496 9.52204E-05-2.85529E-05-2.85721E-05-1.05276E-08 9.74819E-20-5.31884E-19
 -1      2497 9.52094E-05-2.85606E-05-2.85637E-05-2.91699E-08 1.16359E-18 7.46525E-19
 -1      2498 9.52060E-05-2.85580E-05-2.85632E-05-2.67791E-08 8.92171E-19 5.20103E-19
 -1      2499 9.52182E-05-2.85584E-05-2.85687E-05-2.49908E-08 7.77304E-19 6.77301E-19
 -1      2500 9.52150E-05-2.85649E-05-2.85643E-05-3.14955E-08 4.06073E-19 1.19309E-18
 -1      2501 9.52105E-05-2.85623E-05-2.85634E-05-3.10655E-08 4.10021E-19 1.39871E-18
 -1      2502 9.52195E-05-2.85635E-05-2.85670E-05-3.24849E-08 1.59989E-19 2.51349E-18
 -1      2503 9.52218E-05-2.85695E-05-2.85653E-05-2.99843E-08 1.28676E-18 3.06451E-18
 -1      2504 9.52170E-05-2.85668E-05-2.85644E-05-3.12569E-08 1.59736E-18 3.17568E-18
 -1      2505 9.52231E-05-2.85683E-05-2.85664E-05-3.46785E-08-1.81477E-20 1.79365E-18
 -1      2506 9.52288E-05-2.85741E-05-2.85664E-05-2.50461E-08-1.18756E-18 4.36285E-18
 -1      2507 9.52243E-05-2.85714E-05-2.85655E-05-2.78508E-08 3.42985E-19 4.49274E-18
 -1      2508 9.52280E-05-2.85733E-05-2.85663E-05-3.26112E-08 8.23433E-20 5.19671E-18
 -1      2509 9.52316E-05-2.85762E-05-2.85666E-05-2.09661E-08 1.55758E-20 3.41260E-18
 -1      2510 9.52516E-05-2.85993E-05-2.85652E-05-2.08478E-08 7.09308E-19-2.29805E-18
 -1      2511 9.52499E-05-2.85967E-05-2.85657E-05-2.36515E-08 8.28342E-19-3.37415E-18
 -1      2512 9.52536E-05-2.86021E-05-2.85649E-05-1.37632E-08 1.70484E-18-6.38494E-19
 -1      2513 9.52526E-05-2.86003E-05-2.85652E-05-1.72455E-08 9.02361E-19-1.39136E-18
 -1      2514 9.52522E-05-2.85934E-05-2.85680E-05-2.06638E-08 1.53853E-18-1.43888E-18
 -1      2515 9.52435E-05-2.85894E-05-2.85660E-05-2.92755E-08 4.28388E-19 1.04903E-18
 -1      2516 9.52403E-05-2.85854E-05-2.85665E-05-2.93388E-08 1.99153E-19 1.59584E-18
 -1      2517 9.52483E-05-2.85950E-05-2.85656E-05-2.63484E-08-9.14218E-19-2.06615E-18
 -1      2518 9.52459E-05-2.85917E-05-2.85661E-05-2.79894E-08-1.10703E-18 6.65359E-19
 -1      2519 9.52441E-05-2.85866E-05-2.85675E-05-3.14044E-08-8.94911E-19-1.73246E-19
 -1      2520 9.52490E-05-2.85907E-05-2.85679E-05-2.72374E-08 3.37284E-19-1.41811E-18
 -1      2521 9.52545E-05-2.86035E-05-2.85646E-05-5.87541E-09 3.24189E-19 1.35539E-18
 -1      2522 9.52540E-05-2.86027E-05-2.85648E-05-9.68834E-09 7.12270E-19-5.32067E-19
 -1      2523 9.52539E-05-2.85951E-05-2.85681E-05-1.26729E-08 1.34583E-18-1.25990E-18
 -1      2524 9.52545E-05-2.86036E-05-2.85646E-05 2.26955E-09 9.90632E-19-4.53015E-19
 -1      2525 9.52546E-05-2.86037E-05-2.85646E-05-1.62192E-09-9.95342E-20 1.64741E-18
 -1      2526 9.52546E-05-2.85957E-05-2.85681E-05-4.02656E-09 1.12929E-18 9.41396E-19
 -1      2527 9.52538E-05-2.86024E-05-2.85648E-05 1.02482E-08 1.96215E-19-2.98606E-18
 -1      2528 9.52543E-05-2.86034E-05-2.85646E-05 6.48950E-09 4.38399E-19-2.33179E-18
 -1      2529 9.52545E-05-2.85956E-05-2.85681E-05 4.76125E-09 1.16439E-18-2.09099E-18
 -1      2530 9.52523E-05-2.86000E-05-2.85652E-05 1.75020E-08 6.32753E-19-3.11824E-18
 -1      2531 9.52533E-05-2.86018E-05-2.85649E-05 1.41684E-08 2.75071E-19-3.38331E-18
 -1      2532 9.52536E-05-2.85947E-05-2.85681E-05 1.32035E-08 1.25624E-18-3.18796E-18
 -1      2533 9.52496E-05-2.85962E-05-2.85657E-05 2.36941E-08 1.36532E-18-4.28556E-19
 -1      2534 9.52513E-05-2.85989E-05-2.85653E-05 2.09906E-08 1.40120E-18-3.14058E-18
 -1      2535 9.52518E-05-2.85930E-05-2.85681E-05 2.09067E-08 2.12296E-18-2.71329E-18
 -1      2536 9.52456E-05-2.85912E-05-2.85662E-05 2.78509E-08 2.79428E-19 1.72455E-18
 -1      2537 9.52480E-05-2.85946E-05-2.85657E-05 2.62816E-08 1.93326E-19 2.09627E-18
 -1      2538 9.52486E-05-2.85902E-05-2.85679E-05 2.72832E-08 1.28758E-18-8.64142E-19
 -1      2539 9.52401E-05-2.85850E-05-2.85665E-05 2.88808E-08-2.13334E-18 9.54098E-19
 -1      2540 9.52432E-05-2.85889E-05-2.85661E-05 2.90367E-08-1.21467E-18 6.75963E-19
 -1      2541 9.52439E-05-2.85861E-05-2.85676E-05 3.11518E-08-2.21890E-19 3.84874E-19
 -1      2542 9.52914E-05-5.31820E-05-1.81545E-05 4.00720E-05-3.55330E-19 3.24729E-18
 -1      2543 7.63994E-05-4.69733E-05-1.24801E-05 4.00989E-05-1.24683E-18 3.48194E-18
 -1      2544 9.52351E-05-2.85805E-05-2.85663E-05 2.42948E-08-1.17084E-18 2.67180E-18
 -1      2545 1.95846E-05-1.79977E-05-4.11083E-07-9.42549E-06 1.58165E-18 9.18946E-18
 -1      2546 2.74744E-05-2.18570E-05-2.12840E-06-2.53528E-05 1.37960E-18 8.55652E-18
 -1      2547 1.00090E-04-2.86460E-05-3.05854E-05-4.99146E-06 1.45752E-18 8.18775E-19
 -1      2548 9.94639E-05-2.82881E-05-3.04588E-05-3.98421E-06 1.80135E-18 1.18364E-18
 -1      2549 9.93817E-05-2.79322E-05-3.06428E-05-6.15780E-06 1.81131E-18-5.07433E-19
 -1      2550 2.54935E-05-2.02954E-05-1.93516E-06 1.89943E-05 3.12555E-19 6.59839E-18
 -1      2551 2.02095E-05-1.72911E-05-9.09447E-07 5.89619E-06 3.34234E-19 8.30219E-18
 -1      2552 7.18828E-05-4.38899E-05-1.17963E-05-4.28869E-05 2.97245E-18 3.12418E-18
 -1      2553 8.90869E-05-4.96427E-05-1.69152E-05-4.34806E-05 1.96596E-18 1.55035E-18
 -1      2554 1.28312E-04-6.03334E-05-2.95220E-05 2.54865E-05 2.38228E-19-2.33040E-19
 -1      2555 1.12760E-04-5.83539E-05-2.32428E-05 3.21914E-05-2.89897E-19 1.43233E-18
 -1      2556 5.54167E-05-3.69330E-05-7.85356E-06 3.94084E-05-1.02195E-18 4.47615E-18
 -1      2557 3.71808E-05-2.84539E-05-3.51537E-06 2.97734E-05-1.20490E-18 6.04570E-18
 -1      2558 1.44948E-04-2.20113E-05-5.31503E-05 5.39302E-06-6.40166E-18-3.49825E-18
 -1      2559 1.46571E-04-1.54282E-05-5.66396E-05 4.75088E-06-7.44902E-18-3.15012E-18
 -1      2560 1.28079E-04-5.66950E-05-3.06680E-05 2.83333E-05-3.13085E-18-1.29744E-18
 -1      2561 1.13684E-04-5.67763E-05-2.43759E-05 3.38781E-05-1.53017E-18-2.06517E-18
 -1      2562 6.37370E-05-3.93121E-05-1.03120E-05 4.31987E-05 8.63762E-19-6.52935E-18
 -1      2563 4.52060E-05-3.26858E-05-5.22179E-06 3.70240E-05 6.20240E-19-8.65943E-18
 -1      2564 8.40299E-05-7.87187E-06-3.26740E-05-3.63485E-07 1.77886E-19-5.99999E-18
 -1      2565 8.44589E-05-8.18018E-06-3.27134E-05-1.06423E-06-3.15557E-19-5.96550E-18
 -1      2566 8.57329E-05-1.01118E-05-3.24057E-05-9.52204E-07-5.02775E-19-5.57753E-18
 -1      2567 8.47465E-05-9.25355E-06-3.23494E-05 6.91774E-08 2.83272E-19-5.70067E-18
 -1      2568 1.51528E-04-2.83581E-05-5.30427E-05 8.19366E-06 7.21439E-18 1.75463E-18
 -1      2569 1.54059E-04-2.20994E-05-5.68550E-05 6.63891E-06 8.84218E-18 1.39168E-18
 -1      2570 1.54508E-04-1.60594E-05-5.94820E-05-4.26328E-06 8.67616E-18-7.82447E-19
 -1      2571 1.52119E-04-1.94850E-05-5.72086E-05-6.78723E-06 8.01759E-18-1.70804E-18
 -1      2572 1.51583E-04-1.55181E-05-5.86800E-05 3.21209E-06 9.86200E-18 1.53736E-19
 -1      2573 1.52157E-04-1.40905E-05-5.94738E-05-5.26933E-07 9.59688E-18-2.00535E-19
 -1      2574 1.49286E-04-4.97647E-05-4.28068E-05-2.48035E-06 3.94626E-18 1.55854E-18
 -1      2575 1.52752E-04-4.11017E-05-4.85265E-05 3.34371E-06 5.66358E-18 2.24040E-18
 -1      2576 1.30643E-04-5.89750E-05-3.08147E-05-2.35382E-05 7.17225E-19-1.13884E-18
 -1      2577 1.42508E-04-5.68597E-05-3.72126E-05-1.52200E-05 2.01139E-18 2.92438E-19
 -1      2578 1.00052E-04-5.53216E-05-1.91009E-05-3.77091E-05-1.25403E-18-3.47188E-18
 -1      2579 1.17796E-04-5.85307E-05-2.55760E-05-3.39552E-05 1.72795E-19-2.25681E-18
 -1      2580 1.28742E-04-6.16767E-05-2.84192E-05-2.40813E-05-1.67141E-18-1.25043E-19
 -1      2581 5.87935E-05-3.97662E-05-7.98494E-06-3.91796E-05-2.30562E-18-7.26786E-18
 -1      2582 7.79423E-05-4.69164E-05-1.33878E-05-4.31446E-05-1.61677E-18-5.58692E-18
 -1      2583 2.65763E-05-2.51195E-05-5.31363E-07-2.22387E-05-1.63223E-18-1.00246E-17
 -1      2584 3.91239E-05-3.03112E-05-3.73955E-06-3.37063E-05-1.24196E-18-8.72995E-18
 -1      2585 1.87061E-05-1.76304E-05-1.53448E-07 2.96622E-06-9.48518E-19-1.05629E-17
 -1      2586 2.05640E-05-2.01426E-05 8.88839E-08-1.13455E-05-5.25902E-19-1.09720E-17
 -1      2587 3.26247E-05-2.58293E-05-2.72829E-06 3.06406E-05-8.83032E-20-9.75189E-18
 -1      2588 2.36097E-05-2.08555E-05-8.97102E-07 1.87836E-05 4.28810E-20-9.98694E-18
 -1      2589 4.64353E-05-2.75626E-05-7.55520E-06 3.40934E-05 1.91641E-18-8.49002E-18
 -1      2590 1.02867E-04-5.42727E-05-2.06360E-05 4.04851E-05-9.49312E-19-3.52879E-18
 -1      2591 8.85442E-05-5.00546E-05-1.63117E-05 4.24187E-05 2.64910E-19-4.10507E-18
 -1      2592 1.15963E-04-5.83605E-05-2.45208E-05 3.23652E-05 7.91341E-19-7.76306E-19
 -1      2593 1.44640E-04-1.07193E-05-5.78401E-05 2.28929E-06-8.22257E-18-2.34231E-18
 -1      2594 1.43596E-04-9.82449E-06-5.78396E-05-2.94534E-07-8.54699E-18-1.81334E-18
 -1      2595 1.46763E-04-2.69404E-05-5.17036E-05-4.60862E-06-7.44118E-18-1.11173E-19
 -1      2596 1.44764E-04-3.37897E-05-4.80339E-05-3.43519E-06-6.42422E-18 5.71747E-20
 -1      2597 1.05609E-04-5.48154E-05-2.16702E-05-3.68844E-05 1.42979E-18 2.40240E-19
 -1      2598 1.20516E-04-5.68993E-05-2.75889E-05-3.15921E-05 5.44854E-19-1.40967E-18
 -1      2599 1.45365E-04-1.30887E-05-5.71354E-05-3.61831E-06-8.56054E-18-8.90655E-19
 -1      2600 1.45082E-04-1.86247E-05-5.46773E-05-4.94766E-06-8.26344E-18-7.81176E-19
 -1      2601 1.37778E-04-2.15672E-05-5.00640E-05-9.47598E-06-7.02741E-18 7.53648E-19
 -1      2602 1.44113E-04-3.94421E-05-4.50826E-05 1.53260E-06-3.50629E-18-3.55669E-18
 -1      2603 1.46350E-04-3.24969E-05-4.92735E-05 3.82378E-06-4.85096E-18-3.47241E-18
 -1      2604 1.33249E-04-5.50477E-05-3.34563E-05-1.85862E-05-1.97465E-19-2.18153E-18
 -1      2605 1.42650E-04-4.99489E-05-4.02174E-05-9.16312E-06-1.67699E-18-3.40910E-18
 -1      2606 4.03594E-05-2.96589E-05-4.33533E-06-3.49439E-05 2.84031E-18 6.51919E-18
 -1      2607 5.38912E-05-3.54228E-05-7.78504E-06-4.18692E-05 2.68848E-18 4.76795E-18
 -1      2608 9.71852E-05-2.05545E-05-3.28812E-05-8.94311E-06-4.26619E-18-1.67158E-18
 -1      2609 9.79925E-05-2.39558E-05-3.17494E-05-5.05435E-06-3.81021E-18-1.27890E-18
 -1      2610 9.71570E-05-2.28997E-05-3.18143E-05-4.34755E-06-3.52240E-18-2.01833E-18
 -1      2611 9.48670E-05-1.79106E-05-3.30027E-05-8.40029E-06-4.11160E-18-2.77375E-18
 -1      2612 9.96273E-05-2.58610E-05-3.16215E-05 4.57358E-06 4.16444E-18 2.86838E-18
 -1      2613 1.00290E-04-2.45099E-05-3.24925E-05 7.83709E-06 4.51709E-18 3.50367E-18
 -1      2614 9.84801E-05-2.19134E-05-3.28687E-05 8.77719E-06 4.85265E-18 1.86760E-18
 -1      2615 9.87046E-05-2.45760E-05-3.18037E-05 4.01645E-06 4.23962E-18 1.04723E-18
 -1      2616 1.48307E-04-5.23155E-05-4.16393E-05 2.45679E-06 2.57556E-18-3.27315E-18
 -1      2617 1.40659E-04-5.79888E-05-3.54272E-05 1.12706E-05 8.45551E-19-1.91387E-18
 -1      2618 1.42233E-04-1.75854E-05-5.35881E-05 7.92060E-06 8.37123E-18 7.03037E-19
 -1      2619 8.96653E-05-1.36303E-05-3.25775E-05-3.64390E-06-2.31304E-18-5.15922E-18
 -1      2620 8.90645E-05-1.22024E-05-3.29988E-05-4.95237E-06-2.51057E-18-5.43817E-18
 -1      2621 9.03468E-05-1.32529E-05-3.30908E-05-6.07255E-06-3.14811E-18-5.04633E-18
 -1      2622 9.88098E-05-2.72192E-05-3.07018E-05-3.50349E-06 2.40905E-18 1.08933E-19
 -1      2623 9.63008E-05-1.93680E-05-3.30177E-05 8.27637E-06 4.73988E-18-5.62350E-20
 -1      2624 1.48997E-04-4.78966E-05-4.34765E-05-5.31440E-06 3.14244E-18-4.22606E-18
 -1      2625 1.43739E-04-5.24416E-05-3.91635E-05-5.19635E-06 5.93505E-19-5.35822E-18
 -1      2626 1.44461E-04-4.18532E-05-4.48567E-05-1.22663E-05 3.09887E-18-5.05043E-18
 -1      2627 1.29326E-04-5.80723E-05-3.03905E-05-2.05949E-05 1.31714E-18-2.67091E-18
 -1      2628 1.49030E-04-2.55294E-05-5.33009E-05-1.08559E-05 6.38896E-18-3.20030E-18
 -1      2629 1.43120E-04-2.99086E-05-4.86865E-05-1.42547E-05 4.78087E-18-4.60341E-18
 -1      2630 1.39316E-04-2.03415E-05-5.16004E-05-1.25726E-05 6.34449E-18-3.80381E-18
 -1      2631 1.34321E-04-9.89449E-06-5.35745E-05-3.25779E-06-7.89710E-18-1.26727E-18
 -1      2632 1.02450E-04-5.38454E-05-2.05085E-05-3.78712E-05 3.53848E-18-2.52363E-19
 -1      2633 3.94799E-05-2.32371E-05-6.41541E-06-2.93744E-05 2.86996E-18 6.57700E-18
 -1      2634 1.38240E-04-2.60259E-05-4.83225E-05 1.03972E-05-4.89310E-18-3.93066E-18
 -1      2635 9.52332E-05-2.85782E-05-2.85665E-05-2.62735E-08-3.73244E-19 4.11044E-18
 -1      2636 9.52358E-05-2.85812E-05-2.85662E-05-2.81338E-08 5.00474E-19 3.64577E-18
 -1      2637 7.20303E-05-4.16230E-05-1.26275E-05 3.89445E-05-2.27492E-18 3.34514E-18
 -1      2638 1.08847E-04-5.73110E-05-2.17590E-05 3.34483E-05-1.91175E-18 8.93514E-19
 -1      2639 9.52316E-05-2.85763E-05-2.85666E-05 2.71121E-08-8.60729E-19 3.20524E-18
 -1      2640 9.52370E-05-2.85820E-05-2.85664E-05 2.91633E-08-1.69625E-18 3.67752E-18
 -1      2641 9.52371E-05-2.85804E-05-2.85671E-05 3.22188E-08-2.26818E-18 2.59068E-18
 -1      2642 9.52286E-05-2.85741E-05-2.85663E-05 3.00497E-08-1.12747E-18 4.01423E-18
 -1      2643 2.76286E-05-1.66565E-05-4.17752E-06 1.08410E-05 8.22681E-20-1.00892E-17
 -1      2644 2.77755E-05-1.48515E-05-4.88591E-06-2.29154E-06 1.13243E-18 8.09531E-18
 -1      2645 9.63901E-05-2.04936E-05-3.24863E-05 6.00190E-06 4.40819E-18-5.21481E-19
 -1      2646 3.97689E-05-2.25002E-05-6.81139E-06 2.47889E-05-1.60216E-18 5.65394E-18
 -1      2647 3.05972E-05-1.92684E-05-4.36168E-06-1.75659E-05-1.67321E-18-9.87386E-18
 -1      2648 9.56431E-05-5.26008E-05-1.81187E-05-3.83797E-05-3.30428E-18-3.17504E-18
 -1      2649 9.31461E-05-1.62241E-05-3.30115E-05-7.32295E-06-3.58538E-18-3.81539E-18
 -1      2650 1.34537E-04-1.14175E-05-5.29917E-05 5.78907E-06-7.22794E-18-3.33562E-18
 -1      2651 1.46397E-04-5.59732E-05-3.84536E-05-2.57916E-06 1.60407E-18 2.38376E-18
 -1      2652 9.56600E-05-5.08774E-05-1.92747E-05 3.91391E-05 2.83693E-18-2.40187E-18
 -1      2653 8.10513E-05-4.60349E-05-1.46249E-05 4.27169E-05 1.65002E-18-4.68833E-18
 -1      2654 7.27844E-05-3.93211E-05-1.38613E-05 4.11831E-05 2.96949E-18-4.74825E-18
 -1      2655 1.35800E-04-5.68665E-05-3.38843E-05 1.59556E-05-1.85622E-18 6.69580E-19
 -1      2656 1.36002E-04-6.07386E-05-3.20769E-05 1.39510E-05-9.58735E-19-3.02740E-18
 -1      2657 6.94701E-05-3.98733E-05-1.22698E-05-4.18418E-05 4.23940E-18 2.88012E-18
 -1      2658 1.41647E-04-1.31601E-05-5.52624E-05-3.28136E-06 8.64334E-18-1.80505E-18
 -1      2659 1.44441E-04-4.06215E-05-4.47846E-05-2.26405E-06-5.08040E-18 5.75771E-19
 -1      2660 1.40569E-04-4.56184E-05-4.07888E-05-9.71524E-07-3.50481E-18 1.56352E-18
 -1      2661 1.38125E-04-3.56970E-05-4.42621E-05-9.16948E-06-4.54200E-18 2.46804E-18
 -1      2662 1.46717E-04-3.50270E-05-4.78619E-05 1.23562E-05 5.39475E-18 3.06880E-18
 -1      2663 5.56420E-05-3.37294E-05-8.90956E-06-3.66447E-05-2.88499E-18-7.25103E-18
 -1      2664 1.40470E-04-4.64785E-05-4.04320E-05 6.26482E-07-1.44356E-18-4.10959E-18
 -1      2665 9.52359E-05-2.85800E-05-2.85668E-05-3.18815E-08-4.47249E-19 2.96119E-18
 -1      2666 9.52322E-05-2.85756E-05-2.85672E-05 3.34007E-08-1.09258E-18 3.94788E-18
 -1      2667 8.59031E-05-1.11096E-05-3.20741E-05 1.54336E-06 1.97076E-18-4.91389E-18
 -1      2668 8.53824E-05-1.06821E-05-3.20362E-05 1.18580E-06 1.57173E-18-5.03937E-18
 -1      2669 8.50741E-05-1.04239E-05-3.20143E-05 1.07105E-06 1.29315E-18-5.18227E-18
 -1      2670 8.49916E-05-1.03570E-05-3.20022E-05 7.07556E-07 8.01613E-19-5.24943E-18
 -1      2671 8.58259E-05-1.18335E-05-3.16882E-05 9.23272E-07 1.32910E-18-4.83212E-18
 -1      2672 9.02481E-05-1.50612E-05-3.22504E-05 2.75584E-06 3.46492E-18-3.59421E-18
 -1      2673 8.88730E-05-1.38003E-05-3.22070E-05 2.27473E-06 3.06126E-18-3.91289E-18
 -1      2674 9.35689E-05-1.84344E-05-3.22325E-05 3.44307E-06 3.96238E-18-2.51115E-18
 -1      2675 9.18420E-05-1.66521E-05-3.22535E-05 2.99396E-06 3.65207E-18-3.12178E-18
 -1      2676 9.17538E-05-1.73311E-05-3.18694E-05 1.50681E-06 3.28349E-18-3.07001E-18
 -1      2677 9.76717E-05-2.50494E-05-3.11190E-05-9.24607E-07 3.14718E-18-6.22567E-19
 -1      2678 9.76614E-05-2.42559E-05-3.14290E-05 1.15928E-06 3.55764E-18-4.10521E-19
 -1      2679 5.18940E-05-2.52523E-05-1.10460E-05 3.07936E-05-1.68867E-18 4.02394E-18
 -1      2680 4.02357E-05-1.70487E-05-9.48729E-06 1.93216E-05-7.85517E-19 4.79230E-18
 -1      2681 9.79493E-05-2.61970E-05-3.07391E-05-4.24045E-06 2.33045E-18-9.01266E-19
 -1      2682 9.77711E-05-2.56951E-05-3.08568E-05-2.66950E-06 2.69223E-18-6.37300E-19
 -1      2683 9.65639E-05-2.39224E-05-3.11365E-05-1.66901E-06 3.08172E-18-1.48207E-18
 -1      2684 9.64567E-05-2.16510E-05-3.20604E-05 3.85849E-06 4.05540E-18-8.40793E-19
 -1      2685 1.23231E-04-5.82154E-05-2.75204E-05-2.27102E-05 2.53819E-18-2.85519E-18
 -1      2686 1.32028E-04-5.75017E-05-3.25101E-05-1.24903E-05 1.45168E-18-3.38702E-18
 -1      2687 9.76193E-05-2.60572E-05-3.06378E-05 1.62378E-06-2.12857E-18-2.14934E-18
 -1      2688 9.78405E-05-2.68259E-05-3.04420E-05 2.81933E-06-1.90801E-18-2.15387E-18
 -1      2689 9.82016E-05-2.75609E-05-3.02454E-05 3.83097E-06-1.71454E-18-1.85337E-18
 -1      2690 9.85785E-05-2.82545E-05-3.01439E-05 4.57122E-06-1.46385E-18-2.03509E-18
 -1      2691 9.72809E-05-2.63794E-05-3.04022E-05 3.45457E-06-1.75191E-18-2.37266E-18
 -1      2692 9.90777E-05-2.89769E-05-3.00154E-05 5.21045E-06-1.19158E-18-1.72580E-18
 -1      2693 9.96533E-05-2.97319E-05-2.99733E-05 5.53284E-06-8.78402E-19-1.57496E-18
 -1      2694 9.81445E-05-2.80825E-05-3.00475E-05 5.22292E-06-1.25452E-18-2.11776E-18
 -1      2695 1.00399E-04-3.05728E-05-2.98955E-05 5.77975E-06-6.70785E-19-1.31199E-18
 -1      2696 1.01176E-04-3.14598E-05-2.98916E-05 5.66542E-06-6.20506E-19-1.34508E-18
 -1      2697 9.93925E-05-2.98979E-05-2.98096E-05 6.22860E-06-7.54771E-19-1.77044E-18
 -1      2698 1.02242E-04-3.24845E-05-2.98614E-05 5.45168E-06-5.27169E-19-1.23392E-18
 -1      2699 1.03187E-04-3.34978E-05-2.98895E-05 4.84590E-06-5.11409E-19-1.16956E-18
 -1      2700 1.01206E-04-3.20475E-05-2.96714E-05 6.39029E-06-5.73929E-19-1.51534E-18
 -1      2701 1.04586E-04-3.46740E-05-2.99235E-05 4.06273E-06-4.31438E-19-9.61458E-19
 -1      2702 1.05594E-04-3.56874E-05-2.99946E-05 2.91634E-06-5.78287E-19-9.32067E-19
 -1      2703 1.03682E-04-3.45786E-05-2.96516E-05 5.53180E-06-3.09453E-19-1.21864E-18
 -1      2704 1.07215E-04-3.68207E-05-3.01322E-05 1.45729E-06-5.82670E-19-4.19036E-19
 -1      2705 1.08067E-04-3.75223E-05-3.02746E-05-1.97205E-07-5.56104E-19-2.10240E-19
 -1      2706 1.06736E-04-3.72472E-05-2.98144E-05 3.42138E-06-3.10483E-19-1.39137E-19
 -1      2707 1.09572E-04-3.81843E-05-3.05723E-05-2.30109E-06-6.75189E-19 1.85848E-19
 -1      2708 1.09947E-04-3.80962E-05-3.08230E-05-4.21729E-06-5.95165E-19 4.04388E-19
 -1      2709 1.09939E-04-3.93428E-05-3.02701E-05-9.53162E-08-3.30080E-19 4.35309E-19
 -1      2710 1.10771E-04-3.76960E-05-3.13353E-05-6.59336E-06-6.74784E-19 6.27439E-19
 -1      2711 1.10358E-04-3.63403E-05-3.17169E-05-8.20595E-06-4.95465E-19 3.68502E-19
 -1      2712 1.12373E-04-3.96318E-05-3.11489E-05-4.68151E-06-6.54164E-19 7.99518E-19
 -1      2713 1.09891E-04-3.43951E-05-3.24386E-05-9.90760E-06-5.73373E-19 2.65979E-19
 -1      2714 1.08682E-04-3.17784E-05-3.29114E-05-1.03245E-05-9.15977E-19-1.70190E-19
 -1      2715 1.12799E-04-3.67872E-05-3.25214E-05-9.16442E-06-1.05897E-18 6.44513E-19
 -1      2716 1.07010E-04-2.86892E-05-3.36923E-05-1.00561E-05-9.45315E-19-6.21055E-19
 -1      2717 1.05556E-04-2.58039E-05-3.41206E-05-8.57042E-06-1.60484E-18-2.71183E-19
 -1      2718 1.10610E-04-3.06867E-05-3.42243E-05-1.10659E-05-1.08228E-18 3.55678E-19
 -1      2719 1.03859E-04-2.31747E-05-3.46744E-05-5.71815E-06-2.32260E-18-5.45522E-19
 -1      2720 1.03105E-04-2.17055E-05-3.48785E-05-2.58184E-06-1.96242E-18-5.82137E-19
 -1      2721 1.07044E-04-2.37148E-05-3.57535E-05-8.06605E-06-2.03017E-18-9.15987E-20
 -1      2722 1.02920E-04-2.13983E-05-3.49481E-05 1.67583E-06-2.15074E-18-1.30927E-18
 -1      2723 1.03385E-04-2.23238E-05-3.48338E-05 4.98282E-06-1.99944E-18-1.79243E-18
 -1      2724 1.05037E-04-2.01470E-05-3.64669E-05-5.24614E-07-2.52576E-18-9.17208E-19
 -1      2725 1.04914E-04-2.45483E-05-3.43787E-05 8.41439E-06-1.72676E-18-2.20414E-18
 -1      2726 1.06345E-04-2.72866E-05-3.40014E-05 1.03282E-05-1.58130E-18-2.67928E-18
 -1      2727 1.06296E-04-2.23091E-05-3.60199E-05 7.61040E-06-2.21637E-18-1.65581E-18
 -1      2728 1.08138E-04-3.04104E-05-3.32592E-05 1.11827E-05-8.44598E-19-2.84596E-18
 -1      2729 1.09521E-04-3.32037E-05-3.28034E-05 1.11772E-05-2.11733E-19-2.87892E-18
 -1      2730 1.09875E-04-2.90208E-05-3.46351E-05 1.17258E-05-1.19784E-18-2.46238E-18
 -1      2731 1.10285E-04-3.54472E-05-3.20633E-05 9.84680E-06-2.23097E-19-2.61651E-18
 -1      2732 1.10933E-04-3.71151E-05-3.16720E-05 8.47057E-06-1.21744E-19-2.52612E-18
 -1      2733 1.12519E-04-3.55194E-05-3.29485E-05 1.08480E-05-1.05479E-19-2.58335E-18
 -1      2734 1.10366E-04-3.78394E-05-3.11127E-05 6.19140E-06-5.43888E-20-1.92490E-18
 -1      2735 1.10193E-04-3.81983E-05-3.08443E-05 4.32147E-06 2.99723E-19-2.04072E-18
 -1      2736 1.12657E-04-3.91026E-05-3.14899E-05 6.80363E-06 8.54105E-20-1.64819E-18
 -1      2737 1.08785E-04-3.77313E-05-3.04954E-05 2.13597E-06 6.95457E-19-2.08831E-18
 -1      2738 1.08053E-04-3.71947E-05-3.03350E-05 4.16698E-07 1.32927E-18-1.52801E-18
 -1      2739 1.10580E-04-3.94403E-05-3.04934E-05 2.15611E-06 3.44788E-19-1.27116E-18
 -1      2740 1.06411E-04-3.61529E-05-3.01488E-05-1.19382E-06 1.30162E-18-1.80339E-18
 -1      2741 1.05449E-04-3.52325E-05-3.00564E-05-2.47197E-06 1.45277E-18-1.73658E-18
 -1      2742 1.07449E-04-3.76963E-05-2.99213E-05-1.62494E-06 1.16706E-18-1.47687E-18
 -1      2743 1.03963E-04-3.40976E-05-2.99684E-05-3.44434E-06 1.18072E-18-2.17393E-18
 -1      2744 1.03004E-04-3.31520E-05-2.99062E-05-4.23661E-06 3.15472E-19-2.03772E-18
 -1      2745 1.04285E-04-3.51948E-05-2.96424E-05-4.10443E-06 1.06405E-18-2.34491E-18
 -1      2746 1.01829E-04-3.21797E-05-2.98642E-05-4.68962E-06-4.60747E-19-2.27588E-18
 -1      2747 1.00986E-04-3.13845E-05-2.98074E-05-5.07013E-06-7.56631E-19-2.68594E-18
 -1      2748 1.01619E-04-3.27944E-05-2.95243E-05-5.41374E-06-3.19127E-19-1.90207E-18
 -1      2749 1.00128E-04-3.06579E-05-2.97790E-05-5.15911E-06-7.44749E-19-2.66767E-18
 -1      2750 9.94332E-05-3.00627E-05-2.97164E-05-5.23692E-06-3.71608E-19-2.95941E-18
 -1      2751 9.95954E-05-3.08744E-05-2.94728E-05-5.85982E-06-5.78598E-19-1.10850E-18
 -1      2752 9.88386E-05-2.95723E-05-2.96858E-05-5.09591E-06 2.70477E-19-2.94254E-18
 -1      2753 9.82836E-05-2.91631E-05-2.96154E-05-4.97519E-06 7.07610E-19-2.57111E-18
 -1      2754 9.81547E-05-2.95083E-05-2.94344E-05-5.73675E-06 7.26399E-20-1.59817E-18
 -1      2755 9.78846E-05-2.88630E-05-2.95774E-05-4.70521E-06 1.04008E-18-2.17893E-18
 -1      2756 9.74477E-05-2.86021E-05-2.95017E-05-4.47032E-06 8.04748E-19-1.94292E-18
 -1      2757 9.71708E-05-2.86275E-05-2.93852E-05-5.27494E-06 1.09014E-18-1.91307E-18
 -1      2758 9.71851E-05-2.84397E-05-2.94570E-05-4.14199E-06 7.46202E-19-1.77494E-18
 -1      2759 9.68431E-05-2.82868E-05-2.93804E-05-3.85478E-06 7.24823E-19-1.72734E-18
 -1      2760 9.65161E-05-2.81183E-05-2.93196E-05-4.63980E-06 9.08843E-19-1.55187E-18
 -1      2761 9.66717E-05-2.82166E-05-2.93317E-05-3.51458E-06 3.91683E-19-1.76653E-18
 -1      2762 9.64046E-05-2.81372E-05-2.92581E-05-3.21684E-06 4.04162E-19-1.70504E-18
 -1      2763 9.60868E-05-2.78691E-05-2.92403E-05-3.94346E-06 5.25201E-19-1.19063E-18
 -1      2764 9.62926E-05-2.81241E-05-2.92087E-05-2.89336E-06 3.72396E-19-1.30942E-18
 -1      2765 9.60847E-05-2.80920E-05-2.91411E-05-2.61101E-06 3.77039E-19-1.67471E-18
 -1      2766 9.58067E-05-2.77886E-05-2.91535E-05-3.25770E-06 4.01164E-19-1.49421E-18
 -1      2767 9.60109E-05-2.81114E-05-2.90937E-05-2.32006E-06 1.82685E-19-1.76115E-18
 -1      2768 9.58498E-05-2.81078E-05-2.90339E-05-2.06733E-06 3.08533E-19-2.13040E-18
 -1      2769 9.56234E-05-2.78090E-05-2.90654E-05-2.62502E-06 2.67436E-19-1.29017E-18
 -1      2770 9.58004E-05-2.81433E-05-2.89904E-05-1.81604E-06 2.19905E-19-1.66359E-18
 -1      2771 9.56765E-05-2.81555E-05-2.89391E-05-1.59911E-06-2.90117E-19-1.50189E-18
 -1      2772 9.55023E-05-2.78837E-05-2.89811E-05-2.06734E-06 5.56191E-19-2.10482E-18
 -1      2773 9.56429E-05-2.81966E-05-2.89008E-05-1.38888E-06-6.26944E-19-1.63225E-18
 -1      2774 9.55485E-05-2.82165E-05-2.88580E-05-1.20871E-06-3.66541E-19-1.61881E-18
 -1      2775 9.54213E-05-2.79820E-05-2.89039E-05-1.59264E-06-8.02716E-19-9.62069E-19
 -1      2776 9.55251E-05-2.82571E-05-2.88251E-05-1.03749E-06-5.63538E-19-1.30059E-18
 -1      2777 9.54541E-05-2.82795E-05-2.87903E-05-8.91914E-07-1.08745E-18-1.56655E-18
 -1      2778 9.53661E-05-2.80851E-05-2.88358E-05-1.19998E-06-6.00019E-19-1.26395E-18
 -1      2779 9.54375E-05-2.83165E-05-2.87629E-05-7.55714E-07-9.68450E-19-1.25154E-18
 -1      2780 9.53849E-05-2.83385E-05-2.87351E-05-6.40920E-07-6.24876E-19-7.08064E-19
 -1      2781 9.53278E-05-2.81823E-05-2.87776E-05-8.83120E-07-8.21658E-19-6.46550E-19
 -1      2782 9.53731E-05-2.83704E-05-2.87128E-05-5.34917E-07-1.21579E-18-1.13146E-18
 -1      2783 9.53348E-05-2.83903E-05-2.86912E-05-4.46411E-07-7.00483E-19-1.51656E-18
 -1      2784 9.53009E-05-2.82683E-05-2.87291E-05-6.33075E-07-1.68208E-18-1.68867E-18
 -1      2785 9.53262E-05-2.84167E-05-2.86735E-05-3.65625E-07 2.89557E-19-2.03236E-18
 -1      2786 9.52990E-05-2.84339E-05-2.86570E-05-2.98863E-07 4.83292E-20-1.94097E-18
 -1      2787 9.52818E-05-2.83410E-05-2.86896E-05-4.39870E-07-7.02165E-19-1.28508E-18
 -1      2788 9.52927E-05-2.84551E-05-2.86431E-05-2.38582E-07-1.89532E-19-1.79201E-18
 -1      2789 9.52740E-05-2.84694E-05-2.86309E-05-1.89334E-07 5.46120E-19-2.06028E-18
 -1      2790 9.52680E-05-2.84003E-05-2.86582E-05-2.93638E-07-6.91864E-20-1.89959E-18
 -1      2791 9.52694E-05-2.84860E-05-2.86203E-05-1.45341E-07 1.18888E-18-2.13962E-18
 -1      2792 9.52569E-05-2.84976E-05-2.86114E-05-1.09874E-07 8.80790E-19-2.14795E-18
 -1      2793 9.52582E-05-2.84475E-05-2.86336E-05-1.85278E-07 5.56071E-19-1.32279E-18
 -1      2794 9.52536E-05-2.85103E-05-2.86034E-05-7.85559E-08 6.43819E-19-1.60806E-18
 -1      2795 9.52458E-05-2.85196E-05-2.85972E-05-5.37147E-08 8.88217E-19-1.21412E-18
 -1      2796 9.52511E-05-2.84841E-05-2.86148E-05-1.06794E-07 9.61971E-19-2.32251E-18
 -1      2797 9.52435E-05-2.85290E-05-2.85913E-05-3.20760E-08 8.41664E-19-7.01765E-19
 -1      2798 9.52391E-05-2.85363E-05-2.85870E-05-1.52859E-08 1.03468E-18-9.34202E-19
 -1      2799 9.52462E-05-2.85119E-05-2.86007E-05-5.14197E-08 1.32165E-18-1.73526E-18
 -1      2800 9.52375E-05-2.85434E-05-2.85828E-05-9.27973E-10 1.02432E-18-1.20973E-19
 -1      2801 9.52354E-05-2.85491E-05-2.85799E-05 9.83608E-09 2.40846E-18-3.82761E-19
 -1      2802 9.52428E-05-2.85327E-05-2.85903E-05-1.36257E-08 1.30190E-18-3.23689E-19
 -1      2803 9.52344E-05-2.85544E-05-2.85769E-05 1.87674E-08 3.47661E-18-7.51821E-19
 -1      2804 9.52339E-05-2.85590E-05-2.85750E-05 2.50321E-08 2.64935E-18 7.87446E-19
 -1      2805 9.52406E-05-2.85482E-05-2.85826E-05 1.09635E-08 3.03956E-18 1.96824E-19
 -1      2806 9.52334E-05-2.85630E-05-2.85728E-05 2.99197E-08 1.95373E-18 1.77958E-18
 -1      2807 9.52341E-05-2.85669E-05-2.85717E-05 3.27849E-08 2.07273E-18 2.21129E-18
 -1      2808 9.52394E-05-2.85599E-05-2.85771E-05 2.56788E-08 2.88507E-18 8.59710E-20
 -1      2809 9.52340E-05-2.85703E-05-2.85700E-05 3.45692E-08 1.02015E-18 2.15764E-18
 -1      2810 9.52354E-05-2.85738E-05-2.85693E-05 3.47078E-08 4.05853E-19 2.71398E-18
 -1      2811 9.52391E-05-2.85692E-05-2.85729E-05 3.29828E-08 1.89255E-18 1.12769E-18
 -1      2812 1.00484E-04-2.88916E-05-3.06691E-05-1.08856E-05 8.83673E-19-1.36076E-18
 -1      2813 9.95123E-05-2.81696E-05-3.05616E-05-1.01751E-05 1.03543E-18-1.22978E-18
 -1      2814 3.48793E-05-1.60036E-05-7.65089E-06 1.87642E-05 9.93887E-19-8.83244E-18
 -1      2815 3.09266E-05-1.29239E-05-7.10433E-06 2.97075E-06 2.00039E-19-9.55496E-18
 -1      2816 9.91862E-05-2.77441E-05-3.06023E-05-9.14039E-06 1.21526E-18-1.38737E-18
 -1      2817 9.85276E-05-2.72633E-05-3.05271E-05-8.15286E-06 1.50230E-18-1.21638E-18
 -1      2818 9.73993E-05-2.68325E-05-3.02592E-05-1.01665E-05 1.24002E-18-1.56406E-18
 -1      2819 1.05826E-04-3.39916E-05-3.07938E-05-1.20459E-05-6.70546E-20-6.30042E-19
 -1      2820 1.03900E-04-3.21863E-05-3.06906E-05-1.24094E-05 1.39586E-19-9.28331E-19
 -1      2821 1.10761E-04-3.86943E-05-3.09152E-05-1.03415E-05-4.07952E-19-2.74173E-19
 -1      2822 1.08208E-04-3.62083E-05-3.07760E-05-1.17375E-05-3.02948E-19-4.00202E-19
 -1      2823 1.04004E-04-3.47287E-05-2.97747E-05-1.39651E-05-3.28745E-19-9.23220E-19
 -1      2824 1.17467E-04-4.44140E-05-3.13787E-05-5.97805E-06-6.05860E-19 3.80420E-19
 -1      2825 1.14480E-04-4.17141E-05-3.10720E-05-8.75137E-06-5.56410E-19 1.69690E-19
 -1      2826 1.10018E-04-4.07164E-05-2.98227E-05-1.25518E-05-6.61405E-19-2.62137E-19
 -1      2827 1.24852E-04-4.87489E-05-3.27389E-05 1.60015E-06-7.63428E-19 1.41877E-18
 -1      2828 1.22317E-04-4.73142E-05-3.20169E-05-2.38943E-06-7.64697E-19 1.07177E-18
 -1      2829 1.18703E-04-4.78762E-05-3.05486E-05-8.12934E-06-1.17911E-18 4.85218E-19
 -1      2830 1.30299E-04-4.69874E-05-3.56604E-05 1.13155E-05 2.85248E-19 2.47306E-18
 -1      2831 1.29730E-04-4.93948E-05-3.43625E-05 7.40172E-06-4.96546E-19 2.12985E-18
 -1      2832 1.28680E-04-5.28438E-05-3.28699E-05 2.73559E-07-1.04829E-18 1.84893E-18
 -1      2833 1.33444E-04-3.60171E-05-4.20669E-05 1.48143E-05 3.72938E-18 2.70738E-18
 -1      2834 1.35621E-04-4.41819E-05-3.95995E-05 1.38654E-05 2.07581E-18 2.94540E-18
 -1      2835 1.29412E-04-3.07462E-05-4.29098E-05-1.72631E-05 2.78097E-18-5.57583E-18
 -1      2836 1.26487E-04-2.31110E-05-4.46527E-05-1.39947E-05 4.28736E-18-5.15679E-18
 -1      2837 1.33590E-04-4.61320E-05-3.78590E-05-1.35520E-05 1.16467E-21-6.16105E-18
 -1      2838 1.32294E-04-3.98027E-05-3.98803E-05-1.63659E-05 1.62948E-18-6.08678E-18
 -1      2839 1.20010E-04-4.56769E-05-3.17012E-05 4.40187E-06-2.09044E-18-4.28947E-18
 -1      2840 1.23146E-04-4.77807E-05-3.22664E-05 1.50303E-07-2.81646E-18-4.61342E-18
 -1      2841 1.12396E-04-3.95645E-05-3.11151E-05 9.23133E-06-1.07936E-18-3.54955E-18
 -1      2842 1.15231E-04-4.22750E-05-3.13150E-05 6.98771E-06-1.19038E-18-3.50910E-18
 -1      2843 1.15358E-04-4.52163E-05-3.02280E-05 9.42569E-06-2.10220E-18-5.07671E-18
 -1      2844 1.06941E-04-3.46081E-05-3.09419E-05 1.11666E-05 1.53425E-19-2.53045E-18
 -1      2845 1.09200E-04-3.68181E-05-3.10512E-05 1.02188E-05-6.79617E-19-3.08475E-18
 -1      2846 1.07616E-04-3.82124E-05-2.98659E-05 1.23475E-05-1.01216E-18-3.17551E-18
 -1      2847 1.03349E-04-3.12994E-05-3.08509E-05 1.12658E-05-1.82081E-19-1.64137E-18
 -1      2848 1.05010E-04-3.27749E-05-3.09626E-05 1.11567E-05 4.37661E-19-2.00156E-18
 -1      2849 1.02603E-04-3.29804E-05-2.99095E-05 1.28950E-05-3.20256E-19-2.90762E-18
 -1      2850 1.01075E-04-2.93812E-05-3.07166E-05 1.03868E-05-3.37338E-19-2.05876E-18
 -1      2851 1.02278E-04-3.02577E-05-3.08576E-05 1.07576E-05-1.87387E-19-1.46810E-18
 -1      2852 9.96946E-05-2.97355E-05-3.00180E-05 1.21433E-05-3.44573E-19-1.23789E-18
 -1      2853 9.96081E-05-2.83993E-05-3.05182E-05 9.07335E-06-3.42693E-19-1.62776E-18
 -1      2854 1.00503E-04-2.88761E-05-3.06826E-05 9.67151E-06-5.81895E-19-2.07374E-18
 -1      2855 9.81081E-05-2.80070E-05-3.00584E-05 1.08054E-05-2.29930E-19-1.43493E-18
 -1      2856 9.86065E-05-2.79716E-05-3.02763E-05 7.64117E-06-4.41094E-20-1.89598E-18
 -1      2857 9.92966E-05-2.82096E-05-3.04487E-05 8.30830E-06 3.77808E-19-1.50801E-18
 -1      2858 9.72521E-05-2.72430E-05-3.00091E-05 9.26680E-06 7.03172E-20-1.26550E-18
 -1      2859 9.78729E-05-2.78419E-05-3.00186E-05 6.26262E-06 4.35305E-19-1.81153E-18
 -1      2860 9.84205E-05-2.79473E-05-3.01854E-05 6.90904E-06 1.32122E-19-2.02620E-18
 -1      2861 9.67660E-05-2.70239E-05-2.98908E-05 7.73331E-06 2.99539E-19-1.92431E-18
 -1      2862 9.73034E-05-2.78573E-05-2.97676E-05 5.02280E-06-2.19337E-19-1.61881E-18
 -1      2863 9.77442E-05-2.78934E-05-2.99196E-05 5.60390E-06-2.94810E-19-1.88836E-18
 -1      2864 9.64557E-05-2.70798E-05-2.97329E-05 6.31318E-06-2.26001E-19-2.18818E-18
 -1      2865 9.68458E-05-2.79342E-05-2.95378E-05 3.95487E-06 2.55424E-19-1.36536E-18
 -1      2866 9.72015E-05-2.79362E-05-2.96704E-05 4.45344E-06 3.85225E-19-1.15270E-18
 -1      2867 9.62276E-05-2.72544E-05-2.95605E-05 5.05762E-06-1.46124E-19-1.58391E-18
 -1      2868 9.64739E-05-2.80299E-05-2.93365E-05 3.06249E-06-1.69717E-19-5.71838E-19
 -1      2869 9.67590E-05-2.80164E-05-2.94484E-05 3.47679E-06-1.57143E-19-8.32871E-19
 -1      2870 9.60411E-05-2.74642E-05-2.93911E-05 3.98359E-06-2.16188E-19-1.13245E-18
 -1      2871 9.61723E-05-2.81244E-05-2.91660E-05 2.33380E-06 2.17879E-19 9.56950E-19
 -1      2872 9.63982E-05-2.81049E-05-2.92579E-05 2.66999E-06 5.04895E-19 3.30285E-19
 -1      2873 9.58813E-05-2.76687E-05-2.92354E-05 3.08782E-06-2.69086E-19-5.75598E-19
 -1      2874 9.59306E-05-2.82094E-05-2.90253E-05 1.74984E-06 1.08320E-19 3.37730E-19
 -1      2875 9.61070E-05-2.81885E-05-2.90992E-05 2.01751E-06 1.95501E-19 1.09084E-18
 -1      2876 9.57435E-05-2.78508E-05-2.90985E-05 2.35599E-06-4.06833E-19 9.86572E-19
 -1      2877 9.57399E-05-2.82823E-05-2.89117E-05 1.28947E-06 1.31122E-18 7.65764E-19
 -1      2878 9.58755E-05-2.82624E-05-2.89700E-05 1.49912E-06 8.05189E-19 7.79635E-19
 -1      2879 9.56264E-05-2.80052E-05-2.89822E-05 1.76860E-06 6.98353E-19 2.96229E-19
 -1      2880 9.55922E-05-2.83434E-05-2.88219E-05 9.31945E-07 1.73557E-18-1.08194E-19
 -1      2881 9.56946E-05-2.83252E-05-2.88670E-05 1.09370E-06 1.95070E-18 4.88546E-19
 -1      2882 9.55292E-05-2.81325E-05-2.88859E-05 1.30463E-06 1.87374E-18 6.38828E-19
 -1      2883 9.54801E-05-2.83935E-05-2.87520E-05 6.58349E-07 1.02593E-18-1.16700E-18
 -1      2884 9.55559E-05-2.83775E-05-2.87864E-05 7.81321E-07 1.56575E-18-2.21616E-19
 -1      2885 9.54507E-05-2.82353E-05-2.88080E-05 9.43633E-07 2.12874E-18-3.12598E-19
 -1      2886 9.53969E-05-2.84342E-05-2.86987E-05 4.52078E-07-8.25509E-19-8.50824E-19
 -1      2887 9.54518E-05-2.84203E-05-2.87244E-05 5.44168E-07-1.28685E-19-8.17880E-19
 -1      2888 9.53888E-05-2.83172E-05-2.87462E-05 6.66901E-07 4.96357E-19-5.19125E-19
 -1      2889 9.53366E-05-2.84669E-05-2.86587E-05 2.98996E-07-5.45188E-19-1.40365E-19
 -1      2890 9.53753E-05-2.84551E-05-2.86776E-05 3.66858E-07-3.95827E-19-3.92435E-19
 -1      2891 9.53412E-05-2.83817E-05-2.86980E-05 4.57958E-07-8.05196E-19-1.10851E-18
 -1      2892 9.52942E-05-2.84928E-05-2.86293E-05 1.87328E-07-8.92319E-19 5.67971E-19
 -1      2893 9.53207E-05-2.84830E-05-2.86428E-05 2.36454E-07-1.17064E-18 6.07701E-19
 -1      2894 9.53057E-05-2.84318E-05-2.86611E-05 3.02706E-07-1.20003E-18-7.09485E-20
 -1      2895 9.52654E-05-2.85133E-05-2.86082E-05 1.07449E-07-1.64431E-18 5.46219E-20
 -1      2896 9.52827E-05-2.85052E-05-2.86176E-05 1.42287E-07-7.81281E-19 6.76764E-19
 -1      2897 9.52799E-05-2.84704E-05-2.86333E-05 1.89349E-07-1.01477E-18-7.96902E-20
 -1      2898 9.52469E-05-2.85293E-05-2.85933E-05 5.16276E-08-9.50040E-19 7.77051E-19
 -1      2899 9.52575E-05-2.85226E-05-2.85997E-05 7.57198E-08-1.21267E-18 6.63277E-19
 -1      2900 9.52618E-05-2.84998E-05-2.86128E-05 1.08210E-07-1.31460E-18 5.15909E-19
 -1      2901 9.52358E-05-2.85417E-05-2.85832E-05 1.37725E-08 5.27871E-19-7.40770E-20
 -1      2902 9.52416E-05-2.85363E-05-2.85873E-05 2.98857E-08-2.09133E-19 2.89903E-19
 -1      2903 9.52495E-05-2.85219E-05-2.85980E-05 5.15017E-08-2.38376E-19 3.38996E-19
 -1      2904 9.52300E-05-2.85515E-05-2.85765E-05-1.08073E-08 3.99984E-19-3.81317E-19
 -1      2905 9.52325E-05-2.85470E-05-2.85790E-05-5.66110E-10 8.47088E-19-1.09719E-19
 -1      2906 9.52418E-05-2.85385E-05-2.85874E-05 1.30764E-08 9.42002E-19-3.51010E-19
 -1      2907 9.52280E-05-2.85592E-05-2.85723E-05-2.56128E-08 2.75737E-19 1.29471E-19
 -1      2908 9.52282E-05-2.85554E-05-2.85737E-05-1.96930E-08 2.85790E-20-9.37860E-19
 -1      2909 9.52373E-05-2.85509E-05-2.85801E-05-1.17959E-08 4.06603E-19-6.32694E-19
 -1      2910 9.52284E-05-2.85657E-05-2.85698E-05-3.31624E-08-6.79379E-19 9.18977E-19
 -1      2911 9.52272E-05-2.85624E-05-2.85705E-05-3.04724E-08 2.66592E-19 6.09740E-19
 -1      2912 9.52352E-05-2.85604E-05-2.85751E-05-2.66476E-08-3.80746E-19-3.96659E-19
 -1      2913 9.52305E-05-2.85714E-05-2.85682E-05-3.50732E-08-3.69161E-19 1.49015E-18
 -1      2914 9.52285E-05-2.85684E-05-2.85685E-05-3.49890E-08-8.62009E-19 3.78568E-19
 -1      2915 9.52349E-05-2.85680E-05-2.85716E-05-3.40533E-08-9.38652E-19-3.89093E-19
 -1      2916 9.52343E-05-2.85770E-05-2.85675E-05-3.30983E-08-1.05390E-18 2.73080E-18
 -1      2917 9.52319E-05-2.85740E-05-2.85677E-05-3.50246E-08-9.39539E-19 1.85973E-18
 -1      2918 9.52370E-05-2.85747E-05-2.85696E-05-3.57931E-08-1.25836E-18 7.99506E-20
 -1      2919 9.52399E-05-2.85809E-05-2.85681E-05-3.41727E-08-1.61596E-18-4.95034E-19
 -1      2920 9.52552E-05-2.85881E-05-2.85716E-05-1.79170E-09 1.12387E-18 1.26338E-18
 -1      2921 9.52551E-05-2.85880E-05-2.85716E-05-6.15431E-09 9.06827E-19 1.52311E-18
 -1      2922 9.52355E-05-2.85760E-05-2.85683E-05 3.44672E-08-4.10208E-19 2.78892E-18
 -1      2923 9.52367E-05-2.85782E-05-2.85679E-05 3.32737E-08-1.24781E-18 2.89683E-18
 -1      2924 9.52395E-05-2.85761E-05-2.85701E-05 3.47126E-08-3.42819E-19 6.09359E-19
 -1      2925 9.52535E-05-2.85878E-05-2.85710E-05-1.89977E-08 1.70034E-18-2.01587E-18
 -1      2926 9.52521E-05-2.85867E-05-2.85709E-05-2.27168E-08 1.78266E-18-2.48602E-18
 -1      2927 9.52549E-05-2.85878E-05-2.85716E-05 6.98223E-09 8.52013E-19-3.61386E-18
 -1      2928 9.52551E-05-2.85881E-05-2.85716E-05 2.65624E-09 1.73668E-18-2.33737E-18
 -1      2929 9.52556E-05-2.85802E-05-2.85751E-05 4.90343E-10 1.17431E-18-1.12378E-18
 -1      2930 9.52548E-05-2.85882E-05-2.85714E-05-1.05853E-08 4.53531E-19-1.40041E-18
 -1      2931 9.52542E-05-2.85876E-05-2.85714E-05-1.47773E-08 1.76493E-18-1.63532E-18
 -1      2932 9.52543E-05-2.85809E-05-2.85743E-05-1.69735E-08 9.65306E-19-2.01186E-18
 -1      2933 9.52554E-05-2.85805E-05-2.85749E-05-8.33436E-09 9.72497E-19-2.09492E-19
 -1      2934 9.83977E-05-2.69644E-05-3.05991E-05-6.92858E-06 1.78195E-18-1.22498E-18
 -1      2935 9.80010E-05-2.65583E-05-3.05958E-05-5.68838E-06 2.01517E-18-9.55931E-19
 -1      2936 9.67373E-05-2.51365E-05-3.06957E-05-5.00587E-06 2.33318E-18-1.75353E-18
 -1      2937 9.69394E-05-2.59602E-05-3.04314E-05-7.80131E-06 1.73198E-18-1.67142E-18
 -1      2938 5.67676E-05-2.85008E-05-1.16959E-05 3.63179E-05 2.70659E-18-6.50172E-18
 -1      2939 4.57621E-05-2.17463E-05-9.64716E-06 2.86460E-05 2.38583E-18-7.80477E-18
 -1      2940 9.52538E-05-2.85872E-05-2.85714E-05 1.52759E-08 1.76709E-18-2.82437E-18
 -1      2941 9.52545E-05-2.85879E-05-2.85714E-05 1.12540E-08 1.72023E-18-2.63230E-18
 -1      2942 9.52551E-05-2.85802E-05-2.85749E-05 9.14863E-09 1.85617E-18-2.61064E-18
 -1      2943 9.52516E-05-2.85862E-05-2.85709E-05 2.29497E-08 2.68772E-18-1.98907E-18
 -1      2944 9.52530E-05-2.85873E-05-2.85710E-05 1.93554E-08 2.53644E-18-1.84363E-18
 -1      2945 9.52538E-05-2.85804E-05-2.85743E-05 1.74740E-08 2.96951E-18-2.34245E-18
 -1      2946 9.52479E-05-2.85844E-05-2.85701E-05 2.91335E-08 1.27200E-18-2.06510E-18
 -1      2947 9.52501E-05-2.85860E-05-2.85703E-05 2.64334E-08 2.49801E-18-2.55799E-18
 -1      2948 9.52511E-05-2.85802E-05-2.85732E-05 2.51142E-08 2.26383E-18-2.18202E-18
 -1      2949 3.80259E-05-1.79063E-05-8.15385E-06-2.36127E-05 2.87727E-18 5.72150E-18
 -1      2950 4.99187E-05-2.58963E-05-9.95855E-06-3.45217E-05 4.13924E-18 3.24371E-18
 -1      2951 9.52401E-05-2.85810E-05-2.85683E-05 3.34224E-08-1.35816E-18 4.81994E-19
 -1      2952 1.32130E-04-2.95138E-05-4.41822E-05 1.26046E-05-3.36505E-18-4.30049E-18
 -1      2953 1.29793E-04-2.12145E-05-4.72630E-05 1.15702E-05-4.96298E-18-3.90011E-18
 -1      2954 3.29456E-05-1.50890E-05-7.14767E-06-1.29014E-05-1.28145E-18-9.19814E-18
 -1      2955 3.92870E-05-2.02525E-05-7.67461E-06-2.46886E-05-2.15220E-18-7.98159E-18
 -1      2956 9.35849E-05-1.76839E-05-3.25291E-05-5.52429E-06-3.36575E-18-3.75226E-18
 -1      2957 9.65669E-05-5.02680E-05-1.93768E-05-3.76068E-05 4.60553E-18-3.21052E-19
 -1      2958 1.10089E-04-5.58985E-05-2.34711E-05-3.30631E-05 3.50830E-18-1.80227E-18
 -1      2959 1.38536E-04-5.42509E-05-3.65414E-05 6.96980E-06-2.01549E-18 1.88073E-18
 -1      2960 1.30565E-04-5.81741E-05-3.09495E-05 1.61674E-05-3.26161E-19 1.67660E-18
 -1      2961 8.37312E-05-4.45619E-05-1.67487E-05 3.79788E-05-2.56704E-18 2.62125E-18
 -1      2962 6.53099E-05-3.40115E-05-1.28961E-05 3.54209E-05-2.85672E-18 3.35224E-18
 -1      2963 6.53268E-05-2.90057E-05-1.49729E-05 3.01577E-05-2.25253E-18 3.08288E-18
 -1      2964 1.16670E-04-5.89346E-05-2.50470E-05 2.77510E-05-2.60060E-18-2.01524E-18
 -1      2965 1.02641E-04-5.35153E-05-2.06750E-05 3.33874E-05-3.14768E-18 2.21843E-19
 -1      2966 1.02559E-04-3.08186E-05-3.07393E-05-1.19891E-05 2.88870E-19-1.16079E-18
 -1      2967 1.01178E-04-2.96573E-05-3.06294E-05-1.16887E-05 5.68011E-19-1.26948E-18
 -1      2968 9.83987E-05-2.82097E-05-3.01078E-05-1.21204E-05 6.22432E-19-1.22972E-18
 -1      2969 1.00372E-04-3.06356E-05-2.99363E-05-1.35215E-05 1.04707E-19-1.09023E-18
 -1      2970 9.70104E-05-2.39959E-05-3.12754E-05-1.50008E-06-2.81670E-18-2.39819E-18
 -1      2971 9.72255E-05-2.50819E-05-3.09307E-05 2.34261E-07-2.38754E-18-2.32589E-18
 -1      2972 9.65452E-05-2.44276E-05-3.09151E-05 9.35515E-07-2.22812E-18-2.63359E-18
 -1      2973 1.27028E-04-1.43024E-05-4.88893E-05 9.62228E-06-6.23713E-18-3.74579E-18
 -1      2974 1.24911E-04-9.71846E-06-5.00462E-05 4.75902E-06-6.94631E-18-2.95956E-18
 -1      2975 1.22632E-04-1.88488E-05-4.48469E-05 1.15147E-05-4.84048E-18-3.85284E-18
 -1      2976 8.76531E-05-1.26441E-05-3.21676E-05 2.08471E-06 2.78762E-18-4.24803E-18
 -1      2977 8.66796E-05-1.18128E-05-3.21141E-05 1.67076E-06 2.29332E-18-4.61901E-18
 -1      2978 8.69205E-05-1.27800E-05-3.17491E-05 1.05360E-06 1.95343E-18-4.39726E-18
 -1      2979 8.89448E-05-1.46178E-05-3.18280E-05 1.23967E-06 2.67207E-18-3.72106E-18
 -1      2980 1.25451E-04-8.38547E-06-5.07919E-05-1.17238E-06-7.09157E-18-1.50533E-18
 -1      2981 1.27082E-04-1.15515E-05-5.01263E-05-6.81003E-06-6.81014E-18-1.59877E-19
 -1      2982 1.37255E-04-5.90007E-05-3.39724E-05 5.28247E-06-1.51502E-18-4.91480E-18
 -1      2983 1.29123E-04-6.07342E-05-2.90484E-05 1.67340E-05-2.30393E-18-3.55367E-18
 -1      2984 1.22662E-04-6.06742E-05-2.63703E-05-2.46429E-05-2.76884E-18 1.25467E-19
 -1      2985 1.32712E-04-6.13915E-05-3.09270E-05-1.57787E-05-1.65516E-18 1.29469E-18
 -1      2986 1.36801E-04-5.08394E-05-3.66728E-05-2.11856E-07 1.35843E-19-4.70453E-18
 -1      2987 1.36081E-04-4.22837E-05-4.09209E-05 7.36807E-06-1.65320E-18-4.65233E-18
 -1      2988 8.86943E-05-4.71973E-05-1.72507E-05-3.76917E-05-4.23262E-18-3.06245E-18
 -1      2989 1.07684E-04-5.63151E-05-2.21944E-05-3.41297E-05-3.50132E-18-1.37198E-18
 -1      2990 3.36562E-05-1.20969E-05-8.75964E-06 4.70487E-06 8.24163E-19 6.81756E-18
 -1      2991 3.39374E-05-1.27419E-05-8.47316E-06-1.10350E-05 1.66304E-18 7.72494E-18
 -1      2992 1.20857E-04-5.89084E-05-2.67749E-05 2.65860E-05 1.22121E-18 5.82547E-19
 -1      2993 1.12195E-04-5.61957E-05-2.35913E-05 3.14372E-05 2.25512E-18-4.83576E-19
 -1      2994 1.37561E-04-5.78570E-05-3.42421E-05-1.52706E-06-7.36230E-19 2.71178E-18
 -1      2995 1.38922E-04-5.05633E-05-3.84019E-05 7.71872E-06 1.54885E-18 3.48041E-18
 -1      2996 8.76839E-05-1.28021E-05-3.21189E-05-1.06176E-06-1.04267E-18-5.18490E-18
 -1      2997 8.87046E-05-1.36968E-05-3.21634E-05-1.69790E-06-1.57551E-18-5.08370E-18
 -1      2998 5.16453E-05-2.76826E-05-9.72365E-06-3.24369E-05-3.08680E-18-6.81078E-18
 -1      2999 6.87407E-05-3.72727E-05-1.34235E-05-3.90276E-05-3.72673E-18-4.91385E-18
 -1      3000 5.31699E-05-2.38987E-05-1.19203E-05-2.77672E-05-2.88859E-18-6.65111E-18
 -1      3001 1.29324E-04-1.75353E-05-4.85287E-05-9.85111E-06-6.26423E-18 9.54288E-19
 -1      3002 1.31193E-04-2.49240E-05-4.60797E-05-1.15654E-05-5.50741E-18 2.04516E-18
 -1      3003 6.45051E-05-3.42279E-05-1.24372E-05-3.89088E-05 4.94180E-18 2.76789E-18
 -1      3004 8.03212E-05-4.29543E-05-1.59586E-05-4.12123E-05 4.88272E-18 1.47119E-18
 -1      3005 1.31093E-04-1.30829E-05-5.12709E-05-1.12029E-06 7.85009E-18-2.02784E-18
 -1      3006 1.33960E-04-1.52632E-05-5.14331E-05-7.77741E-06 7.32726E-18-3.05662E-18
 -1      3007 1.33275E-04-2.09763E-05-4.88247E-05 1.12298E-05 6.44486E-18 1.44398E-18
 -1      3008 1.31092E-04-1.52068E-05-5.04049E-05 6.07447E-06 7.29084E-18-2.50881E-19
 -1      3009 8.99028E-05-1.48658E-05-3.21870E-05-2.18730E-06-1.98948E-18-4.92519E-18
 -1      3010 9.11520E-05-1.60570E-05-3.22165E-05-2.90218E-06-2.46652E-18-4.77643E-18
 -1      3011 9.01817E-05-1.59143E-05-3.18171E-05-9.74620E-07-1.67496E-18-4.55195E-18
 -1      3012 8.56965E-05-1.17549E-05-3.16708E-05 7.46200E-07 6.27151E-19-4.97347E-18
 -1      3013 8.51470E-05-1.05236E-05-3.20055E-05 5.43529E-07 4.96213E-19-5.36618E-18
 -1      3014 8.54869E-05-1.07986E-05-3.20218E-05 1.19654E-07 6.57563E-20-5.30611E-18
 -1      3015 9.52138E-05-2.05457E-05-3.20135E-05 2.82294E-06 3.93007E-18-1.74362E-18
 -1      3016 4.49048E-05-1.47729E-05-1.23508E-05 1.10558E-05 1.26473E-19 4.98934E-18
 -1      3017 1.41034E-04-3.73139E-05-4.46867E-05-1.55136E-05 3.16642E-18-5.56479E-18
 -1      3018 1.31373E-04-1.97382E-05-4.82590E-05-1.09591E-05 5.72171E-18-4.13786E-18
 -1      3019 1.19781E-04-1.06127E-05-4.71677E-05 2.23189E-06-5.94501E-18-2.21197E-18
 -1      3020 1.17369E-04-5.61796E-05-2.60292E-05-2.46385E-05 3.41566E-18-2.17973E-18
 -1      3021 1.22522E-04-1.55183E-05-4.62325E-05-8.90739E-06-5.43965E-18 7.95893E-19
 -1      3022 1.24979E-04-1.63037E-05-4.71100E-05 2.77771E-06 6.29811E-18-1.42280E-18
 -1      3023 6.23937E-05-2.94611E-05-1.35860E-05-3.45369E-05 4.63105E-18 2.41997E-18
 -1      3024 9.52518E-05-2.85809E-05-2.85732E-05-2.48832E-08 9.59232E-19-1.16777E-18
 -1      3025 9.52507E-05-2.85866E-05-2.85703E-05-2.63846E-08 5.47541E-19-1.68671E-18
 -1      3026 9.52484E-05-2.85849E-05-2.85701E-05-2.91643E-08-5.71666E-19 2.69903E-19
 -1      3027 4.04992E-05-1.22573E-05-1.18676E-05 3.37175E-06 5.76475E-19-8.08556E-18
 -1      3028 3.59175E-05-1.31524E-05-9.12317E-06-4.30189E-06-4.79884E-19-8.94372E-18
 -1      3029 4.28582E-05-1.39054E-05-1.19089E-05-1.07513E-05-1.33985E-18-7.55045E-18
 -1      3030 4.68837E-05-1.81454E-05-1.17308E-05 2.14397E-05 1.85400E-18-7.46098E-18
 -1      3031 1.30652E-04-2.69346E-05-4.52245E-05 1.49298E-05 5.14890E-18 1.76223E-18
 -1      3032 1.20579E-04-1.91651E-05-4.38941E-05 7.90893E-06 4.86875E-18-1.54372E-19
 -1      3033 1.22250E-04-2.39355E-05-4.25346E-05 1.41587E-05 4.34570E-18 7.85041E-19
 -1      3034 1.20901E-04-1.88207E-05-4.43575E-05-8.20054E-06 5.60217E-18-4.21462E-18
 -1      3035 1.20491E-04-1.72025E-05-4.46898E-05-4.39721E-07 5.70413E-18-2.21197E-18
 -1      3036 1.25477E-04-5.39986E-05-3.05798E-05 7.23546E-06-3.20127E-18-5.05663E-18
 -1      3037 1.28648E-04-5.24361E-05-3.27173E-05-4.14151E-07-3.10819E-18-5.25355E-18
 -1      3038 1.31271E-04-5.17776E-05-3.41714E-05-5.25612E-06-2.31907E-18-5.45148E-18
 -1      3039 9.52462E-05-2.85845E-05-2.85693E-05-3.15216E-08-9.09593E-19 5.12827E-19
 -1      3040 9.52429E-05-2.85821E-05-2.85689E-05-3.28217E-08-5.39645E-19-4.55717E-19
 -1      3041 9.52417E-05-2.85787E-05-2.85699E-05-3.43268E-08-1.55149E-18-1.41395E-20
 -1      3042 9.52476E-05-2.85803E-05-2.85717E-05-3.08578E-08-2.24612E-19 8.85395E-19
 -1      3043 4.34286E-05-1.53951E-05-1.14573E-05-1.62742E-05 2.75196E-18 5.59508E-18
 -1      3044 9.52435E-05-2.85832E-05-2.85686E-05 3.21048E-08-4.05231E-21-5.30990E-19
 -1      3045 1.26757E-04-5.76444E-05-2.95770E-05 1.61357E-05 1.01898E-18 1.74129E-18
 -1      3046 8.37330E-05-4.17908E-05-1.74651E-05-3.55688E-05-4.23421E-18-3.42328E-18
 -1      3047 1.32082E-04-5.37752E-05-3.35997E-05-4.31851E-06 1.32895E-18-3.92822E-18
 -1      3048 9.52124E-05-4.71041E-05-2.02400E-05 3.23765E-05-3.46871E-18 1.30972E-19
 -1      3049 1.36919E-04-4.99162E-05-3.74596E-05-1.04181E-06-1.47073E-18 2.52204E-18
 -1      3050 1.30351E-04-3.61912E-05-4.05802E-05 1.11305E-05-1.62646E-18-4.84460E-18
 -1      3051 1.25629E-04-2.63477E-05-4.28749E-05-1.27760E-05-4.12447E-18 3.17336E-18
 -1      3052 1.32644E-04-3.07793E-05-4.41116E-05-1.15266E-05-4.69606E-18 2.78282E-18
 -1      3053 1.31900E-04-3.58643E-05-4.14248E-05-1.07443E-05-3.27378E-18 3.33138E-18
 -1      3054 9.28945E-05-1.78380E-05-3.21751E-05-3.44710E-06-2.74641E-18-4.17763E-18
 -1      3055 9.55025E-05-2.08291E-05-3.20288E-05-4.20970E-06-3.35950E-18-3.07779E-18
 -1      3056 9.62589E-05-2.26872E-05-3.15299E-05-2.34738E-06-3.06421E-18-2.69978E-18
 -1      3057 9.30775E-05-1.88554E-05-3.17927E-05-1.87280E-06-2.38102E-18-4.07021E-18
 -1      3058 9.10610E-05-4.56650E-05-1.90739E-05-3.66084E-05 5.04863E-18 4.57080E-19
 -1      3059 1.03749E-04-5.17167E-05-2.19711E-05 3.35653E-05 2.95614E-18-1.09815E-18
 -1      3060 9.49124E-05-2.10425E-05-3.16442E-05 9.53170E-07 3.53149E-18-2.08255E-18
 -1      3061 8.60547E-05-1.13394E-05-3.20466E-05-1.45247E-07-2.47529E-19-5.08554E-18
 -1      3062 8.67653E-05-1.19319E-05-3.20844E-05-6.69382E-07-7.81769E-19-5.14176E-18
 -1      3063 8.80164E-05-1.38834E-05-3.17598E-05-1.72721E-07-9.00638E-19-4.86142E-18
 -1      3064 8.64664E-05-1.24662E-05-3.16998E-05 4.05277E-07-1.50934E-19-4.88139E-18
 -1      3065 1.22819E-04-5.85139E-05-2.74748E-05 1.92017E-05-3.01713E-18-3.72177E-18
 -1      3066 1.15975E-04-5.72630E-05-2.49369E-05-2.62657E-05-3.57458E-18-4.67793E-19
 -1      3067 9.54294E-05-2.19587E-05-3.14821E-05-1.44398E-06-2.65060E-18-2.98638E-18
 -1      3068 7.12755E-05-3.47792E-05-1.52476E-05 3.62966E-05 3.44361E-18-4.75990E-18
 -1      3069 9.52428E-05-2.85778E-05-2.85707E-05 3.33596E-08-1.10421E-18-1.91173E-18
 -1      3070 9.52460E-05-2.85825E-05-2.85701E-05 3.13174E-08 2.70990E-19-2.36174E-18
 -1      3071 9.52474E-05-2.85781E-05-2.85724E-05 3.04176E-08 1.27276E-18-3.37458E-18
 -1      3072 9.52425E-05-2.85747E-05-2.85718E-05 3.32563E-08-1.00820E-19-1.52738E-18
 -1      3073 5.28376E-05-1.66691E-05-1.51828E-05 1.77659E-05-1.76845E-19 3.51815E-18
 -1      3074 4.69658E-05-1.22955E-05-1.45828E-05 4.12693E-06 1.03138E-18 4.96478E-18
 -1      3075 9.28181E-05-1.92807E-05-3.15314E-05 1.73209E-07 3.15212E-18-2.65511E-18
 -1      3076 9.12478E-05-1.77094E-05-3.15333E-05 1.10829E-07 2.79201E-18-3.05582E-18
 -1      3077 9.53124E-05-2.26715E-05-3.11226E-05 3.26369E-07-2.24751E-18-3.19829E-18
 -1      3078 9.57249E-05-2.38631E-05-3.08088E-05 1.79501E-06-1.88841E-18-3.16609E-18
 -1      3079 1.09927E-04-5.25659E-05-2.39842E-05-2.70503E-05-3.75304E-18-5.33843E-19
 -1      3080 1.21551E-04-5.81598E-05-2.76212E-05-2.04580E-05-3.08569E-18 8.43671E-19
 -1      3081 9.70169E-05-2.68368E-05-3.00547E-05 5.13617E-06-1.09791E-18-2.34065E-18
 -1      3082 9.75319E-05-2.77801E-05-2.98955E-05 5.88532E-06-8.70175E-19-2.15766E-18
 -1      3083 9.81619E-05-2.87810E-05-2.97075E-05 6.59480E-06-7.70487E-19-1.84723E-18
 -1      3084 9.89260E-05-2.98656E-05-2.95984E-05 6.96812E-06-5.88787E-19-1.93796E-18
 -1      3085 9.68412E-05-2.76289E-05-2.96853E-05 6.64722E-06-7.02401E-19-2.10618E-18
 -1      3086 9.99001E-05-3.10803E-05-2.94583E-05 7.34740E-06-4.20886E-19-1.68747E-18
 -1      3087 1.00989E-04-3.23999E-05-2.94002E-05 7.28754E-06-2.96229E-19-1.55096E-18
 -1      3088 9.84121E-05-3.00701E-05-2.93248E-05 7.88502E-06-4.74307E-19-1.74385E-18
 -1      3089 1.02458E-04-3.39117E-05-2.93287E-05 7.21806E-06-7.70734E-20-1.29497E-18
 -1      3090 1.03886E-04-3.54544E-05-2.93439E-05 6.61962E-06-3.21310E-20-1.13883E-18
 -1      3091 1.00819E-04-3.30863E-05-2.90784E-05 8.40361E-06-8.07680E-20-1.34241E-18
 -1      3092 1.05927E-04-3.71993E-05-2.93933E-05 5.89039E-06 2.39719E-19-5.78494E-19
 -1      3093 1.07585E-04-3.87585E-05-2.95309E-05 4.63285E-06 2.05746E-19-6.90936E-20
 -1      3094 1.04313E-04-3.67421E-05-2.90234E-05 7.87846E-06 5.27440E-19-9.15727E-19
 -1      3095 1.10049E-04-4.03844E-05-2.97920E-05 2.99521E-06-1.27619E-19 4.76754E-19
 -1      3096 1.11592E-04-4.14108E-05-3.01235E-05 1.08052E-06-6.68825E-20 5.53678E-19
 -1      3097 1.08810E-04-4.06400E-05-2.93155E-05 5.74957E-06 3.43610E-19 1.29967E-20
 -1      3098 1.14094E-04-4.22602E-05-3.07214E-05-1.71548E-06-1.85883E-19 1.07468E-18
 -1      3099 1.14826E-04-4.18634E-05-3.13226E-05-4.08356E-06-6.87989E-19 9.06651E-19
 -1      3100 1.14077E-04-4.36835E-05-3.02495E-05 1.46455E-06 1.96522E-20 9.73426E-19
 -1      3101 1.16249E-04-4.08067E-05-3.23608E-05-7.39703E-06-9.13935E-19 1.49757E-18
 -1      3102 1.15660E-04-3.80792E-05-3.32587E-05-9.38578E-06-1.12861E-18 1.43903E-18
 -1      3103 1.17958E-04-4.33866E-05-3.19920E-05-4.61949E-06-7.16716E-19 1.59396E-18
 -1      3104 1.14877E-04-3.43702E-05-3.46903E-05-1.15422E-05-1.40545E-18 1.25568E-18
 -1      3105 1.13017E-04-2.97132E-05-3.57042E-05-1.16722E-05-1.59249E-18 1.12191E-18
 -1      3106 1.18741E-04-3.78633E-05-3.46134E-05-1.06002E-05-1.46005E-18 2.47193E-18
 -1      3107 1.10642E-04-2.46452E-05-3.70966E-05-1.04860E-05-2.13902E-18 5.85854E-19
 -1      3108 1.08673E-04-2.04920E-05-3.78451E-05-7.80169E-06-2.72062E-18 4.41494E-19
 -1      3109 1.15482E-04-2.77104E-05-3.76597E-05-1.20203E-05-2.07285E-18 1.42665E-18
 -1      3110 1.07122E-04-1.75877E-05-3.85311E-05-2.85927E-06-3.21142E-18-3.74205E-19
 -1      3111 1.06699E-04-1.69874E-05-3.86443E-05 1.46247E-06-3.28538E-18-7.17781E-19
 -1      3112 1.10963E-04-1.77079E-05-4.01254E-05-6.03477E-06-3.41243E-18 4.45433E-19
 -1      3113 1.11980E-04-2.74637E-05-3.62128E-05 1.20771E-05-1.66413E-18-2.48654E-18
 -1      3114 1.13962E-04-3.21184E-05-3.52686E-05 1.28139E-05-9.27746E-19-2.47764E-18
 -1      3115 1.15284E-04-3.63994E-05-3.38084E-05 1.11201E-05-4.03413E-19-2.25546E-18
 -1      3116 1.16057E-04-3.95531E-05-3.28749E-05 9.45145E-06 3.29583E-19-2.31343E-18
 -1      3117 1.18213E-04-3.60786E-05-3.52605E-05 1.20926E-05-7.10105E-19-2.48488E-18
 -1      3118 1.15125E-04-4.11747E-05-3.17277E-05 6.34739E-06 6.77144E-19-1.94357E-18
 -1      3119 1.14564E-04-4.20452E-05-3.10557E-05 3.95323E-06 5.71006E-19-1.33861E-18
 -1      3120 1.18125E-04-4.23188E-05-3.24594E-05 6.93147E-06 5.25266E-19-2.31266E-18
 -1      3121 1.12229E-04-4.15431E-05-3.03493E-05 1.08298E-06 2.37539E-19-1.23671E-18
 -1      3122 1.10814E-04-4.07895E-05-2.99487E-05-1.01057E-06 5.50172E-19-1.32322E-18
 -1      3123 1.14653E-04-4.36748E-05-3.04645E-05 5.32499E-07 4.87817E-19-1.86595E-18
 -1      3124 1.08221E-04-3.92581E-05-2.95939E-05-2.88572E-06 5.23555E-19-6.24001E-19
 -1      3125 1.06551E-04-3.78226E-05-2.93940E-05-4.32339E-06 1.20455E-18-9.49695E-19
 -1      3126 1.09573E-04-4.11992E-05-2.93680E-05-4.06259E-06 9.48226E-19-6.31018E-19
 -1      3127 1.04345E-04-3.61149E-05-2.92599E-05-5.26639E-06 1.11924E-18-9.99396E-19
 -1      3128 1.02831E-04-3.46370E-05-2.91788E-05-6.07075E-06 6.58472E-19-1.46946E-18
 -1      3129 1.04726E-04-3.74659E-05-2.88894E-05-6.58860E-06 1.02243E-18-3.32760E-19
 -1      3130 1.01205E-04-3.31809E-05-2.91580E-05-6.36930E-06 1.76799E-19-1.09036E-18
 -1      3131 1.00008E-04-3.19592E-05-2.91325E-05-6.69346E-06-4.06540E-19-7.97135E-19
 -1      3132 1.00917E-04-3.39272E-05-2.87600E-05-7.55582E-06 6.45931E-19-9.68698E-19
 -1      3133 9.89202E-05-3.08827E-05-2.91565E-05-6.60709E-06-6.39817E-19-4.06588E-19
 -1      3134 9.80475E-05-2.99920E-05-2.91480E-05-6.60767E-06-3.72323E-19-3.53444E-19
 -1      3135 9.82459E-05-3.11489E-05-2.87906E-05-7.57068E-06-3.70732E-19-8.26653E-19
 -1      3136 9.73772E-05-2.92782E-05-2.91798E-05-6.31294E-06-2.48423E-19-8.23664E-19
 -1      3137 9.67731E-05-2.86899E-05-2.91691E-05-6.11490E-06 3.27371E-19-1.18914E-18
 -1      3138 9.65272E-05-2.92114E-05-2.88718E-05-7.06066E-06-3.87493E-19-8.18370E-19
 -1      3139 9.63965E-05-2.82672E-05-2.91918E-05-5.72276E-06 6.83293E-19-1.30694E-18
 -1      3140 9.59920E-05-2.79164E-05-2.91719E-05-5.41670E-06 7.15508E-19-9.63707E-19
 -1      3141 9.55104E-05-2.79952E-05-2.89483E-05-6.29549E-06 2.85342E-19-6.18041E-19
 -1      3142 9.58071E-05-2.77045E-05-2.91802E-05-4.99425E-06 1.15657E-18-6.21510E-19
 -1      3143 9.55417E-05-2.75236E-05-2.91509E-05-4.64253E-06 8.57612E-19-7.03211E-19
 -1      3144 9.49689E-05-2.73249E-05-2.89976E-05-5.43575E-06 1.12514E-18-4.42037E-19
 -1      3145 9.54736E-05-2.74523E-05-2.91456E-05-4.22941E-06-9.71938E-20-1.86276E-19
 -1      3146 9.53011E-05-2.73842E-05-2.91095E-05-3.87301E-06 3.11974E-19-2.38329E-19
 -1      3147 9.47282E-05-2.70339E-05-2.90155E-05-4.57506E-06 5.18093E-19-1.37408E-19
 -1      3148 9.52988E-05-2.73995E-05-2.90938E-05-3.49165E-06 7.05724E-20-1.09086E-18
 -1      3149 9.51868E-05-2.74009E-05-2.90542E-05-3.15586E-06 2.93481E-19-8.78352E-19
 -1      3150 9.46648E-05-2.69872E-05-2.90063E-05-3.76681E-06-4.16692E-19-8.34055E-19
 -1      3151 9.52175E-05-2.74641E-05-2.90318E-05-2.81775E-06 9.26539E-20-1.22639E-18
 -1      3152 9.51443E-05-2.75044E-05-2.89919E-05-2.51666E-06-1.56456E-19-1.40126E-18
 -1      3153 9.46972E-05-2.70846E-05-2.89773E-05-3.03957E-06 8.70306E-20-1.05186E-18
 -1      3154 9.51882E-05-2.75895E-05-2.89661E-05-2.22614E-06 2.63036E-19-1.72880E-18
 -1      3155 9.51397E-05-2.76483E-05-2.89281E-05-1.96601E-06 3.14791E-19-1.63819E-18
 -1      3156 9.47739E-05-2.72566E-05-2.89359E-05-2.40615E-06-6.80470E-20-1.33775E-18
 -1      3157 9.51854E-05-2.77388E-05-2.89016E-05-1.72281E-06-1.86133E-19-1.73388E-18
 -1      3158 9.51527E-05-2.78031E-05-2.88670E-05-1.50474E-06-9.93710E-19-1.76412E-18
 -1      3159 9.48646E-05-2.74572E-05-2.88886E-05-1.86902E-06-7.61792E-21-1.84898E-18
 -1      3160 9.51944E-05-2.78893E-05-2.88415E-05-1.30577E-06-1.17461E-18-1.17029E-18
 -1      3161 9.51719E-05-2.79515E-05-2.88112E-05-1.12756E-06-6.49703E-19-1.45711E-18
 -1      3162 9.49525E-05-2.76582E-05-2.88402E-05-1.42403E-06-6.80238E-19-1.26141E-18
 -1      3163 9.52070E-05-2.80285E-05-2.87879E-05-9.68131E-07-9.73977E-19-8.99241E-19
 -1      3164 9.51912E-05-2.80845E-05-2.87620E-05-8.25785E-07-1.14542E-18-1.07084E-18
 -1      3165 9.50296E-05-2.78437E-05-2.87938E-05-1.06307E-06-3.30777E-19-6.39942E-19
 -1      3166 9.52192E-05-2.81501E-05-2.87415E-05-7.00531E-07-1.23030E-18-1.20641E-18
 -1      3167 9.52080E-05-2.81982E-05-2.87200E-05-5.89208E-07-1.09715E-18-1.38158E-19
 -1      3168 9.50930E-05-2.80059E-05-2.87515E-05-7.75979E-07-1.13591E-18-3.79025E-19
 -1      3169 9.52292E-05-2.82522E-05-2.87025E-05-4.92665E-07-1.29201E-18 2.71042E-19
 -1      3170 9.52211E-05-2.82920E-05-2.86851E-05-4.07361E-07-1.46899E-18-1.44987E-19
 -1      3171 9.51425E-05-2.81421E-05-2.87144E-05-5.51920E-07-9.59494E-19 1.68738E-18
 -1      3172 9.52366E-05-2.83352E-05-2.86705E-05-3.34361E-07-6.85472E-19-8.97720E-19
 -1      3173 9.52307E-05-2.83672E-05-2.86567E-05-2.70317E-07 7.97370E-20-6.69826E-19
 -1      3174 9.51795E-05-2.82530E-05-2.86828E-05-3.80294E-07-1.34483E-18 1.52170E-18
 -1      3175 9.52414E-05-2.84008E-05-2.86448E-05-2.16211E-07 5.31116E-19 2.05468E-19
 -1      3176 9.52372E-05-2.84259E-05-2.86341E-05-1.69147E-07 6.30318E-19-8.57164E-20
 -1      3177 9.52059E-05-2.83409E-05-2.86565E-05-2.51316E-07 6.49037E-19 1.75048E-18
 -1      3178 9.52442E-05-2.84515E-05-2.86246E-05-1.29905E-07 8.37745E-19 1.16970E-19
 -1      3179 9.52412E-05-2.84708E-05-2.86164E-05-9.61308E-08 9.46880E-19 2.33107E-19
 -1      3180 9.52240E-05-2.84089E-05-2.86351E-05-1.56331E-07 7.61258E-19 1.92228E-18
 -1      3181 9.52454E-05-2.84898E-05-2.86089E-05-6.83733E-08 8.57678E-19 2.10042E-19
 -1      3182 9.52432E-05-2.85044E-05-2.86027E-05-4.48157E-08 9.33055E-19 5.34781E-20
 -1      3183 9.52356E-05-2.84604E-05-2.86180E-05-8.79371E-08 9.10519E-19 2.75388E-18
 -1      3184 9.52455E-05-2.85183E-05-2.85969E-05-2.57885E-08 9.80386E-19-2.55895E-19
 -1      3185 9.52440E-05-2.85292E-05-2.85923E-05-9.96957E-09 2.30985E-18 5.12837E-20
 -1      3186 9.52423E-05-2.84987E-05-2.86045E-05-3.99979E-08 1.05897E-18 4.01596E-19
 -1      3187 9.52449E-05-2.85392E-05-2.85878E-05 2.50824E-09 2.68173E-18 6.12612E-19
 -1      3188 9.52440E-05-2.85473E-05-2.85844E-05 1.25178E-08 2.52517E-18-4.95461E-19
 -1      3189 9.52457E-05-2.85267E-05-2.85940E-05-7.55912E-09 2.70860E-18-1.15887E-18
 -1      3190 9.52441E-05-2.85547E-05-2.85810E-05 2.01001E-08 2.50548E-18-5.44838E-19
 -1      3191 9.52436E-05-2.85608E-05-2.85784E-05 2.57317E-08 2.82946E-18-8.39150E-19
 -1      3192 9.52469E-05-2.85470E-05-2.85857E-05 1.32145E-08 2.48797E-18-1.57817E-18
 -1      3193 9.52431E-05-2.85658E-05-2.85758E-05 2.94985E-08 2.06240E-18-1.09072E-18
 -1      3194 9.52430E-05-2.85708E-05-2.85739E-05 3.18411E-08 1.24139E-18-7.04974E-19
 -1      3195 9.52457E-05-2.85723E-05-2.85744E-05 3.07592E-08-7.17634E-21-3.46481E-18
 -1      3196 9.52466E-05-2.85616E-05-2.85794E-05 2.50452E-08 2.26469E-18-2.41533E-18
 -1      3197 8.41493E-05-4.04355E-05-1.85937E-05 3.64197E-05 3.54441E-18-2.88658E-18
 -1      3198 6.93313E-05-2.99052E-05-1.66235E-05 3.20806E-05 3.27262E-18-4.58414E-18
 -1      3199 5.12422E-05-1.92887E-05-1.32608E-05-2.22869E-05-2.32479E-18-6.38409E-18
 -1      3200 6.19874E-05-2.65987E-05-1.50019E-05-3.02612E-05-3.12433E-18-5.12423E-18
 -1      3201 1.08419E-04-4.16324E-05-2.84923E-05-1.54538E-05-1.40805E-18-3.31096E-19
 -1      3202 1.04328E-04-3.78150E-05-2.83942E-05-1.65174E-05-1.03508E-18-7.08302E-19
 -1      3203 1.01526E-04-3.44814E-05-2.86700E-05-1.57520E-05-6.29071E-19-1.07742E-18
 -1      3204 9.90404E-05-3.17625E-05-2.87800E-05-1.56488E-05-3.52172E-19-1.11721E-18
 -1      3205 9.82278E-05-3.47588E-05-2.72886E-05-1.87104E-05-1.02036E-18-1.27752E-18
 -1      3206 1.27555E-04-5.53241E-05-3.08464E-05-7.62114E-06-2.11263E-18 1.84701E-18
 -1      3207 1.21684E-04-5.28852E-05-2.91396E-05-1.24055E-05-2.21275E-18 9.93861E-19
 -1      3208 8.52188E-05-4.00777E-05-1.88853E-05-3.46506E-05 5.17050E-18 1.16038E-18
 -1      3209 9.80997E-05-4.76429E-05-2.17935E-05-3.26064E-05 4.42416E-18-4.81671E-19
 -1      3210 1.09191E-04-4.24226E-05-2.84179E-05 1.48878E-05-2.33977E-18-3.79226E-18
 -1      3211 1.13409E-04-4.68542E-05-2.85357E-05 1.36050E-05-2.64272E-18-4.17709E-18
 -1      3212 9.58140E-05-2.75328E-05-2.92595E-05 1.23724E-05-7.49869E-19-1.24419E-18
 -1      3213 9.69098E-05-2.87407E-05-2.91823E-05 1.30010E-05-7.32557E-19-1.75363E-18
 -1      3214 9.50629E-05-2.63212E-05-2.94681E-05 1.06024E-05-1.96867E-19-1.48391E-18
 -1      3215 9.56435E-05-2.68869E-05-2.94435E-05 1.13571E-05-1.90879E-19-1.28934E-18
 -1      3216 9.26542E-05-2.58215E-05-2.86538E-05 1.21877E-05-6.00406E-19-1.57534E-18
 -1      3217 9.48764E-05-2.59529E-05-2.95501E-05 8.90711E-06 2.51582E-19-1.36613E-18
 -1      3218 9.51891E-05-2.61452E-05-2.95728E-05 9.68078E-06 3.77483E-19-8.50491E-19
 -1      3219 9.26753E-05-2.50066E-05-2.89990E-05 1.02254E-05-6.61183E-20-7.25353E-19
 -1      3220 9.49216E-05-2.60288E-05-2.95376E-05 7.35409E-06 1.90701E-19-1.50896E-18
 -1      3221 9.51053E-05-2.60244E-05-2.95922E-05 8.08776E-06 4.58142E-19-1.43886E-18
 -1      3222 9.30556E-05-2.49340E-05-2.91882E-05 8.49837E-06 5.50191E-19-6.93334E-19
 -1      3223 9.50334E-05-2.63072E-05-2.94652E-05 5.97417E-06-3.34271E-19-1.74749E-18
 -1      3224 9.51581E-05-2.62117E-05-2.95367E-05 6.63645E-06 3.42577E-21-1.65012E-18
 -1      3225 9.35269E-05-2.52324E-05-2.92617E-05 6.98386E-06 1.97158E-19-8.90656E-19
 -1      3226 9.51405E-05-2.66533E-05-2.93612E-05 4.77821E-06-4.59736E-19-2.03837E-18
 -1      3227 9.52381E-05-2.65249E-05-2.94382E-05 5.35520E-06-4.93627E-19-2.24883E-18
 -1      3228 9.39663E-05-2.56823E-05-2.92582E-05 5.66614E-06-2.80811E-19-1.76473E-18
 -1      3229 9.52196E-05-2.69979E-05-2.92458E-05 3.76398E-06-1.62130E-19-1.51450E-18
 -1      3230 9.53024E-05-2.68665E-05-2.93207E-05 4.25303E-06-1.68859E-19-1.76806E-18
 -1      3231 9.43289E-05-2.61638E-05-2.92089E-05 4.53409E-06-6.54564E-19-2.03925E-18
 -1      3232 9.52686E-05-2.73094E-05-2.91317E-05 2.92041E-06-1.10034E-18-6.76208E-19
 -1      3233 9.53407E-05-2.71888E-05-2.92001E-05 3.32572E-06-6.78857E-19-1.20798E-18
 -1      3234 9.46082E-05-2.66168E-05-2.91360E-05 3.57637E-06-8.27943E-19-2.47738E-18
 -1      3235 9.52934E-05-2.75766E-05-2.90264E-05 2.23105E-06-3.93588E-19-4.35457E-19
 -1      3236 9.53557E-05-2.74721E-05-2.90863E-05 2.56061E-06-5.48459E-19-6.65528E-19
 -1      3237 9.48139E-05-2.70155E-05-2.90544E-05 2.77920E-06-1.00716E-18-1.65462E-18
 -1      3238 9.53016E-05-2.77986E-05-2.89337E-05 1.67683E-06 1.29884E-18-1.14657E-18
 -1      3239 9.53543E-05-2.77110E-05-2.89843E-05 1.94028E-06 4.96092E-19-6.20981E-19
 -1      3240 9.49605E-05-2.73526E-05-2.89736E-05 2.12637E-06 3.60932E-19-2.41689E-18
 -1      3241 9.52998E-05-2.79791E-05-2.88546E-05 1.23810E-06 1.67977E-18-3.79394E-19
 -1      3242 9.53432E-05-2.79072E-05-2.88964E-05 1.44543E-06 1.67371E-18-9.52921E-19
 -1      3243 9.50623E-05-2.76303E-05-2.88989E-05 1.60019E-06 1.53583E-18-1.82392E-18
 -1      3244 9.52926E-05-2.81234E-05-2.87890E-05 8.96007E-07 2.12036E-18-1.89447E-19
 -1      3245 9.53274E-05-2.80654E-05-2.88228E-05 1.05671E-06 2.10011E-18-3.93902E-19
 -1      3246 9.51315E-05-2.78546E-05-2.88328E-05 1.18264E-06 1.59988E-18-5.04100E-19
 -1      3247 9.52833E-05-2.82372E-05-2.87357E-05 6.33253E-07-1.43683E-19 3.70114E-19
 -1      3248 9.53105E-05-2.81911E-05-2.87625E-05 7.55955E-07 1.05203E-18 1.97648E-19
 -1      3249 9.51776E-05-2.80330E-05-2.87763E-05 8.56339E-07 1.31914E-18-4.35340E-19
 -1      3250 9.52739E-05-2.83258E-05-2.86932E-05 4.34547E-07-7.67674E-19-2.08147E-19
 -1      3251 9.52946E-05-2.82896E-05-2.87141E-05 5.26783E-07-7.21829E-19-3.33563E-19
 -1      3252 9.52074E-05-2.81729E-05-2.87293E-05 6.05264E-07 6.45873E-20-1.74226E-19
 -1      3253 9.52654E-05-2.83939E-05-2.86600E-05 2.86721E-07-1.48217E-18 3.05658E-19
 -1      3254 9.52807E-05-2.83658E-05-2.86760E-05 3.54913E-07-1.14508E-18 3.20240E-19
 -1      3255 9.52262E-05-2.82812E-05-2.86910E-05 4.15118E-07-1.35058E-18 3.79740E-19
 -1      3256 9.52581E-05-2.84457E-05-2.86345E-05 1.78702E-07-1.82106E-18 8.74510E-19
 -1      3257 9.52691E-05-2.84241E-05-2.86465E-05 2.28200E-07-1.75406E-18 1.82303E-19
 -1      3258 9.52374E-05-2.83639E-05-2.86604E-05 2.73513E-07-1.64734E-18 1.24831E-18
 -1      3259 9.52523E-05-2.84844E-05-2.86152E-05 1.01365E-07-5.47371E-19-3.97688E-19
 -1      3260 9.52600E-05-2.84681E-05-2.86240E-05 1.36537E-07-7.60476E-19 2.75151E-19
 -1      3261 9.52437E-05-2.84262E-05-2.86363E-05 1.69971E-07-1.39255E-18 8.96755E-19
 -1      3262 9.52478E-05-2.85131E-05-2.86008E-05 4.73373E-08 4.61052E-19-9.86778E-19
 -1      3263 9.52529E-05-2.85009E-05-2.86072E-05 7.16829E-08-1.73586E-19-5.82372E-19
 -1      3264 9.52466E-05-2.84726E-05-2.86177E-05 9.58248E-08-7.59555E-20-1.18251E-19
 -1      3265 9.52445E-05-2.85342E-05-2.85903E-05 1.07893E-08 3.71170E-19-2.27913E-19
 -1      3266 9.52476E-05-2.85250E-05-2.85949E-05 2.70493E-08 3.33663E-19-1.35046E-18
 -1      3267 9.52475E-05-2.85065E-05-2.86035E-05 4.40499E-08 4.36339E-19-9.43738E-19
 -1      3268 9.52422E-05-2.85496E-05-2.85827E-05-1.27643E-08-1.00865E-19 8.05169E-20
 -1      3269 9.52439E-05-2.85427E-05-2.85858E-05-2.50548E-09 9.40566E-19 2.68338E-19
 -1      3270 9.52471E-05-2.85312E-05-2.85927E-05 9.07804E-09-2.33899E-19 3.79409E-19
 -1      3271 9.52409E-05-2.85611E-05-2.85771E-05-2.66563E-08 1.28101E-19-7.53926E-19
 -1      3272 9.52415E-05-2.85558E-05-2.85793E-05-2.08541E-08 1.72290E-19 1.99948E-19
 -1      3273 9.52462E-05-2.85491E-05-2.85846E-05-1.33327E-08 1.81088E-19 1.57060E-18
 -1      3274 9.52403E-05-2.85701E-05-2.85729E-05-3.32924E-08-1.13947E-18-1.24700E-18
 -1      3275 9.52402E-05-2.85659E-05-2.85746E-05-3.09146E-08-8.58995E-19-1.00123E-18
 -1      3276 9.52451E-05-2.85623E-05-2.85784E-05-2.64394E-08-1.50811E-19 1.77750E-19
 -1      3277 9.52416E-05-2.85759E-05-2.85710E-05-3.41231E-08-1.74853E-18 1.16304E-19
 -1      3278 9.52402E-05-2.85726E-05-2.85718E-05-3.43263E-08-1.51005E-18-5.54122E-19
 -1      3279 9.52447E-05-2.85709E-05-2.85745E-05-3.17798E-08-1.64725E-18-8.75098E-19
 -1      3280 9.52450E-05-2.85770E-05-2.85720E-05-3.29751E-08-1.22847E-18 5.13889E-19
 -1      3281 8.61553E-05-1.30616E-05-3.13434E-05 7.30649E-07 1.41237E-18-4.48579E-18
 -1      3282 8.58606E-05-1.28039E-05-3.13228E-05 7.22828E-07 1.02917E-18-4.60622E-18
 -1      3283 9.52555E-05-2.85719E-05-2.85787E-05 2.65228E-09 1.22102E-18-2.45204E-18
 -1      3284 9.52556E-05-2.85719E-05-2.85788E-05-1.53659E-09 9.97382E-19 3.26568E-19
 -1      3285 5.41599E-05-1.98187E-05-1.45647E-05 2.40554E-05 2.36661E-18-6.07333E-18
 -1      3286 4.59699E-05-1.42369E-05-1.29333E-05 1.44362E-05 1.53956E-18-7.43038E-18
 -1      3287 9.52506E-05-2.85743E-05-2.85756E-05 2.56230E-08 1.14724E-18-4.21445E-18
 -1      3288 9.52526E-05-2.85744E-05-2.85764E-05 2.21439E-08 2.12006E-18-2.75294E-18
 -1      3289 1.33229E-04-5.69558E-05-3.22521E-05-4.65564E-06-1.71267E-18 2.64581E-18
 -1      3290 9.52549E-05-2.85722E-05-2.85783E-05 1.05587E-08 1.80433E-18-1.65622E-18
 -1      3291 9.52554E-05-2.85721E-05-2.85786E-05 6.52250E-09 1.57645E-18-2.78379E-18
 -1      3292 9.52554E-05-2.85631E-05-2.85823E-05 4.28562E-09 1.34656E-18-1.43618E-18
 -1      3293 4.58723E-05-1.33633E-05-1.37200E-05-1.12401E-05 2.56932E-18 5.45002E-18
 -1      3294 5.05607E-05-1.80624E-05-1.34854E-05-2.32768E-05 3.67533E-18 3.09739E-18
 -1      3295 1.10908E-04-5.27588E-05-2.45112E-05-2.63351E-05 3.74354E-18-1.62394E-18
 -1      3296 1.20305E-04-5.60324E-05-2.79697E-05-1.82339E-05 2.79081E-18-2.39753E-18
 -1      3297 1.18576E-04-5.26786E-05-2.82568E-05 1.47002E-05-3.25229E-18-4.24827E-18
 -1      3298 9.52536E-05-2.85732E-05-2.85773E-05 1.83715E-08 2.57934E-18-1.78766E-18
 -1      3299 9.52545E-05-2.85731E-05-2.85778E-05 1.44685E-08 2.56612E-18-2.03363E-18
 -1      3300 9.52548E-05-2.85644E-05-2.85815E-05 1.16654E-08 1.04024E-18-1.19774E-18
 -1      3301 9.52532E-05-2.85666E-05-2.85799E-05 1.90915E-08 1.80339E-18-2.50581E-18
 -1      3302 1.29382E-04-5.60768E-05-3.17145E-05 8.45418E-06 3.71953E-19 2.27518E-18
 -1      3303 1.21497E-04-5.55331E-05-2.81839E-05 1.69809E-05 1.49456E-18 1.47372E-18
 -1      3304 9.77358E-05-3.01873E-05-2.89205E-05 1.40620E-05-7.50958E-19-2.15022E-18
 -1      3305 9.97301E-05-3.23816E-05-2.88198E-05 1.43588E-05-1.00794E-18-2.72375E-18
 -1      3306 9.35099E-05-2.79617E-05-2.81309E-05 1.43960E-05-1.04748E-18-2.04101E-18
 -1      3307 1.01802E-04-3.50264E-05-2.85386E-05 1.52745E-05-8.54516E-19-3.30916E-18
 -1      3308 1.05126E-04-3.84925E-05-2.85224E-05 1.48704E-05-1.39010E-18-3.48416E-18
 -1      3309 1.02030E-04-3.95721E-05-2.69186E-05 1.86055E-05-2.01541E-18-4.41055E-18
 -1      3310 9.61474E-05-3.22383E-05-2.74754E-05 1.67419E-05-1.17106E-18-2.99334E-18
 -1      3311 7.67837E-05-3.52893E-05-1.72648E-05-3.35528E-05-3.73891E-18-3.81890E-18
 -1      3312 9.29592E-05-4.52458E-05-2.06473E-05-3.33872E-05-3.92383E-18-2.22346E-18
 -1      3313 1.15488E-04-1.57442E-05-4.31551E-05-7.92868E-06-4.36778E-18 4.70831E-19
 -1      3314 1.17944E-04-2.11873E-05-4.17886E-05-1.19151E-05-3.66924E-18 1.61439E-18
 -1      3315 7.51767E-05-3.31640E-05-1.79114E-05 3.13822E-05-2.50214E-18 1.59607E-18
 -1      3316 6.28916E-05-2.43610E-05-1.62394E-05 2.61130E-05-1.47032E-18 2.36926E-18
 -1      3317 1.16919E-04-4.89948E-05-2.89038E-05-1.30757E-05-1.83665E-18 3.04899E-19
 -1      3318 1.11439E-04-4.49563E-05-2.83002E-05-1.58962E-05-1.68380E-18-1.34018E-19
 -1      3319 1.04004E-04-4.21966E-05-2.66878E-05-2.07774E-05-1.84944E-18-8.82555E-19
 -1      3320 1.11047E-04-5.03085E-05-2.64648E-05-2.21081E-05-2.56656E-18-2.78939E-19
 -1      3321 9.54903E-05-2.57342E-05-2.98796E-05-1.06491E-05 1.05598E-18-1.55526E-18
 -1      3322 9.51547E-05-2.51860E-05-2.99843E-05-9.54400E-06 1.37410E-18-1.54123E-18
 -1      3323 1.19128E-04-2.18089E-05-4.19184E-05 1.27970E-05-3.81832E-18-3.90183E-18
 -1      3324 1.16442E-04-1.64655E-05-4.33433E-05 9.76959E-06-4.95006E-18-3.10757E-18
 -1      3325 1.40464E-04-5.21723E-05-3.79949E-05-9.26645E-06-2.66630E-19-5.85967E-18
 -1      3326 1.41214E-04-5.65275E-05-3.62717E-05-2.28873E-06-1.23417E-18-5.13641E-18
 -1      3327 1.35836E-04-5.77199E-05-3.34254E-05 8.27796E-07-2.10656E-18-4.69982E-18
 -1      3328 1.28944E-04-4.11342E-05-3.75325E-05 1.04839E-05-5.15631E-20-4.86086E-18
 -1      3329 1.24110E-04-3.13473E-05-4.02511E-05 1.35093E-05-1.79788E-18-4.21333E-18
 -1      3330 9.61910E-05-2.49443E-05-3.05143E-05 3.02936E-06-1.54194E-18-2.86816E-18
 -1      3331 9.65608E-05-2.58964E-05-3.02908E-05 4.14492E-06-1.32514E-18-2.67551E-18
 -1      3332 9.57789E-05-2.54901E-05-3.01370E-05 4.84299E-06-1.03744E-18-2.50201E-18
 -1      3333 1.33691E-04-4.48716E-05-3.85212E-05-6.93610E-06-2.01779E-18 3.15694E-18
 -1      3334 1.32323E-04-5.09688E-05-3.48822E-05-5.44766E-07-6.22728E-19 2.93656E-18
 -1      3335 9.38611E-05-2.02260E-05-3.15708E-05-1.18635E-06-2.36519E-18-3.90106E-18
 -1      3336 9.45989E-05-2.14816E-05-3.13329E-05-3.75723E-07-2.30021E-18-3.50765E-18
 -1      3337 9.22038E-05-1.84235E-05-3.16227E-05-8.26466E-07-1.98625E-18-4.23576E-18
 -1      3338 9.55268E-05-2.26430E-05-3.12394E-05-1.06722E-06 3.13753E-18-1.83857E-18
 -1      3339 9.39735E-05-2.06053E-05-3.14405E-05-3.52117E-07 3.21499E-18-2.34437E-18
 -1      3340 9.34367E-05-2.07902E-05-3.11286E-05-1.77279E-06 2.85097E-18-2.42928E-18
 -1      3341 9.56306E-05-2.33956E-05-3.09591E-05-2.91507E-06 2.75842E-18-1.92460E-18
 -1      3342 1.27796E-04-5.45239E-05-3.10645E-05-7.01796E-06 1.79054E-18-3.73449E-18
 -1      3343 1.29564E-04-5.03136E-05-3.45241E-05 2.08067E-06 4.82286E-19-4.97521E-18
 -1      3344 1.10401E-04-5.21602E-05-2.51215E-05 2.58211E-05 2.68017E-18 1.69221E-19
 -1      3345 9.76443E-05-4.67715E-05-2.14728E-05 3.25635E-05 3.29281E-18-1.56542E-18
 -1      3346 9.44853E-05-4.24220E-05-2.21045E-05 2.97698E-05 3.29919E-18-1.93727E-18
 -1      3347 1.03928E-04-4.91700E-05-2.33590E-05 2.73038E-05-3.81848E-18-2.44777E-18
 -1      3348 8.83182E-05-4.04891E-05-2.00923E-05 3.10018E-05-3.19321E-18-2.98261E-19
 -1      3349 1.13631E-04-1.25549E-05-4.36157E-05 3.82651E-06-4.92243E-18-1.59715E-18
 -1      3350 1.14072E-04-1.23127E-05-4.40641E-05-3.15635E-06-4.64343E-18-1.20265E-19
 -1      3351 5.87244E-05-2.40458E-05-1.44683E-05-2.95157E-05 3.73327E-18 2.00853E-18
 -1      3352 7.12086E-05-3.24371E-05-1.65469E-05-3.46256E-05 4.22061E-18 2.13754E-18
 -1      3353 6.05602E-05-2.14700E-05-1.63120E-05-2.40544E-05 3.30565E-18 2.62829E-18
 -1      3354 8.58457E-05-1.28206E-05-3.13162E-05 9.51018E-07 8.27431E-19-4.62259E-18
 -1      3355 8.60563E-05-1.29864E-05-3.13213E-05 8.85697E-07 3.96917E-19-4.72286E-18
 -1      3356 8.61818E-05-1.38637E-05-3.09679E-05 8.38700E-07 8.60254E-19-4.39980E-18
 -1      3357 9.08187E-05-1.80302E-05-3.11747E-05-9.85394E-07 2.45064E-18-3.02197E-18
 -1      3358 8.98044E-05-1.63357E-05-3.14996E-05 2.78819E-07 2.61935E-18-3.39821E-18
 -1      3359 8.85567E-05-1.51992E-05-3.14613E-05 2.21364E-07 2.20739E-18-3.57425E-18
 -1      3360 9.49086E-05-2.33251E-05-3.06876E-05 2.53278E-06-1.62632E-18-3.20170E-18
 -1      3361 1.25971E-04-4.47256E-05-3.48706E-05 6.86989E-06 2.66590E-19-4.28519E-18
 -1      3362 1.11503E-04-1.63918E-05-4.09455E-05 5.56178E-06-3.78952E-18-1.80865E-18
 -1      3363 1.08993E-04-1.91513E-05-3.85748E-05 7.64236E-06-3.02978E-18-1.95149E-18
 -1      3364 9.52533E-05-2.85751E-05-2.85764E-05-2.18537E-08 2.65398E-19-1.01500E-18
 -1      3365 9.52515E-05-2.85750E-05-2.85756E-05-2.54311E-08-6.27625E-19 7.51690E-19
 -1      3366 4.83085E-05-1.36922E-05-1.43941E-05 7.63929E-06 9.31763E-19-7.18369E-18
 -1      3367 7.61605E-05-3.04708E-05-1.95641E-05 2.88817E-05 3.28469E-18-3.33207E-18
 -1      3368 6.53903E-05-2.50533E-05-1.67999E-05 2.78797E-05 2.97841E-18-5.01306E-18
 -1      3369 6.24529E-05-2.09381E-05-1.76263E-05 2.21438E-05 2.18651E-18-4.85980E-18
 -1      3370 1.10803E-04-2.30411E-05-3.78450E-05 1.08759E-05-2.47605E-18-2.55844E-18
 -1      3371 1.15448E-04-2.55070E-05-3.86504E-05 1.29383E-05-2.32839E-18-3.32810E-18
 -1      3372 4.98958E-05-1.59114E-05-1.40941E-05-1.59005E-05-1.54271E-18-6.55011E-18
 -1      3373 5.83890E-05-1.83681E-05-1.68422E-05-1.82902E-05-1.84086E-18-5.36500E-18
 -1      3374 5.00924E-05-1.35373E-05-1.55478E-05-8.34008E-06-3.89159E-19-6.36228E-18
 -1      3375 7.36861E-05-3.04514E-05-1.81075E-05-2.92489E-05-3.07462E-18-4.22008E-18
 -1      3376 9.33555E-05-2.37003E-05-2.98511E-05-8.76945E-06 1.34962E-18-1.74732E-18
 -1      3377 9.53504E-05-2.48584E-05-3.02036E-05-8.27056E-06 1.43977E-18-1.69984E-18
 -1      3378 9.52154E-05-2.44323E-05-3.03309E-05-6.96947E-06 1.68423E-18-1.66556E-18
 -1      3379 9.46261E-05-2.93339E-05-2.80318E-05-1.62450E-05-3.35288E-19-1.55722E-18
 -1      3380 9.78600E-05-2.98498E-05-2.91063E-05-1.45505E-05-2.21575E-19-1.31582E-18
 -1      3381 9.64820E-05-2.82133E-05-2.92393E-05-1.39316E-05-9.41179E-20-1.39959E-18
 -1      3382 1.04624E-04-4.82398E-05-2.39586E-05-2.63243E-05 3.66911E-18-8.35929E-19
 -1      3383 9.54301E-05-2.62596E-05-2.96394E-05-1.18567E-05 6.78475E-19-1.42352E-18
 -1      3384 9.30689E-05-2.46345E-05-2.93355E-05-1.12904E-05 8.53796E-19-1.60958E-18
 -1      3385 9.61401E-05-2.71869E-05-2.95252E-05-1.27605E-05 2.58626E-19-1.32011E-18
 -1      3386 8.66975E-05-1.35330E-05-3.13754E-05 4.57897E-07 1.60612E-18-4.29607E-18
 -1      3387 8.67310E-05-1.43010E-05-3.10072E-05 2.04220E-07 1.40469E-18-4.08201E-18
 -1      3388 8.74922E-05-1.42282E-05-3.14143E-05 4.61154E-07 2.04027E-18-3.91643E-18
 -1      3389 9.52552E-05-2.85737E-05-2.85778E-05-1.37932E-08 3.60185E-19-1.91094E-18
 -1      3390 9.52543E-05-2.85738E-05-2.85773E-05-1.78464E-08 3.55427E-19-1.77512E-18
 -1      3391 9.52541E-05-2.85674E-05-2.85800E-05-1.85672E-08-7.59770E-19-6.46054E-19
 -1      3392 5.48112E-05-1.33834E-05-1.76638E-05 3.78592E-06 1.37638E-18 3.78139E-18
 -1      3393 4.90506E-05-1.21058E-05-1.53502E-05-2.61257E-06 1.75758E-18 5.03905E-18
 -1      3394 5.38168E-05-1.39707E-05-1.68777E-05-9.49393E-06 2.79984E-18 3.43440E-18
 -1      3395 9.52557E-05-2.85724E-05-2.85786E-05-5.52033E-09 8.71750E-19 1.13385E-18
 -1      3396 9.52554E-05-2.85726E-05-2.85784E-05-9.71489E-09 1.46826E-18-1.18177E-18
 -1      3397 9.52555E-05-2.85650E-05-2.85815E-05-1.07848E-08 6.23669E-19-1.19013E-18
 -1      3398 9.52557E-05-2.85633E-05-2.85823E-05-3.12714E-09 6.95096E-19-4.87764E-20
 -1      3399 1.19824E-04-5.21666E-05-2.90723E-05 1.12749E-05 1.29923E-18 1.75085E-18
 -1      3400 1.16872E-04-5.35437E-05-2.70342E-05 1.91290E-05 1.97176E-18 9.00012E-19
 -1      3401 1.10571E-04-4.91779E-05-2.62627E-05 2.04178E-05 2.09666E-18 4.73611E-20
 -1      3402 1.28535E-04-5.12454E-05-3.30719E-05 5.39578E-07 2.02117E-19 2.64719E-18
 -1      3403 1.21968E-04-5.32225E-05-2.93778E-05-1.06252E-05 2.25001E-18-2.88186E-18
 -1      3404 6.30737E-05-2.06125E-05-1.78385E-05 1.95937E-05-8.05925E-19 2.14940E-18
 -1      3405 1.02431E-04-4.68390E-05-2.34060E-05-2.73129E-05-3.41121E-18-1.46971E-18
 -1      3406 1.32225E-04-4.90499E-05-3.57366E-05-1.04978E-05-1.60325E-18-5.87796E-18
 -1      3407 8.59295E-05-3.61786E-05-2.09836E-05 2.78097E-05-2.56902E-18-2.29414E-19
 -1      3408 1.20387E-04-2.79354E-05-3.99341E-05-1.26616E-05-3.04815E-18 2.39541E-18
 -1      3409 1.20669E-04-2.85124E-05-3.97865E-05 1.37781E-05-2.06935E-18-3.69971E-18
 -1      3410 9.37330E-05-2.09224E-05-3.12044E-05 5.07353E-07-1.92452E-18-3.66582E-18
 -1      3411 1.28997E-04-3.91454E-05-3.86282E-05-1.06158E-05-2.21804E-18 3.68602E-18
 -1      3412 9.52476E-05-2.85725E-05-2.85751E-05 2.91516E-08-1.95261E-19-4.07976E-18
 -1      3413 9.52495E-05-2.85740E-05-2.85752E-05 2.74612E-08 1.07735E-18-4.18160E-18
 -1      3414 9.52508E-05-2.85675E-05-2.85785E-05 2.43296E-08 3.01284E-19-4.51874E-18
 -1      3415 9.52481E-05-2.85672E-05-2.85774E-05 2.72042E-08 1.28322E-19-3.85279E-18
 -1      3416 8.97065E-05-1.60245E-05-3.15886E-05-6.70981E-08-1.28336E-18-4.30683E-18
 -1      3417 9.09032E-05-1.71734E-05-3.16108E-05-4.63068E-07-1.75325E-18-4.24791E-18
 -1      3418 9.17370E-05-1.84536E-05-3.13980E-05 1.43809E-07-1.70104E-18-4.04276E-18
 -1      3419 1.09127E-04-4.96602E-05-2.52181E-05 2.30470E-05-3.39988E-18-3.66359E-18
 -1      3420 8.07914E-05-3.49899E-05-1.93223E-05-3.13257E-05 4.22039E-18 1.08023E-18
 -1      3421 8.76603E-05-1.41498E-05-3.15215E-05 5.20119E-07-5.40799E-19-4.60833E-18
 -1      3422 8.86106E-05-1.50001E-05-3.15556E-05 2.04404E-07-8.77198E-19-4.70986E-18
 -1      3423 8.93511E-05-1.61766E-05-3.13519E-05 6.77910E-07-1.01100E-18-4.34504E-18
 -1      3424 9.55379E-05-2.42653E-05-3.05438E-05-5.78039E-06 2.00000E-18-1.84579E-18
 -1      3425 9.54716E-05-2.37616E-05-3.07259E-05-4.24178E-06 2.35574E-18-1.86399E-18
 -1      3426 9.43869E-05-2.25008E-05-3.08032E-05-3.71911E-06 2.45389E-18-1.99163E-18
 -1      3427 9.38933E-05-2.31142E-05-3.03291E-05-6.27862E-06 1.69915E-18-1.77446E-18
 -1      3428 9.82010E-05-4.24881E-05-2.35286E-05-2.65063E-05-2.91575E-18-1.40860E-18
 -1      3429 5.46774E-05-1.44367E-05-1.71783E-05 9.89467E-06 1.49162E-18-6.04236E-18
 -1      3430 5.13599E-05-1.24474E-05-1.62263E-05 3.22372E-08 5.64336E-19-6.73227E-18
 -1      3431 9.66300E-05-2.85056E-05-2.91729E-05 8.24512E-06-4.16245E-19-1.74614E-18
 -1      3432 9.76207E-05-2.99256E-05-2.90001E-05 8.79163E-06-1.84372E-19-1.69719E-18
 -1      3433 9.87496E-05-3.14960E-05-2.87849E-05 9.48753E-06-1.67045E-20-1.38858E-18
 -1      3434 1.00250E-04-3.33007E-05-2.86796E-05 9.66214E-06 3.52728E-19-1.15697E-18
 -1      3435 9.66197E-05-2.99983E-05-2.85966E-05 1.00159E-05 1.46865E-19-1.38663E-18
 -1      3436 1.02101E-04-3.53415E-05-2.85517E-05 1.00051E-05 6.66982E-19-1.05781E-18
 -1      3437 1.04212E-04-3.75293E-05-2.85719E-05 9.59321E-06 8.08084E-19-8.60165E-19
 -1      3438 9.95002E-05-3.38481E-05-2.82039E-05 1.13561E-05 5.72108E-19-9.93125E-19
 -1      3439 1.07059E-04-4.00161E-05-2.86300E-05 9.26766E-06 8.85785E-19-5.62744E-19
 -1      3440 1.09838E-04-4.23226E-05-2.89073E-05 7.80121E-06 7.16180E-19-5.19469E-20
 -1      3441 1.04076E-04-3.87832E-05-2.80666E-05 1.18513E-05 1.04163E-18-6.79221E-19
 -1      3442 1.13851E-04-4.61485E-05-2.89431E-05 8.51418E-06 7.92935E-19 6.25438E-19
 -1      3443 1.16925E-04-4.77815E-05-2.96359E-05 6.07402E-06 6.11353E-19 9.12029E-19
 -1      3444 1.21340E-04-4.94662E-05-3.07443E-05 2.89227E-06 4.09487E-19 1.55530E-18
 -1      3445 1.23020E-04-4.84618E-05-3.19984E-05-4.67831E-07-2.82591E-19 2.10738E-18
 -1      3446 1.24606E-04-4.46523E-05-3.44825E-05-7.27278E-06-9.78098E-19 2.65824E-18
 -1      3447 1.23581E-04-3.93363E-05-3.62345E-05-9.94469E-06-1.60780E-18 2.95869E-18
 -1      3448 1.19772E-04-3.31724E-05-3.71021E-05 1.31124E-05-8.68209E-19-3.37212E-18
 -1      3449 9.11411E-05-1.83890E-05-3.11873E-05 9.99515E-07-1.30768E-18-3.77161E-18
 -1      3450 9.24397E-05-1.96515E-05-3.11998E-05 7.32446E-07-1.60509E-18-3.88046E-18
 -1      3451 9.31599E-05-2.08029E-05-3.09966E-05 1.40560E-06-1.53262E-18-3.60493E-18
 -1      3452 1.16705E-04-4.62979E-05-3.02244E-05-1.74680E-06 5.29310E-19-2.46244E-18
 -1      3453 1.14284E-04-4.51591E-05-2.94892E-05-4.29791E-06 9.71359E-19-2.43388E-18
 -1      3454 1.10316E-04-4.29067E-05-2.89158E-05-6.39546E-06 1.60054E-18-1.72104E-18
 -1      3455 1.07613E-04-4.07381E-05-2.85642E-05-7.83990E-06 1.71976E-18-9.58206E-19
 -1      3456 1.11595E-04-4.52691E-05-2.86032E-05-8.60387E-06 1.53023E-18-1.91140E-18
 -1      3457 1.04576E-04-3.83326E-05-2.83917E-05-8.47107E-06 1.15841E-18-3.84591E-19
 -1      3458 1.02311E-04-3.61724E-05-2.82800E-05-9.06811E-06 1.13166E-18-4.83087E-19
 -1      3459 1.04449E-04-3.96998E-05-2.78726E-05-1.07149E-05 1.54250E-18-9.89447E-19
 -1      3460 1.00238E-04-3.41764E-05-2.83002E-05-8.94271E-06 8.47128E-19-5.33346E-19
 -1      3461 9.85835E-05-3.24489E-05-2.83058E-05-8.99961E-06 5.14245E-19-3.23345E-19
 -1      3462 9.94549E-05-3.48179E-05-2.77767E-05-1.07814E-05 9.60573E-19-2.80085E-19
 -1      3463 9.73163E-05-3.10088E-05-2.84009E-05-8.52345E-06 3.97419E-21-9.44370E-19
 -1      3464 9.62129E-05-2.97839E-05-2.84504E-05-8.28311E-06-3.08016E-19-7.48098E-19
 -1      3465 9.62049E-05-3.11282E-05-2.79384E-05-9.85920E-06 1.74272E-19-2.01874E-19
 -1      3466 9.55251E-05-2.88508E-05-2.85591E-05-7.68974E-06-3.12177E-19-3.07969E-19
 -1      3467 9.48473E-05-2.80642E-05-2.86136E-05-7.30500E-06 1.79511E-19 1.71540E-19
 -1      3468 9.43275E-05-2.86452E-05-2.81779E-05-8.59923E-06 1.39279E-19 3.64255E-19
 -1      3469 9.45410E-05-2.75260E-05-2.87079E-05-6.70381E-06-4.32426E-20-5.36321E-20
 -1      3470 9.41610E-05-2.70755E-05-2.87500E-05-6.26339E-06 4.58235E-19-1.09426E-19
 -1      3471 9.33874E-05-2.71374E-05-2.84081E-05-7.30140E-06 6.72527E-20 8.87196E-19
 -1      3472 9.40897E-05-2.68196E-05-2.88200E-05-5.70197E-06 1.13092E-18-6.40056E-19
 -1      3473 9.39035E-05-2.66063E-05-2.88443E-05-5.25636E-06 1.16345E-18-6.54584E-19
 -1      3474 9.30440E-05-2.63434E-05-2.85931E-05-6.08839E-06 6.25205E-19-5.44644E-19
 -1      3475 9.39654E-05-2.65383E-05-2.88895E-05-4.75339E-06 6.60153E-19-9.86001E-19
 -1      3476 9.38972E-05-2.64809E-05-2.88971E-05-4.33103E-06 3.67415E-20-9.02189E-19
 -1      3477 9.30547E-05-2.60375E-05-2.87239E-05-5.00403E-06 6.93328E-19-1.28830E-18
 -1      3478 9.40256E-05-2.65284E-05-2.89211E-05-3.89191E-06-3.49920E-19-7.96062E-19
 -1      3479 9.40238E-05-2.65660E-05-2.89156E-05-3.50828E-06-4.48049E-20-1.11566E-18
 -1      3480 9.32560E-05-2.60434E-05-2.88050E-05-4.05819E-06-5.84432E-20-1.27457E-18
 -1      3481 9.41768E-05-2.66774E-05-2.89233E-05-3.13245E-06-1.89119E-19-1.10262E-18
 -1      3482 9.42083E-05-2.67667E-05-2.89086E-05-2.79502E-06-2.53394E-19-1.57416E-18
 -1      3483 9.35427E-05-2.62322E-05-2.88457E-05-3.24728E-06-1.89847E-19-1.06376E-18
 -1      3484 9.43611E-05-2.69067E-05-2.89049E-05-2.47897E-06-3.23823E-19-1.69191E-18
 -1      3485 9.44059E-05-2.70188E-05-2.88849E-05-2.18994E-06 1.24262E-19-1.34091E-18
 -1      3486 9.38505E-05-2.65140E-05-2.88564E-05-2.56244E-06-3.21651E-19-1.50460E-18
 -1      3487 9.45451E-05-2.71648E-05-2.88738E-05-1.92857E-06-1.47396E-19-1.99124E-18
 -1      3488 9.45917E-05-2.72813E-05-2.88515E-05-1.68666E-06-4.45310E-19-2.50128E-18
 -1      3489 9.41428E-05-2.68293E-05-2.88465E-05-1.99251E-06-6.79560E-19-1.66911E-18
 -1      3490 9.47112E-05-2.74197E-05-2.88364E-05-1.47402E-06 4.74055E-19-2.15576E-18
 -1      3491 9.47537E-05-2.75298E-05-2.88138E-05-1.27575E-06 5.06579E-19-1.07498E-18
 -1      3492 9.44010E-05-2.71407E-05-2.88239E-05-1.52519E-06 4.93721E-19-2.06185E-18
 -1      3493 9.48519E-05-2.76534E-05-2.87970E-05-1.10551E-06 1.68702E-19 3.46785E-19
 -1      3494 9.48878E-05-2.77513E-05-2.87756E-05-9.46157E-07-3.58525E-19 1.11240E-19
 -1      3495 9.46178E-05-2.74268E-05-2.87946E-05-1.14771E-06 9.83475E-19-8.44767E-19
 -1      3496 9.49656E-05-2.78571E-05-2.87589E-05-8.12051E-07-6.82050E-19 5.35372E-19
 -1      3497 9.49942E-05-2.79406E-05-2.87396E-05-6.86347E-07-2.66017E-19 1.57862E-18
 -1      3498 9.47930E-05-2.76770E-05-2.87627E-05-8.47417E-07-1.91659E-19 7.21905E-19
 -1      3499 9.50540E-05-2.80281E-05-2.87238E-05-5.82413E-07-8.91420E-19 2.02102E-18
 -1      3500 9.50758E-05-2.80970E-05-2.87070E-05-4.85050E-07-1.42183E-18 1.84325E-18
 -1      3501 9.49299E-05-2.78880E-05-2.87313E-05-6.12207E-07-6.89096E-19 1.91382E-18
 -1      3502 9.51203E-05-2.81674E-05-2.86928E-05-4.05839E-07-2.05302E-18 1.74594E-18
 -1      3503 9.51362E-05-2.82228E-05-2.86786E-05-3.31805E-07-1.08882E-18 2.04489E-18
 -1      3504 9.50337E-05-2.80606E-05-2.87020E-05-4.30889E-07-1.60433E-18 1.95058E-18
 -1      3505 9.51683E-05-2.82780E-05-2.86663E-05-2.72491E-07 1.53674E-19 1.75605E-18
 -1      3506 9.51794E-05-2.83214E-05-2.86545E-05-2.17265E-07 4.95779E-19 8.45755E-19
 -1      3507 9.51100E-05-2.81983E-05-2.86759E-05-2.93420E-07-7.60254E-19 2.05623E-18
 -1      3508 9.52017E-05-2.83638E-05-2.86441E-05-1.73690E-07 8.42192E-19 6.72598E-19
 -1      3509 9.52090E-05-2.83970E-05-2.86345E-05-1.33341E-07 1.26208E-18 1.07028E-18
 -1      3510 9.51641E-05-2.83055E-05-2.86534E-05-1.91029E-07 5.77597E-19 3.11990E-19
 -1      3511 9.52239E-05-2.84288E-05-2.86259E-05-1.02007E-07 1.16864E-18 8.19248E-19
 -1      3512 9.52283E-05-2.84537E-05-2.86182E-05-7.32206E-08 9.62539E-19 1.04534E-18
 -1      3513 9.52011E-05-2.83872E-05-2.86343E-05-1.16240E-07 1.17327E-18-4.72195E-19
 -1      3514 9.52376E-05-2.84771E-05-2.86112E-05-5.12665E-08 5.90386E-19 8.89866E-19
 -1      3515 9.52400E-05-2.84955E-05-2.86051E-05-3.13344E-08 1.40022E-18-7.09740E-20
 -1      3516 9.52251E-05-2.84482E-05-2.86186E-05-6.28310E-08 8.51310E-19-7.82901E-19
 -1      3517 9.52452E-05-2.85124E-05-2.85994E-05-1.64709E-08 1.84949E-18-5.59506E-19
 -1      3518 9.52462E-05-2.85259E-05-2.85947E-05-3.23395E-09 2.31411E-18-1.02617E-18
 -1      3519 9.52396E-05-2.84930E-05-2.86056E-05-2.57665E-08 1.31394E-18-4.62810E-19
 -1      3520 9.52487E-05-2.85381E-05-2.85900E-05 6.41610E-09 2.82533E-18-2.65142E-18
 -1      3521 9.52489E-05-2.85479E-05-2.85863E-05 1.44478E-08 2.22341E-18-2.47242E-18
 -1      3522 9.52473E-05-2.85253E-05-2.85951E-05-9.71586E-10 1.78381E-18-2.05855E-18
 -1      3523 9.03577E-05-2.36464E-05-2.86133E-05 9.22450E-06-1.77895E-19-1.18935E-18
 -1      3524 9.02192E-05-2.37632E-05-2.84615E-05 1.01047E-05-2.94369E-19-1.36627E-18
 -1      3525 9.38988E-05-3.34912E-05-2.58106E-05-2.04439E-05-1.47874E-18-1.56477E-18
 -1      3526 9.11972E-05-3.00330E-05-2.62102E-05-1.90296E-05-9.22776E-19-1.74496E-18
 -1      3527 9.52500E-05-2.85766E-05-2.85743E-05-2.82587E-08-1.18278E-18 1.01728E-18
 -1      3528 9.52475E-05-2.85762E-05-2.85734E-05-3.06206E-08-1.50694E-18 5.79601E-19
 -1      3529 9.52474E-05-2.85732E-05-2.85747E-05-3.04312E-08-1.92490E-18 1.48411E-19
 -1      3530 9.52513E-05-2.85706E-05-2.85775E-05-2.53748E-08-1.55918E-18 9.62984E-19
 -1      3531 8.94841E-05-2.38531E-05-2.81524E-05 1.11755E-05-5.40088E-19-1.45581E-18
 -1      3532 8.96369E-05-2.44355E-05-2.79068E-05 1.21952E-05-8.57004E-19-1.64454E-18
 -1      3533 8.72606E-05-2.24205E-05-2.77700E-05 1.00912E-05-7.20895E-19-1.79926E-18
 -1      3534 9.22090E-05-2.45175E-05-2.90270E-05 6.23336E-06 6.93401E-20-4.95594E-19
 -1      3535 9.19666E-05-2.42830E-05-2.90000E-05 6.90662E-06 1.19893E-19-6.62895E-19
 -1      3536 9.29578E-05-2.51419E-05-2.90774E-05 5.05569E-06-3.82048E-19-1.03895E-18
 -1      3537 9.27485E-05-2.48744E-05-2.90834E-05 5.64121E-06-6.32380E-20-6.08601E-19
 -1      3538 9.12934E-05-2.39537E-05-2.88456E-05 5.57407E-06 1.62191E-19-7.59064E-19
 -1      3539 9.35576E-05-2.57490E-05-2.90719E-05 4.04951E-06-4.82292E-19-8.81167E-19
 -1      3540 9.33920E-05-2.54883E-05-2.90969E-05 4.55200E-06-4.56355E-19-9.19104E-19
 -1      3541 9.22564E-05-2.47066E-05-2.89387E-05 4.53143E-06-1.56127E-19-4.55600E-19
 -1      3542 9.40220E-05-2.62967E-05-2.90340E-05 3.19872E-06-8.63643E-19-9.51911E-19
 -1      3543 9.38979E-05-2.60614E-05-2.90684E-05 3.62311E-06-3.34591E-19-7.91971E-19
 -1      3544 9.30210E-05-2.54101E-05-2.89676E-05 3.63983E-06-4.91813E-19 3.27302E-19
 -1      3545 9.43730E-05-2.67691E-05-2.89802E-05 2.48927E-06-8.91568E-19-1.82040E-18
 -1      3546 9.42834E-05-2.65662E-05-2.90176E-05 2.84172E-06-1.05541E-18-1.78270E-18
 -1      3547 9.36145E-05-2.60330E-05-2.89573E-05 2.88309E-06-5.43950E-19-5.97596E-19
 -1      3548 9.46335E-05-2.71646E-05-2.89209E-05 1.90671E-06 8.05641E-19-2.48414E-18
 -1      3549 9.45706E-05-2.69948E-05-2.89574E-05 2.19456E-06-1.89219E-19-2.27987E-18
 -1      3550 9.40673E-05-2.65653E-05-2.89250E-05 2.24913E-06-1.21001E-19-1.73431E-18
 -1      3551 9.48240E-05-2.74886E-05-2.88624E-05 1.43586E-06 8.47343E-19-8.49714E-19
 -1      3552 9.47808E-05-2.73495E-05-2.88959E-05 1.66716E-06 9.38568E-19-1.49638E-18
 -1      3553 9.44078E-05-2.70089E-05-2.88821E-05 1.72619E-06 1.86179E-19-1.72309E-18
 -1      3554 9.49614E-05-2.77495E-05-2.88084E-05 1.06128E-06 1.29869E-18 2.49131E-19
 -1      3555 9.49324E-05-2.76374E-05-2.88379E-05 1.24420E-06 9.12828E-19-3.35122E-20
 -1      3556 9.46605E-05-2.73714E-05-2.88361E-05 1.30181E-06-9.50843E-20 9.94041E-19
 -1      3557 9.50590E-05-2.79565E-05-2.87608E-05 7.67988E-07 1.00386E-18 1.97946E-19
 -1      3558 9.50400E-05-2.78675E-05-2.87859E-05 9.10393E-07 1.72449E-18-1.18964E-19
 -1      3559 9.48457E-05-2.76628E-05-2.87912E-05 9.63084E-07 1.28382E-18 6.28892E-19
 -1      3560 9.51274E-05-2.81185E-05-2.87200E-05 5.41989E-07-5.00505E-19 7.62659E-19
 -1      3561 9.51153E-05-2.80488E-05-2.87408E-05 6.51107E-07 1.26029E-19 7.13099E-19
 -1      3562 9.49794E-05-2.78936E-05-2.87501E-05 6.97153E-07 4.21544E-19 7.15469E-19
 -1      3563 9.51742E-05-2.82435E-05-2.86860E-05 3.70691E-07-1.89158E-18-1.74166E-19
 -1      3564 9.51669E-05-2.81897E-05-2.87029E-05 4.52943E-07-1.15450E-18 1.49078E-19
 -1      3565 9.50745E-05-2.80739E-05-2.87140E-05 4.91827E-07-4.16742E-19 1.01977E-18
 -1      3566 9.52055E-05-2.83387E-05-2.86583E-05 2.43092E-07-1.87937E-18 4.42231E-19
 -1      3567 9.52013E-05-2.82977E-05-2.86718E-05 3.04021E-07-1.93515E-18 9.03878E-20
 -1      3568 9.51407E-05-2.82128E-05-2.86831E-05 3.35976E-07-1.95519E-18-3.89438E-19
 -1      3569 9.52257E-05-2.84101E-05-2.86360E-05 1.49833E-07-1.20934E-18 1.44243E-19
 -1      3570 9.52235E-05-2.83793E-05-2.86466E-05 1.94104E-07-1.48599E-18 4.92613E-19
 -1      3571 9.51857E-05-2.83182E-05-2.86573E-05 2.19781E-07-2.11052E-18 6.16922E-20
 -1      3572 9.52380E-05-2.84629E-05-2.86184E-05 8.31309E-08-5.03918E-20 1.07820E-18
 -1      3573 9.52371E-05-2.84401E-05-2.86266E-05 1.14586E-07-7.47500E-19 3.02445E-19
 -1      3574 9.52152E-05-2.83971E-05-2.86362E-05 1.34828E-07-1.09091E-18 2.80010E-19
 -1      3575 9.52447E-05-2.85014E-05-2.86046E-05 3.66688E-08-3.39000E-19 1.65510E-18
 -1      3576 9.52447E-05-2.84847E-05-2.86109E-05 5.83993E-08 2.70960E-20 1.21866E-18
 -1      3577 9.52335E-05-2.84552E-05-2.86192E-05 7.40890E-08-4.38660E-19 2.44118E-18
 -1      3578 9.52478E-05-2.85291E-05-2.85940E-05 5.42501E-09-2.10237E-19 1.92232E-18
 -1      3579 9.52483E-05-2.85169E-05-2.85988E-05 1.98524E-08 4.61282E-19 1.45886E-18
 -1      3580 9.52439E-05-2.84974E-05-2.86057E-05 3.18176E-08-2.87091E-19 2.50798E-18
 -1      3581 9.52488E-05-2.85492E-05-2.85857E-05-1.43580E-08 4.21347E-19 1.30233E-18
 -1      3582 9.52494E-05-2.85403E-05-2.85893E-05-5.52574E-09-1.19288E-19 1.83414E-18
 -1      3583 9.52491E-05-2.85277E-05-2.85949E-05 3.39483E-09 1.36272E-19 1.85683E-18
 -1      3584 7.61200E-05-2.97087E-05-1.96106E-05-2.78283E-05 3.46844E-18 8.30939E-19
 -1      3585 8.72341E-05-3.73015E-05-2.15490E-05-2.88022E-05 3.96316E-18 1.77824E-19
 -1      3586 6.09609E-05-1.90813E-05-1.78321E-05-1.97121E-05 2.80749E-18 2.86234E-18
 -1      3587 6.82402E-05-2.45633E-05-1.86278E-05-2.55468E-05 3.02730E-18 1.53151E-18
 -1      3588 7.62454E-05-2.71439E-05-2.08072E-05-2.36753E-05 2.78545E-18 7.58717E-19
 -1      3589 9.89822E-05-4.35228E-05-2.34253E-05-2.61427E-05 3.67025E-18-2.47360E-19
 -1      3590 1.08506E-04-4.90281E-05-2.57593E-05-2.13839E-05 3.15164E-18-1.48343E-18
 -1      3591 8.90608E-05-2.50595E-05-2.74502E-05 1.36155E-05-1.28790E-18-1.96125E-18
 -1      3592 8.98593E-05-2.64612E-05-2.71041E-05 1.48080E-05-1.68297E-18-2.58231E-18
 -1      3593 8.58702E-05-2.29642E-05-2.69467E-05 1.25201E-05-1.47338E-18-1.57262E-18
 -1      3594 9.32803E-05-2.13400E-05-3.08354E-05-3.05379E-06 2.42459E-18-2.23865E-18
 -1      3595 9.21643E-05-2.00379E-05-3.09059E-05-2.48938E-06 2.43992E-18-2.53524E-18
 -1      3596 9.30631E-05-2.17307E-05-3.05809E-05-4.39014E-06 2.04144E-18-2.08396E-18
 -1      3597 8.63956E-05-1.31721E-05-3.14026E-05 9.06698E-07 1.55407E-19-4.79894E-18
 -1      3598 8.70176E-05-1.36981E-05-3.14279E-05 7.25122E-07-2.75502E-19-4.58972E-18
 -1      3599 8.76083E-05-1.47239E-05-3.12232E-05 1.08482E-06-2.53869E-19-4.41547E-18
 -1      3600 8.65722E-05-1.40887E-05-3.10458E-05 1.20238E-06 3.31115E-19-4.42073E-18
 -1      3601 9.53236E-05-2.61088E-05-2.96485E-05 6.53208E-06-5.07523E-19-2.38370E-18
 -1      3602 9.59648E-05-2.72744E-05-2.94312E-05 7.35223E-06-4.21634E-19-2.11663E-18
 -1      3603 9.48981E-05-2.70361E-05-2.91092E-05 8.23956E-06-2.81570E-19-2.09279E-18
 -1      3604 6.96598E-05-2.53346E-05-1.86945E-05-2.52950E-05-2.43367E-18-4.40023E-18
 -1      3605 8.18188E-05-3.38696E-05-2.06438E-05-2.91624E-05-2.83208E-18-3.23334E-18
 -1      3606 9.36414E-05-2.20751E-05-3.06769E-05 2.67875E-06-1.23714E-18-3.30523E-18
 -1      3607 9.13216E-05-2.39641E-05-2.88870E-05 7.60720E-06 6.51015E-19-6.60650E-19
 -1      3608 9.10844E-05-2.38382E-05-2.88087E-05 8.37586E-06 6.62855E-19-6.36106E-19
 -1      3609 9.01177E-05-2.32194E-05-2.86534E-05 6.79700E-06 4.17475E-19-8.54497E-19
 -1      3610 9.44279E-05-2.39521E-05-3.01929E-05 4.44260E-06-8.94120E-19-2.87373E-18
 -1      3611 9.48909E-05-2.50371E-05-2.99362E-05 5.50006E-06-5.78213E-19-2.63585E-18
 -1      3612 9.38502E-05-2.46118E-05-2.96854E-05 6.20873E-06-4.56218E-19-2.55234E-18
 -1      3613 9.52541E-05-2.85534E-05-2.85861E-05 5.26292E-09 3.00306E-19-2.65137E-18
 -1      3614 9.52543E-05-2.85531E-05-2.85863E-05 2.01853E-09 1.20382E-18-2.51201E-18
 -1      3615 7.18303E-05-2.43739E-05-2.02227E-05 2.25999E-05-1.01764E-18 3.41513E-19
 -1      3616 6.29660E-05-1.76793E-05-1.93020E-05 1.49469E-05 4.68383E-20 1.75344E-18
 -1      3617 9.76160E-05-4.18568E-05-2.39194E-05 2.52669E-05 2.86622E-18-1.59915E-18
 -1      3618 8.77286E-05-3.61253E-05-2.17270E-05 2.84223E-05 3.32392E-18-2.64331E-18
 -1      3619 1.16411E-04-5.03654E-05-2.80193E-05-1.28018E-05 2.57077E-18-2.17164E-18
 -1      3620 1.20404E-04-4.98132E-05-3.04708E-05-4.13049E-06 1.20181E-18-3.42295E-18
 -1      3621 1.21219E-04-3.91391E-05-3.54834E-05 1.13386E-05-1.56476E-19-2.87150E-18
 -1      3622 9.11062E-05-3.72588E-05-2.31207E-05 2.54044E-05-2.41553E-18-1.96019E-18
 -1      3623 8.01393E-05-2.99645E-05-2.12883E-05 2.49305E-05-1.90255E-18-2.60992E-19
 -1      3624 7.90294E-05-2.62600E-05-2.23792E-05 2.06052E-05-1.17464E-18-8.11087E-19
 -1      3625 1.22915E-04-4.56019E-05-3.31015E-05 5.28980E-06 3.04376E-19-3.24374E-18
 -1      3626 1.21613E-04-4.77918E-05-3.16399E-05 1.66862E-06 7.69271E-19-3.36817E-18
 -1      3627 9.06480E-05-1.86867E-05-3.08597E-05-2.18217E-06 2.12622E-18-2.87098E-18
 -1      3628 5.99936E-05-1.43700E-05-1.95946E-05-6.38705E-06 1.97525E-18 3.09596E-18
 -1      3629 5.95260E-05-1.59362E-05-1.84132E-05-1.36598E-05 2.77193E-18 3.62625E-18
 -1      3630 6.67648E-05-1.87498E-05-2.04074E-05-1.51554E-05 2.51616E-18 2.58836E-18
 -1      3631 9.32863E-05-3.74428E-05-2.36785E-05-2.47432E-05-2.40473E-18-1.97695E-18
 -1      3632 8.20791E-05-3.14526E-05-2.16263E-05 2.56421E-05 2.67178E-18-2.94676E-18
 -1      3633 6.31203E-05-1.79790E-05-1.93387E-05-1.57873E-05-9.60079E-19-4.65262E-18
 -1      3634 6.59138E-05-2.13822E-05-1.88074E-05-2.15256E-05-1.80233E-18-4.68335E-18
 -1      3635 7.38250E-05-2.43276E-05-2.11031E-05-2.16285E-05-1.83876E-18-3.86888E-18
 -1      3636 1.10728E-04-4.55722E-05-2.79624E-05 1.29517E-05 1.35421E-18 1.46801E-19
 -1      3637 8.99471E-05-1.72702E-05-3.11519E-05 1.15682E-06-1.08361E-18-4.07686E-18
 -1      3638 9.06483E-05-1.83895E-05-3.09574E-05 1.72946E-06-1.06478E-18-3.82293E-18
 -1      3639 8.88349E-05-1.62570E-05-3.11167E-05 1.36166E-06-5.89004E-19-4.37429E-18
 -1      3640 8.87459E-05-2.26323E-05-2.83150E-05 8.26118E-06 2.31462E-19-1.96354E-18
 -1      3641 9.52491E-05-2.85551E-05-2.85830E-05 1.94972E-08 1.83590E-18-3.03061E-18
 -1      3642 9.52487E-05-2.85618E-05-2.85801E-05 2.38504E-08 1.22179E-18-3.55250E-18
 -1      3643 9.52500E-05-2.85617E-05-2.85808E-05 2.24849E-08 6.48021E-19-4.83656E-18
 -1      3644 9.52501E-05-2.85472E-05-2.85870E-05 1.35734E-08 1.21970E-18-3.29924E-18
 -1      3645 9.13624E-05-2.25583E-05-2.94816E-05-8.77698E-06 1.14907E-18-2.00173E-18
 -1      3646 9.15685E-05-2.21702E-05-2.97500E-05-7.50852E-06 1.21747E-18-2.13258E-18
 -1      3647 8.59875E-05-2.63885E-05-2.54868E-05-1.84367E-05-9.71060E-19-2.30529E-18
 -1      3648 9.09662E-05-2.79078E-05-2.69450E-05-1.68648E-05-5.82401E-19-1.93016E-18
 -1      3649 8.98182E-05-2.59970E-05-2.73695E-05-1.55796E-05-3.19518E-19-1.88205E-18
 -1      3650 6.04948E-05-1.69082E-05-1.82660E-05 1.56106E-05 1.90696E-18-5.28885E-18
 -1      3651 6.14963E-05-1.54052E-05-1.96641E-05 8.88832E-06 1.39109E-18-5.37337E-18
 -1      3652 6.80525E-05-2.13912E-05-2.00211E-05 1.95214E-05 2.37576E-18-4.12868E-18
 -1      3653 9.32721E-05-2.62680E-05-2.87377E-05-1.37571E-05 8.06919E-20-1.65950E-18
 -1      3654 9.52537E-05-2.85556E-05-2.85849E-05 1.13840E-08 8.04605E-19 5.50941E-19
 -1      3655 9.52541E-05-2.85547E-05-2.85855E-05 8.10340E-09 3.41833E-19-3.54276E-19
 -1      3656 9.52531E-05-2.85433E-05-2.85897E-05 5.49145E-09 2.25534E-19-1.17897E-18
 -1      3657 8.83345E-05-1.57271E-05-3.10882E-05-4.48128E-07 1.85349E-18-3.53651E-18
 -1      3658 9.25963E-05-3.33176E-05-2.53105E-05 2.03846E-05-1.69899E-18-3.50549E-18
 -1      3659 9.66128E-05-3.80839E-05-2.49765E-05 2.15918E-05-2.03645E-18-3.35702E-18
 -1      3660 9.36337E-05-3.86572E-05-2.33961E-05-2.43914E-05 3.19173E-18 5.08034E-19
 -1      3661 1.10845E-04-4.69030E-05-2.73321E-05-1.42478E-05 2.31463E-18-1.41027E-18
 -1      3662 9.52482E-05-2.85637E-05-2.85791E-05-2.58505E-08-2.05093E-19 4.76589E-19
 -1      3663 9.52487E-05-2.85570E-05-2.85820E-05-2.08990E-08 4.71017E-19 1.40354E-18
 -1      3664 9.52474E-05-2.85698E-05-2.85760E-05-2.91832E-08-1.23784E-18 3.35998E-19
 -1      3665 6.05107E-05-1.50123E-05-1.92011E-05 1.02586E-05 6.95123E-19 2.71421E-18
 -1      3666 6.02043E-05-1.42574E-05-1.96192E-05 4.11980E-06 1.33164E-18 2.94310E-18
 -1      3667 6.82132E-05-1.83231E-05-2.12502E-05 1.34923E-05 2.84107E-19 6.36254E-19
 -1      3668 9.52544E-05-2.85531E-05-2.85863E-05-6.65645E-10 1.52888E-18-2.97307E-19
 -1      3669 9.52545E-05-2.85537E-05-2.85861E-05-3.99967E-09 1.52168E-18-1.72470E-19
 -1      3670 9.52531E-05-2.85420E-05-2.85903E-05 6.26605E-10 1.37592E-18-1.49084E-18
 -1      3671 1.08599E-04-4.55044E-05-2.70074E-05 1.62901E-05 2.00140E-18 1.67355E-19
 -1      3672 1.03866E-04-4.42558E-05-2.54120E-05 2.19468E-05 2.63287E-18-9.68695E-19
 -1      3673 9.70739E-05-3.87797E-05-2.50008E-05 2.15533E-05 2.44168E-18-1.63570E-18
 -1      3674 1.04666E-04-4.11176E-05-2.72232E-05 1.48865E-05 1.61312E-18-5.67539E-19
 -1      3675 9.52546E-05-2.85591E-05-2.85839E-05-1.39953E-08-1.86909E-19-1.29749E-18
 -1      3676 9.52535E-05-2.85602E-05-2.85828E-05-1.74899E-08-1.65575E-19 2.89709E-19
 -1      3677 5.66941E-05-1.39909E-05-1.80548E-05-4.46603E-06 5.23837E-20-5.75575E-18
 -1      3678 1.02297E-04-4.35696E-05-2.49539E-05 2.31751E-05-2.61382E-18-3.86541E-18
 -1      3679 8.97047E-05-2.78935E-05-2.64861E-05 1.66587E-05-1.60911E-18-3.03342E-18
 -1      3680 9.17216E-05-3.06008E-05-2.60816E-05 1.79894E-05-1.61766E-18-3.17825E-18
 -1      3681 8.53715E-05-2.88581E-05-2.42614E-05 2.03271E-05-1.73685E-18-2.50420E-18
 -1      3682 8.49853E-05-2.48216E-05-2.57834E-05 1.58205E-05-2.00685E-18-2.39314E-18
 -1      3683 9.07888E-05-3.41689E-05-2.41501E-05-2.33693E-05-1.95168E-18-2.09592E-18
 -1      3684 9.06208E-05-2.33825E-05-2.87956E-05-1.12437E-05 5.74915E-19-1.86062E-18
 -1      3685 9.06915E-05-2.28339E-05-2.90968E-05-1.00290E-05 1.01427E-18-1.88239E-18
 -1      3686 8.89697E-05-2.13022E-05-2.89822E-05-8.74959E-06 1.01444E-18-2.26535E-18
 -1      3687 8.68014E-05-1.53175E-05-3.06492E-05-3.52938E-07 1.40778E-18-3.85633E-18
 -1      3688 8.62602E-05-1.48615E-05-3.06173E-05 3.92104E-08 1.15404E-18-3.98147E-18
 -1      3689 9.52526E-05-2.85546E-05-2.85848E-05-1.69719E-08 1.40511E-18 2.32863E-19
 -1      3690 9.52523E-05-2.85638E-05-2.85808E-05-2.16288E-08 6.91104E-20 1.13136E-18
 -1      3691 9.26722E-05-2.15667E-05-3.04770E-05 3.38914E-06-8.82181E-19-3.24220E-18
 -1      3692 8.28628E-05-2.88667E-05-2.29989E-05-2.31905E-05-1.76354E-18-2.84851E-18
 -1      3693 8.61570E-05-1.55343E-05-3.02328E-05 2.29043E-07 1.03016E-18-3.81761E-18
 -1      3694 8.60459E-05-1.47003E-05-3.05946E-05 7.15509E-07 9.89726E-19-4.15364E-18
 -1      3695 8.60912E-05-1.47155E-05-3.05903E-05 1.07309E-06 6.69454E-19-4.20433E-18
 -1      3696 9.52508E-05-2.85492E-05-2.85864E-05-1.42812E-08 8.69401E-19 1.18804E-18
 -1      3697 9.52514E-05-2.85618E-05-2.85813E-05 2.09506E-08 5.26320E-19-4.27302E-18
 -1      3698 9.52504E-05-2.85654E-05-2.85793E-05-2.47177E-08-5.09509E-19 2.00530E-18
 -1      3699 9.52514E-05-2.85532E-05-2.85849E-05 1.67759E-08-1.45936E-19-4.10494E-18
 -1      3700 9.52523E-05-2.85602E-05-2.85824E-05 1.85810E-08 5.20389E-19-4.28097E-18
 -1      3701 9.52536E-05-2.85590E-05-2.85835E-05 1.50444E-08 1.39881E-18-2.26423E-18
 -1      3702 9.52513E-05-2.85455E-05-2.85882E-05 1.15038E-08 3.56753E-19-2.96923E-18
 -1      3703 9.63073E-05-3.13741E-05-2.78021E-05 1.22747E-05 6.03265E-19-1.31654E-18
 -1      3704 9.81885E-05-3.36212E-05-2.76234E-05 1.29356E-05 8.25470E-19-1.38006E-18
 -1      3705 9.97007E-05-3.57087E-05-2.73807E-05 1.39803E-05 1.07889E-18-1.28368E-18
 -1      3706 1.02503E-04-3.85243E-05-2.73644E-05 1.41612E-05 1.30669E-18-9.99770E-19
 -1      3707 9.96928E-05-3.81067E-05-2.64585E-05 1.73438E-05 1.73702E-18-1.28776E-18
 -1      3708 9.58269E-05-3.31802E-05-2.69129E-05 1.51297E-05 9.28014E-19-1.76889E-18
 -1      3709 1.21704E-04-3.27528E-05-3.84671E-05-1.29928E-05-2.66972E-18 3.04651E-18
 -1      3710 7.82402E-05-2.37655E-05-2.33369E-05 1.79339E-05-1.13649E-18-1.56058E-18
 -1      3711 9.02774E-05-1.92292E-05-3.04444E-05-3.31616E-06 1.71199E-18-2.64240E-18
 -1      3712 8.90957E-05-1.74315E-05-3.07111E-05-1.79655E-06 1.85505E-18-3.08238E-18
 -1      3713 1.03744E-04-4.02008E-05-2.71689E-05-1.33588E-05 1.96097E-18-6.95361E-20
 -1      3714 1.00447E-04-3.71937E-05-2.70176E-05-1.36078E-05 1.70375E-18-1.11616E-19
 -1      3715 9.80561E-05-3.46056E-05-2.71524E-05-1.25964E-05 1.21714E-18 6.42173E-20
 -1      3716 9.59505E-05-3.23537E-05-2.72203E-05-1.21196E-05 7.46245E-19 1.60688E-20
 -1      3717 9.60906E-05-3.47186E-05-2.63744E-05-1.52685E-05 1.71112E-18 3.09531E-19
 -1      3718 9.47284E-05-3.06130E-05-2.74400E-05-1.09764E-05 2.03468E-19 1.65450E-19
 -1      3719 9.34500E-05-2.90856E-05-2.75727E-05-1.02861E-05 2.12595E-19 1.59573E-19
 -1      3720 9.27260E-05-3.02781E-05-2.68160E-05-1.26800E-05 4.05485E-19-2.60744E-19
 -1      3721 9.29326E-05-2.80144E-05-2.77928E-05-9.23229E-06 4.90126E-19 3.08694E-19
 -1      3722 9.22433E-05-2.70720E-05-2.79306E-05-8.52574E-06 4.82615E-19 6.57570E-19
 -1      3723 9.11209E-05-2.74653E-05-2.73086E-05-1.02514E-05 2.37638E-19 1.89275E-20
 -1      3724 9.21394E-05-2.64820E-05-2.81180E-05-7.62718E-06 1.12132E-19 5.47519E-19
 -1      3725 9.18348E-05-2.59673E-05-2.82346E-05-6.97347E-06 2.26641E-19 6.51755E-19
 -1      3726 9.05796E-05-2.58565E-05-2.77513E-05-8.19510E-06 3.65716E-19 3.80160E-19
 -1      3727 9.19644E-05-2.57116E-05-2.83796E-05-6.23020E-06-2.13848E-19 5.64226E-19
 -1      3728 9.18954E-05-2.54911E-05-2.84667E-05-5.65130E-06 1.14963E-19 1.34377E-19
 -1      3729 9.06506E-05-2.50751E-05-2.81075E-05-6.51489E-06-2.67550E-20 6.00136E-19
 -1      3730 9.21428E-05-2.54540E-05-2.85710E-05-5.04382E-06 7.13526E-19-1.11210E-18
 -1      3731 9.22069E-05-2.54239E-05-2.86294E-05-4.54191E-06 5.54670E-19-1.41784E-18
 -1      3732 9.10523E-05-2.48450E-05-2.83734E-05-5.16105E-06-3.34189E-19-5.33259E-19
 -1      3733 9.25010E-05-2.55205E-05-2.86991E-05-4.04693E-06-1.11253E-19-1.67289E-18
 -1      3734 9.26312E-05-2.56053E-05-2.87332E-05-3.61760E-06-1.53604E-19-1.19537E-18
 -1      3735 9.16058E-05-2.49595E-05-2.85592E-05-4.07208E-06 2.07278E-19-2.06055E-18
 -1      3736 9.29291E-05-2.57753E-05-2.87754E-05-3.21514E-06-2.96942E-19-9.62903E-19
 -1      3737 9.30836E-05-2.59218E-05-2.87907E-05-2.85217E-06-1.02827E-19-1.15176E-18
 -1      3738 9.22027E-05-2.52732E-05-2.86796E-05-3.19478E-06-4.05683E-20-1.63339E-18
 -1      3739 9.33609E-05-2.61237E-05-2.88124E-05-2.52614E-06 1.66079E-20-1.40181E-18
 -1      3740 9.35149E-05-2.62959E-05-2.88144E-05-2.22297E-06-5.02659E-20-8.63827E-19
 -1      3741 9.27790E-05-2.56856E-05-2.87497E-05-2.48779E-06-3.31497E-19-8.78126E-19
 -1      3742 9.37592E-05-2.65027E-05-2.88216E-05-1.96038E-06-6.90950E-19-9.92338E-19
 -1      3743 9.38994E-05-2.66775E-05-2.88147E-05-1.71039E-06-1.15931E-18-1.46605E-18
 -1      3744 9.32996E-05-2.61290E-05-2.87831E-05-1.91924E-06-6.01499E-19-1.19247E-18
 -1      3745 9.41061E-05-2.68727E-05-2.88123E-05-1.50055E-06-3.04698E-19-1.52007E-18
 -1      3746 9.42265E-05-2.70365E-05-2.88001E-05-1.29721E-06 1.11661E-18-1.43168E-18
 -1      3747 9.37486E-05-2.65606E-05-2.87911E-05-1.46420E-06-5.69462E-19-5.14094E-19
 -1      3748 9.43956E-05-2.72110E-05-2.87918E-05-1.13112E-06 1.89010E-18-1.17483E-18
 -1      3749 9.44945E-05-2.73565E-05-2.87771E-05-9.68056E-07 1.24170E-18-3.27383E-19
 -1      3750 9.41221E-05-2.69555E-05-2.87826E-05-1.10256E-06 8.08406E-19-6.09101E-19
 -1      3751 9.46291E-05-2.75064E-05-2.87655E-05-8.38035E-07 6.62916E-19-1.92723E-19
 -1      3752 9.47076E-05-2.76307E-05-2.87501E-05-7.09171E-07 1.38209E-19 1.05291E-18
 -1      3753 9.44236E-05-2.73012E-05-2.87642E-05-8.17727E-07 1.62834E-18-1.55473E-19
 -1      3754 9.48118E-05-2.77555E-05-2.87374E-05-6.08626E-07-6.04858E-19 1.00631E-18
 -1      3755 9.48722E-05-2.78584E-05-2.87225E-05-5.08323E-07-1.09379E-18 1.03011E-18
 -1      3756 9.46606E-05-2.75937E-05-2.87409E-05-5.95743E-07-4.40704E-20 6.84269E-19
 -1      3757 9.49509E-05-2.79596E-05-2.87097E-05-4.31608E-07-1.67273E-18 3.27763E-19
 -1      3758 9.49959E-05-2.80425E-05-2.86960E-05-3.54758E-07-1.40522E-18 8.68447E-19
 -1      3759 9.48420E-05-2.78343E-05-2.87161E-05-4.24794E-07-1.35560E-18 2.24419E-19
 -1      3760 9.50538E-05-2.81227E-05-2.86841E-05-2.97078E-07-1.04661E-18 8.73233E-19
 -1      3761 9.50863E-05-2.81880E-05-2.86720E-05-2.39171E-07-7.37362E-19 8.56289E-19
 -1      3762 9.49774E-05-2.80275E-05-2.86917E-05-2.94880E-07-1.08582E-18-3.31933E-19
 -1      3763 9.51277E-05-2.82501E-05-2.86613E-05-1.96504E-07-2.28476E-19 6.64073E-19
 -1      3764 9.51503E-05-2.83003E-05-2.86509E-05-1.53652E-07 4.14654E-19-2.00293E-19
 -1      3765 9.50758E-05-2.81791E-05-2.86692E-05-1.97591E-07-8.72188E-19-9.78272E-19
 -1      3766 9.51788E-05-2.83474E-05-2.86416E-05-1.22670E-07 8.32469E-19-1.55317E-19
 -1      3767 9.51938E-05-2.83854E-05-2.86329E-05-9.16011E-08 1.18828E-18-6.39449E-19
 -1      3768 9.51449E-05-2.82956E-05-2.86492E-05-1.25931E-07 6.10284E-19-8.52897E-19
 -1      3769 9.52126E-05-2.84203E-05-2.86249E-05-6.95709E-08 9.19137E-19-1.27587E-18
 -1      3770 9.52220E-05-2.84484E-05-2.86177E-05-4.75799E-08 8.69529E-19-4.56421E-19
 -1      3771 9.51917E-05-2.83833E-05-2.86318E-05-7.41363E-08 7.79630E-19-3.85739E-19
 -1      3772 9.52336E-05-2.84739E-05-2.86110E-05-3.23719E-08 1.02680E-18-1.05803E-18
 -1      3773 9.52390E-05-2.84944E-05-2.86051E-05-1.73087E-08 1.24484E-18-7.11547E-19
 -1      3774 9.52218E-05-2.84481E-05-2.86170E-05-3.75783E-08 5.97134E-19-1.16921E-18
 -1      3775 9.52455E-05-2.85127E-05-2.85996E-05-7.19671E-09 1.48444E-18-1.53063E-18
 -1      3776 9.52482E-05-2.85276E-05-2.85947E-05 2.85762E-09 1.22274E-18-2.53092E-18
 -1      3777 9.52396E-05-2.84953E-05-2.86046E-05-1.25753E-08 9.35861E-19-9.57402E-19
 -1      3778 8.56466E-05-3.12832E-05-2.32895E-05 2.24346E-05 2.36405E-18-2.37061E-18
 -1      3779 7.66067E-05-2.59299E-05-2.14136E-05 2.27917E-05 2.28493E-18-3.26210E-18
 -1      3780 7.31151E-05-2.21252E-05-2.18308E-05 1.76270E-05 2.00294E-18-3.84726E-18
 -1      3781 9.25576E-05-2.51899E-05-2.88823E-05 3.06535E-06-8.30404E-19 6.42348E-19
 -1      3782 9.22145E-05-2.48408E-05-2.88745E-05 3.45003E-06-6.02568E-19 2.95686E-19
 -1      3783 8.88296E-05-3.39905E-05-2.33409E-05-2.29122E-05 2.85862E-18 5.14136E-19
 -1      3784 9.79765E-05-3.99897E-05-2.49083E-05-2.09298E-05 2.80297E-18-1.52889E-19
 -1      3785 9.16559E-05-2.44169E-05-2.88297E-05 3.80014E-06-6.48340E-19-3.97799E-19
 -1      3786 9.12177E-05-2.40302E-05-2.87952E-05 4.24621E-06-3.33458E-19-2.35556E-19
 -1      3787 9.12919E-05-2.41845E-05-2.87467E-05 3.18446E-06-9.42428E-19 6.00011E-19
 -1      3788 9.05126E-05-2.35630E-05-2.87091E-05 4.65079E-06 9.79456E-20-1.25394E-18
 -1      3789 8.99671E-05-2.31590E-05-2.86328E-05 5.16596E-06 4.09001E-19-7.67338E-19
 -1      3790 9.00457E-05-2.32598E-05-2.86047E-05 3.86700E-06-7.27203E-19-4.20914E-19
 -1      3791 9.32587E-05-2.58638E-05-2.88919E-05 2.43597E-06-1.88082E-19 1.08704E-20
 -1      3792 9.29953E-05-2.55604E-05-2.89001E-05 2.76364E-06-2.49437E-19 6.58782E-19
 -1      3793 9.22744E-05-2.50090E-05-2.88177E-05 2.58549E-06-7.67289E-19 1.19335E-18
 -1      3794 9.37972E-05-2.64356E-05-2.88759E-05 1.90467E-06 2.62166E-19-7.37547E-19
 -1      3795 9.35979E-05-2.61790E-05-2.88928E-05 2.17933E-06 1.85478E-19-2.21663E-19
 -1      3796 9.30407E-05-2.57228E-05-2.88428E-05 2.06538E-06 5.50824E-19 3.46986E-19
 -1      3797 9.42059E-05-2.69106E-05-2.88462E-05 1.46376E-06-7.09297E-19 2.89049E-19
 -1      3798 9.40572E-05-2.66980E-05-2.88670E-05 1.69003E-06-1.47335E-19-6.40985E-19
 -1      3799 9.36319E-05-2.63265E-05-2.88394E-05 1.62143E-06-4.10148E-20 6.78625E-19
 -1      3800 9.45124E-05-2.72981E-05-2.88103E-05 1.10433E-06 7.71727E-20 8.58384E-19
 -1      3801 9.44029E-05-2.71251E-05-2.88320E-05 1.28750E-06-3.73721E-19 5.46336E-19
 -1      3802 9.40830E-05-2.68273E-05-2.88197E-05 1.24979E-06-1.05848E-18 1.13609E-18
 -1      3803 9.47395E-05-2.76093E-05-2.87733E-05 8.16498E-07 1.35781E-18 6.82961E-19
 -1      3804 9.46599E-05-2.74707E-05-2.87941E-05 9.62235E-07 8.84818E-19 1.17702E-18
 -1      3805 9.44232E-05-2.72357E-05-2.87916E-05 9.44814E-07 5.18962E-19 2.48179E-19
 -1      3806 9.49053E-05-2.78556E-05-2.87381E-05 5.90052E-07-3.81201E-19 1.69946E-18
 -1      3807 9.48483E-05-2.77462E-05-2.87569E-05 7.04036E-07 5.47738E-19 1.49206E-18
 -1      3808 9.46765E-05-2.75637E-05-2.87604E-05 6.99368E-07-4.03908E-20 1.90025E-18
 -1      3809 9.50244E-05-2.80478E-05-2.87062E-05 4.15015E-07-3.69437E-19 1.64291E-18
 -1      3810 9.49844E-05-2.79626E-05-2.87226E-05 5.02647E-07 1.44920E-19 1.74864E-18
 -1      3811 9.48623E-05-2.78231E-05-2.87295E-05 5.05555E-07-1.26638E-19 2.11738E-18
 -1      3812 9.51083E-05-2.81956E-05-2.86783E-05 2.82123E-07-1.26569E-18 7.72857E-19
 -1      3813 9.50808E-05-2.81302E-05-2.86923E-05 3.48320E-07-7.38754E-19 1.49401E-18
 -1      3814 9.49962E-05-2.80254E-05-2.87007E-05 3.55354E-07-2.00836E-19 1.80400E-18
 -1      3815 9.51659E-05-2.83076E-05-2.86546E-05 1.83104E-07-2.07522E-18-4.09346E-19
 -1      3816 9.51476E-05-2.82581E-05-2.86662E-05 2.32187E-07-2.10583E-18-4.72657E-19
 -1      3817 9.50908E-05-2.81807E-05-2.86750E-05 2.41121E-07-4.71088E-19-6.82254E-20
 -1      3818 9.52041E-05-2.83911E-05-2.86349E-05 1.10823E-07-8.55399E-19-3.27561E-19
 -1      3819 9.51924E-05-2.83542E-05-2.86444E-05 1.46471E-07-1.51261E-18-5.41583E-19
 -1      3820 9.51558E-05-2.82982E-05-2.86528E-05 1.55926E-07-1.56411E-18-5.40368E-21
 -1      3821 9.52282E-05-2.84524E-05-2.86187E-05 5.92636E-08-6.10226E-19 3.29656E-19
 -1      3822 9.52212E-05-2.84253E-05-2.86264E-05 8.45485E-08-2.67485E-19-3.74556E-19
 -1      3823 9.51990E-05-2.83856E-05-2.86340E-05 9.37211E-08-8.51423E-19-9.44999E-19
 -1      3824 9.52422E-05-2.84966E-05-2.86056E-05 2.34762E-08-6.24467E-19 1.13296E-18
 -1      3825 9.52385E-05-2.84770E-05-2.86117E-05 4.10069E-08-4.19011E-19 1.15883E-18
 -1      3826 9.52262E-05-2.84496E-05-2.86184E-05 4.94966E-08-9.75482E-19-2.79197E-19
 -1      3827 9.52494E-05-2.85284E-05-2.85950E-05-7.01024E-10 4.57852E-19-1.49507E-19
 -1      3828 9.52478E-05-2.85141E-05-2.85999E-05 1.13441E-08 2.70767E-19 7.84317E-19
 -1      3829 9.52421E-05-2.84961E-05-2.86055E-05 1.89036E-08 1.35680E-19-3.30848E-19
 -1      3830 8.52751E-05-2.11685E-05-2.75136E-05 8.29754E-06-4.95051E-19-1.92229E-18
 -1      3831 8.45053E-05-2.11041E-05-2.71582E-05 9.23714E-06-7.39731E-19-1.56168E-18
 -1      3832 9.29687E-05-2.51927E-05-2.90441E-05 7.89537E-06-7.83991E-20-2.48314E-18
 -1      3833 9.36359E-05-2.64958E-05-2.87536E-05 8.90204E-06 6.76894E-20-2.21604E-18
 -1      3834 6.03567E-05-1.40978E-05-1.98908E-05-2.01108E-06 4.07244E-19-5.28562E-18
 -1      3835 6.06088E-05-1.48587E-05-1.93107E-05-9.53968E-06-4.15030E-19-4.92269E-18
 -1      3836 6.69119E-05-1.74770E-05-2.10320E-05-1.23590E-05-6.69609E-19-4.31304E-18
 -1      3837 9.02626E-05-2.49055E-05-2.79636E-05-1.38634E-05-7.59430E-20-1.78945E-18
 -1      3838 8.99365E-05-2.38868E-05-2.83258E-05-1.26319E-05 2.44498E-19-1.78857E-18
 -1      3839 8.63298E-05-2.34377E-05-2.69341E-05-1.44178E-05-8.40523E-20-2.14322E-18
 -1      3840 9.52548E-05-2.85552E-05-2.85856E-05-6.92431E-09 1.07492E-18-1.97103E-19
 -1      3841 9.52546E-05-2.85564E-05-2.85850E-05-1.03575E-08 7.12901E-19-1.21391E-18
 -1      3842 9.52545E-05-2.85485E-05-2.85880E-05-9.67427E-09 1.01033E-18-4.55852E-20
 -1      3843 9.52538E-05-2.85437E-05-2.85897E-05-4.21369E-09 1.70048E-18 1.80220E-19
 -1      3844 7.45855E-05-2.41694E-05-2.15524E-05-2.00999E-05 2.34465E-18 3.90059E-19
 -1      3845 8.11171E-05-2.91378E-05-2.23726E-05-2.25980E-05 2.39389E-18 5.34173E-19
 -1      3846 1.06479E-04-4.35788E-05-2.68005E-05-1.54719E-05 2.36020E-18-7.87696E-19
 -1      3847 9.24938E-05-2.16965E-05-3.03432E-05-5.14761E-06 1.73915E-18-2.04174E-18
 -1      3848 9.14232E-05-2.05270E-05-3.03609E-05-4.49445E-06 1.78341E-18-2.31174E-18
 -1      3849 8.96307E-05-1.92569E-05-3.01893E-05-4.00868E-06 1.40103E-18-2.58556E-18
 -1      3850 9.21579E-05-2.19473E-05-3.00961E-05-6.31251E-06 1.38065E-18-2.07111E-18
 -1      3851 9.41290E-05-2.78446E-05-2.83954E-05 1.01196E-05 4.08177E-19-1.86835E-18
 -1      3852 9.52678E-05-2.95336E-05-2.81389E-05 1.10197E-05 6.18313E-19-1.63800E-18
 -1      3853 9.19781E-05-2.59848E-05-2.83056E-05 9.83562E-06 4.57226E-19-2.21909E-18
 -1      3854 9.22751E-05-2.29395E-05-2.97177E-05 5.65520E-06-2.94886E-19-2.84163E-18
 -1      3855 9.27188E-05-2.40826E-05-2.94053E-05 6.74348E-06-1.86720E-19-2.65717E-18
 -1      3856 9.13108E-05-2.35214E-05-2.90596E-05 7.37204E-06-1.61541E-20-2.80998E-18
 -1      3857 9.11455E-05-1.97967E-05-3.05805E-05 2.80335E-06-7.85714E-19-3.53030E-18
 -1      3858 9.19153E-05-2.17416E-05-3.00694E-05 4.53547E-06-4.00723E-19-3.21071E-18
 -1      3859 9.07133E-05-2.11765E-05-2.97964E-05 5.05647E-06-1.60389E-19-3.21381E-18
 -1      3860 8.99083E-05-1.86372E-05-3.05381E-05 2.85843E-06-5.06834E-19-3.72480E-18
 -1      3861 8.29053E-05-2.09428E-05-2.66087E-05 1.03017E-05-1.63019E-18-1.46599E-18
 -1      3862 8.22474E-05-2.13039E-05-2.60842E-05 1.16157E-05-2.24333E-18-1.90758E-18
 -1      3863 8.12564E-05-1.95855E-05-2.63777E-05 8.32657E-06-1.26514E-18-2.10097E-18
 -1      3864 8.73463E-05-2.18254E-05-2.81088E-05 6.81656E-06 5.27505E-20-1.94563E-18
 -1      3865 8.66007E-05-2.15388E-05-2.78794E-05 7.54529E-06-3.88674E-19-2.38532E-18
 -1      3866 8.41564E-05-2.03045E-05-2.73263E-05 6.72448E-06-1.16522E-19-1.93495E-18
 -1      3867 8.90871E-05-2.26715E-05-2.84851E-05 5.63936E-06 1.48340E-19-1.32699E-18
 -1      3868 8.84319E-05-2.22904E-05-2.83461E-05 6.24133E-06 2.74341E-19-1.31768E-18
 -1      3869 8.84820E-05-2.22628E-05-2.83566E-05 4.64778E-06-8.17279E-20-1.66458E-18
 -1      3870 7.80357E-05-2.46806E-05-2.29043E-05-2.00267E-05-1.39715E-18-3.14679E-18
 -1      3871 8.79371E-05-1.64534E-05-3.06547E-05-1.39701E-06 1.56674E-18-3.40977E-18
 -1      3872 9.52527E-05-2.85453E-05-2.85887E-05-1.01179E-08 5.65049E-19-1.14393E-19
 -1      3873 9.52512E-05-2.85344E-05-2.85931E-05-4.14173E-09 8.23277E-19-1.01563E-18
 -1      3874 6.18772E-05-1.38520E-05-2.03654E-05-5.73480E-07 1.55594E-18 2.68278E-18
 -1      3875 6.57384E-05-1.52561E-05-2.15606E-05-4.14591E-06 2.17177E-18 2.46114E-18
 -1      3876 6.58432E-05-1.51950E-05-2.16827E-05 4.93182E-06 8.88872E-19 2.23916E-18
 -1      3877 6.92977E-05-1.79595E-05-2.20767E-05-1.11876E-05 2.16751E-18 2.80571E-18
 -1      3878 7.15460E-05-2.07956E-05-2.16583E-05-1.65010E-05 2.23522E-18 1.16624E-18
 -1      3879 7.68895E-05-2.27804E-05-2.30908E-05-1.56600E-05 1.70659E-18 7.78794E-19
 -1      3880 8.75733E-05-2.20281E-05-2.80753E-05-1.13373E-05 3.74132E-19-2.09866E-18
 -1      3881 8.80154E-05-1.56481E-05-3.10138E-05 1.47515E-06-3.28203E-19-4.30758E-18
 -1      3882 8.85490E-05-1.66618E-05-3.08098E-05 1.92903E-06-3.79117E-19-4.11259E-18
 -1      3883 8.73210E-05-1.52280E-05-3.09181E-05 1.63242E-06 7.02510E-20-4.20248E-18
 -1      3884 8.70270E-05-3.10004E-05-2.38907E-05-1.99631E-05 2.04035E-18 2.96488E-19
 -1      3885 7.77737E-05-1.92949E-05-2.49902E-05 1.06595E-05-2.58572E-18-2.67112E-18
 -1      3886 8.03688E-05-2.14811E-05-2.52951E-05 1.31863E-05-2.21884E-18-2.34730E-18
 -1      3887 8.01459E-05-2.25619E-05-2.45823E-05 1.49861E-05-2.03108E-18-2.36431E-18
 -1      3888 9.02539E-05-2.07929E-05-2.97522E-05-6.39076E-06 1.35257E-18-2.38132E-18
 -1      3889 9.52498E-05-2.85344E-05-2.85923E-05 6.35383E-09 6.92750E-20-2.29213E-18
 -1      3890 8.01865E-05-2.34664E-05-2.42535E-05-1.71453E-05-1.00899E-18-2.77813E-18
 -1      3891 8.02120E-05-2.18101E-05-2.51284E-05-1.47992E-05-4.78769E-19-2.61512E-18
 -1      3892 7.28381E-05-1.96314E-05-2.26160E-05-1.55458E-05-8.22744E-19-3.67414E-18
 -1      3893 9.52492E-05-2.85256E-05-2.85961E-05-4.24448E-10 1.06798E-18-4.80370E-20
 -1      3894 9.52498E-05-2.85288E-05-2.85948E-05-2.71598E-09 5.07014E-19-1.25561E-19
 -1      3895 9.52461E-05-2.85080E-05-2.86016E-05 7.40377E-09 9.52839E-19-5.96350E-19
 -1      3896 6.56487E-05-1.63258E-05-2.12416E-05 9.08013E-06 1.60565E-18-4.50415E-18
 -1      3897 6.24943E-05-1.41666E-05-2.04073E-05 3.70104E-06 1.04222E-18-5.34337E-18
 -1      3898 9.52530E-05-2.85484E-05-2.85876E-05 1.13351E-08 4.19519E-19-1.09195E-18
 -1      3899 8.65417E-05-2.12483E-05-2.79532E-05 5.56748E-06-4.33915E-19-2.33454E-18
 -1      3900 6.49615E-05-1.47901E-05-2.14547E-05-9.57669E-07 4.21746E-19-4.70814E-18
 -1      3901 9.33825E-05-2.91825E-05-2.75585E-05 1.25154E-05 7.82153E-19-1.87920E-18
 -1      3902 7.37038E-05-2.01973E-05-2.28729E-05 1.49738E-05-1.03428E-18-1.02053E-18
 -1      3903 7.04534E-05-1.76470E-05-2.26698E-05 1.07470E-05-4.99753E-19-2.52535E-19
 -1      3904 8.67392E-05-2.02120E-05-2.85115E-05-8.11739E-06 8.45201E-19-2.51819E-18
 -1      3905 8.74376E-05-1.99599E-05-2.89412E-05-6.96806E-06 1.05124E-18-2.53450E-18
 -1      3906 9.52498E-05-2.85292E-05-2.85946E-05 1.73602E-09 6.04924E-19-2.49231E-18
 -1      3907 9.52500E-05-2.85297E-05-2.85946E-05-2.54283E-10 9.83872E-19-6.23495E-19
 -1      3908 9.52501E-05-2.85318E-05-2.85937E-05 4.27592E-09 7.42403E-19-6.73888E-19
 -1      3909 9.52499E-05-2.85304E-05-2.85943E-05 2.16469E-09 7.84172E-19-2.75294E-18
 -1      3910 9.52466E-05-2.85153E-05-2.85988E-05 1.00698E-09 1.15817E-18-2.96907E-18
 -1      3911 1.00717E-04-4.08944E-05-2.56991E-05-1.89344E-05 2.64430E-18 2.60648E-19
 -1      3912 8.84684E-05-1.98689E-05-2.94093E-05-6.03622E-06 1.19926E-18-2.58844E-18
 -1      3913 8.90919E-05-1.95897E-05-2.97846E-05-4.97726E-06 1.35244E-18-2.55012E-18
 -1      3914 8.64600E-05-1.87727E-05-2.89761E-05-5.51047E-06 1.12738E-18-2.77549E-18
 -1      3915 8.63759E-05-1.47897E-05-3.07049E-05 1.44648E-06 5.85434E-19-4.28840E-18
 -1      3916 8.67833E-05-1.49246E-05-3.07894E-05 1.52601E-06 2.35252E-19-4.30265E-18
 -1      3917 8.70981E-05-1.57631E-05-3.05735E-05 1.91861E-06 2.13797E-19-4.09352E-18
 -1      3918 8.62952E-05-1.54751E-05-3.03297E-05 1.42675E-06 6.34345E-19-4.10693E-18
 -1      3919 8.74214E-05-1.67466E-05-3.02619E-05-1.66396E-06 1.25531E-18-3.29262E-18
 -1      3920 8.56834E-05-1.60880E-05-2.98337E-05-2.53688E-07 1.07827E-18-3.57273E-18
 -1      3921 8.54978E-05-1.59678E-05-2.98115E-05 5.77250E-07 8.08591E-19-3.83227E-18
 -1      3922 8.77759E-05-1.77809E-05-2.99882E-05-2.93451E-06 1.38936E-18-2.95578E-18
 -1      3923 8.64906E-05-1.66367E-05-2.99658E-05-1.67018E-06 1.15126E-18-3.33927E-18
 -1      3924 8.58479E-05-1.68756E-05-2.95381E-05-1.46121E-06 1.10997E-18-3.30256E-18
 -1      3925 8.87232E-05-1.89573E-05-2.98962E-05-4.14757E-06 1.35653E-18-2.69875E-18
 -1      3926 9.64212E-05-3.64453E-05-2.56337E-05 1.90050E-05 2.19237E-18-1.30548E-18
 -1      3927 9.10209E-05-3.40491E-05-2.43135E-05 2.19428E-05 2.27172E-18-1.98661E-18
 -1      3928 8.51832E-05-2.91861E-05-2.40618E-05 1.98559E-05 1.85954E-18-2.29969E-18
 -1      3929 9.39456E-05-3.36571E-05-2.58428E-05 1.78291E-05 1.64808E-18-1.73479E-18
 -1      3930 7.59313E-05-1.78724E-05-2.49509E-05 7.11159E-06-2.33188E-18-1.86586E-18
 -1      3931 7.40936E-05-1.76986E-05-2.41254E-05 8.23582E-06-2.37357E-18-1.59381E-18
 -1      3932 7.72247E-05-2.30308E-05-2.32716E-05 1.65245E-05 1.91379E-18-3.48052E-18
 -1      3933 7.09043E-05-1.87187E-05-2.21198E-05 1.34418E-05 1.98555E-18-4.16890E-18
 -1      3934 9.02440E-05-2.91035E-05-2.61490E-05-1.37223E-05 4.43311E-19 1.41282E-21
 -1      3935 8.90958E-05-2.74275E-05-2.64364E-05-1.23238E-05 3.87611E-19-2.04848E-19
 -1      3936 8.91189E-05-2.64110E-05-2.68320E-05-1.06935E-05 3.12037E-19 8.66956E-20
 -1      3937 8.86231E-05-2.54480E-05-2.70916E-05-9.54027E-06 1.77714E-19 4.88737E-19
 -1      3938 8.64045E-05-2.52782E-05-2.62071E-05-1.15426E-05 6.56033E-19 6.35895E-20
 -1      3939 8.89536E-05-2.49382E-05-2.74080E-05-8.30867E-06 1.55279E-19 1.31012E-18
 -1      3940 8.88618E-05-2.44529E-05-2.76223E-05-7.37623E-06 8.20136E-19 9.54997E-19
 -1      3941 8.68629E-05-2.39552E-05-2.69627E-05-8.65871E-06 5.39860E-19 7.14211E-19
 -1      3942 8.93384E-05-2.42865E-05-2.78618E-05-6.44509E-06 8.87100E-20 5.87318E-19
 -1      3943 8.94758E-05-2.41215E-05-2.80255E-05-5.70585E-06-5.64698E-19 3.84206E-19
 -1      3944 8.77117E-05-2.34218E-05-2.75456E-05-6.50065E-06 1.58186E-19 1.03802E-18
 -1      3945 8.99940E-05-2.41692E-05-2.81997E-05-5.00455E-06-9.14752E-19-3.15417E-19
 -1      3946 9.02467E-05-2.42053E-05-2.83174E-05-4.41786E-06-3.66172E-19-7.32614E-19
 -1      3947 8.87249E-05-2.34261E-05-2.79758E-05-4.90457E-06-7.52681E-19 1.53367E-19
 -1      3948 9.07553E-05-2.43821E-05-2.84390E-05-3.88464E-06-1.48980E-19-1.21397E-18
 -1      3949 9.10529E-05-2.45373E-05-2.85184E-05-3.41691E-06-1.66586E-20-1.61306E-18
 -1      3950 8.97575E-05-2.37426E-05-2.82825E-05-3.71294E-06-1.01948E-18-5.69228E-20
 -1      3951 9.15233E-05-2.47832E-05-2.85988E-05-3.00844E-06 6.75474E-19-1.95647E-18
 -1      3952 9.18236E-05-2.50005E-05-2.86482E-05-2.63410E-06 5.23821E-19-1.11798E-18
 -1      3953 9.07366E-05-2.42347E-05-2.84919E-05-2.81431E-06 1.07078E-19-7.72791E-19
 -1      3954 9.22409E-05-2.52737E-05-2.86978E-05-2.31956E-06 2.71987E-19-1.30162E-18
 -1      3955 9.25199E-05-2.55143E-05-2.87247E-05-2.01956E-06-9.83740E-20-8.86143E-19
 -1      3956 9.16217E-05-2.48067E-05-2.86270E-05-2.13104E-06 5.35411E-19-1.77450E-18
 -1      3957 9.28781E-05-2.57870E-05-2.87519E-05-1.77668E-06-7.45100E-19-5.31908E-19
 -1      3958 9.31237E-05-2.60256E-05-2.87629E-05-1.53666E-06-6.58785E-19-3.34162E-19
 -1      3959 9.23934E-05-2.53938E-05-2.87072E-05-1.60839E-06 9.61763E-21-1.55037E-19
 -1      3960 9.34227E-05-2.62804E-05-2.87744E-05-1.34908E-06-6.12225E-19-1.17139E-20
 -1      3961 9.36303E-05-2.65019E-05-2.87746E-05-1.15791E-06-3.79221E-19-5.68750E-20
 -1      3962 9.30465E-05-2.59536E-05-2.87483E-05-1.20721E-06-4.21816E-19 2.08437E-19
 -1      3963 9.38738E-05-2.67292E-05-2.87757E-05-1.01338E-06 2.33651E-19-5.02065E-19
 -1      3964 9.40438E-05-2.69254E-05-2.87693E-05-8.62155E-07 1.28140E-18-5.64104E-19
 -1      3965 9.35850E-05-2.64614E-05-2.87625E-05-8.98980E-07-1.61932E-19-3.75186E-20
 -1      3966 9.42376E-05-2.71211E-05-2.87638E-05-7.51296E-07 1.42314E-18-4.76169E-19
 -1      3967 9.43728E-05-2.72889E-05-2.87536E-05-6.32727E-07 1.21531E-18-3.65639E-19
 -1      3968 9.40187E-05-2.69049E-05-2.87592E-05-6.62546E-07 1.33627E-18-8.29294E-19
 -1      3969 9.45238E-05-2.74526E-05-2.87445E-05-5.48265E-07 6.09026E-19-5.54904E-19
 -1      3970 9.46286E-05-2.75920E-05-2.87326E-05-4.56266E-07-3.77813E-19-3.86981E-19
 -1      3971 9.43605E-05-2.72807E-05-2.87455E-05-4.81895E-07 6.38147E-19-1.63088E-18
 -1      3972 9.47436E-05-2.77255E-05-2.87218E-05-3.92469E-07-1.63525E-18-5.37510E-19
 -1      3973 9.48227E-05-2.78385E-05-2.87095E-05-3.21929E-07-1.72861E-18-5.34326E-19
 -1      3974 9.46238E-05-2.75910E-05-2.87261E-05-3.44707E-07-1.26822E-18-1.57514E-18
 -1      3975 9.49083E-05-2.79450E-05-2.86984E-05-2.74246E-07-1.84384E-18-6.51717E-19
 -1      3976 9.49666E-05-2.80344E-05-2.86867E-05-2.20876E-07-1.79588E-18-1.62920E-18
 -1      3977 9.48224E-05-2.78414E-05-2.87044E-05-2.41374E-07-1.67625E-18-9.65154E-19
 -1      3978 9.50288E-05-2.81176E-05-2.86760E-05-1.85681E-07-1.99694E-19-1.53539E-18
 -1      3979 9.50704E-05-2.81870E-05-2.86654E-05-1.45900E-07 6.02985E-19-7.77849E-21
 -1      3980 9.49685E-05-2.80392E-05-2.86827E-05-1.64331E-07-1.26001E-18-7.04151E-19
 -1      3981 9.51142E-05-2.82506E-05-2.86557E-05-1.20305E-07 4.64032E-19-6.19981E-19
 -1      3982 9.51429E-05-2.83034E-05-2.86463E-05-9.11548E-08 1.00594E-18-5.08151E-19
 -1      3983 9.50732E-05-2.81924E-05-2.86623E-05-1.07593E-07 4.73052E-19 3.87238E-19
 -1      3984 9.51727E-05-2.83511E-05-2.86377E-05-7.29014E-08 8.60193E-19-1.35589E-18
 -1      3985 9.51916E-05-2.83904E-05-2.86296E-05-5.19960E-08-2.42811E-20-1.35642E-18
 -1      3986 9.51459E-05-2.83087E-05-2.86439E-05-6.64367E-08 4.36232E-19-6.66056E-19
 -1      3987 9.52108E-05-2.84256E-05-2.86222E-05-3.90356E-08 5.10392E-20-7.32482E-19
 -1      3988 9.52228E-05-2.84545E-05-2.86154E-05-2.45160E-08 8.25048E-19-5.20658E-19
 -1      3989 9.51942E-05-2.83950E-05-2.86278E-05-3.71076E-08 4.18299E-19-7.36856E-19
 -1      3990 9.52341E-05-2.84796E-05-2.86090E-05-1.59381E-08 8.19355E-19-7.68853E-19
 -1      3991 9.52409E-05-2.85005E-05-2.86033E-05-5.94433E-09 4.29376E-19-7.48783E-19
 -1      3992 9.52249E-05-2.84589E-05-2.86138E-05-1.67304E-08 8.08242E-19-6.59345E-19
 -1      3993 9.10483E-05-2.41220E-05-2.86936E-05 2.45387E-06-8.53388E-19 4.50331E-19
 -1      3994 9.04875E-05-2.36762E-05-2.86389E-05 2.73541E-06-9.08611E-19 6.14052E-19
 -1      3995 7.04276E-05-1.74499E-05-2.27095E-05 9.01701E-06 1.44411E-18-4.01045E-18
 -1      3996 9.52496E-05-2.85304E-05-2.85940E-05 3.60566E-09 7.62443E-20-2.97918E-19
 -1      3997 9.28874E-05-2.56895E-05-2.88062E-05 1.61701E-06 5.40263E-19 1.31766E-19
 -1      3998 9.25471E-05-2.53533E-05-2.87997E-05 1.83672E-06-2.23181E-19-5.88518E-19
 -1      3999 9.58916E-05-3.63477E-05-2.55032E-05-1.82023E-05 2.35483E-18 3.92587E-19
 -1      4000 9.20799E-05-2.49636E-05-2.87729E-05 2.01118E-06-6.89827E-19-1.33778E-19
 -1      4001 9.16408E-05-2.45718E-05-2.87476E-05 2.26229E-06-7.77803E-19 6.61357E-20
 -1      4002 9.09633E-05-2.40726E-05-2.86535E-05 1.84366E-06-7.23250E-19 6.44473E-20
 -1      4003 9.20078E-05-2.49251E-05-2.87391E-05 1.53401E-06-3.01783E-19-1.72388E-18
 -1      4004 8.97407E-05-2.31693E-05-2.85444E-05 2.94054E-06-1.15428E-18 5.58792E-19
 -1      4005 8.90319E-05-2.26772E-05-2.84453E-05 3.25306E-06-5.30026E-19 1.34162E-19
 -1      4006 8.96441E-05-2.31039E-05-2.84989E-05 2.16449E-06-1.14210E-18 1.63360E-18
 -1      4007 9.35134E-05-2.63025E-05-2.88104E-05 1.27470E-06-5.47619E-19 7.11877E-19
 -1      4008 9.32525E-05-2.60199E-05-2.88153E-05 1.46271E-06 4.94240E-19 8.19613E-19
 -1      4009 9.28286E-05-2.56595E-05-2.87787E-05 1.24709E-06-2.54511E-19-3.49382E-19
 -1      4010 9.39935E-05-2.68108E-05-2.87972E-05 9.84749E-07-6.91319E-19-1.14133E-19
 -1      4011 9.37958E-05-2.65775E-05-2.88085E-05 1.14208E-06-6.10988E-19 7.54173E-19
 -1      4012 9.34674E-05-2.62798E-05-2.87886E-05 9.91045E-07-2.61145E-19 3.13509E-19
 -1      4013 9.43574E-05-2.72253E-05-2.87746E-05 7.44906E-07-2.98865E-19 1.14422E-18
 -1      4014 9.42094E-05-2.70358E-05-2.87889E-05 8.73757E-07-7.10708E-19-3.38286E-20
 -1      4015 9.39591E-05-2.67943E-05-2.87804E-05 7.70032E-07-9.63708E-19 2.92465E-19
 -1      4016 9.46296E-05-2.75580E-05-2.87478E-05 5.50886E-07-3.98965E-19 2.12260E-18
 -1      4017 9.45202E-05-2.74065E-05-2.87630E-05 6.54272E-07-3.20090E-19 1.71285E-18
 -1      4018 9.43328E-05-2.72140E-05-2.87618E-05 5.84776E-07-8.85789E-19 1.66669E-18
 -1      4019 9.48300E-05-2.78210E-05-2.87204E-05 3.97214E-07 4.03872E-21 2.21125E-18
 -1      4020 9.47506E-05-2.77016E-05-2.87350E-05 4.78551E-07-2.56118E-19 2.24811E-18
 -1      4021 9.46129E-05-2.75510E-05-2.87384E-05 4.33506E-07-4.16280E-19 2.08268E-18
 -1      4022 9.49750E-05-2.80257E-05-2.86942E-05 2.77954E-07-9.86622E-20 1.66132E-18
 -1      4023 9.49184E-05-2.79331E-05-2.87077E-05 3.40725E-07 5.40423E-19 2.32279E-18
 -1      4024 9.48195E-05-2.78172E-05-2.87135E-05 3.12906E-07 2.42062E-19 2.62042E-18
 -1      4025 9.50777E-05-2.81827E-05-2.86705E-05 1.87249E-07-2.05708E-19 7.56948E-19
 -1      4026 9.50382E-05-2.81119E-05-2.86824E-05 2.34764E-07-6.70121E-20 1.54222E-18
 -1      4027 9.49689E-05-2.80243E-05-2.86893E-05 2.18887E-07 3.47968E-19 1.23949E-18
 -1      4028 9.51483E-05-2.83011E-05-2.86497E-05 1.19672E-07-1.16245E-18 1.85393E-19
 -1      4029 9.51217E-05-2.82479E-05-2.86599E-05 1.54918E-07-6.62904E-19 3.74254E-19
 -1      4030 9.50746E-05-2.81828E-05-2.86670E-05 1.47162E-07-1.54589E-20 7.95268E-19
 -1      4031 9.51953E-05-2.83889E-05-2.86319E-05 7.05180E-08-8.50920E-19-2.68850E-19
 -1      4032 9.51780E-05-2.83496E-05-2.86405E-05 9.60401E-08-1.20455E-18-5.80742E-19
 -1      4033 9.51473E-05-2.83023E-05-2.86473E-05 9.36070E-08-6.05425E-19-4.30839E-19
 -1      4034 9.52251E-05-2.84531E-05-2.86169E-05 3.58270E-08-4.33198E-19-3.21754E-19
 -1      4035 9.52144E-05-2.84245E-05-2.86240E-05 5.34352E-08-8.60209E-19 6.60129E-20
 -1      4036 9.51953E-05-2.83905E-05-2.86302E-05 5.46205E-08-1.12912E-18 3.99712E-19
 -1      4037 9.52401E-05-2.84930E-05-2.86060E-05 1.44767E-08 3.89070E-19-5.43499E-19
 -1      4038 9.52338E-05-2.84719E-05-2.86120E-05 2.66439E-08 1.06676E-19-4.58262E-19
 -1      4039 9.52226E-05-2.84486E-05-2.86173E-05 2.93488E-08 8.51246E-20 6.18307E-19
 -1      4040 9.52375E-05-2.84862E-05-2.86079E-05 1.36281E-08 2.20258E-19-3.28769E-19
 -1      4041 8.34274E-05-1.98888E-05-2.72667E-05 4.75520E-06-4.86622E-19-7.24086E-19
 -1      4042 8.20687E-05-1.93972E-05-2.68725E-05 5.28977E-06-2.21995E-19-9.93359E-19
 -1      4043 8.54083E-05-2.03036E-05-2.79407E-05-9.18801E-06 5.56795E-19-2.61560E-18
 -1      4044 8.41671E-05-1.89453E-05-2.79067E-05-7.30251E-06 7.30023E-19-2.86381E-18
 -1      4045 8.46436E-05-2.06748E-05-2.74081E-05-1.04911E-05 2.60449E-19-2.64741E-18
 -1      4046 8.95974E-05-2.17755E-05-2.90934E-05 6.47532E-06 1.93334E-19-3.25494E-18
 -1      4047 8.98715E-05-2.28518E-05-2.87054E-05 7.62252E-06 3.28814E-19-3.04537E-18
 -1      4048 6.94973E-05-1.70289E-05-2.25662E-05-1.01724E-05-2.25493E-19-3.87377E-18
 -1      4049 9.36107E-05-3.36332E-05-2.56554E-05-1.68011E-05 1.71216E-18 3.43343E-19
 -1      4050 9.14252E-05-3.09892E-05-2.58878E-05-1.53103E-05 7.44809E-19-2.53612E-19
 -1      4051 8.73900E-05-2.80519E-05-2.54720E-05-1.49926E-05 2.73759E-19 4.16105E-19
 -1      4052 9.08934E-05-3.28147E-05-2.49756E-05-1.84323E-05 1.72439E-18 4.61322E-19
 -1      4053 8.45461E-05-2.81056E-05-2.41442E-05-1.80643E-05 1.26527E-18 6.52609E-19
 -1      4054 8.23326E-05-2.15319E-05-2.60450E-05-1.32520E-05-2.74811E-19-2.65729E-18
 -1      4055 8.29759E-05-2.07539E-05-2.67308E-05-1.15815E-05 5.89259E-20-2.69205E-18
 -1      4056 8.12256E-05-1.89297E-05-2.66196E-05-9.24619E-06 2.89353E-19-3.07248E-18
 -1      4057 7.75541E-05-1.89481E-05-2.49926E-05-1.15695E-05-2.00694E-19-3.14334E-18
 -1      4058 9.52491E-05-2.85255E-05-2.85959E-05 2.59758E-10 1.11953E-18 1.09875E-18
 -1      4059 9.52495E-05-2.85277E-05-2.85953E-05-1.78748E-09 1.10794E-18 1.21757E-18
 -1      4060 9.52439E-05-2.85034E-05-2.86027E-05 5.18480E-09 2.24180E-19 1.29617E-18
 -1      4061 9.52453E-05-2.85100E-05-2.86006E-05 2.08901E-09 7.09147E-19-8.33303E-19
 -1      4062 8.01602E-05-1.88399E-05-2.63377E-05 5.67827E-06-9.56165E-19-1.78198E-18
 -1      4063 7.84947E-05-1.84590E-05-2.57475E-05 6.42867E-06-1.92063E-18-2.23340E-18
 -1      4064 7.55120E-05-1.70555E-05-2.49719E-05 4.23547E-06-1.82988E-18-9.91505E-19
 -1      4065 7.99553E-05-1.83665E-05-2.63194E-05 3.54276E-06-1.27709E-18-1.23964E-18
 -1      4066 8.60248E-05-2.10109E-05-2.78879E-05 4.05945E-06-6.24997E-19-6.55566E-19
 -1      4067 8.49259E-05-2.04867E-05-2.76291E-05 4.47298E-06-3.63207E-19-5.50998E-19
 -1      4068 8.32745E-05-1.96379E-05-2.72281E-05 3.13551E-06-6.71625E-19 1.27870E-18
 -1      4069 6.93147E-05-1.61591E-05-2.27063E-05 6.83909E-06-2.09661E-19 6.64878E-19
 -1      4070 6.86176E-05-1.53936E-05-2.29059E-05-4.76899E-07 5.16369E-19-4.35992E-18
 -1      4071 6.83751E-05-1.53738E-05-2.25382E-05-5.78029E-06 6.90646E-20-4.31190E-18
 -1      4072 7.33123E-05-1.73897E-05-2.39449E-05-8.82795E-06-1.13098E-19-3.63027E-18
 -1      4073 8.80934E-05-2.21217E-05-2.82916E-05 3.47060E-06-4.53319E-19 3.46292E-20
 -1      4074 8.72066E-05-2.15995E-05-2.81273E-05 3.82139E-06-8.82324E-19-3.79303E-19
 -1      4075 8.79860E-05-2.20287E-05-2.82432E-05 2.48476E-06-6.75996E-19 1.42717E-18
 -1      4076 8.96743E-05-2.38202E-05-2.82394E-05 8.94872E-06 4.40300E-19-2.76759E-18
 -1      4077 9.01559E-05-2.51139E-05-2.78418E-05 1.02541E-05 7.36311E-19-2.57529E-18
 -1      4078 8.79946E-05-2.20219E-05-2.82644E-05 7.97130E-06 5.92941E-19-3.09004E-18
 -1      4079 8.53198E-05-1.66318E-05-2.94090E-05 1.26544E-06 7.26830E-19-3.80728E-18
 -1      4080 8.57400E-05-1.62243E-05-2.98182E-05 1.63544E-06 7.16746E-19-3.94914E-18
 -1      4081 9.01163E-05-2.63810E-05-2.73281E-05 1.18850E-05 9.38151E-19-2.39660E-18
 -1      4082 9.10911E-05-2.81428E-05-2.69275E-05 1.33611E-05 9.26647E-19-2.19624E-18
 -1      4083 8.76675E-05-2.41299E-05-2.72434E-05 1.09682E-05 9.60371E-19-2.69645E-18
 -1      4084 6.87120E-05-1.62594E-05-2.23846E-05-6.92171E-06 1.69652E-18 3.42331E-18
 -1      4085 7.28812E-05-1.80184E-05-2.34544E-05-8.14105E-06 1.03687E-18 2.90682E-18
 -1      4086 6.92318E-05-1.56965E-05-2.30146E-05-1.67350E-06 1.20300E-18 2.13650E-18
 -1      4087 9.52460E-05-2.85148E-05-2.85989E-05-8.41041E-10-5.58995E-21-1.36979E-18
 -1      4088 9.52414E-05-2.85014E-05-2.86029E-05-3.36679E-09 2.83238E-19-2.38660E-18
 -1      4089 8.59023E-05-2.08639E-05-2.78410E-05 2.80104E-06-7.16263E-19 1.08171E-18
 -1      4090 7.37655E-05-1.80527E-05-2.39329E-05 8.42677E-06 1.24480E-18-3.76427E-18
 -1      4091 7.02317E-05-1.56266E-05-2.32117E-05 4.24229E-06 9.58074E-19-4.21365E-18
 -1      4092 7.22042E-05-1.60088E-05-2.41201E-05-1.73936E-07 5.22732E-19-3.92637E-18
 -1      4093 8.03133E-05-2.47049E-05-2.38189E-05-1.63950E-05 9.89722E-19 1.13380E-18
 -1      4094 8.47815E-05-2.65987E-05-2.48608E-05-1.52646E-05 4.25151E-19 1.22599E-18
 -1      4095 8.35500E-05-2.48578E-05-2.51783E-05-1.34789E-05 2.65922E-19 1.54406E-18
 -1      4096 7.72040E-05-2.16264E-05-2.38858E-05-1.30759E-05 8.96038E-19 1.66316E-18
 -1      4097 6.98518E-05-1.57539E-05-2.32322E-05 2.63474E-06 3.03923E-19 9.55599E-19
 -1      4098 9.52391E-05-2.84949E-05-2.86047E-05 1.57353E-09 7.13110E-19-1.86364E-18
 -1      4099 9.52375E-05-2.84904E-05-2.86061E-05 2.95095E-09 4.64339E-19-1.86573E-19
 -1      4100 8.19070E-05-1.80729E-05-2.73809E-05-5.82037E-06 6.14057E-19-2.89191E-18
 -1      4101 8.32731E-05-1.80678E-05-2.79904E-05-4.95682E-06 8.84035E-19-2.81690E-18
 -1      4102 8.95996E-05-2.07045E-05-2.95127E-05 5.27888E-06 3.21275E-20-3.35209E-18
 -1      4103 8.81255E-05-1.99918E-05-2.91700E-05 5.50059E-06 2.47365E-19-3.33082E-18
 -1      4104 8.92407E-05-1.95414E-05-2.98843E-05 4.16216E-06-8.30311E-20-3.51425E-18
 -1      4105 9.15077E-05-2.96184E-05-2.65368E-05 1.48783E-05 9.50834E-19-1.94057E-18
 -1      4106 9.29474E-05-3.16121E-05-2.62211E-05 1.61666E-05 1.25867E-18-1.82871E-18
 -1      4107 8.92689E-05-2.98956E-05-2.54366E-05 1.75867E-05 1.44185E-18-1.86974E-18
 -1      4108 8.79390E-05-2.66388E-05-2.62757E-05 1.42205E-05 1.13550E-18-2.26816E-18
 -1      4109 8.55489E-05-1.74156E-05-2.91820E-05-2.71066E-06 1.20445E-18-3.12146E-18
 -1      4110 8.44840E-05-1.68409E-05-2.90209E-05-1.09219E-06 9.28660E-19-3.29003E-18
 -1      4111 9.52397E-05-2.84977E-05-2.86038E-05-1.78496E-09 5.38224E-19-2.91238E-18
 -1      4112 9.52394E-05-2.84966E-05-2.86042E-05-7.42807E-10 1.12638E-18-3.60241E-18
 -1      4113 9.52316E-05-2.84747E-05-2.86099E-05-1.35206E-09-9.03361E-20-2.68979E-18
 -1      4114 9.52341E-05-2.84806E-05-2.86085E-05-6.06036E-09 1.71327E-19-3.10567E-18
 -1      4115 8.61566E-05-1.62485E-05-2.99384E-05 2.06559E-06 5.12564E-19-3.93139E-18
 -1      4116 8.90128E-05-1.80142E-05-3.04277E-05 2.90745E-06-2.27312E-19-3.82866E-18
 -1      4117 8.43353E-05-1.68137E-05-2.89414E-05 1.01910E-06 9.17306E-19-3.63903E-18
 -1      4118 8.46222E-05-1.71136E-05-2.89561E-05 2.07456E-06 6.75808E-19-3.73354E-18
 -1      4119 8.36419E-05-1.70701E-05-2.85398E-05-1.72963E-07 8.46844E-19-3.37103E-18
 -1      4120 8.58959E-05-2.78873E-05-2.48184E-05 1.75065E-05 1.57354E-18-2.41966E-18
 -1      4121 8.12739E-05-2.52003E-05-2.39034E-05 1.76781E-05 1.65980E-18-2.91975E-18
 -1      4122 7.80958E-05-2.20373E-05-2.41034E-05 1.42777E-05 1.44148E-18-3.53970E-18
 -1      4123 8.49675E-05-2.61693E-05-2.52664E-05 1.57206E-05 1.23452E-18-2.41794E-18
 -1      4124 8.28709E-05-1.72267E-05-2.80810E-05-2.84739E-06 8.56555E-19-2.90973E-18
 -1      4125 8.46146E-05-1.80217E-05-2.85553E-05-4.25756E-06 9.36947E-19-2.91110E-18
 -1      4126 7.53719E-05-1.74123E-05-2.49133E-05-7.77543E-06-1.33375E-20-3.34292E-18
 -1      4127 9.28364E-05-2.57373E-05-2.87630E-05 8.45798E-07-3.85949E-19-7.71829E-20
 -1      4128 9.24724E-05-2.53978E-05-2.87506E-05 9.58516E-07-4.03589E-19-7.94870E-20
 -1      4129 8.00653E-05-1.79104E-05-2.67019E-05-6.24349E-06 3.69408E-19-2.90817E-18
 -1      4130 7.97796E-05-1.69367E-05-2.68217E-05-3.64690E-06 5.73480E-19-3.06470E-18
 -1      4131 7.83935E-05-1.77950E-05-2.59965E-05-6.97161E-06 1.00484E-19-2.96154E-18
 -1      4132 8.47969E-05-2.27604E-05-2.65671E-05-8.32376E-06 3.68358E-19 8.89320E-19
 -1      4133 8.51542E-05-2.24414E-05-2.69186E-05-7.13280E-06 7.24491E-19 8.64498E-19
 -1      4134 8.61873E-05-2.25045E-05-2.72763E-05-6.05283E-06 5.40772E-19-1.69018E-19
 -1      4135 8.66615E-05-2.24948E-05-2.75351E-05-5.20941E-06-3.45491E-19-2.12225E-19
 -1      4136 8.42744E-05-2.13255E-05-2.69097E-05-5.65791E-06 4.65157E-20 3.12281E-19
 -1      4137 8.75574E-05-2.26901E-05-2.77913E-05-4.44972E-06-1.10414E-18-2.68751E-21
 -1      4138 8.80747E-05-2.28529E-05-2.79782E-05-3.82884E-06-8.16717E-19-1.23022E-21
 -1      4139 8.61649E-05-2.17688E-05-2.75412E-05-4.00995E-06-6.42795E-19-1.53907E-18
 -1      4140 8.88550E-05-2.31436E-05-2.81575E-05-3.28604E-06-1.07567E-18 3.44512E-20
 -1      4141 8.93631E-05-2.34042E-05-2.82875E-05-2.82298E-06-1.04705E-18-3.17439E-19
 -1      4142 8.78114E-05-2.24043E-05-2.79876E-05-2.84253E-06-7.66131E-19-6.61377E-19
 -1      4143 9.00348E-05-2.37430E-05-2.84090E-05-2.43337E-06-5.26034E-19 7.83106E-20
 -1      4144 9.05055E-05-2.40507E-05-2.84953E-05-2.08440E-06 1.61257E-19-6.00807E-19
 -1      4145 8.92419E-05-2.31407E-05-2.82952E-05-2.01713E-06-4.61630E-19-3.07694E-19
 -1      4146 9.10754E-05-2.44025E-05-2.85739E-05-1.80402E-06 1.86676E-19-6.46085E-19
 -1      4147 9.14936E-05-2.47219E-05-2.86276E-05-1.53876E-06 3.83850E-20-6.77906E-19
 -1      4148 9.04682E-05-2.39082E-05-2.84995E-05-1.43249E-06-4.33079E-20-1.48003E-19
 -1      4149 9.19694E-05-2.50624E-05-2.86751E-05-1.33661E-06 1.93122E-19-3.31359E-19
 -1      4150 9.23288E-05-2.53700E-05-2.87051E-05-1.13365E-06 5.32234E-20 2.36401E-20
 -1      4151 9.15031E-05-2.46563E-05-2.86283E-05-1.01755E-06 3.13353E-20-3.38798E-19
 -1      4152 9.27194E-05-2.56838E-05-2.87306E-05-9.87740E-07-9.08967E-19-1.35955E-19
 -1      4153 9.30199E-05-2.59653E-05-2.87441E-05-8.31825E-07-8.86416E-19-2.91891E-19
 -1      4154 9.23618E-05-2.53513E-05-2.87030E-05-7.22400E-07-5.70105E-19-1.06478E-18
 -1      4155 9.33351E-05-2.62437E-05-2.87546E-05-7.26453E-07-5.94017E-19 2.95078E-19
 -1      4156 9.35802E-05-2.64916E-05-2.87571E-05-6.06504E-07 3.65245E-20 6.03453E-20
 -1      4157 9.30621E-05-2.59735E-05-2.87402E-05-5.11976E-07-6.73445E-19-5.98058E-19
 -1      4158 9.38301E-05-2.67312E-05-2.87578E-05-5.30444E-07 5.31668E-19-5.35841E-19
 -1      4159 9.40254E-05-2.69429E-05-2.87533E-05-4.38266E-07 1.13144E-18-1.28758E-18
 -1      4160 9.36233E-05-2.65137E-05-2.87520E-05-3.61608E-07-2.39091E-19-2.11257E-19
 -1      4161 9.42200E-05-2.71437E-05-2.87479E-05-3.83455E-07 9.94708E-19-2.32261E-18
 -1      4162 9.43723E-05-2.73199E-05-2.87394E-05-3.12865E-07 1.06130E-19-2.37743E-18
 -1      4163 9.40650E-05-2.69706E-05-2.87478E-05-2.53936E-07 2.49960E-19-2.28386E-18
 -1      4164 9.45210E-05-2.74844E-05-2.87307E-05-2.73491E-07-6.43689E-19-1.95894E-18
 -1      4165 9.46372E-05-2.76277E-05-2.87204E-05-2.19743E-07-1.48480E-18-1.63167E-18
 -1      4166 9.44063E-05-2.73483E-05-2.87340E-05-1.76733E-07-1.84757E-19-2.95632E-18
 -1      4167 9.47486E-05-2.77597E-05-2.87102E-05-1.91602E-07-1.58749E-18-6.76279E-19
 -1      4168 9.48352E-05-2.78737E-05-2.86992E-05-1.51000E-07-1.39258E-18-3.06274E-19
 -1      4169 9.46650E-05-2.76541E-05-2.87152E-05-1.21370E-07-1.05119E-18-6.08379E-19
 -1      4170 9.49168E-05-2.79775E-05-2.86888E-05-1.31037E-07-1.24075E-18 6.16755E-19
 -1      4171 9.49797E-05-2.80664E-05-2.86782E-05-1.00670E-07 1.36028E-19 1.32637E-18
 -1      4172 9.48571E-05-2.78968E-05-2.86946E-05-8.17352E-08-2.77314E-19 7.43729E-19
 -1      4173 9.50380E-05-2.81465E-05-2.86682E-05-8.66555E-08 1.75025E-19 7.13463E-19
 -1      4174 9.50825E-05-2.82146E-05-2.86584E-05-6.42163E-08-3.67572E-19 4.22483E-19
 -1      4175 9.49964E-05-2.80858E-05-2.86741E-05-5.34806E-08-4.13873E-19 1.53707E-18
 -1      4176 9.51229E-05-2.82751E-05-2.86493E-05-5.45024E-08-1.30210E-19 1.08054E-19
 -1      4177 9.51532E-05-2.83263E-05-2.86406E-05-3.81575E-08-3.10957E-19-5.68920E-19
 -1      4178 9.50947E-05-2.82302E-05-2.86550E-05-3.35101E-08-6.30009E-19 4.27279E-19
 -1      4179 9.51801E-05-2.83715E-05-2.86325E-05-3.16754E-08-1.64290E-19-9.88954E-19
 -1      4180 9.52000E-05-2.84090E-05-2.86249E-05-1.98353E-08 8.07399E-19-8.06358E-19
 -1      4181 9.51617E-05-2.83389E-05-2.86377E-05-1.96426E-08-2.78367E-19-7.10797E-20
 -1      4182 9.52231E-05-2.84556E-05-2.86148E-05-1.34886E-08 5.42010E-19-2.34289E-18
 -1      4183 8.97087E-05-2.32520E-05-2.84927E-05 1.35516E-06-7.45604E-19 6.44690E-19
 -1      4184 8.89591E-05-2.27450E-05-2.83911E-05 1.45761E-06-9.97812E-19 1.32639E-18
 -1      4185 8.35299E-05-1.98793E-05-2.73042E-05 1.44933E-06-1.08129E-18 1.53468E-18
 -1      4186 8.20086E-05-1.92620E-05-2.69279E-05 1.47708E-06-1.51740E-18 8.68466E-19
 -1      4187 9.34705E-05-2.63428E-05-2.87742E-05 6.79358E-07-4.45494E-19 2.12135E-19
 -1      4188 9.31895E-05-2.60575E-05-2.87737E-05 7.81650E-07-3.54390E-19 1.58953E-19
 -1      4189 9.29001E-05-2.57833E-05-2.87493E-05 5.24621E-07-2.50516E-19-8.48088E-21
 -1      4190 8.67018E-05-1.79249E-05-2.94950E-05 3.43964E-06 4.25493E-19-3.48382E-18
 -1      4191 8.72584E-05-1.72767E-05-3.00136E-05 3.00344E-06 2.25979E-19-3.64763E-18
 -1      4192 7.21206E-05-1.63602E-05-2.38964E-05 1.89468E-07-1.58787E-19 1.22408E-18
 -1      4193 9.39605E-05-2.68455E-05-2.87677E-05 5.31224E-07-1.87708E-18 1.31320E-18
 -1      4194 9.37460E-05-2.66101E-05-2.87743E-05 6.20364E-07-9.74498E-19 4.61856E-19
 -1      4195 9.35174E-05-2.63801E-05-2.87618E-05 4.33093E-07-1.01291E-18 1.56291E-19
 -1      4196 9.43340E-05-2.72557E-05-2.87511E-05 4.04634E-07-9.71433E-19 8.31463E-19
 -1      4197 9.41725E-05-2.70647E-05-2.87615E-05 4.79761E-07-1.38759E-18 1.09751E-18
 -1      4198 9.39955E-05-2.68760E-05-2.87570E-05 3.45258E-07-1.31744E-18 6.63651E-20
 -1      4199 9.46145E-05-2.75848E-05-2.87296E-05 3.00002E-07 6.17274E-19 8.89386E-19
 -1      4200 9.44947E-05-2.74323E-05-2.87416E-05 3.61540E-07-1.93343E-19 9.90039E-19
 -1      4201 9.43603E-05-2.72807E-05-2.87422E-05 2.66629E-07-8.33458E-19-6.87807E-19
 -1      4202 9.48215E-05-2.78446E-05-2.87064E-05 2.15970E-07 6.60474E-19 2.72770E-19
 -1      4203 9.47342E-05-2.77248E-05-2.87186E-05 2.65117E-07 8.01527E-19 7.70085E-19
 -1      4204 9.46344E-05-2.76054E-05-2.87222E-05 1.99637E-07 1.22796E-18-1.12617E-18
 -1      4205 9.49714E-05-2.80463E-05-2.86837E-05 1.50204E-07 3.69227E-19 4.53225E-19
 -1      4206 9.49091E-05-2.79537E-05-2.86952E-05 1.88553E-07 4.53453E-19 6.06236E-19
 -1      4207 9.48367E-05-2.78614E-05-2.87005E-05 1.44717E-07 8.36255E-19-8.15944E-19
 -1      4208 9.50772E-05-2.82004E-05-2.86626E-05 9.99725E-08 3.79836E-19 9.15140E-20
 -1      4209 9.50339E-05-2.81300E-05-2.86731E-05 1.29241E-07 6.69863E-19 9.18970E-19
 -1      4210 9.49827E-05-2.80599E-05-2.86790E-05 1.01127E-07-1.44207E-19 6.38704E-20
 -1      4211 9.51498E-05-2.83161E-05-2.86438E-05 6.25031E-08-7.53254E-19-9.62438E-19
 -1      4212 9.51206E-05-2.82634E-05-2.86530E-05 8.43550E-08-5.38286E-20 4.17279E-19
 -1      4213 9.50856E-05-2.82113E-05-2.86589E-05 6.75343E-08 7.94333E-20-5.61916E-19
 -1      4214 9.51982E-05-2.84018E-05-2.86274E-05 3.52207E-08-9.99583E-19-1.92158E-19
 -1      4215 9.51790E-05-2.83632E-05-2.86353E-05 5.10884E-08-1.27999E-18-8.63951E-19
 -1      4216 9.51555E-05-2.83247E-05-2.86409E-05 4.22393E-08-9.83343E-19-1.16775E-18
 -1      4217 8.60789E-05-2.10823E-05-2.78742E-05 1.50563E-06-6.91922E-19 1.45851E-18
 -1      4218 8.48824E-05-2.04899E-05-2.76240E-05 1.55438E-06-2.44265E-19 1.62284E-18
 -1      4219 8.40523E-05-2.00376E-05-2.73542E-05 8.09927E-08-9.98214E-19 6.91520E-19
 -1      4220 8.80229E-05-1.76130E-05-3.01564E-05 3.14607E-06-8.15040E-20-3.58445E-18
 -1      4221 8.56982E-05-1.79157E-05-2.90520E-05-3.58126E-06 1.09751E-18-2.96926E-18
 -1      4222 8.52204E-05-2.17644E-05-2.72331E-05 9.12968E-06 1.04155E-18-3.04675E-18
 -1      4223 8.50792E-05-2.28204E-05-2.66599E-05 1.08250E-05 1.34100E-18-2.85480E-18
 -1      4224 8.80963E-05-2.22104E-05-2.82509E-05 1.46660E-06-1.25986E-18 1.66695E-18
 -1      4225 8.71510E-05-2.16563E-05-2.80884E-05 1.54535E-06-7.58608E-19 1.11045E-18
 -1      4226 8.83444E-05-2.23190E-05-2.82514E-05 6.29028E-07-6.71868E-19 7.82326E-19
 -1      4227 8.63144E-05-2.02894E-05-2.83354E-05 6.38821E-06 6.23532E-19-3.08752E-18
 -1      4228 8.61650E-05-2.11417E-05-2.78446E-05 7.68886E-06 7.51921E-19-3.03882E-18
 -1      4229 8.37510E-05-1.99713E-05-2.73093E-05 7.45572E-06 9.48689E-19-3.14316E-18
 -1      4230 8.23102E-05-1.71441E-05-2.79637E-05-5.03745E-07 8.30836E-19-3.35555E-18
 -1      4231 8.40135E-05-2.39227E-05-2.57022E-05-1.14268E-05 4.11319E-19 1.41308E-18
 -1      4232 8.40927E-05-2.31624E-05-2.61481E-05-9.80605E-06 5.05131E-19 1.08383E-18
 -1      4233 8.25018E-05-2.15527E-05-2.61341E-05-8.12247E-06 3.19653E-19 1.45682E-18
 -1      4234 8.12442E-05-2.25374E-05-2.51316E-05-1.16022E-05 4.42815E-19 2.02783E-18
 -1      4235 9.52369E-05-2.84874E-05-2.86069E-05 6.59951E-09 3.88216E-19 1.52042E-18
 -1      4236 9.52364E-05-2.84857E-05-2.86077E-05 9.47211E-09-3.04909E-21 8.54261E-19
 -1      4237 9.52300E-05-2.84678E-05-2.86122E-05 1.54017E-08 1.00169E-19 8.51950E-19
 -1      4238 9.52303E-05-2.84702E-05-2.86112E-05 6.83193E-09 1.01459E-19 1.61735E-19
 -1      4239 8.04714E-05-1.71300E-05-2.71965E-05-5.23222E-07 7.74884E-19-3.42219E-18
 -1      4240 8.20865E-05-1.71943E-05-2.77349E-05 2.24306E-06 8.92149E-19-3.45878E-18
 -1      4241 8.70565E-05-1.81403E-05-2.95696E-05-3.84082E-06 1.29641E-18-2.95532E-18
 -1      4242 7.86448E-05-1.69164E-05-2.65235E-05-5.57424E-07 6.35644E-19-3.40292E-18
 -1      4243 9.52127E-05-2.84338E-05-2.86192E-05-9.01854E-09 8.13983E-20-2.36765E-18
 -1      4244 9.52189E-05-2.84472E-05-2.86164E-05 5.02202E-09-1.14550E-18-1.28858E-20
 -1      4245 9.52186E-05-2.84456E-05-2.86172E-05 1.03869E-08-1.01893E-18-5.23345E-19
 -1      4246 9.04053E-05-2.37389E-05-2.85808E-05 1.31460E-06 2.98943E-21 6.56539E-19
 -1      4247 8.98824E-05-2.33403E-05-2.84839E-05 6.90229E-07-3.90799E-19 3.29403E-19
 -1      4248 9.09985E-05-2.41922E-05-2.86404E-05 1.19925E-06-4.63306E-19-2.56615E-19
 -1      4249 8.09929E-05-1.87822E-05-2.65660E-05-5.49894E-07-2.04460E-18 4.04235E-19
 -1      4250 8.02894E-05-1.86426E-05-2.64634E-05 1.30754E-06-1.85787E-18 5.26855E-19
 -1      4251 7.83770E-05-1.79795E-05-2.59295E-05 1.36716E-06-1.98984E-18-5.38475E-19
 -1      4252 7.71777E-05-1.96033E-05-2.45464E-05 1.07981E-05 1.18852E-18-3.72446E-18
 -1      4253 7.60261E-05-1.79392E-05-2.49564E-05 6.83460E-06 9.95313E-19-3.74374E-18
 -1      4254 7.56405E-05-1.94530E-05-2.40044E-05-1.00379E-05 8.65148E-19 2.37761E-18
 -1      4255 7.88540E-05-2.12281E-05-2.46568E-05-1.07519E-05 4.27090E-19 1.90317E-18
 -1      4256 7.95691E-05-2.07212E-05-2.52398E-05-8.90416E-06 5.65778E-19 2.14469E-18
 -1      4257 8.66417E-05-1.88437E-05-2.90540E-05 4.47642E-06 5.52428E-19-3.33338E-18
 -1      4258 7.47170E-05-1.69666E-05-2.47659E-05 2.05343E-07-1.15555E-18 5.02544E-19
 -1      4259 9.20253E-05-2.50215E-05-2.87235E-05 1.02327E-06-2.36498E-19-8.62971E-19
 -1      4260 9.15587E-05-2.46251E-05-2.86923E-05 1.14125E-06-6.31454E-19-6.16727E-19
 -1      4261 9.11213E-05-2.42632E-05-2.86274E-05 6.72943E-07-5.35584E-19-4.34416E-19
 -1      4262 9.21132E-05-2.50785E-05-2.87093E-05 6.09887E-07-7.28968E-19-3.89518E-19
 -1      4263 8.64369E-05-2.12135E-05-2.78925E-05 4.45658E-07-4.74479E-19 1.02141E-18
 -1      4264 7.50672E-05-1.62788E-05-2.50571E-05-4.40313E-06 2.66549E-19-3.40073E-18
 -1      4265 8.47680E-05-2.37235E-05-2.62004E-05 1.22759E-05 1.38968E-18-2.68256E-18
 -1      4266 8.50934E-05-2.48920E-05-2.57572E-05 1.38347E-05 1.22208E-18-2.65850E-18
 -1      4267 8.19228E-05-2.29899E-05-2.52038E-05 1.35412E-05 1.31823E-18-3.22469E-18
 -1      4268 8.24258E-05-2.13003E-05-2.62005E-05 1.03265E-05 1.34654E-18-3.25558E-18
 -1      4269 7.52542E-05-1.64664E-05-2.52569E-05-1.27761E-07 6.23760E-19-3.62742E-18
 -1      4270 7.43419E-05-1.79053E-05-2.42714E-05-6.20030E-06 4.96272E-19 2.90117E-18
 -1      4271 8.02085E-05-2.16683E-05-2.50797E-05 1.21320E-05 1.23780E-18-3.47939E-18
 -1      4272 8.40425E-05-1.82390E-05-2.81950E-05 3.93048E-06 7.81062E-19-3.39494E-18
 -1      4273 8.50878E-05-1.81337E-05-2.86793E-05 4.13657E-06 6.67685E-19-3.32610E-18
 -1      4274 8.22499E-05-1.83377E-05-2.74331E-05 4.53991E-06 7.95554E-19-3.27583E-18
 -1      4275 9.52196E-05-2.84495E-05-2.86160E-05 4.73043E-10-9.44695E-19-1.27732E-18
 -1      4276 8.48730E-05-2.09656E-05-2.74304E-05-2.23282E-06-4.59437E-19-3.35380E-19
 -1      4277 8.58367E-05-2.13190E-05-2.76998E-05-1.61755E-06-3.44610E-19-1.62727E-19
 -1      4278 8.69267E-05-2.18477E-05-2.79238E-05-1.39927E-06-4.45891E-19-2.00024E-19
 -1      4279 8.77538E-05-2.22462E-05-2.81107E-05-9.69716E-07-2.71179E-19-1.40670E-19
 -1      4280 8.86331E-05-2.27541E-05-2.82594E-05-8.46100E-07-3.82008E-19-3.57663E-19
 -1      4281 8.93361E-05-2.31654E-05-2.83852E-05-5.48029E-07-2.92936E-19 2.38156E-19
 -1      4282 9.00467E-05-2.36393E-05-2.84804E-05-4.88151E-07-5.42506E-19 1.17099E-19
 -1      4283 9.06374E-05-2.40389E-05-2.85615E-05-2.81972E-07-2.71770E-19-8.06888E-20
 -1      4284 9.12095E-05-2.44688E-05-2.86190E-05-2.63395E-07-6.98527E-19-5.78193E-20
 -1      4285 9.16992E-05-2.48402E-05-2.86680E-05-1.21101E-07-8.61564E-19-8.48554E-19
 -1      4286 9.21564E-05-2.52203E-05-2.86994E-05-1.27532E-07-4.13002E-19-7.72463E-19
 -1      4287 9.25563E-05-2.55533E-05-2.87259E-05-2.94556E-08-4.73259E-19-5.01919E-19
 -1      4288 9.29180E-05-2.58815E-05-2.87398E-05-4.94378E-08-6.77533E-19-3.51516E-19
 -1      4289 9.32393E-05-2.61714E-05-2.87509E-05 1.81615E-08-7.24227E-19-8.55915E-19
 -1      4290 9.35220E-05-2.64487E-05-2.87534E-05-7.69350E-09-9.08579E-19-2.30052E-19
 -1      4291 9.37760E-05-2.66947E-05-2.87545E-05 3.89651E-08-5.53903E-19-7.38446E-19
 -1      4292 9.39939E-05-2.69244E-05-2.87499E-05 1.20720E-08-4.73365E-19-1.10537E-18
 -1      4293 9.41911E-05-2.71286E-05-2.87449E-05 4.43629E-08-5.45921E-19-1.43462E-18
 -1      4294 9.43567E-05-2.73153E-05-2.87365E-05 1.92232E-08 8.30784E-20-1.64730E-18
 -1      4295 9.45070E-05-2.74813E-05-2.87280E-05 4.16484E-08-1.45597E-19-1.22512E-18
 -1      4296 9.46306E-05-2.76304E-05-2.87177E-05 1.96583E-08 2.43058E-19-1.00765E-18
 -1      4297 9.47431E-05-2.77627E-05-2.87077E-05 3.52871E-08 5.34953E-19-5.31252E-19
 -1      4298 9.48336E-05-2.78797E-05-2.86970E-05 1.69444E-08 4.08311E-19-3.51458E-19
 -1      4299 9.49159E-05-2.79832E-05-2.86866E-05 2.78637E-08 5.30177E-20 3.66534E-19
 -1      4300 9.49807E-05-2.80735E-05-2.86763E-05 1.31315E-08-5.34290E-19 5.16511E-19
 -1      4301 9.50394E-05-2.81530E-05-2.86664E-05 2.07565E-08-5.17859E-19 5.31100E-19
 -1      4302 9.50845E-05-2.82214E-05-2.86568E-05 9.33257E-09-5.11270E-19 3.71043E-19
 -1      4303 9.51252E-05-2.82814E-05-2.86478E-05 1.46525E-08-3.39557E-19 3.16969E-19
 -1      4304 9.51555E-05-2.83321E-05-2.86393E-05 6.16792E-09-8.16089E-19 3.32661E-20
 -1      4305 9.51821E-05-2.83764E-05-2.86313E-05 9.07803E-09-8.27866E-19-5.84931E-19
 -1      4306 8.11458E-05-1.86820E-05-2.67761E-05 5.66390E-06 1.01302E-18-3.35855E-18
 -1      4307 8.35150E-05-2.04313E-05-2.71006E-05-2.59646E-06-9.40171E-19 9.44855E-20
 -1      4308 9.52217E-05-2.84486E-05-2.86171E-05 2.34524E-08-3.20274E-19 6.52401E-19
 -1      4309 9.52089E-05-2.84239E-05-2.86219E-05 2.00827E-08-9.72420E-19-8.94861E-19
 -1      4310 7.60418E-05-1.74786E-05-2.50143E-05-2.30744E-06-5.93299E-19 1.52544E-18
 -1      4311 7.72332E-05-1.68990E-05-2.57528E-05 3.14748E-06 8.45945E-19-3.64431E-18
 -1      4312 8.24160E-05-2.01758E-05-2.67213E-05-3.45670E-06-1.07624E-18 1.03202E-18
 -1      4313 7.78908E-05-1.85922E-05-2.54509E-05-4.27589E-06-3.95892E-19 1.79605E-18
 -1      4314 8.08514E-05-1.96700E-05-2.62740E-05-4.01168E-06-8.59619E-19 1.24984E-18
 -1      4315 9.51941E-05-2.83957E-05-2.86275E-05 1.88368E-08-1.63526E-18-5.17701E-19
 -1      4316 9.51959E-05-2.84022E-05-2.86261E-05-2.49016E-09-9.80182E-19-9.51021E-20
 -1      4317 7.93080E-05-1.81629E-05-2.62335E-05 5.62419E-06 9.61123E-19-3.56400E-18
 -1      4318 8.09012E-05-1.99881E-05-2.60967E-05 8.87321E-06 1.20165E-18-3.46934E-18
 -1      4319 8.04921E-05-2.08422E-05-2.56047E-05 1.04139E-05 1.24838E-18-3.50436E-18
 -1      4320 8.03985E-05-2.02548E-05-2.57209E-05-7.24247E-06 4.80005E-19 2.10602E-18
 -3
    1PSTEP                         4           1           1          
  100CL  101 1.000000000        4320                     0    1           1
 -4  ERROR       1    1
 -5  STR(%)      1    1    0    0
 -1         1 2.41174E+01
 -1         2 2.52517E+01
 -1         3 5.36131E-04
 -1         4 5.54602E-04
 -1         5 1.35373E+01
 -1         6 1.26901E+01
 -1         7 1.26901E+01
 -1         8 3.54386E+00
 -1         9 1.87910E+00
 -1        10 1.38213E+00
 -1        11 1.10750E+00
 -1        12 9.08066E-01
 -1        13 7.51298E-01
 -1        14 6.26998E-01
 -1        15 5.94772E-01
 -1        16 7.13783E-01
 -1        17 8.68048E-01
 -1        18 1.08944E+00
 -1        19 1.38789E+00
 -1        20 1.89740E+00
 -1        21 3.36998E+00
 -1        22 8.20317E+00
 -1        23 1.26901E+01
 -1        24 4.10734E+00
 -1        25 2.95244E+00
 -1        26 1.76606E+00
 -1        27 1.21159E+00
 -1        28 7.96389E-01
 -1        29 5.96512E-01
 -1        30 6.49506E-01
 -1        31 7.23499E-01
 -1        32 7.23499E-01
 -1        33 7.41715E-01
 -1        34 1.04468E+00
 -1        35 1.41676E+00
 -1        36 2.33737E+00
 -1        37 2.94882E+00
 -1        38 2.94882E+00
 -1        39 3.03020E+00
 -1        40 3.03020E+00
 -1        41 2.52558E+00
 -1        42 1.61133E+00
 -1        43 1.19742E+00
 -1        44 9.11363E-01
 -1        45 9.11363E-01
 -1        46 8.45103E-01
 -1        47 8.45103E-01
 -1        48 7.70542E-01
 -1        49 6.44576E-01
 -1        50 5.11428E-01
 -1        51 4.03243E-01
 -1        52 3.44151E-01
 -1        53 2.91515E-01
 -1        54 2.37324E-01
 -1        55 1.86717E-01
 -1        56 1.42368E-01
 -1        57 1.05268E-01
 -1        58 8.53316E-02
 -1        59 7.11078E-02
 -1        60 5.77017E-02
 -1        61 4.56905E-02
 -1        62 3.53065E-02
 -1        63 2.65607E-02
 -1        64 2.04328E-02
 -1        65 1.67724E-02
 -1        66 1.32457E-02
 -1        67 9.91640E-03
 -1        68 6.78290E-03
 -1        69 5.01327E-03
 -1        70 4.20247E-03
 -1        71 2.88399E-03
 -1        72 1.35373E+01
 -1        73 3.30636E+00
 -1        74 2.22579E+00
 -1        75 1.62051E+00
 -1        76 1.38990E+00
 -1        77 1.18410E+00
 -1        78 1.11518E+00
 -1        79 1.11518E+00
 -1        80 1.21920E+00
 -1        81 1.57609E+00
 -1        82 1.69279E+00
 -1        83 2.09726E+00
 -1        84 2.09726E+00
 -1        85 2.82395E+00
 -1        86 4.35452E+00
 -1        87 5.05687E+00
 -1        88 5.74283E+00
 -1        89 5.74283E+00
 -1        90 4.22761E+00
 -1        91 2.26980E+00
 -1        92 1.69868E+00
 -1        93 1.98916E+00
 -1        94 1.98916E+00
 -1        95 1.97794E+00
 -1        96 1.73997E+00
 -1        97 1.45492E+00
 -1        98 1.18689E+00
 -1        99 9.27472E-01
 -1       100 6.99585E-01
 -1       101 5.11344E-01
 -1       102 3.81020E-01
 -1       103 2.90059E-01
 -1       104 2.16216E-01
 -1       105 1.57837E-01
 -1       106 1.12662E-01
 -1       107 7.83547E-02
 -1       108 5.33141E-02
 -1       109 4.43000E-02
 -1       110 3.60336E-02
 -1       111 2.87150E-02
 -1       112 2.23944E-02
 -1       113 1.86066E-02
 -1       114 1.61961E-02
 -1       115 1.35689E-02
 -1       116 1.08591E-02
 -1       117 8.10658E-03
 -1       118 5.74029E-03
 -1       119 4.20355E-03
 -1       120 2.45342E-03
 -1       121 1.14401E-03
 -1       122 1.00538E-03
 -1       123 5.30092E-04
 -1       124 3.25659E-04
 -1       125 5.16044E-04
 -1       126 6.19287E-04
 -1       127 6.62811E-04
 -1       128 6.68274E-04
 -1       129 6.68274E-04
 -1       130 6.54590E-04
 -1       131 5.99255E-04
 -1       132 4.98111E-04
 -1       133 3.08803E-04
 -1       134 5.42408E-04
 -1       135 1.31438E-03
 -1       136 1.80894E-03
 -1       137 2.52035E+01
 -1       138 4.85787E+01
 -1       139 4.85787E+01
 -1       140 2.17663E+01
 -1       141 1.32036E+01
 -1       142 1.32036E+01
 -1       143 1.21470E+01
 -1       144 1.21276E+01
 -1       145 1.21276E+01
 -1       146 1.32664E+01
 -1       147 3.22991E+01
 -1       148 3.28759E+01
 -1       149 2.76891E+01
 -1       150 2.43260E+01
 -1       151 2.41174E+01
 -1       152 4.42089E+01
 -1       153 4.42089E+01
 -1       154 1.72016E+01
 -1       155 1.17804E+01
 -1       156 1.18503E+01
 -1       157 1.18503E+01
 -1       158 1.26432E+01
 -1       159 1.26432E+01
 -1       160 1.17430E+01
 -1       161 2.20999E+01
 -1       162 4.85593E+01
 -1       163 4.85593E+01
 -1       164 2.52517E+01
 -1       165 5.83222E+00
 -1       166 2.36134E+00
 -1       167 1.62038E+00
 -1       168 1.24345E+00
 -1       169 1.00352E+00
 -1       170 8.25732E-01
 -1       171 6.84378E-01
 -1       172 5.76523E-01
 -1       173 6.49224E-01
 -1       174 7.86169E-01
 -1       175 9.80594E-01
 -1       176 1.24222E+00
 -1       177 1.63692E+00
 -1       178 2.35140E+00
 -1       179 3.77417E+00
 -1       180 1.35373E+01
 -1       181 4.10734E+00
 -1       182 2.95244E+00
 -1       183 1.76606E+00
 -1       184 1.21159E+00
 -1       185 7.96389E-01
 -1       186 5.96512E-01
 -1       187 5.64966E-01
 -1       188 6.49506E-01
 -1       189 7.23499E-01
 -1       190 7.15140E-01
 -1       191 7.41715E-01
 -1       192 1.04468E+00
 -1       193 1.57404E+00
 -1       194 2.33737E+00
 -1       195 2.94882E+00
 -1       196 2.92888E+00
 -1       197 3.03020E+00
 -1       198 2.52558E+00
 -1       199 1.69931E+00
 -1       200 1.19742E+00
 -1       201 8.40393E-01
 -1       202 9.11363E-01
 -1       203 8.12027E-01
 -1       204 8.45103E-01
 -1       205 7.70542E-01
 -1       206 6.44576E-01
 -1       207 5.35570E-01
 -1       208 4.57896E-01
 -1       209 3.79680E-01
 -1       210 3.00013E-01
 -1       211 2.37324E-01
 -1       212 1.86717E-01
 -1       213 1.46461E-01
 -1       214 1.12644E-01
 -1       215 8.53316E-02
 -1       216 7.11078E-02
 -1       217 5.77017E-02
 -1       218 4.56905E-02
 -1       219 3.53065E-02
 -1       220 2.65607E-02
 -1       221 2.04328E-02
 -1       222 1.67724E-02
 -1       223 1.32457E-02
 -1       224 9.91640E-03
 -1       225 7.18018E-03
 -1       226 5.01327E-03
 -1       227 4.20247E-03
 -1       228 2.88399E-03
 -1       229 3.30636E+00
 -1       230 2.22579E+00
 -1       231 1.62051E+00
 -1       232 1.38990E+00
 -1       233 1.18410E+00
 -1       234 1.04521E+00
 -1       235 1.11518E+00
 -1       236 1.10590E+00
 -1       237 1.22819E+00
 -1       238 1.57609E+00
 -1       239 1.69279E+00
 -1       240 2.09726E+00
 -1       241 2.07745E+00
 -1       242 2.86045E+00
 -1       243 4.35452E+00
 -1       244 5.05687E+00
 -1       245 5.74283E+00
 -1       246 4.22761E+00
 -1       247 2.26980E+00
 -1       248 1.44726E+00
 -1       249 1.69868E+00
 -1       250 1.98916E+00
 -1       251 1.97794E+00
 -1       252 1.73997E+00
 -1       253 1.45492E+00
 -1       254 1.19812E+00
 -1       255 9.63718E-01
 -1       256 7.46713E-01
 -1       257 5.60553E-01
 -1       258 4.08834E-01
 -1       259 2.94657E-01
 -1       260 2.16216E-01
 -1       261 1.57837E-01
 -1       262 1.15075E-01
 -1       263 8.22267E-02
 -1       264 5.72719E-02
 -1       265 4.43000E-02
 -1       266 3.60336E-02
 -1       267 2.87150E-02
 -1       268 2.23944E-02
 -1       269 1.86066E-02
 -1       270 1.61961E-02
 -1       271 1.35689E-02
 -1       272 1.08591E-02
 -1       273 8.10658E-03
 -1       274 5.74029E-03
 -1       275 4.20355E-03
 -1       276 2.45342E-03
 -1       277 1.06302E-03
 -1       278 9.73295E-04
 -1       279 6.14648E-04
 -1       280 8.60222E-04
 -1       281 1.07087E-03
 -1       282 1.16773E-03
 -1       283 1.19372E-03
 -1       284 1.19372E-03
 -1       285 1.19068E-03
 -1       286 1.14495E-03
 -1       287 1.04138E-03
 -1       288 8.36152E-04
 -1       289 6.34026E-04
 -1       290 6.34026E-04
 -1       291 1.72521E-03
 -1       292 3.06057E+01
 -1       293 2.97872E+01
 -1       294 4.85787E+01
 -1       295 2.33200E+01
 -1       296 1.19322E+01
 -1       297 1.32036E+01
 -1       298 1.21470E+01
 -1       299 1.17448E+01
 -1       300 1.21276E+01
 -1       301 1.17027E+01
 -1       302 1.32664E+01
 -1       303 3.28759E+01
 -1       304 3.28759E+01
 -1       305 2.54453E+01
 -1       306 2.87401E+01
 -1       307 2.87401E+01
 -1       308 3.72043E+01
 -1       309 4.42089E+01
 -1       310 1.79921E+01
 -1       311 1.07962E+01
 -1       312 1.17804E+01
 -1       313 1.18503E+01
 -1       314 1.14994E+01
 -1       315 1.26432E+01
 -1       316 1.17430E+01
 -1       317 1.11187E+01
 -1       318 2.41819E+01
 -1       319 4.85593E+01
 -1       320 3.01335E+01
 -1       321 3.06057E+01
 -1       322 1.16244E+00
 -1       323 2.40861E+00
 -1       324 8.74514E-01
 -1       325 7.31596E-01
 -1       326 6.15225E-01
 -1       327 5.11280E-01
 -1       328 4.79431E-01
 -1       329 5.79299E-01
 -1       330 7.10861E-01
 -1       331 8.63037E-01
 -1       332 1.03964E+00
 -1       333 1.29408E+00
 -1       334 1.40073E+00
 -1       335 1.90419E+00
 -1       336 1.52879E+00
 -1       337 1.35989E+00
 -1       338 8.14489E-01
 -1       339 5.61626E-01
 -1       340 3.68093E-01
 -1       341 3.66803E-01
 -1       342 3.75115E-01
 -1       343 4.06587E-01
 -1       344 4.33659E-01
 -1       345 4.93039E-01
 -1       346 7.50960E-01
 -1       347 1.17157E+00
 -1       348 1.48273E+00
 -1       349 1.86964E+00
 -1       350 1.94460E+00
 -1       351 1.94591E+00
 -1       352 1.92884E+00
 -1       353 1.58746E+00
 -1       354 1.22603E+00
 -1       355 7.66225E-01
 -1       356 4.14840E-01
 -1       357 4.67813E-01
 -1       358 5.76687E-01
 -1       359 6.28900E-01
 -1       360 6.01000E-01
 -1       361 5.33945E-01
 -1       362 4.73884E-01
 -1       363 4.16739E-01
 -1       364 3.48456E-01
 -1       365 2.79313E-01
 -1       366 2.15587E-01
 -1       367 1.60476E-01
 -1       368 1.15053E-01
 -1       369 8.42512E-02
 -1       370 6.12136E-02
 -1       371 4.43915E-02
 -1       372 3.57262E-02
 -1       373 2.95037E-02
 -1       374 2.36897E-02
 -1       375 1.84621E-02
 -1       376 1.38841E-02
 -1       377 1.12480E-02
 -1       378 9.09405E-03
 -1       379 6.87549E-03
 -1       380 4.95543E-03
 -1       381 3.36717E-03
 -1       382 2.55026E-03
 -1       383 8.88017E-01
 -1       384 7.36753E-01
 -1       385 6.92614E-01
 -1       386 8.79731E-01
 -1       387 1.10948E+00
 -1       388 1.29392E+00
 -1       389 1.35847E+00
 -1       390 1.38118E+00
 -1       391 1.18585E+00
 -1       392 1.34081E+00
 -1       393 1.72311E+00
 -1       394 2.58521E+00
 -1       395 3.31113E+00
 -1       396 3.32313E+00
 -1       397 3.09179E+00
 -1       398 2.70266E+00
 -1       399 1.73082E+00
 -1       400 1.15895E+00
 -1       401 1.40411E+00
 -1       402 1.51972E+00
 -1       403 1.50735E+00
 -1       404 1.43278E+00
 -1       405 1.27962E+00
 -1       406 1.09715E+00
 -1       407 9.02021E-01
 -1       408 7.12736E-01
 -1       409 5.45474E-01
 -1       410 4.06117E-01
 -1       411 2.94657E-01
 -1       412 2.11540E-01
 -1       413 1.57577E-01
 -1       414 1.15075E-01
 -1       415 8.22267E-02
 -1       416 5.72719E-02
 -1       417 3.86281E-02
 -1       418 2.77595E-02
 -1       419 2.34898E-02
 -1       420 1.92762E-02
 -1       421 1.53282E-02
 -1       422 1.17521E-02
 -1       423 9.15570E-03
 -1       424 7.75420E-03
 -1       425 6.12593E-03
 -1       426 4.78568E-03
 -1       427 3.41319E-03
 -1       428 2.39596E-03
 -1       429 1.17491E-03
 -1       430 1.91076E-03
 -1       431 1.91076E-03
 -1       432 1.40102E-03
 -1       433 1.49847E-03
 -1       434 1.51237E-03
 -1       435 1.51237E-03
 -1       436 1.49910E-03
 -1       437 1.49910E-03
 -1       438 1.46570E-03
 -1       439 1.35615E-03
 -1       440 1.13502E-03
 -1       441 2.03049E-03
 -1       442 2.97872E+01
 -1       443 3.35828E+01
 -1       444 3.35828E+01
 -1       445 1.76355E+01
 -1       446 9.64467E+00
 -1       447 1.05123E+00
 -1       448 9.62614E+00
 -1       449 1.03776E+01
 -1       450 1.04626E+01
 -1       451 9.15109E+00
 -1       452 7.08114E+00
 -1       453 1.26603E+01
 -1       454 2.22678E+01
 -1       455 2.70205E+01
 -1       456 3.66050E+01
 -1       457 3.66050E+01
 -1       458 2.82004E+01
 -1       459 2.57768E+01
 -1       460 1.47003E+01
 -1       461 8.39109E+00
 -1       462 7.50173E+00
 -1       463 1.04682E+01
 -1       464 1.10035E+01
 -1       465 1.06458E+01
 -1       466 9.14632E+00
 -1       467 7.25761E+00
 -1       468 9.26967E+00
 -1       469 1.75187E+01
 -1       470 3.01335E+01
 -1       471 2.92301E+01
 -1       472 6.88148E+00
 -1       473 7.19126E+00
 -1       474 4.97717E+00
 -1       475 8.97093E-01
 -1       476 5.33857E-01
 -1       477 6.06281E-01
 -1       478 3.46705E-01
 -1       479 3.85917E-01
 -1       480 4.85837E-01
 -1       481 5.79148E-01
 -1       482 6.92676E-01
 -1       483 9.92905E-01
 -1       484 5.23063E-01
 -1       485 6.56425E-01
 -1       486 4.26674E-01
 -1       487 3.57448E-01
 -1       488 3.88303E-01
 -1       489 4.37418E-01
 -1       490 4.74817E-01
 -1       491 5.75227E-01
 -1       492 7.26246E-01
 -1       493 8.10051E-01
 -1       494 1.13404E+00
 -1       495 1.28406E+00
 -1       496 1.46759E+00
 -1       497 1.79229E+00
 -1       498 1.65171E+00
 -1       499 1.83820E+00
 -1       500 1.49896E+00
 -1       501 1.30044E+00
 -1       502 1.09428E+00
 -1       503 8.12644E-01
 -1       504 7.58243E-01
 -1       505 6.14289E-01
 -1       506 6.33496E-01
 -1       507 6.09055E-01
 -1       508 5.52296E-01
 -1       509 5.02148E-01
 -1       510 4.46277E-01
 -1       511 3.81938E-01
 -1       512 3.14440E-01
 -1       513 2.50336E-01
 -1       514 1.93293E-01
 -1       515 1.44893E-01
 -1       516 1.05349E-01
 -1       517 7.40676E-02
 -1       518 5.00396E-02
 -1       519 3.21073E-02
 -1       520 2.22769E-02
 -1       521 1.72512E-02
 -1       522 1.48720E-02
 -1       523 1.23024E-02
 -1       524 9.74718E-03
 -1       525 7.33568E-03
 -1       526 5.94060E-03
 -1       527 4.55988E-03
 -1       528 3.30058E-03
 -1       529 8.08336E-01
 -1       530 1.03906E+00
 -1       531 1.23320E+00
 -1       532 1.42100E+00
 -1       533 1.70943E+00
 -1       534 1.93552E+00
 -1       535 2.12110E+00
 -1       536 2.79442E+00
 -1       537 3.35575E+00
 -1       538 5.48585E+00
 -1       539 3.79981E+00
 -1       540 5.39329E+00
 -1       541 3.67917E+00
 -1       542 3.80845E+00
 -1       543 2.02750E+00
 -1       544 2.18182E+00
 -1       545 1.96614E+00
 -1       546 1.73594E+00
 -1       547 1.48426E+00
 -1       548 1.36578E+00
 -1       549 1.18583E+00
 -1       550 9.83412E-01
 -1       551 7.87492E-01
 -1       552 6.13173E-01
 -1       553 4.66206E-01
 -1       554 3.46859E-01
 -1       555 2.52630E-01
 -1       556 1.79904E-01
 -1       557 1.24881E-01
 -1       558 8.40308E-02
 -1       559 5.42845E-02
 -1       560 3.76812E-02
 -1       561 2.77595E-02
 -1       562 2.34898E-02
 -1       563 1.92762E-02
 -1       564 1.53282E-02
 -1       565 1.17521E-02
 -1       566 9.14201E-03
 -1       567 7.42800E-03
 -1       568 5.62213E-03
 -1       569 4.08368E-03
 -1       570 2.84885E-03
 -1       571 1.77132E-03
 -1       572 1.77132E-03
 -1       573 2.53916E-03
 -1       574 1.72219E-03
 -1       575 1.72288E-03
 -1       576 1.64638E-03
 -1       577 1.69230E-03
 -1       578 1.71709E-03
 -1       579 1.71709E-03
 -1       580 1.62560E-03
 -1       581 1.58758E-03
 -1       582 1.32251E+01
 -1       583 2.92301E+01
 -1       584 5.89474E-01
 -1       585 3.35828E+01
 -1       586 1.29458E+01
 -1       587 8.77159E+00
 -1       588 2.29677E+01
 -1       589 7.26583E+00
 -1       590 7.61093E+00
 -1       591 1.80609E+01
 -1       592 4.42985E-01
 -1       593 6.82271E+00
 -1       594 7.43503E+00
 -1       595 8.46092E+00
 -1       596 5.48585E+00
 -1       597 6.40585E+00
 -1       598 1.10965E+01
 -1       599 1.65692E+01
 -1       600 2.70205E+01
 -1       601 3.66050E+01
 -1       602 2.82004E+01
 -1       603 1.14545E+01
 -1       604 8.34363E+00
 -1       605 5.10678E+00
 -1       606 8.53954E+00
 -1       607 7.28247E+00
 -1       608 4.59801E+00
 -1       609 6.35127E+00
 -1       610 1.86027E+01
 -1       611 1.05123E+00
 -1       612 1.05210E+00
 -1       613 6.41285E+00
 -1       614 1.05123E+00
 -1       615 3.80845E+00
 -1       616 5.90141E+00
 -1       617 2.11859E-03
 -1       618 1.15237E+01
 -1       619 3.16304E+00
 -1       620 3.35176E-01
 -1       621 2.15864E-01
 -1       622 6.09269E-01
 -1       623 6.67130E-01
 -1       624 7.15280E-01
 -1       625 1.53177E+01
 -1       626 5.41707E-01
 -1       627 6.08068E+00
 -1       628 4.53226E-01
 -1       629 4.73277E-01
 -1       630 5.33897E-01
 -1       631 6.23754E-01
 -1       632 7.17095E-01
 -1       633 8.28138E-01
 -1       634 1.06863E+00
 -1       635 1.41752E+00
 -1       636 1.61465E+00
 -1       637 1.61685E+00
 -1       638 2.05863E+00
 -1       639 2.54945E+00
 -1       640 3.16869E+00
 -1       641 2.07548E+00
 -1       642 1.49896E+00
 -1       643 1.53587E+00
 -1       644 1.35236E+00
 -1       645 1.20441E+00
 -1       646 9.15466E-01
 -1       647 8.53815E-01
 -1       648 7.58467E-01
 -1       649 6.45965E-01
 -1       650 5.57382E-01
 -1       651 4.88584E-01
 -1       652 4.13118E-01
 -1       653 3.39098E-01
 -1       654 2.71240E-01
 -1       655 2.11871E-01
 -1       656 1.61749E-01
 -1       657 1.20652E-01
 -1       658 8.78038E-02
 -1       659 6.21603E-02
 -1       660 4.25955E-02
 -1       661 2.80179E-02
 -1       662 1.74337E-02
 -1       663 1.06226E-02
 -1       664 8.57087E-03
 -1       665 7.78712E-03
 -1       666 6.62655E-03
 -1       667 5.29464E-03
 -1       668 3.97670E-03
 -1       669 3.08279E-03
 -1       670 1.23709E+00
 -1       671 1.42954E+01
 -1       672 9.65899E-01
 -1       673 1.83305E+00
 -1       674 2.43643E+00
 -1       675 2.88178E+00
 -1       676 4.29614E+00
 -1       677 5.49354E+00
 -1       678 5.34831E+00
 -1       679 2.86576E+00
 -1       680 2.24936E+00
 -1       681 1.86385E+00
 -1       682 1.58144E+00
 -1       683 1.30189E+00
 -1       684 1.04980E+00
 -1       685 8.32640E-01
 -1       686 6.50646E-01
 -1       687 5.01164E-01
 -1       688 3.80442E-01
 -1       689 2.84435E-01
 -1       690 2.09191E-01
 -1       691 1.51060E-01
 -1       692 1.06798E-01
 -1       693 7.36077E-02
 -1       694 4.91307E-02
 -1       695 3.14167E-02
 -1       696 1.89636E-02
 -1       697 1.32409E-02
 -1       698 1.18989E-02
 -1       699 1.01503E-02
 -1       700 8.24406E-03
 -1       701 6.34530E-03
 -1       702 4.86930E-03
 -1       703 3.67114E-03
 -1       704 3.17839E-03
 -1       705 1.64909E-03
 -1       706 2.22540E-03
 -1       707 2.02082E-03
 -1       708 1.64638E-03
 -1       709 1.85514E-03
 -1       710 7.46111E-01
 -1       711 1.28340E+01
 -1       712 1.79104E-03
 -1       713 1.93627E-03
 -1       714 1.98371E-03
 -1       715 1.54227E+01
 -1       716 3.78542E+00
 -1       717 1.65356E+01
 -1       718 8.12551E+00
 -1       719 4.54965E+00
 -1       720 1.16362E+01
 -1       721 8.69446E+00
 -1       722 1.53731E+00
 -1       723 6.24037E-01
 -1       724 5.53250E+00
 -1       725 4.97879E-01
 -1       726 5.50054E+00
 -1       727 5.98701E+00
 -1       728 6.84868E+00
 -1       729 3.82160E+00
 -1       730 1.01061E+01
 -1       731 1.36772E+01
 -1       732 8.23913E+00
 -1       733 4.70400E-01
 -1       734 1.42411E+01
 -1       735 4.06968E+00
 -1       736 1.06491E+01
 -1       737 6.23741E+00
 -1       738 5.79209E+00
 -1       739 6.55490E-01
 -1       740 2.99978E-01
 -1       741 2.13924E-03
 -1       742 1.29769E+01
 -1       743 2.29425E-03
 -1       744 2.76037E+00
 -1       745 9.09025E-01
 -1       746 3.91107E-01
 -1       747 2.39469E-03
 -1       748 8.30408E+00
 -1       749 6.19049E-01
 -1       750 5.73163E-01
 -1       751 7.19320E+00
 -1       752 5.73912E-01
 -1       753 6.90681E-01
 -1       754 8.71852E-01
 -1       755 1.08748E+00
 -1       756 1.29040E+00
 -1       757 1.47933E+00
 -1       758 2.38736E+00
 -1       759 2.68659E+00
 -1       760 2.76037E+00
 -1       761 4.03763E+00
 -1       762 4.38765E+00
 -1       763 2.25924E+00
 -1       764 1.58540E+00
 -1       765 2.46704E+00
 -1       766 1.85811E+00
 -1       767 1.44505E+00
 -1       768 1.22824E+00
 -1       769 1.00025E+00
 -1       770 7.91917E-01
 -1       771 6.74752E-01
 -1       772 5.58188E-01
 -1       773 4.56442E-01
 -1       774 3.63903E-01
 -1       775 2.84071E-01
 -1       776 2.18704E-01
 -1       777 1.69363E-01
 -1       778 1.27209E-01
 -1       779 9.26054E-02
 -1       780 6.62500E-02
 -1       781 4.63334E-02
 -1       782 3.18497E-02
 -1       783 2.11556E-02
 -1       784 1.34325E-02
 -1       785 8.00396E-03
 -1       786 4.83337E-03
 -1       787 4.67927E-03
 -1       788 4.39751E-03
 -1       789 3.76645E-03
 -1       790 2.91835E-03
 -1       791 9.37989E+00
 -1       792 1.01768E+01
 -1       793 5.48792E+00
 -1       794 3.03833E+00
 -1       795 7.15384E+00
 -1       796 5.34831E+00
 -1       797 1.98476E+00
 -1       798 1.48559E+00
 -1       799 1.15243E+00
 -1       800 9.13063E-01
 -1       801 7.10537E-01
 -1       802 5.41475E-01
 -1       803 4.05052E-01
 -1       804 2.97597E-01
 -1       805 2.14566E-01
 -1       806 1.55588E-01
 -1       807 1.13510E-01
 -1       808 8.12563E-02
 -1       809 5.68606E-02
 -1       810 3.86919E-02
 -1       811 2.54029E-02
 -1       812 1.58896E-02
 -1       813 9.25770E-03
 -1       814 6.60610E-03
 -1       815 6.33104E-03
 -1       816 5.57844E-03
 -1       817 4.57022E-03
 -1       818 3.44874E-03
 -1       819 2.88163E-03
 -1       820 4.15080E-01
 -1       821 1.56565E-03
 -1       822 9.46561E+00
 -1       823 1.97423E-03
 -1       824 1.64191E-03
 -1       825 8.81006E+00
 -1       826 5.57925E+00
 -1       827 1.79104E-03
 -1       828 3.87504E+00
 -1       829 2.74353E+00
 -1       830 3.72198E+00
 -1       831 8.24389E+00
 -1       832 8.38700E+00
 -1       833 6.99915E+00
 -1       834 1.13105E+00
 -1       835 3.28799E+00
 -1       836 3.80845E+00
 -1       837 2.38547E+00
 -1       838 5.81298E-01
 -1       839 2.68659E+00
 -1       840 6.24037E-01
 -1       841 6.07145E-01
 -1       842 4.12660E+00
 -1       843 5.98413E+00
 -1       844 6.76470E+00
 -1       845 8.79103E+00
 -1       846 2.61304E-01
 -1       847 6.19049E-01
 -1       848 2.02082E-03
 -1       849 7.52195E+00
 -1       850 7.34759E+00
 -1       851 9.07015E-01
 -1       852 2.11999E+00
 -1       853 1.51362E+00
 -1       854 4.71511E-01
 -1       855 1.87448E-03
 -1       856 7.66777E+00
 -1       857 1.66162E-03
 -1       858 3.26010E+00
 -1       859 2.39469E-03
 -1       860 5.14612E-01
 -1       861 4.35304E-01
 -1       862 7.72091E-01
 -1       863 7.34759E+00
 -1       864 9.76837E-01
 -1       865 1.22531E+00
 -1       866 1.64788E+00
 -1       867 2.77333E+00
 -1       868 5.81298E-01
 -1       869 3.70594E+00
 -1       870 2.30999E+00
 -1       871 1.78080E+00
 -1       872 1.35058E+00
 -1       873 1.10330E+00
 -1       874 8.59684E-01
 -1       875 6.56147E-01
 -1       876 5.23299E-01
 -1       877 4.20148E-01
 -1       878 3.46443E-01
 -1       879 2.77892E-01
 -1       880 2.17509E-01
 -1       881 1.66322E-01
 -1       882 1.24223E-01
 -1       883 9.04858E-02
 -1       884 6.40842E-02
 -1       885 4.44026E-02
 -1       886 3.01466E-02
 -1       887 1.95935E-02
 -1       888 1.19789E-02
 -1       889 6.68532E-03
 -1       890 3.18413E-03
 -1       891 2.71411E-03
 -1       892 2.90618E-03
 -1       893 1.48559E+00
 -1       894 5.02535E+00
 -1       895 2.51087E-03
 -1       896 1.93361E+00
 -1       897 8.74403E-01
 -1       898 6.65486E-01
 -1       899 5.02912E-01
 -1       900 3.76607E-01
 -1       901 2.78870E-01
 -1       902 2.03704E-01
 -1       903 1.46375E-01
 -1       904 1.03101E-01
 -1       905 7.16214E-02
 -1       906 4.90438E-02
 -1       907 3.24734E-02
 -1       908 2.06070E-02
 -1       909 1.23415E-02
 -1       910 6.86573E-03
 -1       911 3.99613E-03
 -1       912 3.75387E-03
 -1       913 3.69502E-03
 -1       914 5.40514E+00
 -1       915 5.81288E+00
 -1       916 5.10196E+00
 -1       917 2.59702E+00
 -1       918 7.80444E-01
 -1       919 3.22306E-01
 -1       920 7.63732E-01
 -1       921 6.99915E+00
 -1       922 1.14295E+00
 -1       923 6.11579E-01
 -1       924 1.49664E-03
 -1       925 6.66190E+00
 -1       926 6.04705E+00
 -1       927 5.12781E+00
 -1       928 5.26504E+00
 -1       929 5.52552E+00
 -1       930 4.79935E-01
 -1       931 2.82190E-03
 -1       932 1.13053E+00
 -1       933 3.19008E+00
 -1       934 5.05731E+00
 -1       935 1.62497E-03
 -1       936 3.23820E-03
 -1       937 5.49999E+00
 -1       938 1.47168E-03
 -1       939 3.26787E+00
 -1       940 2.34176E-03
 -1       941 3.77503E+00
 -1       942 1.51050E+00
 -1       943 5.70680E-01
 -1       944 5.34493E-01
 -1       945 1.82167E-03
 -1       946 1.84459E+00
 -1       947 2.46763E+00
 -1       948 7.80444E-01
 -1       949 2.30999E+00
 -1       950 1.97504E+00
 -1       951 1.56529E+00
 -1       952 1.10014E+00
 -1       953 8.29464E-01
 -1       954 6.40897E-01
 -1       955 5.23299E-01
 -1       956 4.19382E-01
 -1       957 3.30782E-01
 -1       958 2.56950E-01
 -1       959 1.96503E-01
 -1       960 1.47788E-01
 -1       961 1.09123E-01
 -1       962 7.89078E-02
 -1       963 5.56783E-02
 -1       964 3.81299E-02
 -1       965 2.58486E-02
 -1       966 1.69504E-02
 -1       967 1.05248E-02
 -1       968 6.00224E-03
 -1       969 2.99180E-03
 -1       970 1.76065E-03
 -1       971 5.05731E+00
 -1       972 4.18961E-01
 -1       973 3.63570E+00
 -1       974 5.54372E-01
 -1       975 7.34245E-01
 -1       976 3.15304E-01
 -1       977 2.35338E-01
 -1       978 1.73609E-01
 -1       979 1.26171E-01
 -1       980 9.00162E-02
 -1       981 6.27684E-02
 -1       982 4.30180E-02
 -1       983 2.90506E-02
 -1       984 1.88541E-02
 -1       985 1.15696E-02
 -1       986 6.55234E-03
 -1       987 3.15987E-03
 -1       988 2.34176E-03
 -1       989 1.84062E+00
 -1       990 9.78885E-01
 -1       991 5.03911E+00
 -1       992 2.09377E+00
 -1       993 1.76815E-03
 -1       994 3.55750E+00
 -1       995 9.44879E-01
 -1       996 1.39866E+00
 -1       997 7.42941E-01
 -1       998 5.93386E-01
 -1       999 2.59702E+00
 -1      1000 1.32905E+00
 -1      1001 9.79677E-01
 -1      1002 4.79561E+00
 -1      1003 3.12885E+00
 -1      1004 4.89493E-01
 -1      1005 3.68514E+00
 -1      1006 4.03655E+00
 -1      1007 2.34176E-03
 -1      1008 4.09074E+00
 -1      1009 1.38052E+00
 -1      1010 1.57845E-03
 -1      1011 1.52640E-03
 -1      1012 1.02448E+00
 -1      1013 4.89510E-01
 -1      1014 8.55121E-01
 -1      1015 9.44879E-01
 -1      1016 3.20196E+00
 -1      1017 3.48011E+00
 -1      1018 3.92799E+00
 -1      1019 1.83638E+00
 -1      1020 1.34369E+00
 -1      1021 1.06344E+00
 -1      1022 8.29464E-01
 -1      1023 6.35700E-01
 -1      1024 4.86927E-01
 -1      1025 3.71929E-01
 -1      1026 2.82723E-01
 -1      1027 2.13388E-01
 -1      1028 1.59525E-01
 -1      1029 1.17821E-01
 -1      1030 8.57255E-02
 -1      1031 6.12372E-02
 -1      1032 4.27586E-02
 -1      1033 2.90022E-02
 -1      1034 1.99368E-02
 -1      1035 1.35821E-02
 -1      1036 8.81558E-03
 -1      1037 5.12763E-03
 -1      1038 2.37721E-03
 -1      1039 4.06250E-01
 -1      1040 2.37240E-01
 -1      1041 3.11235E-01
 -1      1042 5.30975E-01
 -1      1043 1.79125E-01
 -1      1044 1.33506E-01
 -1      1045 9.79206E-02
 -1      1046 7.04432E-02
 -1      1047 4.95004E-02
 -1      1048 3.37822E-02
 -1      1049 2.29876E-02
 -1      1050 1.51085E-02
 -1      1051 9.42168E-03
 -1      1052 5.46370E-03
 -1      1053 2.78794E-03
 -1      1054 1.29325E+00
 -1      1055 1.88808E+00
 -1      1056 9.30335E-01
 -1      1057 2.79900E+00
 -1      1058 2.79818E+00
 -1      1059 1.76815E-03
 -1      1060 2.37645E+00
 -1      1061 9.45928E-01
 -1      1062 3.61241E+00
 -1      1063 7.01693E-01
 -1      1064 1.31933E+00
 -1      1065 8.52224E-01
 -1      1066 1.57017E+00
 -1      1067 3.12885E+00
 -1      1068 2.80434E+00
 -1      1069 2.26371E+00
 -1      1070 3.19182E-03
 -1      1071 1.30954E+00
 -1      1072 7.42941E-01
 -1      1073 2.15373E+00
 -1      1074 1.02448E+00
 -1      1075 5.06030E-03
 -1      1076 1.13372E+00
 -1      1077 2.19758E+00
 -1      1078 2.08006E-01
 -1      1079 2.21704E+00
 -1      1080 1.88788E+00
 -1      1081 1.08748E+00
 -1      1082 7.33348E-01
 -1      1083 5.31033E-01
 -1      1084 3.88235E-01
 -1      1085 2.85211E-01
 -1      1086 2.21829E-01
 -1      1087 1.72462E-01
 -1      1088 1.32167E-01
 -1      1089 9.96793E-02
 -1      1090 7.38374E-02
 -1      1091 5.35776E-02
 -1      1092 3.79362E-02
 -1      1093 2.60560E-02
 -1      1094 1.79271E-02
 -1      1095 1.18777E-02
 -1      1096 7.34912E-03
 -1      1097 4.26977E-01
 -1      1098 1.08748E+00
 -1      1099 1.63615E-01
 -1      1100 1.26050E-01
 -1      1101 9.50626E-02
 -1      1102 7.00876E-02
 -1      1103 5.03942E-02
 -1      1104 3.59371E-02
 -1      1105 2.49914E-02
 -1      1106 1.66865E-02
 -1      1107 1.03128E-02
 -1      1108 7.49503E-01
 -1      1109 1.44501E+00
 -1      1110 5.61641E-01
 -1      1111 1.44501E+00
 -1      1112 1.52417E+00
 -1      1113 5.46370E-03
 -1      1114 2.19435E+00
 -1      1115 5.27852E-03
 -1      1116 3.26953E-01
 -1      1117 2.40723E+00
 -1      1118 2.22059E+00
 -1      1119 2.40723E+00
 -1      1120 2.58966E-01
 -1      1121 1.61888E+00
 -1      1122 1.26901E+01
 -1      1123 8.11697E+00
 -1      1124 2.71148E+00
 -1      1125 1.63062E+00
 -1      1126 1.24482E+00
 -1      1127 1.00778E+00
 -1      1128 8.29682E-01
 -1      1129 6.89148E-01
 -1      1130 6.10885E-01
 -1      1131 6.54277E-01
 -1      1132 7.90916E-01
 -1      1133 9.78742E-01
 -1      1134 1.23866E+00
 -1      1135 1.64265E+00
 -1      1136 2.63369E+00
 -1      1137 5.78658E+00
 -1      1138 1.08703E+01
 -1      1139 1.26901E+01
 -1      1140 8.39871E+00
 -1      1141 3.52989E+00
 -1      1142 2.35925E+00
 -1      1143 1.48882E+00
 -1      1144 1.00399E+00
 -1      1145 6.96451E-01
 -1      1146 6.23009E-01
 -1      1147 6.86502E-01
 -1      1148 7.23499E-01
 -1      1149 7.32607E-01
 -1      1150 8.93195E-01
 -1      1151 1.23072E+00
 -1      1152 1.87706E+00
 -1      1153 2.64310E+00
 -1      1154 2.94882E+00
 -1      1155 2.98951E+00
 -1      1156 3.03020E+00
 -1      1157 2.77789E+00
 -1      1158 2.06845E+00
 -1      1159 1.40437E+00
 -1      1160 1.05439E+00
 -1      1161 9.11363E-01
 -1      1162 8.78233E-01
 -1      1163 8.45103E-01
 -1      1164 8.07822E-01
 -1      1165 7.07559E-01
 -1      1166 5.78002E-01
 -1      1167 4.57336E-01
 -1      1168 3.73697E-01
 -1      1169 3.17833E-01
 -1      1170 2.64420E-01
 -1      1171 2.12021E-01
 -1      1172 1.64543E-01
 -1      1173 1.23818E-01
 -1      1174 9.52996E-02
 -1      1175 7.82197E-02
 -1      1176 6.44047E-02
 -1      1177 5.16961E-02
 -1      1178 4.04985E-02
 -1      1179 3.09336E-02
 -1      1180 2.34967E-02
 -1      1181 1.86026E-02
 -1      1182 1.50090E-02
 -1      1183 1.15810E-02
 -1      1184 8.34965E-03
 -1      1185 5.89808E-03
 -1      1186 4.60787E-03
 -1      1187 3.54323E-03
 -1      1188 1.71929E-03
 -1      1189 1.35373E+01
 -1      1190 8.42185E+00
 -1      1191 2.76607E+00
 -1      1192 1.92315E+00
 -1      1193 1.50521E+00
 -1      1194 1.28700E+00
 -1      1195 1.14964E+00
 -1      1196 1.11518E+00
 -1      1197 1.16719E+00
 -1      1198 1.39764E+00
 -1      1199 1.63444E+00
 -1      1200 1.89503E+00
 -1      1201 2.09726E+00
 -1      1202 2.46061E+00
 -1      1203 3.58923E+00
 -1      1204 4.70570E+00
 -1      1205 5.39985E+00
 -1      1206 5.74283E+00
 -1      1207 4.98522E+00
 -1      1208 3.24870E+00
 -1      1209 1.98424E+00
 -1      1210 1.84392E+00
 -1      1211 1.98916E+00
 -1      1212 1.98355E+00
 -1      1213 1.85895E+00
 -1      1214 1.59745E+00
 -1      1215 1.32091E+00
 -1      1216 1.05718E+00
 -1      1217 8.13529E-01
 -1      1218 6.05465E-01
 -1      1219 4.46182E-01
 -1      1220 3.35539E-01
 -1      1221 2.53137E-01
 -1      1222 1.87027E-01
 -1      1223 1.35249E-01
 -1      1224 9.55081E-02
 -1      1225 6.58344E-02
 -1      1226 4.88070E-02
 -1      1227 4.01668E-02
 -1      1228 3.23743E-02
 -1      1229 2.55547E-02
 -1      1230 2.05005E-02
 -1      1231 1.74013E-02
 -1      1232 1.48825E-02
 -1      1233 1.22140E-02
 -1      1234 9.48285E-03
 -1      1235 6.92343E-03
 -1      1236 4.97192E-03
 -1      1237 3.32849E-03
 -1      1238 1.49478E-03
 -1      1239 8.40071E-04
 -1      1240 1.07469E-03
 -1      1241 7.67735E-04
 -1      1242 4.27875E-04
 -1      1243 4.20851E-04
 -1      1244 5.67665E-04
 -1      1245 6.41049E-04
 -1      1246 6.65542E-04
 -1      1247 6.68274E-04
 -1      1248 6.61432E-04
 -1      1249 6.26923E-04
 -1      1250 5.48683E-04
 -1      1251 4.03457E-04
 -1      1252 4.25605E-04
 -1      1253 9.28393E-04
 -1      1254 1.56166E-03
 -1      1255 1.18177E-03
 -1      1256 2.52276E+01
 -1      1257 3.68911E+01
 -1      1258 4.85787E+01
 -1      1259 3.51725E+01
 -1      1260 1.74849E+01
 -1      1261 1.32036E+01
 -1      1262 1.26753E+01
 -1      1263 1.21373E+01
 -1      1264 1.21276E+01
 -1      1265 1.26970E+01
 -1      1266 2.27828E+01
 -1      1267 3.25875E+01
 -1      1268 3.02825E+01
 -1      1269 2.60076E+01
 -1      1270 2.42217E+01
 -1      1271 2.41174E+01
 -1      1272 3.41632E+01
 -1      1273 4.42089E+01
 -1      1274 3.07053E+01
 -1      1275 1.44910E+01
 -1      1276 1.18154E+01
 -1      1277 1.18503E+01
 -1      1278 1.22468E+01
 -1      1279 1.26432E+01
 -1      1280 1.21931E+01
 -1      1281 1.69215E+01
 -1      1282 3.53296E+01
 -1      1283 4.85593E+01
 -1      1284 3.69055E+01
 -1      1285 2.52517E+01
 -1      1286 1.26901E+01
 -1      1287 4.68804E+00
 -1      1288 9.26115E+00
 -1      1289 2.12022E+00
 -1      1290 2.95260E+00
 -1      1291 4.09678E+00
 -1      1292 1.50126E+00
 -1      1293 1.74974E+00
 -1      1294 1.99086E+00
 -1      1295 1.17548E+00
 -1      1296 1.31279E+00
 -1      1297 1.43192E+00
 -1      1298 9.55792E-01
 -1      1299 1.05551E+00
 -1      1300 1.12349E+00
 -1      1301 7.88515E-01
 -1      1302 8.66899E-01
 -1      1303 9.14625E-01
 -1      1304 6.55688E-01
 -1      1305 7.17838E-01
 -1      1306 7.55055E-01
 -1      1307 5.85647E-01
 -1      1308 6.01761E-01
 -1      1309 6.30451E-01
 -1      1310 6.81504E-01
 -1      1311 6.21998E-01
 -1      1312 6.12874E-01
 -1      1313 8.27109E-01
 -1      1314 7.49976E-01
 -1      1315 7.17697E-01
 -1      1316 1.03502E+00
 -1      1317 9.24321E-01
 -1      1318 8.83382E-01
 -1      1319 1.31505E+00
 -1      1320 1.16583E+00
 -1      1321 1.11141E+00
 -1      1322 1.76716E+00
 -1      1323 1.51240E+00
 -1      1324 1.43957E+00
 -1      1325 2.86069E+00
 -1      1326 2.12440E+00
 -1      1327 1.99416E+00
 -1      1328 5.98867E+00
 -1      1329 3.57208E+00
 -1      1330 3.06279E+00
 -1      1331 1.35373E+01
 -1      1332 1.08703E+01
 -1      1333 8.65575E+00
 -1      1334 1.35373E+01
 -1      1335 8.39871E+00
 -1      1336 4.10734E+00
 -1      1337 3.52989E+00
 -1      1338 2.95244E+00
 -1      1339 3.52989E+00
 -1      1340 2.35925E+00
 -1      1341 1.76606E+00
 -1      1342 2.35925E+00
 -1      1343 1.48882E+00
 -1      1344 1.21159E+00
 -1      1345 1.48882E+00
 -1      1346 1.00399E+00
 -1      1347 7.96389E-01
 -1      1348 1.00399E+00
 -1      1349 6.96451E-01
 -1      1350 5.96512E-01
 -1      1351 6.96451E-01
 -1      1352 5.80739E-01
 -1      1353 6.07236E-01
 -1      1354 5.80739E-01
 -1      1355 6.49506E-01
 -1      1356 6.86502E-01
 -1      1357 6.07236E-01
 -1      1358 7.23499E-01
 -1      1359 7.23499E-01
 -1      1360 6.86502E-01
 -1      1361 7.19319E-01
 -1      1362 7.28427E-01
 -1      1363 7.19319E-01
 -1      1364 7.41715E-01
 -1      1365 8.93195E-01
 -1      1366 7.28427E-01
 -1      1367 1.04468E+00
 -1      1368 1.23072E+00
 -1      1369 8.93195E-01
 -1      1370 1.49540E+00
 -1      1371 1.95571E+00
 -1      1372 1.30936E+00
 -1      1373 2.33737E+00
 -1      1374 2.64310E+00
 -1      1375 1.95571E+00
 -1      1376 2.94882E+00
 -1      1377 2.94882E+00
 -1      1378 2.64310E+00
 -1      1379 2.93885E+00
 -1      1380 2.97954E+00
 -1      1381 2.93885E+00
 -1      1382 3.03020E+00
 -1      1383 3.03020E+00
 -1      1384 2.97954E+00
 -1      1385 2.77789E+00
 -1      1386 2.52558E+00
 -1      1387 2.77789E+00
 -1      1388 2.11245E+00
 -1      1389 1.65532E+00
 -1      1390 2.11245E+00
 -1      1391 1.40437E+00
 -1      1392 1.19742E+00
 -1      1393 1.44837E+00
 -1      1394 1.01891E+00
 -1      1395 8.75878E-01
 -1      1396 1.01891E+00
 -1      1397 9.11363E-01
 -1      1398 9.11363E-01
 -1      1399 8.75878E-01
 -1      1400 8.61695E-01
 -1      1401 8.28565E-01
 -1      1402 8.61695E-01
 -1      1403 8.45103E-01
 -1      1404 8.45103E-01
 -1      1405 8.28565E-01
 -1      1406 8.07822E-01
 -1      1407 7.70542E-01
 -1      1408 8.07822E-01
 -1      1409 7.07559E-01
 -1      1410 6.44576E-01
 -1      1411 7.07559E-01
 -1      1412 5.90073E-01
 -1      1413 5.23499E-01
 -1      1414 5.90073E-01
 -1      1415 4.84662E-01
 -1      1416 4.30570E-01
 -1      1417 4.96733E-01
 -1      1418 3.91462E-01
 -1      1419 3.61916E-01
 -1      1420 4.18788E-01
 -1      1421 3.22082E-01
 -1      1422 2.95764E-01
 -1      1423 3.39847E-01
 -1      1424 2.64420E-01
 -1      1425 2.37324E-01
 -1      1426 2.68669E-01
 -1      1427 2.12021E-01
 -1      1428 1.86717E-01
 -1      1429 2.12021E-01
 -1      1430 1.66589E-01
 -1      1431 1.44414E-01
 -1      1432 1.66589E-01
 -1      1433 1.27506E-01
 -1      1434 1.08956E-01
 -1      1435 1.29552E-01
 -1      1436 9.52996E-02
 -1      1437 8.53316E-02
 -1      1438 9.89877E-02
 -1      1439 7.82197E-02
 -1      1440 7.11078E-02
 -1      1441 7.82197E-02
 -1      1442 6.44047E-02
 -1      1443 5.77017E-02
 -1      1444 6.44047E-02
 -1      1445 5.16961E-02
 -1      1446 4.56905E-02
 -1      1447 5.16961E-02
 -1      1448 4.04985E-02
 -1      1449 3.53065E-02
 -1      1450 4.04985E-02
 -1      1451 3.09336E-02
 -1      1452 2.65607E-02
 -1      1453 3.09336E-02
 -1      1454 2.34967E-02
 -1      1455 2.04328E-02
 -1      1456 2.34967E-02
 -1      1457 1.86026E-02
 -1      1458 1.67724E-02
 -1      1459 1.86026E-02
 -1      1460 1.50090E-02
 -1      1461 1.32457E-02
 -1      1462 1.50090E-02
 -1      1463 1.15810E-02
 -1      1464 9.91640E-03
 -1      1465 1.15810E-02
 -1      1466 8.54829E-03
 -1      1467 6.98154E-03
 -1      1468 8.54829E-03
 -1      1469 5.89808E-03
 -1      1470 5.01327E-03
 -1      1471 6.09673E-03
 -1      1472 4.60787E-03
 -1      1473 4.20247E-03
 -1      1474 4.60787E-03
 -1      1475 3.54323E-03
 -1      1476 2.88399E-03
 -1      1477 3.54323E-03
 -1      1478 2.34646E-03
 -1      1479 2.34646E-03
 -1      1480 3.30636E+00
 -1      1481 8.42185E+00
 -1      1482 8.42185E+00
 -1      1483 2.22579E+00
 -1      1484 2.76607E+00
 -1      1485 2.76607E+00
 -1      1486 1.62051E+00
 -1      1487 1.92315E+00
 -1      1488 1.92315E+00
 -1      1489 1.38990E+00
 -1      1490 1.50521E+00
 -1      1491 1.50521E+00
 -1      1492 1.18410E+00
 -1      1493 1.28700E+00
 -1      1494 1.28700E+00
 -1      1495 1.08020E+00
 -1      1496 1.11465E+00
 -1      1497 1.11465E+00
 -1      1498 1.11518E+00
 -1      1499 1.11518E+00
 -1      1500 1.08020E+00
 -1      1501 1.16255E+00
 -1      1502 1.11054E+00
 -1      1503 1.11054E+00
 -1      1504 1.40214E+00
 -1      1505 1.22369E+00
 -1      1506 1.16705E+00
 -1      1507 1.63444E+00
 -1      1508 1.57609E+00
 -1      1509 1.40214E+00
 -1      1510 1.89503E+00
 -1      1511 1.69279E+00
 -1      1512 1.63444E+00
 -1      1513 2.09726E+00
 -1      1514 2.09726E+00
 -1      1515 1.89503E+00
 -1      1516 2.45070E+00
 -1      1517 2.08736E+00
 -1      1518 2.08736E+00
 -1      1519 3.60748E+00
 -1      1520 2.84220E+00
 -1      1521 2.46895E+00
 -1      1522 4.70570E+00
 -1      1523 4.35452E+00
 -1      1524 3.60748E+00
 -1      1525 5.39985E+00
 -1      1526 5.05687E+00
 -1      1527 4.70570E+00
 -1      1528 5.74283E+00
 -1      1529 5.74283E+00
 -1      1530 5.39985E+00
 -1      1531 4.22761E+00
 -1      1532 4.98522E+00
 -1      1533 4.98522E+00
 -1      1534 2.26980E+00
 -1      1535 3.24870E+00
 -1      1536 3.24870E+00
 -1      1537 1.57297E+00
 -1      1538 1.85853E+00
 -1      1539 1.85853E+00
 -1      1540 1.84392E+00
 -1      1541 1.69868E+00
 -1      1542 1.57297E+00
 -1      1543 1.98916E+00
 -1      1544 1.98916E+00
 -1      1545 1.84392E+00
 -1      1546 1.97794E+00
 -1      1547 1.98355E+00
 -1      1548 1.98355E+00
 -1      1549 1.73997E+00
 -1      1550 1.85895E+00
 -1      1551 1.85895E+00
 -1      1552 1.45492E+00
 -1      1553 1.59745E+00
 -1      1554 1.59745E+00
 -1      1555 1.19250E+00
 -1      1556 1.32652E+00
 -1      1557 1.32652E+00
 -1      1558 9.45595E-01
 -1      1559 1.07530E+00
 -1      1560 1.08092E+00
 -1      1561 7.23149E-01
 -1      1562 8.37092E-01
 -1      1563 8.55215E-01
 -1      1564 5.35948E-01
 -1      1565 6.30069E-01
 -1      1566 6.53633E-01
 -1      1567 3.94927E-01
 -1      1568 4.60089E-01
 -1      1569 4.84693E-01
 -1      1570 2.92358E-01
 -1      1571 3.37838E-01
 -1      1572 3.51745E-01
 -1      1573 2.16216E-01
 -1      1574 2.53137E-01
 -1      1575 2.55436E-01
 -1      1576 1.57837E-01
 -1      1577 1.87027E-01
 -1      1578 1.87027E-01
 -1      1579 1.13868E-01
 -1      1580 1.36456E-01
 -1      1581 1.36456E-01
 -1      1582 8.02907E-02
 -1      1583 9.74441E-02
 -1      1584 9.86509E-02
 -1      1585 5.52930E-02
 -1      1586 6.78133E-02
 -1      1587 6.97493E-02
 -1      1588 4.43000E-02
 -1      1589 4.88070E-02
 -1      1590 5.07859E-02
 -1      1591 3.60336E-02
 -1      1592 4.01668E-02
 -1      1593 4.01668E-02
 -1      1594 2.87150E-02
 -1      1595 3.23743E-02
 -1      1596 3.23743E-02
 -1      1597 2.23944E-02
 -1      1598 2.55547E-02
 -1      1599 2.55547E-02
 -1      1600 1.86066E-02
 -1      1601 2.05005E-02
 -1      1602 2.05005E-02
 -1      1603 1.61961E-02
 -1      1604 1.74013E-02
 -1      1605 1.74013E-02
 -1      1606 1.35689E-02
 -1      1607 1.48825E-02
 -1      1608 1.48825E-02
 -1      1609 1.08591E-02
 -1      1610 1.22140E-02
 -1      1611 1.22140E-02
 -1      1612 8.10658E-03
 -1      1613 9.48285E-03
 -1      1614 9.48285E-03
 -1      1615 5.74029E-03
 -1      1616 6.92343E-03
 -1      1617 6.92343E-03
 -1      1618 4.20355E-03
 -1      1619 4.97192E-03
 -1      1620 4.97192E-03
 -1      1621 2.45342E-03
 -1      1622 3.32849E-03
 -1      1623 3.32849E-03
 -1      1624 1.79872E-03
 -1      1625 1.03420E-03
 -1      1626 1.10351E-03
 -1      1627 7.51694E-04
 -1      1628 9.89337E-04
 -1      1629 1.01816E-03
 -1      1630 4.70153E-04
 -1      1631 5.72370E-04
 -1      1632 7.93972E-04
 -1      1633 6.88133E-04
 -1      1634 5.92940E-04
 -1      1635 7.37435E-04
 -1      1636 8.45078E-04
 -1      1637 7.93457E-04
 -1      1638 9.65545E-04
 -1      1639 9.15269E-04
 -1      1640 8.93507E-04
 -1      1641 1.11930E-03
 -1      1642 9.30996E-04
 -1      1643 9.28265E-04
 -1      1644 1.18072E-03
 -1      1645 9.30996E-04
 -1      1646 9.30996E-04
 -1      1647 1.19372E-03
 -1      1648 9.22634E-04
 -1      1649 9.29476E-04
 -1      1650 1.19220E-03
 -1      1651 8.72104E-04
 -1      1652 8.99772E-04
 -1      1653 1.16782E-03
 -1      1654 7.69745E-04
 -1      1655 8.20317E-04
 -1      1656 1.09317E-03
 -1      1657 5.72477E-04
 -1      1658 6.67131E-04
 -1      1659 9.38765E-04
 -1      1660 5.88217E-04
 -1      1661 4.71414E-04
 -1      1662 7.35089E-04
 -1      1663 9.74202E-04
 -1      1664 5.88217E-04
 -1      1665 6.34026E-04
 -1      1666 1.76707E-03
 -1      1667 1.51979E-03
 -1      1668 1.17962E-03
 -1      1669 2.30460E-03
 -1      1670 2.79046E+01
 -1      1671 2.79287E+01
 -1      1672 3.91829E+01
 -1      1673 2.74953E+01
 -1      1674 4.85787E+01
 -1      1675 4.85787E+01
 -1      1676 2.25431E+01
 -1      1677 3.59494E+01
 -1      1678 1.25679E+01
 -1      1679 1.68492E+01
 -1      1680 1.32036E+01
 -1      1681 1.32036E+01
 -1      1682 1.21470E+01
 -1      1683 1.26753E+01
 -1      1684 1.19362E+01
 -1      1685 1.19459E+01
 -1      1686 1.21276E+01
 -1      1687 1.21276E+01
 -1      1688 1.24845E+01
 -1      1689 1.19151E+01
 -1      1690 2.27828E+01
 -1      1691 1.32664E+01
 -1      1692 3.28759E+01
 -1      1693 3.25875E+01
 -1      1694 3.02825E+01
 -1      1695 3.28759E+01
 -1      1696 2.48857E+01
 -1      1697 2.65672E+01
 -1      1698 2.64288E+01
 -1      1699 2.65331E+01
 -1      1700 2.64288E+01
 -1      1701 2.64288E+01
 -1      1702 4.07066E+01
 -1      1703 3.06609E+01
 -1      1704 4.42089E+01
 -1      1705 4.42089E+01
 -1      1706 1.75969E+01
 -1      1707 3.11005E+01
 -1      1708 1.12883E+01
 -1      1709 1.39989E+01
 -1      1710 1.18154E+01
 -1      1711 1.17804E+01
 -1      1712 1.18503E+01
 -1      1713 1.18503E+01
 -1      1714 1.20713E+01
 -1      1715 1.16749E+01
 -1      1716 1.26432E+01
 -1      1717 1.26432E+01
 -1      1718 1.17430E+01
 -1      1719 1.21931E+01
 -1      1720 1.66093E+01
 -1      1721 1.14309E+01
 -1      1722 3.63706E+01
 -1      1723 2.31409E+01
 -1      1724 4.85593E+01
 -1      1725 4.85593E+01
 -1      1726 2.76926E+01
 -1      1727 3.93464E+01
 -1      1728 2.79287E+01
 -1      1729 2.79287E+01
 -1      1730 1.76261E+01
 -1      1731 3.59494E+01
 -1      1732 1.79872E-03
 -1      1733 1.75822E-03
 -1      1734 3.01964E+01
 -1      1735 3.91829E+01
 -1      1736 3.06057E+01
 -1      1737 1.25679E+01
 -1      1738 1.26753E+01
 -1      1739 1.19459E+01
 -1      1740 1.19362E+01
 -1      1741 1.19151E+01
 -1      1742 1.24845E+01
 -1      1743 2.30712E+01
 -1      1744 3.28759E+01
 -1      1745 2.91606E+01
 -1      1746 2.70927E+01
 -1      1747 2.87401E+01
 -1      1748 3.29722E+01
 -1      1749 4.07066E+01
 -1      1750 3.11005E+01
 -1      1751 1.43941E+01
 -1      1752 1.12883E+01
 -1      1753 1.18154E+01
 -1      1754 1.16749E+01
 -1      1755 1.20713E+01
 -1      1756 1.21931E+01
 -1      1757 1.14309E+01
 -1      1758 1.76503E+01
 -1      1759 3.63706E+01
 -1      1760 3.93464E+01
 -1      1761 3.03696E+01
 -1      1762 9.26115E+00
 -1      1763 1.39141E+00
 -1      1764 1.76189E+00
 -1      1765 2.38497E+00
 -1      1766 4.12041E+00
 -1      1767 1.78552E+00
 -1      1768 9.39016E-01
 -1      1769 1.05898E+00
 -1      1770 7.78664E-01
 -1      1771 8.67558E-01
 -1      1772 8.03055E-01
 -1      1773 6.49801E-01
 -1      1774 7.20478E-01
 -1      1775 6.73410E-01
 -1      1776 5.43901E-01
 -1      1777 5.97829E-01
 -1      1778 5.63252E-01
 -1      1779 5.64328E-01
 -1      1780 5.27977E-01
 -1      1781 4.95356E-01
 -1      1782 6.82734E-01
 -1      1783 6.14262E-01
 -1      1784 5.29365E-01
 -1      1785 8.45727E-01
 -1      1786 7.48515E-01
 -1      1787 6.45080E-01
 -1      1788 1.05263E+00
 -1      1789 9.21815E-01
 -1      1790 7.86949E-01
 -1      1791 1.33828E+00
 -1      1792 1.14093E+00
 -1      1793 9.51340E-01
 -1      1794 1.82274E+00
 -1      1795 1.46550E+00
 -1      1796 1.16686E+00
 -1      1797 2.58745E+00
 -1      1798 1.87607E+00
 -1      1799 1.34740E+00
 -1      1800 7.72076E+00
 -1      1801 2.83918E+00
 -1      1802 1.65246E+00
 -1      1803 2.60527E+00
 -1      1804 4.96978E+00
 -1      1805 1.87729E+00
 -1      1806 2.41757E+00
 -1      1807 1.71649E+00
 -1      1808 3.25797E+00
 -1      1809 2.15616E+00
 -1      1810 1.56297E+00
 -1      1811 1.29027E+00
 -1      1812 1.01304E+00
 -1      1813 1.08719E+00
 -1      1814 8.86608E-01
 -1      1815 6.79008E-01
 -1      1816 6.88058E-01
 -1      1817 5.82241E-01
 -1      1818 4.82302E-01
 -1      1819 4.64859E-01
 -1      1820 4.81657E-01
 -1      1821 4.65885E-01
 -1      1822 3.67448E-01
 -1      1823 4.70041E-01
 -1      1824 5.12310E-01
 -1      1825 3.70959E-01
 -1      1826 5.28046E-01
 -1      1827 5.65043E-01
 -1      1828 3.90851E-01
 -1      1829 5.78579E-01
 -1      1830 5.74400E-01
 -1      1831 4.20123E-01
 -1      1832 6.04089E-01
 -1      1833 6.17377E-01
 -1      1834 4.63349E-01
 -1      1835 7.46337E-01
 -1      1836 8.97818E-01
 -1      1837 6.21999E-01
 -1      1838 1.10812E+00
 -1      1839 1.37281E+00
 -1      1840 9.61265E-01
 -1      1841 1.52839E+00
 -1      1842 1.91005E+00
 -1      1843 1.32715E+00
 -1      1844 2.10351E+00
 -1      1845 2.40923E+00
 -1      1846 1.67619E+00
 -1      1847 2.44671E+00
 -1      1848 2.43674E+00
 -1      1849 1.90712E+00
 -1      1850 2.43739E+00
 -1      1851 2.48806E+00
 -1      1852 1.94525E+00
 -1      1853 2.47952E+00
 -1      1854 2.22721E+00
 -1      1855 1.93738E+00
 -1      1856 2.05652E+00
 -1      1857 1.64339E+00
 -1      1858 1.75815E+00
 -1      1859 1.46267E+00
 -1      1860 1.21173E+00
 -1      1861 1.40674E+00
 -1      1862 9.81824E-01
 -1      1863 8.03309E-01
 -1      1864 9.96128E-01
 -1      1865 6.27616E-01
 -1      1866 6.63101E-01
 -1      1867 5.90532E-01
 -1      1868 6.89588E-01
 -1      1869 6.39920E-01
 -1      1870 4.41327E-01
 -1      1871 6.94357E-01
 -1      1872 7.10895E-01
 -1      1873 5.22250E-01
 -1      1874 7.37001E-01
 -1      1875 6.99721E-01
 -1      1876 6.02793E-01
 -1      1877 6.85771E-01
 -1      1878 6.22788E-01
 -1      1879 6.14950E-01
 -1      1880 5.89260E-01
 -1      1881 5.34757E-01
 -1      1882 5.67472E-01
 -1      1883 5.04727E-01
 -1      1884 4.65890E-01
 -1      1885 5.03914E-01
 -1      1886 4.37317E-01
 -1      1887 3.98209E-01
 -1      1888 4.45311E-01
 -1      1889 3.64068E-01
 -1      1890 3.24234E-01
 -1      1891 3.82597E-01
 -1      1892 2.89663E-01
 -1      1893 2.58319E-01
 -1      1894 3.13884E-01
 -1      1895 2.26456E-01
 -1      1896 2.01152E-01
 -1      1897 2.47450E-01
 -1      1898 1.73597E-01
 -1      1899 1.53468E-01
 -1      1900 1.88032E-01
 -1      1901 1.30757E-01
 -1      1902 1.13848E-01
 -1      1903 1.37765E-01
 -1      1904 9.84475E-02
 -1      1905 8.47914E-02
 -1      1906 9.96522E-02
 -1      1907 7.32726E-02
 -1      1908 6.61607E-02
 -1      1909 7.27324E-02
 -1      1910 5.77496E-02
 -1      1911 5.10466E-02
 -1      1912 5.28026E-02
 -1      1913 4.67140E-02
 -1      1914 4.07084E-02
 -1      1915 4.00589E-02
 -1      1916 3.75971E-02
 -1      1917 3.24051E-02
 -1      1918 3.26150E-02
 -1      1919 2.94981E-02
 -1      1920 2.51252E-02
 -1      1921 2.65967E-02
 -1      1922 2.25114E-02
 -1      1923 1.94474E-02
 -1      1924 2.10759E-02
 -1      1925 1.71584E-02
 -1      1926 1.53283E-02
 -1      1927 1.61731E-02
 -1      1928 1.40102E-02
 -1      1929 1.22469E-02
 -1      1930 1.25661E-02
 -1      1931 1.11699E-02
 -1      1932 9.50523E-03
 -1      1933 1.01711E-02
 -1      1934 8.39594E-03
 -1      1935 7.02784E-03
 -1      1936 7.98477E-03
 -1      1937 6.06781E-03
 -1      1938 4.98435E-03
 -1      1939 5.91546E-03
 -1      1940 4.19022E-03
 -1      1941 3.78482E-03
 -1      1942 4.16130E-03
 -1      1943 3.37636E-03
 -1      1944 2.71712E-03
 -1      1945 2.13773E-03
 -1      1946 2.95871E-03
 -1      1947 1.25426E+00
 -1      1948 1.55690E+00
 -1      1949 1.20840E+00
 -1      1950 1.06333E+00
 -1      1951 1.17863E+00
 -1      1952 8.12385E-01
 -1      1953 9.38357E-01
 -1      1954 1.04126E+00
 -1      1955 7.14683E-01
 -1      1956 9.62471E-01
 -1      1957 1.03192E+00
 -1      1958 7.86173E-01
 -1      1959 1.11233E+00
 -1      1960 1.07735E+00
 -1      1961 9.94607E-01
 -1      1962 1.19991E+00
 -1      1963 1.20455E+00
 -1      1964 1.20170E+00
 -1      1965 1.29333E+00
 -1      1966 1.23218E+00
 -1      1967 1.32620E+00
 -1      1968 1.47863E+00
 -1      1969 1.30469E+00
 -1      1970 1.36983E+00
 -1      1971 1.43932E+00
 -1      1972 1.38097E+00
 -1      1973 1.28351E+00
 -1      1974 1.71904E+00
 -1      1975 1.51680E+00
 -1      1976 1.26333E+00
 -1      1977 1.90028E+00
 -1      1978 1.91019E+00
 -1      1979 1.53196E+00
 -1      1980 2.72283E+00
 -1      1981 2.33133E+00
 -1      1982 2.15416E+00
 -1      1983 3.83283E+00
 -1      1984 3.08579E+00
 -1      1985 2.94817E+00
 -1      1986 4.19000E+00
 -1      1987 3.83883E+00
 -1      1988 3.31713E+00
 -1      1989 4.41731E+00
 -1      1990 4.07433E+00
 -1      1991 3.20746E+00
 -1      1992 3.46514E+00
 -1      1993 4.22275E+00
 -1      1994 2.89722E+00
 -1      1995 2.00031E+00
 -1      1996 2.97922E+00
 -1      1997 2.21674E+00
 -1      1998 1.30311E+00
 -1      1999 1.71438E+00
 -1      2000 1.44489E+00
 -1      2001 1.55140E+00
 -1      2002 1.42569E+00
 -1      2003 1.28153E+00
 -1      2004 1.75444E+00
 -1      2005 1.60920E+00
 -1      2006 1.46192E+00
 -1      2007 1.74264E+00
 -1      2008 1.74825E+00
 -1      2009 1.51354E+00
 -1      2010 1.58637E+00
 -1      2011 1.70536E+00
 -1      2012 1.47006E+00
 -1      2013 1.36727E+00
 -1      2014 1.50979E+00
 -1      2015 1.35620E+00
 -1      2016 1.14764E+00
 -1      2017 1.27604E+00
 -1      2018 1.18839E+00
 -1      2019 9.32869E-01
 -1      2020 1.05007E+00
 -1      2021 9.99586E-01
 -1      2022 7.29724E-01
 -1      2023 8.38227E-01
 -1      2024 8.07378E-01
 -1      2025 5.53013E-01
 -1      2026 6.46093E-01
 -1      2027 6.29105E-01
 -1      2028 4.07475E-01
 -1      2029 4.83335E-01
 -1      2030 4.75796E-01
 -1      2031 2.94657E-01
 -1      2032 3.51745E-01
 -1      2033 3.50387E-01
 -1      2034 2.13878E-01
 -1      2035 2.53098E-01
 -1      2036 2.53098E-01
 -1      2037 1.57707E-01
 -1      2038 1.86897E-01
 -1      2039 1.84558E-01
 -1      2040 1.15075E-01
 -1      2041 1.36456E-01
 -1      2042 1.36326E-01
 -1      2043 8.22267E-02
 -1      2044 9.86509E-02
 -1      2045 9.86509E-02
 -1      2046 5.72719E-02
 -1      2047 6.97493E-02
 -1      2048 6.97493E-02
 -1      2049 4.14640E-02
 -1      2050 4.79500E-02
 -1      2051 4.79500E-02
 -1      2052 3.18966E-02
 -1      2053 3.60297E-02
 -1      2054 3.31938E-02
 -1      2055 2.61024E-02
 -1      2056 2.97617E-02
 -1      2057 2.56247E-02
 -1      2058 2.08353E-02
 -1      2059 2.39956E-02
 -1      2060 2.13830E-02
 -1      2061 1.69674E-02
 -1      2062 1.88613E-02
 -1      2063 1.73022E-02
 -1      2064 1.39741E-02
 -1      2065 1.51793E-02
 -1      2066 1.35401E-02
 -1      2067 1.13623E-02
 -1      2068 1.26759E-02
 -1      2069 1.04539E-02
 -1      2070 9.30666E-03
 -1      2071 1.06616E-02
 -1      2072 8.45495E-03
 -1      2073 7.11625E-03
 -1      2074 8.49252E-03
 -1      2075 6.94007E-03
 -1      2076 5.26298E-03
 -1      2077 6.44613E-03
 -1      2078 5.45580E-03
 -1      2079 3.80837E-03
 -1      2080 4.57674E-03
 -1      2081 4.09943E-03
 -1      2082 2.42469E-03
 -1      2083 3.29976E-03
 -1      2084 2.90458E-03
 -1      2085 1.72949E-03
 -1      2086 1.01757E-03
 -1      2087 8.94780E-04
 -1      2088 1.26271E-03
 -1      2089 1.44203E-03
 -1      2090 1.54284E-03
 -1      2091 1.44203E-03
 -1      2092 1.48689E-03
 -1      2093 2.15336E-03
 -1      2094 1.91076E-03
 -1      2095 1.23595E-03
 -1      2096 1.13062E-03
 -1      2097 1.28797E-03
 -1      2098 1.33310E-03
 -1      2099 1.28467E-03
 -1      2100 1.44974E-03
 -1      2101 1.35305E-03
 -1      2102 1.34005E-03
 -1      2103 1.50542E-03
 -1      2104 1.35305E-03
 -1      2105 1.35305E-03
 -1      2106 1.51237E-03
 -1      2107 1.34489E-03
 -1      2108 1.34641E-03
 -1      2109 1.50574E-03
 -1      2110 1.32203E-03
 -1      2111 1.34489E-03
 -1      2112 1.49910E-03
 -1      2113 1.25354E-03
 -1      2114 1.30533E-03
 -1      2115 1.48240E-03
 -1      2116 1.09615E-03
 -1      2117 1.19876E-03
 -1      2118 1.41092E-03
 -1      2119 8.84523E-04
 -1      2120 9.85586E-04
 -1      2121 1.24559E-03
 -1      2122 1.33226E-03
 -1      2123 1.33226E-03
 -1      2124 1.58276E-03
 -1      2125 3.91829E+01
 -1      2126 2.97872E+01
 -1      2127 3.20943E+01
 -1      2128 3.20943E+01
 -1      2129 3.16850E+01
 -1      2130 3.20943E+01
 -1      2131 3.35828E+01
 -1      2132 2.04778E+01
 -1      2133 3.31071E+01
 -1      2134 1.07884E+01
 -1      2135 1.64823E+01
 -1      2136 1.14734E+00
 -1      2137 1.33580E+00
 -1      2138 1.10683E+00
 -1      2139 9.62871E-01
 -1      2140 1.08866E+01
 -1      2141 1.14149E+01
 -1      2142 1.10612E+01
 -1      2143 1.12623E+01
 -1      2144 1.00018E+01
 -1      2145 1.12951E+01
 -1      2146 1.11037E+01
 -1      2147 1.04269E+01
 -1      2148 1.06394E+01
 -1      2149 1.01738E+01
 -1      2150 9.39190E+00
 -1      2151 2.27681E+01
 -1      2152 1.29634E+01
 -1      2153 2.75718E+01
 -1      2154 2.75718E+01
 -1      2155 2.62329E+01
 -1      2156 2.99482E+01
 -1      2157 3.26726E+01
 -1      2158 3.10251E+01
 -1      2159 3.26726E+01
 -1      2160 3.26726E+01
 -1      2161 3.27024E+01
 -1      2162 2.84703E+01
 -1      2163 3.49929E+01
 -1      2164 3.14906E+01
 -1      2165 1.63462E+01
 -1      2166 2.94546E+01
 -1      2167 2.02386E+01
 -1      2168 9.59363E+00
 -1      2169 1.31916E+01
 -1      2170 9.64106E+00
 -1      2171 9.14895E+00
 -1      2172 1.11593E+01
 -1      2173 1.11243E+01
 -1      2174 8.98495E+00
 -1      2175 1.12514E+01
 -1      2176 1.14269E+01
 -1      2177 1.16445E+01
 -1      2178 1.10726E+01
 -1      2179 1.04447E+01
 -1      2180 1.08948E+01
 -1      2181 9.18814E+00
 -1      2182 9.50032E+00
 -1      2183 8.20197E+00
 -1      2184 1.67258E+01
 -1      2185 1.01942E+01
 -1      2186 3.30390E+01
 -1      2187 2.08503E+01
 -1      2188 3.01335E+01
 -1      2189 3.93464E+01
 -1      2190 2.99179E+01
 -1      2191 2.96818E+01
 -1      2192 2.96818E+01
 -1      2193 1.00425E+01
 -1      2194 9.40684E+00
 -1      2195 8.26308E+00
 -1      2196 2.68052E+00
 -1      2197 8.40870E+00
 -1      2198 1.01974E+01
 -1      2199 7.03637E+00
 -1      2200 1.88425E+00
 -1      2201 3.16850E+01
 -1      2202 2.37113E+01
 -1      2203 1.87785E-03
 -1      2204 3.14064E+01
 -1      2205 1.36401E+01
 -1      2206 2.38261E+01
 -1      2207 8.26364E+00
 -1      2208 9.89605E+00
 -1      2209 1.07358E+01
 -1      2210 1.15457E+01
 -1      2211 2.69886E+01
 -1      2212 3.24027E+01
 -1      2213 3.66050E+01
 -1      2214 3.18127E+01
 -1      2215 2.46441E+01
 -1      2216 1.74641E+01
 -1      2217 9.87074E+00
 -1      2218 8.11612E+00
 -1      2219 1.04201E+01
 -1      2220 9.80686E+00
 -1      2221 7.88668E+00
 -1      2222 6.68413E+00
 -1      2223 6.23945E+00
 -1      2224 1.08246E+01
 -1      2225 1.33942E+01
 -1      2226 8.92555E-01
 -1      2227 1.21294E+00
 -1      2228 5.74541E-01
 -1      2229 6.32726E-01
 -1      2230 6.68938E-01
 -1      2231 7.40397E-01
 -1      2232 5.70069E-01
 -1      2233 4.13068E-01
 -1      2234 4.28992E-01
 -1      2235 4.82608E-01
 -1      2236 4.32674E-01
 -1      2237 3.66311E-01
 -1      2238 5.98349E-01
 -1      2239 5.32568E-01
 -1      2240 4.35877E-01
 -1      2241 7.21092E-01
 -1      2242 6.45004E-01
 -1      2243 5.32492E-01
 -1      2244 8.66159E-01
 -1      2245 7.77856E-01
 -1      2246 6.35912E-01
 -1      2247 1.14349E+00
 -1      2248 1.01627E+00
 -1      2249 8.42790E-01
 -1      2250 6.29908E-01
 -1      2251 7.05540E-01
 -1      2252 7.10078E-01
 -1      2253 1.00816E+00
 -1      2254 7.35457E-01
 -1      2255 6.20581E-01
 -1      2256 4.94150E-01
 -1      2257 5.41549E-01
 -1      2258 4.59537E-01
 -1      2259 3.62770E-01
 -1      2260 3.92061E-01
 -1      2261 3.78198E-01
 -1      2262 3.77553E-01
 -1      2263 3.72875E-01
 -1      2264 4.02111E-01
 -1      2265 4.06267E-01
 -1      2266 4.12860E-01
 -1      2267 4.24966E-01
 -1      2268 4.40702E-01
 -1      2269 4.56117E-01
 -1      2270 4.90907E-01
 -1      2271 5.04443E-01
 -1      2272 5.25022E-01
 -1      2273 5.79953E-01
 -1      2274 6.09643E-01
 -1      2275 6.50737E-01
 -1      2276 6.51545E-01
 -1      2277 7.80506E-01
 -1      2278 7.68149E-01
 -1      2279 9.42498E-01
 -1      2280 1.15280E+00
 -1      2281 9.72043E-01
 -1      2282 1.22782E+00
 -1      2283 1.38339E+00
 -1      2284 1.20905E+00
 -1      2285 1.47516E+00
 -1      2286 1.66862E+00
 -1      2287 1.37583E+00
 -1      2288 1.83097E+00
 -1      2289 1.86844E+00
 -1      2290 1.62994E+00
 -1      2291 1.79815E+00
 -1      2292 1.79881E+00
 -1      2293 1.72200E+00
 -1      2294 1.89206E+00
 -1      2295 1.88352E+00
 -1      2296 1.74496E+00
 -1      2297 1.71390E+00
 -1      2298 1.54321E+00
 -1      2299 1.66858E+00
 -1      2300 1.44395E+00
 -1      2301 1.26324E+00
 -1      2302 1.39970E+00
 -1      2303 1.16016E+00
 -1      2304 9.30253E-01
 -1      2305 1.19736E+00
 -1      2306 7.89434E-01
 -1      2307 6.13742E-01
 -1      2308 9.53462E-01
 -1      2309 5.86541E-01
 -1      2310 6.13028E-01
 -1      2311 7.85443E-01
 -1      2312 5.41051E-01
 -1      2313 5.95488E-01
 -1      2314 6.86266E-01
 -1      2315 6.05091E-01
 -1      2316 6.31198E-01
 -1      2317 6.23893E-01
 -1      2318 6.18977E-01
 -1      2319 6.05027E-01
 -1      2320 6.21275E-01
 -1      2321 5.76648E-01
 -1      2322 5.43120E-01
 -1      2323 5.80675E-01
 -1      2324 5.18046E-01
 -1      2325 4.88016E-01
 -1      2326 5.27222E-01
 -1      2327 4.60081E-01
 -1      2328 4.31508E-01
 -1      2329 4.74213E-01
 -1      2330 3.99339E-01
 -1      2331 3.65197E-01
 -1      2332 4.14108E-01
 -1      2333 3.31448E-01
 -1      2334 2.96876E-01
 -1      2335 3.48189E-01
 -1      2336 2.64825E-01
 -1      2337 2.32962E-01
 -1      2338 2.82388E-01
 -1      2339 2.04440E-01
 -1      2340 1.76885E-01
 -1      2341 2.21815E-01
 -1      2342 1.52684E-01
 -1      2343 1.29973E-01
 -1      2344 1.69093E-01
 -1      2345 1.10201E-01
 -1      2346 9.48002E-02
 -1      2347 1.25121E-01
 -1      2348 7.91594E-02
 -1      2349 6.76406E-02
 -1      2350 8.97084E-02
 -1      2351 5.56266E-02
 -1      2352 4.72156E-02
 -1      2353 6.20536E-02
 -1      2354 3.82494E-02
 -1      2355 3.39168E-02
 -1      2356 4.10735E-02
 -1      2357 2.90015E-02
 -1      2358 2.58903E-02
 -1      2359 2.71921E-02
 -1      2360 2.33774E-02
 -1      2361 2.04705E-02
 -1      2362 1.97640E-02
 -1      2363 1.92808E-02
 -1      2364 1.66671E-02
 -1      2365 1.60616E-02
 -1      2366 1.53823E-02
 -1      2367 1.30933E-02
 -1      2368 1.35872E-02
 -1      2369 1.18156E-02
 -1      2370 1.04976E-02
 -1      2371 1.10248E-02
 -1      2372 9.29186E-03
 -1      2373 8.21487E-03
 -1      2374 8.54143E-03
 -1      2375 7.51733E-03
 -1      2376 6.40805E-03
 -1      2377 6.63814E-03
 -1      2378 5.71769E-03
 -1      2379 4.75766E-03
 -1      2380 5.25024E-03
 -1      2381 4.12800E-03
 -1      2382 3.33387E-03
 -1      2383 3.93023E-03
 -1      2384 8.44034E-01
 -1      2385 7.50475E-01
 -1      2386 1.07427E+00
 -1      2387 9.59396E-01
 -1      2388 9.23698E-01
 -1      2389 1.26356E+00
 -1      2390 1.17134E+00
 -1      2391 1.13613E+00
 -1      2392 1.38973E+00
 -1      2393 1.35746E+00
 -1      2394 1.32710E+00
 -1      2395 1.54531E+00
 -1      2396 1.53395E+00
 -1      2397 1.56522E+00
 -1      2398 1.56069E+00
 -1      2399 1.65835E+00
 -1      2400 1.82248E+00
 -1      2401 1.73095E+00
 -1      2402 1.65347E+00
 -1      2403 2.02831E+00
 -1      2404 2.25876E+00
 -1      2405 2.06761E+00
 -1      2406 2.45776E+00
 -1      2407 2.97048E+00
 -1      2408 2.53943E+00
 -1      2409 3.07508E+00
 -1      2410 4.39849E+00
 -1      2411 4.03553E+00
 -1      2412 4.42080E+00
 -1      2413 3.56147E+00
 -1      2414 3.55547E+00
 -1      2415 4.64283E+00
 -1      2416 4.24254E+00
 -1      2417 4.35821E+00
 -1      2418 4.59655E+00
 -1      2419 3.19091E+00
 -1      2420 3.38548E+00
 -1      2421 4.53623E+00
 -1      2422 2.76964E+00
 -1      2423 3.25556E+00
 -1      2424 3.74381E+00
 -1      2425 1.59323E+00
 -1      2426 1.87916E+00
 -1      2427 2.91797E+00
 -1      2428 1.79297E+00
 -1      2429 1.67039E+00
 -1      2430 2.10466E+00
 -1      2431 1.74293E+00
 -1      2432 1.68513E+00
 -1      2433 2.07398E+00
 -1      2434 1.62165E+00
 -1      2435 1.62783E+00
 -1      2436 1.85104E+00
 -1      2437 1.45852E+00
 -1      2438 1.49581E+00
 -1      2439 1.61010E+00
 -1      2440 1.32270E+00
 -1      2441 1.39928E+00
 -1      2442 1.42502E+00
 -1      2443 1.14149E+00
 -1      2444 1.23272E+00
 -1      2445 1.27581E+00
 -1      2446 9.42716E-01
 -1      2447 1.04028E+00
 -1      2448 1.08462E+00
 -1      2449 7.50114E-01
 -1      2450 8.44756E-01
 -1      2451 8.85452E-01
 -1      2452 5.79323E-01
 -1      2453 6.62954E-01
 -1      2454 7.00332E-01
 -1      2455 4.36162E-01
 -1      2456 5.05840E-01
 -1      2457 5.39689E-01
 -1      2458 3.20758E-01
 -1      2459 3.76488E-01
 -1      2460 4.06532E-01
 -1      2461 2.32085E-01
 -1      2462 2.73643E-01
 -1      2463 2.99745E-01
 -1      2464 1.68741E-01
 -1      2465 1.95722E-01
 -1      2466 2.16267E-01
 -1      2467 1.19978E-01
 -1      2468 1.41229E-01
 -1      2469 1.52393E-01
 -1      2470 8.31287E-02
 -1      2471 9.95529E-02
 -1      2472 1.04456E-01
 -1      2473 5.57782E-02
 -1      2474 6.82556E-02
 -1      2475 6.91576E-02
 -1      2476 3.81546E-02
 -1      2477 4.74765E-02
 -1      2478 4.59829E-02
 -1      2479 2.77595E-02
 -1      2480 3.31938E-02
 -1      2481 3.27203E-02
 -1      2482 2.34898E-02
 -1      2483 2.56247E-02
 -1      2484 2.56247E-02
 -1      2485 1.92762E-02
 -1      2486 2.13830E-02
 -1      2487 2.13830E-02
 -1      2488 1.53282E-02
 -1      2489 1.73022E-02
 -1      2490 1.73022E-02
 -1      2491 1.17521E-02
 -1      2492 1.35401E-02
 -1      2493 1.35401E-02
 -1      2494 9.14885E-03
 -1      2495 1.04471E-02
 -1      2496 1.04471E-02
 -1      2497 7.59110E-03
 -1      2498 8.29185E-03
 -1      2499 8.28500E-03
 -1      2500 5.87403E-03
 -1      2501 6.68817E-03
 -1      2502 6.52507E-03
 -1      2503 4.43468E-03
 -1      2504 5.10480E-03
 -1      2505 4.85291E-03
 -1      2506 3.13102E-03
 -1      2507 3.81726E-03
 -1      2508 3.46627E-03
 -1      2509 2.66198E-03
 -1      2510 1.63489E-03
 -1      2511 1.58617E-03
 -1      2512 1.64185E-03
 -1      2513 1.63489E-03
 -1      2514 1.77132E-03
 -1      2515 1.85704E-03
 -1      2516 2.22496E-03
 -1      2517 1.56161E-03
 -1      2518 1.44855E-03
 -1      2519 2.13068E-03
 -1      2520 1.74676E-03
 -1      2521 1.61763E-03
 -1      2522 1.61763E-03
 -1      2523 1.74710E-03
 -1      2524 1.57274E-03
 -1      2525 1.57938E-03
 -1      2526 1.68463E-03
 -1      2527 1.59570E-03
 -1      2528 1.59570E-03
 -1      2529 1.66934E-03
 -1      2530 1.59139E-03
 -1      2531 1.60809E-03
 -1      2532 1.70469E-03
 -1      2533 1.53662E-03
 -1      2534 1.59139E-03
 -1      2535 1.71709E-03
 -1      2536 1.38031E-03
 -1      2537 1.49088E-03
 -1      2538 1.67135E-03
 -1      2539 1.80904E-03
 -1      2540 1.36130E-03
 -1      2541 1.60659E-03
 -1      2542 1.54303E+01
 -1      2543 2.15061E+01
 -1      2544 2.29038E-03
 -1      2545 3.14064E+01
 -1      2546 2.92301E+01
 -1      2547 6.41044E-01
 -1      2548 6.63114E-01
 -1      2549 6.98905E-01
 -1      2550 3.35828E+01
 -1      2551 3.35828E+01
 -1      2552 2.15397E+01
 -1      2553 1.52323E+01
 -1      2554 9.20813E+00
 -1      2555 1.32035E+01
 -1      2556 2.63775E+01
 -1      2557 2.82753E+01
 -1      2558 8.20608E+00
 -1      2559 8.95580E+00
 -1      2560 8.00101E+00
 -1      2561 1.11556E+01
 -1      2562 2.19188E+01
 -1      2563 2.31306E+01
 -1      2564 4.77132E-01
 -1      2565 5.29105E-01
 -1      2566 4.88421E-01
 -1      2567 3.94845E-01
 -1      2568 7.98690E+00
 -1      2569 8.64266E+00
 -1      2570 8.90629E+00
 -1      2571 8.53058E+00
 -1      2572 9.46177E+00
 -1      2573 9.41923E+00
 -1      2574 6.28350E+00
 -1      2575 7.31847E+00
 -1      2576 9.53309E+00
 -1      2577 6.74350E+00
 -1      2578 1.66821E+01
 -1      2579 1.18784E+01
 -1      2580 8.75117E+00
 -1      2581 2.17949E+01
 -1      2582 1.94185E+01
 -1      2583 3.18127E+01
 -1      2584 2.70205E+01
 -1      2585 3.66050E+01
 -1      2586 3.66050E+01
 -1      2587 2.82004E+01
 -1      2588 3.24027E+01
 -1      2589 2.31306E+01
 -1      2590 1.30774E+01
 -1      2591 1.86157E+01
 -1      2592 9.53273E+00
 -1      2593 9.49470E+00
 -1      2594 9.67355E+00
 -1      2595 7.78748E+00
 -1      2596 6.30425E+00
 -1      2597 1.30291E+01
 -1      2598 8.90460E+00
 -1      2599 9.14297E+00
 -1      2600 8.87532E+00
 -1      2601 6.19463E+00
 -1      2602 5.92781E+00
 -1      2603 6.87217E+00
 -1      2604 7.81047E+00
 -1      2605 6.80444E+00
 -1      2606 2.39164E+01
 -1      2607 2.43681E+01
 -1      2608 1.72992E+00
 -1      2609 1.20556E+00
 -1      2610 8.53827E-01
 -1      2611 1.10683E+00
 -1      2612 1.29044E+00
 -1      2613 1.47814E+00
 -1      2614 1.22641E+00
 -1      2615 9.74595E-01
 -1      2616 6.64717E+00
 -1      2617 8.02876E+00
 -1      2618 7.64181E+00
 -1      2619 8.28755E-01
 -1      2620 9.62871E-01
 -1      2621 1.05123E+00
 -1      2622 5.56269E-01
 -1      2623 1.17309E+00
 -1      2624 5.34497E+00
 -1      2625 5.11065E+00
 -1      2626 5.49985E+00
 -1      2627 7.44540E+00
 -1      2628 7.76377E+00
 -1      2629 6.54633E+00
 -1      2630 6.66822E+00
 -1      2631 7.81305E+00
 -1      2632 1.07427E+01
 -1      2633 2.39164E+01
 -1      2634 5.93192E+00
 -1      2635 2.37981E-03
 -1      2636 2.37981E-03
 -1      2637 1.80964E+01
 -1      2638 1.09984E+01
 -1      2639 2.33442E-03
 -1      2640 2.07454E-03
 -1      2641 1.85308E-03
 -1      2642 2.74288E-03
 -1      2643 3.24027E+01
 -1      2644 3.14064E+01
 -1      2645 1.02250E+00
 -1      2646 2.82753E+01
 -1      2647 3.18127E+01
 -1      2648 1.38329E+01
 -1      2649 1.05123E+00
 -1      2650 7.80473E+00
 -1      2651 5.94585E+00
 -1      2652 1.14891E+01
 -1      2653 1.86503E+01
 -1      2654 1.47923E+01
 -1      2655 6.29405E+00
 -1      2656 7.59222E+00
 -1      2657 1.57743E+01
 -1      2658 7.94797E+00
 -1      2659 5.33239E+00
 -1      2660 4.07011E+00
 -1      2661 4.13491E+00
 -1      2662 6.15428E+00
 -1      2663 2.17949E+01
 -1      2664 5.47464E+00
 -1      2665 2.69401E-03
 -1      2666 2.70958E-03
 -1      2667 4.10507E-01
 -1      2668 3.60546E-01
 -1      2669 3.00891E-01
 -1      2670 2.81285E-01
 -1      2671 2.75520E-01
 -1      2672 6.50972E-01
 -1      2673 5.94208E-01
 -1      2674 8.30018E-01
 -1      2675 6.79903E-01
 -1      2676 6.38200E-01
 -1      2677 6.19172E-01
 -1      2678 8.06186E-01
 -1      2679 1.91427E+01
 -1      2680 2.44502E+01
 -1      2681 5.65591E-01
 -1      2682 5.32385E-01
 -1      2683 6.28493E-01
 -1      2684 9.44999E-01
 -1      2685 7.31011E+00
 -1      2686 6.21597E+00
 -1      2687 4.39950E-01
 -1      2688 4.05337E-01
 -1      2689 4.15362E-01
 -1      2690 4.30790E-01
 -1      2691 4.63251E-01
 -1      2692 4.61100E-01
 -1      2693 4.85658E-01
 -1      2694 5.03587E-01
 -1      2695 5.30586E-01
 -1      2696 5.49285E-01
 -1      2697 5.78826E-01
 -1      2698 5.95956E-01
 -1      2699 6.46161E-01
 -1      2700 6.70424E-01
 -1      2701 7.01682E-01
 -1      2702 7.77192E-01
 -1      2703 7.72616E-01
 -1      2704 8.97438E-01
 -1      2705 9.39340E-01
 -1      2706 9.48384E-01
 -1      2707 1.11379E+00
 -1      2708 1.27578E+00
 -1      2709 1.24308E+00
 -1      2710 1.37434E+00
 -1      2711 1.44936E+00
 -1      2712 1.51609E+00
 -1      2713 1.45045E+00
 -1      2714 1.54222E+00
 -1      2715 1.61575E+00
 -1      2716 1.76311E+00
 -1      2717 1.92546E+00
 -1      2718 1.83774E+00
 -1      2719 2.17087E+00
 -1      2720 2.10058E+00
 -1      2721 2.30404E+00
 -1      2722 2.41020E+00
 -1      2723 2.50345E+00
 -1      2724 2.85907E+00
 -1      2725 1.95684E+00
 -1      2726 1.78722E+00
 -1      2727 2.62208E+00
 -1      2728 1.49896E+00
 -1      2729 1.39970E+00
 -1      2730 1.78722E+00
 -1      2731 1.41816E+00
 -1      2732 1.31508E+00
 -1      2733 1.51741E+00
 -1      2734 1.22332E+00
 -1      2735 1.08250E+00
 -1      2736 1.44412E+00
 -1      2737 1.00853E+00
 -1      2738 9.81328E-01
 -1      2739 1.27839E+00
 -1      2740 8.36854E-01
 -1      2741 7.64878E-01
 -1      2742 1.05994E+00
 -1      2743 7.34052E-01
 -1      2744 7.43655E-01
 -1      2745 8.84640E-01
 -1      2746 6.95982E-01
 -1      2747 6.83761E-01
 -1      2748 8.06141E-01
 -1      2749 6.27510E-01
 -1      2750 5.99130E-01
 -1      2751 7.02216E-01
 -1      2752 5.54839E-01
 -1      2753 5.29765E-01
 -1      2754 6.01674E-01
 -1      2755 4.95366E-01
 -1      2756 4.67431E-01
 -1      2757 5.22983E-01
 -1      2758 4.29698E-01
 -1      2759 3.97528E-01
 -1      2760 4.50851E-01
 -1      2761 3.60518E-01
 -1      2762 3.26769E-01
 -1      2763 3.76108E-01
 -1      2764 2.92840E-01
 -1      2765 2.60788E-01
 -1      2766 3.05169E-01
 -1      2767 2.31103E-01
 -1      2768 2.02582E-01
 -1      2769 2.41555E-01
 -1      2770 1.77521E-01
 -1      2771 1.53321E-01
 -1      2772 1.86810E-01
 -1      2773 1.32772E-01
 -1      2774 1.13000E-01
 -1      2775 1.41200E-01
 -1      2776 9.65765E-02
 -1      2777 8.09357E-02
 -1      2778 1.04228E-01
 -1      2779 6.81139E-02
 -1      2780 5.60999E-02
 -1      2781 7.49820E-02
 -1      2782 4.63176E-02
 -1      2783 3.73514E-02
 -1      2784 5.23779E-02
 -1      2785 3.00626E-02
 -1      2786 2.51474E-02
 -1      2787 3.53067E-02
 -1      2788 1.98553E-02
 -1      2789 1.73425E-02
 -1      2790 2.27258E-02
 -1      2791 1.39369E-02
 -1      2792 1.27473E-02
 -1      2793 1.40282E-02
 -1      2794 1.17214E-02
 -1      2795 1.04366E-02
 -1      2796 9.59675E-03
 -1      2797 1.00448E-02
 -1      2798 8.76715E-03
 -1      2799 8.17899E-03
 -1      2800 8.18686E-03
 -1      2801 6.98111E-03
 -1      2802 7.20683E-03
 -1      2803 6.31516E-03
 -1      2804 5.61762E-03
 -1      2805 5.96059E-03
 -1      2806 4.95865E-03
 -1      2807 4.26829E-03
 -1      2808 4.63567E-03
 -1      2809 3.82134E-03
 -1      2810 3.19168E-03
 -1      2811 3.52975E-03
 -1      2812 1.23515E+00
 -1      2813 1.13808E+00
 -1      2814 2.12479E+01
 -1      2815 2.54502E+01
 -1      2816 1.00248E+00
 -1      2817 8.87118E-01
 -1      2818 1.10150E+00
 -1      2819 1.77124E+00
 -1      2820 1.62703E+00
 -1      2821 2.18598E+00
 -1      2822 2.07293E+00
 -1      2823 2.13474E+00
 -1      2824 2.50144E+00
 -1      2825 2.40865E+00
 -1      2826 2.65910E+00
 -1      2827 3.54528E+00
 -1      2828 3.20862E+00
 -1      2829 3.58896E+00
 -1      2830 4.42464E+00
 -1      2831 4.14398E+00
 -1      2832 4.89484E+00
 -1      2833 5.48585E+00
 -1      2834 4.42080E+00
 -1      2835 4.79029E+00
 -1      2836 5.64735E+00
 -1      2837 3.80845E+00
 -1      2838 3.74381E+00
 -1      2839 3.76507E+00
 -1      2840 3.68790E+00
 -1      2841 2.41595E+00
 -1      2842 2.52379E+00
 -1      2843 4.10703E+00
 -1      2844 1.99265E+00
 -1      2845 2.10775E+00
 -1      2846 2.55756E+00
 -1      2847 1.67406E+00
 -1      2848 1.79990E+00
 -1      2849 2.05660E+00
 -1      2850 1.47361E+00
 -1      2851 1.53285E+00
 -1      2852 1.72264E+00
 -1      2853 1.24386E+00
 -1      2854 1.33384E+00
 -1      2855 1.44167E+00
 -1      2856 1.01661E+00
 -1      2857 1.11782E+00
 -1      2858 1.17585E+00
 -1      2859 8.10066E-01
 -1      2860 9.08026E-01
 -1      2861 9.41222E-01
 -1      2862 6.31910E-01
 -1      2863 7.19069E-01
 -1      2864 7.41643E-01
 -1      2865 4.83685E-01
 -1      2866 5.57168E-01
 -1      2867 5.75905E-01
 -1      2868 3.63651E-01
 -1      2869 4.23324E-01
 -1      2870 4.40803E-01
 -1      2871 2.68533E-01
 -1      2872 3.15647E-01
 -1      2873 3.32439E-01
 -1      2874 1.94548E-01
 -1      2875 2.30911E-01
 -1      2876 2.46813E-01
 -1      2877 1.37971E-01
 -1      2878 1.65482E-01
 -1      2879 1.80125E-01
 -1      2880 9.54143E-02
 -1      2881 1.15840E-01
 -1      2882 1.28929E-01
 -1      2883 6.39461E-02
 -1      2884 7.88192E-02
 -1      2885 9.02027E-02
 -1      2886 4.34059E-02
 -1      2887 5.17076E-02
 -1      2888 6.13692E-02
 -1      2889 2.95881E-02
 -1      2890 3.45489E-02
 -1      2891 4.02737E-02
 -1      2892 2.12267E-02
 -1      2893 2.33615E-02
 -1      2894 2.51901E-02
 -1      2895 1.62585E-02
 -1      2896 1.83653E-02
 -1      2897 1.61022E-02
 -1      2898 1.36135E-02
 -1      2899 1.55875E-02
 -1      2900 1.25699E-02
 -1      2901 1.09512E-02
 -1      2902 1.27392E-02
 -1      2903 1.10246E-02
 -1      2904 8.69303E-03
 -1      2905 9.99810E-03
 -1      2906 9.19719E-03
 -1      2907 6.88665E-03
 -1      2908 7.74366E-03
 -1      2909 7.29468E-03
 -1      2910 5.24572E-03
 -1      2911 6.14865E-03
 -1      2912 5.60730E-03
 -1      2913 3.87741E-03
 -1      2914 4.64664E-03
 -1      2915 4.27022E-03
 -1      2916 3.01362E-03
 -1      2917 3.63104E-03
 -1      2918 3.42477E-03
 -1      2919 2.85878E-03
 -1      2920 1.64774E-03
 -1      2921 1.68599E-03
 -1      2922 2.76299E-03
 -1      2923 2.17200E-03
 -1      2924 2.65410E-03
 -1      2925 1.89607E-03
 -1      2926 1.89607E-03
 -1      2927 1.66934E-03
 -1      2928 1.64638E-03
 -1      2929 1.64774E-03
 -1      2930 1.78901E-03
 -1      2931 1.81323E-03
 -1      2932 1.93798E-03
 -1      2933 1.75212E-03
 -1      2934 7.77223E-01
 -1      2935 6.67793E-01
 -1      2936 6.43909E-01
 -1      2937 8.56005E-01
 -1      2938 1.54474E+01
 -1      2939 2.05172E+01
 -1      2940 1.75406E-03
 -1      2941 1.74167E-03
 -1      2942 1.71871E-03
 -1      2943 1.82668E-03
 -1      2944 1.82668E-03
 -1      2945 1.86365E-03
 -1      2946 1.80466E-03
 -1      2947 1.85040E-03
 -1      2948 1.95999E-03
 -1      2949 2.23264E+01
 -1      2950 1.70127E+01
 -1      2951 1.90649E-03
 -1      2952 4.19171E+00
 -1      2953 5.52562E+00
 -1      2954 2.65703E+01
 -1      2955 2.17781E+01
 -1      2956 1.05123E+00
 -1      2957 1.05357E+01
 -1      2958 8.33252E+00
 -1      2959 4.76341E+00
 -1      2960 6.08029E+00
 -1      2961 1.24306E+01
 -1      2962 1.73020E+01
 -1      2963 1.34769E+01
 -1      2964 8.73302E+00
 -1      2965 1.09598E+01
 -1      2966 1.47916E+00
 -1      2967 1.38526E+00
 -1      2968 1.38720E+00
 -1      2969 1.68518E+00
 -1      2970 6.40231E-01
 -1      2971 5.25355E-01
 -1      2972 5.38631E-01
 -1      2973 6.39917E+00
 -1      2974 6.93806E+00
 -1      2975 4.65896E+00
 -1      2976 5.38513E-01
 -1      2977 4.91858E-01
 -1      2978 4.16527E-01
 -1      2979 5.53574E-01
 -1      2980 6.92208E+00
 -1      2981 6.39150E+00
 -1      2982 6.19993E+00
 -1      2983 7.37930E+00
 -1      2984 8.97258E+00
 -1      2985 6.62727E+00
 -1      2986 5.08643E+00
 -1      2987 4.20980E+00
 -1      2988 1.33377E+01
 -1      2989 1.06013E+01
 -1      2990 2.36300E+01
 -1      2991 2.14537E+01
 -1      2992 7.92503E+00
 -1      2993 9.84682E+00
 -1      2994 5.94970E+00
 -1      2995 5.48969E+00
 -1      2996 5.02128E-01
 -1      2997 5.38340E-01
 -1      2998 2.06308E+01
 -1      2999 1.54052E+01
 -1      3000 1.53884E+01
 -1      3001 5.67608E+00
 -1      3002 4.58823E+00
 -1      3003 1.46259E+01
 -1      3004 1.17974E+01
 -1      3005 7.34916E+00
 -1      3006 6.83622E+00
 -1      3007 6.30740E+00
 -1      3008 7.12650E+00
 -1      3009 6.30885E-01
 -1      3010 8.53359E-01
 -1      3011 5.62945E-01
 -1      3012 2.57921E-01
 -1      3013 3.23342E-01
 -1      3014 3.71481E-01
 -1      3015 8.54093E-01
 -1      3016 1.44974E+01
 -1      3017 4.85493E+00
 -1      3018 6.06941E+00
 -1      3019 5.51652E+00
 -1      3020 7.10309E+00
 -1      3021 4.78511E+00
 -1      3022 6.01475E+00
 -1      3023 1.30359E+01
 -1      3024 2.08003E-03
 -1      3025 1.95528E-03
 -1      3026 1.93071E-03
 -1      3027 1.36362E+01
 -1      3028 2.47910E+01
 -1      3029 1.47563E+01
 -1      3030 1.35647E+01
 -1      3031 6.15428E+00
 -1      3032 4.79595E+00
 -1      3033 5.63897E+00
 -1      3034 5.81535E+00
 -1      3035 5.01861E+00
 -1      3036 5.66766E+00
 -1      3037 4.00725E+00
 -1      3038 4.89773E+00
 -1      3039 2.00822E-03
 -1      3040 2.41670E-03
 -1      3041 2.73632E-03
 -1      3042 2.21674E-03
 -1      3043 1.45500E+01
 -1      3044 1.92550E-03
 -1      3045 6.39439E+00
 -1      3046 1.21736E+01
 -1      3047 4.95114E+00
 -1      3048 1.01653E+01
 -1      3049 3.85635E+00
 -1      3050 3.80351E+00
 -1      3051 3.41503E+00
 -1      3052 3.93358E+00
 -1      3053 2.96171E+00
 -1      3054 9.80127E-01
 -1      3055 9.80127E-01
 -1      3056 7.82725E-01
 -1      3057 7.82257E-01
 -1      3058 9.38730E+00
 -1      3059 9.88141E+00
 -1      3060 6.91205E-01
 -1      3061 4.17046E-01
 -1      3062 4.62482E-01
 -1      3063 4.30753E-01
 -1      3064 3.45543E-01
 -1      3065 7.34073E+00
 -1      3066 8.47741E+00
 -1      3067 7.66531E-01
 -1      3068 1.21789E+01
 -1      3069 2.31005E-03
 -1      3070 2.01015E-03
 -1      3071 2.18920E-03
 -1      3072 2.73874E-03
 -1      3073 1.18109E+01
 -1      3074 1.09907E+01
 -1      3075 6.43090E-01
 -1      3076 6.14159E-01
 -1      3077 5.98600E-01
 -1      3078 5.13194E-01
 -1      3079 8.64968E+00
 -1      3080 7.02094E+00
 -1      3081 5.23594E-01
 -1      3082 5.53904E-01
 -1      3083 6.12289E-01
 -1      3084 6.57218E-01
 -1      3085 6.32297E-01
 -1      3086 7.47803E-01
 -1      3087 7.94473E-01
 -1      3088 7.81267E-01
 -1      3089 9.02286E-01
 -1      3090 9.57807E-01
 -1      3091 9.79664E-01
 -1      3092 1.05927E+00
 -1      3093 1.17952E+00
 -1      3094 1.18894E+00
 -1      3095 1.27398E+00
 -1      3096 1.44843E+00
 -1      3097 1.38486E+00
 -1      3098 1.90244E+00
 -1      3099 2.00101E+00
 -1      3100 1.93334E+00
 -1      3101 2.15062E+00
 -1      3102 2.15172E+00
 -1      3103 2.53698E+00
 -1      3104 2.18861E+00
 -1      3105 2.40950E+00
 -1      3106 2.72348E+00
 -1      3107 3.04813E+00
 -1      3108 3.29354E+00
 -1      3109 3.39900E+00
 -1      3110 3.46855E+00
 -1      3111 3.77817E+00
 -1      3112 4.21264E+00
 -1      3113 2.16736E+00
 -1      3114 1.87910E+00
 -1      3115 1.54218E+00
 -1      3116 1.56063E+00
 -1      3117 1.92232E+00
 -1      3118 2.00146E+00
 -1      3119 1.90970E+00
 -1      3120 2.02622E+00
 -1      3121 1.60524E+00
 -1      3122 1.53126E+00
 -1      3123 2.16258E+00
 -1      3124 1.32473E+00
 -1      3125 1.18026E+00
 -1      3126 1.65158E+00
 -1      3127 1.07185E+00
 -1      3128 1.04103E+00
 -1      3129 1.33664E+00
 -1      3130 9.27034E-01
 -1      3131 8.79361E-01
 -1      3132 1.11425E+00
 -1      3133 7.75192E-01
 -1      3134 7.18941E-01
 -1      3135 8.96085E-01
 -1      3136 6.60358E-01
 -1      3137 6.16067E-01
 -1      3138 7.33334E-01
 -1      3139 5.57785E-01
 -1      3140 5.23386E-01
 -1      3141 6.16470E-01
 -1      3142 4.72513E-01
 -1      3143 4.34780E-01
 -1      3144 5.07315E-01
 -1      3145 3.88510E-01
 -1      3146 3.51501E-01
 -1      3147 4.10172E-01
 -1      3148 3.11585E-01
 -1      3149 2.77655E-01
 -1      3150 3.23987E-01
 -1      3151 2.44972E-01
 -1      3152 2.15288E-01
 -1      3153 2.51388E-01
 -1      3154 1.90617E-01
 -1      3155 1.65556E-01
 -1      3156 1.94034E-01
 -1      3157 1.44479E-01
 -1      3158 1.23930E-01
 -1      3159 1.48286E-01
 -1      3160 1.06629E-01
 -1      3161 9.02046E-02
 -1      3162 1.09907E-01
 -1      3163 7.70269E-02
 -1      3164 6.42052E-02
 -1      3165 7.94277E-02
 -1      3166 5.42468E-02
 -1      3167 4.44645E-02
 -1      3168 5.62917E-02
 -1      3169 3.72226E-02
 -1      3170 2.99338E-02
 -1      3171 3.90916E-02
 -1      3172 2.45868E-02
 -1      3173 1.92947E-02
 -1      3174 2.65027E-02
 -1      3175 1.54331E-02
 -1      3176 1.20275E-02
 -1      3177 1.72940E-02
 -1      3178 9.31329E-03
 -1      3179 8.28741E-03
 -1      3180 1.07182E-02
 -1      3181 6.70212E-03
 -1      3182 6.31024E-03
 -1      3183 6.41867E-03
 -1      3184 6.23319E-03
 -1      3185 5.65291E-03
 -1      3186 4.75632E-03
 -1      3187 5.51203E-03
 -1      3188 4.84607E-03
 -1      3189 4.53839E-03
 -1      3190 4.53054E-03
 -1      3191 3.87158E-03
 -1      3192 4.08198E-03
 -1      3193 3.44753E-03
 -1      3194 3.00057E-03
 -1      3195 2.65652E-03
 -1      3196 3.34240E-03
 -1      3197 1.04518E+01
 -1      3198 1.11070E+01
 -1      3199 1.33562E+01
 -1      3200 1.22090E+01
 -1      3201 4.18485E+00
 -1      3202 3.96217E+00
 -1      3203 2.73738E+00
 -1      3204 2.43569E+00
 -1      3205 4.26313E+00
 -1      3206 6.34337E+00
 -1      3207 5.74467E+00
 -1      3208 8.90146E+00
 -1      3209 7.63967E+00
 -1      3210 4.10703E+00
 -1      3211 5.34831E+00
 -1      3212 1.78310E+00
 -1      3213 1.92431E+00
 -1      3214 1.39374E+00
 -1      3215 1.53352E+00
 -1      3216 1.73518E+00
 -1      3217 1.10112E+00
 -1      3218 1.22716E+00
 -1      3219 1.31901E+00
 -1      3220 8.72852E-01
 -1      3221 9.81434E-01
 -1      3222 1.03275E+00
 -1      3223 6.80592E-01
 -1      3224 7.71588E-01
 -1      3225 8.11800E-01
 -1      3226 5.21319E-01
 -1      3227 5.96061E-01
 -1      3228 6.26006E-01
 -1      3229 3.92747E-01
 -1      3230 4.53108E-01
 -1      3231 4.73264E-01
 -1      3232 2.91016E-01
 -1      3233 3.39019E-01
 -1      3234 3.51325E-01
 -1      3235 2.11879E-01
 -1      3236 2.49501E-01
 -1      3237 2.56082E-01
 -1      3238 1.53324E-01
 -1      3239 1.82390E-01
 -1      3240 1.85077E-01
 -1      3241 1.10154E-01
 -1      3242 1.32285E-01
 -1      3243 1.34549E-01
 -1      3244 7.74320E-02
 -1      3245 9.40270E-02
 -1      3246 9.73830E-02
 -1      3247 5.29956E-02
 -1      3248 6.52341E-02
 -1      3249 6.90584E-02
 -1      3250 3.50543E-02
 -1      3251 4.39113E-02
 -1      3252 4.77763E-02
 -1      3253 2.21833E-02
 -1      3254 2.84098E-02
 -1      3255 3.20474E-02
 -1      3256 1.45652E-02
 -1      3257 1.74266E-02
 -1      3258 2.06463E-02
 -1      3259 1.05783E-02
 -1      3260 1.12493E-02
 -1      3261 1.25737E-02
 -1      3262 8.37821E-03
 -1      3263 9.25249E-03
 -1      3264 7.93190E-03
 -1      3265 7.28755E-03
 -1      3266 8.24068E-03
 -1      3267 6.46857E-03
 -1      3268 5.96187E-03
 -1      3269 6.91125E-03
 -1      3270 5.95474E-03
 -1      3271 4.71976E-03
 -1      3272 5.45776E-03
 -1      3273 5.07433E-03
 -1      3274 3.55994E-03
 -1      3275 4.15902E-03
 -1      3276 4.00948E-03
 -1      3277 3.03001E-03
 -1      3278 3.27639E-03
 -1      3279 3.16518E-03
 -1      3280 2.58794E-03
 -1      3281 3.75128E-01
 -1      3282 3.15472E-01
 -1      3283 1.60601E-03
 -1      3284 1.60737E-03
 -1      3285 1.11498E+01
 -1      3286 1.18805E+01
 -1      3287 1.97897E-03
 -1      3288 1.95525E-03
 -1      3289 6.17111E+00
 -1      3290 1.71647E-03
 -1      3291 1.64414E-03
 -1      3292 1.60378E-03
 -1      3293 1.12436E+01
 -1      3294 1.21164E+01
 -1      3295 6.85238E+00
 -1      3296 5.82996E+00
 -1      3297 5.66766E+00
 -1      3298 1.86365E-03
 -1      3299 1.79104E-03
 -1      3300 1.71647E-03
 -1      3301 1.88264E-03
 -1      3302 4.21234E+00
 -1      3303 6.05709E+00
 -1      3304 2.30369E+00
 -1      3305 2.49644E+00
 -1      3306 2.36415E+00
 -1      3307 2.98567E+00
 -1      3308 3.29387E+00
 -1      3309 4.53514E+00
 -1      3310 3.23275E+00
 -1      3311 1.12425E+01
 -1      3312 9.17502E+00
 -1      3313 4.76908E+00
 -1      3314 4.05366E+00
 -1      3315 1.00116E+01
 -1      3316 1.18523E+01
 -1      3317 5.64765E+00
 -1      3318 4.94047E+00
 -1      3319 6.24354E+00
 -1      3320 7.09618E+00
 -1      3321 1.18407E+00
 -1      3322 1.04847E+00
 -1      3323 3.53670E+00
 -1      3324 4.41025E+00
 -1      3325 3.80845E+00
 -1      3326 5.11065E+00
 -1      3327 4.89773E+00
 -1      3328 3.10353E+00
 -1      3329 3.08544E+00
 -1      3330 5.17262E-01
 -1      3331 5.27287E-01
 -1      3332 5.77605E-01
 -1      3333 2.92482E+00
 -1      3334 3.61812E+00
 -1      3335 7.66531E-01
 -1      3336 6.24037E-01
 -1      3337 6.39763E-01
 -1      3338 6.61212E-01
 -1      3339 6.37138E-01
 -1      3340 6.13097E-01
 -1      3341 5.74426E-01
 -1      3342 5.10364E+00
 -1      3343 3.97410E+00
 -1      3344 7.11163E+00
 -1      3345 8.75391E+00
 -1      3346 7.68201E+00
 -1      3347 7.72958E+00
 -1      3348 9.20043E+00
 -1      3349 4.96007E+00
 -1      3350 4.94409E+00
 -1      3351 1.21069E+01
 -1      3352 9.72006E+00
 -1      3353 8.80055E+00
 -1      3354 2.38584E-01
 -1      3355 2.80641E-01
 -1      3356 3.38192E-01
 -1      3357 6.19049E-01
 -1      3358 6.14159E-01
 -1      3359 5.58464E-01
 -1      3360 5.77231E-01
 -1      3361 3.25603E+00
 -1      3362 3.83782E+00
 -1      3363 3.22834E+00
 -1      3364 2.02082E-03
 -1      3365 2.08003E-03
 -1      3366 1.12213E+01
 -1      3367 8.45092E+00
 -1      3368 1.01780E+01
 -1      3369 8.49378E+00
 -1      3370 2.68174E+00
 -1      3371 2.77361E+00
 -1      3372 1.19416E+01
 -1      3373 8.76219E+00
 -1      3374 1.01623E+01
 -1      3375 9.21035E+00
 -1      3376 1.01903E+00
 -1      3377 9.36457E-01
 -1      3378 8.26563E-01
 -1      3379 2.57916E+00
 -1      3380 1.97652E+00
 -1      3381 1.82865E+00
 -1      3382 6.36654E+00
 -1      3383 1.37536E+00
 -1      3384 1.32233E+00
 -1      3385 1.52547E+00
 -1      3386 4.03344E-01
 -1      3387 4.43296E-01
 -1      3388 4.84695E-01
 -1      3389 1.86481E-03
 -1      3390 1.94765E-03
 -1      3391 1.94765E-03
 -1      3392 7.98592E+00
 -1      3393 1.06725E+01
 -1      3394 8.23891E+00
 -1      3395 1.65536E-03
 -1      3396 1.75838E-03
 -1      3397 1.76805E-03
 -1      3398 1.61364E-03
 -1      3399 3.56757E+00
 -1      3400 5.74962E+00
 -1      3401 4.62212E+00
 -1      3402 3.28081E+00
 -1      3403 4.85292E+00
 -1      3404 8.34554E+00
 -1      3405 7.71855E+00
 -1      3406 3.80845E+00
 -1      3407 7.57585E+00
 -1      3408 3.41503E+00
 -1      3409 3.02233E+00
 -1      3410 5.98600E-01
 -1      3411 2.72348E+00
 -1      3412 2.39469E-03
 -1      3413 2.18920E-03
 -1      3414 2.18446E-03
 -1      3415 2.65652E-03
 -1      3416 4.92506E-01
 -1      3417 5.85051E-01
 -1      3418 5.69325E-01
 -1      3419 7.02138E+00
 -1      3420 7.97243E+00
 -1      3421 4.13206E-01
 -1      3422 4.52852E-01
 -1      3423 4.74958E-01
 -1      3424 7.59101E-01
 -1      3425 6.56899E-01
 -1      3426 6.89618E-01
 -1      3427 8.39553E-01
 -1      3428 7.62152E+00
 -1      3429 8.40660E+00
 -1      3430 1.01623E+01
 -1      3431 8.33759E-01
 -1      3432 9.24345E-01
 -1      3433 1.04858E+00
 -1      3434 1.15640E+00
 -1      3435 1.10108E+00
 -1      3436 1.36768E+00
 -1      3437 1.46914E+00
 -1      3438 1.43660E+00
 -1      3439 2.03186E+00
 -1      3440 2.12633E+00
 -1      3441 2.21060E+00
 -1      3442 2.36972E+00
 -1      3443 2.82373E+00
 -1      3444 3.13120E+00
 -1      3445 3.28081E+00
 -1      3446 2.68659E+00
 -1      3447 2.72348E+00
 -1      3448 2.32235E+00
 -1      3449 5.47955E-01
 -1      3450 6.02668E-01
 -1      3451 5.77231E-01
 -1      3452 3.08649E+00
 -1      3453 2.78203E+00
 -1      3454 2.08405E+00
 -1      3455 1.87752E+00
 -1      3456 3.00797E+00
 -1      3457 1.61292E+00
 -1      3458 1.50452E+00
 -1      3459 2.04540E+00
 -1      3460 1.28941E+00
 -1      3461 1.17542E+00
 -1      3462 1.56569E+00
 -1      3463 1.05178E+00
 -1      3464 9.47607E-01
 -1      3465 1.22694E+00
 -1      3466 8.25800E-01
 -1      3467 7.67218E-01
 -1      3468 9.81491E-01
 -1      3469 6.65449E-01
 -1      3470 6.07167E-01
 -1      3471 7.57915E-01
 -1      3472 5.40743E-01
 -1      3473 4.89870E-01
 -1      3474 5.89723E-01
 -1      3475 4.38295E-01
 -1      3476 3.92025E-01
 -1      3477 4.71723E-01
 -1      3478 3.55173E-01
 -1      3479 3.15257E-01
 -1      3480 3.83295E-01
 -1      3481 2.80982E-01
 -1      3482 2.48298E-01
 -1      3483 3.12168E-01
 -1      3484 2.18107E-01
 -1      3485 1.93436E-01
 -1      3486 2.47700E-01
 -1      3487 1.67843E-01
 -1      3488 1.46766E-01
 -1      3489 1.91915E-01
 -1      3490 1.25716E-01
 -1      3491 1.08414E-01
 -1      3492 1.45273E-01
 -1      3493 9.15456E-02
 -1      3494 7.83679E-02
 -1      3495 1.07355E-01
 -1      3496 6.51671E-02
 -1      3497 5.52088E-02
 -1      3498 7.72850E-02
 -1      3499 4.53680E-02
 -1      3500 3.81261E-02
 -1      3501 5.42434E-02
 -1      3502 3.09981E-02
 -1      3503 2.56511E-02
 -1      3504 3.72746E-02
 -1      3505 2.03745E-02
 -1      3506 1.65130E-02
 -1      3507 2.48700E-02
 -1      3508 1.27057E-02
 -1      3509 9.99145E-03
 -1      3510 1.57862E-02
 -1      3511 7.34464E-03
 -1      3512 5.75934E-03
 -1      3513 9.33213E-03
 -1      3514 4.00875E-03
 -1      3515 3.93170E-03
 -1      3516 4.93472E-03
 -1      3517 3.69669E-03
 -1      3518 3.55581E-03
 -1      3519 2.94912E-03
 -1      3520 3.65184E-03
 -1      3521 3.33631E-03
 -1      3522 2.81014E-03
 -1      3523 1.31901E+00
 -1      3524 1.48559E+00
 -1      3525 5.25664E+00
 -1      3526 4.03184E+00
 -1      3527 2.32505E-03
 -1      3528 2.40256E-03
 -1      3529 2.69625E-03
 -1      3530 2.26584E-03
 -1      3531 1.70960E+00
 -1      3532 1.95919E+00
 -1      3533 1.70960E+00
 -1      3534 7.92470E-01
 -1      3535 8.93733E-01
 -1      3536 6.03481E-01
 -1      3537 6.88011E-01
 -1      3538 7.69945E-01
 -1      3539 4.53982E-01
 -1      3540 5.22193E-01
 -1      3541 5.84199E-01
 -1      3542 3.37102E-01
 -1      3543 3.90830E-01
 -1      3544 4.39760E-01
 -1      3545 2.46718E-01
 -1      3546 2.88233E-01
 -1      3547 3.27739E-01
 -1      3548 1.79646E-01
 -1      3549 2.09135E-01
 -1      3550 2.41287E-01
 -1      3551 1.29943E-01
 -1      3552 1.50982E-01
 -1      3553 1.75040E-01
 -1      3554 9.21786E-02
 -1      3555 1.08305E-01
 -1      3556 1.24738E-01
 -1      3557 6.42410E-02
 -1      3558 7.64389E-02
 -1      3559 8.73612E-02
 -1      3560 4.38679E-02
 -1      3561 5.29522E-02
 -1      3562 6.03326E-02
 -1      3563 2.89381E-02
 -1      3564 3.55826E-02
 -1      3565 4.07586E-02
 -1      3566 1.82483E-02
 -1      3567 2.30050E-02
 -1      3568 2.65402E-02
 -1      3569 1.07996E-02
 -1      3570 1.41156E-02
 -1      3571 1.64743E-02
 -1      3572 6.73591E-03
 -1      3573 8.06171E-03
 -1      3574 9.60363E-03
 -1      3575 5.16358E-03
 -1      3576 5.30111E-03
 -1      3577 5.43093E-03
 -1      3578 4.66615E-03
 -1      3579 5.04246E-03
 -1      3580 3.87500E-03
 -1      3581 4.13262E-03
 -1      3582 4.63673E-03
 -1      3583 3.72445E-03
 -1      3584 7.09809E+00
 -1      3585 6.27949E+00
 -1      3586 7.31147E+00
 -1      3587 7.30196E+00
 -1      3588 5.60901E+00
 -1      3589 6.12790E+00
 -1      3590 5.34060E+00
 -1      3591 2.29089E+00
 -1      3592 2.67028E+00
 -1      3593 2.26532E+00
 -1      3594 6.93794E-01
 -1      3595 6.99746E-01
 -1      3596 7.76267E-01
 -1      3597 3.11142E-01
 -1      3598 3.56707E-01
 -1      3599 3.78805E-01
 -1      3600 2.91805E-01
 -1      3601 6.68822E-01
 -1      3602 7.27207E-01
 -1      3603 8.70285E-01
 -1      3604 8.58798E+00
 -1      3605 7.62152E+00
 -1      3606 5.81298E-01
 -1      3607 1.02801E+00
 -1      3608 1.14769E+00
 -1      3609 1.00867E+00
 -1      3610 5.96438E-01
 -1      3611 5.92745E-01
 -1      3612 6.87656E-01
 -1      3613 1.56927E-03
 -1      3614 1.53114E-03
 -1      3615 7.52445E+00
 -1      3616 7.48299E+00
 -1      3617 6.01559E+00
 -1      3618 7.71347E+00
 -1      3619 4.64260E+00
 -1      3620 3.91627E+00
 -1      3621 1.98543E+00
 -1      3622 5.94625E+00
 -1      3623 6.75740E+00
 -1      3624 5.89486E+00
 -1      3625 2.85600E+00
 -1      3626 3.29682E+00
 -1      3627 6.99746E-01
 -1      3628 6.46640E+00
 -1      3629 7.03755E+00
 -1      3630 5.53896E+00
 -1      3631 6.99915E+00
 -1      3632 6.78450E+00
 -1      3633 6.43655E+00
 -1      3634 7.85116E+00
 -1      3635 6.26234E+00
 -1      3636 3.01671E+00
 -1      3637 4.97274E-01
 -1      3638 5.30617E-01
 -1      3639 4.57619E-01
 -1      3640 1.31427E+00
 -1      3641 3.29417E-03
 -1      3642 2.87012E-03
 -1      3643 2.60829E-03
 -1      3644 2.86404E-03
 -1      3645 1.13079E+00
 -1      3646 1.01877E+00
 -1      3647 4.10772E+00
 -1      3648 3.11420E+00
 -1      3649 2.65504E+00
 -1      3650 7.26146E+00
 -1      3651 6.20245E+00
 -1      3652 6.28963E+00
 -1      3653 1.81681E+00
 -1      3654 1.70800E-03
 -1      3655 1.63344E-03
 -1      3656 1.56081E-03
 -1      3657 5.45280E-01
 -1      3658 4.42489E+00
 -1      3659 5.23806E+00
 -1      3660 5.25355E+00
 -1      3661 4.40395E+00
 -1      3662 3.34347E-03
 -1      3663 3.90421E-03
 -1      3664 2.97980E-03
 -1      3665 6.90203E+00
 -1      3666 6.58388E+00
 -1      3667 6.08095E+00
 -1      3668 1.51867E-03
 -1      3669 1.56665E-03
 -1      3670 1.48416E-03
 -1      3671 3.26399E+00
 -1      3672 4.62600E+00
 -1      3673 4.65746E+00
 -1      3674 3.02060E+00
 -1      3675 2.10812E-03
 -1      3676 2.18129E-03
 -1      3677 7.34759E+00
 -1      3678 6.05650E+00
 -1      3679 3.25928E+00
 -1      3680 3.74850E+00
 -1      3681 4.45142E+00
 -1      3682 3.18603E+00
 -1      3683 6.24354E+00
 -1      3684 1.51206E+00
 -1      3685 1.32077E+00
 -1      3686 1.32052E+00
 -1      3687 5.21096E-01
 -1      3688 4.92880E-01
 -1      3689 2.78998E-03
 -1      3690 2.62951E-03
 -1      3691 5.96438E-01
 -1      3692 6.01225E+00
 -1      3693 5.52587E-01
 -1      3694 4.74787E-01
 -1      3695 3.97899E-01
 -1      3696 3.46661E-03
 -1      3697 2.39807E-03
 -1      3698 2.87453E-03
 -1      3699 2.32178E-03
 -1      3700 1.89795E-03
 -1      3701 1.80635E-03
 -1      3702 2.36392E-03
 -1      3703 1.53495E+00
 -1      3704 1.74624E+00
 -1      3705 2.05776E+00
 -1      3706 2.62048E+00
 -1      3707 2.86775E+00
 -1      3708 2.15611E+00
 -1      3709 2.76037E+00
 -1      3710 5.21847E+00
 -1      3711 7.80444E-01
 -1      3712 6.99746E-01
 -1      3713 2.30999E+00
 -1      3714 2.04540E+00
 -1      3715 1.87792E+00
 -1      3716 1.66281E+00
 -1      3717 2.14251E+00
 -1      3718 1.45794E+00
 -1      3719 1.33430E+00
 -1      3720 1.77016E+00
 -1      3721 1.10172E+00
 -1      3722 9.79911E-01
 -1      3723 1.33272E+00
 -1      3724 8.44574E-01
 -1      3725 7.42806E-01
 -1      3726 9.64802E-01
 -1      3727 6.48522E-01
 -1      3728 5.82098E-01
 -1      3729 7.35181E-01
 -1      3730 5.23299E-01
 -1      3731 4.71723E-01
 -1      3732 5.82098E-01
 -1      3733 4.19765E-01
 -1      3734 3.82913E-01
 -1      3735 4.71341E-01
 -1      3736 3.38612E-01
 -1      3737 3.04337E-01
 -1      3738 3.75082E-01
 -1      3739 2.67421E-01
 -1      3740 2.37229E-01
 -1      3741 2.93866E-01
 -1      3742 2.07006E-01
 -1      3743 1.81412E-01
 -1      3744 2.26726E-01
 -1      3745 1.57055E-01
 -1      3746 1.36006E-01
 -1      3747 1.72145E-01
 -1      3748 1.16673E-01
 -1      3749 9.98043E-02
 -1      3750 1.28455E-01
 -1      3751 8.46968E-02
 -1      3752 7.14960E-02
 -1      3753 9.40153E-02
 -1      3754 5.98813E-02
 -1      3755 5.00405E-02
 -1      3756 6.72931E-02
 -1      3757 4.12663E-02
 -1      3758 3.41383E-02
 -1      3759 4.69041E-02
 -1      3760 2.79976E-02
 -1      3761 2.27210E-02
 -1      3762 3.19893E-02
 -1      3763 1.82719E-02
 -1      3764 1.44646E-02
 -1      3765 2.13995E-02
 -1      3766 1.12519E-02
 -1      3767 8.60505E-03
 -1      3768 1.37376E-02
 -1      3769 6.34378E-03
 -1      3770 4.59319E-03
 -1      3771 8.26351E-03
 -1      3772 3.08796E-03
 -1      3773 2.85296E-03
 -1      3774 4.49702E-03
 -1      3775 2.23738E-03
 -1      3776 2.33341E-03
 -1      3777 2.37622E-03
 -1      3778 5.55218E+00
 -1      3779 6.28963E+00
 -1      3780 5.05731E+00
 -1      3781 3.97784E-01
 -1      3782 4.60936E-01
 -1      3783 4.52042E+00
 -1      3784 4.36883E+00
 -1      3785 5.28642E-01
 -1      3786 6.09929E-01
 -1      3787 4.86666E-01
 -1      3788 6.99865E-01
 -1      3789 8.04324E-01
 -1      3790 6.44308E-01
 -1      3791 2.97087E-01
 -1      3792 3.45956E-01
 -1      3793 3.67132E-01
 -1      3794 2.19521E-01
 -1      3795 2.57104E-01
 -1      3796 2.75321E-01
 -1      3797 1.59992E-01
 -1      3798 1.88657E-01
 -1      3799 2.04474E-01
 -1      3800 1.14636E-01
 -1      3801 1.36273E-01
 -1      3802 1.49890E-01
 -1      3803 8.08188E-02
 -1      3804 9.65586E-02
 -1      3805 1.08094E-01
 -1      3806 5.59061E-02
 -1      3807 6.71949E-02
 -1      3808 7.63923E-02
 -1      3809 3.77457E-02
 -1      3810 4.60309E-02
 -1      3811 5.28932E-02
 -1      3812 2.48288E-02
 -1      3813 3.07620E-02
 -1      3814 3.60343E-02
 -1      3815 1.55978E-02
 -1      3816 1.97305E-02
 -1      3817 2.39523E-02
 -1      3818 9.21768E-03
 -1      3819 1.19556E-02
 -1      3820 1.52118E-02
 -1      3821 5.27423E-03
 -1      3822 6.70904E-03
 -1      3823 9.06098E-03
 -1      3824 3.45687E-03
 -1      3825 3.57800E-03
 -1      3826 4.85611E-03
 -1      3827 3.01839E-03
 -1      3828 3.04782E-03
 -1      3829 2.75082E-03
 -1      3830 1.66311E+00
 -1      3831 1.88712E+00
 -1      3832 8.71309E-01
 -1      3833 9.77861E-01
 -1      3834 6.19335E+00
 -1      3835 6.19335E+00
 -1      3836 5.28231E+00
 -1      3837 2.10688E+00
 -1      3838 1.80370E+00
 -1      3839 2.64193E+00
 -1      3840 1.71489E-03
 -1      3841 1.82131E-03
 -1      3842 2.05495E-03
 -1      3843 1.61991E-03
 -1      3844 4.68519E+00
 -1      3845 4.48132E+00
 -1      3846 3.70597E+00
 -1      3847 8.58485E-01
 -1      3848 8.62661E-01
 -1      3849 8.62661E-01
 -1      3850 9.25947E-01
 -1      3851 1.18775E+00
 -1      3852 1.31199E+00
 -1      3853 1.18877E+00
 -1      3854 6.77260E-01
 -1      3855 7.53337E-01
 -1      3856 8.60913E-01
 -1      3857 5.87342E-01
 -1      3858 6.02483E-01
 -1      3859 6.68164E-01
 -1      3860 5.36661E-01
 -1      3861 2.26532E+00
 -1      3862 2.59702E+00
 -1      3863 2.21882E+00
 -1      3864 1.23600E+00
 -1      3865 1.40732E+00
 -1      3866 1.58483E+00
 -1      3867 9.27040E-01
 -1      3868 1.06131E+00
 -1      3869 8.56961E-01
 -1      3870 5.27544E+00
 -1      3871 6.25978E-01
 -1      3872 3.01839E-03
 -1      3873 2.34176E-03
 -1      3874 6.23169E+00
 -1      3875 5.03033E+00
 -1      3876 5.14780E+00
 -1      3877 4.19694E+00
 -1      3878 4.47087E+00
 -1      3879 3.34317E+00
 -1      3880 1.80214E+00
 -1      3881 4.62398E-01
 -1      3882 4.84714E-01
 -1      3883 4.05900E-01
 -1      3884 3.59660E+00
 -1      3885 3.14108E+00
 -1      3886 3.14108E+00
 -1      3887 3.73008E+00
 -1      3888 1.03771E+00
 -1      3889 1.79116E-03
 -1      3890 4.53095E+00
 -1      3891 3.61332E+00
 -1      3892 4.78104E+00
 -1      3893 2.05495E-03
 -1      3894 2.34176E-03
 -1      3895 2.34176E-03
 -1      3896 4.57403E+00
 -1      3897 5.71917E+00
 -1      3898 1.72332E-03
 -1      3899 1.15436E+00
 -1      3900 4.56492E+00
 -1      3901 1.62162E+00
 -1      3902 5.17352E+00
 -1      3903 4.59256E+00
 -1      3904 1.44551E+00
 -1      3905 1.25552E+00
 -1      3906 1.53754E-03
 -1      3907 1.52507E-03
 -1      3908 1.57569E-03
 -1      3909 1.51152E-03
 -1      3910 1.55243E-03
 -1      3911 3.70597E+00
 -1      3912 1.07751E+00
 -1      3913 9.84679E-01
 -1      3914 1.20250E+00
 -1      3915 3.75407E-01
 -1      3916 4.05908E-01
 -1      3917 4.89501E-01
 -1      3918 5.12002E-01
 -1      3919 6.75562E-01
 -1      3920 7.12901E-01
 -1      3921 6.94807E-01
 -1      3922 8.62661E-01
 -1      3923 7.57779E-01
 -1      3924 9.00000E-01
 -1      3925 9.44879E-01
 -1      3926 3.23491E+00
 -1      3927 4.62450E+00
 -1      3928 4.12963E+00
 -1      3929 2.83480E+00
 -1      3930 3.03856E+00
 -1      3931 3.58262E+00
 -1      3932 4.49265E+00
 -1      3933 4.49265E+00
 -1      3934 1.90571E+00
 -1      3935 1.70084E+00
 -1      3936 1.45449E+00
 -1      3937 1.22191E+00
 -1      3938 1.59003E+00
 -1      3939 1.08179E+00
 -1      3940 9.46454E-01
 -1      3941 1.20357E+00
 -1      3942 8.29464E-01
 -1      3943 7.35181E-01
 -1      3944 9.46454E-01
 -1      3945 6.38299E-01
 -1      3946 5.79500E-01
 -1      3947 7.32582E-01
 -1      3948 5.05113E-01
 -1      3949 4.53155E-01
 -1      3950 5.61314E-01
 -1      3951 3.95656E-01
 -1      3952 3.51355E-01
 -1      3953 4.29428E-01
 -1      3954 3.06752E-01
 -1      3955 2.69836E-01
 -1      3956 3.27326E-01
 -1      3957 2.35169E-01
 -1      3958 2.04945E-01
 -1      3959 2.48055E-01
 -1      3960 1.78014E-01
 -1      3961 1.53657E-01
 -1      3962 1.86456E-01
 -1      3963 1.32804E-01
 -1      3964 1.13472E-01
 -1      3965 1.38673E-01
 -1      3966 9.74241E-02
 -1      3967 8.23166E-02
 -1      3968 1.01773E-01
 -1      3969 7.00725E-02
 -1      3970 5.84578E-02
 -1      3971 7.34813E-02
 -1      3972 4.92184E-02
 -1      3973 4.04443E-02
 -1      3974 5.19979E-02
 -1      3975 3.35661E-02
 -1      3976 2.74254E-02
 -1      3977 3.58804E-02
 -1      3978 2.28927E-02
 -1      3979 1.84436E-02
 -1      3980 2.44695E-02
 -1      3981 1.52662E-02
 -1      3982 1.20534E-02
 -1      3983 1.67594E-02
 -1      3984 9.67018E-03
 -1      3985 7.40891E-03
 -1      3986 1.11988E-02
 -1      3987 5.56494E-03
 -1      3988 4.05971E-03
 -1      3989 6.97161E-03
 -1      3990 2.68450E-03
 -1      3991 2.06893E-03
 -1      3992 3.75242E-03
 -1      3993 4.12605E-01
 -1      3994 4.80311E-01
 -1      3995 4.00937E+00
 -1      3996 1.69281E-03
 -1      3997 2.36289E-01
 -1      3998 2.76272E-01
 -1      3999 2.97285E+00
 -1      4000 3.13270E-01
 -1      4001 3.65098E-01
 -1      4002 3.58742E-01
 -1      4003 2.74238E-01
 -1      4004 5.42673E-01
 -1      4005 6.32610E-01
 -1      4006 4.68612E-01
 -1      4007 1.76367E-01
 -1      4008 2.07232E-01
 -1      4009 2.08183E-01
 -1      4010 1.29839E-01
 -1      4011 1.53558E-01
 -1      4012 1.56316E-01
 -1      4013 9.39684E-02
 -1      4014 1.12046E-01
 -1      4015 1.15713E-01
 -1      4016 6.66058E-02
 -1      4017 8.02297E-02
 -1      4018 8.41819E-02
 -1      4019 4.62592E-02
 -1      4020 5.61344E-02
 -1      4021 5.99718E-02
 -1      4022 3.14164E-02
 -1      4023 3.84001E-02
 -1      4024 4.16413E-02
 -1      4025 2.09208E-02
 -1      4026 2.60191E-02
 -1      4027 2.83849E-02
 -1      4028 1.33391E-02
 -1      4029 1.69813E-02
 -1      4030 1.90481E-02
 -1      4031 7.98701E-03
 -1      4032 1.04956E-02
 -1      4033 1.22651E-02
 -1      4034 4.31179E-03
 -1      4035 6.00802E-03
 -1      4036 7.44269E-03
 -1      4037 2.56485E-03
 -1      4038 2.97391E-03
 -1      4039 4.12582E-03
 -1      4040 2.56485E-03
 -1      4041 1.31115E+00
 -1      4042 1.56694E+00
 -1      4043 1.69929E+00
 -1      4044 1.63430E+00
 -1      4045 1.99092E+00
 -1      4046 8.36638E-01
 -1      4047 9.54610E-01
 -1      4048 4.53783E+00
 -1      4049 2.55450E+00
 -1      4050 2.38702E+00
 -1      4051 2.31769E+00
 -1      4052 3.21735E+00
 -1      4053 3.17825E+00
 -1      4054 2.99413E+00
 -1      4055 2.44598E+00
 -1      4056 2.34313E+00
 -1      4057 3.41737E+00
 -1      4058 1.61991E-03
 -1      4059 1.76815E-03
 -1      4060 2.05495E-03
 -1      4061 1.67330E-03
 -1      4062 2.10853E+00
 -1      4063 2.48673E+00
 -1      4064 2.92828E+00
 -1      4065 1.83485E+00
 -1      4066 9.62802E-01
 -1      4067 1.13749E+00
 -1      4068 1.11959E+00
 -1      4069 4.49005E+00
 -1      4070 3.85158E+00
 -1      4071 4.32576E+00
 -1      4072 3.82448E+00
 -1      4073 7.17969E-01
 -1      4074 8.40685E-01
 -1      4075 6.16334E-01
 -1      4076 1.14911E+00
 -1      4077 1.35900E+00
 -1      4078 1.12483E+00
 -1      4079 8.53672E-01
 -1      4080 6.93359E-01
 -1      4081 1.48441E+00
 -1      4082 1.70738E+00
 -1      4083 1.44475E+00
 -1      4084 4.19694E+00
 -1      4085 3.12885E+00
 -1      4086 3.96223E+00
 -1      4087 1.64353E-03
 -1      4088 1.95181E-03
 -1      4089 8.23810E-01
 -1      4090 3.36616E+00
 -1      4091 3.44754E+00
 -1      4092 3.20838E+00
 -1      4093 2.91060E+00
 -1      4094 2.53135E+00
 -1      4095 2.05004E+00
 -1      4096 2.69628E+00
 -1      4097 4.13786E+00
 -1      4098 2.38514E-03
 -1      4099 2.47999E-03
 -1      4100 1.59881E+00
 -1      4101 1.34503E+00
 -1      4102 7.42941E-01
 -1      4103 8.36638E-01
 -1      4104 6.68164E-01
 -1      4105 1.99916E+00
 -1      4106 2.31068E+00
 -1      4107 2.67784E+00
 -1      4108 1.86195E+00
 -1      4109 9.84679E-01
 -1      4110 9.39800E-01
 -1      4111 3.29335E-03
 -1      4112 3.31937E-03
 -1      4113 4.12606E-03
 -1      4114 3.71875E-03
 -1      4115 6.70867E-01
 -1      4116 5.41439E-01
 -1      4117 9.94420E-01
 -1      4118 9.92972E-01
 -1      4119 1.07910E+00
 -1      4120 2.69977E+00
 -1      4121 3.62744E+00
 -1      4122 3.06278E+00
 -1      4123 2.17565E+00
 -1      4124 1.16701E+00
 -1      4125 1.20250E+00
 -1      4126 3.20530E+00
 -1      4127 1.93566E-01
 -1      4128 2.22623E-01
 -1      4129 2.05256E+00
 -1      4130 1.76329E+00
 -1      4131 2.50761E+00
 -1      4132 1.61579E+00
 -1      4133 1.47566E+00
 -1      4134 1.07546E+00
 -1      4135 9.58473E-01
 -1      4136 1.48768E+00
 -1      4137 7.81406E-01
 -1      4138 6.84524E-01
 -1      4139 9.10415E-01
 -1      4140 5.83367E-01
 -1      4141 5.08980E-01
 -1      4142 6.32190E-01
 -1      4143 4.37581E-01
 -1      4144 3.80082E-01
 -1      4145 4.59634E-01
 -1      4146 3.28570E-01
 -1      4147 2.83967E-01
 -1      4148 3.36723E-01
 -1      4149 2.52276E-01
 -1      4150 2.17608E-01
 -1      4151 2.53520E-01
 -1      4152 1.92925E-01
 -1      4153 1.65994E-01
 -1      4154 1.97146E-01
 -1      4155 1.45846E-01
 -1      4156 1.24994E-01
 -1      4157 1.52315E-01
 -1      4158 1.08750E-01
 -1      4159 9.27024E-02
 -1      4160 1.15923E-01
 -1      4161 7.97814E-02
 -1      4162 6.75373E-02
 -1      4163 8.67583E-02
 -1      4164 5.74074E-02
 -1      4165 4.81681E-02
 -1      4166 6.37075E-02
 -1      4167 4.03474E-02
 -1      4168 3.34692E-02
 -1      4169 4.57569E-02
 -1      4170 2.75291E-02
 -1      4171 2.29964E-02
 -1      4172 3.19961E-02
 -1      4173 1.89320E-02
 -1      4174 1.57546E-02
 -1      4175 2.19916E-02
 -1      4176 1.27299E-02
 -1      4177 1.03466E-02
 -1      4178 1.49024E-02
 -1      4179 8.08235E-03
 -1      4180 6.23837E-03
 -1      4181 9.61342E-03
 -1      4182 5.09397E-03
 -1      4183 4.16614E-01
 -1      4184 4.78976E-01
 -1      4185 1.01670E+00
 -1      4186 1.19037E+00
 -1      4187 1.48561E-01
 -1      4188 1.71370E-01
 -1      4189 1.85811E-01
 -1      4190 7.97582E-01
 -1      4191 6.16225E-01
 -1      4192 3.30448E+00
 -1      4193 1.11986E-01
 -1      4194 1.29778E-01
 -1      4195 1.44833E-01
 -1      4196 8.27529E-02
 -1      4197 9.64916E-02
 -1      4198 1.10557E-01
 -1      4199 5.97940E-02
 -1      4200 7.02654E-02
 -1      4201 8.25751E-02
 -1      4202 4.20882E-02
 -1      4203 4.99473E-02
 -1      4204 6.02409E-02
 -1      4205 2.94623E-02
 -1      4206 3.48596E-02
 -1      4207 4.31656E-02
 -1      4208 2.00500E-02
 -1      4209 2.39895E-02
 -1      4210 3.04642E-02
 -1      4211 1.30541E-02
 -1      4212 1.58975E-02
 -1      4213 2.08390E-02
 -1      4214 7.88824E-03
 -1      4215 9.86722E-03
 -1      4216 1.34996E-02
 -1      4217 7.25598E-01
 -1      4218 8.47715E-01
 -1      4219 9.18492E-01
 -1      4220 6.16217E-01
 -1      4221 1.02448E+00
 -1      4222 1.38217E+00
 -1      4223 1.50759E+00
 -1      4224 5.46308E-01
 -1      4225 6.31667E-01
 -1      4226 4.94309E-01
 -1      4227 1.18767E+00
 -1      4228 1.38217E+00
 -1      4229 1.44501E+00
 -1      4230 1.22163E+00
 -1      4231 1.68028E+00
 -1      4232 1.43393E+00
 -1      4233 1.70603E+00
 -1      4234 1.89394E+00
 -1      4235 3.61592E-03
 -1      4236 3.90273E-03
 -1      4237 4.12582E-03
 -1      4238 4.32776E-03
 -1      4239 1.75195E+00
 -1      4240 1.66404E+00
 -1      4241 9.84679E-01
 -1      4242 2.20569E+00
 -1      4243 6.20471E-03
 -1      4244 4.23517E-03
 -1      4245 5.37111E-03
 -1      4246 3.66601E-01
 -1      4247 3.76965E-01
 -1      4248 3.19094E-01
 -1      4249 1.74736E+00
 -1      4250 1.85024E+00
 -1      4251 2.39184E+00
 -1      4252 3.07429E+00
 -1      4253 2.51247E+00
 -1      4254 2.76804E+00
 -1      4255 2.33547E+00
 -1      4256 1.96570E+00
 -1      4257 8.91279E-01
 -1      4258 2.75265E+00
 -1      4259 2.48103E-01
 -1      4260 2.85101E-01
 -1      4261 2.92960E-01
 -1      4262 2.33486E-01
 -1      4263 6.55572E-01
 -1      4264 2.91472E+00
 -1      4265 1.59452E+00
 -1      4266 1.88630E+00
 -1      4267 1.90823E+00
 -1      4268 1.53194E+00
 -1      4269 2.51069E+00
 -1      4270 2.76804E+00
 -1      4271 2.20909E+00
 -1      4272 1.28936E+00
 -1      4273 1.14861E+00
 -1      4274 1.81968E+00
 -1      4275 5.16941E-03
 -1      4276 9.18492E-01
 -1      4277 7.41425E-01
 -1      4278 6.47494E-01
 -1      4279 5.46337E-01
 -1      4280 4.79005E-01
 -1      4281 4.07606E-01
 -1      4282 3.57594E-01
 -1      4283 3.06082E-01
 -1      4284 2.72088E-01
 -1      4285 2.40398E-01
 -1      4286 2.14918E-01
 -1      4287 1.90234E-01
 -1      4288 1.68039E-01
 -1      4289 1.47891E-01
 -1      4290 1.29109E-01
 -1      4291 1.12865E-01
 -1      4292 9.73709E-02
 -1      4293 8.44500E-02
 -1      4294 7.19625E-02
 -1      4295 6.18326E-02
 -1      4296 5.19859E-02
 -1      4297 4.41652E-02
 -1      4298 3.69366E-02
 -1      4299 3.09966E-02
 -1      4300 2.55237E-02
 -1      4301 2.14593E-02
 -1      4302 1.73068E-02
 -1      4303 1.42821E-02
 -1      4304 1.10952E-02
 -1      4305 8.83094E-03
 -1      4306 1.81968E+00
 -1      4307 1.08748E+00
 -1      4308 5.46370E-03
 -1      4309 7.88824E-03
 -1      4310 2.76804E+00
 -1      4311 2.49935E+00
 -1      4312 1.48768E+00
 -1      4313 2.40723E+00
 -1      4314 2.14756E+00
 -1      4315 7.79565E-03
 -1      4316 6.31382E-03
 -1      4317 2.20747E+00
 -1      4318 1.83280E+00
 -1      4319 1.91974E+00
 -1      4320 2.14756E+00
 -3
 9999
