    1C
    1UUSER                                                              
    1UDATE              27.october.2022                                 
    1UTIME              00:13:37                                        
    1UHOST                                                              
    1UPGM               CalculiX                                        
    1UVERSION           Version 2.17                             
    1UCOMPILETIME       Thu Jul 23 21:43:50 CEST 2020                    
    1UDIR                                                               
    1UDBN                                                               
    1UMAT    1SOLIDMATERIAL                                             
    2C                          4296                                     1
 -1         1 6.97318E+01 2.63637E+01 0.00000E+00
 -1         2 8.20674E+01 2.18325E+01 0.00000E+00
 -1         3 1.50000E+02 0.00000E+00 0.00000E+00
 -1         4 1.50000E+02 5.00000E+01 0.00000E+00
 -1         5 0.00000E+00 0.00000E+00 0.00000E+00
 -1         6 0.00000E+00 5.00000E+01 0.00000E+00
 -1         7 0.00000E+00 4.70500E+01 0.00000E+00
 -1         8 0.00000E+00 4.41000E+01 0.00000E+00
 -1         9 0.00000E+00 4.11500E+01 0.00000E+00
 -1        10 0.00000E+00 3.82000E+01 0.00000E+00
 -1        11 0.00000E+00 3.52500E+01 0.00000E+00
 -1        12 0.00000E+00 3.23500E+01 0.00000E+00
 -1        13 0.00000E+00 2.94000E+01 0.00000E+00
 -1        14 0.00000E+00 2.64500E+01 0.00000E+00
 -1        15 0.00000E+00 2.35000E+01 0.00000E+00
 -1        16 0.00000E+00 2.05500E+01 0.00000E+00
 -1        17 0.00000E+00 1.76000E+01 0.00000E+00
 -1        18 0.00000E+00 1.47000E+01 0.00000E+00
 -1        19 0.00000E+00 1.17500E+01 0.00000E+00
 -1        20 0.00000E+00 8.80000E+00 0.00000E+00
 -1        21 0.00000E+00 5.85000E+00 0.00000E+00
 -1        22 0.00000E+00 2.90000E+00 0.00000E+00
 -1        23 3.15000E+00 5.00000E+01 0.00000E+00
 -1        24 6.15000E+00 5.00000E+01 0.00000E+00
 -1        25 9.15000E+00 5.00000E+01 0.00000E+00
 -1        26 1.21500E+01 5.00000E+01 0.00000E+00
 -1        27 1.51500E+01 5.00000E+01 0.00000E+00
 -1        28 1.81500E+01 5.00000E+01 0.00000E+00
 -1        29 2.11500E+01 5.00000E+01 0.00000E+00
 -1        30 2.41500E+01 5.00000E+01 0.00000E+00
 -1        31 2.71500E+01 5.00000E+01 0.00000E+00
 -1        32 3.01500E+01 5.00000E+01 0.00000E+00
 -1        33 3.31500E+01 5.00000E+01 0.00000E+00
 -1        34 3.61500E+01 5.00000E+01 0.00000E+00
 -1        35 3.91500E+01 5.00000E+01 0.00000E+00
 -1        36 4.21500E+01 5.00000E+01 0.00000E+00
 -1        37 4.51500E+01 5.00000E+01 0.00000E+00
 -1        38 4.81500E+01 5.00000E+01 0.00000E+00
 -1        39 5.11500E+01 5.00000E+01 0.00000E+00
 -1        40 5.41500E+01 5.00000E+01 0.00000E+00
 -1        41 5.71500E+01 5.00000E+01 0.00000E+00
 -1        42 6.01500E+01 5.00000E+01 0.00000E+00
 -1        43 6.31500E+01 5.00000E+01 0.00000E+00
 -1        44 6.61500E+01 5.00000E+01 0.00000E+00
 -1        45 6.91500E+01 5.00000E+01 0.00000E+00
 -1        46 7.21500E+01 5.00000E+01 0.00000E+00
 -1        47 7.51500E+01 5.00000E+01 0.00000E+00
 -1        48 7.81500E+01 5.00000E+01 0.00000E+00
 -1        49 8.11500E+01 5.00000E+01 0.00000E+00
 -1        50 8.41500E+01 5.00000E+01 0.00000E+00
 -1        51 8.71500E+01 5.00000E+01 0.00000E+00
 -1        52 9.01500E+01 5.00000E+01 0.00000E+00
 -1        53 9.31500E+01 5.00000E+01 0.00000E+00
 -1        54 9.61500E+01 5.00000E+01 0.00000E+00
 -1        55 9.91500E+01 5.00000E+01 0.00000E+00
 -1        56 1.02150E+02 5.00000E+01 0.00000E+00
 -1        57 1.05150E+02 5.00000E+01 0.00000E+00
 -1        58 1.08150E+02 5.00000E+01 0.00000E+00
 -1        59 1.11150E+02 5.00000E+01 0.00000E+00
 -1        60 1.14150E+02 5.00000E+01 0.00000E+00
 -1        61 1.17150E+02 5.00000E+01 0.00000E+00
 -1        62 1.20150E+02 5.00000E+01 0.00000E+00
 -1        63 1.23150E+02 5.00000E+01 0.00000E+00
 -1        64 1.26150E+02 5.00000E+01 0.00000E+00
 -1        65 1.29150E+02 5.00000E+01 0.00000E+00
 -1        66 1.32150E+02 5.00000E+01 0.00000E+00
 -1        67 1.35150E+02 5.00000E+01 0.00000E+00
 -1        68 1.38150E+02 5.00000E+01 0.00000E+00
 -1        69 1.41150E+02 5.00000E+01 0.00000E+00
 -1        70 1.44150E+02 5.00000E+01 0.00000E+00
 -1        71 1.47150E+02 5.00000E+01 0.00000E+00
 -1        72 3.15000E+00 0.00000E+00 0.00000E+00
 -1        73 6.15000E+00 0.00000E+00 0.00000E+00
 -1        74 9.15000E+00 0.00000E+00 0.00000E+00
 -1        75 1.21500E+01 0.00000E+00 0.00000E+00
 -1        76 1.51500E+01 0.00000E+00 0.00000E+00
 -1        77 1.81500E+01 0.00000E+00 0.00000E+00
 -1        78 2.11500E+01 0.00000E+00 0.00000E+00
 -1        79 2.41500E+01 0.00000E+00 0.00000E+00
 -1        80 2.71500E+01 0.00000E+00 0.00000E+00
 -1        81 3.01500E+01 0.00000E+00 0.00000E+00
 -1        82 3.31500E+01 0.00000E+00 0.00000E+00
 -1        83 3.61500E+01 0.00000E+00 0.00000E+00
 -1        84 3.91500E+01 0.00000E+00 0.00000E+00
 -1        85 4.21500E+01 0.00000E+00 0.00000E+00
 -1        86 4.51500E+01 0.00000E+00 0.00000E+00
 -1        87 4.81500E+01 0.00000E+00 0.00000E+00
 -1        88 5.11500E+01 0.00000E+00 0.00000E+00
 -1        89 5.41500E+01 0.00000E+00 0.00000E+00
 -1        90 5.71500E+01 0.00000E+00 0.00000E+00
 -1        91 6.01500E+01 0.00000E+00 0.00000E+00
 -1        92 6.31500E+01 0.00000E+00 0.00000E+00
 -1        93 6.61500E+01 0.00000E+00 0.00000E+00
 -1        94 6.91500E+01 0.00000E+00 0.00000E+00
 -1        95 7.21500E+01 0.00000E+00 0.00000E+00
 -1        96 7.51500E+01 0.00000E+00 0.00000E+00
 -1        97 7.81500E+01 0.00000E+00 0.00000E+00
 -1        98 8.11500E+01 0.00000E+00 0.00000E+00
 -1        99 8.41500E+01 0.00000E+00 0.00000E+00
 -1       100 8.71500E+01 0.00000E+00 0.00000E+00
 -1       101 9.01500E+01 0.00000E+00 0.00000E+00
 -1       102 9.31500E+01 0.00000E+00 0.00000E+00
 -1       103 9.61500E+01 0.00000E+00 0.00000E+00
 -1       104 9.91500E+01 0.00000E+00 0.00000E+00
 -1       105 1.02150E+02 0.00000E+00 0.00000E+00
 -1       106 1.05150E+02 0.00000E+00 0.00000E+00
 -1       107 1.08150E+02 0.00000E+00 0.00000E+00
 -1       108 1.11150E+02 0.00000E+00 0.00000E+00
 -1       109 1.14150E+02 0.00000E+00 0.00000E+00
 -1       110 1.17150E+02 0.00000E+00 0.00000E+00
 -1       111 1.20150E+02 0.00000E+00 0.00000E+00
 -1       112 1.23150E+02 0.00000E+00 0.00000E+00
 -1       113 1.26150E+02 0.00000E+00 0.00000E+00
 -1       114 1.29150E+02 0.00000E+00 0.00000E+00
 -1       115 1.32150E+02 0.00000E+00 0.00000E+00
 -1       116 1.35150E+02 0.00000E+00 0.00000E+00
 -1       117 1.38150E+02 0.00000E+00 0.00000E+00
 -1       118 1.41150E+02 0.00000E+00 0.00000E+00
 -1       119 1.44150E+02 0.00000E+00 0.00000E+00
 -1       120 1.47150E+02 0.00000E+00 0.00000E+00
 -1       121 1.50000E+02 2.95000E+00 0.00000E+00
 -1       122 1.50000E+02 5.90000E+00 0.00000E+00
 -1       123 1.50000E+02 8.85000E+00 0.00000E+00
 -1       124 1.50000E+02 1.18000E+01 0.00000E+00
 -1       125 1.50000E+02 1.47500E+01 0.00000E+00
 -1       126 1.50000E+02 1.76500E+01 0.00000E+00
 -1       127 1.50000E+02 2.06000E+01 0.00000E+00
 -1       128 1.50000E+02 2.35500E+01 0.00000E+00
 -1       129 1.50000E+02 2.65000E+01 0.00000E+00
 -1       130 1.50000E+02 2.94500E+01 0.00000E+00
 -1       131 1.50000E+02 3.24000E+01 0.00000E+00
 -1       132 1.50000E+02 3.53000E+01 0.00000E+00
 -1       133 1.50000E+02 3.82500E+01 0.00000E+00
 -1       134 1.50000E+02 4.12000E+01 0.00000E+00
 -1       135 1.50000E+02 4.41500E+01 0.00000E+00
 -1       136 1.50000E+02 4.71000E+01 0.00000E+00
 -1       137 8.19227E+01 2.04168E+01 0.00000E+00
 -1       138 8.14324E+01 1.89195E+01 0.00000E+00
 -1       139 8.06842E+01 1.76551E+01 0.00000E+00
 -1       140 7.97225E+01 1.66048E+01 0.00000E+00
 -1       141 7.84506E+01 1.57044E+01 0.00000E+00
 -1       142 7.70467E+01 1.51182E+01 0.00000E+00
 -1       143 7.55989E+01 1.48528E+01 0.00000E+00
 -1       144 7.40397E+01 1.49084E+01 0.00000E+00
 -1       145 7.26331E+01 1.52694E+01 0.00000E+00
 -1       146 7.12742E+01 1.59494E+01 0.00000E+00
 -1       147 7.00529E+01 1.69484E+01 0.00000E+00
 -1       148 6.91159E+01 1.81474E+01 0.00000E+00
 -1       149 6.84789E+01 1.94677E+01 0.00000E+00
 -1       150 6.81344E+01 2.08660E+01 0.00000E+00
 -1       151 6.80927E+01 2.24271E+01 0.00000E+00
 -1       152 6.83666E+01 2.38572E+01 0.00000E+00
 -1       153 6.89278E+01 2.51949E+01 0.00000E+00
 -1       154 7.07514E+01 2.73437E+01 0.00000E+00
 -1       155 7.19104E+01 2.80802E+01 0.00000E+00
 -1       156 7.32259E+01 2.85860E+01 0.00000E+00
 -1       157 7.47226E+01 2.88241E+01 0.00000E+00
 -1       158 7.60752E+01 2.87596E+01 0.00000E+00
 -1       159 7.74652E+01 2.84090E+01 0.00000E+00
 -1       160 7.87348E+01 2.77949E+01 0.00000E+00
 -1       161 7.98257E+01 2.69666E+01 0.00000E+00
 -1       162 8.07491E+01 2.59213E+01 0.00000E+00
 -1       163 8.14711E+01 2.46596E+01 0.00000E+00
 -1       164 8.19109E+01 2.33044E+01 0.00000E+00
 -1       165 2.59800E+00 4.55750E+01 0.00000E+00
 -1       166 2.59800E+00 4.26250E+01 0.00000E+00
 -1       167 2.59800E+00 3.96750E+01 0.00000E+00
 -1       168 2.59800E+00 3.67250E+01 0.00000E+00
 -1       169 2.59800E+00 3.38250E+01 0.00000E+00
 -1       170 2.59800E+00 3.08750E+01 0.00000E+00
 -1       171 2.59800E+00 2.79250E+01 0.00000E+00
 -1       172 2.59800E+00 2.49750E+01 0.00000E+00
 -1       173 2.59800E+00 2.20250E+01 0.00000E+00
 -1       174 2.59800E+00 1.90750E+01 0.00000E+00
 -1       175 2.59800E+00 1.61750E+01 0.00000E+00
 -1       176 2.59800E+00 1.32250E+01 0.00000E+00
 -1       177 2.59800E+00 1.02750E+01 0.00000E+00
 -1       178 2.59800E+00 7.32500E+00 0.00000E+00
 -1       179 2.59800E+00 4.37500E+00 0.00000E+00
 -1       180 2.87400E+00 2.18750E+00 0.00000E+00
 -1       181 4.65000E+00 4.74020E+01 0.00000E+00
 -1       182 7.65000E+00 4.74020E+01 0.00000E+00
 -1       183 1.06500E+01 4.74020E+01 0.00000E+00
 -1       184 1.36500E+01 4.74020E+01 0.00000E+00
 -1       185 1.66500E+01 4.74020E+01 0.00000E+00
 -1       186 1.96500E+01 4.74020E+01 0.00000E+00
 -1       187 2.26500E+01 4.74020E+01 0.00000E+00
 -1       188 2.56500E+01 4.74020E+01 0.00000E+00
 -1       189 2.86500E+01 4.74020E+01 0.00000E+00
 -1       190 3.16500E+01 4.74020E+01 0.00000E+00
 -1       191 3.46500E+01 4.74020E+01 0.00000E+00
 -1       192 3.76500E+01 4.74020E+01 0.00000E+00
 -1       193 4.06500E+01 4.74020E+01 0.00000E+00
 -1       194 4.36500E+01 4.74020E+01 0.00000E+00
 -1       195 4.66500E+01 4.74020E+01 0.00000E+00
 -1       196 4.96500E+01 4.74020E+01 0.00000E+00
 -1       197 5.26500E+01 4.74020E+01 0.00000E+00
 -1       198 5.56500E+01 4.74020E+01 0.00000E+00
 -1       199 5.86500E+01 4.74020E+01 0.00000E+00
 -1       200 6.16500E+01 4.74020E+01 0.00000E+00
 -1       201 6.46500E+01 4.74020E+01 0.00000E+00
 -1       202 6.76500E+01 4.74020E+01 0.00000E+00
 -1       203 7.06500E+01 4.74020E+01 0.00000E+00
 -1       204 7.36500E+01 4.74020E+01 0.00000E+00
 -1       205 7.66500E+01 4.74020E+01 0.00000E+00
 -1       206 7.96500E+01 4.74020E+01 0.00000E+00
 -1       207 8.26500E+01 4.74020E+01 0.00000E+00
 -1       208 8.56500E+01 4.74020E+01 0.00000E+00
 -1       209 8.86500E+01 4.74020E+01 0.00000E+00
 -1       210 9.16500E+01 4.74020E+01 0.00000E+00
 -1       211 9.46500E+01 4.74020E+01 0.00000E+00
 -1       212 9.76500E+01 4.74020E+01 0.00000E+00
 -1       213 1.00650E+02 4.74020E+01 0.00000E+00
 -1       214 1.03650E+02 4.74020E+01 0.00000E+00
 -1       215 1.06650E+02 4.74020E+01 0.00000E+00
 -1       216 1.09650E+02 4.74020E+01 0.00000E+00
 -1       217 1.12650E+02 4.74020E+01 0.00000E+00
 -1       218 1.15650E+02 4.74020E+01 0.00000E+00
 -1       219 1.18650E+02 4.74020E+01 0.00000E+00
 -1       220 1.21650E+02 4.74020E+01 0.00000E+00
 -1       221 1.24650E+02 4.74020E+01 0.00000E+00
 -1       222 1.27650E+02 4.74020E+01 0.00000E+00
 -1       223 1.30650E+02 4.74020E+01 0.00000E+00
 -1       224 1.33650E+02 4.74020E+01 0.00000E+00
 -1       225 1.36650E+02 4.74020E+01 0.00000E+00
 -1       226 1.39650E+02 4.74020E+01 0.00000E+00
 -1       227 1.42650E+02 4.74020E+01 0.00000E+00
 -1       228 1.45650E+02 4.74020E+01 0.00000E+00
 -1       229 5.87400E+00 2.18750E+00 0.00000E+00
 -1       230 8.87400E+00 2.18750E+00 0.00000E+00
 -1       231 1.18740E+01 2.18750E+00 0.00000E+00
 -1       232 1.48740E+01 2.18750E+00 0.00000E+00
 -1       233 1.78740E+01 2.18750E+00 0.00000E+00
 -1       234 2.08740E+01 2.18750E+00 0.00000E+00
 -1       235 2.38740E+01 2.18750E+00 0.00000E+00
 -1       236 2.68740E+01 2.18750E+00 0.00000E+00
 -1       237 2.98740E+01 2.18750E+00 0.00000E+00
 -1       238 3.28740E+01 2.18750E+00 0.00000E+00
 -1       239 3.58740E+01 2.18750E+00 0.00000E+00
 -1       240 3.88740E+01 2.18750E+00 0.00000E+00
 -1       241 4.18740E+01 2.18750E+00 0.00000E+00
 -1       242 4.48740E+01 2.18750E+00 0.00000E+00
 -1       243 4.78740E+01 2.18750E+00 0.00000E+00
 -1       244 5.08740E+01 2.18750E+00 0.00000E+00
 -1       245 5.38740E+01 2.18750E+00 0.00000E+00
 -1       246 5.68740E+01 2.18750E+00 0.00000E+00
 -1       247 5.98740E+01 2.18750E+00 0.00000E+00
 -1       248 6.28740E+01 2.18750E+00 0.00000E+00
 -1       249 6.58740E+01 2.18750E+00 0.00000E+00
 -1       250 6.88740E+01 2.18750E+00 0.00000E+00
 -1       251 7.18740E+01 2.18750E+00 0.00000E+00
 -1       252 7.48740E+01 2.18750E+00 0.00000E+00
 -1       253 7.78740E+01 2.18750E+00 0.00000E+00
 -1       254 8.08740E+01 2.18750E+00 0.00000E+00
 -1       255 8.38740E+01 2.18750E+00 0.00000E+00
 -1       256 8.68740E+01 2.18750E+00 0.00000E+00
 -1       257 8.98740E+01 2.18750E+00 0.00000E+00
 -1       258 9.28740E+01 2.18750E+00 0.00000E+00
 -1       259 9.58740E+01 2.18750E+00 0.00000E+00
 -1       260 9.88740E+01 2.18750E+00 0.00000E+00
 -1       261 1.01874E+02 2.18750E+00 0.00000E+00
 -1       262 1.04874E+02 2.18750E+00 0.00000E+00
 -1       263 1.07874E+02 2.18750E+00 0.00000E+00
 -1       264 1.10874E+02 2.18750E+00 0.00000E+00
 -1       265 1.13874E+02 2.18750E+00 0.00000E+00
 -1       266 1.16874E+02 2.18750E+00 0.00000E+00
 -1       267 1.19874E+02 2.18750E+00 0.00000E+00
 -1       268 1.22874E+02 2.18750E+00 0.00000E+00
 -1       269 1.25874E+02 2.18750E+00 0.00000E+00
 -1       270 1.28874E+02 2.18750E+00 0.00000E+00
 -1       271 1.31874E+02 2.18750E+00 0.00000E+00
 -1       272 1.34874E+02 2.18750E+00 0.00000E+00
 -1       273 1.37874E+02 2.18750E+00 0.00000E+00
 -1       274 1.40874E+02 2.18750E+00 0.00000E+00
 -1       275 1.43874E+02 2.18750E+00 0.00000E+00
 -1       276 1.46874E+02 2.18750E+00 0.00000E+00
 -1       277 1.47402E+02 4.42500E+00 0.00000E+00
 -1       278 1.47402E+02 7.37500E+00 0.00000E+00
 -1       279 1.47402E+02 1.03250E+01 0.00000E+00
 -1       280 1.47402E+02 1.32750E+01 0.00000E+00
 -1       281 1.47402E+02 1.61750E+01 0.00000E+00
 -1       282 1.47402E+02 1.91250E+01 0.00000E+00
 -1       283 1.47402E+02 2.20750E+01 0.00000E+00
 -1       284 1.47402E+02 2.50250E+01 0.00000E+00
 -1       285 1.47402E+02 2.79750E+01 0.00000E+00
 -1       286 1.47402E+02 3.09250E+01 0.00000E+00
 -1       287 1.47402E+02 3.38250E+01 0.00000E+00
 -1       288 1.47402E+02 3.67750E+01 0.00000E+00
 -1       289 1.47402E+02 3.97250E+01 0.00000E+00
 -1       290 1.47402E+02 4.26750E+01 0.00000E+00
 -1       291 1.46526E+02 4.50385E+01 0.00000E+00
 -1       292 8.32011E+01 2.10014E+01 0.00000E+00
 -1       293 8.29094E+01 1.92648E+01 0.00000E+00
 -1       294 8.21738E+01 1.76272E+01 0.00000E+00
 -1       295 8.10976E+01 1.63112E+01 0.00000E+00
 -1       296 7.98838E+01 1.50283E+01 0.00000E+00
 -1       297 7.83450E+01 1.39833E+01 0.00000E+00
 -1       298 7.65566E+01 1.37106E+01 0.00000E+00
 -1       299 7.47701E+01 1.35015E+01 0.00000E+00
 -1       300 7.30350E+01 1.39146E+01 0.00000E+00
 -1       301 7.14111E+01 1.45251E+01 0.00000E+00
 -1       302 6.98429E+01 1.54456E+01 0.00000E+00
 -1       303 6.85631E+01 1.67498E+01 0.00000E+00
 -1       304 6.76300E+01 1.82443E+01 0.00000E+00
 -1       305 6.71295E+01 1.98768E+01 0.00000E+00
 -1       306 6.67341E+01 2.16097E+01 0.00000E+00
 -1       307 6.70389E+01 2.33703E+01 0.00000E+00
 -1       308 6.75292E+01 2.49951E+01 0.00000E+00
 -1       309 6.83308E+01 2.64664E+01 0.00000E+00
 -1       310 6.94014E+01 2.77278E+01 0.00000E+00
 -1       311 7.06806E+01 2.87352E+01 0.00000E+00
 -1       312 7.21331E+01 2.94648E+01 0.00000E+00
 -1       313 7.37575E+01 3.00679E+01 0.00000E+00
 -1       314 7.54566E+01 3.00029E+01 0.00000E+00
 -1       315 7.70872E+01 2.98412E+01 0.00000E+00
 -1       316 7.86279E+01 2.91934E+01 0.00000E+00
 -1       317 8.00134E+01 2.83463E+01 0.00000E+00
 -1       318 8.11960E+01 2.72467E+01 0.00000E+00
 -1       319 8.21624E+01 2.58926E+01 0.00000E+00
 -1       320 8.29239E+01 2.43821E+01 0.00000E+00
 -1       321 8.33614E+01 2.27143E+01 0.00000E+00
 -1       322 5.19600E+00 4.11500E+01 0.00000E+00
 -1       323 5.19600E+00 4.41000E+01 0.00000E+00
 -1       324 5.19600E+00 3.52750E+01 0.00000E+00
 -1       325 5.19600E+00 3.23250E+01 0.00000E+00
 -1       326 5.19600E+00 2.93750E+01 0.00000E+00
 -1       327 5.19600E+00 2.64250E+01 0.00000E+00
 -1       328 5.19600E+00 2.34750E+01 0.00000E+00
 -1       329 5.19600E+00 2.05250E+01 0.00000E+00
 -1       330 5.19600E+00 1.76250E+01 0.00000E+00
 -1       331 5.19600E+00 1.46750E+01 0.00000E+00
 -1       332 5.19600E+00 1.17250E+01 0.00000E+00
 -1       333 5.19600E+00 8.77500E+00 0.00000E+00
 -1       334 5.19600E+00 5.82500E+00 0.00000E+00
 -1       335 5.53500E+00 4.00625E+00 0.00000E+00
 -1       336 8.53500E+00 4.00625E+00 0.00000E+00
 -1       337 9.15000E+00 4.48040E+01 0.00000E+00
 -1       338 1.21500E+01 4.48040E+01 0.00000E+00
 -1       339 1.51500E+01 4.48040E+01 0.00000E+00
 -1       340 1.81500E+01 4.48040E+01 0.00000E+00
 -1       341 2.11500E+01 4.48040E+01 0.00000E+00
 -1       342 2.41500E+01 4.48040E+01 0.00000E+00
 -1       343 2.71500E+01 4.48040E+01 0.00000E+00
 -1       344 3.01500E+01 4.48040E+01 0.00000E+00
 -1       345 3.31500E+01 4.48040E+01 0.00000E+00
 -1       346 3.61500E+01 4.48040E+01 0.00000E+00
 -1       347 3.91500E+01 4.48040E+01 0.00000E+00
 -1       348 4.21500E+01 4.48040E+01 0.00000E+00
 -1       349 4.51500E+01 4.48040E+01 0.00000E+00
 -1       350 4.81500E+01 4.48040E+01 0.00000E+00
 -1       351 5.11500E+01 4.48040E+01 0.00000E+00
 -1       352 5.41500E+01 4.48040E+01 0.00000E+00
 -1       353 5.71500E+01 4.48040E+01 0.00000E+00
 -1       354 6.01500E+01 4.48040E+01 0.00000E+00
 -1       355 6.31500E+01 4.48040E+01 0.00000E+00
 -1       356 6.61500E+01 4.48040E+01 0.00000E+00
 -1       357 6.91500E+01 4.48040E+01 0.00000E+00
 -1       358 7.21500E+01 4.48040E+01 0.00000E+00
 -1       359 7.51500E+01 4.48040E+01 0.00000E+00
 -1       360 7.81500E+01 4.48040E+01 0.00000E+00
 -1       361 8.11500E+01 4.48040E+01 0.00000E+00
 -1       362 8.41500E+01 4.48040E+01 0.00000E+00
 -1       363 8.71500E+01 4.48040E+01 0.00000E+00
 -1       364 9.01500E+01 4.48040E+01 0.00000E+00
 -1       365 9.31500E+01 4.48040E+01 0.00000E+00
 -1       366 9.61500E+01 4.48040E+01 0.00000E+00
 -1       367 9.91500E+01 4.48040E+01 0.00000E+00
 -1       368 1.02150E+02 4.48040E+01 0.00000E+00
 -1       369 1.05150E+02 4.48040E+01 0.00000E+00
 -1       370 1.08150E+02 4.48040E+01 0.00000E+00
 -1       371 1.11150E+02 4.48040E+01 0.00000E+00
 -1       372 1.14150E+02 4.48040E+01 0.00000E+00
 -1       373 1.17150E+02 4.48040E+01 0.00000E+00
 -1       374 1.20150E+02 4.48040E+01 0.00000E+00
 -1       375 1.23150E+02 4.48040E+01 0.00000E+00
 -1       376 1.26150E+02 4.48040E+01 0.00000E+00
 -1       377 1.29150E+02 4.48040E+01 0.00000E+00
 -1       378 1.32150E+02 4.48040E+01 0.00000E+00
 -1       379 1.35150E+02 4.48040E+01 0.00000E+00
 -1       380 1.38150E+02 4.48040E+01 0.00000E+00
 -1       381 1.41150E+02 4.48040E+01 0.00000E+00
 -1       382 1.43838E+02 4.49212E+01 0.00000E+00
 -1       383 1.15350E+01 4.00625E+00 0.00000E+00
 -1       384 1.45350E+01 4.00625E+00 0.00000E+00
 -1       385 1.75350E+01 4.00625E+00 0.00000E+00
 -1       386 2.05350E+01 4.00625E+00 0.00000E+00
 -1       387 2.35350E+01 4.00625E+00 0.00000E+00
 -1       388 2.65350E+01 4.00625E+00 0.00000E+00
 -1       389 2.95350E+01 4.00625E+00 0.00000E+00
 -1       390 3.25350E+01 4.00625E+00 0.00000E+00
 -1       391 3.55350E+01 4.00625E+00 0.00000E+00
 -1       392 3.85350E+01 4.00625E+00 0.00000E+00
 -1       393 4.15350E+01 4.00625E+00 0.00000E+00
 -1       394 4.45350E+01 4.00625E+00 0.00000E+00
 -1       395 4.75350E+01 4.00625E+00 0.00000E+00
 -1       396 5.05350E+01 4.00625E+00 0.00000E+00
 -1       397 5.35350E+01 4.00625E+00 0.00000E+00
 -1       398 5.65350E+01 4.00625E+00 0.00000E+00
 -1       399 5.95350E+01 4.00625E+00 0.00000E+00
 -1       400 6.25350E+01 4.00625E+00 0.00000E+00
 -1       401 6.55350E+01 4.00625E+00 0.00000E+00
 -1       402 6.85350E+01 4.00625E+00 0.00000E+00
 -1       403 7.15350E+01 4.00625E+00 0.00000E+00
 -1       404 7.45350E+01 4.00625E+00 0.00000E+00
 -1       405 7.75350E+01 4.00625E+00 0.00000E+00
 -1       406 8.05350E+01 4.00625E+00 0.00000E+00
 -1       407 8.35350E+01 4.00625E+00 0.00000E+00
 -1       408 8.65350E+01 4.00625E+00 0.00000E+00
 -1       409 8.95350E+01 4.00625E+00 0.00000E+00
 -1       410 9.25350E+01 4.00625E+00 0.00000E+00
 -1       411 9.55350E+01 4.00625E+00 0.00000E+00
 -1       412 9.85350E+01 4.00625E+00 0.00000E+00
 -1       413 1.01535E+02 4.00625E+00 0.00000E+00
 -1       414 1.04535E+02 4.00625E+00 0.00000E+00
 -1       415 1.07535E+02 4.00625E+00 0.00000E+00
 -1       416 1.10535E+02 4.00625E+00 0.00000E+00
 -1       417 1.13535E+02 4.00625E+00 0.00000E+00
 -1       418 1.16535E+02 4.00625E+00 0.00000E+00
 -1       419 1.19535E+02 4.00625E+00 0.00000E+00
 -1       420 1.22535E+02 4.00625E+00 0.00000E+00
 -1       421 1.25535E+02 4.00625E+00 0.00000E+00
 -1       422 1.28535E+02 4.00625E+00 0.00000E+00
 -1       423 1.31535E+02 4.00625E+00 0.00000E+00
 -1       424 1.34535E+02 4.00625E+00 0.00000E+00
 -1       425 1.37535E+02 4.00625E+00 0.00000E+00
 -1       426 1.40535E+02 4.00625E+00 0.00000E+00
 -1       427 1.43535E+02 4.00625E+00 0.00000E+00
 -1       428 1.45469E+02 4.21562E+00 0.00000E+00
 -1       429 1.44804E+02 1.18000E+01 0.00000E+00
 -1       430 1.44804E+02 8.85000E+00 0.00000E+00
 -1       431 1.45136E+02 6.53281E+00 0.00000E+00
 -1       432 1.44804E+02 1.47000E+01 0.00000E+00
 -1       433 1.44804E+02 1.76500E+01 0.00000E+00
 -1       434 1.44804E+02 2.06000E+01 0.00000E+00
 -1       435 1.44804E+02 2.35500E+01 0.00000E+00
 -1       436 1.44804E+02 2.65000E+01 0.00000E+00
 -1       437 1.44804E+02 2.94500E+01 0.00000E+00
 -1       438 1.44804E+02 3.23500E+01 0.00000E+00
 -1       439 1.44804E+02 3.53000E+01 0.00000E+00
 -1       440 1.44804E+02 3.82500E+01 0.00000E+00
 -1       441 1.44804E+02 4.12000E+01 0.00000E+00
 -1       442 8.41061E+01 1.77432E+01 0.00000E+00
 -1       443 8.48221E+01 2.17138E+01 0.00000E+00
 -1       444 8.45303E+01 1.99771E+01 0.00000E+00
 -1       445 8.29633E+01 1.58834E+01 0.00000E+00
 -1       446 8.17496E+01 1.46004E+01 0.00000E+00
 -1       447 5.19600E+00 3.82125E+01 0.00000E+00
 -1       448 7.76462E+01 1.25655E+01 0.00000E+00
 -1       449 7.58432E+01 1.20690E+01 0.00000E+00
 -1       450 7.35441E+01 1.22026E+01 0.00000E+00
 -1       451 7.17374E+01 1.29282E+01 0.00000E+00
 -1       452 6.98861E+01 1.37230E+01 0.00000E+00
 -1       453 6.82778E+01 1.51898E+01 0.00000E+00
 -1       454 6.69260E+01 1.67662E+01 0.00000E+00
 -1       455 6.60604E+01 1.86561E+01 0.00000E+00
 -1       456 6.54230E+01 2.03990E+01 0.00000E+00
 -1       457 6.55267E+01 2.27254E+01 0.00000E+00
 -1       458 6.60431E+01 2.45571E+01 0.00000E+00
 -1       459 6.67918E+01 2.63509E+01 0.00000E+00
 -1       460 6.78140E+01 2.79901E+01 0.00000E+00
 -1       461 6.91872E+01 2.93156E+01 0.00000E+00
 -1       462 7.07122E+01 3.04829E+01 0.00000E+00
 -1       463 7.24650E+01 3.10600E+01 0.00000E+00
 -1       464 7.46726E+01 3.17492E+01 0.00000E+00
 -1       465 7.63032E+01 3.15875E+01 0.00000E+00
 -1       466 7.84248E+01 3.08666E+01 0.00000E+00
 -1       467 7.99968E+01 2.98758E+01 0.00000E+00
 -1       468 8.14874E+01 2.87457E+01 0.00000E+00
 -1       469 8.30752E+01 2.75660E+01 0.00000E+00
 -1       470 8.38367E+01 2.60554E+01 0.00000E+00
 -1       471 8.44774E+01 2.38984E+01 0.00000E+00
 -1       472 8.00779E+01 1.30869E+01 0.00000E+00
 -1       473 1.00350E+01 6.60425E+00 0.00000E+00
 -1       474 7.79400E+00 3.08500E+01 0.00000E+00
 -1       475 7.79400E+00 3.38000E+01 0.00000E+00
 -1       476 7.79400E+00 2.49500E+01 0.00000E+00
 -1       477 7.79400E+00 2.20000E+01 0.00000E+00
 -1       478 7.79400E+00 1.91000E+01 0.00000E+00
 -1       479 7.79400E+00 1.61500E+01 0.00000E+00
 -1       480 7.79400E+00 1.32000E+01 0.00000E+00
 -1       481 7.79400E+00 1.02500E+01 0.00000E+00
 -1       482 1.30350E+01 6.60425E+00 0.00000E+00
 -1       483 1.06500E+01 4.22060E+01 0.00000E+00
 -1       484 7.20016E+01 1.09738E+01 0.00000E+00
 -1       485 1.36500E+01 4.22060E+01 0.00000E+00
 -1       486 1.66500E+01 4.22060E+01 0.00000E+00
 -1       487 1.96500E+01 4.22060E+01 0.00000E+00
 -1       488 2.26500E+01 4.22060E+01 0.00000E+00
 -1       489 2.56500E+01 4.22060E+01 0.00000E+00
 -1       490 2.86500E+01 4.22060E+01 0.00000E+00
 -1       491 3.16500E+01 4.22060E+01 0.00000E+00
 -1       492 3.46500E+01 4.22060E+01 0.00000E+00
 -1       493 3.76500E+01 4.22060E+01 0.00000E+00
 -1       494 4.06500E+01 4.22060E+01 0.00000E+00
 -1       495 4.36500E+01 4.22060E+01 0.00000E+00
 -1       496 4.66500E+01 4.22060E+01 0.00000E+00
 -1       497 4.96500E+01 4.22060E+01 0.00000E+00
 -1       498 5.26500E+01 4.22060E+01 0.00000E+00
 -1       499 5.56500E+01 4.22060E+01 0.00000E+00
 -1       500 5.86500E+01 4.22060E+01 0.00000E+00
 -1       501 6.16500E+01 4.22060E+01 0.00000E+00
 -1       502 6.46500E+01 4.22060E+01 0.00000E+00
 -1       503 6.76500E+01 4.22060E+01 0.00000E+00
 -1       504 7.06500E+01 4.22060E+01 0.00000E+00
 -1       505 7.36500E+01 4.22060E+01 0.00000E+00
 -1       506 7.66500E+01 4.22060E+01 0.00000E+00
 -1       507 7.96500E+01 4.22060E+01 0.00000E+00
 -1       508 8.26500E+01 4.22060E+01 0.00000E+00
 -1       509 8.56500E+01 4.22060E+01 0.00000E+00
 -1       510 8.86500E+01 4.22060E+01 0.00000E+00
 -1       511 9.16500E+01 4.22060E+01 0.00000E+00
 -1       512 9.46500E+01 4.22060E+01 0.00000E+00
 -1       513 9.76500E+01 4.22060E+01 0.00000E+00
 -1       514 1.00650E+02 4.22060E+01 0.00000E+00
 -1       515 1.03650E+02 4.22060E+01 0.00000E+00
 -1       516 1.06650E+02 4.22060E+01 0.00000E+00
 -1       517 1.09650E+02 4.22060E+01 0.00000E+00
 -1       518 1.12650E+02 4.22060E+01 0.00000E+00
 -1       519 1.15650E+02 4.22060E+01 0.00000E+00
 -1       520 1.18650E+02 4.22060E+01 0.00000E+00
 -1       521 1.21650E+02 4.22060E+01 0.00000E+00
 -1       522 1.24650E+02 4.22060E+01 0.00000E+00
 -1       523 1.27650E+02 4.22060E+01 0.00000E+00
 -1       524 1.30650E+02 4.22060E+01 0.00000E+00
 -1       525 1.33650E+02 4.22060E+01 0.00000E+00
 -1       526 1.36650E+02 4.22060E+01 0.00000E+00
 -1       527 1.39650E+02 4.22060E+01 0.00000E+00
 -1       528 1.90350E+01 6.60425E+00 0.00000E+00
 -1       529 2.20350E+01 6.60425E+00 0.00000E+00
 -1       530 2.50350E+01 6.60425E+00 0.00000E+00
 -1       531 2.80350E+01 6.60425E+00 0.00000E+00
 -1       532 3.10350E+01 6.60425E+00 0.00000E+00
 -1       533 3.40350E+01 6.60425E+00 0.00000E+00
 -1       534 3.70350E+01 6.60425E+00 0.00000E+00
 -1       535 4.00350E+01 6.60425E+00 0.00000E+00
 -1       536 4.30350E+01 6.60425E+00 0.00000E+00
 -1       537 4.60350E+01 6.60425E+00 0.00000E+00
 -1       538 4.90350E+01 6.60425E+00 0.00000E+00
 -1       539 5.20350E+01 6.60425E+00 0.00000E+00
 -1       540 5.50350E+01 6.60425E+00 0.00000E+00
 -1       541 5.80350E+01 6.60425E+00 0.00000E+00
 -1       542 6.10350E+01 6.60425E+00 0.00000E+00
 -1       543 6.40350E+01 6.60425E+00 0.00000E+00
 -1       544 6.70350E+01 6.60425E+00 0.00000E+00
 -1       545 7.00350E+01 6.60425E+00 0.00000E+00
 -1       546 7.30350E+01 6.60425E+00 0.00000E+00
 -1       547 7.60350E+01 6.60425E+00 0.00000E+00
 -1       548 7.90350E+01 6.60425E+00 0.00000E+00
 -1       549 8.20350E+01 6.60425E+00 0.00000E+00
 -1       550 8.50350E+01 6.60425E+00 0.00000E+00
 -1       551 8.80350E+01 6.60425E+00 0.00000E+00
 -1       552 9.10350E+01 6.60425E+00 0.00000E+00
 -1       553 9.40350E+01 6.60425E+00 0.00000E+00
 -1       554 9.70350E+01 6.60425E+00 0.00000E+00
 -1       555 1.00035E+02 6.60425E+00 0.00000E+00
 -1       556 1.03035E+02 6.60425E+00 0.00000E+00
 -1       557 1.06035E+02 6.60425E+00 0.00000E+00
 -1       558 1.09035E+02 6.60425E+00 0.00000E+00
 -1       559 1.12035E+02 6.60425E+00 0.00000E+00
 -1       560 1.15035E+02 6.60425E+00 0.00000E+00
 -1       561 1.18035E+02 6.60425E+00 0.00000E+00
 -1       562 1.21035E+02 6.60425E+00 0.00000E+00
 -1       563 1.24035E+02 6.60425E+00 0.00000E+00
 -1       564 1.27035E+02 6.60425E+00 0.00000E+00
 -1       565 1.30035E+02 6.60425E+00 0.00000E+00
 -1       566 1.33035E+02 6.60425E+00 0.00000E+00
 -1       567 1.36035E+02 6.60425E+00 0.00000E+00
 -1       568 1.39035E+02 6.60425E+00 0.00000E+00
 -1       569 1.42035E+02 6.60425E+00 0.00000E+00
 -1       570 1.42206E+02 1.61750E+01 0.00000E+00
 -1       571 1.42206E+02 1.91250E+01 0.00000E+00
 -1       572 1.42206E+02 1.03250E+01 0.00000E+00
 -1       573 1.42206E+02 1.32500E+01 0.00000E+00
 -1       574 1.42206E+02 2.20750E+01 0.00000E+00
 -1       575 1.42206E+02 2.50250E+01 0.00000E+00
 -1       576 1.42206E+02 2.79750E+01 0.00000E+00
 -1       577 1.42206E+02 3.08750E+01 0.00000E+00
 -1       578 1.42206E+02 3.38250E+01 0.00000E+00
 -1       579 1.42206E+02 3.67750E+01 0.00000E+00
 -1       580 1.42206E+02 3.97250E+01 0.00000E+00
 -1       581 8.51388E+01 1.58277E+01 0.00000E+00
 -1       582 8.62611E+01 2.30603E+01 0.00000E+00
 -1       583 1.60350E+01 6.60425E+00 0.00000E+00
 -1       584 8.63676E+01 2.05613E+01 0.00000E+00
 -1       585 8.35415E+01 1.41208E+01 0.00000E+00
 -1       586 7.92300E+00 4.16780E+01 0.00000E+00
 -1       587 8.32042E+01 2.93981E+01 0.00000E+00
 -1       588 7.30577E+01 3.30418E+01 0.00000E+00
 -1       589 7.79400E+00 2.79000E+01 0.00000E+00
 -1       590 7.45942E+01 1.04235E+01 0.00000E+00
 -1       591 7.99914E+01 3.16095E+01 0.00000E+00
 -1       592 7.91864E+01 1.13131E+01 0.00000E+00
 -1       593 7.73835E+01 1.08165E+01 0.00000E+00
 -1       594 7.01503E+01 1.17686E+01 0.00000E+00
 -1       595 6.79826E+01 1.32511E+01 0.00000E+00
 -1       596 6.62999E+01 1.48615E+01 0.00000E+00
 -1       597 6.50862E+01 1.70667E+01 0.00000E+00
 -1       598 6.42096E+01 1.89672E+01 0.00000E+00
 -1       599 6.37615E+01 2.16386E+01 0.00000E+00
 -1       600 6.41341E+01 2.41066E+01 0.00000E+00
 -1       601 6.48829E+01 2.59004E+01 0.00000E+00
 -1       602 6.58476E+01 2.80781E+01 0.00000E+00
 -1       603 6.71931E+01 3.00074E+01 0.00000E+00
 -1       604 6.87181E+01 3.11746E+01 0.00000E+00
 -1       605 7.13049E+01 3.24647E+01 0.00000E+00
 -1       606 7.56903E+01 3.37086E+01 0.00000E+00
 -1       607 7.78119E+01 3.29877E+01 0.00000E+00
 -1       608 8.17136E+01 3.05281E+01 0.00000E+00
 -1       609 8.49875E+01 2.75828E+01 0.00000E+00
 -1       610 8.56282E+01 2.54257E+01 0.00000E+00
 -1       611 8.59434E+01 1.83274E+01 0.00000E+00
 -1       612 7.61550E+00 6.21462E+00 0.00000E+00
 -1       613 8.19524E+01 1.26965E+01 0.00000E+00
 -1       614 7.79400E+00 3.67375E+01 0.00000E+00
 -1       615 8.10610E+01 1.09226E+01 0.00000E+00
 -1       616 1.41678E+02 4.22645E+01 0.00000E+00
 -1       617 7.85850E+00 3.92077E+01 0.00000E+00
 -1       618 1.03920E+01 2.05500E+01 0.00000E+00
 -1       619 1.03920E+01 2.35000E+01 0.00000E+00
 -1       620 1.03920E+01 1.46750E+01 0.00000E+00
 -1       621 1.03920E+01 1.17250E+01 0.00000E+00
 -1       622 1.15350E+01 9.20225E+00 0.00000E+00
 -1       623 6.91713E+01 3.35045E+01 0.00000E+00
 -1       624 1.51500E+01 3.96080E+01 0.00000E+00
 -1       625 1.81500E+01 3.96080E+01 0.00000E+00
 -1       626 2.11500E+01 3.96080E+01 0.00000E+00
 -1       627 2.41500E+01 3.96080E+01 0.00000E+00
 -1       628 2.71500E+01 3.96080E+01 0.00000E+00
 -1       629 3.01500E+01 3.96080E+01 0.00000E+00
 -1       630 3.31500E+01 3.96080E+01 0.00000E+00
 -1       631 3.61500E+01 3.96080E+01 0.00000E+00
 -1       632 3.91500E+01 3.96080E+01 0.00000E+00
 -1       633 4.21500E+01 3.96080E+01 0.00000E+00
 -1       634 4.51500E+01 3.96080E+01 0.00000E+00
 -1       635 4.81500E+01 3.96080E+01 0.00000E+00
 -1       636 5.11500E+01 3.96080E+01 0.00000E+00
 -1       637 5.41500E+01 3.96080E+01 0.00000E+00
 -1       638 5.71500E+01 3.96080E+01 0.00000E+00
 -1       639 6.01500E+01 3.96080E+01 0.00000E+00
 -1       640 6.31500E+01 3.96080E+01 0.00000E+00
 -1       641 6.61500E+01 3.96080E+01 0.00000E+00
 -1       642 6.91500E+01 3.96080E+01 0.00000E+00
 -1       643 7.21500E+01 3.96080E+01 0.00000E+00
 -1       644 7.51500E+01 3.96080E+01 0.00000E+00
 -1       645 7.81500E+01 3.96080E+01 0.00000E+00
 -1       646 8.11500E+01 3.96080E+01 0.00000E+00
 -1       647 8.41500E+01 3.96080E+01 0.00000E+00
 -1       648 8.71500E+01 3.96080E+01 0.00000E+00
 -1       649 9.01500E+01 3.96080E+01 0.00000E+00
 -1       650 9.31500E+01 3.96080E+01 0.00000E+00
 -1       651 9.61500E+01 3.96080E+01 0.00000E+00
 -1       652 9.91500E+01 3.96080E+01 0.00000E+00
 -1       653 1.02150E+02 3.96080E+01 0.00000E+00
 -1       654 1.05150E+02 3.96080E+01 0.00000E+00
 -1       655 1.08150E+02 3.96080E+01 0.00000E+00
 -1       656 1.11150E+02 3.96080E+01 0.00000E+00
 -1       657 1.14150E+02 3.96080E+01 0.00000E+00
 -1       658 1.17150E+02 3.96080E+01 0.00000E+00
 -1       659 1.20150E+02 3.96080E+01 0.00000E+00
 -1       660 1.23150E+02 3.96080E+01 0.00000E+00
 -1       661 1.26150E+02 3.96080E+01 0.00000E+00
 -1       662 1.29150E+02 3.96080E+01 0.00000E+00
 -1       663 1.32150E+02 3.96080E+01 0.00000E+00
 -1       664 1.35150E+02 3.96080E+01 0.00000E+00
 -1       665 1.38150E+02 3.96080E+01 0.00000E+00
 -1       666 2.35350E+01 9.20225E+00 0.00000E+00
 -1       667 7.97735E+01 3.36774E+01 0.00000E+00
 -1       668 2.05350E+01 9.20225E+00 0.00000E+00
 -1       669 2.95350E+01 9.20225E+00 0.00000E+00
 -1       670 3.25350E+01 9.20225E+00 0.00000E+00
 -1       671 3.55350E+01 9.20225E+00 0.00000E+00
 -1       672 3.85350E+01 9.20225E+00 0.00000E+00
 -1       673 4.15350E+01 9.20225E+00 0.00000E+00
 -1       674 4.45350E+01 9.20225E+00 0.00000E+00
 -1       675 4.75350E+01 9.20225E+00 0.00000E+00
 -1       676 5.05350E+01 9.20225E+00 0.00000E+00
 -1       677 5.35350E+01 9.20225E+00 0.00000E+00
 -1       678 5.65350E+01 9.20225E+00 0.00000E+00
 -1       679 5.95350E+01 9.20225E+00 0.00000E+00
 -1       680 6.25350E+01 9.20225E+00 0.00000E+00
 -1       681 6.55350E+01 9.20225E+00 0.00000E+00
 -1       682 6.85350E+01 9.20225E+00 0.00000E+00
 -1       683 8.65350E+01 9.20225E+00 0.00000E+00
 -1       684 8.95350E+01 9.20225E+00 0.00000E+00
 -1       685 9.25350E+01 9.20225E+00 0.00000E+00
 -1       686 9.55350E+01 9.20225E+00 0.00000E+00
 -1       687 9.85350E+01 9.20225E+00 0.00000E+00
 -1       688 1.01535E+02 9.20225E+00 0.00000E+00
 -1       689 1.04535E+02 9.20225E+00 0.00000E+00
 -1       690 1.07535E+02 9.20225E+00 0.00000E+00
 -1       691 1.10535E+02 9.20225E+00 0.00000E+00
 -1       692 1.13535E+02 9.20225E+00 0.00000E+00
 -1       693 1.16535E+02 9.20225E+00 0.00000E+00
 -1       694 1.19535E+02 9.20225E+00 0.00000E+00
 -1       695 1.22535E+02 9.20225E+00 0.00000E+00
 -1       696 1.25535E+02 9.20225E+00 0.00000E+00
 -1       697 1.28535E+02 9.20225E+00 0.00000E+00
 -1       698 1.31535E+02 9.20225E+00 0.00000E+00
 -1       699 1.34535E+02 9.20225E+00 0.00000E+00
 -1       700 1.37535E+02 9.20225E+00 0.00000E+00
 -1       701 1.39870E+02 9.76363E+00 0.00000E+00
 -1       702 1.39608E+02 2.35500E+01 0.00000E+00
 -1       703 1.40178E+02 3.96665E+01 0.00000E+00
 -1       704 1.39608E+02 1.76500E+01 0.00000E+00
 -1       705 1.39608E+02 2.65000E+01 0.00000E+00
 -1       706 1.39608E+02 2.06000E+01 0.00000E+00
 -1       707 1.75350E+01 9.20225E+00 0.00000E+00
 -1       708 8.74927E+01 1.64493E+01 0.00000E+00
 -1       709 1.39608E+02 2.94000E+01 0.00000E+00
 -1       710 1.39608E+02 3.23500E+01 0.00000E+00
 -1       711 1.39608E+02 3.53000E+01 0.00000E+00
 -1       712 1.05855E+01 3.97357E+01 0.00000E+00
 -1       713 6.37971E+01 2.76839E+01 0.00000E+00
 -1       714 6.19205E+01 2.31787E+01 0.00000E+00
 -1       715 7.38705E+01 3.53627E+01 0.00000E+00
 -1       716 2.65350E+01 9.20225E+00 0.00000E+00
 -1       717 1.28678E+01 3.96719E+01 0.00000E+00
 -1       718 1.03920E+01 1.76125E+01 0.00000E+00
 -1       719 1.45350E+01 9.20225E+00 0.00000E+00
 -1       720 1.03920E+01 3.23250E+01 0.00000E+00
 -1       721 8.74396E+01 2.46430E+01 0.00000E+00
 -1       722 8.81953E+01 2.18909E+01 0.00000E+00
 -1       723 8.55584E+01 2.99272E+01 0.00000E+00
 -1       724 8.14958E+01 3.25960E+01 0.00000E+00
 -1       725 6.48386E+01 3.02155E+01 0.00000E+00
 -1       726 8.38917E+01 1.21315E+01 0.00000E+00
 -1       727 6.40437E+01 1.50563E+01 0.00000E+00
 -1       728 6.30905E+01 1.72986E+01 0.00000E+00
 -1       729 6.17983E+01 1.99360E+01 0.00000E+00
 -1       730 6.30484E+01 2.58902E+01 0.00000E+00
 -1       731 6.67094E+01 3.22191E+01 0.00000E+00
 -1       732 7.15209E+01 3.44336E+01 0.00000E+00
 -1       733 6.59554E+01 1.28172E+01 0.00000E+00
 -1       734 7.73567E+01 3.51308E+01 0.00000E+00
 -1       735 6.80036E+01 1.09558E+01 0.00000E+00
 -1       736 8.35271E+01 3.12616E+01 0.00000E+00
 -1       737 8.78405E+01 1.91244E+01 0.00000E+00
 -1       738 8.71126E+01 2.70403E+01 0.00000E+00
 -1       739 8.54890E+01 1.38383E+01 0.00000E+00
 -1       740 1.03920E+01 3.52625E+01 0.00000E+00
 -1       741 1.03920E+01 2.64500E+01 0.00000E+00
 -1       742 8.76835E+01 2.93847E+01 0.00000E+00
 -1       743 1.39608E+02 1.47250E+01 0.00000E+00
 -1       744 8.35350E+01 9.20225E+00 0.00000E+00
 -1       745 1.39739E+02 1.22443E+01 0.00000E+00
 -1       746 8.78429E+01 1.44600E+01 0.00000E+00
 -1       747 1.03920E+01 2.93875E+01 0.00000E+00
 -1       748 1.29900E+01 1.32000E+01 0.00000E+00
 -1       749 1.96500E+01 3.70100E+01 0.00000E+00
 -1       750 2.26500E+01 3.70100E+01 0.00000E+00
 -1       751 2.56500E+01 3.70100E+01 0.00000E+00
 -1       752 2.86500E+01 3.70100E+01 0.00000E+00
 -1       753 3.16500E+01 3.70100E+01 0.00000E+00
 -1       754 3.46500E+01 3.70100E+01 0.00000E+00
 -1       755 3.76500E+01 3.70100E+01 0.00000E+00
 -1       756 4.06500E+01 3.70100E+01 0.00000E+00
 -1       757 4.36500E+01 3.70100E+01 0.00000E+00
 -1       758 4.66500E+01 3.70100E+01 0.00000E+00
 -1       759 4.96500E+01 3.70100E+01 0.00000E+00
 -1       760 5.26500E+01 3.70100E+01 0.00000E+00
 -1       761 5.56500E+01 3.70100E+01 0.00000E+00
 -1       762 5.86500E+01 3.70100E+01 0.00000E+00
 -1       763 6.16500E+01 3.70100E+01 0.00000E+00
 -1       764 6.46500E+01 3.70100E+01 0.00000E+00
 -1       765 6.76500E+01 3.70100E+01 0.00000E+00
 -1       766 8.26500E+01 3.70100E+01 0.00000E+00
 -1       767 8.56500E+01 3.70100E+01 0.00000E+00
 -1       768 8.86500E+01 3.70100E+01 0.00000E+00
 -1       769 9.16500E+01 3.70100E+01 0.00000E+00
 -1       770 9.46500E+01 3.70100E+01 0.00000E+00
 -1       771 9.76500E+01 3.70100E+01 0.00000E+00
 -1       772 1.00650E+02 3.70100E+01 0.00000E+00
 -1       773 1.03650E+02 3.70100E+01 0.00000E+00
 -1       774 1.06650E+02 3.70100E+01 0.00000E+00
 -1       775 1.09650E+02 3.70100E+01 0.00000E+00
 -1       776 1.12650E+02 3.70100E+01 0.00000E+00
 -1       777 1.15650E+02 3.70100E+01 0.00000E+00
 -1       778 1.18650E+02 3.70100E+01 0.00000E+00
 -1       779 1.21650E+02 3.70100E+01 0.00000E+00
 -1       780 1.24650E+02 3.70100E+01 0.00000E+00
 -1       781 1.27650E+02 3.70100E+01 0.00000E+00
 -1       782 1.30650E+02 3.70100E+01 0.00000E+00
 -1       783 1.33650E+02 3.70100E+01 0.00000E+00
 -1       784 1.36650E+02 3.70100E+01 0.00000E+00
 -1       785 3.40350E+01 1.18003E+01 0.00000E+00
 -1       786 3.10350E+01 1.18003E+01 0.00000E+00
 -1       787 4.00350E+01 1.18003E+01 0.00000E+00
 -1       788 4.30350E+01 1.18003E+01 0.00000E+00
 -1       789 4.60350E+01 1.18003E+01 0.00000E+00
 -1       790 4.90350E+01 1.18003E+01 0.00000E+00
 -1       791 5.20350E+01 1.18003E+01 0.00000E+00
 -1       792 5.50350E+01 1.18003E+01 0.00000E+00
 -1       793 5.80350E+01 1.18003E+01 0.00000E+00
 -1       794 6.10350E+01 1.18003E+01 0.00000E+00
 -1       795 8.80350E+01 1.18003E+01 0.00000E+00
 -1       796 9.70350E+01 1.18003E+01 0.00000E+00
 -1       797 1.00035E+02 1.18003E+01 0.00000E+00
 -1       798 1.03035E+02 1.18003E+01 0.00000E+00
 -1       799 1.06035E+02 1.18003E+01 0.00000E+00
 -1       800 1.09035E+02 1.18003E+01 0.00000E+00
 -1       801 1.12035E+02 1.18003E+01 0.00000E+00
 -1       802 1.15035E+02 1.18003E+01 0.00000E+00
 -1       803 1.18035E+02 1.18003E+01 0.00000E+00
 -1       804 1.21035E+02 1.18003E+01 0.00000E+00
 -1       805 1.24035E+02 1.18003E+01 0.00000E+00
 -1       806 1.27035E+02 1.18003E+01 0.00000E+00
 -1       807 1.30035E+02 1.18003E+01 0.00000E+00
 -1       808 1.33035E+02 1.18003E+01 0.00000E+00
 -1       809 1.36035E+02 1.18003E+01 0.00000E+00
 -1       810 1.37887E+02 1.20223E+01 0.00000E+00
 -1       811 1.29900E+01 2.20250E+01 0.00000E+00
 -1       812 1.90350E+01 1.18003E+01 0.00000E+00
 -1       813 1.37010E+02 2.50250E+01 0.00000E+00
 -1       814 1.37010E+02 3.38250E+01 0.00000E+00
 -1       815 1.37010E+02 2.79250E+01 0.00000E+00
 -1       816 8.60650E+01 1.16985E+01 0.00000E+00
 -1       817 6.07537E+01 1.77889E+01 0.00000E+00
 -1       818 6.16853E+01 2.75122E+01 0.00000E+00
 -1       819 8.30392E+01 1.10394E+01 0.00000E+00
 -1       820 1.04888E+01 3.74991E+01 0.00000E+00
 -1       821 1.37010E+02 3.08750E+01 0.00000E+00
 -1       822 9.10350E+01 1.18003E+01 0.00000E+00
 -1       823 3.70350E+01 1.18003E+01 0.00000E+00
 -1       824 2.20350E+01 1.18003E+01 0.00000E+00
 -1       825 6.69139E+01 3.48278E+01 0.00000E+00
 -1       826 9.40350E+01 1.18003E+01 0.00000E+00
 -1       827 6.41530E+01 3.27309E+01 0.00000E+00
 -1       828 1.66500E+01 3.70100E+01 0.00000E+00
 -1       829 8.89755E+01 2.60735E+01 0.00000E+00
 -1       830 8.94714E+01 2.37211E+01 0.00000E+00
 -1       831 8.18140E+01 3.50150E+01 0.00000E+00
 -1       832 5.98106E+01 2.16346E+01 0.00000E+00
 -1       833 1.37625E+01 1.12011E+01 0.00000E+00
 -1       834 8.98853E+01 2.02681E+01 0.00000E+00
 -1       835 6.16803E+01 1.53754E+01 0.00000E+00
 -1       836 6.27268E+01 3.00438E+01 0.00000E+00
 -1       837 8.98659E+01 1.75009E+01 0.00000E+00
 -1       838 7.03355E+01 3.70208E+01 0.00000E+00
 -1       839 8.04618E+01 3.66427E+01 0.00000E+00
 -1       840 6.32894E+01 1.21293E+01 0.00000E+00
 -1       841 6.05575E+01 2.48008E+01 0.00000E+00
 -1       842 1.29900E+01 2.49750E+01 0.00000E+00
 -1       843 8.95464E+01 2.84179E+01 0.00000E+00
 -1       844 1.43678E+01 3.70739E+01 0.00000E+00
 -1       845 1.37010E+02 1.61875E+01 0.00000E+00
 -1       846 2.50350E+01 1.18003E+01 0.00000E+00
 -1       847 2.80350E+01 1.18003E+01 0.00000E+00
 -1       848 1.63988E+01 1.15007E+01 0.00000E+00
 -1       849 9.11613E+01 2.20984E+01 0.00000E+00
 -1       850 1.29900E+01 1.61375E+01 0.00000E+00
 -1       851 1.29900E+01 1.90875E+01 0.00000E+00
 -1       852 1.37010E+02 1.91375E+01 0.00000E+00
 -1       853 1.37010E+02 2.20812E+01 0.00000E+00
 -1       854 8.57605E+01 3.24480E+01 0.00000E+00
 -1       855 5.87661E+01 1.94876E+01 0.00000E+00
 -1       856 9.02161E+01 1.55116E+01 0.00000E+00
 -1       857 8.78856E+01 3.19056E+01 0.00000E+00
 -1       858 1.29900E+01 3.08563E+01 0.00000E+00
 -1       859 8.48000E+01 1.04504E+01 0.00000E+00
 -1       860 8.37872E+01 3.37315E+01 0.00000E+00
 -1       861 1.29900E+01 3.37938E+01 0.00000E+00
 -1       862 2.11500E+01 3.44120E+01 0.00000E+00
 -1       863 2.41500E+01 3.44120E+01 0.00000E+00
 -1       864 2.71500E+01 3.44120E+01 0.00000E+00
 -1       865 3.01500E+01 3.44120E+01 0.00000E+00
 -1       866 3.31500E+01 3.44120E+01 0.00000E+00
 -1       867 3.61500E+01 3.44120E+01 0.00000E+00
 -1       868 3.91500E+01 3.44120E+01 0.00000E+00
 -1       869 4.21500E+01 3.44120E+01 0.00000E+00
 -1       870 4.51500E+01 3.44120E+01 0.00000E+00
 -1       871 4.81500E+01 3.44120E+01 0.00000E+00
 -1       872 5.11500E+01 3.44120E+01 0.00000E+00
 -1       873 5.41500E+01 3.44120E+01 0.00000E+00
 -1       874 5.71500E+01 3.44120E+01 0.00000E+00
 -1       875 6.01500E+01 3.44120E+01 0.00000E+00
 -1       876 2.05350E+01 1.43982E+01 0.00000E+00
 -1       877 8.71500E+01 3.44120E+01 0.00000E+00
 -1       878 9.01500E+01 3.44120E+01 0.00000E+00
 -1       879 9.31500E+01 3.44120E+01 0.00000E+00
 -1       880 9.61500E+01 3.44120E+01 0.00000E+00
 -1       881 9.91500E+01 3.44120E+01 0.00000E+00
 -1       882 1.02150E+02 3.44120E+01 0.00000E+00
 -1       883 1.05150E+02 3.44120E+01 0.00000E+00
 -1       884 1.08150E+02 3.44120E+01 0.00000E+00
 -1       885 1.11150E+02 3.44120E+01 0.00000E+00
 -1       886 1.14150E+02 3.44120E+01 0.00000E+00
 -1       887 1.17150E+02 3.44120E+01 0.00000E+00
 -1       888 1.20150E+02 3.44120E+01 0.00000E+00
 -1       889 1.23150E+02 3.44120E+01 0.00000E+00
 -1       890 1.26150E+02 3.44120E+01 0.00000E+00
 -1       891 1.29150E+02 3.44120E+01 0.00000E+00
 -1       892 1.32150E+02 3.44120E+01 0.00000E+00
 -1       893 1.34580E+02 3.41185E+01 0.00000E+00
 -1       894 4.45350E+01 1.43982E+01 0.00000E+00
 -1       895 4.15350E+01 1.43982E+01 0.00000E+00
 -1       896 5.05350E+01 1.43982E+01 0.00000E+00
 -1       897 5.35350E+01 1.43982E+01 0.00000E+00
 -1       898 5.65350E+01 1.43982E+01 0.00000E+00
 -1       899 1.37449E+02 1.41049E+01 0.00000E+00
 -1       900 1.01535E+02 1.43982E+01 0.00000E+00
 -1       901 5.92284E+01 2.69440E+01 0.00000E+00
 -1       902 9.85350E+01 1.43982E+01 0.00000E+00
 -1       903 1.07535E+02 1.43982E+01 0.00000E+00
 -1       904 1.10535E+02 1.43982E+01 0.00000E+00
 -1       905 1.13535E+02 1.43982E+01 0.00000E+00
 -1       906 1.16535E+02 1.43982E+01 0.00000E+00
 -1       907 1.19535E+02 1.43982E+01 0.00000E+00
 -1       908 1.22535E+02 1.43982E+01 0.00000E+00
 -1       909 1.25535E+02 1.43982E+01 0.00000E+00
 -1       910 1.28535E+02 1.43982E+01 0.00000E+00
 -1       911 1.31535E+02 1.43982E+01 0.00000E+00
 -1       912 5.93029E+01 1.58474E+01 0.00000E+00
 -1       913 1.34412E+02 2.64750E+01 0.00000E+00
 -1       914 5.80255E+01 2.37269E+01 0.00000E+00
 -1       915 1.29900E+01 2.79188E+01 0.00000E+00
 -1       916 9.55350E+01 1.43982E+01 0.00000E+00
 -1       917 1.81500E+01 3.44120E+01 0.00000E+00
 -1       918 9.20934E+01 1.88690E+01 0.00000E+00
 -1       919 6.11451E+01 3.26053E+01 0.00000E+00
 -1       920 4.75350E+01 1.43982E+01 0.00000E+00
 -1       921 3.25350E+01 1.43982E+01 0.00000E+00
 -1       922 9.13935E+01 2.53548E+01 0.00000E+00
 -1       923 6.02699E+01 2.94755E+01 0.00000E+00
 -1       924 1.04535E+02 1.43982E+01 0.00000E+00
 -1       925 1.34412E+02 2.35313E+01 0.00000E+00
 -1       926 9.19645E+01 2.76992E+01 0.00000E+00
 -1       927 5.69809E+01 2.15798E+01 0.00000E+00
 -1       928 1.75351E+01 1.43983E+01 0.00000E+00
 -1       929 1.34580E+02 3.11685E+01 0.00000E+00
 -1       930 2.95350E+01 1.43982E+01 0.00000E+00
 -1       931 3.85350E+01 1.43982E+01 0.00000E+00
 -1       932 1.46944E+01 1.38191E+01 0.00000E+00
 -1       933 2.35350E+01 1.43982E+01 0.00000E+00
 -1       934 1.34535E+02 1.43982E+01 0.00000E+00
 -1       935 5.73153E+01 1.75460E+01 0.00000E+00
 -1       936 1.58678E+01 3.44759E+01 0.00000E+00
 -1       937 1.55880E+01 3.23250E+01 0.00000E+00
 -1       938 1.55880E+01 2.93875E+01 0.00000E+00
 -1       939 8.97485E+01 3.09387E+01 0.00000E+00
 -1       940 1.55880E+01 2.05562E+01 0.00000E+00
 -1       941 9.25350E+01 1.43982E+01 0.00000E+00
 -1       942 1.34412E+02 1.76625E+01 0.00000E+00
 -1       943 9.24436E+01 1.68797E+01 0.00000E+00
 -1       944 3.55350E+01 1.43982E+01 0.00000E+00
 -1       945 1.34496E+02 2.88218E+01 0.00000E+00
 -1       946 1.55880E+01 2.35063E+01 0.00000E+00
 -1       947 1.96500E+01 3.18140E+01 0.00000E+00
 -1       948 2.26500E+01 3.18140E+01 0.00000E+00
 -1       949 2.56500E+01 3.18140E+01 0.00000E+00
 -1       950 2.86500E+01 3.18140E+01 0.00000E+00
 -1       951 3.16500E+01 3.18140E+01 0.00000E+00
 -1       952 3.46500E+01 3.18140E+01 0.00000E+00
 -1       953 3.76500E+01 3.18140E+01 0.00000E+00
 -1       954 4.06500E+01 3.18140E+01 0.00000E+00
 -1       955 4.36500E+01 3.18140E+01 0.00000E+00
 -1       956 4.66500E+01 3.18140E+01 0.00000E+00
 -1       957 4.96500E+01 3.18140E+01 0.00000E+00
 -1       958 5.26500E+01 3.18140E+01 0.00000E+00
 -1       959 5.56500E+01 3.18140E+01 0.00000E+00
 -1       960 1.90351E+01 1.69963E+01 0.00000E+00
 -1       961 2.65350E+01 1.43982E+01 0.00000E+00
 -1       962 9.16500E+01 3.18140E+01 0.00000E+00
 -1       963 9.46500E+01 3.18140E+01 0.00000E+00
 -1       964 9.76500E+01 3.18140E+01 0.00000E+00
 -1       965 1.00650E+02 3.18140E+01 0.00000E+00
 -1       966 1.03650E+02 3.18140E+01 0.00000E+00
 -1       967 1.06650E+02 3.18140E+01 0.00000E+00
 -1       968 1.09650E+02 3.18140E+01 0.00000E+00
 -1       969 1.12650E+02 3.18140E+01 0.00000E+00
 -1       970 1.15650E+02 3.18140E+01 0.00000E+00
 -1       971 1.18650E+02 3.18140E+01 0.00000E+00
 -1       972 1.21650E+02 3.18140E+01 0.00000E+00
 -1       973 1.24650E+02 3.18140E+01 0.00000E+00
 -1       974 1.27650E+02 3.18140E+01 0.00000E+00
 -1       975 1.30650E+02 3.18140E+01 0.00000E+00
 -1       976 1.32615E+02 3.14912E+01 0.00000E+00
 -1       977 4.30350E+01 1.69963E+01 0.00000E+00
 -1       978 5.50350E+01 1.69963E+01 0.00000E+00
 -1       979 5.20350E+01 1.69963E+01 0.00000E+00
 -1       980 1.00035E+02 1.69963E+01 0.00000E+00
 -1       981 1.12035E+02 1.69963E+01 0.00000E+00
 -1       982 1.09035E+02 1.69963E+01 0.00000E+00
 -1       983 1.18035E+02 1.69963E+01 0.00000E+00
 -1       984 1.21035E+02 1.69963E+01 0.00000E+00
 -1       985 1.24035E+02 1.69963E+01 0.00000E+00
 -1       986 1.27035E+02 1.69963E+01 0.00000E+00
 -1       987 1.30035E+02 1.69963E+01 0.00000E+00
 -1       988 9.37582E+01 2.10987E+01 0.00000E+00
 -1       989 5.63926E+01 2.61709E+01 0.00000E+00
 -1       990 1.03035E+02 1.69963E+01 0.00000E+00
 -1       991 1.55880E+01 2.64469E+01 0.00000E+00
 -1       992 1.34412E+02 2.05969E+01 0.00000E+00
 -1       993 9.39904E+01 2.43551E+01 0.00000E+00
 -1       994 1.55880E+01 1.76063E+01 0.00000E+00
 -1       995 9.70350E+01 1.69963E+01 0.00000E+00
 -1       996 1.06035E+02 1.69963E+01 0.00000E+00
 -1       997 1.15035E+02 1.69963E+01 0.00000E+00
 -1       998 9.45614E+01 2.66996E+01 0.00000E+00
 -1       999 5.53481E+01 2.40238E+01 0.00000E+00
 -1      1000 2.20351E+01 1.69963E+01 0.00000E+00
 -1      1001 4.60350E+01 1.69963E+01 0.00000E+00
 -1      1002 3.10350E+01 1.69963E+01 0.00000E+00
 -1      1003 4.00350E+01 1.69963E+01 0.00000E+00
 -1      1004 1.81860E+01 1.90812E+01 0.00000E+00
 -1      1005 9.49714E+01 1.84565E+01 0.00000E+00
 -1      1006 5.60080E+01 1.92880E+01 0.00000E+00
 -1      1007 9.40350E+01 1.69963E+01 0.00000E+00
 -1      1008 1.31814E+02 2.50031E+01 0.00000E+00
 -1      1009 1.81860E+01 2.20313E+01 0.00000E+00
 -1      1010 1.30035E+02 1.99306E+01 0.00000E+00
 -1      1011 4.90350E+01 1.69963E+01 0.00000E+00
 -1      1012 5.71272E+01 2.90639E+01 0.00000E+00
 -1      1013 3.40350E+01 1.69963E+01 0.00000E+00
 -1      1014 1.31898E+02 2.73499E+01 0.00000E+00
 -1      1015 2.11500E+01 2.92160E+01 0.00000E+00
 -1      1016 2.41500E+01 2.92160E+01 0.00000E+00
 -1      1017 2.71500E+01 2.92160E+01 0.00000E+00
 -1      1018 3.01500E+01 2.92160E+01 0.00000E+00
 -1      1019 3.31500E+01 2.92160E+01 0.00000E+00
 -1      1020 3.61500E+01 2.92160E+01 0.00000E+00
 -1      1021 3.91500E+01 2.92160E+01 0.00000E+00
 -1      1022 4.21500E+01 2.92160E+01 0.00000E+00
 -1      1023 4.51500E+01 2.92160E+01 0.00000E+00
 -1      1024 4.81500E+01 2.92160E+01 0.00000E+00
 -1      1025 5.11500E+01 2.92160E+01 0.00000E+00
 -1      1026 5.41500E+01 2.92160E+01 0.00000E+00
 -1      1027 2.80350E+01 1.69963E+01 0.00000E+00
 -1      1028 9.61500E+01 2.92160E+01 0.00000E+00
 -1      1029 9.91500E+01 2.92160E+01 0.00000E+00
 -1      1030 1.02150E+02 2.92160E+01 0.00000E+00
 -1      1031 1.05150E+02 2.92160E+01 0.00000E+00
 -1      1032 1.08150E+02 2.92160E+01 0.00000E+00
 -1      1033 1.11150E+02 2.92160E+01 0.00000E+00
 -1      1034 1.14150E+02 2.92160E+01 0.00000E+00
 -1      1035 1.17150E+02 2.92160E+01 0.00000E+00
 -1      1036 1.20150E+02 2.92160E+01 0.00000E+00
 -1      1037 1.23150E+02 2.92160E+01 0.00000E+00
 -1      1038 1.26150E+02 2.92160E+01 0.00000E+00
 -1      1039 1.29150E+02 2.92160E+01 0.00000E+00
 -1      1040 3.70350E+01 1.69963E+01 0.00000E+00
 -1      1041 2.50350E+01 1.69963E+01 0.00000E+00
 -1      1042 1.22535E+02 1.95942E+01 0.00000E+00
 -1      1043 1.19535E+02 1.95942E+01 0.00000E+00
 -1      1044 9.67258E+01 2.08617E+01 0.00000E+00
 -1      1045 1.01535E+02 1.95942E+01 0.00000E+00
 -1      1046 1.07535E+02 1.95942E+01 0.00000E+00
 -1      1047 9.14956E+01 3.05489E+01 0.00000E+00
 -1      1048 5.05350E+01 1.95942E+01 0.00000E+00
 -1      1049 1.13535E+02 1.95942E+01 0.00000E+00
 -1      1050 9.69580E+01 2.41181E+01 0.00000E+00
 -1      1051 1.83690E+01 2.78314E+01 0.00000E+00
 -1      1052 1.30924E+02 2.24669E+01 0.00000E+00
 -1      1053 1.25535E+02 1.95942E+01 0.00000E+00
 -1      1054 1.32257E+02 2.94206E+01 0.00000E+00
 -1      1055 1.10535E+02 1.95942E+01 0.00000E+00
 -1      1056 1.16535E+02 1.95942E+01 0.00000E+00
 -1      1057 5.32715E+01 1.94411E+01 0.00000E+00
 -1      1058 1.04535E+02 1.95942E+01 0.00000E+00
 -1      1059 2.11860E+01 1.90812E+01 0.00000E+00
 -1      1060 4.15350E+01 1.95942E+01 0.00000E+00
 -1      1061 2.95350E+01 1.95942E+01 0.00000E+00
 -1      1062 3.25350E+01 1.95942E+01 0.00000E+00
 -1      1063 5.43751E+01 2.17320E+01 0.00000E+00
 -1      1064 4.45350E+01 1.95942E+01 0.00000E+00
 -1      1065 5.32490E+01 2.66199E+01 0.00000E+00
 -1      1066 1.82775E+01 2.49313E+01 0.00000E+00
 -1      1067 1.28918E+02 2.45948E+01 0.00000E+00
 -1      1068 4.75350E+01 1.95942E+01 0.00000E+00
 -1      1069 2.56500E+01 2.66180E+01 0.00000E+00
 -1      1070 2.86500E+01 2.66180E+01 0.00000E+00
 -1      1071 3.16500E+01 2.66180E+01 0.00000E+00
 -1      1072 3.46500E+01 2.66180E+01 0.00000E+00
 -1      1073 3.76500E+01 2.66180E+01 0.00000E+00
 -1      1074 4.06500E+01 2.66180E+01 0.00000E+00
 -1      1075 4.36500E+01 2.66180E+01 0.00000E+00
 -1      1076 4.66500E+01 2.66180E+01 0.00000E+00
 -1      1077 4.96500E+01 2.66180E+01 0.00000E+00
 -1      1078 9.76500E+01 2.66180E+01 0.00000E+00
 -1      1079 2.65350E+01 1.95943E+01 0.00000E+00
 -1      1080 1.00650E+02 2.66180E+01 0.00000E+00
 -1      1081 1.03650E+02 2.66180E+01 0.00000E+00
 -1      1082 1.06650E+02 2.66180E+01 0.00000E+00
 -1      1083 1.09650E+02 2.66180E+01 0.00000E+00
 -1      1084 1.12650E+02 2.66180E+01 0.00000E+00
 -1      1085 1.15650E+02 2.66180E+01 0.00000E+00
 -1      1086 1.18650E+02 2.66180E+01 0.00000E+00
 -1      1087 1.21650E+02 2.66180E+01 0.00000E+00
 -1      1088 1.24650E+02 2.66180E+01 0.00000E+00
 -1      1089 1.01767E+02 2.28507E+01 0.00000E+00
 -1      1090 1.18035E+02 2.21922E+01 0.00000E+00
 -1      1091 1.27226E+02 2.20945E+01 0.00000E+00
 -1      1092 1.21035E+02 2.21922E+01 0.00000E+00
 -1      1093 1.24035E+02 2.21922E+01 0.00000E+00
 -1      1094 4.90350E+01 2.21922E+01 0.00000E+00
 -1      1095 1.15035E+02 2.21922E+01 0.00000E+00
 -1      1096 1.06035E+02 2.21922E+01 0.00000E+00
 -1      1097 2.15076E+01 2.24087E+01 0.00000E+00
 -1      1098 2.32713E+01 1.97025E+01 0.00000E+00
 -1      1099 2.26500E+01 2.66180E+01 0.00000E+00
 -1      1100 3.85350E+01 1.95942E+01 0.00000E+00
 -1      1101 1.09035E+02 2.21922E+01 0.00000E+00
 -1      1102 3.55350E+01 1.95942E+01 0.00000E+00
 -1      1103 3.10350E+01 2.21922E+01 0.00000E+00
 -1      1104 5.17490E+01 2.40219E+01 0.00000E+00
 -1      1105 4.60350E+01 2.21922E+01 0.00000E+00
 -1      1106 2.80350E+01 2.21923E+01 0.00000E+00
 -1      1107 4.30350E+01 2.21922E+01 0.00000E+00
 -1      1108 4.00350E+01 2.21922E+01 0.00000E+00
 -1      1109 1.12035E+02 2.21922E+01 0.00000E+00
 -1      1110 2.04638E+01 2.57747E+01 0.00000E+00
 -1      1111 2.71500E+01 2.40200E+01 0.00000E+00
 -1      1112 3.61500E+01 2.40200E+01 0.00000E+00
 -1      1113 3.40350E+01 2.21922E+01 0.00000E+00
 -1      1114 2.41500E+01 2.40200E+01 0.00000E+00
 -1      1115 2.47713E+01 2.23005E+01 0.00000E+00
 -1      1116 0.00000E+00 4.85250E+01 0.00000E+00
 -1      1117 0.00000E+00 4.55750E+01 0.00000E+00
 -1      1118 0.00000E+00 4.26250E+01 0.00000E+00
 -1      1119 0.00000E+00 3.96750E+01 0.00000E+00
 -1      1120 0.00000E+00 3.67250E+01 0.00000E+00
 -1      1121 0.00000E+00 3.38000E+01 0.00000E+00
 -1      1122 0.00000E+00 3.08750E+01 0.00000E+00
 -1      1123 0.00000E+00 2.79250E+01 0.00000E+00
 -1      1124 0.00000E+00 2.49750E+01 0.00000E+00
 -1      1125 0.00000E+00 2.20250E+01 0.00000E+00
 -1      1126 0.00000E+00 1.90750E+01 0.00000E+00
 -1      1127 0.00000E+00 1.61500E+01 0.00000E+00
 -1      1128 0.00000E+00 1.32250E+01 0.00000E+00
 -1      1129 0.00000E+00 1.02750E+01 0.00000E+00
 -1      1130 0.00000E+00 7.32500E+00 0.00000E+00
 -1      1131 0.00000E+00 4.37500E+00 0.00000E+00
 -1      1132 0.00000E+00 1.45000E+00 0.00000E+00
 -1      1133 1.57500E+00 5.00000E+01 0.00000E+00
 -1      1134 4.65000E+00 5.00000E+01 0.00000E+00
 -1      1135 7.65000E+00 5.00000E+01 0.00000E+00
 -1      1136 1.06500E+01 5.00000E+01 0.00000E+00
 -1      1137 1.36500E+01 5.00000E+01 0.00000E+00
 -1      1138 1.66500E+01 5.00000E+01 0.00000E+00
 -1      1139 1.96500E+01 5.00000E+01 0.00000E+00
 -1      1140 2.26500E+01 5.00000E+01 0.00000E+00
 -1      1141 2.56500E+01 5.00000E+01 0.00000E+00
 -1      1142 2.86500E+01 5.00000E+01 0.00000E+00
 -1      1143 3.16500E+01 5.00000E+01 0.00000E+00
 -1      1144 3.46500E+01 5.00000E+01 0.00000E+00
 -1      1145 3.76500E+01 5.00000E+01 0.00000E+00
 -1      1146 4.06500E+01 5.00000E+01 0.00000E+00
 -1      1147 4.36500E+01 5.00000E+01 0.00000E+00
 -1      1148 4.66500E+01 5.00000E+01 0.00000E+00
 -1      1149 4.96500E+01 5.00000E+01 0.00000E+00
 -1      1150 5.26500E+01 5.00000E+01 0.00000E+00
 -1      1151 5.56500E+01 5.00000E+01 0.00000E+00
 -1      1152 5.86500E+01 5.00000E+01 0.00000E+00
 -1      1153 6.16500E+01 5.00000E+01 0.00000E+00
 -1      1154 6.46500E+01 5.00000E+01 0.00000E+00
 -1      1155 6.76500E+01 5.00000E+01 0.00000E+00
 -1      1156 7.06500E+01 5.00000E+01 0.00000E+00
 -1      1157 7.36500E+01 5.00000E+01 0.00000E+00
 -1      1158 7.66500E+01 5.00000E+01 0.00000E+00
 -1      1159 7.96500E+01 5.00000E+01 0.00000E+00
 -1      1160 8.26500E+01 5.00000E+01 0.00000E+00
 -1      1161 8.56500E+01 5.00000E+01 0.00000E+00
 -1      1162 8.86500E+01 5.00000E+01 0.00000E+00
 -1      1163 9.16500E+01 5.00000E+01 0.00000E+00
 -1      1164 9.46500E+01 5.00000E+01 0.00000E+00
 -1      1165 9.76500E+01 5.00000E+01 0.00000E+00
 -1      1166 1.00650E+02 5.00000E+01 0.00000E+00
 -1      1167 1.03650E+02 5.00000E+01 0.00000E+00
 -1      1168 1.06650E+02 5.00000E+01 0.00000E+00
 -1      1169 1.09650E+02 5.00000E+01 0.00000E+00
 -1      1170 1.12650E+02 5.00000E+01 0.00000E+00
 -1      1171 1.15650E+02 5.00000E+01 0.00000E+00
 -1      1172 1.18650E+02 5.00000E+01 0.00000E+00
 -1      1173 1.21650E+02 5.00000E+01 0.00000E+00
 -1      1174 1.24650E+02 5.00000E+01 0.00000E+00
 -1      1175 1.27650E+02 5.00000E+01 0.00000E+00
 -1      1176 1.30650E+02 5.00000E+01 0.00000E+00
 -1      1177 1.33650E+02 5.00000E+01 0.00000E+00
 -1      1178 1.36650E+02 5.00000E+01 0.00000E+00
 -1      1179 1.39650E+02 5.00000E+01 0.00000E+00
 -1      1180 1.42650E+02 5.00000E+01 0.00000E+00
 -1      1181 1.45650E+02 5.00000E+01 0.00000E+00
 -1      1182 1.48575E+02 5.00000E+01 0.00000E+00
 -1      1183 1.57500E+00 0.00000E+00 0.00000E+00
 -1      1184 4.65000E+00 0.00000E+00 0.00000E+00
 -1      1185 7.65000E+00 0.00000E+00 0.00000E+00
 -1      1186 1.06500E+01 0.00000E+00 0.00000E+00
 -1      1187 1.36500E+01 0.00000E+00 0.00000E+00
 -1      1188 1.66500E+01 0.00000E+00 0.00000E+00
 -1      1189 1.96500E+01 0.00000E+00 0.00000E+00
 -1      1190 2.26500E+01 0.00000E+00 0.00000E+00
 -1      1191 2.56500E+01 0.00000E+00 0.00000E+00
 -1      1192 2.86500E+01 0.00000E+00 0.00000E+00
 -1      1193 3.16500E+01 0.00000E+00 0.00000E+00
 -1      1194 3.46500E+01 0.00000E+00 0.00000E+00
 -1      1195 3.76500E+01 0.00000E+00 0.00000E+00
 -1      1196 4.06500E+01 0.00000E+00 0.00000E+00
 -1      1197 4.36500E+01 0.00000E+00 0.00000E+00
 -1      1198 4.66500E+01 0.00000E+00 0.00000E+00
 -1      1199 4.96500E+01 0.00000E+00 0.00000E+00
 -1      1200 5.26500E+01 0.00000E+00 0.00000E+00
 -1      1201 5.56500E+01 0.00000E+00 0.00000E+00
 -1      1202 5.86500E+01 0.00000E+00 0.00000E+00
 -1      1203 6.16500E+01 0.00000E+00 0.00000E+00
 -1      1204 6.46500E+01 0.00000E+00 0.00000E+00
 -1      1205 6.76500E+01 0.00000E+00 0.00000E+00
 -1      1206 7.06500E+01 0.00000E+00 0.00000E+00
 -1      1207 7.36500E+01 0.00000E+00 0.00000E+00
 -1      1208 7.66500E+01 0.00000E+00 0.00000E+00
 -1      1209 7.96500E+01 0.00000E+00 0.00000E+00
 -1      1210 8.26500E+01 0.00000E+00 0.00000E+00
 -1      1211 8.56500E+01 0.00000E+00 0.00000E+00
 -1      1212 8.86500E+01 0.00000E+00 0.00000E+00
 -1      1213 9.16500E+01 0.00000E+00 0.00000E+00
 -1      1214 9.46500E+01 0.00000E+00 0.00000E+00
 -1      1215 9.76500E+01 0.00000E+00 0.00000E+00
 -1      1216 1.00650E+02 0.00000E+00 0.00000E+00
 -1      1217 1.03650E+02 0.00000E+00 0.00000E+00
 -1      1218 1.06650E+02 0.00000E+00 0.00000E+00
 -1      1219 1.09650E+02 0.00000E+00 0.00000E+00
 -1      1220 1.12650E+02 0.00000E+00 0.00000E+00
 -1      1221 1.15650E+02 0.00000E+00 0.00000E+00
 -1      1222 1.18650E+02 0.00000E+00 0.00000E+00
 -1      1223 1.21650E+02 0.00000E+00 0.00000E+00
 -1      1224 1.24650E+02 0.00000E+00 0.00000E+00
 -1      1225 1.27650E+02 0.00000E+00 0.00000E+00
 -1      1226 1.30650E+02 0.00000E+00 0.00000E+00
 -1      1227 1.33650E+02 0.00000E+00 0.00000E+00
 -1      1228 1.36650E+02 0.00000E+00 0.00000E+00
 -1      1229 1.39650E+02 0.00000E+00 0.00000E+00
 -1      1230 1.42650E+02 0.00000E+00 0.00000E+00
 -1      1231 1.45650E+02 0.00000E+00 0.00000E+00
 -1      1232 1.48575E+02 0.00000E+00 0.00000E+00
 -1      1233 1.50000E+02 1.47500E+00 0.00000E+00
 -1      1234 1.50000E+02 4.42500E+00 0.00000E+00
 -1      1235 1.50000E+02 7.37500E+00 0.00000E+00
 -1      1236 1.50000E+02 1.03250E+01 0.00000E+00
 -1      1237 1.50000E+02 1.32750E+01 0.00000E+00
 -1      1238 1.50000E+02 1.62000E+01 0.00000E+00
 -1      1239 1.50000E+02 1.91250E+01 0.00000E+00
 -1      1240 1.50000E+02 2.20750E+01 0.00000E+00
 -1      1241 1.50000E+02 2.50250E+01 0.00000E+00
 -1      1242 1.50000E+02 2.79750E+01 0.00000E+00
 -1      1243 1.50000E+02 3.09250E+01 0.00000E+00
 -1      1244 1.50000E+02 3.38500E+01 0.00000E+00
 -1      1245 1.50000E+02 3.67750E+01 0.00000E+00
 -1      1246 1.50000E+02 3.97250E+01 0.00000E+00
 -1      1247 1.50000E+02 4.26750E+01 0.00000E+00
 -1      1248 1.50000E+02 4.56250E+01 0.00000E+00
 -1      1249 1.50000E+02 4.85500E+01 0.00000E+00
 -1      1250 8.20311E+01 2.11210E+01 0.00000E+00
 -1      1251 8.17198E+01 1.96543E+01 0.00000E+00
 -1      1252 8.10916E+01 1.82676E+01 0.00000E+00
 -1      1253 8.02301E+01 1.71054E+01 0.00000E+00
 -1      1254 7.91117E+01 1.61191E+01 0.00000E+00
 -1      1255 7.77646E+01 1.53731E+01 0.00000E+00
 -1      1256 7.63298E+01 1.49473E+01 0.00000E+00
 -1      1257 7.48177E+01 1.48370E+01 0.00000E+00
 -1      1258 7.33270E+01 1.50523E+01 0.00000E+00
 -1      1259 7.19351E+01 1.55724E+01 0.00000E+00
 -1      1260 7.06353E+01 1.64143E+01 0.00000E+00
 -1      1261 6.95517E+01 1.75223E+01 0.00000E+00
 -1      1262 6.87628E+01 1.87908E+01 0.00000E+00
 -1      1263 6.82706E+01 2.01580E+01 0.00000E+00
 -1      1264 6.80699E+01 2.16454E+01 0.00000E+00
 -1      1265 6.81923E+01 2.31493E+01 0.00000E+00
 -1      1266 6.86124E+01 2.45406E+01 0.00000E+00
 -1      1267 6.93001E+01 2.57997E+01 0.00000E+00
 -1      1268 7.02168E+01 2.68795E+01 0.00000E+00
 -1      1269 7.13128E+01 2.77404E+01 0.00000E+00
 -1      1270 7.25554E+01 2.83663E+01 0.00000E+00
 -1      1271 7.39678E+01 2.87457E+01 0.00000E+00
 -1      1272 7.54005E+01 2.88246E+01 0.00000E+00
 -1      1273 7.67792E+01 2.86200E+01 0.00000E+00
 -1      1274 7.81155E+01 2.81340E+01 0.00000E+00
 -1      1275 7.93005E+01 2.74075E+01 0.00000E+00
 -1      1276 8.03135E+01 2.64670E+01 0.00000E+00
 -1      1277 8.11429E+01 2.53093E+01 0.00000E+00
 -1      1278 8.17256E+01 2.39932E+01 0.00000E+00
 -1      1279 8.20281E+01 2.25726E+01 0.00000E+00
 -1      1280 1.57500E+00 4.85250E+01 0.00000E+00
 -1      1281 1.29900E+00 4.48375E+01 0.00000E+00
 -1      1282 1.29900E+00 4.63125E+01 0.00000E+00
 -1      1283 1.29900E+00 4.18875E+01 0.00000E+00
 -1      1284 1.29900E+00 4.33625E+01 0.00000E+00
 -1      1285 2.59800E+00 4.41000E+01 0.00000E+00
 -1      1286 1.29900E+00 3.89375E+01 0.00000E+00
 -1      1287 1.29900E+00 4.04125E+01 0.00000E+00
 -1      1288 2.59800E+00 4.11500E+01 0.00000E+00
 -1      1289 1.29900E+00 3.59875E+01 0.00000E+00
 -1      1290 1.29900E+00 3.74625E+01 0.00000E+00
 -1      1291 2.59800E+00 3.82000E+01 0.00000E+00
 -1      1292 1.29900E+00 3.30875E+01 0.00000E+00
 -1      1293 1.29900E+00 3.45375E+01 0.00000E+00
 -1      1294 2.59800E+00 3.52750E+01 0.00000E+00
 -1      1295 1.29900E+00 3.01375E+01 0.00000E+00
 -1      1296 1.29900E+00 3.16125E+01 0.00000E+00
 -1      1297 2.59800E+00 3.23500E+01 0.00000E+00
 -1      1298 1.29900E+00 2.71875E+01 0.00000E+00
 -1      1299 1.29900E+00 2.86625E+01 0.00000E+00
 -1      1300 2.59800E+00 2.94000E+01 0.00000E+00
 -1      1301 1.29900E+00 2.42375E+01 0.00000E+00
 -1      1302 1.29900E+00 2.57125E+01 0.00000E+00
 -1      1303 2.59800E+00 2.64500E+01 0.00000E+00
 -1      1304 1.29900E+00 2.12875E+01 0.00000E+00
 -1      1305 1.29900E+00 2.27625E+01 0.00000E+00
 -1      1306 2.59800E+00 2.35000E+01 0.00000E+00
 -1      1307 1.29900E+00 1.83375E+01 0.00000E+00
 -1      1308 1.29900E+00 1.98125E+01 0.00000E+00
 -1      1309 2.59800E+00 2.05500E+01 0.00000E+00
 -1      1310 1.29900E+00 1.54375E+01 0.00000E+00
 -1      1311 1.29900E+00 1.68875E+01 0.00000E+00
 -1      1312 2.59800E+00 1.76250E+01 0.00000E+00
 -1      1313 1.29900E+00 1.24875E+01 0.00000E+00
 -1      1314 1.29900E+00 1.39625E+01 0.00000E+00
 -1      1315 2.59800E+00 1.47000E+01 0.00000E+00
 -1      1316 1.29900E+00 9.53750E+00 0.00000E+00
 -1      1317 1.29900E+00 1.10125E+01 0.00000E+00
 -1      1318 2.59800E+00 1.17500E+01 0.00000E+00
 -1      1319 1.29900E+00 6.58750E+00 0.00000E+00
 -1      1320 1.29900E+00 8.06250E+00 0.00000E+00
 -1      1321 2.59800E+00 8.80000E+00 0.00000E+00
 -1      1322 1.29900E+00 3.63750E+00 0.00000E+00
 -1      1323 1.29900E+00 5.11250E+00 0.00000E+00
 -1      1324 2.59800E+00 5.85000E+00 0.00000E+00
 -1      1325 1.43700E+00 1.09375E+00 0.00000E+00
 -1      1326 1.43700E+00 2.54375E+00 0.00000E+00
 -1      1327 2.73600E+00 3.28125E+00 0.00000E+00
 -1      1328 3.01200E+00 1.09375E+00 0.00000E+00
 -1      1329 3.90000E+00 4.87010E+01 0.00000E+00
 -1      1330 5.40000E+00 4.87010E+01 0.00000E+00
 -1      1331 6.90000E+00 4.87010E+01 0.00000E+00
 -1      1332 8.40000E+00 4.87010E+01 0.00000E+00
 -1      1333 6.15000E+00 4.74020E+01 0.00000E+00
 -1      1334 9.90000E+00 4.87010E+01 0.00000E+00
 -1      1335 1.14000E+01 4.87010E+01 0.00000E+00
 -1      1336 9.15000E+00 4.74020E+01 0.00000E+00
 -1      1337 1.29000E+01 4.87010E+01 0.00000E+00
 -1      1338 1.44000E+01 4.87010E+01 0.00000E+00
 -1      1339 1.21500E+01 4.74020E+01 0.00000E+00
 -1      1340 1.59000E+01 4.87010E+01 0.00000E+00
 -1      1341 1.74000E+01 4.87010E+01 0.00000E+00
 -1      1342 1.51500E+01 4.74020E+01 0.00000E+00
 -1      1343 1.89000E+01 4.87010E+01 0.00000E+00
 -1      1344 2.04000E+01 4.87010E+01 0.00000E+00
 -1      1345 1.81500E+01 4.74020E+01 0.00000E+00
 -1      1346 2.19000E+01 4.87010E+01 0.00000E+00
 -1      1347 2.34000E+01 4.87010E+01 0.00000E+00
 -1      1348 2.11500E+01 4.74020E+01 0.00000E+00
 -1      1349 2.49000E+01 4.87010E+01 0.00000E+00
 -1      1350 2.64000E+01 4.87010E+01 0.00000E+00
 -1      1351 2.41500E+01 4.74020E+01 0.00000E+00
 -1      1352 2.79000E+01 4.87010E+01 0.00000E+00
 -1      1353 2.94000E+01 4.87010E+01 0.00000E+00
 -1      1354 2.71500E+01 4.74020E+01 0.00000E+00
 -1      1355 3.09000E+01 4.87010E+01 0.00000E+00
 -1      1356 3.24000E+01 4.87010E+01 0.00000E+00
 -1      1357 3.01500E+01 4.74020E+01 0.00000E+00
 -1      1358 3.39000E+01 4.87010E+01 0.00000E+00
 -1      1359 3.54000E+01 4.87010E+01 0.00000E+00
 -1      1360 3.31500E+01 4.74020E+01 0.00000E+00
 -1      1361 3.69000E+01 4.87010E+01 0.00000E+00
 -1      1362 3.84000E+01 4.87010E+01 0.00000E+00
 -1      1363 3.61500E+01 4.74020E+01 0.00000E+00
 -1      1364 3.99000E+01 4.87010E+01 0.00000E+00
 -1      1365 4.14000E+01 4.87010E+01 0.00000E+00
 -1      1366 3.91500E+01 4.74020E+01 0.00000E+00
 -1      1367 4.29000E+01 4.87010E+01 0.00000E+00
 -1      1368 4.44000E+01 4.87010E+01 0.00000E+00
 -1      1369 4.21500E+01 4.74020E+01 0.00000E+00
 -1      1370 4.59000E+01 4.87010E+01 0.00000E+00
 -1      1371 4.74000E+01 4.87010E+01 0.00000E+00
 -1      1372 4.51500E+01 4.74020E+01 0.00000E+00
 -1      1373 4.89000E+01 4.87010E+01 0.00000E+00
 -1      1374 5.04000E+01 4.87010E+01 0.00000E+00
 -1      1375 4.81500E+01 4.74020E+01 0.00000E+00
 -1      1376 5.19000E+01 4.87010E+01 0.00000E+00
 -1      1377 5.34000E+01 4.87010E+01 0.00000E+00
 -1      1378 5.11500E+01 4.74020E+01 0.00000E+00
 -1      1379 5.49000E+01 4.87010E+01 0.00000E+00
 -1      1380 5.64000E+01 4.87010E+01 0.00000E+00
 -1      1381 5.41500E+01 4.74020E+01 0.00000E+00
 -1      1382 5.79000E+01 4.87010E+01 0.00000E+00
 -1      1383 5.94000E+01 4.87010E+01 0.00000E+00
 -1      1384 5.71500E+01 4.74020E+01 0.00000E+00
 -1      1385 6.09000E+01 4.87010E+01 0.00000E+00
 -1      1386 6.24000E+01 4.87010E+01 0.00000E+00
 -1      1387 6.01500E+01 4.74020E+01 0.00000E+00
 -1      1388 6.39000E+01 4.87010E+01 0.00000E+00
 -1      1389 6.54000E+01 4.87010E+01 0.00000E+00
 -1      1390 6.31500E+01 4.74020E+01 0.00000E+00
 -1      1391 6.69000E+01 4.87010E+01 0.00000E+00
 -1      1392 6.84000E+01 4.87010E+01 0.00000E+00
 -1      1393 6.61500E+01 4.74020E+01 0.00000E+00
 -1      1394 6.99000E+01 4.87010E+01 0.00000E+00
 -1      1395 7.14000E+01 4.87010E+01 0.00000E+00
 -1      1396 6.91500E+01 4.74020E+01 0.00000E+00
 -1      1397 7.29000E+01 4.87010E+01 0.00000E+00
 -1      1398 7.44000E+01 4.87010E+01 0.00000E+00
 -1      1399 7.21500E+01 4.74020E+01 0.00000E+00
 -1      1400 7.59000E+01 4.87010E+01 0.00000E+00
 -1      1401 7.74000E+01 4.87010E+01 0.00000E+00
 -1      1402 7.51500E+01 4.74020E+01 0.00000E+00
 -1      1403 7.89000E+01 4.87010E+01 0.00000E+00
 -1      1404 8.04000E+01 4.87010E+01 0.00000E+00
 -1      1405 7.81500E+01 4.74020E+01 0.00000E+00
 -1      1406 8.19000E+01 4.87010E+01 0.00000E+00
 -1      1407 8.34000E+01 4.87010E+01 0.00000E+00
 -1      1408 8.11500E+01 4.74020E+01 0.00000E+00
 -1      1409 8.49000E+01 4.87010E+01 0.00000E+00
 -1      1410 8.64000E+01 4.87010E+01 0.00000E+00
 -1      1411 8.41500E+01 4.74020E+01 0.00000E+00
 -1      1412 8.79000E+01 4.87010E+01 0.00000E+00
 -1      1413 8.94000E+01 4.87010E+01 0.00000E+00
 -1      1414 8.71500E+01 4.74020E+01 0.00000E+00
 -1      1415 9.09000E+01 4.87010E+01 0.00000E+00
 -1      1416 9.24000E+01 4.87010E+01 0.00000E+00
 -1      1417 9.01500E+01 4.74020E+01 0.00000E+00
 -1      1418 9.39000E+01 4.87010E+01 0.00000E+00
 -1      1419 9.54000E+01 4.87010E+01 0.00000E+00
 -1      1420 9.31500E+01 4.74020E+01 0.00000E+00
 -1      1421 9.69000E+01 4.87010E+01 0.00000E+00
 -1      1422 9.84000E+01 4.87010E+01 0.00000E+00
 -1      1423 9.61500E+01 4.74020E+01 0.00000E+00
 -1      1424 9.99000E+01 4.87010E+01 0.00000E+00
 -1      1425 1.01400E+02 4.87010E+01 0.00000E+00
 -1      1426 9.91500E+01 4.74020E+01 0.00000E+00
 -1      1427 1.02900E+02 4.87010E+01 0.00000E+00
 -1      1428 1.04400E+02 4.87010E+01 0.00000E+00
 -1      1429 1.02150E+02 4.74020E+01 0.00000E+00
 -1      1430 1.05900E+02 4.87010E+01 0.00000E+00
 -1      1431 1.07400E+02 4.87010E+01 0.00000E+00
 -1      1432 1.05150E+02 4.74020E+01 0.00000E+00
 -1      1433 1.08900E+02 4.87010E+01 0.00000E+00
 -1      1434 1.10400E+02 4.87010E+01 0.00000E+00
 -1      1435 1.08150E+02 4.74020E+01 0.00000E+00
 -1      1436 1.11900E+02 4.87010E+01 0.00000E+00
 -1      1437 1.13400E+02 4.87010E+01 0.00000E+00
 -1      1438 1.11150E+02 4.74020E+01 0.00000E+00
 -1      1439 1.14900E+02 4.87010E+01 0.00000E+00
 -1      1440 1.16400E+02 4.87010E+01 0.00000E+00
 -1      1441 1.14150E+02 4.74020E+01 0.00000E+00
 -1      1442 1.17900E+02 4.87010E+01 0.00000E+00
 -1      1443 1.19400E+02 4.87010E+01 0.00000E+00
 -1      1444 1.17150E+02 4.74020E+01 0.00000E+00
 -1      1445 1.20900E+02 4.87010E+01 0.00000E+00
 -1      1446 1.22400E+02 4.87010E+01 0.00000E+00
 -1      1447 1.20150E+02 4.74020E+01 0.00000E+00
 -1      1448 1.23900E+02 4.87010E+01 0.00000E+00
 -1      1449 1.25400E+02 4.87010E+01 0.00000E+00
 -1      1450 1.23150E+02 4.74020E+01 0.00000E+00
 -1      1451 1.26900E+02 4.87010E+01 0.00000E+00
 -1      1452 1.28400E+02 4.87010E+01 0.00000E+00
 -1      1453 1.26150E+02 4.74020E+01 0.00000E+00
 -1      1454 1.29900E+02 4.87010E+01 0.00000E+00
 -1      1455 1.31400E+02 4.87010E+01 0.00000E+00
 -1      1456 1.29150E+02 4.74020E+01 0.00000E+00
 -1      1457 1.32900E+02 4.87010E+01 0.00000E+00
 -1      1458 1.34400E+02 4.87010E+01 0.00000E+00
 -1      1459 1.32150E+02 4.74020E+01 0.00000E+00
 -1      1460 1.35900E+02 4.87010E+01 0.00000E+00
 -1      1461 1.37400E+02 4.87010E+01 0.00000E+00
 -1      1462 1.35150E+02 4.74020E+01 0.00000E+00
 -1      1463 1.38900E+02 4.87010E+01 0.00000E+00
 -1      1464 1.40400E+02 4.87010E+01 0.00000E+00
 -1      1465 1.38150E+02 4.74020E+01 0.00000E+00
 -1      1466 1.41900E+02 4.87010E+01 0.00000E+00
 -1      1467 1.43400E+02 4.87010E+01 0.00000E+00
 -1      1468 1.41150E+02 4.74020E+01 0.00000E+00
 -1      1469 1.44900E+02 4.87010E+01 0.00000E+00
 -1      1470 1.46400E+02 4.87010E+01 0.00000E+00
 -1      1471 1.44150E+02 4.74020E+01 0.00000E+00
 -1      1472 1.48575E+02 4.85500E+01 0.00000E+00
 -1      1473 1.47825E+02 4.72510E+01 0.00000E+00
 -1      1474 6.01200E+00 1.09375E+00 0.00000E+00
 -1      1475 4.51200E+00 1.09375E+00 0.00000E+00
 -1      1476 4.37400E+00 2.18750E+00 0.00000E+00
 -1      1477 9.01200E+00 1.09375E+00 0.00000E+00
 -1      1478 7.51200E+00 1.09375E+00 0.00000E+00
 -1      1479 7.37400E+00 2.18750E+00 0.00000E+00
 -1      1480 1.20120E+01 1.09375E+00 0.00000E+00
 -1      1481 1.05120E+01 1.09375E+00 0.00000E+00
 -1      1482 1.03740E+01 2.18750E+00 0.00000E+00
 -1      1483 1.50120E+01 1.09375E+00 0.00000E+00
 -1      1484 1.35120E+01 1.09375E+00 0.00000E+00
 -1      1485 1.33740E+01 2.18750E+00 0.00000E+00
 -1      1486 1.80120E+01 1.09375E+00 0.00000E+00
 -1      1487 1.65120E+01 1.09375E+00 0.00000E+00
 -1      1488 1.63740E+01 2.18750E+00 0.00000E+00
 -1      1489 2.10120E+01 1.09375E+00 0.00000E+00
 -1      1490 1.95120E+01 1.09375E+00 0.00000E+00
 -1      1491 1.93740E+01 2.18750E+00 0.00000E+00
 -1      1492 2.40120E+01 1.09375E+00 0.00000E+00
 -1      1493 2.25120E+01 1.09375E+00 0.00000E+00
 -1      1494 2.23740E+01 2.18750E+00 0.00000E+00
 -1      1495 2.70120E+01 1.09375E+00 0.00000E+00
 -1      1496 2.55120E+01 1.09375E+00 0.00000E+00
 -1      1497 2.53740E+01 2.18750E+00 0.00000E+00
 -1      1498 3.00120E+01 1.09375E+00 0.00000E+00
 -1      1499 2.85120E+01 1.09375E+00 0.00000E+00
 -1      1500 2.83740E+01 2.18750E+00 0.00000E+00
 -1      1501 3.30120E+01 1.09375E+00 0.00000E+00
 -1      1502 3.15120E+01 1.09375E+00 0.00000E+00
 -1      1503 3.13740E+01 2.18750E+00 0.00000E+00
 -1      1504 3.60120E+01 1.09375E+00 0.00000E+00
 -1      1505 3.45120E+01 1.09375E+00 0.00000E+00
 -1      1506 3.43740E+01 2.18750E+00 0.00000E+00
 -1      1507 3.90120E+01 1.09375E+00 0.00000E+00
 -1      1508 3.75120E+01 1.09375E+00 0.00000E+00
 -1      1509 3.73740E+01 2.18750E+00 0.00000E+00
 -1      1510 4.20120E+01 1.09375E+00 0.00000E+00
 -1      1511 4.05120E+01 1.09375E+00 0.00000E+00
 -1      1512 4.03740E+01 2.18750E+00 0.00000E+00
 -1      1513 4.50120E+01 1.09375E+00 0.00000E+00
 -1      1514 4.35120E+01 1.09375E+00 0.00000E+00
 -1      1515 4.33740E+01 2.18750E+00 0.00000E+00
 -1      1516 4.80120E+01 1.09375E+00 0.00000E+00
 -1      1517 4.65120E+01 1.09375E+00 0.00000E+00
 -1      1518 4.63740E+01 2.18750E+00 0.00000E+00
 -1      1519 5.10120E+01 1.09375E+00 0.00000E+00
 -1      1520 4.95120E+01 1.09375E+00 0.00000E+00
 -1      1521 4.93740E+01 2.18750E+00 0.00000E+00
 -1      1522 5.40120E+01 1.09375E+00 0.00000E+00
 -1      1523 5.25120E+01 1.09375E+00 0.00000E+00
 -1      1524 5.23740E+01 2.18750E+00 0.00000E+00
 -1      1525 5.70120E+01 1.09375E+00 0.00000E+00
 -1      1526 5.55120E+01 1.09375E+00 0.00000E+00
 -1      1527 5.53740E+01 2.18750E+00 0.00000E+00
 -1      1528 6.00120E+01 1.09375E+00 0.00000E+00
 -1      1529 5.85120E+01 1.09375E+00 0.00000E+00
 -1      1530 5.83740E+01 2.18750E+00 0.00000E+00
 -1      1531 6.30120E+01 1.09375E+00 0.00000E+00
 -1      1532 6.15120E+01 1.09375E+00 0.00000E+00
 -1      1533 6.13740E+01 2.18750E+00 0.00000E+00
 -1      1534 6.60120E+01 1.09375E+00 0.00000E+00
 -1      1535 6.45120E+01 1.09375E+00 0.00000E+00
 -1      1536 6.43740E+01 2.18750E+00 0.00000E+00
 -1      1537 6.90120E+01 1.09375E+00 0.00000E+00
 -1      1538 6.75120E+01 1.09375E+00 0.00000E+00
 -1      1539 6.73740E+01 2.18750E+00 0.00000E+00
 -1      1540 7.20120E+01 1.09375E+00 0.00000E+00
 -1      1541 7.05120E+01 1.09375E+00 0.00000E+00
 -1      1542 7.03740E+01 2.18750E+00 0.00000E+00
 -1      1543 7.50120E+01 1.09375E+00 0.00000E+00
 -1      1544 7.35120E+01 1.09375E+00 0.00000E+00
 -1      1545 7.33740E+01 2.18750E+00 0.00000E+00
 -1      1546 7.80120E+01 1.09375E+00 0.00000E+00
 -1      1547 7.65120E+01 1.09375E+00 0.00000E+00
 -1      1548 7.63740E+01 2.18750E+00 0.00000E+00
 -1      1549 8.10120E+01 1.09375E+00 0.00000E+00
 -1      1550 7.95120E+01 1.09375E+00 0.00000E+00
 -1      1551 7.93740E+01 2.18750E+00 0.00000E+00
 -1      1552 8.40120E+01 1.09375E+00 0.00000E+00
 -1      1553 8.25120E+01 1.09375E+00 0.00000E+00
 -1      1554 8.23740E+01 2.18750E+00 0.00000E+00
 -1      1555 8.70120E+01 1.09375E+00 0.00000E+00
 -1      1556 8.55120E+01 1.09375E+00 0.00000E+00
 -1      1557 8.53740E+01 2.18750E+00 0.00000E+00
 -1      1558 9.00120E+01 1.09375E+00 0.00000E+00
 -1      1559 8.85120E+01 1.09375E+00 0.00000E+00
 -1      1560 8.83740E+01 2.18750E+00 0.00000E+00
 -1      1561 9.30120E+01 1.09375E+00 0.00000E+00
 -1      1562 9.15120E+01 1.09375E+00 0.00000E+00
 -1      1563 9.13740E+01 2.18750E+00 0.00000E+00
 -1      1564 9.60120E+01 1.09375E+00 0.00000E+00
 -1      1565 9.45120E+01 1.09375E+00 0.00000E+00
 -1      1566 9.43740E+01 2.18750E+00 0.00000E+00
 -1      1567 9.90120E+01 1.09375E+00 0.00000E+00
 -1      1568 9.75120E+01 1.09375E+00 0.00000E+00
 -1      1569 9.73740E+01 2.18750E+00 0.00000E+00
 -1      1570 1.02012E+02 1.09375E+00 0.00000E+00
 -1      1571 1.00512E+02 1.09375E+00 0.00000E+00
 -1      1572 1.00374E+02 2.18750E+00 0.00000E+00
 -1      1573 1.05012E+02 1.09375E+00 0.00000E+00
 -1      1574 1.03512E+02 1.09375E+00 0.00000E+00
 -1      1575 1.03374E+02 2.18750E+00 0.00000E+00
 -1      1576 1.08012E+02 1.09375E+00 0.00000E+00
 -1      1577 1.06512E+02 1.09375E+00 0.00000E+00
 -1      1578 1.06374E+02 2.18750E+00 0.00000E+00
 -1      1579 1.11012E+02 1.09375E+00 0.00000E+00
 -1      1580 1.09512E+02 1.09375E+00 0.00000E+00
 -1      1581 1.09374E+02 2.18750E+00 0.00000E+00
 -1      1582 1.14012E+02 1.09375E+00 0.00000E+00
 -1      1583 1.12512E+02 1.09375E+00 0.00000E+00
 -1      1584 1.12374E+02 2.18750E+00 0.00000E+00
 -1      1585 1.17012E+02 1.09375E+00 0.00000E+00
 -1      1586 1.15512E+02 1.09375E+00 0.00000E+00
 -1      1587 1.15374E+02 2.18750E+00 0.00000E+00
 -1      1588 1.20012E+02 1.09375E+00 0.00000E+00
 -1      1589 1.18512E+02 1.09375E+00 0.00000E+00
 -1      1590 1.18374E+02 2.18750E+00 0.00000E+00
 -1      1591 1.23012E+02 1.09375E+00 0.00000E+00
 -1      1592 1.21512E+02 1.09375E+00 0.00000E+00
 -1      1593 1.21374E+02 2.18750E+00 0.00000E+00
 -1      1594 1.26012E+02 1.09375E+00 0.00000E+00
 -1      1595 1.24512E+02 1.09375E+00 0.00000E+00
 -1      1596 1.24374E+02 2.18750E+00 0.00000E+00
 -1      1597 1.29012E+02 1.09375E+00 0.00000E+00
 -1      1598 1.27512E+02 1.09375E+00 0.00000E+00
 -1      1599 1.27374E+02 2.18750E+00 0.00000E+00
 -1      1600 1.32012E+02 1.09375E+00 0.00000E+00
 -1      1601 1.30512E+02 1.09375E+00 0.00000E+00
 -1      1602 1.30374E+02 2.18750E+00 0.00000E+00
 -1      1603 1.35012E+02 1.09375E+00 0.00000E+00
 -1      1604 1.33512E+02 1.09375E+00 0.00000E+00
 -1      1605 1.33374E+02 2.18750E+00 0.00000E+00
 -1      1606 1.38012E+02 1.09375E+00 0.00000E+00
 -1      1607 1.36512E+02 1.09375E+00 0.00000E+00
 -1      1608 1.36374E+02 2.18750E+00 0.00000E+00
 -1      1609 1.41012E+02 1.09375E+00 0.00000E+00
 -1      1610 1.39512E+02 1.09375E+00 0.00000E+00
 -1      1611 1.39374E+02 2.18750E+00 0.00000E+00
 -1      1612 1.44012E+02 1.09375E+00 0.00000E+00
 -1      1613 1.42512E+02 1.09375E+00 0.00000E+00
 -1      1614 1.42374E+02 2.18750E+00 0.00000E+00
 -1      1615 1.47012E+02 1.09375E+00 0.00000E+00
 -1      1616 1.45512E+02 1.09375E+00 0.00000E+00
 -1      1617 1.45374E+02 2.18750E+00 0.00000E+00
 -1      1618 1.48575E+02 1.47500E+00 0.00000E+00
 -1      1619 1.48701E+02 5.16250E+00 0.00000E+00
 -1      1620 1.48701E+02 3.68750E+00 0.00000E+00
 -1      1621 1.48701E+02 8.11250E+00 0.00000E+00
 -1      1622 1.48701E+02 6.63750E+00 0.00000E+00
 -1      1623 1.47402E+02 5.90000E+00 0.00000E+00
 -1      1624 1.48701E+02 1.10625E+01 0.00000E+00
 -1      1625 1.48701E+02 9.58750E+00 0.00000E+00
 -1      1626 1.47402E+02 8.85000E+00 0.00000E+00
 -1      1627 1.48701E+02 1.40125E+01 0.00000E+00
 -1      1628 1.48701E+02 1.25375E+01 0.00000E+00
 -1      1629 1.47402E+02 1.18000E+01 0.00000E+00
 -1      1630 1.48701E+02 1.69125E+01 0.00000E+00
 -1      1631 1.48701E+02 1.54625E+01 0.00000E+00
 -1      1632 1.47402E+02 1.47250E+01 0.00000E+00
 -1      1633 1.48701E+02 1.98625E+01 0.00000E+00
 -1      1634 1.48701E+02 1.83875E+01 0.00000E+00
 -1      1635 1.47402E+02 1.76500E+01 0.00000E+00
 -1      1636 1.48701E+02 2.28125E+01 0.00000E+00
 -1      1637 1.48701E+02 2.13375E+01 0.00000E+00
 -1      1638 1.47402E+02 2.06000E+01 0.00000E+00
 -1      1639 1.48701E+02 2.57625E+01 0.00000E+00
 -1      1640 1.48701E+02 2.42875E+01 0.00000E+00
 -1      1641 1.47402E+02 2.35500E+01 0.00000E+00
 -1      1642 1.48701E+02 2.87125E+01 0.00000E+00
 -1      1643 1.48701E+02 2.72375E+01 0.00000E+00
 -1      1644 1.47402E+02 2.65000E+01 0.00000E+00
 -1      1645 1.48701E+02 3.16625E+01 0.00000E+00
 -1      1646 1.48701E+02 3.01875E+01 0.00000E+00
 -1      1647 1.47402E+02 2.94500E+01 0.00000E+00
 -1      1648 1.48701E+02 3.45625E+01 0.00000E+00
 -1      1649 1.48701E+02 3.31125E+01 0.00000E+00
 -1      1650 1.47402E+02 3.23750E+01 0.00000E+00
 -1      1651 1.48701E+02 3.75125E+01 0.00000E+00
 -1      1652 1.48701E+02 3.60375E+01 0.00000E+00
 -1      1653 1.47402E+02 3.53000E+01 0.00000E+00
 -1      1654 1.48701E+02 4.04625E+01 0.00000E+00
 -1      1655 1.48701E+02 3.89875E+01 0.00000E+00
 -1      1656 1.47402E+02 3.82500E+01 0.00000E+00
 -1      1657 1.48701E+02 4.34125E+01 0.00000E+00
 -1      1658 1.48701E+02 4.19375E+01 0.00000E+00
 -1      1659 1.47402E+02 4.12000E+01 0.00000E+00
 -1      1660 1.48263E+02 4.60692E+01 0.00000E+00
 -1      1661 1.48263E+02 4.45942E+01 0.00000E+00
 -1      1662 1.46964E+02 4.38568E+01 0.00000E+00
 -1      1663 1.46088E+02 4.62202E+01 0.00000E+00
 -1      1664 8.25619E+01 2.07091E+01 0.00000E+00
 -1      1665 8.26342E+01 2.14170E+01 0.00000E+00
 -1      1666 8.21709E+01 1.90921E+01 0.00000E+00
 -1      1667 8.24160E+01 1.98408E+01 0.00000E+00
 -1      1668 8.14290E+01 1.76412E+01 0.00000E+00
 -1      1669 8.18031E+01 1.82733E+01 0.00000E+00
 -1      1670 8.04100E+01 1.64580E+01 0.00000E+00
 -1      1671 8.08909E+01 1.69832E+01 0.00000E+00
 -1      1672 7.91672E+01 1.53663E+01 0.00000E+00
 -1      1673 7.98032E+01 1.58165E+01 0.00000E+00
 -1      1674 7.76958E+01 1.45508E+01 0.00000E+00
 -1      1675 7.83978E+01 1.48439E+01 0.00000E+00
 -1      1676 7.60777E+01 1.42817E+01 0.00000E+00
 -1      1677 7.68016E+01 1.44144E+01 0.00000E+00
 -1      1678 7.44049E+01 1.42049E+01 0.00000E+00
 -1      1679 7.51845E+01 1.41771E+01 0.00000E+00
 -1      1680 7.28340E+01 1.45920E+01 0.00000E+00
 -1      1681 7.35373E+01 1.44115E+01 0.00000E+00
 -1      1682 7.13427E+01 1.52372E+01 0.00000E+00
 -1      1683 7.20221E+01 1.48973E+01 0.00000E+00
 -1      1684 6.99479E+01 1.61970E+01 0.00000E+00
 -1      1685 7.05585E+01 1.56975E+01 0.00000E+00
 -1      1686 6.88395E+01 1.74486E+01 0.00000E+00
 -1      1687 6.93080E+01 1.68491E+01 0.00000E+00
 -1      1688 6.80545E+01 1.88560E+01 0.00000E+00
 -1      1689 6.83729E+01 1.81959E+01 0.00000E+00
 -1      1690 6.76319E+01 2.03714E+01 0.00000E+00
 -1      1691 6.78042E+01 1.96723E+01 0.00000E+00
 -1      1692 6.74134E+01 2.20184E+01 0.00000E+00
 -1      1693 6.74342E+01 2.12379E+01 0.00000E+00
 -1      1694 6.77027E+01 2.36138E+01 0.00000E+00
 -1      1695 6.75658E+01 2.28987E+01 0.00000E+00
 -1      1696 6.82285E+01 2.50950E+01 0.00000E+00
 -1      1697 6.79479E+01 2.44262E+01 0.00000E+00
 -1      1698 6.90313E+01 2.64151E+01 0.00000E+00
 -1      1699 6.86293E+01 2.58306E+01 0.00000E+00
 -1      1700 7.00764E+01 2.75357E+01 0.00000E+00
 -1      1701 6.95666E+01 2.70458E+01 0.00000E+00
 -1      1702 7.12955E+01 2.84077E+01 0.00000E+00
 -1      1703 7.07160E+01 2.80394E+01 0.00000E+00
 -1      1704 7.26795E+01 2.90254E+01 0.00000E+00
 -1      1705 7.20218E+01 2.87725E+01 0.00000E+00
 -1      1706 7.42401E+01 2.94460E+01 0.00000E+00
 -1      1707 7.34917E+01 2.93269E+01 0.00000E+00
 -1      1708 7.57659E+01 2.93812E+01 0.00000E+00
 -1      1709 7.50896E+01 2.94135E+01 0.00000E+00
 -1      1710 7.72762E+01 2.91251E+01 0.00000E+00
 -1      1711 7.65812E+01 2.93004E+01 0.00000E+00
 -1      1712 7.86814E+01 2.84942E+01 0.00000E+00
 -1      1713 7.80466E+01 2.88012E+01 0.00000E+00
 -1      1714 7.99195E+01 2.76565E+01 0.00000E+00
 -1      1715 7.93741E+01 2.80706E+01 0.00000E+00
 -1      1716 8.09725E+01 2.65840E+01 0.00000E+00
 -1      1717 8.05108E+01 2.71066E+01 0.00000E+00
 -1      1718 8.18167E+01 2.52761E+01 0.00000E+00
 -1      1719 8.14557E+01 2.59070E+01 0.00000E+00
 -1      1720 8.24174E+01 2.38432E+01 0.00000E+00
 -1      1721 8.21975E+01 2.45208E+01 0.00000E+00
 -1      1722 8.27144E+01 2.22734E+01 0.00000E+00
 -1      1723 8.26361E+01 2.30094E+01 0.00000E+00
 -1      1724 8.04907E+01 1.56697E+01 0.00000E+00
 -1      1725 8.16357E+01 1.69692E+01 0.00000E+00
 -1      1726 1.48437E+02 2.56875E+00 0.00000E+00
 -1      1727 1.47138E+02 3.30625E+00 0.00000E+00
 -1      1728 8.30553E+01 2.01331E+01 0.00000E+00
 -1      1729 8.25416E+01 1.84460E+01 0.00000E+00
 -1      1730 8.32812E+01 2.18579E+01 0.00000E+00
 -1      1731 7.91144E+01 1.45058E+01 0.00000E+00
 -1      1732 7.74508E+01 1.38469E+01 0.00000E+00
 -1      1733 7.56633E+01 1.36060E+01 0.00000E+00
 -1      1734 7.39025E+01 1.37080E+01 0.00000E+00
 -1      1735 7.22231E+01 1.42199E+01 0.00000E+00
 -1      1736 7.06270E+01 1.49854E+01 0.00000E+00
 -1      1737 6.92030E+01 1.60977E+01 0.00000E+00
 -1      1738 6.80965E+01 1.74970E+01 0.00000E+00
 -1      1739 6.73797E+01 1.90606E+01 0.00000E+00
 -1      1740 6.69318E+01 2.07433E+01 0.00000E+00
 -1      1741 6.68865E+01 2.24900E+01 0.00000E+00
 -1      1742 6.72840E+01 2.41827E+01 0.00000E+00
 -1      1743 6.79300E+01 2.57308E+01 0.00000E+00
 -1      1744 6.88661E+01 2.70971E+01 0.00000E+00
 -1      1745 7.00410E+01 2.82315E+01 0.00000E+00
 -1      1746 7.14069E+01 2.91000E+01 0.00000E+00
 -1      1747 7.29453E+01 2.97663E+01 0.00000E+00
 -1      1748 7.46071E+01 3.00354E+01 0.00000E+00
 -1      1749 7.62719E+01 2.99220E+01 0.00000E+00
 -1      1750 7.78576E+01 2.95173E+01 0.00000E+00
 -1      1751 7.93207E+01 2.87699E+01 0.00000E+00
 -1      1752 8.06047E+01 2.77965E+01 0.00000E+00
 -1      1753 8.16792E+01 2.65696E+01 0.00000E+00
 -1      1754 8.25431E+01 2.51373E+01 0.00000E+00
 -1      1755 8.31426E+01 2.35482E+01 0.00000E+00
 -1      1756 2.87400E+00 4.77875E+01 0.00000E+00
 -1      1757 3.89700E+00 4.04125E+01 0.00000E+00
 -1      1758 3.89700E+00 4.18875E+01 0.00000E+00
 -1      1759 3.89700E+00 4.33625E+01 0.00000E+00
 -1      1760 3.89700E+00 4.48375E+01 0.00000E+00
 -1      1761 5.19600E+00 4.26250E+01 0.00000E+00
 -1      1762 3.89700E+00 3.45500E+01 0.00000E+00
 -1      1763 3.89700E+00 3.60000E+01 0.00000E+00
 -1      1764 3.89700E+00 3.16000E+01 0.00000E+00
 -1      1765 3.89700E+00 3.30750E+01 0.00000E+00
 -1      1766 5.19600E+00 3.38000E+01 0.00000E+00
 -1      1767 3.89700E+00 2.86500E+01 0.00000E+00
 -1      1768 3.89700E+00 3.01250E+01 0.00000E+00
 -1      1769 5.19600E+00 3.08500E+01 0.00000E+00
 -1      1770 3.89700E+00 2.57000E+01 0.00000E+00
 -1      1771 3.89700E+00 2.71750E+01 0.00000E+00
 -1      1772 5.19600E+00 2.79000E+01 0.00000E+00
 -1      1773 3.89700E+00 2.27500E+01 0.00000E+00
 -1      1774 3.89700E+00 2.42250E+01 0.00000E+00
 -1      1775 5.19600E+00 2.49500E+01 0.00000E+00
 -1      1776 3.89700E+00 1.98000E+01 0.00000E+00
 -1      1777 3.89700E+00 2.12750E+01 0.00000E+00
 -1      1778 5.19600E+00 2.20000E+01 0.00000E+00
 -1      1779 3.89700E+00 1.69000E+01 0.00000E+00
 -1      1780 3.89700E+00 1.83500E+01 0.00000E+00
 -1      1781 5.19600E+00 1.90750E+01 0.00000E+00
 -1      1782 3.89700E+00 1.39500E+01 0.00000E+00
 -1      1783 3.89700E+00 1.54250E+01 0.00000E+00
 -1      1784 5.19600E+00 1.61500E+01 0.00000E+00
 -1      1785 3.89700E+00 1.10000E+01 0.00000E+00
 -1      1786 3.89700E+00 1.24750E+01 0.00000E+00
 -1      1787 5.19600E+00 1.32000E+01 0.00000E+00
 -1      1788 3.89700E+00 8.05000E+00 0.00000E+00
 -1      1789 3.89700E+00 9.52500E+00 0.00000E+00
 -1      1790 5.19600E+00 1.02500E+01 0.00000E+00
 -1      1791 3.89700E+00 5.10000E+00 0.00000E+00
 -1      1792 3.89700E+00 6.57500E+00 0.00000E+00
 -1      1793 5.19600E+00 7.30000E+00 0.00000E+00
 -1      1794 4.20450E+00 3.09687E+00 0.00000E+00
 -1      1795 4.06650E+00 4.19063E+00 0.00000E+00
 -1      1796 5.36550E+00 4.91563E+00 0.00000E+00
 -1      1797 5.70450E+00 3.09687E+00 0.00000E+00
 -1      1798 3.62400E+00 4.64885E+01 0.00000E+00
 -1      1799 8.70450E+00 3.09687E+00 0.00000E+00
 -1      1800 7.20450E+00 3.09687E+00 0.00000E+00
 -1      1801 7.03500E+00 4.00625E+00 0.00000E+00
 -1      1802 4.92300E+00 4.57510E+01 0.00000E+00
 -1      1803 8.40000E+00 4.61030E+01 0.00000E+00
 -1      1804 9.90000E+00 4.61030E+01 0.00000E+00
 -1      1805 1.14000E+01 4.61030E+01 0.00000E+00
 -1      1806 1.29000E+01 4.61030E+01 0.00000E+00
 -1      1807 1.06500E+01 4.48040E+01 0.00000E+00
 -1      1808 1.44000E+01 4.61030E+01 0.00000E+00
 -1      1809 1.59000E+01 4.61030E+01 0.00000E+00
 -1      1810 1.36500E+01 4.48040E+01 0.00000E+00
 -1      1811 1.74000E+01 4.61030E+01 0.00000E+00
 -1      1812 1.89000E+01 4.61030E+01 0.00000E+00
 -1      1813 1.66500E+01 4.48040E+01 0.00000E+00
 -1      1814 2.04000E+01 4.61030E+01 0.00000E+00
 -1      1815 2.19000E+01 4.61030E+01 0.00000E+00
 -1      1816 1.96500E+01 4.48040E+01 0.00000E+00
 -1      1817 2.34000E+01 4.61030E+01 0.00000E+00
 -1      1818 2.49000E+01 4.61030E+01 0.00000E+00
 -1      1819 2.26500E+01 4.48040E+01 0.00000E+00
 -1      1820 2.64000E+01 4.61030E+01 0.00000E+00
 -1      1821 2.79000E+01 4.61030E+01 0.00000E+00
 -1      1822 2.56500E+01 4.48040E+01 0.00000E+00
 -1      1823 2.94000E+01 4.61030E+01 0.00000E+00
 -1      1824 3.09000E+01 4.61030E+01 0.00000E+00
 -1      1825 2.86500E+01 4.48040E+01 0.00000E+00
 -1      1826 3.24000E+01 4.61030E+01 0.00000E+00
 -1      1827 3.39000E+01 4.61030E+01 0.00000E+00
 -1      1828 3.16500E+01 4.48040E+01 0.00000E+00
 -1      1829 3.54000E+01 4.61030E+01 0.00000E+00
 -1      1830 3.69000E+01 4.61030E+01 0.00000E+00
 -1      1831 3.46500E+01 4.48040E+01 0.00000E+00
 -1      1832 3.84000E+01 4.61030E+01 0.00000E+00
 -1      1833 3.99000E+01 4.61030E+01 0.00000E+00
 -1      1834 3.76500E+01 4.48040E+01 0.00000E+00
 -1      1835 4.14000E+01 4.61030E+01 0.00000E+00
 -1      1836 4.29000E+01 4.61030E+01 0.00000E+00
 -1      1837 4.06500E+01 4.48040E+01 0.00000E+00
 -1      1838 4.44000E+01 4.61030E+01 0.00000E+00
 -1      1839 4.59000E+01 4.61030E+01 0.00000E+00
 -1      1840 4.36500E+01 4.48040E+01 0.00000E+00
 -1      1841 4.74000E+01 4.61030E+01 0.00000E+00
 -1      1842 4.89000E+01 4.61030E+01 0.00000E+00
 -1      1843 4.66500E+01 4.48040E+01 0.00000E+00
 -1      1844 5.04000E+01 4.61030E+01 0.00000E+00
 -1      1845 5.19000E+01 4.61030E+01 0.00000E+00
 -1      1846 4.96500E+01 4.48040E+01 0.00000E+00
 -1      1847 5.34000E+01 4.61030E+01 0.00000E+00
 -1      1848 5.49000E+01 4.61030E+01 0.00000E+00
 -1      1849 5.26500E+01 4.48040E+01 0.00000E+00
 -1      1850 5.64000E+01 4.61030E+01 0.00000E+00
 -1      1851 5.79000E+01 4.61030E+01 0.00000E+00
 -1      1852 5.56500E+01 4.48040E+01 0.00000E+00
 -1      1853 5.94000E+01 4.61030E+01 0.00000E+00
 -1      1854 6.09000E+01 4.61030E+01 0.00000E+00
 -1      1855 5.86500E+01 4.48040E+01 0.00000E+00
 -1      1856 6.24000E+01 4.61030E+01 0.00000E+00
 -1      1857 6.39000E+01 4.61030E+01 0.00000E+00
 -1      1858 6.16500E+01 4.48040E+01 0.00000E+00
 -1      1859 6.54000E+01 4.61030E+01 0.00000E+00
 -1      1860 6.69000E+01 4.61030E+01 0.00000E+00
 -1      1861 6.46500E+01 4.48040E+01 0.00000E+00
 -1      1862 6.84000E+01 4.61030E+01 0.00000E+00
 -1      1863 6.99000E+01 4.61030E+01 0.00000E+00
 -1      1864 6.76500E+01 4.48040E+01 0.00000E+00
 -1      1865 7.14000E+01 4.61030E+01 0.00000E+00
 -1      1866 7.29000E+01 4.61030E+01 0.00000E+00
 -1      1867 7.06500E+01 4.48040E+01 0.00000E+00
 -1      1868 7.44000E+01 4.61030E+01 0.00000E+00
 -1      1869 7.59000E+01 4.61030E+01 0.00000E+00
 -1      1870 7.36500E+01 4.48040E+01 0.00000E+00
 -1      1871 7.74000E+01 4.61030E+01 0.00000E+00
 -1      1872 7.89000E+01 4.61030E+01 0.00000E+00
 -1      1873 7.66500E+01 4.48040E+01 0.00000E+00
 -1      1874 8.04000E+01 4.61030E+01 0.00000E+00
 -1      1875 8.19000E+01 4.61030E+01 0.00000E+00
 -1      1876 7.96500E+01 4.48040E+01 0.00000E+00
 -1      1877 8.34000E+01 4.61030E+01 0.00000E+00
 -1      1878 8.49000E+01 4.61030E+01 0.00000E+00
 -1      1879 8.26500E+01 4.48040E+01 0.00000E+00
 -1      1880 8.64000E+01 4.61030E+01 0.00000E+00
 -1      1881 8.79000E+01 4.61030E+01 0.00000E+00
 -1      1882 8.56500E+01 4.48040E+01 0.00000E+00
 -1      1883 8.94000E+01 4.61030E+01 0.00000E+00
 -1      1884 9.09000E+01 4.61030E+01 0.00000E+00
 -1      1885 8.86500E+01 4.48040E+01 0.00000E+00
 -1      1886 9.24000E+01 4.61030E+01 0.00000E+00
 -1      1887 9.39000E+01 4.61030E+01 0.00000E+00
 -1      1888 9.16500E+01 4.48040E+01 0.00000E+00
 -1      1889 9.54000E+01 4.61030E+01 0.00000E+00
 -1      1890 9.69000E+01 4.61030E+01 0.00000E+00
 -1      1891 9.46500E+01 4.48040E+01 0.00000E+00
 -1      1892 9.84000E+01 4.61030E+01 0.00000E+00
 -1      1893 9.99000E+01 4.61030E+01 0.00000E+00
 -1      1894 9.76500E+01 4.48040E+01 0.00000E+00
 -1      1895 1.01400E+02 4.61030E+01 0.00000E+00
 -1      1896 1.02900E+02 4.61030E+01 0.00000E+00
 -1      1897 1.00650E+02 4.48040E+01 0.00000E+00
 -1      1898 1.04400E+02 4.61030E+01 0.00000E+00
 -1      1899 1.05900E+02 4.61030E+01 0.00000E+00
 -1      1900 1.03650E+02 4.48040E+01 0.00000E+00
 -1      1901 1.07400E+02 4.61030E+01 0.00000E+00
 -1      1902 1.08900E+02 4.61030E+01 0.00000E+00
 -1      1903 1.06650E+02 4.48040E+01 0.00000E+00
 -1      1904 1.10400E+02 4.61030E+01 0.00000E+00
 -1      1905 1.11900E+02 4.61030E+01 0.00000E+00
 -1      1906 1.09650E+02 4.48040E+01 0.00000E+00
 -1      1907 1.13400E+02 4.61030E+01 0.00000E+00
 -1      1908 1.14900E+02 4.61030E+01 0.00000E+00
 -1      1909 1.12650E+02 4.48040E+01 0.00000E+00
 -1      1910 1.16400E+02 4.61030E+01 0.00000E+00
 -1      1911 1.17900E+02 4.61030E+01 0.00000E+00
 -1      1912 1.15650E+02 4.48040E+01 0.00000E+00
 -1      1913 1.19400E+02 4.61030E+01 0.00000E+00
 -1      1914 1.20900E+02 4.61030E+01 0.00000E+00
 -1      1915 1.18650E+02 4.48040E+01 0.00000E+00
 -1      1916 1.22400E+02 4.61030E+01 0.00000E+00
 -1      1917 1.23900E+02 4.61030E+01 0.00000E+00
 -1      1918 1.21650E+02 4.48040E+01 0.00000E+00
 -1      1919 1.25400E+02 4.61030E+01 0.00000E+00
 -1      1920 1.26900E+02 4.61030E+01 0.00000E+00
 -1      1921 1.24650E+02 4.48040E+01 0.00000E+00
 -1      1922 1.28400E+02 4.61030E+01 0.00000E+00
 -1      1923 1.29900E+02 4.61030E+01 0.00000E+00
 -1      1924 1.27650E+02 4.48040E+01 0.00000E+00
 -1      1925 1.31400E+02 4.61030E+01 0.00000E+00
 -1      1926 1.32900E+02 4.61030E+01 0.00000E+00
 -1      1927 1.30650E+02 4.48040E+01 0.00000E+00
 -1      1928 1.34400E+02 4.61030E+01 0.00000E+00
 -1      1929 1.35900E+02 4.61030E+01 0.00000E+00
 -1      1930 1.33650E+02 4.48040E+01 0.00000E+00
 -1      1931 1.37400E+02 4.61030E+01 0.00000E+00
 -1      1932 1.38900E+02 4.61030E+01 0.00000E+00
 -1      1933 1.36650E+02 4.48040E+01 0.00000E+00
 -1      1934 1.40400E+02 4.61030E+01 0.00000E+00
 -1      1935 1.41900E+02 4.61030E+01 0.00000E+00
 -1      1936 1.39650E+02 4.48040E+01 0.00000E+00
 -1      1937 1.43244E+02 4.61616E+01 0.00000E+00
 -1      1938 1.44744E+02 4.61616E+01 0.00000E+00
 -1      1939 1.45182E+02 4.49799E+01 0.00000E+00
 -1      1940 1.42494E+02 4.48626E+01 0.00000E+00
 -1      1941 1.17045E+01 3.09687E+00 0.00000E+00
 -1      1942 1.02045E+01 3.09687E+00 0.00000E+00
 -1      1943 1.00350E+01 4.00625E+00 0.00000E+00
 -1      1944 1.47045E+01 3.09687E+00 0.00000E+00
 -1      1945 1.32045E+01 3.09687E+00 0.00000E+00
 -1      1946 1.30350E+01 4.00625E+00 0.00000E+00
 -1      1947 1.77045E+01 3.09687E+00 0.00000E+00
 -1      1948 1.62045E+01 3.09687E+00 0.00000E+00
 -1      1949 1.60350E+01 4.00625E+00 0.00000E+00
 -1      1950 2.07045E+01 3.09687E+00 0.00000E+00
 -1      1951 1.92045E+01 3.09687E+00 0.00000E+00
 -1      1952 1.90350E+01 4.00625E+00 0.00000E+00
 -1      1953 2.37045E+01 3.09687E+00 0.00000E+00
 -1      1954 2.22045E+01 3.09687E+00 0.00000E+00
 -1      1955 2.20350E+01 4.00625E+00 0.00000E+00
 -1      1956 2.67045E+01 3.09687E+00 0.00000E+00
 -1      1957 2.52045E+01 3.09687E+00 0.00000E+00
 -1      1958 2.50350E+01 4.00625E+00 0.00000E+00
 -1      1959 2.97045E+01 3.09687E+00 0.00000E+00
 -1      1960 2.82045E+01 3.09687E+00 0.00000E+00
 -1      1961 2.80350E+01 4.00625E+00 0.00000E+00
 -1      1962 3.27045E+01 3.09687E+00 0.00000E+00
 -1      1963 3.12045E+01 3.09687E+00 0.00000E+00
 -1      1964 3.10350E+01 4.00625E+00 0.00000E+00
 -1      1965 3.57045E+01 3.09687E+00 0.00000E+00
 -1      1966 3.42045E+01 3.09687E+00 0.00000E+00
 -1      1967 3.40350E+01 4.00625E+00 0.00000E+00
 -1      1968 3.87045E+01 3.09687E+00 0.00000E+00
 -1      1969 3.72045E+01 3.09687E+00 0.00000E+00
 -1      1970 3.70350E+01 4.00625E+00 0.00000E+00
 -1      1971 4.17045E+01 3.09687E+00 0.00000E+00
 -1      1972 4.02045E+01 3.09687E+00 0.00000E+00
 -1      1973 4.00350E+01 4.00625E+00 0.00000E+00
 -1      1974 4.47045E+01 3.09687E+00 0.00000E+00
 -1      1975 4.32045E+01 3.09687E+00 0.00000E+00
 -1      1976 4.30350E+01 4.00625E+00 0.00000E+00
 -1      1977 4.77045E+01 3.09687E+00 0.00000E+00
 -1      1978 4.62045E+01 3.09687E+00 0.00000E+00
 -1      1979 4.60350E+01 4.00625E+00 0.00000E+00
 -1      1980 5.07045E+01 3.09687E+00 0.00000E+00
 -1      1981 4.92045E+01 3.09687E+00 0.00000E+00
 -1      1982 4.90350E+01 4.00625E+00 0.00000E+00
 -1      1983 5.37045E+01 3.09687E+00 0.00000E+00
 -1      1984 5.22045E+01 3.09687E+00 0.00000E+00
 -1      1985 5.20350E+01 4.00625E+00 0.00000E+00
 -1      1986 5.67045E+01 3.09687E+00 0.00000E+00
 -1      1987 5.52045E+01 3.09687E+00 0.00000E+00
 -1      1988 5.50350E+01 4.00625E+00 0.00000E+00
 -1      1989 5.97045E+01 3.09687E+00 0.00000E+00
 -1      1990 5.82045E+01 3.09687E+00 0.00000E+00
 -1      1991 5.80350E+01 4.00625E+00 0.00000E+00
 -1      1992 6.27045E+01 3.09687E+00 0.00000E+00
 -1      1993 6.12045E+01 3.09687E+00 0.00000E+00
 -1      1994 6.10350E+01 4.00625E+00 0.00000E+00
 -1      1995 6.57045E+01 3.09687E+00 0.00000E+00
 -1      1996 6.42045E+01 3.09687E+00 0.00000E+00
 -1      1997 6.40350E+01 4.00625E+00 0.00000E+00
 -1      1998 6.87045E+01 3.09687E+00 0.00000E+00
 -1      1999 6.72045E+01 3.09687E+00 0.00000E+00
 -1      2000 6.70350E+01 4.00625E+00 0.00000E+00
 -1      2001 7.17045E+01 3.09687E+00 0.00000E+00
 -1      2002 7.02045E+01 3.09687E+00 0.00000E+00
 -1      2003 7.00350E+01 4.00625E+00 0.00000E+00
 -1      2004 7.47045E+01 3.09687E+00 0.00000E+00
 -1      2005 7.32045E+01 3.09687E+00 0.00000E+00
 -1      2006 7.30350E+01 4.00625E+00 0.00000E+00
 -1      2007 7.77045E+01 3.09687E+00 0.00000E+00
 -1      2008 7.62045E+01 3.09687E+00 0.00000E+00
 -1      2009 7.60350E+01 4.00625E+00 0.00000E+00
 -1      2010 8.07045E+01 3.09687E+00 0.00000E+00
 -1      2011 7.92045E+01 3.09687E+00 0.00000E+00
 -1      2012 7.90350E+01 4.00625E+00 0.00000E+00
 -1      2013 8.37045E+01 3.09687E+00 0.00000E+00
 -1      2014 8.22045E+01 3.09687E+00 0.00000E+00
 -1      2015 8.20350E+01 4.00625E+00 0.00000E+00
 -1      2016 8.67045E+01 3.09687E+00 0.00000E+00
 -1      2017 8.52045E+01 3.09687E+00 0.00000E+00
 -1      2018 8.50350E+01 4.00625E+00 0.00000E+00
 -1      2019 8.97045E+01 3.09687E+00 0.00000E+00
 -1      2020 8.82045E+01 3.09687E+00 0.00000E+00
 -1      2021 8.80350E+01 4.00625E+00 0.00000E+00
 -1      2022 9.27045E+01 3.09687E+00 0.00000E+00
 -1      2023 9.12045E+01 3.09687E+00 0.00000E+00
 -1      2024 9.10350E+01 4.00625E+00 0.00000E+00
 -1      2025 9.57045E+01 3.09687E+00 0.00000E+00
 -1      2026 9.42045E+01 3.09687E+00 0.00000E+00
 -1      2027 9.40350E+01 4.00625E+00 0.00000E+00
 -1      2028 9.87045E+01 3.09687E+00 0.00000E+00
 -1      2029 9.72045E+01 3.09687E+00 0.00000E+00
 -1      2030 9.70350E+01 4.00625E+00 0.00000E+00
 -1      2031 1.01704E+02 3.09687E+00 0.00000E+00
 -1      2032 1.00204E+02 3.09687E+00 0.00000E+00
 -1      2033 1.00035E+02 4.00625E+00 0.00000E+00
 -1      2034 1.04704E+02 3.09687E+00 0.00000E+00
 -1      2035 1.03204E+02 3.09687E+00 0.00000E+00
 -1      2036 1.03035E+02 4.00625E+00 0.00000E+00
 -1      2037 1.07704E+02 3.09687E+00 0.00000E+00
 -1      2038 1.06204E+02 3.09687E+00 0.00000E+00
 -1      2039 1.06035E+02 4.00625E+00 0.00000E+00
 -1      2040 1.10704E+02 3.09687E+00 0.00000E+00
 -1      2041 1.09204E+02 3.09687E+00 0.00000E+00
 -1      2042 1.09035E+02 4.00625E+00 0.00000E+00
 -1      2043 1.13704E+02 3.09687E+00 0.00000E+00
 -1      2044 1.12204E+02 3.09687E+00 0.00000E+00
 -1      2045 1.12035E+02 4.00625E+00 0.00000E+00
 -1      2046 1.16704E+02 3.09687E+00 0.00000E+00
 -1      2047 1.15204E+02 3.09687E+00 0.00000E+00
 -1      2048 1.15035E+02 4.00625E+00 0.00000E+00
 -1      2049 1.19704E+02 3.09687E+00 0.00000E+00
 -1      2050 1.18204E+02 3.09687E+00 0.00000E+00
 -1      2051 1.18035E+02 4.00625E+00 0.00000E+00
 -1      2052 1.22704E+02 3.09687E+00 0.00000E+00
 -1      2053 1.21204E+02 3.09687E+00 0.00000E+00
 -1      2054 1.21035E+02 4.00625E+00 0.00000E+00
 -1      2055 1.25704E+02 3.09687E+00 0.00000E+00
 -1      2056 1.24204E+02 3.09687E+00 0.00000E+00
 -1      2057 1.24035E+02 4.00625E+00 0.00000E+00
 -1      2058 1.28704E+02 3.09687E+00 0.00000E+00
 -1      2059 1.27204E+02 3.09687E+00 0.00000E+00
 -1      2060 1.27035E+02 4.00625E+00 0.00000E+00
 -1      2061 1.31704E+02 3.09687E+00 0.00000E+00
 -1      2062 1.30204E+02 3.09687E+00 0.00000E+00
 -1      2063 1.30035E+02 4.00625E+00 0.00000E+00
 -1      2064 1.34704E+02 3.09687E+00 0.00000E+00
 -1      2065 1.33204E+02 3.09687E+00 0.00000E+00
 -1      2066 1.33035E+02 4.00625E+00 0.00000E+00
 -1      2067 1.37704E+02 3.09687E+00 0.00000E+00
 -1      2068 1.36204E+02 3.09687E+00 0.00000E+00
 -1      2069 1.36035E+02 4.00625E+00 0.00000E+00
 -1      2070 1.40704E+02 3.09687E+00 0.00000E+00
 -1      2071 1.39204E+02 3.09687E+00 0.00000E+00
 -1      2072 1.39035E+02 4.00625E+00 0.00000E+00
 -1      2073 1.43704E+02 3.09687E+00 0.00000E+00
 -1      2074 1.42204E+02 3.09687E+00 0.00000E+00
 -1      2075 1.42035E+02 4.00625E+00 0.00000E+00
 -1      2076 1.46171E+02 3.20156E+00 0.00000E+00
 -1      2077 1.44671E+02 3.20156E+00 0.00000E+00
 -1      2078 1.44502E+02 4.11094E+00 0.00000E+00
 -1      2079 1.46435E+02 4.32031E+00 0.00000E+00
 -1      2080 1.46103E+02 1.25375E+01 0.00000E+00
 -1      2081 1.46103E+02 1.10625E+01 0.00000E+00
 -1      2082 1.46103E+02 9.58750E+00 0.00000E+00
 -1      2083 1.46103E+02 8.11250E+00 0.00000E+00
 -1      2084 1.44804E+02 1.03250E+01 0.00000E+00
 -1      2085 1.46269E+02 6.95391E+00 0.00000E+00
 -1      2086 1.46269E+02 5.47891E+00 0.00000E+00
 -1      2087 1.45302E+02 5.37422E+00 0.00000E+00
 -1      2088 1.44970E+02 7.69141E+00 0.00000E+00
 -1      2089 1.46103E+02 1.54375E+01 0.00000E+00
 -1      2090 1.46103E+02 1.39875E+01 0.00000E+00
 -1      2091 1.44804E+02 1.32500E+01 0.00000E+00
 -1      2092 1.46103E+02 1.83875E+01 0.00000E+00
 -1      2093 1.46103E+02 1.69125E+01 0.00000E+00
 -1      2094 1.44804E+02 1.61750E+01 0.00000E+00
 -1      2095 1.46103E+02 2.13375E+01 0.00000E+00
 -1      2096 1.46103E+02 1.98625E+01 0.00000E+00
 -1      2097 1.44804E+02 1.91250E+01 0.00000E+00
 -1      2098 1.46103E+02 2.42875E+01 0.00000E+00
 -1      2099 1.46103E+02 2.28125E+01 0.00000E+00
 -1      2100 1.44804E+02 2.20750E+01 0.00000E+00
 -1      2101 1.46103E+02 2.72375E+01 0.00000E+00
 -1      2102 1.46103E+02 2.57625E+01 0.00000E+00
 -1      2103 1.44804E+02 2.50250E+01 0.00000E+00
 -1      2104 1.46103E+02 3.01875E+01 0.00000E+00
 -1      2105 1.46103E+02 2.87125E+01 0.00000E+00
 -1      2106 1.44804E+02 2.79750E+01 0.00000E+00
 -1      2107 1.46103E+02 3.30875E+01 0.00000E+00
 -1      2108 1.46103E+02 3.16375E+01 0.00000E+00
 -1      2109 1.44804E+02 3.09000E+01 0.00000E+00
 -1      2110 1.46103E+02 3.60375E+01 0.00000E+00
 -1      2111 1.46103E+02 3.45625E+01 0.00000E+00
 -1      2112 1.44804E+02 3.38250E+01 0.00000E+00
 -1      2113 1.46103E+02 3.89875E+01 0.00000E+00
 -1      2114 1.46103E+02 3.75125E+01 0.00000E+00
 -1      2115 1.44804E+02 3.67750E+01 0.00000E+00
 -1      2116 1.46103E+02 4.19375E+01 0.00000E+00
 -1      2117 1.46103E+02 4.04625E+01 0.00000E+00
 -1      2118 1.44804E+02 3.97250E+01 0.00000E+00
 -1      2119 8.31400E+01 1.76852E+01 0.00000E+00
 -1      2120 8.35078E+01 1.85040E+01 0.00000E+00
 -1      2121 8.40116E+01 2.13576E+01 0.00000E+00
 -1      2122 8.40917E+01 2.22141E+01 0.00000E+00
 -1      2123 8.37198E+01 1.96210E+01 0.00000E+00
 -1      2124 8.38657E+01 2.04893E+01 0.00000E+00
 -1      2125 8.46762E+01 2.08455E+01 0.00000E+00
 -1      2126 8.20304E+01 1.60973E+01 0.00000E+00
 -1      2127 8.25686E+01 1.67553E+01 0.00000E+00
 -1      2128 8.08167E+01 1.48144E+01 0.00000E+00
 -1      2129 8.14236E+01 1.54558E+01 0.00000E+00
 -1      2130 8.23565E+01 1.52419E+01 0.00000E+00
 -1      2131 3.89700E+00 3.74688E+01 0.00000E+00
 -1      2132 3.89700E+00 3.89437E+01 0.00000E+00
 -1      2133 5.19600E+00 3.96813E+01 0.00000E+00
 -1      2134 5.19600E+00 3.67438E+01 0.00000E+00
 -1      2135 7.71014E+01 1.31381E+01 0.00000E+00
 -1      2136 7.79956E+01 1.32744E+01 0.00000E+00
 -1      2137 7.53067E+01 1.27852E+01 0.00000E+00
 -1      2138 7.61999E+01 1.28898E+01 0.00000E+00
 -1      2139 7.32896E+01 1.30586E+01 0.00000E+00
 -1      2140 7.41571E+01 1.28520E+01 0.00000E+00
 -1      2141 7.15743E+01 1.37267E+01 0.00000E+00
 -1      2142 7.23862E+01 1.34214E+01 0.00000E+00
 -1      2143 6.98645E+01 1.45843E+01 0.00000E+00
 -1      2144 7.06486E+01 1.41240E+01 0.00000E+00
 -1      2145 6.84205E+01 1.59698E+01 0.00000E+00
 -1      2146 6.90604E+01 1.53177E+01 0.00000E+00
 -1      2147 6.72780E+01 1.75053E+01 0.00000E+00
 -1      2148 6.77445E+01 1.67580E+01 0.00000E+00
 -1      2149 6.65949E+01 1.92664E+01 0.00000E+00
 -1      2150 6.68452E+01 1.84502E+01 0.00000E+00
 -1      2151 6.60785E+01 2.10043E+01 0.00000E+00
 -1      2152 6.62762E+01 2.01379E+01 0.00000E+00
 -1      2153 6.62828E+01 2.30478E+01 0.00000E+00
 -1      2154 6.61304E+01 2.21675E+01 0.00000E+00
 -1      2155 6.67861E+01 2.47761E+01 0.00000E+00
 -1      2156 6.65410E+01 2.39637E+01 0.00000E+00
 -1      2157 6.75613E+01 2.64087E+01 0.00000E+00
 -1      2158 6.71605E+01 2.56730E+01 0.00000E+00
 -1      2159 6.86077E+01 2.78589E+01 0.00000E+00
 -1      2160 6.80724E+01 2.72282E+01 0.00000E+00
 -1      2161 6.99339E+01 2.90254E+01 0.00000E+00
 -1      2162 6.92943E+01 2.85217E+01 0.00000E+00
 -1      2163 7.14227E+01 2.99738E+01 0.00000E+00
 -1      2164 7.06964E+01 2.96090E+01 0.00000E+00
 -1      2165 7.31113E+01 3.05639E+01 0.00000E+00
 -1      2166 7.22991E+01 3.02624E+01 0.00000E+00
 -1      2167 7.50646E+01 3.08760E+01 0.00000E+00
 -1      2168 7.42151E+01 3.09085E+01 0.00000E+00
 -1      2169 7.66952E+01 3.07143E+01 0.00000E+00
 -1      2170 7.58799E+01 3.07952E+01 0.00000E+00
 -1      2171 7.54879E+01 3.16684E+01 0.00000E+00
 -1      2172 7.85264E+01 3.00300E+01 0.00000E+00
 -1      2173 7.77560E+01 3.03539E+01 0.00000E+00
 -1      2174 8.00051E+01 2.91111E+01 0.00000E+00
 -1      2175 7.93124E+01 2.95346E+01 0.00000E+00
 -1      2176 8.13417E+01 2.79962E+01 0.00000E+00
 -1      2177 8.07504E+01 2.85460E+01 0.00000E+00
 -1      2178 8.26188E+01 2.67293E+01 0.00000E+00
 -1      2179 8.21356E+01 2.74063E+01 0.00000E+00
 -1      2180 8.33803E+01 2.52187E+01 0.00000E+00
 -1      2181 8.29995E+01 2.59740E+01 0.00000E+00
 -1      2182 8.34560E+01 2.68107E+01 0.00000E+00
 -1      2183 8.39194E+01 2.33064E+01 0.00000E+00
 -1      2184 8.37006E+01 2.41402E+01 0.00000E+00
 -1      2185 7.92114E+01 1.35351E+01 0.00000E+00
 -1      2186 7.99809E+01 1.40576E+01 0.00000E+00
 -1      2187 8.09137E+01 1.38437E+01 0.00000E+00
 -1      2188 6.42300E+00 4.57510E+01 0.00000E+00
 -1      2189 7.26407E+01 1.25654E+01 0.00000E+00
 -1      2190 7.88620E+01 1.28262E+01 0.00000E+00
 -1      2191 7.17300E+00 4.44520E+01 0.00000E+00
 -1      2192 8.43182E+01 1.88602E+01 0.00000E+00
 -1      2193 8.35347E+01 1.68133E+01 0.00000E+00
 -1      2194 1.45665E+02 4.31193E+01 0.00000E+00
 -1      2195 8.46497E+01 2.28061E+01 0.00000E+00
 -1      2196 8.41571E+01 2.49769E+01 0.00000E+00
 -1      2197 8.22813E+01 2.81558E+01 0.00000E+00
 -1      2198 8.07421E+01 2.93107E+01 0.00000E+00
 -1      2199 7.73640E+01 3.12271E+01 0.00000E+00
 -1      2200 7.35688E+01 3.14046E+01 0.00000E+00
 -1      2201 7.15886E+01 3.07714E+01 0.00000E+00
 -1      2202 6.99497E+01 2.98993E+01 0.00000E+00
 -1      2203 6.85006E+01 2.86529E+01 0.00000E+00
 -1      2204 6.73029E+01 2.71705E+01 0.00000E+00
 -1      2205 6.64175E+01 2.54540E+01 0.00000E+00
 -1      2206 6.57849E+01 2.36413E+01 0.00000E+00
 -1      2207 6.54749E+01 2.15622E+01 0.00000E+00
 -1      2208 6.57417E+01 1.95275E+01 0.00000E+00
 -1      2209 6.64932E+01 1.77111E+01 0.00000E+00
 -1      2210 6.76019E+01 1.59780E+01 0.00000E+00
 -1      2211 6.90820E+01 1.44564E+01 0.00000E+00
 -1      2212 7.08117E+01 1.33256E+01 0.00000E+00
 -1      2213 7.67447E+01 1.23173E+01 0.00000E+00
 -1      2214 7.46937E+01 1.21358E+01 0.00000E+00
 -1      2215 7.92108E+01 3.03712E+01 0.00000E+00
 -1      2216 1.07850E+01 5.30525E+00 0.00000E+00
 -1      2217 9.28500E+00 5.30525E+00 0.00000E+00
 -1      2218 6.49500E+00 3.01125E+01 0.00000E+00
 -1      2219 6.49500E+00 3.15875E+01 0.00000E+00
 -1      2220 6.49500E+00 3.30625E+01 0.00000E+00
 -1      2221 6.49500E+00 3.45375E+01 0.00000E+00
 -1      2222 7.79400E+00 3.23250E+01 0.00000E+00
 -1      2223 6.49500E+00 2.42125E+01 0.00000E+00
 -1      2224 6.49500E+00 2.56875E+01 0.00000E+00
 -1      2225 6.49500E+00 2.12625E+01 0.00000E+00
 -1      2226 6.49500E+00 2.27375E+01 0.00000E+00
 -1      2227 7.79400E+00 2.34750E+01 0.00000E+00
 -1      2228 6.49500E+00 1.83625E+01 0.00000E+00
 -1      2229 6.49500E+00 1.98125E+01 0.00000E+00
 -1      2230 7.79400E+00 2.05500E+01 0.00000E+00
 -1      2231 6.49500E+00 1.54125E+01 0.00000E+00
 -1      2232 6.49500E+00 1.68875E+01 0.00000E+00
 -1      2233 7.79400E+00 1.76250E+01 0.00000E+00
 -1      2234 6.49500E+00 1.24625E+01 0.00000E+00
 -1      2235 6.49500E+00 1.39375E+01 0.00000E+00
 -1      2236 7.79400E+00 1.46750E+01 0.00000E+00
 -1      2237 6.49500E+00 9.51250E+00 0.00000E+00
 -1      2238 6.49500E+00 1.09875E+01 0.00000E+00
 -1      2239 7.79400E+00 1.17250E+01 0.00000E+00
 -1      2240 1.37850E+01 5.30525E+00 0.00000E+00
 -1      2241 1.22850E+01 5.30525E+00 0.00000E+00
 -1      2242 1.15350E+01 6.60425E+00 0.00000E+00
 -1      2243 9.90000E+00 4.35050E+01 0.00000E+00
 -1      2244 1.14000E+01 4.35050E+01 0.00000E+00
 -1      2245 7.18695E+01 1.19510E+01 0.00000E+00
 -1      2246 7.27728E+01 1.15882E+01 0.00000E+00
 -1      2247 1.29000E+01 4.35050E+01 0.00000E+00
 -1      2248 1.44000E+01 4.35050E+01 0.00000E+00
 -1      2249 1.21500E+01 4.22060E+01 0.00000E+00
 -1      2250 1.59000E+01 4.35050E+01 0.00000E+00
 -1      2251 1.74000E+01 4.35050E+01 0.00000E+00
 -1      2252 1.51500E+01 4.22060E+01 0.00000E+00
 -1      2253 1.89000E+01 4.35050E+01 0.00000E+00
 -1      2254 2.04000E+01 4.35050E+01 0.00000E+00
 -1      2255 1.81500E+01 4.22060E+01 0.00000E+00
 -1      2256 2.19000E+01 4.35050E+01 0.00000E+00
 -1      2257 2.34000E+01 4.35050E+01 0.00000E+00
 -1      2258 2.11500E+01 4.22060E+01 0.00000E+00
 -1      2259 2.49000E+01 4.35050E+01 0.00000E+00
 -1      2260 2.64000E+01 4.35050E+01 0.00000E+00
 -1      2261 2.41500E+01 4.22060E+01 0.00000E+00
 -1      2262 2.79000E+01 4.35050E+01 0.00000E+00
 -1      2263 2.94000E+01 4.35050E+01 0.00000E+00
 -1      2264 2.71500E+01 4.22060E+01 0.00000E+00
 -1      2265 3.09000E+01 4.35050E+01 0.00000E+00
 -1      2266 3.24000E+01 4.35050E+01 0.00000E+00
 -1      2267 3.01500E+01 4.22060E+01 0.00000E+00
 -1      2268 3.39000E+01 4.35050E+01 0.00000E+00
 -1      2269 3.54000E+01 4.35050E+01 0.00000E+00
 -1      2270 3.31500E+01 4.22060E+01 0.00000E+00
 -1      2271 3.69000E+01 4.35050E+01 0.00000E+00
 -1      2272 3.84000E+01 4.35050E+01 0.00000E+00
 -1      2273 3.61500E+01 4.22060E+01 0.00000E+00
 -1      2274 3.99000E+01 4.35050E+01 0.00000E+00
 -1      2275 4.14000E+01 4.35050E+01 0.00000E+00
 -1      2276 3.91500E+01 4.22060E+01 0.00000E+00
 -1      2277 4.29000E+01 4.35050E+01 0.00000E+00
 -1      2278 4.44000E+01 4.35050E+01 0.00000E+00
 -1      2279 4.21500E+01 4.22060E+01 0.00000E+00
 -1      2280 4.59000E+01 4.35050E+01 0.00000E+00
 -1      2281 4.74000E+01 4.35050E+01 0.00000E+00
 -1      2282 4.51500E+01 4.22060E+01 0.00000E+00
 -1      2283 4.89000E+01 4.35050E+01 0.00000E+00
 -1      2284 5.04000E+01 4.35050E+01 0.00000E+00
 -1      2285 4.81500E+01 4.22060E+01 0.00000E+00
 -1      2286 5.19000E+01 4.35050E+01 0.00000E+00
 -1      2287 5.34000E+01 4.35050E+01 0.00000E+00
 -1      2288 5.11500E+01 4.22060E+01 0.00000E+00
 -1      2289 5.49000E+01 4.35050E+01 0.00000E+00
 -1      2290 5.64000E+01 4.35050E+01 0.00000E+00
 -1      2291 5.41500E+01 4.22060E+01 0.00000E+00
 -1      2292 5.79000E+01 4.35050E+01 0.00000E+00
 -1      2293 5.94000E+01 4.35050E+01 0.00000E+00
 -1      2294 5.71500E+01 4.22060E+01 0.00000E+00
 -1      2295 6.09000E+01 4.35050E+01 0.00000E+00
 -1      2296 6.24000E+01 4.35050E+01 0.00000E+00
 -1      2297 6.01500E+01 4.22060E+01 0.00000E+00
 -1      2298 6.39000E+01 4.35050E+01 0.00000E+00
 -1      2299 6.54000E+01 4.35050E+01 0.00000E+00
 -1      2300 6.31500E+01 4.22060E+01 0.00000E+00
 -1      2301 6.69000E+01 4.35050E+01 0.00000E+00
 -1      2302 6.84000E+01 4.35050E+01 0.00000E+00
 -1      2303 6.61500E+01 4.22060E+01 0.00000E+00
 -1      2304 6.99000E+01 4.35050E+01 0.00000E+00
 -1      2305 7.14000E+01 4.35050E+01 0.00000E+00
 -1      2306 6.91500E+01 4.22060E+01 0.00000E+00
 -1      2307 7.29000E+01 4.35050E+01 0.00000E+00
 -1      2308 7.44000E+01 4.35050E+01 0.00000E+00
 -1      2309 7.21500E+01 4.22060E+01 0.00000E+00
 -1      2310 7.59000E+01 4.35050E+01 0.00000E+00
 -1      2311 7.74000E+01 4.35050E+01 0.00000E+00
 -1      2312 7.51500E+01 4.22060E+01 0.00000E+00
 -1      2313 7.89000E+01 4.35050E+01 0.00000E+00
 -1      2314 8.04000E+01 4.35050E+01 0.00000E+00
 -1      2315 7.81500E+01 4.22060E+01 0.00000E+00
 -1      2316 8.19000E+01 4.35050E+01 0.00000E+00
 -1      2317 8.34000E+01 4.35050E+01 0.00000E+00
 -1      2318 8.11500E+01 4.22060E+01 0.00000E+00
 -1      2319 8.49000E+01 4.35050E+01 0.00000E+00
 -1      2320 8.64000E+01 4.35050E+01 0.00000E+00
 -1      2321 8.41500E+01 4.22060E+01 0.00000E+00
 -1      2322 8.79000E+01 4.35050E+01 0.00000E+00
 -1      2323 8.94000E+01 4.35050E+01 0.00000E+00
 -1      2324 8.71500E+01 4.22060E+01 0.00000E+00
 -1      2325 9.09000E+01 4.35050E+01 0.00000E+00
 -1      2326 9.24000E+01 4.35050E+01 0.00000E+00
 -1      2327 9.01500E+01 4.22060E+01 0.00000E+00
 -1      2328 9.39000E+01 4.35050E+01 0.00000E+00
 -1      2329 9.54000E+01 4.35050E+01 0.00000E+00
 -1      2330 9.31500E+01 4.22060E+01 0.00000E+00
 -1      2331 9.69000E+01 4.35050E+01 0.00000E+00
 -1      2332 9.84000E+01 4.35050E+01 0.00000E+00
 -1      2333 9.61500E+01 4.22060E+01 0.00000E+00
 -1      2334 9.99000E+01 4.35050E+01 0.00000E+00
 -1      2335 1.01400E+02 4.35050E+01 0.00000E+00
 -1      2336 9.91500E+01 4.22060E+01 0.00000E+00
 -1      2337 1.02900E+02 4.35050E+01 0.00000E+00
 -1      2338 1.04400E+02 4.35050E+01 0.00000E+00
 -1      2339 1.02150E+02 4.22060E+01 0.00000E+00
 -1      2340 1.05900E+02 4.35050E+01 0.00000E+00
 -1      2341 1.07400E+02 4.35050E+01 0.00000E+00
 -1      2342 1.05150E+02 4.22060E+01 0.00000E+00
 -1      2343 1.08900E+02 4.35050E+01 0.00000E+00
 -1      2344 1.10400E+02 4.35050E+01 0.00000E+00
 -1      2345 1.08150E+02 4.22060E+01 0.00000E+00
 -1      2346 1.11900E+02 4.35050E+01 0.00000E+00
 -1      2347 1.13400E+02 4.35050E+01 0.00000E+00
 -1      2348 1.11150E+02 4.22060E+01 0.00000E+00
 -1      2349 1.14900E+02 4.35050E+01 0.00000E+00
 -1      2350 1.16400E+02 4.35050E+01 0.00000E+00
 -1      2351 1.14150E+02 4.22060E+01 0.00000E+00
 -1      2352 1.17900E+02 4.35050E+01 0.00000E+00
 -1      2353 1.19400E+02 4.35050E+01 0.00000E+00
 -1      2354 1.17150E+02 4.22060E+01 0.00000E+00
 -1      2355 1.20900E+02 4.35050E+01 0.00000E+00
 -1      2356 1.22400E+02 4.35050E+01 0.00000E+00
 -1      2357 1.20150E+02 4.22060E+01 0.00000E+00
 -1      2358 1.23900E+02 4.35050E+01 0.00000E+00
 -1      2359 1.25400E+02 4.35050E+01 0.00000E+00
 -1      2360 1.23150E+02 4.22060E+01 0.00000E+00
 -1      2361 1.26900E+02 4.35050E+01 0.00000E+00
 -1      2362 1.28400E+02 4.35050E+01 0.00000E+00
 -1      2363 1.26150E+02 4.22060E+01 0.00000E+00
 -1      2364 1.29900E+02 4.35050E+01 0.00000E+00
 -1      2365 1.31400E+02 4.35050E+01 0.00000E+00
 -1      2366 1.29150E+02 4.22060E+01 0.00000E+00
 -1      2367 1.32900E+02 4.35050E+01 0.00000E+00
 -1      2368 1.34400E+02 4.35050E+01 0.00000E+00
 -1      2369 1.32150E+02 4.22060E+01 0.00000E+00
 -1      2370 1.35900E+02 4.35050E+01 0.00000E+00
 -1      2371 1.37400E+02 4.35050E+01 0.00000E+00
 -1      2372 1.35150E+02 4.22060E+01 0.00000E+00
 -1      2373 1.38900E+02 4.35050E+01 0.00000E+00
 -1      2374 1.40400E+02 4.35050E+01 0.00000E+00
 -1      2375 1.38150E+02 4.22060E+01 0.00000E+00
 -1      2376 1.97850E+01 5.30525E+00 0.00000E+00
 -1      2377 1.82850E+01 5.30525E+00 0.00000E+00
 -1      2378 2.27850E+01 5.30525E+00 0.00000E+00
 -1      2379 2.12850E+01 5.30525E+00 0.00000E+00
 -1      2380 2.05350E+01 6.60425E+00 0.00000E+00
 -1      2381 2.57850E+01 5.30525E+00 0.00000E+00
 -1      2382 2.42850E+01 5.30525E+00 0.00000E+00
 -1      2383 2.35350E+01 6.60425E+00 0.00000E+00
 -1      2384 2.87850E+01 5.30525E+00 0.00000E+00
 -1      2385 2.72850E+01 5.30525E+00 0.00000E+00
 -1      2386 2.65350E+01 6.60425E+00 0.00000E+00
 -1      2387 3.17850E+01 5.30525E+00 0.00000E+00
 -1      2388 3.02850E+01 5.30525E+00 0.00000E+00
 -1      2389 2.95350E+01 6.60425E+00 0.00000E+00
 -1      2390 3.47850E+01 5.30525E+00 0.00000E+00
 -1      2391 3.32850E+01 5.30525E+00 0.00000E+00
 -1      2392 3.25350E+01 6.60425E+00 0.00000E+00
 -1      2393 3.77850E+01 5.30525E+00 0.00000E+00
 -1      2394 3.62850E+01 5.30525E+00 0.00000E+00
 -1      2395 3.55350E+01 6.60425E+00 0.00000E+00
 -1      2396 4.07850E+01 5.30525E+00 0.00000E+00
 -1      2397 3.92850E+01 5.30525E+00 0.00000E+00
 -1      2398 3.85350E+01 6.60425E+00 0.00000E+00
 -1      2399 4.37850E+01 5.30525E+00 0.00000E+00
 -1      2400 4.22850E+01 5.30525E+00 0.00000E+00
 -1      2401 4.15350E+01 6.60425E+00 0.00000E+00
 -1      2402 4.67850E+01 5.30525E+00 0.00000E+00
 -1      2403 4.52850E+01 5.30525E+00 0.00000E+00
 -1      2404 4.45350E+01 6.60425E+00 0.00000E+00
 -1      2405 4.97850E+01 5.30525E+00 0.00000E+00
 -1      2406 4.82850E+01 5.30525E+00 0.00000E+00
 -1      2407 4.75350E+01 6.60425E+00 0.00000E+00
 -1      2408 5.27850E+01 5.30525E+00 0.00000E+00
 -1      2409 5.12850E+01 5.30525E+00 0.00000E+00
 -1      2410 5.05350E+01 6.60425E+00 0.00000E+00
 -1      2411 5.57850E+01 5.30525E+00 0.00000E+00
 -1      2412 5.42850E+01 5.30525E+00 0.00000E+00
 -1      2413 5.35350E+01 6.60425E+00 0.00000E+00
 -1      2414 5.87850E+01 5.30525E+00 0.00000E+00
 -1      2415 5.72850E+01 5.30525E+00 0.00000E+00
 -1      2416 5.65350E+01 6.60425E+00 0.00000E+00
 -1      2417 6.17850E+01 5.30525E+00 0.00000E+00
 -1      2418 6.02850E+01 5.30525E+00 0.00000E+00
 -1      2419 5.95350E+01 6.60425E+00 0.00000E+00
 -1      2420 6.47850E+01 5.30525E+00 0.00000E+00
 -1      2421 6.32850E+01 5.30525E+00 0.00000E+00
 -1      2422 6.25350E+01 6.60425E+00 0.00000E+00
 -1      2423 6.77850E+01 5.30525E+00 0.00000E+00
 -1      2424 6.62850E+01 5.30525E+00 0.00000E+00
 -1      2425 6.55350E+01 6.60425E+00 0.00000E+00
 -1      2426 7.07850E+01 5.30525E+00 0.00000E+00
 -1      2427 6.92850E+01 5.30525E+00 0.00000E+00
 -1      2428 6.85350E+01 6.60425E+00 0.00000E+00
 -1      2429 7.37850E+01 5.30525E+00 0.00000E+00
 -1      2430 7.22850E+01 5.30525E+00 0.00000E+00
 -1      2431 7.15350E+01 6.60425E+00 0.00000E+00
 -1      2432 7.67850E+01 5.30525E+00 0.00000E+00
 -1      2433 7.52850E+01 5.30525E+00 0.00000E+00
 -1      2434 7.45350E+01 6.60425E+00 0.00000E+00
 -1      2435 7.97850E+01 5.30525E+00 0.00000E+00
 -1      2436 7.82850E+01 5.30525E+00 0.00000E+00
 -1      2437 7.75350E+01 6.60425E+00 0.00000E+00
 -1      2438 8.27850E+01 5.30525E+00 0.00000E+00
 -1      2439 8.12850E+01 5.30525E+00 0.00000E+00
 -1      2440 8.05350E+01 6.60425E+00 0.00000E+00
 -1      2441 8.57850E+01 5.30525E+00 0.00000E+00
 -1      2442 8.42850E+01 5.30525E+00 0.00000E+00
 -1      2443 8.35350E+01 6.60425E+00 0.00000E+00
 -1      2444 8.87850E+01 5.30525E+00 0.00000E+00
 -1      2445 8.72850E+01 5.30525E+00 0.00000E+00
 -1      2446 8.65350E+01 6.60425E+00 0.00000E+00
 -1      2447 9.17850E+01 5.30525E+00 0.00000E+00
 -1      2448 9.02850E+01 5.30525E+00 0.00000E+00
 -1      2449 8.95350E+01 6.60425E+00 0.00000E+00
 -1      2450 9.47850E+01 5.30525E+00 0.00000E+00
 -1      2451 9.32850E+01 5.30525E+00 0.00000E+00
 -1      2452 9.25350E+01 6.60425E+00 0.00000E+00
 -1      2453 9.77850E+01 5.30525E+00 0.00000E+00
 -1      2454 9.62850E+01 5.30525E+00 0.00000E+00
 -1      2455 9.55350E+01 6.60425E+00 0.00000E+00
 -1      2456 1.00785E+02 5.30525E+00 0.00000E+00
 -1      2457 9.92850E+01 5.30525E+00 0.00000E+00
 -1      2458 9.85350E+01 6.60425E+00 0.00000E+00
 -1      2459 1.03785E+02 5.30525E+00 0.00000E+00
 -1      2460 1.02285E+02 5.30525E+00 0.00000E+00
 -1      2461 1.01535E+02 6.60425E+00 0.00000E+00
 -1      2462 1.06785E+02 5.30525E+00 0.00000E+00
 -1      2463 1.05285E+02 5.30525E+00 0.00000E+00
 -1      2464 1.04535E+02 6.60425E+00 0.00000E+00
 -1      2465 1.09785E+02 5.30525E+00 0.00000E+00
 -1      2466 1.08285E+02 5.30525E+00 0.00000E+00
 -1      2467 1.07535E+02 6.60425E+00 0.00000E+00
 -1      2468 1.12785E+02 5.30525E+00 0.00000E+00
 -1      2469 1.11285E+02 5.30525E+00 0.00000E+00
 -1      2470 1.10535E+02 6.60425E+00 0.00000E+00
 -1      2471 1.15785E+02 5.30525E+00 0.00000E+00
 -1      2472 1.14285E+02 5.30525E+00 0.00000E+00
 -1      2473 1.13535E+02 6.60425E+00 0.00000E+00
 -1      2474 1.18785E+02 5.30525E+00 0.00000E+00
 -1      2475 1.17285E+02 5.30525E+00 0.00000E+00
 -1      2476 1.16535E+02 6.60425E+00 0.00000E+00
 -1      2477 1.21785E+02 5.30525E+00 0.00000E+00
 -1      2478 1.20285E+02 5.30525E+00 0.00000E+00
 -1      2479 1.19535E+02 6.60425E+00 0.00000E+00
 -1      2480 1.24785E+02 5.30525E+00 0.00000E+00
 -1      2481 1.23285E+02 5.30525E+00 0.00000E+00
 -1      2482 1.22535E+02 6.60425E+00 0.00000E+00
 -1      2483 1.27785E+02 5.30525E+00 0.00000E+00
 -1      2484 1.26285E+02 5.30525E+00 0.00000E+00
 -1      2485 1.25535E+02 6.60425E+00 0.00000E+00
 -1      2486 1.30785E+02 5.30525E+00 0.00000E+00
 -1      2487 1.29285E+02 5.30525E+00 0.00000E+00
 -1      2488 1.28535E+02 6.60425E+00 0.00000E+00
 -1      2489 1.33785E+02 5.30525E+00 0.00000E+00
 -1      2490 1.32285E+02 5.30525E+00 0.00000E+00
 -1      2491 1.31535E+02 6.60425E+00 0.00000E+00
 -1      2492 1.36785E+02 5.30525E+00 0.00000E+00
 -1      2493 1.35285E+02 5.30525E+00 0.00000E+00
 -1      2494 1.34535E+02 6.60425E+00 0.00000E+00
 -1      2495 1.39785E+02 5.30525E+00 0.00000E+00
 -1      2496 1.38285E+02 5.30525E+00 0.00000E+00
 -1      2497 1.37535E+02 6.60425E+00 0.00000E+00
 -1      2498 1.42785E+02 5.30525E+00 0.00000E+00
 -1      2499 1.41285E+02 5.30525E+00 0.00000E+00
 -1      2500 1.40535E+02 6.60425E+00 0.00000E+00
 -1      2501 1.44336E+02 5.26953E+00 0.00000E+00
 -1      2502 1.43505E+02 1.69125E+01 0.00000E+00
 -1      2503 1.43505E+02 1.54375E+01 0.00000E+00
 -1      2504 1.43505E+02 1.98625E+01 0.00000E+00
 -1      2505 1.43505E+02 1.83875E+01 0.00000E+00
 -1      2506 1.42206E+02 1.76500E+01 0.00000E+00
 -1      2507 1.43505E+02 1.10625E+01 0.00000E+00
 -1      2508 1.43505E+02 9.58750E+00 0.00000E+00
 -1      2509 1.43505E+02 1.39750E+01 0.00000E+00
 -1      2510 1.43505E+02 1.25250E+01 0.00000E+00
 -1      2511 1.42206E+02 1.17875E+01 0.00000E+00
 -1      2512 1.42206E+02 1.47125E+01 0.00000E+00
 -1      2513 1.43505E+02 2.28125E+01 0.00000E+00
 -1      2514 1.43505E+02 2.13375E+01 0.00000E+00
 -1      2515 1.42206E+02 2.06000E+01 0.00000E+00
 -1      2516 1.43505E+02 2.57625E+01 0.00000E+00
 -1      2517 1.43505E+02 2.42875E+01 0.00000E+00
 -1      2518 1.42206E+02 2.35500E+01 0.00000E+00
 -1      2519 1.43505E+02 2.87125E+01 0.00000E+00
 -1      2520 1.43505E+02 2.72375E+01 0.00000E+00
 -1      2521 1.42206E+02 2.65000E+01 0.00000E+00
 -1      2522 1.43505E+02 3.16125E+01 0.00000E+00
 -1      2523 1.43505E+02 3.01625E+01 0.00000E+00
 -1      2524 1.42206E+02 2.94250E+01 0.00000E+00
 -1      2525 1.43505E+02 3.45625E+01 0.00000E+00
 -1      2526 1.43505E+02 3.30875E+01 0.00000E+00
 -1      2527 1.42206E+02 3.23500E+01 0.00000E+00
 -1      2528 1.43505E+02 3.75125E+01 0.00000E+00
 -1      2529 1.43505E+02 3.60375E+01 0.00000E+00
 -1      2530 1.42206E+02 3.53000E+01 0.00000E+00
 -1      2531 1.43505E+02 4.04625E+01 0.00000E+00
 -1      2532 1.43505E+02 3.89875E+01 0.00000E+00
 -1      2533 1.42206E+02 3.82500E+01 0.00000E+00
 -1      2534 8.40511E+01 1.58555E+01 0.00000E+00
 -1      2535 8.46225E+01 1.67855E+01 0.00000E+00
 -1      2536 1.44321E+02 4.30606E+01 0.00000E+00
 -1      2537 8.55416E+01 2.23870E+01 0.00000E+00
 -1      2538 8.53693E+01 2.34793E+01 0.00000E+00
 -1      2539 1.67850E+01 5.30525E+00 0.00000E+00
 -1      2540 1.52850E+01 5.30525E+00 0.00000E+00
 -1      2541 1.75350E+01 6.60425E+00 0.00000E+00
 -1      2542 8.54490E+01 2.02692E+01 0.00000E+00
 -1      2543 8.55948E+01 2.11375E+01 0.00000E+00
 -1      2544 8.26456E+01 1.43606E+01 0.00000E+00
 -1      2545 8.32524E+01 1.50021E+01 0.00000E+00
 -1      2546 6.55950E+00 4.28890E+01 0.00000E+00
 -1      2547 8.53650E+00 4.32410E+01 0.00000E+00
 -1      2548 9.28650E+00 4.19420E+01 0.00000E+00
 -1      2549 6.55950E+00 4.14140E+01 0.00000E+00
 -1      2550 8.31397E+01 2.84820E+01 0.00000E+00
 -1      2551 8.23458E+01 2.90719E+01 0.00000E+00
 -1      2552 7.38652E+01 3.23955E+01 0.00000E+00
 -1      2553 7.27614E+01 3.20509E+01 0.00000E+00
 -1      2554 6.49500E+00 2.71625E+01 0.00000E+00
 -1      2555 6.49500E+00 2.86375E+01 0.00000E+00
 -1      2556 7.79400E+00 2.93750E+01 0.00000E+00
 -1      2557 7.79400E+00 2.64250E+01 0.00000E+00
 -1      2558 7.40691E+01 1.13130E+01 0.00000E+00
 -1      2559 7.52187E+01 1.12462E+01 0.00000E+00
 -1      2560 7.99941E+01 3.07426E+01 0.00000E+00
 -1      2561 7.92081E+01 3.12381E+01 0.00000E+00
 -1      2562 7.84163E+01 1.19393E+01 0.00000E+00
 -1      2563 7.96322E+01 1.22000E+01 0.00000E+00
 -1      2564 7.66134E+01 1.14427E+01 0.00000E+00
 -1      2565 7.75148E+01 1.16910E+01 0.00000E+00
 -1      2566 7.82850E+01 1.10648E+01 0.00000E+00
 -1      2567 7.00182E+01 1.27458E+01 0.00000E+00
 -1      2568 7.09438E+01 1.23484E+01 0.00000E+00
 -1      2569 7.10759E+01 1.13712E+01 0.00000E+00
 -1      2570 6.81302E+01 1.42205E+01 0.00000E+00
 -1      2571 6.89344E+01 1.34870E+01 0.00000E+00
 -1      2572 6.66130E+01 1.58139E+01 0.00000E+00
 -1      2573 6.72889E+01 1.50257E+01 0.00000E+00
 -1      2574 6.55733E+01 1.78614E+01 0.00000E+00
 -1      2575 6.60061E+01 1.69165E+01 0.00000E+00
 -1      2576 6.48163E+01 1.96831E+01 0.00000E+00
 -1      2577 6.51350E+01 1.88117E+01 0.00000E+00
 -1      2578 6.46441E+01 2.21820E+01 0.00000E+00
 -1      2579 6.45922E+01 2.10188E+01 0.00000E+00
 -1      2580 6.50886E+01 2.43319E+01 0.00000E+00
 -1      2581 6.48304E+01 2.34160E+01 0.00000E+00
 -1      2582 6.58373E+01 2.61257E+01 0.00000E+00
 -1      2583 6.54630E+01 2.52288E+01 0.00000E+00
 -1      2584 6.45085E+01 2.50035E+01 0.00000E+00
 -1      2585 6.68308E+01 2.80341E+01 0.00000E+00
 -1      2586 6.63197E+01 2.72145E+01 0.00000E+00
 -1      2587 6.81901E+01 2.96615E+01 0.00000E+00
 -1      2588 6.75035E+01 2.89987E+01 0.00000E+00
 -1      2589 6.97151E+01 3.08288E+01 0.00000E+00
 -1      2590 6.89526E+01 3.02451E+01 0.00000E+00
 -1      2591 6.79556E+01 3.05910E+01 0.00000E+00
 -1      2592 7.18850E+01 3.17623E+01 0.00000E+00
 -1      2593 7.10086E+01 3.14738E+01 0.00000E+00
 -1      2594 7.21813E+01 3.27532E+01 0.00000E+00
 -1      2595 7.59967E+01 3.26481E+01 0.00000E+00
 -1      2596 7.51814E+01 3.27289E+01 0.00000E+00
 -1      2597 7.81184E+01 3.19272E+01 0.00000E+00
 -1      2598 7.70575E+01 3.22876E+01 0.00000E+00
 -1      2599 7.67511E+01 3.33482E+01 0.00000E+00
 -1      2600 8.16005E+01 2.96369E+01 0.00000E+00
 -1      2601 8.08552E+01 3.02019E+01 0.00000E+00
 -1      2602 8.24589E+01 2.99631E+01 0.00000E+00
 -1      2603 8.44121E+01 2.68191E+01 0.00000E+00
 -1      2604 8.40313E+01 2.75744E+01 0.00000E+00
 -1      2605 8.50528E+01 2.46620E+01 0.00000E+00
 -1      2606 8.47324E+01 2.57406E+01 0.00000E+00
 -1      2607 8.53078E+01 2.65042E+01 0.00000E+00
 -1      2608 8.50248E+01 1.80353E+01 0.00000E+00
 -1      2609 8.52369E+01 1.91523E+01 0.00000E+00
 -1      2610 8.61555E+01 1.94443E+01 0.00000E+00
 -1      2611 8.07525E+00 5.11044E+00 0.00000E+00
 -1      2612 6.57525E+00 5.11044E+00 0.00000E+00
 -1      2613 6.40575E+00 6.01981E+00 0.00000E+00
 -1      2614 8.82525E+00 6.40944E+00 0.00000E+00
 -1      2615 8.10152E+01 1.28917E+01 0.00000E+00
 -1      2616 8.18510E+01 1.36485E+01 0.00000E+00
 -1      2617 7.59888E+01 1.06200E+01 0.00000E+00
 -1      2618 7.79400E+00 3.52687E+01 0.00000E+00
 -1      2619 6.49500E+00 3.60062E+01 0.00000E+00
 -1      2620 6.49500E+00 3.74750E+01 0.00000E+00
 -1      2621 1.45350E+01 6.60425E+00 0.00000E+00
 -1      2622 6.40575E+00 7.49481E+00 0.00000E+00
 -1      2623 8.05694E+01 1.20048E+01 0.00000E+00
 -1      2624 8.15067E+01 1.18096E+01 0.00000E+00
 -1      2625 8.01237E+01 1.11179E+01 0.00000E+00
 -1      2626 8.40958E+01 2.84904E+01 0.00000E+00
 -1      2627 7.32979E+01 1.06987E+01 0.00000E+00
 -1      2628 8.59447E+01 2.42430E+01 0.00000E+00
 -1      2629 1.43586E+02 6.56853E+00 0.00000E+00
 -1      2630 1.43419E+02 7.72713E+00 0.00000E+00
 -1      2631 8.55411E+01 1.70775E+01 0.00000E+00
 -1      2632 8.43402E+01 1.49743E+01 0.00000E+00
 -1      2633 1.42758E+02 4.35929E+01 0.00000E+00
 -1      2634 1.43241E+02 4.17323E+01 0.00000E+00
 -1      2635 1.41942E+02 4.09948E+01 0.00000E+00
 -1      2636 1.41414E+02 4.35342E+01 0.00000E+00
 -1      2637 7.89016E+01 3.22986E+01 0.00000E+00
 -1      2638 8.63144E+01 2.18108E+01 0.00000E+00
 -1      2639 7.70475E+00 8.23231E+00 0.00000E+00
 -1      2640 7.00115E+01 3.18196E+01 0.00000E+00
 -1      2641 6.52725E+00 3.87101E+01 0.00000E+00
 -1      2642 6.52725E+00 4.01789E+01 0.00000E+00
 -1      2643 7.89075E+00 4.04429E+01 0.00000E+00
 -1      2644 7.82625E+00 3.79726E+01 0.00000E+00
 -1      2645 7.43740E+01 3.33752E+01 0.00000E+00
 -1      2646 6.53652E+01 2.69892E+01 0.00000E+00
 -1      2647 6.39478E+01 2.28726E+01 0.00000E+00
 -1      2648 6.39855E+01 2.03029E+01 0.00000E+00
 -1      2649 6.46479E+01 1.80170E+01 0.00000E+00
 -1      2650 6.56931E+01 1.59641E+01 0.00000E+00
 -1      2651 8.27470E+01 1.34086E+01 0.00000E+00
 -1      2652 6.90665E+01 1.25098E+01 0.00000E+00
 -1      2653 8.08525E+01 3.10688E+01 0.00000E+00
 -1      2654 6.71413E+01 1.40563E+01 0.00000E+00
 -1      2655 6.65203E+01 2.90427E+01 0.00000E+00
 -1      2656 1.42120E+02 8.46463E+00 0.00000E+00
 -1      2657 1.40664E+02 4.22352E+01 0.00000E+00
 -1      2658 9.09300E+00 1.98250E+01 0.00000E+00
 -1      2659 9.09300E+00 2.12750E+01 0.00000E+00
 -1      2660 9.09300E+00 2.27500E+01 0.00000E+00
 -1      2661 9.09300E+00 2.42250E+01 0.00000E+00
 -1      2662 1.03920E+01 2.20250E+01 0.00000E+00
 -1      2663 9.09300E+00 1.39375E+01 0.00000E+00
 -1      2664 9.09300E+00 1.54125E+01 0.00000E+00
 -1      2665 9.09300E+00 1.09875E+01 0.00000E+00
 -1      2666 9.09300E+00 1.24625E+01 0.00000E+00
 -1      2667 1.03920E+01 1.32000E+01 0.00000E+00
 -1      2668 1.22850E+01 7.90325E+00 0.00000E+00
 -1      2669 1.07850E+01 7.90325E+00 0.00000E+00
 -1      2670 7.02381E+01 3.29846E+01 0.00000E+00
 -1      2671 6.89447E+01 3.23395E+01 0.00000E+00
 -1      2672 1.44000E+01 4.09070E+01 0.00000E+00
 -1      2673 1.59000E+01 4.09070E+01 0.00000E+00
 -1      2674 1.74000E+01 4.09070E+01 0.00000E+00
 -1      2675 1.89000E+01 4.09070E+01 0.00000E+00
 -1      2676 1.66500E+01 3.96080E+01 0.00000E+00
 -1      2677 2.04000E+01 4.09070E+01 0.00000E+00
 -1      2678 2.19000E+01 4.09070E+01 0.00000E+00
 -1      2679 1.96500E+01 3.96080E+01 0.00000E+00
 -1      2680 2.34000E+01 4.09070E+01 0.00000E+00
 -1      2681 2.49000E+01 4.09070E+01 0.00000E+00
 -1      2682 2.26500E+01 3.96080E+01 0.00000E+00
 -1      2683 2.64000E+01 4.09070E+01 0.00000E+00
 -1      2684 2.79000E+01 4.09070E+01 0.00000E+00
 -1      2685 2.56500E+01 3.96080E+01 0.00000E+00
 -1      2686 2.94000E+01 4.09070E+01 0.00000E+00
 -1      2687 3.09000E+01 4.09070E+01 0.00000E+00
 -1      2688 2.86500E+01 3.96080E+01 0.00000E+00
 -1      2689 3.24000E+01 4.09070E+01 0.00000E+00
 -1      2690 3.39000E+01 4.09070E+01 0.00000E+00
 -1      2691 3.16500E+01 3.96080E+01 0.00000E+00
 -1      2692 3.54000E+01 4.09070E+01 0.00000E+00
 -1      2693 3.69000E+01 4.09070E+01 0.00000E+00
 -1      2694 3.46500E+01 3.96080E+01 0.00000E+00
 -1      2695 3.84000E+01 4.09070E+01 0.00000E+00
 -1      2696 3.99000E+01 4.09070E+01 0.00000E+00
 -1      2697 3.76500E+01 3.96080E+01 0.00000E+00
 -1      2698 4.14000E+01 4.09070E+01 0.00000E+00
 -1      2699 4.29000E+01 4.09070E+01 0.00000E+00
 -1      2700 4.06500E+01 3.96080E+01 0.00000E+00
 -1      2701 4.44000E+01 4.09070E+01 0.00000E+00
 -1      2702 4.59000E+01 4.09070E+01 0.00000E+00
 -1      2703 4.36500E+01 3.96080E+01 0.00000E+00
 -1      2704 4.74000E+01 4.09070E+01 0.00000E+00
 -1      2705 4.89000E+01 4.09070E+01 0.00000E+00
 -1      2706 4.66500E+01 3.96080E+01 0.00000E+00
 -1      2707 5.04000E+01 4.09070E+01 0.00000E+00
 -1      2708 5.19000E+01 4.09070E+01 0.00000E+00
 -1      2709 4.96500E+01 3.96080E+01 0.00000E+00
 -1      2710 5.34000E+01 4.09070E+01 0.00000E+00
 -1      2711 5.49000E+01 4.09070E+01 0.00000E+00
 -1      2712 5.26500E+01 3.96080E+01 0.00000E+00
 -1      2713 5.64000E+01 4.09070E+01 0.00000E+00
 -1      2714 5.79000E+01 4.09070E+01 0.00000E+00
 -1      2715 5.56500E+01 3.96080E+01 0.00000E+00
 -1      2716 5.94000E+01 4.09070E+01 0.00000E+00
 -1      2717 6.09000E+01 4.09070E+01 0.00000E+00
 -1      2718 5.86500E+01 3.96080E+01 0.00000E+00
 -1      2719 6.24000E+01 4.09070E+01 0.00000E+00
 -1      2720 6.39000E+01 4.09070E+01 0.00000E+00
 -1      2721 6.16500E+01 3.96080E+01 0.00000E+00
 -1      2722 6.54000E+01 4.09070E+01 0.00000E+00
 -1      2723 6.69000E+01 4.09070E+01 0.00000E+00
 -1      2724 6.46500E+01 3.96080E+01 0.00000E+00
 -1      2725 6.84000E+01 4.09070E+01 0.00000E+00
 -1      2726 6.99000E+01 4.09070E+01 0.00000E+00
 -1      2727 6.76500E+01 3.96080E+01 0.00000E+00
 -1      2728 7.14000E+01 4.09070E+01 0.00000E+00
 -1      2729 7.29000E+01 4.09070E+01 0.00000E+00
 -1      2730 7.06500E+01 3.96080E+01 0.00000E+00
 -1      2731 7.44000E+01 4.09070E+01 0.00000E+00
 -1      2732 7.59000E+01 4.09070E+01 0.00000E+00
 -1      2733 7.36500E+01 3.96080E+01 0.00000E+00
 -1      2734 7.74000E+01 4.09070E+01 0.00000E+00
 -1      2735 7.89000E+01 4.09070E+01 0.00000E+00
 -1      2736 7.66500E+01 3.96080E+01 0.00000E+00
 -1      2737 8.04000E+01 4.09070E+01 0.00000E+00
 -1      2738 8.19000E+01 4.09070E+01 0.00000E+00
 -1      2739 7.96500E+01 3.96080E+01 0.00000E+00
 -1      2740 8.34000E+01 4.09070E+01 0.00000E+00
 -1      2741 8.49000E+01 4.09070E+01 0.00000E+00
 -1      2742 8.26500E+01 3.96080E+01 0.00000E+00
 -1      2743 8.64000E+01 4.09070E+01 0.00000E+00
 -1      2744 8.79000E+01 4.09070E+01 0.00000E+00
 -1      2745 8.56500E+01 3.96080E+01 0.00000E+00
 -1      2746 8.94000E+01 4.09070E+01 0.00000E+00
 -1      2747 9.09000E+01 4.09070E+01 0.00000E+00
 -1      2748 8.86500E+01 3.96080E+01 0.00000E+00
 -1      2749 9.24000E+01 4.09070E+01 0.00000E+00
 -1      2750 9.39000E+01 4.09070E+01 0.00000E+00
 -1      2751 9.16500E+01 3.96080E+01 0.00000E+00
 -1      2752 9.54000E+01 4.09070E+01 0.00000E+00
 -1      2753 9.69000E+01 4.09070E+01 0.00000E+00
 -1      2754 9.46500E+01 3.96080E+01 0.00000E+00
 -1      2755 9.84000E+01 4.09070E+01 0.00000E+00
 -1      2756 9.99000E+01 4.09070E+01 0.00000E+00
 -1      2757 9.76500E+01 3.96080E+01 0.00000E+00
 -1      2758 1.01400E+02 4.09070E+01 0.00000E+00
 -1      2759 1.02900E+02 4.09070E+01 0.00000E+00
 -1      2760 1.00650E+02 3.96080E+01 0.00000E+00
 -1      2761 1.04400E+02 4.09070E+01 0.00000E+00
 -1      2762 1.05900E+02 4.09070E+01 0.00000E+00
 -1      2763 1.03650E+02 3.96080E+01 0.00000E+00
 -1      2764 1.07400E+02 4.09070E+01 0.00000E+00
 -1      2765 1.08900E+02 4.09070E+01 0.00000E+00
 -1      2766 1.06650E+02 3.96080E+01 0.00000E+00
 -1      2767 1.10400E+02 4.09070E+01 0.00000E+00
 -1      2768 1.11900E+02 4.09070E+01 0.00000E+00
 -1      2769 1.09650E+02 3.96080E+01 0.00000E+00
 -1      2770 1.13400E+02 4.09070E+01 0.00000E+00
 -1      2771 1.14900E+02 4.09070E+01 0.00000E+00
 -1      2772 1.12650E+02 3.96080E+01 0.00000E+00
 -1      2773 1.16400E+02 4.09070E+01 0.00000E+00
 -1      2774 1.17900E+02 4.09070E+01 0.00000E+00
 -1      2775 1.15650E+02 3.96080E+01 0.00000E+00
 -1      2776 1.19400E+02 4.09070E+01 0.00000E+00
 -1      2777 1.20900E+02 4.09070E+01 0.00000E+00
 -1      2778 1.18650E+02 3.96080E+01 0.00000E+00
 -1      2779 1.22400E+02 4.09070E+01 0.00000E+00
 -1      2780 1.23900E+02 4.09070E+01 0.00000E+00
 -1      2781 1.21650E+02 3.96080E+01 0.00000E+00
 -1      2782 1.25400E+02 4.09070E+01 0.00000E+00
 -1      2783 1.26900E+02 4.09070E+01 0.00000E+00
 -1      2784 1.24650E+02 3.96080E+01 0.00000E+00
 -1      2785 1.28400E+02 4.09070E+01 0.00000E+00
 -1      2786 1.29900E+02 4.09070E+01 0.00000E+00
 -1      2787 1.27650E+02 3.96080E+01 0.00000E+00
 -1      2788 1.31400E+02 4.09070E+01 0.00000E+00
 -1      2789 1.32900E+02 4.09070E+01 0.00000E+00
 -1      2790 1.30650E+02 3.96080E+01 0.00000E+00
 -1      2791 1.34400E+02 4.09070E+01 0.00000E+00
 -1      2792 1.35900E+02 4.09070E+01 0.00000E+00
 -1      2793 1.33650E+02 3.96080E+01 0.00000E+00
 -1      2794 1.37400E+02 4.09070E+01 0.00000E+00
 -1      2795 1.38900E+02 4.09070E+01 0.00000E+00
 -1      2796 1.36650E+02 3.96080E+01 0.00000E+00
 -1      2797 2.42850E+01 7.90325E+00 0.00000E+00
 -1      2798 2.27850E+01 7.90325E+00 0.00000E+00
 -1      2799 7.98824E+01 3.26434E+01 0.00000E+00
 -1      2800 7.87927E+01 3.33326E+01 0.00000E+00
 -1      2801 2.12850E+01 7.90325E+00 0.00000E+00
 -1      2802 1.97850E+01 7.90325E+00 0.00000E+00
 -1      2803 2.20350E+01 9.20225E+00 0.00000E+00
 -1      2804 3.02850E+01 7.90325E+00 0.00000E+00
 -1      2805 2.87850E+01 7.90325E+00 0.00000E+00
 -1      2806 3.32850E+01 7.90325E+00 0.00000E+00
 -1      2807 3.17850E+01 7.90325E+00 0.00000E+00
 -1      2808 3.10350E+01 9.20225E+00 0.00000E+00
 -1      2809 3.62850E+01 7.90325E+00 0.00000E+00
 -1      2810 3.47850E+01 7.90325E+00 0.00000E+00
 -1      2811 3.40350E+01 9.20225E+00 0.00000E+00
 -1      2812 3.92850E+01 7.90325E+00 0.00000E+00
 -1      2813 3.77850E+01 7.90325E+00 0.00000E+00
 -1      2814 3.70350E+01 9.20225E+00 0.00000E+00
 -1      2815 4.22850E+01 7.90325E+00 0.00000E+00
 -1      2816 4.07850E+01 7.90325E+00 0.00000E+00
 -1      2817 4.00350E+01 9.20225E+00 0.00000E+00
 -1      2818 4.52850E+01 7.90325E+00 0.00000E+00
 -1      2819 4.37850E+01 7.90325E+00 0.00000E+00
 -1      2820 4.30350E+01 9.20225E+00 0.00000E+00
 -1      2821 4.82850E+01 7.90325E+00 0.00000E+00
 -1      2822 4.67850E+01 7.90325E+00 0.00000E+00
 -1      2823 4.60350E+01 9.20225E+00 0.00000E+00
 -1      2824 5.12850E+01 7.90325E+00 0.00000E+00
 -1      2825 4.97850E+01 7.90325E+00 0.00000E+00
 -1      2826 4.90350E+01 9.20225E+00 0.00000E+00
 -1      2827 5.42850E+01 7.90325E+00 0.00000E+00
 -1      2828 5.27850E+01 7.90325E+00 0.00000E+00
 -1      2829 5.20350E+01 9.20225E+00 0.00000E+00
 -1      2830 5.72850E+01 7.90325E+00 0.00000E+00
 -1      2831 5.57850E+01 7.90325E+00 0.00000E+00
 -1      2832 5.50350E+01 9.20225E+00 0.00000E+00
 -1      2833 6.02850E+01 7.90325E+00 0.00000E+00
 -1      2834 5.87850E+01 7.90325E+00 0.00000E+00
 -1      2835 5.80350E+01 9.20225E+00 0.00000E+00
 -1      2836 6.32850E+01 7.90325E+00 0.00000E+00
 -1      2837 6.17850E+01 7.90325E+00 0.00000E+00
 -1      2838 6.10350E+01 9.20225E+00 0.00000E+00
 -1      2839 6.62850E+01 7.90325E+00 0.00000E+00
 -1      2840 6.47850E+01 7.90325E+00 0.00000E+00
 -1      2841 6.40350E+01 9.20225E+00 0.00000E+00
 -1      2842 6.92850E+01 7.90325E+00 0.00000E+00
 -1      2843 6.77850E+01 7.90325E+00 0.00000E+00
 -1      2844 6.70350E+01 9.20225E+00 0.00000E+00
 -1      2845 7.25183E+01 8.78903E+00 0.00000E+00
 -1      2846 7.10183E+01 8.78903E+00 0.00000E+00
 -1      2847 7.53146E+01 8.51389E+00 0.00000E+00
 -1      2848 7.38146E+01 8.51389E+00 0.00000E+00
 -1      2849 7.82092E+01 8.71036E+00 0.00000E+00
 -1      2850 7.67092E+01 8.71036E+00 0.00000E+00
 -1      2851 8.15480E+01 8.76345E+00 0.00000E+00
 -1      2852 8.00480E+01 8.76345E+00 0.00000E+00
 -1      2853 8.72850E+01 7.90325E+00 0.00000E+00
 -1      2854 8.57850E+01 7.90325E+00 0.00000E+00
 -1      2855 9.02850E+01 7.90325E+00 0.00000E+00
 -1      2856 8.87850E+01 7.90325E+00 0.00000E+00
 -1      2857 8.80350E+01 9.20225E+00 0.00000E+00
 -1      2858 9.32850E+01 7.90325E+00 0.00000E+00
 -1      2859 9.17850E+01 7.90325E+00 0.00000E+00
 -1      2860 9.10350E+01 9.20225E+00 0.00000E+00
 -1      2861 9.62850E+01 7.90325E+00 0.00000E+00
 -1      2862 9.47850E+01 7.90325E+00 0.00000E+00
 -1      2863 9.40350E+01 9.20225E+00 0.00000E+00
 -1      2864 9.92850E+01 7.90325E+00 0.00000E+00
 -1      2865 9.77850E+01 7.90325E+00 0.00000E+00
 -1      2866 9.70350E+01 9.20225E+00 0.00000E+00
 -1      2867 1.02285E+02 7.90325E+00 0.00000E+00
 -1      2868 1.00785E+02 7.90325E+00 0.00000E+00
 -1      2869 1.00035E+02 9.20225E+00 0.00000E+00
 -1      2870 1.05285E+02 7.90325E+00 0.00000E+00
 -1      2871 1.03785E+02 7.90325E+00 0.00000E+00
 -1      2872 1.03035E+02 9.20225E+00 0.00000E+00
 -1      2873 1.08285E+02 7.90325E+00 0.00000E+00
 -1      2874 1.06785E+02 7.90325E+00 0.00000E+00
 -1      2875 1.06035E+02 9.20225E+00 0.00000E+00
 -1      2876 1.11285E+02 7.90325E+00 0.00000E+00
 -1      2877 1.09785E+02 7.90325E+00 0.00000E+00
 -1      2878 1.09035E+02 9.20225E+00 0.00000E+00
 -1      2879 1.14285E+02 7.90325E+00 0.00000E+00
 -1      2880 1.12785E+02 7.90325E+00 0.00000E+00
 -1      2881 1.12035E+02 9.20225E+00 0.00000E+00
 -1      2882 1.17285E+02 7.90325E+00 0.00000E+00
 -1      2883 1.15785E+02 7.90325E+00 0.00000E+00
 -1      2884 1.15035E+02 9.20225E+00 0.00000E+00
 -1      2885 1.20285E+02 7.90325E+00 0.00000E+00
 -1      2886 1.18785E+02 7.90325E+00 0.00000E+00
 -1      2887 1.18035E+02 9.20225E+00 0.00000E+00
 -1      2888 1.23285E+02 7.90325E+00 0.00000E+00
 -1      2889 1.21785E+02 7.90325E+00 0.00000E+00
 -1      2890 1.21035E+02 9.20225E+00 0.00000E+00
 -1      2891 1.26285E+02 7.90325E+00 0.00000E+00
 -1      2892 1.24785E+02 7.90325E+00 0.00000E+00
 -1      2893 1.24035E+02 9.20225E+00 0.00000E+00
 -1      2894 1.29285E+02 7.90325E+00 0.00000E+00
 -1      2895 1.27785E+02 7.90325E+00 0.00000E+00
 -1      2896 1.27035E+02 9.20225E+00 0.00000E+00
 -1      2897 1.32285E+02 7.90325E+00 0.00000E+00
 -1      2898 1.30785E+02 7.90325E+00 0.00000E+00
 -1      2899 1.30035E+02 9.20225E+00 0.00000E+00
 -1      2900 1.35285E+02 7.90325E+00 0.00000E+00
 -1      2901 1.33785E+02 7.90325E+00 0.00000E+00
 -1      2902 1.33035E+02 9.20225E+00 0.00000E+00
 -1      2903 1.38285E+02 7.90325E+00 0.00000E+00
 -1      2904 1.36785E+02 7.90325E+00 0.00000E+00
 -1      2905 1.36035E+02 9.20225E+00 0.00000E+00
 -1      2906 1.40953E+02 8.18394E+00 0.00000E+00
 -1      2907 1.39453E+02 8.18394E+00 0.00000E+00
 -1      2908 1.38703E+02 9.48294E+00 0.00000E+00
 -1      2909 1.41038E+02 1.00443E+01 0.00000E+00
 -1      2910 1.40907E+02 2.42875E+01 0.00000E+00
 -1      2911 1.40907E+02 2.28125E+01 0.00000E+00
 -1      2912 1.39914E+02 4.09362E+01 0.00000E+00
 -1      2913 1.40928E+02 4.09655E+01 0.00000E+00
 -1      2914 1.39164E+02 3.96372E+01 0.00000E+00
 -1      2915 1.40907E+02 1.83875E+01 0.00000E+00
 -1      2916 1.40907E+02 1.69125E+01 0.00000E+00
 -1      2917 1.40907E+02 2.72375E+01 0.00000E+00
 -1      2918 1.40907E+02 2.57625E+01 0.00000E+00
 -1      2919 1.39608E+02 2.50250E+01 0.00000E+00
 -1      2920 1.40907E+02 2.13375E+01 0.00000E+00
 -1      2921 1.40907E+02 1.98625E+01 0.00000E+00
 -1      2922 1.39608E+02 1.91250E+01 0.00000E+00
 -1      2923 1.39608E+02 2.20750E+01 0.00000E+00
 -1      2924 1.82850E+01 7.90325E+00 0.00000E+00
 -1      2925 1.67850E+01 7.90325E+00 0.00000E+00
 -1      2926 1.90350E+01 9.20225E+00 0.00000E+00
 -1      2927 8.63158E+01 1.61385E+01 0.00000E+00
 -1      2928 8.67181E+01 1.73884E+01 0.00000E+00
 -1      2929 1.40907E+02 3.01375E+01 0.00000E+00
 -1      2930 1.40907E+02 2.86875E+01 0.00000E+00
 -1      2931 1.39608E+02 2.79500E+01 0.00000E+00
 -1      2932 1.40907E+02 3.30875E+01 0.00000E+00
 -1      2933 1.40907E+02 3.16125E+01 0.00000E+00
 -1      2934 1.39608E+02 3.08750E+01 0.00000E+00
 -1      2935 1.40907E+02 3.60375E+01 0.00000E+00
 -1      2936 1.40907E+02 3.45625E+01 0.00000E+00
 -1      2937 1.39608E+02 3.38250E+01 0.00000E+00
 -1      2938 1.41192E+02 3.96958E+01 0.00000E+00
 -1      2939 9.25425E+00 4.07069E+01 0.00000E+00
 -1      2940 1.06178E+01 4.09709E+01 0.00000E+00
 -1      2941 9.22200E+00 3.94717E+01 0.00000E+00
 -1      2942 6.48224E+01 2.78810E+01 0.00000E+00
 -1      2943 6.43400E+01 2.67922E+01 0.00000E+00
 -1      2944 6.30273E+01 2.36427E+01 0.00000E+00
 -1      2945 6.28410E+01 2.24086E+01 0.00000E+00
 -1      2946 7.47804E+01 3.45356E+01 0.00000E+00
 -1      2947 7.34641E+01 3.42022E+01 0.00000E+00
 -1      2948 2.72850E+01 7.90325E+00 0.00000E+00
 -1      2949 2.57850E+01 7.90325E+00 0.00000E+00
 -1      2950 2.50350E+01 9.20225E+00 0.00000E+00
 -1      2951 2.80350E+01 9.20225E+00 0.00000E+00
 -1      2952 1.17589E+01 4.09389E+01 0.00000E+00
 -1      2953 1.32589E+01 4.09389E+01 0.00000E+00
 -1      2954 1.40089E+01 3.96399E+01 0.00000E+00
 -1      2955 1.17266E+01 3.97038E+01 0.00000E+00
 -1      2956 9.09300E+00 1.68813E+01 0.00000E+00
 -1      2957 9.09300E+00 1.83563E+01 0.00000E+00
 -1      2958 1.03920E+01 1.90812E+01 0.00000E+00
 -1      2959 1.03920E+01 1.61437E+01 0.00000E+00
 -1      2960 1.52850E+01 7.90325E+00 0.00000E+00
 -1      2961 1.37850E+01 7.90325E+00 0.00000E+00
 -1      2962 1.30350E+01 9.20225E+00 0.00000E+00
 -1      2963 1.60350E+01 9.20225E+00 0.00000E+00
 -1      2964 9.09300E+00 3.15875E+01 0.00000E+00
 -1      2965 9.09300E+00 3.30625E+01 0.00000E+00
 -1      2966 8.68504E+01 2.38516E+01 0.00000E+00
 -1      2967 8.65339E+01 2.50344E+01 0.00000E+00
 -1      2968 8.72815E+01 2.12261E+01 0.00000E+00
 -1      2969 8.72282E+01 2.24756E+01 0.00000E+00
 -1      2970 8.52730E+01 2.87550E+01 0.00000E+00
 -1      2971 8.43813E+01 2.96626E+01 0.00000E+00
 -1      2972 8.16047E+01 3.15621E+01 0.00000E+00
 -1      2973 8.07436E+01 3.21027E+01 0.00000E+00
 -1      2974 8.06347E+01 3.31367E+01 0.00000E+00
 -1      2975 6.60158E+01 3.01115E+01 0.00000E+00
 -1      2976 6.53431E+01 2.91468E+01 0.00000E+00
 -1      2977 8.29221E+01 1.24140E+01 0.00000E+00
 -1      2978 8.37166E+01 1.31262E+01 0.00000E+00
 -1      2979 6.45650E+01 1.60615E+01 0.00000E+00
 -1      2980 6.51718E+01 1.49589E+01 0.00000E+00
 -1      2981 6.36500E+01 1.81329E+01 0.00000E+00
 -1      2982 6.40883E+01 1.71827E+01 0.00000E+00
 -1      2983 6.27799E+01 2.07873E+01 0.00000E+00
 -1      2984 6.30039E+01 1.94516E+01 0.00000E+00
 -1      2985 6.39656E+01 2.58953E+01 0.00000E+00
 -1      2986 6.35913E+01 2.49984E+01 0.00000E+00
 -1      2987 6.34227E+01 2.67871E+01 0.00000E+00
 -1      2988 6.77138E+01 3.16969E+01 0.00000E+00
 -1      2989 6.69512E+01 3.11133E+01 0.00000E+00
 -1      2990 7.22893E+01 3.37377E+01 0.00000E+00
 -1      2991 7.14129E+01 3.34491E+01 0.00000E+00
 -1      2992 7.03461E+01 3.39690E+01 0.00000E+00
 -1      2993 7.26957E+01 3.48981E+01 0.00000E+00
 -1      2994 6.61277E+01 1.38394E+01 0.00000E+00
 -1      2995 6.69690E+01 1.30342E+01 0.00000E+00
 -1      2996 7.75843E+01 3.40593E+01 0.00000E+00
 -1      2997 7.65235E+01 3.44197E+01 0.00000E+00
 -1      2998 8.91450E+00 8.42712E+00 0.00000E+00
 -1      2999 6.79931E+01 1.21035E+01 0.00000E+00
 -1      3000 6.90770E+01 1.13622E+01 0.00000E+00
 -1      3001 8.33657E+01 3.03298E+01 0.00000E+00
 -1      3002 8.26204E+01 3.08949E+01 0.00000E+00
 -1      3003 8.25115E+01 3.19288E+01 0.00000E+00
 -1      3004 8.45428E+01 3.05944E+01 0.00000E+00
 -1      3005 8.68920E+01 1.87259E+01 0.00000E+00
 -1      3006 8.71040E+01 1.98428E+01 0.00000E+00
 -1      3007 8.63704E+01 2.62330E+01 0.00000E+00
 -1      3008 8.60500E+01 2.73115E+01 0.00000E+00
 -1      3009 8.45153E+01 1.39796E+01 0.00000E+00
 -1      3010 8.53139E+01 1.48330E+01 0.00000E+00
 -1      3011 8.46904E+01 1.29849E+01 0.00000E+00
 -1      3012 9.09300E+00 3.45313E+01 0.00000E+00
 -1      3013 9.09300E+00 3.60000E+01 0.00000E+00
 -1      3014 1.03920E+01 3.37938E+01 0.00000E+00
 -1      3015 1.03920E+01 2.49750E+01 0.00000E+00
 -1      3016 9.09300E+00 2.57000E+01 0.00000E+00
 -1      3017 9.09300E+00 2.71750E+01 0.00000E+00
 -1      3018 6.79404E+01 3.28618E+01 0.00000E+00
 -1      3019 8.63355E+01 2.84837E+01 0.00000E+00
 -1      3020 8.66210E+01 2.96560E+01 0.00000E+00
 -1      3021 8.73981E+01 2.82125E+01 0.00000E+00
 -1      3022 1.39608E+02 1.61875E+01 0.00000E+00
 -1      3023 1.40907E+02 1.54500E+01 0.00000E+00
 -1      3024 1.40907E+02 1.39875E+01 0.00000E+00
 -1      3025 7.85651E+01 3.44041E+01 0.00000E+00
 -1      3026 8.76666E+01 1.77869E+01 0.00000E+00
 -1      3027 7.02683E+01 1.00880E+01 0.00000E+00
 -1      3028 7.56136E+01 3.52467E+01 0.00000E+00
 -1      3029 8.42850E+01 7.90325E+00 0.00000E+00
 -1      3030 8.27850E+01 7.90325E+00 0.00000E+00
 -1      3031 1.40973E+02 1.27472E+01 0.00000E+00
 -1      3032 1.40973E+02 1.12847E+01 0.00000E+00
 -1      3033 1.39805E+02 1.10040E+01 0.00000E+00
 -1      3034 1.39674E+02 1.34847E+01 0.00000E+00
 -1      3035 8.64909E+01 1.51438E+01 0.00000E+00
 -1      3036 8.76678E+01 1.54547E+01 0.00000E+00
 -1      3037 8.66660E+01 1.41492E+01 0.00000E+00
 -1      3038 1.41192E+02 3.82207E+01 0.00000E+00
 -1      3039 1.39893E+02 3.74832E+01 0.00000E+00
 -1      3040 6.24845E+01 2.45344E+01 0.00000E+00
 -1      3041 6.43179E+01 2.89497E+01 0.00000E+00
 -1      3042 6.57740E+01 3.12173E+01 0.00000E+00
 -1      3043 6.18594E+01 2.15573E+01 0.00000E+00
 -1      3044 8.22980E+01 1.00624E+01 0.00000E+00
 -1      3045 9.09300E+00 2.86437E+01 0.00000E+00
 -1      3046 9.09300E+00 3.01187E+01 0.00000E+00
 -1      3047 1.03920E+01 3.08563E+01 0.00000E+00
 -1      3048 1.03920E+01 2.79188E+01 0.00000E+00
 -1      3049 6.93426E+01 1.04854E+01 0.00000E+00
 -1      3050 6.24444E+01 1.86173E+01 0.00000E+00
 -1      3051 6.35671E+01 1.61775E+01 0.00000E+00
 -1      3052 8.80179E+01 2.05077E+01 0.00000E+00
 -1      3053 8.78175E+01 2.32670E+01 0.00000E+00
 -1      3054 8.72761E+01 2.58417E+01 0.00000E+00
 -1      3055 6.49996E+01 1.39368E+01 0.00000E+00
 -1      3056 9.66450E+00 9.72612E+00 0.00000E+00
 -1      3057 1.09635E+01 1.04636E+01 0.00000E+00
 -1      3058 6.82693E+01 1.00790E+01 0.00000E+00
 -1      3059 6.69795E+01 1.18865E+01 0.00000E+00
 -1      3060 8.50350E+01 9.20225E+00 0.00000E+00
 -1      3061 1.16910E+01 1.24625E+01 0.00000E+00
 -1      3062 1.16910E+01 1.39375E+01 0.00000E+00
 -1      3063 1.89000E+01 3.83090E+01 0.00000E+00
 -1      3064 2.04000E+01 3.83090E+01 0.00000E+00
 -1      3065 2.19000E+01 3.83090E+01 0.00000E+00
 -1      3066 2.34000E+01 3.83090E+01 0.00000E+00
 -1      3067 2.11500E+01 3.70100E+01 0.00000E+00
 -1      3068 2.49000E+01 3.83090E+01 0.00000E+00
 -1      3069 2.64000E+01 3.83090E+01 0.00000E+00
 -1      3070 2.41500E+01 3.70100E+01 0.00000E+00
 -1      3071 2.79000E+01 3.83090E+01 0.00000E+00
 -1      3072 2.94000E+01 3.83090E+01 0.00000E+00
 -1      3073 2.71500E+01 3.70100E+01 0.00000E+00
 -1      3074 3.09000E+01 3.83090E+01 0.00000E+00
 -1      3075 3.24000E+01 3.83090E+01 0.00000E+00
 -1      3076 3.01500E+01 3.70100E+01 0.00000E+00
 -1      3077 3.39000E+01 3.83090E+01 0.00000E+00
 -1      3078 3.54000E+01 3.83090E+01 0.00000E+00
 -1      3079 3.31500E+01 3.70100E+01 0.00000E+00
 -1      3080 3.69000E+01 3.83090E+01 0.00000E+00
 -1      3081 3.84000E+01 3.83090E+01 0.00000E+00
 -1      3082 3.61500E+01 3.70100E+01 0.00000E+00
 -1      3083 3.99000E+01 3.83090E+01 0.00000E+00
 -1      3084 4.14000E+01 3.83090E+01 0.00000E+00
 -1      3085 3.91500E+01 3.70100E+01 0.00000E+00
 -1      3086 4.29000E+01 3.83090E+01 0.00000E+00
 -1      3087 4.44000E+01 3.83090E+01 0.00000E+00
 -1      3088 4.21500E+01 3.70100E+01 0.00000E+00
 -1      3089 4.59000E+01 3.83090E+01 0.00000E+00
 -1      3090 4.74000E+01 3.83090E+01 0.00000E+00
 -1      3091 4.51500E+01 3.70100E+01 0.00000E+00
 -1      3092 4.89000E+01 3.83090E+01 0.00000E+00
 -1      3093 5.04000E+01 3.83090E+01 0.00000E+00
 -1      3094 4.81500E+01 3.70100E+01 0.00000E+00
 -1      3095 5.19000E+01 3.83090E+01 0.00000E+00
 -1      3096 5.34000E+01 3.83090E+01 0.00000E+00
 -1      3097 5.11500E+01 3.70100E+01 0.00000E+00
 -1      3098 5.49000E+01 3.83090E+01 0.00000E+00
 -1      3099 5.64000E+01 3.83090E+01 0.00000E+00
 -1      3100 5.41500E+01 3.70100E+01 0.00000E+00
 -1      3101 5.79000E+01 3.83090E+01 0.00000E+00
 -1      3102 5.94000E+01 3.83090E+01 0.00000E+00
 -1      3103 5.71500E+01 3.70100E+01 0.00000E+00
 -1      3104 6.09000E+01 3.83090E+01 0.00000E+00
 -1      3105 6.24000E+01 3.83090E+01 0.00000E+00
 -1      3106 6.01500E+01 3.70100E+01 0.00000E+00
 -1      3107 6.39000E+01 3.83090E+01 0.00000E+00
 -1      3108 6.54000E+01 3.83090E+01 0.00000E+00
 -1      3109 6.31500E+01 3.70100E+01 0.00000E+00
 -1      3110 6.69000E+01 3.83090E+01 0.00000E+00
 -1      3111 6.84000E+01 3.83090E+01 0.00000E+00
 -1      3112 6.61500E+01 3.70100E+01 0.00000E+00
 -1      3113 7.30103E+01 3.74853E+01 0.00000E+00
 -1      3114 7.45103E+01 3.74853E+01 0.00000E+00
 -1      3115 7.62534E+01 3.73694E+01 0.00000E+00
 -1      3116 7.77534E+01 3.73694E+01 0.00000E+00
 -1      3117 8.19000E+01 3.83090E+01 0.00000E+00
 -1      3118 8.34000E+01 3.83090E+01 0.00000E+00
 -1      3119 8.49000E+01 3.83090E+01 0.00000E+00
 -1      3120 8.64000E+01 3.83090E+01 0.00000E+00
 -1      3121 8.41500E+01 3.70100E+01 0.00000E+00
 -1      3122 8.79000E+01 3.83090E+01 0.00000E+00
 -1      3123 8.94000E+01 3.83090E+01 0.00000E+00
 -1      3124 8.71500E+01 3.70100E+01 0.00000E+00
 -1      3125 9.09000E+01 3.83090E+01 0.00000E+00
 -1      3126 9.24000E+01 3.83090E+01 0.00000E+00
 -1      3127 9.01500E+01 3.70100E+01 0.00000E+00
 -1      3128 9.39000E+01 3.83090E+01 0.00000E+00
 -1      3129 9.54000E+01 3.83090E+01 0.00000E+00
 -1      3130 9.31500E+01 3.70100E+01 0.00000E+00
 -1      3131 9.69000E+01 3.83090E+01 0.00000E+00
 -1      3132 9.84000E+01 3.83090E+01 0.00000E+00
 -1      3133 9.61500E+01 3.70100E+01 0.00000E+00
 -1      3134 9.99000E+01 3.83090E+01 0.00000E+00
 -1      3135 1.01400E+02 3.83090E+01 0.00000E+00
 -1      3136 9.91500E+01 3.70100E+01 0.00000E+00
 -1      3137 1.02900E+02 3.83090E+01 0.00000E+00
 -1      3138 1.04400E+02 3.83090E+01 0.00000E+00
 -1      3139 1.02150E+02 3.70100E+01 0.00000E+00
 -1      3140 1.05900E+02 3.83090E+01 0.00000E+00
 -1      3141 1.07400E+02 3.83090E+01 0.00000E+00
 -1      3142 1.05150E+02 3.70100E+01 0.00000E+00
 -1      3143 1.08900E+02 3.83090E+01 0.00000E+00
 -1      3144 1.10400E+02 3.83090E+01 0.00000E+00
 -1      3145 1.08150E+02 3.70100E+01 0.00000E+00
 -1      3146 1.11900E+02 3.83090E+01 0.00000E+00
 -1      3147 1.13400E+02 3.83090E+01 0.00000E+00
 -1      3148 1.11150E+02 3.70100E+01 0.00000E+00
 -1      3149 1.14900E+02 3.83090E+01 0.00000E+00
 -1      3150 1.16400E+02 3.83090E+01 0.00000E+00
 -1      3151 1.14150E+02 3.70100E+01 0.00000E+00
 -1      3152 1.17900E+02 3.83090E+01 0.00000E+00
 -1      3153 1.19400E+02 3.83090E+01 0.00000E+00
 -1      3154 1.17150E+02 3.70100E+01 0.00000E+00
 -1      3155 1.20900E+02 3.83090E+01 0.00000E+00
 -1      3156 1.22400E+02 3.83090E+01 0.00000E+00
 -1      3157 1.20150E+02 3.70100E+01 0.00000E+00
 -1      3158 1.23900E+02 3.83090E+01 0.00000E+00
 -1      3159 1.25400E+02 3.83090E+01 0.00000E+00
 -1      3160 1.23150E+02 3.70100E+01 0.00000E+00
 -1      3161 1.26900E+02 3.83090E+01 0.00000E+00
 -1      3162 1.28400E+02 3.83090E+01 0.00000E+00
 -1      3163 1.26150E+02 3.70100E+01 0.00000E+00
 -1      3164 1.29900E+02 3.83090E+01 0.00000E+00
 -1      3165 1.31400E+02 3.83090E+01 0.00000E+00
 -1      3166 1.29150E+02 3.70100E+01 0.00000E+00
 -1      3167 1.32900E+02 3.83090E+01 0.00000E+00
 -1      3168 1.34400E+02 3.83090E+01 0.00000E+00
 -1      3169 1.32150E+02 3.70100E+01 0.00000E+00
 -1      3170 1.35900E+02 3.83090E+01 0.00000E+00
 -1      3171 1.37400E+02 3.83090E+01 0.00000E+00
 -1      3172 1.35150E+02 3.70100E+01 0.00000E+00
 -1      3173 3.47850E+01 1.05013E+01 0.00000E+00
 -1      3174 3.32850E+01 1.05013E+01 0.00000E+00
 -1      3175 3.17850E+01 1.05013E+01 0.00000E+00
 -1      3176 3.02850E+01 1.05013E+01 0.00000E+00
 -1      3177 3.25350E+01 1.18003E+01 0.00000E+00
 -1      3178 4.07850E+01 1.05013E+01 0.00000E+00
 -1      3179 3.92850E+01 1.05013E+01 0.00000E+00
 -1      3180 4.37850E+01 1.05013E+01 0.00000E+00
 -1      3181 4.22850E+01 1.05013E+01 0.00000E+00
 -1      3182 4.15350E+01 1.18003E+01 0.00000E+00
 -1      3183 4.67850E+01 1.05013E+01 0.00000E+00
 -1      3184 4.52850E+01 1.05013E+01 0.00000E+00
 -1      3185 4.45350E+01 1.18003E+01 0.00000E+00
 -1      3186 4.97850E+01 1.05013E+01 0.00000E+00
 -1      3187 4.82850E+01 1.05013E+01 0.00000E+00
 -1      3188 4.75350E+01 1.18003E+01 0.00000E+00
 -1      3189 5.27850E+01 1.05013E+01 0.00000E+00
 -1      3190 5.12850E+01 1.05013E+01 0.00000E+00
 -1      3191 5.05350E+01 1.18003E+01 0.00000E+00
 -1      3192 5.57850E+01 1.05013E+01 0.00000E+00
 -1      3193 5.42850E+01 1.05013E+01 0.00000E+00
 -1      3194 5.35350E+01 1.18003E+01 0.00000E+00
 -1      3195 5.87850E+01 1.05013E+01 0.00000E+00
 -1      3196 5.72850E+01 1.05013E+01 0.00000E+00
 -1      3197 5.65350E+01 1.18003E+01 0.00000E+00
 -1      3198 6.17850E+01 1.05013E+01 0.00000E+00
 -1      3199 6.02850E+01 1.05013E+01 0.00000E+00
 -1      3200 5.95350E+01 1.18003E+01 0.00000E+00
 -1      3201 6.67693E+01 1.00790E+01 0.00000E+00
 -1      3202 8.87850E+01 1.05013E+01 0.00000E+00
 -1      3203 8.72850E+01 1.05013E+01 0.00000E+00
 -1      3204 9.77850E+01 1.05013E+01 0.00000E+00
 -1      3205 9.62850E+01 1.05013E+01 0.00000E+00
 -1      3206 1.00785E+02 1.05013E+01 0.00000E+00
 -1      3207 9.92850E+01 1.05013E+01 0.00000E+00
 -1      3208 9.85350E+01 1.18003E+01 0.00000E+00
 -1      3209 1.03785E+02 1.05013E+01 0.00000E+00
 -1      3210 1.02285E+02 1.05013E+01 0.00000E+00
 -1      3211 1.01535E+02 1.18003E+01 0.00000E+00
 -1      3212 1.06785E+02 1.05013E+01 0.00000E+00
 -1      3213 1.05285E+02 1.05013E+01 0.00000E+00
 -1      3214 1.04535E+02 1.18003E+01 0.00000E+00
 -1      3215 1.09785E+02 1.05013E+01 0.00000E+00
 -1      3216 1.08285E+02 1.05013E+01 0.00000E+00
 -1      3217 1.07535E+02 1.18003E+01 0.00000E+00
 -1      3218 1.12785E+02 1.05013E+01 0.00000E+00
 -1      3219 1.11285E+02 1.05013E+01 0.00000E+00
 -1      3220 1.10535E+02 1.18003E+01 0.00000E+00
 -1      3221 1.15785E+02 1.05013E+01 0.00000E+00
 -1      3222 1.14285E+02 1.05013E+01 0.00000E+00
 -1      3223 1.13535E+02 1.18003E+01 0.00000E+00
 -1      3224 1.18785E+02 1.05013E+01 0.00000E+00
 -1      3225 1.17285E+02 1.05013E+01 0.00000E+00
 -1      3226 1.16535E+02 1.18003E+01 0.00000E+00
 -1      3227 1.21785E+02 1.05013E+01 0.00000E+00
 -1      3228 1.20285E+02 1.05013E+01 0.00000E+00
 -1      3229 1.19535E+02 1.18003E+01 0.00000E+00
 -1      3230 1.24785E+02 1.05013E+01 0.00000E+00
 -1      3231 1.23285E+02 1.05013E+01 0.00000E+00
 -1      3232 1.22535E+02 1.18003E+01 0.00000E+00
 -1      3233 1.27785E+02 1.05013E+01 0.00000E+00
 -1      3234 1.26285E+02 1.05013E+01 0.00000E+00
 -1      3235 1.25535E+02 1.18003E+01 0.00000E+00
 -1      3236 1.30785E+02 1.05013E+01 0.00000E+00
 -1      3237 1.29285E+02 1.05013E+01 0.00000E+00
 -1      3238 1.28535E+02 1.18003E+01 0.00000E+00
 -1      3239 1.33785E+02 1.05013E+01 0.00000E+00
 -1      3240 1.32285E+02 1.05013E+01 0.00000E+00
 -1      3241 1.31535E+02 1.18003E+01 0.00000E+00
 -1      3242 1.36785E+02 1.05013E+01 0.00000E+00
 -1      3243 1.35285E+02 1.05013E+01 0.00000E+00
 -1      3244 1.34535E+02 1.18003E+01 0.00000E+00
 -1      3245 1.38879E+02 1.08930E+01 0.00000E+00
 -1      3246 1.37711E+02 1.06123E+01 0.00000E+00
 -1      3247 1.36961E+02 1.19113E+01 0.00000E+00
 -1      3248 1.38813E+02 1.21333E+01 0.00000E+00
 -1      3249 1.16910E+01 2.12875E+01 0.00000E+00
 -1      3250 1.16910E+01 2.27625E+01 0.00000E+00
 -1      3251 1.97850E+01 1.05013E+01 0.00000E+00
 -1      3252 1.82850E+01 1.05013E+01 0.00000E+00
 -1      3253 1.38309E+02 2.57625E+01 0.00000E+00
 -1      3254 1.38309E+02 2.42875E+01 0.00000E+00
 -1      3255 1.38309E+02 3.45625E+01 0.00000E+00
 -1      3256 1.38309E+02 3.30875E+01 0.00000E+00
 -1      3257 1.38309E+02 2.86625E+01 0.00000E+00
 -1      3258 1.38309E+02 2.72125E+01 0.00000E+00
 -1      3259 1.37010E+02 2.64750E+01 0.00000E+00
 -1      3260 8.49784E+01 1.19150E+01 0.00000E+00
 -1      3261 8.57770E+01 1.27684E+01 0.00000E+00
 -1      3262 6.12760E+01 1.88625E+01 0.00000E+00
 -1      3263 6.19221E+01 1.75438E+01 0.00000E+00
 -1      3264 6.27412E+01 2.75981E+01 0.00000E+00
 -1      3265 6.23669E+01 2.67012E+01 0.00000E+00
 -1      3266 8.20501E+01 1.09810E+01 0.00000E+00
 -1      3267 8.24958E+01 1.18679E+01 0.00000E+00
 -1      3268 9.14137E+00 3.71183E+01 0.00000E+00
 -1      3269 9.17362E+00 3.83534E+01 0.00000E+00
 -1      3270 1.05371E+01 3.86174E+01 0.00000E+00
 -1      3271 1.04404E+01 3.63808E+01 0.00000E+00
 -1      3272 1.38309E+02 3.16125E+01 0.00000E+00
 -1      3273 1.38309E+02 3.01375E+01 0.00000E+00
 -1      3274 1.37010E+02 2.94000E+01 0.00000E+00
 -1      3275 1.37010E+02 3.23500E+01 0.00000E+00
 -1      3276 9.17850E+01 1.05013E+01 0.00000E+00
 -1      3277 9.02850E+01 1.05013E+01 0.00000E+00
 -1      3278 8.95350E+01 1.18003E+01 0.00000E+00
 -1      3279 7.91107E+01 8.95865E+00 0.00000E+00
 -1      3280 3.77850E+01 1.05013E+01 0.00000E+00
 -1      3281 3.62850E+01 1.05013E+01 0.00000E+00
 -1      3282 3.55350E+01 1.18003E+01 0.00000E+00
 -1      3283 3.85350E+01 1.18003E+01 0.00000E+00
 -1      3284 2.27850E+01 1.05013E+01 0.00000E+00
 -1      3285 2.12850E+01 1.05013E+01 0.00000E+00
 -1      3286 2.05350E+01 1.18003E+01 0.00000E+00
 -1      3287 6.80426E+01 3.41661E+01 0.00000E+00
 -1      3288 6.68117E+01 3.35235E+01 0.00000E+00
 -1      3289 9.47850E+01 1.05013E+01 0.00000E+00
 -1      3290 9.32850E+01 1.05013E+01 0.00000E+00
 -1      3291 9.55350E+01 1.18003E+01 0.00000E+00
 -1      3292 6.54312E+01 3.24750E+01 0.00000E+00
 -1      3293 6.44958E+01 3.14732E+01 0.00000E+00
 -1      3294 1.59000E+01 3.83090E+01 0.00000E+00
 -1      3295 1.74000E+01 3.83090E+01 0.00000E+00
 -1      3296 1.81500E+01 3.70100E+01 0.00000E+00
 -1      3297 8.34654E+01 1.15854E+01 0.00000E+00
 -1      3298 8.82075E+01 2.53582E+01 0.00000E+00
 -1      3299 8.80440E+01 2.65569E+01 0.00000E+00
 -1      3300 8.88334E+01 2.28060E+01 0.00000E+00
 -1      3301 8.84555E+01 2.41821E+01 0.00000E+00
 -1      3302 8.16549E+01 3.38055E+01 0.00000E+00
 -1      3303 8.07938E+01 3.43462E+01 0.00000E+00
 -1      3304 6.08656E+01 2.24067E+01 0.00000E+00
 -1      3305 6.08044E+01 2.07853E+01 0.00000E+00
 -1      3306 6.57452E+01 1.10097E+01 0.00000E+00
 -1      3307 1.26488E+01 1.02017E+01 0.00000E+00
 -1      3308 1.20772E+01 1.14631E+01 0.00000E+00
 -1      3309 1.33763E+01 1.22006E+01 0.00000E+00
 -1      3310 1.41488E+01 1.02017E+01 0.00000E+00
 -1      3311 8.88629E+01 1.96963E+01 0.00000E+00
 -1      3312 8.90403E+01 2.10795E+01 0.00000E+00
 -1      3313 6.23854E+01 1.63370E+01 0.00000E+00
 -1      3314 6.28620E+01 1.52158E+01 0.00000E+00
 -1      3315 6.37827E+01 3.01297E+01 0.00000E+00
 -1      3316 6.32620E+01 2.88639E+01 0.00000E+00
 -1      3317 6.22061E+01 2.87780E+01 0.00000E+00
 -1      3318 8.86793E+01 1.69751E+01 0.00000E+00
 -1      3319 8.88532E+01 1.83127E+01 0.00000E+00
 -1      3320 7.12427E+01 3.83144E+01 0.00000E+00
 -1      3321 7.21030E+01 3.61917E+01 0.00000E+00
 -1      3322 7.09282E+01 3.57272E+01 0.00000E+00
 -1      3323 6.97427E+01 3.83144E+01 0.00000E+00
 -1      3324 7.89093E+01 3.58867E+01 0.00000E+00
 -1      3325 7.93059E+01 3.81253E+01 0.00000E+00
 -1      3326 8.08059E+01 3.81253E+01 0.00000E+00
 -1      3327 8.01176E+01 3.51600E+01 0.00000E+00
 -1      3328 6.46224E+01 1.24733E+01 0.00000E+00
 -1      3329 6.44122E+01 1.06658E+01 0.00000E+00
 -1      3330 6.29122E+01 1.06658E+01 0.00000E+00
 -1      3331 6.36665E+01 1.35928E+01 0.00000E+00
 -1      3332 6.18029E+01 2.53455E+01 0.00000E+00
 -1      3333 6.12390E+01 2.39898E+01 0.00000E+00
 -1      3334 6.11214E+01 2.61565E+01 0.00000E+00
 -1      3335 1.16910E+01 2.42375E+01 0.00000E+00
 -1      3336 1.16910E+01 2.57125E+01 0.00000E+00
 -1      3337 1.29900E+01 2.35000E+01 0.00000E+00
 -1      3338 6.89927E+01 3.70154E+01 0.00000E+00
 -1      3339 8.83295E+01 2.77291E+01 0.00000E+00
 -1      3340 8.86150E+01 2.89013E+01 0.00000E+00
 -1      3341 8.92609E+01 2.72457E+01 0.00000E+00
 -1      3342 1.36178E+01 3.83729E+01 0.00000E+00
 -1      3343 1.47589E+01 3.83409E+01 0.00000E+00
 -1      3344 1.55089E+01 3.70419E+01 0.00000E+00
 -1      3345 6.01840E+01 2.32177E+01 0.00000E+00
 -1      3346 1.38309E+02 1.69188E+01 0.00000E+00
 -1      3347 1.38309E+02 1.54563E+01 0.00000E+00
 -1      3348 8.70500E+01 1.17494E+01 0.00000E+00
 -1      3349 8.63000E+01 1.04504E+01 0.00000E+00
 -1      3350 8.15559E+01 3.68263E+01 0.00000E+00
 -1      3351 6.24848E+01 1.37523E+01 0.00000E+00
 -1      3352 2.42850E+01 1.05013E+01 0.00000E+00
 -1      3353 2.35350E+01 1.18003E+01 0.00000E+00
 -1      3354 2.57850E+01 1.05013E+01 0.00000E+00
 -1      3355 1.16783E+01 3.85855E+01 0.00000E+00
 -1      3356 2.95350E+01 1.18003E+01 0.00000E+00
 -1      3357 2.87850E+01 1.05013E+01 0.00000E+00
 -1      3358 2.72850E+01 1.05013E+01 0.00000E+00
 -1      3359 6.21622E+01 1.19648E+01 0.00000E+00
 -1      3360 1.38129E+02 3.61550E+01 0.00000E+00
 -1      3361 1.36830E+02 3.54175E+01 0.00000E+00
 -1      3362 8.69540E+01 1.30793E+01 0.00000E+00
 -1      3363 1.69669E+01 1.03515E+01 0.00000E+00
 -1      3364 1.54669E+01 1.03515E+01 0.00000E+00
 -1      3365 1.50806E+01 1.13509E+01 0.00000E+00
 -1      3366 1.77169E+01 1.16505E+01 0.00000E+00
 -1      3367 9.05233E+01 2.11833E+01 0.00000E+00
 -1      3368 8.96783E+01 2.19946E+01 0.00000E+00
 -1      3369 9.03163E+01 2.29097E+01 0.00000E+00
 -1      3370 8.98756E+01 1.88845E+01 0.00000E+00
 -1      3371 1.29900E+01 1.46687E+01 0.00000E+00
 -1      3372 1.16910E+01 1.54063E+01 0.00000E+00
 -1      3373 1.16910E+01 1.68750E+01 0.00000E+00
 -1      3374 6.34399E+01 3.13874E+01 0.00000E+00
 -1      3375 1.16910E+01 1.98188E+01 0.00000E+00
 -1      3376 1.29900E+01 2.05562E+01 0.00000E+00
 -1      3377 1.16910E+01 1.83500E+01 0.00000E+00
 -1      3378 6.55335E+01 3.37794E+01 0.00000E+00
 -1      3379 1.38309E+02 1.98687E+01 0.00000E+00
 -1      3380 1.38309E+02 1.83937E+01 0.00000E+00
 -1      3381 1.37010E+02 1.76625E+01 0.00000E+00
 -1      3382 1.38879E+02 3.74540E+01 0.00000E+00
 -1      3383 1.38309E+02 2.28156E+01 0.00000E+00
 -1      3384 1.38309E+02 2.13406E+01 0.00000E+00
 -1      3385 1.37010E+02 2.06094E+01 0.00000E+00
 -1      3386 1.37010E+02 2.35531E+01 0.00000E+00
 -1      3387 6.12170E+01 1.65821E+01 0.00000E+00
 -1      3388 8.56594E+01 3.11876E+01 0.00000E+00
 -1      3389 8.46438E+01 3.18548E+01 0.00000E+00
 -1      3390 8.32871E+01 1.01208E+01 0.00000E+00
 -1      3391 9.25350E+01 1.18003E+01 0.00000E+00
 -1      3392 6.02822E+01 1.97118E+01 0.00000E+00
 -1      3393 5.97599E+01 1.86382E+01 0.00000E+00
 -1      3394 5.92883E+01 2.05611E+01 0.00000E+00
 -1      3395 8.92234E+01 2.48973E+01 0.00000E+00
 -1      3396 8.88544E+01 1.59805E+01 0.00000E+00
 -1      3397 9.00410E+01 1.65063E+01 0.00000E+00
 -1      3398 8.90295E+01 1.49858E+01 0.00000E+00
 -1      3399 8.77846E+01 3.06451E+01 0.00000E+00
 -1      3400 8.67220E+01 3.09164E+01 0.00000E+00
 -1      3401 8.68230E+01 3.21768E+01 0.00000E+00
 -1      3402 6.97534E+01 3.52626E+01 0.00000E+00
 -1      3403 1.16910E+01 3.01219E+01 0.00000E+00
 -1      3404 1.16910E+01 3.15906E+01 0.00000E+00
 -1      3405 8.39196E+01 1.07449E+01 0.00000E+00
 -1      3406 8.43459E+01 1.12909E+01 0.00000E+00
 -1      3407 8.54325E+01 1.10745E+01 0.00000E+00
 -1      3408 8.41675E+01 9.82632E+00 0.00000E+00
 -1      3409 8.36572E+01 3.24966E+01 0.00000E+00
 -1      3410 8.26415E+01 3.31638E+01 0.00000E+00
 -1      3411 8.28006E+01 3.43732E+01 0.00000E+00
 -1      3412 8.47738E+01 3.30898E+01 0.00000E+00
 -1      3413 1.16910E+01 3.30594E+01 0.00000E+00
 -1      3414 1.16910E+01 3.45281E+01 0.00000E+00
 -1      3415 1.29900E+01 3.23250E+01 0.00000E+00
 -1      3416 8.56675E+01 9.82632E+00 0.00000E+00
 -1      3417 2.04000E+01 3.57110E+01 0.00000E+00
 -1      3418 2.19000E+01 3.57110E+01 0.00000E+00
 -1      3419 8.79390E+01 1.31301E+01 0.00000E+00
 -1      3420 8.11379E+01 3.58288E+01 0.00000E+00
 -1      3421 8.22320E+01 3.60125E+01 0.00000E+00
 -1      3422 2.34000E+01 3.57110E+01 0.00000E+00
 -1      3423 2.49000E+01 3.57110E+01 0.00000E+00
 -1      3424 2.26500E+01 3.44120E+01 0.00000E+00
 -1      3425 2.64000E+01 3.57110E+01 0.00000E+00
 -1      3426 2.79000E+01 3.57110E+01 0.00000E+00
 -1      3427 2.56500E+01 3.44120E+01 0.00000E+00
 -1      3428 2.94000E+01 3.57110E+01 0.00000E+00
 -1      3429 3.09000E+01 3.57110E+01 0.00000E+00
 -1      3430 2.86500E+01 3.44120E+01 0.00000E+00
 -1      3431 3.24000E+01 3.57110E+01 0.00000E+00
 -1      3432 3.39000E+01 3.57110E+01 0.00000E+00
 -1      3433 3.16500E+01 3.44120E+01 0.00000E+00
 -1      3434 3.54000E+01 3.57110E+01 0.00000E+00
 -1      3435 3.69000E+01 3.57110E+01 0.00000E+00
 -1      3436 3.46500E+01 3.44120E+01 0.00000E+00
 -1      3437 3.84000E+01 3.57110E+01 0.00000E+00
 -1      3438 3.99000E+01 3.57110E+01 0.00000E+00
 -1      3439 3.76500E+01 3.44120E+01 0.00000E+00
 -1      3440 4.14000E+01 3.57110E+01 0.00000E+00
 -1      3441 4.29000E+01 3.57110E+01 0.00000E+00
 -1      3442 4.06500E+01 3.44120E+01 0.00000E+00
 -1      3443 4.44000E+01 3.57110E+01 0.00000E+00
 -1      3444 4.59000E+01 3.57110E+01 0.00000E+00
 -1      3445 4.36500E+01 3.44120E+01 0.00000E+00
 -1      3446 4.74000E+01 3.57110E+01 0.00000E+00
 -1      3447 4.89000E+01 3.57110E+01 0.00000E+00
 -1      3448 4.66500E+01 3.44120E+01 0.00000E+00
 -1      3449 5.04000E+01 3.57110E+01 0.00000E+00
 -1      3450 5.19000E+01 3.57110E+01 0.00000E+00
 -1      3451 4.96500E+01 3.44120E+01 0.00000E+00
 -1      3452 5.34000E+01 3.57110E+01 0.00000E+00
 -1      3453 5.49000E+01 3.57110E+01 0.00000E+00
 -1      3454 5.26500E+01 3.44120E+01 0.00000E+00
 -1      3455 5.64000E+01 3.57110E+01 0.00000E+00
 -1      3456 5.79000E+01 3.57110E+01 0.00000E+00
 -1      3457 5.56500E+01 3.44120E+01 0.00000E+00
 -1      3458 5.94000E+01 3.57110E+01 0.00000E+00
 -1      3459 6.09000E+01 3.57110E+01 0.00000E+00
 -1      3460 5.86500E+01 3.44120E+01 0.00000E+00
 -1      3461 6.57820E+01 3.59189E+01 0.00000E+00
 -1      3462 6.72820E+01 3.59189E+01 0.00000E+00
 -1      3463 2.12850E+01 1.30992E+01 0.00000E+00
 -1      3464 1.97850E+01 1.30992E+01 0.00000E+00
 -1      3465 8.64000E+01 3.57110E+01 0.00000E+00
 -1      3466 8.79000E+01 3.57110E+01 0.00000E+00
 -1      3467 8.94000E+01 3.57110E+01 0.00000E+00
 -1      3468 9.09000E+01 3.57110E+01 0.00000E+00
 -1      3469 8.86500E+01 3.44120E+01 0.00000E+00
 -1      3470 9.24000E+01 3.57110E+01 0.00000E+00
 -1      3471 9.39000E+01 3.57110E+01 0.00000E+00
 -1      3472 9.16500E+01 3.44120E+01 0.00000E+00
 -1      3473 9.54000E+01 3.57110E+01 0.00000E+00
 -1      3474 9.69000E+01 3.57110E+01 0.00000E+00
 -1      3475 9.46500E+01 3.44120E+01 0.00000E+00
 -1      3476 9.84000E+01 3.57110E+01 0.00000E+00
 -1      3477 9.99000E+01 3.57110E+01 0.00000E+00
 -1      3478 9.76500E+01 3.44120E+01 0.00000E+00
 -1      3479 1.01400E+02 3.57110E+01 0.00000E+00
 -1      3480 1.02900E+02 3.57110E+01 0.00000E+00
 -1      3481 1.00650E+02 3.44120E+01 0.00000E+00
 -1      3482 1.04400E+02 3.57110E+01 0.00000E+00
 -1      3483 1.05900E+02 3.57110E+01 0.00000E+00
 -1      3484 1.03650E+02 3.44120E+01 0.00000E+00
 -1      3485 1.07400E+02 3.57110E+01 0.00000E+00
 -1      3486 1.08900E+02 3.57110E+01 0.00000E+00
 -1      3487 1.06650E+02 3.44120E+01 0.00000E+00
 -1      3488 1.10400E+02 3.57110E+01 0.00000E+00
 -1      3489 1.11900E+02 3.57110E+01 0.00000E+00
 -1      3490 1.09650E+02 3.44120E+01 0.00000E+00
 -1      3491 1.13400E+02 3.57110E+01 0.00000E+00
 -1      3492 1.14900E+02 3.57110E+01 0.00000E+00
 -1      3493 1.12650E+02 3.44120E+01 0.00000E+00
 -1      3494 1.16400E+02 3.57110E+01 0.00000E+00
 -1      3495 1.17900E+02 3.57110E+01 0.00000E+00
 -1      3496 1.15650E+02 3.44120E+01 0.00000E+00
 -1      3497 1.19400E+02 3.57110E+01 0.00000E+00
 -1      3498 1.20900E+02 3.57110E+01 0.00000E+00
 -1      3499 1.18650E+02 3.44120E+01 0.00000E+00
 -1      3500 1.22400E+02 3.57110E+01 0.00000E+00
 -1      3501 1.23900E+02 3.57110E+01 0.00000E+00
 -1      3502 1.21650E+02 3.44120E+01 0.00000E+00
 -1      3503 1.25400E+02 3.57110E+01 0.00000E+00
 -1      3504 1.26900E+02 3.57110E+01 0.00000E+00
 -1      3505 1.24650E+02 3.44120E+01 0.00000E+00
 -1      3506 1.28400E+02 3.57110E+01 0.00000E+00
 -1      3507 1.29900E+02 3.57110E+01 0.00000E+00
 -1      3508 1.27650E+02 3.44120E+01 0.00000E+00
 -1      3509 1.31400E+02 3.57110E+01 0.00000E+00
 -1      3510 1.32900E+02 3.57110E+01 0.00000E+00
 -1      3511 1.30650E+02 3.44120E+01 0.00000E+00
 -1      3512 1.34115E+02 3.55643E+01 0.00000E+00
 -1      3513 1.35615E+02 3.55643E+01 0.00000E+00
 -1      3514 1.35795E+02 3.39717E+01 0.00000E+00
 -1      3515 1.33365E+02 3.42653E+01 0.00000E+00
 -1      3516 4.52850E+01 1.30992E+01 0.00000E+00
 -1      3517 4.37850E+01 1.30992E+01 0.00000E+00
 -1      3518 4.22850E+01 1.30992E+01 0.00000E+00
 -1      3519 4.07850E+01 1.30992E+01 0.00000E+00
 -1      3520 4.30350E+01 1.43982E+01 0.00000E+00
 -1      3521 5.12850E+01 1.30992E+01 0.00000E+00
 -1      3522 4.97850E+01 1.30992E+01 0.00000E+00
 -1      3523 5.42850E+01 1.30992E+01 0.00000E+00
 -1      3524 5.27850E+01 1.30992E+01 0.00000E+00
 -1      3525 5.20350E+01 1.43982E+01 0.00000E+00
 -1      3526 5.72850E+01 1.30992E+01 0.00000E+00
 -1      3527 5.57850E+01 1.30992E+01 0.00000E+00
 -1      3528 5.50350E+01 1.43982E+01 0.00000E+00
 -1      3529 8.32186E+01 3.53708E+01 0.00000E+00
 -1      3530 1.38528E+02 1.44149E+01 0.00000E+00
 -1      3531 1.38594E+02 1.31746E+01 0.00000E+00
 -1      3532 1.37668E+02 1.30636E+01 0.00000E+00
 -1      3533 1.37229E+02 1.51462E+01 0.00000E+00
 -1      3534 1.02285E+02 1.30992E+01 0.00000E+00
 -1      3535 1.00785E+02 1.30992E+01 0.00000E+00
 -1      3536 6.04569E+01 2.72281E+01 0.00000E+00
 -1      3537 5.98929E+01 2.58724E+01 0.00000E+00
 -1      3538 9.92850E+01 1.30992E+01 0.00000E+00
 -1      3539 9.77850E+01 1.30992E+01 0.00000E+00
 -1      3540 1.00035E+02 1.43982E+01 0.00000E+00
 -1      3541 1.08285E+02 1.30992E+01 0.00000E+00
 -1      3542 1.06785E+02 1.30992E+01 0.00000E+00
 -1      3543 1.11285E+02 1.30992E+01 0.00000E+00
 -1      3544 1.09785E+02 1.30992E+01 0.00000E+00
 -1      3545 1.09035E+02 1.43982E+01 0.00000E+00
 -1      3546 1.14285E+02 1.30992E+01 0.00000E+00
 -1      3547 1.12785E+02 1.30992E+01 0.00000E+00
 -1      3548 1.12035E+02 1.43982E+01 0.00000E+00
 -1      3549 1.17285E+02 1.30992E+01 0.00000E+00
 -1      3550 1.15785E+02 1.30992E+01 0.00000E+00
 -1      3551 1.15035E+02 1.43982E+01 0.00000E+00
 -1      3552 1.20285E+02 1.30992E+01 0.00000E+00
 -1      3553 1.18785E+02 1.30992E+01 0.00000E+00
 -1      3554 1.18035E+02 1.43982E+01 0.00000E+00
 -1      3555 1.23285E+02 1.30992E+01 0.00000E+00
 -1      3556 1.21785E+02 1.30992E+01 0.00000E+00
 -1      3557 1.21035E+02 1.43982E+01 0.00000E+00
 -1      3558 1.26285E+02 1.30992E+01 0.00000E+00
 -1      3559 1.24785E+02 1.30992E+01 0.00000E+00
 -1      3560 1.24035E+02 1.43982E+01 0.00000E+00
 -1      3561 1.29285E+02 1.30992E+01 0.00000E+00
 -1      3562 1.27785E+02 1.30992E+01 0.00000E+00
 -1      3563 1.27035E+02 1.43982E+01 0.00000E+00
 -1      3564 1.32285E+02 1.30992E+01 0.00000E+00
 -1      3565 1.30785E+02 1.30992E+01 0.00000E+00
 -1      3566 1.30035E+02 1.43982E+01 0.00000E+00
 -1      3567 6.44015E+01 3.48705E+01 0.00000E+00
 -1      3568 6.00283E+01 1.68182E+01 0.00000E+00
 -1      3569 6.04916E+01 1.56114E+01 0.00000E+00
 -1      3570 8.94390E+01 1.31301E+01 0.00000E+00
 -1      3571 1.35711E+02 2.72000E+01 0.00000E+00
 -1      3572 1.35711E+02 2.57500E+01 0.00000E+00
 -1      3573 6.84107E+01 3.52572E+01 0.00000E+00
 -1      3574 5.92915E+01 2.42638E+01 0.00000E+00
 -1      3575 5.89180E+01 2.26807E+01 0.00000E+00
 -1      3576 1.16910E+01 2.71844E+01 0.00000E+00
 -1      3577 1.16910E+01 2.86531E+01 0.00000E+00
 -1      3578 1.29900E+01 2.93875E+01 0.00000E+00
 -1      3579 6.13576E+01 1.35878E+01 0.00000E+00
 -1      3580 9.62850E+01 1.30992E+01 0.00000E+00
 -1      3581 9.47850E+01 1.30992E+01 0.00000E+00
 -1      3582 9.70350E+01 1.43982E+01 0.00000E+00
 -1      3583 1.24283E+01 3.72865E+01 0.00000E+00
 -1      3584 1.74000E+01 3.57110E+01 0.00000E+00
 -1      3585 1.89000E+01 3.57110E+01 0.00000E+00
 -1      3586 1.96500E+01 3.44120E+01 0.00000E+00
 -1      3587 9.09797E+01 1.81850E+01 0.00000E+00
 -1      3588 9.09893E+01 1.95686E+01 0.00000E+00
 -1      3589 6.26490E+01 3.26681E+01 0.00000E+00
 -1      3590 6.19360E+01 3.13246E+01 0.00000E+00
 -1      3591 4.82850E+01 1.30992E+01 0.00000E+00
 -1      3592 4.67850E+01 1.30992E+01 0.00000E+00
 -1      3593 4.60350E+01 1.43982E+01 0.00000E+00
 -1      3594 4.90350E+01 1.43982E+01 0.00000E+00
 -1      3595 3.32850E+01 1.30992E+01 0.00000E+00
 -1      3596 3.17850E+01 1.30992E+01 0.00000E+00
 -1      3597 9.04324E+01 2.45380E+01 0.00000E+00
 -1      3598 9.01845E+01 2.57141E+01 0.00000E+00
 -1      3599 6.14984E+01 2.97597E+01 0.00000E+00
 -1      3600 6.09776E+01 2.84939E+01 0.00000E+00
 -1      3601 5.97491E+01 2.82097E+01 0.00000E+00
 -1      3602 1.05285E+02 1.30992E+01 0.00000E+00
 -1      3603 1.03785E+02 1.30992E+01 0.00000E+00
 -1      3604 1.06035E+02 1.43982E+01 0.00000E+00
 -1      3605 8.47186E+01 3.53708E+01 0.00000E+00
 -1      3606 6.01690E+01 1.38238E+01 0.00000E+00
 -1      3607 6.29015E+01 3.48705E+01 0.00000E+00
 -1      3608 9.06256E+01 1.36559E+01 0.00000E+00
 -1      3609 1.34412E+02 2.50031E+01 0.00000E+00
 -1      3610 1.35711E+02 2.42781E+01 0.00000E+00
 -1      3611 1.35711E+02 2.28062E+01 0.00000E+00
 -1      3612 9.04700E+01 2.68863E+01 0.00000E+00
 -1      3613 9.07555E+01 2.80586E+01 0.00000E+00
 -1      3614 9.16790E+01 2.65270E+01 0.00000E+00
 -1      3615 1.23799E+01 3.61682E+01 0.00000E+00
 -1      3616 5.75032E+01 2.26534E+01 0.00000E+00
 -1      3617 5.83958E+01 2.16072E+01 0.00000E+00
 -1      3618 5.78735E+01 2.05337E+01 0.00000E+00
 -1      3619 6.13975E+01 3.48077E+01 0.00000E+00
 -1      3620 1.90350E+01 1.43983E+01 0.00000E+00
 -1      3621 1.82850E+01 1.30993E+01 0.00000E+00
 -1      3622 2.65350E+01 1.18003E+01 0.00000E+00
 -1      3623 1.34580E+02 3.26435E+01 0.00000E+00
 -1      3624 1.35795E+02 3.24967E+01 0.00000E+00
 -1      3625 1.35795E+02 3.10217E+01 0.00000E+00
 -1      3626 3.10350E+01 1.43982E+01 0.00000E+00
 -1      3627 3.02850E+01 1.30992E+01 0.00000E+00
 -1      3628 2.87850E+01 1.30992E+01 0.00000E+00
 -1      3629 4.00350E+01 1.43982E+01 0.00000E+00
 -1      3630 3.92850E+01 1.30992E+01 0.00000E+00
 -1      3631 3.77850E+01 1.30992E+01 0.00000E+00
 -1      3632 5.86690E+01 1.38238E+01 0.00000E+00
 -1      3633 5.79190E+01 1.51228E+01 0.00000E+00
 -1      3634 1.42284E+01 1.25101E+01 0.00000E+00
 -1      3635 1.38422E+01 1.35095E+01 0.00000E+00
 -1      3636 1.38422E+01 1.49783E+01 0.00000E+00
 -1      3637 1.55466E+01 1.26599E+01 0.00000E+00
 -1      3638 2.27850E+01 1.30992E+01 0.00000E+00
 -1      3639 2.20350E+01 1.43982E+01 0.00000E+00
 -1      3640 2.42850E+01 1.30992E+01 0.00000E+00
 -1      3641 1.69669E+01 1.29495E+01 0.00000E+00
 -1      3642 1.03035E+02 1.43982E+01 0.00000E+00
 -1      3643 5.86269E+01 2.53354E+01 0.00000E+00
 -1      3644 6.07075E+01 3.10404E+01 0.00000E+00
 -1      3645 1.29900E+01 1.76125E+01 0.00000E+00
 -1      3646 1.35285E+02 1.30992E+01 0.00000E+00
 -1      3647 1.33785E+02 1.30992E+01 0.00000E+00
 -1      3648 1.36742E+02 1.29526E+01 0.00000E+00
 -1      3649 9.12774E+01 2.37266E+01 0.00000E+00
 -1      3650 5.90345E+01 1.76675E+01 0.00000E+00
 -1      3651 5.83091E+01 1.66967E+01 0.00000E+00
 -1      3652 5.80407E+01 1.85168E+01 0.00000E+00
 -1      3653 8.64552E+01 3.34300E+01 0.00000E+00
 -1      3654 8.54686E+01 3.40718E+01 0.00000E+00
 -1      3655 1.29900E+01 2.64469E+01 0.00000E+00
 -1      3656 1.51178E+01 3.57749E+01 0.00000E+00
 -1      3657 1.62589E+01 3.57429E+01 0.00000E+00
 -1      3658 1.70089E+01 3.44439E+01 0.00000E+00
 -1      3659 1.42890E+01 3.15906E+01 0.00000E+00
 -1      3660 1.42890E+01 3.30594E+01 0.00000E+00
 -1      3661 1.42890E+01 2.86531E+01 0.00000E+00
 -1      3662 1.42890E+01 3.01219E+01 0.00000E+00
 -1      3663 1.55880E+01 3.08563E+01 0.00000E+00
 -1      3664 8.96474E+01 2.96783E+01 0.00000E+00
 -1      3665 8.87160E+01 3.01617E+01 0.00000E+00
 -1      3666 8.88170E+01 3.14222E+01 0.00000E+00
 -1      3667 1.42890E+01 1.98219E+01 0.00000E+00
 -1      3668 1.42890E+01 2.12906E+01 0.00000E+00
 -1      3669 9.32850E+01 1.30992E+01 0.00000E+00
 -1      3670 9.17850E+01 1.30992E+01 0.00000E+00
 -1      3671 1.35711E+02 1.84000E+01 0.00000E+00
 -1      3672 1.35711E+02 1.69250E+01 0.00000E+00
 -1      3673 9.11548E+01 1.71903E+01 0.00000E+00
 -1      3674 9.22685E+01 1.78744E+01 0.00000E+00
 -1      3675 9.13299E+01 1.61957E+01 0.00000E+00
 -1      3676 3.47850E+01 1.30992E+01 0.00000E+00
 -1      3677 3.40350E+01 1.43982E+01 0.00000E+00
 -1      3678 3.62850E+01 1.30992E+01 0.00000E+00
 -1      3679 1.33035E+02 1.43982E+01 0.00000E+00
 -1      3680 9.16274E+01 2.04837E+01 0.00000E+00
 -1      3681 1.35753E+02 2.98484E+01 0.00000E+00
 -1      3682 1.35753E+02 2.83734E+01 0.00000E+00
 -1      3683 1.34454E+02 2.76484E+01 0.00000E+00
 -1      3684 1.34538E+02 2.99951E+01 0.00000E+00
 -1      3685 1.55880E+01 2.20313E+01 0.00000E+00
 -1      3686 1.42890E+01 2.27656E+01 0.00000E+00
 -1      3687 1.42890E+01 2.42406E+01 0.00000E+00
 -1      3688 8.75178E+01 3.31588E+01 0.00000E+00
 -1      3689 9.40350E+01 1.43982E+01 0.00000E+00
 -1      3690 1.35992E+02 1.42516E+01 0.00000E+00
 -1      3691 1.89000E+01 3.31130E+01 0.00000E+00
 -1      3692 2.04000E+01 3.31130E+01 0.00000E+00
 -1      3693 8.90178E+01 3.31588E+01 0.00000E+00
 -1      3694 2.19000E+01 3.31130E+01 0.00000E+00
 -1      3695 2.34000E+01 3.31130E+01 0.00000E+00
 -1      3696 2.11500E+01 3.18140E+01 0.00000E+00
 -1      3697 2.49000E+01 3.31130E+01 0.00000E+00
 -1      3698 2.64000E+01 3.31130E+01 0.00000E+00
 -1      3699 2.41500E+01 3.18140E+01 0.00000E+00
 -1      3700 2.79000E+01 3.31130E+01 0.00000E+00
 -1      3701 2.94000E+01 3.31130E+01 0.00000E+00
 -1      3702 2.71500E+01 3.18140E+01 0.00000E+00
 -1      3703 3.09000E+01 3.31130E+01 0.00000E+00
 -1      3704 3.24000E+01 3.31130E+01 0.00000E+00
 -1      3705 3.01500E+01 3.18140E+01 0.00000E+00
 -1      3706 3.39000E+01 3.31130E+01 0.00000E+00
 -1      3707 3.54000E+01 3.31130E+01 0.00000E+00
 -1      3708 3.31500E+01 3.18140E+01 0.00000E+00
 -1      3709 3.69000E+01 3.31130E+01 0.00000E+00
 -1      3710 3.84000E+01 3.31130E+01 0.00000E+00
 -1      3711 3.61500E+01 3.18140E+01 0.00000E+00
 -1      3712 3.99000E+01 3.31130E+01 0.00000E+00
 -1      3713 4.14000E+01 3.31130E+01 0.00000E+00
 -1      3714 3.91500E+01 3.18140E+01 0.00000E+00
 -1      3715 4.29000E+01 3.31130E+01 0.00000E+00
 -1      3716 4.44000E+01 3.31130E+01 0.00000E+00
 -1      3717 4.21500E+01 3.18140E+01 0.00000E+00
 -1      3718 4.59000E+01 3.31130E+01 0.00000E+00
 -1      3719 4.74000E+01 3.31130E+01 0.00000E+00
 -1      3720 4.51500E+01 3.18140E+01 0.00000E+00
 -1      3721 4.89000E+01 3.31130E+01 0.00000E+00
 -1      3722 5.04000E+01 3.31130E+01 0.00000E+00
 -1      3723 4.81500E+01 3.18140E+01 0.00000E+00
 -1      3724 5.19000E+01 3.31130E+01 0.00000E+00
 -1      3725 5.34000E+01 3.31130E+01 0.00000E+00
 -1      3726 5.11500E+01 3.18140E+01 0.00000E+00
 -1      3727 5.49000E+01 3.31130E+01 0.00000E+00
 -1      3728 5.64000E+01 3.31130E+01 0.00000E+00
 -1      3729 5.41500E+01 3.18140E+01 0.00000E+00
 -1      3730 1.97850E+01 1.56973E+01 0.00000E+00
 -1      3731 1.82851E+01 1.56973E+01 0.00000E+00
 -1      3732 9.13756E+01 1.49549E+01 0.00000E+00
 -1      3733 2.72850E+01 1.30992E+01 0.00000E+00
 -1      3734 2.57850E+01 1.30992E+01 0.00000E+00
 -1      3735 2.80350E+01 1.43982E+01 0.00000E+00
 -1      3736 1.57279E+01 3.34004E+01 0.00000E+00
 -1      3737 1.44289E+01 3.41348E+01 0.00000E+00
 -1      3738 9.09000E+01 3.31130E+01 0.00000E+00
 -1      3739 9.24000E+01 3.31130E+01 0.00000E+00
 -1      3740 9.39000E+01 3.31130E+01 0.00000E+00
 -1      3741 9.54000E+01 3.31130E+01 0.00000E+00
 -1      3742 9.31500E+01 3.18140E+01 0.00000E+00
 -1      3743 9.69000E+01 3.31130E+01 0.00000E+00
 -1      3744 9.84000E+01 3.31130E+01 0.00000E+00
 -1      3745 9.61500E+01 3.18140E+01 0.00000E+00
 -1      3746 9.99000E+01 3.31130E+01 0.00000E+00
 -1      3747 1.01400E+02 3.31130E+01 0.00000E+00
 -1      3748 9.91500E+01 3.18140E+01 0.00000E+00
 -1      3749 1.02900E+02 3.31130E+01 0.00000E+00
 -1      3750 1.04400E+02 3.31130E+01 0.00000E+00
 -1      3751 1.02150E+02 3.18140E+01 0.00000E+00
 -1      3752 1.05900E+02 3.31130E+01 0.00000E+00
 -1      3753 1.07400E+02 3.31130E+01 0.00000E+00
 -1      3754 1.05150E+02 3.18140E+01 0.00000E+00
 -1      3755 1.08900E+02 3.31130E+01 0.00000E+00
 -1      3756 1.10400E+02 3.31130E+01 0.00000E+00
 -1      3757 1.08150E+02 3.18140E+01 0.00000E+00
 -1      3758 1.11900E+02 3.31130E+01 0.00000E+00
 -1      3759 1.13400E+02 3.31130E+01 0.00000E+00
 -1      3760 1.11150E+02 3.18140E+01 0.00000E+00
 -1      3761 1.14900E+02 3.31130E+01 0.00000E+00
 -1      3762 1.16400E+02 3.31130E+01 0.00000E+00
 -1      3763 1.14150E+02 3.18140E+01 0.00000E+00
 -1      3764 1.17900E+02 3.31130E+01 0.00000E+00
 -1      3765 1.19400E+02 3.31130E+01 0.00000E+00
 -1      3766 1.17150E+02 3.18140E+01 0.00000E+00
 -1      3767 1.20900E+02 3.31130E+01 0.00000E+00
 -1      3768 1.22400E+02 3.31130E+01 0.00000E+00
 -1      3769 1.20150E+02 3.18140E+01 0.00000E+00
 -1      3770 1.23900E+02 3.31130E+01 0.00000E+00
 -1      3771 1.25400E+02 3.31130E+01 0.00000E+00
 -1      3772 1.23150E+02 3.18140E+01 0.00000E+00
 -1      3773 1.26900E+02 3.31130E+01 0.00000E+00
 -1      3774 1.28400E+02 3.31130E+01 0.00000E+00
 -1      3775 1.26150E+02 3.18140E+01 0.00000E+00
 -1      3776 1.29900E+02 3.31130E+01 0.00000E+00
 -1      3777 1.31400E+02 3.31130E+01 0.00000E+00
 -1      3778 1.29150E+02 3.18140E+01 0.00000E+00
 -1      3779 1.32383E+02 3.29516E+01 0.00000E+00
 -1      3780 1.33598E+02 3.28049E+01 0.00000E+00
 -1      3781 1.33598E+02 3.13299E+01 0.00000E+00
 -1      3782 1.31633E+02 3.16526E+01 0.00000E+00
 -1      3783 4.37850E+01 1.56973E+01 0.00000E+00
 -1      3784 4.22850E+01 1.56973E+01 0.00000E+00
 -1      3785 5.57850E+01 1.56973E+01 0.00000E+00
 -1      3786 5.42850E+01 1.56973E+01 0.00000E+00
 -1      3787 5.27850E+01 1.56973E+01 0.00000E+00
 -1      3788 5.12850E+01 1.56973E+01 0.00000E+00
 -1      3789 5.35350E+01 1.69963E+01 0.00000E+00
 -1      3790 1.00785E+02 1.56973E+01 0.00000E+00
 -1      3791 9.92850E+01 1.56973E+01 0.00000E+00
 -1      3792 1.35773E+02 1.52929E+01 0.00000E+00
 -1      3793 1.12785E+02 1.56973E+01 0.00000E+00
 -1      3794 1.11285E+02 1.56973E+01 0.00000E+00
 -1      3795 1.09785E+02 1.56973E+01 0.00000E+00
 -1      3796 1.08285E+02 1.56973E+01 0.00000E+00
 -1      3797 1.10535E+02 1.69963E+01 0.00000E+00
 -1      3798 1.18785E+02 1.56973E+01 0.00000E+00
 -1      3799 1.17285E+02 1.56973E+01 0.00000E+00
 -1      3800 1.21785E+02 1.56973E+01 0.00000E+00
 -1      3801 1.20285E+02 1.56973E+01 0.00000E+00
 -1      3802 1.19535E+02 1.69963E+01 0.00000E+00
 -1      3803 1.24785E+02 1.56973E+01 0.00000E+00
 -1      3804 1.23285E+02 1.56973E+01 0.00000E+00
 -1      3805 1.22535E+02 1.69963E+01 0.00000E+00
 -1      3806 1.27785E+02 1.56973E+01 0.00000E+00
 -1      3807 1.26285E+02 1.56973E+01 0.00000E+00
 -1      3808 1.25535E+02 1.69963E+01 0.00000E+00
 -1      3809 1.30785E+02 1.56973E+01 0.00000E+00
 -1      3810 1.29285E+02 1.56973E+01 0.00000E+00
 -1      3811 1.28535E+02 1.69963E+01 0.00000E+00
 -1      3812 9.29258E+01 1.99839E+01 0.00000E+00
 -1      3813 9.24598E+01 2.15985E+01 0.00000E+00
 -1      3814 5.78105E+01 2.65574E+01 0.00000E+00
 -1      3815 5.72090E+01 2.49489E+01 0.00000E+00
 -1      3816 1.03785E+02 1.56973E+01 0.00000E+00
 -1      3817 1.02285E+02 1.56973E+01 0.00000E+00
 -1      3818 1.01535E+02 1.69963E+01 0.00000E+00
 -1      3819 1.42890E+01 2.57109E+01 0.00000E+00
 -1      3820 1.42890E+01 2.71828E+01 0.00000E+00
 -1      3821 1.55880E+01 2.79172E+01 0.00000E+00
 -1      3822 1.55880E+01 2.49766E+01 0.00000E+00
 -1      3823 1.35711E+02 2.13391E+01 0.00000E+00
 -1      3824 1.35711E+02 1.98672E+01 0.00000E+00
 -1      3825 1.34412E+02 1.91297E+01 0.00000E+00
 -1      3826 1.34412E+02 2.20641E+01 0.00000E+00
 -1      3827 9.25759E+01 2.32267E+01 0.00000E+00
 -1      3828 9.26920E+01 2.48550E+01 0.00000E+00
 -1      3829 9.38743E+01 2.27269E+01 0.00000E+00
 -1      3830 1.42890E+01 1.83469E+01 0.00000E+00
 -1      3831 1.55880E+01 1.90812E+01 0.00000E+00
 -1      3832 1.42890E+01 1.68719E+01 0.00000E+00
 -1      3833 5.69251E+01 1.59721E+01 0.00000E+00
 -1      3834 9.77850E+01 1.56973E+01 0.00000E+00
 -1      3835 9.62850E+01 1.56973E+01 0.00000E+00
 -1      3836 9.85350E+01 1.69963E+01 0.00000E+00
 -1      3837 1.34473E+02 1.60304E+01 0.00000E+00
 -1      3838 1.36789E+01 3.54338E+01 0.00000E+00
 -1      3839 5.83975E+01 3.22097E+01 0.00000E+00
 -1      3840 5.79599E+01 3.06448E+01 0.00000E+00
 -1      3841 1.32973E+02 1.60304E+01 0.00000E+00
 -1      3842 1.61147E+01 1.41087E+01 0.00000E+00
 -1      3843 1.06785E+02 1.56973E+01 0.00000E+00
 -1      3844 1.05285E+02 1.56973E+01 0.00000E+00
 -1      3845 1.04535E+02 1.69963E+01 0.00000E+00
 -1      3846 1.15785E+02 1.56973E+01 0.00000E+00
 -1      3847 1.14285E+02 1.56973E+01 0.00000E+00
 -1      3848 1.16535E+02 1.69963E+01 0.00000E+00
 -1      3849 9.24893E+01 1.56390E+01 0.00000E+00
 -1      3850 1.32223E+02 1.73294E+01 0.00000E+00
 -1      3851 9.29775E+01 2.60272E+01 0.00000E+00
 -1      3852 9.32629E+01 2.71994E+01 0.00000E+00
 -1      3853 9.42759E+01 2.55273E+01 0.00000E+00
 -1      3854 5.66868E+01 2.38754E+01 0.00000E+00
 -1      3855 5.61645E+01 2.28018E+01 0.00000E+00
 -1      3856 5.58703E+01 2.50973E+01 0.00000E+00
 -1      3857 8.97678E+01 3.18598E+01 0.00000E+00
 -1      3858 2.12850E+01 1.56973E+01 0.00000E+00
 -1      3859 2.05351E+01 1.69963E+01 0.00000E+00
 -1      3860 2.27850E+01 1.56973E+01 0.00000E+00
 -1      3861 1.68690E+01 3.33685E+01 0.00000E+00
 -1      3862 4.52850E+01 1.56973E+01 0.00000E+00
 -1      3863 4.45350E+01 1.69963E+01 0.00000E+00
 -1      3864 4.67850E+01 1.56973E+01 0.00000E+00
 -1      3865 3.17850E+01 1.56973E+01 0.00000E+00
 -1      3866 3.02850E+01 1.56973E+01 0.00000E+00
 -1      3867 4.07850E+01 1.56973E+01 0.00000E+00
 -1      3868 3.92850E+01 1.56973E+01 0.00000E+00
 -1      3869 4.15350E+01 1.69963E+01 0.00000E+00
 -1      3870 5.61751E+01 1.72711E+01 0.00000E+00
 -1      3871 1.65615E+01 1.60023E+01 0.00000E+00
 -1      3872 1.51412E+01 1.57127E+01 0.00000E+00
 -1      3873 3.70350E+01 1.43982E+01 0.00000E+00
 -1      3874 1.13535E+02 1.69963E+01 0.00000E+00
 -1      3875 2.50350E+01 1.43982E+01 0.00000E+00
 -1      3876 1.76190E+01 3.20695E+01 0.00000E+00
 -1      3877 1.07535E+02 1.69963E+01 0.00000E+00
 -1      3878 1.68870E+01 1.83438E+01 0.00000E+00
 -1      3879 1.68870E+01 1.98188E+01 0.00000E+00
 -1      3880 9.35324E+01 1.86627E+01 0.00000E+00
 -1      3881 9.43648E+01 1.97776E+01 0.00000E+00
 -1      3882 5.73870E+01 1.93878E+01 0.00000E+00
 -1      3883 5.66616E+01 1.84170E+01 0.00000E+00
 -1      3884 5.55215E+01 1.81421E+01 0.00000E+00
 -1      3885 5.64944E+01 2.04339E+01 0.00000E+00
 -1      3886 9.47850E+01 1.56973E+01 0.00000E+00
 -1      3887 9.32850E+01 1.56973E+01 0.00000E+00
 -1      3888 1.33113E+02 2.57391E+01 0.00000E+00
 -1      3889 1.33113E+02 2.42672E+01 0.00000E+00
 -1      3890 1.68870E+01 2.12938E+01 0.00000E+00
 -1      3891 1.68870E+01 2.27687E+01 0.00000E+00
 -1      3892 1.81860E+01 2.05562E+01 0.00000E+00
 -1      3893 1.32223E+02 1.87966E+01 0.00000E+00
 -1      3894 1.30035E+02 1.84634E+01 0.00000E+00
 -1      3895 1.32223E+02 2.02638E+01 0.00000E+00
 -1      3896 1.76190E+01 3.06007E+01 0.00000E+00
 -1      3897 4.97850E+01 1.56973E+01 0.00000E+00
 -1      3898 4.82850E+01 1.56973E+01 0.00000E+00
 -1      3899 4.75350E+01 1.69963E+01 0.00000E+00
 -1      3900 9.37075E+01 1.76681E+01 0.00000E+00
 -1      3901 5.81778E+01 2.80039E+01 0.00000E+00
 -1      3902 5.67599E+01 2.76174E+01 0.00000E+00
 -1      3903 9.55350E+01 1.69963E+01 0.00000E+00
 -1      3904 3.47850E+01 1.56973E+01 0.00000E+00
 -1      3905 3.32850E+01 1.56973E+01 0.00000E+00
 -1      3906 3.25350E+01 1.69963E+01 0.00000E+00
 -1      3907 5.86985E+01 2.92697E+01 0.00000E+00
 -1      3908 1.33197E+02 2.80858E+01 0.00000E+00
 -1      3909 1.33155E+02 2.69124E+01 0.00000E+00
 -1      3910 1.31856E+02 2.61765E+01 0.00000E+00
 -1      3911 5.05350E+01 1.69963E+01 0.00000E+00
 -1      3912 2.04000E+01 3.05150E+01 0.00000E+00
 -1      3913 2.19000E+01 3.05150E+01 0.00000E+00
 -1      3914 2.34000E+01 3.05150E+01 0.00000E+00
 -1      3915 2.49000E+01 3.05150E+01 0.00000E+00
 -1      3916 2.26500E+01 2.92160E+01 0.00000E+00
 -1      3917 6.06475E+01 3.35087E+01 0.00000E+00
 -1      3918 2.64000E+01 3.05150E+01 0.00000E+00
 -1      3919 2.79000E+01 3.05150E+01 0.00000E+00
 -1      3920 2.56500E+01 2.92160E+01 0.00000E+00
 -1      3921 2.94000E+01 3.05150E+01 0.00000E+00
 -1      3922 3.09000E+01 3.05150E+01 0.00000E+00
 -1      3923 2.86500E+01 2.92160E+01 0.00000E+00
 -1      3924 3.24000E+01 3.05150E+01 0.00000E+00
 -1      3925 3.39000E+01 3.05150E+01 0.00000E+00
 -1      3926 3.16500E+01 2.92160E+01 0.00000E+00
 -1      3927 3.54000E+01 3.05150E+01 0.00000E+00
 -1      3928 3.69000E+01 3.05150E+01 0.00000E+00
 -1      3929 3.46500E+01 2.92160E+01 0.00000E+00
 -1      3930 3.84000E+01 3.05150E+01 0.00000E+00
 -1      3931 3.99000E+01 3.05150E+01 0.00000E+00
 -1      3932 3.76500E+01 2.92160E+01 0.00000E+00
 -1      3933 4.14000E+01 3.05150E+01 0.00000E+00
 -1      3934 4.29000E+01 3.05150E+01 0.00000E+00
 -1      3935 4.06500E+01 2.92160E+01 0.00000E+00
 -1      3936 4.44000E+01 3.05150E+01 0.00000E+00
 -1      3937 4.59000E+01 3.05150E+01 0.00000E+00
 -1      3938 4.36500E+01 2.92160E+01 0.00000E+00
 -1      3939 4.74000E+01 3.05150E+01 0.00000E+00
 -1      3940 4.89000E+01 3.05150E+01 0.00000E+00
 -1      3941 4.66500E+01 2.92160E+01 0.00000E+00
 -1      3942 5.04000E+01 3.05150E+01 0.00000E+00
 -1      3943 5.19000E+01 3.05150E+01 0.00000E+00
 -1      3944 4.96500E+01 2.92160E+01 0.00000E+00
 -1      3945 5.34000E+01 3.05150E+01 0.00000E+00
 -1      3946 5.49000E+01 3.05150E+01 0.00000E+00
 -1      3947 5.26500E+01 2.92160E+01 0.00000E+00
 -1      3948 5.79000E+01 3.31130E+01 0.00000E+00
 -1      3949 2.87850E+01 1.56973E+01 0.00000E+00
 -1      3950 2.72850E+01 1.56973E+01 0.00000E+00
 -1      3951 2.95350E+01 1.69963E+01 0.00000E+00
 -1      3952 9.54000E+01 3.05150E+01 0.00000E+00
 -1      3953 9.69000E+01 3.05150E+01 0.00000E+00
 -1      3954 9.84000E+01 3.05150E+01 0.00000E+00
 -1      3955 9.99000E+01 3.05150E+01 0.00000E+00
 -1      3956 9.76500E+01 2.92160E+01 0.00000E+00
 -1      3957 1.01400E+02 3.05150E+01 0.00000E+00
 -1      3958 1.02900E+02 3.05150E+01 0.00000E+00
 -1      3959 1.00650E+02 2.92160E+01 0.00000E+00
 -1      3960 1.04400E+02 3.05150E+01 0.00000E+00
 -1      3961 1.05900E+02 3.05150E+01 0.00000E+00
 -1      3962 1.03650E+02 2.92160E+01 0.00000E+00
 -1      3963 1.07400E+02 3.05150E+01 0.00000E+00
 -1      3964 1.08900E+02 3.05150E+01 0.00000E+00
 -1      3965 1.06650E+02 2.92160E+01 0.00000E+00
 -1      3966 1.10400E+02 3.05150E+01 0.00000E+00
 -1      3967 1.11900E+02 3.05150E+01 0.00000E+00
 -1      3968 1.09650E+02 2.92160E+01 0.00000E+00
 -1      3969 1.13400E+02 3.05150E+01 0.00000E+00
 -1      3970 1.14900E+02 3.05150E+01 0.00000E+00
 -1      3971 1.12650E+02 2.92160E+01 0.00000E+00
 -1      3972 1.16400E+02 3.05150E+01 0.00000E+00
 -1      3973 1.17900E+02 3.05150E+01 0.00000E+00
 -1      3974 1.15650E+02 2.92160E+01 0.00000E+00
 -1      3975 1.19400E+02 3.05150E+01 0.00000E+00
 -1      3976 1.20900E+02 3.05150E+01 0.00000E+00
 -1      3977 1.18650E+02 2.92160E+01 0.00000E+00
 -1      3978 1.22400E+02 3.05150E+01 0.00000E+00
 -1      3979 1.23900E+02 3.05150E+01 0.00000E+00
 -1      3980 1.21650E+02 2.92160E+01 0.00000E+00
 -1      3981 1.25400E+02 3.05150E+01 0.00000E+00
 -1      3982 1.26900E+02 3.05150E+01 0.00000E+00
 -1      3983 1.24650E+02 2.92160E+01 0.00000E+00
 -1      3984 1.28400E+02 3.05150E+01 0.00000E+00
 -1      3985 1.29900E+02 3.05150E+01 0.00000E+00
 -1      3986 1.27650E+02 2.92160E+01 0.00000E+00
 -1      3987 1.73115E+01 1.73013E+01 0.00000E+00
 -1      3988 3.77850E+01 1.56973E+01 0.00000E+00
 -1      3989 3.62850E+01 1.56973E+01 0.00000E+00
 -1      3990 3.55350E+01 1.69963E+01 0.00000E+00
 -1      3991 3.85350E+01 1.69963E+01 0.00000E+00
 -1      3992 2.57850E+01 1.56973E+01 0.00000E+00
 -1      3993 2.42850E+01 1.56973E+01 0.00000E+00
 -1      3994 2.35350E+01 1.69963E+01 0.00000E+00
 -1      3995 2.65350E+01 1.69963E+01 0.00000E+00
 -1      3996 5.56386E+01 2.91400E+01 0.00000E+00
 -1      3997 5.52713E+01 2.76934E+01 0.00000E+00
 -1      3998 1.86105E+01 1.80388E+01 0.00000E+00
 -1      3999 1.23285E+02 1.82952E+01 0.00000E+00
 -1      4000 1.21785E+02 1.82952E+01 0.00000E+00
 -1      4001 1.20285E+02 1.82952E+01 0.00000E+00
 -1      4002 1.18785E+02 1.82952E+01 0.00000E+00
 -1      4003 1.21035E+02 1.95942E+01 0.00000E+00
 -1      4004 1.28535E+02 1.84634E+01 0.00000E+00
 -1      4005 9.58486E+01 1.96591E+01 0.00000E+00
 -1      4006 9.52420E+01 2.09802E+01 0.00000E+00
 -1      4007 1.02285E+02 1.82952E+01 0.00000E+00
 -1      4008 1.00785E+02 1.82952E+01 0.00000E+00
 -1      4009 1.08285E+02 1.82952E+01 0.00000E+00
 -1      4010 1.06785E+02 1.82952E+01 0.00000E+00
 -1      4011 9.17301E+01 2.91241E+01 0.00000E+00
 -1      4012 9.05210E+01 2.94834E+01 0.00000E+00
 -1      4013 5.12850E+01 1.82952E+01 0.00000E+00
 -1      4014 4.97850E+01 1.82952E+01 0.00000E+00
 -1      4015 1.14285E+02 1.82952E+01 0.00000E+00
 -1      4016 1.12785E+02 1.82952E+01 0.00000E+00
 -1      4017 9.53581E+01 2.26084E+01 0.00000E+00
 -1      4018 9.54742E+01 2.42366E+01 0.00000E+00
 -1      4019 9.68419E+01 2.24899E+01 0.00000E+00
 -1      4020 1.69785E+01 2.86095E+01 0.00000E+00
 -1      4021 1.90095E+01 2.98227E+01 0.00000E+00
 -1      4022 1.97595E+01 2.85237E+01 0.00000E+00
 -1      4023 1.69785E+01 2.71392E+01 0.00000E+00
 -1      4024 1.32668E+02 2.29991E+01 0.00000E+00
 -1      4025 1.32668E+02 2.15319E+01 0.00000E+00
 -1      4026 1.30480E+02 2.11987E+01 0.00000E+00
 -1      4027 1.31369E+02 2.37350E+01 0.00000E+00
 -1      4028 9.06220E+01 3.07438E+01 0.00000E+00
 -1      4029 1.26285E+02 1.82952E+01 0.00000E+00
 -1      4030 1.24785E+02 1.82952E+01 0.00000E+00
 -1      4031 1.24035E+02 1.95942E+01 0.00000E+00
 -1      4032 1.33418E+02 3.02945E+01 0.00000E+00
 -1      4033 1.33376E+02 2.91212E+01 0.00000E+00
 -1      4034 1.32077E+02 2.83852E+01 0.00000E+00
 -1      4035 1.32436E+02 3.04559E+01 0.00000E+00
 -1      4036 1.11285E+02 1.82952E+01 0.00000E+00
 -1      4037 1.09785E+02 1.82952E+01 0.00000E+00
 -1      4038 1.09035E+02 1.95942E+01 0.00000E+00
 -1      4039 1.12035E+02 1.95942E+01 0.00000E+00
 -1      4040 1.17285E+02 1.82952E+01 0.00000E+00
 -1      4041 1.15785E+02 1.82952E+01 0.00000E+00
 -1      4042 1.18035E+02 1.95942E+01 0.00000E+00
 -1      4043 5.41532E+01 1.82187E+01 0.00000E+00
 -1      4044 5.26532E+01 1.82187E+01 0.00000E+00
 -1      4045 5.19032E+01 1.95177E+01 0.00000E+00
 -1      4046 5.46397E+01 1.93646E+01 0.00000E+00
 -1      4047 1.05285E+02 1.82952E+01 0.00000E+00
 -1      4048 1.03785E+02 1.82952E+01 0.00000E+00
 -1      4049 1.06035E+02 1.95942E+01 0.00000E+00
 -1      4050 9.40573E+01 2.84576E+01 0.00000E+00
 -1      4051 9.38228E+01 2.98824E+01 0.00000E+00
 -1      4052 2.01105E+01 1.80388E+01 0.00000E+00
 -1      4053 1.96860E+01 1.90812E+01 0.00000E+00
 -1      4054 2.16105E+01 1.80388E+01 0.00000E+00
 -1      4055 4.22850E+01 1.82952E+01 0.00000E+00
 -1      4056 4.07850E+01 1.82952E+01 0.00000E+00
 -1      4057 3.02850E+01 1.82952E+01 0.00000E+00
 -1      4058 2.87850E+01 1.82952E+01 0.00000E+00
 -1      4059 5.63886E+01 3.04390E+01 0.00000E+00
 -1      4060 1.96860E+01 2.05562E+01 0.00000E+00
 -1      4061 3.32850E+01 1.82952E+01 0.00000E+00
 -1      4062 3.17850E+01 1.82952E+01 0.00000E+00
 -1      4063 3.10350E+01 1.95942E+01 0.00000E+00
 -1      4064 1.31453E+02 3.06173E+01 0.00000E+00
 -1      4065 1.15035E+02 1.95942E+01 0.00000E+00
 -1      4066 5.56780E+01 2.16559E+01 0.00000E+00
 -1      4067 5.51915E+01 2.05100E+01 0.00000E+00
 -1      4068 5.48616E+01 2.28779E+01 0.00000E+00
 -1      4069 4.37850E+01 1.82952E+01 0.00000E+00
 -1      4070 4.30350E+01 1.95942E+01 0.00000E+00
 -1      4071 4.52850E+01 1.82952E+01 0.00000E+00
 -1      4072 1.03035E+02 1.95942E+01 0.00000E+00
 -1      4073 9.91304E+01 2.02280E+01 0.00000E+00
 -1      4074 9.83804E+01 1.89290E+01 0.00000E+00
 -1      4075 5.36995E+01 2.79180E+01 0.00000E+00
 -1      4076 5.48208E+01 2.63954E+01 0.00000E+00
 -1      4077 5.42986E+01 2.53219E+01 0.00000E+00
 -1      4078 5.21995E+01 2.79180E+01 0.00000E+00
 -1      4079 9.15728E+01 3.11814E+01 0.00000E+00
 -1      4080 9.06992E+01 3.13764E+01 0.00000E+00
 -1      4081 1.69328E+01 2.42188E+01 0.00000E+00
 -1      4082 1.69328E+01 2.56891E+01 0.00000E+00
 -1      4083 1.83232E+01 2.63814E+01 0.00000E+00
 -1      4084 1.82318E+01 2.34813E+01 0.00000E+00
 -1      4085 9.57597E+01 2.54088E+01 0.00000E+00
 -1      4086 1.30366E+02 2.47990E+01 0.00000E+00
 -1      4087 1.29921E+02 2.35308E+01 0.00000E+00
 -1      4088 1.27785E+02 1.97624E+01 0.00000E+00
 -1      4089 9.68804E+01 1.89290E+01 0.00000E+00
 -1      4090 4.82850E+01 1.82952E+01 0.00000E+00
 -1      4091 4.67850E+01 1.82952E+01 0.00000E+00
 -1      4092 4.60350E+01 1.95942E+01 0.00000E+00
 -1      4093 9.32393E+01 1.69380E+01 0.00000E+00
 -1      4094 1.30703E+02 2.93183E+01 0.00000E+00
 -1      4095 1.30482E+02 2.71096E+01 0.00000E+00
 -1      4096 1.29034E+02 2.69054E+01 0.00000E+00
 -1      4097 4.90350E+01 1.95942E+01 0.00000E+00
 -1      4098 9.30728E+01 3.11814E+01 0.00000E+00
 -1      4099 1.27534E+02 2.69054E+01 0.00000E+00
 -1      4100 2.49000E+01 2.79170E+01 0.00000E+00
 -1      4101 2.64000E+01 2.79170E+01 0.00000E+00
 -1      4102 2.79000E+01 2.79170E+01 0.00000E+00
 -1      4103 2.94000E+01 2.79170E+01 0.00000E+00
 -1      4104 2.71500E+01 2.66180E+01 0.00000E+00
 -1      4105 3.09000E+01 2.79170E+01 0.00000E+00
 -1      4106 3.24000E+01 2.79170E+01 0.00000E+00
 -1      4107 3.01500E+01 2.66180E+01 0.00000E+00
 -1      4108 3.39000E+01 2.79170E+01 0.00000E+00
 -1      4109 3.54000E+01 2.79170E+01 0.00000E+00
 -1      4110 3.31500E+01 2.66180E+01 0.00000E+00
 -1      4111 3.69000E+01 2.79170E+01 0.00000E+00
 -1      4112 3.84000E+01 2.79170E+01 0.00000E+00
 -1      4113 3.61500E+01 2.66180E+01 0.00000E+00
 -1      4114 3.99000E+01 2.79170E+01 0.00000E+00
 -1      4115 4.14000E+01 2.79170E+01 0.00000E+00
 -1      4116 3.91500E+01 2.66180E+01 0.00000E+00
 -1      4117 4.29000E+01 2.79170E+01 0.00000E+00
 -1      4118 4.44000E+01 2.79170E+01 0.00000E+00
 -1      4119 4.21500E+01 2.66180E+01 0.00000E+00
 -1      4120 4.59000E+01 2.79170E+01 0.00000E+00
 -1      4121 4.74000E+01 2.79170E+01 0.00000E+00
 -1      4122 4.51500E+01 2.66180E+01 0.00000E+00
 -1      4123 4.89000E+01 2.79170E+01 0.00000E+00
 -1      4124 5.04000E+01 2.79170E+01 0.00000E+00
 -1      4125 4.81500E+01 2.66180E+01 0.00000E+00
 -1      4126 9.69000E+01 2.79170E+01 0.00000E+00
 -1      4127 9.84000E+01 2.79170E+01 0.00000E+00
 -1      4128 2.80350E+01 1.95943E+01 0.00000E+00
 -1      4129 2.72850E+01 1.82953E+01 0.00000E+00
 -1      4130 2.57850E+01 1.82953E+01 0.00000E+00
 -1      4131 9.99000E+01 2.79170E+01 0.00000E+00
 -1      4132 1.01400E+02 2.79170E+01 0.00000E+00
 -1      4133 9.91500E+01 2.66180E+01 0.00000E+00
 -1      4134 1.02900E+02 2.79170E+01 0.00000E+00
 -1      4135 1.04400E+02 2.79170E+01 0.00000E+00
 -1      4136 1.02150E+02 2.66180E+01 0.00000E+00
 -1      4137 1.05900E+02 2.79170E+01 0.00000E+00
 -1      4138 1.07400E+02 2.79170E+01 0.00000E+00
 -1      4139 1.05150E+02 2.66180E+01 0.00000E+00
 -1      4140 1.08900E+02 2.79170E+01 0.00000E+00
 -1      4141 1.10400E+02 2.79170E+01 0.00000E+00
 -1      4142 1.08150E+02 2.66180E+01 0.00000E+00
 -1      4143 1.11900E+02 2.79170E+01 0.00000E+00
 -1      4144 1.13400E+02 2.79170E+01 0.00000E+00
 -1      4145 1.11150E+02 2.66180E+01 0.00000E+00
 -1      4146 1.14900E+02 2.79170E+01 0.00000E+00
 -1      4147 1.16400E+02 2.79170E+01 0.00000E+00
 -1      4148 1.14150E+02 2.66180E+01 0.00000E+00
 -1      4149 1.17900E+02 2.79170E+01 0.00000E+00
 -1      4150 1.19400E+02 2.79170E+01 0.00000E+00
 -1      4151 1.17150E+02 2.66180E+01 0.00000E+00
 -1      4152 1.20900E+02 2.79170E+01 0.00000E+00
 -1      4153 1.22400E+02 2.79170E+01 0.00000E+00
 -1      4154 1.20150E+02 2.66180E+01 0.00000E+00
 -1      4155 1.23900E+02 2.79170E+01 0.00000E+00
 -1      4156 1.25400E+02 2.79170E+01 0.00000E+00
 -1      4157 1.23150E+02 2.66180E+01 0.00000E+00
 -1      4158 9.92465E+01 2.18562E+01 0.00000E+00
 -1      4159 9.93626E+01 2.34844E+01 0.00000E+00
 -1      4160 1.01651E+02 2.12225E+01 0.00000E+00
 -1      4161 1.18785E+02 2.08932E+01 0.00000E+00
 -1      4162 1.17285E+02 2.08932E+01 0.00000E+00
 -1      4163 1.29075E+02 2.22807E+01 0.00000E+00
 -1      4164 1.28631E+02 2.10126E+01 0.00000E+00
 -1      4165 1.26381E+02 2.08444E+01 0.00000E+00
 -1      4166 1.28072E+02 2.33447E+01 0.00000E+00
 -1      4167 1.21785E+02 2.08932E+01 0.00000E+00
 -1      4168 1.20285E+02 2.08932E+01 0.00000E+00
 -1      4169 1.19535E+02 2.21922E+01 0.00000E+00
 -1      4170 9.53557E+01 2.79578E+01 0.00000E+00
 -1      4171 1.24785E+02 2.08932E+01 0.00000E+00
 -1      4172 1.23285E+02 2.08932E+01 0.00000E+00
 -1      4173 1.22535E+02 2.21922E+01 0.00000E+00
 -1      4174 9.73040E+01 2.53681E+01 0.00000E+00
 -1      4175 9.61057E+01 2.66588E+01 0.00000E+00
 -1      4176 4.97850E+01 2.08932E+01 0.00000E+00
 -1      4177 4.82850E+01 2.08932E+01 0.00000E+00
 -1      4178 1.03151E+02 2.12225E+01 0.00000E+00
 -1      4179 1.15785E+02 2.08932E+01 0.00000E+00
 -1      4180 1.14285E+02 2.08932E+01 0.00000E+00
 -1      4181 1.16535E+02 2.21922E+01 0.00000E+00
 -1      4182 1.06785E+02 2.08932E+01 0.00000E+00
 -1      4183 1.05285E+02 2.08932E+01 0.00000E+00
 -1      4184 2.13468E+01 2.07450E+01 0.00000E+00
 -1      4185 1.98468E+01 2.22200E+01 0.00000E+00
 -1      4186 2.26532E+01 1.83494E+01 0.00000E+00
 -1      4187 2.22286E+01 1.93919E+01 0.00000E+00
 -1      4188 2.23894E+01 2.10556E+01 0.00000E+00
 -1      4189 2.41532E+01 1.83494E+01 0.00000E+00
 -1      4190 2.19000E+01 2.79170E+01 0.00000E+00
 -1      4191 2.34000E+01 2.79170E+01 0.00000E+00
 -1      4192 2.41500E+01 2.66180E+01 0.00000E+00
 -1      4193 1.26784E+02 2.56064E+01 0.00000E+00
 -1      4194 4.00350E+01 1.95942E+01 0.00000E+00
 -1      4195 3.92850E+01 1.82952E+01 0.00000E+00
 -1      4196 3.77850E+01 1.82952E+01 0.00000E+00
 -1      4197 1.25938E+02 2.43563E+01 0.00000E+00
 -1      4198 9.45032E+01 1.77264E+01 0.00000E+00
 -1      4199 1.09785E+02 2.08932E+01 0.00000E+00
 -1      4200 1.08285E+02 2.08932E+01 0.00000E+00
 -1      4201 1.07535E+02 2.21922E+01 0.00000E+00
 -1      4202 3.47850E+01 1.82952E+01 0.00000E+00
 -1      4203 3.40350E+01 1.95942E+01 0.00000E+00
 -1      4204 3.62850E+01 1.82952E+01 0.00000E+00
 -1      4205 5.14495E+01 2.66190E+01 0.00000E+00
 -1      4206 1.25631E+02 2.21434E+01 0.00000E+00
 -1      4207 3.17850E+01 2.08932E+01 0.00000E+00
 -1      4208 3.02850E+01 2.08932E+01 0.00000E+00
 -1      4209 1.30524E+02 2.82829E+01 0.00000E+00
 -1      4210 1.03901E+02 2.25215E+01 0.00000E+00
 -1      4211 9.60032E+01 1.77264E+01 0.00000E+00
 -1      4212 5.24990E+01 2.53209E+01 0.00000E+00
 -1      4213 5.35486E+01 2.40229E+01 0.00000E+00
 -1      4214 5.06995E+01 2.53200E+01 0.00000E+00
 -1      4215 4.67850E+01 2.08932E+01 0.00000E+00
 -1      4216 4.52850E+01 2.08932E+01 0.00000E+00
 -1      4217 4.75350E+01 2.21922E+01 0.00000E+00
 -1      4218 5.11420E+01 2.18081E+01 0.00000E+00
 -1      4219 5.03920E+01 2.31071E+01 0.00000E+00
 -1      4220 1.98925E+01 2.36700E+01 0.00000E+00
 -1      4221 5.38233E+01 2.05866E+01 0.00000E+00
 -1      4222 5.25103E+01 2.17315E+01 0.00000E+00
 -1      4223 2.87850E+01 2.08933E+01 0.00000E+00
 -1      4224 2.72850E+01 2.08933E+01 0.00000E+00
 -1      4225 2.95350E+01 2.21923E+01 0.00000E+00
 -1      4226 4.37850E+01 2.08932E+01 0.00000E+00
 -1      4227 4.22850E+01 2.08932E+01 0.00000E+00
 -1      4228 4.45350E+01 2.21922E+01 0.00000E+00
 -1      4229 4.15350E+01 2.21922E+01 0.00000E+00
 -1      4230 4.07850E+01 2.08932E+01 0.00000E+00
 -1      4231 3.92850E+01 2.08932E+01 0.00000E+00
 -1      4232 1.12785E+02 2.08932E+01 0.00000E+00
 -1      4233 1.11285E+02 2.08932E+01 0.00000E+00
 -1      4234 1.10535E+02 2.21922E+01 0.00000E+00
 -1      4235 1.13535E+02 2.21922E+01 0.00000E+00
 -1      4236 1.94164E+01 2.68031E+01 0.00000E+00
 -1      4237 2.08069E+01 2.74953E+01 0.00000E+00
 -1      4238 2.15569E+01 2.61963E+01 0.00000E+00
 -1      4239 1.93706E+01 2.53530E+01 0.00000E+00
 -1      4240 2.64000E+01 2.53190E+01 0.00000E+00
 -1      4241 2.79000E+01 2.53190E+01 0.00000E+00
 -1      4242 1.01209E+02 2.47343E+01 0.00000E+00
 -1      4243 9.88040E+01 2.53681E+01 0.00000E+00
 -1      4244 2.98425E+01 2.44051E+01 0.00000E+00
 -1      4245 3.13425E+01 2.44051E+01 0.00000E+00
 -1      4246 3.54000E+01 2.53190E+01 0.00000E+00
 -1      4247 3.69000E+01 2.53190E+01 0.00000E+00
 -1      4248 3.88425E+01 2.44051E+01 0.00000E+00
 -1      4249 4.03425E+01 2.44051E+01 0.00000E+00
 -1      4250 4.18425E+01 2.44051E+01 0.00000E+00
 -1      4251 4.33425E+01 2.44051E+01 0.00000E+00
 -1      4252 4.48425E+01 2.44051E+01 0.00000E+00
 -1      4253 4.63425E+01 2.44051E+01 0.00000E+00
 -1      4254 1.24342E+02 2.44051E+01 0.00000E+00
 -1      4255 1.22842E+02 2.44051E+01 0.00000E+00
 -1      4256 1.21342E+02 2.44051E+01 0.00000E+00
 -1      4257 2.49032E+01 1.96484E+01 0.00000E+00
 -1      4258 1.02709E+02 2.47343E+01 0.00000E+00
 -1      4259 1.04842E+02 2.44051E+01 0.00000E+00
 -1      4260 1.06342E+02 2.44051E+01 0.00000E+00
 -1      4261 1.07842E+02 2.44051E+01 0.00000E+00
 -1      4262 1.09342E+02 2.44051E+01 0.00000E+00
 -1      4263 1.10842E+02 2.44051E+01 0.00000E+00
 -1      4264 1.12342E+02 2.44051E+01 0.00000E+00
 -1      4265 1.13842E+02 2.44051E+01 0.00000E+00
 -1      4266 1.15342E+02 2.44051E+01 0.00000E+00
 -1      4267 1.16842E+02 2.44051E+01 0.00000E+00
 -1      4268 1.18342E+02 2.44051E+01 0.00000E+00
 -1      4269 1.19842E+02 2.44051E+01 0.00000E+00
 -1      4270 5.30621E+01 2.28770E+01 0.00000E+00
 -1      4271 3.32850E+01 2.08932E+01 0.00000E+00
 -1      4272 3.25350E+01 2.21922E+01 0.00000E+00
 -1      4273 3.47850E+01 2.08932E+01 0.00000E+00
 -1      4274 3.28425E+01 2.44051E+01 0.00000E+00
 -1      4275 4.93425E+01 2.44051E+01 0.00000E+00
 -1      4276 2.09857E+01 2.40917E+01 0.00000E+00
 -1      4277 3.70350E+01 1.95942E+01 0.00000E+00
 -1      4278 4.78425E+01 2.44051E+01 0.00000E+00
 -1      4279 2.34000E+01 2.53190E+01 0.00000E+00
 -1      4280 2.49000E+01 2.53190E+01 0.00000E+00
 -1      4281 2.56500E+01 2.40200E+01 0.00000E+00
 -1      4282 3.43425E+01 2.44051E+01 0.00000E+00
 -1      4283 3.50925E+01 2.31061E+01 0.00000E+00
 -1      4284 2.90925E+01 2.31061E+01 0.00000E+00
 -1      4285 3.80925E+01 2.31061E+01 0.00000E+00
 -1      4286 2.56532E+01 2.09474E+01 0.00000E+00
 -1      4287 2.40213E+01 2.10015E+01 0.00000E+00
 -1      4288 2.31394E+01 2.23546E+01 0.00000E+00
 -1      4289 2.64032E+01 2.22464E+01 0.00000E+00
 -1      4290 2.20788E+01 2.45133E+01 0.00000E+00
 -1      4291 2.28288E+01 2.32143E+01 0.00000E+00
 -1      4292 2.44606E+01 2.31602E+01 0.00000E+00
 -1      4293 3.73425E+01 2.18071E+01 0.00000E+00
 -1      4294 2.59606E+01 2.31602E+01 0.00000E+00
 -1      4295 3.58425E+01 2.18071E+01 0.00000E+00
 -1      4296 2.75925E+01 2.31061E+01 0.00000E+00
 -3
    3C                          2066                                     1
 -1       165    8    0    1
 -2         6         7        23      1116      1280      1133
 -1       166    8    0    1
 -2         7         8       165      1117      1281      1282
 -1       167    8    0    1
 -2         8         9       166      1118      1283      1284
 -1       168    8    0    1
 -2         8       166       165      1284      1285      1281
 -1       169    8    0    1
 -2         9        10       167      1119      1286      1287
 -1       170    8    0    1
 -2         9       167       166      1287      1288      1283
 -1       171    8    0    1
 -2        10        11       168      1120      1289      1290
 -1       172    8    0    1
 -2        10       168       167      1290      1291      1286
 -1       173    8    0    1
 -2        11        12       169      1121      1292      1293
 -1       174    8    0    1
 -2        11       169       168      1293      1294      1289
 -1       175    8    0    1
 -2        12        13       170      1122      1295      1296
 -1       176    8    0    1
 -2        12       170       169      1296      1297      1292
 -1       177    8    0    1
 -2        13        14       171      1123      1298      1299
 -1       178    8    0    1
 -2        13       171       170      1299      1300      1295
 -1       179    8    0    1
 -2        14        15       172      1124      1301      1302
 -1       180    8    0    1
 -2        14       172       171      1302      1303      1298
 -1       181    8    0    1
 -2        15        16       173      1125      1304      1305
 -1       182    8    0    1
 -2        15       173       172      1305      1306      1301
 -1       183    8    0    1
 -2        16        17       174      1126      1307      1308
 -1       184    8    0    1
 -2        16       174       173      1308      1309      1304
 -1       185    8    0    1
 -2        17        18       175      1127      1310      1311
 -1       186    8    0    1
 -2        17       175       174      1311      1312      1307
 -1       187    8    0    1
 -2        18        19       176      1128      1313      1314
 -1       188    8    0    1
 -2        18       176       175      1314      1315      1310
 -1       189    8    0    1
 -2        19        20       177      1129      1316      1317
 -1       190    8    0    1
 -2        19       177       176      1317      1318      1313
 -1       191    8    0    1
 -2        20        21       178      1130      1319      1320
 -1       192    8    0    1
 -2        20       178       177      1320      1321      1316
 -1       193    8    0    1
 -2        21        22       179      1131      1322      1323
 -1       194    8    0    1
 -2        21       179       178      1323      1324      1319
 -1       195    8    0    1
 -2        22         5       180      1132      1325      1326
 -1       196    8    0    1
 -2       179        22       180      1322      1326      1327
 -1       197    8    0    1
 -2         5        72       180      1183      1328      1325
 -1       198    8    0    1
 -2        24        23       181      1134      1329      1330
 -1       199    8    0    1
 -2        25        24       182      1135      1331      1332
 -1       200    8    0    1
 -2        24       181       182      1330      1333      1331
 -1       201    8    0    1
 -2        26        25       183      1136      1334      1335
 -1       202    8    0    1
 -2        25       182       183      1332      1336      1334
 -1       203    8    0    1
 -2        27        26       184      1137      1337      1338
 -1       204    8    0    1
 -2        26       183       184      1335      1339      1337
 -1       205    8    0    1
 -2        28        27       185      1138      1340      1341
 -1       206    8    0    1
 -2        27       184       185      1338      1342      1340
 -1       207    8    0    1
 -2        29        28       186      1139      1343      1344
 -1       208    8    0    1
 -2        28       185       186      1341      1345      1343
 -1       209    8    0    1
 -2        30        29       187      1140      1346      1347
 -1       210    8    0    1
 -2        29       186       187      1344      1348      1346
 -1       211    8    0    1
 -2        31        30       188      1141      1349      1350
 -1       212    8    0    1
 -2        30       187       188      1347      1351      1349
 -1       213    8    0    1
 -2        32        31       189      1142      1352      1353
 -1       214    8    0    1
 -2        31       188       189      1350      1354      1352
 -1       215    8    0    1
 -2        33        32       190      1143      1355      1356
 -1       216    8    0    1
 -2        32       189       190      1353      1357      1355
 -1       217    8    0    1
 -2        34        33       191      1144      1358      1359
 -1       218    8    0    1
 -2        33       190       191      1356      1360      1358
 -1       219    8    0    1
 -2        35        34       192      1145      1361      1362
 -1       220    8    0    1
 -2        34       191       192      1359      1363      1361
 -1       221    8    0    1
 -2        36        35       193      1146      1364      1365
 -1       222    8    0    1
 -2        35       192       193      1362      1366      1364
 -1       223    8    0    1
 -2        37        36       194      1147      1367      1368
 -1       224    8    0    1
 -2        36       193       194      1365      1369      1367
 -1       225    8    0    1
 -2        38        37       195      1148      1370      1371
 -1       226    8    0    1
 -2        37       194       195      1368      1372      1370
 -1       227    8    0    1
 -2        39        38       196      1149      1373      1374
 -1       228    8    0    1
 -2        38       195       196      1371      1375      1373
 -1       229    8    0    1
 -2        40        39       197      1150      1376      1377
 -1       230    8    0    1
 -2        39       196       197      1374      1378      1376
 -1       231    8    0    1
 -2        41        40       198      1151      1379      1380
 -1       232    8    0    1
 -2        40       197       198      1377      1381      1379
 -1       233    8    0    1
 -2        42        41       199      1152      1382      1383
 -1       234    8    0    1
 -2        41       198       199      1380      1384      1382
 -1       235    8    0    1
 -2        43        42       200      1153      1385      1386
 -1       236    8    0    1
 -2        42       199       200      1383      1387      1385
 -1       237    8    0    1
 -2        44        43       201      1154      1388      1389
 -1       238    8    0    1
 -2        43       200       201      1386      1390      1388
 -1       239    8    0    1
 -2        45        44       202      1155      1391      1392
 -1       240    8    0    1
 -2        44       201       202      1389      1393      1391
 -1       241    8    0    1
 -2        46        45       203      1156      1394      1395
 -1       242    8    0    1
 -2        45       202       203      1392      1396      1394
 -1       243    8    0    1
 -2        47        46       204      1157      1397      1398
 -1       244    8    0    1
 -2        46       203       204      1395      1399      1397
 -1       245    8    0    1
 -2        48        47       205      1158      1400      1401
 -1       246    8    0    1
 -2        47       204       205      1398      1402      1400
 -1       247    8    0    1
 -2        49        48       206      1159      1403      1404
 -1       248    8    0    1
 -2        48       205       206      1401      1405      1403
 -1       249    8    0    1
 -2        50        49       207      1160      1406      1407
 -1       250    8    0    1
 -2        49       206       207      1404      1408      1406
 -1       251    8    0    1
 -2        51        50       208      1161      1409      1410
 -1       252    8    0    1
 -2        50       207       208      1407      1411      1409
 -1       253    8    0    1
 -2        52        51       209      1162      1412      1413
 -1       254    8    0    1
 -2        51       208       209      1410      1414      1412
 -1       255    8    0    1
 -2        53        52       210      1163      1415      1416
 -1       256    8    0    1
 -2        52       209       210      1413      1417      1415
 -1       257    8    0    1
 -2        54        53       211      1164      1418      1419
 -1       258    8    0    1
 -2        53       210       211      1416      1420      1418
 -1       259    8    0    1
 -2        55        54       212      1165      1421      1422
 -1       260    8    0    1
 -2        54       211       212      1419      1423      1421
 -1       261    8    0    1
 -2        56        55       213      1166      1424      1425
 -1       262    8    0    1
 -2        55       212       213      1422      1426      1424
 -1       263    8    0    1
 -2        57        56       214      1167      1427      1428
 -1       264    8    0    1
 -2        56       213       214      1425      1429      1427
 -1       265    8    0    1
 -2        58        57       215      1168      1430      1431
 -1       266    8    0    1
 -2        57       214       215      1428      1432      1430
 -1       267    8    0    1
 -2        59        58       216      1169      1433      1434
 -1       268    8    0    1
 -2        58       215       216      1431      1435      1433
 -1       269    8    0    1
 -2        60        59       217      1170      1436      1437
 -1       270    8    0    1
 -2        59       216       217      1434      1438      1436
 -1       271    8    0    1
 -2        61        60       218      1171      1439      1440
 -1       272    8    0    1
 -2        60       217       218      1437      1441      1439
 -1       273    8    0    1
 -2        62        61       219      1172      1442      1443
 -1       274    8    0    1
 -2        61       218       219      1440      1444      1442
 -1       275    8    0    1
 -2        63        62       220      1173      1445      1446
 -1       276    8    0    1
 -2        62       219       220      1443      1447      1445
 -1       277    8    0    1
 -2        64        63       221      1174      1448      1449
 -1       278    8    0    1
 -2        63       220       221      1446      1450      1448
 -1       279    8    0    1
 -2        65        64       222      1175      1451      1452
 -1       280    8    0    1
 -2        64       221       222      1449      1453      1451
 -1       281    8    0    1
 -2        66        65       223      1176      1454      1455
 -1       282    8    0    1
 -2        65       222       223      1452      1456      1454
 -1       283    8    0    1
 -2        67        66       224      1177      1457      1458
 -1       284    8    0    1
 -2        66       223       224      1455      1459      1457
 -1       285    8    0    1
 -2        68        67       225      1178      1460      1461
 -1       286    8    0    1
 -2        67       224       225      1458      1462      1460
 -1       287    8    0    1
 -2        69        68       226      1179      1463      1464
 -1       288    8    0    1
 -2        68       225       226      1461      1465      1463
 -1       289    8    0    1
 -2        70        69       227      1180      1466      1467
 -1       290    8    0    1
 -2        69       226       227      1464      1468      1466
 -1       291    8    0    1
 -2        71        70       228      1181      1469      1470
 -1       292    8    0    1
 -2        70       227       228      1467      1471      1469
 -1       293    8    0    1
 -2         4        71       136      1182      1472      1249
 -1       294    8    0    1
 -2       136        71       228      1472      1470      1473
 -1       295    8    0    1
 -2        72        73       229      1184      1474      1475
 -1       296    8    0    1
 -2        72       229       180      1475      1476      1328
 -1       297    8    0    1
 -2        73        74       230      1185      1477      1478
 -1       298    8    0    1
 -2        73       230       229      1478      1479      1474
 -1       299    8    0    1
 -2        74        75       231      1186      1480      1481
 -1       300    8    0    1
 -2        74       231       230      1481      1482      1477
 -1       301    8    0    1
 -2        75        76       232      1187      1483      1484
 -1       302    8    0    1
 -2        75       232       231      1484      1485      1480
 -1       303    8    0    1
 -2        76        77       233      1188      1486      1487
 -1       304    8    0    1
 -2        76       233       232      1487      1488      1483
 -1       305    8    0    1
 -2        77        78       234      1189      1489      1490
 -1       306    8    0    1
 -2        77       234       233      1490      1491      1486
 -1       307    8    0    1
 -2        78        79       235      1190      1492      1493
 -1       308    8    0    1
 -2        78       235       234      1493      1494      1489
 -1       309    8    0    1
 -2        79        80       236      1191      1495      1496
 -1       310    8    0    1
 -2        79       236       235      1496      1497      1492
 -1       311    8    0    1
 -2        80        81       237      1192      1498      1499
 -1       312    8    0    1
 -2        80       237       236      1499      1500      1495
 -1       313    8    0    1
 -2        81        82       238      1193      1501      1502
 -1       314    8    0    1
 -2        81       238       237      1502      1503      1498
 -1       315    8    0    1
 -2        82        83       239      1194      1504      1505
 -1       316    8    0    1
 -2        82       239       238      1505      1506      1501
 -1       317    8    0    1
 -2        83        84       240      1195      1507      1508
 -1       318    8    0    1
 -2        83       240       239      1508      1509      1504
 -1       319    8    0    1
 -2        84        85       241      1196      1510      1511
 -1       320    8    0    1
 -2        84       241       240      1511      1512      1507
 -1       321    8    0    1
 -2        85        86       242      1197      1513      1514
 -1       322    8    0    1
 -2        85       242       241      1514      1515      1510
 -1       323    8    0    1
 -2        86        87       243      1198      1516      1517
 -1       324    8    0    1
 -2        86       243       242      1517      1518      1513
 -1       325    8    0    1
 -2        87        88       244      1199      1519      1520
 -1       326    8    0    1
 -2        87       244       243      1520      1521      1516
 -1       327    8    0    1
 -2        88        89       245      1200      1522      1523
 -1       328    8    0    1
 -2        88       245       244      1523      1524      1519
 -1       329    8    0    1
 -2        89        90       246      1201      1525      1526
 -1       330    8    0    1
 -2        89       246       245      1526      1527      1522
 -1       331    8    0    1
 -2        90        91       247      1202      1528      1529
 -1       332    8    0    1
 -2        90       247       246      1529      1530      1525
 -1       333    8    0    1
 -2        91        92       248      1203      1531      1532
 -1       334    8    0    1
 -2        91       248       247      1532      1533      1528
 -1       335    8    0    1
 -2        92        93       249      1204      1534      1535
 -1       336    8    0    1
 -2        92       249       248      1535      1536      1531
 -1       337    8    0    1
 -2        93        94       250      1205      1537      1538
 -1       338    8    0    1
 -2        93       250       249      1538      1539      1534
 -1       339    8    0    1
 -2        94        95       251      1206      1540      1541
 -1       340    8    0    1
 -2        94       251       250      1541      1542      1537
 -1       341    8    0    1
 -2        95        96       252      1207      1543      1544
 -1       342    8    0    1
 -2        95       252       251      1544      1545      1540
 -1       343    8    0    1
 -2        96        97       253      1208      1546      1547
 -1       344    8    0    1
 -2        96       253       252      1547      1548      1543
 -1       345    8    0    1
 -2        97        98       254      1209      1549      1550
 -1       346    8    0    1
 -2        97       254       253      1550      1551      1546
 -1       347    8    0    1
 -2        98        99       255      1210      1552      1553
 -1       348    8    0    1
 -2        98       255       254      1553      1554      1549
 -1       349    8    0    1
 -2        99       100       256      1211      1555      1556
 -1       350    8    0    1
 -2        99       256       255      1556      1557      1552
 -1       351    8    0    1
 -2       100       101       257      1212      1558      1559
 -1       352    8    0    1
 -2       100       257       256      1559      1560      1555
 -1       353    8    0    1
 -2       101       102       258      1213      1561      1562
 -1       354    8    0    1
 -2       101       258       257      1562      1563      1558
 -1       355    8    0    1
 -2       102       103       259      1214      1564      1565
 -1       356    8    0    1
 -2       102       259       258      1565      1566      1561
 -1       357    8    0    1
 -2       103       104       260      1215      1567      1568
 -1       358    8    0    1
 -2       103       260       259      1568      1569      1564
 -1       359    8    0    1
 -2       104       105       261      1216      1570      1571
 -1       360    8    0    1
 -2       104       261       260      1571      1572      1567
 -1       361    8    0    1
 -2       105       106       262      1217      1573      1574
 -1       362    8    0    1
 -2       105       262       261      1574      1575      1570
 -1       363    8    0    1
 -2       106       107       263      1218      1576      1577
 -1       364    8    0    1
 -2       106       263       262      1577      1578      1573
 -1       365    8    0    1
 -2       107       108       264      1219      1579      1580
 -1       366    8    0    1
 -2       107       264       263      1580      1581      1576
 -1       367    8    0    1
 -2       108       109       265      1220      1582      1583
 -1       368    8    0    1
 -2       108       265       264      1583      1584      1579
 -1       369    8    0    1
 -2       109       110       266      1221      1585      1586
 -1       370    8    0    1
 -2       109       266       265      1586      1587      1582
 -1       371    8    0    1
 -2       110       111       267      1222      1588      1589
 -1       372    8    0    1
 -2       110       267       266      1589      1590      1585
 -1       373    8    0    1
 -2       111       112       268      1223      1591      1592
 -1       374    8    0    1
 -2       111       268       267      1592      1593      1588
 -1       375    8    0    1
 -2       112       113       269      1224      1594      1595
 -1       376    8    0    1
 -2       112       269       268      1595      1596      1591
 -1       377    8    0    1
 -2       113       114       270      1225      1597      1598
 -1       378    8    0    1
 -2       113       270       269      1598      1599      1594
 -1       379    8    0    1
 -2       114       115       271      1226      1600      1601
 -1       380    8    0    1
 -2       114       271       270      1601      1602      1597
 -1       381    8    0    1
 -2       115       116       272      1227      1603      1604
 -1       382    8    0    1
 -2       115       272       271      1604      1605      1600
 -1       383    8    0    1
 -2       116       117       273      1228      1606      1607
 -1       384    8    0    1
 -2       116       273       272      1607      1608      1603
 -1       385    8    0    1
 -2       117       118       274      1229      1609      1610
 -1       386    8    0    1
 -2       117       274       273      1610      1611      1606
 -1       387    8    0    1
 -2       118       119       275      1230      1612      1613
 -1       388    8    0    1
 -2       118       275       274      1613      1614      1609
 -1       389    8    0    1
 -2       119       120       276      1231      1615      1616
 -1       390    8    0    1
 -2       119       276       275      1616      1617      1612
 -1       391    8    0    1
 -2       120         3       121      1232      1233      1618
 -1       392    8    0    1
 -2       121       122       277      1234      1619      1620
 -1       393    8    0    1
 -2       122       123       278      1235      1621      1622
 -1       394    8    0    1
 -2       122       278       277      1622      1623      1619
 -1       395    8    0    1
 -2       123       124       279      1236      1624      1625
 -1       396    8    0    1
 -2       123       279       278      1625      1626      1621
 -1       397    8    0    1
 -2       124       125       280      1237      1627      1628
 -1       398    8    0    1
 -2       124       280       279      1628      1629      1624
 -1       399    8    0    1
 -2       125       126       281      1238      1630      1631
 -1       400    8    0    1
 -2       125       281       280      1631      1632      1627
 -1       401    8    0    1
 -2       126       127       282      1239      1633      1634
 -1       402    8    0    1
 -2       126       282       281      1634      1635      1630
 -1       403    8    0    1
 -2       127       128       283      1240      1636      1637
 -1       404    8    0    1
 -2       127       283       282      1637      1638      1633
 -1       405    8    0    1
 -2       128       129       284      1241      1639      1640
 -1       406    8    0    1
 -2       128       284       283      1640      1641      1636
 -1       407    8    0    1
 -2       129       130       285      1242      1642      1643
 -1       408    8    0    1
 -2       129       285       284      1643      1644      1639
 -1       409    8    0    1
 -2       130       131       286      1243      1645      1646
 -1       410    8    0    1
 -2       130       286       285      1646      1647      1642
 -1       411    8    0    1
 -2       131       132       287      1244      1648      1649
 -1       412    8    0    1
 -2       131       287       286      1649      1650      1645
 -1       413    8    0    1
 -2       132       133       288      1245      1651      1652
 -1       414    8    0    1
 -2       132       288       287      1652      1653      1648
 -1       415    8    0    1
 -2       133       134       289      1246      1654      1655
 -1       416    8    0    1
 -2       133       289       288      1655      1656      1651
 -1       417    8    0    1
 -2       134       135       290      1247      1657      1658
 -1       418    8    0    1
 -2       134       290       289      1658      1659      1654
 -1       419    8    0    1
 -2       135       136       291      1248      1660      1661
 -1       420    8    0    1
 -2       290       135       291      1657      1661      1662
 -1       421    8    0    1
 -2       136       228       291      1473      1663      1660
 -1       422    8    0    1
 -2         2       137       292      1250      1664      1665
 -1       423    8    0    1
 -2       137       138       293      1251      1666      1667
 -1       424    8    0    1
 -2       138       139       294      1252      1668      1669
 -1       425    8    0    1
 -2       139       140       295      1253      1670      1671
 -1       426    8    0    1
 -2       140       141       296      1254      1672      1673
 -1       427    8    0    1
 -2       141       142       297      1255      1674      1675
 -1       428    8    0    1
 -2       142       143       298      1256      1676      1677
 -1       429    8    0    1
 -2       143       144       299      1257      1678      1679
 -1       430    8    0    1
 -2       144       145       300      1258      1680      1681
 -1       431    8    0    1
 -2       145       146       301      1259      1682      1683
 -1       432    8    0    1
 -2       146       147       302      1260      1684      1685
 -1       433    8    0    1
 -2       147       148       303      1261      1686      1687
 -1       434    8    0    1
 -2       148       149       304      1262      1688      1689
 -1       435    8    0    1
 -2       149       150       305      1263      1690      1691
 -1       436    8    0    1
 -2       150       151       306      1264      1692      1693
 -1       437    8    0    1
 -2       151       152       307      1265      1694      1695
 -1       438    8    0    1
 -2       152       153       308      1266      1696      1697
 -1       439    8    0    1
 -2       153         1       309      1267      1698      1699
 -1       440    8    0    1
 -2         1       154       310      1268      1700      1701
 -1       441    8    0    1
 -2       154       155       311      1269      1702      1703
 -1       442    8    0    1
 -2       155       156       312      1270      1704      1705
 -1       443    8    0    1
 -2       156       157       313      1271      1706      1707
 -1       444    8    0    1
 -2       157       158       314      1272      1708      1709
 -1       445    8    0    1
 -2       158       159       315      1273      1710      1711
 -1       446    8    0    1
 -2       159       160       316      1274      1712      1713
 -1       447    8    0    1
 -2       160       161       317      1275      1714      1715
 -1       448    8    0    1
 -2       161       162       318      1276      1716      1717
 -1       449    8    0    1
 -2       162       163       319      1277      1718      1719
 -1       450    8    0    1
 -2       163       164       320      1278      1720      1721
 -1       451    8    0    1
 -2       164         2       321      1279      1722      1723
 -1       452    8    0    1
 -2       295       140       296      1670      1673      1724
 -1       453    8    0    1
 -2       294       139       295      1668      1671      1725
 -1       454    8    0    1
 -2       120       121       276      1618      1726      1615
 -1       455    8    0    1
 -2       121       277       276      1620      1727      1726
 -1       456    8    0    1
 -2       292       137       293      1664      1667      1728
 -1       457    8    0    1
 -2       293       138       294      1666      1669      1729
 -1       458    8    0    1
 -2         2       292       321      1665      1730      1722
 -1       459    8    0    1
 -2       141       297       296      1675      1731      1672
 -1       460    8    0    1
 -2       142       298       297      1677      1732      1674
 -1       461    8    0    1
 -2       143       299       298      1679      1733      1676
 -1       462    8    0    1
 -2       144       300       299      1681      1734      1678
 -1       463    8    0    1
 -2       145       301       300      1683      1735      1680
 -1       464    8    0    1
 -2       146       302       301      1685      1736      1682
 -1       465    8    0    1
 -2       147       303       302      1687      1737      1684
 -1       466    8    0    1
 -2       148       304       303      1689      1738      1686
 -1       467    8    0    1
 -2       149       305       304      1691      1739      1688
 -1       468    8    0    1
 -2       150       306       305      1693      1740      1690
 -1       469    8    0    1
 -2       151       307       306      1695      1741      1692
 -1       470    8    0    1
 -2       152       308       307      1697      1742      1694
 -1       471    8    0    1
 -2       153       309       308      1699      1743      1696
 -1       472    8    0    1
 -2         1       310       309      1701      1744      1698
 -1       473    8    0    1
 -2       154       311       310      1703      1745      1700
 -1       474    8    0    1
 -2       155       312       311      1705      1746      1702
 -1       475    8    0    1
 -2       156       313       312      1707      1747      1704
 -1       476    8    0    1
 -2       157       314       313      1709      1748      1706
 -1       477    8    0    1
 -2       158       315       314      1711      1749      1708
 -1       478    8    0    1
 -2       159       316       315      1713      1750      1710
 -1       479    8    0    1
 -2       160       317       316      1715      1751      1712
 -1       480    8    0    1
 -2       161       318       317      1717      1752      1714
 -1       481    8    0    1
 -2       162       319       318      1719      1753      1716
 -1       482    8    0    1
 -2       163       320       319      1721      1754      1718
 -1       483    8    0    1
 -2       164       321       320      1723      1755      1720
 -1       484    8    0    1
 -2        23         7       165      1280      1282      1756
 -1       485    8    0    1
 -2       166       167       322      1288      1757      1758
 -1       486    8    0    1
 -2       165       166       323      1285      1759      1760
 -1       487    8    0    1
 -2       166       322       323      1758      1761      1759
 -1       488    8    0    1
 -2       168       169       324      1294      1762      1763
 -1       489    8    0    1
 -2       169       170       325      1297      1764      1765
 -1       490    8    0    1
 -2       169       325       324      1765      1766      1762
 -1       491    8    0    1
 -2       170       171       326      1300      1767      1768
 -1       492    8    0    1
 -2       170       326       325      1768      1769      1764
 -1       493    8    0    1
 -2       171       172       327      1303      1770      1771
 -1       494    8    0    1
 -2       171       327       326      1771      1772      1767
 -1       495    8    0    1
 -2       172       173       328      1306      1773      1774
 -1       496    8    0    1
 -2       172       328       327      1774      1775      1770
 -1       497    8    0    1
 -2       173       174       329      1309      1776      1777
 -1       498    8    0    1
 -2       173       329       328      1777      1778      1773
 -1       499    8    0    1
 -2       174       175       330      1312      1779      1780
 -1       500    8    0    1
 -2       174       330       329      1780      1781      1776
 -1       501    8    0    1
 -2       175       176       331      1315      1782      1783
 -1       502    8    0    1
 -2       175       331       330      1783      1784      1779
 -1       503    8    0    1
 -2       176       177       332      1318      1785      1786
 -1       504    8    0    1
 -2       176       332       331      1786      1787      1782
 -1       505    8    0    1
 -2       177       178       333      1321      1788      1789
 -1       506    8    0    1
 -2       177       333       332      1789      1790      1785
 -1       507    8    0    1
 -2       178       179       334      1324      1791      1792
 -1       508    8    0    1
 -2       178       334       333      1792      1793      1788
 -1       509    8    0    1
 -2       179       180       335      1327      1794      1795
 -1       510    8    0    1
 -2       334       179       335      1791      1795      1796
 -1       511    8    0    1
 -2       180       229       335      1476      1797      1794
 -1       512    8    0    1
 -2       181        23       165      1329      1756      1798
 -1       513    8    0    1
 -2       229       230       336      1479      1799      1800
 -1       514    8    0    1
 -2       229       336       335      1800      1801      1797
 -1       515    8    0    1
 -2       181       165       323      1798      1760      1802
 -1       516    8    0    1
 -2       183       182       337      1336      1803      1804
 -1       517    8    0    1
 -2       184       183       338      1339      1805      1806
 -1       518    8    0    1
 -2       183       337       338      1804      1807      1805
 -1       519    8    0    1
 -2       185       184       339      1342      1808      1809
 -1       520    8    0    1
 -2       184       338       339      1806      1810      1808
 -1       521    8    0    1
 -2       186       185       340      1345      1811      1812
 -1       522    8    0    1
 -2       185       339       340      1809      1813      1811
 -1       523    8    0    1
 -2       187       186       341      1348      1814      1815
 -1       524    8    0    1
 -2       186       340       341      1812      1816      1814
 -1       525    8    0    1
 -2       188       187       342      1351      1817      1818
 -1       526    8    0    1
 -2       187       341       342      1815      1819      1817
 -1       527    8    0    1
 -2       189       188       343      1354      1820      1821
 -1       528    8    0    1
 -2       188       342       343      1818      1822      1820
 -1       529    8    0    1
 -2       190       189       344      1357      1823      1824
 -1       530    8    0    1
 -2       189       343       344      1821      1825      1823
 -1       531    8    0    1
 -2       191       190       345      1360      1826      1827
 -1       532    8    0    1
 -2       190       344       345      1824      1828      1826
 -1       533    8    0    1
 -2       192       191       346      1363      1829      1830
 -1       534    8    0    1
 -2       191       345       346      1827      1831      1829
 -1       535    8    0    1
 -2       193       192       347      1366      1832      1833
 -1       536    8    0    1
 -2       192       346       347      1830      1834      1832
 -1       537    8    0    1
 -2       194       193       348      1369      1835      1836
 -1       538    8    0    1
 -2       193       347       348      1833      1837      1835
 -1       539    8    0    1
 -2       195       194       349      1372      1838      1839
 -1       540    8    0    1
 -2       194       348       349      1836      1840      1838
 -1       541    8    0    1
 -2       196       195       350      1375      1841      1842
 -1       542    8    0    1
 -2       195       349       350      1839      1843      1841
 -1       543    8    0    1
 -2       197       196       351      1378      1844      1845
 -1       544    8    0    1
 -2       196       350       351      1842      1846      1844
 -1       545    8    0    1
 -2       198       197       352      1381      1847      1848
 -1       546    8    0    1
 -2       197       351       352      1845      1849      1847
 -1       547    8    0    1
 -2       199       198       353      1384      1850      1851
 -1       548    8    0    1
 -2       198       352       353      1848      1852      1850
 -1       549    8    0    1
 -2       200       199       354      1387      1853      1854
 -1       550    8    0    1
 -2       199       353       354      1851      1855      1853
 -1       551    8    0    1
 -2       201       200       355      1390      1856      1857
 -1       552    8    0    1
 -2       200       354       355      1854      1858      1856
 -1       553    8    0    1
 -2       202       201       356      1393      1859      1860
 -1       554    8    0    1
 -2       201       355       356      1857      1861      1859
 -1       555    8    0    1
 -2       203       202       357      1396      1862      1863
 -1       556    8    0    1
 -2       202       356       357      1860      1864      1862
 -1       557    8    0    1
 -2       204       203       358      1399      1865      1866
 -1       558    8    0    1
 -2       203       357       358      1863      1867      1865
 -1       559    8    0    1
 -2       205       204       359      1402      1868      1869
 -1       560    8    0    1
 -2       204       358       359      1866      1870      1868
 -1       561    8    0    1
 -2       206       205       360      1405      1871      1872
 -1       562    8    0    1
 -2       205       359       360      1869      1873      1871
 -1       563    8    0    1
 -2       207       206       361      1408      1874      1875
 -1       564    8    0    1
 -2       206       360       361      1872      1876      1874
 -1       565    8    0    1
 -2       208       207       362      1411      1877      1878
 -1       566    8    0    1
 -2       207       361       362      1875      1879      1877
 -1       567    8    0    1
 -2       209       208       363      1414      1880      1881
 -1       568    8    0    1
 -2       208       362       363      1878      1882      1880
 -1       569    8    0    1
 -2       210       209       364      1417      1883      1884
 -1       570    8    0    1
 -2       209       363       364      1881      1885      1883
 -1       571    8    0    1
 -2       211       210       365      1420      1886      1887
 -1       572    8    0    1
 -2       210       364       365      1884      1888      1886
 -1       573    8    0    1
 -2       212       211       366      1423      1889      1890
 -1       574    8    0    1
 -2       211       365       366      1887      1891      1889
 -1       575    8    0    1
 -2       213       212       367      1426      1892      1893
 -1       576    8    0    1
 -2       212       366       367      1890      1894      1892
 -1       577    8    0    1
 -2       214       213       368      1429      1895      1896
 -1       578    8    0    1
 -2       213       367       368      1893      1897      1895
 -1       579    8    0    1
 -2       215       214       369      1432      1898      1899
 -1       580    8    0    1
 -2       214       368       369      1896      1900      1898
 -1       581    8    0    1
 -2       216       215       370      1435      1901      1902
 -1       582    8    0    1
 -2       215       369       370      1899      1903      1901
 -1       583    8    0    1
 -2       217       216       371      1438      1904      1905
 -1       584    8    0    1
 -2       216       370       371      1902      1906      1904
 -1       585    8    0    1
 -2       218       217       372      1441      1907      1908
 -1       586    8    0    1
 -2       217       371       372      1905      1909      1907
 -1       587    8    0    1
 -2       219       218       373      1444      1910      1911
 -1       588    8    0    1
 -2       218       372       373      1908      1912      1910
 -1       589    8    0    1
 -2       220       219       374      1447      1913      1914
 -1       590    8    0    1
 -2       219       373       374      1911      1915      1913
 -1       591    8    0    1
 -2       221       220       375      1450      1916      1917
 -1       592    8    0    1
 -2       220       374       375      1914      1918      1916
 -1       593    8    0    1
 -2       222       221       376      1453      1919      1920
 -1       594    8    0    1
 -2       221       375       376      1917      1921      1919
 -1       595    8    0    1
 -2       223       222       377      1456      1922      1923
 -1       596    8    0    1
 -2       222       376       377      1920      1924      1922
 -1       597    8    0    1
 -2       224       223       378      1459      1925      1926
 -1       598    8    0    1
 -2       223       377       378      1923      1927      1925
 -1       599    8    0    1
 -2       225       224       379      1462      1928      1929
 -1       600    8    0    1
 -2       224       378       379      1926      1930      1928
 -1       601    8    0    1
 -2       226       225       380      1465      1931      1932
 -1       602    8    0    1
 -2       225       379       380      1929      1933      1931
 -1       603    8    0    1
 -2       227       226       381      1468      1934      1935
 -1       604    8    0    1
 -2       226       380       381      1932      1936      1934
 -1       605    8    0    1
 -2       228       227       382      1471      1937      1938
 -1       606    8    0    1
 -2       291       228       382      1663      1938      1939
 -1       607    8    0    1
 -2       227       381       382      1935      1940      1937
 -1       608    8    0    1
 -2       230       231       383      1482      1941      1942
 -1       609    8    0    1
 -2       230       383       336      1942      1943      1799
 -1       610    8    0    1
 -2       231       232       384      1485      1944      1945
 -1       611    8    0    1
 -2       231       384       383      1945      1946      1941
 -1       612    8    0    1
 -2       232       233       385      1488      1947      1948
 -1       613    8    0    1
 -2       232       385       384      1948      1949      1944
 -1       614    8    0    1
 -2       233       234       386      1491      1950      1951
 -1       615    8    0    1
 -2       233       386       385      1951      1952      1947
 -1       616    8    0    1
 -2       234       235       387      1494      1953      1954
 -1       617    8    0    1
 -2       234       387       386      1954      1955      1950
 -1       618    8    0    1
 -2       235       236       388      1497      1956      1957
 -1       619    8    0    1
 -2       235       388       387      1957      1958      1953
 -1       620    8    0    1
 -2       236       237       389      1500      1959      1960
 -1       621    8    0    1
 -2       236       389       388      1960      1961      1956
 -1       622    8    0    1
 -2       237       238       390      1503      1962      1963
 -1       623    8    0    1
 -2       237       390       389      1963      1964      1959
 -1       624    8    0    1
 -2       238       239       391      1506      1965      1966
 -1       625    8    0    1
 -2       238       391       390      1966      1967      1962
 -1       626    8    0    1
 -2       239       240       392      1509      1968      1969
 -1       627    8    0    1
 -2       239       392       391      1969      1970      1965
 -1       628    8    0    1
 -2       240       241       393      1512      1971      1972
 -1       629    8    0    1
 -2       240       393       392      1972      1973      1968
 -1       630    8    0    1
 -2       241       242       394      1515      1974      1975
 -1       631    8    0    1
 -2       241       394       393      1975      1976      1971
 -1       632    8    0    1
 -2       242       243       395      1518      1977      1978
 -1       633    8    0    1
 -2       242       395       394      1978      1979      1974
 -1       634    8    0    1
 -2       243       244       396      1521      1980      1981
 -1       635    8    0    1
 -2       243       396       395      1981      1982      1977
 -1       636    8    0    1
 -2       244       245       397      1524      1983      1984
 -1       637    8    0    1
 -2       244       397       396      1984      1985      1980
 -1       638    8    0    1
 -2       245       246       398      1527      1986      1987
 -1       639    8    0    1
 -2       245       398       397      1987      1988      1983
 -1       640    8    0    1
 -2       246       247       399      1530      1989      1990
 -1       641    8    0    1
 -2       246       399       398      1990      1991      1986
 -1       642    8    0    1
 -2       247       248       400      1533      1992      1993
 -1       643    8    0    1
 -2       247       400       399      1993      1994      1989
 -1       644    8    0    1
 -2       248       249       401      1536      1995      1996
 -1       645    8    0    1
 -2       248       401       400      1996      1997      1992
 -1       646    8    0    1
 -2       249       250       402      1539      1998      1999
 -1       647    8    0    1
 -2       249       402       401      1999      2000      1995
 -1       648    8    0    1
 -2       250       251       403      1542      2001      2002
 -1       649    8    0    1
 -2       250       403       402      2002      2003      1998
 -1       650    8    0    1
 -2       251       252       404      1545      2004      2005
 -1       651    8    0    1
 -2       251       404       403      2005      2006      2001
 -1       652    8    0    1
 -2       252       253       405      1548      2007      2008
 -1       653    8    0    1
 -2       252       405       404      2008      2009      2004
 -1       654    8    0    1
 -2       253       254       406      1551      2010      2011
 -1       655    8    0    1
 -2       253       406       405      2011      2012      2007
 -1       656    8    0    1
 -2       254       255       407      1554      2013      2014
 -1       657    8    0    1
 -2       254       407       406      2014      2015      2010
 -1       658    8    0    1
 -2       255       256       408      1557      2016      2017
 -1       659    8    0    1
 -2       255       408       407      2017      2018      2013
 -1       660    8    0    1
 -2       256       257       409      1560      2019      2020
 -1       661    8    0    1
 -2       256       409       408      2020      2021      2016
 -1       662    8    0    1
 -2       257       258       410      1563      2022      2023
 -1       663    8    0    1
 -2       257       410       409      2023      2024      2019
 -1       664    8    0    1
 -2       258       259       411      1566      2025      2026
 -1       665    8    0    1
 -2       258       411       410      2026      2027      2022
 -1       666    8    0    1
 -2       259       260       412      1569      2028      2029
 -1       667    8    0    1
 -2       259       412       411      2029      2030      2025
 -1       668    8    0    1
 -2       260       261       413      1572      2031      2032
 -1       669    8    0    1
 -2       260       413       412      2032      2033      2028
 -1       670    8    0    1
 -2       261       262       414      1575      2034      2035
 -1       671    8    0    1
 -2       261       414       413      2035      2036      2031
 -1       672    8    0    1
 -2       262       263       415      1578      2037      2038
 -1       673    8    0    1
 -2       262       415       414      2038      2039      2034
 -1       674    8    0    1
 -2       263       264       416      1581      2040      2041
 -1       675    8    0    1
 -2       263       416       415      2041      2042      2037
 -1       676    8    0    1
 -2       264       265       417      1584      2043      2044
 -1       677    8    0    1
 -2       264       417       416      2044      2045      2040
 -1       678    8    0    1
 -2       265       266       418      1587      2046      2047
 -1       679    8    0    1
 -2       265       418       417      2047      2048      2043
 -1       680    8    0    1
 -2       266       267       419      1590      2049      2050
 -1       681    8    0    1
 -2       266       419       418      2050      2051      2046
 -1       682    8    0    1
 -2       267       268       420      1593      2052      2053
 -1       683    8    0    1
 -2       267       420       419      2053      2054      2049
 -1       684    8    0    1
 -2       268       269       421      1596      2055      2056
 -1       685    8    0    1
 -2       268       421       420      2056      2057      2052
 -1       686    8    0    1
 -2       269       270       422      1599      2058      2059
 -1       687    8    0    1
 -2       269       422       421      2059      2060      2055
 -1       688    8    0    1
 -2       270       271       423      1602      2061      2062
 -1       689    8    0    1
 -2       270       423       422      2062      2063      2058
 -1       690    8    0    1
 -2       271       272       424      1605      2064      2065
 -1       691    8    0    1
 -2       271       424       423      2065      2066      2061
 -1       692    8    0    1
 -2       272       273       425      1608      2067      2068
 -1       693    8    0    1
 -2       272       425       424      2068      2069      2064
 -1       694    8    0    1
 -2       273       274       426      1611      2070      2071
 -1       695    8    0    1
 -2       273       426       425      2071      2072      2067
 -1       696    8    0    1
 -2       274       275       427      1614      2073      2074
 -1       697    8    0    1
 -2       274       427       426      2074      2075      2070
 -1       698    8    0    1
 -2       275       276       428      1617      2076      2077
 -1       699    8    0    1
 -2       427       275       428      2073      2077      2078
 -1       700    8    0    1
 -2       276       277       428      1727      2079      2076
 -1       701    8    0    1
 -2       279       280       429      1629      2080      2081
 -1       702    8    0    1
 -2       278       279       430      1626      2082      2083
 -1       703    8    0    1
 -2       279       429       430      2081      2084      2082
 -1       704    8    0    1
 -2       277       278       431      1623      2085      2086
 -1       705    8    0    1
 -2       428       277       431      2079      2086      2087
 -1       706    8    0    1
 -2       278       430       431      2083      2088      2085
 -1       707    8    0    1
 -2       280       281       432      1632      2089      2090
 -1       708    8    0    1
 -2       280       432       429      2090      2091      2080
 -1       709    8    0    1
 -2       281       282       433      1635      2092      2093
 -1       710    8    0    1
 -2       281       433       432      2093      2094      2089
 -1       711    8    0    1
 -2       282       283       434      1638      2095      2096
 -1       712    8    0    1
 -2       282       434       433      2096      2097      2092
 -1       713    8    0    1
 -2       283       284       435      1641      2098      2099
 -1       714    8    0    1
 -2       283       435       434      2099      2100      2095
 -1       715    8    0    1
 -2       284       285       436      1644      2101      2102
 -1       716    8    0    1
 -2       284       436       435      2102      2103      2098
 -1       717    8    0    1
 -2       285       286       437      1647      2104      2105
 -1       718    8    0    1
 -2       285       437       436      2105      2106      2101
 -1       719    8    0    1
 -2       286       287       438      1650      2107      2108
 -1       720    8    0    1
 -2       286       438       437      2108      2109      2104
 -1       721    8    0    1
 -2       287       288       439      1653      2110      2111
 -1       722    8    0    1
 -2       287       439       438      2111      2112      2107
 -1       723    8    0    1
 -2       288       289       440      1656      2113      2114
 -1       724    8    0    1
 -2       288       440       439      2114      2115      2110
 -1       725    8    0    1
 -2       289       290       441      1659      2116      2117
 -1       726    8    0    1
 -2       289       441       440      2117      2118      2113
 -1       727    8    0    1
 -2       293       294       442      1729      2119      2120
 -1       728    8    0    1
 -2       321       292       443      1730      2121      2122
 -1       729    8    0    1
 -2       292       293       444      1728      2123      2124
 -1       730    8    0    1
 -2       292       444       443      2124      2125      2121
 -1       731    8    0    1
 -2       294       295       445      1725      2126      2127
 -1       732    8    0    1
 -2       295       296       446      1724      2128      2129
 -1       733    8    0    1
 -2       295       446       445      2129      2130      2126
 -1       734    8    0    1
 -2       167       168       447      1291      2131      2132
 -1       735    8    0    1
 -2       322       167       447      1757      2132      2133
 -1       736    8    0    1
 -2       168       324       447      1763      2134      2131
 -1       737    8    0    1
 -2       297       298       448      1732      2135      2136
 -1       738    8    0    1
 -2       298       299       449      1733      2137      2138
 -1       739    8    0    1
 -2       299       300       450      1734      2139      2140
 -1       740    8    0    1
 -2       300       301       451      1735      2141      2142
 -1       741    8    0    1
 -2       301       302       452      1736      2143      2144
 -1       742    8    0    1
 -2       302       303       453      1737      2145      2146
 -1       743    8    0    1
 -2       303       304       454      1738      2147      2148
 -1       744    8    0    1
 -2       304       305       455      1739      2149      2150
 -1       745    8    0    1
 -2       305       306       456      1740      2151      2152
 -1       746    8    0    1
 -2       306       307       457      1741      2153      2154
 -1       747    8    0    1
 -2       307       308       458      1742      2155      2156
 -1       748    8    0    1
 -2       308       309       459      1743      2157      2158
 -1       749    8    0    1
 -2       309       310       460      1744      2159      2160
 -1       750    8    0    1
 -2       310       311       461      1745      2161      2162
 -1       751    8    0    1
 -2       311       312       462      1746      2163      2164
 -1       752    8    0    1
 -2       312       313       463      1747      2165      2166
 -1       753    8    0    1
 -2       313       314       464      1748      2167      2168
 -1       754    8    0    1
 -2       314       315       465      1749      2169      2170
 -1       755    8    0    1
 -2       314       465       464      2170      2171      2167
 -1       756    8    0    1
 -2       315       316       466      1750      2172      2173
 -1       757    8    0    1
 -2       316       317       467      1751      2174      2175
 -1       758    8    0    1
 -2       317       318       468      1752      2176      2177
 -1       759    8    0    1
 -2       318       319       469      1753      2178      2179
 -1       760    8    0    1
 -2       319       320       470      1754      2180      2181
 -1       761    8    0    1
 -2       319       470       469      2181      2182      2178
 -1       762    8    0    1
 -2       320       321       471      1755      2183      2184
 -1       763    8    0    1
 -2       296       297       472      1731      2185      2186
 -1       764    8    0    1
 -2       446       296       472      2128      2186      2187
 -1       765    8    0    1
 -2       181       323       182      1802      2188      1333
 -1       766    8    0    1
 -2       450       300       451      2139      2142      2189
 -1       767    8    0    1
 -2       297       448       472      2136      2190      2185
 -1       768    8    0    1
 -2       337       182       323      1803      2188      2191
 -1       769    8    0    1
 -2       444       293       442      2123      2120      2192
 -1       770    8    0    1
 -2       294       445       442      2127      2193      2119
 -1       771    8    0    1
 -2       441       290       291      2116      1662      2194
 -1       772    8    0    1
 -2       321       443       471      2122      2195      2183
 -1       773    8    0    1
 -2       470       320       471      2180      2184      2196
 -1       774    8    0    1
 -2       468       318       469      2176      2179      2197
 -1       775    8    0    1
 -2       467       317       468      2174      2177      2198
 -1       776    8    0    1
 -2       465       315       466      2169      2173      2199
 -1       777    8    0    1
 -2       463       313       464      2165      2168      2200
 -1       778    8    0    1
 -2       462       312       463      2163      2166      2201
 -1       779    8    0    1
 -2       461       311       462      2161      2164      2202
 -1       780    8    0    1
 -2       460       310       461      2159      2162      2203
 -1       781    8    0    1
 -2       459       309       460      2157      2160      2204
 -1       782    8    0    1
 -2       458       308       459      2155      2158      2205
 -1       783    8    0    1
 -2       457       307       458      2153      2156      2206
 -1       784    8    0    1
 -2       456       306       457      2151      2154      2207
 -1       785    8    0    1
 -2       455       305       456      2149      2152      2208
 -1       786    8    0    1
 -2       454       304       455      2147      2150      2209
 -1       787    8    0    1
 -2       453       303       454      2145      2148      2210
 -1       788    8    0    1
 -2       452       302       453      2143      2146      2211
 -1       789    8    0    1
 -2       451       301       452      2141      2144      2212
 -1       790    8    0    1
 -2       448       298       449      2135      2138      2213
 -1       791    8    0    1
 -2       449       299       450      2137      2140      2214
 -1       792    8    0    1
 -2       466       316       467      2172      2175      2215
 -1       793    8    0    1
 -2       336       383       473      1943      2216      2217
 -1       794    8    0    1
 -2       325       326       474      1769      2218      2219
 -1       795    8    0    1
 -2       324       325       475      1766      2220      2221
 -1       796    8    0    1
 -2       325       474       475      2219      2222      2220
 -1       797    8    0    1
 -2       327       328       476      1775      2223      2224
 -1       798    8    0    1
 -2       328       329       477      1778      2225      2226
 -1       799    8    0    1
 -2       328       477       476      2226      2227      2223
 -1       800    8    0    1
 -2       329       330       478      1781      2228      2229
 -1       801    8    0    1
 -2       329       478       477      2229      2230      2225
 -1       802    8    0    1
 -2       330       331       479      1784      2231      2232
 -1       803    8    0    1
 -2       330       479       478      2232      2233      2228
 -1       804    8    0    1
 -2       331       332       480      1787      2234      2235
 -1       805    8    0    1
 -2       331       480       479      2235      2236      2231
 -1       806    8    0    1
 -2       332       333       481      1790      2237      2238
 -1       807    8    0    1
 -2       332       481       480      2238      2239      2234
 -1       808    8    0    1
 -2       383       384       482      1946      2240      2241
 -1       809    8    0    1
 -2       383       482       473      2241      2242      2216
 -1       810    8    0    1
 -2       338       337       483      1807      2243      2244
 -1       811    8    0    1
 -2       450       451       484      2189      2245      2246
 -1       812    8    0    1
 -2       339       338       485      1810      2247      2248
 -1       813    8    0    1
 -2       338       483       485      2244      2249      2247
 -1       814    8    0    1
 -2       340       339       486      1813      2250      2251
 -1       815    8    0    1
 -2       339       485       486      2248      2252      2250
 -1       816    8    0    1
 -2       341       340       487      1816      2253      2254
 -1       817    8    0    1
 -2       340       486       487      2251      2255      2253
 -1       818    8    0    1
 -2       342       341       488      1819      2256      2257
 -1       819    8    0    1
 -2       341       487       488      2254      2258      2256
 -1       820    8    0    1
 -2       343       342       489      1822      2259      2260
 -1       821    8    0    1
 -2       342       488       489      2257      2261      2259
 -1       822    8    0    1
 -2       344       343       490      1825      2262      2263
 -1       823    8    0    1
 -2       343       489       490      2260      2264      2262
 -1       824    8    0    1
 -2       345       344       491      1828      2265      2266
 -1       825    8    0    1
 -2       344       490       491      2263      2267      2265
 -1       826    8    0    1
 -2       346       345       492      1831      2268      2269
 -1       827    8    0    1
 -2       345       491       492      2266      2270      2268
 -1       828    8    0    1
 -2       347       346       493      1834      2271      2272
 -1       829    8    0    1
 -2       346       492       493      2269      2273      2271
 -1       830    8    0    1
 -2       348       347       494      1837      2274      2275
 -1       831    8    0    1
 -2       347       493       494      2272      2276      2274
 -1       832    8    0    1
 -2       349       348       495      1840      2277      2278
 -1       833    8    0    1
 -2       348       494       495      2275      2279      2277
 -1       834    8    0    1
 -2       350       349       496      1843      2280      2281
 -1       835    8    0    1
 -2       349       495       496      2278      2282      2280
 -1       836    8    0    1
 -2       351       350       497      1846      2283      2284
 -1       837    8    0    1
 -2       350       496       497      2281      2285      2283
 -1       838    8    0    1
 -2       352       351       498      1849      2286      2287
 -1       839    8    0    1
 -2       351       497       498      2284      2288      2286
 -1       840    8    0    1
 -2       353       352       499      1852      2289      2290
 -1       841    8    0    1
 -2       352       498       499      2287      2291      2289
 -1       842    8    0    1
 -2       354       353       500      1855      2292      2293
 -1       843    8    0    1
 -2       353       499       500      2290      2294      2292
 -1       844    8    0    1
 -2       355       354       501      1858      2295      2296
 -1       845    8    0    1
 -2       354       500       501      2293      2297      2295
 -1       846    8    0    1
 -2       356       355       502      1861      2298      2299
 -1       847    8    0    1
 -2       355       501       502      2296      2300      2298
 -1       848    8    0    1
 -2       357       356       503      1864      2301      2302
 -1       849    8    0    1
 -2       356       502       503      2299      2303      2301
 -1       850    8    0    1
 -2       358       357       504      1867      2304      2305
 -1       851    8    0    1
 -2       357       503       504      2302      2306      2304
 -1       852    8    0    1
 -2       359       358       505      1870      2307      2308
 -1       853    8    0    1
 -2       358       504       505      2305      2309      2307
 -1       854    8    0    1
 -2       360       359       506      1873      2310      2311
 -1       855    8    0    1
 -2       359       505       506      2308      2312      2310
 -1       856    8    0    1
 -2       361       360       507      1876      2313      2314
 -1       857    8    0    1
 -2       360       506       507      2311      2315      2313
 -1       858    8    0    1
 -2       362       361       508      1879      2316      2317
 -1       859    8    0    1
 -2       361       507       508      2314      2318      2316
 -1       860    8    0    1
 -2       363       362       509      1882      2319      2320
 -1       861    8    0    1
 -2       362       508       509      2317      2321      2319
 -1       862    8    0    1
 -2       364       363       510      1885      2322      2323
 -1       863    8    0    1
 -2       363       509       510      2320      2324      2322
 -1       864    8    0    1
 -2       365       364       511      1888      2325      2326
 -1       865    8    0    1
 -2       364       510       511      2323      2327      2325
 -1       866    8    0    1
 -2       366       365       512      1891      2328      2329
 -1       867    8    0    1
 -2       365       511       512      2326      2330      2328
 -1       868    8    0    1
 -2       367       366       513      1894      2331      2332
 -1       869    8    0    1
 -2       366       512       513      2329      2333      2331
 -1       870    8    0    1
 -2       368       367       514      1897      2334      2335
 -1       871    8    0    1
 -2       367       513       514      2332      2336      2334
 -1       872    8    0    1
 -2       369       368       515      1900      2337      2338
 -1       873    8    0    1
 -2       368       514       515      2335      2339      2337
 -1       874    8    0    1
 -2       370       369       516      1903      2340      2341
 -1       875    8    0    1
 -2       369       515       516      2338      2342      2340
 -1       876    8    0    1
 -2       371       370       517      1906      2343      2344
 -1       877    8    0    1
 -2       370       516       517      2341      2345      2343
 -1       878    8    0    1
 -2       372       371       518      1909      2346      2347
 -1       879    8    0    1
 -2       371       517       518      2344      2348      2346
 -1       880    8    0    1
 -2       373       372       519      1912      2349      2350
 -1       881    8    0    1
 -2       372       518       519      2347      2351      2349
 -1       882    8    0    1
 -2       374       373       520      1915      2352      2353
 -1       883    8    0    1
 -2       373       519       520      2350      2354      2352
 -1       884    8    0    1
 -2       375       374       521      1918      2355      2356
 -1       885    8    0    1
 -2       374       520       521      2353      2357      2355
 -1       886    8    0    1
 -2       376       375       522      1921      2358      2359
 -1       887    8    0    1
 -2       375       521       522      2356      2360      2358
 -1       888    8    0    1
 -2       377       376       523      1924      2361      2362
 -1       889    8    0    1
 -2       376       522       523      2359      2363      2361
 -1       890    8    0    1
 -2       378       377       524      1927      2364      2365
 -1       891    8    0    1
 -2       377       523       524      2362      2366      2364
 -1       892    8    0    1
 -2       379       378       525      1930      2367      2368
 -1       893    8    0    1
 -2       378       524       525      2365      2369      2367
 -1       894    8    0    1
 -2       380       379       526      1933      2370      2371
 -1       895    8    0    1
 -2       379       525       526      2368      2372      2370
 -1       896    8    0    1
 -2       381       380       527      1936      2373      2374
 -1       897    8    0    1
 -2       380       526       527      2371      2375      2373
 -1       898    8    0    1
 -2       385       386       528      1952      2376      2377
 -1       899    8    0    1
 -2       386       387       529      1955      2378      2379
 -1       900    8    0    1
 -2       386       529       528      2379      2380      2376
 -1       901    8    0    1
 -2       387       388       530      1958      2381      2382
 -1       902    8    0    1
 -2       387       530       529      2382      2383      2378
 -1       903    8    0    1
 -2       388       389       531      1961      2384      2385
 -1       904    8    0    1
 -2       388       531       530      2385      2386      2381
 -1       905    8    0    1
 -2       389       390       532      1964      2387      2388
 -1       906    8    0    1
 -2       389       532       531      2388      2389      2384
 -1       907    8    0    1
 -2       390       391       533      1967      2390      2391
 -1       908    8    0    1
 -2       390       533       532      2391      2392      2387
 -1       909    8    0    1
 -2       391       392       534      1970      2393      2394
 -1       910    8    0    1
 -2       391       534       533      2394      2395      2390
 -1       911    8    0    1
 -2       392       393       535      1973      2396      2397
 -1       912    8    0    1
 -2       392       535       534      2397      2398      2393
 -1       913    8    0    1
 -2       393       394       536      1976      2399      2400
 -1       914    8    0    1
 -2       393       536       535      2400      2401      2396
 -1       915    8    0    1
 -2       394       395       537      1979      2402      2403
 -1       916    8    0    1
 -2       394       537       536      2403      2404      2399
 -1       917    8    0    1
 -2       395       396       538      1982      2405      2406
 -1       918    8    0    1
 -2       395       538       537      2406      2407      2402
 -1       919    8    0    1
 -2       396       397       539      1985      2408      2409
 -1       920    8    0    1
 -2       396       539       538      2409      2410      2405
 -1       921    8    0    1
 -2       397       398       540      1988      2411      2412
 -1       922    8    0    1
 -2       397       540       539      2412      2413      2408
 -1       923    8    0    1
 -2       398       399       541      1991      2414      2415
 -1       924    8    0    1
 -2       398       541       540      2415      2416      2411
 -1       925    8    0    1
 -2       399       400       542      1994      2417      2418
 -1       926    8    0    1
 -2       399       542       541      2418      2419      2414
 -1       927    8    0    1
 -2       400       401       543      1997      2420      2421
 -1       928    8    0    1
 -2       400       543       542      2421      2422      2417
 -1       929    8    0    1
 -2       401       402       544      2000      2423      2424
 -1       930    8    0    1
 -2       401       544       543      2424      2425      2420
 -1       931    8    0    1
 -2       402       403       545      2003      2426      2427
 -1       932    8    0    1
 -2       402       545       544      2427      2428      2423
 -1       933    8    0    1
 -2       403       404       546      2006      2429      2430
 -1       934    8    0    1
 -2       403       546       545      2430      2431      2426
 -1       935    8    0    1
 -2       404       405       547      2009      2432      2433
 -1       936    8    0    1
 -2       404       547       546      2433      2434      2429
 -1       937    8    0    1
 -2       405       406       548      2012      2435      2436
 -1       938    8    0    1
 -2       405       548       547      2436      2437      2432
 -1       939    8    0    1
 -2       406       407       549      2015      2438      2439
 -1       940    8    0    1
 -2       406       549       548      2439      2440      2435
 -1       941    8    0    1
 -2       407       408       550      2018      2441      2442
 -1       942    8    0    1
 -2       407       550       549      2442      2443      2438
 -1       943    8    0    1
 -2       408       409       551      2021      2444      2445
 -1       944    8    0    1
 -2       408       551       550      2445      2446      2441
 -1       945    8    0    1
 -2       409       410       552      2024      2447      2448
 -1       946    8    0    1
 -2       409       552       551      2448      2449      2444
 -1       947    8    0    1
 -2       410       411       553      2027      2450      2451
 -1       948    8    0    1
 -2       410       553       552      2451      2452      2447
 -1       949    8    0    1
 -2       411       412       554      2030      2453      2454
 -1       950    8    0    1
 -2       411       554       553      2454      2455      2450
 -1       951    8    0    1
 -2       412       413       555      2033      2456      2457
 -1       952    8    0    1
 -2       412       555       554      2457      2458      2453
 -1       953    8    0    1
 -2       413       414       556      2036      2459      2460
 -1       954    8    0    1
 -2       413       556       555      2460      2461      2456
 -1       955    8    0    1
 -2       414       415       557      2039      2462      2463
 -1       956    8    0    1
 -2       414       557       556      2463      2464      2459
 -1       957    8    0    1
 -2       415       416       558      2042      2465      2466
 -1       958    8    0    1
 -2       415       558       557      2466      2467      2462
 -1       959    8    0    1
 -2       416       417       559      2045      2468      2469
 -1       960    8    0    1
 -2       416       559       558      2469      2470      2465
 -1       961    8    0    1
 -2       417       418       560      2048      2471      2472
 -1       962    8    0    1
 -2       417       560       559      2472      2473      2468
 -1       963    8    0    1
 -2       418       419       561      2051      2474      2475
 -1       964    8    0    1
 -2       418       561       560      2475      2476      2471
 -1       965    8    0    1
 -2       419       420       562      2054      2477      2478
 -1       966    8    0    1
 -2       419       562       561      2478      2479      2474
 -1       967    8    0    1
 -2       420       421       563      2057      2480      2481
 -1       968    8    0    1
 -2       420       563       562      2481      2482      2477
 -1       969    8    0    1
 -2       421       422       564      2060      2483      2484
 -1       970    8    0    1
 -2       421       564       563      2484      2485      2480
 -1       971    8    0    1
 -2       422       423       565      2063      2486      2487
 -1       972    8    0    1
 -2       422       565       564      2487      2488      2483
 -1       973    8    0    1
 -2       423       424       566      2066      2489      2490
 -1       974    8    0    1
 -2       423       566       565      2490      2491      2486
 -1       975    8    0    1
 -2       424       425       567      2069      2492      2493
 -1       976    8    0    1
 -2       424       567       566      2493      2494      2489
 -1       977    8    0    1
 -2       425       426       568      2072      2495      2496
 -1       978    8    0    1
 -2       425       568       567      2496      2497      2492
 -1       979    8    0    1
 -2       426       427       569      2075      2498      2499
 -1       980    8    0    1
 -2       426       569       568      2499      2500      2495
 -1       981    8    0    1
 -2       427       428       431      2078      2087      2501
 -1       982    8    0    1
 -2       432       433       570      2094      2502      2503
 -1       983    8    0    1
 -2       433       434       571      2097      2504      2505
 -1       984    8    0    1
 -2       433       571       570      2505      2506      2502
 -1       985    8    0    1
 -2       430       429       572      2084      2507      2508
 -1       986    8    0    1
 -2       429       432       573      2091      2509      2510
 -1       987    8    0    1
 -2       572       429       573      2507      2510      2511
 -1       988    8    0    1
 -2       432       570       573      2503      2512      2509
 -1       989    8    0    1
 -2       434       435       574      2100      2513      2514
 -1       990    8    0    1
 -2       434       574       571      2514      2515      2504
 -1       991    8    0    1
 -2       435       436       575      2103      2516      2517
 -1       992    8    0    1
 -2       435       575       574      2517      2518      2513
 -1       993    8    0    1
 -2       436       437       576      2106      2519      2520
 -1       994    8    0    1
 -2       436       576       575      2520      2521      2516
 -1       995    8    0    1
 -2       437       438       577      2109      2522      2523
 -1       996    8    0    1
 -2       437       577       576      2523      2524      2519
 -1       997    8    0    1
 -2       438       439       578      2112      2525      2526
 -1       998    8    0    1
 -2       438       578       577      2526      2527      2522
 -1       999    8    0    1
 -2       439       440       579      2115      2528      2529
 -1      1000    8    0    1
 -2       439       579       578      2529      2530      2525
 -1      1001    8    0    1
 -2       440       441       580      2118      2531      2532
 -1      1002    8    0    1
 -2       440       580       579      2532      2533      2528
 -1      1003    8    0    1
 -2       442       445       581      2193      2534      2535
 -1      1004    8    0    1
 -2       441       291       382      2194      1939      2536
 -1      1005    8    0    1
 -2       471       443       582      2195      2537      2538
 -1      1006    8    0    1
 -2       384       385       583      1949      2539      2540
 -1      1007    8    0    1
 -2       385       528       583      2377      2541      2539
 -1      1008    8    0    1
 -2       443       444       584      2125      2542      2543
 -1      1009    8    0    1
 -2       445       446       585      2130      2544      2545
 -1      1010    8    0    1
 -2       337       323       586      2191      2546      2547
 -1      1011    8    0    1
 -2       483       337       586      2243      2547      2548
 -1      1012    8    0    1
 -2       323       322       586      1761      2549      2546
 -1      1013    8    0    1
 -2       468       469       587      2197      2550      2551
 -1      1014    8    0    1
 -2       463       464       588      2200      2552      2553
 -1      1015    8    0    1
 -2       326       327       589      1772      2554      2555
 -1      1016    8    0    1
 -2       474       326       589      2218      2555      2556
 -1      1017    8    0    1
 -2       327       476       589      2224      2557      2554
 -1      1018    8    0    1
 -2       449       450       590      2214      2558      2559
 -1      1019    8    0    1
 -2       466       467       591      2215      2560      2561
 -1      1020    8    0    1
 -2       472       448       592      2190      2562      2563
 -1      1021    8    0    1
 -2       448       449       593      2213      2564      2565
 -1      1022    8    0    1
 -2       448       593       592      2565      2566      2562
 -1      1023    8    0    1
 -2       451       452       594      2212      2567      2568
 -1      1024    8    0    1
 -2       451       594       484      2568      2569      2245
 -1      1025    8    0    1
 -2       452       453       595      2211      2570      2571
 -1      1026    8    0    1
 -2       453       454       596      2210      2572      2573
 -1      1027    8    0    1
 -2       454       455       597      2209      2574      2575
 -1      1028    8    0    1
 -2       455       456       598      2208      2576      2577
 -1      1029    8    0    1
 -2       456       457       599      2207      2578      2579
 -1      1030    8    0    1
 -2       457       458       600      2206      2580      2581
 -1      1031    8    0    1
 -2       458       459       601      2205      2582      2583
 -1      1032    8    0    1
 -2       458       601       600      2583      2584      2580
 -1      1033    8    0    1
 -2       459       460       602      2204      2585      2586
 -1      1034    8    0    1
 -2       460       461       603      2203      2587      2588
 -1      1035    8    0    1
 -2       461       462       604      2202      2589      2590
 -1      1036    8    0    1
 -2       461       604       603      2590      2591      2587
 -1      1037    8    0    1
 -2       462       463       605      2201      2592      2593
 -1      1038    8    0    1
 -2       463       588       605      2553      2594      2592
 -1      1039    8    0    1
 -2       464       465       606      2171      2595      2596
 -1      1040    8    0    1
 -2       465       466       607      2199      2597      2598
 -1      1041    8    0    1
 -2       465       607       606      2598      2599      2595
 -1      1042    8    0    1
 -2       467       468       608      2198      2600      2601
 -1      1043    8    0    1
 -2       468       587       608      2551      2602      2600
 -1      1044    8    0    1
 -2       469       470       609      2182      2603      2604
 -1      1045    8    0    1
 -2       470       471       610      2196      2605      2606
 -1      1046    8    0    1
 -2       470       610       609      2606      2607      2603
 -1      1047    8    0    1
 -2       444       442       611      2192      2608      2609
 -1      1048    8    0    1
 -2       444       611       584      2609      2610      2542
 -1      1049    8    0    1
 -2       335       336       612      1801      2611      2612
 -1      1050    8    0    1
 -2       334       335       612      1796      2612      2613
 -1      1051    8    0    1
 -2       336       473       612      2217      2614      2611
 -1      1052    8    0    1
 -2       446       472       613      2187      2615      2616
 -1      1053    8    0    1
 -2       449       590       593      2559      2617      2564
 -1      1054    8    0    1
 -2       324       475       614      2221      2618      2619
 -1      1055    8    0    1
 -2       324       614       447      2619      2620      2134
 -1      1056    8    0    1
 -2       482       384       583      2240      2540      2621
 -1      1057    8    0    1
 -2       333       334       612      1793      2613      2622
 -1      1058    8    0    1
 -2       613       472       615      2615      2623      2624
 -1      1059    8    0    1
 -2       472       592       615      2563      2625      2623
 -1      1060    8    0    1
 -2       587       469       609      2550      2604      2626
 -1      1061    8    0    1
 -2       450       484       590      2246      2627      2558
 -1      1062    8    0    1
 -2       471       582       610      2538      2628      2605
 -1      1063    8    0    1
 -2       427       431       569      2501      2629      2498
 -1      1064    8    0    1
 -2       431       430       569      2088      2630      2629
 -1      1065    8    0    1
 -2       442       581       611      2535      2631      2608
 -1      1066    8    0    1
 -2       581       445       585      2534      2545      2632
 -1      1067    8    0    1
 -2       441       382       616      2536      2633      2634
 -1      1068    8    0    1
 -2       580       441       616      2531      2634      2635
 -1      1069    8    0    1
 -2       382       381       616      1940      2636      2633
 -1      1070    8    0    1
 -2       607       466       591      2597      2561      2637
 -1      1071    8    0    1
 -2       582       443       584      2537      2543      2638
 -1      1072    8    0    1
 -2       333       612       481      2622      2639      2237
 -1      1073    8    0    1
 -2       604       462       605      2589      2593      2640
 -1      1074    8    0    1
 -2       322       447       617      2133      2641      2642
 -1      1075    8    0    1
 -2       586       322       617      2549      2642      2643
 -1      1076    8    0    1
 -2       447       614       617      2620      2644      2641
 -1      1077    8    0    1
 -2       588       464       606      2552      2596      2645
 -1      1078    8    0    1
 -2       601       459       602      2582      2586      2646
 -1      1079    8    0    1
 -2       599       457       600      2578      2581      2647
 -1      1080    8    0    1
 -2       598       456       599      2576      2579      2648
 -1      1081    8    0    1
 -2       597       455       598      2574      2577      2649
 -1      1082    8    0    1
 -2       596       454       597      2572      2575      2650
 -1      1083    8    0    1
 -2       585       446       613      2544      2616      2651
 -1      1084    8    0    1
 -2       452       595       594      2571      2652      2567
 -1      1085    8    0    1
 -2       591       467       608      2560      2601      2653
 -1      1086    8    0    1
 -2       595       453       596      2570      2573      2654
 -1      1087    8    0    1
 -2       602       460       603      2585      2588      2655
 -1      1088    8    0    1
 -2       569       430       572      2630      2508      2656
 -1      1089    8    0    1
 -2       616       381       527      2636      2374      2657
 -1      1090    8    0    1
 -2       477       478       618      2230      2658      2659
 -1      1091    8    0    1
 -2       476       477       619      2227      2660      2661
 -1      1092    8    0    1
 -2       477       618       619      2659      2662      2660
 -1      1093    8    0    1
 -2       479       480       620      2236      2663      2664
 -1      1094    8    0    1
 -2       480       481       621      2239      2665      2666
 -1      1095    8    0    1
 -2       480       621       620      2666      2667      2663
 -1      1096    8    0    1
 -2       473       482       622      2242      2668      2669
 -1      1097    8    0    1
 -2       604       605       623      2640      2670      2671
 -1      1098    8    0    1
 -2       486       485       624      2252      2672      2673
 -1      1099    8    0    1
 -2       487       486       625      2255      2674      2675
 -1      1100    8    0    1
 -2       486       624       625      2673      2676      2674
 -1      1101    8    0    1
 -2       488       487       626      2258      2677      2678
 -1      1102    8    0    1
 -2       487       625       626      2675      2679      2677
 -1      1103    8    0    1
 -2       489       488       627      2261      2680      2681
 -1      1104    8    0    1
 -2       488       626       627      2678      2682      2680
 -1      1105    8    0    1
 -2       490       489       628      2264      2683      2684
 -1      1106    8    0    1
 -2       489       627       628      2681      2685      2683
 -1      1107    8    0    1
 -2       491       490       629      2267      2686      2687
 -1      1108    8    0    1
 -2       490       628       629      2684      2688      2686
 -1      1109    8    0    1
 -2       492       491       630      2270      2689      2690
 -1      1110    8    0    1
 -2       491       629       630      2687      2691      2689
 -1      1111    8    0    1
 -2       493       492       631      2273      2692      2693
 -1      1112    8    0    1
 -2       492       630       631      2690      2694      2692
 -1      1113    8    0    1
 -2       494       493       632      2276      2695      2696
 -1      1114    8    0    1
 -2       493       631       632      2693      2697      2695
 -1      1115    8    0    1
 -2       495       494       633      2279      2698      2699
 -1      1116    8    0    1
 -2       494       632       633      2696      2700      2698
 -1      1117    8    0    1
 -2       496       495       634      2282      2701      2702
 -1      1118    8    0    1
 -2       495       633       634      2699      2703      2701
 -1      1119    8    0    1
 -2       497       496       635      2285      2704      2705
 -1      1120    8    0    1
 -2       496       634       635      2702      2706      2704
 -1      1121    8    0    1
 -2       498       497       636      2288      2707      2708
 -1      1122    8    0    1
 -2       497       635       636      2705      2709      2707
 -1      1123    8    0    1
 -2       499       498       637      2291      2710      2711
 -1      1124    8    0    1
 -2       498       636       637      2708      2712      2710
 -1      1125    8    0    1
 -2       500       499       638      2294      2713      2714
 -1      1126    8    0    1
 -2       499       637       638      2711      2715      2713
 -1      1127    8    0    1
 -2       501       500       639      2297      2716      2717
 -1      1128    8    0    1
 -2       500       638       639      2714      2718      2716
 -1      1129    8    0    1
 -2       502       501       640      2300      2719      2720
 -1      1130    8    0    1
 -2       501       639       640      2717      2721      2719
 -1      1131    8    0    1
 -2       503       502       641      2303      2722      2723
 -1      1132    8    0    1
 -2       502       640       641      2720      2724      2722
 -1      1133    8    0    1
 -2       504       503       642      2306      2725      2726
 -1      1134    8    0    1
 -2       503       641       642      2723      2727      2725
 -1      1135    8    0    1
 -2       505       504       643      2309      2728      2729
 -1      1136    8    0    1
 -2       504       642       643      2726      2730      2728
 -1      1137    8    0    1
 -2       506       505       644      2312      2731      2732
 -1      1138    8    0    1
 -2       505       643       644      2729      2733      2731
 -1      1139    8    0    1
 -2       507       506       645      2315      2734      2735
 -1      1140    8    0    1
 -2       506       644       645      2732      2736      2734
 -1      1141    8    0    1
 -2       508       507       646      2318      2737      2738
 -1      1142    8    0    1
 -2       507       645       646      2735      2739      2737
 -1      1143    8    0    1
 -2       509       508       647      2321      2740      2741
 -1      1144    8    0    1
 -2       508       646       647      2738      2742      2740
 -1      1145    8    0    1
 -2       510       509       648      2324      2743      2744
 -1      1146    8    0    1
 -2       509       647       648      2741      2745      2743
 -1      1147    8    0    1
 -2       511       510       649      2327      2746      2747
 -1      1148    8    0    1
 -2       510       648       649      2744      2748      2746
 -1      1149    8    0    1
 -2       512       511       650      2330      2749      2750
 -1      1150    8    0    1
 -2       511       649       650      2747      2751      2749
 -1      1151    8    0    1
 -2       513       512       651      2333      2752      2753
 -1      1152    8    0    1
 -2       512       650       651      2750      2754      2752
 -1      1153    8    0    1
 -2       514       513       652      2336      2755      2756
 -1      1154    8    0    1
 -2       513       651       652      2753      2757      2755
 -1      1155    8    0    1
 -2       515       514       653      2339      2758      2759
 -1      1156    8    0    1
 -2       514       652       653      2756      2760      2758
 -1      1157    8    0    1
 -2       516       515       654      2342      2761      2762
 -1      1158    8    0    1
 -2       515       653       654      2759      2763      2761
 -1      1159    8    0    1
 -2       517       516       655      2345      2764      2765
 -1      1160    8    0    1
 -2       516       654       655      2762      2766      2764
 -1      1161    8    0    1
 -2       518       517       656      2348      2767      2768
 -1      1162    8    0    1
 -2       517       655       656      2765      2769      2767
 -1      1163    8    0    1
 -2       519       518       657      2351      2770      2771
 -1      1164    8    0    1
 -2       518       656       657      2768      2772      2770
 -1      1165    8    0    1
 -2       520       519       658      2354      2773      2774
 -1      1166    8    0    1
 -2       519       657       658      2771      2775      2773
 -1      1167    8    0    1
 -2       521       520       659      2357      2776      2777
 -1      1168    8    0    1
 -2       520       658       659      2774      2778      2776
 -1      1169    8    0    1
 -2       522       521       660      2360      2779      2780
 -1      1170    8    0    1
 -2       521       659       660      2777      2781      2779
 -1      1171    8    0    1
 -2       523       522       661      2363      2782      2783
 -1      1172    8    0    1
 -2       522       660       661      2780      2784      2782
 -1      1173    8    0    1
 -2       524       523       662      2366      2785      2786
 -1      1174    8    0    1
 -2       523       661       662      2783      2787      2785
 -1      1175    8    0    1
 -2       525       524       663      2369      2788      2789
 -1      1176    8    0    1
 -2       524       662       663      2786      2790      2788
 -1      1177    8    0    1
 -2       526       525       664      2372      2791      2792
 -1      1178    8    0    1
 -2       525       663       664      2789      2793      2791
 -1      1179    8    0    1
 -2       527       526       665      2375      2794      2795
 -1      1180    8    0    1
 -2       526       664       665      2792      2796      2794
 -1      1181    8    0    1
 -2       529       530       666      2383      2797      2798
 -1      1182    8    0    1
 -2       607       591       667      2637      2799      2800
 -1      1183    8    0    1
 -2       528       529       668      2380      2801      2802
 -1      1184    8    0    1
 -2       529       666       668      2798      2803      2801
 -1      1185    8    0    1
 -2       531       532       669      2389      2804      2805
 -1      1186    8    0    1
 -2       532       533       670      2392      2806      2807
 -1      1187    8    0    1
 -2       532       670       669      2807      2808      2804
 -1      1188    8    0    1
 -2       533       534       671      2395      2809      2810
 -1      1189    8    0    1
 -2       533       671       670      2810      2811      2806
 -1      1190    8    0    1
 -2       534       535       672      2398      2812      2813
 -1      1191    8    0    1
 -2       534       672       671      2813      2814      2809
 -1      1192    8    0    1
 -2       535       536       673      2401      2815      2816
 -1      1193    8    0    1
 -2       535       673       672      2816      2817      2812
 -1      1194    8    0    1
 -2       536       537       674      2404      2818      2819
 -1      1195    8    0    1
 -2       536       674       673      2819      2820      2815
 -1      1196    8    0    1
 -2       537       538       675      2407      2821      2822
 -1      1197    8    0    1
 -2       537       675       674      2822      2823      2818
 -1      1198    8    0    1
 -2       538       539       676      2410      2824      2825
 -1      1199    8    0    1
 -2       538       676       675      2825      2826      2821
 -1      1200    8    0    1
 -2       539       540       677      2413      2827      2828
 -1      1201    8    0    1
 -2       539       677       676      2828      2829      2824
 -1      1202    8    0    1
 -2       540       541       678      2416      2830      2831
 -1      1203    8    0    1
 -2       540       678       677      2831      2832      2827
 -1      1204    8    0    1
 -2       541       542       679      2419      2833      2834
 -1      1205    8    0    1
 -2       541       679       678      2834      2835      2830
 -1      1206    8    0    1
 -2       542       543       680      2422      2836      2837
 -1      1207    8    0    1
 -2       542       680       679      2837      2838      2833
 -1      1208    8    0    1
 -2       543       544       681      2425      2839      2840
 -1      1209    8    0    1
 -2       543       681       680      2840      2841      2836
 -1      1210    8    0    1
 -2       544       545       682      2428      2842      2843
 -1      1211    8    0    1
 -2       544       682       681      2843      2844      2839
 -1      1212    8    0    1
 -2       545       546       484      2431      2845      2846
 -1      1213    8    0    1
 -2       546       547       590      2434      2847      2848
 -1      1214    8    0    1
 -2       547       548       593      2437      2849      2850
 -1      1215    8    0    1
 -2       548       549       615      2440      2851      2852
 -1      1216    8    0    1
 -2       550       551       683      2446      2853      2854
 -1      1217    8    0    1
 -2       551       552       684      2449      2855      2856
 -1      1218    8    0    1
 -2       551       684       683      2856      2857      2853
 -1      1219    8    0    1
 -2       552       553       685      2452      2858      2859
 -1      1220    8    0    1
 -2       552       685       684      2859      2860      2855
 -1      1221    8    0    1
 -2       553       554       686      2455      2861      2862
 -1      1222    8    0    1
 -2       553       686       685      2862      2863      2858
 -1      1223    8    0    1
 -2       554       555       687      2458      2864      2865
 -1      1224    8    0    1
 -2       554       687       686      2865      2866      2861
 -1      1225    8    0    1
 -2       555       556       688      2461      2867      2868
 -1      1226    8    0    1
 -2       555       688       687      2868      2869      2864
 -1      1227    8    0    1
 -2       556       557       689      2464      2870      2871
 -1      1228    8    0    1
 -2       556       689       688      2871      2872      2867
 -1      1229    8    0    1
 -2       557       558       690      2467      2873      2874
 -1      1230    8    0    1
 -2       557       690       689      2874      2875      2870
 -1      1231    8    0    1
 -2       558       559       691      2470      2876      2877
 -1      1232    8    0    1
 -2       558       691       690      2877      2878      2873
 -1      1233    8    0    1
 -2       559       560       692      2473      2879      2880
 -1      1234    8    0    1
 -2       559       692       691      2880      2881      2876
 -1      1235    8    0    1
 -2       560       561       693      2476      2882      2883
 -1      1236    8    0    1
 -2       560       693       692      2883      2884      2879
 -1      1237    8    0    1
 -2       561       562       694      2479      2885      2886
 -1      1238    8    0    1
 -2       561       694       693      2886      2887      2882
 -1      1239    8    0    1
 -2       562       563       695      2482      2888      2889
 -1      1240    8    0    1
 -2       562       695       694      2889      2890      2885
 -1      1241    8    0    1
 -2       563       564       696      2485      2891      2892
 -1      1242    8    0    1
 -2       563       696       695      2892      2893      2888
 -1      1243    8    0    1
 -2       564       565       697      2488      2894      2895
 -1      1244    8    0    1
 -2       564       697       696      2895      2896      2891
 -1      1245    8    0    1
 -2       565       566       698      2491      2897      2898
 -1      1246    8    0    1
 -2       565       698       697      2898      2899      2894
 -1      1247    8    0    1
 -2       566       567       699      2494      2900      2901
 -1      1248    8    0    1
 -2       566       699       698      2901      2902      2897
 -1      1249    8    0    1
 -2       567       568       700      2497      2903      2904
 -1      1250    8    0    1
 -2       567       700       699      2904      2905      2900
 -1      1251    8    0    1
 -2       568       569       701      2500      2906      2907
 -1      1252    8    0    1
 -2       700       568       701      2903      2907      2908
 -1      1253    8    0    1
 -2       569       572       701      2656      2909      2906
 -1      1254    8    0    1
 -2       574       575       702      2518      2910      2911
 -1      1255    8    0    1
 -2       616       527       703      2657      2912      2913
 -1      1256    8    0    1
 -2       527       665       703      2795      2914      2912
 -1      1257    8    0    1
 -2       570       571       704      2506      2915      2916
 -1      1258    8    0    1
 -2       575       576       705      2521      2917      2918
 -1      1259    8    0    1
 -2       575       705       702      2918      2919      2910
 -1      1260    8    0    1
 -2       571       574       706      2515      2920      2921
 -1      1261    8    0    1
 -2       704       571       706      2915      2921      2922
 -1      1262    8    0    1
 -2       574       702       706      2911      2923      2920
 -1      1263    8    0    1
 -2       583       528       707      2541      2924      2925
 -1      1264    8    0    1
 -2       528       668       707      2802      2926      2924
 -1      1265    8    0    1
 -2       611       581       708      2631      2927      2928
 -1      1266    8    0    1
 -2       576       577       709      2524      2929      2930
 -1      1267    8    0    1
 -2       576       709       705      2930      2931      2917
 -1      1268    8    0    1
 -2       577       578       710      2527      2932      2933
 -1      1269    8    0    1
 -2       577       710       709      2933      2934      2929
 -1      1270    8    0    1
 -2       578       579       711      2530      2935      2936
 -1      1271    8    0    1
 -2       578       711       710      2936      2937      2932
 -1      1272    8    0    1
 -2       580       616       703      2635      2913      2938
 -1      1273    8    0    1
 -2       483       586       712      2548      2939      2940
 -1      1274    8    0    1
 -2       586       617       712      2643      2941      2939
 -1      1275    8    0    1
 -2       601       602       713      2646      2942      2943
 -1      1276    8    0    1
 -2       599       600       714      2647      2944      2945
 -1      1277    8    0    1
 -2       590       547       593      2847      2850      2617
 -1      1278    8    0    1
 -2       588       606       715      2645      2946      2947
 -1      1279    8    0    1
 -2       530       531       716      2386      2948      2949
 -1      1280    8    0    1
 -2       666       530       716      2797      2949      2950
 -1      1281    8    0    1
 -2       531       669       716      2805      2951      2948
 -1      1282    8    0    1
 -2       485       483       717      2249      2952      2953
 -1      1283    8    0    1
 -2       624       485       717      2672      2953      2954
 -1      1284    8    0    1
 -2       483       712       717      2940      2955      2952
 -1      1285    8    0    1
 -2       478       479       718      2233      2956      2957
 -1      1286    8    0    1
 -2       618       478       718      2658      2957      2958
 -1      1287    8    0    1
 -2       479       620       718      2664      2959      2956
 -1      1288    8    0    1
 -2       590       484       546      2627      2845      2848
 -1      1289    8    0    1
 -2       482       583       719      2621      2960      2961
 -1      1290    8    0    1
 -2       622       482       719      2668      2961      2962
 -1      1291    8    0    1
 -2       583       707       719      2925      2963      2960
 -1      1292    8    0    1
 -2       475       474       720      2222      2964      2965
 -1      1293    8    0    1
 -2       610       582       721      2628      2966      2967
 -1      1294    8    0    1
 -2       582       584       722      2638      2968      2969
 -1      1295    8    0    1
 -2       587       609       723      2626      2970      2971
 -1      1296    8    0    1
 -2       591       608       724      2653      2972      2973
 -1      1297    8    0    1
 -2       591       724       667      2973      2974      2799
 -1      1298    8    0    1
 -2       602       603       725      2655      2975      2976
 -1      1299    8    0    1
 -2       585       613       726      2651      2977      2978
 -1      1300    8    0    1
 -2       596       597       727      2650      2979      2980
 -1      1301    8    0    1
 -2       597       598       728      2649      2981      2982
 -1      1302    8    0    1
 -2       598       599       729      2648      2983      2984
 -1      1303    8    0    1
 -2       600       601       730      2584      2985      2986
 -1      1304    8    0    1
 -2       601       713       730      2943      2987      2985
 -1      1305    8    0    1
 -2       603       604       731      2591      2988      2989
 -1      1306    8    0    1
 -2       605       588       732      2594      2990      2991
 -1      1307    8    0    1
 -2       623       605       732      2670      2991      2992
 -1      1308    8    0    1
 -2       588       715       732      2947      2993      2990
 -1      1309    8    0    1
 -2       595       596       733      2654      2994      2995
 -1      1310    8    0    1
 -2       606       607       734      2599      2996      2997
 -1      1311    8    0    1
 -2       481       612       473      2639      2614      2998
 -1      1312    8    0    1
 -2       594       595       735      2652      2999      3000
 -1      1313    8    0    1
 -2       608       587       736      2602      3001      3002
 -1      1314    8    0    1
 -2       724       608       736      2972      3002      3003
 -1      1315    8    0    1
 -2       587       723       736      2971      3004      3001
 -1      1316    8    0    1
 -2       584       611       737      2610      3005      3006
 -1      1317    8    0    1
 -2       609       610       738      2607      3007      3008
 -1      1318    8    0    1
 -2       581       585       739      2632      3009      3010
 -1      1319    8    0    1
 -2       585       726       739      2978      3011      3009
 -1      1320    8    0    1
 -2       614       475       740      2618      3012      3013
 -1      1321    8    0    1
 -2       475       720       740      2965      3014      3012
 -1      1322    8    0    1
 -2       476       619       741      2661      3015      3016
 -1      1323    8    0    1
 -2       476       741       589      3016      3017      2557
 -1      1324    8    0    1
 -2       604       623       731      2671      3018      2988
 -1      1325    8    0    1
 -2       723       609       742      2970      3019      3020
 -1      1326    8    0    1
 -2       609       738       742      3008      3021      3019
 -1      1327    8    0    1
 -2       570       704       743      2916      3022      3023
 -1      1328    8    0    1
 -2       570       743       573      3023      3024      2512
 -1      1329    8    0    1
 -2       607       667       734      2800      3025      2996
 -1      1330    8    0    1
 -2       611       708       737      2928      3026      3005
 -1      1331    8    0    1
 -2       545       484       682      2846      3027      2842
 -1      1332    8    0    1
 -2       715       606       734      2946      2997      3028
 -1      1333    8    0    1
 -2       549       550       744      2443      3029      3030
 -1      1334    8    0    1
 -2       572       573       745      2511      3031      3032
 -1      1335    8    0    1
 -2       701       572       745      2909      3032      3033
 -1      1336    8    0    1
 -2       573       743       745      3024      3034      3031
 -1      1337    8    0    1
 -2       708       581       746      2927      3035      3036
 -1      1338    8    0    1
 -2       581       739       746      3010      3037      3035
 -1      1339    8    0    1
 -2       580       703       579      2938      3038      2533
 -1      1340    8    0    1
 -2       711       579       703      2935      3038      3039
 -1      1341    8    0    1
 -2       714       600       730      2944      2986      3040
 -1      1342    8    0    1
 -2       713       602       725      2942      2976      3041
 -1      1343    8    0    1
 -2       603       731       725      2989      3042      2975
 -1      1344    8    0    1
 -2       599       714       729      2945      3043      2983
 -1      1345    8    0    1
 -2       615       549       744      2851      3030      3044
 -1      1346    8    0    1
 -2       474       589       747      2556      3045      3046
 -1      1347    8    0    1
 -2       720       474       747      2964      3046      3047
 -1      1348    8    0    1
 -2       589       741       747      3017      3048      3045
 -1      1349    8    0    1
 -2       484       594       682      2569      3049      3027
 -1      1350    8    0    1
 -2       728       598       729      2981      2984      3050
 -1      1351    8    0    1
 -2       727       597       728      2979      2982      3051
 -1      1352    8    0    1
 -2       722       584       737      2968      3006      3052
 -1      1353    8    0    1
 -2       721       582       722      2966      2969      3053
 -1      1354    8    0    1
 -2       610       721       738      2967      3054      3007
 -1      1355    8    0    1
 -2       733       596       727      2994      2980      3055
 -1      1356    8    0    1
 -2       621       481       622      2665      3056      3057
 -1      1357    8    0    1
 -2       682       594       735      3049      3000      3058
 -1      1358    8    0    1
 -2       481       473       622      2998      2669      3056
 -1      1359    8    0    1
 -2       735       595       733      2999      2995      3059
 -1      1360    8    0    1
 -2       744       550       683      3029      2854      3060
 -1      1361    8    0    1
 -2       620       621       748      2667      3061      3062
 -1      1362    8    0    1
 -2       626       625       749      2679      3063      3064
 -1      1363    8    0    1
 -2       627       626       750      2682      3065      3066
 -1      1364    8    0    1
 -2       626       749       750      3064      3067      3065
 -1      1365    8    0    1
 -2       628       627       751      2685      3068      3069
 -1      1366    8    0    1
 -2       627       750       751      3066      3070      3068
 -1      1367    8    0    1
 -2       629       628       752      2688      3071      3072
 -1      1368    8    0    1
 -2       628       751       752      3069      3073      3071
 -1      1369    8    0    1
 -2       630       629       753      2691      3074      3075
 -1      1370    8    0    1
 -2       629       752       753      3072      3076      3074
 -1      1371    8    0    1
 -2       631       630       754      2694      3077      3078
 -1      1372    8    0    1
 -2       630       753       754      3075      3079      3077
 -1      1373    8    0    1
 -2       632       631       755      2697      3080      3081
 -1      1374    8    0    1
 -2       631       754       755      3078      3082      3080
 -1      1375    8    0    1
 -2       633       632       756      2700      3083      3084
 -1      1376    8    0    1
 -2       632       755       756      3081      3085      3083
 -1      1377    8    0    1
 -2       634       633       757      2703      3086      3087
 -1      1378    8    0    1
 -2       633       756       757      3084      3088      3086
 -1      1379    8    0    1
 -2       635       634       758      2706      3089      3090
 -1      1380    8    0    1
 -2       634       757       758      3087      3091      3089
 -1      1381    8    0    1
 -2       636       635       759      2709      3092      3093
 -1      1382    8    0    1
 -2       635       758       759      3090      3094      3092
 -1      1383    8    0    1
 -2       637       636       760      2712      3095      3096
 -1      1384    8    0    1
 -2       636       759       760      3093      3097      3095
 -1      1385    8    0    1
 -2       638       637       761      2715      3098      3099
 -1      1386    8    0    1
 -2       637       760       761      3096      3100      3098
 -1      1387    8    0    1
 -2       639       638       762      2718      3101      3102
 -1      1388    8    0    1
 -2       638       761       762      3099      3103      3101
 -1      1389    8    0    1
 -2       640       639       763      2721      3104      3105
 -1      1390    8    0    1
 -2       639       762       763      3102      3106      3104
 -1      1391    8    0    1
 -2       641       640       764      2724      3107      3108
 -1      1392    8    0    1
 -2       640       763       764      3105      3109      3107
 -1      1393    8    0    1
 -2       642       641       765      2727      3110      3111
 -1      1394    8    0    1
 -2       641       764       765      3108      3112      3110
 -1      1395    8    0    1
 -2       644       643       715      2733      3113      3114
 -1      1396    8    0    1
 -2       645       644       734      2736      3115      3116
 -1      1397    8    0    1
 -2       647       646       766      2742      3117      3118
 -1      1398    8    0    1
 -2       648       647       767      2745      3119      3120
 -1      1399    8    0    1
 -2       647       766       767      3118      3121      3119
 -1      1400    8    0    1
 -2       649       648       768      2748      3122      3123
 -1      1401    8    0    1
 -2       648       767       768      3120      3124      3122
 -1      1402    8    0    1
 -2       650       649       769      2751      3125      3126
 -1      1403    8    0    1
 -2       649       768       769      3123      3127      3125
 -1      1404    8    0    1
 -2       651       650       770      2754      3128      3129
 -1      1405    8    0    1
 -2       650       769       770      3126      3130      3128
 -1      1406    8    0    1
 -2       652       651       771      2757      3131      3132
 -1      1407    8    0    1
 -2       651       770       771      3129      3133      3131
 -1      1408    8    0    1
 -2       653       652       772      2760      3134      3135
 -1      1409    8    0    1
 -2       652       771       772      3132      3136      3134
 -1      1410    8    0    1
 -2       654       653       773      2763      3137      3138
 -1      1411    8    0    1
 -2       653       772       773      3135      3139      3137
 -1      1412    8    0    1
 -2       655       654       774      2766      3140      3141
 -1      1413    8    0    1
 -2       654       773       774      3138      3142      3140
 -1      1414    8    0    1
 -2       656       655       775      2769      3143      3144
 -1      1415    8    0    1
 -2       655       774       775      3141      3145      3143
 -1      1416    8    0    1
 -2       657       656       776      2772      3146      3147
 -1      1417    8    0    1
 -2       656       775       776      3144      3148      3146
 -1      1418    8    0    1
 -2       658       657       777      2775      3149      3150
 -1      1419    8    0    1
 -2       657       776       777      3147      3151      3149
 -1      1420    8    0    1
 -2       659       658       778      2778      3152      3153
 -1      1421    8    0    1
 -2       658       777       778      3150      3154      3152
 -1      1422    8    0    1
 -2       660       659       779      2781      3155      3156
 -1      1423    8    0    1
 -2       659       778       779      3153      3157      3155
 -1      1424    8    0    1
 -2       661       660       780      2784      3158      3159
 -1      1425    8    0    1
 -2       660       779       780      3156      3160      3158
 -1      1426    8    0    1
 -2       662       661       781      2787      3161      3162
 -1      1427    8    0    1
 -2       661       780       781      3159      3163      3161
 -1      1428    8    0    1
 -2       663       662       782      2790      3164      3165
 -1      1429    8    0    1
 -2       662       781       782      3162      3166      3164
 -1      1430    8    0    1
 -2       664       663       783      2793      3167      3168
 -1      1431    8    0    1
 -2       663       782       783      3165      3169      3167
 -1      1432    8    0    1
 -2       665       664       784      2796      3170      3171
 -1      1433    8    0    1
 -2       664       783       784      3168      3172      3170
 -1      1434    8    0    1
 -2       670       671       785      2811      3173      3174
 -1      1435    8    0    1
 -2       669       670       786      2808      3175      3176
 -1      1436    8    0    1
 -2       670       785       786      3174      3177      3175
 -1      1437    8    0    1
 -2       672       673       787      2817      3178      3179
 -1      1438    8    0    1
 -2       673       674       788      2820      3180      3181
 -1      1439    8    0    1
 -2       673       788       787      3181      3182      3178
 -1      1440    8    0    1
 -2       674       675       789      2823      3183      3184
 -1      1441    8    0    1
 -2       674       789       788      3184      3185      3180
 -1      1442    8    0    1
 -2       675       676       790      2826      3186      3187
 -1      1443    8    0    1
 -2       675       790       789      3187      3188      3183
 -1      1444    8    0    1
 -2       676       677       791      2829      3189      3190
 -1      1445    8    0    1
 -2       676       791       790      3190      3191      3186
 -1      1446    8    0    1
 -2       677       678       792      2832      3192      3193
 -1      1447    8    0    1
 -2       677       792       791      3193      3194      3189
 -1      1448    8    0    1
 -2       678       679       793      2835      3195      3196
 -1      1449    8    0    1
 -2       678       793       792      3196      3197      3192
 -1      1450    8    0    1
 -2       679       680       794      2838      3198      3199
 -1      1451    8    0    1
 -2       679       794       793      3199      3200      3195
 -1      1452    8    0    1
 -2       681       682       735      2844      3058      3201
 -1      1453    8    0    1
 -2       715       734       644      3028      3115      3114
 -1      1454    8    0    1
 -2       683       684       795      2857      3202      3203
 -1      1455    8    0    1
 -2       686       687       796      2866      3204      3205
 -1      1456    8    0    1
 -2       687       688       797      2869      3206      3207
 -1      1457    8    0    1
 -2       687       797       796      3207      3208      3204
 -1      1458    8    0    1
 -2       688       689       798      2872      3209      3210
 -1      1459    8    0    1
 -2       688       798       797      3210      3211      3206
 -1      1460    8    0    1
 -2       689       690       799      2875      3212      3213
 -1      1461    8    0    1
 -2       689       799       798      3213      3214      3209
 -1      1462    8    0    1
 -2       690       691       800      2878      3215      3216
 -1      1463    8    0    1
 -2       690       800       799      3216      3217      3212
 -1      1464    8    0    1
 -2       691       692       801      2881      3218      3219
 -1      1465    8    0    1
 -2       691       801       800      3219      3220      3215
 -1      1466    8    0    1
 -2       692       693       802      2884      3221      3222
 -1      1467    8    0    1
 -2       692       802       801      3222      3223      3218
 -1      1468    8    0    1
 -2       693       694       803      2887      3224      3225
 -1      1469    8    0    1
 -2       693       803       802      3225      3226      3221
 -1      1470    8    0    1
 -2       694       695       804      2890      3227      3228
 -1      1471    8    0    1
 -2       694       804       803      3228      3229      3224
 -1      1472    8    0    1
 -2       695       696       805      2893      3230      3231
 -1      1473    8    0    1
 -2       695       805       804      3231      3232      3227
 -1      1474    8    0    1
 -2       696       697       806      2896      3233      3234
 -1      1475    8    0    1
 -2       696       806       805      3234      3235      3230
 -1      1476    8    0    1
 -2       697       698       807      2899      3236      3237
 -1      1477    8    0    1
 -2       697       807       806      3237      3238      3233
 -1      1478    8    0    1
 -2       698       699       808      2902      3239      3240
 -1      1479    8    0    1
 -2       698       808       807      3240      3241      3236
 -1      1480    8    0    1
 -2       699       700       809      2905      3242      3243
 -1      1481    8    0    1
 -2       699       809       808      3243      3244      3239
 -1      1482    8    0    1
 -2       700       701       810      2908      3245      3246
 -1      1483    8    0    1
 -2       809       700       810      3242      3246      3247
 -1      1484    8    0    1
 -2       701       745       810      3033      3248      3245
 -1      1485    8    0    1
 -2       619       618       811      2662      3249      3250
 -1      1486    8    0    1
 -2       707       668       812      2926      3251      3252
 -1      1487    8    0    1
 -2       702       705       813      2919      3253      3254
 -1      1488    8    0    1
 -2       710       711       814      2937      3255      3256
 -1      1489    8    0    1
 -2       705       709       815      2931      3257      3258
 -1      1490    8    0    1
 -2       705       815       813      3258      3259      3253
 -1      1491    8    0    1
 -2       739       726       816      3011      3260      3261
 -1      1492    8    0    1
 -2       728       729       817      3050      3262      3263
 -1      1493    8    0    1
 -2       730       713       818      2987      3264      3265
 -1      1494    8    0    1
 -2       613       615       819      2624      3266      3267
 -1      1495    8    0    1
 -2       617       614       820      2644      3268      3269
 -1      1496    8    0    1
 -2       712       617       820      2941      3269      3270
 -1      1497    8    0    1
 -2       614       740       820      3013      3271      3268
 -1      1498    8    0    1
 -2       709       710       821      2934      3272      3273
 -1      1499    8    0    1
 -2       815       709       821      3257      3273      3274
 -1      1500    8    0    1
 -2       710       814       821      3256      3275      3272
 -1      1501    8    0    1
 -2       684       685       822      2860      3276      3277
 -1      1502    8    0    1
 -2       684       822       795      3277      3278      3202
 -1      1503    8    0    1
 -2       593       548       592      2849      3279      2566
 -1      1504    8    0    1
 -2       671       672       823      2814      3280      3281
 -1      1505    8    0    1
 -2       785       671       823      3173      3281      3282
 -1      1506    8    0    1
 -2       672       787       823      3179      3283      3280
 -1      1507    8    0    1
 -2       668       666       824      2803      3284      3285
 -1      1508    8    0    1
 -2       668       824       812      3285      3286      3251
 -1      1509    8    0    1
 -2       731       623       825      3018      3287      3288
 -1      1510    8    0    1
 -2       685       686       826      2863      3289      3290
 -1      1511    8    0    1
 -2       686       796       826      3205      3291      3289
 -1      1512    8    0    1
 -2       725       731       827      3042      3292      3293
 -1      1513    8    0    1
 -2       625       624       828      2676      3294      3295
 -1      1514    8    0    1
 -2       625       828       749      3295      3296      3063
 -1      1515    8    0    1
 -2       726       613       819      2977      3267      3297
 -1      1516    8    0    1
 -2       738       721       829      3054      3298      3299
 -1      1517    8    0    1
 -2       721       722       830      3053      3300      3301
 -1      1518    8    0    1
 -2       667       724       831      2974      3302      3303
 -1      1519    8    0    1
 -2       729       714       832      3043      3304      3305
 -1      1520    8    0    1
 -2       735       733       681      3059      3306      3201
 -1      1521    8    0    1
 -2       621       622       833      3057      3307      3308
 -1      1522    8    0    1
 -2       748       621       833      3061      3308      3309
 -1      1523    8    0    1
 -2       622       719       833      2962      3310      3307
 -1      1524    8    0    1
 -2       722       737       834      3052      3311      3312
 -1      1525    8    0    1
 -2       727       728       835      3051      3313      3314
 -1      1526    8    0    1
 -2       713       725       836      3041      3315      3316
 -1      1527    8    0    1
 -2       713       836       818      3316      3317      3264
 -1      1528    8    0    1
 -2       737       708       837      3026      3318      3319
 -1      1529    8    0    1
 -2       715       643       838      3113      3320      3321
 -1      1530    8    0    1
 -2       732       715       838      2993      3321      3322
 -1      1531    8    0    1
 -2       643       642       838      2730      3323      3320
 -1      1532    8    0    1
 -2       645       734       839      3116      3324      3325
 -1      1533    8    0    1
 -2       646       645       839      2739      3325      3326
 -1      1534    8    0    1
 -2       734       667       839      3025      3327      3324
 -1      1535    8    0    1
 -2       681       733       840      3306      3328      3329
 -1      1536    8    0    1
 -2       680       681       840      2841      3329      3330
 -1      1537    8    0    1
 -2       733       727       840      3055      3331      3328
 -1      1538    8    0    1
 -2       592       548       615      3279      2852      2625
 -1      1539    8    0    1
 -2       714       730       841      3040      3332      3333
 -1      1540    8    0    1
 -2       730       818       841      3265      3334      3332
 -1      1541    8    0    1
 -2       741       619       842      3015      3335      3336
 -1      1542    8    0    1
 -2       619       811       842      3250      3337      3335
 -1      1543    8    0    1
 -2       642       765       838      3111      3338      3323
 -1      1544    8    0    1
 -2       742       738       843      3021      3339      3340
 -1      1545    8    0    1
 -2       738       829       843      3299      3341      3339
 -1      1546    8    0    1
 -2       624       717       844      2954      3342      3343
 -1      1547    8    0    1
 -2       624       844       828      3343      3344      3294
 -1      1548    8    0    1
 -2       714       841       832      3333      3345      3304
 -1      1549    8    0    1
 -2       743       704       845      3022      3346      3347
 -1      1550    8    0    1
 -2       683       795       816      3203      3348      3349
 -1      1551    8    0    1
 -2       646       839       766      3326      3350      3117
 -1      1552    8    0    1
 -2       840       727       835      3331      3314      3351
 -1      1553    8    0    1
 -2       824       666       846      3284      3352      3353
 -1      1554    8    0    1
 -2       666       716       846      2950      3354      3352
 -1      1555    8    0    1
 -2       717       712       820      2955      3270      3355
 -1      1556    8    0    1
 -2       669       786       847      3176      3356      3357
 -1      1557    8    0    1
 -2       669       847       716      3357      3358      2951
 -1      1558    8    0    1
 -2       794       680       840      3198      3330      3359
 -1      1559    8    0    1
 -2       814       711       784      3255      3360      3361
 -1      1560    8    0    1
 -2       739       816       746      3261      3362      3037
 -1      1561    8    0    1
 -2       719       707       848      2963      3363      3364
 -1      1562    8    0    1
 -2       833       719       848      3310      3364      3365
 -1      1563    8    0    1
 -2       707       812       848      3252      3366      3363
 -1      1564    8    0    1
 -2       722       834       849      3312      3367      3368
 -1      1565    8    0    1
 -2       722       849       830      3368      3369      3300
 -1      1566    8    0    1
 -2       834       737       837      3311      3319      3370
 -1      1567    8    0    1
 -2       620       748       850      3062      3371      3372
 -1      1568    8    0    1
 -2       620       850       718      3372      3373      2959
 -1      1569    8    0    1
 -2       725       827       836      3293      3374      3315
 -1      1570    8    0    1
 -2       811       618       851      3249      3375      3376
 -1      1571    8    0    1
 -2       618       718       851      2958      3377      3375
 -1      1572    8    0    1
 -2       731       825       827      3288      3378      3292
 -1      1573    8    0    1
 -2       704       706       852      2922      3379      3380
 -1      1574    8    0    1
 -2       704       852       845      3380      3381      3346
 -1      1575    8    0    1
 -2       703       665       711      2914      3382      3039
 -1      1576    8    0    1
 -2       706       702       853      2923      3383      3384
 -1      1577    8    0    1
 -2       852       706       853      3379      3384      3385
 -1      1578    8    0    1
 -2       702       813       853      3254      3386      3383
 -1      1579    8    0    1
 -2       728       817       835      3263      3387      3313
 -1      1580    8    0    1
 -2       736       723       854      3004      3388      3389
 -1      1581    8    0    1
 -2       615       744       819      3044      3390      3266
 -1      1582    8    0    1
 -2       685       826       822      3290      3391      3276
 -1      1583    8    0    1
 -2       817       729       855      3262      3392      3393
 -1      1584    8    0    1
 -2       729       832       855      3305      3394      3392
 -1      1585    8    0    1
 -2       829       721       830      3298      3301      3395
 -1      1586    8    0    1
 -2       837       708       856      3318      3396      3397
 -1      1587    8    0    1
 -2       708       746       856      3036      3398      3396
 -1      1588    8    0    1
 -2       723       742       857      3020      3399      3400
 -1      1589    8    0    1
 -2       723       857       854      3400      3401      3388
 -1      1590    8    0    1
 -2       623       732       838      2992      3322      3402
 -1      1591    8    0    1
 -2       720       747       858      3047      3403      3404
 -1      1592    8    0    1
 -2       726       819       859      3297      3405      3406
 -1      1593    8    0    1
 -2       816       726       859      3260      3406      3407
 -1      1594    8    0    1
 -2       819       744       859      3390      3408      3405
 -1      1595    8    0    1
 -2       724       736       860      3003      3409      3410
 -1      1596    8    0    1
 -2       831       724       860      3302      3410      3411
 -1      1597    8    0    1
 -2       736       854       860      3389      3412      3409
 -1      1598    8    0    1
 -2       740       720       861      3014      3413      3414
 -1      1599    8    0    1
 -2       720       858       861      3404      3415      3413
 -1      1600    8    0    1
 -2       744       683       859      3060      3416      3408
 -1      1601    8    0    1
 -2       711       665       784      3382      3171      3360
 -1      1602    8    0    1
 -2       683       816       859      3349      3407      3416
 -1      1603    8    0    1
 -2       750       749       862      3067      3417      3418
 -1      1604    8    0    1
 -2       816       795       746      3348      3419      3362
 -1      1605    8    0    1
 -2       766       839       831      3350      3420      3421
 -1      1606    8    0    1
 -2       751       750       863      3070      3422      3423
 -1      1607    8    0    1
 -2       750       862       863      3418      3424      3422
 -1      1608    8    0    1
 -2       752       751       864      3073      3425      3426
 -1      1609    8    0    1
 -2       751       863       864      3423      3427      3425
 -1      1610    8    0    1
 -2       753       752       865      3076      3428      3429
 -1      1611    8    0    1
 -2       752       864       865      3426      3430      3428
 -1      1612    8    0    1
 -2       754       753       866      3079      3431      3432
 -1      1613    8    0    1
 -2       753       865       866      3429      3433      3431
 -1      1614    8    0    1
 -2       755       754       867      3082      3434      3435
 -1      1615    8    0    1
 -2       754       866       867      3432      3436      3434
 -1      1616    8    0    1
 -2       756       755       868      3085      3437      3438
 -1      1617    8    0    1
 -2       755       867       868      3435      3439      3437
 -1      1618    8    0    1
 -2       757       756       869      3088      3440      3441
 -1      1619    8    0    1
 -2       756       868       869      3438      3442      3440
 -1      1620    8    0    1
 -2       758       757       870      3091      3443      3444
 -1      1621    8    0    1
 -2       757       869       870      3441      3445      3443
 -1      1622    8    0    1
 -2       759       758       871      3094      3446      3447
 -1      1623    8    0    1
 -2       758       870       871      3444      3448      3446
 -1      1624    8    0    1
 -2       760       759       872      3097      3449      3450
 -1      1625    8    0    1
 -2       759       871       872      3447      3451      3449
 -1      1626    8    0    1
 -2       761       760       873      3100      3452      3453
 -1      1627    8    0    1
 -2       760       872       873      3450      3454      3452
 -1      1628    8    0    1
 -2       762       761       874      3103      3455      3456
 -1      1629    8    0    1
 -2       761       873       874      3453      3457      3455
 -1      1630    8    0    1
 -2       763       762       875      3106      3458      3459
 -1      1631    8    0    1
 -2       762       874       875      3456      3460      3458
 -1      1632    8    0    1
 -2       765       764       825      3112      3461      3462
 -1      1633    8    0    1
 -2       812       824       876      3286      3463      3464
 -1      1634    8    0    1
 -2       768       767       877      3124      3465      3466
 -1      1635    8    0    1
 -2       769       768       878      3127      3467      3468
 -1      1636    8    0    1
 -2       768       877       878      3466      3469      3467
 -1      1637    8    0    1
 -2       770       769       879      3130      3470      3471
 -1      1638    8    0    1
 -2       769       878       879      3468      3472      3470
 -1      1639    8    0    1
 -2       771       770       880      3133      3473      3474
 -1      1640    8    0    1
 -2       770       879       880      3471      3475      3473
 -1      1641    8    0    1
 -2       772       771       881      3136      3476      3477
 -1      1642    8    0    1
 -2       771       880       881      3474      3478      3476
 -1      1643    8    0    1
 -2       773       772       882      3139      3479      3480
 -1      1644    8    0    1
 -2       772       881       882      3477      3481      3479
 -1      1645    8    0    1
 -2       774       773       883      3142      3482      3483
 -1      1646    8    0    1
 -2       773       882       883      3480      3484      3482
 -1      1647    8    0    1
 -2       775       774       884      3145      3485      3486
 -1      1648    8    0    1
 -2       774       883       884      3483      3487      3485
 -1      1649    8    0    1
 -2       776       775       885      3148      3488      3489
 -1      1650    8    0    1
 -2       775       884       885      3486      3490      3488
 -1      1651    8    0    1
 -2       777       776       886      3151      3491      3492
 -1      1652    8    0    1
 -2       776       885       886      3489      3493      3491
 -1      1653    8    0    1
 -2       778       777       887      3154      3494      3495
 -1      1654    8    0    1
 -2       777       886       887      3492      3496      3494
 -1      1655    8    0    1
 -2       779       778       888      3157      3497      3498
 -1      1656    8    0    1
 -2       778       887       888      3495      3499      3497
 -1      1657    8    0    1
 -2       780       779       889      3160      3500      3501
 -1      1658    8    0    1
 -2       779       888       889      3498      3502      3500
 -1      1659    8    0    1
 -2       781       780       890      3163      3503      3504
 -1      1660    8    0    1
 -2       780       889       890      3501      3505      3503
 -1      1661    8    0    1
 -2       782       781       891      3166      3506      3507
 -1      1662    8    0    1
 -2       781       890       891      3504      3508      3506
 -1      1663    8    0    1
 -2       783       782       892      3169      3509      3510
 -1      1664    8    0    1
 -2       782       891       892      3507      3511      3509
 -1      1665    8    0    1
 -2       784       783       893      3172      3512      3513
 -1      1666    8    0    1
 -2       814       784       893      3361      3513      3514
 -1      1667    8    0    1
 -2       783       892       893      3510      3515      3512
 -1      1668    8    0    1
 -2       788       789       894      3185      3516      3517
 -1      1669    8    0    1
 -2       787       788       895      3182      3518      3519
 -1      1670    8    0    1
 -2       788       894       895      3517      3520      3518
 -1      1671    8    0    1
 -2       790       791       896      3191      3521      3522
 -1      1672    8    0    1
 -2       791       792       897      3194      3523      3524
 -1      1673    8    0    1
 -2       791       897       896      3524      3525      3521
 -1      1674    8    0    1
 -2       792       793       898      3197      3526      3527
 -1      1675    8    0    1
 -2       792       898       897      3527      3528      3523
 -1      1676    8    0    1
 -2       766       831       860      3421      3411      3529
 -1      1677    8    0    1
 -2       745       743       899      3034      3530      3531
 -1      1678    8    0    1
 -2       810       745       899      3248      3531      3532
 -1      1679    8    0    1
 -2       743       845       899      3347      3533      3530
 -1      1680    8    0    1
 -2       797       798       900      3211      3534      3535
 -1      1681    8    0    1
 -2       841       818       901      3334      3536      3537
 -1      1682    8    0    1
 -2       796       797       902      3208      3538      3539
 -1      1683    8    0    1
 -2       797       900       902      3535      3540      3538
 -1      1684    8    0    1
 -2       799       800       903      3217      3541      3542
 -1      1685    8    0    1
 -2       800       801       904      3220      3543      3544
 -1      1686    8    0    1
 -2       800       904       903      3544      3545      3541
 -1      1687    8    0    1
 -2       801       802       905      3223      3546      3547
 -1      1688    8    0    1
 -2       801       905       904      3547      3548      3543
 -1      1689    8    0    1
 -2       802       803       906      3226      3549      3550
 -1      1690    8    0    1
 -2       802       906       905      3550      3551      3546
 -1      1691    8    0    1
 -2       803       804       907      3229      3552      3553
 -1      1692    8    0    1
 -2       803       907       906      3553      3554      3549
 -1      1693    8    0    1
 -2       804       805       908      3232      3555      3556
 -1      1694    8    0    1
 -2       804       908       907      3556      3557      3552
 -1      1695    8    0    1
 -2       805       806       909      3235      3558      3559
 -1      1696    8    0    1
 -2       805       909       908      3559      3560      3555
 -1      1697    8    0    1
 -2       806       807       910      3238      3561      3562
 -1      1698    8    0    1
 -2       806       910       909      3562      3563      3558
 -1      1699    8    0    1
 -2       807       808       911      3241      3564      3565
 -1      1700    8    0    1
 -2       807       911       910      3565      3566      3561
 -1      1701    8    0    1
 -2       827       825       764      3378      3461      3567
 -1      1702    8    0    1
 -2       835       817       912      3387      3568      3569
 -1      1703    8    0    1
 -2       795       822       746      3278      3570      3419
 -1      1704    8    0    1
 -2       813       815       913      3259      3571      3572
 -1      1705    8    0    1
 -2       623       838       765      3402      3338      3573
 -1      1706    8    0    1
 -2       839       667       831      3327      3303      3420
 -1      1707    8    0    1
 -2       832       841       914      3345      3574      3575
 -1      1708    8    0    1
 -2       747       741       915      3048      3576      3577
 -1      1709    8    0    1
 -2       747       915       858      3577      3578      3403
 -1      1710    8    0    1
 -2       794       840       835      3359      3351      3579
 -1      1711    8    0    1
 -2       826       796       916      3291      3580      3581
 -1      1712    8    0    1
 -2       796       902       916      3539      3582      3580
 -1      1713    8    0    1
 -2       825       623       765      3287      3573      3462
 -1      1714    8    0    1
 -2       717       820       844      3355      3583      3342
 -1      1715    8    0    1
 -2       749       828       917      3296      3584      3585
 -1      1716    8    0    1
 -2       749       917       862      3585      3586      3417
 -1      1717    8    0    1
 -2       834       837       918      3370      3587      3588
 -1      1718    8    0    1
 -2       836       827       919      3374      3589      3590
 -1      1719    8    0    1
 -2       789       790       920      3188      3591      3592
 -1      1720    8    0    1
 -2       894       789       920      3516      3592      3593
 -1      1721    8    0    1
 -2       790       896       920      3522      3594      3591
 -1      1722    8    0    1
 -2       786       785       921      3177      3595      3596
 -1      1723    8    0    1
 -2       829       830       922      3395      3597      3598
 -1      1724    8    0    1
 -2       818       836       923      3317      3599      3600
 -1      1725    8    0    1
 -2       818       923       901      3600      3601      3536
 -1      1726    8    0    1
 -2       798       799       924      3214      3602      3603
 -1      1727    8    0    1
 -2       799       903       924      3542      3604      3602
 -1      1728    8    0    1
 -2       767       766       860      3121      3529      3605
 -1      1729    8    0    1
 -2       794       835       912      3579      3569      3606
 -1      1730    8    0    1
 -2       827       764       763      3567      3109      3607
 -1      1731    8    0    1
 -2       746       822       856      3570      3608      3398
 -1      1732    8    0    1
 -2       813       913       925      3572      3609      3610
 -1      1733    8    0    1
 -2       813       925       853      3610      3611      3386
 -1      1734    8    0    1
 -2       843       829       926      3341      3612      3613
 -1      1735    8    0    1
 -2       829       922       926      3598      3614      3612
 -1      1736    8    0    1
 -2       820       740       844      3271      3615      3583
 -1      1737    8    0    1
 -2       832       914       927      3575      3616      3617
 -1      1738    8    0    1
 -2       832       927       855      3617      3618      3394
 -1      1739    8    0    1
 -2       827       763       919      3607      3619      3589
 -1      1740    8    0    1
 -2       812       876       928      3464      3620      3621
 -1      1741    8    0    1
 -2       846       716       847      3354      3358      3622
 -1      1742    8    0    1
 -2       814       893       929      3514      3623      3624
 -1      1743    8    0    1
 -2       814       929       821      3624      3625      3275
 -1      1744    8    0    1
 -2       786       921       930      3596      3626      3627
 -1      1745    8    0    1
 -2       786       930       847      3627      3628      3356
 -1      1746    8    0    1
 -2       787       895       931      3519      3629      3630
 -1      1747    8    0    1
 -2       787       931       823      3630      3631      3283
 -1      1748    8    0    1
 -2       898       793       912      3526      3632      3633
 -1      1749    8    0    1
 -2       793       794       912      3200      3606      3632
 -1      1750    8    0    1
 -2       748       833       932      3309      3634      3635
 -1      1751    8    0    1
 -2       850       748       932      3371      3635      3636
 -1      1752    8    0    1
 -2       833       848       932      3365      3637      3634
 -1      1753    8    0    1
 -2       876       824       933      3463      3638      3639
 -1      1754    8    0    1
 -2       824       846       933      3353      3640      3638
 -1      1755    8    0    1
 -2       848       812       928      3366      3621      3641
 -1      1756    8    0    1
 -2       798       924       900      3603      3642      3534
 -1      1757    8    0    1
 -2       841       901       914      3537      3643      3574
 -1      1758    8    0    1
 -2       923       836       919      3599      3590      3644
 -1      1759    8    0    1
 -2       851       718       850      3377      3373      3645
 -1      1760    8    0    1
 -2       808       809       934      3244      3646      3647
 -1      1761    8    0    1
 -2       809       810       899      3247      3532      3648
 -1      1762    8    0    1
 -2       830       849       922      3369      3649      3597
 -1      1763    8    0    1
 -2       912       817       935      3568      3650      3651
 -1      1764    8    0    1
 -2       817       855       935      3393      3652      3650
 -1      1765    8    0    1
 -2       860       854       877      3412      3653      3654
 -1      1766    8    0    1
 -2       741       842       915      3336      3655      3576
 -1      1767    8    0    1
 -2       828       844       936      3344      3656      3657
 -1      1768    8    0    1
 -2       828       936       917      3657      3658      3584
 -1      1769    8    0    1
 -2       767       860       877      3605      3654      3465
 -1      1770    8    0    1
 -2       861       858       937      3415      3659      3660
 -1      1771    8    0    1
 -2       858       915       938      3578      3661      3662
 -1      1772    8    0    1
 -2       858       938       937      3662      3663      3659
 -1      1773    8    0    1
 -2       742       843       939      3340      3664      3665
 -1      1774    8    0    1
 -2       742       939       857      3665      3666      3399
 -1      1775    8    0    1
 -2       811       851       940      3376      3667      3668
 -1      1776    8    0    1
 -2       822       826       941      3391      3669      3670
 -1      1777    8    0    1
 -2       845       852       942      3381      3671      3672
 -1      1778    8    0    1
 -2       918       837       943      3587      3673      3674
 -1      1779    8    0    1
 -2       837       856       943      3397      3675      3673
 -1      1780    8    0    1
 -2       921       785       944      3595      3676      3677
 -1      1781    8    0    1
 -2       785       823       944      3282      3678      3676
 -1      1782    8    0    1
 -2       808       934       911      3647      3679      3564
 -1      1783    8    0    1
 -2       849       834       918      3367      3588      3680
 -1      1784    8    0    1
 -2       815       821       945      3274      3681      3682
 -1      1785    8    0    1
 -2       913       815       945      3571      3682      3683
 -1      1786    8    0    1
 -2       821       929       945      3625      3684      3681
 -1      1787    8    0    1
 -2       811       940       946      3668      3685      3686
 -1      1788    8    0    1
 -2       811       946       842      3686      3687      3337
 -1      1789    8    0    1
 -2       854       857       877      3401      3688      3653
 -1      1790    8    0    1
 -2       826       916       941      3581      3689      3669
 -1      1791    8    0    1
 -2       934       809       899      3646      3648      3690
 -1      1792    8    0    1
 -2       862       917       947      3586      3691      3692
 -1      1793    8    0    1
 -2       878       877       857      3469      3688      3693
 -1      1794    8    0    1
 -2       863       862       948      3424      3694      3695
 -1      1795    8    0    1
 -2       862       947       948      3692      3696      3694
 -1      1796    8    0    1
 -2       864       863       949      3427      3697      3698
 -1      1797    8    0    1
 -2       863       948       949      3695      3699      3697
 -1      1798    8    0    1
 -2       865       864       950      3430      3700      3701
 -1      1799    8    0    1
 -2       864       949       950      3698      3702      3700
 -1      1800    8    0    1
 -2       866       865       951      3433      3703      3704
 -1      1801    8    0    1
 -2       865       950       951      3701      3705      3703
 -1      1802    8    0    1
 -2       867       866       952      3436      3706      3707
 -1      1803    8    0    1
 -2       866       951       952      3704      3708      3706
 -1      1804    8    0    1
 -2       868       867       953      3439      3709      3710
 -1      1805    8    0    1
 -2       867       952       953      3707      3711      3709
 -1      1806    8    0    1
 -2       869       868       954      3442      3712      3713
 -1      1807    8    0    1
 -2       868       953       954      3710      3714      3712
 -1      1808    8    0    1
 -2       870       869       955      3445      3715      3716
 -1      1809    8    0    1
 -2       869       954       955      3713      3717      3715
 -1      1810    8    0    1
 -2       871       870       956      3448      3718      3719
 -1      1811    8    0    1
 -2       870       955       956      3716      3720      3718
 -1      1812    8    0    1
 -2       872       871       957      3451      3721      3722
 -1      1813    8    0    1
 -2       871       956       957      3719      3723      3721
 -1      1814    8    0    1
 -2       873       872       958      3454      3724      3725
 -1      1815    8    0    1
 -2       872       957       958      3722      3726      3724
 -1      1816    8    0    1
 -2       874       873       959      3457      3727      3728
 -1      1817    8    0    1
 -2       873       958       959      3725      3729      3727
 -1      1818    8    0    1
 -2       928       876       960      3620      3730      3731
 -1      1819    8    0    1
 -2       856       822       941      3608      3670      3732
 -1      1820    8    0    1
 -2       846       847       961      3622      3733      3734
 -1      1821    8    0    1
 -2       847       930       961      3628      3735      3733
 -1      1822    8    0    1
 -2       861       937       936      3660      3736      3737
 -1      1823    8    0    1
 -2       879       878       962      3472      3738      3739
 -1      1824    8    0    1
 -2       880       879       963      3475      3740      3741
 -1      1825    8    0    1
 -2       879       962       963      3739      3742      3740
 -1      1826    8    0    1
 -2       881       880       964      3478      3743      3744
 -1      1827    8    0    1
 -2       880       963       964      3741      3745      3743
 -1      1828    8    0    1
 -2       882       881       965      3481      3746      3747
 -1      1829    8    0    1
 -2       881       964       965      3744      3748      3746
 -1      1830    8    0    1
 -2       883       882       966      3484      3749      3750
 -1      1831    8    0    1
 -2       882       965       966      3747      3751      3749
 -1      1832    8    0    1
 -2       884       883       967      3487      3752      3753
 -1      1833    8    0    1
 -2       883       966       967      3750      3754      3752
 -1      1834    8    0    1
 -2       885       884       968      3490      3755      3756
 -1      1835    8    0    1
 -2       884       967       968      3753      3757      3755
 -1      1836    8    0    1
 -2       886       885       969      3493      3758      3759
 -1      1837    8    0    1
 -2       885       968       969      3756      3760      3758
 -1      1838    8    0    1
 -2       887       886       970      3496      3761      3762
 -1      1839    8    0    1
 -2       886       969       970      3759      3763      3761
 -1      1840    8    0    1
 -2       888       887       971      3499      3764      3765
 -1      1841    8    0    1
 -2       887       970       971      3762      3766      3764
 -1      1842    8    0    1
 -2       889       888       972      3502      3767      3768
 -1      1843    8    0    1
 -2       888       971       972      3765      3769      3767
 -1      1844    8    0    1
 -2       890       889       973      3505      3770      3771
 -1      1845    8    0    1
 -2       889       972       973      3768      3772      3770
 -1      1846    8    0    1
 -2       891       890       974      3508      3773      3774
 -1      1847    8    0    1
 -2       890       973       974      3771      3775      3773
 -1      1848    8    0    1
 -2       892       891       975      3511      3776      3777
 -1      1849    8    0    1
 -2       891       974       975      3774      3778      3776
 -1      1850    8    0    1
 -2       893       892       976      3515      3779      3780
 -1      1851    8    0    1
 -2       929       893       976      3623      3780      3781
 -1      1852    8    0    1
 -2       892       975       976      3777      3782      3779
 -1      1853    8    0    1
 -2       895       894       977      3520      3783      3784
 -1      1854    8    0    1
 -2       897       898       978      3528      3785      3786
 -1      1855    8    0    1
 -2       896       897       979      3525      3787      3788
 -1      1856    8    0    1
 -2       897       978       979      3786      3789      3787
 -1      1857    8    0    1
 -2       902       900       980      3540      3790      3791
 -1      1858    8    0    1
 -2       899       845       934      3533      3792      3690
 -1      1859    8    0    1
 -2       904       905       981      3548      3793      3794
 -1      1860    8    0    1
 -2       903       904       982      3545      3795      3796
 -1      1861    8    0    1
 -2       904       981       982      3794      3797      3795
 -1      1862    8    0    1
 -2       906       907       983      3554      3798      3799
 -1      1863    8    0    1
 -2       907       908       984      3557      3800      3801
 -1      1864    8    0    1
 -2       907       984       983      3801      3802      3798
 -1      1865    8    0    1
 -2       908       909       985      3560      3803      3804
 -1      1866    8    0    1
 -2       908       985       984      3804      3805      3800
 -1      1867    8    0    1
 -2       909       910       986      3563      3806      3807
 -1      1868    8    0    1
 -2       909       986       985      3807      3808      3803
 -1      1869    8    0    1
 -2       910       911       987      3566      3809      3810
 -1      1870    8    0    1
 -2       910       987       986      3810      3811      3806
 -1      1871    8    0    1
 -2       849       918       988      3680      3812      3813
 -1      1872    8    0    1
 -2       914       901       989      3643      3814      3815
 -1      1873    8    0    1
 -2       900       924       990      3642      3816      3817
 -1      1874    8    0    1
 -2       900       990       980      3817      3818      3790
 -1      1875    8    0    1
 -2       915       842       991      3655      3819      3820
 -1      1876    8    0    1
 -2       938       915       991      3661      3820      3821
 -1      1877    8    0    1
 -2       842       946       991      3687      3822      3819
 -1      1878    8    0    1
 -2       852       853       992      3385      3823      3824
 -1      1879    8    0    1
 -2       942       852       992      3671      3824      3825
 -1      1880    8    0    1
 -2       853       925       992      3611      3826      3823
 -1      1881    8    0    1
 -2       922       849       993      3649      3827      3828
 -1      1882    8    0    1
 -2       849       988       993      3813      3829      3827
 -1      1883    8    0    1
 -2       940       851       994      3667      3830      3831
 -1      1884    8    0    1
 -2       851       850       994      3645      3832      3830
 -1      1885    8    0    1
 -2       898       912       935      3633      3651      3833
 -1      1886    8    0    1
 -2       916       902       995      3582      3834      3835
 -1      1887    8    0    1
 -2       902       980       995      3791      3836      3834
 -1      1888    8    0    1
 -2       845       942       934      3672      3837      3792
 -1      1889    8    0    1
 -2       844       740       861      3615      3414      3838
 -1      1890    8    0    1
 -2       923       919       959      3644      3839      3840
 -1      1891    8    0    1
 -2       911       934       942      3679      3837      3841
 -1      1892    8    0    1
 -2       848       928       932      3641      3842      3637
 -1      1893    8    0    1
 -2       924       903       996      3604      3843      3844
 -1      1894    8    0    1
 -2       924       996       990      3844      3845      3816
 -1      1895    8    0    1
 -2       905       906       997      3551      3846      3847
 -1      1896    8    0    1
 -2       906       983       997      3799      3848      3846
 -1      1897    8    0    1
 -2       856       941       943      3732      3849      3675
 -1      1898    8    0    1
 -2       844       861       936      3838      3737      3656
 -1      1899    8    0    1
 -2       911       942       987      3841      3850      3809
 -1      1900    8    0    1
 -2       926       922       998      3614      3851      3852
 -1      1901    8    0    1
 -2       922       993       998      3828      3853      3851
 -1      1902    8    0    1
 -2       927       914       999      3616      3854      3855
 -1      1903    8    0    1
 -2       914       989       999      3815      3856      3854
 -1      1904    8    0    1
 -2       878       857       962      3693      3857      3738
 -1      1905    8    0    1
 -2       960       876      1000      3730      3858      3859
 -1      1906    8    0    1
 -2       876       933      1000      3639      3860      3858
 -1      1907    8    0    1
 -2       936       937       917      3736      3861      3658
 -1      1908    8    0    1
 -2       977       894      1001      3783      3862      3863
 -1      1909    8    0    1
 -2       894       920      1001      3593      3864      3862
 -1      1910    8    0    1
 -2       930       921      1002      3626      3865      3866
 -1      1911    8    0    1
 -2       931       895      1003      3629      3867      3868
 -1      1912    8    0    1
 -2       895       977      1003      3784      3869      3867
 -1      1913    8    0    1
 -2       978       898       935      3785      3833      3870
 -1      1914    8    0    1
 -2       932       928       994      3842      3871      3872
 -1      1915    8    0    1
 -2       823       931       944      3631      3873      3678
 -1      1916    8    0    1
 -2       850       932       994      3636      3872      3832
 -1      1917    8    0    1
 -2       981       905       997      3793      3847      3874
 -1      1918    8    0    1
 -2       933       846       961      3640      3734      3875
 -1      1919    8    0    1
 -2       947       917       937      3691      3861      3876
 -1      1920    8    0    1
 -2       903       982       996      3796      3877      3843
 -1      1921    8    0    1
 -2       940       994      1004      3831      3878      3879
 -1      1922    8    0    1
 -2       988       918      1005      3812      3880      3881
 -1      1923    8    0    1
 -2       935       855      1006      3652      3882      3883
 -1      1924    8    0    1
 -2       978       935      1006      3870      3883      3884
 -1      1925    8    0    1
 -2       855       927      1006      3618      3885      3882
 -1      1926    8    0    1
 -2       941       916      1007      3689      3886      3887
 -1      1927    8    0    1
 -2       925       913      1008      3609      3888      3889
 -1      1928    8    0    1
 -2       946       940      1009      3685      3890      3891
 -1      1929    8    0    1
 -2       940      1004      1009      3879      3892      3890
 -1      1930    8    0    1
 -2       987       942      1010      3850      3893      3894
 -1      1931    8    0    1
 -2       942       992      1010      3825      3895      3893
 -1      1932    8    0    1
 -2       937       938       947      3663      3896      3876
 -1      1933    8    0    1
 -2       920       896      1011      3594      3897      3898
 -1      1934    8    0    1
 -2       920      1011      1001      3898      3899      3864
 -1      1935    8    0    1
 -2       918       943      1005      3674      3900      3880
 -1      1936    8    0    1
 -2       989       901      1012      3814      3901      3902
 -1      1937    8    0    1
 -2       916       995      1007      3835      3903      3886
 -1      1938    8    0    1
 -2       921       944      1013      3677      3904      3905
 -1      1939    8    0    1
 -2       921      1013      1002      3905      3906      3865
 -1      1940    8    0    1
 -2       901       923      1012      3601      3907      3901
 -1      1941    8    0    1
 -2       913       945      1014      3683      3908      3909
 -1      1942    8    0    1
 -2       913      1014      1008      3909      3910      3888
 -1      1943    8    0    1
 -2      1011       896       979      3897      3788      3911
 -1      1944    8    0    1
 -2       948       947      1015      3696      3912      3913
 -1      1945    8    0    1
 -2       949       948      1016      3699      3914      3915
 -1      1946    8    0    1
 -2       948      1015      1016      3913      3916      3914
 -1      1947    8    0    1
 -2       763       875       919      3459      3917      3619
 -1      1948    8    0    1
 -2       950       949      1017      3702      3918      3919
 -1      1949    8    0    1
 -2       949      1016      1017      3915      3920      3918
 -1      1950    8    0    1
 -2       951       950      1018      3705      3921      3922
 -1      1951    8    0    1
 -2       950      1017      1018      3919      3923      3921
 -1      1952    8    0    1
 -2       952       951      1019      3708      3924      3925
 -1      1953    8    0    1
 -2       951      1018      1019      3922      3926      3924
 -1      1954    8    0    1
 -2       953       952      1020      3711      3927      3928
 -1      1955    8    0    1
 -2       952      1019      1020      3925      3929      3927
 -1      1956    8    0    1
 -2       954       953      1021      3714      3930      3931
 -1      1957    8    0    1
 -2       953      1020      1021      3928      3932      3930
 -1      1958    8    0    1
 -2       955       954      1022      3717      3933      3934
 -1      1959    8    0    1
 -2       954      1021      1022      3931      3935      3933
 -1      1960    8    0    1
 -2       956       955      1023      3720      3936      3937
 -1      1961    8    0    1
 -2       955      1022      1023      3934      3938      3936
 -1      1962    8    0    1
 -2       957       956      1024      3723      3939      3940
 -1      1963    8    0    1
 -2       956      1023      1024      3937      3941      3939
 -1      1964    8    0    1
 -2       958       957      1025      3726      3942      3943
 -1      1965    8    0    1
 -2       957      1024      1025      3940      3944      3942
 -1      1966    8    0    1
 -2       959       958      1026      3729      3945      3946
 -1      1967    8    0    1
 -2       958      1025      1026      3943      3947      3945
 -1      1968    8    0    1
 -2       875       874       959      3460      3728      3948
 -1      1969    8    0    1
 -2       961       930      1027      3735      3949      3950
 -1      1970    8    0    1
 -2       930      1002      1027      3866      3951      3949
 -1      1971    8    0    1
 -2       964       963      1028      3745      3952      3953
 -1      1972    8    0    1
 -2       965       964      1029      3748      3954      3955
 -1      1973    8    0    1
 -2       964      1028      1029      3953      3956      3954
 -1      1974    8    0    1
 -2       966       965      1030      3751      3957      3958
 -1      1975    8    0    1
 -2       965      1029      1030      3955      3959      3957
 -1      1976    8    0    1
 -2       967       966      1031      3754      3960      3961
 -1      1977    8    0    1
 -2       966      1030      1031      3958      3962      3960
 -1      1978    8    0    1
 -2       968       967      1032      3757      3963      3964
 -1      1979    8    0    1
 -2       967      1031      1032      3961      3965      3963
 -1      1980    8    0    1
 -2       969       968      1033      3760      3966      3967
 -1      1981    8    0    1
 -2       968      1032      1033      3964      3968      3966
 -1      1982    8    0    1
 -2       970       969      1034      3763      3969      3970
 -1      1983    8    0    1
 -2       969      1033      1034      3967      3971      3969
 -1      1984    8    0    1
 -2       971       970      1035      3766      3972      3973
 -1      1985    8    0    1
 -2       970      1034      1035      3970      3974      3972
 -1      1986    8    0    1
 -2       972       971      1036      3769      3975      3976
 -1      1987    8    0    1
 -2       971      1035      1036      3973      3977      3975
 -1      1988    8    0    1
 -2       973       972      1037      3772      3978      3979
 -1      1989    8    0    1
 -2       972      1036      1037      3976      3980      3978
 -1      1990    8    0    1
 -2       974       973      1038      3775      3981      3982
 -1      1991    8    0    1
 -2       973      1037      1038      3979      3983      3981
 -1      1992    8    0    1
 -2       975       974      1039      3778      3984      3985
 -1      1993    8    0    1
 -2       974      1038      1039      3982      3986      3984
 -1      1994    8    0    1
 -2       994       928       960      3871      3731      3987
 -1      1995    8    0    1
 -2       944       931      1040      3873      3988      3989
 -1      1996    8    0    1
 -2      1013       944      1040      3904      3989      3990
 -1      1997    8    0    1
 -2       931      1003      1040      3868      3991      3988
 -1      1998    8    0    1
 -2       919       875       959      3917      3948      3839
 -1      1999    8    0    1
 -2       933       961      1041      3875      3992      3993
 -1      2000    8    0    1
 -2      1000       933      1041      3860      3993      3994
 -1      2001    8    0    1
 -2       961      1027      1041      3950      3995      3992
 -1      2002    8    0    1
 -2       989      1012      1026      3902      3996      3997
 -1      2003    8    0    1
 -2      1004       994       960      3878      3987      3998
 -1      2004    8    0    1
 -2       984       985      1042      3805      3999      4000
 -1      2005    8    0    1
 -2       983       984      1043      3802      4001      4002
 -1      2006    8    0    1
 -2       984      1042      1043      4000      4003      4001
 -1      2007    8    0    1
 -2       986       987      1010      3811      3894      4004
 -1      2008    8    0    1
 -2       988      1005      1044      3881      4005      4006
 -1      2009    8    0    1
 -2       980       990      1045      3818      4007      4008
 -1      2010    8    0    1
 -2       996       982      1046      3877      4009      4010
 -1      2011    8    0    1
 -2       843       926      1047      3613      4011      4012
 -1      2012    8    0    1
 -2      1011       979      1048      3911      4013      4014
 -1      2013    8    0    1
 -2       981       997      1049      3874      4015      4016
 -1      2014    8    0    1
 -2       993       988      1050      3829      4017      4018
 -1      2015    8    0    1
 -2       988      1044      1050      4006      4019      4017
 -1      2016    8    0    1
 -2       947       938      1051      3896      4020      4021
 -1      2017    8    0    1
 -2      1015       947      1051      3912      4021      4022
 -1      2018    8    0    1
 -2       938       991      1051      3821      4023      4020
 -1      2019    8    0    1
 -2       992       925      1052      3826      4024      4025
 -1      2020    8    0    1
 -2      1010       992      1052      3895      4025      4026
 -1      2021    8    0    1
 -2       925      1008      1052      3889      4027      4024
 -1      2022    8    0    1
 -2       939       843      1047      3664      4012      4028
 -1      2023    8    0    1
 -2       985       986      1053      3808      4029      4030
 -1      2024    8    0    1
 -2       985      1053      1042      4030      4031      3999
 -1      2025    8    0    1
 -2       945       929      1054      3684      4032      4033
 -1      2026    8    0    1
 -2      1014       945      1054      3908      4033      4034
 -1      2027    8    0    1
 -2       929       976      1054      3781      4035      4032
 -1      2028    8    0    1
 -2       982       981      1055      3797      4036      4037
 -1      2029    8    0    1
 -2      1046       982      1055      4009      4037      4038
 -1      2030    8    0    1
 -2       981      1049      1055      4016      4039      4036
 -1      2031    8    0    1
 -2       997       983      1056      3848      4040      4041
 -1      2032    8    0    1
 -2       983      1043      1056      4002      4042      4040
 -1      2033    8    0    1
 -2       979       978      1057      3789      4043      4044
 -1      2034    8    0    1
 -2      1048       979      1057      4013      4044      4045
 -1      2035    8    0    1
 -2       978      1006      1057      3884      4046      4043
 -1      2036    8    0    1
 -2       990       996      1058      3845      4047      4048
 -1      2037    8    0    1
 -2       996      1046      1058      4010      4049      4047
 -1      2038    8    0    1
 -2      1047       926      1028      4011      4050      4051
 -1      2039    8    0    1
 -2      1004       960      1059      3998      4052      4053
 -1      2040    8    0    1
 -2       960      1000      1059      3859      4054      4052
 -1      2041    8    0    1
 -2      1003       977      1060      3869      4055      4056
 -1      2042    8    0    1
 -2      1027      1002      1061      3951      4057      4058
 -1      2043    8    0    1
 -2      1012       923       959      3907      3840      4059
 -1      2044    8    0    1
 -2      1004      1059      1009      4053      4060      3892
 -1      2045    8    0    1
 -2      1002      1013      1062      3906      4061      4062
 -1      2046    8    0    1
 -2      1002      1062      1061      4062      4063      4057
 -1      2047    8    0    1
 -2       976       975      1054      3782      4064      4035
 -1      2048    8    0    1
 -2      1049       997      1056      4015      4041      4065
 -1      2049    8    0    1
 -2      1006       927      1063      3885      4066      4067
 -1      2050    8    0    1
 -2       927       999      1063      3855      4068      4066
 -1      2051    8    0    1
 -2      1060       977      1064      4055      4069      4070
 -1      2052    8    0    1
 -2       977      1001      1064      3863      4071      4069
 -1      2053    8    0    1
 -2      1045       990      1058      4007      4048      4072
 -1      2054    8    0    1
 -2       980      1045      1044      4008      4073      4074
 -1      2055    8    0    1
 -2       989      1026      1065      3997      4075      4076
 -1      2056    8    0    1
 -2       999       989      1065      3856      4076      4077
 -1      2057    8    0    1
 -2      1026      1025      1065      3947      4078      4075
 -1      2058    8    0    1
 -2       939      1047       962      4028      4079      4080
 -1      2059    8    0    1
 -2       991       946      1066      3822      4081      4082
 -1      2060    8    0    1
 -2      1051       991      1066      4023      4082      4083
 -1      2061    8    0    1
 -2       946      1009      1066      3891      4084      4081
 -1      2062    8    0    1
 -2       993      1050       998      4018      4085      3853
 -1      2063    8    0    1
 -2      1052      1008      1067      4027      4086      4087
 -1      2064    8    0    1
 -2      1053       986      1010      4029      4004      4088
 -1      2065    8    0    1
 -2       995       980      1044      3836      4074      4089
 -1      2066    8    0    1
 -2      1001      1011      1068      3899      4090      4091
 -1      2067    8    0    1
 -2      1001      1068      1064      4091      4092      4071
 -1      2068    8    0    1
 -2       943       941      1007      3849      3887      4093
 -1      2069    8    0    1
 -2      1054       975      1039      4064      3985      4094
 -1      2070    8    0    1
 -2      1012       959      1026      4059      3946      3996
 -1      2071    8    0    1
 -2      1067      1008      1039      4086      4095      4096
 -1      2072    8    0    1
 -2      1068      1011      1048      4090      4014      4097
 -1      2073    8    0    1
 -2       962      1047       963      4079      4098      3742
 -1      2074    8    0    1
 -2      1067      1039      1038      4096      3986      4099
 -1      2075    8    0    1
 -2      1017      1016      1069      3920      4100      4101
 -1      2076    8    0    1
 -2      1018      1017      1070      3923      4102      4103
 -1      2077    8    0    1
 -2      1017      1069      1070      4101      4104      4102
 -1      2078    8    0    1
 -2      1019      1018      1071      3926      4105      4106
 -1      2079    8    0    1
 -2      1018      1070      1071      4103      4107      4105
 -1      2080    8    0    1
 -2      1020      1019      1072      3929      4108      4109
 -1      2081    8    0    1
 -2      1019      1071      1072      4106      4110      4108
 -1      2082    8    0    1
 -2      1021      1020      1073      3932      4111      4112
 -1      2083    8    0    1
 -2      1020      1072      1073      4109      4113      4111
 -1      2084    8    0    1
 -2      1022      1021      1074      3935      4114      4115
 -1      2085    8    0    1
 -2      1021      1073      1074      4112      4116      4114
 -1      2086    8    0    1
 -2      1023      1022      1075      3938      4117      4118
 -1      2087    8    0    1
 -2      1022      1074      1075      4115      4119      4117
 -1      2088    8    0    1
 -2      1024      1023      1076      3941      4120      4121
 -1      2089    8    0    1
 -2      1023      1075      1076      4118      4122      4120
 -1      2090    8    0    1
 -2      1025      1024      1077      3944      4123      4124
 -1      2091    8    0    1
 -2      1024      1076      1077      4121      4125      4123
 -1      2092    8    0    1
 -2      1029      1028      1078      3956      4126      4127
 -1      2093    8    0    1
 -2      1027      1061      1079      4058      4128      4129
 -1      2094    8    0    1
 -2      1027      1079      1041      4129      4130      3995
 -1      2095    8    0    1
 -2      1028       963      1047      3952      4098      4051
 -1      2096    8    0    1
 -2      1030      1029      1080      3959      4131      4132
 -1      2097    8    0    1
 -2      1029      1078      1080      4127      4133      4131
 -1      2098    8    0    1
 -2      1031      1030      1081      3962      4134      4135
 -1      2099    8    0    1
 -2      1030      1080      1081      4132      4136      4134
 -1      2100    8    0    1
 -2      1032      1031      1082      3965      4137      4138
 -1      2101    8    0    1
 -2      1031      1081      1082      4135      4139      4137
 -1      2102    8    0    1
 -2      1033      1032      1083      3968      4140      4141
 -1      2103    8    0    1
 -2      1032      1082      1083      4138      4142      4140
 -1      2104    8    0    1
 -2      1034      1033      1084      3971      4143      4144
 -1      2105    8    0    1
 -2      1033      1083      1084      4141      4145      4143
 -1      2106    8    0    1
 -2      1035      1034      1085      3974      4146      4147
 -1      2107    8    0    1
 -2      1034      1084      1085      4144      4148      4146
 -1      2108    8    0    1
 -2      1036      1035      1086      3977      4149      4150
 -1      2109    8    0    1
 -2      1035      1085      1086      4147      4151      4149
 -1      2110    8    0    1
 -2      1037      1036      1087      3980      4152      4153
 -1      2111    8    0    1
 -2      1036      1086      1087      4150      4154      4152
 -1      2112    8    0    1
 -2      1038      1037      1088      3983      4155      4156
 -1      2113    8    0    1
 -2      1037      1087      1088      4153      4157      4155
 -1      2114    8    0    1
 -2      1050      1044      1089      4019      4158      4159
 -1      2115    8    0    1
 -2      1044      1045      1089      4073      4160      4158
 -1      2116    8    0    1
 -2      1056      1043      1090      4042      4161      4162
 -1      2117    8    0    1
 -2      1010      1052      1091      4026      4163      4164
 -1      2118    8    0    1
 -2      1053      1010      1091      4088      4164      4165
 -1      2119    8    0    1
 -2      1052      1067      1091      4087      4166      4163
 -1      2120    8    0    1
 -2      1043      1042      1092      4003      4167      4168
 -1      2121    8    0    1
 -2      1043      1092      1090      4168      4169      4161
 -1      2122    8    0    1
 -2       926       998      1028      3852      4170      4050
 -1      2123    8    0    1
 -2       962       857       939      3857      3666      4080
 -1      2124    8    0    1
 -2      1042      1053      1093      4031      4171      4172
 -1      2125    8    0    1
 -2      1042      1093      1092      4172      4173      4167
 -1      2126    8    0    1
 -2       998      1050      1078      4085      4174      4175
 -1      2127    8    0    1
 -2      1068      1048      1094      4097      4176      4177
 -1      2128    8    0    1
 -2      1045      1058      1089      4072      4178      4160
 -1      2129    8    0    1
 -2      1049      1056      1095      4065      4179      4180
 -1      2130    8    0    1
 -2      1056      1090      1095      4162      4181      4179
 -1      2131    8    0    1
 -2      1058      1046      1096      4049      4182      4183
 -1      2132    8    0    1
 -2      1009      1059      1097      4060      4184      4185
 -1      2133    8    0    1
 -2      1059      1000      1098      4054      4186      4187
 -1      2134    8    0    1
 -2      1097      1059      1098      4184      4187      4188
 -1      2135    8    0    1
 -2      1000      1041      1098      3994      4189      4186
 -1      2136    8    0    1
 -2      1016      1015      1099      3916      4190      4191
 -1      2137    8    0    1
 -2      1016      1099      1069      4191      4192      4100
 -1      2138    8    0    1
 -2      1067      1038      1088      4099      4156      4193
 -1      2139    8    0    1
 -2      1003      1060      1100      4056      4194      4195
 -1      2140    8    0    1
 -2      1003      1100      1040      4195      4196      3991
 -1      2141    8    0    1
 -2      1028       998      1078      4170      4175      4126
 -1      2142    8    0    1
 -2      1067      1088      1091      4193      4197      4166
 -1      2143    8    0    1
 -2      1005       943      1007      3900      4093      4198
 -1      2144    8    0    1
 -2      1046      1055      1101      4038      4199      4200
 -1      2145    8    0    1
 -2      1046      1101      1096      4200      4201      4182
 -1      2146    8    0    1
 -2      1062      1013      1102      4061      4202      4203
 -1      2147    8    0    1
 -2      1013      1040      1102      3990      4204      4202
 -1      2148    8    0    1
 -2      1025      1077      1065      4124      4205      4078
 -1      2149    8    0    1
 -2      1053      1091      1093      4165      4206      4171
 -1      2150    8    0    1
 -2      1061      1062      1103      4063      4207      4208
 -1      2151    8    0    1
 -2      1014      1054      1039      4034      4094      4209
 -1      2152    8    0    1
 -2      1058      1096      1089      4183      4210      4178
 -1      2153    8    0    1
 -2      1044      1005       995      4005      4211      4089
 -1      2154    8    0    1
 -2       999      1065      1104      4077      4212      4213
 -1      2155    8    0    1
 -2      1065      1077      1104      4205      4214      4212
 -1      2156    8    0    1
 -2      1064      1068      1105      4092      4215      4216
 -1      2157    8    0    1
 -2      1068      1094      1105      4177      4217      4215
 -1      2158    8    0    1
 -2      1094      1048      1104      4176      4218      4219
 -1      2159    8    0    1
 -2      1066      1009      1097      4084      4185      4220
 -1      2160    8    0    1
 -2      1006      1063      1057      4067      4221      4046
 -1      2161    8    0    1
 -2       995      1005      1007      4211      4198      3903
 -1      2162    8    0    1
 -2      1104      1048      1057      4218      4045      4222
 -1      2163    8    0    1
 -2      1079      1061      1106      4128      4223      4224
 -1      2164    8    0    1
 -2      1061      1103      1106      4208      4225      4223
 -1      2165    8    0    1
 -2      1060      1064      1107      4070      4226      4227
 -1      2166    8    0    1
 -2      1064      1105      1107      4216      4228      4226
 -1      2167    8    0    1
 -2      1060      1107      1108      4227      4229      4230
 -1      2168    8    0    1
 -2      1060      1108      1100      4230      4231      4194
 -1      2169    8    0    1
 -2      1055      1049      1109      4039      4232      4233
 -1      2170    8    0    1
 -2      1101      1055      1109      4199      4233      4234
 -1      2171    8    0    1
 -2      1049      1095      1109      4180      4235      4232
 -1      2172    8    0    1
 -2      1015      1051      1110      4022      4236      4237
 -1      2173    8    0    1
 -2      1099      1015      1110      4190      4237      4238
 -1      2174    8    0    1
 -2      1051      1066      1110      4083      4239      4236
 -1      2175    8    0    1
 -2      1070      1069      1111      4104      4240      4241
 -1      2176    8    0    1
 -2      1039      1008      1014      4095      3910      4209
 -1      2177    8    0    1
 -2      1050      1089      1080      4159      4242      4243
 -1      2178    8    0    1
 -2      1071      1070      1103      4107      4244      4245
 -1      2179    8    0    1
 -2      1073      1072      1112      4113      4246      4247
 -1      2180    8    0    1
 -2      1074      1073      1108      4116      4248      4249
 -1      2181    8    0    1
 -2      1075      1074      1107      4119      4250      4251
 -1      2182    8    0    1
 -2      1076      1075      1105      4122      4252      4253
 -1      2183    8    0    1
 -2      1091      1088      1093      4197      4254      4206
 -1      2184    8    0    1
 -2      1092      1093      1087      4173      4255      4256
 -1      2185    8    0    1
 -2      1041      1079      1098      4130      4257      4189
 -1      2186    8    0    1
 -2      1081      1080      1089      4136      4242      4258
 -1      2187    8    0    1
 -2      1082      1081      1096      4139      4259      4260
 -1      2188    8    0    1
 -2      1083      1082      1101      4142      4261      4262
 -1      2189    8    0    1
 -2      1084      1083      1109      4145      4263      4264
 -1      2190    8    0    1
 -2      1085      1084      1095      4148      4265      4266
 -1      2191    8    0    1
 -2      1086      1085      1090      4151      4267      4268
 -1      2192    8    0    1
 -2      1087      1086      1092      4154      4269      4256
 -1      2193    8    0    1
 -2      1088      1087      1093      4157      4255      4254
 -1      2194    8    0    1
 -2      1063       999      1104      4068      4213      4270
 -1      2195    8    0    1
 -2      1103      1062      1113      4207      4271      4272
 -1      2196    8    0    1
 -2      1062      1102      1113      4203      4273      4271
 -1      2197    8    0    1
 -2      1071      1103      1113      4245      4272      4274
 -1      2198    8    0    1
 -2      1075      1107      1105      4251      4228      4252
 -1      2199    8    0    1
 -2      1096      1081      1089      4259      4258      4210
 -1      2200    8    0    1
 -2      1085      1095      1090      4266      4181      4267
 -1      2201    8    0    1
 -2      1086      1090      1092      4268      4169      4269
 -1      2202    8    0    1
 -2      1050      1080      1078      4243      4133      4174
 -1      2203    8    0    1
 -2      1104      1077      1094      4214      4275      4219
 -1      2204    8    0    1
 -2      1066      1097      1110      4220      4276      4239
 -1      2205    8    0    1
 -2      1040      1100      1102      4196      4277      4204
 -1      2206    8    0    1
 -2      1094      1077      1076      4275      4125      4278
 -1      2207    8    0    1
 -2      1082      1096      1101      4260      4201      4261
 -1      2208    8    0    1
 -2      1069      1099      1114      4192      4279      4280
 -1      2209    8    0    1
 -2      1069      1114      1111      4280      4281      4240
 -1      2210    8    0    1
 -2      1107      1074      1108      4250      4249      4229
 -1      2211    8    0    1
 -2      1095      1084      1109      4265      4264      4235
 -1      2212    8    0    1
 -2      1094      1076      1105      4278      4253      4217
 -1      2213    8    0    1
 -2      1112      1072      1113      4246      4282      4283
 -1      2214    8    0    1
 -2      1103      1070      1111      4244      4241      4284
 -1      2215    8    0    1
 -2      1073      1112      1108      4247      4285      4248
 -1      2216    8    0    1
 -2      1072      1071      1113      4110      4274      4282
 -1      2217    8    0    1
 -2      1063      1104      1057      4270      4222      4221
 -1      2218    8    0    1
 -2      1098      1079      1115      4257      4286      4287
 -1      2219    8    0    1
 -2      1097      1098      1115      4188      4287      4288
 -1      2220    8    0    1
 -2      1079      1106      1115      4224      4289      4286
 -1      2221    8    0    1
 -2      1083      1101      1109      4262      4234      4263
 -1      2222    8    0    1
 -2      1099      1110      1097      4238      4276      4290
 -1      2223    8    0    1
 -2      1099      1097      1114      4290      4291      4279
 -1      2224    8    0    1
 -2      1097      1115      1114      4288      4292      4291
 -1      2225    8    0    1
 -2      1100      1108      1112      4231      4285      4293
 -1      2226    8    0    1
 -2      1111      1114      1115      4281      4292      4294
 -1      2227    8    0    1
 -2      1102      1100      1112      4277      4293      4295
 -1      2228    8    0    1
 -2      1113      1102      1112      4273      4295      4283
 -1      2229    8    0    1
 -2      1103      1111      1106      4284      4296      4225
 -1      2230    8    0    1
 -2      1106      1111      1115      4296      4294      4289
 -3
    1PSTEP                         1           1           1          
  100CL  101 1.000000000        4296                     0    1           1
 -4  DISP        4    1
 -5  D1          1    2    1    0
 -5  D2          1    2    2    0
 -5  D3          1    2    3    0
 -5  ALL         1    2    0    0    1ALL
 -1         1 5.89704E-03-3.20209E-04-1.64137E-14
 -1         2 9.79961E-03 2.98233E-04-2.26869E-14
 -1         3 1.55728E-02 1.82917E-03-7.05046E-14
 -1         4 1.48284E-02 4.04979E-04-7.55541E-14
 -1         5 0.00000E+00 0.00000E+00 0.00000E+00
 -1         6 0.00000E+00 0.00000E+00 0.00000E+00
 -1         7 0.00000E+00 0.00000E+00 0.00000E+00
 -1         8 0.00000E+00 0.00000E+00 0.00000E+00
 -1         9 0.00000E+00 0.00000E+00 0.00000E+00
 -1        10 0.00000E+00 0.00000E+00 0.00000E+00
 -1        11 0.00000E+00 0.00000E+00 0.00000E+00
 -1        12 0.00000E+00 0.00000E+00 0.00000E+00
 -1        13 0.00000E+00 0.00000E+00 0.00000E+00
 -1        14 0.00000E+00 0.00000E+00 0.00000E+00
 -1        15 0.00000E+00 0.00000E+00 0.00000E+00
 -1        16 0.00000E+00 0.00000E+00 0.00000E+00
 -1        17 0.00000E+00 0.00000E+00 0.00000E+00
 -1        18 0.00000E+00 0.00000E+00 0.00000E+00
 -1        19 0.00000E+00 0.00000E+00 0.00000E+00
 -1        20 0.00000E+00 0.00000E+00 0.00000E+00
 -1        21 0.00000E+00 0.00000E+00 0.00000E+00
 -1        22 0.00000E+00 0.00000E+00 0.00000E+00
 -1        23 4.09773E-04-2.59262E-04 1.12317E-17
 -1        24 7.00809E-04-3.97798E-04-5.71849E-17
 -1        25 9.70285E-04-4.93048E-04-2.01363E-16
 -1        26 1.23453E-03-5.59204E-04-4.19170E-16
 -1        27 1.49824E-03-6.05341E-04-7.09722E-16
 -1        28 1.76368E-03-6.36778E-04-1.07352E-15
 -1        29 2.03205E-03-6.57182E-04-1.50967E-15
 -1        30 2.30407E-03-6.69255E-04-2.01714E-15
 -1        31 2.58022E-03-6.75102E-04-2.59488E-15
 -1        32 2.86092E-03-6.76460E-04-3.24307E-15
 -1        33 3.14662E-03-6.74867E-04-3.95835E-15
 -1        34 3.43782E-03-6.71817E-04-4.73676E-15
 -1        35 3.73509E-03-6.68900E-04-5.58076E-15
 -1        36 4.03897E-03-6.67928E-04-6.48696E-15
 -1        37 4.34986E-03-6.71028E-04-7.45632E-15
 -1        38 4.66780E-03-6.80660E-04-8.48365E-15
 -1        39 4.99210E-03-6.99495E-04-9.56802E-15
 -1        40 5.32094E-03-7.30037E-04-1.07167E-14
 -1        41 5.65100E-03-7.73899E-04-1.19299E-14
 -1        42 5.97734E-03-8.30683E-04-1.32053E-14
 -1        43 6.29388E-03-8.96654E-04-1.45462E-14
 -1        44 6.59481E-03-9.63768E-04-1.59514E-14
 -1        45 6.87685E-03-1.01998E-03-1.74295E-14
 -1        46 7.14148E-03-1.05166E-03-1.89874E-14
 -1        47 7.39571E-03-1.04780E-03-2.06171E-14
 -1        48 7.65027E-03-1.00433E-03-2.23226E-14
 -1        49 7.91579E-03-9.25768E-04-2.40916E-14
 -1        50 8.19902E-03-8.23339E-04-2.59317E-14
 -1        51 8.50117E-03-7.10682E-04-2.78374E-14
 -1        52 8.81880E-03-5.99652E-04-2.98111E-14
 -1        53 9.14609E-03-4.98043E-04-3.18313E-14
 -1        54 9.47707E-03-4.09384E-04-3.38975E-14
 -1        55 9.80700E-03-3.33964E-04-3.60065E-14
 -1        56 1.01328E-02-2.70163E-04-3.81506E-14
 -1        57 1.04528E-02-2.15563E-04-4.03295E-14
 -1        58 1.07667E-02-1.67669E-04-4.25393E-14
 -1        59 1.10746E-02-1.24287E-04-4.47739E-14
 -1        60 1.13774E-02-8.36588E-05-4.70219E-14
 -1        61 1.16757E-02-4.44771E-05-4.92813E-14
 -1        62 1.19704E-02-5.82535E-06-5.15704E-14
 -1        63 1.22624E-02 3.28984E-05-5.38922E-14
 -1        64 1.25522E-02 7.20584E-05-5.62354E-14
 -1        65 1.28405E-02 1.11848E-04-5.86125E-14
 -1        66 1.31277E-02 1.52344E-04-6.10171E-14
 -1        67 1.34141E-02 1.93544E-04-6.34443E-14
 -1        68 1.37001E-02 2.35398E-04-6.58801E-14
 -1        69 1.39858E-02 2.77821E-04-6.83166E-14
 -1        70 1.42714E-02 3.20699E-04-7.07521E-14
 -1        71 1.45570E-02 3.63878E-04-7.32026E-14
 -1        72 4.12171E-04 2.59954E-04 4.67765E-17
 -1        73 7.00571E-04 4.00471E-04 4.35612E-17
 -1        74 9.70718E-04 4.94761E-04-1.16518E-17
 -1        75 1.23520E-03 5.60796E-04-1.23979E-16
 -1        76 1.49897E-03 6.06873E-04-2.96333E-16
 -1        77 1.76442E-03 6.38218E-04-5.28488E-16
 -1        78 2.03277E-03 6.58439E-04-8.20453E-16
 -1        79 2.30479E-03 6.70175E-04-1.17448E-15
 -1        80 2.58103E-03 6.75451E-04-1.58857E-15
 -1        81 2.86205E-03 6.75907E-04-2.06592E-15
 -1        82 3.14850E-03 6.72975E-04-2.60682E-15
 -1        83 3.44125E-03 6.68050E-04-3.20638E-15
 -1        84 3.74142E-03 6.62681E-04-3.86777E-15
 -1        85 4.05048E-03 6.58794E-04-4.59272E-15
 -1        86 4.37015E-03 6.58966E-04-5.38662E-15
 -1        87 4.70228E-03 6.66725E-04-6.25368E-15
 -1        88 5.04845E-03 6.86836E-04-7.18717E-15
 -1        89 5.40920E-03 7.25389E-04-8.17982E-15
 -1        90 5.78280E-03 7.89306E-04-9.23019E-15
 -1        91 6.16358E-03 8.84657E-04-1.03391E-14
 -1        92 6.54065E-03 1.01308E-03-1.15075E-14
 -1        93 6.89867E-03 1.16642E-03-1.27510E-14
 -1        94 7.22294E-03 1.32232E-03-1.40849E-14
 -1        95 7.50866E-03 1.44638E-03-1.54982E-14
 -1        96 7.76835E-03 1.50551E-03-1.69905E-14
 -1        97 8.02877E-03 1.48628E-03-1.85551E-14
 -1        98 8.31638E-03 1.40358E-03-2.01926E-14
 -1        99 8.64288E-03 1.29104E-03-2.19044E-14
 -1       100 9.00271E-03 1.18257E-03-2.36840E-14
 -1       101 9.38088E-03 1.09973E-03-2.55231E-14
 -1       102 9.76221E-03 1.05003E-03-2.74012E-14
 -1       103 1.01362E-02 1.03150E-03-2.93266E-14
 -1       104 1.04975E-02 1.03797E-03-3.12770E-14
 -1       105 1.08447E-02 1.06258E-03-3.32644E-14
 -1       106 1.11785E-02 1.09942E-03-3.53079E-14
 -1       107 1.15009E-02 1.14393E-03-3.74099E-14
 -1       108 1.18139E-02 1.19291E-03-3.95599E-14
 -1       109 1.21194E-02 1.24416E-03-4.17602E-14
 -1       110 1.24192E-02 1.29628E-03-4.40029E-14
 -1       111 1.27147E-02 1.34839E-03-4.62865E-14
 -1       112 1.30069E-02 1.40000E-03-4.86042E-14
 -1       113 1.32969E-02 1.45084E-03-5.09597E-14
 -1       114 1.35851E-02 1.50081E-03-5.33444E-14
 -1       115 1.38723E-02 1.54991E-03-5.57495E-14
 -1       116 1.41586E-02 1.59820E-03-5.81741E-14
 -1       117 1.44445E-02 1.64577E-03-6.06240E-14
 -1       118 1.47302E-02 1.69273E-03-6.31069E-14
 -1       119 1.50157E-02 1.73921E-03-6.56067E-14
 -1       120 1.53014E-02 1.78538E-03-6.81216E-14
 -1       121 1.55274E-02 1.74486E-03-7.08262E-14
 -1       122 1.54822E-02 1.66047E-03-7.11590E-14
 -1       123 1.54372E-02 1.57606E-03-7.14598E-14
 -1       124 1.53925E-02 1.49176E-03-7.17303E-14
 -1       125 1.53482E-02 1.40764E-03-7.19725E-14
 -1       126 1.53049E-02 1.32519E-03-7.22279E-14
 -1       127 1.52609E-02 1.24153E-03-7.24857E-14
 -1       128 1.52170E-02 1.15803E-03-7.27437E-14
 -1       129 1.51731E-02 1.07459E-03-7.30210E-14
 -1       130 1.51292E-02 9.91090E-04-7.33077E-14
 -1       131 1.50854E-02 9.07445E-04-7.36338E-14
 -1       132 1.50424E-02 8.25008E-04-7.39687E-14
 -1       133 1.49989E-02 7.40918E-04-7.43103E-14
 -1       134 1.49557E-02 6.56635E-04-7.46391E-14
 -1       135 1.49128E-02 5.72243E-04-7.49631E-14
 -1       136 1.48702E-02 4.87867E-04-7.52635E-14
 -1       137 9.77179E-03 4.63944E-04-2.24840E-14
 -1       138 9.63691E-03 6.39708E-04-2.20721E-14
 -1       139 9.41736E-03 7.91286E-04-2.15343E-14
 -1       140 9.12549E-03 9.20611E-04-2.09075E-14
 -1       141 8.72987E-03 1.03321E-03-2.01358E-14
 -1       142 8.28775E-03 1.10636E-03-1.93359E-14
 -1       143 7.82251E-03 1.13432E-03-1.85549E-14
 -1       144 7.32093E-03 1.11475E-03-1.77553E-14
 -1       145 6.86553E-03 1.05240E-03-1.70722E-14
 -1       146 6.42729E-03 9.47404E-04-1.64489E-14
 -1       147 6.03570E-03 8.04885E-04-1.59236E-14
 -1       148 5.73641E-03 6.45058E-04-1.55606E-14
 -1       149 5.53285E-03 4.78674E-04-1.53542E-14
 -1       150 5.42146E-03 3.08791E-04-1.52845E-14
 -1       151 5.40361E-03 1.27189E-04-1.53646E-14
 -1       152 5.48363E-03-3.73718E-05-1.55886E-14
 -1       153 5.65257E-03-1.88890E-04-1.59458E-14
 -1       154 6.20922E-03-4.29316E-04-1.69861E-14
 -1       155 6.56612E-03-5.09790E-04-1.76231E-14
 -1       156 6.97421E-03-5.61820E-04-1.83371E-14
 -1       157 7.43847E-03-5.80110E-04-1.91438E-14
 -1       158 7.86246E-03-5.61953E-04-1.98705E-14
 -1       159 8.29861E-03-5.08254E-04-2.06117E-14
 -1       160 8.70023E-03-4.23955E-04-2.12790E-14
 -1       161 9.04754E-03-3.16241E-04-2.18339E-14
 -1       162 9.34489E-03-1.85774E-04-2.22715E-14
 -1       163 9.58225E-03-3.29500E-05-2.25772E-14
 -1       164 9.73381E-03 1.27384E-04-2.27146E-14
 -1       165 2.40136E-04-1.24542E-04-1.86246E-17
 -1       166 2.25291E-04-9.36029E-05-2.75218E-17
 -1       167 2.19690E-04-7.17449E-05-3.18823E-17
 -1       168 2.16926E-04-5.41149E-05-3.38542E-17
 -1       169 2.15427E-04-3.91121E-05-3.40948E-17
 -1       170 2.14565E-04-2.52880E-05-3.36679E-17
 -1       171 2.14121E-04-1.23147E-05-3.26616E-17
 -1       172 2.13990E-04 2.66041E-07-3.16350E-17
 -1       173 2.14146E-04 1.28596E-05-3.00358E-17
 -1       174 2.14617E-04 2.58741E-05-2.78437E-17
 -1       175 2.15490E-04 3.95325E-05-2.50010E-17
 -1       176 2.17044E-04 5.49176E-05-2.12233E-17
 -1       177 2.19846E-04 7.27772E-05-1.56972E-17
 -1       178 2.25468E-04 9.50052E-05-7.15912E-18
 -1       179 2.39058E-04 1.26621E-04 6.16979E-18
 -1       180 2.96964E-04 1.84334E-04 2.13283E-17
 -1       181 4.67672E-04-2.61444E-04-4.97513E-17
 -1       182 7.65432E-04-3.78056E-04-1.67462E-16
 -1       183 1.04920E-03-4.58503E-04-3.55778E-16
 -1       184 1.32688E-03-5.14322E-04-6.14614E-16
 -1       185 1.60228E-03-5.52449E-04-9.43581E-16
 -1       186 1.87764E-03-5.77496E-04-1.34338E-15
 -1       187 2.15434E-03-5.92724E-04-1.81255E-15
 -1       188 2.43329E-03-6.00575E-04-2.35070E-15
 -1       189 2.71514E-03-6.02975E-04-2.95689E-15
 -1       190 3.00042E-03-6.01548E-04-3.63167E-15
 -1       191 3.28963E-03-5.97786E-04-4.37118E-15
 -1       192 3.58324E-03-5.93206E-04-5.17471E-15
 -1       193 3.88169E-03-5.89498E-04-6.04176E-15
 -1       194 4.18536E-03-5.88654E-04-6.96930E-15
 -1       195 4.49440E-03-5.93050E-04-7.95805E-15
 -1       196 4.80861E-03-6.05426E-04-9.00525E-15
 -1       197 5.12723E-03-6.28673E-04-1.01123E-14
 -1       198 5.44867E-03-6.65287E-04-1.12819E-14
 -1       199 5.77040E-03-7.16406E-04-1.25154E-14
 -1       200 6.08903E-03-7.80421E-04-1.38124E-14
 -1       201 6.40079E-03-8.51522E-04-1.51758E-14
 -1       202 6.70264E-03-9.19017E-04-1.66080E-14
 -1       203 6.99368E-03-9.68552E-04-1.81150E-14
 -1       204 7.27626E-03-9.85884E-04-1.97005E-14
 -1       205 7.55576E-03-9.62115E-04-2.13585E-14
 -1       206 7.83874E-03-8.97500E-04-2.30899E-14
 -1       207 8.13048E-03-8.01332E-04-2.48899E-14
 -1       208 8.43314E-03-6.87972E-04-2.67581E-14
 -1       209 8.74570E-03-5.71633E-04-2.86903E-14
 -1       210 9.06508E-03-4.62736E-04-3.06814E-14
 -1       211 9.38758E-03-3.66824E-04-3.27166E-14
 -1       212 9.70992E-03-2.85333E-04-3.47932E-14
 -1       213 1.00297E-02-2.17064E-04-3.69096E-14
 -1       214 1.03455E-02-1.59557E-04-3.90629E-14
 -1       215 1.06567E-02-1.10056E-04-4.12503E-14
 -1       216 1.09633E-02-6.60354E-05-4.34651E-14
 -1       217 1.12656E-02-2.54328E-05-4.56980E-14
 -1       218 1.15641E-02 1.33121E-05-4.79467E-14
 -1       219 1.18595E-02 5.13046E-05-5.02153E-14
 -1       220 1.21522E-02 8.92790E-05-5.25204E-14
 -1       221 1.24429E-02 1.27686E-04-5.48481E-14
 -1       222 1.27321E-02 1.66772E-04-5.72043E-14
 -1       223 1.30201E-02 2.06642E-04-5.95845E-14
 -1       224 1.33072E-02 2.47307E-04-6.19927E-14
 -1       225 1.35937E-02 2.88720E-04-6.44172E-14
 -1       226 1.38799E-02 3.30797E-04-6.68479E-14
 -1       227 1.41658E-02 3.73430E-04-6.92805E-14
 -1       228 1.44515E-02 4.16475E-04-7.17207E-14
 -1       229 6.03202E-04 3.28136E-04 4.09964E-18
 -1       230 8.91952E-04 4.27574E-04-6.27177E-17
 -1       231 1.17083E-03 4.96641E-04-1.84203E-16
 -1       232 1.44560E-03 5.44449E-04-3.63347E-16
 -1       233 1.71941E-03 5.76713E-04-6.01983E-16
 -1       234 1.99413E-03 5.97311E-04-9.00145E-16
 -1       235 2.27090E-03 6.09038E-04-1.25884E-15
 -1       236 2.55056E-03 6.14002E-04-1.67957E-15
 -1       237 2.83378E-03 6.13873E-04-2.16081E-15
 -1       238 3.12126E-03 6.10071E-04-2.70419E-15
 -1       239 3.41376E-03 6.03948E-04-3.30788E-15
 -1       240 3.71221E-03 5.96977E-04-3.97322E-15
 -1       241 4.01769E-03 5.90985E-04-4.70283E-15
 -1       242 4.33143E-03 5.88430E-04-5.49794E-15
 -1       243 4.65469E-03 5.92739E-04-6.36345E-15
 -1       244 4.98852E-03 6.08639E-04-7.29463E-15
 -1       245 5.33330E-03 6.42350E-04-8.28755E-15
 -1       246 5.68809E-03 7.01269E-04-9.33817E-15
 -1       247 6.04979E-03 7.92488E-04-1.04456E-14
 -1       248 6.41242E-03 9.19311E-04-1.16180E-14
 -1       249 6.76734E-03 1.07550E-03-1.28630E-14
 -1       250 7.10570E-03 1.23951E-03-1.41919E-14
 -1       251 7.42338E-03 1.37501E-03-1.55966E-14
 -1       252 7.72581E-03 1.44416E-03-1.70800E-14
 -1       253 8.02723E-03 1.42911E-03-1.86421E-14
 -1       254 8.34255E-03 1.34409E-03-2.02780E-14
 -1       255 8.67855E-03 1.22560E-03-2.19894E-14
 -1       256 9.03213E-03 1.11099E-03-2.37698E-14
 -1       257 9.39474E-03 1.02380E-03-2.56096E-14
 -1       258 9.75758E-03 9.71957E-04-2.74934E-14
 -1       259 1.01143E-02 9.53053E-04-2.94183E-14
 -1       260 1.04617E-02 9.60277E-04-3.13721E-14
 -1       261 1.07985E-02 9.86222E-04-3.33677E-14
 -1       262 1.11253E-02 1.02459E-03-3.54148E-14
 -1       263 1.14430E-02 1.07061E-03-3.75115E-14
 -1       264 1.17532E-02 1.12095E-03-3.96550E-14
 -1       265 1.20572E-02 1.17337E-03-4.18462E-14
 -1       266 1.23564E-02 1.22647E-03-4.40836E-14
 -1       267 1.26517E-02 1.27937E-03-4.63584E-14
 -1       268 1.29442E-02 1.33161E-03-4.86762E-14
 -1       269 1.32345E-02 1.38293E-03-5.10262E-14
 -1       270 1.35232E-02 1.43328E-03-5.34088E-14
 -1       271 1.38108E-02 1.48267E-03-5.58091E-14
 -1       272 1.40976E-02 1.53117E-03-5.82256E-14
 -1       273 1.43839E-02 1.57888E-03-6.06602E-14
 -1       274 1.46699E-02 1.62593E-03-6.31320E-14
 -1       275 1.49557E-02 1.67246E-03-6.56255E-14
 -1       276 1.52414E-02 1.71865E-03-6.81329E-14
 -1       277 1.52573E-02 1.66283E-03-6.88214E-14
 -1       278 1.52122E-02 1.57858E-03-6.91401E-14
 -1       279 1.51674E-02 1.49444E-03-6.94369E-14
 -1       280 1.51230E-02 1.41045E-03-6.97178E-14
 -1       281 1.50796E-02 1.32808E-03-6.99842E-14
 -1       282 1.50356E-02 1.24447E-03-7.02575E-14
 -1       283 1.49918E-02 1.16102E-03-7.05378E-14
 -1       284 1.49479E-02 1.07765E-03-7.08235E-14
 -1       285 1.49040E-02 9.94277E-04-7.11149E-14
 -1       286 1.48601E-02 9.10826E-04-7.14178E-14
 -1       287 1.48169E-02 8.28645E-04-7.17263E-14
 -1       288 1.47733E-02 7.44860E-04-7.20420E-14
 -1       289 1.47298E-02 6.60884E-04-7.23567E-14
 -1       290 1.46868E-02 5.76749E-04-7.26671E-14
 -1       291 1.45691E-02 4.96610E-04-7.21965E-14
 -1       292 9.82043E-03 3.55378E-04-2.33381E-14
 -1       293 9.70545E-03 4.54661E-04-2.30137E-14
 -1       294 9.46251E-03 5.84154E-04-2.24333E-14
 -1       295 9.15200E-03 7.43321E-04-2.16904E-14
 -1       296 8.76672E-03 9.12566E-04-2.08925E-14
 -1       297 8.35641E-03 1.08321E-03-1.99546E-14
 -1       298 7.98389E-03 1.18906E-03-1.89719E-14
 -1       299 7.59865E-03 1.21283E-03-1.80261E-14
 -1       300 7.20341E-03 1.13129E-03-1.71776E-14
 -1       301 6.80504E-03 9.82059E-04-1.64242E-14
 -1       302 6.39549E-03 7.81206E-04-1.57441E-14
 -1       303 6.00115E-03 5.82176E-04-1.52443E-14
 -1       304 5.68157E-03 4.20258E-04-1.49230E-14
 -1       305 5.46573E-03 3.03088E-04-1.48042E-14
 -1       306 5.37044E-03 2.00145E-04-1.47444E-14
 -1       307 5.42068E-03 1.06154E-04-1.49903E-14
 -1       308 5.59282E-03-4.51631E-07-1.53185E-14
 -1       309 5.85948E-03-1.30115E-04-1.57857E-14
 -1       310 6.18473E-03-2.78985E-04-1.63761E-14
 -1       311 6.53481E-03-4.29086E-04-1.70656E-14
 -1       312 6.89057E-03-5.57162E-04-1.78458E-14
 -1       313 7.26589E-03-6.44979E-04-1.87301E-14
 -1       314 7.62161E-03-6.47689E-04-1.96329E-14
 -1       315 7.97078E-03-5.84664E-04-2.05191E-14
 -1       316 8.34650E-03-4.54475E-04-2.13391E-14
 -1       317 8.71401E-03-2.93345E-04-2.20718E-14
 -1       318 9.06860E-03-1.25682E-04-2.26744E-14
 -1       319 9.39461E-03 3.07347E-05-2.31349E-14
 -1       320 9.64833E-03 1.65810E-04-2.34652E-14
 -1       321 9.80043E-03 2.69079E-04-2.35883E-14
 -1       322 4.55527E-04-1.62367E-04-1.07878E-16
 -1       323 4.74110E-04-2.10592E-04-9.43900E-17
 -1       324 4.40788E-04-9.19967E-05-1.17297E-16
 -1       325 4.37730E-04-6.33190E-05-1.17328E-16
 -1       326 4.36008E-04-3.68884E-05-1.15559E-16
 -1       327 4.35238E-04-1.16767E-05-1.12557E-16
 -1       328 4.35276E-04 1.31647E-05-1.08725E-16
 -1       329 4.36125E-04 3.84353E-05-1.03297E-16
 -1       330 4.37899E-04 6.45284E-05-9.61416E-17
 -1       331 4.41053E-04 9.33803E-05-8.67904E-17
 -1       332 4.46457E-04 1.26040E-04-7.43593E-17
 -1       333 4.56144E-04 1.64920E-04-5.69647E-17
 -1       334 4.75721E-04 2.14646E-04-3.25464E-17
 -1       335 5.31378E-04 2.67345E-04-1.77301E-17
 -1       336 8.23723E-04 3.68728E-04-9.17337E-17
 -1       337 8.62995E-04-3.52187E-04-2.88394E-16
 -1       338 1.14962E-03-4.18212E-04-5.17500E-16
 -1       339 1.43302E-03-4.64058E-04-8.14578E-16
 -1       340 1.71482E-03-4.94785E-04-1.17938E-15
 -1       341 1.99629E-03-5.14115E-04-1.61237E-15
 -1       342 2.27842E-03-5.24838E-04-2.11265E-15
 -1       343 2.56191E-03-5.29109E-04-2.67929E-15
 -1       344 2.84733E-03-5.28677E-04-3.31335E-15
 -1       345 3.13517E-03-5.25063E-04-4.01410E-15
 -1       346 3.42588E-03-5.19726E-04-4.77765E-15
 -1       347 3.71988E-03-5.14221E-04-5.60548E-15
 -1       348 4.01762E-03-5.10341E-04-6.49404E-15
 -1       349 4.31947E-03-5.10244E-04-7.44357E-15
 -1       350 4.62578E-03-5.16514E-04-8.45293E-15
 -1       351 4.93668E-03-5.32100E-04-9.51955E-15
 -1       352 5.25199E-03-5.60013E-04-1.06470E-14
 -1       353 5.57096E-03-6.02651E-04-1.18371E-14
 -1       354 5.89197E-03-6.60610E-04-1.30913E-14
 -1       355 6.21240E-03-7.31026E-04-1.44119E-14
 -1       356 6.52885E-03-8.05921E-04-1.57986E-14
 -1       357 6.83825E-03-8.71708E-04-1.72573E-14
 -1       358 7.13971E-03-9.11488E-04-1.87950E-14
 -1       359 7.43592E-03-9.10709E-04-2.04090E-14
 -1       360 7.73231E-03-8.63803E-04-2.20950E-14
 -1       361 8.03426E-03-7.76929E-04-2.38544E-14
 -1       362 8.34424E-03-6.64913E-04-2.56856E-14
 -1       363 8.66123E-03-5.44589E-04-2.75829E-14
 -1       364 8.98211E-03-4.29240E-04-2.95384E-14
 -1       365 9.30355E-03-3.26520E-04-3.15422E-14
 -1       366 9.62301E-03-2.39056E-04-3.35891E-14
 -1       367 9.93900E-03-1.66139E-04-3.56791E-14
 -1       368 1.02509E-02-1.05372E-04-3.78063E-14
 -1       369 1.05585E-02-5.38354E-05-3.99714E-14
 -1       370 1.08621E-02-8.75630E-06-4.21631E-14
 -1       371 1.11622E-02 3.21888E-05-4.43794E-14
 -1       372 1.14592E-02 7.07907E-05-4.66165E-14
 -1       373 1.17536E-02 1.08341E-04-4.88683E-14
 -1       374 1.20458E-02 1.45714E-04-5.11504E-14
 -1       375 1.23363E-02 1.83461E-04-5.34645E-14
 -1       376 1.26255E-02 2.21892E-04-5.58062E-14
 -1       377 1.29137E-02 2.61152E-04-5.81695E-14
 -1       378 1.32010E-02 3.01275E-04-6.05542E-14
 -1       379 1.34878E-02 3.42223E-04-6.29621E-14
 -1       380 1.37742E-02 3.83916E-04-6.53792E-14
 -1       381 1.40602E-02 4.26251E-04-6.78044E-14
 -1       382 1.43147E-02 4.61277E-04-6.99958E-14
 -1       383 1.10934E-03 4.40387E-04-2.19141E-16
 -1       384 1.39061E-03 4.90180E-04-4.02608E-16
 -1       385 1.66994E-03 5.23801E-04-6.44440E-16
 -1       386 1.94906E-03 5.45257E-04-9.45451E-16
 -1       387 2.22915E-03 5.57463E-04-1.30642E-15
 -1       388 2.51109E-03 5.62604E-04-1.72885E-15
 -1       389 2.79557E-03 5.62393E-04-2.21165E-15
 -1       390 3.08321E-03 5.58258E-04-2.75552E-15
 -1       391 3.37469E-03 5.51527E-04-3.36042E-15
 -1       392 3.67072E-03 5.43614E-04-4.02577E-15
 -1       393 3.97213E-03 5.36248E-04-4.75581E-15
 -1       394 4.27986E-03 5.31747E-04-5.54968E-15
 -1       395 4.59491E-03 5.33350E-04-6.41242E-15
 -1       396 4.91829E-03 5.45568E-04-7.34208E-15
 -1       397 5.25084E-03 5.74447E-04-8.33187E-15
 -1       398 5.59295E-03 6.27434E-04-9.38031E-15
 -1       399 5.94398E-03 7.12263E-04-1.04863E-14
 -1       400 6.30144E-03 8.33972E-04-1.16561E-14
 -1       401 6.65998E-03 9.89349E-04-1.28984E-14
 -1       402 7.01166E-03 1.15973E-03-1.42193E-14
 -1       403 7.34960E-03 1.30826E-03-1.56175E-14
 -1       404 7.67466E-03 1.39117E-03-1.70912E-14
 -1       405 7.99735E-03 1.38331E-03-1.86458E-14
 -1       406 8.33024E-03 1.29721E-03-2.02777E-14
 -1       407 8.67776E-03 1.17348E-03-2.19867E-14
 -1       408 9.03511E-03 1.05357E-03-2.37670E-14
 -1       409 9.39410E-03 9.62848E-04-2.56069E-14
 -1       410 9.74835E-03 9.09164E-04-2.74931E-14
 -1       411 1.00945E-02 8.89574E-04-2.94187E-14
 -1       412 1.04314E-02 8.96818E-04-3.13758E-14
 -1       413 1.07593E-02 9.23191E-04-3.33708E-14
 -1       414 1.10790E-02 9.62197E-04-3.54180E-14
 -1       415 1.13915E-02 1.00895E-03-3.75113E-14
 -1       416 1.16979E-02 1.06003E-03-3.96507E-14
 -1       417 1.19995E-02 1.11315E-03-4.18342E-14
 -1       418 1.22970E-02 1.16687E-03-4.40642E-14
 -1       419 1.25914E-02 1.22031E-03-4.63364E-14
 -1       420 1.28834E-02 1.27300E-03-4.86497E-14
 -1       421 1.31735E-02 1.32471E-03-5.09949E-14
 -1       422 1.34622E-02 1.37536E-03-5.33705E-14
 -1       423 1.37499E-02 1.42499E-03-5.57663E-14
 -1       424 1.40369E-02 1.47367E-03-5.81739E-14
 -1       425 1.43234E-02 1.52153E-03-6.06007E-14
 -1       426 1.46095E-02 1.56868E-03-6.30654E-14
 -1       427 1.48954E-02 1.61528E-03-6.55476E-14
 -1       428 1.50764E-02 1.63911E-03-6.71846E-14
 -1       429 1.48978E-02 1.41278E-03-6.74327E-14
 -1       430 1.49423E-02 1.49669E-03-6.71332E-14
 -1       431 1.50092E-02 1.56786E-03-6.71613E-14
 -1       432 1.48544E-02 1.33050E-03-6.77215E-14
 -1       433 1.48104E-02 1.24702E-03-6.80112E-14
 -1       434 1.47666E-02 1.16372E-03-6.83036E-14
 -1       435 1.47227E-02 1.08055E-03-6.85976E-14
 -1       436 1.46788E-02 9.97421E-04-6.88975E-14
 -1       437 1.46349E-02 9.14247E-04-6.91994E-14
 -1       438 1.45917E-02 8.32361E-04-6.94920E-14
 -1       439 1.45478E-02 7.48880E-04-6.97923E-14
 -1       440 1.45042E-02 6.65182E-04-7.00929E-14
 -1       441 1.44608E-02 5.81265E-04-7.03984E-14
 -1       442 9.58879E-03 4.59233E-04-2.36301E-14
 -1       443 9.84804E-03 3.26966E-04-2.44236E-14
 -1       444 9.80093E-03 3.72214E-04-2.40876E-14
 -1       445 9.25994E-03 6.03472E-04-2.27724E-14
 -1       446 8.94559E-03 7.60524E-04-2.19416E-14
 -1       447 4.46044E-04-1.24215E-04-1.14661E-16
 -1       448 8.10854E-03 1.17397E-03-1.94668E-14
 -1       449 7.79783E-03 1.24811E-03-1.84730E-14
 -1       450 7.42099E-03 1.20692E-03-1.73082E-14
 -1       451 7.07525E-03 1.06696E-03-1.64709E-14
 -1       452 6.69386E-03 8.58037E-04-1.56511E-14
 -1       453 6.25666E-03 6.20833E-04-1.50204E-14
 -1       454 5.86995E-03 4.24607E-04-1.45302E-14
 -1       455 5.56074E-03 2.92445E-04-1.42778E-14
 -1       456 5.39401E-03 2.16719E-04-1.41183E-14
 -1       457 5.36500E-03 1.57953E-04-1.43103E-14
 -1       458 5.49169E-03 9.44945E-05-1.46502E-14
 -1       459 5.74009E-03-6.78555E-06-1.50971E-14
 -1       460 6.06651E-03-1.48829E-04-1.56674E-14
 -1       461 6.42157E-03-3.21120E-04-1.63953E-14
 -1       462 6.77727E-03-4.92270E-04-1.72148E-14
 -1       463 7.09506E-03-6.21618E-04-1.81368E-14
 -1       464 7.46469E-03-6.93413E-04-1.93466E-14
 -1       465 7.72024E-03-6.63049E-04-2.02214E-14
 -1       466 8.09980E-03-5.23467E-04-2.13603E-14
 -1       467 8.45160E-03-3.49831E-04-2.21934E-14
 -1       468 8.82197E-03-1.53832E-04-2.29853E-14
 -1       469 9.18150E-03 4.05149E-05-2.38520E-14
 -1       470 9.46447E-03 1.59209E-04-2.41916E-14
 -1       471 9.73972E-03 2.63693E-04-2.44021E-14
 -1       472 8.53341E-03 9.77864E-04-2.08524E-14
 -1       473 9.31438E-04 3.40043E-04-2.02891E-16
 -1       474 6.65850E-04-7.29868E-05-2.47815E-16
 -1       475 6.70045E-04-1.12902E-04-2.49292E-16
 -1       476 6.62941E-04 1.08833E-06-2.36739E-16
 -1       477 6.63741E-04 3.76169E-05-2.27591E-16
 -1       478 6.66072E-04 7.46546E-05-2.15875E-16
 -1       479 6.70408E-04 1.14718E-04-2.00276E-16
 -1       480 6.77607E-04 1.58727E-04-1.80601E-16
 -1       481 6.89526E-04 2.08730E-04-1.54655E-16
 -1       482 1.21770E-03 3.97575E-04-3.74101E-16
 -1       483 9.76759E-04-3.22219E-04-4.20660E-16
 -1       484 7.24282E-03 1.14498E-03-1.64536E-14
 -1       485 1.26304E-03-3.74114E-04-6.87113E-16
 -1       486 1.54868E-03-4.10229E-04-1.01914E-15
 -1       487 1.83374E-03-4.33907E-04-1.41755E-15
 -1       488 2.11864E-03-4.47984E-04-1.88153E-15
 -1       489 2.40385E-03-4.54733E-04-2.41042E-15
 -1       490 2.68978E-03-4.55989E-04-3.00473E-15
 -1       491 2.97682E-03-4.53298E-04-3.66470E-15
 -1       492 3.26533E-03-4.48058E-04-4.39007E-15
 -1       493 3.55571E-03-4.41671E-04-5.17877E-15
 -1       494 3.84840E-03-4.35684E-04-6.02870E-15
 -1       495 4.14397E-03-4.31933E-04-6.93904E-15
 -1       496 4.44309E-03-4.32656E-04-7.90870E-15
 -1       497 4.74660E-03-4.40555E-04-8.93808E-15
 -1       498 5.05541E-03-4.58739E-04-1.00249E-14
 -1       499 5.37033E-03-4.90426E-04-1.11736E-14
 -1       500 5.69157E-03-5.38213E-04-1.23842E-14
 -1       501 6.01808E-03-6.02662E-04-1.36605E-14
 -1       502 6.34681E-03-6.80089E-04-1.50026E-14
 -1       503 6.67288E-03-7.60049E-04-1.64142E-14
 -1       504 6.99164E-03-8.24543E-04-1.79012E-14
 -1       505 7.30218E-03-8.52207E-04-1.94681E-14
 -1       506 7.60925E-03-8.28124E-04-2.11097E-14
 -1       507 7.92017E-03-7.52728E-04-2.28287E-14
 -1       508 8.23947E-03-6.41551E-04-2.46207E-14
 -1       509 8.56596E-03-5.15999E-04-2.64818E-14
 -1       510 8.89485E-03-3.93677E-04-2.84060E-14
 -1       511 9.22138E-03-2.84585E-04-3.03795E-14
 -1       512 9.54262E-03-1.92098E-04-3.23964E-14
 -1       513 9.85764E-03-1.15497E-04-3.44558E-14
 -1       514 1.01667E-02-5.21627E-05-3.65541E-14
 -1       515 1.04708E-02 1.04991E-06-3.86927E-14
 -1       516 1.07707E-02 4.71081E-05-4.08673E-14
 -1       517 1.10673E-02 8.84998E-05-4.30677E-14
 -1       518 1.13613E-02 1.27158E-04-4.52884E-14
 -1       519 1.16534E-02 1.64498E-04-4.75271E-14
 -1       520 1.19439E-02 2.01494E-04-4.97893E-14
 -1       521 1.22331E-02 2.38773E-04-5.20824E-14
 -1       522 1.25214E-02 2.76706E-04-5.44090E-14
 -1       523 1.28090E-02 3.15477E-04-5.67586E-14
 -1       524 1.30960E-02 3.55144E-04-5.91276E-14
 -1       525 1.33827E-02 3.95683E-04-6.15152E-14
 -1       526 1.36690E-02 4.37024E-04-6.39194E-14
 -1       527 1.39550E-02 4.79067E-04-6.63268E-14
 -1       528 1.78633E-03 4.64054E-04-8.86552E-16
 -1       529 2.06998E-03 4.80044E-04-1.23038E-15
 -1       530 2.35410E-03 4.87994E-04-1.63419E-15
 -1       531 2.63928E-03 4.89785E-04-2.09842E-15
 -1       532 2.92599E-03 4.86935E-04-2.62364E-15
 -1       533 3.21467E-03 4.80766E-04-3.20970E-15
 -1       534 3.50575E-03 4.72572E-04-3.85553E-15
 -1       535 3.79972E-03 4.63815E-04-4.56196E-15
 -1       536 4.09712E-03 4.56351E-04-5.33322E-15
 -1       537 4.39866E-03 4.52707E-04-6.17055E-15
 -1       538 4.70532E-03 4.56403E-04-7.07419E-15
 -1       539 5.01849E-03 4.72288E-04-8.04163E-15
 -1       540 5.34017E-03 5.06790E-04-9.06778E-15
 -1       541 5.67302E-03 5.67835E-04-1.01527E-14
 -1       542 6.01966E-03 6.63790E-04-1.12971E-14
 -1       543 6.38081E-03 8.00218E-04-1.25081E-14
 -1       544 6.75171E-03 9.72630E-04-1.37921E-14
 -1       545 7.12094E-03 1.15482E-03-1.51539E-14
 -1       546 7.47721E-03 1.29333E-03-1.65929E-14
 -1       547 7.82434E-03 1.33528E-03-1.81087E-14
 -1       548 8.17620E-03 1.26986E-03-1.97042E-14
 -1       549 8.54145E-03 1.14062E-03-2.13840E-14
 -1       550 8.91355E-03 1.00400E-03-2.31428E-14
 -1       551 9.27933E-03 8.97342E-04-2.49663E-14
 -1       552 9.63156E-03 8.31260E-04-2.68406E-14
 -1       553 9.96946E-03 8.02568E-04-2.87523E-14
 -1       554 1.02953E-02 8.03338E-04-3.07032E-14
 -1       555 1.06120E-02 8.25325E-04-3.26878E-14
 -1       556 1.09218E-02 8.61598E-04-3.47119E-14
 -1       557 1.12264E-02 9.06878E-04-3.67894E-14
 -1       558 1.15268E-02 9.57385E-04-3.89109E-14
 -1       559 1.18239E-02 1.01054E-03-4.10729E-14
 -1       560 1.21185E-02 1.06467E-03-4.32787E-14
 -1       561 1.24109E-02 1.11873E-03-4.55322E-14
 -1       562 1.27016E-02 1.17211E-03-4.78242E-14
 -1       563 1.29910E-02 1.22452E-03-5.01504E-14
 -1       564 1.32793E-02 1.27583E-03-5.25071E-14
 -1       565 1.35669E-02 1.32605E-03-5.48900E-14
 -1       566 1.38539E-02 1.37525E-03-5.72835E-14
 -1       567 1.41404E-02 1.42353E-03-5.96914E-14
 -1       568 1.44267E-02 1.47104E-03-6.21296E-14
 -1       569 1.47126E-02 1.51790E-03-6.45988E-14
 -1       570 1.45852E-02 1.24909E-03-6.57531E-14
 -1       571 1.45415E-02 1.16601E-03-6.60580E-14
 -1       572 1.46726E-02 1.41467E-03-6.51439E-14
 -1       573 1.46287E-02 1.33174E-03-6.54505E-14
 -1       574 1.44977E-02 1.08312E-03-6.63579E-14
 -1       575 1.44539E-02 1.00033E-03-6.66603E-14
 -1       576 1.44099E-02 9.17533E-04-6.69618E-14
 -1       577 1.43666E-02 8.36036E-04-6.72539E-14
 -1       578 1.43226E-02 7.52937E-04-6.75469E-14
 -1       579 1.42787E-02 6.69576E-04-6.78409E-14
 -1       580 1.42350E-02 5.85926E-04-6.81367E-14
 -1       581 9.46266E-03 5.15825E-04-2.40967E-14
 -1       582 9.84131E-03 3.15917E-04-2.54557E-14
 -1       583 1.50250E-03 4.37607E-04-6.01339E-16
 -1       584 9.87099E-03 3.55169E-04-2.52968E-14
 -1       585 9.11553E-03 6.72172E-04-2.29683E-14
 -1       586 7.13001E-04-2.47705E-04-2.38477E-16
 -1       587 8.94107E-03-5.02821E-05-2.40864E-14
 -1       588 7.24532E-03-6.82366E-04-1.85890E-14
 -1       589 6.63609E-04-3.54054E-05-2.43430E-16
 -1       590 7.61957E-03 1.26778E-03-1.77003E-14
 -1       591 8.27139E-03-4.21513E-04-2.23297E-14
 -1       592 8.28129E-03 1.11629E-03-2.02079E-14
 -1       593 8.00824E-03 1.22766E-03-1.91864E-14
 -1       594 6.92736E-03 9.72752E-04-1.56328E-14
 -1       595 6.47800E-03 7.05196E-04-1.47530E-14
 -1       596 6.07418E-03 4.85590E-04-1.41322E-14
 -1       597 5.68940E-03 3.14724E-04-1.37643E-14
 -1       598 5.45326E-03 2.27562E-04-1.35211E-14
 -1       599 5.31969E-03 1.71415E-04-1.35053E-14
 -1       600 5.39071E-03 1.29783E-04-1.38151E-14
 -1       601 5.56497E-03 7.20621E-05-1.42440E-14
 -1       602 5.87670E-03-5.00807E-05-1.47996E-14
 -1       603 6.23942E-03-2.21141E-04-1.55229E-14
 -1       604 6.54805E-03-3.79366E-04-1.63054E-14
 -1       605 6.98954E-03-5.95606E-04-1.76525E-14
 -1       606 7.59009E-03-7.02991E-04-2.00441E-14
 -1       607 7.88660E-03-6.14733E-04-2.11730E-14
 -1       608 8.61599E-03-2.26664E-04-2.32700E-14
 -1       609 9.35439E-03 1.43919E-04-2.50428E-14
 -1       610 9.64247E-03 2.49805E-04-2.52633E-14
 -1       611 9.74447E-03 4.04854E-04-2.48261E-14
 -1       612 7.03754E-04 2.86859E-04-9.91571E-17
 -1       613 8.77204E-03 8.54834E-04-2.18997E-14
 -1       614 6.77029E-04-1.56471E-04-2.47374E-16
 -1       615 8.53225E-03 1.00876E-03-2.12283E-14
 -1       616 1.41475E-02 5.06162E-04-6.79719E-14
 -1       617 6.92298E-04-1.98943E-04-2.45562E-16
 -1       618 8.99214E-04 7.16751E-05-3.84760E-16
 -1       619 8.96881E-04 2.43474E-05-4.01324E-16
 -1       620 9.12136E-04 1.73275E-04-3.36648E-16
 -1       621 9.24816E-04 2.31067E-04-3.02482E-16
 -1       622 1.04960E-03 3.06765E-04-3.33128E-16
 -1       623 6.73854E-03-5.13032E-04-1.66767E-14
 -1       624 1.38417E-03-3.26459E-04-8.63916E-16
 -1       625 1.67060E-03-3.53532E-04-1.22858E-15
 -1       626 1.95714E-03-3.70709E-04-1.65780E-15
 -1       627 2.24362E-03-3.80072E-04-2.15014E-15
 -1       628 2.53011E-03-3.83407E-04-2.70591E-15
 -1       629 2.81673E-03-3.82220E-04-3.32687E-15
 -1       630 3.10367E-03-3.77824E-04-4.01258E-15
 -1       631 3.39118E-03-3.71453E-04-4.76175E-15
 -1       632 3.67963E-03-3.64388E-04-5.57325E-15
 -1       633 3.96955E-03-3.58083E-04-6.44479E-15
 -1       634 4.26175E-03-3.54303E-04-7.37539E-15
 -1       635 4.55738E-03-3.55246E-04-8.36660E-15
 -1       636 4.85803E-03-3.63658E-04-9.41608E-15
 -1       637 5.16570E-03-3.82879E-04-1.05235E-14
 -1       638 5.48246E-03-4.16732E-04-1.16933E-14
 -1       639 5.80963E-03-4.68836E-04-1.29248E-14
 -1       640 6.14640E-03-5.40810E-04-1.42222E-14
 -1       641 6.48820E-03-6.28814E-04-1.55858E-14
 -1       642 6.82699E-03-7.18227E-04-1.70217E-14
 -1       643 7.15575E-03-7.82358E-04-1.85388E-14
 -1       644 7.47564E-03-7.91485E-04-2.01352E-14
 -1       645 7.79518E-03-7.33491E-04-2.18097E-14
 -1       646 8.12462E-03-6.22113E-04-2.35630E-14
 -1       647 8.46394E-03-4.86845E-04-2.53887E-14
 -1       648 8.80563E-03-3.54175E-04-2.72791E-14
 -1       649 9.14199E-03-2.37816E-04-2.92235E-14
 -1       650 9.46864E-03-1.41268E-04-3.12135E-14
 -1       651 9.78492E-03-6.26769E-05-3.32425E-14
 -1       652 1.00922E-02 1.59986E-06-3.53136E-14
 -1       653 1.03927E-02 5.52920E-05-3.74234E-14
 -1       654 1.06882E-02 1.01619E-04-3.95742E-14
 -1       655 1.09804E-02 1.43150E-04-4.17573E-14
 -1       656 1.12704E-02 1.81837E-04-4.39613E-14
 -1       657 1.15590E-02 2.19105E-04-4.61857E-14
 -1       658 1.18466E-02 2.55942E-04-4.84324E-14
 -1       659 1.21336E-02 2.92999E-04-5.07099E-14
 -1       660 1.24202E-02 3.30670E-04-5.30159E-14
 -1       661 1.27065E-02 3.69159E-04-5.53522E-14
 -1       662 1.29926E-02 4.08542E-04-5.77048E-14
 -1       663 1.32786E-02 4.48811E-04-6.00809E-14
 -1       664 1.35646E-02 4.89903E-04-6.24665E-14
 -1       665 1.38504E-02 5.31726E-04-6.48640E-14
 -1       666 2.19372E-03 4.12763E-04-1.52969E-15
 -1       667 8.12003E-03-5.11361E-04-2.23555E-14
 -1       668 1.90783E-03 4.01708E-04-1.14333E-15
 -1       669 2.76595E-03 4.16222E-04-2.48188E-15
 -1       670 3.05266E-03 4.11524E-04-3.04845E-15
 -1       671 3.33996E-03 4.04199E-04-3.67553E-15
 -1       672 3.62801E-03 3.95501E-04-4.36170E-15
 -1       673 3.91700E-03 3.86895E-04-5.10942E-15
 -1       674 4.20726E-03 3.80262E-04-5.92317E-15
 -1       675 4.49939E-03 3.78126E-04-6.80291E-15
 -1       676 4.79461E-03 3.83927E-04-7.74574E-15
 -1       677 5.09516E-03 4.02352E-04-8.75005E-15
 -1       678 5.40494E-03 4.39766E-04-9.81312E-15
 -1       679 5.72988E-03 5.04792E-04-1.09351E-14
 -1       680 6.07678E-03 6.08258E-04-1.21181E-14
 -1       681 6.45005E-03 7.60457E-04-1.33662E-14
 -1       682 6.84401E-03 9.58556E-04-1.46873E-14
 -1       683 9.18054E-03 8.24016E-04-2.43179E-14
 -1       684 9.53678E-03 7.48363E-04-2.61772E-14
 -1       685 9.86882E-03 7.14989E-04-2.80786E-14
 -1       686 1.01834E-02 7.12673E-04-3.00201E-14
 -1       687 1.04869E-02 7.32029E-04-3.19984E-14
 -1       688 1.07841E-02 7.66015E-04-3.40089E-14
 -1       689 1.10776E-02 8.09482E-04-3.60653E-14
 -1       690 1.13689E-02 8.58723E-04-3.81699E-14
 -1       691 1.16590E-02 9.11130E-04-4.03144E-14
 -1       692 1.19482E-02 9.64930E-04-4.24978E-14
 -1       693 1.22366E-02 1.01897E-03-4.47307E-14
 -1       694 1.25245E-02 1.07254E-03-4.70054E-14
 -1       695 1.28120E-02 1.12526E-03-4.93102E-14
 -1       696 1.30990E-02 1.17693E-03-5.16479E-14
 -1       697 1.33857E-02 1.22753E-03-5.40126E-14
 -1       698 1.36721E-02 1.27709E-03-5.63928E-14
 -1       699 1.39583E-02 1.32571E-03-5.87877E-14
 -1       700 1.42444E-02 1.37350E-03-6.12043E-14
 -1       701 1.44585E-02 1.39428E-03-6.31674E-14
 -1       702 1.42292E-02 1.00283E-03-6.44200E-14
 -1       703 1.40427E-02 5.58702E-04-6.64959E-14
 -1       704 1.43164E-02 1.16777E-03-6.38062E-14
 -1       705 1.41853E-02 9.20520E-04-6.47227E-14
 -1       706 1.42729E-02 1.08520E-03-6.41151E-14
 -1       707 1.62183E-03 3.81978E-04-8.16008E-16
 -1       708 9.71229E-03 4.59258E-04-2.56218E-14
 -1       709 1.41419E-02 8.39529E-04-6.50148E-14
 -1       710 1.40977E-02 7.56936E-04-6.53078E-14
 -1       711 1.40535E-02 6.74031E-04-6.56004E-14
 -1       712 9.51004E-04-2.63955E-04-4.31306E-16
 -1       713 5.64898E-03 1.52278E-05-1.38930E-14
 -1       714 5.26966E-03 1.37473E-04-1.28458E-14
 -1       715 7.35786E-03-7.27741E-04-1.91803E-14
 -1       716 2.47970E-03 4.17077E-04-1.97518E-15
 -1       717 1.16716E-03-2.99326E-04-6.28952E-16
 -1       718 9.04071E-04 1.20775E-04-3.63516E-16
 -1       719 1.33566E-03 3.51225E-04-5.46248E-16
 -1       720 9.03648E-04-1.18392E-04-4.27711E-16
 -1       721 9.79821E-03 3.00031E-04-2.63423E-14
 -1       722 9.93741E-03 3.49092E-04-2.65783E-14
 -1       723 9.15760E-03 4.63706E-05-2.55912E-14
 -1       724 8.41007E-03-3.47138E-04-2.32990E-14
 -1       725 5.97227E-03-1.33835E-04-1.44908E-14
 -1       726 8.99332E-03 7.73032E-04-2.29987E-14
 -1       727 5.81581E-03 3.70556E-04-1.31909E-14
 -1       728 5.52752E-03 2.55337E-04-1.29495E-14
 -1       729 5.29338E-03 1.80015E-04-1.25954E-14
 -1       730 5.45191E-03 8.52340E-05-1.34715E-14
 -1       731 6.34845E-03-3.20745E-04-1.54441E-14
 -1       732 7.06670E-03-6.55014E-04-1.78978E-14
 -1       733 6.25289E-03 5.85402E-04-1.38347E-14
 -1       734 7.77193E-03-6.72767E-04-2.10704E-14
 -1       735 6.67684E-03 8.35392E-04-1.45886E-14
 -1       736 8.78609E-03-1.36044E-04-2.44316E-14
 -1       737 9.88344E-03 3.86861E-04-2.60948E-14
 -1       738 9.58501E-03 2.26521E-04-2.63393E-14
 -1       739 9.31932E-03 6.10264E-04-2.41290E-14
 -1       740 9.11468E-04-1.70665E-04-4.27782E-16
 -1       741 8.96809E-04-2.23189E-05-4.13837E-16
 -1       742 9.42846E-03 1.42689E-04-2.68938E-14
 -1       743 1.43596E-02 1.24994E-03-6.34954E-14
 -1       744 8.79884E-03 9.50116E-04-2.25104E-14
 -1       745 1.44089E-02 1.32196E-03-6.33323E-14
 -1       746 9.61053E-03 5.35686E-04-2.56506E-14
 -1       747 8.98974E-04-6.93999E-05-4.22653E-16
 -1       748 1.16191E-03 2.36109E-04-5.01410E-16
 -1       749 1.79680E-03-2.94317E-04-1.44233E-15
 -1       750 2.08372E-03-3.05781E-04-1.89935E-15
 -1       751 2.37050E-03-3.11121E-04-2.41851E-15
 -1       752 2.65688E-03-3.11694E-04-3.00102E-15
 -1       753 2.94275E-03-3.08672E-04-3.64708E-15
 -1       754 3.22813E-03-3.03105E-04-4.35767E-15
 -1       755 3.51318E-03-2.96007E-04-5.13004E-15
 -1       756 3.79824E-03-2.88452E-04-5.96267E-15
 -1       757 4.08398E-03-2.81688E-04-6.85404E-15
 -1       758 4.37148E-03-2.77270E-04-7.80701E-15
 -1       759 4.66243E-03-2.77228E-04-8.81909E-15
 -1       760 4.95931E-03-2.84300E-04-9.88768E-15
 -1       761 5.26547E-03-3.02265E-04-1.10175E-14
 -1       762 5.58470E-03-3.36370E-04-1.22082E-14
 -1       763 5.91982E-03-3.92595E-04-1.34600E-14
 -1       764 6.27073E-03-4.75357E-04-1.47754E-14
 -1       765 6.63062E-03-5.81984E-04-1.61600E-14
 -1       766 8.36130E-03-4.61587E-04-2.43036E-14
 -1       767 8.72060E-03-3.10938E-04-2.61607E-14
 -1       768 9.07064E-03-1.84096E-04-2.80714E-14
 -1       769 9.40481E-03-8.38903E-05-3.00348E-14
 -1       770 9.72296E-03-5.41097E-06-3.20406E-14
 -1       771 1.00282E-02 5.74831E-05-3.40842E-14
 -1       772 1.03243E-02 1.09756E-04-3.61655E-14
 -1       773 1.06145E-02 1.55069E-04-3.82866E-14
 -1       774 1.09012E-02 1.96018E-04-4.04474E-14
 -1       775 1.11860E-02 2.34442E-04-4.26378E-14
 -1       776 1.14700E-02 2.71632E-04-4.48463E-14
 -1       777 1.17538E-02 3.08477E-04-4.70767E-14
 -1       778 1.20376E-02 3.45562E-04-4.93379E-14
 -1       779 1.23218E-02 3.83248E-04-5.16273E-14
 -1       780 1.26062E-02 4.21726E-04-5.39453E-14
 -1       781 1.28909E-02 4.61073E-04-5.62885E-14
 -1       782 1.31759E-02 5.01281E-04-5.86509E-14
 -1       783 1.34611E-02 5.42296E-04-6.10223E-14
 -1       784 1.37464E-02 5.84036E-04-6.34058E-14
 -1       785 3.17576E-03 3.37550E-04-3.48641E-15
 -1       786 2.89099E-03 3.43169E-04-2.87879E-15
 -1       787 3.74243E-03 3.21895E-04-4.88014E-15
 -1       788 4.02405E-03 3.14417E-04-5.67040E-15
 -1       789 4.30454E-03 3.09354E-04-6.52550E-15
 -1       790 4.58439E-03 3.08922E-04-7.44607E-15
 -1       791 4.86494E-03 3.16028E-04-8.42866E-15
 -1       792 5.14908E-03 3.34644E-04-9.46874E-15
 -1       793 5.44211E-03 3.70551E-04-1.05683E-14
 -1       794 5.75417E-03 4.33832E-04-1.17255E-14
 -1       795 9.47634E-03 6.55886E-04-2.55076E-14
 -1       796 1.03823E-02 6.42914E-04-3.13014E-14
 -1       797 1.06635E-02 6.75985E-04-3.33036E-14
 -1       798 1.09432E-02 7.17850E-04-3.53405E-14
 -1       799 1.12230E-02 7.65370E-04-3.74249E-14
 -1       800 1.15038E-02 8.16279E-04-3.95580E-14
 -1       801 1.17857E-02 8.68931E-04-4.17236E-14
 -1       802 1.20686E-02 9.22180E-04-4.39352E-14
 -1       803 1.23523E-02 9.75268E-04-4.61888E-14
 -1       804 1.26366E-02 1.02773E-03-4.84753E-14
 -1       805 1.29214E-02 1.07932E-03-5.07917E-14
 -1       806 1.32065E-02 1.12995E-03-5.31364E-14
 -1       807 1.34919E-02 1.17960E-03-5.55027E-14
 -1       808 1.37773E-02 1.22835E-03-5.78858E-14
 -1       809 1.40629E-02 1.27629E-03-6.02867E-14
 -1       810 1.42359E-02 1.29925E-03-6.18038E-14
 -1       811 1.13661E-03 5.67913E-05-6.02569E-16
 -1       812 1.74610E-03 3.23792E-04-1.04734E-15
 -1       813 1.39610E-02 9.23039E-04-6.24919E-14
 -1       814 1.38287E-02 6.78453E-04-6.33790E-14
 -1       815 1.39177E-02 8.42681E-04-6.27903E-14
 -1       816 9.24027E-03 7.10127E-04-2.42785E-14
 -1       817 5.33926E-03 2.13283E-04-1.20395E-14
 -1       818 5.46276E-03 3.32529E-05-1.30028E-14
 -1       819 8.81258E-03 8.80556E-04-2.23907E-14
 -1       820 9.29394E-04-2.15339E-04-4.31590E-16
 -1       821 1.38733E-02 7.60743E-04-6.30892E-14
 -1       822 9.79738E-03 6.23527E-04-2.74006E-14
 -1       823 3.45963E-03 3.30067E-04-4.15304E-15
 -1       824 2.03283E-03 3.37534E-04-1.41576E-15
 -1       825 6.49017E-03-4.61212E-04-1.56925E-14
 -1       826 1.00959E-02 6.23087E-04-2.93322E-14
 -1       827 6.05559E-03-2.50008E-04-1.43344E-14
 -1       828 1.51021E-03-2.75204E-04-1.04764E-15
 -1       829 9.79200E-03 2.82696E-04-2.74467E-14
 -1       830 9.94577E-03 3.34776E-04-2.75601E-14
 -1       831 8.32801E-03-4.30215E-04-2.36638E-14
 -1       832 5.16264E-03 1.43445E-04-1.19098E-14
 -1       833 1.24697E-03 2.91886E-04-5.27203E-16
 -1       834 1.00127E-02 3.83335E-04-2.75076E-14
 -1       835 5.57093E-03 2.98624E-04-1.22454E-14
 -1       836 5.72848E-03-7.96935E-05-1.35762E-14
 -1       837 9.93882E-03 4.34703E-04-2.72280E-14
 -1       838 6.94914E-03-6.78061E-04-1.74665E-14
 -1       839 8.10952E-03-5.63478E-04-2.29663E-14
 -1       840 5.98463E-03 4.92372E-04-1.26599E-14
 -1       841 5.24836E-03 1.00945E-04-1.23922E-14
 -1       842 1.13504E-03 1.22617E-06-6.23406E-16
 -1       843 9.67256E-03 2.17996E-04-2.80092E-14
 -1       844 1.29331E-03-2.56058E-04-7.89008E-16
 -1       845 1.40912E-02 1.16855E-03-6.15571E-14
 -1       846 2.31936E-03 3.44376E-04-1.84365E-15
 -1       847 2.60547E-03 3.45825E-04-2.33146E-15
 -1       848 1.49627E-03 3.12236E-04-7.64102E-16
 -1       849 1.00758E-02 3.70343E-04-2.85019E-14
 -1       850 1.14943E-03 1.72947E-04-5.42626E-16
 -1       851 1.14126E-03 1.13428E-04-5.75986E-16
 -1       852 1.40480E-02 1.08632E-03-6.18743E-14
 -1       853 1.40046E-02 1.00459E-03-6.21851E-14
 -1       854 8.97241E-03-8.13791E-05-2.59097E-14
 -1       855 5.14490E-03 1.68054E-04-1.13722E-14
 -1       856 9.88025E-03 4.91386E-04-2.72561E-14
 -1       857 9.25713E-03 2.90951E-05-2.72168E-14
 -1       858 1.14088E-03-1.10813E-04-6.49017E-16
 -1       859 9.01555E-03 8.25662E-04-2.33868E-14
 -1       860 8.64241E-03-2.52701E-04-2.47756E-14
 -1       861 1.14883E-03-1.70018E-04-6.53560E-16
 -1       862 1.92615E-03-2.32885E-04-1.65908E-15
 -1       863 2.21277E-03-2.39611E-04-2.14203E-15
 -1       864 2.49891E-03-2.41767E-04-2.68720E-15
 -1       865 2.78411E-03-2.40316E-04-3.29537E-15
 -1       866 3.06807E-03-2.36101E-04-3.96686E-15
 -1       867 3.35066E-03-2.29880E-04-4.70015E-15
 -1       868 3.63193E-03-2.22381E-04-5.49335E-15
 -1       869 3.91220E-03-2.14382E-04-6.34725E-15
 -1       870 4.19216E-03-2.06800E-04-7.26017E-15
 -1       871 4.47310E-03-2.00835E-04-8.23399E-15
 -1       872 4.75713E-03-1.98212E-04-9.26619E-15
 -1       873 5.04755E-03-2.01605E-04-1.03561E-14
 -1       874 5.34921E-03-2.15184E-04-1.15076E-14
 -1       875 5.66876E-03-2.47530E-04-1.27176E-14
 -1       876 1.87383E-03 2.63396E-04-1.29491E-15
 -1       877 9.01832E-03-1.22088E-04-2.69300E-14
 -1       878 9.35938E-03-1.80775E-05-2.88638E-14
 -1       879 9.67708E-03 5.77763E-05-3.08414E-14
 -1       880 9.97743E-03 1.16445E-04-3.28604E-14
 -1       881 1.02667E-02 1.64931E-04-3.49176E-14
 -1       882 1.05495E-02 2.07583E-04-3.70135E-14
 -1       883 1.08291E-02 2.46966E-04-3.91463E-14
 -1       884 1.11075E-02 2.84648E-04-4.13127E-14
 -1       885 1.13859E-02 3.21639E-04-4.35076E-14
 -1       886 1.16650E-02 3.58600E-04-4.57229E-14
 -1       887 1.19450E-02 3.95953E-04-4.79675E-14
 -1       888 1.22260E-02 4.33953E-04-5.02428E-14
 -1       889 1.25080E-02 4.72736E-04-5.25481E-14
 -1       890 1.27909E-02 5.12345E-04-5.48764E-14
 -1       891 1.30745E-02 5.52761E-04-5.72232E-14
 -1       892 1.33586E-02 5.93931E-04-5.95860E-14
 -1       893 1.35936E-02 6.35953E-04-6.14778E-14
 -1       894 4.12337E-03 2.47569E-04-6.24464E-15
 -1       895 3.85093E-03 2.53002E-04-5.41231E-15
 -1       896 4.65674E-03 2.46025E-04-8.10124E-15
 -1       897 4.91841E-03 2.53510E-04-9.12006E-15
 -1       898 5.17970E-03 2.69933E-04-1.01970E-14
 -1       899 1.41635E-02 1.23374E-03-6.16822E-14
 -1       900 1.08201E-02 6.32875E-04-3.46171E-14
 -1       901 5.24464E-03 4.35303E-05-1.19820E-14
 -1       902 1.05573E-02 5.92292E-04-3.25901E-14
 -1       903 1.13564E-02 7.27036E-04-3.87961E-14
 -1       904 1.16297E-02 7.77708E-04-4.09484E-14
 -1       905 1.19059E-02 8.29329E-04-4.31410E-14
 -1       906 1.21844E-02 8.81162E-04-4.53745E-14
 -1       907 1.24647E-02 9.32704E-04-4.76437E-14
 -1       908 1.27465E-02 9.83649E-04-4.99423E-14
 -1       909 1.30294E-02 1.03384E-03-5.22666E-14
 -1       910 1.33132E-02 1.08322E-03-5.46145E-14
 -1       911 1.35975E-02 1.13179E-03-5.69873E-14
 -1       912 5.34121E-03 2.51708E-04-1.13415E-14
 -1       913 1.36936E-02 8.44624E-04-6.05752E-14
 -1       914 5.07204E-03 1.01769E-04-1.13374E-14
 -1       915 1.13643E-03-5.42116E-05-6.38920E-16
 -1       916 1.02969E-02 5.58706E-04-3.05970E-14
 -1       917 1.63979E-03-2.20502E-04-1.23707E-15
 -1       918 1.01228E-02 4.26268E-04-2.87965E-14
 -1       919 5.70305E-03-1.79094E-04-1.30463E-14
 -1       920 4.39198E-03 2.44702E-04-7.14147E-15
 -1       921 3.01475E-03 2.71720E-04-3.28882E-15
 -1       922 9.99015E-03 3.20460E-04-2.89474E-14
 -1       923 5.45463E-03-3.72959E-05-1.25313E-14
 -1       924 1.10864E-02 6.78325E-04-3.66839E-14
 -1       925 1.37374E-02 9.25424E-04-6.02663E-14
 -1       926 9.91488E-03 2.69874E-04-2.95222E-14
 -1       927 5.00051E-03 1.27470E-04-1.08174E-14
 -1       928 1.58744E-03 2.48146E-04-9.43981E-16
 -1       929 1.36386E-02 7.17785E-04-6.11882E-14
 -1       930 2.73137E-03 2.75208E-04-2.70114E-15
 -1       931 3.57502E-03 2.59609E-04-4.64346E-15
 -1       932 1.32016E-03 2.39968E-04-6.53537E-16
 -1       933 2.16040E-03 2.72147E-04-1.70368E-15
 -1       934 1.38823E-02 1.17965E-03-5.93753E-14
 -1       935 5.11252E-03 1.97037E-04-1.06973E-14
 -1       936 1.42294E-03-2.08119E-04-9.56869E-16
 -1       937 1.38848E-03-1.57128E-04-9.21992E-16
 -1       938 1.38114E-03-9.25110E-05-9.11407E-16
 -1       939 9.51888E-03 1.23201E-04-2.83423E-14
 -1       940 1.38145E-03 9.55292E-05-8.37367E-16
 -1       941 1.00354E-02 5.35336E-04-2.86332E-14
 -1       942 1.38233E-02 1.08703E-03-5.96340E-14
 -1       943 1.01040E-02 4.69437E-04-2.88274E-14
 -1       944 3.29613E-03 2.66198E-04-3.93656E-15
 -1       945 1.36662E-02 7.81326E-04-6.08848E-14
 -1       946 1.37772E-03 3.25086E-05-8.68836E-16
 -1       947 1.77229E-03-1.62612E-04-1.43090E-15
 -1       948 2.05824E-03-1.69580E-04-1.87781E-15
 -1       949 2.34405E-03-1.72679E-04-2.38628E-15
 -1       950 2.62887E-03-1.72590E-04-2.95654E-15
 -1       951 2.91208E-03-1.69922E-04-3.58893E-15
 -1       952 3.19321E-03-1.65188E-04-4.28331E-15
 -1       953 3.47199E-03-1.58822E-04-5.03756E-15
 -1       954 3.74831E-03-1.51226E-04-5.85252E-15
 -1       955 4.02232E-03-1.42799E-04-6.72622E-15
 -1       956 4.29459E-03-1.34023E-04-7.66231E-15
 -1       957 4.56628E-03-1.25603E-04-8.65753E-15
 -1       958 4.83955E-03-1.18788E-04-9.71059E-15
 -1       959 5.11822E-03-1.16332E-04-1.08224E-14
 -1       960 1.71838E-03 1.91735E-04-1.16759E-15
 -1       961 2.44643E-03 2.75697E-04-2.17271E-15
 -1       962 9.65596E-03 1.27019E-04-2.96503E-14
 -1       963 9.94436E-03 1.78059E-04-3.16409E-14
 -1       964 1.02217E-02 2.20341E-04-3.36739E-14
 -1       965 1.04935E-02 2.58696E-04-3.57466E-14
 -1       966 1.07636E-02 2.95556E-04-3.78556E-14
 -1       967 1.10340E-02 3.32025E-04-3.99976E-14
 -1       968 1.13057E-02 3.68693E-04-4.21704E-14
 -1       969 1.15793E-02 4.05873E-04-4.43700E-14
 -1       970 1.18548E-02 4.43737E-04-4.65978E-14
 -1       971 1.21323E-02 4.82370E-04-4.88556E-14
 -1       972 1.24115E-02 5.21798E-04-5.11471E-14
 -1       973 1.26921E-02 5.62006E-04-5.34633E-14
 -1       974 1.29740E-02 6.02945E-04-5.57994E-14
 -1       975 1.32570E-02 6.44548E-04-5.81490E-14
 -1       976 1.34477E-02 6.80999E-04-5.96638E-14
 -1       977 3.95644E-03 1.89656E-04-5.95836E-15
 -1       978 4.95944E-03 1.98979E-04-9.82208E-15
 -1       979 4.72135E-03 1.90875E-04-8.76731E-15
 -1       980 1.07037E-02 5.55414E-04-3.38877E-14
 -1       981 1.17465E-02 7.41064E-04-4.23408E-14
 -1       982 1.14776E-02 6.91903E-04-4.01696E-14
 -1       983 1.22953E-02 8.40762E-04-4.68119E-14
 -1       984 1.25737E-02 8.90438E-04-4.90957E-14
 -1       985 1.28540E-02 9.39663E-04-5.14040E-14
 -1       986 1.31358E-02 9.88317E-04-5.37353E-14
 -1       987 1.34187E-02 1.03640E-03-5.60910E-14
 -1       988 1.02408E-02 4.08385E-04-3.01019E-14
 -1       989 5.00989E-03 4.48546E-05-1.08445E-14
 -1       990 1.09551E-02 5.98290E-04-3.59430E-14
 -1       991 1.37763E-03-2.97114E-05-8.93254E-16
 -1       992 1.37805E-02 1.00606E-03-5.99534E-14
 -1       993 1.01999E-02 3.59727E-04-3.05628E-14
 -1       994 1.38902E-03 1.60352E-04-7.98454E-16
 -1       995 1.04607E-02 5.16755E-04-3.18673E-14
 -1       996 1.12134E-02 6.44040E-04-3.80363E-14
 -1       997 1.20193E-02 7.90854E-04-4.45570E-14
 -1       998 1.01614E-02 3.18904E-04-3.11515E-14
 -1       999 4.89883E-03 7.94812E-05-1.03431E-14
 -1      1000 2.00438E-03 2.01187E-04-1.55823E-15
 -1      1001 4.21873E-03 1.87186E-04-6.83277E-15
 -1      1002 2.85785E-03 2.06022E-04-3.08465E-15
 -1      1003 3.68830E-03 1.93695E-04-5.14733E-15
 -1      1004 1.63050E-03 1.38273E-04-1.10389E-15
 -1      1005 1.03170E-02 4.64059E-04-3.06448E-14
 -1      1006 4.96984E-03 1.58869E-04-1.03194E-14
 -1      1007 1.02269E-02 4.82490E-04-2.98784E-14
 -1      1008 1.34704E-02 8.46449E-04-5.83662E-14
 -1      1009 1.62413E-03 6.93697E-05-1.14747E-15
 -1      1010 1.33770E-02 9.56714E-04-5.64152E-14
 -1      1011 4.47410E-03 1.87280E-04-7.76906E-15
 -1      1012 5.15819E-03-2.60840E-05-1.12672E-14
 -1      1013 3.13819E-03 2.02736E-04-3.71228E-15
 -1      1014 1.34431E-02 7.83942E-04-5.86780E-14
 -1      1015 1.90765E-03-1.01853E-04-1.62702E-15
 -1      1016 2.19302E-03-1.04825E-04-2.09875E-15
 -1      1017 2.47768E-03-1.05472E-04-2.63113E-15
 -1      1018 2.76071E-03-1.04135E-04-3.22493E-15
 -1      1019 3.04136E-03-1.01095E-04-3.88010E-15
 -1      1020 3.31903E-03-9.65368E-05-4.59548E-15
 -1      1021 3.59322E-03-9.05710E-05-5.37084E-15
 -1      1022 3.86359E-03-8.32473E-05-6.20563E-15
 -1      1023 4.12996E-03-7.45508E-05-7.10345E-15
 -1      1024 4.39237E-03-6.44764E-05-8.06117E-15
 -1      1025 4.65135E-03-5.31745E-05-9.07724E-15
 -1      1026 4.90819E-03-4.12087E-05-1.01521E-14
 -1      1027 2.57494E-03 2.07416E-04-2.51620E-15
 -1      1028 1.01904E-02 2.73648E-04-3.24350E-14
 -1      1029 1.04461E-02 3.07015E-04-3.44823E-14
 -1      1030 1.07036E-02 3.40840E-04-3.65686E-14
 -1      1031 1.09640E-02 3.75925E-04-3.86873E-14
 -1      1032 1.12280E-02 4.12306E-04-4.08357E-14
 -1      1033 1.14954E-02 4.49896E-04-4.30142E-14
 -1      1034 1.17661E-02 4.88560E-04-4.52267E-14
 -1      1035 1.20397E-02 5.28170E-04-4.74712E-14
 -1      1036 1.23159E-02 5.68611E-04-4.97424E-14
 -1      1037 1.25942E-02 6.09779E-04-5.20483E-14
 -1      1038 1.28743E-02 6.51589E-04-5.43746E-14
 -1      1039 1.31558E-02 6.93915E-04-5.67142E-14
 -1      1040 3.41527E-03 1.98350E-04-4.39961E-15
 -1      1041 2.29020E-03 2.06093E-04-2.00703E-15
 -1      1042 1.26796E-02 8.47749E-04-5.05448E-14
 -1      1043 1.24019E-02 8.00023E-04-4.82481E-14
 -1      1044 1.04463E-02 4.43538E-04-3.20554E-14
 -1      1045 1.08231E-02 5.25643E-04-3.51949E-14
 -1      1046 1.13259E-02 6.11637E-04-3.93913E-14
 -1      1047 9.71274E-03 1.72143E-04-2.94491E-14
 -1      1048 4.55811E-03 1.37704E-04-8.41010E-15
 -1      1049 1.18554E-02 7.04614E-04-4.37386E-14
 -1      1050 1.04168E-02 3.91243E-04-3.25263E-14
 -1      1051 1.64119E-03-6.43771E-05-1.23295E-15
 -1      1052 1.34241E-02 9.01802E-04-5.73931E-14
 -1      1053 1.29593E-02 8.95232E-04-5.28660E-14
 -1      1054 1.34455E-02 7.32659E-04-5.91721E-14
 -1      1055 1.15880E-02 6.57583E-04-4.15448E-14
 -1      1056 1.21270E-02 7.52222E-04-4.59769E-14
 -1      1057 4.76973E-03 1.46992E-04-9.34157E-15
 -1      1058 1.10703E-02 5.67341E-04-3.72758E-14
 -1      1059 1.91573E-03 1.46610E-04-1.48625E-15
 -1      1060 3.80249E-03 1.32683E-04-5.66734E-15
 -1      1061 2.70540E-03 1.40078E-04-2.87401E-15
 -1      1062 2.98583E-03 1.38830E-04-3.48291E-15
 -1      1063 4.82596E-03 1.12467E-04-9.86503E-15
 -1      1064 4.06304E-03 1.32130E-04-6.51891E-15
 -1      1065 4.77865E-03 1.70150E-05-9.70726E-15
 -1      1066 1.63062E-03 2.64263E-06-1.19374E-15
 -1      1067 1.32042E-02 8.14441E-04-5.60515E-14
 -1      1068 4.31550E-03 1.33553E-04-7.43366E-15
 -1      1069 2.33075E-03-3.90767E-05-2.31945E-15
 -1      1070 2.61409E-03-3.84578E-05-2.87459E-15
 -1      1071 2.89505E-03-3.69057E-05-3.49062E-15
 -1      1072 3.17285E-03-3.43322E-05-4.16695E-15
 -1      1073 3.44682E-03-3.06251E-05-4.90275E-15
 -1      1074 3.71600E-03-2.56936E-05-5.69879E-15
 -1      1075 3.97986E-03-1.91380E-05-6.55588E-15
 -1      1076 4.23757E-03-1.06523E-05-7.47669E-15
 -1      1077 4.48821E-03 2.16081E-07-8.45626E-15
 -1      1078 1.04043E-02 3.50043E-04-3.32255E-14
 -1      1079 2.42237E-03 1.39858E-04-2.32554E-15
 -1      1080 1.06459E-02 3.81320E-04-3.52843E-14
 -1      1081 1.08950E-02 4.15614E-04-3.73794E-14
 -1      1082 1.11504E-02 4.52013E-04-3.95061E-14
 -1      1083 1.14114E-02 4.90380E-04-4.16615E-14
 -1      1084 1.16772E-02 5.30204E-04-4.38523E-14
 -1      1085 1.19470E-02 5.71164E-04-4.60811E-14
 -1      1086 1.22203E-02 6.12996E-04-4.83392E-14
 -1      1087 1.24963E-02 6.55493E-04-5.06260E-14
 -1      1088 1.27747E-02 6.98490E-04-5.29422E-14
 -1      1089 1.08097E-02 4.67680E-04-3.56947E-14
 -1      1090 1.22299E-02 7.12445E-04-4.73983E-14
 -1      1091 1.30822E-02 8.55441E-04-5.44587E-14
 -1      1092 1.25052E-02 7.58206E-04-4.96838E-14
 -1      1093 1.27831E-02 8.04087E-04-5.19912E-14
 -1      1094 4.42082E-03 8.59500E-05-8.04692E-15
 -1      1095 1.19579E-02 6.67012E-04-4.51422E-14
 -1      1096 1.11701E-02 5.36275E-04-3.86119E-14
 -1      1097 1.93867E-03 6.48477E-05-1.59214E-15
 -1      1098 2.11223E-03 1.34467E-04-1.79981E-15
 -1      1099 2.04608E-03-3.86936E-05-1.82495E-15
 -1      1100 3.53529E-03 1.34452E-04-4.87782E-15
 -1      1101 1.14269E-02 5.78448E-04-4.07483E-14
 -1      1102 3.26282E-03 1.36764E-04-4.14985E-15
 -1      1103 2.83867E-03 7.40587E-05-3.24827E-15
 -1      1104 4.63471E-03 6.11765E-05-9.05348E-15
 -1      1105 4.17603E-03 7.98388E-05-7.09395E-15
 -1      1106 2.55741E-03 7.38449E-05-2.66031E-15
 -1      1107 3.92143E-03 7.62235E-05-6.20203E-15
 -1      1108 3.65914E-03 7.44698E-05-5.37144E-15
 -1      1109 1.16899E-02 6.22210E-04-4.29248E-14
 -1      1110 1.83795E-03-1.73904E-05-1.49247E-15
 -1      1111 2.47186E-03 2.71665E-05-2.53931E-15
 -1      1112 3.30791E-03 3.00289E-05-4.44930E-15
 -1      1113 3.11661E-03 7.39040E-05-3.89576E-15
 -1      1114 2.18795E-03 2.63369E-05-2.02303E-15
 -1      1115 2.24868E-03 6.99817E-05-2.09131E-15
 -1      1116 0.00000E+00 0.00000E+00 0.00000E+00
 -1      1117 0.00000E+00 0.00000E+00 0.00000E+00
 -1      1118 0.00000E+00 0.00000E+00 0.00000E+00
 -1      1119 0.00000E+00 0.00000E+00 0.00000E+00
 -1      1120 0.00000E+00 0.00000E+00 0.00000E+00
 -1      1121 0.00000E+00 0.00000E+00 0.00000E+00
 -1      1122 0.00000E+00 0.00000E+00 0.00000E+00
 -1      1123 0.00000E+00 0.00000E+00 0.00000E+00
 -1      1124 0.00000E+00 0.00000E+00 0.00000E+00
 -1      1125 0.00000E+00 0.00000E+00 0.00000E+00
 -1      1126 0.00000E+00 0.00000E+00 0.00000E+00
 -1      1127 0.00000E+00 0.00000E+00 0.00000E+00
 -1      1128 0.00000E+00 0.00000E+00 0.00000E+00
 -1      1129 0.00000E+00 0.00000E+00 0.00000E+00
 -1      1130 0.00000E+00 0.00000E+00 0.00000E+00
 -1      1131 0.00000E+00 0.00000E+00 0.00000E+00
 -1      1132 0.00000E+00 0.00000E+00 0.00000E+00
 -1      1133 2.10835E-04-1.47700E-04 4.28260E-18
 -1      1134 5.49582E-04-3.35371E-04-3.34476E-17
 -1      1135 8.30648E-04-4.54920E-04-1.38304E-16
 -1      1136 1.09981E-03-5.34240E-04-3.19826E-16
 -1      1137 1.36521E-03-5.88636E-04-5.74465E-16
 -1      1138 1.63053E-03-6.25923E-04-9.01948E-16
 -1      1139 1.89782E-03-6.50687E-04-1.30172E-15
 -1      1140 2.16824E-03-6.66015E-04-1.77321E-15
 -1      1141 2.44247E-03-6.74225E-04-2.31558E-15
 -1      1142 2.72100E-03-6.77172E-04-2.92783E-15
 -1      1143 3.00429E-03-6.76436E-04-3.60981E-15
 -1      1144 3.29280E-03-6.73488E-04-4.35695E-15
 -1      1145 3.58707E-03-6.69828E-04-5.16809E-15
 -1      1146 3.88765E-03-6.67128E-04-6.04310E-15
 -1      1147 4.19500E-03-6.67355E-04-6.98097E-15
 -1      1148 4.50933E-03-6.72843E-04-7.97933E-15
 -1      1149 4.83028E-03-6.86269E-04-9.03489E-15
 -1      1150 5.15663E-03-7.10429E-04-1.01505E-14
 -1      1151 5.48585E-03-7.47693E-04-1.13314E-14
 -1      1152 5.81387E-03-7.99039E-04-1.25766E-14
 -1      1153 6.13525E-03-8.62694E-04-1.38864E-14
 -1      1154 6.44406E-03-9.32764E-04-1.52605E-14
 -1      1155 6.73570E-03-9.98685E-04-1.67018E-14
 -1      1156 7.00915E-03-1.04656E-03-1.82178E-14
 -1      1157 7.26861E-03-1.06283E-03-1.98130E-14
 -1      1158 7.52298E-03-1.03910E-03-2.14805E-14
 -1      1159 7.78306E-03-9.75617E-04-2.32173E-14
 -1      1160 8.05756E-03-8.81141E-04-2.50198E-14
 -1      1161 8.35041E-03-7.69360E-04-2.68935E-14
 -1      1162 8.66037E-03-6.54050E-04-2.88353E-14
 -1      1163 8.98277E-03-5.45520E-04-3.08292E-14
 -1      1164 9.31173E-03-4.49411E-04-3.28716E-14
 -1      1165 9.64197E-03-3.67325E-04-3.49572E-14
 -1      1166 9.96962E-03-2.98223E-04-3.70819E-14
 -1      1167 1.02924E-02-2.39775E-04-3.92439E-14
 -1      1168 1.06093E-02-1.89316E-04-4.14371E-14
 -1      1169 1.09202E-02-1.44385E-04-4.36581E-14
 -1      1170 1.12255E-02-1.02957E-04-4.59012E-14
 -1      1171 1.15261E-02-6.34931E-05-4.81565E-14
 -1      1172 1.18227E-02-2.48933E-05-5.04286E-14
 -1      1173 1.21161E-02 1.35796E-05-5.27338E-14
 -1      1174 1.24071E-02 5.23857E-05-5.50657E-14
 -1      1175 1.26962E-02 9.17834E-05-5.74303E-14
 -1      1176 1.29840E-02 1.31891E-04-5.98216E-14
 -1      1177 1.32708E-02 1.72732E-04-6.22366E-14
 -1      1178 1.35570E-02 2.14272E-04-6.46632E-14
 -1      1179 1.38429E-02 2.56440E-04-6.70962E-14
 -1      1180 1.41285E-02 2.99134E-04-6.95352E-14
 -1      1181 1.44141E-02 3.42217E-04-7.19793E-14
 -1      1182 1.46927E-02 3.84403E-04-7.43847E-14
 -1      1183 2.27510E-04 1.60028E-04 2.33375E-17
 -1      1184 5.51700E-04 3.39973E-04 3.94785E-17
 -1      1185 8.31493E-04 4.57052E-04 9.66295E-18
 -1      1186 1.10058E-03 5.35854E-04-7.50674E-17
 -1      1187 1.36592E-03 5.90169E-04-2.18399E-16
 -1      1188 1.63123E-03 6.27412E-04-4.21185E-16
 -1      1189 1.89852E-03 6.52058E-04-6.83508E-16
 -1      1190 2.16895E-03 6.67149E-04-1.00594E-15
 -1      1191 2.44326E-03 6.74929E-04-1.39072E-15
 -1      1192 2.72203E-03 6.77163E-04-1.83553E-15
 -1      1193 3.00589E-03 6.75320E-04-2.34502E-15
 -1      1194 3.29561E-03 6.70746E-04-2.91614E-15
 -1      1195 3.59219E-03 6.64839E-04-3.54675E-15
 -1      1196 3.89692E-03 6.59251E-04-4.23975E-15
 -1      1197 4.21136E-03 6.56145E-04-4.99881E-15
 -1      1198 4.53727E-03 6.58503E-04-5.82976E-15
 -1      1199 4.87632E-03 6.70471E-04-6.72941E-15
 -1      1200 5.22953E-03 6.97648E-04-7.69263E-15
 -1      1201 5.59634E-03 7.47027E-04-8.71575E-15
 -1      1202 5.97320E-03 8.26053E-04-9.79501E-15
 -1      1203 6.35211E-03 9.39947E-04-1.09346E-14
 -1      1204 6.72013E-03 1.08670E-03-1.21394E-14
 -1      1205 7.06198E-03 1.25101E-03-1.34274E-14
 -1      1206 7.36719E-03 1.40188E-03-1.48023E-14
 -1      1207 7.63914E-03 1.50080E-03-1.62552E-14
 -1      1208 7.89795E-03 1.52049E-03-1.77834E-14
 -1      1209 8.17127E-03 1.46172E-03-1.93829E-14
 -1      1210 8.47856E-03 1.35293E-03-2.10572E-14
 -1      1211 8.82238E-03 1.23279E-03-2.28027E-14
 -1      1212 9.19178E-03 1.13162E-03-2.46110E-14
 -1      1213 9.57150E-03 1.06374E-03-2.64676E-14
 -1      1214 9.94885E-03 1.03051E-03-2.83709E-14
 -1      1215 1.03161E-02 1.02645E-03-3.03097E-14
 -1      1216 1.06702E-02 1.04414E-03-3.22745E-14
 -1      1217 1.10106E-02 1.07675E-03-3.42872E-14
 -1      1218 1.13388E-02 1.11891E-03-3.63597E-14
 -1      1219 1.16566E-02 1.16674E-03-3.84892E-14
 -1      1220 1.19660E-02 1.21761E-03-4.06692E-14
 -1      1221 1.22687E-02 1.26980E-03-4.28901E-14
 -1      1222 1.25665E-02 1.32223E-03-4.51535E-14
 -1      1223 1.28604E-02 1.37429E-03-4.74570E-14
 -1      1224 1.31516E-02 1.42562E-03-4.97888E-14
 -1      1225 1.34408E-02 1.47607E-03-5.21507E-14
 -1      1226 1.37285E-02 1.52562E-03-5.45480E-14
 -1      1227 1.40153E-02 1.57431E-03-5.69615E-14
 -1      1228 1.43015E-02 1.62221E-03-5.94028E-14
 -1      1229 1.45873E-02 1.66943E-03-6.18750E-14
 -1      1230 1.48729E-02 1.71610E-03-6.43631E-14
 -1      1231 1.51585E-02 1.76237E-03-6.68632E-14
 -1      1232 1.54370E-02 1.80730E-03-6.93154E-14
 -1      1233 1.55501E-02 1.78704E-03-7.06622E-14
 -1      1234 1.55047E-02 1.70269E-03-7.09896E-14
 -1      1235 1.54596E-02 1.61829E-03-7.13098E-14
 -1      1236 1.54147E-02 1.53393E-03-7.16011E-14
 -1      1237 1.53703E-02 1.44972E-03-7.18516E-14
 -1      1238 1.53265E-02 1.36643E-03-7.20963E-14
 -1      1239 1.52828E-02 1.28337E-03-7.23586E-14
 -1      1240 1.52389E-02 1.19979E-03-7.26160E-14
 -1      1241 1.51950E-02 1.11631E-03-7.28846E-14
 -1      1242 1.51511E-02 1.03283E-03-7.31610E-14
 -1      1243 1.51072E-02 9.49255E-04-7.34646E-14
 -1      1244 1.50638E-02 8.66209E-04-7.37995E-14
 -1      1245 1.50205E-02 7.82945E-04-7.41434E-14
 -1      1246 1.49772E-02 6.98757E-04-7.44760E-14
 -1      1247 1.49341E-02 6.14418E-04-7.48043E-14
 -1      1248 1.48914E-02 5.30031E-04-7.51180E-14
 -1      1249 1.48493E-02 4.46399E-04-7.54156E-14
 -1      1250 9.83691E-03 3.69172E-04-2.26095E-14
 -1      1251 9.74223E-03 5.18843E-04-2.23110E-14
 -1      1252 9.53723E-03 6.74304E-04-2.18336E-14
 -1      1253 9.25545E-03 8.23453E-04-2.12535E-14
 -1      1254 8.89585E-03 9.67661E-04-2.05608E-14
 -1      1255 8.47445E-03 1.08875E-03-1.97718E-14
 -1      1256 8.03497E-03 1.16135E-03-1.89749E-14
 -1      1257 7.57585E-03 1.17175E-03-1.81810E-14
 -1      1258 7.11956E-03 1.11901E-03-1.74390E-14
 -1      1259 6.68236E-03 1.01069E-03-1.67795E-14
 -1      1260 6.25953E-03 8.58074E-04-1.61907E-14
 -1      1261 5.89223E-03 6.87204E-04-1.57327E-14
 -1      1262 5.61379E-03 5.21156E-04-1.54440E-14
 -1      1263 5.43424E-03 3.66195E-04-1.53081E-14
 -1      1264 5.35873E-03 2.14477E-04-1.53083E-14
 -1      1265 5.39763E-03 6.64630E-05-1.54662E-14
 -1      1266 5.54239E-03-7.58699E-05-1.57637E-14
 -1      1267 5.77575E-03-2.16030E-04-1.61827E-14
 -1      1268 6.07685E-03-3.49648E-04-1.67133E-14
 -1      1269 6.42356E-03-4.67245E-04-1.73290E-14
 -1      1270 6.80323E-03-5.58316E-04-1.80100E-14
 -1      1271 7.22315E-03-6.11643E-04-1.87716E-14
 -1      1272 7.64496E-03-6.15739E-04-1.95407E-14
 -1      1273 8.05491E-03-5.69114E-04-2.02772E-14
 -1      1274 8.46316E-03-4.78238E-04-2.09808E-14
 -1      1275 8.84085E-03-3.57238E-04-2.15947E-14
 -1      1276 9.18015E-03-2.18550E-04-2.20896E-14
 -1      1277 9.47339E-03-6.90995E-05-2.24528E-14
 -1      1278 9.69205E-03 8.02620E-05-2.26642E-14
 -1      1279 9.81716E-03 2.25966E-04-2.27212E-14
 -1      1280 1.66213E-04-1.09849E-04-6.07153E-18
 -1      1281 1.12462E-04-5.65996E-05-1.70084E-17
 -1      1282 1.17448E-04-6.72177E-05-1.39320E-17
 -1      1283 1.08457E-04-4.30643E-05-2.18873E-17
 -1      1284 1.10267E-04-4.91963E-05-2.04779E-17
 -1      1285 2.26253E-04-1.06730E-04-4.84367E-17
 -1      1286 1.06950E-04-3.31588E-05-2.42455E-17
 -1      1287 1.07768E-04-3.78895E-05-2.36492E-17
 -1      1288 2.19228E-04-8.15118E-05-5.68122E-17
 -1      1289 1.06195E-04-2.48999E-05-2.54788E-17
 -1      1290 1.06619E-04-2.89142E-05-2.52484E-17
 -1      1291 2.16102E-04-6.23059E-05-6.11355E-17
 -1      1292 1.05789E-04-1.77064E-05-2.56278E-17
 -1      1293 1.06020E-04-2.12320E-05-2.56956E-17
 -1      1294 2.14454E-04-4.62809E-05-6.29108E-17
 -1      1295 1.05562E-04-1.09688E-05-2.53703E-17
 -1      1296 1.05690E-04-1.42891E-05-2.54923E-17
 -1      1297 2.13518E-04-3.20171E-05-6.29515E-17
 -1      1298 1.05456E-04-4.56909E-06-2.47740E-17
 -1      1299 1.05512E-04-7.74265E-06-2.50180E-17
 -1      1300 2.12996E-04-1.87121E-05-6.20299E-17
 -1      1301 1.05445E-04 1.69602E-06-2.40015E-17
 -1      1302 1.05442E-04-1.43250E-06-2.42590E-17
 -1      1303 2.12765E-04-5.99943E-06-6.06205E-17
 -1      1304 1.05524E-04 8.01658E-06-2.27818E-17
 -1      1305 1.05463E-04 4.83616E-06-2.31342E-17
 -1      1306 2.12776E-04 6.53195E-06-5.84792E-17
 -1      1307 1.05712E-04 1.45900E-05-2.13588E-17
 -1      1308 1.05579E-04 1.12541E-05-2.18196E-17
 -1      1309 2.13030E-04 1.92721E-05-5.54298E-17
 -1      1310 1.06050E-04 2.15206E-05-1.92717E-17
 -1      1311 1.05813E-04 1.79706E-05-1.99222E-17
 -1      1312 2.13572E-04 3.25215E-05-5.14996E-17
 -1      1313 1.06661E-04 2.93507E-05-1.65070E-17
 -1      1314 1.06231E-04 2.52902E-05-1.73879E-17
 -1      1315 2.14530E-04 4.68843E-05-4.62141E-17
 -1      1316 1.07807E-04 3.84649E-05-1.28207E-17
 -1      1317 1.06983E-04 3.36644E-05-1.41895E-17
 -1      1318 2.16212E-04 6.32315E-05-3.94379E-17
 -1      1319 1.10253E-04 4.99432E-05-7.16929E-18
 -1      1320 1.08470E-04 4.37387E-05-9.60874E-18
 -1      1321 2.19342E-04 8.27538E-05-3.00460E-17
 -1      1322 1.16759E-04 6.72630E-05 1.13841E-18
 -1      1323 1.12107E-04 5.74061E-05-2.81893E-18
 -1      1324 2.26244E-04 1.08560E-04-1.67238E-17
 -1      1325 1.57067E-04 1.09392E-04 1.34306E-17
 -1      1326 1.35364E-04 8.56833E-05 6.24772E-18
 -1      1327 2.55613E-04 1.51165E-04-1.05710E-18
 -1      1328 3.34025E-04 2.19568E-04 2.01933E-17
 -1      1329 4.20328E-04-2.60126E-04-3.81233E-17
 -1      1330 5.73069E-04-3.34292E-04-7.38748E-17
 -1      1331 7.19979E-04-3.93904E-04-1.29874E-16
 -1      1332 8.62946E-04-4.42109E-04-2.04548E-16
 -1      1333 6.10976E-04-3.27960E-04-1.19479E-16
 -1      1334 1.00286E-03-4.81978E-04-2.96977E-16
 -1      1335 1.14068E-03-5.14647E-04-4.07213E-16
 -1      1336 9.03985E-04-4.26439E-04-2.72338E-16
 -1      1337 1.27727E-03-5.41964E-04-5.35352E-16
 -1      1338 1.41312E-03-5.64407E-04-6.81936E-16
 -1      1339 1.18653E-03-4.93165E-04-4.95914E-16
 -1      1340 1.54872E-03-5.83020E-04-8.46057E-16
 -1      1341 1.68434E-03-5.98137E-04-1.02805E-15
 -1      1342 1.46403E-03-5.38678E-04-7.89909E-16
 -1      1343 1.82024E-03-6.10368E-04-1.22778E-15
 -1      1344 1.95658E-03-6.20012E-04-1.44526E-15
 -1      1345 1.73989E-03-5.69067E-04-1.15416E-15
 -1      1346 2.09351E-03-6.27456E-04-1.68028E-15
 -1      1347 2.23112E-03-6.32966E-04-1.93298E-15
 -1      1348 2.01618E-03-5.88243E-04-1.58834E-15
 -1      1349 2.36953E-03-6.36807E-04-2.20296E-15
 -1      1350 2.50878E-03-6.39217E-04-2.49040E-15
 -1      1351 2.29416E-03-5.98994E-04-2.09182E-15
 -1      1352 2.64896E-03-6.40394E-04-2.79556E-15
 -1      1353 2.79013E-03-6.40553E-04-3.11730E-15
 -1      1354 2.57467E-03-6.03443E-04-2.66393E-15
 -1      1355 2.93235E-03-6.39857E-04-3.45526E-15
 -1      1356 3.07568E-03-6.38515E-04-3.81108E-15
 -1      1357 2.85833E-03-6.03312E-04-3.30415E-15
 -1      1358 3.22019E-03-6.36680E-04-4.18264E-15
 -1      1359 3.36594E-03-6.34564E-04-4.57041E-15
 -1      1360 3.14565E-03-6.00112E-04-4.01059E-15
 -1      1361 3.51298E-03-6.32336E-04-4.97382E-15
 -1      1362 3.66138E-03-6.30227E-04-5.39335E-15
 -1      1363 3.43711E-03-5.95305E-04-4.78147E-15
 -1      1364 3.81119E-03-6.28444E-04-5.82916E-15
 -1      1365 3.96246E-03-6.27246E-04-6.28006E-15
 -1      1366 3.73318E-03-5.90460E-04-5.61729E-15
 -1      1367 4.11523E-03-6.26899E-04-6.74645E-15
 -1      1368 4.26951E-03-6.27695E-04-7.22839E-15
 -1      1369 4.03423E-03-5.87399E-04-6.51473E-15
 -1      1370 4.42530E-03-6.29976E-04-7.72483E-15
 -1      1371 4.58254E-03-6.34055E-04-8.23584E-15
 -1      1372 4.34052E-03-5.88320E-04-7.47297E-15
 -1      1373 4.74117E-03-6.40347E-04-8.76130E-15
 -1      1374 4.90105E-03-6.49154E-04-9.30222E-15
 -1      1375 4.65201E-03-5.95848E-04-8.49069E-15
 -1      1376 5.06198E-03-6.60926E-04-9.85846E-15
 -1      1377 5.22372E-03-6.75890E-04-1.04294E-14
 -1      1378 4.96819E-03-6.12949E-04-9.56768E-15
 -1      1379 5.38592E-03-6.94426E-04-1.10180E-14
 -1      1380 5.54818E-03-7.16577E-04-1.16223E-14
 -1      1381 5.28792E-03-6.42569E-04-1.07071E-14
 -1      1382 5.71003E-03-7.42479E-04-1.22414E-14
 -1      1383 5.87094E-03-7.71841E-04-1.28765E-14
 -1      1384 5.60918E-03-6.86877E-04-1.19087E-14
 -1      1385 6.03034E-03-8.04316E-04-1.35277E-14
 -1      1386 6.18766E-03-8.39126E-04-1.41970E-14
 -1      1387 5.92910E-03-7.46008E-04-1.31741E-14
 -1      1388 6.34237E-03-8.75235E-04-1.48819E-14
 -1      1389 6.49403E-03-9.11310E-04-1.55816E-14
 -1      1390 6.24418E-03-8.16474E-04-1.45045E-14
 -1      1391 6.64234E-03-9.45617E-04-1.63023E-14
 -1      1392 6.78721E-03-9.76419E-04-1.70398E-14
 -1      1393 6.55107E-03-8.89831E-04-1.59047E-14
 -1      1394 6.92876E-03-1.00163E-03-1.77949E-14
 -1      1395 7.06741E-03-1.01956E-03-1.85694E-14
 -1      1396 6.84773E-03-9.52751E-04-1.73744E-14
 -1      1397 7.20376E-03-1.02847E-03-1.93641E-14
 -1      1398 7.33871E-03-1.02731E-03-2.01787E-14
 -1      1399 7.13478E-03-9.89645E-04-1.89201E-14
 -1      1400 7.47319E-03-1.01542E-03-2.10093E-14
 -1      1401 7.60826E-03-9.92830E-04-2.18586E-14
 -1      1402 7.41602E-03-9.87699E-04-2.05409E-14
 -1      1403 7.74486E-03-9.60273E-04-2.27257E-14
 -1      1404 7.88385E-03-9.18843E-04-2.36087E-14
 -1      1405 7.69747E-03-9.42097E-04-2.22357E-14
 -1      1406 8.02580E-03-8.70312E-04-2.45094E-14
 -1      1407 8.17113E-03-8.16390E-04-2.54278E-14
 -1      1408 7.98506E-03-8.58166E-04-2.39999E-14
 -1      1409 8.31993E-03-7.59153E-04-2.63624E-14
 -1      1410 8.47208E-03-7.00326E-04-2.73159E-14
 -1      1411 8.28247E-03-7.48987E-04-2.58348E-14
 -1      1412 8.62727E-03-6.41609E-04-2.82838E-14
 -1      1413 8.78506E-03-5.84305E-04-2.92652E-14
 -1      1414 8.59016E-03-6.30127E-04-2.77337E-14
 -1      1415 8.94491E-03-5.29402E-04-3.02613E-14
 -1      1416 9.10626E-03-4.77655E-04-3.12685E-14
 -1      1417 8.90602E-03-5.14672E-04-2.96950E-14
 -1      1418 9.26855E-03-4.29372E-04-3.22874E-14
 -1      1419 9.43128E-03-3.84829E-04-3.33177E-14
 -1      1420 9.22671E-03-4.10762E-04-3.17062E-14
 -1      1421 9.59399E-03-3.43871E-04-3.43580E-14
 -1      1422 9.75628E-03-3.06450E-04-3.54072E-14
 -1      1423 9.54882E-03-3.21652E-04-3.37605E-14
 -1      1424 9.91786E-03-2.72180E-04-3.64683E-14
 -1      1425 1.00785E-02-2.40844E-04-3.75387E-14
 -1      1426 9.86959E-03-2.47079E-04-3.58577E-14
 -1      1427 1.02380E-02-2.11999E-04-3.86169E-14
 -1      1428 1.03963E-02-1.85364E-04-3.97049E-14
 -1      1429 1.01872E-02-1.84864E-04-3.79933E-14
 -1      1430 1.05533E-02-1.60540E-04-4.07989E-14
 -1      1431 1.07090E-02-1.37247E-04-4.18987E-14
 -1      1432 1.05006E-02-1.32145E-04-4.01619E-14
 -1      1433 1.08634E-02-1.15168E-04-4.30072E-14
 -1      1434 1.10166E-02-9.40576E-05-4.41215E-14
 -1      1435 1.08094E-02-8.61303E-05-4.23588E-14
 -1      1436 1.11685E-02-7.36866E-05-4.52404E-14
 -1      1437 1.13194E-02-5.38564E-05-4.63662E-14
 -1      1438 1.11139E-02-4.44529E-05-4.45837E-14
 -1      1439 1.14693E-02-3.44136E-05-4.74920E-14
 -1      1440 1.16182E-02-1.52065E-05-4.86194E-14
 -1      1441 1.14143E-02-5.27876E-06-4.68267E-14
 -1      1442 1.17663E-02 3.85866E-06-4.97573E-14
 -1      1443 1.19137E-02 2.28920E-05-5.09023E-14
 -1      1444 1.17113E-02 3.27194E-05-4.90862E-14
 -1      1445 1.20603E-02 4.19441E-05-5.20530E-14
 -1      1446 1.22063E-02 6.10910E-05-5.32102E-14
 -1      1447 1.20055E-02 7.04430E-05-5.13725E-14
 -1      1448 1.23518E-02 8.03537E-05-5.43750E-14
 -1      1449 1.24969E-02 9.97816E-05-5.55482E-14
 -1      1450 1.22973E-02 1.08462E-04-5.36870E-14
 -1      1451 1.26415E-02 1.19377E-04-5.67288E-14
 -1      1452 1.27858E-02 1.39168E-04-5.79166E-14
 -1      1453 1.25873E-02 1.47105E-04-5.60302E-14
 -1      1454 1.29298E-02 1.59148E-04-5.91107E-14
 -1      1455 1.30736E-02 1.79330E-04-6.03084E-14
 -1      1456 1.28759E-02 1.86527E-04-5.84008E-14
 -1      1457 1.32171E-02 1.99700E-04-6.15123E-14
 -1      1458 1.33605E-02 2.20262E-04-6.27236E-14
 -1      1459 1.31635E-02 2.26773E-04-6.07944E-14
 -1      1460 1.35037E-02 2.41000E-04-6.39352E-14
 -1      1461 1.36468E-02 2.61910E-04-6.51453E-14
 -1      1462 1.34504E-02 2.67815E-04-6.32066E-14
 -1      1463 1.37898E-02 2.82975E-04-6.63622E-14
 -1      1464 1.39328E-02 3.04187E-04-6.75805E-14
 -1      1465 1.37368E-02 3.09579E-04-6.56310E-14
 -1      1466 1.40757E-02 3.25526E-04-6.87988E-14
 -1      1467 1.42185E-02 3.46980E-04-7.00177E-14
 -1      1468 1.40228E-02 3.51967E-04-6.80617E-14
 -1      1469 1.43614E-02 3.68524E-04-7.12414E-14
 -1      1470 1.45042E-02 3.90137E-04-7.24664E-14
 -1      1471 1.43086E-02 3.94853E-04-7.05013E-14
 -1      1472 1.47135E-02 4.25835E-04-7.42383E-14
 -1      1473 1.46608E-02 4.52126E-04-7.34910E-14
 -1      1474 6.41222E-04 3.69079E-04 9.83913E-18
 -1      1475 4.91456E-04 3.01689E-04 2.13317E-17
 -1      1476 4.43864E-04 2.64040E-04 5.59719E-18
 -1      1477 9.26333E-04 4.66862E-04-5.30581E-17
 -1      1478 7.85667E-04 4.22517E-04-1.49349E-17
 -1      1479 7.43256E-04 3.86890E-04-3.62530E-17
 -1      1480 1.20111E-03 5.33614E-04-1.70965E-16
 -1      1481 1.06445E-03 5.03334E-04-1.04802E-16
 -1      1482 1.02914E-03 4.69904E-04-1.31297E-16
 -1      1483 1.47199E-03 5.79554E-04-3.47636E-16
 -1      1484 1.33671E-03 5.58801E-04-2.51752E-16
 -1      1485 1.30727E-03 5.26758E-04-2.82299E-16
 -1      1486 1.74248E-03 6.10496E-04-5.83138E-16
 -1      1487 1.60710E-03 5.96661E-04-4.57859E-16
 -1      1488 1.58224E-03 5.65422E-04-4.91469E-16
 -1      1489 2.01451E-03 6.30210E-04-8.78082E-16
 -1      1490 1.87820E-03 6.21583E-04-7.23095E-16
 -1      1491 1.85686E-03 5.90756E-04-7.59890E-16
 -1      1492 2.28925E-03 6.41367E-04-1.23435E-15
 -1      1493 2.15148E-03 6.36720E-04-1.04853E-15
 -1      1494 2.13281E-03 6.06043E-04-1.08809E-15
 -1      1495 2.56748E-03 6.45989E-04-1.65215E-15
 -1      1496 2.42789E-03 6.44379E-04-1.43567E-15
 -1      1497 2.41118E-03 6.13667E-04-1.47793E-15
 -1      1498 2.84989E-03 6.45687E-04-2.13146E-15
 -1      1499 2.70813E-03 6.46349E-04-1.88400E-15
 -1      1500 2.69274E-03 6.15452E-04-1.92874E-15
 -1      1501 3.13718E-03 6.41845E-04-2.67324E-15
 -1      1502 2.99288E-03 6.44105E-04-2.39503E-15
 -1      1503 2.97822E-03 6.12884E-04-2.44162E-15
 -1      1504 3.43019E-03 6.35787E-04-3.27600E-15
 -1      1505 3.28291E-03 6.38978E-04-2.96672E-15
 -1      1506 3.26834E-03 6.07287E-04-3.01546E-15
 -1      1507 3.72995E-03 6.28972E-04-3.93979E-15
 -1      1508 3.57916E-03 6.32334E-04-3.59985E-15
 -1      1509 3.56396E-03 6.00003E-04-3.64967E-15
 -1      1510 4.03770E-03 6.23220E-04-4.66681E-15
 -1      1511 3.88274E-03 6.25783E-04-4.29480E-15
 -1      1512 3.86607E-03 5.92601E-04-4.34726E-15
 -1      1513 4.35486E-03 6.21002E-04-5.46277E-15
 -1      1514 4.19501E-03 6.21434E-04-5.05585E-15
 -1      1515 4.17581E-03 5.87141E-04-5.10906E-15
 -1      1516 4.68283E-03 6.25782E-04-6.32702E-15
 -1      1517 4.51740E-03 6.22212E-04-5.88651E-15
 -1      1518 4.49437E-03 5.86495E-04-5.93979E-15
 -1      1519 5.02272E-03 6.42380E-04-7.25872E-15
 -1      1520 4.85122E-03 6.32229E-04-6.78499E-15
 -1      1521 4.82286E-03 5.94723E-04-6.83801E-15
 -1      1522 5.37469E-03 6.77191E-04-8.25143E-15
 -1      1523 5.19720E-03 6.57096E-04-7.74744E-15
 -1      1524 5.16192E-03 6.17425E-04-7.80014E-15
 -1      1525 5.73716E-03 7.37875E-04-9.30236E-15
 -1      1526 5.55478E-03 7.03940E-04-8.76970E-15
 -1      1527 5.51124E-03 6.61812E-04-8.82191E-15
 -1      1528 6.10569E-03 8.31786E-04-1.04119E-14
 -1      1529 5.92106E-03 7.80567E-04-9.84980E-15
 -1      1530 5.86889E-03 7.35961E-04-9.90168E-15
 -1      1531 6.47235E-03 9.62237E-04-1.15843E-14
 -1      1532 6.28992E-03 8.92893E-04-1.09902E-14
 -1      1533 6.23056E-03 8.46380E-04-1.10428E-14
 -1      1534 6.82638E-03 1.12237E-03-1.28314E-14
 -1      1535 6.65175E-03 1.03992E-03-1.21975E-14
 -1      1536 6.58926E-03 9.93027E-04-1.22516E-14
 -1      1537 7.15748E-03 1.28931E-03-1.41588E-14
 -1      1538 6.99535E-03 1.20720E-03-1.34850E-14
 -1      1539 6.93630E-03 1.16244E-03-1.35382E-14
 -1      1540 7.46201E-03 1.42524E-03-1.55712E-14
 -1      1541 7.31287E-03 1.36355E-03-1.48555E-14
 -1      1542 7.26476E-03 1.32356E-03-1.49055E-14
 -1      1543 7.74806E-03 1.49198E-03-1.70582E-14
 -1      1544 7.60627E-03 1.46858E-03-1.63047E-14
 -1      1545 7.57479E-03 1.43439E-03-1.63502E-14
 -1      1546 8.03373E-03 1.47248E-03-1.86192E-14
 -1      1547 7.88954E-03 1.49231E-03-1.78291E-14
 -1      1548 7.87634E-03 1.46232E-03-1.78726E-14
 -1      1549 8.33735E-03 1.38254E-03-2.02575E-14
 -1      1550 8.18238E-03 1.43399E-03-1.94293E-14
 -1      1551 8.18464E-03 1.40489E-03-1.94714E-14
 -1      1552 8.66760E-03 1.25982E-03-2.19667E-14
 -1      1553 8.49910E-03 1.32265E-03-2.11030E-14
 -1      1554 8.51076E-03 1.29171E-03-2.11452E-14
 -1      1555 9.02121E-03 1.14281E-03-2.37448E-14
 -1      1556 8.84205E-03 1.19889E-03-2.28476E-14
 -1      1557 8.85600E-03 1.16503E-03-2.28901E-14
 -1      1558 9.38810E-03 1.05494E-03-2.55780E-14
 -1      1559 9.20375E-03 1.09462E-03-2.46553E-14
 -1      1560 9.21405E-03 1.05821E-03-2.46979E-14
 -1      1561 9.75744E-03 1.00356E-03-2.74601E-14
 -1      1562 9.57309E-03 1.02483E-03-2.65136E-14
 -1      1563 9.57630E-03 9.86805E-04-2.65576E-14
 -1      1564 1.01212E-02 9.85602E-04-2.93803E-14
 -1      1565 9.94042E-03 9.90872E-04-2.84151E-14
 -1      1566 9.93550E-03 9.52147E-04-2.84599E-14
 -1      1567 1.04749E-02 9.93770E-04-3.13382E-14
 -1      1568 1.02995E-02 9.86928E-04-3.03565E-14
 -1      1569 1.02871E-02 9.48193E-04-3.04008E-14
 -1      1570 1.08171E-02 1.02043E-03-3.33279E-14
 -1      1571 1.06475E-02 1.00522E-03-3.23270E-14
 -1      1572 1.06289E-02 9.66897E-04-3.23756E-14
 -1      1573 1.11478E-02 1.05923E-03-3.53710E-14
 -1      1574 1.09838E-02 1.03863E-03-3.43432E-14
 -1      1575 1.09607E-02 1.00094E-03-3.43949E-14
 -1      1576 1.14685E-02 1.10544E-03-3.74715E-14
 -1      1577 1.13094E-02 1.08163E-03-3.64142E-14
 -1      1578 1.12830E-02 1.04464E-03-3.64668E-14
 -1      1579 1.17808E-02 1.15579E-03-3.96222E-14
 -1      1580 1.16256E-02 1.13025E-03-3.85401E-14
 -1      1581 1.15971E-02 1.09393E-03-3.85894E-14
 -1      1582 1.20861E-02 1.20812E-03-4.18183E-14
 -1      1583 1.19342E-02 1.18181E-03-4.07160E-14
 -1      1584 1.19044E-02 1.14610E-03-4.07599E-14
 -1      1585 1.23861E-02 1.26106E-03-4.40561E-14
 -1      1586 1.22367E-02 1.23457E-03-4.29317E-14
 -1      1587 1.22061E-02 1.19940E-03-4.29739E-14
 -1      1588 1.26819E-02 1.31378E-03-4.63381E-14
 -1      1589 1.25344E-02 1.28748E-03-4.51919E-14
 -1      1590 1.25035E-02 1.25274E-03-4.52294E-14
 -1      1591 1.29746E-02 1.36583E-03-4.86559E-14
 -1      1592 1.28286E-02 1.33991E-03-4.74917E-14
 -1      1593 1.27975E-02 1.30552E-03-4.75274E-14
 -1      1594 1.32650E-02 1.41699E-03-5.10002E-14
 -1      1595 1.31200E-02 1.39153E-03-4.98262E-14
 -1      1596 1.30890E-02 1.35743E-03-4.98587E-14
 -1      1597 1.35537E-02 1.46719E-03-5.33786E-14
 -1      1598 1.34095E-02 1.44221E-03-5.21852E-14
 -1      1599 1.33786E-02 1.40833E-03-5.22199E-14
 -1      1600 1.38412E-02 1.51645E-03-5.57833E-14
 -1      1601 1.36976E-02 1.49193E-03-5.45779E-14
 -1      1602 1.36669E-02 1.45822E-03-5.46088E-14
 -1      1603 1.41279E-02 1.56483E-03-5.82041E-14
 -1      1604 1.39846E-02 1.54074E-03-5.69924E-14
 -1      1605 1.39541E-02 1.50715E-03-5.70184E-14
 -1      1606 1.44141E-02 1.61246E-03-6.06547E-14
 -1      1607 1.42711E-02 1.58873E-03-5.94247E-14
 -1      1608 1.42407E-02 1.55524E-03-5.94465E-14
 -1      1609 1.47000E-02 1.65944E-03-6.31291E-14
 -1      1610 1.45571E-02 1.63602E-03-6.18882E-14
 -1      1611 1.45269E-02 1.60259E-03-6.19034E-14
 -1      1612 1.49857E-02 1.70591E-03-6.56179E-14
 -1      1613 1.48428E-02 1.68272E-03-6.43722E-14
 -1      1614 1.48128E-02 1.64933E-03-6.43820E-14
 -1      1615 1.52714E-02 1.75205E-03-6.81250E-14
 -1      1616 1.51285E-02 1.72901E-03-6.68700E-14
 -1      1617 1.50985E-02 1.69564E-03-6.68769E-14
 -1      1618 1.54144E-02 1.76515E-03-6.94734E-14
 -1      1619 1.53697E-02 1.66170E-03-6.99845E-14
 -1      1620 1.53923E-02 1.70385E-03-6.98213E-14
 -1      1621 1.53246E-02 1.57740E-03-7.02959E-14
 -1      1622 1.53471E-02 1.61954E-03-7.01445E-14
 -1      1623 1.52347E-02 1.62073E-03-6.89780E-14
 -1      1624 1.52799E-02 1.49320E-03-7.05859E-14
 -1      1625 1.53022E-02 1.53528E-03-7.04418E-14
 -1      1626 1.51897E-02 1.53653E-03-6.92869E-14
 -1      1627 1.52355E-02 1.40916E-03-7.08438E-14
 -1      1628 1.52577E-02 1.45116E-03-7.07196E-14
 -1      1629 1.51451E-02 1.45246E-03-6.95735E-14
 -1      1630 1.51922E-02 1.32674E-03-7.11071E-14
 -1      1631 1.52138E-02 1.36792E-03-7.09739E-14
 -1      1632 1.51012E-02 1.36929E-03-6.98475E-14
 -1      1633 1.51482E-02 1.24308E-03-7.13762E-14
 -1      1634 1.51702E-02 1.28489E-03-7.12414E-14
 -1      1635 1.50575E-02 1.28629E-03-7.01201E-14
 -1      1636 1.51044E-02 1.15956E-03-7.16436E-14
 -1      1637 1.51263E-02 1.20131E-03-7.15099E-14
 -1      1638 1.50137E-02 1.20276E-03-7.03952E-14
 -1      1639 1.50605E-02 1.07612E-03-7.19231E-14
 -1      1640 1.50824E-02 1.11784E-03-7.17815E-14
 -1      1641 1.49698E-02 1.11934E-03-7.06748E-14
 -1      1642 1.50166E-02 9.92652E-04-7.22078E-14
 -1      1643 1.50385E-02 1.03439E-03-7.20656E-14
 -1      1644 1.49259E-02 1.03596E-03-7.09617E-14
 -1      1645 1.49727E-02 9.09081E-04-7.25216E-14
 -1      1646 1.49946E-02 9.50884E-04-7.23596E-14
 -1      1647 1.48820E-02 9.52540E-04-7.12566E-14
 -1      1648 1.49296E-02 8.26765E-04-7.28393E-14
 -1      1649 1.49511E-02 8.67945E-04-7.26815E-14
 -1      1650 1.48384E-02 8.69717E-04-7.15624E-14
 -1      1651 1.48860E-02 7.42836E-04-7.31730E-14
 -1      1652 1.49078E-02 7.84825E-04-7.30063E-14
 -1      1653 1.47950E-02 7.86733E-04-7.18795E-14
 -1      1654 1.48427E-02 6.58724E-04-7.34957E-14
 -1      1655 1.48643E-02 7.00800E-04-7.33382E-14
 -1      1656 1.47514E-02 7.02852E-04-7.21991E-14
 -1      1657 1.47997E-02 5.74479E-04-7.38170E-14
 -1      1658 1.48212E-02 6.16613E-04-7.36572E-14
 -1      1659 1.47082E-02 6.18796E-04-7.25163E-14
 -1      1660 1.47196E-02 4.92222E-04-7.37319E-14
 -1      1661 1.47409E-02 5.34370E-04-7.35805E-14
 -1      1662 1.46278E-02 5.36643E-04-7.24389E-14
 -1      1663 1.45102E-02 4.56504E-04-7.19653E-14
 -1      1664 9.83772E-03 3.74594E-04-2.29153E-14
 -1      1665 9.85848E-03 3.30984E-04-2.30168E-14
 -1      1666 9.68681E-03 4.86919E-04-2.25523E-14
 -1      1667 9.77547E-03 4.30371E-04-2.27576E-14
 -1      1668 9.42259E-03 6.26514E-04-2.19971E-14
 -1      1669 9.55441E-03 5.59392E-04-2.22682E-14
 -1      1670 9.09721E-03 7.91804E-04-2.13202E-14
 -1      1671 9.25493E-03 7.15390E-04-2.16330E-14
 -1      1672 8.69612E-03 9.67524E-04-2.05422E-14
 -1      1673 8.88347E-03 8.81793E-04-2.09298E-14
 -1      1674 8.28191E-03 1.12636E-03-1.96741E-14
 -1      1675 8.46365E-03 1.05809E-03-2.00791E-14
 -1      1676 7.90028E-03 1.21379E-03-1.87922E-14
 -1      1677 8.07777E-03 1.18325E-03-1.91844E-14
 -1      1678 7.49843E-03 1.21318E-03-1.79209E-14
 -1      1679 7.68433E-03 1.22671E-03-1.83179E-14
 -1      1680 7.09668E-03 1.11746E-03-1.71592E-14
 -1      1681 7.27757E-03 1.16966E-03-1.74986E-14
 -1      1682 6.68499E-03 9.55207E-04-1.64677E-14
 -1      1683 6.87794E-03 1.03796E-03-1.67774E-14
 -1      1684 6.26758E-03 7.50619E-04-1.58553E-14
 -1      1685 6.46242E-03 8.46890E-04-1.61190E-14
 -1      1686 5.88573E-03 5.58151E-04-1.54111E-14
 -1      1687 6.05345E-03 6.43089E-04-1.55933E-14
 -1      1688 5.58859E-03 4.03126E-04-1.51449E-14
 -1      1689 5.71324E-03 4.69202E-04-1.52453E-14
 -1      1690 5.40102E-03 2.87480E-04-1.50524E-14
 -1      1691 5.47212E-03 3.38841E-04-1.50852E-14
 -1      1692 5.33975E-03 1.82831E-04-1.50595E-14
 -1      1693 5.35042E-03 2.27636E-04-1.50196E-14
 -1      1694 5.42033E-03 8.13236E-05-1.52976E-14
 -1      1695 5.36728E-03 1.28022E-04-1.51846E-14
 -1      1696 5.61954E-03-3.46347E-05-1.56444E-14
 -1      1697 5.51386E-03 2.16768E-05-1.54671E-14
 -1      1698 5.90498E-03-1.72168E-04-1.61162E-14
 -1      1699 5.76446E-03-1.05947E-04-1.58842E-14
 -1      1700 6.24345E-03-3.25335E-04-1.67070E-14
 -1      1701 6.08203E-03-2.53235E-04-1.64201E-14
 -1      1702 6.59961E-03-4.72442E-04-1.73769E-14
 -1      1703 6.43478E-03-4.06260E-04-1.70599E-14
 -1      1704 6.96433E-03-5.92772E-04-1.81249E-14
 -1      1705 6.79492E-03-5.41856E-04-1.77700E-14
 -1      1706 7.35026E-03-6.63694E-04-1.89697E-14
 -1      1707 7.17417E-03-6.40031E-04-1.85690E-14
 -1      1708 7.70874E-03-6.51765E-04-1.97837E-14
 -1      1709 7.54802E-03-6.64781E-04-1.94193E-14
 -1      1710 8.07363E-03-5.71698E-04-2.05942E-14
 -1      1711 7.90174E-03-6.18518E-04-2.02236E-14
 -1      1712 8.45624E-03-4.34089E-04-2.13343E-14
 -1      1713 8.28166E-03-5.03034E-04-2.10008E-14
 -1      1714 8.82507E-03-2.70794E-04-2.19781E-14
 -1      1715 8.65668E-03-3.47926E-04-2.16965E-14
 -1      1716 9.17778E-03-1.04281E-04-2.24911E-14
 -1      1717 9.01769E-03-1.80806E-04-2.22719E-14
 -1      1718 9.49412E-03 4.91974E-05-2.28617E-14
 -1      1719 9.35465E-03-1.94293E-05-2.27099E-14
 -1      1720 9.72466E-03 1.77845E-04-2.30882E-14
 -1      1721 9.62986E-03 1.25015E-04-2.30200E-14
 -1      1722 9.84784E-03 2.81111E-04-2.31366E-14
 -1      1723 9.80636E-03 2.37394E-04-2.31488E-14
 -1      1724 8.92722E-03 8.00234E-04-2.13129E-14
 -1      1725 9.29993E-03 6.19132E-04-2.20763E-14
 -1      1726 1.53844E-02 1.73178E-03-6.94785E-14
 -1      1727 1.52493E-02 1.69077E-03-6.84744E-14
 -1      1728 9.80878E-03 3.79457E-04-2.31821E-14
 -1      1729 9.60647E-03 4.75247E-04-2.27334E-14
 -1      1730 9.86272E-03 3.10595E-04-2.34631E-14
 -1      1731 8.51740E-03 9.98768E-04-2.04494E-14
 -1      1732 8.14192E-03 1.16783E-03-1.94890E-14
 -1      1733 7.78016E-03 1.24762E-03-1.85236E-14
 -1      1734 7.42299E-03 1.21487E-03-1.76284E-14
 -1      1735 7.04158E-03 1.07918E-03-1.68293E-14
 -1      1736 6.63861E-03 8.74139E-04-1.61071E-14
 -1      1737 6.22100E-03 6.47003E-04-1.55078E-14
 -1      1738 5.83688E-03 4.54917E-04-1.50897E-14
 -1      1739 5.54177E-03 3.23295E-04-1.48699E-14
 -1      1740 5.36828E-03 2.31945E-04-1.47804E-14
 -1      1741 5.34401E-03 1.66465E-04-1.48727E-14
 -1      1742 5.47097E-03 8.74845E-05-1.51636E-14
 -1      1743 5.71663E-03-2.05185E-05-1.55661E-14
 -1      1744 6.03976E-03-1.65878E-04-1.61006E-14
 -1      1745 6.39621E-03-3.34944E-04-1.67481E-14
 -1      1746 6.75378E-03-5.00242E-04-1.74868E-14
 -1      1747 7.11123E-03-6.31946E-04-1.83188E-14
 -1      1748 7.44713E-03-6.90309E-04-1.92111E-14
 -1      1749 7.77989E-03-6.56098E-04-2.01024E-14
 -1      1750 8.12121E-03-5.40852E-04-2.09530E-14
 -1      1751 8.48953E-03-3.70007E-04-2.17282E-14
 -1      1752 8.86091E-03-1.81306E-04-2.23920E-14
 -1      1753 9.22415E-03-4.39093E-06-2.29138E-14
 -1      1754 9.54148E-03 1.41830E-04-2.32996E-14
 -1      1755 9.76681E-03 2.45188E-04-2.35236E-14
 -1      1756 2.84587E-04-1.75220E-04-3.25667E-17
 -1      1757 3.32396E-04-1.15192E-04-8.95958E-17
 -1      1758 3.36401E-04-1.31408E-04-8.53674E-17
 -1      1759 3.42210E-04-1.50436E-04-7.98379E-17
 -1      1760 3.51566E-04-1.72471E-04-7.18013E-17
 -1      1761 4.58434E-04-1.85755E-04-1.24304E-16
 -1      1762 3.24879E-04-6.40094E-05-9.61823E-17
 -1      1763 3.26039E-04-7.51967E-05-9.56808E-17
 -1      1764 3.23339E-04-4.28341E-05-9.60468E-17
 -1      1765 3.24018E-04-5.31473E-05-9.63585E-17
 -1      1766 4.36852E-04-7.74774E-05-1.41922E-16
 -1      1767 3.22503E-04-2.31493E-05-9.44882E-17
 -1      1768 3.22858E-04-3.28336E-05-9.54098E-17
 -1      1769 4.34758E-04-5.00007E-05-1.41285E-16
 -1      1770 3.22185E-04-4.21894E-06-9.18861E-17
 -1      1771 3.22289E-04-1.36133E-05-9.32278E-17
 -1      1772 4.33658E-04-2.42374E-05-1.38561E-16
 -1      1773 3.22322E-04 1.45809E-05-8.84438E-17
 -1      1774 3.22195E-04 5.17603E-06-9.04360E-17
 -1      1775 4.33334E-04 7.40586E-07-1.34658E-16
 -1      1776 3.22937E-04 3.38568E-05-8.36598E-17
 -1      1777 3.22558E-04 2.41388E-05-8.61941E-17
 -1      1778 4.33730E-04 2.57483E-05-1.29250E-16
 -1      1779 3.24127E-04 5.39229E-05-7.72630E-17
 -1      1780 3.23434E-04 4.37321E-05-8.07731E-17
 -1      1781 4.34898E-04 5.13806E-05-1.21878E-16
 -1      1782 3.26221E-04 7.63264E-05-6.91314E-17
 -1      1783 3.25011E-04 6.48519E-05-7.36986E-17
 -1      1784 4.37058E-04 7.87699E-05-1.12540E-16
 -1      1785 3.29872E-04 1.02057E-04-5.80726E-17
 -1      1786 3.27756E-04 8.87432E-05-6.41306E-17
 -1      1787 4.40768E-04 1.09416E-04-1.00234E-16
 -1      1788 3.36736E-04 1.33522E-04-4.28666E-17
 -1      1789 3.32660E-04 1.17008E-04-5.12963E-17
 -1      1790 4.47180E-04 1.45036E-04-8.36462E-17
 -1      1791 3.52086E-04 1.76063E-04-2.15079E-17
 -1      1792 3.42810E-04 1.53194E-04-3.32308E-17
 -1      1793 4.59448E-04 1.89138E-04-6.12710E-17
 -1      1794 4.07002E-04 2.31960E-04-4.58075E-18
 -1      1795 3.77684E-04 2.01030E-04-1.49078E-17
 -1      1796 4.95545E-04 2.41584E-04-3.97496E-17
 -1      1797 5.57655E-04 2.99853E-04-2.07489E-17
 -1      1798 3.39545E-04-1.89529E-04-5.41017E-17
 -1      1799 8.52462E-04 4.02278E-04-9.28619E-17
 -1      1800 7.06132E-04 3.55688E-04-5.02934E-17
 -1      1801 6.72747E-04 3.25259E-04-6.24907E-17
 -1      1802 4.58530E-04-2.34596E-04-9.38919E-17
 -1      1803 8.06542E-04-3.69563E-04-2.46466E-16
 -1      1804 9.51842E-04-4.09510E-04-3.42513E-16
 -1      1805 1.09480E-03-4.42827E-04-4.55541E-16
 -1      1806 1.23668E-03-4.70219E-04-5.85916E-16
 -1      1807 1.00386E-03-3.91461E-04-4.14802E-16
 -1      1808 1.37740E-03-4.93043E-04-7.33490E-16
 -1      1809 1.51754E-03-5.11596E-04-8.98600E-16
 -1      1810 1.29001E-03-4.46384E-04-6.77410E-16
 -1      1811 1.65729E-03-5.26776E-04-1.08099E-15
 -1      1812 1.79690E-03-5.38820E-04-1.28050E-15
 -1      1813 1.57329E-03-4.83646E-04-1.00815E-15
 -1      1814 1.93657E-03-5.48320E-04-1.49700E-15
 -1      1815 2.07642E-03-5.55484E-04-1.73070E-15
 -1      1816 1.85533E-03-5.07766E-04-1.40689E-15
 -1      1817 2.21661E-03-5.60719E-04-1.98180E-15
 -1      1818 2.35720E-03-5.64212E-04-2.24945E-15
 -1      1819 2.13738E-03-5.22017E-04-1.87301E-15
 -1      1820 2.49832E-03-5.66258E-04-2.53442E-15
 -1      1821 2.64002E-03-5.67026E-04-2.83637E-15
 -1      1822 2.42036E-03-5.28841E-04-2.40685E-15
 -1      1823 2.78238E-03-5.66751E-04-3.15481E-15
 -1      1824 2.92546E-03-5.65590E-04-3.48944E-15
 -1      1825 2.70494E-03-5.30153E-04-3.00702E-15
 -1      1826 3.06932E-03-5.63748E-04-3.84084E-15
 -1      1827 3.21403E-03-5.61386E-04-4.20863E-15
 -1      1828 2.99166E-03-5.27548E-04-3.67374E-15
 -1      1829 3.35963E-03-5.58705E-04-4.59230E-15
 -1      1830 3.50620E-03-5.55881E-04-4.99222E-15
 -1      1831 3.28099E-03-5.22479E-04-4.40526E-15
 -1      1832 3.65375E-03-5.53143E-04-5.40785E-15
 -1      1833 3.80238E-03-5.50689E-04-5.83923E-15
 -1      1834 3.57337E-03-5.16418E-04-5.20109E-15
 -1      1835 3.95210E-03-5.48800E-04-6.28565E-15
 -1      1836 4.10295E-03-5.47711E-04-6.74745E-15
 -1      1837 3.86923E-03-5.11017E-04-6.05889E-15
 -1      1838 4.25498E-03-5.47771E-04-7.22454E-15
 -1      1839 4.40817E-03-5.49257E-04-7.71625E-15
 -1      1840 4.16896E-03-5.08247E-04-6.97806E-15
 -1      1841 4.56258E-03-5.52589E-04-8.22239E-15
 -1      1842 4.71808E-03-5.58080E-04-8.74339E-15
 -1      1843 4.47293E-03-5.10514E-04-7.95705E-15
 -1      1844 4.87477E-03-5.66195E-04-9.28042E-15
 -1      1845 5.03236E-03-5.77251E-04-9.83201E-15
 -1      1846 4.78137E-03-5.20675E-04-8.99557E-15
 -1      1847 5.19101E-03-5.91680E-04-1.03979E-14
 -1      1848 5.35019E-03-6.09737E-04-1.09805E-14
 -1      1849 5.09430E-03-5.41887E-04-1.00929E-14
 -1      1850 5.51013E-03-6.31674E-04-1.15798E-14
 -1      1851 5.67003E-03-6.57543E-04-1.21934E-14
 -1      1852 5.41132E-03-5.77136E-04-1.12522E-14
 -1      1853 5.83016E-03-6.87207E-04-1.28229E-14
 -1      1854 5.98953E-03-7.20325E-04-1.34690E-14
 -1      1855 5.73136E-03-6.28285E-04-1.24755E-14
 -1      1856 6.14834E-03-7.56130E-04-1.41313E-14
 -1      1857 6.30563E-03-7.93685E-04-1.48116E-14
 -1      1858 6.05237E-03-6.94558E-04-1.37621E-14
 -1      1859 6.46146E-03-8.31471E-04-1.55086E-14
 -1      1860 6.61520E-03-8.67868E-04-1.62242E-14
 -1      1861 6.37128E-03-7.70684E-04-1.51166E-14
 -1      1862 6.76674E-03-9.00763E-04-1.69571E-14
 -1      1863 6.91624E-03-9.28132E-04-1.77072E-14
 -1      1864 6.68463E-03-8.45493E-04-1.65406E-14
 -1      1865 7.06337E-03-9.47822E-04-1.84767E-14
 -1      1866 7.20934E-03-9.58108E-04-1.92662E-14
 -1      1867 6.99003E-03-9.02628E-04-1.80383E-14
 -1      1868 7.35370E-03-9.57612E-04-2.00762E-14
 -1      1869 7.49833E-03-9.45676E-04-2.09029E-14
 -1      1870 7.28824E-03-9.24822E-04-1.96123E-14
 -1      1871 7.64278E-03-9.22342E-04-2.17487E-14
 -1      1872 7.78892E-03-8.88341E-04-2.26113E-14
 -1      1873 7.58366E-03-9.00900E-04-2.12631E-14
 -1      1874 7.93631E-03-8.45106E-04-2.34928E-14
 -1      1875 8.08610E-03-7.94392E-04-2.43915E-14
 -1      1876 7.88223E-03-8.31198E-04-2.29869E-14
 -1      1877 8.23798E-03-7.38361E-04-2.53068E-14
 -1      1878 8.39206E-03-6.79047E-04-2.62405E-14
 -1      1879 8.18820E-03-7.27355E-04-2.47819E-14
 -1      1880 8.54822E-03-6.18535E-04-2.71883E-14
 -1      1881 8.70583E-03-5.58402E-04-2.81520E-14
 -1      1882 8.50213E-03-6.06745E-04-2.66449E-14
 -1      1883 8.86495E-03-5.00120E-04-2.91302E-14
 -1      1884 9.02463E-03-4.44597E-04-3.01218E-14
 -1      1885 8.82154E-03-4.85512E-04-2.85686E-14
 -1      1886 9.18506E-03-3.92555E-04-3.11259E-14
 -1      1887 9.34529E-03-3.44307E-04-3.21399E-14
 -1      1888 9.14298E-03-3.74458E-04-3.05474E-14
 -1      1889 9.50556E-03-2.99966E-04-3.31660E-14
 -1      1890 9.66514E-03-2.59467E-04-3.42019E-14
 -1      1891 9.46348E-03-2.78559E-04-3.25732E-14
 -1      1892 9.82423E-03-2.22543E-04-3.52470E-14
 -1      1893 9.98234E-03-1.88947E-04-3.63038E-14
 -1      1894 9.78109E-03-1.98405E-04-3.46403E-14
 -1      1895 1.01396E-02-1.58247E-04-3.73685E-14
 -1      1896 1.02959E-02-1.30141E-04-3.84432E-14
 -1      1897 1.00948E-02-1.32076E-04-3.67465E-14
 -1      1898 1.04511E-02-1.04176E-04-3.95279E-14
 -1      1899 1.06052E-02-8.00636E-05-4.06175E-14
 -1      1900 1.04044E-02-7.66348E-05-3.88924E-14
 -1      1901 1.07584E-02-5.74092E-05-4.17139E-14
 -1      1902 1.09105E-02-3.59683E-05-4.28172E-14
 -1      1903 1.07100E-02-2.90579E-05-4.10706E-14
 -1      1904 1.10617E-02-1.54310E-05-4.39270E-14
 -1      1905 1.12119E-02 4.39536E-06-4.50431E-14
 -1      1906 1.10118E-02 1.32990E-05-4.32743E-14
 -1      1907 1.13613E-02 2.37336E-05-4.61624E-14
 -1      1908 1.15100E-02 4.27280E-05-4.72856E-14
 -1      1909 1.13103E-02 5.25332E-05-4.54997E-14
 -1      1910 1.16579E-02 6.15269E-05-4.84159E-14
 -1      1911 1.18052E-02 8.02337E-05-4.95515E-14
 -1      1912 1.16060E-02 9.01925E-05-4.77460E-14
 -1      1913 1.19518E-02 9.89381E-05-5.06948E-14
 -1      1914 1.20980E-02 1.17711E-04-5.18437E-14
 -1      1915 1.18994E-02 1.27349E-04-5.00149E-14
 -1      1916 1.22436E-02 1.36600E-04-5.30005E-14
 -1      1917 1.23888E-02 1.55650E-04-5.41639E-14
 -1      1918 1.21908E-02 1.64697E-04-5.23143E-14
 -1      1919 1.25337E-02 1.74881E-04-5.53339E-14
 -1      1920 1.26782E-02 1.94319E-04-5.65134E-14
 -1      1921 1.24807E-02 2.02647E-04-5.46406E-14
 -1      1922 1.28224E-02 2.13963E-04-5.76943E-14
 -1      1923 1.29664E-02 2.33829E-04-5.88829E-14
 -1      1924 1.27694E-02 2.41409E-04-5.69909E-14
 -1      1925 1.31102E-02 2.53904E-04-6.00809E-14
 -1      1926 1.32538E-02 2.74195E-04-6.12798E-14
 -1      1927 1.30572E-02 2.81057E-04-5.93660E-14
 -1      1928 1.33972E-02 2.94683E-04-6.24822E-14
 -1      1929 1.35406E-02 3.15367E-04-6.36891E-14
 -1      1930 1.33443E-02 3.21578E-04-6.17613E-14
 -1      1931 1.36838E-02 3.36228E-04-6.48998E-14
 -1      1932 1.38269E-02 3.57260E-04-6.61115E-14
 -1      1933 1.36309E-02 3.62903E-04-6.41702E-14
 -1      1934 1.39699E-02 3.78440E-04-6.73277E-14
 -1      1935 1.41129E-02 3.99762E-04-6.85442E-14
 -1      1936 1.39171E-02 4.04936E-04-6.65925E-14
 -1      1937 1.42402E-02 4.17290E-04-6.96400E-14
 -1      1938 1.43831E-02 4.38822E-04-7.08613E-14
 -1      1939 1.44418E-02 4.78869E-04-7.10972E-14
 -1      1940 1.41874E-02 4.43657E-04-6.89014E-14
 -1      1941 1.13761E-03 4.72555E-04-2.18291E-16
 -1      1942 9.95751E-04 4.40714E-04-1.48563E-16
 -1      1943 9.63832E-04 4.11412E-04-1.63674E-16
 -1      1944 1.41725E-03 5.20745E-04-4.00138E-16
 -1      1945 1.27778E-03 4.99022E-04-3.01855E-16
 -1      1946 1.24865E-03 4.71048E-04-3.19487E-16
 -1      1947 1.69472E-03 5.53026E-04-6.40655E-16
 -1      1948 1.55606E-03 5.38633E-04-5.13017E-16
 -1      1949 1.52972E-03 5.11629E-04-5.32370E-16
 -1      1950 1.97217E-03 5.73458E-04-9.40247E-16
 -1      1951 1.83334E-03 5.64554E-04-7.83092E-16
 -1      1952 1.80937E-03 5.38184E-04-8.04112E-16
 -1      1953 2.25096E-03 5.84901E-04-1.30001E-15
 -1      1954 2.11134E-03 5.80175E-04-1.11247E-15
 -1      1955 2.08924E-03 5.54192E-04-1.13483E-15
 -1      1956 2.53204E-03 5.89481E-04-1.72139E-15
 -1      1957 2.39117E-03 5.87947E-04-1.50303E-15
 -1      1958 2.37044E-03 5.62167E-04-1.52634E-15
 -1      1959 2.81614E-03 5.88857E-04-2.20388E-15
 -1      1960 2.67367E-03 5.89731E-04-1.95480E-15
 -1      1961 2.65379E-03 5.64012E-04-1.97876E-15
 -1      1962 3.10396E-03 5.84418E-04-2.74735E-15
 -1      1963 2.95954E-03 5.87031E-04-2.46802E-15
 -1      1964 2.93998E-03 5.61246E-04-2.49246E-15
 -1      1965 3.39624E-03 5.77464E-04-3.35195E-15
 -1      1966 3.24949E-03 5.81166E-04-3.04220E-15
 -1      1967 3.22967E-03 5.55190E-04-3.06707E-15
 -1      1968 3.69379E-03 5.69393E-04-4.01877E-15
 -1      1969 3.54429E-03 5.73461E-04-3.67748E-15
 -1      1970 3.52354E-03 5.47151E-04-3.70284E-15
 -1      1971 3.99756E-03 5.61937E-04-4.74698E-15
 -1      1972 3.84481E-03 5.65449E-04-4.37469E-15
 -1      1973 3.82237E-03 5.38627E-04-4.40037E-15
 -1      1974 4.30856E-03 5.57449E-04-5.54366E-15
 -1      1975 4.15206E-03 5.59135E-04-5.13699E-15
 -1      1976 4.12702E-03 5.31560E-04-5.16190E-15
 -1      1977 4.62787E-03 5.59258E-04-6.40708E-15
 -1      1978 4.46708E-03 5.57314E-04-5.96704E-15
 -1      1979 4.43841E-03 5.28660E-04-5.99161E-15
 -1      1980 4.95636E-03 5.72055E-04-7.33605E-15
 -1      1981 4.79089E-03 5.63951E-04-6.86300E-15
 -1      1982 4.75751E-03 5.33773E-04-6.88685E-15
 -1      1983 5.29453E-03 6.02189E-04-8.32628E-15
 -1      1984 5.12423E-03 5.84549E-04-7.82358E-15
 -1      1985 5.08519E-03 5.52265E-04-7.84564E-15
 -1      1986 5.64202E-03 6.57509E-04-9.37549E-15
 -1      1987 5.46724E-03 6.26271E-04-8.84328E-15
 -1      1988 5.42207E-03 5.91204E-04-8.86377E-15
 -1      1989 5.99704E-03 7.46099E-04-1.04853E-14
 -1      1990 5.81894E-03 6.97344E-04-9.92320E-15
 -1      1991 5.76820E-03 6.58908E-04-9.94239E-15
 -1      1992 6.35574E-03 8.72899E-04-1.16585E-14
 -1      1993 6.17657E-03 8.04862E-04-1.10633E-14
 -1      1994 6.12237E-03 7.63026E-04-1.10821E-14
 -1      1995 6.71170E-03 1.03353E-03-1.29044E-14
 -1      1996 6.53491E-03 9.49992E-04-1.22718E-14
 -1      1997 6.48112E-03 9.06064E-04-1.22898E-14
 -1      1998 7.05691E-03 1.20721E-03-1.42263E-14
 -1      1999 6.88636E-03 1.12088E-03-1.35555E-14
 -1      2000 6.83774E-03 1.07802E-03-1.35705E-14
 -1      2001 7.38569E-03 1.35499E-03-1.56295E-14
 -1      2002 7.22328E-03 1.28699E-03-1.49181E-14
 -1      2003 7.18359E-03 1.24943E-03-1.49296E-14
 -1      2004 7.70073E-03 1.43363E-03-1.71099E-14
 -1      2005 7.54381E-03 1.40467E-03-1.63598E-14
 -1      2006 7.51403E-03 1.37469E-03-1.63663E-14
 -1      2007 8.01408E-03 1.42032E-03-1.86653E-14
 -1      2008 7.85604E-03 1.43793E-03-1.78777E-14
 -1      2009 7.83514E-03 1.41385E-03-1.78815E-14
 -1      2010 8.33903E-03 1.32955E-03-2.03017E-14
 -1      2011 8.17413E-03 1.38222E-03-1.94738E-14
 -1      2012 8.16098E-03 1.35958E-03-1.94741E-14
 -1      2013 8.68079E-03 1.20184E-03-2.20092E-14
 -1      2014 8.50789E-03 1.26757E-03-2.11463E-14
 -1      2015 8.50156E-03 1.24297E-03-2.11450E-14
 -1      2016 9.03514E-03 1.07943E-03-2.37883E-14
 -1      2017 8.85705E-03 1.13831E-03-2.28907E-14
 -1      2018 8.85552E-03 1.11077E-03-2.28894E-14
 -1      2019 9.39424E-03 9.87520E-04-2.56216E-14
 -1      2020 9.21484E-03 1.02914E-03-2.46981E-14
 -1      2021 9.21478E-03 9.99463E-04-2.46975E-14
 -1      2022 9.75119E-03 9.33840E-04-2.75054E-14
 -1      2023 9.57355E-03 9.56118E-04-2.65577E-14
 -1      2024 9.57160E-03 9.25257E-04-2.65573E-14
 -1      2025 1.01016E-02 9.14998E-04-2.94249E-14
 -1      2026 9.92753E-03 9.20556E-04-2.84605E-14
 -1      2027 9.92145E-03 8.89168E-04-2.84598E-14
 -1      2028 1.04432E-02 9.23273E-04-3.13862E-14
 -1      2029 1.02736E-02 9.16248E-04-3.04011E-14
 -1      2030 1.02625E-02 8.84710E-04-3.04014E-14
 -1      2031 1.07755E-02 9.50634E-04-3.33830E-14
 -1      2032 1.06105E-02 9.34975E-04-3.23798E-14
 -1      2033 1.05946E-02 9.03514E-04-3.23796E-14
 -1      2034 1.10990E-02 9.90426E-04-3.54284E-14
 -1      2035 1.09383E-02 9.69272E-04-3.43996E-14
 -1      2036 1.09182E-02 9.38027E-04-3.44019E-14
 -1      2037 1.14145E-02 1.03773E-03-3.75242E-14
 -1      2038 1.12577E-02 1.01334E-03-3.64703E-14
 -1      2039 1.12343E-02 9.82391E-04-3.64722E-14
 -1      2040 1.17233E-02 1.08913E-03-3.96664E-14
 -1      2041 1.15697E-02 1.06305E-03-3.85887E-14
 -1      2042 1.15438E-02 1.03243E-03-3.85889E-14
 -1      2043 1.20265E-02 1.14242E-03-4.18563E-14
 -1      2044 1.18755E-02 1.11562E-03-4.07564E-14
 -1      2045 1.18480E-02 1.08535E-03-4.07519E-14
 -1      2046 1.23253E-02 1.19619E-03-4.40875E-14
 -1      2047 1.21764E-02 1.16929E-03-4.29667E-14
 -1      2048 1.21476E-02 1.13933E-03-4.29593E-14
 -1      2049 1.26205E-02 1.24961E-03-4.63624E-14
 -1      2050 1.24732E-02 1.22297E-03-4.52194E-14
 -1      2051 1.24437E-02 1.19329E-03-4.52106E-14
 -1      2052 1.29130E-02 1.30223E-03-4.86757E-14
 -1      2053 1.27670E-02 1.27603E-03-4.75137E-14
 -1      2054 1.27370E-02 1.24660E-03-4.75011E-14
 -1      2055 1.32034E-02 1.35384E-03-5.10195E-14
 -1      2056 1.30584E-02 1.32816E-03-4.98444E-14
 -1      2057 1.30282E-02 1.29894E-03-4.98282E-14
 -1      2058 1.34923E-02 1.40440E-03-5.33932E-14
 -1      2059 1.33480E-02 1.37925E-03-5.22030E-14
 -1      2060 1.33176E-02 1.35020E-03-5.21843E-14
 -1      2061 1.37801E-02 1.45393E-03-5.57886E-14
 -1      2062 1.36363E-02 1.42929E-03-5.45885E-14
 -1      2063 1.36059E-02 1.40037E-03-5.45692E-14
 -1      2064 1.40671E-02 1.50253E-03-5.82038E-14
 -1      2065 1.39236E-02 1.47834E-03-5.69944E-14
 -1      2066 1.38933E-02 1.44954E-03-5.69693E-14
 -1      2067 1.43535E-02 1.55031E-03-6.06419E-14
 -1      2068 1.42103E-02 1.52652E-03-5.94186E-14
 -1      2069 1.41801E-02 1.49779E-03-5.93900E-14
 -1      2070 1.46396E-02 1.59740E-03-6.31059E-14
 -1      2071 1.44966E-02 1.57393E-03-6.18693E-14
 -1      2072 1.44664E-02 1.54527E-03-6.18368E-14
 -1      2073 1.49255E-02 1.64393E-03-6.55881E-14
 -1      2074 1.47826E-02 1.62072E-03-6.43467E-14
 -1      2075 1.47524E-02 1.59211E-03-6.43090E-14
 -1      2076 1.51589E-02 1.67892E-03-6.76583E-14
 -1      2077 1.50160E-02 1.65585E-03-6.64061E-14
 -1      2078 1.49858E-02 1.62727E-03-6.63675E-14
 -1      2079 1.51668E-02 1.65102E-03-6.80018E-14
 -1      2080 1.50103E-02 1.41171E-03-6.85768E-14
 -1      2081 1.50325E-02 1.45366E-03-6.84327E-14
 -1      2082 1.50548E-02 1.49565E-03-6.82843E-14
 -1      2083 1.50772E-02 1.53769E-03-6.81331E-14
 -1      2084 1.49199E-02 1.45475E-03-6.72866E-14
 -1      2085 1.51106E-02 1.57328E-03-6.81493E-14
 -1      2086 1.51332E-02 1.61538E-03-6.79890E-14
 -1      2087 1.50427E-02 1.60352E-03-6.71745E-14
 -1      2088 1.49757E-02 1.53231E-03-6.71488E-14
 -1      2089 1.49669E-02 1.32939E-03-6.88553E-14
 -1      2090 1.49886E-02 1.37052E-03-6.87161E-14
 -1      2091 1.48760E-02 1.37165E-03-6.75817E-14
 -1      2092 1.49230E-02 1.24583E-03-6.91393E-14
 -1      2093 1.49449E-02 1.28759E-03-6.89960E-14
 -1      2094 1.48323E-02 1.28876E-03-6.78696E-14
 -1      2095 1.48791E-02 1.16243E-03-6.94206E-14
 -1      2096 1.49010E-02 1.20412E-03-6.92784E-14
 -1      2097 1.47884E-02 1.20537E-03-6.81575E-14
 -1      2098 1.48353E-02 1.07913E-03-6.97094E-14
 -1      2099 1.48572E-02 1.12078E-03-6.95644E-14
 -1      2100 1.47446E-02 1.12214E-03-6.84473E-14
 -1      2101 1.47913E-02 9.95854E-04-7.00040E-14
 -1      2102 1.48133E-02 1.03750E-03-6.98566E-14
 -1      2103 1.47008E-02 1.03899E-03-6.87431E-14
 -1      2104 1.47474E-02 9.12515E-04-7.03009E-14
 -1      2105 1.47694E-02 9.54198E-04-7.01518E-14
 -1      2106 1.46568E-02 9.55831E-04-6.90409E-14
 -1      2107 1.47042E-02 8.30463E-04-7.06030E-14
 -1      2108 1.47258E-02 8.71509E-04-7.04503E-14
 -1      2109 1.46132E-02 8.73298E-04-6.93379E-14
 -1      2110 1.46604E-02 7.46821E-04-7.09139E-14
 -1      2111 1.46823E-02 7.88665E-04-7.07598E-14
 -1      2112 1.45697E-02 7.90613E-04-6.96369E-14
 -1      2113 1.46169E-02 6.62982E-04-7.12265E-14
 -1      2114 1.46386E-02 7.04924E-04-7.10693E-14
 -1      2115 1.45259E-02 7.07020E-04-6.99428E-14
 -1      2116 1.45737E-02 5.78955E-04-7.15346E-14
 -1      2117 1.45953E-02 6.20988E-04-7.13797E-14
 -1      2118 1.44824E-02 6.23209E-04-7.02483E-14
 -1      2119 9.52556E-03 4.64477E-04-2.30408E-14
 -1      2120 9.65854E-03 4.15649E-04-2.33330E-14
 -1      2121 9.87125E-03 3.26672E-04-2.38851E-14
 -1      2122 9.86235E-03 3.12462E-04-2.40077E-14
 -1      2123 9.78116E-03 3.72110E-04-2.35564E-14
 -1      2124 9.84481E-03 3.48658E-04-2.37189E-14
 -1      2125 9.86717E-03 3.36645E-04-2.42600E-14
 -1      2126 9.17703E-03 6.21811E-04-2.22479E-14
 -1      2127 9.34096E-03 5.44004E-04-2.26214E-14
 -1      2128 8.81595E-03 8.08341E-04-2.14394E-14
 -1      2129 9.00094E-03 7.10892E-04-2.18406E-14
 -1      2130 9.08296E-03 6.46921E-04-2.23753E-14
 -1      2131 3.27536E-04-8.74271E-05-9.45289E-17
 -1      2132 3.29616E-04-1.00565E-04-9.23876E-17
 -1      2133 4.46710E-04-1.42842E-04-1.35051E-16
 -1      2134 4.40452E-04-1.07819E-04-1.40269E-16
 -1      2135 8.02391E-03 1.21394E-03-1.92472E-14
 -1      2136 8.18201E-03 1.14706E-03-1.97404E-14
 -1      2137 7.70849E-03 1.27225E-03-1.82749E-14
 -1      2138 7.85818E-03 1.25716E-03-1.87495E-14
 -1      2139 7.35548E-03 1.20224E-03-1.72730E-14
 -1      2140 7.51080E-03 1.25049E-03-1.76914E-14
 -1      2141 6.99992E-03 1.03297E-03-1.64771E-14
 -1      2142 7.17004E-03 1.12470E-03-1.68524E-14
 -1      2143 6.60251E-03 7.97717E-04-1.57230E-14
 -1      2144 6.79528E-03 9.15565E-04-1.60618E-14
 -1      2145 6.16328E-03 5.57969E-04-1.51471E-14
 -1      2146 6.36370E-03 6.66178E-04-1.53995E-14
 -1      2147 5.78034E-03 3.74770E-04-1.47350E-14
 -1      2148 5.95138E-03 4.50257E-04-1.48941E-14
 -1      2149 5.49024E-03 2.64789E-04-1.45514E-14
 -1      2150 5.60861E-03 3.05354E-04-1.46069E-14
 -1      2151 5.34490E-03 2.03372E-04-1.44384E-14
 -1      2152 5.39920E-03 2.25908E-04-1.44690E-14
 -1      2153 5.35881E-03 1.59210E-04-1.46586E-14
 -1      2154 5.32900E-03 1.77600E-04-1.45354E-14
 -1      2155 5.52558E-03 9.45792E-05-1.49955E-14
 -1      2156 5.42880E-03 1.27911E-04-1.48310E-14
 -1      2157 5.80935E-03-1.55185E-05-1.54561E-14
 -1      2158 5.66434E-03 4.16919E-05-1.52237E-14
 -1      2159 6.15890E-03-1.72175E-04-1.60435E-14
 -1      2160 5.99093E-03-9.28372E-05-1.57487E-14
 -1      2161 6.52289E-03-3.57743E-04-1.67606E-14
 -1      2162 6.35419E-03-2.68994E-04-1.64160E-14
 -1      2163 6.87479E-03-5.34912E-04-1.75621E-14
 -1      2164 6.71808E-03-4.54072E-04-1.71752E-14
 -1      2165 7.19859E-03-6.65520E-04-1.84651E-14
 -1      2166 7.04534E-03-6.09663E-04-1.80250E-14
 -1      2167 7.52989E-03-7.12433E-04-1.95213E-14
 -1      2168 7.39365E-03-7.07036E-04-1.90706E-14
 -1      2169 7.80409E-03-6.56882E-04-2.03990E-14
 -1      2170 7.66794E-03-6.95711E-04-1.99575E-14
 -1      2171 7.58652E-03-7.15393E-04-1.98114E-14
 -1      2172 8.16510E-03-4.98353E-04-2.13760E-14
 -1      2173 8.00678E-03-5.78067E-04-2.09639E-14
 -1      2174 8.52592E-03-3.04895E-04-2.21559E-14
 -1      2175 8.35549E-03-4.01572E-04-2.17873E-14
 -1      2176 8.90346E-03-1.01310E-04-2.28484E-14
 -1      2177 8.72670E-03-1.95611E-04-2.25462E-14
 -1      2178 9.26801E-03 8.56644E-05-2.35025E-14
 -1      2179 9.09775E-03 8.35744E-06-2.32738E-14
 -1      2180 9.56771E-03 2.03030E-04-2.38312E-14
 -1      2181 9.42566E-03 1.49371E-04-2.36660E-14
 -1      2182 9.32340E-03 1.40390E-04-2.40277E-14
 -1      2183 9.80282E-03 2.83356E-04-2.39936E-14
 -1      2184 9.71799E-03 2.55558E-04-2.39317E-14
 -1      2185 8.40443E-03 1.03435E-03-2.04299E-14
 -1      2186 8.58645E-03 9.31178E-04-2.09023E-14
 -1      2187 8.70257E-03 8.55630E-04-2.14178E-14
 -1      2188 6.07366E-04-2.95033E-04-1.50636E-16
 -1      2189 7.27973E-03 1.16830E-03-1.69128E-14
 -1      2190 8.28961E-03 1.09422E-03-2.01789E-14
 -1      2191 6.63454E-04-2.88806E-04-1.98680E-16
 -1      2192 9.72968E-03 3.82334E-04-2.38652E-14
 -1      2193 9.43189E-03 4.87504E-04-2.32127E-14
 -1      2194 1.45148E-02 5.38930E-04-7.13006E-14
 -1      2195 9.84316E-03 3.09365E-04-2.44140E-14
 -1      2196 9.63387E-03 2.47149E-04-2.42976E-14
 -1      2197 8.98433E-03-1.99675E-05-2.34291E-14
 -1      2198 8.60054E-03-2.35482E-04-2.26059E-14
 -1      2199 7.88132E-03-6.26315E-04-2.08127E-14
 -1      2200 7.30277E-03-6.97531E-04-1.87662E-14
 -1      2201 6.97061E-03-5.74412E-04-1.77039E-14
 -1      2202 6.63989E-03-4.00661E-04-1.68336E-14
 -1      2203 6.27190E-03-2.06110E-04-1.60551E-14
 -1      2204 5.90907E-03-3.61495E-05-1.53991E-14
 -1      2205 5.59481E-03 8.38681E-05-1.48856E-14
 -1      2206 5.38804E-03 1.50709E-04-1.44901E-14
 -1      2207 5.32591E-03 1.85318E-04-1.42234E-14
 -1      2208 5.44089E-03 2.25419E-04-1.42073E-14
 -1      2209 5.69756E-03 3.15602E-04-1.44131E-14
 -1      2210 6.07333E-03 4.80954E-04-1.47865E-14
 -1      2211 6.50904E-03 7.18077E-04-1.53533E-14
 -1      2212 6.92266E-03 9.69533E-04-1.60826E-14
 -1      2213 7.93090E-03 1.24783E-03-1.89925E-14
 -1      2214 7.61488E-03 1.27457E-03-1.79102E-14
 -1      2215 8.23475E-03-4.44722E-04-2.17975E-14
 -1      2216 1.01655E-03 3.93170E-04-2.28441E-16
 -1      2217 8.71965E-04 3.58127E-04-1.60218E-16
 -1      2218 5.47934E-04-5.37850E-05-1.99940E-16
 -1      2219 5.49047E-04-7.01279E-05-2.01120E-16
 -1      2220 5.50547E-04-8.71222E-05-2.01458E-16
 -1      2221 5.52488E-04-1.04821E-04-2.01187E-16
 -1      2222 6.65475E-04-9.29059E-05-2.72609E-16
 -1      2223 5.46426E-04 8.60811E-06-1.89817E-16
 -1      2224 5.46402E-04-6.76904E-06-1.92880E-16
 -1      2225 5.47264E-04 3.97276E-05-1.81685E-16
 -1      2226 5.46712E-04 2.40904E-05-1.86036E-16
 -1      2227 6.61194E-04 1.93396E-05-2.55045E-16
 -1      2228 5.49243E-04 7.15792E-05-1.71223E-16
 -1      2229 5.48099E-04 5.54541E-05-1.76847E-16
 -1      2230 6.62665E-04 5.61115E-05-2.43918E-16
 -1      2231 5.52804E-04 1.06444E-04-1.57575E-16
 -1      2232 5.50800E-04 8.86477E-05-1.64758E-16
 -1      2233 6.65759E-04 9.46444E-05-2.29390E-16
 -1      2234 5.58779E-04 1.45384E-04-1.39889E-16
 -1      2235 5.55429E-04 1.25329E-04-1.49552E-16
 -1      2236 6.71089E-04 1.36694E-04-2.10660E-16
 -1      2237 5.69023E-04 1.90792E-04-1.16470E-16
 -1      2238 5.63257E-04 1.67145E-04-1.29047E-16
 -1      2239 6.79864E-04 1.83773E-04-1.86632E-16
 -1      2240 1.30250E-03 4.46968E-04-4.05993E-16
 -1      2241 1.15989E-03 4.22678E-04-3.10136E-16
 -1      2242 1.07223E-03 3.73994E-04-2.97437E-16
 -1      2243 9.15425E-04-3.40614E-04-3.73928E-16
 -1      2244 1.05968E-03-3.72569E-04-4.89436E-16
 -1      2245 7.19961E-03 1.12395E-03-1.64880E-14
 -1      2246 7.34689E-03 1.20190E-03-1.69022E-14
 -1      2247 1.20316E-03-3.99430E-04-6.21654E-16
 -1      2248 1.34627E-03-4.21633E-04-7.70651E-16
 -1      2249 1.11772E-03-3.52721E-04-5.66265E-16
 -1      2250 1.48883E-03-4.39999E-04-9.36141E-16
 -1      2251 1.63110E-03-4.54808E-04-1.11872E-15
 -1      2252 1.40454E-03-3.96149E-04-8.65329E-16
 -1      2253 1.77313E-03-4.66713E-04-1.31793E-15
 -1      2254 1.91506E-03-4.75925E-04-1.53383E-15
 -1      2255 1.69046E-03-4.25340E-04-1.22997E-15
 -1      2256 2.05699E-03-4.82926E-04-1.76598E-15
 -1      2257 2.19900E-03-4.87895E-04-2.01502E-15
 -1      2258 1.97582E-03-4.43540E-04-1.66075E-15
 -1      2259 2.34119E-03-4.91188E-04-2.28062E-15
 -1      2260 2.48361E-03-4.92963E-04-2.56318E-15
 -1      2261 2.26113E-03-4.53333E-04-2.15660E-15
 -1      2262 2.62634E-03-4.93495E-04-2.86186E-15
 -1      2263 2.76944E-03-4.92925E-04-3.17677E-15
 -1      2264 2.54688E-03-4.56766E-04-2.71838E-15
 -1      2265 2.91295E-03-4.91482E-04-3.50863E-15
 -1      2266 3.05695E-03-4.89304E-04-3.85657E-15
 -1      2267 2.83348E-03-4.55507E-04-3.34566E-15
 -1      2268 3.20146E-03-4.86599E-04-4.22043E-15
 -1      2269 3.34657E-03-4.83516E-04-4.60070E-15
 -1      2270 3.12132E-03-4.51000E-04-4.03825E-15
 -1      2271 3.49230E-03-4.80269E-04-4.99649E-15
 -1      2272 3.63872E-03-4.77029E-04-5.40789E-15
 -1      2273 3.41079E-03-4.44615E-04-4.79418E-15
 -1      2274 3.78588E-03-4.74043E-04-5.83432E-15
 -1      2275 3.93385E-03-4.71517E-04-6.27688E-15
 -1      2276 3.70231E-03-4.37801E-04-5.61304E-15
 -1      2277 4.08269E-03-4.69750E-04-6.73407E-15
 -1      2278 4.23245E-03-4.69001E-04-7.20626E-15
 -1      2279 3.99636E-03-4.32235E-04-6.49266E-15
 -1      2280 4.38322E-03-4.69626E-04-7.69466E-15
 -1      2281 4.53503E-03-4.71951E-04-8.19653E-15
 -1      2282 4.29358E-03-4.29959E-04-7.43303E-15
 -1      2283 4.68803E-03-4.76380E-04-8.71231E-15
 -1      2284 4.84214E-03-4.83305E-04-9.24459E-15
 -1      2285 4.59473E-03-4.33482E-04-8.43320E-15
 -1      2286 4.99762E-03-4.93137E-04-9.79159E-15
 -1      2287 5.15423E-03-5.06302E-04-1.03520E-14
 -1      2288 4.90073E-03-4.45807E-04-9.49109E-15
 -1      2289 5.31230E-03-5.23126E-04-1.09289E-14
 -1      2290 5.47140E-03-5.43987E-04-1.15228E-14
 -1      2291 5.21256E-03-4.70278E-04-1.06100E-14
 -1      2292 5.63189E-03-5.68979E-04-1.21314E-14
 -1      2293 5.79303E-03-5.98214E-04-1.27553E-14
 -1      2294 5.53087E-03-5.10114E-04-1.17901E-14
 -1      2295 5.95515E-03-6.31363E-04-1.33958E-14
 -1      2296 6.11722E-03-6.67957E-04-1.40534E-14
 -1      2297 5.85540E-03-5.67337E-04-1.30334E-14
 -1      2298 6.27936E-03-7.07028E-04-1.47277E-14
 -1      2299 6.44050E-03-7.47176E-04-1.54195E-14
 -1      2300 6.18412E-03-6.40862E-04-1.43430E-14
 -1      2301 6.60046E-03-7.86692E-04-1.61297E-14
 -1      2302 6.75857E-03-8.23135E-04-1.68577E-14
 -1      2303 6.51273E-03-7.23851E-04-1.57213E-14
 -1      2304 6.91438E-03-8.54353E-04-1.76038E-14
 -1      2305 7.06834E-03-8.77377E-04-1.83681E-14
 -1      2306 6.83564E-03-8.01524E-04-1.71712E-14
 -1      2307 7.21992E-03-8.90239E-04-1.91537E-14
 -1      2308 7.37089E-03-8.91061E-04-1.99585E-14
 -1      2309 7.14925E-03-8.52328E-04-1.86979E-14
 -1      2310 7.52076E-03-8.79081E-04-2.07817E-14
 -1      2311 7.67183E-03-8.54281E-04-2.16233E-14
 -1      2312 7.45567E-03-8.55884E-04-2.03020E-14
 -1      2313 7.82357E-03-8.17554E-04-2.24841E-14
 -1      2314 7.97778E-03-7.70927E-04-2.33631E-14
 -1      2315 7.76229E-03-8.04210E-04-2.19834E-14
 -1      2316 8.13392E-03-7.16342E-04-2.42590E-14
 -1      2317 8.29231E-03-6.56792E-04-2.51727E-14
 -1      2318 8.07645E-03-7.06078E-04-2.37379E-14
 -1      2319 8.45251E-03-5.94435E-04-2.61025E-14
 -1      2320 8.61385E-03-5.31645E-04-2.70488E-14
 -1      2321 8.39992E-03-5.82275E-04-2.55625E-14
 -1      2322 8.77618E-03-4.70074E-04-2.80105E-14
 -1      2323 8.93839E-03-4.11079E-04-2.89850E-14
 -1      2324 8.72882E-03-4.54134E-04-2.74530E-14
 -1      2325 9.10062E-03-3.55586E-04-2.99722E-14
 -1      2326 9.26187E-03-3.04013E-04-3.09712E-14
 -1      2327 9.05762E-03-3.35924E-04-2.94003E-14
 -1      2328 9.42247E-03-2.56667E-04-3.19816E-14
 -1      2329 9.58171E-03-2.13406E-04-3.30035E-14
 -1      2330 9.38214E-03-2.34095E-04-3.13939E-14
 -1      2331 9.73996E-03-1.74123E-04-3.40355E-14
 -1      2332 9.89680E-03-1.38442E-04-3.50767E-14
 -1      2333 9.70048E-03-1.49474E-04-3.34319E-14
 -1      2334 1.00526E-02-1.06036E-04-3.61287E-14
 -1      2335 1.02070E-02-7.64865E-05-3.71895E-14
 -1      2336 1.00125E-02-7.99541E-05-3.55116E-14
 -1      2337 1.03604E-02-4.93943E-05-3.82594E-14
 -1      2338 1.05128E-02-2.43856E-05-3.93399E-14
 -1      2339 1.03189E-02-2.23540E-05-3.76297E-14
 -1      2340 1.06641E-02-1.07773E-06-4.04271E-14
 -1      2341 1.08146E-02 2.08296E-05-4.15212E-14
 -1      2342 1.06207E-02 2.65657E-05-3.97843E-14
 -1      2343 1.09642E-02 4.16577E-05-4.26212E-14
 -1      2344 1.11131E-02 6.16334E-05-4.37272E-14
 -1      2345 1.09188E-02 6.96311E-05-4.19698E-14
 -1      2346 1.12612E-02 8.10027E-05-4.48388E-14
 -1      2347 1.14088E-02 9.99292E-05-4.59555E-14
 -1      2348 1.12141E-02 1.09098E-04-4.41789E-14
 -1      2349 1.15557E-02 1.18587E-04-4.70770E-14
 -1      2350 1.17022E-02 1.37090E-04-4.82045E-14
 -1      2351 1.15071E-02 1.46652E-04-4.64095E-14
 -1      2352 1.18482E-02 1.55552E-04-4.93381E-14
 -1      2353 1.19938E-02 1.74047E-04-5.04795E-14
 -1      2354 1.17984E-02 1.83483E-04-4.86619E-14
 -1      2355 1.21390E-02 1.92643E-04-5.16275E-14
 -1      2356 1.22839E-02 2.11386E-04-5.27826E-14
 -1      2357 1.20882E-02 2.20376E-04-5.09427E-14
 -1      2358 1.24285E-02 2.30310E-04-5.39448E-14
 -1      2359 1.25728E-02 2.49441E-04-5.51143E-14
 -1      2360 1.23770E-02 2.57815E-04-5.32508E-14
 -1      2361 1.27169E-02 2.68790E-04-5.62904E-14
 -1      2362 1.28608E-02 2.88369E-04-5.74697E-14
 -1      2363 1.26650E-02 2.96058E-04-5.55888E-14
 -1      2364 1.30046E-02 3.08173E-04-5.86531E-14
 -1      2365 1.31482E-02 3.28206E-04-5.98466E-14
 -1      2366 1.29524E-02 3.35212E-04-5.79466E-14
 -1      2367 1.32916E-02 3.48454E-04-6.10446E-14
 -1      2368 1.34349E-02 3.68916E-04-6.22411E-14
 -1      2369 1.32392E-02 3.75282E-04-6.03236E-14
 -1      2370 1.35782E-02 3.89572E-04-6.34436E-14
 -1      2371 1.37214E-02 4.10418E-04-6.46481E-14
 -1      2372 1.35257E-02 4.16212E-04-6.27196E-14
 -1      2373 1.38645E-02 4.31431E-04-6.58561E-14
 -1      2374 1.40075E-02 4.52605E-04-6.70686E-14
 -1      2375 1.38119E-02 4.57909E-04-6.51248E-14
 -1      2376 1.86805E-03 5.06900E-04-9.33959E-16
 -1      2377 1.72700E-03 4.96617E-04-7.80083E-16
 -1      2378 2.15037E-03 5.20499E-04-1.28679E-15
 -1      2379 2.00914E-03 5.14799E-04-1.10309E-15
 -1      2380 1.92788E-03 4.74970E-04-1.06803E-15
 -1      2381 2.43369E-03 5.26552E-04-1.69930E-15
 -1      2382 2.29186E-03 5.24361E-04-1.48524E-15
 -1      2383 2.21203E-03 4.86267E-04-1.44189E-15
 -1      2384 2.71870E-03 5.26846E-04-2.17338E-15
 -1      2385 2.57594E-03 5.27330E-04-1.92880E-15
 -1      2386 2.49688E-03 4.90532E-04-1.87585E-15
 -1      2387 3.00601E-03 5.22829E-04-2.70732E-15
 -1      2388 2.86203E-03 5.25297E-04-2.43211E-15
 -1      2389 2.78298E-03 4.89431E-04-2.37023E-15
 -1      2390 3.29618E-03 5.15787E-04-3.30299E-15
 -1      2391 3.15069E-03 5.19607E-04-2.99758E-15
 -1      2392 3.07080E-03 4.84339E-04-2.92546E-15
 -1      2393 3.58979E-03 5.07034E-04-3.95895E-15
 -1      2394 3.44250E-03 5.11536E-04-3.62301E-15
 -1      2395 3.36077E-03 4.76515E-04-3.54182E-15
 -1      2396 3.88748E-03 4.98115E-04-4.67695E-15
 -1      2397 3.73805E-03 5.02485E-04-4.31063E-15
 -1      2398 3.65336E-03 4.67274E-04-4.21768E-15
 -1      2399 4.18995E-03 4.91077E-04-5.46142E-15
 -1      2400 4.03803E-03 4.94213E-04-5.06062E-15
 -1      2401 3.94906E-03 4.58211E-04-4.95770E-15
 -1      2402 4.49804E-03 4.88783E-04-6.31111E-15
 -1      2403 4.34320E-03 4.89130E-04-5.87761E-15
 -1      2404 4.24847E-03 4.51449E-04-5.76221E-15
 -1      2405 4.81273E-03 4.95291E-04-7.22588E-15
 -1      2406 4.65447E-03 4.90644E-04-6.76069E-15
 -1      2407 4.55240E-03 4.49960E-04-6.63263E-15
 -1      2408 5.13518E-03 5.16216E-04-8.20303E-15
 -1      2409 4.97292E-03 5.03547E-04-7.70686E-15
 -1      2410 4.86199E-03 4.57923E-04-7.56689E-15
 -1      2411 5.46680E-03 5.58890E-04-9.23984E-15
 -1      2412 5.29986E-03 5.34308E-04-8.71464E-15
 -1      2413 5.17897E-03 4.81078E-04-8.56311E-15
 -1      2414 5.80898E-03 6.31865E-04-1.03376E-14
 -1      2415 5.63674E-03 5.90989E-04-9.78087E-15
 -1      2416 5.50586E-03 5.26923E-04-9.61914E-15
 -1      2417 6.16231E-03 7.42908E-04-1.14967E-14
 -1      2418 5.98470E-03 6.82166E-04-1.09091E-14
 -1      2419 5.84576E-03 6.04357E-04-1.07352E-14
 -1      2420 6.52466E-03 8.94235E-04-1.27256E-14
 -1      2421 6.34322E-03 8.13737E-04-1.21020E-14
 -1      2422 6.20108E-03 7.21798E-04-1.19141E-14
 -1      2423 6.88873E-03 1.07385E-03-1.40268E-14
 -1      2424 6.70758E-03 9.82103E-04-1.33674E-14
 -1      2425 6.57030E-03 8.82046E-04-1.31622E-14
 -1      2426 7.24330E-03 1.24731E-03-1.54064E-14
 -1      2427 7.06794E-03 1.16482E-03-1.47062E-14
 -1      2428 6.94403E-03 1.07118E-03-1.44840E-14
 -1      2429 7.58157E-03 1.36172E-03-1.68644E-14
 -1      2430 7.41325E-03 1.31537E-03-1.61248E-14
 -1      2431 7.30681E-03 1.24715E-03-1.58838E-14
 -1      2432 7.91232E-03 1.37597E-03-1.83982E-14
 -1      2433 7.74542E-03 1.38238E-03-1.76223E-14
 -1      2434 7.65225E-03 1.34694E-03-1.73616E-14
 -1      2435 8.25186E-03 1.29382E-03-2.00159E-14
 -1      2436 8.07916E-03 1.34455E-03-1.91978E-14
 -1      2437 7.99407E-03 1.33067E-03-1.89206E-14
 -1      2438 8.60820E-03 1.16012E-03-2.17090E-14
 -1      2439 8.42856E-03 1.22957E-03-2.08527E-14
 -1      2440 8.35076E-03 1.21818E-03-2.05595E-14
 -1      2441 8.97252E-03 1.02678E-03-2.34755E-14
 -1      2442 8.79043E-03 1.09082E-03-2.25823E-14
 -1      2443 8.72242E-03 1.07117E-03-2.22769E-14
 -1      2444 9.33423E-03 9.24949E-04-2.53024E-14
 -1      2445 9.15475E-03 9.71073E-04-2.43824E-14
 -1      2446 9.09472E-03 9.41849E-04-2.40644E-14
 -1      2447 9.68656E-03 8.63715E-04-2.71782E-14
 -1      2448 9.51210E-03 8.89393E-04-2.62343E-14
 -1      2449 9.45575E-03 8.52918E-04-2.59108E-14
 -1      2450 1.00279E-02 8.39527E-04-2.90945E-14
 -1      2451 9.85877E-03 8.47491E-04-2.81316E-14
 -1      2452 9.80131E-03 8.05987E-04-2.78013E-14
 -1      2453 1.03590E-02 8.44251E-04-3.10504E-14
 -1      2454 1.01947E-02 8.38814E-04-3.00674E-14
 -1      2455 1.01330E-02 7.93744E-04-2.97331E-14
 -1      2456 1.06813E-02 8.69480E-04-3.30438E-14
 -1      2457 1.05211E-02 8.54759E-04-3.20419E-14
 -1      2458 1.04538E-02 8.07143E-04-3.17020E-14
 -1      2459 1.09964E-02 9.08210E-04-3.50789E-14
 -1      2460 1.08397E-02 8.87504E-04-3.40556E-14
 -1      2461 1.07667E-02 8.38148E-04-3.37090E-14
 -1      2462 1.13054E-02 9.55202E-04-3.71646E-14
 -1      2463 1.11516E-02 9.30921E-04-3.61152E-14
 -1      2464 1.10736E-02 8.80485E-04-3.57593E-14
 -1      2465 1.16095E-02 1.00680E-03-3.92940E-14
 -1      2466 1.14580E-02 9.80595E-04-3.82240E-14
 -1      2467 1.13760E-02 9.29594E-04-3.78584E-14
 -1      2468 1.19093E-02 1.06056E-03-4.14691E-14
 -1      2469 1.17598E-02 1.03352E-03-4.03760E-14
 -1      2470 1.16748E-02 9.82332E-04-4.00012E-14
 -1      2471 1.22059E-02 1.11494E-03-4.36864E-14
 -1      2472 1.20580E-02 1.08775E-03-4.25724E-14
 -1      2473 1.19707E-02 1.03662E-03-4.21860E-14
 -1      2474 1.24997E-02 1.16903E-03-4.59473E-14
 -1      2475 1.23531E-02 1.14207E-03-4.48104E-14
 -1      2476 1.22642E-02 1.09117E-03-4.44143E-14
 -1      2477 1.27914E-02 1.22229E-03-4.82486E-14
 -1      2478 1.26458E-02 1.19579E-03-4.70934E-14
 -1      2479 1.25558E-02 1.14519E-03-4.66859E-14
 -1      2480 1.30814E-02 1.27450E-03-5.05817E-14
 -1      2481 1.29366E-02 1.24854E-03-4.94115E-14
 -1      2482 1.28460E-02 1.19828E-03-4.89954E-14
 -1      2483 1.33702E-02 1.32558E-03-5.29431E-14
 -1      2484 1.32259E-02 1.30019E-03-5.17580E-14
 -1      2485 1.31349E-02 1.25025E-03-5.13339E-14
 -1      2486 1.36580E-02 1.37556E-03-5.53270E-14
 -1      2487 1.35142E-02 1.35071E-03-5.41325E-14
 -1      2488 1.34229E-02 1.30108E-03-5.36987E-14
 -1      2489 1.39451E-02 1.42453E-03-5.77299E-14
 -1      2490 1.38016E-02 1.40017E-03-5.65273E-14
 -1      2491 1.37103E-02 1.35082E-03-5.60848E-14
 -1      2492 1.42317E-02 1.47261E-03-6.01549E-14
 -1      2493 1.40884E-02 1.44868E-03-5.89389E-14
 -1      2494 1.39970E-02 1.39956E-03-5.84892E-14
 -1      2495 1.45179E-02 1.51994E-03-6.26039E-14
 -1      2496 1.43748E-02 1.49636E-03-6.13763E-14
 -1      2497 1.42835E-02 1.44745E-03-6.09147E-14
 -1      2498 1.48039E-02 1.56665E-03-6.50731E-14
 -1      2499 1.46609E-02 1.54336E-03-6.38348E-14
 -1      2500 1.45696E-02 1.49461E-03-6.33657E-14
 -1      2501 1.49522E-02 1.59163E-03-6.63576E-14
 -1      2502 1.46977E-02 1.24814E-03-6.68874E-14
 -1      2503 1.47197E-02 1.28982E-03-6.67389E-14
 -1      2504 1.46540E-02 1.16494E-03-6.71780E-14
 -1      2505 1.46758E-02 1.20652E-03-6.70324E-14
 -1      2506 1.45633E-02 1.20754E-03-6.59073E-14
 -1      2507 1.47851E-02 1.41382E-03-6.62919E-14
 -1      2508 1.48073E-02 1.45574E-03-6.61370E-14
 -1      2509 1.47415E-02 1.33121E-03-6.65911E-14
 -1      2510 1.47632E-02 1.37230E-03-6.64429E-14
 -1      2511 1.46505E-02 1.37320E-03-6.53021E-14
 -1      2512 1.46069E-02 1.29041E-03-6.56071E-14
 -1      2513 1.46102E-02 1.08189E-03-6.74769E-14
 -1      2514 1.46321E-02 1.12340E-03-6.73289E-14
 -1      2515 1.45195E-02 1.12455E-03-6.62062E-14
 -1      2516 1.45663E-02 9.98910E-04-6.77780E-14
 -1      2517 1.45882E-02 1.04040E-03-6.76277E-14
 -1      2518 1.44758E-02 1.04172E-03-6.65090E-14
 -1      2519 1.45223E-02 9.15902E-04-6.80748E-14
 -1      2520 1.45443E-02 9.57416E-04-6.79250E-14
 -1      2521 1.44319E-02 9.58931E-04-6.68088E-14
 -1      2522 1.44791E-02 8.34188E-04-6.83710E-14
 -1      2523 1.45007E-02 8.75064E-04-6.82249E-14
 -1      2524 1.43882E-02 8.76790E-04-6.71055E-14
 -1      2525 1.44351E-02 7.50878E-04-6.86697E-14
 -1      2526 1.44571E-02 7.92560E-04-6.85191E-14
 -1      2527 1.43445E-02 7.94494E-04-6.74014E-14
 -1      2528 1.43913E-02 6.67330E-04-6.89704E-14
 -1      2529 1.44132E-02 7.09135E-04-6.88191E-14
 -1      2530 1.43005E-02 7.11262E-04-6.76985E-14
 -1      2531 1.43478E-02 5.83531E-04-6.92700E-14
 -1      2532 1.43695E-02 6.25460E-04-6.91181E-14
 -1      2533 1.42567E-02 6.27748E-04-6.79932E-14
 -1      2534 9.35460E-03 5.17077E-04-2.34477E-14
 -1      2535 9.52118E-03 4.51954E-04-2.38768E-14
 -1      2536 1.43876E-02 5.21244E-04-7.01993E-14
 -1      2537 9.87578E-03 3.23792E-04-2.49434E-14
 -1      2538 9.81826E-03 3.11660E-04-2.49291E-14
 -1      2539 1.58583E-03 4.83433E-04-6.41048E-16
 -1      2540 1.44437E-03 4.67134E-04-5.16378E-16
 -1      2541 1.64374E-03 4.54509E-04-7.53236E-16
 -1      2542 9.86233E-03 3.44005E-04-2.46965E-14
 -1      2543 9.88878E-03 3.37434E-04-2.48660E-14
 -1      2544 9.00572E-03 6.84186E-04-2.24752E-14
 -1      2545 9.16195E-03 6.04499E-04-2.28914E-14
 -1      2546 5.88674E-04-2.34820E-04-1.80669E-16
 -1      2547 7.81498E-04-3.00224E-04-2.85633E-16
 -1      2548 8.41244E-04-2.88419E-04-3.44397E-16
 -1      2549 5.79300E-04-2.07014E-04-1.88963E-16
 -1      2550 9.03641E-03 2.76917E-05-2.39818E-14
 -1      2551 8.85223E-03-6.94886E-05-2.35488E-14
 -1      2552 7.35834E-03-7.18912E-04-1.89964E-14
 -1      2553 7.20416E-03-6.77466E-04-1.83948E-14
 -1      2554 5.46637E-04-2.22344E-05-1.95563E-16
 -1      2555 5.47139E-04-3.78374E-05-1.97962E-16
 -1      2556 6.62486E-04-5.41696E-05-2.69519E-16
 -1      2557 6.61131E-04-1.71509E-05-2.63461E-16
 -1      2558 7.54033E-03 1.27016E-03-1.75286E-14
 -1      2559 7.69813E-03 1.29221E-03-1.81089E-14
 -1      2560 8.31368E-03-3.84024E-04-2.22826E-14
 -1      2561 8.15479E-03-4.80565E-04-2.18646E-14
 -1      2562 8.17030E-03 1.16133E-03-1.98638E-14
 -1      2563 8.36521E-03 1.05562E-03-2.05565E-14
 -1      2564 7.89571E-03 1.26897E-03-1.88517E-14
 -1      2565 8.02734E-03 1.22443E-03-1.93533E-14
 -1      2566 8.12263E-03 1.19433E-03-1.97179E-14
 -1      2567 6.85868E-03 9.14202E-04-1.56667E-14
 -1      2568 7.03326E-03 1.02774E-03-1.60741E-14
 -1      2569 7.11297E-03 1.07564E-03-1.60612E-14
 -1      2570 6.40881E-03 6.36340E-04-1.49083E-14
 -1      2571 6.61816E-03 7.63136E-04-1.52218E-14
 -1      2572 5.99174E-03 4.17079E-04-1.43445E-14
 -1      2573 6.18711E-03 5.13877E-04-1.45889E-14
 -1      2574 5.61824E-03 2.69026E-04-1.40329E-14
 -1      2575 5.77769E-03 3.25597E-04-1.41549E-14
 -1      2576 5.39938E-03 2.03560E-04-1.38302E-14
 -1      2577 5.48872E-03 2.26188E-04-1.39094E-14
 -1      2578 5.31149E-03 1.73055E-04-1.39177E-14
 -1      2579 5.32428E-03 1.80829E-04-1.38213E-14
 -1      2580 5.41999E-03 1.43067E-04-1.42434E-14
 -1      2581 5.35149E-03 1.57590E-04-1.40750E-14
 -1      2582 5.64507E-03 7.62014E-05-1.46830E-14
 -1      2583 5.51768E-03 1.15090E-04-1.44618E-14
 -1      2584 5.45175E-03 1.28133E-04-1.40436E-14
 -1      2585 5.98662E-03-5.80988E-05-1.52506E-14
 -1      2586 5.82255E-03 1.05516E-05-1.49663E-14
 -1      2587 6.36212E-03-2.43740E-04-1.59830E-14
 -1      2588 6.19002E-03-1.53761E-04-1.56199E-14
 -1      2589 6.69522E-03-4.29618E-04-1.67868E-14
 -1      2590 6.53146E-03-3.35131E-04-1.63813E-14
 -1      2591 6.42052E-03-2.85134E-04-1.59363E-14
 -1      2592 7.06963E-03-6.25463E-04-1.79263E-14
 -1      2593 6.92951E-03-5.54518E-04-1.74669E-14
 -1      2594 7.14017E-03-6.62820E-04-1.81482E-14
 -1      2595 7.63880E-03-7.11900E-04-2.01631E-14
 -1      2596 7.53383E-03-7.28188E-04-1.97252E-14
 -1      2597 7.95208E-03-5.89303E-04-2.12935E-14
 -1      2598 7.79145E-03-6.65257E-04-2.07230E-14
 -1      2599 7.72285E-03-6.90633E-04-2.06312E-14
 -1      2600 8.67555E-03-1.68315E-04-2.31457E-14
 -1      2601 8.49839E-03-2.73884E-04-2.27474E-14
 -1      2602 8.75449E-03-1.17275E-04-2.36912E-14
 -1      2603 9.40321E-03 1.87827E-04-2.46244E-14
 -1      2604 9.26075E-03 1.32423E-04-2.44543E-14
 -1      2605 9.70866E-03 2.82347E-04-2.48344E-14
 -1      2606 9.56676E-03 2.43540E-04-2.47292E-14
 -1      2607 9.51229E-03 2.29171E-04-2.51596E-14
 -1      2608 9.68181E-03 3.94927E-04-2.42353E-14
 -1      2609 9.79157E-03 3.64919E-04-2.44653E-14
 -1      2610 9.84272E-03 3.59630E-04-2.50690E-14
 -1      2611 7.57607E-04 3.29904E-04-1.12052E-16
 -1      2612 6.11183E-04 2.81649E-04-6.82505E-17
 -1      2613 5.84685E-04 2.55000E-04-7.63956E-17
 -1      2614 8.13845E-04 3.17995E-04-1.61858E-16
 -1      2615 8.62274E-03 9.04678E-04-2.13985E-14
 -1      2616 8.81733E-03 7.87314E-04-2.19469E-14
 -1      2617 7.80473E-03 1.29183E-03-1.84569E-14
 -1      2618 6.70625E-04-1.34668E-04-2.71986E-16
 -1      2619 5.55028E-04-1.23498E-04-2.00171E-16
 -1      2620 5.58270E-04-1.43302E-04-1.98151E-16
 -1      2621 1.35880E-03 4.22089E-04-4.96971E-16
 -1      2622 5.72461E-04 2.24808E-04-9.39190E-17
 -1      2623 8.49194E-03 9.89938E-04-2.10693E-14
 -1      2624 8.61962E-03 9.28317E-04-2.15901E-14
 -1      2625 8.38464E-03 1.06816E-03-2.07415E-14
 -1      2626 9.14460E-03 8.17748E-05-2.45736E-14
 -1      2627 7.44658E-03 1.24469E-03-1.70920E-14
 -1      2628 9.77877E-03 3.05356E-04-2.53631E-14
 -1      2629 1.48609E-02 1.54299E-03-6.58764E-14
 -1      2630 1.48274E-02 1.50740E-03-6.58653E-14
 -1      2631 9.62229E-03 4.26485E-04-2.44726E-14
 -1      2632 9.28633E-03 5.59673E-04-2.35468E-14
 -1      2633 1.42310E-02 4.83661E-04-6.89849E-14
 -1      2634 1.43041E-02 5.43601E-04-6.91865E-14
 -1      2635 1.41911E-02 5.46015E-04-6.80572E-14
 -1      2636 1.41037E-02 4.66163E-04-6.78909E-14
 -1      2637 8.04455E-03-5.39937E-04-2.17689E-14
 -1      2638 9.90143E-03 3.35871E-04-2.53811E-14
 -1      2639 6.89930E-04 2.47264E-04-1.45242E-16
 -1      2640 6.80214E-03-4.97455E-04-1.69994E-14
 -1      2641 5.64766E-04-1.61945E-04-1.97054E-16
 -1      2642 5.70148E-04-1.84934E-04-1.92568E-16
 -1      2643 6.98340E-04-2.23746E-04-2.64762E-16
 -1      2644 6.81249E-04-1.77915E-04-2.69682E-16
 -1      2645 7.42767E-03-7.31539E-04-1.93381E-14
 -1      2646 5.71145E-03 4.69475E-05-1.45370E-14
 -1      2647 5.31134E-03 1.60993E-04-1.36736E-14
 -1      2648 5.34010E-03 1.84093E-04-1.35262E-14
 -1      2649 5.54725E-03 2.39709E-04-1.36546E-14
 -1      2650 5.87760E-03 3.62294E-04-1.39615E-14
 -1      2651 8.92182E-03 7.41600E-04-2.24536E-14
 -1      2652 6.73429E-03 8.34823E-04-1.52104E-14
 -1      2653 8.41088E-03-3.20662E-04-2.28146E-14
 -1      2654 6.29402E-03 5.67496E-04-1.44592E-14
 -1      2655 6.07231E-03-1.05867E-04-1.51796E-14
 -1      2656 1.46924E-02 1.46629E-03-6.48748E-14
 -1      2657 1.40512E-02 4.92529E-04-6.71506E-14
 -1      2658 7.80058E-04 7.49876E-05-3.15150E-16
 -1      2659 7.78667E-04 5.37481E-05-3.22984E-16
 -1      2660 7.77722E-04 3.25067E-05-3.30221E-16
 -1      2661 7.77246E-04 1.15353E-05-3.36428E-16
 -1      2662 8.95852E-04 4.80243E-05-4.14612E-16
 -1      2663 7.92051E-04 1.68853E-04-2.71173E-16
 -1      2664 7.87898E-04 1.43816E-04-2.84210E-16
 -1      2665 8.04062E-04 2.23526E-04-2.39826E-16
 -1      2666 7.97399E-04 1.95359E-04-2.56698E-16
 -1      2667 9.15404E-04 2.02455E-04-3.39003E-16
 -1      2668 1.13060E-03 3.53953E-04-3.71312E-16
 -1      2669 9.86816E-04 3.26351E-04-2.82001E-16
 -1      2670 6.88514E-03-5.60051E-04-1.71896E-14
 -1      2671 6.68038E-03-4.47490E-04-1.65190E-14
 -1      2672 1.32122E-03-3.52728E-04-7.95317E-16
 -1      2673 1.46467E-03-3.69912E-04-9.61349E-16
 -1      2674 1.60798E-03-3.84001E-04-1.14359E-15
 -1      2675 1.75124E-03-3.95228E-04-1.34230E-15
 -1      2676 1.52608E-03-3.42953E-04-1.05870E-15
 -1      2677 1.89439E-03-4.04044E-04-1.55695E-15
 -1      2678 2.03752E-03-4.10632E-04-1.78755E-15
 -1      2679 1.81306E-03-3.64593E-04-1.45500E-15
 -1      2680 2.18061E-03-4.15362E-04-2.03512E-15
 -1      2681 2.32373E-03-4.18385E-04-2.29835E-15
 -1      2682 2.09992E-03-3.77351E-04-1.91553E-15
 -1      2683 2.46689E-03-4.19997E-04-2.57757E-15
 -1      2684 2.61015E-03-4.20330E-04-2.87343E-15
 -1      2685 2.38665E-03-3.83205E-04-2.43967E-15
 -1      2686 2.75354E-03-4.19624E-04-3.18562E-15
 -1      2687 2.89709E-03-4.17999E-04-3.51378E-15
 -1      2688 2.67337E-03-3.83800E-04-3.02799E-15
 -1      2689 3.04084E-03-4.15666E-04-3.85857E-15
 -1      2690 3.18484E-03-4.12746E-04-4.21882E-15
 -1      2691 2.96025E-03-3.80532E-04-3.68152E-15
 -1      2692 3.32912E-03-4.09439E-04-4.59442E-15
 -1      2693 3.47375E-03-4.05880E-04-4.98649E-15
 -1      2694 3.24751E-03-3.74653E-04-4.39816E-15
 -1      2695 3.61876E-03-4.02283E-04-5.39395E-15
 -1      2696 3.76424E-03-3.98812E-04-5.81647E-15
 -1      2697 3.53547E-03-3.67397E-04-5.17763E-15
 -1      2698 3.91025E-03-3.95710E-04-6.25453E-15
 -1      2699 4.05688E-03-3.93194E-04-6.70724E-15
 -1      2700 3.82457E-03-3.60111E-04-6.01889E-15
 -1      2701 4.20425E-03-3.91543E-04-7.17469E-15
 -1      2702 4.35247E-03-3.91053E-04-7.65800E-15
 -1      2703 4.11548E-03-3.54390E-04-6.91987E-15
 -1      2704 4.50170E-03-3.92042E-04-8.15599E-15
 -1      2705 4.65206E-03-3.94907E-04-8.66772E-15
 -1      2706 4.40920E-03-3.52215E-04-7.88089E-15
 -1      2707 4.80382E-03-3.99989E-04-9.19432E-15
 -1      2708 4.95704E-03-4.07810E-04-9.73641E-15
 -1      2709 4.70713E-03-3.56079E-04-8.90138E-15
 -1      2710 5.11212E-03-4.18694E-04-1.02939E-14
 -1      2711 5.26897E-03-4.33262E-04-1.08661E-14
 -1      2712 5.01119E-03-3.69100E-04-9.98019E-15
 -1      2713 5.42808E-03-4.51739E-04-1.14531E-14
 -1      2714 5.58912E-03-4.74782E-04-1.20563E-14
 -1      2715 5.32357E-03-3.95017E-04-1.11199E-14
 -1      2716 5.75259E-03-5.02402E-04-1.26743E-14
 -1      2717 5.91765E-03-5.34878E-04-1.33095E-14
 -1      2718 5.64628E-03-4.37952E-04-1.23204E-14
 -1      2719 6.08466E-03-5.71869E-04-1.39619E-14
 -1      2720 6.25225E-03-6.12724E-04-1.46301E-14
 -1      2721 5.97977E-03-5.01218E-04-1.35848E-14
 -1      2722 6.42042E-03-6.56332E-04-1.53162E-14
 -1      2723 6.58748E-03-7.00630E-04-1.60204E-14
 -1      2724 6.32135E-03-5.84461E-04-1.49161E-14
 -1      2725 6.75295E-03-7.43691E-04-1.67430E-14
 -1      2726 6.91591E-03-7.81350E-04-1.74830E-14
 -1      2727 6.66370E-03-6.79215E-04-1.63167E-14
 -1      2728 7.07579E-03-8.11173E-04-1.82440E-14
 -1      2729 7.23341E-03-8.28803E-04-1.90246E-14
 -1      2730 6.99760E-03-7.63721E-04-1.77939E-14
 -1      2731 7.38795E-03-8.32341E-04-1.98253E-14
 -1      2732 7.54321E-03-8.20172E-04-2.06449E-14
 -1      2733 7.31845E-03-8.06067E-04-1.93507E-14
 -1      2734 7.69785E-03-7.92561E-04-2.14838E-14
 -1      2735 7.85570E-03-7.50872E-04-2.23420E-14
 -1      2736 7.63248E-03-7.81857E-04-2.09875E-14
 -1      2737 8.01584E-03-6.97127E-04-2.32177E-14
 -1      2738 8.17914E-03-6.36119E-04-2.41126E-14
 -1      2739 7.95387E-03-6.90981E-04-2.27000E-14
 -1      2740 8.34489E-03-5.70213E-04-2.50249E-14
 -1      2741 8.51209E-03-5.03247E-04-2.59526E-14
 -1      2742 8.28841E-03-5.59700E-04-2.44882E-14
 -1      2743 8.68031E-03-4.37079E-04-2.68980E-14
 -1      2744 8.84788E-03-3.73895E-04-2.78580E-14
 -1      2745 8.63093E-03-4.19937E-04-2.63449E-14
 -1      2746 9.01482E-03-3.14688E-04-2.88297E-14
 -1      2747 9.17976E-03-2.59977E-04-2.98135E-14
 -1      2748 8.97219E-03-2.92203E-04-2.82609E-14
 -1      2749 9.34308E-03-2.10126E-04-3.08086E-14
 -1      2750 9.50398E-03-1.64778E-04-3.18150E-14
 -1      2751 9.30519E-03-1.84664E-04-3.02253E-14
 -1      2752 9.66298E-03-1.23907E-04-3.28315E-14
 -1      2753 9.81975E-03-8.68811E-05-3.38583E-14
 -1      2754 9.62735E-03-9.71867E-05-3.22340E-14
 -1      2755 9.97477E-03-5.34703E-05-3.48968E-14
 -1      2756 1.01280E-02-2.30546E-05-3.59447E-14
 -1      2757 9.93929E-03-2.63543E-05-3.42853E-14
 -1      2758 1.02798E-02 4.67868E-06-3.70033E-14
 -1      2759 1.04303E-02 3.02345E-05-3.80691E-14
 -1      2760 1.02431E-02 3.18694E-05-3.63770E-14
 -1      2761 1.05796E-02 5.39350E-05-3.91437E-14
 -1      2762 1.07280E-02 7.61582E-05-4.02280E-14
 -1      2763 1.05408E-02 8.11250E-05-3.85067E-14
 -1      2764 1.08756E-02 9.71929E-05-4.13185E-14
 -1      2765 1.10225E-02 1.17308E-04-4.24165E-14
 -1      2766 1.08345E-02 1.24379E-04-4.06692E-14
 -1      2767 1.11688E-02 1.36739E-04-4.35199E-14
 -1      2768 1.13147E-02 1.55671E-04-4.46286E-14
 -1      2769 1.11254E-02 1.63920E-04-4.28617E-14
 -1      2770 1.14601E-02 1.74281E-04-4.57425E-14
 -1      2771 1.16051E-02 1.92691E-04-4.68612E-14
 -1      2772 1.14146E-02 2.01441E-04-4.50758E-14
 -1      2773 1.17498E-02 2.11028E-04-4.79869E-14
 -1      2774 1.18943E-02 2.29366E-04-4.91205E-14
 -1      2775 1.17026E-02 2.38141E-04-4.73123E-14
 -1      2776 1.20385E-02 2.47788E-04-5.02583E-14
 -1      2777 1.21826E-02 2.66338E-04-5.14048E-14
 -1      2778 1.19899E-02 2.74827E-04-4.95760E-14
 -1      2779 1.23264E-02 2.85063E-04-5.25596E-14
 -1      2780 1.24702E-02 3.03986E-04-5.37194E-14
 -1      2781 1.22767E-02 3.12004E-04-5.18664E-14
 -1      2782 1.26138E-02 3.23129E-04-5.48874E-14
 -1      2783 1.27572E-02 3.42501E-04-5.60609E-14
 -1      2784 1.25631E-02 3.49957E-04-5.41883E-14
 -1      2785 1.29006E-02 3.62105E-04-5.72383E-14
 -1      2786 1.30439E-02 3.81942E-04-5.84201E-14
 -1      2787 1.28494E-02 3.88812E-04-5.65313E-14
 -1      2788 1.31872E-02 4.02005E-04-5.96074E-14
 -1      2789 1.33303E-02 4.22289E-04-6.08008E-14
 -1      2790 1.31355E-02 4.28590E-04-5.88946E-14
 -1      2791 1.34735E-02 4.42779E-04-6.19970E-14
 -1      2792 1.36165E-02 4.63469E-04-6.31928E-14
 -1      2793 1.34215E-02 4.69248E-04-6.12738E-14
 -1      2794 1.37596E-02 4.84339E-04-6.43950E-14
 -1      2795 1.39025E-02 5.05381E-04-6.55982E-14
 -1      2796 1.37074E-02 5.10699E-04-6.36661E-14
 -1      2797 2.27416E-03 4.51575E-04-1.59997E-15
 -1      2798 2.13143E-03 4.47945E-04-1.39548E-15
 -1      2799 8.16091E-03-4.74775E-04-2.23653E-14
 -1      2800 7.98571E-03-5.77995E-04-2.17853E-14
 -1      2801 1.98875E-03 4.42430E-04-1.20573E-15
 -1      2802 1.84606E-03 4.34868E-04-1.02998E-15
 -1      2803 2.05040E-03 4.09476E-04-1.34621E-15
 -1      2804 2.84661E-03 4.51927E-04-2.57066E-15
 -1      2805 2.70317E-03 4.53620E-04-2.30566E-15
 -1      2806 3.13435E-03 4.45985E-04-3.14699E-15
 -1      2807 2.99031E-03 4.49343E-04-2.85106E-15
 -1      2808 2.90954E-03 4.14518E-04-2.77483E-15
 -1      2809 3.42350E-03 4.37623E-04-3.78266E-15
 -1      2810 3.27871E-03 4.42036E-04-3.45721E-15
 -1      2811 3.19664E-03 4.07943E-04-3.37053E-15
 -1      2812 3.71438E-03 4.28160E-04-4.48049E-15
 -1      2813 3.56868E-03 4.32947E-04-4.12441E-15
 -1      2814 3.48437E-03 3.99285E-04-4.02800E-15
 -1      2815 4.00734E-03 4.19215E-04-5.24103E-15
 -1      2816 3.86054E-03 4.23516E-04-4.85248E-15
 -1      2817 3.77288E-03 3.89852E-04-4.74599E-15
 -1      2818 4.30290E-03 4.12950E-04-6.06645E-15
 -1      2819 4.15472E-03 4.15598E-04-5.64540E-15
 -1      2820 4.06239E-03 3.81262E-04-5.52709E-15
 -1      2821 4.60187E-03 4.12363E-04-6.95734E-15
 -1      2822 4.45185E-03 4.11729E-04-6.50386E-15
 -1      2823 4.35335E-03 3.75657E-04-6.37367E-15
 -1      2824 4.90565E-03 4.21627E-04-7.91076E-15
 -1      2825 4.75302E-03 4.15442E-04-7.42681E-15
 -1      2826 4.64663E-03 3.75966E-04-7.28475E-15
 -1      2827 5.21667E-03 4.46449E-04-8.92584E-15
 -1      2828 5.06008E-03 4.31617E-04-8.41066E-15
 -1      2829 4.94397E-03 3.86213E-04-8.25787E-15
 -1      2830 5.53872E-03 4.94391E-04-1.00003E-14
 -1      2831 5.37612E-03 4.66848E-04-9.45567E-15
 -1      2832 5.24855E-03 4.11915E-04-9.29129E-15
 -1      2833 5.87692E-03 5.74809E-04-1.11356E-14
 -1      2834 5.70573E-03 5.29622E-04-1.05599E-14
 -1      2835 5.56573E-03 4.60636E-04-1.03837E-14
 -1      2836 6.23588E-03 6.97454E-04-1.23325E-14
 -1      2837 6.05419E-03 6.29950E-04-1.17248E-14
 -1      2838 5.90289E-03 5.42759E-04-1.15367E-14
 -1      2839 6.61512E-03 8.67409E-04-1.36001E-14
 -1      2840 6.42434E-03 7.76613E-04-1.29577E-14
 -1      2841 6.26694E-03 6.70749E-04-1.27525E-14
 -1      2842 7.00250E-03 1.06881E-03-1.49404E-14
 -1      2843 6.80976E-03 9.66433E-04-1.42611E-14
 -1      2844 6.65808E-03 8.53280E-04-1.40379E-14
 -1      2845 7.38939E-03 1.24215E-03-1.65515E-14
 -1      2846 7.19899E-03 1.15646E-03-1.58272E-14
 -1      2847 7.72911E-03 1.32395E-03-1.79306E-14
 -1      2848 7.54810E-03 1.30029E-03-1.71699E-14
 -1      2849 8.07818E-03 1.26073E-03-1.94743E-14
 -1      2850 7.89166E-03 1.30699E-03-1.86722E-14
 -1      2851 8.50999E-03 1.07856E-03-2.13376E-14
 -1      2852 8.31290E-03 1.16355E-03-2.04906E-14
 -1      2853 9.22305E-03 8.55196E-04-2.46597E-14
 -1      2854 9.03754E-03 9.09356E-04-2.37465E-14
 -1      2855 9.57946E-03 7.83267E-04-2.65199E-14
 -1      2856 9.40457E-03 8.13949E-04-2.55832E-14
 -1      2857 9.35805E-03 7.72163E-04-2.52557E-14
 -1      2858 9.91542E-03 7.52146E-04-2.84268E-14
 -1      2859 9.74994E-03 7.63448E-04-2.74696E-14
 -1      2860 9.70431E-03 7.19263E-04-2.71342E-14
 -1      2861 1.02361E-02 7.51926E-04-3.03737E-14
 -1      2862 1.00774E-02 7.48904E-04-2.93958E-14
 -1      2863 1.00278E-02 7.03799E-04-2.90568E-14
 -1      2864 1.05464E-02 7.73483E-04-3.23553E-14
 -1      2865 1.03923E-02 7.60524E-04-3.13585E-14
 -1      2866 1.03363E-02 7.14619E-04-3.10162E-14
 -1      2867 1.08501E-02 8.09594E-04-3.43753E-14
 -1      2868 1.06989E-02 7.90096E-04-3.33610E-14
 -1      2869 1.06361E-02 7.43252E-04-3.30108E-14
 -1      2870 1.11493E-02 8.54906E-04-3.64416E-14
 -1      2871 1.10001E-02 8.31359E-04-3.54037E-14
 -1      2872 1.09309E-02 7.83567E-04-3.50456E-14
 -1      2873 1.14456E-02 9.05601E-04-3.85529E-14
 -1      2874 1.12977E-02 8.79756E-04-3.74911E-14
 -1      2875 1.12231E-02 8.31166E-04-3.71253E-14
 -1      2876 1.17395E-02 9.59059E-04-4.07065E-14
 -1      2877 1.15927E-02 9.32101E-04-3.96242E-14
 -1      2878 1.15137E-02 8.82938E-04-3.92495E-14
 -1      2879 1.20317E-02 1.01355E-03-4.29044E-14
 -1      2880 1.18858E-02 9.86251E-04-4.18003E-14
 -1      2881 1.18032E-02 9.36743E-04-4.14142E-14
 -1      2882 1.23224E-02 1.06801E-03-4.51438E-14
 -1      2883 1.21772E-02 1.04083E-03-4.40186E-14
 -1      2884 1.20920E-02 9.91168E-04-4.36241E-14
 -1      2885 1.26120E-02 1.12178E-03-4.74231E-14
 -1      2886 1.24673E-02 1.09500E-03-4.62782E-14
 -1      2887 1.23802E-02 1.04533E-03-4.58742E-14
 -1      2888 1.29006E-02 1.17455E-03-4.97396E-14
 -1      2889 1.27564E-02 1.14830E-03-4.85785E-14
 -1      2890 1.26679E-02 1.09871E-03-4.81616E-14
 -1      2891 1.31885E-02 1.22619E-03-5.20831E-14
 -1      2892 1.30446E-02 1.20052E-03-5.09075E-14
 -1      2893 1.29552E-02 1.15106E-03-5.04819E-14
 -1      2894 1.34758E-02 1.27670E-03-5.44502E-14
 -1      2895 1.33322E-02 1.25159E-03-5.32646E-14
 -1      2896 1.32421E-02 1.20229E-03-5.28304E-14
 -1      2897 1.37626E-02 1.32614E-03-5.68392E-14
 -1      2898 1.36193E-02 1.30155E-03-5.56435E-14
 -1      2899 1.35287E-02 1.25242E-03-5.52033E-14
 -1      2900 1.40491E-02 1.37464E-03-5.92452E-14
 -1      2901 1.39059E-02 1.35050E-03-5.80391E-14
 -1      2902 1.38151E-02 1.30153E-03-5.75923E-14
 -1      2903 1.43353E-02 1.42231E-03-6.16736E-14
 -1      2904 1.41922E-02 1.39857E-03-6.04574E-14
 -1      2905 1.41013E-02 1.34974E-03-5.99998E-14
 -1      2906 1.45854E-02 1.45612E-03-6.38852E-14
 -1      2907 1.44424E-02 1.43268E-03-6.26604E-14
 -1      2908 1.43514E-02 1.38399E-03-6.21925E-14
 -1      2909 1.45655E-02 1.40456E-03-6.41617E-14
 -1      2910 1.43415E-02 1.00164E-03-6.55414E-14
 -1      2911 1.43634E-02 1.04292E-03-6.53887E-14
 -1      2912 1.39987E-02 5.18861E-04-6.64177E-14
 -1      2913 1.40949E-02 5.32409E-04-6.72367E-14
 -1      2914 1.39465E-02 5.45141E-04-6.56853E-14
 -1      2915 1.44289E-02 1.16697E-03-6.49307E-14
 -1      2916 1.44507E-02 1.20843E-03-6.47804E-14
 -1      2917 1.42975E-02 9.19067E-04-6.58405E-14
 -1      2918 1.43195E-02 9.60358E-04-6.56936E-14
 -1      2919 1.42072E-02 9.61673E-04-6.45741E-14
 -1      2920 1.43852E-02 1.08423E-03-6.52367E-14
 -1      2921 1.44071E-02 1.12558E-03-6.50840E-14
 -1      2922 1.42946E-02 1.12646E-03-6.39619E-14
 -1      2923 1.42510E-02 1.04400E-03-6.42690E-14
 -1      2924 1.70331E-03 4.24859E-04-8.69381E-16
 -1      2925 1.56041E-03 4.12208E-04-7.23773E-16
 -1      2926 1.76409E-03 3.94659E-04-9.89782E-16
 -1      2927 9.59681E-03 4.56379E-04-2.48692E-14
 -1      2928 9.73267E-03 4.08798E-04-2.52362E-14
 -1      2929 1.42542E-02 8.37802E-04-6.61353E-14
 -1      2930 1.42759E-02 8.78454E-04-6.59883E-14
 -1      2931 1.41636E-02 8.80036E-04-6.48740E-14
 -1      2932 1.42100E-02 7.54932E-04-6.64312E-14
 -1      2933 1.42321E-02 7.96399E-04-6.62831E-14
 -1      2934 1.41198E-02 7.98255E-04-6.51692E-14
 -1      2935 1.41659E-02 6.71774E-04-6.67260E-14
 -1      2936 1.41880E-02 7.13392E-04-6.65772E-14
 -1      2937 1.40755E-02 7.15510E-04-6.54622E-14
 -1      2938 1.41388E-02 5.72241E-04-6.73213E-14
 -1      2939 8.28603E-04-2.60228E-04-3.49994E-16
 -1      2940 9.60308E-04-2.94315E-04-4.48155E-16
 -1      2941 8.18054E-04-2.33745E-04-3.53884E-16
 -1      2942 5.76189E-03 1.51906E-05-1.43605E-14
 -1      2943 5.60746E-03 7.09786E-05-1.40860E-14
 -1      2944 5.30799E-03 1.48220E-04-1.33417E-14
 -1      2945 5.27056E-03 1.56441E-04-1.31883E-14
 -1      2946 7.47003E-03-7.41424E-04-1.96370E-14
 -1      2947 7.31716E-03-7.27576E-04-1.89134E-14
 -1      2948 2.55999E-03 4.54226E-04-2.05567E-15
 -1      2949 2.41700E-03 4.53623E-04-1.82039E-15
 -1      2950 2.33660E-03 4.16615E-04-1.76252E-15
 -1      2951 2.62291E-03 4.17820E-04-2.23851E-15
 -1      2952 1.06893E-03-3.14330E-04-5.42047E-16
 -1      2953 1.21241E-03-3.38055E-04-6.79537E-16
 -1      2954 1.27381E-03-3.15525E-04-7.62750E-16
 -1      2955 1.05657E-03-2.84301E-04-5.46736E-16
 -1      2956 7.84581E-04 1.20011E-04-2.95662E-16
 -1      2957 7.82022E-04 9.70969E-05-3.06030E-16
 -1      2958 8.99309E-04 9.62741E-05-3.94880E-16
 -1      2959 9.05500E-04 1.47151E-04-3.70052E-16
 -1      2960 1.41737E-03 3.96402E-04-5.92096E-16
 -1      2961 1.27403E-03 3.77185E-04-4.74474E-16
 -1      2962 1.19063E-03 3.32866E-04-4.49808E-16
 -1      2963 1.47748E-03 3.70004E-04-6.91206E-16
 -1      2964 7.81709E-04-9.50667E-05-3.55008E-16
 -1      2965 7.84184E-04-1.17903E-04-3.55862E-16
 -1      2966 9.84082E-03 3.20554E-04-2.59050E-14
 -1      2967 9.73884E-03 2.98181E-04-2.58080E-14
 -1      2968 9.93008E-03 3.46140E-04-2.59415E-14
 -1      2969 9.91382E-03 3.38723E-04-2.60201E-14
 -1      2970 9.24191E-03 1.20056E-04-2.53286E-14
 -1      2971 9.03588E-03 2.69734E-05-2.48472E-14
 -1      2972 8.47604E-03-2.81194E-04-2.33031E-14
 -1      2973 8.31353E-03-3.82425E-04-2.28305E-14
 -1      2974 8.23976E-03-4.36272E-04-2.28456E-14
 -1      2975 6.11909E-03-1.50765E-04-1.50239E-14
 -1      2976 5.94435E-03-6.65102E-05-1.46654E-14
 -1      2977 8.86273E-03 7.95458E-04-2.24701E-14
 -1      2978 9.02933E-03 7.03249E-04-2.30066E-14
 -1      2979 5.75882E-03 3.13877E-04-1.34906E-14
 -1      2980 5.94822E-03 3.94311E-04-1.36712E-14
 -1      2981 5.47805E-03 2.19274E-04-1.32498E-14
 -1      2982 5.59892E-03 2.54700E-04-1.33682E-14
 -1      2983 5.28345E-03 1.70228E-04-1.30620E-14
 -1      2984 5.35090E-03 1.84832E-04-1.30690E-14
 -1      2985 5.49844E-03 1.05300E-04-1.38720E-14
 -1      2986 5.40570E-03 1.27056E-04-1.36591E-14
 -1      2987 5.53806E-03 7.47424E-05-1.36991E-14
 -1      2988 6.47192E-03-3.36705E-04-1.58982E-14
 -1      2989 6.32469E-03-2.56539E-04-1.55090E-14
 -1      2990 7.16905E-03-6.86971E-04-1.82704E-14
 -1      2991 7.05416E-03-6.40440E-04-1.78056E-14
 -1      2992 6.92434E-03-5.98875E-04-1.73060E-14
 -1      2993 7.22640E-03-7.17259E-04-1.85580E-14
 -1      2994 6.18624E-03 5.11843E-04-1.40005E-14
 -1      2995 6.38438E-03 6.22235E-04-1.43101E-14
 -1      2996 7.81026E-03-6.63288E-04-2.11487E-14
 -1      2997 7.67745E-03-7.10960E-04-2.05820E-14
 -1      2998 8.03592E-04 2.73345E-04-1.97433E-16
 -1      2999 6.61305E-03 7.60973E-04-1.46954E-14
 -1      3000 6.82442E-03 9.00144E-04-1.51288E-14
 -1      3001 8.83606E-03-7.40805E-05-2.42744E-14
 -1      3002 8.67706E-03-1.63123E-04-2.38644E-14
 -1      3003 8.57504E-03-2.33122E-04-2.38787E-14
 -1      3004 8.96147E-03-2.26244E-05-2.50218E-14
 -1      3005 9.83337E-03 3.74219E-04-2.54674E-14
 -1      3006 9.89710E-03 3.59190E-04-2.57030E-14
 -1      3007 9.61728E-03 2.62456E-04-2.58056E-14
 -1      3008 9.47696E-03 2.15343E-04-2.56965E-14
 -1      3009 9.20657E-03 6.13190E-04-2.35649E-14
 -1      3010 9.38085E-03 5.37536E-04-2.41288E-14
 -1      3011 9.14576E-03 6.69354E-04-2.35805E-14
 -1      3012 7.87397E-04-1.41606E-04-3.55727E-16
 -1      3013 7.91402E-04-1.66413E-04-3.54399E-16
 -1      3014 9.04964E-04-1.44662E-04-4.50798E-16
 -1      3015 8.94693E-04 1.01214E-06-4.29656E-16
 -1      3016 7.77211E-04-9.38143E-06-3.41429E-16
 -1      3017 7.77616E-04-3.03378E-05-3.45982E-16
 -1      3018 6.56566E-03-4.14189E-04-1.60773E-14
 -1      3019 9.37880E-03 1.69321E-04-2.59741E-14
 -1      3020 9.29282E-03 1.16797E-04-2.62495E-14
 -1      3021 9.50525E-03 2.04473E-04-2.66251E-14
 -1      3022 1.43380E-02 1.20882E-03-6.36512E-14
 -1      3023 1.44724E-02 1.24961E-03-6.46263E-14
 -1      3024 1.44941E-02 1.29086E-03-6.44723E-14
 -1      3025 7.92417E-03-6.16111E-04-2.17314E-14
 -1      3026 9.82012E-03 4.01343E-04-2.58693E-14
 -1      3027 7.05652E-03 1.05895E-03-1.55792E-14
 -1      3028 7.56154E-03-7.37546E-04-2.01371E-14
 -1      3029 8.84589E-03 9.74650E-04-2.28492E-14
 -1      3030 8.65321E-03 1.04969E-03-2.19685E-14
 -1      3031 1.45188E-02 1.32694E-03-6.43971E-14
 -1      3032 1.45406E-02 1.36835E-03-6.42400E-14
 -1      3033 1.44336E-02 1.35812E-03-6.32574E-14
 -1      3034 1.43842E-02 1.28594E-03-6.34169E-14
 -1      3035 9.52906E-03 4.99362E-04-2.48842E-14
 -1      3036 9.66352E-03 4.78021E-04-2.56495E-14
 -1      3037 9.46755E-03 5.47775E-04-2.49005E-14
 -1      3038 1.41606E-02 6.14078E-04-6.71744E-14
 -1      3039 1.40479E-02 6.16453E-04-6.60554E-14
 -1      3040 5.32623E-03 1.29831E-04-1.31738E-14
 -1      3041 5.81301E-03-3.27585E-05-1.42092E-14
 -1      3042 6.17559E-03-2.09733E-04-1.49842E-14
 -1      3043 5.23905E-03 1.57131E-04-1.27376E-14
 -1      3044 8.64956E-03 9.73088E-04-2.18909E-14
 -1      3045 7.78481E-04-5.14575E-05-3.49886E-16
 -1      3046 7.79821E-04-7.30170E-05-3.52921E-16
 -1      3047 8.98980E-04-9.39470E-05-4.48114E-16
 -1      3048 8.95699E-04-4.58776E-05-4.40742E-16
 -1      3049 6.91297E-03 9.65759E-04-1.51815E-14
 -1      3050 5.37763E-03 1.96022E-04-1.27885E-14
 -1      3051 5.65996E-03 2.84718E-04-1.30854E-14
 -1      3052 9.94692E-03 3.59004E-04-2.63437E-14
 -1      3053 9.90507E-03 3.35055E-04-2.64684E-14
 -1      3054 9.71104E-03 2.85064E-04-2.63493E-14
 -1      3055 6.03691E-03 4.48077E-04-1.35259E-14
 -1      3056 8.65525E-04 2.61155E-04-2.52335E-16
 -1      3057 9.83721E-04 2.69377E-04-3.36455E-16
 -1      3058 6.78354E-03 8.97377E-04-1.46602E-14
 -1      3059 6.48542E-03 6.96559E-04-1.42276E-14
 -1      3060 8.98344E-03 8.75412E-04-2.34270E-14
 -1      3061 1.04091E-03 2.36653E-04-4.13772E-16
 -1      3062 1.03405E-03 2.05386E-04-4.34182E-16
 -1      3063 1.73226E-03-3.25489E-04-1.35533E-15
 -1      3064 1.87588E-03-3.33447E-04-1.56858E-15
 -1      3065 2.01945E-03-3.39479E-04-1.79796E-15
 -1      3066 2.16300E-03-3.43731E-04-2.04322E-15
 -1      3067 1.93944E-03-3.01861E-04-1.68316E-15
 -1      3068 2.30649E-03-3.46480E-04-2.30396E-15
 -1      3069 2.44991E-03-3.47849E-04-2.58046E-15
 -1      3070 2.22660E-03-3.09873E-04-2.17072E-15
 -1      3071 2.59326E-03-3.48073E-04-2.87364E-15
 -1      3072 2.73656E-03-3.47256E-04-3.18281E-15
 -1      3073 2.51341E-03-3.12435E-04-2.72185E-15
 -1      3074 2.87980E-03-3.45600E-04-3.50715E-15
 -1      3075 3.02301E-03-3.43200E-04-3.84808E-15
 -1      3076 2.79968E-03-3.10813E-04-3.33651E-15
 -1      3077 3.16620E-03-3.40241E-04-4.20502E-15
 -1      3078 3.30942E-03-3.36820E-04-4.57703E-15
 -1      3079 3.08537E-03-3.06109E-04-4.01393E-15
 -1      3080 3.45268E-03-3.33120E-04-4.96495E-15
 -1      3081 3.59606E-03-3.29255E-04-5.36786E-15
 -1      3082 3.37058E-03-2.99335E-04-4.75542E-15
 -1      3083 3.73960E-03-3.25418E-04-5.78593E-15
 -1      3084 3.88341E-03-3.21761E-04-6.21931E-15
 -1      3085 3.65556E-03-2.91516E-04-5.55689E-15
 -1      3086 4.02757E-03-3.18497E-04-6.66761E-15
 -1      3087 4.17225E-03-3.15844E-04-7.13104E-15
 -1      3088 3.94080E-03-2.83788E-04-6.41861E-15
 -1      3089 4.31757E-03-3.14035E-04-7.60984E-15
 -1      3090 4.46376E-03-3.13397E-04-8.10331E-15
 -1      3091 4.22719E-03-2.77527E-04-7.34136E-15
 -1      3092 4.61106E-03-3.14176E-04-8.61041E-15
 -1      3093 4.75974E-03-3.16860E-04-9.13271E-15
 -1      3094 4.51614E-03-2.74500E-04-8.32315E-15
 -1      3095 4.91017E-03-3.21696E-04-9.67037E-15
 -1      3096 5.06263E-03-3.29408E-04-1.02230E-14
 -1      3097 4.80980E-03-2.77063E-04-9.36420E-15
 -1      3098 5.21768E-03-3.40243E-04-1.07908E-14
 -1      3099 5.37544E-03-3.55145E-04-1.13731E-14
 -1      3100 5.11126E-03-2.88486E-04-1.04642E-14
 -1      3101 5.53658E-03-3.74297E-04-1.19699E-14
 -1      3102 5.70092E-03-3.98939E-04-1.25830E-14
 -1      3103 5.42437E-03-3.13337E-04-1.16240E-14
 -1      3104 5.86917E-03-4.29171E-04-1.32131E-14
 -1      3105 6.04019E-03-4.65559E-04-1.38583E-14
 -1      3106 5.75292E-03-3.57932E-04-1.28455E-14
 -1      3107 6.21495E-03-5.07690E-04-1.45199E-14
 -1      3108 6.39054E-03-5.55356E-04-1.51992E-14
 -1      3109 6.09910E-03-4.28375E-04-1.41293E-14
 -1      3110 6.56680E-03-6.07235E-04-1.58975E-14
 -1      3111 6.74133E-03-6.59281E-04-1.66128E-14
 -1      3112 6.45866E-03-5.27627E-04-1.54811E-14
 -1      3113 7.25913E-03-7.64578E-04-1.88876E-14
 -1      3114 7.42301E-03-7.73306E-04-1.96850E-14
 -1      3115 7.61001E-03-7.52194E-04-2.06295E-14
 -1      3116 7.77573E-03-7.11874E-04-2.14704E-14
 -1      3117 8.23035E-03-5.50444E-04-2.39543E-14
 -1      3118 8.40505E-03-4.75912E-04-2.48658E-14
 -1      3119 8.58183E-03-4.01891E-04-2.57927E-14
 -1      3120 8.75714E-03-3.32061E-04-2.67356E-14
 -1      3121 8.53339E-03-3.84820E-04-2.52436E-14
 -1      3122 8.93129E-03-2.67645E-04-2.76932E-14
 -1      3123 9.10200E-03-2.09232E-04-2.86618E-14
 -1      3124 8.89230E-03-2.41780E-04-2.71260E-14
 -1      3125 9.26984E-03-1.57087E-04-2.96427E-14
 -1      3126 9.43376E-03-1.10329E-04-3.06354E-14
 -1      3127 9.23718E-03-1.27375E-04-2.90617E-14
 -1      3128 9.59453E-03-6.88906E-05-3.16385E-14
 -1      3129 9.75190E-03-3.16252E-05-3.26515E-14
 -1      3130 9.56467E-03-3.87505E-05-3.10442E-14
 -1      3131 9.90657E-03 1.65006E-06-3.36753E-14
 -1      3132 1.00587E-02 3.19019E-05-3.47097E-14
 -1      3133 9.87674E-03 3.08199E-05-3.30683E-14
 -1      3134 1.02089E-02 5.93542E-05-3.57523E-14
 -1      3135 1.03573E-02 8.47013E-05-3.68066E-14
 -1      3136 1.01773E-02 8.73361E-05-3.51319E-14
 -1      3137 1.05044E-02 1.08181E-04-3.78694E-14
 -1      3138 1.06503E-02 1.30263E-04-3.89403E-14
 -1      3139 1.04702E-02 1.35228E-04-3.72327E-14
 -1      3140 1.07954E-02 1.51171E-04-4.00208E-14
 -1      3141 1.09399E-02 1.71211E-04-4.11082E-14
 -1      3142 1.07583E-02 1.77628E-04-3.93738E-14
 -1      3143 1.10838E-02 1.90580E-04-4.22027E-14
 -1      3144 1.12273E-02 2.09472E-04-4.33033E-14
 -1      3145 1.10439E-02 2.16732E-04-4.15447E-14
 -1      3146 1.13706E-02 2.28047E-04-4.44096E-14
 -1      3147 1.15137E-02 2.46424E-04-4.55210E-14
 -1      3148 1.13281E-02 2.54082E-04-4.37435E-14
 -1      3149 1.16566E-02 2.64725E-04-4.66373E-14
 -1      3150 1.17995E-02 2.83021E-04-4.77619E-14
 -1      3151 1.16118E-02 2.90747E-04-4.59640E-14
 -1      3152 1.19422E-02 3.01394E-04-4.88922E-14
 -1      3153 1.20850E-02 3.19885E-04-5.00296E-14
 -1      3154 1.18956E-02 3.27449E-04-4.82086E-14
 -1      3155 1.22277E-02 3.38545E-04-5.11770E-14
 -1      3156 1.23704E-02 3.57393E-04-5.23291E-14
 -1      3157 1.21796E-02 3.64642E-04-5.04865E-14
 -1      3158 1.25132E-02 3.76458E-04-5.34880E-14
 -1      3159 1.26559E-02 3.95743E-04-5.46535E-14
 -1      3160 1.24638E-02 4.02590E-04-5.27897E-14
 -1      3161 1.27986E-02 4.15261E-04-5.58245E-14
 -1      3162 1.29414E-02 4.35006E-04-5.70005E-14
 -1      3163 1.27484E-02 4.41413E-04-5.51190E-14
 -1      3164 1.30842E-02 4.54978E-04-5.81818E-14
 -1      3165 1.32270E-02 4.75168E-04-5.93664E-14
 -1      3166 1.30333E-02 4.81133E-04-5.74692E-14
 -1      3167 1.33698E-02 4.95568E-04-6.05559E-14
 -1      3168 1.35126E-02 5.16168E-04-6.17458E-14
 -1      3169 1.33184E-02 5.21713E-04-5.98379E-14
 -1      3170 1.36554E-02 5.36953E-04-6.29409E-14
 -1      3171 1.37982E-02 5.57912E-04-6.41394E-14
 -1      3172 1.36037E-02 5.63078E-04-6.22180E-14
 -1      3173 3.25781E-03 3.70412E-04-3.59826E-15
 -1      3174 3.11483E-03 3.74191E-04-3.28271E-15
 -1      3175 2.97184E-03 3.77366E-04-2.98161E-15
 -1      3176 2.82877E-03 3.79846E-04-2.69596E-15
 -1      3177 3.03350E-03 3.40624E-04-3.19226E-15
 -1      3178 3.82914E-03 3.52596E-04-5.01408E-15
 -1      3179 3.68635E-03 3.57145E-04-4.63747E-15
 -1      3180 4.11459E-03 3.44598E-04-5.81646E-15
 -1      3181 3.97183E-03 3.48359E-04-5.40724E-15
 -1      3182 3.88330E-03 3.16513E-04-5.28570E-15
 -1      3183 4.40027E-03 3.39794E-04-6.68370E-15
 -1      3184 4.25732E-03 3.41660E-04-6.24194E-15
 -1      3185 4.16410E-03 3.09308E-04-6.10884E-15
 -1      3186 4.68710E-03 3.40943E-04-7.61480E-15
 -1      3187 4.54340E-03 3.39421E-04-7.14127E-15
 -1      3188 4.44386E-03 3.05384E-04-6.99634E-15
 -1      3189 4.97705E-03 3.51778E-04-8.60648E-15
 -1      3190 4.83145E-03 3.44830E-04-8.10322E-15
 -1      3191 4.72343E-03 3.07207E-04-7.94709E-15
 -1      3192 5.27401E-03 3.77463E-04-9.65824E-15
 -1      3193 5.12428E-03 3.62236E-04-9.12490E-15
 -1      3194 5.00501E-03 3.18059E-04-8.95777E-15
 -1      3195 5.58480E-03 4.25538E-04-1.07688E-14
 -1      3196 5.42714E-03 3.97752E-04-1.02057E-14
 -1      3197 5.29298E-03 3.42583E-04-1.00275E-14
 -1      3198 5.91939E-03 5.07587E-04-1.19388E-14
 -1      3199 5.74849E-03 4.60694E-04-1.13468E-14
 -1      3200 5.59556E-03 3.88122E-04-1.11554E-14
 -1      3201 6.57889E-03 7.87720E-04-1.39943E-14
 -1      3202 9.49839E-03 6.93208E-04-2.58541E-14
 -1      3203 9.32168E-03 7.26797E-04-2.49256E-14
 -1      3204 1.04328E-02 6.81842E-04-3.16608E-14
 -1      3205 1.02861E-02 6.69498E-04-3.06703E-14
 -1      3206 1.07222E-02 7.16406E-04-3.36688E-14
 -1      3207 1.05780E-02 6.97762E-04-3.26601E-14
 -1      3208 1.05244E-02 6.53466E-04-3.23091E-14
 -1      3209 1.10089E-02 7.60005E-04-3.57180E-14
 -1      3210 1.08657E-02 7.37312E-04-3.46874E-14
 -1      3211 1.08042E-02 6.92562E-04-3.43283E-14
 -1      3212 1.12945E-02 8.09203E-04-3.78097E-14
 -1      3213 1.11517E-02 7.84062E-04-3.67581E-14
 -1      3214 1.10834E-02 7.38478E-04-3.63905E-14
 -1      3215 1.15801E-02 8.61551E-04-3.99470E-14
 -1      3216 1.14373E-02 8.35089E-04-3.88733E-14
 -1      3217 1.13634E-02 7.88625E-04-3.84980E-14
 -1      3218 1.18658E-02 9.15339E-04-4.21255E-14
 -1      3219 1.17229E-02 8.88334E-04-4.10304E-14
 -1      3220 1.16446E-02 8.41110E-04-4.06461E-14
 -1      3221 1.21516E-02 9.69427E-04-4.43446E-14
 -1      3222 1.20086E-02 9.42389E-04-4.32296E-14
 -1      3223 1.19269E-02 8.94583E-04-4.28352E-14
 -1      3224 1.24375E-02 1.02310E-03-4.66043E-14
 -1      3225 1.22945E-02 9.96341E-04-4.54704E-14
 -1      3226 1.22102E-02 9.48130E-04-4.50657E-14
 -1      3227 1.27236E-02 1.07595E-03-4.88998E-14
 -1      3228 1.25805E-02 1.04964E-03-4.77477E-14
 -1      3229 1.24942E-02 1.00117E-03-4.73360E-14
 -1      3230 1.30096E-02 1.12777E-03-5.12249E-14
 -1      3231 1.28666E-02 1.10199E-03-5.00593E-14
 -1      3232 1.27788E-02 1.05338E-03-4.96359E-14
 -1      3233 1.32956E-02 1.17851E-03-5.35764E-14
 -1      3234 1.31526E-02 1.15328E-03-5.23995E-14
 -1      3235 1.30637E-02 1.10461E-03-5.19675E-14
 -1      3236 1.35816E-02 1.22822E-03-5.59509E-14
 -1      3237 1.34386E-02 1.20349E-03-5.47605E-14
 -1      3238 1.33490E-02 1.15482E-03-5.43218E-14
 -1      3239 1.38675E-02 1.27696E-03-5.83410E-14
 -1      3240 1.37246E-02 1.25270E-03-5.71434E-14
 -1      3241 1.36344E-02 1.20406E-03-5.66967E-14
 -1      3242 1.41534E-02 1.32487E-03-6.07521E-14
 -1      3243 1.40105E-02 1.30102E-03-5.95442E-14
 -1      3244 1.39200E-02 1.25242E-03-5.90888E-14
 -1      3245 1.43471E-02 1.34678E-03-6.24933E-14
 -1      3246 1.42400E-02 1.33637E-03-6.15144E-14
 -1      3247 1.41493E-02 1.28783E-03-6.10535E-14
 -1      3248 1.43223E-02 1.31067E-03-6.25754E-14
 -1      3249 1.01559E-03 6.57801E-05-5.07935E-16
 -1      3250 1.01426E-03 3.97535E-05-5.18384E-16
 -1      3251 1.82598E-03 3.63925E-04-1.11381E-15
 -1      3252 1.68249E-03 3.54660E-04-9.47064E-16
 -1      3253 1.40730E-02 9.21845E-04-6.36114E-14
 -1      3254 1.40950E-02 9.62858E-04-6.34581E-14
 -1      3255 1.39410E-02 6.76240E-04-6.44926E-14
 -1      3256 1.39631E-02 7.17601E-04-6.43484E-14
 -1      3257 1.40297E-02 8.41154E-04-6.39066E-14
 -1      3258 1.40514E-02 8.81517E-04-6.37581E-14
 -1      3259 1.39393E-02 8.82870E-04-6.26471E-14
 -1      3260 9.10734E-03 7.23152E-04-2.36540E-14
 -1      3261 9.26587E-03 6.43490E-04-2.42213E-14
 -1      3262 5.29988E-03 1.84698E-04-1.23331E-14
 -1      3263 5.42080E-03 2.15376E-04-1.25066E-14
 -1      3264 5.55013E-03 4.59545E-05-1.34619E-14
 -1      3265 5.45272E-03 7.70689E-05-1.32539E-14
 -1      3266 8.65417E-03 9.39044E-04-2.18318E-14
 -1      3267 8.76528E-03 8.56013E-04-2.21712E-14
 -1      3268 7.99740E-04-1.87082E-04-3.55659E-16
 -1      3269 8.07812E-04-2.10724E-04-3.54521E-16
 -1      3270 9.37153E-04-2.40444E-04-4.53671E-16
 -1      3271 9.17740E-04-1.93496E-04-4.52234E-16
 -1      3272 1.39854E-02 7.58865E-04-6.42012E-14
 -1      3273 1.40075E-02 8.00045E-04-6.40533E-14
 -1      3274 1.38955E-02 8.01744E-04-6.29438E-14
 -1      3275 1.38509E-02 7.19644E-04-6.32378E-14
 -1      3276 9.82892E-03 6.61470E-04-2.77520E-14
 -1      3277 9.66734E-03 6.73162E-04-2.67979E-14
 -1      3278 9.63906E-03 6.24094E-04-2.64599E-14
 -1      3279 8.19355E-03 1.20923E-03-1.99897E-14
 -1      3280 3.54358E-03 3.61728E-04-4.27578E-15
 -1      3281 3.40070E-03 3.66225E-04-3.92870E-15
 -1      3282 3.31789E-03 3.33541E-04-3.82913E-15
 -1      3283 3.60120E-03 3.25092E-04-4.52649E-15
 -1      3284 2.11277E-03 3.76156E-04-1.49124E-15
 -1      3285 1.96939E-03 3.71036E-04-1.29528E-15
 -1      3286 1.88869E-03 3.32750E-04-1.24202E-15
 -1      3287 6.63000E-03-4.83885E-04-1.62066E-14
 -1      3288 6.44418E-03-3.88672E-04-1.55940E-14
 -1      3289 1.01372E-02 6.61140E-04-2.96881E-14
 -1      3290 9.98513E-03 6.58358E-04-2.87142E-14
 -1      3291 1.02415E-02 6.24792E-04-3.03222E-14
 -1      3292 6.21284E-03-2.70858E-04-1.49062E-14
 -1      3293 6.03240E-03-1.79060E-04-1.44344E-14
 -1      3294 1.44525E-03-3.02677E-04-9.75836E-16
 -1      3295 1.58872E-03-3.15292E-04-1.15768E-15
 -1      3296 1.65225E-03-2.86925E-04-1.25777E-15
 -1      3297 8.88513E-03 8.15634E-04-2.27176E-14
 -1      3298 9.80458E-03 3.05683E-04-2.69026E-14
 -1      3299 9.70163E-03 2.74185E-04-2.68994E-14
 -1      3300 9.96260E-03 3.45587E-04-2.70744E-14
 -1      3301 9.88923E-03 3.28648E-04-2.69572E-14
 -1      3302 8.34287E-03-3.90509E-04-2.35019E-14
 -1      3303 8.20785E-03-4.73634E-04-2.30281E-14
 -1      3304 5.19681E-03 1.43205E-04-1.23897E-14
 -1      3305 5.20691E-03 1.56089E-04-1.22662E-14
 -1      3306 6.38133E-03 6.65089E-04-1.36226E-14
 -1      3307 1.14591E-03 3.02526E-04-4.42260E-16
 -1      3308 1.08312E-03 2.64418E-04-4.24723E-16
 -1      3309 1.20210E-03 2.64788E-04-5.32994E-16
 -1      3310 1.28919E-03 3.22899E-04-5.54854E-16
 -1      3311 9.96665E-03 3.74678E-04-2.68073E-14
 -1      3312 9.99390E-03 3.63198E-04-2.70497E-14
 -1      3313 5.54777E-03 2.57454E-04-1.26137E-14
 -1      3314 5.68813E-03 3.09977E-04-1.27285E-14
 -1      3315 5.85351E-03-8.59878E-05-1.40491E-14
 -1      3316 5.69765E-03-1.25000E-05-1.37544E-14
 -1      3317 5.58986E-03-2.52572E-06-1.33066E-14
 -1      3318 9.84035E-03 4.27026E-04-2.64343E-14
 -1      3319 9.91937E-03 3.97263E-04-2.66707E-14
 -1      3320 7.06422E-03-7.45558E-04-1.80239E-14
 -1      3321 7.15839E-03-7.23581E-04-1.83362E-14
 -1      3322 7.02144E-03-6.76105E-04-1.77098E-14
 -1      3323 6.89555E-03-7.04205E-04-1.72707E-14
 -1      3324 7.93281E-03-6.32570E-04-2.20326E-14
 -1      3325 7.93751E-03-6.66403E-04-2.24089E-14
 -1      3326 8.10790E-03-5.98624E-04-2.32889E-14
 -1      3327 8.09460E-03-5.44618E-04-2.26861E-14
 -1      3328 6.12651E-03 5.17023E-04-1.32585E-14
 -1      3329 6.22952E-03 6.11624E-04-1.30293E-14
 -1      3330 6.04369E-03 5.41129E-04-1.24076E-14
 -1      3331 5.91426E-03 4.12460E-04-1.29421E-14
 -1      3332 5.33240E-03 1.10209E-04-1.29433E-14
 -1      3333 5.24312E-03 1.27581E-04-1.26341E-14
 -1      3334 5.33368E-03 8.50982E-05-1.27128E-14
 -1      3335 1.01358E-03 1.39635E-05-5.27519E-16
 -1      3336 1.01353E-03-1.17211E-05-5.35149E-16
 -1      3337 1.13373E-03 2.90300E-05-6.34028E-16
 -1      3338 6.80026E-03-6.37823E-04-1.68302E-14
 -1      3339 9.62737E-03 2.39175E-04-2.71801E-14
 -1      3340 9.55663E-03 1.97478E-04-2.74591E-14
 -1      3341 9.73898E-03 2.64930E-04-2.77382E-14
 -1      3342 1.22785E-03-2.79744E-04-7.28868E-16
 -1      3343 1.33648E-03-2.92065E-04-8.47683E-16
 -1      3344 1.40010E-03-2.67555E-04-9.34704E-16
 -1      3345 5.17481E-03 1.28586E-04-1.21669E-14
 -1      3346 1.42038E-02 1.16825E-03-6.26825E-14
 -1      3347 1.42253E-02 1.20924E-03-6.25244E-14
 -1      3348 9.35532E-03 6.67007E-04-2.49035E-14
 -1      3349 9.19791E-03 7.58105E-04-2.43161E-14
 -1      3350 8.22541E-03-5.17465E-04-2.36527E-14
 -1      3351 5.77290E-03 3.70031E-04-1.24708E-14
 -1      3352 2.25607E-03 3.79591E-04-1.70217E-15
 -1      3353 2.17567E-03 3.42599E-04-1.64006E-15
 -1      3354 2.39933E-03 3.81473E-04-1.92848E-15
 -1      3355 1.04489E-03-2.57999E-04-5.47603E-16
 -1      3356 2.74823E-03 3.45239E-04-2.61480E-15
 -1      3357 2.68568E-03 3.81440E-04-2.42485E-15
 -1      3358 2.54252E-03 3.82053E-04-2.16907E-15
 -1      3359 5.87107E-03 4.47556E-04-1.22046E-14
 -1      3360 1.38999E-02 6.28916E-04-6.45090E-14
 -1      3361 1.37875E-02 6.31291E-04-6.33982E-14
 -1      3362 9.42565E-03 5.99372E-04-2.49750E-14
 -1      3363 1.55754E-03 3.48387E-04-8.08313E-16
 -1      3364 1.41404E-03 3.34158E-04-6.68641E-16
 -1      3365 1.36995E-03 3.04715E-04-6.57189E-16
 -1      3366 1.61999E-03 3.20313E-04-9.17411E-16
 -1      3367 1.00625E-02 3.74503E-04-2.80124E-14
 -1      3368 1.00171E-02 3.59817E-04-2.75429E-14
 -1      3369 1.00282E-02 3.55817E-04-2.80379E-14
 -1      3370 9.99768E-03 3.97396E-04-2.73784E-14
 -1      3371 1.15317E-03 2.04889E-04-5.41573E-16
 -1      3372 1.02843E-03 1.75574E-04-4.52085E-16
 -1      3373 1.02395E-03 1.46912E-04-4.68348E-16
 -1      3374 5.90004E-03-1.48553E-04-1.39730E-14
 -1      3375 1.01761E-03 9.21365E-05-4.96131E-16
 -1      3376 1.13678E-03 8.51911E-05-6.09593E-16
 -1      3377 1.02035E-03 1.19070E-04-4.82904E-16
 -1      3378 6.28783E-03-3.47627E-04-1.50269E-14
 -1      3379 1.41603E-02 1.08584E-03-6.29963E-14
 -1      3380 1.41821E-02 1.12700E-03-6.28402E-14
 -1      3381 1.40695E-02 1.12738E-03-6.17184E-14
 -1      3382 1.39518E-02 6.02899E-04-6.52372E-14
 -1      3383 1.41168E-02 1.00379E-03-6.33047E-14
 -1      3384 1.41386E-02 1.04484E-03-6.31514E-14
 -1      3385 1.40263E-02 1.04542E-03-6.20340E-14
 -1      3386 1.39828E-02 9.63803E-04-6.23442E-14
 -1      3387 5.43949E-03 2.36776E-04-1.21597E-14
 -1      3388 9.04725E-03-3.54454E-06-2.57638E-14
 -1      3389 8.86459E-03-9.26056E-05-2.51822E-14
 -1      3390 8.78756E-03 9.10645E-04-2.24758E-14
 -1      3391 9.94965E-03 6.11995E-04-2.83722E-14
 -1      3392 5.21061E-03 1.66011E-04-1.19925E-14
 -1      3393 5.22423E-03 1.79814E-04-1.17196E-14
 -1      3394 5.13645E-03 1.51451E-04-1.16558E-14
 -1      3395 9.89009E-03 3.21124E-04-2.75120E-14
 -1      3396 9.79765E-03 4.57982E-04-2.64487E-14
 -1      3397 9.91781E-03 4.49598E-04-2.72545E-14
 -1      3398 9.75492E-03 4.94250E-04-2.64620E-14
 -1      3399 9.33525E-03 9.96875E-05-2.70668E-14
 -1      3400 9.19451E-03 5.36121E-05-2.64128E-14
 -1      3401 9.11050E-03-1.21395E-05-2.65727E-14
 -1      3402 6.87349E-03-6.10422E-04-1.70976E-14
 -1      3403 1.01730E-03-8.96716E-05-5.51981E-16
 -1      3404 1.01994E-03-1.16563E-04-5.55166E-16
 -1      3405 8.90149E-03 8.42159E-04-2.29096E-14
 -1      3406 8.98730E-03 7.88172E-04-2.32151E-14
 -1      3407 9.11876E-03 7.55045E-04-2.38488E-14
 -1      3408 8.89421E-03 8.81523E-04-2.29686E-14
 -1      3409 8.68812E-03-1.86969E-04-2.46207E-14
 -1      3410 8.50859E-03-2.91789E-04-2.40498E-14
 -1      3411 8.46767E-03-3.41318E-04-2.42348E-14
 -1      3412 8.79475E-03-1.57269E-04-2.53543E-14
 -1      3413 1.02342E-03-1.44227E-04-5.57077E-16
 -1      3414 1.02776E-03-1.72829E-04-5.57253E-16
 -1      3415 1.14255E-03-1.40593E-04-6.73737E-16
 -1      3416 9.08950E-03 8.15306E-04-2.38707E-14
 -1      3417 1.86016E-03-2.64734E-04-1.57030E-15
 -1      3418 2.00374E-03-2.69865E-04-1.79734E-15
 -1      3419 9.53751E-03 5.80769E-04-2.55919E-14
 -1      3420 8.20187E-03-5.05304E-04-2.33353E-14
 -1      3421 8.33065E-03-4.48209E-04-2.40051E-14
 -1      3422 2.14728E-03-2.73526E-04-2.04044E-15
 -1      3423 2.29074E-03-2.75822E-04-2.29866E-15
 -1      3424 2.06866E-03-2.37515E-04-1.91237E-15
 -1      3425 2.43405E-03-2.76959E-04-2.57276E-15
 -1      3426 2.57718E-03-2.77022E-04-2.86309E-15
 -1      3427 2.35532E-03-2.41662E-04-2.42704E-15
 -1      3428 2.72009E-03-2.76196E-04-3.16835E-15
 -1      3429 2.86279E-03-2.74548E-04-3.48956E-15
 -1      3430 2.64118E-03-2.41709E-04-3.00331E-15
 -1      3431 3.00522E-03-2.72244E-04-3.82683E-15
 -1      3432 3.14742E-03-2.69345E-04-4.17978E-15
 -1      3433 2.92588E-03-2.38558E-04-3.64272E-15
 -1      3434 3.28937E-03-2.66006E-04-4.54834E-15
 -1      3435 3.43112E-03-2.62291E-04-4.93190E-15
 -1      3436 3.20918E-03-2.33001E-04-4.34457E-15
 -1      3437 3.57265E-03-2.58352E-04-5.33053E-15
 -1      3438 3.71408E-03-2.54271E-04-5.74427E-15
 -1      3439 3.49106E-03-2.25763E-04-5.10731E-15
 -1      3440 3.85543E-03-2.50205E-04-6.17324E-15
 -1      3441 3.99684E-03-2.46277E-04-6.61699E-15
 -1      3442 3.77169E-03-2.17575E-04-5.93094E-15
 -1      3443 4.13840E-03-2.42648E-04-7.07615E-15
 -1      3444 4.28034E-03-2.39521E-04-7.55064E-15
 -1      3445 4.05156E-03-2.09250E-04-6.81450E-15
 -1      3446 4.42282E-03-2.37058E-04-8.03913E-15
 -1      3447 4.56618E-03-2.35601E-04-8.54217E-15
 -1      3448 4.33169E-03-2.01796E-04-7.75813E-15
 -1      3449 4.71070E-03-2.35308E-04-9.06051E-15
 -1      3450 4.85686E-03-2.36758E-04-9.59401E-15
 -1      3451 4.61379E-03-1.96597E-04-8.76079E-15
 -1      3452 5.00509E-03-2.40086E-04-1.01420E-14
 -1      3453 5.15603E-03-2.46309E-04-1.07050E-14
 -1      3454 4.90068E-03-1.95728E-04-9.82275E-15
 -1      3455 5.31039E-03-2.55628E-04-1.12819E-14
 -1      3456 5.46873E-03-2.69600E-04-1.18738E-14
 -1      3457 5.19664E-03-2.02658E-04-1.09428E-14
 -1      3458 5.63177E-03-2.88159E-04-1.24810E-14
 -1      3459 5.79989E-03-3.13964E-04-1.31045E-14
 -1      3460 5.50789E-03-2.23342E-04-1.21224E-14
 -1      3461 6.39138E-03-4.64509E-04-1.52552E-14
 -1      3462 6.57674E-03-5.25112E-04-1.59509E-14
 -1      3463 1.95220E-03 3.01170E-04-1.37421E-15
 -1      3464 1.80864E-03 2.94877E-04-1.18703E-15
 -1      3465 8.85769E-03-2.13300E-04-2.65609E-14
 -1      3466 9.03594E-03-1.49473E-04-2.75158E-14
 -1      3467 9.20964E-03-9.50163E-05-2.84830E-14
 -1      3468 9.37699E-03-4.73908E-05-2.94607E-14
 -1      3469 9.18746E-03-5.99088E-05-2.79050E-14
 -1      3470 9.53950E-03-6.60924E-06-3.04505E-14
 -1      3471 9.69708E-03 2.94984E-05-3.14513E-14
 -1      3472 9.51938E-03 2.79164E-05-2.98594E-14
 -1      3473 9.85077E-03 6.11395E-05-3.24614E-14
 -1      3474 1.00012E-02 8.98481E-05-3.34827E-14
 -1      3475 9.82902E-03 9.29449E-05-3.18569E-14
 -1      3476 1.01489E-02 1.15757E-04-3.45119E-14
 -1      3477 1.02945E-02 1.39824E-04-3.55526E-14
 -1      3478 1.01237E-02 1.44844E-04-3.38943E-14
 -1      3479 1.04385E-02 1.62193E-04-3.66010E-14
 -1      3480 1.05814E-02 1.83431E-04-3.76591E-14
 -1      3481 1.04094E-02 1.89203E-04-3.59711E-14
 -1      3482 1.07233E-02 2.03677E-04-3.87289E-14
 -1      3483 1.08646E-02 2.23254E-04-3.98050E-14
 -1      3484 1.06902E-02 2.29373E-04-3.80856E-14
 -1      3485 1.10056E-02 2.42298E-04-4.08880E-14
 -1      3486 1.11463E-02 2.60994E-04-4.19790E-14
 -1      3487 1.09689E-02 2.67293E-04-4.02342E-14
 -1      3488 1.12869E-02 2.79462E-04-4.30767E-14
 -1      3489 1.14275E-02 2.97804E-04-4.41810E-14
 -1      3490 1.12470E-02 3.04177E-04-4.24124E-14
 -1      3491 1.15682E-02 3.16120E-04-4.52912E-14
 -1      3492 1.17090E-02 3.34461E-04-4.64067E-14
 -1      3493 1.15256E-02 3.40817E-04-4.46175E-14
 -1      3494 1.18499E-02 3.52904E-04-4.75283E-14
 -1      3495 1.19909E-02 3.71470E-04-4.86583E-14
 -1      3496 1.18050E-02 3.77724E-04-4.68476E-14
 -1      3497 1.21321E-02 3.90213E-04-4.97962E-14
 -1      3498 1.22735E-02 4.09138E-04-5.09432E-14
 -1      3499 1.20854E-02 4.15219E-04-4.91080E-14
 -1      3500 1.24151E-02 4.28278E-04-5.20938E-14
 -1      3501 1.25568E-02 4.47626E-04-5.32508E-14
 -1      3502 1.23669E-02 4.53481E-04-5.13978E-14
 -1      3503 1.26986E-02 4.67201E-04-5.44168E-14
 -1      3504 1.28406E-02 4.86990E-04-5.55858E-14
 -1      3505 1.26493E-02 4.92588E-04-5.37143E-14
 -1      3506 1.29827E-02 5.07000E-04-5.67595E-14
 -1      3507 1.31249E-02 5.27215E-04-5.79387E-14
 -1      3508 1.29325E-02 5.32543E-04-5.60507E-14
 -1      3509 1.32672E-02 5.47634E-04-5.91204E-14
 -1      3510 1.34096E-02 5.68242E-04-6.03058E-14
 -1      3511 1.32164E-02 5.73301E-04-5.84043E-14
 -1      3512 1.35273E-02 5.89165E-04-6.12547E-14
 -1      3513 1.36698E-02 6.10102E-04-6.24465E-14
 -1      3514 1.37111E-02 6.57148E-04-6.24319E-14
 -1      3515 1.34760E-02 6.14896E-04-6.05340E-14
 -1      3516 4.21148E-03 2.75599E-04-6.40502E-15
 -1      3517 4.07392E-03 2.78430E-04-5.97496E-15
 -1      3518 3.93579E-03 2.81793E-04-5.56102E-15
 -1      3519 3.79697E-03 2.85597E-04-5.16327E-15
 -1      3520 3.98686E-03 2.48523E-04-5.83980E-15
 -1      3521 4.75612E-03 2.75115E-04-8.28256E-15
 -1      3522 4.62046E-03 2.73080E-04-7.78995E-15
 -1      3523 5.02781E-03 2.85654E-04-9.31177E-15
 -1      3524 4.89157E-03 2.79115E-04-8.78979E-15
 -1      3525 4.78537E-03 2.44604E-04-8.62040E-15
 -1      3526 5.30422E-03 3.08343E-04-1.03989E-14
 -1      3527 5.16471E-03 2.94994E-04-9.84798E-15
 -1      3528 5.04549E-03 2.54313E-04-9.66801E-15
 -1      3529 8.47794E-03-3.61909E-04-2.45598E-14
 -1      3530 1.42615E-02 1.24190E-03-6.25894E-14
 -1      3531 1.42860E-02 1.27785E-03-6.25090E-14
 -1      3532 1.41996E-02 1.26648E-03-6.17501E-14
 -1      3533 1.41272E-02 1.20111E-03-6.16218E-14
 -1      3534 1.08816E-02 6.71492E-04-3.49914E-14
 -1      3535 1.07458E-02 6.49579E-04-3.39688E-14
 -1      3536 5.34433E-03 5.23669E-05-1.25034E-14
 -1      3537 5.23770E-03 8.25519E-05-1.22028E-14
 -1      3538 1.06105E-02 6.29227E-04-3.29577E-14
 -1      3539 1.04751E-02 6.10778E-04-3.19548E-14
 -1      3540 1.06903E-02 6.08333E-04-3.36084E-14
 -1      3541 1.14297E-02 7.69302E-04-3.91867E-14
 -1      3542 1.12917E-02 7.43735E-04-3.81218E-14
 -1      3543 1.17072E-02 8.21519E-04-4.13494E-14
 -1      3544 1.15681E-02 7.95248E-04-4.02630E-14
 -1      3545 1.14931E-02 7.50804E-04-3.98793E-14
 -1      3546 1.19866E-02 8.74404E-04-4.35481E-14
 -1      3547 1.18467E-02 8.47915E-04-4.24430E-14
 -1      3548 1.17677E-02 8.02447E-04-4.20503E-14
 -1      3549 1.22678E-02 9.27221E-04-4.57885E-14
 -1      3550 1.21270E-02 9.00844E-04-4.46638E-14
 -1      3551 1.20449E-02 8.54546E-04-4.42619E-14
 -1      3552 1.25502E-02 9.79501E-04-4.80674E-14
 -1      3553 1.24088E-02 9.53441E-04-4.69246E-14
 -1      3554 1.23243E-02 9.06505E-04-4.65132E-14
 -1      3555 1.28335E-02 1.03098E-03-5.03723E-14
 -1      3556 1.26917E-02 1.00535E-03-4.92151E-14
 -1      3557 1.26054E-02 9.57941E-04-4.87966E-14
 -1      3558 1.31176E-02 1.08155E-03-5.27067E-14
 -1      3559 1.29755E-02 1.05638E-03-5.15361E-14
 -1      3560 1.28877E-02 1.00864E-03-5.11074E-14
 -1      3561 1.34022E-02 1.13118E-03-5.50641E-14
 -1      3562 1.32598E-02 1.10648E-03-5.38835E-14
 -1      3563 1.31711E-02 1.05851E-03-5.34452E-14
 -1      3564 1.36871E-02 1.17993E-03-5.74393E-14
 -1      3565 1.35446E-02 1.15566E-03-5.62483E-14
 -1      3566 1.34551E-02 1.10754E-03-5.58036E-14
 -1      3567 6.18739E-03-3.62677E-04-1.45781E-14
 -1      3568 5.33518E-03 2.20169E-04-1.17056E-14
 -1      3569 5.44806E-03 2.58900E-04-1.18060E-14
 -1      3570 9.69418E-03 5.66636E-04-2.65355E-14
 -1      3571 1.38055E-02 8.43727E-04-6.16865E-14
 -1      3572 1.38272E-02 8.83733E-04-6.15370E-14
 -1      3573 6.70529E-03-5.48198E-04-1.64474E-14
 -1      3574 5.14718E-03 1.07465E-04-1.18753E-14
 -1      3575 5.10243E-03 1.24478E-04-1.16380E-14
 -1      3576 1.01413E-03-3.74484E-05-5.41911E-16
 -1      3577 1.01537E-03-6.33461E-05-5.47590E-16
 -1      3578 1.13650E-03-8.25954E-05-6.66039E-16
 -1      3579 5.66866E-03 3.50142E-04-1.20047E-14
 -1      3580 1.03396E-02 5.94552E-04-3.09579E-14
 -1      3581 1.02028E-02 5.81250E-04-2.99710E-14
 -1      3582 1.04298E-02 5.69600E-04-3.15968E-14
 -1      3583 1.10867E-03-2.39526E-04-6.18524E-16
 -1      3584 1.57331E-03-2.49246E-04-1.16221E-15
 -1      3585 1.71667E-03-2.57901E-04-1.35870E-15
 -1      3586 1.78179E-03-2.28233E-04-1.46031E-15
 -1      3587 1.00452E-02 4.19863E-04-2.80221E-14
 -1      3588 1.00770E-02 3.98602E-04-2.81612E-14
 -1      3589 5.88124E-03-1.99829E-04-1.37016E-14
 -1      3590 5.72656E-03-1.18272E-04-1.33308E-14
 -1      3591 4.48469E-03 2.72673E-04-7.31243E-15
 -1      3592 4.34832E-03 2.73632E-04-6.85059E-15
 -1      3593 4.25699E-03 2.43531E-04-6.70415E-15
 -1      3594 4.52306E-03 2.41680E-04-7.63148E-15
 -1      3595 3.09469E-03 3.04433E-04-3.40627E-15
 -1      3596 2.95285E-03 3.07217E-04-3.09953E-15
 -1      3597 9.97768E-03 3.34371E-04-2.82588E-14
 -1      3598 9.90261E-03 3.12107E-04-2.82027E-14
 -1      3599 5.58751E-03-4.16611E-05-1.30673E-14
 -1      3600 5.45964E-03 1.13607E-05-1.27846E-14
 -1      3601 5.33935E-03 1.74651E-05-1.22722E-14
 -1      3602 1.11544E-02 7.18811E-04-3.70663E-14
 -1      3603 1.10177E-02 6.94626E-04-3.60240E-14
 -1      3604 1.12218E-02 7.00459E-04-3.77455E-14
 -1      3605 8.66561E-03-2.78738E-04-2.54833E-14
 -1      3606 5.53662E-03 3.19939E-04-1.15521E-14
 -1      3607 6.00581E-03-3.17825E-04-1.39211E-14
 -1      3608 9.83632E-03 5.44029E-04-2.73423E-14
 -1      3609 1.37155E-02 8.85024E-04-6.04253E-14
 -1      3610 1.38491E-02 9.24321E-04-6.13828E-14
 -1      3611 1.38709E-02 9.64920E-04-6.12286E-14
 -1      3612 9.85359E-03 2.86557E-04-2.84889E-14
 -1      3613 9.80177E-03 2.55508E-04-2.87726E-14
 -1      3614 9.96137E-03 3.03812E-04-2.92446E-14
 -1      3615 1.09880E-03-2.14550E-04-6.16654E-16
 -1      3616 5.02138E-03 1.15749E-04-1.10921E-14
 -1      3617 5.07378E-03 1.34079E-04-1.13732E-14
 -1      3618 5.05694E-03 1.44208E-04-1.11095E-14
 -1      3619 5.82637E-03-2.80781E-04-1.32742E-14
 -1      3620 1.72946E-03 2.57569E-04-1.13020E-15
 -1      3621 1.66514E-03 2.86647E-04-1.01419E-15
 -1      3622 2.46224E-03 3.46297E-04-2.09742E-15
 -1      3623 1.36160E-02 6.76946E-04-6.13353E-14
 -1      3624 1.37335E-02 6.98243E-04-6.22848E-14
 -1      3625 1.37558E-02 7.39220E-04-6.21382E-14
 -1      3626 2.87300E-03 2.73843E-04-3.00483E-15
 -1      3627 2.81067E-03 3.09332E-04-2.80795E-15
 -1      3628 2.66815E-03 3.10715E-04-2.53171E-15
 -1      3629 3.71291E-03 2.55223E-04-5.03859E-15
 -1      3630 3.65759E-03 2.89555E-04-4.78103E-15
 -1      3631 3.51760E-03 2.93601E-04-4.41398E-15
 -1      3632 5.39539E-03 2.99211E-04-1.09722E-14
 -1      3633 5.25994E-03 2.51339E-04-1.07788E-14
 -1      3634 1.28136E-03 2.67303E-04-6.07533E-16
 -1      3635 1.23916E-03 2.39714E-04-5.93126E-16
 -1      3636 1.23232E-03 2.06532E-04-6.16301E-16
 -1      3637 1.40612E-03 2.76841E-04-7.26592E-16
 -1      3638 2.09570E-03 3.05792E-04-1.57612E-15
 -1      3639 2.01635E-03 2.69253E-04-1.51017E-15
 -1      3640 2.23910E-03 3.08865E-04-1.79253E-15
 -1      3641 1.54000E-03 2.81496E-04-8.70709E-16
 -1      3642 1.09542E-02 6.52521E-04-3.56563E-14
 -1      3643 5.13652E-03 8.29471E-05-1.16743E-14
 -1      3644 5.58038E-03-9.43289E-05-1.28061E-14
 -1      3645 1.14306E-03 1.43364E-04-5.79032E-16
 -1      3646 1.39724E-02 1.22789E-03-5.98371E-14
 -1      3647 1.38297E-02 1.20400E-03-5.86358E-14
 -1      3648 1.41131E-02 1.25504E-03-6.09888E-14
 -1      3649 1.00562E-02 3.51547E-04-2.87351E-14
 -1      3650 5.22071E-03 1.94777E-04-1.13752E-14
 -1      3651 5.21465E-03 2.13042E-04-1.10330E-14
 -1      3652 5.11972E-03 1.75403E-04-1.10487E-14
 -1      3653 8.98360E-03-9.37996E-05-2.64328E-14
 -1      3654 8.82369E-03-1.74890E-04-2.58591E-14
 -1      3655 1.13365E-03-2.65164E-05-6.52771E-16
 -1      3656 1.35614E-03-2.33688E-04-8.92962E-16
 -1      3657 1.46462E-03-2.42107E-04-1.02341E-15
 -1      3658 1.52986E-03-2.15644E-04-1.11318E-15
 -1      3659 1.26238E-03-1.34051E-04-8.00697E-16
 -1      3660 1.26667E-03-1.65554E-04-8.03692E-16
 -1      3661 1.25658E-03-7.30040E-05-7.89855E-16
 -1      3662 1.25901E-03-1.03240E-04-7.96048E-16
 -1      3663 1.38280E-03-1.25005E-04-9.37754E-16
 -1      3664 9.59593E-03 1.83271E-04-2.81876E-14
 -1      3665 9.46914E-03 1.45564E-04-2.76258E-14
 -1      3666 9.38873E-03 8.88510E-05-2.77900E-14
 -1      3667 1.25936E-03 1.06044E-04-7.19693E-16
 -1      3668 1.25682E-03 7.57956E-05-7.35577E-16
 -1      3669 1.00649E-02 5.71089E-04-2.89944E-14
 -1      3670 9.92345E-03 5.65875E-04-2.80261E-14
 -1      3671 1.39355E-02 1.08677E-03-6.07587E-14
 -1      3672 1.39571E-02 1.12774E-03-6.05995E-14
 -1      3673 1.00265E-02 4.41903E-04-2.80368E-14
 -1      3674 1.01237E-02 4.40029E-04-2.88254E-14
 -1      3675 1.00036E-02 4.67673E-04-2.80506E-14
 -1      3676 3.23611E-03 3.01173E-04-3.72739E-15
 -1      3677 3.15547E-03 2.68917E-04-3.62285E-15
 -1      3678 3.37711E-03 2.97493E-04-4.06274E-15
 -1      3679 1.37397E-02 1.15579E-03-5.81831E-14
 -1      3680 1.01211E-02 3.93774E-04-2.86614E-14
 -1      3681 1.37696E-02 7.71135E-04-6.19872E-14
 -1      3682 1.37918E-02 8.11936E-04-6.18379E-14
 -1      3683 1.36799E-02 8.13003E-04-6.07320E-14
 -1      3684 1.36523E-02 7.49600E-04-6.10357E-14
 -1      3685 1.37759E-03 6.40912E-05-8.73244E-16
 -1      3686 1.25511E-03 4.58188E-05-7.49346E-16
 -1      3687 1.25425E-03 1.60918E-05-7.61855E-16
 -1      3688 9.12827E-03-3.76760E-05-2.70880E-14
 -1      3689 1.01702E-02 5.38515E-04-2.96192E-14
 -1      3690 1.40227E-02 1.20676E-03-6.05296E-14
 -1      3691 1.70447E-03-1.92612E-04-1.35360E-15
 -1      3692 1.84765E-03-1.97955E-04-1.56299E-15
 -1      3693 9.29987E-03 1.26464E-05-2.80503E-14
 -1      3694 1.99093E-03-2.02010E-04-1.78780E-15
 -1      3695 2.13423E-03-2.04856E-04-2.02838E-15
 -1      3696 1.91418E-03-1.67101E-04-1.66668E-15
 -1      3697 2.27741E-03-2.06647E-04-2.28412E-15
 -1      3698 2.42040E-03-2.07444E-04-2.55537E-15
 -1      3699 2.20039E-03-1.71950E-04-2.14436E-15
 -1      3700 2.56311E-03-2.07398E-04-2.84205E-15
 -1      3701 2.70550E-03-2.06554E-04-3.14420E-15
 -1      3702 2.48595E-03-1.73246E-04-2.68379E-15
 -1      3703 2.84749E-03-2.05050E-04-3.46183E-15
 -1      3704 2.98907E-03-2.02916E-04-3.79551E-15
 -1      3705 2.77012E-03-1.71645E-04-3.28459E-15
 -1      3706 3.13017E-03-2.00279E-04-4.14453E-15
 -1      3707 3.27080E-03-1.97158E-04-4.50870E-15
 -1      3708 3.05237E-03-1.67709E-04-3.94738E-15
 -1      3709 3.41092E-03-1.93675E-04-4.88766E-15
 -1      3710 3.55059E-03-1.89847E-04-5.28166E-15
 -1      3711 3.33232E-03-1.61899E-04-4.67139E-15
 -1      3712 3.68976E-03-1.85791E-04-5.69133E-15
 -1      3713 3.82854E-03-1.81540E-04-6.11594E-15
 -1      3714 3.60975E-03-1.54614E-04-5.45526E-15
 -1      3715 3.96693E-03-1.77205E-04-6.55593E-15
 -1      3716 4.10511E-03-1.72853E-04-7.01087E-15
 -1      3717 3.88471E-03-1.46226E-04-6.30018E-15
 -1      3718 4.24312E-03-1.68592E-04-7.48015E-15
 -1      3719 4.38127E-03-1.64563E-04-7.96447E-15
 -1      3720 4.15752E-03-1.37126E-04-7.20555E-15
 -1      3721 4.51964E-03-1.60862E-04-8.46405E-15
 -1      3722 4.65877E-03-1.57796E-04-8.97798E-15
 -1      3723 4.42906E-03-1.27820E-04-8.17034E-15
 -1      3724 4.79882E-03-1.55442E-04-9.50710E-15
 -1      3725 4.94063E-03-1.54435E-04-1.00513E-14
 -1      3726 4.70097E-03-1.19123E-04-9.19529E-15
 -1      3727 5.08440E-03-1.54908E-04-1.06083E-14
 -1      3728 5.23141E-03-1.57887E-04-1.11803E-14
 -1      3729 4.97625E-03-1.12682E-04-1.02770E-14
 -1      3730 1.79455E-03 2.27905E-04-1.25011E-15
 -1      3731 1.65133E-03 2.21118E-04-1.07175E-15
 -1      3732 9.95956E-03 5.02783E-04-2.79537E-14
 -1      3733 2.52537E-03 3.11173E-04-2.27045E-15
 -1      3734 2.38233E-03 3.10626E-04-2.02398E-15
 -1      3735 2.58867E-03 2.76217E-04-2.44699E-15
 -1      3736 1.40387E-03-1.83030E-04-9.60535E-16
 -1      3737 1.28370E-03-1.90263E-04-8.19576E-16
 -1      3738 9.50720E-03 6.45044E-05-2.92706E-14
 -1      3739 9.66272E-03 9.76111E-05-3.02565E-14
 -1      3740 9.81292E-03 1.25680E-04-3.12535E-14
 -1      3741 9.95932E-03 1.51217E-04-3.22612E-14
 -1      3742 9.80303E-03 1.59764E-04-3.06522E-14
 -1      3743 1.01025E-02 1.74174E-04-3.32778E-14
 -1      3744 1.02437E-02 1.95711E-04-3.43055E-14
 -1      3745 1.00856E-02 2.03986E-04-3.26631E-14
 -1      3746 1.03830E-02 2.15957E-04-3.53419E-14
 -1      3747 1.05215E-02 2.35544E-04-3.63885E-14
 -1      3748 1.03595E-02 2.42553E-04-3.47144E-14
 -1      3749 1.06591E-02 2.54522E-04-3.74447E-14
 -1      3750 1.07965E-02 2.73176E-04-3.85090E-14
 -1      3751 1.06299E-02 2.79147E-04-3.68050E-14
 -1      3752 1.09336E-02 2.91579E-04-3.95818E-14
 -1      3753 1.10708E-02 3.09870E-04-4.06605E-14
 -1      3754 1.08997E-02 3.15156E-04-3.89296E-14
 -1      3755 1.12082E-02 3.28124E-04-4.17477E-14
 -1      3756 1.13459E-02 3.46394E-04-4.28422E-14
 -1      3757 1.11704E-02 3.51283E-04-4.10848E-14
 -1      3758 1.14838E-02 3.64753E-04-4.39435E-14
 -1      3759 1.16221E-02 3.83213E-04-4.50521E-14
 -1      3760 1.14428E-02 3.87901E-04-4.32708E-14
 -1      3761 1.17608E-02 4.01836E-04-4.61686E-14
 -1      3762 1.18998E-02 4.20613E-04-4.72894E-14
 -1      3763 1.17171E-02 4.25206E-04-4.54870E-14
 -1      3764 1.20392E-02 4.39592E-04-4.84189E-14
 -1      3765 1.21790E-02 4.58757E-04-4.95578E-14
 -1      3766 1.19935E-02 4.63298E-04-4.77317E-14
 -1      3767 1.23191E-02 4.78140E-04-5.07019E-14
 -1      3768 1.24596E-02 4.97720E-04-5.18532E-14
 -1      3769 1.22718E-02 5.02219E-04-5.00047E-14
 -1      3770 1.26003E-02 5.17519E-04-5.30108E-14
 -1      3771 1.27413E-02 5.37514E-04-5.41744E-14
 -1      3772 1.25517E-02 5.41960E-04-5.23071E-14
 -1      3773 1.28826E-02 5.57715E-04-5.53424E-14
 -1      3774 1.30241E-02 5.78099E-04-5.65129E-14
 -1      3775 1.28329E-02 5.82485E-04-5.46331E-14
 -1      3776 1.31657E-02 5.98673E-04-5.76889E-14
 -1      3777 1.33076E-02 6.19414E-04-5.88693E-14
 -1      3778 1.31153E-02 6.23721E-04-5.69746E-14
 -1      3779 1.34031E-02 6.37542E-04-5.96270E-14
 -1      3780 1.35204E-02 6.58624E-04-6.05744E-14
 -1      3781 1.35430E-02 6.99368E-04-6.04250E-14
 -1      3782 1.33522E-02 6.62755E-04-5.89075E-14
 -1      3783 4.03712E-03 2.16822E-04-6.12165E-15
 -1      3784 3.90295E-03 2.19391E-04-5.70240E-15
 -1      3785 5.05867E-03 2.25369E-04-1.00257E-14
 -1      3786 4.93586E-03 2.20112E-04-9.48640E-15
 -1      3787 4.81219E-03 2.16328E-04-8.96099E-15
 -1      3788 4.68668E-03 2.13980E-04-8.44949E-15
 -1      3789 4.83710E-03 1.90298E-04-9.30374E-15
 -1      3790 1.07638E-02 5.90301E-04-3.42619E-14
 -1      3791 1.06367E-02 5.69173E-04-3.32464E-14
 -1      3792 1.39867E-02 1.17419E-03-6.04685E-14
 -1      3793 1.18262E-02 7.83783E-04-4.27524E-14
 -1      3794 1.16896E-02 7.58276E-04-4.16576E-14
 -1      3795 1.15539E-02 7.32978E-04-4.05700E-14
 -1      3796 1.14192E-02 7.07878E-04-3.94927E-14
 -1      3797 1.16121E-02 7.15430E-04-4.12617E-14
 -1      3798 1.23798E-02 8.85924E-04-4.72342E-14
 -1      3799 1.22405E-02 8.60456E-04-4.60984E-14
 -1      3800 1.26598E-02 9.36446E-04-4.95238E-14
 -1      3801 1.25196E-02 9.11249E-04-4.83765E-14
 -1      3802 1.24343E-02 8.65310E-04-4.79543E-14
 -1      3803 1.29415E-02 9.86318E-04-5.18415E-14
 -1      3804 1.28005E-02 9.61465E-04-5.06807E-14
 -1      3805 1.27136E-02 9.14892E-04-5.02532E-14
 -1      3806 1.32242E-02 1.03546E-03-5.41814E-14
 -1      3807 1.30827E-02 1.01098E-03-5.30067E-14
 -1      3808 1.29947E-02 9.63925E-04-5.25737E-14
 -1      3809 1.35079E-02 1.08389E-03-5.65424E-14
 -1      3810 1.33660E-02 1.05977E-03-5.53610E-14
 -1      3811 1.32771E-02 1.01235E-03-5.49172E-14
 -1      3812 1.01969E-02 4.12842E-04-2.94599E-14
 -1      3813 1.01667E-02 3.87728E-04-2.93082E-14
 -1      3814 5.11888E-03 5.13889E-05-1.14226E-14
 -1      3815 5.03234E-03 7.84263E-05-1.11070E-14
 -1      3816 1.10219E-02 6.35314E-04-3.63263E-14
 -1      3817 1.08921E-02 6.12356E-04-3.52896E-14
 -1      3818 1.08309E-02 5.74125E-04-3.49210E-14
 -1      3819 1.25420E-03-1.34657E-05-7.72562E-16
 -1      3820 1.25497E-03-4.31269E-05-7.81967E-16
 -1      3821 1.37741E-03-6.11923E-05-9.23022E-16
 -1      3822 1.37570E-03 1.39672E-06-9.01379E-16
 -1      3823 1.38925E-02 1.00542E-03-6.10746E-14
 -1      3824 1.39141E-02 1.04612E-03-6.09155E-14
 -1      3825 1.38019E-02 1.04648E-03-5.98016E-14
 -1      3826 1.37590E-02 9.65708E-04-6.01148E-14
 -1      3827 1.01469E-02 3.67768E-04-2.95381E-14
 -1      3828 1.01045E-02 3.44642E-04-2.97622E-14
 -1      3829 1.02374E-02 3.85644E-04-3.03465E-14
 -1      3830 1.26285E-03 1.36986E-04-7.02360E-16
 -1      3831 1.38320E-03 1.28119E-04-8.37966E-16
 -1      3832 1.26728E-03 1.68645E-04-6.83102E-16
 -1      3833 5.13927E-03 2.23997E-04-1.04636E-14
 -1      3834 1.05116E-02 5.49462E-04-3.22375E-14
 -1      3835 1.03876E-02 5.30787E-04-3.12367E-14
 -1      3836 1.05847E-02 5.32294E-04-3.28805E-14
 -1      3837 1.38527E-02 1.13323E-03-5.95129E-14
 -1      3838 1.21812E-03-2.12539E-04-7.42069E-16
 -1      3839 5.39959E-03-1.30243E-04-1.19263E-14
 -1      3840 5.29179E-03-6.88932E-05-1.16826E-14
 -1      3841 1.37104E-02 1.10955E-03-5.83161E-14
 -1      3842 1.45217E-03 2.46264E-04-8.09885E-16
 -1      3843 1.12855E-02 6.83201E-04-3.84264E-14
 -1      3844 1.11531E-02 6.58922E-04-3.73704E-14
 -1      3845 1.10851E-02 6.19132E-04-3.69961E-14
 -1      3846 1.21017E-02 8.34929E-04-4.49759E-14
 -1      3847 1.19636E-02 8.09331E-04-4.38585E-14
 -1      3848 1.21571E-02 8.15334E-04-4.56866E-14
 -1      3849 1.00771E-02 4.92318E-04-2.87430E-14
 -1      3850 1.36208E-02 1.06187E-03-5.78660E-14
 -1      3851 1.00779E-02 3.24789E-04-3.00531E-14
 -1      3852 1.00463E-02 3.01209E-04-3.03445E-14
 -1      3853 1.01892E-02 3.44079E-04-3.08692E-14
 -1      3854 4.97971E-03 9.26533E-05-1.08507E-14
 -1      3855 4.93801E-03 1.04839E-04-1.05966E-14
 -1      3856 4.94347E-03 6.62703E-05-1.06097E-14
 -1      3857 9.46034E-03 9.26160E-05-2.84375E-14
 -1      3858 1.93785E-03 2.33179E-04-1.44282E-15
 -1      3859 1.86031E-03 1.97671E-04-1.37432E-15
 -1      3860 2.08117E-03 2.37047E-04-1.65013E-15
 -1      3861 1.51207E-03-1.89047E-04-1.09419E-15
 -1      3862 4.16992E-03 2.14791E-04-6.55652E-15
 -1      3863 4.08693E-03 1.86746E-04-6.40642E-15
 -1      3864 4.30143E-03 2.13273E-04-7.00636E-15
 -1      3865 2.93538E-03 2.38859E-04-3.20519E-15
 -1      3866 2.79408E-03 2.40508E-04-2.90835E-15
 -1      3867 3.76764E-03 2.22202E-04-5.30010E-15
 -1      3868 3.63117E-03 2.25261E-04-4.91229E-15
 -1      3869 3.82204E-03 1.90560E-04-5.56453E-15
 -1      3870 5.03155E-03 1.91960E-04-1.02709E-14
 -1      3871 1.48581E-03 2.03982E-04-8.90211E-16
 -1      3872 1.35217E-03 2.00951E-04-7.44657E-16
 -1      3873 3.43560E-03 2.62384E-04-4.30005E-15
 -1      3874 1.18829E-02 7.65234E-04-4.34550E-14
 -1      3875 2.30296E-03 2.75053E-04-1.94885E-15
 -1      3876 1.57863E-03-1.61873E-04-1.18318E-15
 -1      3877 1.13459E-02 6.66495E-04-3.91088E-14
 -1      3878 1.50813E-03 1.50842E-04-9.64005E-16
 -1      3879 1.50410E-03 1.16961E-04-9.85879E-16
 -1      3880 1.02247E-02 4.39895E-04-2.97277E-14
 -1      3881 1.02898E-02 4.32098E-04-3.03854E-14
 -1      3882 5.05099E-03 1.58562E-04-1.08551E-14
 -1      3883 5.03003E-03 1.72064E-04-1.05231E-14
 -1      3884 4.95670E-03 1.73567E-04-1.00859E-14
 -1      3885 4.97302E-03 1.40052E-04-1.05837E-14
 -1      3886 1.02651E-02 5.13610E-04-3.02470E-14
 -1      3887 1.01431E-02 4.98172E-04-2.92649E-14
 -1      3888 1.35819E-02 8.45636E-04-5.94749E-14
 -1      3889 1.36038E-02 8.85822E-04-5.93183E-14
 -1      3890 1.50108E-03 8.35856E-05-1.00569E-15
 -1      3891 1.49908E-03 5.05601E-05-1.02350E-15
 -1      3892 1.62546E-03 1.03955E-04-1.14629E-15
 -1      3893 1.35997E-02 1.02163E-03-5.80264E-14
 -1      3894 1.33979E-02 9.96414E-04-5.62605E-14
 -1      3895 1.35785E-02 9.81530E-04-5.81851E-14
 -1      3896 1.57429E-03-1.27303E-04-1.17659E-15
 -1      3897 4.55990E-03 2.12710E-04-7.95352E-15
 -1      3898 4.43135E-03 2.12597E-04-7.47213E-15
 -1      3899 4.34522E-03 1.84873E-04-7.31217E-15
 -1      3900 1.02213E-02 4.59541E-04-2.97429E-14
 -1      3901 5.20063E-03 1.68305E-05-1.16395E-14
 -1      3902 5.07397E-03 1.82935E-05-1.10730E-14
 -1      3903 1.03479E-02 4.94090E-04-3.08768E-14
 -1      3904 3.21607E-03 2.34174E-04-3.84279E-15
 -1      3905 3.07606E-03 2.36737E-04-3.51665E-15
 -1      3906 2.99789E-03 2.04475E-04-3.40869E-15
 -1      3907 5.30024E-03-2.03057E-05-1.19085E-14
 -1      3908 1.35545E-02 7.82729E-04-5.97796E-14
 -1      3909 1.35682E-02 8.14209E-04-5.96289E-14
 -1      3910 1.34568E-02 8.15219E-04-5.85270E-14
 -1      3911 4.59569E-03 1.85824E-04-8.27851E-15
 -1      3912 1.83848E-03-1.32955E-04-1.54843E-15
 -1      3913 1.98142E-03-1.35740E-04-1.77057E-15
 -1      3914 2.12436E-03-1.37688E-04-2.00831E-15
 -1      3915 2.26720E-03-1.38845E-04-2.26104E-15
 -1      3916 2.04936E-03-1.03909E-04-1.87536E-15
 -1      3917 5.69092E-03-2.06407E-04-1.28993E-14
 -1      3918 2.40979E-03-1.39316E-04-2.52835E-15
 -1      3919 2.55205E-03-1.39117E-04-2.81170E-15
 -1      3920 2.33466E-03-1.05609E-04-2.37702E-15
 -1      3921 2.69387E-03-1.38358E-04-3.11086E-15
 -1      3922 2.83518E-03-1.37038E-04-3.42436E-15
 -1      3923 2.61872E-03-1.05136E-04-2.93950E-15
 -1      3924 2.97588E-03-1.35258E-04-3.75394E-15
 -1      3925 3.11596E-03-1.32999E-04-4.09861E-15
 -1      3926 2.90068E-03-1.02814E-04-3.56389E-15
 -1      3927 3.25531E-03-1.30359E-04-4.45847E-15
 -1      3928 3.39394E-03-1.27299E-04-4.83310E-15
 -1      3929 3.17988E-03-9.88694E-05-4.24880E-15
 -1      3930 3.53176E-03-1.23914E-04-5.22316E-15
 -1      3931 3.66881E-03-1.20163E-04-5.62773E-15
 -1      3932 3.45575E-03-9.34319E-05-4.99401E-15
 -1      3933 3.80502E-03-1.16132E-04-6.04775E-15
 -1      3934 3.94047E-03-1.11776E-04-6.48362E-15
 -1      3935 3.72787E-03-8.65702E-05-5.79938E-15
 -1      3936 4.07509E-03-1.07173E-04-6.93449E-15
 -1      3937 4.20908E-03-1.02295E-04-7.40007E-15
 -1      3938 3.99595E-03-7.82606E-05-6.66567E-15
 -1      3939 4.34236E-03-9.72122E-05-7.88006E-15
 -1      3940 4.47528E-03-9.19498E-05-8.37526E-15
 -1      3941 4.25991E-03-6.84277E-05-7.59335E-15
 -1      3942 4.60777E-03-8.65635E-05-8.88515E-15
 -1      3943 4.74044E-03-8.12129E-05-9.41054E-15
 -1      3944 4.52002E-03-5.69951E-05-8.57905E-15
 -1      3945 4.87329E-03-7.59909E-05-9.94944E-15
 -1      3946 5.00724E-03-7.14698E-05-1.05020E-14
 -1      3947 4.77715E-03-4.40393E-05-9.62393E-15
 -1      3948 5.38283E-03-1.64056E-04-1.17674E-14
 -1      3949 2.65226E-03 2.41505E-04-2.62736E-15
 -1      3950 2.50997E-03 2.41804E-04-2.36082E-15
 -1      3951 2.71614E-03 2.07129E-04-2.81096E-15
 -1      3952 1.00735E-02 2.33345E-04-3.20510E-14
 -1      3953 1.02067E-02 2.50978E-04-3.30656E-14
 -1      3954 1.03388E-02 2.68361E-04-3.40891E-14
 -1      3955 1.04708E-02 2.85638E-04-3.51226E-14
 -1      3956 1.03209E-02 2.93398E-04-3.34657E-14
 -1      3957 1.06025E-02 3.02893E-04-3.61642E-14
 -1      3958 1.07346E-02 3.20271E-04-3.72177E-14
 -1      3959 1.05766E-02 3.25723E-04-3.55271E-14
 -1      3960 1.08669E-02 3.37807E-04-3.82791E-14
 -1      3961 1.09998E-02 3.55542E-04-3.93476E-14
 -1      3962 1.08350E-02 3.59510E-04-3.76278E-14
 -1      3963 1.11333E-02 3.73524E-04-4.04230E-14
 -1      3964 1.12675E-02 3.91719E-04-4.15053E-14
 -1      3965 1.10968E-02 3.94813E-04-3.97613E-14
 -1      3966 1.14023E-02 4.10176E-04-4.25976E-14
 -1      3967 1.15378E-02 4.28845E-04-4.36965E-14
 -1      3968 1.13621E-02 4.31546E-04-4.19254E-14
 -1      3969 1.16739E-02 4.47773E-04-4.48050E-14
 -1      3970 1.18107E-02 4.66907E-04-4.59212E-14
 -1      3971 1.16309E-02 4.69507E-04-4.41226E-14
 -1      3972 1.19481E-02 4.86288E-04-4.70416E-14
 -1      3973 1.20861E-02 5.05867E-04-4.81700E-14
 -1      3974 1.19029E-02 5.08531E-04-4.63508E-14
 -1      3975 1.22247E-02 5.25675E-04-4.93075E-14
 -1      3976 1.23637E-02 5.45670E-04-5.04509E-14
 -1      3977 1.21777E-02 5.48481E-04-4.86084E-14
 -1      3978 1.25032E-02 5.65875E-04-5.16034E-14
 -1      3979 1.26431E-02 5.86251E-04-5.27614E-14
 -1      3980 1.24549E-02 5.89235E-04-5.08968E-14
 -1      3981 1.27834E-02 6.06817E-04-5.39221E-14
 -1      3982 1.29241E-02 6.27538E-04-5.50892E-14
 -1      3983 1.27341E-02 6.30685E-04-5.32117E-14
 -1      3984 1.30651E-02 6.48415E-04-5.62608E-14
 -1      3985 1.32063E-02 6.69433E-04-5.74337E-14
 -1      3986 1.30149E-02 6.72727E-04-5.55437E-14
 -1      3987 1.55198E-03 1.77292E-04-9.93007E-16
 -1      3988 3.49371E-03 2.28317E-04-4.54034E-15
 -1      3989 3.35530E-03 2.31361E-04-4.18413E-15
 -1      3990 3.27664E-03 2.00294E-04-4.06635E-15
 -1      3991 3.55163E-03 1.95370E-04-4.78479E-15
 -1      3992 2.36732E-03 2.41222E-04-2.10891E-15
 -1      3993 2.22434E-03 2.39698E-04-1.87221E-15
 -1      3994 2.14656E-03 2.04608E-04-1.79396E-15
 -1      3995 2.43212E-03 2.07456E-04-2.27284E-15
 -1      3996 5.03009E-03-2.81182E-05-1.07191E-14
 -1      3997 4.95744E-03 7.18344E-06-1.05147E-14
 -1      3998 1.67286E-03 1.65225E-04-1.15516E-15
 -1      3999 1.27667E-02 8.93239E-04-5.09819E-14
 -1      4000 1.26270E-02 8.68966E-04-4.98258E-14
 -1      4001 1.24878E-02 8.44614E-04-4.86762E-14
 -1      4002 1.23492E-02 8.20164E-04-4.75338E-14
 -1      4003 1.25406E-02 8.23704E-04-4.93981E-14
 -1      4004 1.32566E-02 9.72718E-04-5.50824E-14
 -1      4005 1.03922E-02 4.50687E-04-3.13586E-14
 -1      4006 1.03478E-02 4.23789E-04-3.10849E-14
 -1      4007 1.08921E-02 5.59327E-04-3.55800E-14
 -1      4008 1.07695E-02 5.37982E-04-3.45486E-14
 -1      4009 1.14030E-02 6.50142E-04-3.97907E-14
 -1      4010 1.12726E-02 6.26647E-04-3.87246E-14
 -1      4011 9.81975E-03 2.31911E-04-2.94983E-14
 -1      4012 9.69026E-03 2.04805E-04-2.87380E-14
 -1      4013 4.63204E-03 1.61227E-04-8.60655E-15
 -1      4014 4.51208E-03 1.59568E-04-8.10621E-15
 -1      4015 1.19377E-02 7.46706E-04-4.41594E-14
 -1      4016 1.18023E-02 7.22275E-04-4.30528E-14
 -1      4017 1.03380E-02 4.00684E-04-3.13203E-14
 -1      4018 1.03127E-02 3.76943E-04-3.15508E-14
 -1      4019 1.04433E-02 4.17689E-04-3.23020E-14
 -1      4020 1.50942E-03-7.97247E-05-1.08687E-15
 -1      4021 1.70435E-03-1.12883E-04-1.35140E-15
 -1      4022 1.77290E-03-8.31243E-05-1.44291E-15
 -1      4023 1.50754E-03-4.67007E-05-1.07612E-15
 -1      4024 1.35806E-02 9.13731E-04-5.88315E-14
 -1      4025 1.36021E-02 9.53749E-04-5.86752E-14
 -1      4026 1.34006E-02 9.29266E-04-5.69111E-14
 -1      4027 1.34473E-02 8.74177E-04-5.78872E-14
 -1      4028 9.61836E-03 1.57810E-04-2.89059E-14
 -1      4029 1.30475E-02 9.41433E-04-5.33035E-14
 -1      4030 1.29069E-02 9.17389E-04-5.21388E-14
 -1      4031 1.28193E-02 8.71392E-04-5.17068E-14
 -1      4032 1.35419E-02 7.25323E-04-6.01815E-14
 -1      4033 1.35558E-02 7.56950E-04-6.00290E-14
 -1      4034 1.34443E-02 7.58358E-04-5.89295E-14
 -1      4035 1.34465E-02 7.06898E-04-5.94216E-14
 -1      4036 1.16680E-02 6.98024E-04-4.19562E-14
 -1      4037 1.15348E-02 6.73914E-04-4.08688E-14
 -1      4038 1.14572E-02 6.33709E-04-4.04749E-14
 -1      4039 1.17217E-02 6.80447E-04-4.26498E-14
 -1      4040 1.22113E-02 7.95690E-04-4.64010E-14
 -1      4041 1.20741E-02 7.71168E-04-4.52767E-14
 -1      4042 1.22643E-02 7.75825E-04-4.71162E-14
 -1      4043 4.85411E-03 1.68271E-04-9.59696E-15
 -1      4044 4.74003E-03 1.65087E-04-9.06985E-15
 -1      4045 4.66078E-03 1.40164E-04-8.88649E-15
 -1      4046 4.86506E-03 1.49663E-04-9.83972E-15
 -1      4047 1.11438E-02 6.03675E-04-3.76650E-14
 -1      4048 1.10169E-02 5.81116E-04-3.66190E-14
 -1      4049 1.11988E-02 5.88303E-04-3.83378E-14
 -1      4050 1.00514E-02 2.76861E-04-3.09798E-14
 -1      4051 9.96238E-03 2.33503E-04-3.09438E-14
 -1      4052 1.81573E-03 1.70260E-04-1.34089E-15
 -1      4053 1.77180E-03 1.43314E-04-1.30684E-15
 -1      4054 1.95875E-03 1.74156E-04-1.54161E-15
 -1      4055 3.87676E-03 1.60301E-04-5.83261E-15
 -1      4056 3.74402E-03 1.61868E-04-5.42487E-15
 -1      4057 2.78048E-03 1.73137E-04-2.99840E-15
 -1      4058 2.63927E-03 1.73748E-04-2.71201E-15
 -1      4059 5.13896E-03-6.47838E-05-1.10630E-14
 -1      4060 1.76788E-03 1.07477E-04-1.33251E-15
 -1      4061 3.06076E-03 1.70737E-04-3.61653E-15
 -1      4062 2.92100E-03 1.72129E-04-3.30004E-15
 -1      4063 2.84534E-03 1.39600E-04-3.19024E-15
 -1      4064 1.33512E-02 6.88555E-04-5.86648E-14
 -1      4065 1.19911E-02 7.27966E-04-4.48645E-14
 -1      4066 4.90756E-03 1.18864E-04-1.03518E-14
 -1      4067 4.88576E-03 1.33402E-04-1.01076E-14
 -1      4068 4.85143E-03 9.67238E-05-1.01199E-14
 -1      4069 4.00782E-03 1.59144E-04-6.25632E-15
 -1      4070 3.93216E-03 1.31441E-04-6.10484E-15
 -1      4071 4.13713E-03 1.58303E-04-6.69586E-15
 -1      4072 1.09480E-02 5.44863E-04-3.62375E-14
 -1      4073 1.06340E-02 4.81101E-04-3.36252E-14
 -1      4074 1.05795E-02 4.94527E-04-3.29831E-14
 -1      4075 4.83612E-03-7.11543E-06-9.94575E-15
 -1      4076 4.89143E-03 3.38189E-05-1.02852E-14
 -1      4077 4.83321E-03 5.14802E-05-1.00410E-14
 -1      4078 4.71297E-03-1.49504E-05-9.40803E-15
 -1      4079 9.68491E-03 1.57219E-04-2.95619E-14
 -1      4080 9.58683E-03 1.33777E-04-2.90059E-14
 -1      4081 1.50238E-03 1.83381E-05-1.04457E-15
 -1      4082 1.50233E-03-1.43402E-05-1.05872E-15
 -1      4083 1.63406E-03-3.08623E-05-1.23412E-15
 -1      4084 1.62554E-03 3.60868E-05-1.19133E-15
 -1      4085 1.03004E-02 3.58847E-04-3.18485E-14
 -1      4086 1.33371E-02 8.30464E-04-5.72097E-14
 -1      4087 1.33141E-02 8.57933E-04-5.67255E-14
 -1      4088 1.31678E-02 9.26050E-04-5.46380E-14
 -1      4089 1.04658E-02 4.75454E-04-3.19715E-14
 -1      4090 4.38951E-03 1.58395E-04-7.62109E-15
 -1      4091 4.26438E-03 1.58110E-04-7.15080E-15
 -1      4092 4.18821E-03 1.31501E-04-6.98802E-15
 -1      4093 1.01718E-02 4.69136E-04-2.93623E-14
 -1      4094 1.33005E-02 7.13275E-04-5.79442E-14
 -1      4095 1.33134E-02 7.69877E-04-5.75447E-14
 -1      4096 1.31803E-02 7.54330E-04-5.63872E-14
 -1      4097 4.43499E-03 1.33825E-04-7.93257E-15
 -1      4098 9.82833E-03 1.80969E-04-3.05504E-14
 -1      4099 1.30396E-02 7.32591E-04-5.52158E-14
 -1      4100 2.26060E-03-7.21988E-05-2.22892E-15
 -1      4101 2.40286E-03-7.22874E-05-2.49269E-15
 -1      4102 2.54472E-03-7.20114E-05-2.77243E-15
 -1      4103 2.68608E-03-7.13419E-05-3.06752E-15
 -1      4104 2.47182E-03-3.89542E-05-2.60885E-15
 -1      4105 2.82680E-03-7.03627E-05-3.37751E-15
 -1      4106 2.96681E-03-6.90175E-05-3.70279E-15
 -1      4107 2.75415E-03-3.78207E-05-3.19463E-15
 -1      4108 3.10601E-03-6.73668E-05-4.04277E-15
 -1      4109 3.24434E-03-6.53653E-05-4.39773E-15
 -1      4110 3.03362E-03-3.57129E-05-3.84034E-15
 -1      4111 3.38171E-03-6.30492E-05-4.76797E-15
 -1      4112 3.51806E-03-6.03507E-05-5.15340E-15
 -1      4113 3.30949E-03-3.25295E-05-4.54567E-15
 -1      4114 3.65324E-03-5.73507E-05-5.55403E-15
 -1      4115 3.78729E-03-5.39262E-05-5.96960E-15
 -1      4116 3.58097E-03-2.81564E-05-5.31176E-15
 -1      4117 3.92006E-03-5.01206E-05-6.40083E-15
 -1      4118 4.05160E-03-4.58361E-05-6.84754E-15
 -1      4119 3.84728E-03-2.22871E-05-6.13902E-15
 -1      4120 4.18171E-03-4.11110E-05-7.30872E-15
 -1      4121 4.31056E-03-3.58141E-05-7.78529E-15
 -1      4122 4.10769E-03-1.45733E-05-7.02712E-15
 -1      4123 4.43780E-03-3.00043E-05-8.27615E-15
 -1      4124 4.56384E-03-2.35273E-05-8.78186E-15
 -1      4125 4.36131E-03-4.55186E-06-7.97611E-15
 -1      4126 1.03052E-02 3.16656E-04-3.28425E-14
 -1      4127 1.04280E-02 3.31581E-04-3.38625E-14
 -1      4128 2.56345E-03 1.40325E-04-2.61161E-15
 -1      4129 2.49749E-03 1.73800E-04-2.44032E-15
 -1      4130 2.35523E-03 1.73266E-04-2.18380E-15
 -1      4131 1.05518E-02 3.47189E-04-3.48939E-14
 -1      4132 1.06771E-02 3.63236E-04-3.59310E-14
 -1      4133 1.05275E-02 3.67172E-04-3.42591E-14
 -1      4134 1.08035E-02 3.79977E-04-3.69811E-14
 -1      4135 1.09313E-02 3.97230E-04-3.80396E-14
 -1      4136 1.07720E-02 3.99163E-04-3.63355E-14
 -1      4137 1.10603E-02 4.15010E-04-3.91040E-14
 -1      4138 1.11906E-02 4.33245E-04-4.01750E-14
 -1      4139 1.10236E-02 4.34043E-04-3.84467E-14
 -1      4140 1.13219E-02 4.51940E-04-4.12572E-14
 -1      4141 1.14544E-02 4.70973E-04-4.23462E-14
 -1      4142 1.12815E-02 4.71307E-04-4.05883E-14
 -1      4143 1.15879E-02 4.90370E-04-4.34408E-14
 -1      4144 1.17224E-02 5.10039E-04-4.45480E-14
 -1      4145 1.15446E-02 5.10323E-04-4.27619E-14
 -1      4146 1.18577E-02 5.30005E-04-4.56606E-14
 -1      4147 1.19938E-02 5.50190E-04-4.67812E-14
 -1      4148 1.18122E-02 5.50679E-04-4.49686E-14
 -1      4149 1.21307E-02 5.70617E-04-4.79092E-14
 -1      4150 1.22684E-02 5.91222E-04-4.90461E-14
 -1      4151 1.20836E-02 5.92059E-04-4.72100E-14
 -1      4152 1.24066E-02 6.12023E-04-5.01930E-14
 -1      4153 1.25454E-02 6.32969E-04-5.13437E-14
 -1      4154 1.23582E-02 6.34217E-04-4.94847E-14
 -1      4155 1.26847E-02 6.54074E-04-5.24995E-14
 -1      4156 1.28246E-02 6.75301E-04-5.36600E-14
 -1      4157 1.26353E-02 6.76965E-04-5.17862E-14
 -1      4158 1.06294E-02 4.54681E-04-3.38685E-14
 -1      4159 1.06147E-02 4.28463E-04-3.41091E-14
 -1      4160 1.08230E-02 4.95694E-04-3.54535E-14
 -1      4161 1.23163E-02 7.55689E-04-4.78295E-14
 -1      4162 1.21792E-02 7.32274E-04-4.66972E-14
 -1      4163 1.32529E-02 8.78663E-04-5.59271E-14
 -1      4164 1.32294E-02 9.05790E-04-5.54388E-14
 -1      4165 1.30209E-02 8.75399E-04-5.36632E-14
 -1      4166 1.31433E-02 8.35064E-04-5.52569E-14
 -1      4167 1.25926E-02 8.02544E-04-5.01187E-14
 -1      4168 1.24541E-02 7.79107E-04-4.89697E-14
 -1      4169 1.23674E-02 7.35171E-04-4.85441E-14
 -1      4170 1.01787E-02 3.01267E-04-3.18045E-14
 -1      4171 1.28712E-02 8.49321E-04-5.24313E-14
 -1      4172 1.27316E-02 8.25945E-04-5.12747E-14
 -1      4173 1.26439E-02 7.81049E-04-5.08375E-14
 -1      4174 1.04172E-02 3.73262E-04-3.28860E-14
 -1      4175 1.02864E-02 3.37147E-04-3.21929E-14
 -1      4176 4.48303E-03 1.10948E-04-8.24644E-15
 -1      4177 4.36365E-03 1.08300E-04-7.75760E-15
 -1      4178 1.09439E-02 5.15731E-04-3.64923E-14
 -1      4179 1.20430E-02 7.08946E-04-4.55698E-14
 -1      4180 1.19078E-02 6.85682E-04-4.44525E-14
 -1      4181 1.20938E-02 6.89500E-04-4.62752E-14
 -1      4182 1.12503E-02 5.72811E-04-3.90098E-14
 -1      4183 1.11237E-02 5.51288E-04-3.79499E-14
 -1      4184 1.92539E-03 1.05909E-04-1.55952E-15
 -1      4185 1.78004E-03 6.77048E-05-1.38034E-15
 -1      4186 2.05698E-03 1.68317E-04-1.69660E-15
 -1      4187 2.01300E-03 1.41141E-04-1.65785E-15
 -1      4188 2.02388E-03 9.95696E-05-1.71519E-15
 -1      4189 2.19986E-03 1.70446E-04-1.92232E-15
 -1      4190 1.97540E-03-7.07237E-05-1.74563E-15
 -1      4191 2.11807E-03-7.16776E-05-1.98004E-15
 -1      4192 2.18756E-03-3.91044E-05-2.08418E-15
 -1      4193 1.29892E-02 7.56047E-04-5.44959E-14
 -1      4194 3.66855E-03 1.32935E-04-5.28375E-15
 -1      4195 3.60982E-03 1.63567E-04-5.03283E-15
 -1      4196 3.47425E-03 1.65448E-04-4.65532E-15
 -1      4197 1.29289E-02 7.76425E-04-5.37045E-14
 -1      4198 1.02804E-02 4.67627E-04-3.02714E-14
 -1      4199 1.15090E-02 6.17052E-04-4.11595E-14
 -1      4200 1.13788E-02 5.94688E-04-4.00811E-14
 -1      4201 1.12991E-02 5.56801E-04-3.96848E-14
 -1      4202 3.19962E-03 1.69137E-04-3.94744E-15
 -1      4203 3.12411E-03 1.37699E-04-3.82769E-15
 -1      4204 3.33750E-03 1.67308E-04-4.29382E-15
 -1      4205 4.63133E-03 9.94035E-06-9.08732E-15
 -1      4206 1.29324E-02 8.29701E-04-5.32271E-14
 -1      4207 2.91093E-03 1.06525E-04-3.38485E-15
 -1      4208 2.77092E-03 1.06923E-04-3.07833E-15
 -1      4209 1.32994E-02 7.38767E-04-5.76969E-14
 -1      4210 1.09901E-02 5.00816E-04-3.71517E-14
 -1      4211 1.03927E-02 4.85979E-04-3.12639E-14
 -1      4212 4.69792E-03 4.14510E-05-9.39490E-15
 -1      4213 4.76401E-03 7.07377E-05-9.70467E-15
 -1      4214 4.55742E-03 3.25308E-05-8.76969E-15
 -1      4215 4.24128E-03 1.06137E-04-7.28325E-15
 -1      4216 4.11631E-03 1.04795E-04-6.82389E-15
 -1      4217 4.29700E-03 8.21638E-05-7.58131E-15
 -1      4218 4.58295E-03 9.83925E-05-8.75037E-15
 -1      4219 4.52342E-03 7.28904E-05-8.56068E-15
 -1      4220 1.78284E-03 3.30094E-05-1.40704E-15
 -1      4221 4.78952E-03 1.27583E-04-9.61816E-15
 -1      4222 4.68606E-03 1.03964E-04-9.21766E-15
 -1      4223 2.63014E-03 1.07049E-04-2.78689E-15
 -1      4224 2.48872E-03 1.06929E-04-2.51038E-15
 -1      4225 2.69762E-03 7.40230E-05-2.96627E-15
 -1      4226 3.98902E-03 1.03833E-04-6.38045E-15
 -1      4227 3.85964E-03 1.03472E-04-5.95196E-15
 -1      4228 4.04781E-03 7.74297E-05-6.65906E-15
 -1      4229 3.78971E-03 7.48866E-05-5.79808E-15
 -1      4230 3.72842E-03 1.03388E-04-5.53892E-15
 -1      4231 3.59552E-03 1.03679E-04-5.14180E-15
 -1      4232 1.17736E-02 6.62601E-04-4.33451E-14
 -1      4233 1.16406E-02 6.39669E-04-4.22473E-14
 -1      4234 1.15586E-02 5.99901E-04-4.18449E-14
 -1      4235 1.18239E-02 6.44290E-04-4.40411E-14
 -1      4236 1.73801E-03-4.15825E-05-1.38024E-15
 -1      4237 1.87084E-03-5.94205E-05-1.58010E-15
 -1      4238 1.94083E-03-2.80181E-05-1.67406E-15
 -1      4239 1.73289E-03-7.17040E-06-1.35857E-15
 -1      4240 2.40000E-03-6.01237E-06-2.44867E-15
 -1      4241 2.54162E-03-5.65270E-06-2.72427E-15
 -1      4242 1.07359E-02 4.25974E-04-3.55001E-14
 -1      4243 1.05327E-02 3.88199E-04-3.39074E-14
 -1      4244 2.72411E-03 1.80621E-05-3.08232E-15
 -1      4245 2.86423E-03 1.85535E-05-3.39065E-15
 -1      4246 3.23900E-03-1.80246E-06-4.32734E-15
 -1      4247 3.37553E-03-4.12211E-07-4.69270E-15
 -1      4248 3.54967E-03 2.28756E-05-5.15740E-15
 -1      4249 3.68300E-03 2.45628E-05-5.55654E-15
 -1      4250 3.81471E-03 2.64919E-05-5.97089E-15
 -1      4251 3.94477E-03 2.89937E-05-6.40113E-15
 -1      4252 4.07289E-03 3.18692E-05-6.84625E-15
 -1      4253 4.19905E-03 3.55261E-05-7.30605E-15
 -1      4254 1.27796E-02 7.51421E-04-5.24718E-14
 -1      4255 1.26404E-02 7.29203E-04-5.13166E-14
 -1      4256 1.25018E-02 7.07021E-04-5.01644E-14
 -1      4257 2.26663E-03 1.37760E-04-2.07320E-15
 -1      4258 1.08572E-02 4.43152E-04-3.65430E-14
 -1      4259 1.10392E-02 4.75853E-04-3.80075E-14
 -1      4260 1.11655E-02 4.95024E-04-3.90678E-14
 -1      4261 1.12935E-02 5.14861E-04-4.01403E-14
 -1      4262 1.14230E-02 5.35029E-04-4.12197E-14
 -1      4263 1.15541E-02 5.55707E-04-4.23069E-14
 -1      4264 1.16864E-02 5.76635E-04-4.34024E-14
 -1      4265 1.18199E-02 5.97930E-04-4.45078E-14
 -1      4266 1.19545E-02 6.19395E-04-4.56231E-14
 -1      4267 1.20901E-02 6.41116E-04-4.67458E-14
 -1      4268 1.22265E-02 6.62947E-04-4.78779E-14
 -1      4269 1.23638E-02 6.84951E-04-4.90155E-14
 -1      4270 4.72383E-03 8.73472E-05-9.47237E-15
 -1      4271 3.05007E-03 1.06004E-04-3.70621E-15
 -1      4272 2.97735E-03 7.39518E-05-3.58349E-15
 -1      4273 3.18821E-03 1.05349E-04-4.04215E-15
 -1      4274 3.00349E-03 1.90676E-05-3.71454E-15
 -1      4275 4.44432E-03 4.48215E-05-8.27141E-15
 -1      4276 1.88637E-03 2.34162E-05-1.56337E-15
 -1      4277 3.39884E-03 1.35278E-04-4.52522E-15
 -1      4278 4.32286E-03 3.96561E-05-7.78183E-15
 -1      4279 2.11558E-03-6.40717E-06-1.94395E-15
 -1      4280 2.25794E-03-6.24494E-06-2.18883E-15
 -1      4281 2.32920E-03 2.68209E-05-2.29282E-15
 -1      4282 3.14181E-03 1.97769E-05-4.05245E-15
 -1      4283 3.21133E-03 5.16312E-05-4.18689E-15
 -1      4284 2.65473E-03 5.08092E-05-2.90272E-15
 -1      4285 3.48315E-03 5.25064E-05-4.91920E-15
 -1      4286 2.33416E-03 1.04973E-04-2.22789E-15
 -1      4287 2.17915E-03 1.02553E-04-1.96262E-15
 -1      4288 2.09276E-03 6.77298E-05-1.85275E-15
 -1      4289 2.40247E-03 7.21302E-05-2.38637E-15
 -1      4290 1.99008E-03 1.34531E-05-1.72837E-15
 -1      4291 2.06214E-03 4.60323E-05-1.82080E-15
 -1      4292 2.21717E-03 4.81874E-05-2.07720E-15
 -1      4293 3.41830E-03 8.27527E-05-4.68451E-15
 -1      4294 2.35933E-03 4.87458E-05-2.32887E-15
 -1      4295 3.28223E-03 8.29484E-05-4.32068E-15
 -1      4296 2.51359E-03 5.05504E-05-2.61932E-15
 -3
    1PSTEP                         2           1           1          
  100CL  101 1.000000000        4296                     0    1           1
 -4  STRESS      6    1
 -5  SXX         1    4    1    1
 -5  SYY         1    4    2    2
 -5  SZZ         1    4    3    3
 -5  SXY         1    4    1    2
 -5  SYZ         1    4    2    3
 -5  SZX         1    4    3    1
 -1         1 6.23247E+00 6.86559E+00-5.55228E-01 6.66315E+00-1.86129E-12-1.61693E-12
 -1         2-7.14521E-01-2.44396E+01-3.35335E+00 9.51004E-02 8.64152E-13-1.49908E-13
 -1         3 2.00000E+01 2.38532E-04 2.26075E-03 2.00033E-04-2.46806E-13-3.92175E-13
 -1         4 1.99999E+01 9.82063E-05 2.16823E-03-6.79548E-05 2.18269E-13-2.69681E-13
 -1         5 3.26313E+01 6.11707E+00 2.72478E+00 6.20139E+00-2.31412E-14 1.68565E-12
 -1         6 3.56020E+01 1.22094E+01 5.09601E+00-8.61198E+00-9.60343E-14 1.24811E-12
 -1         7 2.07790E+01 6.08762E+00-1.26024E-01-4.70364E+00-1.39333E-14 1.23603E-13
 -1         8 1.96616E+01 5.93133E+00 5.23428E-02-3.25088E+00-1.51233E-14-1.91348E-13
 -1         9 1.91458E+01 5.77408E+00 5.01394E-02-2.49947E+00-9.43516E-15-3.55318E-13
 -1        10 1.89148E+01 5.69745E+00 5.17717E-02-1.92234E+00-5.37504E-15-4.21980E-13
 -1        11 1.87967E+01 5.65777E+00 5.03050E-02-1.42868E+00-3.29381E-15-4.44383E-13
 -1        12 1.87338E+01 5.63625E+00 4.81229E-02-9.92617E-01 2.38308E-16-4.35155E-13
 -1        13 1.86995E+01 5.62461E+00 4.63281E-02-5.80629E-01 3.08781E-15-4.18519E-13
 -1        14 1.86849E+01 5.61959E+00 4.53743E-02-1.86256E-01 3.49184E-15-3.93609E-13
 -1        15 1.86856E+01 5.61982E+00 4.54217E-02 2.02699E-01 5.89405E-15-3.65321E-13
 -1        16 1.87018E+01 5.62530E+00 4.64837E-02 5.97958E-01 1.12182E-14-3.34389E-13
 -1        17 1.87376E+01 5.63730E+00 4.84400E-02 1.01204E+00 1.39960E-14-2.96116E-13
 -1        18 1.88019E+01 5.65915E+00 5.07607E-02 1.45147E+00 1.23625E-14-2.26580E-13
 -1        19 1.89208E+01 5.69922E+00 5.21046E-02 1.95126E+00 1.97706E-14-1.36010E-13
 -1        20 1.91517E+01 5.77674E+00 4.99683E-02 2.53666E+00 2.25982E-14 7.67225E-15
 -1        21 1.96570E+01 5.94581E+00 4.75271E-02 3.28542E+00 2.25098E-14 2.82370E-13
 -1        22 2.11566E+01 6.36735E+00 1.40406E-01 4.50232E+00 1.65146E-15 7.59144E-13
 -1        23 2.29449E+01-1.37570E+00-9.37205E-01-7.06278E-01-6.13398E-14 9.16919E-13
 -1        24 1.93133E+01-9.94709E-02-3.08995E-01 6.31930E-02-1.47599E-14 6.28244E-13
 -1        25 1.86478E+01-5.66658E-02-6.87543E-02 6.04142E-02-9.99808E-15 3.86510E-13
 -1        26 1.84718E+01-2.27862E-02-6.99990E-03 3.26318E-02-5.79636E-15 2.12802E-13
 -1        27 1.85185E+01-1.28519E-02 5.80871E-04 2.23178E-02-1.21921E-14 7.16753E-14
 -1        28 1.86824E+01-7.67988E-03 2.89855E-04 1.62061E-02-1.02866E-14-1.93057E-14
 -1        29 1.89124E+01-4.96074E-03-3.24802E-04 1.23924E-02 3.63072E-16-1.17276E-13
 -1        30 1.91842E+01-3.57526E-03-7.80393E-04 9.96390E-03 7.07558E-15-1.98625E-13
 -1        31 1.94876E+01-2.95511E-03-1.33035E-03 8.52457E-03 6.47290E-15-2.74405E-13
 -1        32 1.98211E+01-2.75143E-03-2.03073E-03 7.90893E-03-1.17842E-14-4.29979E-13
 -1        33 2.01876E+01-2.69539E-03-2.76527E-03 8.04693E-03 3.27672E-15-5.33437E-13
 -1        34 2.05916E+01-2.52638E-03-3.29689E-03 8.88400E-03-3.58193E-14-5.42681E-13
 -1        35 2.10352E+01-1.95311E-03-3.25846E-03 1.03085E-02 1.55618E-14-5.26662E-13
 -1        36 2.15137E+01-6.41276E-04-2.11987E-03 1.20573E-02-5.02687E-15-4.69454E-13
 -1        37 2.20097E+01 1.75748E-03 8.15088E-04 1.35820E-02-1.99251E-14-4.71722E-13
 -1        38 2.24861E+01 5.50390E-03 6.29668E-03 1.38849E-02-2.01317E-14-4.74090E-13
 -1        39 2.28791E+01 1.05525E-02 1.47622E-02 1.13952E-02-1.45648E-14-5.61487E-13
 -1        40 2.30961E+01 1.62205E-02 2.56231E-02 4.07763E-03-1.09134E-14-6.29001E-13
 -1        41 2.30240E+01 2.08421E-02 3.62131E-02-9.87245E-03 4.62531E-14-8.22200E-13
 -1        42 2.25587E+01 2.17496E-02 4.11724E-02-3.04568E-02 4.83951E-14-7.99159E-13
 -1        43 2.16600E+01 1.61148E-02 3.36162E-02-5.36672E-02-2.58281E-14-6.82666E-13
 -1        44 2.04185E+01 2.86652E-03 9.22821E-03-7.02803E-02 3.92584E-14-5.30378E-13
 -1        45 1.90947E+01-1.52011E-02-2.77748E-02-6.86290E-02-6.54919E-14-4.72476E-13
 -1        46 1.80709E+01-3.11446E-02-6.21874E-02-4.24994E-02-2.76725E-14-7.56097E-13
 -1        47 1.76986E+01-3.73376E-02-7.58066E-02 1.23033E-03 1.86216E-14-7.63566E-13
 -1        48 1.81161E+01-3.05334E-02-6.07758E-02 4.43864E-02 5.23303E-14-4.05979E-13
 -1        49 1.91706E+01-1.43025E-02-2.57656E-02 6.92527E-02-6.69733E-15-5.31533E-13
 -1        50 2.05052E+01 3.58175E-03 1.08069E-02 6.96848E-02-1.46012E-14-8.15473E-13
 -1        51 2.17416E+01 1.63710E-02 3.41742E-02 5.24122E-02-2.93217E-14-8.05009E-13
 -1        52 2.26293E+01 2.15069E-02 4.07827E-02 2.92096E-02 4.07411E-14-6.74603E-13
 -1        53 2.30880E+01 2.02145E-02 3.51923E-02 9.03574E-03-2.87812E-15-6.51807E-13
 -1        54 2.31649E+01 1.53715E-02 2.43366E-02-4.36965E-03 5.69856E-14-6.56329E-13
 -1        55 2.29674E+01 9.59701E-03 1.34162E-02-1.11633E-02-1.52707E-14-6.08131E-13
 -1        56 2.26098E+01 4.49914E-03 4.93357E-03-1.31836E-02-2.42632E-14-6.57449E-13
 -1        57 2.21853E+01 7.23538E-04-5.95452E-04-1.24225E-02 1.51630E-14-5.79524E-13
 -1        58 2.17582E+01-1.69612E-03-3.63573E-03-1.03890E-02-6.62485E-14-8.27451E-13
 -1        59 2.13665E+01-3.00647E-03-4.92492E-03-8.02003E-03-1.62840E-14-1.11455E-12
 -1        60 2.10288E+01-3.52393E-03-5.13126E-03-5.80749E-03-1.62965E-14-7.08254E-13
 -1        61 2.07504E+01-3.53270E-03-4.74761E-03-3.95736E-03 7.78649E-14-3.02170E-13
 -1        62 2.05291E+01-3.25098E-03-4.09702E-03-2.51582E-03-2.06837E-14-3.34905E-13
 -1        63 2.03585E+01-2.83070E-03-3.37345E-03-1.45103E-03-8.18768E-14-5.15883E-13
 -1        64 2.02310E+01-2.36984E-03-2.68414E-03-7.00097E-04-8.65638E-14-9.06765E-13
 -1        65 2.01387E+01-1.92685E-03-2.08283E-03-1.93148E-04-6.69075E-14-6.67030E-13
 -1        66 2.00742E+01-1.53296E-03-1.59338E-03 1.36271E-04 9.16063E-15-1.73201E-13
 -1        67 2.00315E+01-1.20088E-03-1.22520E-03 3.49431E-04 1.28496E-13 6.48023E-14
 -1        68 2.00057E+01-9.27914E-04-9.74618E-04 5.07676E-04 2.85484E-14 4.05077E-13
 -1        69 1.99930E+01-6.91293E-04-7.93185E-04 6.78114E-04-1.29090E-13-7.13375E-14
 -1        70 1.99907E+01-4.12104E-04-4.80121E-04 9.39233E-04 1.38857E-13 7.03235E-15
 -1        71 1.99960E+01 6.54792E-05 5.99043E-04 1.13226E-03-2.40151E-13-7.30126E-14
 -1        72 2.09623E+01-4.03558E-01-9.78892E-01-3.10742E-01 7.57033E-15 1.63743E-12
 -1        73 1.92754E+01-6.59509E-02-2.90379E-01-5.35524E-02 8.98240E-15 1.39018E-12
 -1        74 1.86537E+01-2.08855E-02-6.42910E-02-1.97650E-02 1.13406E-14 1.17249E-12
 -1        75 1.84763E+01-1.05134E-02-9.88155E-03-1.45709E-02 1.40111E-15 1.01634E-12
 -1        76 1.85221E+01-6.09149E-03-3.82009E-04-1.12441E-02 7.02942E-15 8.97539E-13
 -1        77 1.86850E+01-3.89346E-03 1.32913E-04-8.73618E-03 3.07176E-15 8.20992E-13
 -1        78 1.89154E+01-2.85430E-03-4.13497E-04-6.78567E-03-1.13533E-14 8.29514E-13
 -1        79 1.91908E+01-2.51251E-03-1.08556E-03-5.19697E-03 5.91329E-15 7.43909E-13
 -1        80 1.95042E+01-2.63333E-03-2.04448E-03-3.91623E-03-3.81937E-16 7.17700E-13
 -1        81 1.98592E+01-3.07265E-03-3.41375E-03-2.99319E-03 1.59600E-14 6.43204E-13
 -1        82 2.02670E+01-3.70849E-03-5.20952E-03-2.56117E-03 1.26268E-14 5.22912E-13
 -1        83 2.07449E+01-4.38902E-03-7.36388E-03-2.85080E-03-1.91909E-14 5.52320E-13
 -1        84 2.13139E+01-4.87421E-03-9.67097E-03-4.22278E-03 2.36866E-15 6.71426E-13
 -1        85 2.19956E+01-4.76260E-03-1.16274E-02-7.19645E-03 1.95091E-14 7.18383E-13
 -1        86 2.28056E+01-3.41350E-03-1.21373E-02-1.24190E-02-3.35631E-15 4.26685E-13
 -1        87 2.37415E+01 7.72450E-05-9.08891E-03-2.04421E-02-6.28666E-14 3.52534E-13
 -1        88 2.47615E+01 6.67689E-03 9.61124E-04-3.10365E-02-1.43683E-14 3.99460E-13
 -1        89 2.57534E+01 1.66871E-02 2.22017E-02-4.16885E-02 2.97121E-14 2.38793E-13
 -1        90 2.64994E+01 2.82379E-02 5.64927E-02-4.53042E-02-1.43687E-14 4.64982E-13
 -1        91 2.66649E+01 3.52700E-02 9.61913E-02-2.87779E-02-3.68273E-14 6.83004E-13
 -1        92 2.58729E+01 2.81707E-02 1.15781E-01 2.21849E-02-6.31179E-15 7.84327E-13
 -1        93 2.39376E+01 1.47063E-03 7.72941E-02 1.04663E-01-2.58968E-14 4.01380E-13
 -1        94 2.12162E+01-3.41919E-02-3.36532E-02 1.76647E-01 5.33628E-14-3.90105E-14
 -1        95 1.87627E+01-5.51346E-02-1.64664E-01 1.70646E-01-2.78219E-14 6.76195E-14
 -1        96 1.78451E+01-4.55163E-02-2.16296E-01 6.34739E-02 2.94326E-14 2.70941E-13
 -1        97 1.90037E+01-1.58114E-02-1.43659E-01-7.94054E-02-3.82715E-14 3.97835E-13
 -1        98 2.15712E+01 1.35534E-02-8.97975E-03-1.61375E-01 6.46341E-14 1.89966E-13
 -1        99 2.42543E+01 2.90531E-02 8.81884E-02-1.53591E-01-2.72046E-14-2.10325E-13
 -1       100 2.60730E+01 3.02825E-02 1.15079E-01-9.52463E-02-3.15214E-14 2.22738E-15
 -1       101 2.67506E+01 2.24706E-02 9.05269E-02-3.51350E-02 8.85967E-15-7.15790E-14
 -1       102 2.65150E+01 1.24023E-02 5.06036E-02 4.41374E-03 2.06258E-14-3.40595E-13
 -1       103 2.57489E+01 4.06476E-03 1.76999E-02 2.28997E-02-6.91636E-14-1.63229E-13
 -1       104 2.47763E+01-1.32481E-03-2.14676E-03 2.76727E-02 3.24996E-14 4.84685E-13
 -1       105 2.38031E+01-4.12227E-03-1.12724E-02 2.56322E-02-9.53221E-15 2.15857E-13
 -1       106 2.29333E+01-5.15084E-03-1.38685E-02 2.11179E-02-9.63316E-15-2.76519E-13
 -1       107 2.22050E+01-5.15609E-03-1.32307E-02 1.63133E-02 3.71160E-14-8.16455E-13
 -1       108 2.16202E+01-4.65777E-03-1.13330E-02 1.21040E-02 1.96022E-14-9.80877E-13
 -1       109 2.11643E+01-3.96902E-03-9.17271E-03 8.72684E-03-3.10147E-14-5.54541E-13
 -1       110 2.08168E+01-3.25863E-03-7.17938E-03 6.14367E-03-1.80773E-14-9.29074E-13
 -1       111 2.05571E+01-2.60734E-03-5.49657E-03 4.22491E-03 2.95654E-15-8.95970E-13
 -1       112 2.03667E+01-2.04684E-03-4.14059E-03 2.82895E-03-1.97937E-13-9.24440E-15
 -1       113 2.02298E+01-1.58356E-03-3.07943E-03 1.83098E-03 1.46289E-13 1.37777E-13
 -1       114 2.01339E+01-1.21215E-03-2.26913E-03 1.12956E-03-1.27217E-13-8.35941E-14
 -1       115 2.00688E+01-9.21948E-04-1.66956E-03 6.43782E-04 9.25505E-14-5.53015E-13
 -1       116 2.00268E+01-6.98266E-04-1.24841E-03 3.05325E-04 1.08387E-13-7.47978E-13
 -1       117 2.00023E+01-5.23298E-04-9.74911E-04 4.98083E-05 2.99040E-14-1.35034E-12
 -1       118 1.99910E+01-3.69903E-04-7.82151E-04-1.95947E-04-9.14427E-14-5.51052E-13
 -1       119 1.99900E+01-1.28373E-04-4.09655E-04-5.89897E-04 6.51743E-14-4.52442E-13
 -1       120 1.99959E+01 2.68835E-04 6.35056E-04-1.11643E-03 8.90377E-14-6.65024E-13
 -1       121 1.99999E+01-3.99377E-03 4.38540E-04-1.36448E-03-5.20311E-13-1.29285E-14
 -1       122 1.99995E+01-9.07543E-03-6.36858E-04-7.15618E-04 4.17303E-14 1.93928E-13
 -1       123 1.99994E+01-6.05243E-03-8.00190E-04-1.08233E-04 7.35712E-13 1.83244E-15
 -1       124 1.99996E+01 4.84319E-03-5.33307E-04 3.14585E-04 1.70731E-12 3.90076E-13
 -1       125 1.99998E+01 2.06535E-02-1.36636E-04 5.13315E-04 1.69338E-12-3.20933E-13
 -1       126 2.00000E+01 3.71117E-02 2.30372E-04 5.23581E-04 1.28878E-12-3.83054E-15
 -1       127 2.00002E+01 5.09125E-02 5.11019E-04 3.84030E-04 1.54208E-12-1.28943E-14
 -1       128 2.00003E+01 5.87553E-02 6.61857E-04 1.48960E-04 9.01997E-13 1.47605E-13
 -1       129 2.00003E+01 5.89995E-02 6.63299E-04-1.18859E-04 8.10077E-13 8.03050E-14
 -1       130 2.00002E+01 5.16337E-02 5.16689E-04-3.55083E-04 1.22431E-13-1.42663E-13
 -1       131 2.00000E+01 3.82643E-02 2.40892E-04-5.02086E-04-8.93147E-13-1.59172E-13
 -1       132 1.99998E+01 2.21177E-02-1.14854E-04-4.98652E-04-1.40927E-12 1.59998E-13
 -1       133 1.99996E+01 6.42081E-03-4.95577E-04-3.13520E-04-8.20770E-13-8.05193E-14
 -1       134 1.99994E+01-4.74864E-03-7.97390E-04 4.35528E-05-6.68604E-13 3.29266E-14
 -1       135 1.99996E+01-8.21704E-03-5.80589E-04 9.15131E-04-2.80055E-13 1.00212E-13
 -1       136 1.99997E+01-3.87525E-03 4.10853E-04 1.90141E-03 9.80162E-14 4.59492E-15
 -1       137-1.43650E+00-2.06152E+01-3.16528E+00-3.92887E+00 1.37959E-12 3.54657E-13
 -1       138-1.71097E+00-9.04353E+00-2.39694E+00-3.27924E+00 1.21270E-12 4.47586E-13
 -1       139 2.71356E+00 2.88416E+00-1.23771E+00 3.14396E+00 1.87211E-12 1.50779E-12
 -1       140 1.46919E+01 9.87849E+00 1.94516E-01 1.19780E+01 1.80106E-12 2.03326E-12
 -1       141 3.49716E+01 9.83853E+00 1.79047E+00 1.78168E+01 9.67754E-13 1.68843E-12
 -1       142 5.49772E+01 5.27949E+00 3.06662E+00 1.54734E+01 3.61725E-13 1.08463E-12
 -1       143 6.67965E+01 1.29609E+00 3.76311E+00 4.71801E+00 6.18151E-14 6.14384E-13
 -1       144 6.43563E+01 2.12218E+00 3.62496E+00-8.90570E+00 6.45365E-14-1.23290E-13
 -1       145 4.92973E+01 6.88296E+00 2.73351E+00-1.75106E+01 4.58467E-13-1.19477E-12
 -1       146 2.80018E+01 1.08652E+01 1.31354E+00-1.71224E+01 1.15347E-12-1.79512E-12
 -1       147 9.57465E+00 8.27725E+00-3.11707E-01-8.99892E+00 1.72157E-12-1.67488E-12
 -1       148 1.20288E-01-1.56230E+00-1.72988E+00-1.91139E-02 1.28919E-12-8.62699E-13
 -1       149-1.93688E+00-1.39042E+01-2.74240E+00 4.34414E+00 7.35190E-13-2.22058E-13
 -1       150-1.04799E+00-2.28669E+01-3.30068E+00 2.75101E+00 6.31384E-13-1.06364E-13
 -1       151-8.34114E-01-2.36216E+01-3.31067E+00-1.65193E+00-5.29923E-13-1.96405E-14
 -1       152-1.64605E+00-1.56345E+01-2.77147E+00-4.13843E+00-1.34059E-12-3.77545E-13
 -1       153-5.36735E-01-3.39652E+00-1.79805E+00-1.03607E+00-1.60633E-12-9.15518E-13
 -1       154 2.01275E+01 1.12197E+01 7.98478E-01 1.48228E+01-1.48898E-12-1.83570E-12
 -1       155 3.81763E+01 9.39839E+00 2.02126E+00 1.83966E+01-8.23425E-13-1.34670E-12
 -1       156 5.56034E+01 4.48151E+00 2.99640E+00 1.42974E+01-1.89092E-13-5.57498E-13
 -1       157 6.51834E+01 1.02217E+00 3.47128E+00 3.31061E+00-7.72576E-14 1.20265E-13
 -1       158 6.24276E+01 2.04082E+00 3.33565E+00-8.82584E+00-1.06311E-13 5.52142E-13
 -1       159 4.89594E+01 6.59991E+00 2.64982E+00-1.69821E+01-3.45099E-13 1.12682E-12
 -1       160 3.02675E+01 1.07563E+01 1.52446E+00-1.76666E+01-7.96585E-13 9.95537E-13
 -1       161 1.36195E+01 1.02337E+01 2.30073E-01-1.17379E+01-1.55426E-12 1.62931E-12
 -1       162 2.70543E+00 3.33559E+00-1.07939E+00-3.26466E+00-2.48590E-12 1.71407E-12
 -1       163-1.48240E+00-8.52441E+00-2.24760E+00 2.90465E+00-2.06224E-12 1.02499E-12
 -1       164-1.36083E+00-1.94529E+01-3.02763E+00 3.57495E+00-6.98969E-13 3.76942E-13
 -1       165 2.09926E+01 3.68443E+00-5.69241E-02-3.58134E+00-1.94393E-13-3.35391E-14
 -1       166 1.99934E+01 4.20533E+00-4.55570E-02-2.77684E+00-1.56999E-13-2.17715E-13
 -1       167 1.95258E+01 4.48090E+00-3.10700E-02-2.16252E+00-1.08062E-13-3.25122E-13
 -1       168 1.92872E+01 4.62711E+00-2.32388E-02-1.64226E+00-7.05952E-14-3.59676E-13
 -1       169 1.91559E+01 4.71540E+00-1.92511E-02-1.19086E+00-3.29527E-14-3.57884E-13
 -1       170 1.90794E+01 4.77163E+00-1.71201E-02-7.71236E-01 9.63693E-16-3.58654E-13
 -1       171 1.90397E+01 4.80287E+00-1.60784E-02-3.75908E-01 4.47346E-14-3.38310E-13
 -1       172 1.90281E+01 4.81259E+00-1.57749E-02 8.03952E-03 7.74712E-14-3.19946E-13
 -1       173 1.90420E+01 4.80167E+00-1.61174E-02 3.92338E-01 1.05218E-13-2.95722E-13
 -1       174 1.90841E+01 4.76880E+00-1.71979E-02 7.88768E-01 1.37976E-13-2.59698E-13
 -1       175 1.91616E+01 4.71119E+00-1.94023E-02 1.20304E+00 1.70548E-13-2.09923E-13
 -1       176 1.92979E+01 4.61728E+00-2.37452E-02 1.66560E+00 2.16309E-13-1.40646E-13
 -1       177 1.95403E+01 4.46387E+00-3.25673E-02 2.19315E+00 2.41732E-13-3.66165E-14
 -1       178 2.00168E+01 4.18069E+00-4.68117E-02 2.81537E+00 2.37349E-13 1.49880E-13
 -1       179 2.11120E+01 3.45538E+00-5.93545E-02 3.50900E+00 2.05782E-13 4.60812E-13
 -1       180 2.23671E+01 1.13992E+00-3.35239E-01 2.99428E+00 1.13512E-13 8.33111E-13
 -1       181 2.19340E+01 8.55607E-01 7.50697E-04-1.93883E+00-1.78704E-13 2.38736E-13
 -1       182 2.04299E+01 1.90722E-01-9.72845E-03-7.44492E-01-1.37912E-13 1.61576E-13
 -1       183 1.96786E+01 1.03649E-01 1.37920E-02-2.62544E-01-9.96642E-14 9.88818E-14
 -1       184 1.93698E+01 5.07365E-02 1.02503E-02-3.72049E-02-8.36759E-14 5.03287E-14
 -1       185 1.92816E+01 2.78435E-02 5.49035E-03 8.19531E-02-6.79181E-14 1.88849E-14
 -1       186 1.93246E+01 1.67300E-02 2.86062E-03 1.51186E-01-7.58263E-14-4.40880E-15
 -1       187 1.94491E+01 1.15201E-02 1.66253E-03 1.95497E-01-3.72027E-14-3.32117E-14
 -1       188 1.96289E+01 9.68103E-03 1.12635E-03 2.28223E-01-4.80185E-14-3.81028E-14
 -1       189 1.98506E+01 9.82087E-03 8.67195E-04 2.57042E-01-1.00367E-13-4.27174E-14
 -1       190 2.01084E+01 1.09169E-02 7.10561E-04 2.86177E-01-7.65852E-14-4.95646E-14
 -1       191 2.03998E+01 1.19648E-02 5.58081E-04 3.17048E-01-4.12256E-14-1.78978E-13
 -1       192 2.07233E+01 1.17663E-02 3.32685E-04 3.48154E-01 1.39027E-15-2.15591E-13
 -1       193 2.10744E+01 8.78035E-03-3.37430E-05 3.74480E-01 7.26123E-15-2.54882E-13
 -1       194 2.14431E+01 1.07311E-03-5.90089E-04 3.86678E-01-2.30924E-14-2.33659E-13
 -1       195 2.18097E+01-1.34946E-02-1.33803E-03 3.70435E-01-2.71178E-14-2.36262E-13
 -1       196 2.21411E+01-3.65667E-02-2.18907E-03 3.06957E-01-8.74940E-15-2.30848E-13
 -1       197 2.23896E+01-6.77414E-02-2.93856E-03 1.76179E-01-2.30521E-14-1.94479E-13
 -1       198 2.24950E+01-1.02016E-01-3.24491E-03-3.51684E-02-7.84815E-14-1.96115E-13
 -1       199 2.23959E+01-1.27191E-01-2.79205E-03-3.19354E-01-6.14010E-14-1.99579E-13
 -1       200 2.20512E+01-1.23993E-01-1.50527E-03-6.30470E-01-8.35660E-15-4.32257E-13
 -1       201 2.14737E+01-7.33541E-02 3.26257E-04-8.75906E-01 1.05891E-13-4.61293E-13
 -1       202 2.07606E+01 2.70986E-02 2.01458E-03-9.36145E-01-1.00381E-15-3.69255E-13
 -1       203 2.00956E+01 1.46889E-01 2.82913E-03-7.24815E-01-4.66714E-14-2.56515E-13
 -1       204 1.96961E+01 2.28676E-01 3.04992E-03-2.63499E-01 1.12224E-13-1.10381E-13
 -1       205 1.97102E+01 2.26224E-01 3.02898E-03 2.96292E-01 8.57097E-14-2.21026E-13
 -1       206 2.01335E+01 1.41187E-01 2.86384E-03 7.47495E-01-1.01294E-13-4.59774E-13
 -1       207 2.08124E+01 2.13071E-02 1.96704E-03 9.44745E-01-1.77301E-13-5.19987E-13
 -1       208 2.15295E+01-7.66816E-02 2.20477E-04 8.73433E-01 2.03750E-14-5.47992E-13
 -1       209 2.21056E+01-1.23989E-01-1.55012E-03 6.24199E-01 1.78937E-14-4.60792E-13
 -1       210 2.24496E+01-1.24607E-01-2.77923E-03 3.16551E-01 7.85006E-15-5.13317E-13
 -1       211 2.25539E+01-9.79695E-02-3.13996E-03 4.08302E-02 3.16370E-16-3.42406E-13
 -1       212 2.24624E+01-6.31018E-02-2.75925E-03-1.59484E-01 4.41671E-14-3.84199E-13
 -1       213 2.22381E+01-3.17414E-02-1.97275E-03-2.78220E-01-4.40431E-14-5.22627E-13
 -1       214 2.19420E+01-8.53854E-03-1.10022E-03-3.29228E-01 1.35312E-13-4.97796E-13
 -1       215 2.16222E+01 6.23746E-03-3.47849E-04-3.32603E-01-1.06034E-13-5.38052E-13
 -1       216 2.13117E+01 1.42215E-02 1.98824E-04-3.07033E-01-1.17410E-13-3.64774E-13
 -1       217 2.10303E+01 1.74546E-02 5.36526E-04-2.66884E-01 1.36637E-13-4.74965E-13
 -1       218 2.07876E+01 1.77118E-02 7.03055E-04-2.21913E-01 1.16769E-13-3.01202E-13
 -1       219 2.05861E+01 1.63111E-02 7.47658E-04-1.78076E-01 5.66658E-15-4.67741E-13
 -1       220 2.04241E+01 1.41401E-02 7.15425E-04-1.38569E-01-1.47576E-13-4.63968E-13
 -1       221 2.02974E+01 1.17525E-02 6.41358E-04-1.04757E-01-8.21193E-14-4.22204E-13
 -1       222 2.02011E+01 9.46877E-03 5.49765E-04-7.68719E-02 2.85498E-13-2.65117E-13
 -1       223 2.01298E+01 7.45678E-03 4.55620E-04-5.45009E-02 2.69255E-13 1.62000E-14
 -1       224 2.00789E+01 5.79051E-03 3.66062E-04-3.69047E-02 2.39868E-13 2.44022E-13
 -1       225 2.00439E+01 4.48780E-03 2.81240E-04-2.32195E-02 2.33572E-13 3.30102E-13
 -1       226 2.00214E+01 3.51293E-03 1.99636E-04-1.25981E-02-2.25412E-13 7.20226E-14
 -1       227 2.00083E+01 2.71033E-03 1.42454E-04-4.42879E-03 6.61048E-14 1.74213E-13
 -1       228 2.00017E+01 1.65208E-03 1.14938E-04 1.32005E-03-2.06326E-13 1.17405E-14
 -1       229 2.09282E+01 2.76432E-01-5.09921E-02 1.14864E+00 1.28571E-13 7.28987E-13
 -1       230 1.98551E+01 1.27467E-01 8.47258E-03 4.26572E-01 1.22483E-13 6.23677E-13
 -1       231 1.93753E+01 5.98422E-02 1.28826E-02 1.29256E-01 7.40562E-14 5.27470E-13
 -1       232 1.92009E+01 3.07320E-02 7.82365E-03-1.79838E-02 7.13171E-14 4.67881E-13
 -1       233 1.92000E+01 1.75287E-02 4.08739E-03-9.92627E-02 3.36746E-14 4.18539E-13
 -1       234 1.93038E+01 1.13659E-02 2.24901E-03-1.48886E-01-6.51497E-16 3.83128E-13
 -1       235 1.94769E+01 9.04327E-03 1.43329E-03-1.84070E-01 5.71238E-14 3.26256E-13
 -1       236 1.97027E+01 9.20689E-03 1.06157E-03-2.14967E-01 3.67810E-14 2.53379E-13
 -1       237 1.99765E+01 1.11862E-02 8.76994E-04-2.48436E-01 5.18501E-14 1.95975E-13
 -1       238 2.03015E+01 1.45569E-02 7.63319E-04-2.89473E-01 4.12509E-14 2.63745E-13
 -1       239 2.06859E+01 1.89076E-02 6.42151E-04-3.41627E-01-2.56672E-14 3.14679E-13
 -1       240 2.11409E+01 2.36116E-02 4.33654E-04-4.06702E-01-5.70479E-14 3.06979E-13
 -1       241 2.16775E+01 2.74968E-02 5.13667E-05-4.83626E-01 4.89182E-14 2.78685E-13
 -1       242 2.23016E+01 2.83392E-02-5.67285E-04-5.66128E-01 9.90664E-14 2.33410E-13
 -1       243 2.30065E+01 2.21809E-02-1.37059E-03-6.38819E-01 1.37619E-14 2.91755E-13
 -1       244 2.37612E+01 2.76748E-03-2.02707E-03-6.71724E-01-2.24324E-14 1.66753E-13
 -1       245 2.44952E+01-3.78000E-02-1.78524E-03-6.15284E-01 8.26025E-14 1.76721E-13
 -1       246 2.50846E+01-1.04657E-01 3.89725E-04-4.02749E-01-7.94274E-14 1.90971E-13
 -1       247 2.53521E+01-1.88785E-01 4.91063E-03 2.55425E-02-1.35151E-13 1.91530E-13
 -1       248 2.51047E+01-2.49149E-01 9.32964E-03 6.59018E-01-4.41435E-14 2.12812E-13
 -1       249 2.42386E+01-2.07719E-01 7.64019E-03 1.31909E+00 1.53905E-13 2.29742E-13
 -1       250 2.29067E+01-5.92882E-03-5.64899E-03 1.62921E+00 2.03038E-13 2.15206E-13
 -1       251 2.16231E+01 2.83646E-01-2.55109E-02 1.21615E+00-2.09919E-14 4.23619E-15
 -1       252 2.10671E+01 4.53212E-01-3.33948E-02 1.29201E-01-9.67906E-14-7.48093E-14
 -1       253 2.15869E+01 3.48129E-01-2.01749E-02-1.03745E+00 1.89952E-16-9.38485E-15
 -1       254 2.28711E+01 6.81380E-02 1.36305E-03-1.61174E+00 5.79077E-14-1.32014E-13
 -1       255 2.42329E+01-1.65516E-01 1.07871E-02-1.43283E+00 1.37377E-13 1.46643E-13
 -1       256 2.51408E+01-2.44347E-01 9.66096E-03-8.14318E-01-1.57276E-13-4.15284E-14
 -1       257 2.54271E+01-2.04862E-01 3.41916E-03-1.57779E-01 9.39275E-14-1.99821E-13
 -1       258 2.51931E+01-1.24315E-01-1.61730E-03 3.15033E-01 8.44754E-14-6.13320E-14
 -1       259 2.46341E+01-5.26669E-02-3.48391E-03 5.65300E-01-1.25425E-13-1.64146E-13
 -1       260 2.39302E+01-5.56506E-03-3.09416E-03 6.44125E-01-1.36395E-13-3.82254E-13
 -1       261 2.32082E+01 1.93120E-02-1.86097E-03 6.19277E-01 1.81840E-13-2.53830E-13
 -1       262 2.25418E+01 2.92327E-02-6.77317E-04 5.44225E-01 1.23617E-13-5.70786E-13
 -1       263 2.19649E+01 3.07065E-02 1.41278E-04 4.52732E-01 2.53443E-13-7.39865E-13
 -1       264 2.14867E+01 2.81106E-02 5.92232E-04 3.63020E-01-7.20835E-14-8.19847E-13
 -1       265 2.11022E+01 2.39743E-02 7.76730E-04 2.83374E-01-2.24360E-13-6.43838E-13
 -1       266 2.08006E+01 1.96013E-02 7.99741E-04 2.16497E-01 1.12514E-13-4.91548E-13
 -1       267 2.05687E+01 1.55858E-02 7.38667E-04 1.62280E-01-2.24369E-13-2.50787E-13
 -1       268 2.03938E+01 1.21470E-02 6.42026E-04 1.19379E-01-3.41826E-13-1.14941E-13
 -1       269 2.02642E+01 9.32200E-03 5.37066E-04 8.60421E-02 7.02313E-14-1.24655E-13
 -1       270 2.01702E+01 7.06906E-03 4.37192E-04 6.04987E-02-3.15120E-14-1.23179E-13
 -1       271 2.01037E+01 5.32086E-03 3.46936E-04 4.11309E-02 2.61475E-13-1.77947E-13
 -1       272 2.00583E+01 4.00725E-03 2.65026E-04 2.65244E-02 1.94625E-13-1.10628E-13
 -1       273 2.00288E+01 3.05084E-03 1.85741E-04 1.54866E-02 8.66080E-14 9.94808E-14
 -1       274 2.00114E+01 2.37242E-03 1.11553E-04 7.10395E-03-3.30535E-13 1.42329E-13
 -1       275 2.00028E+01 1.82521E-03 1.18886E-04 8.27397E-04 1.61788E-13 2.01038E-14
 -1       276 1.99999E+01 3.63390E-04 2.53486E-04-2.80312E-03-1.93407E-14-5.64193E-14
 -1       277 2.00016E+01 1.31690E-03 9.48065E-05-1.17392E-03 1.93538E-13 5.41750E-13
 -1       278 2.00024E+01 6.55422E-03 2.11448E-05 4.16254E-03 2.94085E-13 4.24992E-13
 -1       279 2.00018E+01 1.59591E-02 4.98905E-06 9.65939E-03 4.53922E-13 3.89210E-13
 -1       280 2.00007E+01 2.84153E-02-7.71476E-07 1.30033E-02 4.54081E-13 6.98636E-14
 -1       281 1.99994E+01 4.16333E-02-2.71964E-05 1.34206E-02 5.76008E-13-2.78076E-13
 -1       282 1.99983E+01 5.36200E-02-5.55186E-05 1.09403E-02 4.84513E-13-1.61284E-13
 -1       283 1.99976E+01 6.18730E-02-7.80105E-05 6.17016E-03 4.47806E-13-3.88852E-13
 -1       284 1.99973E+01 6.48563E-02-8.63351E-05 1.56737E-04 2.73428E-13-1.37234E-13
 -1       285 1.99976E+01 6.20279E-02-7.84501E-05-5.86052E-03 2.02636E-13-3.57579E-13
 -1       286 1.99983E+01 5.39347E-02-5.67916E-05-1.06549E-02 1.13783E-13-5.89067E-13
 -1       287 1.99994E+01 4.23360E-02-2.75800E-05-1.31857E-02-1.01713E-14-4.31205E-13
 -1       288 2.00006E+01 2.90064E-02-2.79817E-06-1.29214E-02 2.49407E-13 4.16808E-13
 -1       289 2.00017E+01 1.65493E-02 1.90016E-06-9.75006E-03 1.62794E-13 9.25611E-14
 -1       290 2.00023E+01 7.37441E-03 7.18730E-05-4.65364E-03-5.40959E-14-8.29754E-15
 -1       291 2.00034E+01 4.45481E-03 5.96776E-05-1.35479E-03-2.49701E-13 1.16186E-13
 -1       292-9.60893E-01-1.08657E+01-9.80274E-01 7.65024E-01 4.29524E-13 4.25812E-13
 -1       293 2.46236E+00-8.60380E+00-7.91674E-01 3.26129E+00 4.65322E-13 1.11008E-13
 -1       294 9.52334E+00-5.40480E+00-5.09629E-01 5.49477E+00 4.82364E-13 9.25454E-13
 -1       295 1.82621E+01-1.52113E+00-1.72560E-01 6.94182E+00 6.82288E-13 8.69194E-13
 -1       296 2.93413E+01 1.31022E+00 2.36078E-01 6.65382E+00 7.70370E-13 5.38014E-13
 -1       297 3.78669E+01 4.13422E+00 4.65523E-01 4.10913E+00 6.63736E-13 4.97297E-13
 -1       298 4.50876E+01 6.36387E+00 9.23626E-01 2.77763E+00 4.01665E-13 5.39208E-13
 -1       299 4.61040E+01 7.10194E+00 9.59942E-01-5.13022E-01 3.07754E-13 2.80168E-13
 -1       300 4.43073E+01 5.89002E+00 9.78578E-01-4.28323E+00 5.52849E-13-1.29341E-14
 -1       301 3.63227E+01 4.06759E+00 6.24891E-01-6.78060E+00 5.43246E-13-3.59046E-13
 -1       302 2.56471E+01 6.97344E-01 1.25848E-01-7.22080E+00 5.95718E-13-5.08982E-13
 -1       303 1.49032E+01-3.10212E+00-3.06196E-01-6.45387E+00 2.97734E-13-7.10487E-13
 -1       304 6.38828E+00-6.73710E+00-6.33778E-01-4.67364E+00 3.15442E-13-4.64047E-13
 -1       305 7.49091E-01-9.83303E+00-9.21737E-01-2.19981E+00 2.59209E-13-1.91944E-13
 -1       306-1.18920E+00-1.00777E+01-8.53283E-01-6.30449E-02-6.63879E-14-5.05929E-13
 -1       307 1.40063E-01-1.01529E+01-9.38229E-01 2.08536E+00-3.45834E-13-4.72011E-13
 -1       308 4.71614E+00-7.18894E+00-7.12260E-01 4.21462E+00-5.59941E-13-5.03733E-13
 -1       309 1.20678E+01-3.29957E+00-3.66045E-01 6.24522E+00-6.34492E-13-6.83217E-13
 -1       310 2.13136E+01 4.19113E-01 3.09997E-02 7.58070E+00-6.61859E-13-5.42538E-13
 -1       311 3.10313E+01 3.31922E+00 4.27807E-01 7.60734E+00-6.53325E-13-2.39975E-13
 -1       312 3.94783E+01 5.31899E+00 7.53356E-01 6.08399E+00-5.87239E-13-1.45883E-13
 -1       313 4.38041E+01 6.69122E+00 8.18724E-01 2.37327E+00-4.05398E-13 4.61853E-14
 -1       314 4.63328E+01 6.64507E+00 9.95900E-01-8.73592E-01-3.27294E-13 2.62235E-13
 -1       315 4.26689E+01 6.13635E+00 8.37628E-01-3.97290E+00-3.54342E-13 3.25656E-13
 -1       316 3.62073E+01 4.60085E+00 6.32907E-01-6.93855E+00-3.36828E-13 5.42538E-13
 -1       317 2.69749E+01 2.23980E+00 2.61856E-01-7.80299E+00-8.90427E-13 3.56520E-13
 -1       318 1.74501E+01-1.06453E+00-1.37865E-01-7.15334E+00-1.07561E-12 5.04874E-13
 -1       319 8.90175E+00-4.89200E+00-4.99253E-01-5.52304E+00-8.57009E-13 9.20250E-13
 -1       320 2.77866E+00-8.16539E+00-7.28425E-01-3.70031E+00-4.75453E-13 8.95693E-13
 -1       321-6.26811E-01-9.66328E+00-8.00237E-01-1.57838E+00-1.74444E-13 8.49043E-13
 -1       322 2.01496E+01 3.00706E+00-2.19022E-02-2.05691E+00-1.57999E-13-1.89071E-13
 -1       323 2.07548E+01 2.20698E+00-1.74825E-02-2.32965E+00-1.89710E-13-8.31800E-14
 -1       324 1.95987E+01 3.72008E+00-1.54562E-02-1.27846E+00-6.81171E-14-2.65352E-13
 -1       325 1.94704E+01 3.88740E+00-1.35103E-02-8.92354E-01-1.82931E-14-2.86624E-13
 -1       326 1.93961E+01 3.98607E+00-1.24705E-02-5.23591E-01 2.59831E-14-2.57913E-13
 -1       327 1.93625E+01 4.03158E+00-1.20209E-02-1.66411E-01 8.15937E-14-2.54550E-13
 -1       328 1.93642E+01 4.03001E+00-1.20382E-02 1.86962E-01 1.17469E-13-2.30108E-13
 -1       329 1.94012E+01 3.98098E+00-1.25116E-02 5.44513E-01 1.45102E-13-2.06737E-13
 -1       330 1.94776E+01 3.88005E+00-1.35676E-02 9.07632E-01 1.81873E-13-1.65406E-13
 -1       331 1.96100E+01 3.70736E+00-1.55104E-02 1.29431E+00 2.34467E-13-9.86229E-14
 -1       332 1.98275E+01 3.42703E+00-1.87331E-02 1.69671E+00 2.65164E-13-4.16455E-14
 -1       333 2.01931E+01 2.96147E+00-2.27904E-02 2.08686E+00 2.74402E-13 7.02615E-14
 -1       334 2.07463E+01 2.12863E+00-3.02557E-02 2.28830E+00 2.30262E-13 2.77108E-13
 -1       335 2.10779E+01 1.18605E+00-2.46527E-02 1.89535E+00 1.88826E-13 4.44539E-13
 -1       336 2.03916E+01 4.92013E-01 8.48860E-03 8.97706E-01 1.62680E-13 3.60239E-13
 -1       337 2.04702E+01 6.81569E-01 1.27180E-02-9.85174E-01-1.29150E-13-4.07047E-14
 -1       338 2.00705E+01 3.49535E-01 7.33750E-03-4.06568E-01-1.05478E-13-2.44893E-14
 -1       339 1.98464E+01 1.95448E-01 4.32340E-03-7.94531E-02-8.70210E-14-2.68678E-14
 -1       340 1.97511E+01 1.16646E-01 2.18144E-03 1.17321E-01-7.86781E-14-2.25718E-14
 -1       341 1.97486E+01 7.57619E-02 1.17868E-03 2.42452E-01-6.60734E-14-3.20997E-15
 -1       342 1.98125E+01 5.58840E-02 7.61807E-04 3.28972E-01-5.11691E-14-1.91156E-14
 -1       343 1.99255E+01 4.83733E-02 5.99572E-04 3.96366E-01-2.17316E-14-5.74118E-15
 -1       344 2.00772E+01 4.78050E-02 5.41134E-04 4.56199E-01-9.24772E-14 1.63465E-14
 -1       345 2.02621E+01 4.97786E-02 5.07749E-04 5.14439E-01-1.19102E-13-2.16288E-14
 -1       346 2.04770E+01 4.97767E-02 4.37090E-04 5.72104E-01-6.42596E-14-6.65434E-14
 -1       347 2.07197E+01 4.24563E-02 2.64540E-04 6.24948E-01-7.40514E-14-1.59537E-13
 -1       348 2.09871E+01 2.12765E-02-7.86450E-05 6.62601E-01 4.47844E-14-1.47962E-13
 -1       349 2.12737E+01-2.12672E-02-6.53492E-04 6.67590E-01-2.74637E-14-7.41927E-14
 -1       350 2.15692E+01-9.21352E-02-1.48342E-03 6.15116E-01 2.51329E-14-1.30399E-13
 -1       351 2.18565E+01-1.93885E-01-2.49447E-03 4.75169E-01-1.21266E-14-9.49395E-14
 -1       352 2.21086E+01-3.17546E-01-3.49331E-03 2.19686E-01-5.98390E-14-9.62683E-14
 -1       353 2.22859E+01-4.32966E-01-3.97197E-03-1.62118E-01-2.17393E-14-2.24441E-14
 -1       354 2.23377E+01-4.82772E-01-3.46137E-03-6.39180E-01-1.27585E-13-2.57495E-14
 -1       355 2.22150E+01-3.92660E-01-1.83102E-03-1.11239E+00-5.59318E-15-2.09562E-14
 -1       356 2.19032E+01-1.13080E-01 7.49238E-04-1.40967E+00 6.14833E-14-1.68253E-13
 -1       357 2.14692E+01 3.12868E-01 3.23274E-03-1.33949E+00 3.67084E-14-4.51919E-14
 -1       358 2.10790E+01 7.14712E-01 4.05131E-03-8.14575E-01 3.02317E-14-7.52093E-14
 -1       359 2.09283E+01 8.73609E-01 3.95744E-03 2.77459E-02-6.91916E-14-3.45161E-13
 -1       360 2.10997E+01 6.98188E-01 4.16293E-03 8.60999E-01-8.83618E-14-5.25896E-13
 -1       361 2.15021E+01 2.90689E-01 3.23067E-03 1.36437E+00-5.88600E-14-4.04377E-13
 -1       362 2.19387E+01-1.30272E-01 4.10544E-04 1.41345E+00-8.92219E-14-2.60932E-13
 -1       363 2.22479E+01-3.97892E-01-2.02381E-03 1.10544E+00 5.59210E-14-3.48724E-13
 -1       364 2.23693E+01-4.76811E-01-3.62418E-03 6.34096E-01 5.17479E-14-3.51296E-13
 -1       365 2.23211E+01-4.19536E-01-3.95586E-03 1.68352E-01-3.13313E-15-2.43500E-13
 -1       366 2.21539E+01-3.00421E-01-3.33931E-03-1.96759E-01 7.70370E-14-1.39347E-13
 -1       367 2.19186E+01-1.75394E-01-2.30955E-03-4.33264E-01 2.07040E-14-6.39936E-14
 -1       368 2.16546E+01-7.30761E-02-1.26787E-03-5.53386E-01-1.54398E-13-1.65719E-13
 -1       369 2.13887E+01-1.66513E-03-4.26843E-04-5.85565E-01-9.39514E-14-3.36032E-13
 -1       370 2.11379E+01 4.15338E-02 1.54170E-04-5.59854E-01 1.39456E-13-3.15540E-13
 -1       371 2.09120E+01 6.31915E-02 4.97835E-04-5.01293E-01 1.26969E-14-1.27719E-13
 -1       372 2.07155E+01 7.02315E-02 6.59593E-04-4.28137E-01 1.42319E-13 6.80515E-15
 -1       373 2.05498E+01 6.83311E-02 6.97869E-04-3.52402E-01 4.39021E-15-2.19207E-13
 -1       374 2.04134E+01 6.16083E-02 6.61606E-04-2.81221E-01 1.73344E-14 6.91936E-15
 -1       375 2.03039E+01 5.28112E-02 5.86723E-04-2.18256E-01-7.31275E-14 2.67331E-13
 -1       376 2.02178E+01 4.36471E-02 4.97247E-04-1.64875E-01 4.15118E-14 3.88700E-13
 -1       377 2.01518E+01 3.50960E-02 4.07850E-04-1.21037E-01 3.81847E-13 2.47531E-13
 -1       378 2.01022E+01 2.76558E-02 3.26095E-04-8.59075E-02 4.46759E-13 4.20924E-13
 -1       379 2.00659E+01 2.15162E-02 2.54201E-04-5.82779E-02 2.89825E-13 5.45627E-13
 -1       380 2.00401E+01 1.66445E-02 1.94872E-04-3.68685E-02-2.14616E-13 4.25749E-13
 -1       381 2.00223E+01 1.27684E-02 1.70569E-04-2.04864E-02-2.35304E-13 3.13360E-13
 -1       382 2.00110E+01 8.83555E-03 7.31529E-05-9.10928E-03-2.29633E-13 3.25139E-14
 -1       383 1.99136E+01 2.35098E-01 1.09500E-02 3.60947E-01 1.27938E-13 3.35310E-13
 -1       384 1.96569E+01 1.26234E-01 6.41391E-03 6.84186E-02 1.01936E-13 2.74986E-13
 -1       385 1.95658E+01 7.35371E-02 3.15341E-03-1.01029E-01 7.62741E-14 2.08494E-13
 -1       386 1.95851E+01 4.77889E-02 1.65339E-03-2.06733E-01 1.92895E-14 1.26003E-13
 -1       387 1.96809E+01 3.69031E-02 1.08496E-03-2.80845E-01 6.01587E-14 1.14285E-13
 -1       388 1.98338E+01 3.54656E-02 9.23528E-04-3.42489E-01 5.54697E-14 7.69866E-14
 -1       389 2.00350E+01 4.06987E-02 9.52605E-04-4.04330E-01 8.49802E-14 7.97542E-14
 -1       390 2.02825E+01 5.08242E-02 1.08116E-03-4.75283E-01-1.09977E-14 1.32036E-13
 -1       391 2.05791E+01 6.41916E-02 1.24471E-03-5.61448E-01-5.70804E-14 2.01340E-13
 -1       392 2.09301E+01 7.84985E-02 1.36279E-03-6.65850E-01-9.29904E-15 2.18162E-13
 -1       393 2.13416E+01 8.97648E-02 1.31555E-03-7.86959E-01 1.32110E-13 9.40675E-14
 -1       394 2.18178E+01 9.08633E-02 9.32934E-04-9.15617E-01 5.90187E-14 7.88041E-14
 -1       395 2.23578E+01 6.96824E-02 1.41934E-05-1.02995E+00 3.77861E-15 1.88610E-13
 -1       396 2.29510E+01 7.82018E-03-1.58171E-03-1.08847E+00 1.83541E-14 1.84539E-13
 -1       397 2.35711E+01-1.17177E-01-3.76139E-03-1.02359E+00 9.96118E-14 1.41195E-13
 -1       398 2.41684E+01-3.19221E-01-6.07418E-03-7.43817E-01 2.95896E-14 4.29806E-14
 -1       399 2.46579E+01-5.72351E-01-7.46483E-03-1.61919E-01-8.90004E-14-1.02610E-13
 -1       400 2.49118E+01-7.62909E-01-7.01946E-03 7.28149E-01-7.56786E-14-1.34731E-13
 -1       401 2.47706E+01-6.65086E-01-6.76437E-03 1.71673E+00 4.72721E-14-9.59215E-15
 -1       402 2.41666E+01-8.89835E-02-9.45420E-03 2.29091E+00 2.43297E-13 1.29666E-13
 -1       403 2.33303E+01 8.11075E-01-1.65151E-02 1.84481E+00 9.64177E-14 5.88791E-14
 -1       404 2.28299E+01 1.40348E+00-1.81375E-02 3.45037E-01-1.11902E-13 1.57086E-13
 -1       405 2.31061E+01 1.13111E+00-1.23395E-02-1.38404E+00 6.11542E-14-1.52127E-14
 -1       406 2.39285E+01 2.52621E-01-2.78341E-03-2.27448E+00 1.54433E-13-2.34998E-13
 -1       407 2.46676E+01-4.96498E-01-6.22548E-03-2.03562E+00 9.32492E-14-3.42322E-13
 -1       408 2.49769E+01-7.72002E-01-7.89276E-03-1.12523E+00-5.77129E-14-2.62595E-13
 -1       409 2.48386E+01-6.63293E-01-9.35208E-03-1.56701E-01 2.41088E-14 3.72712E-14
 -1       410 2.44114E+01-4.12229E-01-8.31806E-03 5.44439E-01 1.42845E-13 1.72195E-13
 -1       411 2.38462E+01-1.81166E-01-5.60599E-03 9.21224E-01 1.10920E-13-2.00068E-13
 -1       412 2.32436E+01-2.49081E-02-2.67801E-03 1.04477E+00 4.91957E-15-6.76922E-13
 -1       413 2.26632E+01 6.03730E-02-4.16248E-04 1.01103E+00-7.85217E-14-7.43511E-13
 -1       414 2.21373E+01 9.63063E-02 9.44640E-04 8.97648E-01 2.37061E-13-4.73201E-13
 -1       415 2.16808E+01 1.03452E-01 1.57363E-03 7.55367E-01 2.67383E-13-2.65998E-13
 -1       416 2.12972E+01 9.61576E-02 1.73104E-03 6.12839E-01-1.60923E-14-1.49958E-13
 -1       417 2.09832E+01 8.29908E-02 1.63270E-03 4.83985E-01-3.03381E-13-3.36900E-13
 -1       418 2.07316E+01 6.85298E-02 1.42173E-03 3.74050E-01-6.53886E-14-2.20937E-13
 -1       419 2.05340E+01 5.49611E-02 1.18027E-03 2.83649E-01-3.83251E-13 2.69501E-14
 -1       420 2.03815E+01 4.31640E-02 9.49735E-04 2.11192E-01-2.80386E-13-3.66196E-14
 -1       421 2.02660E+01 3.33564E-02 7.47754E-04 1.54219E-01-6.94723E-14 1.09068E-13
 -1       422 2.01800E+01 2.54522E-02 5.79453E-04 1.10093E-01 2.39551E-14 4.01476E-13
 -1       423 2.01174E+01 1.92485E-02 4.43097E-04 7.63215E-02 1.54740E-13 4.21080E-13
 -1       424 2.00730E+01 1.45119E-02 3.33581E-04 5.06856E-02 2.78793E-13 4.67121E-13
 -1       425 2.00424E+01 1.09773E-02 2.45510E-04 3.12975E-02 3.01106E-14 3.85982E-13
 -1       426 2.00223E+01 8.30815E-03 1.65759E-04 1.67223E-02-2.05469E-13 2.82584E-13
 -1       427 2.00099E+01 5.91947E-03 1.08739E-04 6.11287E-03-4.96673E-14 2.07496E-13
 -1       428 2.00051E+01 4.24266E-03 4.90365E-05 1.76284E-03 4.32256E-14 6.28810E-13
 -1       429 2.00049E+01 3.53319E-02 4.39417E-05 2.34241E-02 1.94056E-13 5.55701E-13
 -1       430 2.00084E+01 2.14463E-02 7.05242E-05 1.68606E-02 1.06121E-16 5.24471E-13
 -1       431 2.00079E+01 1.13711E-02 7.43021E-05 8.79424E-03-1.33354E-13 3.93494E-13
 -1       432 2.00002E+01 4.96802E-02 3.98420E-06 2.56542E-02 6.25957E-14-3.24621E-13
 -1       433 1.99956E+01 6.29888E-02-3.39934E-05 2.29500E-02 1.62877E-13-1.17041E-13
 -1       434 1.99919E+01 7.30787E-02-6.54575E-05 1.58265E-02 8.32222E-14-2.56054E-13
 -1       435 1.99900E+01 7.84697E-02-8.33537E-05 5.72279E-03-1.51326E-14-3.97281E-13
 -1       436 1.99900E+01 7.83725E-02-8.39190E-05-5.41869E-03-1.14287E-13-2.76445E-13
 -1       437 1.99919E+01 7.28209E-02-6.66197E-05-1.55002E-02 1.49941E-14-4.11296E-13
 -1       438 1.99954E+01 6.28794E-02-3.56292E-05-2.25353E-02 4.27694E-13-2.48906E-13
 -1       439 2.00000E+01 4.96538E-02-4.86341E-06-2.54129E-02 6.08642E-13 5.58423E-13
 -1       440 2.00045E+01 3.52357E-02 2.83571E-05-2.33651E-02 2.76239E-13-1.14923E-13
 -1       441 2.00081E+01 2.12182E-02 6.19672E-05-1.69998E-02-1.63226E-13-4.10364E-13
 -1       442 1.09357E+01-5.28346E+00 3.46935E-02 6.81599E+00 1.48326E-13 4.49418E-13
 -1       443 1.45609E+00-3.84749E+00-9.64693E-03-6.48938E-02-1.78649E-13 8.07437E-13
 -1       444 3.25791E+00-4.55553E+00-3.71407E-02 3.76524E+00 5.08898E-14 2.20796E-13
 -1       445 1.97831E+01-5.73620E+00 1.95992E-02 6.37057E+00-1.39944E-13 4.08784E-13
 -1       446 2.62880E+01-4.35872E+00-3.56915E-02 4.17460E+00 1.36752E-13 6.84869E-14
 -1       447 1.98081E+01 3.45012E+00-1.86169E-02-1.67815E+00-1.09662E-13-2.65121E-13
 -1       448 3.56939E+01 5.20443E+00 7.18800E-02-3.56618E-01 4.68459E-13 2.28068E-13
 -1       449 3.56367E+01 7.75009E+00 4.24791E-02-3.83278E-01 4.15890E-13 2.27082E-13
 -1       450 3.56919E+01 7.02254E+00 4.22011E-02 5.74626E-01 5.73069E-13 2.88089E-13
 -1       451 3.52399E+01 3.62671E+00 7.59299E-02-2.57449E-01 5.20931E-13 1.71141E-13
 -1       452 3.13070E+01-9.81359E-01 1.97708E-02-2.14830E+00 3.08746E-13 2.43333E-13
 -1       453 2.40440E+01-4.46867E+00-2.65829E-02-5.34235E+00-5.18474E-14-1.70849E-13
 -1       454 1.53661E+01-5.81486E+00-5.18612E-02-6.87333E+00-1.73611E-13-3.40557E-13
 -1       455 6.99992E+00-5.42171E+00-6.70070E-02-5.84317E+00-3.43336E-14-1.75457E-13
 -1       456 2.55391E+00-4.17146E+00-1.49426E-02-2.88994E+00-1.23297E-13-3.71175E-13
 -1       457 1.61870E+00-4.48457E+00-6.97247E-02 2.29442E+00-1.52170E-14-5.35821E-13
 -1       458 5.52102E+00-5.38115E+00-1.00088E-01 5.62955E+00-3.61378E-14-3.45987E-13
 -1       459 1.28078E+01-5.54381E+00-7.02559E-02 7.14020E+00-6.77236E-15-4.16058E-13
 -1       460 2.12055E+01-4.62716E+00-1.42100E-02 6.31673E+00-9.61869E-14-8.31279E-14
 -1       461 2.80738E+01-2.03377E+00 9.54832E-03 4.00949E+00-2.76001E-13 9.91013E-14
 -1       462 3.24189E+01 1.75660E+00 2.31783E-02 1.24919E+00-4.20608E-13 1.56597E-13
 -1       463 3.48964E+01 5.56495E+00 3.21973E-02 1.45495E-01-5.33559E-13 1.82188E-13
 -1       464 3.41660E+01 8.11139E+00-2.84137E-02-1.76282E-01-5.01765E-13 1.88776E-13
 -1       465 3.44885E+01 7.51319E+00-1.46710E-02 4.01403E-01-3.38868E-13 3.99167E-13
 -1       466 3.40138E+01 4.07910E+00 2.57027E-02-4.60607E-01-3.61267E-13 3.13263E-13
 -1       467 3.11162E+01 3.56679E-01 5.13778E-02-2.79867E+00-4.14639E-13 2.93154E-13
 -1       468 2.53142E+01-3.13796E+00-2.16030E-03-5.12378E+00-5.03722E-13-1.43358E-13
 -1       469 1.86546E+01-5.41202E+00-6.43902E-03-6.81941E+00-4.14807E-14-1.48260E-13
 -1       470 1.16244E+01-5.26525E+00 1.91546E-02-7.20640E+00 5.09731E-14 3.98945E-13
 -1       471 3.90867E+00-4.64977E+00-3.63997E-02-4.66842E+00-4.25215E-14 9.72833E-13
 -1       472 3.18124E+01-6.13083E-01-6.79794E-02 5.16152E-01 3.12289E-13 8.47933E-14
 -1       473 2.03964E+01 8.45978E-01 4.07087E-03 9.20427E-01 1.65193E-13 1.37191E-13
 -1       474 1.97290E+01 3.17043E+00-5.31360E-03-5.99438E-01 4.52729E-15-2.32333E-13
 -1       475 1.98347E+01 2.98359E+00-5.96249E-03-9.04370E-01-2.16765E-14-2.41410E-13
 -1       476 1.96521E+01 3.30478E+00-4.91287E-03 8.58549E-03 1.01580E-13-2.02615E-13
 -1       477 1.96735E+01 3.26892E+00-4.99675E-03 3.11711E-01 1.27658E-13-2.09165E-13
 -1       478 1.97346E+01 3.16381E+00-5.32772E-03 6.11100E-01 1.56491E-13-1.74761E-13
 -1       479 1.98428E+01 2.97308E+00-5.89136E-03 9.14575E-01 1.99341E-13-9.25154E-14
 -1       480 2.00072E+01 2.67236E+00-6.49511E-03 1.20349E+00 2.23573E-13-5.45067E-14
 -1       481 2.02532E+01 2.21057E+00-5.68394E-03 1.44834E+00 2.43544E-13-4.50421E-15
 -1       482 2.01554E+01 4.77631E-01 5.19729E-03 3.95283E-01 1.46833E-13 9.57000E-14
 -1       483 2.03679E+01 9.94914E-01 2.80517E-03-8.77681E-01-9.58073E-14-1.18762E-13
 -1       484 3.07230E+01 3.89485E+00-1.58320E-01 2.32107E+00 4.86056E-13 3.06297E-13
 -1       485 2.02149E+01 5.81512E-01 2.45453E-03-3.86675E-01-8.60005E-14-9.75868E-14
 -1       486 2.00922E+01 3.51883E-01 1.08943E-03-5.59968E-02-7.39422E-14-6.30700E-14
 -1       487 2.00227E+01 2.25894E-01 5.83936E-04 1.64266E-01-6.72049E-14-6.89413E-14
 -1       488 2.00042E+01 1.57552E-01 3.42338E-04 3.16849E-01-5.41181E-14-2.76834E-14
 -1       489 2.00284E+01 1.24039E-01 2.53989E-04 4.30402E-01-7.31110E-14-2.76939E-14
 -1       490 2.00874E+01 1.11615E-01 2.26442E-04 5.23899E-01-4.89663E-14-7.74051E-14
 -1       491 2.01760E+01 1.10259E-01 2.20638E-04 6.09134E-01-1.34952E-13-5.81078E-14
 -1       492 2.02916E+01 1.10895E-01 2.10683E-04 6.91851E-01-1.12187E-13 1.03427E-14
 -1       493 2.04339E+01 1.03703E-01 1.70477E-04 7.71932E-01-6.98057E-14 5.17275E-14
 -1       494 2.06050E+01 7.70528E-02 6.94983E-05 8.42852E-01 1.70339E-14 1.00852E-13
 -1       495 2.08091E+01 1.71921E-02-1.26562E-04 8.90645E-01 4.92409E-15 7.34079E-15
 -1       496 2.10523E+01-9.05487E-02-4.48445E-04 8.92801E-01-7.67057E-14 4.52898E-14
 -1       497 2.13411E+01-2.57546E-01-9.03044E-04 8.17901E-01-2.10952E-14 5.86365E-14
 -1       498 2.16781E+01-4.82391E-01-1.40623E-03 6.27758E-01-2.26265E-14 9.21259E-14
 -1       499 2.20520E+01-7.34629E-01-1.94117E-03 2.85975E-01-2.03091E-14 6.49275E-14
 -1       500 2.24240E+01-9.34844E-01-1.76466E-03-2.21429E-01-1.05110E-13 5.75259E-14
 -1       501 2.27144E+01-9.48062E-01-8.12660E-04-8.48875E-01-5.59975E-14 1.35993E-13
 -1       502 2.28133E+01-6.20436E-01-4.22523E-04-1.44598E+00-5.15167E-14 9.21992E-14
 -1       503 2.26469E+01 1.06634E-01-4.36528E-04-1.74289E+00-2.21168E-14 8.12516E-14
 -1       504 2.22909E+01 1.03450E+00-5.57846E-04-1.46016E+00-7.12916E-14-1.16960E-13
 -1       505 2.19874E+01 1.70166E+00-5.21188E-03-5.48798E-01-1.51235E-13-2.24564E-13
 -1       506 2.20003E+01 1.68221E+00-3.72269E-03 6.19785E-01-1.49069E-13-2.49557E-13
 -1       507 2.23150E+01 9.91189E-01-4.22493E-04 1.50350E+00-7.80637E-14-2.94362E-13
 -1       508 2.26714E+01 6.29342E-02-9.77690E-04 1.75490E+00-2.39339E-14-2.42633E-13
 -1       509 2.28270E+01-6.41076E-01-6.26934E-04 1.43682E+00-4.35802E-14-1.78035E-13
 -1       510 2.27201E+01-9.43913E-01-1.55053E-03 8.39009E-01 6.34130E-14-9.35937E-14
 -1       511 2.24295E+01-9.12351E-01-2.04569E-03 2.24046E-01 8.71557E-14-1.37736E-13
 -1       512 2.20641E+01-7.02038E-01-1.88357E-03-2.63300E-01 1.31895E-13-2.36437E-14
 -1       513 2.17021E+01-4.45918E-01-1.38275E-03-5.82214E-01 8.01047E-14-7.72211E-14
 -1       514 2.13804E+01-2.19764E-01-8.15392E-04-7.48936E-01-1.65549E-13-4.86942E-15
 -1       515 2.11091E+01-5.19539E-02-3.49726E-04-8.00243E-01-1.42802E-13 6.09650E-14
 -1       516 2.08850E+01 5.66595E-02-2.38206E-05-7.74279E-01 3.38699E-14 4.84968E-14
 -1       517 2.07013E+01 1.17048E-01 1.74217E-04-7.02777E-01 1.65047E-13 9.72205E-14
 -1       518 2.05511E+01 1.42852E-01 2.75210E-04-6.09212E-01 9.75390E-14 7.73210E-14
 -1       519 2.04287E+01 1.46208E-01 3.09421E-04-5.09515E-01-1.33861E-13-1.28803E-13
 -1       520 2.03293E+01 1.36440E-01 3.02466E-04-4.13601E-01 1.22071E-13-1.57554E-13
 -1       521 2.02494E+01 1.20085E-01 2.73205E-04-3.26985E-01 2.65236E-13-1.76060E-14
 -1       522 2.01859E+01 1.01411E-01 2.34310E-04-2.52150E-01 1.67540E-13 1.86944E-13
 -1       523 2.01359E+01 8.30195E-02 1.93761E-04-1.89621E-01 4.49778E-14 4.71664E-13
 -1       524 2.00972E+01 6.63531E-02 1.56062E-04-1.38744E-01 4.20207E-13 3.49333E-13
 -1       525 2.00676E+01 5.20786E-02 1.22137E-04-9.82472E-02 3.58995E-13 1.59597E-13
 -1       526 2.00453E+01 4.03555E-02 9.37234E-05-6.66228E-02 9.06875E-14 4.84245E-14
 -1       527 2.00286E+01 3.08601E-02 8.46647E-05-4.23910E-02-2.90513E-13 1.99009E-14
 -1       528 1.99197E+01 1.78610E-01 1.23321E-03-1.50673E-01 1.19266E-13 6.86791E-14
 -1       529 1.99119E+01 1.26450E-01 6.97328E-04-2.98050E-01 6.46580E-14 7.01568E-15
 -1       530 1.99584E+01 1.05700E-01 5.25901E-04-4.10294E-01 5.68888E-14 1.37064E-14
 -1       531 2.00483E+01 1.06161E-01 5.13344E-04-5.09260E-01 4.66311E-14 6.43103E-14
 -1       532 2.01750E+01 1.21762E-01 5.82710E-04-6.10315E-01 1.18956E-14 1.02674E-13
 -1       533 2.03352E+01 1.47869E-01 6.95644E-04-7.24283E-01-1.41683E-14 3.66748E-14
 -1       534 2.05284E+01 1.79439E-01 8.14385E-04-8.57976E-01-7.16170E-15-3.48669E-14
 -1       535 2.07561E+01 2.09051E-01 8.83684E-04-1.01352E+00 1.02486E-13-5.98862E-14
 -1       536 2.10223E+01 2.24282E-01 8.17076E-04-1.18629E+00 6.89799E-14-2.31158E-14
 -1       537 2.13343E+01 2.04272E-01 4.90084E-04-1.36117E+00-1.51168E-14 3.17003E-14
 -1       538 2.17058E+01 1.16241E-01-2.44422E-04-1.50665E+00 2.24123E-15 1.34792E-14
 -1       539 2.21612E+01-8.49032E-02-1.46628E-03-1.56719E+00 1.12296E-13 5.59452E-14
 -1       540 2.27377E+01-4.45155E-01-3.07458E-03-1.45511E+00 1.06462E-13 3.00328E-14
 -1       541 2.34717E+01-9.69715E-01-5.16627E-03-1.05122E+00-2.45493E-14 1.06085E-13
 -1       542 2.43541E+01-1.53716E+00-7.16075E-03-2.40513E-01-2.12498E-13 1.81738E-13
 -1       543 2.52504E+01-1.79330E+00-9.50421E-03 9.89324E-01-4.25552E-14 3.36342E-13
 -1       544 2.57975E+01-1.13716E+00-2.06975E-02 2.28196E+00 1.17985E-13 2.92064E-13
 -1       545 2.56683E+01 6.58738E-01-2.33125E-02 2.79524E+00 2.13385E-13 2.25864E-13
 -1       546 2.49314E+01 2.71633E+00-9.56105E-02 1.61907E+00 7.15400E-15 1.82401E-13
 -1       547 2.48052E+01 3.13454E+00-1.00927E-01-8.35392E-01 1.13843E-13-8.97492E-14
 -1       548 2.53218E+01 1.52405E+00-8.85670E-02-2.67297E+00 2.49575E-13-2.38035E-13
 -1       549 2.58989E+01-5.85811E-01-1.57097E-02-2.68912E+00 3.23610E-13-3.45235E-13
 -1       550 2.55222E+01-1.68827E+00-1.38781E-02-1.49072E+00-5.53583E-14-5.12588E-13
 -1       551 2.47095E+01-1.68858E+00-7.79908E-03-1.74695E-01-2.03059E-13-3.68865E-13
 -1       552 2.38008E+01-1.17052E+00-5.71439E-03 7.88381E-01-3.50082E-14-3.75813E-13
 -1       553 2.30175E+01-6.01802E-01-4.09063E-03 1.31458E+00 3.14110E-13-5.41202E-14
 -1       554 2.24017E+01-1.75974E-01-2.21697E-03 1.50248E+00 3.17508E-13-1.81225E-13
 -1       555 2.19243E+01 8.08033E-02-5.55084E-04 1.47659E+00-7.45012E-14 3.18021E-15
 -1       556 2.15459E+01 2.06911E-01 5.02184E-04 1.33622E+00-6.56643E-14 4.32954E-14
 -1       557 2.12379E+01 2.49781E-01 1.01681E-03 1.14774E+00 6.99741E-14 8.00657E-14
 -1       558 2.09831E+01 2.46531E-01 1.17259E-03 9.50802E-01 7.21338E-14 3.64577E-13
 -1       559 2.07714E+01 2.21320E-01 1.12795E-03 7.66587E-01 3.26174E-14 4.83546E-13
 -1       560 2.05968E+01 1.88169E-01 9.91408E-04 6.04718E-01-1.02710E-13 3.69539E-13
 -1       561 2.04545E+01 1.54476E-01 8.26935E-04 4.68086E-01-2.89972E-13 3.44664E-13
 -1       562 2.03402E+01 1.23730E-01 6.66755E-04 3.55971E-01-3.70674E-13 2.40343E-13
 -1       563 2.02499E+01 9.72708E-02 5.25263E-04 2.65921E-01-8.10620E-14 2.48662E-13
 -1       564 2.01797E+01 7.53397E-02 4.06430E-04 1.94824E-01-2.02917E-13 2.36863E-13
 -1       565 2.01261E+01 5.76620E-02 3.10155E-04 1.39494E-01 1.06831E-13 2.34601E-13
 -1       566 2.00860E+01 4.37637E-02 2.32507E-04 9.69543E-02 1.94810E-13 4.89878E-13
 -1       567 2.00564E+01 3.30722E-02 1.80409E-04 6.45942E-02-2.04316E-14 7.23238E-13
 -1       568 2.00349E+01 2.49547E-02 1.59713E-04 4.02516E-02 5.75748E-14 8.55629E-13
 -1       569 2.00196E+01 1.83109E-02 1.19449E-04 2.21622E-02-2.75332E-14 7.51277E-13
 -1       570 1.99944E+01 7.47281E-02-9.70471E-06 3.77528E-02-1.24625E-14-1.30996E-13
 -1       571 1.99856E+01 8.87878E-02-2.31499E-05 2.94281E-02-4.98226E-14-1.39058E-13
 -1       572 2.00133E+01 3.91031E-02-8.11049E-06 3.47006E-02-1.22617E-13 5.53801E-13
 -1       573 2.00044E+01 5.74872E-02 2.00129E-06 3.95684E-02-1.98855E-13 2.98623E-14
 -1       574 1.99796E+01 9.78177E-02-3.43863E-05 1.60534E-02 1.91247E-14-1.21729E-13
 -1       575 1.99776E+01 1.00733E-01-3.94343E-05-2.70132E-05 1.15647E-13-4.66415E-13
 -1       576 1.99797E+01 9.72027E-02-3.55780E-05-1.60458E-02 1.69091E-13-6.03617E-14
 -1       577 1.99855E+01 8.79258E-02-2.42148E-05-2.90675E-02 3.90762E-13-4.02629E-14
 -1       578 1.99941E+01 7.37834E-02-1.08548E-05-3.73117E-02 5.17589E-13 1.62844E-13
 -1       579 2.00040E+01 5.66317E-02 2.09274E-05-3.92836E-02 2.81434E-13-1.36719E-13
 -1       580 2.00126E+01 3.86187E-02 4.19351E-05-3.46806E-02-3.25257E-13-7.04945E-13
 -1       581 1.80905E+01-5.04102E+00 1.02856E-01 6.23318E+00-1.80245E-13 1.55910E-13
 -1       582 5.30679E+00-1.48388E+00 1.69259E-01-2.80991E+00-7.63972E-14 9.24386E-13
 -1       583 1.99965E+01 2.81876E-01 2.61622E-03 6.39180E-02 1.28831E-13 8.82256E-14
 -1       584 5.52780E+00-1.30884E+00 1.83161E-01 2.25515E+00-2.05683E-13 7.08572E-13
 -1       585 2.44787E+01-5.56836E+00 2.15812E-02 4.05554E+00-5.82728E-14 1.60743E-13
 -1       586 2.04074E+01 1.76893E+00-5.19403E-03-1.47291E+00-1.45932E-13-1.47354E-13
 -1       587 2.43002E+01-5.14024E+00 2.70320E-02-4.53114E+00-5.04666E-14-2.50609E-13
 -1       588 2.97138E+01 6.12841E+00-1.68675E-01-1.40646E+00-4.37039E-13 2.21906E-14
 -1       589 1.96701E+01 3.27307E+00-5.00850E-03-2.94668E-01 5.03231E-14-2.16750E-13
 -1       590 3.01683E+01 6.61763E+00-1.94459E-01 4.89304E-01 3.88189E-13-4.33820E-14
 -1       591 3.04127E+01 6.61615E-01-1.06809E-01 5.83868E-01-2.28106E-13 1.61371E-13
 -1       592 3.08702E+01 2.05014E+00-1.09433E-01-2.14244E+00 3.29896E-13-1.38514E-13
 -1       593 3.07246E+01 5.13503E+00-1.73550E-01-1.97161E+00 3.26170E-13-1.90535E-13
 -1       594 3.10071E+01-4.44104E-02-1.23119E-01 1.44550E+00 2.54703E-13 3.51622E-13
 -1       595 2.80839E+01-4.34730E+00-5.05043E-02-1.88636E+00-3.01321E-14 2.35055E-13
 -1       596 2.23093E+01-5.77612E+00 4.84609E-02-5.26295E+00-2.75925E-13-1.90447E-13
 -1       597 1.39138E+01-4.66696E+00 1.03153E-01-6.71313E+00-1.66547E-13-5.96537E-14
 -1       598 8.08691E+00-2.58082E+00 1.65580E-01-5.04981E+00-1.57735E-13-2.67883E-13
 -1       599 4.66755E+00-1.14362E+00 1.80979E-01-1.06710E-01 5.87616E-15-2.93848E-13
 -1       600 6.85142E+00-2.22353E+00 1.63739E-01 4.69422E+00 2.60063E-13-3.09169E-13
 -1       601 1.16068E+01-4.09625E+00 1.19478E-01 6.84296E+00 2.78028E-13-2.28033E-13
 -1       602 1.94769E+01-5.45144E+00 6.36447E-02 6.44569E+00 1.87933E-13-5.57376E-14
 -1       603 2.58158E+01-4.76329E+00 1.72795E-03 3.44808E+00-3.77788E-14 3.01495E-14
 -1       604 2.88368E+01-2.29416E+00-8.69885E-02 6.51887E-01-3.20550E-13 1.25434E-13
 -1       605 3.03002E+01 3.19084E+00-1.27790E-01-1.63219E+00-4.63157E-13 1.28259E-13
 -1       606 2.83821E+01 6.91649E+00-1.83889E-01 5.15922E-01-5.24511E-13 3.82038E-14
 -1       607 2.97105E+01 5.05893E+00-1.61161E-01 1.76931E+00-3.56173E-13 3.81341E-13
 -1       608 2.81742E+01-3.06649E+00-4.61708E-02-1.87715E+00-2.01776E-13-1.87975E-14
 -1       609 1.74005E+01-4.99531E+00 9.04432E-02-6.73777E+00 1.69198E-13-6.04291E-14
 -1       610 1.01187E+01-3.37633E+00 1.30677E-01-6.38539E+00 2.56649E-13 4.60687E-13
 -1       611 9.96518E+00-2.94562E+00 1.43571E-01 5.70735E+00-8.66321E-14 3.15505E-13
 -1       612 2.05943E+01 1.31096E+00-9.48931E-04 1.50724E+00 2.13799E-13 2.02992E-13
 -1       613 2.86870E+01-3.67794E+00-5.43025E-02 8.99505E-01 1.94358E-13-5.80438E-14
 -1       614 1.99936E+01 2.69074E+00-6.41811E-03-1.19197E+00-8.70683E-14-2.37886E-13
 -1       615 2.91965E+01-1.29561E+00-9.55867E-02-1.88456E+00 2.94743E-13-2.26992E-13
 -1       616 2.00197E+01 2.50707E-02 8.08519E-05-2.91323E-02-5.48570E-13 3.49908E-14
 -1       617 2.01849E+01 2.30351E+00-5.79484E-03-1.38331E+00-1.16311E-13-2.27450E-13
 -1       618 1.99367E+01 2.55121E+00-1.56191E-03 3.58483E-01 1.41748E-13-1.65657E-13
 -1       619 1.98973E+01 2.63350E+00-1.48507E-03 1.23534E-01 9.52926E-14-1.82159E-13
 -1       620 2.01256E+01 2.11484E+00-1.58896E-03 7.83466E-01 1.85913E-13-7.27486E-14
 -1       621 2.02580E+01 1.72348E+00-2.22070E-03 9.22016E-01 1.83423E-13-3.51683E-15
 -1       622 2.03494E+01 1.07275E+00 2.87808E-03 7.58562E-01 1.67525E-13-1.20802E-14
 -1       623 2.78575E+01-1.85313E-01-8.51227E-02-1.69293E+00-3.17128E-13 2.14252E-13
 -1       624 2.02742E+01 7.44998E-01 5.96820E-04-2.84256E-01-6.25025E-14-1.51780E-13
 -1       625 2.02146E+01 4.83640E-01 1.95891E-04 7.88544E-03-6.51470E-14-1.04251E-13
 -1       626 2.01645E+01 3.31626E-01 1.00508E-04 2.19719E-01-2.22232E-14-6.19682E-14
 -1       627 2.01339E+01 2.47308E-01 6.96704E-05 3.77578E-01-6.47581E-14-5.52226E-14
 -1       628 2.01238E+01 2.06835E-01 6.45496E-05 5.03287E-01-4.94360E-14-4.55619E-14
 -1       629 2.01331E+01 1.93090E-01 6.75845E-05 6.12882E-01-4.81094E-14 2.05366E-14
 -1       630 2.01616E+01 1.91742E-01 7.16592E-05 7.16793E-01-8.24478E-14 9.36782E-14
 -1       631 2.02108E+01 1.88577E-01 7.10321E-05 8.20082E-01-2.24740E-14 1.10151E-13
 -1       632 2.02855E+01 1.67594E-01 5.74663E-05 9.22244E-01-5.34708E-14 8.81243E-14
 -1       633 2.03950E+01 1.09803E-01 1.85421E-05 1.01649E+00-4.37707E-14 5.83079E-14
 -1       634 2.05548E+01-6.77089E-03-6.44297E-05 1.08843E+00-3.44207E-15 5.35672E-14
 -1       635 2.07871E+01-2.04541E-01-2.12355E-04 1.11415E+00-3.42166E-14 6.18837E-14
 -1       636 2.11195E+01-4.98832E-01-4.21432E-04 1.05783E+00-3.02760E-15 7.48144E-14
 -1       637 2.15780E+01-8.80982E-01-5.19646E-04 8.69608E-01-4.40264E-14 1.47249E-13
 -1       638 2.21648E+01-1.28791E+00-1.29013E-03 4.91358E-01-3.21294E-14 1.76737E-13
 -1       639 2.28302E+01-1.56614E+00-3.73036E-04-1.16077E-01 1.70675E-14 2.51510E-13
 -1       640 2.34367E+01-1.46495E+00 5.17008E-04-9.15101E-01-9.84963E-14 2.33422E-13
 -1       641 2.37445E+01-6.95496E-01-6.73847E-03-1.69201E+00-5.87282E-14 1.26029E-13
 -1       642 2.36281E+01 7.47886E-01-1.13358E-02-1.98047E+00-1.80680E-13 1.29916E-13
 -1       643 2.32186E+01 2.29772E+00-8.49789E-03-1.35345E+00-2.98269E-13 1.92693E-14
 -1       644 2.29092E+01 2.98481E+00-3.16815E-02 3.90364E-02-2.61983E-13-9.95287E-14
 -1       645 2.32554E+01 2.22798E+00-8.61142E-03 1.44444E+00-1.50042E-13-1.63629E-13
 -1       646 2.36526E+01 6.65833E-01-1.37319E-02 2.00541E+00-2.00976E-14-1.80062E-13
 -1       647 2.37441E+01-7.48792E-01-4.83539E-03 1.67034E+00 3.72174E-14-1.87154E-13
 -1       648 2.34108E+01-1.46692E+00-1.52231E-03 8.96009E-01 3.91595E-14-2.16523E-14
 -1       649 2.28036E+01-1.53763E+00-1.05492E-03 1.10711E-01 1.01479E-14-3.95446E-15
 -1       650 2.21421E+01-1.23928E+00-9.24749E-04-4.73849E-01 1.49958E-13-1.09538E-13
 -1       651 2.15643E+01-8.24781E-01-7.32580E-04-8.25716E-01 1.15772E-13-2.14777E-13
 -1       652 2.11172E+01-4.40906E-01-4.14863E-04-9.89360E-01 1.93169E-13-3.57764E-14
 -1       653 2.07944E+01-1.45754E-01-1.76619E-04-1.02218E+00-1.15943E-13 3.23330E-13
 -1       654 2.05697E+01 5.29548E-02-2.74357E-05-9.72950E-01-9.76262E-14 4.77545E-13
 -1       655 2.04152E+01 1.70050E-01 5.29897E-05-8.77718E-01-5.77058E-14 2.61725E-13
 -1       656 2.03084E+01 2.26568E-01 9.26266E-05-7.61305E-01 9.26107E-15 1.31808E-13
 -1       657 2.02329E+01 2.42203E-01 1.05745E-04-6.40025E-01-8.65626E-14-1.16087E-13
 -1       658 2.01782E+01 2.32680E-01 1.03797E-04-5.23996E-01-8.13860E-14-2.11739E-14
 -1       659 2.01372E+01 2.09423E-01 9.40192E-05-4.18935E-01 4.94716E-14-1.31996E-13
 -1       660 2.01059E+01 1.80175E-01 8.09606E-05-3.27525E-01 1.94742E-13-3.97593E-13
 -1       661 2.00814E+01 1.49862E-01 6.69997E-05-2.50444E-01 2.03379E-13-4.28902E-13
 -1       662 2.00620E+01 1.21397E-01 5.43490E-05-1.87101E-01 3.15557E-13-2.79800E-13
 -1       663 2.00465E+01 9.62810E-02 4.25353E-05-1.36182E-01 2.34700E-13-3.21250E-13
 -1       664 2.00341E+01 7.49998E-02 3.94712E-05-9.61289E-02-6.42765E-14-6.74003E-13
 -1       665 2.00239E+01 5.78543E-02 4.94618E-05-6.55256E-02-2.95850E-13-1.14677E-12
 -1       666 2.00883E+01 2.25009E-01 1.91016E-04-3.71647E-01 8.65004E-14 6.51929E-14
 -1       667 2.81014E+01 1.70671E+00-1.24466E-01 2.09037E+00-4.35069E-14 1.31950E-13
 -1       668 2.01127E+01 2.93391E-01 2.56640E-04-2.07861E-01 1.07141E-13 7.01713E-14
 -1       669 2.01191E+01 2.10458E-01 1.93212E-04-6.28794E-01 1.34441E-14 9.21609E-14
 -1       670 2.01644E+01 2.42230E-01 2.32214E-04-7.56894E-01 6.56922E-14 4.73182E-14
 -1       671 2.02242E+01 2.88856E-01 2.83921E-04-9.00172E-01 5.67474E-14-1.79353E-14
 -1       672 2.02964E+01 3.40489E-01 3.35630E-04-1.06513E+00 2.64736E-14-7.52608E-14
 -1       673 2.03819E+01 3.82399E-01 3.65870E-04-1.25372E+00 5.04765E-14 3.08624E-14
 -1       674 2.04873E+01 3.90676E-01 3.41073E-04-1.46201E+00 2.76105E-14 1.69892E-14
 -1       675 2.06309E+01 3.27007E-01 2.22910E-04-1.67755E+00 6.09542E-15-9.43531E-14
 -1       676 2.08519E+01 1.34101E-01 5.08589E-06-1.87483E+00-2.80476E-15-8.95497E-14
 -1       677 2.12235E+01-2.63007E-01-1.20070E-04-2.00733E+00 6.12652E-14-1.06795E-14
 -1       678 2.18684E+01-9.37880E-01 6.50706E-04-1.98874E+00-7.31975E-14 1.03570E-13
 -1       679 2.29261E+01-1.87109E+00 8.98051E-04-1.66053E+00-1.72008E-13 2.29647E-13
 -1       680 2.44795E+01-2.78461E+00 3.26342E-03-8.06001E-01-2.06204E-13 2.23207E-13
 -1       681 2.63433E+01-3.02375E+00-2.22499E-02 7.17258E-01 3.20967E-15 2.36608E-13
 -1       682 2.74832E+01-1.18045E+00-7.73182E-02 2.42272E+00 2.70235E-13 4.22986E-13
 -1       683 2.51139E+01-2.99080E+00 6.86831E-04 3.49542E-01-1.72346E-13-2.38420E-13
 -1       684 2.34279E+01-2.21105E+00 3.22580E-03 1.41104E+00-6.03747E-14-1.50782E-13
 -1       685 2.22024E+01-1.21967E+00 7.79653E-04 1.87771E+00 7.69681E-15-4.36590E-13
 -1       686 2.14377E+01-4.41123E-01-5.61511E-04 1.97064E+00 1.30653E-13-1.83705E-13
 -1       687 2.09929E+01 5.24468E-02-3.48346E-04 1.86471E+00-4.26200E-14 2.73799E-13
 -1       688 2.07367E+01 3.14220E-01 5.84958E-05 1.66603E+00-3.68604E-14 8.83022E-14
 -1       689 2.05804E+01 4.21293E-01 2.97703E-04 1.43313E+00 3.10951E-15 1.85838E-13
 -1       690 2.04736E+01 4.37361E-01 3.96489E-04 1.19863E+00 2.93873E-15 1.60339E-13
 -1       691 2.03911E+01 4.06138E-01 4.01890E-04 9.80033E-01 3.88777E-14 7.70223E-14
 -1       692 2.03218E+01 3.54392E-01 3.60366E-04 7.85844E-01-1.34632E-13 2.97927E-13
 -1       693 2.02617E+01 2.97245E-01 3.04424E-04 6.19131E-01-2.32187E-13 4.51801E-13
 -1       694 2.02093E+01 2.42529E-01 2.47925E-04 4.79691E-01-3.45597E-13 5.82550E-13
 -1       695 2.01644E+01 1.93817E-01 1.96967E-04 3.65497E-01-8.65318E-14 3.43088E-13
 -1       696 2.01267E+01 1.52330E-01 1.54488E-04 2.73636E-01-9.68763E-14 2.51314E-13
 -1       697 2.00956E+01 1.18082E-01 1.18393E-04 2.00890E-01 1.50003E-13 3.39437E-14
 -1       698 2.00705E+01 9.04687E-02 8.64933E-05 1.44111E-01-7.06009E-14-1.21005E-13
 -1       699 2.00504E+01 6.87624E-02 6.92143E-05 1.00390E-01-8.49237E-14 7.70371E-14
 -1       700 2.00347E+01 5.19455E-02 9.29628E-05 6.72181E-02 1.20136E-14-4.21532E-14
 -1       701 2.00227E+01 4.54680E-02 5.79788E-05 4.92892E-02-2.03310E-13 1.62146E-13
 -1       702 1.99611E+01 1.28500E-01-1.53301E-05 1.09707E-02 2.45482E-13-8.78077E-14
 -1       703 2.00181E+01 4.75186E-02 1.92516E-05-4.88061E-02-1.07815E-13-1.10476E-12
 -1       704 1.99805E+01 1.06538E-01-6.35576E-06 4.82827E-02-4.02121E-14-1.09538E-13
 -1       705 1.99613E+01 1.27871E-01-1.68929E-05-1.18093E-02 3.51885E-13-2.64243E-13
 -1       706 1.99679E+01 1.21132E-01-1.07074E-05 3.21100E-02 1.31023E-13 9.53697E-15
 -1       707 2.01678E+01 4.29627E-01 6.06666E-04 1.23199E-02 1.24430E-13 1.56070E-14
 -1       708 1.54965E+01-2.69276E+00 1.03188E-01 5.36571E+00-1.08441E-13 2.36724E-13
 -1       709 1.99680E+01 1.19581E-01-1.50415E-05-3.23171E-02 4.03910E-13-1.14709E-13
 -1       710 1.99805E+01 1.04389E-01-6.28077E-06-4.80601E-02 2.79618E-13-1.42595E-13
 -1       711 1.99963E+01 8.43316E-02-1.43599E-05-5.67804E-02 9.68468E-14 6.13581E-14
 -1       712 2.03105E+01 1.46774E+00 1.23290E-03-9.25870E-01-1.00217E-13-1.82885E-13
 -1       713 1.69307E+01-4.06578E+00 8.67534E-02 6.22619E+00 2.25233E-13-1.16560E-13
 -1       714 8.53830E+00-7.83549E-02 1.44979E-01 2.31573E+00 1.46343E-13-1.88412E-13
 -1       715 2.59880E+01 5.36385E+00-1.26640E-01-9.74314E-01-4.12385E-13 1.36773E-13
 -1       716 2.00922E+01 2.01685E-01 1.75753E-04-5.05316E-01 1.69850E-14 4.79849E-14
 -1       717 2.03106E+01 1.03139E+00-1.14463E-03-5.76559E-01-7.24532E-14-1.82901E-13
 -1       718 2.00137E+01 2.38264E+00-1.63081E-03 5.83330E-01 1.67230E-13-9.50608E-14
 -1       719 2.02497E+01 6.69176E-01 1.14303E-03 3.20527E-01 1.49041E-13-2.81049E-14
 -1       720 2.00072E+01 2.39151E+00-1.65292E-03-5.75316E-01-3.31353E-15-2.23885E-13
 -1       721 9.73123E+00-1.25805E+00 1.40509E-01-4.55943E+00 2.60517E-13 4.91468E-13
 -1       722 7.96062E+00 1.83207E-01 1.52410E-01-3.59814E-01-5.44878E-14 6.89129E-13
 -1       723 2.22223E+01-4.86701E+00 2.29782E-02-4.44788E+00 1.59362E-13-3.36398E-14
 -1       724 2.82360E+01-1.46219E+00-7.74860E-02 7.56806E-01-1.39978E-13 7.32747E-15
 -1       725 2.30436E+01-4.98838E+00 2.58220E-02 4.13590E+00 2.39551E-13 5.62519E-14
 -1       726 2.64486E+01-4.55498E+00-4.07280E-03 1.48840E+00 1.31858E-13 1.34604E-13
 -1       727 1.94289E+01-4.56386E+00 6.36150E-02-5.40599E+00-2.11487E-13-2.28087E-13
 -1       728 1.34102E+01-2.62503E+00 1.21774E-01-5.58341E+00-8.84466E-14-7.19078E-14
 -1       729 9.30522E+00-1.39123E-01 1.47850E-01-2.55634E+00-3.06838E-14-2.00458E-13
 -1       730 1.22525E+01-2.36530E+00 1.28018E-01 5.76212E+00 2.33126E-13-3.05742E-13
 -1       731 2.66405E+01-3.71893E+00-3.24003E-02 8.85283E-01-6.43084E-14 1.91198E-13
 -1       732 2.73825E+01 3.37531E+00-1.32466E-01-2.10042E+00-3.81920E-13 1.19505E-13
 -1       733 2.56568E+01-5.07550E+00 9.79218E-03-2.51763E+00-2.12537E-13 9.34860E-14
 -1       734 2.63142E+01 4.74532E+00-1.28090E-01 1.67014E+00-3.76379E-13-2.92110E-14
 -1       735 2.84518E+01-2.64681E+00-4.12905E-02 9.80327E-01 1.19635E-13 3.73410E-13
 -1       736 2.61467E+01-4.34060E+00-2.43436E-02-2.01467E+00-1.71842E-14-1.38084E-15
 -1       737 9.92347E+00-8.25323E-01 1.33447E-01 3.73859E+00-2.50329E-13 3.90854E-13
 -1       738 1.51127E+01-3.03737E+00 1.05053E-01-5.95953E+00 1.37043E-13 2.22534E-13
 -1       739 2.24203E+01-4.91950E+00 3.61835E-02 4.17432E+00-4.95715E-14 3.12222E-13
 -1       740 2.01231E+01 2.12286E+00-6.68307E-04-7.78902E-01-4.33543E-14-1.84547E-13
 -1       741 1.98963E+01 2.63465E+00-1.48087E-03-1.13966E-01 6.71470E-14-1.95883E-13
 -1       742 1.96281E+01-3.66368E+00 4.24419E-02-4.79252E+00 1.37978E-13-1.38911E-13
 -1       743 1.99967E+01 8.63829E-02-3.29574E-05 5.68616E-02-2.10758E-13 2.36806E-14
 -1       744 2.67596E+01-2.52947E+00-1.93809E-02-1.26063E+00 2.40287E-13-3.98683E-13
 -1       745 2.00110E+01 6.59899E-02-5.77466E-06 5.61907E-02-4.51132E-13 3.49825E-13
 -1       746 1.95292E+01-3.39644E+00 4.89565E-02 4.52964E+00 9.47731E-14 4.14443E-13
 -1       747 1.99331E+01 2.55570E+00-1.54929E-03-3.48775E-01 3.69636E-14-1.62435E-13
 -1       748 2.02741E+01 1.38966E+00-3.98701E-04 5.39914E-01 1.50105E-13-3.65216E-14
 -1       749 2.02640E+01 5.82081E-01 2.05064E-05 8.16207E-02 9.04394E-16-8.82828E-14
 -1       750 2.02180E+01 4.23374E-01 1.95903E-06 2.68596E-01-6.10747E-14-7.79843E-14
 -1       751 2.01689E+01 3.36400E-01 5.32570E-06 4.17015E-01-6.13462E-14-7.04061E-14
 -1       752 2.01221E+01 2.97586E-01 1.12845E-05 5.43414E-01-5.41835E-15-6.94985E-14
 -1       753 2.00810E+01 2.87559E-01 1.74388E-05 6.60713E-01-3.14013E-14-7.70015E-14
 -1       754 2.00490E+01 2.88292E-01 2.31370E-05 7.78100E-01-1.03792E-14 4.76963E-14
 -1       755 2.00318E+01 2.80668E-01 2.90211E-05 9.00819E-01-6.27911E-14 6.50505E-14
 -1       756 2.00395E+01 2.42577E-01 3.25240E-05 1.02991E+00-1.14181E-15 1.65012E-13
 -1       757 2.00897E+01 1.47607E-01 2.53194E-05 1.16146E+00-4.38000E-14 5.33322E-14
 -1       758 2.02101E+01-3.48337E-02-1.32845E-05 1.28482E+00-3.03312E-14 1.38143E-14
 -1       759 2.04414E+01-3.36101E-01-1.07318E-04 1.37881E+00-6.58607E-14 1.10047E-14
 -1       760 2.08376E+01-7.78584E-01-2.21043E-04 1.40538E+00 3.61911E-14-4.34664E-14
 -1       761 2.14636E+01-1.35281E+00 7.22988E-04 1.29530E+00 3.30970E-14 7.55488E-14
 -1       762 2.23358E+01-1.94529E+00-1.97899E-03 9.37117E-01 1.01317E-13 2.48181E-13
 -1       763 2.34949E+01-2.34724E+00-1.63683E-03 2.08826E-01-2.35505E-14 2.59520E-13
 -1       764 2.44563E+01-2.03010E+00-2.07355E-02-8.46774E-01-9.20017E-14 3.36026E-13
 -1       765 2.50787E+01-5.17913E-01-1.68482E-02-1.90439E+00-1.65934E-13 2.96528E-13
 -1       766 2.50369E+01-5.96694E-01-3.30959E-02 1.87540E+00 1.90134E-14-5.52533E-14
 -1       767 2.44294E+01-2.05465E+00-5.66703E-03 7.93207E-01 1.37827E-13-8.93682E-14
 -1       768 2.33614E+01-2.29730E+00-9.79639E-05-2.58175E-01 2.09336E-14 9.37588E-14
 -1       769 2.22817E+01-1.88898E+00 1.23821E-04-9.32137E-01-8.25893E-14 2.77178E-13
 -1       770 2.14122E+01-1.27378E+00-3.37053E-04-1.25303E+00 3.74125E-14 2.47490E-13
 -1       771 2.08020E+01-7.01638E-01-2.15944E-04-1.33988E+00 2.00450E-13 2.09412E-13
 -1       772 2.04104E+01-2.58561E-01-6.10471E-05-1.29347E+00 1.97487E-13 1.02004E-14
 -1       773 2.01790E+01 4.36308E-02 1.87216E-05-1.17898E+00-6.22854E-15 2.14112E-13
 -1       774 2.00536E+01 2.26660E-01 4.04062E-05-1.03533E+00-2.67726E-13 1.10716E-13
 -1       775 1.99934E+01 3.20386E-01 4.70190E-05-8.84254E-01-2.86366E-13 1.67704E-13
 -1       776 1.99706E+01 3.52599E-01 4.24150E-05-7.38039E-01-2.40654E-13-9.80947E-14
 -1       777 1.99674E+01 3.45744E-01 3.54223E-05-6.03496E-01 1.20503E-14-4.39316E-14
 -1       778 1.99732E+01 3.16458E-01 2.89771E-05-4.84068E-01 1.26138E-14-1.21588E-13
 -1       779 1.99820E+01 2.76314E-01 2.34907E-05-3.81041E-01 9.90221E-14-1.79402E-13
 -1       780 1.99905E+01 2.32894E-01 1.88658E-05-2.94305E-01 1.40436E-13-6.62240E-14
 -1       781 1.99976E+01 1.90908E-01 1.32549E-05-2.22870E-01 2.71406E-13-4.07652E-13
 -1       782 2.00025E+01 1.52963E-01 1.05945E-05-1.65176E-01 2.83585E-13-6.72982E-13
 -1       783 2.00055E+01 1.20257E-01 2.41974E-05-1.19567E-01-8.98641E-14-7.41030E-13
 -1       784 2.00065E+01 9.30180E-02-6.80952E-06-8.41211E-02-2.49930E-13-5.63225E-13
 -1       785 2.00227E+01 3.90383E-01 6.89293E-05-8.30994E-01 5.33715E-14 2.00422E-14
 -1       786 2.00662E+01 3.38202E-01 5.12958E-05-6.92203E-01 7.74845E-14-2.04813E-15
 -1       787 1.99107E+01 5.29734E-01 1.24907E-04-1.16363E+00 5.07369E-15-3.32295E-14
 -1       788 1.98392E+01 5.79970E-01 1.47755E-04-1.36860E+00 3.03202E-14-8.57539E-14
 -1       789 1.97663E+01 5.75283E-01 1.62395E-04-1.60388E+00 8.80896E-14-5.07908E-15
 -1       790 1.97189E+01 4.61954E-01 2.09845E-04-1.87168E+00 2.12717E-14-2.54709E-14
 -1       791 1.97571E+01 1.61012E-01 6.05179E-04-2.17136E+00-5.60342E-14 2.31522E-14
 -1       792 1.99915E+01-4.27553E-01 2.47267E-03-2.49081E+00-3.16806E-14 6.39892E-14
 -1       793 2.06372E+01-1.44037E+00-5.93417E-04-2.79220E+00-1.82377E-13 4.00864E-14
 -1       794 2.20625E+01-2.88355E+00 1.32118E-02-2.89907E+00-1.88395E-13 5.83520E-14
 -1       795 2.26402E+01-3.35061E+00-1.19960E-02 2.68022E+00-6.67092E-14-1.87707E-13
 -1       796 1.98107E+01 3.26946E-02 7.47684E-05 2.22184E+00-1.15768E-13 2.61846E-14
 -1       797 1.97183E+01 4.31420E-01-9.95817E-05 1.89554E+00-1.68904E-14 8.58321E-14
 -1       798 1.97428E+01 6.08350E-01 2.16941E-05 1.59730E+00-2.44326E-13 2.61070E-13
 -1       799 1.98075E+01 6.50053E-01 1.10240E-04 1.33049E+00-4.60568E-14 3.01474E-13
 -1       800 1.98753E+01 6.17994E-01 1.36344E-04 1.09436E+00 7.73364E-14 3.10830E-13
 -1       801 1.99314E+01 5.50496E-01 1.18372E-04 8.87841E-01-1.62295E-13 3.05047E-13
 -1       802 1.99723E+01 4.70390E-01 9.62267E-05 7.09962E-01-3.80325E-13 4.16987E-13
 -1       803 1.99993E+01 3.90357E-01 7.61319E-05 5.59289E-01-2.38247E-13 2.79696E-13
 -1       804 2.00153E+01 3.16833E-01 5.97170E-05 4.33810E-01-1.72058E-13-5.83922E-15
 -1       805 2.00234E+01 2.52585E-01 4.68333E-05 3.31024E-01-1.03451E-13 1.87525E-13
 -1       806 2.00261E+01 1.98310E-01 3.72609E-05 2.48181E-01 1.16881E-13 1.67685E-13
 -1       807 2.00254E+01 1.53703E-01 3.12811E-05 1.82329E-01 2.18368E-13 3.08958E-13
 -1       808 2.00228E+01 1.17748E-01 2.24765E-05 1.31063E-01 7.42198E-14 3.03011E-14
 -1       809 2.00189E+01 8.93381E-02 1.69527E-05 9.15483E-02-5.22363E-14-2.41249E-13
 -1       810 2.00144E+01 7.69988E-02-5.08413E-05 7.21960E-02-4.87784E-13 9.47048E-14
 -1       811 2.00868E+01 2.03293E+00-3.15729E-04 1.67641E-01 1.03336E-13-1.27514E-13
 -1       812 2.02457E+01 5.47611E-01 1.43477E-06-6.01086E-02 7.91323E-14 4.27951E-14
 -1       813 1.99367E+01 1.64773E-01-8.45526E-06-1.17666E-03 1.35864E-13-3.47237E-13
 -1       814 1.99794E+01 1.20229E-01-1.59517E-05-7.37384E-02 2.83987E-13-1.91331E-13
 -1       815 1.99421E+01 1.58707E-01-3.10522E-05-3.08747E-02 2.20707E-13 8.34052E-15
 -1       816 2.44622E+01-4.16588E+00 1.77720E-02 2.12689E+00-1.47486E-13 7.67927E-14
 -1       817 1.34230E+01-7.86538E-01 7.41144E-02-3.94173E+00-2.84738E-14-1.55365E-13
 -1       818 1.59963E+01-2.47055E+00 6.14386E-02 5.25047E+00 1.25953E-13-2.05596E-13
 -1       819 2.75768E+01-3.46348E+00-4.27098E-02-3.44515E-01 3.06495E-13 1.38188E-14
 -1       820 2.02266E+01 1.82577E+00 8.06419E-04-8.84034E-01-7.99109E-14-1.98518E-13
 -1       821 1.99573E+01 1.43179E-01-3.48640E-05-5.64869E-02 1.82393E-13-1.10648E-13
 -1       822 2.10849E+01-1.87637E+00 8.12266E-03 2.80024E+00 1.74411E-14-1.90791E-13
 -1       823 1.99720E+01 4.59178E-01 9.56653E-05-9.85943E-01 5.19709E-14 3.78891E-14
 -1       824 2.01962E+01 4.01409E-01 5.12708E-05-2.62205E-01 9.34225E-14 3.13088E-14
 -1       825 2.61023E+01-1.92263E+00-1.36454E-02-1.02895E+00-2.03624E-13 2.23117E-13
 -1       826 2.01611E+01-6.98542E-01 1.21652E-03 2.55795E+00-1.29891E-13-1.00243E-14
 -1       827 2.44837E+01-4.00221E+00 5.16486E-03 1.77218E+00 6.97996E-14-3.65242E-14
 -1       828 2.02944E+01 8.45153E-01-5.96766E-05-1.60294E-01-3.96152E-14-1.23489E-13
 -1       829 1.35401E+01-1.25380E+00 8.40404E-02-4.61600E+00 2.39911E-13 5.01252E-13
 -1       830 1.06668E+01 1.64620E-01 8.32926E-02-2.53592E+00 1.01661E-13 4.75391E-13
 -1       831 2.64135E+01-5.82407E-01-5.04778E-02 1.78137E+00-6.05904E-14 1.71623E-13
 -1       832 1.07936E+01 7.62782E-01 7.64183E-02-9.10737E-03-4.28486E-15-1.11081E-13
 -1       833 2.03045E+01 1.01471E+00 4.53565E-04 4.56960E-01 1.51227E-13 3.56137E-14
 -1       834 1.08464E+01 4.89724E-01 7.35606E-02 1.60943E+00-3.82932E-13 4.46095E-13
 -1       835 1.75884E+01-2.67722E+00 4.39754E-02-4.80937E+00-9.76337E-14-1.05587E-13
 -1       836 2.07741E+01-4.01655E+00 2.30095E-02 4.42793E+00 1.93751E-13 5.68070E-14
 -1       837 1.40598E+01-6.41895E-01 6.80975E-02 3.80201E+00-2.98602E-13 3.81559E-13
 -1       838 2.48893E+01 1.77814E+00-7.81796E-02-2.24777E+00-3.52350E-13 1.64963E-13
 -1       839 2.52687E+01 1.18441E+00-5.18740E-02 2.27145E+00-1.58398E-13-1.46367E-14
 -1       840 2.35166E+01-4.09721E+00 2.33382E-02-2.81753E+00-2.44514E-13 6.37269E-14
 -1       841 1.18936E+01-3.02528E-01 7.50643E-02 3.53092E+00 3.33266E-14-2.85414E-13
 -1       842 2.00698E+01 2.07538E+00-3.08775E-04 4.17240E-03 7.02804E-14-1.69952E-13
 -1       843 1.73632E+01-2.20469E+00 3.53208E-02-4.53349E+00 1.56384E-13-1.58883E-13
 -1       844 2.03011E+01 1.12301E+00-2.78772E-04-3.91616E-01-3.70020E-14-1.48433E-13
 -1       845 1.99787E+01 1.24579E-01 1.11840E-05 7.36302E-02-4.44941E-13 2.98722E-13
 -1       846 2.01497E+01 3.30645E-01 3.81780E-05-4.22266E-01 8.63439E-14 5.27293E-14
 -1       847 2.01072E+01 3.14408E-01 4.07403E-05-5.60178E-01 6.40535E-16 1.59528E-14
 -1       848 2.02782E+01 7.33235E-01-1.84381E-04 1.65682E-01 9.43273E-14 2.58959E-14
 -1       849 1.16970E+01 9.07058E-01 4.64318E-02-4.55062E-01-2.17468E-13 2.27688E-13
 -1       850 2.02047E+01 1.69342E+00 1.21868E-04 4.53663E-01 1.53274E-13-8.25343E-14
 -1       851 2.01344E+01 1.90630E+00-2.64587E-04 3.20993E-01 1.47082E-13-1.34759E-13
 -1       852 1.99563E+01 1.46977E-01-7.45690E-06 5.54121E-02 3.60397E-14 3.80752E-13
 -1       853 1.99416E+01 1.60778E-01-1.69723E-05 2.91614E-02 1.38169E-13 2.21719E-14
 -1       854 2.44084E+01-4.06752E+00-3.35845E-03-1.95387E+00 1.47933E-13-1.04759E-13
 -1       855 1.28768E+01 5.75867E-01 4.40889E-02-1.92390E+00-1.65321E-14-1.76094E-13
 -1       856 1.70735E+01-1.45691E+00 2.74502E-02 3.99451E+00-4.06320E-14 6.30615E-13
 -1       857 2.23040E+01-3.68465E+00 4.11868E-03-2.99380E+00 1.39088E-13-9.17376E-14
 -1       858 2.01319E+01 1.90914E+00-2.75375E-04-3.15218E-01 3.11635E-14-1.61424E-13
 -1       859 2.60917E+01-3.69734E+00-1.89576E-02 3.51904E-01-4.10405E-14-1.21201E-13
 -1       860 2.61346E+01-2.88087E+00-2.55050E-02 1.71207E-01 5.30808E-14 1.38402E-13
 -1       861 2.02000E+01 1.69370E+00-1.40428E-03-4.47986E-01-2.04249E-14-1.62709E-13
 -1       862 2.02664E+01 6.47219E-01 5.44896E-05 1.41537E-01-2.06487E-14-1.09369E-13
 -1       863 2.02082E+01 4.98165E-01-1.07951E-05 2.94779E-01-4.82854E-14-8.98724E-14
 -1       864 2.01315E+01 4.20835E-01-6.12652E-06 4.24995E-01-3.65433E-14-6.44660E-14
 -1       865 2.00430E+01 3.92309E-01-4.43012E-06 5.44003E-01-2.27964E-14-7.99176E-14
 -1       866 1.99479E+01 3.91920E-01 5.80563E-07 6.62688E-01 2.96087E-14-5.36119E-14
 -1       867 1.98517E+01 3.98742E-01 6.29588E-06 7.90013E-01 1.87930E-15-3.32020E-14
 -1       868 1.97627E+01 3.89720E-01 1.14683E-05 9.32929E-01-2.73122E-14 4.76761E-15
 -1       869 1.96948E+01 3.37719E-01 1.31095E-05 1.09662E+00-6.11158E-14-3.80774E-14
 -1       870 1.96714E+01 2.09745E-01 4.29743E-06 1.28391E+00-4.50685E-14-4.95385E-14
 -1       871 1.97307E+01-3.35837E-02-7.56457E-05 1.49319E+00-8.65404E-15-3.40514E-14
 -1       872 1.99323E+01-4.35405E-01-1.70974E-04 1.71191E+00-3.94334E-14 6.05558E-14
 -1       873 2.03577E+01-1.03020E+00-2.40552E-04 1.90475E+00 5.24545E-14 1.06500E-14
 -1       874 2.11226E+01-1.86962E+00-8.08983E-03 2.00384E+00 1.13607E-13 6.90944E-14
 -1       875 2.23922E+01-2.66733E+00 2.00506E-02 1.80723E+00 1.22630E-13-7.20726E-14
 -1       876 2.02621E+01 6.33984E-01 7.79226E-05-1.24942E-01 8.41375E-14-7.13208E-14
 -1       877 2.39379E+01-3.21733E+00 8.38440E-03-1.04748E+00 1.18353E-13 7.35935E-14
 -1       878 2.22833E+01-2.63061E+00 4.42461E-03-1.75584E+00 1.76735E-13 5.66067E-14
 -1       879 2.10635E+01-1.72987E+00 1.33731E-03-1.94541E+00-2.36325E-14 2.30538E-13
 -1       880 2.03043E+01-9.41585E-01-6.85605E-05-1.84284E+00 4.22901E-14 1.02387E-13
 -1       881 1.98757E+01-3.42526E-01-3.04123E-05-1.63602E+00-1.09086E-14-7.12118E-14
 -1       882 1.96697E+01 6.00964E-02 2.56998E-05-1.40116E+00 2.16575E-13-1.40327E-13
 -1       883 1.95986E+01 3.04046E-01 2.48643E-05-1.17684E+00-9.62953E-14-9.72207E-14
 -1       884 1.96032E+01 4.31461E-01 3.84648E-05-9.74531E-01-1.77295E-13 1.77831E-13
 -1       885 1.96462E+01 4.78294E-01 2.92124E-05-7.97054E-01-3.65487E-13 1.80997E-13
 -1       886 1.97046E+01 4.73151E-01 1.80059E-05-6.43937E-01-1.84323E-13 1.26306E-13
 -1       887 1.97652E+01 4.37264E-01 1.11929E-05-5.13547E-01 2.76371E-14 4.14917E-14
 -1       888 1.98211E+01 3.85629E-01 7.73423E-06-4.03927E-01 2.87694E-14-2.12588E-13
 -1       889 1.98689E+01 3.28341E-01 5.91291E-06-3.12978E-01 2.05176E-13-3.11647E-13
 -1       890 1.99078E+01 2.71705E-01-2.19539E-06-2.38640E-01 1.94416E-13-2.38002E-13
 -1       891 1.99380E+01 2.19747E-01-2.81503E-06-1.78772E-01-8.92468E-14-2.38387E-13
 -1       892 1.99606E+01 1.74253E-01 7.47832E-06-1.31538E-01-2.06970E-14-5.74107E-13
 -1       893 1.99710E+01 1.45534E-01 9.13854E-06-9.95877E-02 8.62603E-14-4.63637E-13
 -1       894 1.91645E+01 7.88202E-01 2.57617E-05-1.33506E+00-2.61705E-14-3.22114E-14
 -1       895 1.94085E+01 7.29496E-01 4.55070E-05-1.13324E+00 4.73241E-14-9.39731E-14
 -1       896 1.85814E+01 6.39060E-01-1.32832E-04-1.90906E+00-3.31195E-14-1.01931E-13
 -1       897 1.83120E+01 2.78375E-01-4.14963E-04-2.35363E+00-7.91839E-14-3.33867E-14
 -1       898 1.82407E+01-4.40941E-01 1.02733E-02-2.98225E+00-9.80748E-14 4.49350E-14
 -1       899 1.99980E+01 1.00720E-01 2.58497E-05 7.60673E-02-5.88362E-13 4.66545E-13
 -1       900 1.87388E+01 8.17607E-01-3.34828E-04 1.60727E+00-1.51185E-13 5.87271E-13
 -1       901 1.53388E+01-9.07854E-01 3.07169E-02 3.91284E+00 6.39619E-14-2.83359E-13
 -1       902 1.84497E+01 6.01636E-01-9.86579E-04 1.98019E+00-1.08269E-13 4.18134E-13
 -1       903 1.92605E+01 8.37489E-01 1.83598E-05 1.08298E+00-4.04143E-14 3.91166E-13
 -1       904 1.94575E+01 7.56605E-01 2.40076E-05 8.86164E-01-7.32532E-14 5.04668E-13
 -1       905 1.96116E+01 6.56486E-01 1.66006E-05 7.18378E-01-1.34622E-13 5.43418E-13
 -1       906 1.97286E+01 5.53200E-01 1.01770E-05 5.75219E-01-1.75237E-13-1.29524E-14
 -1       907 1.98152E+01 4.55687E-01 6.62747E-06 4.54097E-01-1.03123E-13-2.11727E-14
 -1       908 1.98780E+01 3.68398E-01 6.38512E-06 3.52955E-01-2.79311E-13 4.93368E-14
 -1       909 1.99226E+01 2.93045E-01 1.25182E-05 2.69718E-01-7.85057E-15-5.09037E-14
 -1       910 1.99535E+01 2.29873E-01 3.45506E-05 2.02672E-01 2.60242E-15 1.52049E-13
 -1       911 1.99740E+01 1.77513E-01-8.61446E-05 1.48612E-01 2.64442E-13 3.46170E-13
 -1       912 1.66826E+01-1.10658E+00 2.05893E-02-3.83983E+00-1.62858E-13 4.56319E-15
 -1       913 1.99071E+01 2.05547E-01-4.15249E-05-2.26654E-02 7.91332E-14-3.57309E-13
 -1       914 1.30572E+01 6.85061E-01 3.29852E-02 1.72368E+00-3.85655E-14-1.23910E-13
 -1       915 2.00860E+01 2.03386E+00-3.16238E-04-1.60010E-01 5.26388E-14-1.71932E-13
 -1       916 1.82234E+01 1.24566E-01-2.17828E-05 2.49314E+00-2.40440E-13 3.01205E-13
 -1       917 2.02945E+01 8.90593E-01-7.79585E-04-5.02320E-02-2.48527E-14-7.60443E-14
 -1       918 1.37586E+01 6.04142E-01 3.86284E-02 2.15391E+00-2.98708E-13 3.84979E-13
 -1       919 2.20925E+01-3.23979E+00 1.34838E-02 2.66783E+00 1.52358E-13-1.31748E-13
 -1       920 1.88825E+01 7.78378E-01-7.01084E-05-1.58470E+00 2.94399E-14-3.56250E-14
 -1       921 1.99159E+01 4.77057E-01-2.10248E-06-6.86203E-01 4.07510E-14-9.02951E-14
 -1       922 1.38078E+01 4.64379E-02 4.62457E-02-3.04185E+00 6.61511E-14 3.08432E-13
 -1       923 1.86952E+01-2.50945E+00 1.71386E-02 4.16826E+00 3.65983E-14-4.45230E-14
 -1       924 1.90188E+01 8.71843E-01-1.33568E-04 1.31722E+00-2.30486E-13 4.13847E-13
 -1       925 1.99067E+01 2.07281E-01-2.74757E-05 1.80270E-02 1.16962E-13-7.31500E-14
 -1       926 1.64276E+01-8.26499E-01 1.24195E-02-3.52477E+00 2.33510E-13 7.46679E-14
 -1       927 1.34442E+01 1.05237E+00 2.16985E-02-5.80067E-02 5.03664E-14-1.03120E-13
 -1       928 2.02958E+01 8.77353E-01 5.56151E-05 8.85924E-02 1.05077E-13-7.42375E-14
 -1       929 1.99395E+01 1.74759E-01-3.87715E-05-7.77306E-02 2.25885E-13 1.98837E-13
 -1       930 2.00295E+01 4.33459E-01 2.64242E-07-5.62437E-01 4.29615E-14-1.10942E-13
 -1       931 1.96120E+01 6.41532E-01 2.77095E-05-9.63838E-01 1.01126E-13-5.23908E-14
 -1       932 2.02903E+01 1.18180E+00-1.90196E-05 3.47861E-01 1.28649E-13-2.28761E-14
 -1       933 2.02025E+01 4.94648E-01-1.68507E-07-2.95043E-01 7.44743E-14-4.17215E-14
 -1       934 1.99877E+01 1.36049E-01 7.69961E-05 1.06871E-01 8.46726E-14 3.92431E-13
 -1       935 1.52973E+01 2.65075E-01 1.79310E-02-2.62280E+00-1.53673E-13 2.57346E-15
 -1       936 2.02848E+01 1.16694E+00 8.71828E-04-2.22011E-01 4.15843E-15-1.11100E-13
 -1       937 2.02533E+01 1.36225E+00 1.00429E-03-2.06887E-01 2.55209E-14-1.10876E-13
 -1       938 2.02135E+01 1.51644E+00 2.98487E-04-1.32635E-01 5.23633E-14-1.31773E-13
 -1       939 2.03355E+01-2.80581E+00 2.66851E-02-3.52440E+00 9.65356E-14-4.49976E-14
 -1       940 2.02108E+01 1.51982E+00-3.28992E-05 1.37099E-01 9.57230E-14-1.23997E-13
 -1       941 1.82372E+01-7.69044E-01 1.04369E-02 3.19562E+00-5.80109E-14 3.78378E-13
 -1       942 1.99476E+01 1.73158E-01-7.39415E-05 8.78376E-02 7.53933E-14 5.25914E-13
 -1       943 1.57148E+01 1.13084E-02 2.09488E-02 2.92825E+00-2.23827E-13 1.01729E-12
 -1       944 1.97789E+01 5.51378E-01 1.11889E-05-8.17370E-01 5.93983E-14-2.22651E-14
 -1       945 1.99199E+01 1.93360E-01 1.87587E-05-5.29207E-02 3.41362E-14 1.16772E-13
 -1       946 2.01863E+01 1.59912E+00-4.74180E-05 4.97003E-02 7.78296E-14-1.31341E-13
 -1       947 2.02795E+01 8.98380E-01-7.20601E-05 2.96345E-02 8.45230E-15-7.21664E-14
 -1       948 2.02334E+01 6.83889E-01-2.40585E-05 1.68509E-01-1.39497E-14-4.14316E-14
 -1       949 2.01516E+01 5.56894E-01-5.50846E-06 2.85693E-01-1.95896E-14-2.23194E-14
 -1       950 2.00395E+01 4.99187E-01-2.07407E-05 3.92181E-01 1.44855E-14 2.58417E-14
 -1       951 1.99038E+01 4.88969E-01-2.75227E-05 4.97786E-01 7.18713E-15 3.09881E-14
 -1       952 1.97495E+01 5.04812E-01-1.43383E-05 6.12484E-01 2.59072E-14 3.34972E-14
 -1       953 1.95823E+01 5.23908E-01-2.59327E-05 7.45895E-01 6.50030E-15 3.38334E-14
 -1       954 1.94094E+01 5.21412E-01-5.75541E-05 9.08176E-01-7.59445E-14 2.73041E-14
 -1       955 1.92442E+01 4.67035E-01-9.17427E-05 1.11114E+00-6.85364E-14 3.61555E-14
 -1       956 1.91101E+01 3.23340E-01-1.58219E-04 1.36820E+00 7.10300E-15 4.47268E-14
 -1       957 1.90472E+01 4.32780E-02-4.68821E-04 1.69370E+00-3.39821E-15 3.24113E-14
 -1       958 1.91292E+01-4.35205E-01-1.50484E-03 2.09814E+00-2.40354E-15 6.94443E-14
 -1       959 1.94459E+01-1.17438E+00 1.66207E-03 2.60064E+00 8.40444E-14 8.77954E-14
 -1       960 2.02813E+01 9.07440E-01 1.35085E-04-3.13546E-03 7.54477E-14-1.12428E-13
 -1       961 2.01242E+01 4.34288E-01-2.04249E-06-4.36072E-01 6.74232E-14-2.57382E-14
 -1       962 2.01630E+01-2.10497E+00 3.08403E-03-2.94899E+00 7.33358E-14 3.68009E-14
 -1       963 1.94141E+01-1.05371E+00 6.05785E-03-2.47370E+00 6.49402E-14 4.88767E-14
 -1       964 1.90557E+01-3.26296E-01-1.06094E-03-2.02966E+00 3.12875E-14 2.45206E-13
 -1       965 1.89746E+01 1.46872E-01-4.98948E-05-1.61575E+00-7.93365E-14 1.86719E-13
 -1       966 1.90200E+01 4.27207E-01-1.94591E-04-1.28308E+00 1.18150E-13-1.48321E-14
 -1       967 1.91290E+01 5.72026E-01-3.79243E-05-1.01715E+00-9.92885E-14 8.72010E-14
 -1       968 1.92624E+01 6.23188E-01-1.23639E-05-8.04937E-01-3.35855E-13-3.63541E-14
 -1       969 1.93978E+01 6.13891E-01-1.25867E-05-6.35049E-01-2.89824E-13-1.75461E-13
 -1       970 1.95231E+01 5.68311E-01-1.21108E-05-4.98323E-01-6.53074E-14-2.38053E-13
 -1       971 1.96327E+01 5.03574E-01-9.29674E-06-3.88019E-01 3.38881E-14-1.69657E-13
 -1       972 1.97248E+01 4.31479E-01 1.26390E-06-2.99202E-01-4.57453E-14-1.21531E-13
 -1       973 1.97992E+01 3.59895E-01 1.50053E-07-2.27853E-01 2.12012E-13-9.74769E-14
 -1       974 1.98583E+01 2.92935E-01-2.22481E-05-1.71498E-01 1.56400E-13-6.20869E-14
 -1       975 1.99031E+01 2.34181E-01 5.88090E-06-1.26794E-01 1.70684E-14 1.52863E-13
 -1       976 1.99227E+01 2.03214E-01 3.86854E-05-9.96952E-02-5.96890E-14 3.69203E-13
 -1       977 1.88400E+01 9.18084E-01-3.09252E-05-9.53761E-01-3.32511E-14 2.65613E-14
 -1       978 1.64353E+01 5.64829E-01 6.52547E-03-2.20605E+00-1.52651E-13 7.14801E-14
 -1       979 1.72263E+01 8.71869E-01-8.21343E-04-1.68024E+00-1.18107E-13 4.91531E-14
 -1       980 1.76029E+01 1.04510E+00-1.62739E-03 1.40380E+00-2.25425E-13 4.09930E-13
 -1       981 1.92150E+01 8.34870E-01-5.52436E-05 6.27342E-01-5.22166E-15 3.16955E-13
 -1       982 1.89437E+01 9.49944E-01-4.51663E-05 7.60104E-01-8.41240E-14 4.68602E-13
 -1       983 1.95847E+01 5.96403E-01-3.95898E-05 4.13406E-01-6.01896E-14 2.79647E-13
 -1       984 1.97054E+01 4.88968E-01-3.09679E-05 3.28153E-01-1.22964E-13-1.58487E-13
 -1       985 1.97955E+01 3.94141E-01 2.06396E-06 2.56137E-01-1.40892E-13-1.85897E-13
 -1       986 1.98612E+01 3.12835E-01-4.85061E-05 1.95682E-01-2.78375E-13 1.86080E-13
 -1       987 1.99096E+01 2.45288E-01 2.67472E-04 1.47113E-01 1.70093E-14 3.48127E-13
 -1       988 1.38404E+01 1.15977E+00 1.06145E-02 3.45560E-01-1.42498E-13 7.97869E-14
 -1       989 1.55316E+01 1.72799E-01 1.21337E-02 2.53493E+00 1.99710E-15-1.54087E-13
 -1       990 1.81542E+01 1.08770E+00-6.22054E-04 1.11546E+00-1.96058E-13 4.74705E-13
 -1       991 2.01866E+01 1.59866E+00-4.17237E-06-4.23460E-02 6.99248E-14-1.74651E-13
 -1       992 1.99212E+01 1.96118E-01 2.33188E-05 5.69590E-02-3.29583E-14 2.20297E-13
 -1       993 1.45253E+01 8.16194E-01 1.28851E-02-1.66217E+00 1.07018E-13 4.02616E-14
 -1       994 2.02531E+01 1.36118E+00-1.15882E-04 2.10259E-01 1.37860E-13-1.09467E-13
 -1       995 1.69295E+01 8.69575E-01 7.43473E-03 1.80557E+00-1.33544E-13 7.18577E-13
 -1       996 1.85957E+01 1.04279E+00-3.37839E-05 9.18284E-01-1.95569E-13 5.16164E-13
 -1       997 1.94246E+01 7.13636E-01-4.89838E-05 5.12707E-01 1.93298E-13 3.06102E-13
 -1       998 1.60675E+01 2.49726E-01 3.49127E-03-2.39171E+00 1.41527E-13 6.22451E-14
 -1       999 1.48965E+01 8.73585E-01 1.22114E-02 1.30630E+00 4.66526E-14-1.50385E-13
 -1      1000 2.02375E+01 6.89839E-01 4.24203E-05-1.60748E-01 4.45431E-14-1.09251E-13
 -1      1001 1.84101E+01 9.88803E-01-1.29077E-04-1.12044E+00 8.64200E-14 1.00067E-14
 -1      1002 1.98872E+01 5.47525E-01-2.00623E-06-5.01007E-01 3.48260E-14-8.30540E-14
 -1      1003 1.91880E+01 8.15866E-01-8.58083E-06-8.19065E-01 5.31779E-14-5.21329E-14
 -1      1004 2.02646E+01 1.10771E+00 2.56591E-04 4.49317E-02 8.98016E-14-6.65080E-14
 -1      1005 1.54771E+01 9.14816E-01 2.06958E-03 1.65029E+00-5.91734E-14 5.56183E-13
 -1      1006 1.47446E+01 8.93546E-01 8.52166E-03-1.45641E+00-7.89605E-14-2.28352E-14
 -1      1007 1.61295E+01 4.14410E-01 1.61921E-02 2.41481E+00-8.24192E-14 1.03686E-12
 -1      1008 1.98629E+01 2.60335E-01 1.08824E-04-3.35581E-03 3.65869E-14-3.50637E-13
 -1      1009 2.02448E+01 1.21014E+00 2.44611E-04 3.10874E-02 8.81135E-14-1.05832E-13
 -1      1010 1.98616E+01 2.78970E-01-8.83125E-05 9.92196E-02-1.60333E-13-1.17889E-13
 -1      1011 1.78761E+01 9.94779E-01-5.83181E-04-1.34599E+00 4.03238E-14-1.89575E-15
 -1      1012 1.77085E+01-9.69971E-01 1.04273E-02 3.22675E+00 3.60541E-14-1.26864E-13
 -1      1013 1.97002E+01 6.12594E-01-6.95790E-05-5.99769E-01 3.98538E-14-1.17130E-13
 -1      1014 1.98721E+01 2.49792E-01-2.56022E-04-4.67598E-02 1.13505E-13-1.07509E-13
 -1      1015 2.02447E+01 8.81374E-01 6.77421E-05 6.57020E-02 2.45797E-14-1.34117E-13
 -1      1016 2.01761E+01 6.96840E-01-2.47531E-05 1.53153E-01-2.68032E-15-1.10447E-13
 -1      1017 2.00620E+01 6.01275E-01-1.89013E-06 2.32305E-01 8.02589E-15-6.79102E-14
 -1      1018 1.99092E+01 5.70817E-01-1.11420E-04 3.10955E-01 2.03880E-14-4.89435E-14
 -1      1019 1.97223E+01 5.85794E-01-1.13430E-04 3.98011E-01 3.85027E-14 2.98622E-15
 -1      1020 1.95039E+01 6.24907E-01 1.96923E-05 5.02268E-01-2.36592E-14 4.02991E-16
 -1      1021 1.92570E+01 6.63558E-01-1.20933E-04 6.33552E-01-1.44063E-14-2.05018E-14
 -1      1022 1.89821E+01 6.79880E-01-2.62092E-04 8.07705E-01-2.16693E-14 9.37545E-14
 -1      1023 1.86859E+01 6.41991E-01-3.71517E-04 1.04229E+00-7.04496E-14 3.80443E-14
 -1      1024 1.83796E+01 5.12283E-01-4.48727E-04 1.36441E+00-1.46054E-14-4.58960E-14
 -1      1025 1.80904E+01 2.43104E-01 2.16838E-04 1.80911E+00-1.13972E-14-3.45941E-14
 -1      1026 1.78852E+01-2.50395E-01 1.56716E-03 2.42475E+00 1.02648E-13-9.46752E-14
 -1      1027 2.00374E+01 5.28006E-01-1.01495E-05-4.00412E-01 1.01281E-13-5.82348E-14
 -1      1028 1.78003E+01-1.11335E-01 1.08229E-03-2.35253E+00 1.18572E-13 1.86471E-13
 -1      1029 1.80270E+01 3.40881E-01-8.11840E-04-1.74759E+00 6.24048E-14 2.75679E-13
 -1      1030 1.82901E+01 6.20694E-01-8.88074E-04-1.30111E+00-1.27705E-13 2.34537E-13
 -1      1031 1.85672E+01 7.52538E-01-2.24865E-04-9.79147E-01-1.03139E-13-5.40383E-14
 -1      1032 1.88266E+01 7.90389E-01-1.34672E-04-7.39798E-01-1.59597E-13-9.91179E-14
 -1      1033 1.90593E+01 7.66300E-01-8.12172E-05-5.62201E-01-3.31836E-13 3.45704E-14
 -1      1034 1.92603E+01 7.05486E-01-7.22927E-05-4.28022E-01-3.53631E-13-1.64250E-13
 -1      1035 1.94298E+01 6.24989E-01-6.20824E-05-3.25434E-01 6.02721E-14-1.27091E-13
 -1      1036 1.95694E+01 5.36964E-01-4.92191E-05-2.46420E-01 1.13504E-13-9.30737E-14
 -1      1037 1.96822E+01 4.49521E-01 3.80985E-07-1.85417E-01 7.25122E-14 4.28631E-14
 -1      1038 1.97694E+01 3.69177E-01-5.49941E-05-1.37553E-01 2.83722E-13 1.32117E-13
 -1      1039 1.98387E+01 2.97141E-01 3.12343E-04-1.00841E-01 8.54351E-14 2.92361E-13
 -1      1040 1.94711E+01 7.06674E-01-5.02910E-05-7.04383E-01 6.86766E-14-9.54451E-14
 -1      1041 2.01548E+01 5.68845E-01-5.54230E-05-2.89713E-01 6.40571E-14-7.10937E-14
 -1      1042 1.96595E+01 4.91487E-01-9.69117E-05 2.00796E-01 2.10068E-14 6.48188E-13
 -1      1043 1.95263E+01 6.01171E-01-1.09578E-04 2.49793E-01 7.64494E-14 4.55651E-13
 -1      1044 1.55308E+01 1.27694E+00 3.67273E-03 4.34312E-01 1.10056E-13-5.04879E-14
 -1      1045 1.73376E+01 1.25156E+00 3.00149E-04 6.68926E-01-8.47174E-14 1.31796E-13
 -1      1046 1.84495E+01 1.10156E+00-7.93022E-05 4.94626E-01-1.65900E-13 1.92864E-13
 -1      1047 1.91957E+01-1.90628E+00 7.93578E-03-3.39161E+00 8.19217E-14-3.73562E-14
 -1      1048 1.68544E+01 1.18033E+00 3.59702E-03-8.08600E-01-7.44881E-14 2.76985E-13
 -1      1049 1.91237E+01 8.51428E-01-1.62643E-04 3.63635E-01 1.86374E-14 4.60743E-13
 -1      1050 1.57786E+01 1.09304E+00 5.04980E-03-9.88294E-01 4.88403E-14 1.44792E-13
 -1      1051 2.02453E+01 1.18829E+00-4.19394E-04-1.44601E-02 5.06808E-14-1.38212E-13
 -1      1052 1.98541E+01 2.75353E-01-1.68964E-05 4.54775E-02-1.33834E-13 3.23003E-13
 -1      1053 1.97608E+01 3.94493E-01-1.22667E-04 1.57633E-01-2.07856E-13 2.91704E-13
 -1      1054 1.98955E+01 2.28900E-01 5.09650E-05-7.58277E-02 2.91653E-14 1.55311E-13
 -1      1055 1.88293E+01 9.81214E-01-1.71053E-04 4.26839E-01 2.99957E-14 4.19907E-13
 -1      1056 1.93513E+01 7.22509E-01-1.35219E-04 3.04388E-01 4.55427E-15 5.41875E-13
 -1      1057 1.59154E+01 1.12273E+00 3.91859E-03-1.03567E+00-8.98937E-14 2.04518E-13
 -1      1058 1.79538E+01 1.20339E+00 3.91329E-04 5.76838E-01-2.81358E-13 1.89270E-13
 -1      1059 2.02455E+01 8.31770E-01-1.95014E-04-8.15236E-02 6.30576E-14-5.78228E-14
 -1      1060 1.87601E+01 9.53987E-01-1.28891E-04-5.42625E-01 1.99747E-14 5.96827E-14
 -1      1061 1.99141E+01 6.03699E-01-1.14704E-04-3.07066E-01 5.52740E-14 7.29766E-16
 -1      1062 1.97110E+01 6.43959E-01-1.17146E-04-3.70704E-01 5.09744E-14-1.96862E-14
 -1      1063 1.49994E+01 1.16556E+00-3.20079E-03-2.67639E-02-1.54402E-14-1.14183E-14
 -1      1064 1.82759E+01 1.06450E+00-3.58942E-04-6.06828E-01 3.16276E-14 2.48482E-14
 -1      1065 1.67108E+01 5.12017E-01 3.62228E-03 1.80614E+00 5.90066E-15-1.51257E-13
 -1      1066 2.02365E+01 1.23412E+00 1.51935E-04 8.34067E-03 7.12039E-14-1.47275E-13
 -1      1067 1.97986E+01 3.30265E-01-2.11758E-04 2.40382E-03-4.81668E-14-1.67523E-13
 -1      1068 1.76649E+01 1.14115E+00-7.51561E-04-6.89426E-01 3.53243E-14 1.57034E-13
 -1      1069 2.01025E+01 6.90290E-01 9.16380E-06 8.90595E-02 3.56735E-14-8.74799E-14
 -1      1070 1.99529E+01 6.33119E-01 3.23303E-04 1.31548E-01 4.35655E-14-7.91237E-14
 -1      1071 1.97557E+01 6.38515E-01 2.30141E-04 1.79778E-01 3.75852E-14-5.54733E-14
 -1      1072 1.95182E+01 6.81225E-01 9.51408E-05 2.39877E-01 2.44119E-14-7.14874E-14
 -1      1073 1.92346E+01 7.47308E-01 7.92596E-04 3.26136E-01-3.01668E-14-5.41956E-14
 -1      1074 1.88940E+01 8.17326E-01 6.67257E-04 4.45579E-01-2.19953E-14-9.69857E-14
 -1      1075 1.84984E+01 8.62532E-01 3.90538E-04 6.10695E-01-3.26111E-14-8.05573E-14
 -1      1076 1.80336E+01 8.61574E-01 4.98959E-04 8.46791E-01-8.83786E-14-4.15630E-14
 -1      1077 1.74895E+01 7.81582E-01 4.04762E-04 1.18355E+00-1.23394E-14-1.17144E-13
 -1      1078 1.68150E+01 6.61894E-01 2.84426E-03-1.63719E+00 9.26308E-14-8.01734E-14
 -1      1079 2.00729E+01 6.20929E-01-6.90336E-05-2.35784E-01 7.75029E-14-1.10106E-13
 -1      1080 1.74323E+01 8.81801E-01-1.09343E-03-1.14659E+00 9.85882E-14-5.17842E-14
 -1      1081 1.79256E+01 9.75531E-01 5.09769E-04-8.06203E-01-1.37226E-13 1.03969E-13
 -1      1082 1.83506E+01 9.77500E-01 4.87051E-04-5.68747E-01-1.29630E-13 1.60259E-13
 -1      1083 1.87016E+01 9.25668E-01-9.24324E-05-4.07146E-01-4.08289E-13-2.16404E-14
 -1      1084 1.89896E+01 8.43804E-01-9.00661E-05-2.91064E-01-4.16774E-13-5.97539E-14
 -1      1085 1.92244E+01 7.44717E-01-7.90450E-05-2.08319E-01-1.52629E-13 1.97241E-13
 -1      1086 1.94137E+01 6.39798E-01-6.35839E-05-1.49187E-01-4.77828E-14-3.38545E-14
 -1      1087 1.95644E+01 5.37077E-01-6.96425E-05-1.06841E-01 1.52614E-13-2.54799E-13
 -1      1088 1.96826E+01 4.41556E-01-8.66473E-05-7.55927E-02 1.91517E-13-2.09206E-13
 -1      1089 1.71537E+01 1.26005E+00-3.62268E-03-1.65370E-01-4.29111E-14 8.39146E-14
 -1      1090 1.93609E+01 6.93230E-01 6.96892E-05 1.18610E-01 3.92452E-14 7.29224E-13
 -1      1091 1.97695E+01 3.69532E-01 2.61354E-04 7.24351E-02-8.90738E-14 4.79462E-13
 -1      1092 1.95308E+01 5.75420E-01 4.55844E-05 1.03606E-01-4.07106E-14 7.15639E-13
 -1      1093 1.96621E+01 4.69376E-01 1.46201E-04 8.75130E-02 1.92257E-13 6.64577E-13
 -1      1094 1.70374E+01 1.18924E+00-3.65429E-03 1.05430E-02-6.26040E-14 1.01566E-13
 -1      1095 1.91419E+01 8.19100E-01 8.15701E-05 1.29122E-01-5.44116E-14 5.57418E-13
 -1      1096 1.80404E+01 1.17586E+00-1.40296E-03 8.89030E-02-2.46826E-13-1.40484E-13
 -1      1097 2.02237E+01 9.03054E-01 7.03347E-05-3.42096E-02 8.32694E-14-1.21904E-13
 -1      1098 2.01939E+01 7.30372E-01-2.80847E-05-1.40848E-01 5.84125E-14-6.54810E-14
 -1      1099 2.02002E+01 8.34014E-01 4.87789E-05 4.99209E-02 3.58002E-14-9.18969E-14
 -1      1100 1.91427E+01 8.37514E-01-1.93255E-04-4.83239E-01 2.88277E-14 4.54595E-14
 -1      1101 1.85016E+01 1.07074E+00 7.22927E-05 1.19201E-01-2.67175E-13-6.50350E-14
 -1      1102 1.94573E+01 7.29093E-01 4.97706E-04-4.27890E-01 4.96132E-15 1.24290E-14
 -1      1103 1.97795E+01 6.54776E-01-1.67823E-04-1.50700E-01 9.65385E-14-7.18065E-14
 -1      1104 1.63052E+01 1.08808E+00 2.39112E-03 7.68935E-01 7.05690E-14-1.04538E-13
 -1      1105 1.78109E+01 1.12380E+00-3.05676E-04-7.57407E-02-4.69991E-14 8.48770E-14
 -1      1106 1.99772E+01 6.48609E-01 4.97201E-04-1.28682E-01 3.04014E-15-3.91854E-14
 -1      1107 1.83929E+01 1.02591E+00-4.79352E-04-1.32224E-01 2.47537E-14-1.44500E-15
 -1      1108 1.88540E+01 9.14070E-01-5.66147E-04-1.60993E-01 1.72161E-14 5.93731E-15
 -1      1109 1.88614E+01 9.47564E-01 1.03421E-04 1.31080E-01-1.68701E-13 2.97989E-13
 -1      1110 2.02335E+01 1.00726E+00-8.68130E-05 1.35823E-02 5.08854E-14-1.29052E-13
 -1      1111 2.00209E+01 6.66939E-01-3.37592E-04-2.51761E-02-1.94670E-15-4.52786E-14
 -1      1112 1.93132E+01 7.68173E-01-7.49008E-04 1.77941E-02-2.17287E-14-6.61133E-14
 -1      1113 1.95280E+01 7.15599E-01-2.31759E-04-1.67729E-01-3.12167E-14 2.01789E-15
 -1      1114 2.01506E+01 7.60998E-01-3.32711E-04-1.92612E-02 3.03489E-14-2.07427E-14
 -1      1115 2.01328E+01 7.20120E-01 2.42819E-04-8.75591E-02 4.21180E-14-7.63130E-14
 -1      1116 2.78717E+01 9.05577E+00 2.31400E+00-6.67089E+00-2.88103E-14 6.72629E-13
 -1      1117 2.05204E+01 6.21931E+00 2.10539E-01-3.88157E+00-1.38500E-14 2.28983E-15
 -1      1118 1.94339E+01 5.85317E+00 7.66687E-02-2.86255E+00-8.86097E-15-2.65647E-13
 -1      1119 1.90402E+01 5.73047E+00 6.13894E-02-2.20715E+00-5.07233E-15-3.80886E-13
 -1      1120 1.88613E+01 5.67584E+00 5.81853E-02-1.67320E+00-3.75741E-15-4.25745E-13
 -1      1121 1.87694E+01 5.64741E+00 5.52677E-02-1.20911E+00-4.30211E-16-4.33574E-13
 -1      1122 1.87205E+01 5.63203E+00 5.29355E-02-7.85647E-01-2.94903E-17-4.17050E-13
 -1      1123 1.86958E+01 5.62415E+00 5.13250E-02-3.82972E-01 1.23816E-15-4.01089E-13
 -1      1124 1.86888E+01 5.62188E+00 5.08056E-02 8.19932E-03 1.85171E-15-3.71624E-13
 -1      1125 1.86974E+01 5.62465E+00 5.14582E-02 3.99806E-01 3.69951E-15-3.40217E-13
 -1      1126 1.87236E+01 5.63304E+00 5.32296E-02 8.03915E-01 4.76398E-15-3.06887E-13
 -1      1127 1.87745E+01 5.64916E+00 5.60084E-02 1.23016E+00 6.82267E-15-2.57476E-13
 -1      1128 1.88673E+01 5.67785E+00 5.88767E-02 1.69897E+00 8.45331E-15-1.71640E-13
 -1      1129 1.90463E+01 5.73234E+00 6.14983E-02 2.24030E+00 9.43690E-15-5.48997E-14
 -1      1130 1.94307E+01 5.85047E+00 7.08138E-02 2.90333E+00 1.17961E-14 1.52593E-13
 -1      1131 2.04262E+01 6.17421E+00 1.54458E-01 3.85687E+00 9.49241E-15 5.23994E-13
 -1      1132 2.51348E+01 7.96725E+00 1.42253E+00 5.82283E+00 1.24345E-14 1.19810E-12
 -1      1133 2.86959E+01 3.59770E+00 1.25958E+00-4.19844E+00-1.09912E-13 1.09085E-12
 -1      1134 2.01605E+01-1.77783E-01-6.15660E-01-1.08547E-01-3.32651E-14 8.25423E-13
 -1      1135 1.87911E+01-9.67591E-02-2.36106E-01 6.23880E-02-1.41068E-14 4.97552E-13
 -1      1136 1.84807E+01-4.89583E-02-6.03172E-02 4.02340E-02-1.44828E-14 3.05235E-13
 -1      1137 1.84555E+01-2.60882E-02-1.67529E-02 2.65271E-02-1.12137E-14 1.43288E-13
 -1      1138 1.85787E+01-1.51627E-02-7.37088E-03 1.89341E-02-8.81998E-15 2.61978E-14
 -1      1139 1.87843E+01-9.43249E-03-4.78854E-03 1.42684E-02-1.14964E-14-7.47041E-14
 -1      1140 1.90394E+01-6.45744E-03-3.78998E-03 1.12902E-02 5.40052E-15-1.56911E-13
 -1      1141 1.93287E+01-5.07272E-03-3.62152E-03 9.43158E-03-7.25586E-15-2.47760E-13
 -1      1142 1.96474E+01-4.61254E-03-4.06933E-03 8.44532E-03 9.13055E-15-3.39803E-13
 -1      1143 1.99970E+01-4.60955E-03-4.84869E-03 8.22645E-03-8.56970E-15-5.16096E-13
 -1      1144 2.03819E+01-4.64425E-03-5.55505E-03 8.71426E-03-1.06907E-14-5.21822E-13
 -1      1145 2.08061E+01-4.25978E-03-5.63449E-03 9.82014E-03-8.11840E-15-5.61638E-13
 -1      1146 2.12694E+01-2.91268E-03-4.33307E-03 1.13465E-02 1.66154E-15-4.99845E-13
 -1      1147 2.17619E+01 3.20058E-05-6.73923E-04 1.28762E-02-5.04590E-15-5.16656E-13
 -1      1148 2.22577E+01 5.21926E-03 6.44512E-03 1.36304E-02-2.81455E-14-4.78237E-13
 -1      1149 2.27070E+01 1.30638E-02 1.78753E-02 1.23355E-02-1.96321E-14-5.16948E-13
 -1      1150 2.30312E+01 2.32509E-02 3.33897E-02 7.22568E-03 1.00410E-14-5.59305E-13
 -1      1151 2.31238E+01 3.40138E-02 5.03681E-02-3.55346E-03-5.46351E-15-7.77615E-13
 -1      1152 2.28687E+01 4.14207E-02 6.25235E-02-2.08369E-02 5.42882E-14-8.35960E-13
 -1      1153 2.21824E+01 3.95730E-02 6.02730E-02-4.26049E-02 1.96605E-14-7.77468E-13
 -1      1154 2.10801E+01 2.29426E-02 3.47286E-02-6.23125E-02-1.55707E-14-5.77441E-13
 -1      1155 1.97376E+01-8.78487E-03-1.44056E-02-6.96217E-02-3.37013E-15-5.24719E-13
 -1      1156 1.84948E+01-4.61717E-02-7.18834E-02-5.56374E-02-4.94826E-14-6.32015E-13
 -1      1157 1.77505E+01-7.15107E-02-1.10661E-01-2.06476E-02-3.04184E-15-7.57016E-13
 -1      1158 1.77745E+01-7.07952E-02-1.09535E-01 2.28321E-02 2.48013E-14-6.38031E-13
 -1      1159 1.85586E+01-4.44108E-02-6.91438E-02 5.68988E-02 3.63485E-14-3.57402E-13
 -1      1160 1.98223E+01-7.01799E-03-1.15730E-02 6.96528E-02-3.49195E-14-7.50837E-13
 -1      1161 2.11661E+01 2.39215E-02 3.63771E-02 6.14090E-02-1.39322E-14-8.30024E-13
 -1      1162 2.22585E+01 3.95255E-02 6.03398E-02 4.13765E-02 2.28407E-14-7.68517E-13
 -1      1163 2.29344E+01 4.05216E-02 6.13123E-02 1.98168E-02-1.68758E-14-5.96991E-13
 -1      1164 2.31877E+01 3.26134E-02 4.84232E-02 3.00776E-03 3.74132E-14-7.05027E-13
 -1      1165 2.31067E+01 2.16212E-02 3.11574E-02-7.23545E-03 5.01574E-15-7.01664E-13
 -1      1166 2.28099E+01 1.13407E-02 1.55560E-02-1.18418E-02 3.53734E-14-5.94601E-13
 -1      1167 2.24041E+01 3.44623E-03 4.06566E-03-1.26622E-02-3.19829E-14-7.11478E-13
 -1      1168 2.19686E+01-1.79192E-03-3.16253E-03-1.14110E-02-2.02507E-14-6.44665E-13
 -1      1169 2.15538E+01-4.77848E-03-6.98309E-03-9.30280E-03-2.50443E-14-1.09121E-12
 -1      1170 2.11868E+01-6.11767E-03-8.45595E-03-7.05906E-03-1.15249E-14-9.51138E-13
 -1      1171 2.08783E+01-6.37591E-03-8.48910E-03-5.04140E-03 5.91199E-14-4.53133E-13
 -1      1172 2.06292E+01-5.99734E-03-7.74339E-03-3.38838E-03 6.76483E-15-2.85468E-13
 -1      1173 2.04346E+01-5.29563E-03-6.65369E-03-2.11690E-03-3.08018E-14-3.73891E-13
 -1      1174 2.02871E+01-4.47584E-03-5.48447E-03-1.18625E-03-7.65029E-14-6.89931E-13
 -1      1175 2.01786E+01-3.66261E-03-4.38458E-03-5.34110E-04-5.04794E-14-8.82732E-13
 -1      1176 2.01015E+01-2.92510E-03-3.43014E-03-9.45120E-05-9.29392E-15-3.22286E-13
 -1      1177 2.00490E+01-2.29576E-03-2.65499E-03 1.95339E-04 3.79049E-14-2.35968E-14
 -1      1178 2.00156E+01-1.78226E-03-2.06638E-03 3.95819E-04 3.90847E-14 2.93882E-13
 -1      1179 1.99970E+01-1.37027E-03-1.63013E-03 5.69906E-04-2.57781E-14 9.77496E-14
 -1      1180 1.99901E+01-9.93025E-04-1.19956E-03 7.77076E-04-2.48898E-14-1.77061E-15
 -1      1181 1.99925E+01-6.89692E-04-2.76473E-04 1.11329E-03-2.54989E-14-1.15507E-14
 -1      1182 1.99983E+01 5.96250E-04 1.48664E-03 5.08235E-04-5.09923E-14-2.06411E-13
 -1      1183 2.76788E+01 5.23474E-01 3.70290E-01 1.95970E+00-2.41543E-14 1.72579E-12
 -1      1184 2.00171E+01-6.64805E-02-5.72895E-01 1.29006E-01 2.79984E-15 1.53011E-12
 -1      1185 1.88627E+01-4.11357E-02-1.93095E-01 1.97205E-02 9.34582E-15 1.29465E-12
 -1      1186 1.85059E+01-2.23502E-02-5.12667E-02 2.21578E-03 5.83301E-15 1.10671E-12
 -1      1187 1.84638E+01-1.38335E-02-1.48949E-02-2.93029E-03 9.24608E-16 9.55677E-13
 -1      1188 1.85804E+01-9.45441E-03-7.00672E-03-3.99933E-03 6.36676E-15 8.65336E-13
 -1      1189 1.87835E+01-7.17674E-03-5.33434E-03-3.78169E-03-6.55086E-15 8.46928E-13
 -1      1190 1.90396E+01-6.21668E-03-5.09665E-03-3.07338E-03-6.26647E-15 7.94340E-13
 -1      1191 1.93349E+01-6.20974E-03-5.70045E-03-2.14626E-03-1.60793E-15 7.41136E-13
 -1      1192 1.96684E+01-6.95283E-03-7.16733E-03-1.16142E-03 1.17366E-14 7.07602E-13
 -1      1193 2.00476E+01-8.29495E-03-9.49147E-03-2.80063E-04 1.30618E-14 5.67947E-13
 -1      1194 2.04869E+01-1.00572E-02-1.25747E-02 2.84607E-04-1.17943E-14 5.05615E-13
 -1      1195 2.10057E+01-1.19344E-02-1.61575E-02 2.13028E-04-2.43772E-15 6.02948E-13
 -1      1196 2.16261E+01-1.33476E-02-1.96294E-02-9.86590E-04-1.37813E-14 7.16045E-13
 -1      1197 2.23681E+01-1.32338E-02-2.16745E-02-4.03587E-03 1.77516E-14 5.69052E-13
 -1      1198 2.32411E+01-9.81075E-03-1.97406E-02-9.86043E-03-1.21308E-14 4.07296E-13
 -1      1199 2.42279E+01-5.09333E-04-9.51821E-03-1.92878E-02-3.62413E-14 3.49661E-13
 -1      1200 2.52585E+01 1.73743E-02 1.48098E-02-3.21084E-02 8.68381E-15 3.16053E-13
 -1      1201 2.61749E+01 4.44026E-02 5.78445E-02-4.51269E-02 7.18826E-15 3.13100E-13
 -1      1202 2.67005E+01 7.45007E-02 1.15588E-01-4.95537E-02 2.25341E-15 5.90919E-13
 -1      1203 2.64589E+01 8.98535E-02 1.63983E-01-3.06824E-02-4.29049E-14 7.66887E-13
 -1      1204 2.51196E+01 6.54143E-02 1.56078E-01 2.33867E-02 1.02843E-14 6.66675E-13
 -1      1205 2.27127E+01-7.32976E-03 5.15825E-02 1.01515E-01 6.98530E-15 1.64840E-13
 -1      1206 1.99447E+01-9.17885E-02-1.24465E-01 1.57144E-01-1.52083E-14-3.84137E-14
 -1      1207 1.80771E+01-1.25864E-01-2.62023E-01 1.37526E-01 6.39072E-15 1.26170E-13
 -1      1208 1.81415E+01-8.54831E-02-2.55907E-01 4.05635E-02-1.20581E-14 3.52912E-13
 -1      1209 2.01001E+01-1.38620E-02-1.17697E-01-7.06422E-02 1.88599E-14 2.91156E-13
 -1      1210 2.28752E+01 3.65352E-02 3.84328E-02-1.29919E-01 2.58214E-14-5.55667E-14
 -1      1211 2.52311E+01 5.16137E-02 1.23593E-01-1.22626E-01-2.46244E-14-8.69166E-14
 -1      1212 2.65119E+01 4.33634E-02 1.29226E-01-7.93433E-02-2.94339E-14 1.88877E-14
 -1      1213 2.67190E+01 2.76976E-02 9.14703E-02-3.33915E-02 4.50859E-14-2.25259E-13
 -1      1214 2.61888E+01 1.34924E-02 4.72675E-02-1.20067E-03 1.58142E-14-3.70221E-13
 -1      1215 2.52926E+01 3.55978E-03 1.43756E-02 1.56536E-02-2.79761E-14 1.45512E-13
 -1      1216 2.43009E+01-2.28194E-03-4.52850E-03 2.16107E-02-5.99791E-14 3.99132E-13
 -1      1217 2.33682E+01-5.15021E-03-1.29964E-02 2.15068E-02 2.07332E-15-1.28578E-14
 -1      1218 2.25634E+01-6.15378E-03-1.53132E-02 1.87282E-02 4.05988E-14-5.40321E-13
 -1      1219 2.19045E+01-6.11414E-03-1.45888E-02 1.51852E-02 3.76636E-14-8.63025E-13
 -1      1220 2.13837E+01-5.55995E-03-1.26478E-02 1.17877E-02-2.55720E-14-7.30882E-13
 -1      1221 2.09825E+01-4.80231E-03-1.04211E-02 8.88379E-03 1.28646E-14-7.82561E-13
 -1      1222 2.06799E+01-4.01145E-03-8.32559E-03 6.54623E-03 3.17522E-14-9.67814E-13
 -1      1223 2.04559E+01-3.27335E-03-6.51590E-03 4.73087E-03-9.31707E-14-3.82474E-13
 -1      1224 2.02933E+01-2.62640E-03-5.02474E-03 3.35496E-03-4.58106E-14 1.15742E-13
 -1      1225 2.01778E+01-2.08377E-03-3.83510E-03 2.33186E-03-1.80801E-14 8.10303E-14
 -1      1226 2.00981E+01-1.64618E-03-2.91525E-03 1.58382E-03 2.24901E-14-4.06171E-13
 -1      1227 2.00451E+01-1.30699E-03-2.23332E-03 1.04304E-03 5.51334E-14-5.96627E-13
 -1      1228 2.00123E+01-1.04972E-03-1.75620E-03 6.46806E-04 9.16789E-14-1.11405E-12
 -1      1229 1.99947E+01-8.46454E-04-1.42780E-03 3.27501E-04-4.66356E-15-1.01454E-12
 -1      1230 1.99888E+01-6.01429E-04-1.06079E-03-2.82751E-05-3.01892E-14-4.36737E-13
 -1      1231 1.99920E+01 4.66417E-06-8.87460E-05-5.77699E-04 1.24881E-13-6.47922E-13
 -1      1232 1.99985E+01 4.94053E-04 1.54248E-03-4.90590E-04-3.23891E-14-5.28041E-13
 -1      1233 2.00002E+01-1.50838E-03 1.38924E-03-5.50179E-04-3.88500E-13-3.39609E-14
 -1      1234 1.99994E+01-7.60759E-03-4.01679E-04-9.76365E-04-4.78045E-13 1.21566E-13
 -1      1235 1.99991E+01-9.01317E-03-1.17347E-03-4.04042E-04 5.28824E-13 4.78232E-14
 -1      1236 1.99992E+01-1.78321E-03-1.02614E-03 9.57363E-05 1.13516E-12 1.00341E-13
 -1      1237 1.99996E+01 1.22429E-02-4.78133E-04 3.99565E-04 2.01737E-12-3.75903E-14
 -1      1238 2.00000E+01 2.91373E-02 1.42644E-04 5.02765E-04 1.27829E-12-2.62308E-13
 -1      1239 2.00004E+01 4.49354E-02 6.77361E-04 4.44529E-04 1.48807E-12 7.32473E-14
 -1      1240 2.00006E+01 5.62168E-02 1.03842E-03 2.61493E-04 1.39580E-12-3.19857E-15
 -1      1241 2.00007E+01 6.04216E-02 1.16526E-03 1.55381E-05 8.33527E-13 7.44086E-14
 -1      1242 2.00006E+01 5.67034E-02 1.04241E-03-2.31418E-04 6.14874E-13 3.60023E-14
 -1      1243 2.00004E+01 4.58861E-02 6.88464E-04-4.16842E-04-6.09464E-13-1.84566E-13
 -1      1244 2.00000E+01 3.04687E-02 1.67745E-04-4.87279E-04-1.10987E-12-7.03494E-14
 -1      1245 1.99996E+01 1.38078E-02-4.36187E-04-3.93345E-04-1.20066E-12 1.72604E-14
 -1      1246 1.99992E+01-2.49194E-04-9.74884E-04-1.14611E-04-6.57277E-13-9.60628E-15
 -1      1247 1.99992E+01-7.98701E-03-1.13633E-03 4.14904E-04-6.58089E-13 5.45353E-14
 -1      1248 1.99993E+01-6.61821E-03-2.21502E-04 1.43586E-03 1.84064E-14-7.18384E-15
 -1      1249 2.00002E+01-1.74409E-03 1.29428E-03 6.76930E-04 2.01716E-13-7.01534E-14
 -1      1250-1.06627E+00-2.43891E+01-3.76775E+00-2.17009E+00 1.05987E-12 1.48586E-13
 -1      1251-1.84393E+00-1.60098E+01-3.15620E+00-4.30437E+00 1.35603E-12 4.03788E-13
 -1      1252-1.06481E-01-3.32654E+00-2.05042E+00-6.44390E-01 1.49347E-12 9.56790E-13
 -1      1253 8.18720E+00 6.88982E+00-5.10511E-01 7.45987E+00 1.94555E-12 1.87317E-12
 -1      1254 2.51342E+01 1.08286E+01 1.36364E+00 1.55831E+01 1.44595E-12 1.93423E-12
 -1      1255 4.63126E+01 8.36364E+00 3.02149E+00 1.75040E+01 6.53200E-13 1.42153E-12
 -1      1256 6.35367E+01 3.52560E+00 4.22215E+00 1.08150E+01 1.85102E-13 8.96949E-13
 -1      1257 6.81914E+01 1.90758E+00 4.46418E+00-2.21258E+00 6.45178E-14 2.64261E-13
 -1      1258 5.89057E+01 4.82696E+00 3.85395E+00-1.39795E+01 2.32675E-13-6.89671E-13
 -1      1259 3.95264E+01 9.51252E+00 2.43627E+00-1.81927E+01 8.20344E-13-1.52367E-12
 -1      1260 1.85953E+01 1.03430E+01 6.63098E-01-1.34098E+01 1.56475E-12-1.88782E-12
 -1      1261 4.21960E+00 3.58182E+00-1.11922E+00-4.14855E+00 1.60272E-12-1.32405E-12
 -1      1262-1.40055E+00-8.35012E+00-2.52842E+00 2.83282E+00 9.41913E-13-5.47784E-13
 -1      1263-1.65612E+00-1.99085E+01-3.48387E+00 4.15027E+00 7.55618E-13-1.20459E-13
 -1      1264-1.00148E+00-2.49979E+01-3.78438E+00 6.11720E-01 1.18766E-13-1.17559E-13
 -1      1265-1.33299E+00-2.11998E+01-3.49553E+00-3.39016E+00-9.98757E-13-2.56670E-13
 -1      1266-1.48116E+00-1.02148E+01-2.57506E+00-3.21851E+00-1.50435E-12-6.72740E-13
 -1      1267 2.33171E+00 1.83414E+00-1.28506E+00 2.44390E+00-1.74705E-12-1.31739E-12
 -1      1268 1.29201E+01 9.66891E+00 2.28206E-01 1.09030E+01-1.76703E-12-1.85274E-12
 -1      1269 2.95723E+01 1.10569E+01 1.74101E+00 1.72044E+01-1.19837E-12-1.68066E-12
 -1      1270 4.83160E+01 7.47732E+00 3.06546E+00 1.72036E+01-4.67071E-13-9.63452E-13
 -1      1271 6.25207E+01 3.06032E+00 3.90097E+00 9.24633E+00-1.21611E-13-1.43774E-13
 -1      1272 6.62807E+01 1.66811E+00 4.14473E+00-2.92001E+00-6.51146E-14 2.68119E-13
 -1      1273 5.75106E+01 4.72687E+00 3.61081E+00-1.35223E+01-2.46081E-13 8.61311E-13
 -1      1274 4.05928E+01 9.32799E+00 2.54683E+00-1.81264E+01-5.62550E-13 1.08935E-12
 -1      1275 2.20311E+01 1.12241E+01 1.11047E+00-1.51305E+01-1.13998E-12 1.23768E-12
 -1      1276 7.73338E+00 7.23940E+00-4.13322E-01-7.44974E+00-2.12519E-12 1.77702E-12
 -1      1277 6.50881E-02-2.84544E+00-1.87678E+00 3.92452E-01-2.29239E-12 1.50657E-12
 -1      1278-1.75975E+00-1.51715E+01-3.05740E+00 3.87990E+00-1.64868E-12 6.64524E-13
 -1      1279-1.17722E+00-2.36160E+01-3.67729E+00 2.12092E+00 3.39617E-13 1.50900E-13
 -1      1280 2.22032E+01 1.83536E+00-7.23362E-01-2.77682E+00-4.11338E-14 5.12979E-13
 -1      1281 2.03433E+01 4.68355E+00-4.78415E-02-3.28180E+00-9.67282E-14-1.25198E-13
 -1      1282 2.08359E+01 4.79910E+00-1.12427E-01-4.13565E+00-1.31228E-13 1.44190E-14
 -1      1283 1.95369E+01 4.99276E+00-1.92127E-02-2.62557E+00-8.30863E-14-3.16504E-13
 -1      1284 1.98259E+01 5.08638E+00 8.69225E-04-3.01769E+00-1.01280E-13-2.37060E-13
 -1      1285 2.05171E+01 3.94727E+00-2.55667E-02-3.04499E+00-1.63303E-13-1.10079E-13
 -1      1286 1.92017E+01 5.08835E+00-3.27083E-03-2.04007E+00-5.76414E-14-4.04066E-13
 -1      1287 1.93456E+01 5.14218E+00 1.12090E-02-2.33381E+00-6.99302E-14-3.67796E-13
 -1      1288 1.97645E+01 4.36828E+00-2.34436E-02-2.45797E+00-1.26170E-13-2.67793E-13
 -1      1289 1.90299E+01 5.13974E+00 3.32326E-03-1.53502E+00-3.61881E-14-4.33804E-13
 -1      1290 1.91068E+01 5.16905E+00 1.33025E-02-1.78392E+00-4.17947E-14-4.22440E-13
 -1      1291 1.94107E+01 4.56372E+00-1.91154E-02-1.89842E+00-8.14739E-14-3.41289E-13
 -1      1292 1.89363E+01 5.17296E+00 6.23164E-03-1.09193E+00-1.44572E-14-4.27628E-13
 -1      1293 1.89791E+01 5.18947E+00 1.30392E-02-1.31076E+00-2.25306E-14-4.28704E-13
 -1      1294 1.92250E+01 4.67708E+00-1.56635E-02-1.41433E+00-5.37998E-14-3.52177E-13
 -1      1295 1.88834E+01 5.19541E+00 7.75503E-03-6.76215E-01 6.55899E-15-4.17512E-13
 -1      1296 1.89073E+01 5.20456E+00 1.20366E-02-8.82384E-01 2.42861E-15-4.27882E-13
 -1      1297 1.91204E+01 4.74828E+00-1.36006E-02-9.79652E-01-1.23135E-14-3.60736E-13
 -1      1298 1.88581E+01 5.20904E+00 8.85307E-03-2.81300E-01 2.83850E-14-3.95132E-13
 -1      1299 1.88686E+01 5.21307E+00 1.08861E-02-4.78425E-01 2.14711E-14-4.04652E-13
 -1      1300 1.90621E+01 4.79149E+00-1.25081E-02-5.72810E-01 1.71910E-14-3.40422E-13
 -1      1301 1.88543E+01 5.21470E+00 9.88015E-03 1.05304E-01 4.57174E-14-3.72372E-13
 -1      1302 1.88538E+01 5.21453E+00 9.80381E-03-8.90493E-02 3.96323E-14-3.86800E-13
 -1      1303 1.90363E+01 4.81176E+00-1.20457E-02-1.83702E-01 6.10771E-14-3.27571E-13
 -1      1304 1.88710E+01 5.21285E+00 1.09894E-02 4.95300E-01 6.58007E-14-3.43958E-13
 -1      1305 1.88595E+01 5.20848E+00 8.79052E-03 2.97730E-01 5.82892E-14-3.60699E-13
 -1      1306 1.90374E+01 4.81117E+00-1.20609E-02 1.99918E-01 8.66078E-14-3.04343E-13
 -1      1307 1.89116E+01 5.20360E+00 1.21421E-02 9.00822E-01 8.55019E-14-3.02801E-13
 -1      1308 1.88867E+01 5.19424E+00 7.70254E-03 6.93639E-01 7.91715E-14-3.24253E-13
 -1      1309 1.90655E+01 4.78955E+00-1.25567E-02 5.89744E-01 1.15729E-13-2.74798E-13
 -1      1310 1.89847E+01 5.18783E+00 1.31836E-02 1.32811E+00 1.02337E-13-2.39433E-13
 -1      1311 1.89409E+01 5.17093E+00 6.11574E-03 1.10777E+00 9.55893E-14-2.76607E-13
 -1      1312 1.91259E+01 4.74493E+00-1.35903E-02 9.94507E-01 1.43489E-13-2.31169E-13
 -1      1313 1.91155E+01 5.16519E+00 1.33432E-02 1.81001E+00 1.31896E-13-1.60996E-13
 -1      1314 1.90373E+01 5.13525E+00 3.00424E-03 1.55819E+00 1.19337E-13-2.07201E-13
 -1      1315 1.92332E+01 4.67066E+00-1.57583E-02 1.43193E+00 1.85488E-13-1.70936E-13
 -1      1316 1.93566E+01 5.13632E+00 1.08829E-02 2.36758E+00 1.49443E-13-3.40006E-14
 -1      1317 1.92111E+01 5.08063E+00-4.22705E-03 2.06981E+00 1.38167E-13-1.11449E-13
 -1      1318 1.94240E+01 4.55109E+00-1.95983E-02 1.92516E+00 2.16957E-13-8.72705E-14
 -1      1319 1.98515E+01 5.09525E+00 6.86720E-03 3.05650E+00 1.46758E-13 1.97176E-13
 -1      1320 1.95491E+01 4.98325E+00-2.00059E-02 2.66779E+00 1.36571E-13 5.86475E-14
 -1      1321 1.97846E+01 4.34751E+00-2.41464E-02 2.49569E+00 2.28310E-13 6.44415E-14
 -1      1322 2.10691E+01 4.89520E+00 8.73663E-03 4.02965E+00 1.13576E-13 5.84990E-13
 -1      1323 2.03173E+01 4.72694E+00-4.70792E-02 3.39130E+00 1.13923E-13 3.53634E-13
 -1      1324 2.05549E+01 3.91048E+00-2.19509E-02 3.14898E+00 2.10866E-13 3.12320E-13
 -1      1325 2.71101E+01 3.19282E+00 9.22325E-01 4.56081E+00 3.62488E-14 1.23057E-12
 -1      1326 2.19699E+01 3.51399E+00-1.80816E-01 3.86428E+00 4.21330E-14 7.93615E-13
 -1      1327 2.20731E+01 2.55528E+00-3.23629E-02 3.43163E+00 1.68854E-13 6.55420E-13
 -1      1328 2.13619E+01 3.58597E-01-7.61615E-01 1.17430E+00 7.01592E-14 1.22347E-12
 -1      1329 2.19429E+01 1.30805E-01-3.99994E-01-1.27378E+00-1.08566E-13 5.62661E-13
 -1      1330 2.06330E+01 3.05829E-01-1.64047E-01-7.95978E-01-1.01474E-13 4.31918E-13
 -1      1331 2.00448E+01 1.53581E-01-7.31291E-02-3.92397E-01-7.30214E-14 3.85582E-13
 -1      1332 1.95869E+01 9.16723E-02-1.45547E-02-3.20223E-01-7.07490E-14 2.70825E-13
 -1      1333 2.09444E+01 3.68452E-01-1.04017E-01-1.25436E+00-1.73292E-13 2.09617E-13
 -1      1334 1.92415E+01 6.53243E-02 3.26304E-03-1.24135E-01-5.46820E-14 2.36911E-13
 -1      1335 1.91009E+01 4.24705E-02 1.34860E-02-1.05828E-01-5.60801E-14 1.61680E-13
 -1      1336 1.99149E+01 1.34625E-01-3.53389E-02-4.82845E-01-1.16466E-13 1.27960E-13
 -1      1337 1.89559E+01 3.30820E-02 1.33999E-02-1.31758E-02-4.01250E-14 1.18110E-13
 -1      1338 1.89547E+01 2.13403E-02 1.13059E-02-2.91702E-03-4.79521E-14 5.58789E-14
 -1      1339 1.94644E+01 5.74860E-02-8.95113E-03-1.43317E-01-9.56908E-14 7.89230E-14
 -1      1340 1.89193E+01 1.83815E-02 8.92167E-03 4.56310E-02-3.13965E-14 3.93990E-14
 -1      1341 1.89870E+01 1.18701E-02 6.71672E-03 5.15718E-02-3.63607E-14 4.71845E-16
 -1      1342 1.92908E+01 2.77660E-02-4.18169E-03 2.52468E-02-7.73808E-14 4.01779E-14
 -1      1343 1.90152E+01 1.11453E-02 4.81773E-03 7.96127E-02-3.52361E-14-2.34986E-14
 -1      1344 1.91212E+01 7.22962E-03 3.96931E-03 8.32972E-02-2.87658E-14-5.93137E-14
 -1      1345 1.92819E+01 1.50199E-02-3.14313E-03 1.18145E-01-7.62107E-14-5.61270E-15
 -1      1346 1.91887E+01 7.52429E-03 2.57442E-03 1.01183E-01-1.33131E-14-7.44405E-14
 -1      1347 1.93184E+01 5.09399E-03 2.57707E-03 1.03798E-01-1.23701E-14-1.09992E-13
 -1      1348 1.93730E+01 9.23377E-03-2.53032E-03 1.74211E-01-5.55168E-14-2.30978E-14
 -1      1349 1.94126E+01 5.94415E-03 1.41907E-03 1.17018E-01-1.63282E-14-1.18698E-13
 -1      1350 1.95599E+01 4.39865E-03 1.81842E-03 1.19296E-01-2.09856E-14-1.51288E-13
 -1      1351 1.95291E+01 6.97784E-03-2.08098E-03 2.12318E-01-4.04665E-14-3.80026E-14
 -1      1352 1.96745E+01 5.58023E-03 7.43752E-04 1.31005E-01-4.62342E-14-1.63260E-13
 -1      1353 1.98377E+01 4.51827E-03 1.32143E-03 1.33401E-01-6.41355E-14-2.36033E-13
 -1      1354 1.97318E+01 6.71425E-03-1.85779E-03 2.42846E-01-6.87231E-14-3.95250E-14
 -1      1355 1.99700E+01 5.87684E-03 2.59613E-04 1.45329E-01-5.48706E-14-2.47238E-13
 -1      1356 2.01500E+01 4.96078E-03 9.21110E-04 1.48074E-01-4.00838E-14-3.21842E-13
 -1      1357 1.99723E+01 7.51718E-03-1.83266E-03 2.71706E-01-9.69976E-14-4.68812E-14
 -1      1358 2.02992E+01 6.33607E-03-1.57275E-04 1.60790E-01-5.25437E-15-3.54447E-13
 -1      1359 2.04976E+01 5.22312E-03 5.38019E-04 1.63881E-01-3.46718E-14-3.81529E-13
 -1      1360 2.02473E+01 8.60480E-03-1.90821E-03 3.01716E-01-4.35627E-14-1.23048E-13
 -1      1361 2.06631E+01 6.39730E-03-5.53104E-04 1.76735E-01-2.90052E-14-3.58672E-13
 -1      1362 2.08802E+01 4.70300E-03 1.34837E-04 1.79878E-01 6.28620E-16-3.72476E-13
 -1      1363 2.05553E+01 9.10692E-03-1.94877E-03 3.32856E-01-3.03270E-14-1.94657E-13
 -1      1364 2.10600E+01 5.35426E-03-9.17476E-04 1.90752E-01 2.38279E-14-3.58959E-13
 -1      1365 2.12929E+01 2.64550E-03-2.82702E-04 1.93266E-01 5.64945E-15-3.27448E-13
 -1      1366 2.08940E+01 7.91671E-03-1.78064E-03 3.61904E-01 2.05823E-14-2.57304E-13
 -1      1367 2.14820E+01 2.31279E-03-1.17081E-03 1.98223E-01-1.96242E-14-3.30612E-13
 -1      1368 2.17215E+01-1.84796E-03-6.43541E-04 1.98927E-01-2.02634E-14-3.45278E-13
 -1      1369 2.12570E+01 3.60804E-03-1.18086E-03 3.81714E-01-2.77433E-14-2.35058E-13
 -1      1370 2.19098E+01-3.75895E-03-1.14168E-03 1.91942E-01-3.06243E-14-3.31232E-13
 -1      1371 2.21370E+01-9.67106E-03-7.85585E-04 1.89070E-01-4.08859E-14-3.61633E-13
 -1      1372 2.16300E+01-5.50524E-03 1.24592E-04 3.80469E-01-1.21899E-14-2.45338E-13
 -1      1373 2.23075E+01-1.37729E-02-5.64356E-04 1.62242E-01-6.84565E-15-3.74096E-13
 -1      1374 2.24914E+01-2.12936E-02-4.63061E-04 1.53523E-01-2.08288E-14-4.15077E-13
 -1      1375 2.19873E+01-2.09894E-02 2.42520E-03 3.41547E-01-2.90590E-14-2.47148E-13
 -1      1376 2.26190E+01-2.79001E-02 8.42900E-04 9.84386E-02 5.53377E-16-3.77205E-13
 -1      1377 2.27158E+01-3.59445E-02 5.70208E-04 8.15605E-02-2.19824E-14-3.84049E-13
 -1      1378 2.22885E+01-4.33173E-02 5.90624E-03 2.45270E-01 4.78437E-15-2.18177E-13
 -1      1379 2.27688E+01-4.44595E-02 3.18505E-03-7.27152E-03-5.27729E-14-4.16642E-13
 -1      1380 2.27265E+01-5.04381E-02 2.32454E-03-3.34829E-02-3.77354E-14-4.68547E-13
 -1      1381 2.24781E+01-7.01484E-02 1.03923E-02 7.44300E-02-7.10057E-14-2.00848E-13
 -1      1382 2.26719E+01-5.86220E-02 6.00169E-03-1.52643E-01 4.28650E-15-4.92626E-13
 -1      1383 2.24454E+01-5.82911E-02 4.23579E-03-1.86249E-01 3.60562E-15-5.27715E-13
 -1      1384 2.24920E+01-9.41482E-02 1.49675E-02-1.74595E-01-7.73964E-14-1.83012E-13
 -1      1385 2.22608E+01-6.19686E-02 7.98421E-03-3.16232E-01 1.85711E-14-6.27904E-13
 -1      1386 2.18366E+01-5.05693E-02 5.01210E-03-3.50012E-01-2.59515E-14-6.05852E-13
 -1      1387 2.22732E+01-1.02165E-01 1.75792E-02-4.75842E-01-3.09405E-14-3.39102E-13
 -1      1388 2.15280E+01-4.49147E-02 7.26968E-03-4.51866E-01 3.43176E-14-5.36213E-13
 -1      1389 2.09529E+01-2.03166E-02 3.07074E-03-4.72941E-01 6.52469E-14-4.63032E-13
 -1      1390 2.18009E+01-7.86782E-02 1.52937E-02-7.60059E-01 3.54664E-14-4.86090E-13
 -1      1391 2.05714E+01-3.54448E-03 2.61227E-03-4.96915E-01 7.00739E-14-4.59681E-13
 -1      1392 1.99664E+01 2.96632E-02-2.17917E-03-4.91057E-01-1.06399E-14-4.14155E-13
 -1      1393 2.11265E+01-1.58603E-02 5.82423E-03-9.19162E-01 6.34090E-14-4.35494E-13
 -1      1394 1.96102E+01 5.20853E-02-4.91863E-03-4.01785E-01-8.23404E-14-3.72914E-13
 -1      1395 1.91469E+01 8.15195E-02-8.81725E-03-3.62854E-01-6.19400E-14-5.23047E-13
 -1      1396 2.03959E+01 7.35830E-02-9.82238E-03-8.46071E-01-4.69208E-14-2.79653E-13
 -1      1397 1.89326E+01 9.75796E-02-1.13175E-02-1.69943E-01 3.54942E-14-4.23529E-13
 -1      1398 1.87650E+01 1.09007E-01-1.27721E-02-1.08072E-01 6.03198E-14-4.42502E-13
 -1      1399 1.98257E+01 1.53860E-01-2.52919E-02-5.04801E-01 3.46390E-14-2.22492E-13
 -1      1400 1.87724E+01 1.08508E-01-1.26979E-02 1.25595E-01 5.59136E-14-4.60202E-13
 -1      1401 1.89607E+01 9.58941E-02-1.10717E-02 1.86760E-01 6.73003E-14-3.47850E-13
 -1      1402 1.96181E+01 1.85267E-01-3.15399E-02 1.67185E-02 1.07287E-13-1.50394E-13
 -1      1403 1.91876E+01 7.92445E-02-8.47132E-03 3.75484E-01-1.95156E-14-4.28355E-13
 -1      1404 1.96654E+01 4.92901E-02-4.46068E-03 4.12820E-01-7.38541E-14-5.01158E-13
 -1      1405 1.98532E+01 1.50634E-01-2.46406E-02 5.32966E-01 2.44978E-14-3.48904E-13
 -1      1406 2.00288E+01 2.69407E-02-1.81663E-03 4.96227E-01-9.86513E-14-5.75665E-13
 -1      1407 2.06394E+01-6.00315E-03 2.99440E-03 5.00492E-01-1.10192E-13-6.91447E-13
 -1      1408 2.04429E+01 6.89591E-02-8.95063E-03 8.61724E-01-1.54265E-13-5.09464E-13
 -1      1409 2.10227E+01-2.21919E-02 3.26859E-03 4.71886E-01 3.05819E-14-6.87402E-13
 -1      1410 2.15963E+01-4.60337E-02 7.42223E-03 4.49926E-01 1.71408E-14-6.77194E-13
 -1      1411 2.11819E+01-1.96547E-02 6.37954E-03 9.21917E-01-8.28179E-14-5.58801E-13
 -1      1412 2.19039E+01-5.09680E-02 5.02396E-03 3.46434E-01-3.86687E-14-6.14005E-13
 -1      1413 2.23239E+01-6.15614E-02 7.96823E-03 3.12692E-01 4.83034E-14-5.70072E-13
 -1      1414 2.18564E+01-8.01572E-02 1.53955E-02 7.55275E-01-4.74447E-16-4.79207E-13
 -1      1415 2.25078E+01-5.73839E-02 4.14735E-03 1.84118E-01 4.54515E-14-5.81344E-13
 -1      1416 2.27319E+01-5.71429E-02 5.89660E-03 1.51221E-01 7.72472E-15-5.28331E-13
 -1      1417 2.23265E+01-1.01242E-01 1.72765E-02 4.70991E-01 4.66537E-14-5.20046E-13
 -1      1418 2.27888E+01-4.86979E-02 2.21519E-03 3.55738E-02 1.92884E-14-4.60591E-13
 -1      1419 2.28340E+01-4.24257E-02 3.10115E-03 1.04279E-02 5.68972E-14-4.05054E-13
 -1      1420 2.25468E+01-9.15316E-02 1.44336E-02 1.75851E-01-2.98962E-14-4.49412E-13
 -1      1421 2.27879E+01-3.38013E-02 4.93088E-04-7.38044E-02 4.06996E-14-5.15717E-13
 -1      1422 2.27010E+01-2.56709E-02 8.25748E-04-8.94916E-02 2.25453E-14-5.03756E-13
 -1      1423 2.25420E+01-6.66625E-02 9.77726E-03-6.33151E-02 1.94237E-14-3.64375E-13
 -1      1424 2.25857E+01-1.89884E-02-5.10444E-04-1.39544E-01-7.67138E-15-5.41048E-13
 -1      1425 2.24193E+01-1.14992E-02-5.25785E-04-1.47046E-01-2.16283E-14-5.88795E-13
 -1      1426 2.23712E+01-3.95063E-02 5.27107E-03-2.22562E-01 2.02837E-14-4.34236E-13
 -1      1427 2.22668E+01-7.26824E-03-8.32100E-04-1.68661E-01 8.44355E-15-5.84445E-13
 -1      1428 2.20651E+01-1.45060E-03-1.07043E-03-1.70291E-01 6.39764E-14-5.46776E-13
 -1      1429 2.20997E+01-1.70405E-02 1.78863E-03-3.06566E-01-9.58435E-16-5.75119E-13
 -1      1430 2.19007E+01 6.72549E-04-7.23118E-04-1.71891E-01-9.14338E-14-5.14026E-13
 -1      1431 2.16951E+01 4.68448E-03-1.10070E-03-1.69893E-01-1.16120E-13-6.21093E-13
 -1      1432 2.17834E+01-1.40683E-03-5.19114E-04-3.32817E-01 1.58497E-14-5.50102E-13
 -1      1433 2.15359E+01 5.31567E-03-4.32545E-04-1.59332E-01-9.67237E-14-6.06999E-13
 -1      1434 2.13456E+01 7.79702E-03-8.83500E-04-1.55448E-01-4.91072E-14-7.19373E-13
 -1      1435 2.14628E+01 7.93536E-03-1.83692E-03-3.20936E-01-1.02798E-13-4.88852E-13
 -1      1436 2.12017E+01 7.51879E-03-1.24952E-04-1.38763E-01 9.29957E-14-7.48528E-13
 -1      1437 2.10363E+01 8.85855E-03-5.95698E-04-1.34177E-01 7.86784E-14-6.38172E-13
 -1      1438 2.11639E+01 1.25159E-02-2.44025E-03-2.87508E-01 1.83367E-14-4.12109E-13
 -1      1439 2.09125E+01 8.11218E-03 1.20234E-04-1.15467E-01 5.68111E-14-4.08841E-13
 -1      1440 2.07753E+01 8.67287E-03-3.29946E-04-1.10902E-01 9.81838E-14-3.03671E-13
 -1      1441 2.09006E+01 1.39265E-02-2.58046E-03-2.44575E-01 1.46331E-13-4.06721E-13
 -1      1442 2.06728E+01 7.75104E-03 2.81085E-04-9.26638E-02 2.55253E-14-4.00516E-13
 -1      1443 2.05631E+01 7.82025E-03-1.22285E-04-8.85095E-02-5.33713E-14-4.62141E-13
 -1      1444 2.06785E+01 1.34516E-02-2.44913E-03-1.99948E-01 7.31117E-14-3.83221E-13
 -1      1445 2.04809E+01 6.89726E-03 3.65295E-04-7.20813E-02-3.07621E-14-4.44027E-13
 -1      1446 2.03959E+01 6.68352E-03 2.22265E-05-6.85103E-02-1.07834E-13-5.38925E-13
 -1      1447 2.04973E+01 1.20009E-02-2.17849E-03-1.58158E-01-5.21074E-14-4.93313E-13
 -1      1448 2.03319E+01 5.85144E-03 3.91298E-04-5.44600E-02-1.18847E-13-5.43616E-13
 -1      1449 2.02679E+01 5.49686E-03 1.12105E-04-5.15113E-02-1.09516E-13-6.93982E-13
 -1      1450 2.03540E+01 1.01638E-02-1.85364E-03-1.21448E-01-1.38808E-13-4.03946E-13
 -1      1451 2.02194E+01 4.79589E-03 3.78008E-04-3.99332E-02 9.29655E-14-6.10399E-13
 -1      1452 2.01727E+01 4.39225E-03 1.59458E-04-3.75704E-02 1.30763E-13-5.37594E-13
 -1      1453 2.02435E+01 8.29369E-03-1.52612E-03-9.05912E-02 5.78305E-14-3.64645E-13
 -1      1454 2.01370E+01 3.83253E-03 3.40160E-04-2.82894E-02 1.00490E-13-2.63282E-13
 -1      1455 2.01042E+01 3.43561E-03 1.74658E-04-2.64375E-02 1.47468E-13-4.60387E-14
 -1      1456 2.01608E+01 6.58548E-03-1.22503E-03-6.54786E-02 3.31096E-13-1.36930E-13
 -1      1457 2.00787E+01 3.01197E-03 2.86229E-04-1.91424E-02 1.10782E-13-1.87378E-14
 -1      1458 2.00569E+01 2.65226E-03 1.63334E-04-1.77100E-02 1.84659E-13 1.20379E-13
 -1      1459 2.01006E+01 5.13442E-03-9.65296E-04-4.55229E-02 2.26279E-13 1.15537E-13
 -1      1460 2.00395E+01 2.35293E-03 2.17469E-04-1.20376E-02 1.79064E-13 1.97042E-13
 -1      1461 2.00260E+01 2.04185E-03 1.27199E-04-1.09294E-02 9.87565E-14 3.96014E-13
 -1      1462 2.00584E+01 3.97613E-03-7.53403E-04-2.99150E-02 2.62674E-13 2.59975E-13
 -1      1463 2.00150E+01 1.84936E-03 1.32475E-04-6.52380E-03-9.41035E-14 2.03048E-13
 -1      1464 2.00081E+01 1.57224E-03 7.61537E-05-5.65090E-03-1.88414E-13-3.19368E-15
 -1      1465 2.00304E+01 3.10885E-03-5.86910E-04-1.77937E-02-3.22393E-14 1.89549E-13
 -1      1466 2.00018E+01 1.43583E-03 4.81781E-05-2.26462E-03-7.75270E-14 4.67651E-14
 -1      1467 2.00000E+01 1.12858E-03 6.04865E-05-1.57075E-03 9.39629E-14 1.15511E-13
 -1      1468 2.00132E+01 2.45555E-03-4.40351E-04-8.42200E-03-1.29698E-13 1.17748E-13
 -1      1469 1.99970E+01 1.12376E-03 9.36225E-05 7.84072E-04 1.93060E-14 3.42663E-14
 -1      1470 1.99988E+01 4.69715E-04 3.07416E-04 1.32913E-03-1.78781E-13 5.67419E-14
 -1      1471 2.00039E+01 1.73420E-03-2.65421E-04-1.53395E-03-4.49307E-15 9.94216E-14
 -1      1472 1.99985E+01-8.87698E-04 7.40304E-04 1.29448E-03-5.41674E-14-3.99893E-14
 -1      1473 2.00002E+01-9.32854E-04 1.33555E-04 2.00164E-03-7.50275E-14 2.20076E-14
 -1      1474 2.02134E+01 7.53989E-02-1.51494E-01 4.75892E-01 7.59809E-14 1.05090E-12
 -1      1475 2.14708E+01 2.15837E-01-2.28983E-01 7.12155E-01 6.47121E-14 1.15850E-12
 -1      1476 2.16832E+01 8.78650E-01-8.55347E-02 2.04671E+00 1.22825E-13 8.12933E-13
 -1      1477 1.93069E+01 3.27352E-02-2.11527E-02 1.77777E-01 6.98764E-14 8.91325E-13
 -1      1478 1.97164E+01 1.13861E-01-6.23202E-02 2.29878E-01 6.03545E-14 9.82217E-13
 -1      1479 2.02779E+01 1.87374E-01-5.51813E-02 7.70131E-01 1.21111E-13 6.81976E-13
 -1      1480 1.89513E+01 1.58711E-02 5.62823E-03 4.30723E-02 3.75307E-14 7.65745E-13
 -1      1481 1.90769E+01 5.25301E-02 1.20494E-03 6.99022E-02 4.02733E-14 8.32358E-13
 -1      1482 1.95564E+01 7.26631E-02-1.23372E-02 2.80590E-01 1.00774E-13 5.86970E-13
 -1      1483 1.88760E+01 8.34239E-03 6.80528E-03-2.35475E-02 4.96031E-14 6.71694E-13
 -1      1484 1.88730E+01 2.74761E-02 1.12703E-02-8.17266E-03 3.62557E-14 7.28154E-13
 -1      1485 1.92513E+01 3.28496E-02-2.82342E-03 5.90573E-02 6.64078E-14 5.04621E-13
 -1      1486 1.89516E+01 4.97267E-03 4.49668E-03-6.01024E-02 2.43148E-14 6.05793E-13
 -1      1487 1.88827E+01 1.62739E-02 8.72476E-03-5.04526E-02 2.66388E-14 6.42425E-13
 -1      1488 1.91759E+01 1.61446E-02-2.18147E-03-5.58538E-02 5.82312E-14 4.41846E-13
 -1      1489 1.91160E+01 3.48703E-03 2.87459E-03-8.24680E-02 2.10877E-15 5.95656E-13
 -1      1490 1.90094E+01 1.08061E-02 5.62618E-03-7.57589E-02-4.06131E-15 5.95279E-13
 -1      1491 1.92344E+01 8.67434E-03-2.46349E-03-1.21832E-01 4.35849E-15 4.17031E-13
 -1      1492 1.93390E+01 3.07383E-03 1.92515E-03-9.86154E-02 4.52620E-14 5.18406E-13
 -1      1493 1.92075E+01 8.31443E-03 3.75998E-03-9.32542E-02 3.34381E-14 5.71708E-13
 -1      1494 1.93767E+01 5.56054E-03-2.56344E-03-1.64535E-01 2.93212E-14 3.79441E-13
 -1      1495 1.96084E+01 3.39591E-03 1.24276E-03-1.13349E-01 1.58504E-14 4.73784E-13
 -1      1496 1.94563E+01 7.67339E-03 2.73786E-03-1.08239E-01 5.97222E-15 4.88862E-13
 -1      1497 1.95778E+01 4.93832E-03-2.65842E-03-1.97665E-01 3.79505E-14 2.73370E-13
 -1      1498 1.99233E+01 4.27693E-03 6.12515E-04-1.29997E-01 3.48659E-14 4.36574E-13
 -1      1499 1.97494E+01 8.36725E-03 2.13983E-03-1.24283E-01 2.92827E-14 4.61377E-13
 -1      1500 1.98279E+01 5.98568E-03-2.93084E-03-2.29761E-01 5.10304E-14 2.42119E-13
 -1      1501 2.02907E+01 5.58675E-03-5.11282E-05-1.51039E-01 2.70133E-14 4.30181E-13
 -1      1502 2.00900E+01 1.01063E-02 1.74399E-03-1.44000E-01 2.32256E-14 4.46643E-13
 -1      1503 2.01263E+01 8.25438E-03-3.45488E-03-2.66778E-01 4.66250E-14 2.11649E-13
 -1      1504 2.07232E+01 7.17135E-03-7.80974E-04-1.78267E-01-2.77326E-14 4.12089E-13
 -1      1505 2.04878E+01 1.26516E-02 1.43347E-03-1.69294E-01-3.00584E-15 4.01366E-13
 -1      1506 2.04790E+01 1.14063E-02-4.24696E-03-3.13021E-01 2.39778E-14 2.94666E-13
 -1      1507 2.12367E+01 8.77052E-03-1.57235E-03-2.12596E-01-2.25020E-14 4.69081E-13
 -1      1508 2.09568E+01 1.56724E-02 1.12457E-03-2.01252E-01-3.15143E-14 4.08862E-13
 -1      1509 2.08961E+01 1.50335E-02-5.28196E-03-3.71225E-01-5.00557E-14 3.16866E-13
 -1      1510 2.18471E+01 9.89216E-03-2.34225E-03-2.53425E-01 2.16600E-14 5.00634E-13
 -1      1511 2.15128E+01 1.85563E-02 7.44197E-04-2.39632E-01 4.62803E-15 4.85893E-13
 -1      1512 2.13891E+01 1.84415E-02-6.45874E-03-4.41870E-01-1.36128E-14 3.11454E-13
 -1      1513 2.25641E+01 9.62477E-03-2.82030E-03-2.97340E-01 3.68327E-14 3.25219E-13
 -1      1514 2.21692E+01 2.01184E-02 2.52622E-04-2.81788E-01 7.88050E-14 4.58199E-13
 -1      1515 2.19674E+01 2.03187E-02-7.51047E-03-5.21511E-01 8.53154E-14 2.56596E-13
 -1      1516 2.33819E+01 6.40844E-03-2.35342E-03-3.35905E-01-3.96843E-14 3.28453E-13
 -1      1517 2.29292E+01 1.81974E-02-2.71954E-04-3.20782E-01 1.15069E-14 3.61617E-13
 -1      1518 2.26323E+01 1.82585E-02-7.84707E-03-5.99713E-01 4.14159E-14 2.68421E-13
 -1      1519 2.42619E+01-2.08437E-03 3.21261E-04-3.52550E-01-8.56249E-15 2.78153E-13
 -1      1520 2.37737E+01 9.27036E-03-4.68197E-04-3.42661E-01-4.57022E-14 2.49984E-13
 -1      1521 2.33675E+01 8.22810E-03-6.34837E-03-6.54393E-01-1.78652E-14 2.13290E-13
 -1      1522 2.51107E+01-1.84747E-02 7.03768E-03-3.19700E-01 3.68052E-14 2.08424E-13
 -1      1523 2.46429E+01-1.13794E-02 4.90702E-04-3.23683E-01 3.83786E-14 2.80064E-13
 -1      1524 2.41261E+01-1.54877E-02-1.27179E-03-6.46474E-01 5.90725E-14 1.61824E-13
 -1      1525 2.57571E+01-4.36633E-02 1.91864E-02-2.00142E-01-7.44838E-14 3.03724E-13
 -1      1526 2.54138E+01-4.76601E-02 3.82691E-03-2.30511E-01-2.55247E-14 2.09062E-13
 -1      1527 2.48142E+01-5.84904E-02 9.23599E-03-5.18077E-01 1.71755E-14 1.64830E-13
 -1      1528 2.59501E+01-7.23586E-02 3.47784E-02 3.90382E-02-7.41768E-14 4.46213E-13
 -1      1529 2.58850E+01-9.70748E-02 1.02497E-02-3.01319E-02-5.65988E-14 3.58345E-13
 -1      1530 2.52808E+01-1.20085E-01 2.53730E-02-2.04700E-01-1.17614E-13 2.14159E-13
 -1      1531 2.54183E+01-8.70596E-02 4.39508E-02 3.89906E-01-1.84817E-14 5.10286E-13
 -1      1532 2.57965E+01-1.41319E-01 1.75182E-02 2.81535E-01-4.58140E-14 4.81983E-13
 -1      1533 2.53310E+01-1.81204E-01 4.22384E-02 3.22481E-01-8.43180E-14 2.03184E-13
 -1      1534 2.40352E+01-6.02161E-02 2.90520E-02 7.48994E-01 9.71419E-14 3.28779E-13
 -1      1535 2.49274E+01-1.41378E-01 1.78682E-02 6.31579E-01 8.79175E-14 4.84439E-13
 -1      1536 2.47929E+01-1.93562E-01 4.69397E-02 9.75635E-01 4.06654E-14 2.08569E-13
 -1      1537 2.20620E+01 2.10188E-02-2.04430E-02 9.04186E-01 1.24554E-13 8.74717E-14
 -1      1538 2.32946E+01-5.90954E-02 1.19665E-03 8.43118E-01 6.87236E-14 2.64233E-13
 -1      1539 2.36642E+01-9.43119E-02 2.59964E-02 1.47940E+00 1.87518E-13 2.50522E-13
 -1      1540 2.02593E+01 1.18252E-01-8.34694E-02 6.54290E-01-2.49644E-14 7.36355E-14
 -1      1541 2.13567E+01 9.06599E-02-3.22904E-02 7.11170E-01 1.28682E-14 1.35447E-14
 -1      1542 2.22749E+01 1.23076E-01-1.88057E-02 1.44693E+00 8.50223E-14 9.95974E-14
 -1      1543 1.95561E+01 1.56921E-01-1.09342E-01 3.93390E-02-5.54973E-14 1.03546E-13
 -1      1544 1.99600E+01 2.15066E-01-6.04839E-02 2.03728E-01-6.15064E-14-4.02456E-15
 -1      1545 2.12659E+01 3.39051E-01-5.87991E-02 6.97205E-01-3.65784E-14-6.28161E-14
 -1      1546 2.03739E+01 1.00715E-01-7.00109E-02-6.02931E-01-3.40665E-14 1.90931E-13
 -1      1547 1.98496E+01 2.17939E-01-5.57617E-02-4.26412E-01-1.06512E-14 1.38351E-13
 -1      1548 2.12067E+01 3.80375E-01-6.36671E-02-4.50170E-01-6.76646E-14-1.08837E-14
 -1      1549 2.22456E+01 1.42805E-03 3.04967E-03-9.03830E-01 7.24971E-14 7.86454E-14
 -1      1550 2.10874E+01 1.04178E-01-1.88837E-02-8.13056E-01 1.61052E-14 1.46966E-13
 -1      1551 2.21289E+01 1.97685E-01-3.70555E-02-1.33712E+00 3.40457E-14-8.73815E-14
 -1      1552 2.42203E+01-6.87230E-02 5.26883E-02-7.86580E-01 5.52180E-14-4.90302E-14
 -1      1553 2.30011E+01-2.85512E-02 1.96550E-02-8.00873E-01 1.27483E-13 1.27245E-13
 -1      1554 2.35013E+01-5.70422E-02-7.71077E-03-1.53432E+00 1.32489E-13-1.55431E-14
 -1      1555 2.55621E+01-8.39710E-02 6.26575E-02-4.36330E-01-9.46639E-14-6.42819E-14
 -1      1556 2.47246E+01-1.02695E-01 3.58534E-02-5.09318E-01-1.14662E-13-1.32200E-13
 -1      1557 2.46831E+01-2.10928E-01 9.27574E-03-1.12687E+00-6.42889E-14 1.06866E-13
 -1      1558 2.60458E+01-6.43518E-02 4.52747E-02-7.68416E-02 2.93741E-14-1.00555E-13
 -1      1559 2.57256E+01-1.09041E-01 3.15092E-02-1.55704E-01 7.52176E-15-3.96072E-14
 -1      1560 2.53085E+01-2.24594E-01 1.42070E-02-4.83804E-01-7.89646E-15-1.10086E-13
 -1      1561 2.58237E+01-3.58615E-02 2.18781E-02 1.74822E-01 3.30638E-14-1.51268E-13
 -1      1562 2.59276E+01-7.93841E-02 1.76230E-02 1.17611E-01 8.51454E-14-1.48463E-13
 -1      1563 2.53441E+01-1.59448E-01 1.18416E-02 8.18104E-02 1.11380E-13-2.29713E-13
 -1      1564 2.51751E+01-1.29066E-02 4.47892E-03 3.03297E-01-1.12681E-13-1.53478E-13
 -1      1565 2.55325E+01-4.34880E-02 4.94927E-03 2.71938E-01-4.90059E-14-2.67005E-13
 -1      1566 2.49443E+01-8.16084E-02 7.49743E-03 4.42075E-01 1.07726E-15-9.35328E-14
 -1      1567 2.43477E+01 1.20005E-03-4.75319E-03 3.40100E-01-3.81884E-14 9.37930E-14
 -1      1568 2.48087E+01-1.56045E-02-2.46680E-03 3.28349E-01-1.28608E-13-1.64698E-13
 -1      1569 2.43042E+01-2.31890E-02 3.84996E-03 6.05298E-01-1.69848E-13-2.30108E-13
 -1      1570 2.35069E+01 8.12022E-03-8.05061E-03 3.23237E-01 9.76601E-14-4.60430E-14
 -1      1571 2.39734E+01 1.59263E-03-5.19735E-03 3.23310E-01 1.05787E-13 1.27631E-13
 -1      1572 2.35820E+01 1.07930E-02 1.52667E-03 6.31571E-01-1.84314E-18-3.45038E-13
 -1      1573 2.27423E+01 1.04972E-02-8.16458E-03 2.81461E-01 5.97389E-14-3.98747E-13
 -1      1574 2.31629E+01 1.02764E-02-5.21405E-03 2.87409E-01 9.71263E-14-2.01769E-13
 -1      1575 2.28805E+01 2.62336E-02 2.52429E-04 5.81423E-01 1.64446E-13-4.34834E-13
 -1      1576 2.20911E+01 1.04445E-02-6.98128E-03 2.32346E-01 1.44386E-13-7.64500E-13
 -1      1577 2.24458E+01 1.34952E-02-4.14892E-03 2.40477E-01 9.47805E-14-5.11983E-13
 -1      1578 2.22539E+01 3.04630E-02-3.83807E-04 4.98223E-01 1.58965E-13-5.96123E-13
 -1      1579 2.15596E+01 9.29928E-03-5.49493E-03 1.85064E-01 2.07349E-14-8.76039E-13
 -1      1580 2.18461E+01 1.36834E-02-2.90758E-03 1.93384E-01 5.99182E-14-8.35933E-13
 -1      1581 2.17234E+01 2.89694E-02-6.72341E-04 4.07778E-01 1.54956E-13-7.42801E-13
 -1      1582 2.11389E+01 7.79874E-03-4.12843E-03 1.43596E-01-1.66299E-13-5.74633E-13
 -1      1583 2.13634E+01 1.24216E-02-1.85890E-03 1.51170E-01-1.54832E-13-7.95350E-13
 -1      1584 2.12906E+01 2.50977E-02-7.77615E-04 3.23247E-01-1.95976E-13-6.53301E-13
 -1      1585 2.08136E+01 6.30535E-03-3.01212E-03 1.09090E-01 1.74678E-14-7.20008E-13
 -1      1586 2.09855E+01 1.06172E-02-1.08800E-03 1.15573E-01 6.28642E-14-5.73496E-13
 -1      1587 2.09471E+01 2.06301E-02-7.85504E-04 2.50090E-01 1.89332E-14-6.00048E-13
 -1      1588 2.05670E+01 4.97377E-03-2.15095E-03 8.13200E-02-4.86030E-14-6.37173E-13
 -1      1589 2.06960E+01 8.74313E-03-5.64986E-04 8.66646E-02-3.31638E-14-6.51904E-13
 -1      1590 2.06804E+01 1.64037E-02-7.41277E-04 1.89602E-01-5.08573E-14-4.22873E-13
 -1      1591 2.03835E+01 3.85301E-03-1.50725E-03 5.94807E-02-2.53933E-13-1.28750E-13
 -1      1592 2.04785E+01 7.02051E-03-2.29830E-04 6.37792E-02-2.22996E-13-4.88582E-13
 -1      1593 2.04774E+01 1.27454E-02-6.70585E-04 1.41067E-01-3.37385E-13-1.18531E-13
 -1      1594 2.02497E+01 2.94303E-03-1.03595E-03 4.26011E-02 1.29908E-13 1.40939E-14
 -1      1595 2.03182E+01 5.53538E-03-2.60642E-05 4.59976E-02-5.44770E-14-4.57122E-14
 -1      1596 2.03256E+01 9.73100E-03-5.89355E-04 1.02949E-01-1.27375E-13-9.35192E-14
 -1      1597 2.01541E+01 2.22415E-03-6.97611E-04 2.97302E-02-7.14813E-14-8.41835E-14
 -1      1598 2.02024E+01 4.30664E-03 8.97037E-05 3.23808E-02 4.47349E-14 5.22337E-15
 -1      1599 2.02143E+01 7.32542E-03-5.08247E-04 7.34954E-02 1.60581E-14-1.32111E-13
 -1      1600 2.00879E+01 1.67145E-03-4.62446E-04 2.00119E-02 2.03513E-13-3.27449E-13
 -1      1601 2.01209E+01 3.32351E-03 1.47249E-04 2.20669E-02 8.07441E-14-1.44889E-13
 -1      1602 2.01345E+01 5.45422E-03-4.35382E-04 5.10212E-02 1.11981E-13-1.79152E-13
 -1      1603 2.00438E+01 1.26002E-03-3.10267E-04 1.27041E-02 8.77792E-14-4.23032E-13
 -1      1604 2.00653E+01 2.56417E-03 1.64670E-04 1.43028E-02 1.28027E-13-3.52129E-13
 -1      1605 2.00790E+01 4.03706E-03-3.77726E-04 3.40156E-02 2.64245E-13-1.09544E-13
 -1      1606 2.00166E+01 9.61220E-04-2.25883E-04 7.18412E-03 4.48455E-14-5.72816E-13
 -1      1607 2.00293E+01 1.99920E-03 1.50936E-04 8.45143E-03 1.40010E-13-4.25577E-13
 -1      1608 2.00418E+01 2.99772E-03-3.40319E-04 2.11782E-02 1.31597E-13-7.01405E-14
 -1      1609 2.00020E+01 7.40983E-04-1.78506E-04 2.97438E-03-2.17548E-13-1.89112E-13
 -1      1610 2.00081E+01 1.58682E-03 1.13981E-04 4.01436E-03-1.28239E-13-5.54740E-13
 -1      1611 2.00187E+01 2.25371E-03-3.20575E-04 1.14526E-02-1.00635E-13 1.56016E-13
 -1      1612 1.99969E+01 5.35804E-04-5.45382E-05-2.14078E-04 7.74230E-14-2.40515E-13
 -1      1613 1.99980E+01 1.24798E-03 9.17234E-05 6.83639E-04-2.20584E-14-2.62048E-13
 -1      1614 2.00059E+01 1.72673E-03-2.71615E-04 4.12264E-03-1.56512E-13 1.31796E-13
 -1      1615 1.99980E+01 4.78362E-05 4.18595E-04-1.94042E-03-6.16339E-15-3.81614E-13
 -1      1616 1.99959E+01 6.16047E-04 2.02516E-04-1.38612E-03 9.88959E-14-2.97050E-13
 -1      1617 2.00004E+01 8.49757E-04-1.11034E-04-1.00213E-03 1.72023E-13-8.29914E-14
 -1      1618 1.99986E+01-1.07359E-03 7.33548E-04-1.26566E-03-2.05122E-13-2.15805E-13
 -1      1619 2.00008E+01-3.20333E-03-1.09696E-04-7.25858E-04 7.28780E-14 3.77939E-13
 -1      1620 2.00004E+01-1.64689E-03 2.34787E-04-1.14944E-03-1.15553E-13 1.17247E-13
 -1      1621 2.00010E+01 9.63698E-04-1.99271E-04 2.25484E-03 5.71536E-13 2.38437E-13
 -1      1622 2.00009E+01-7.51912E-04-9.22706E-05 1.57909E-03 2.68990E-13 2.79642E-13
 -1      1623 2.00018E+01 3.24513E-03-1.96698E-04 1.37418E-03 1.34317E-13 5.27717E-13
 -1      1624 2.00006E+01 1.07875E-02-1.54811E-04 5.09621E-03 1.01071E-12 3.47160E-13
 -1      1625 2.00008E+01 5.59622E-03-1.31864E-04 4.56395E-03 5.72508E-13 1.66021E-13
 -1      1626 2.00017E+01 1.05030E-02-3.07271E-04 6.97574E-03 4.24251E-13 3.69439E-13
 -1      1627 2.00000E+01 2.45218E-02-8.55218E-05 6.74181E-03 1.07360E-12-1.21174E-13
 -1      1628 2.00003E+01 1.71019E-02-8.78790E-05 6.51812E-03 9.94376E-13 3.08711E-13
 -1      1629 2.00010E+01 2.17387E-02-1.79068E-04 1.14644E-02 4.29040E-13 2.84923E-13
 -1      1630 1.99995E+01 3.89905E-02-3.79381E-05 6.83537E-03 9.20027E-13-1.08162E-13
 -1      1631 1.99998E+01 3.12885E-02-3.91130E-05 6.93572E-03 1.05490E-12-2.66362E-13
 -1      1632 2.00001E+01 3.50767E-02 1.84990E-06 1.33585E-02 5.96028E-13-3.30552E-13
 -1      1633 1.99990E+01 5.16229E-02-5.62591E-06 5.43668E-03 9.28650E-13-1.12101E-13
 -1      1634 1.99992E+01 4.51600E-02-7.13107E-06 5.82265E-03 9.43328E-13 1.36033E-14
 -1      1635 1.99991E+01 4.81935E-02 1.78297E-04 1.23154E-02 5.80826E-13-9.05859E-14
 -1      1636 1.99987E+01 5.95538E-02 1.17607E-05 2.89319E-03 7.16446E-13-1.46592E-13
 -1      1637 1.99988E+01 5.58790E-02 9.83298E-06 3.46815E-03 9.30895E-13-1.70243E-13
 -1      1638 1.99984E+01 5.87237E-02 3.13305E-04 8.64565E-03 3.85006E-13-2.75193E-13
 -1      1639 1.99986E+01 6.12121E-02 1.75246E-05-2.35229E-04 5.74963E-13-6.20706E-14
 -1      1640 1.99986E+01 6.10965E-02 1.52917E-05 4.05841E-04 5.55297E-13 4.30445E-14
 -1      1641 1.99980E+01 6.45671E-02 3.85422E-04 3.19548E-03 4.19101E-13-2.95137E-13
 -1      1642 1.99988E+01 5.63073E-02 1.21661E-05-3.30024E-03 1.57402E-13-2.15977E-13
 -1      1643 1.99987E+01 5.97583E-02 1.05834E-05-2.72479E-03 4.76939E-13-1.42615E-13
 -1      1644 1.99980E+01 6.46435E-02 3.84587E-04-2.88292E-03 2.95849E-13-2.50404E-13
 -1      1645 1.99992E+01 4.58775E-02-5.91578E-06-5.66923E-03-3.52372E-13-4.11591E-13
 -1      1646 1.99990E+01 5.21442E-02-4.05134E-06-5.28122E-03 7.21875E-14-4.24873E-13
 -1      1647 1.99984E+01 5.89599E-02 3.10974E-04-8.34627E-03 1.31946E-13-4.79609E-13
 -1      1648 1.99997E+01 3.23576E-02-3.47016E-05-6.81908E-03-6.34394E-13-1.27125E-13
 -1      1649 1.99994E+01 3.99165E-02-3.50816E-05-6.70615E-03-3.44347E-13-3.46754E-13
 -1      1650 1.99991E+01 4.87026E-02 1.81823E-04-1.20471E-02-1.69325E-15-5.55818E-13
 -1      1651 2.00003E+01 1.81618E-02-7.87616E-05-6.48402E-03-3.21585E-13 5.55086E-14
 -1      1652 2.00000E+01 2.55328E-02-8.13889E-05-6.68939E-03-5.94855E-13 3.25959E-13
 -1      1653 2.00000E+01 3.57417E-02 7.47822E-06-1.32025E-02 1.02623E-13 1.90704E-13
 -1      1654 2.00007E+01 6.52404E-03-1.45896E-04-4.63342E-03-2.38340E-13 5.64990E-14
 -1      1655 2.00006E+01 1.18569E-02-1.43230E-04-5.14033E-03-3.41500E-13 6.09066E-14
 -1      1656 2.00010E+01 2.23638E-02-1.67715E-04-1.14772E-02 1.35342E-13 1.81964E-13
 -1      1657 2.00011E+01-5.70570E-05-4.85016E-05-1.86189E-03-2.18902E-13 1.28891E-13
 -1      1658 2.00008E+01 1.92107E-03-2.08350E-04-2.55357E-03-3.64188E-13-2.93938E-14
 -1      1659 2.00015E+01 1.12151E-02-2.97466E-04-7.18751E-03 4.03611E-14-1.18829E-13
 -1      1660 2.00011E+01-1.70607E-04 1.88272E-04 4.28333E-04-1.04547E-13 4.35498E-14
 -1      1661 2.00013E+01-1.10444E-03-1.86817E-04-1.62754E-04-1.96678E-13 1.02286E-13
 -1      1662 2.00031E+01 5.93209E-03 8.04756E-05-3.03823E-03-1.46748E-13 1.52922E-13
 -1      1663 2.00029E+01 3.48498E-03 2.59869E-04-1.21939E-04-2.93708E-13 2.36286E-14
 -1      1664-7.30445E-01-1.52076E+01-1.75663E+00-1.25944E+00 8.65086E-13 3.68650E-13
 -1      1665-6.45077E-01-1.68558E+01-1.87055E+00 1.48669E-01 6.30801E-13 1.32450E-13
 -1      1666 1.06773E+00-8.61617E+00-1.28231E+00 1.36216E-01 8.20788E-13 2.67883E-13
 -1      1667 3.99169E-01-1.37763E+01-1.78219E+00-3.65794E-01 9.20597E-13 1.58901E-13
 -1      1668 6.67641E+00-1.18006E+00-6.32044E-01 4.13659E+00 1.13021E-12 1.17828E-12
 -1      1669 3.69645E+00-6.62655E+00-1.38074E+00 1.38679E+00 8.63754E-13 7.29028E-13
 -1      1670 1.63670E+01 4.35194E+00 7.97268E-02 9.05955E+00 1.28475E-12 1.39766E-12
 -1      1671 1.01916E+01 7.89759E-01-8.07209E-01 5.40581E+00 1.32450E-12 1.16951E-12
 -1      1672 3.12751E+01 5.60983E+00 8.15574E-01 1.18267E+01 9.07496E-13 1.04872E-12
 -1      1673 2.19251E+01 4.99173E+00-5.23626E-02 9.60033E+00 1.23013E-12 1.25278E-12
 -1      1674 4.50848E+01 4.71992E+00 1.41275E+00 9.46999E+00 5.49366E-13 7.54063E-13
 -1      1675 3.63173E+01 5.93744E+00 7.19638E-01 1.06740E+01 7.56617E-13 1.03917E-12
 -1      1676 5.45926E+01 3.72156E+00 1.91589E+00 4.10695E+00 2.20934E-13 5.54279E-13
 -1      1677 4.93070E+01 5.03955E+00 1.51458E+00 8.75210E+00 3.28446E-13 7.75158E-13
 -1      1678 5.42937E+01 4.05398E+00 1.82626E+00-4.14842E+00 1.82521E-13 1.20237E-13
 -1      1679 5.53088E+01 3.73453E+00 1.87220E+00 1.57107E+00 1.70475E-13 4.38607E-13
 -1      1680 4.63658E+01 5.58144E+00 1.45249E+00-1.05899E+01 4.94285E-13-5.59441E-13
 -1      1681 5.30159E+01 3.92816E+00 1.90459E+00-6.84977E+00 3.24824E-13-5.21805E-14
 -1      1682 3.20300E+01 6.70651E+00 6.51662E-01-1.20066E+01 7.44849E-13-1.03095E-12
 -1      1683 4.18560E+01 5.67329E+00 1.48829E+00-1.20054E+01 5.09592E-13-7.84928E-13
 -1      1684 1.75923E+01 4.14481E+00-2.58135E-01-8.49878E+00 1.08691E-12-1.08935E-12
 -1      1685 2.64211E+01 5.92802E+00 7.00596E-01-1.17193E+01 9.23484E-13-1.13864E-12
 -1      1686 7.37911E+00-2.05514E+00-1.02411E+00-3.65735E+00 7.82929E-13-7.76601E-13
 -1      1687 1.24844E+01 2.59504E+00-1.75609E-01-7.34941E+00 1.00453E-12-1.13043E-12
 -1      1688 2.06556E+00-9.60795E+00-1.55761E+00-3.86965E-01 5.10481E-13-4.03427E-13
 -1      1689 3.89096E+00-4.09113E+00-9.26306E-01-2.30527E+00 7.66498E-13-6.69242E-13
 -1      1690-1.64932E-01-1.54573E+01-1.86272E+00 4.47741E-01 4.13225E-13-1.42858E-13
 -1      1691-3.65697E-03-1.15172E+01-1.52330E+00 8.75316E-01 5.22915E-13-1.81286E-13
 -1      1692-7.01362E-01-1.60919E+01-1.75362E+00-5.16502E-01-2.67009E-13-2.59293E-13
 -1      1693-7.34735E-01-1.57649E+01-1.73860E+00 9.59899E-01 2.50661E-13-3.00371E-13
 -1      1694-2.05174E-01-1.25173E+01-1.55469E+00-7.77865E-01-8.09353E-13-3.93921E-13
 -1      1695-2.96759E-01-1.60031E+01-1.85810E+00 1.00650E-02-4.60354E-13-2.43860E-13
 -1      1696 2.67516E+00-5.19325E+00-1.01096E+00 1.59111E+00-1.07914E-12-6.62692E-13
 -1      1697 1.36285E+00-1.06882E+01-1.60732E+00 1.52071E-01-9.31921E-13-4.31544E-13
 -1      1698 9.46873E+00 1.80292E+00-3.12008E-01 6.17938E+00-1.22324E-12-1.07903E-12
 -1      1699 5.58672E+00-3.02011E+00-1.07995E+00 2.95014E+00-1.09690E-12-8.03579E-13
 -1      1700 2.05398E+01 5.89704E+00 4.30503E-01 1.08010E+01-1.09890E-12-1.13332E-12
 -1      1701 1.36644E+01 3.45258E+00-3.99743E-01 7.47791E+00-1.25855E-12-1.08180E-12
 -1      1702 3.38925E+01 6.51466E+00 1.09947E+00 1.27126E+01-7.60891E-13-7.92255E-13
 -1      1703 2.54639E+01 6.64797E+00 3.47479E-01 1.13751E+01-1.00708E-12-1.01874E-12
 -1      1704 4.63991E+01 4.94500E+00 1.57251E+00 1.02040E+01-4.26409E-13-3.71037E-13
 -1      1705 3.85039E+01 6.56416E+00 1.01591E+00 1.20749E+01-6.79901E-13-6.97553E-13
 -1      1706 5.32938E+01 3.68250E+00 1.74128E+00 3.19092E+00-2.24959E-13 8.47100E-14
 -1      1707 4.90984E+01 4.84016E+00 1.47326E+00 7.86923E+00-2.82441E-13-2.20268E-13
 -1      1708 5.35470E+01 3.81980E+00 1.74461E+00-4.43694E+00-1.88377E-13 3.59823E-13
 -1      1709 5.47360E+01 3.43438E+00 1.80250E+00 7.91447E-01-2.01006E-13 1.42587E-13
 -1      1710 4.53870E+01 5.53175E+00 1.33290E+00-1.01335E+01-3.44919E-13 7.44182E-13
 -1      1711 5.13738E+01 4.01521E+00 1.73119E+00-6.59772E+00-2.47080E-13 4.69180E-13
 -1      1712 3.30411E+01 6.94195E+00 7.59337E-01-1.22895E+01-5.54778E-13 7.95808E-13
 -1      1713 4.15679E+01 5.72517E+00 1.40813E+00-1.18375E+01-3.06255E-13 8.82738E-13
 -1      1714 2.02272E+01 5.76789E+00 3.82776E-02-1.00153E+01-1.17617E-12 9.79661E-13
 -1      1715 2.81406E+01 6.59724E+00 8.23173E-01-1.23429E+01-8.42104E-13 6.97886E-13
 -1      1716 9.89645E+00 1.16255E+00-7.04881E-01-5.56510E+00-1.73772E-12 1.11555E-12
 -1      1717 1.55820E+01 4.64526E+00 1.22724E-01-9.06100E+00-1.36557E-12 1.08391E-12
 -1      1718 3.44696E+00-6.15775E+00-1.31740E+00-1.51088E+00-1.40676E-12 1.03878E-12
 -1      1719 6.24915E+00-6.70057E-01-5.72685E-01-4.20568E+00-1.65135E-12 1.28242E-12
 -1      1720 6.76413E-01-1.29102E+01-1.64283E+00-7.23115E-02-6.31495E-13 6.12170E-13
 -1      1721 1.34876E+00-8.11353E+00-1.17138E+00-5.57974E-01-1.28253E-12 8.57703E-13
 -1      1722-5.22943E-01-1.61530E+01-1.76863E+00-4.86758E-01 3.05561E-13 3.47666E-13
 -1      1723-4.72557E-01-1.39854E+01-1.56416E+00 6.47539E-01-3.86580E-13 6.52922E-13
 -1      1724 2.42286E+01 2.24556E-01 2.38023E-01 7.07291E+00 7.24643E-13 7.48623E-13
 -1      1725 1.36872E+01-3.68647E+00-4.45893E-01 6.11523E+00 5.74207E-13 9.24982E-13
 -1      1726 1.99999E+01-1.63567E-03 3.32904E-04-2.23613E-03-3.01128E-13-9.03860E-14
 -1      1727 2.00006E+01 9.76759E-04 1.58351E-04-2.08264E-03 4.47790E-14 3.12428E-13
 -1      1728 2.44095E-01-1.05945E+01-1.24898E+00 1.93006E+00 4.50917E-13 2.21434E-13
 -1      1729 5.63171E+00-7.56239E+00-8.91505E-01 4.28254E+00 5.02043E-13 6.17621E-13
 -1      1730-1.32483E+00-1.11730E+01-1.28067E+00-4.04118E-01 1.57672E-13 5.87308E-13
 -1      1731 3.46403E+01 3.24710E+00 7.72601E-01 5.58226E+00 7.43072E-13 5.31242E-13
 -1      1732 4.24617E+01 5.93814E+00 1.17399E+00 3.56831E+00 5.31214E-13 5.14366E-13
 -1      1733 4.70766E+01 7.51538E+00 1.56457E+00 1.14365E+00 3.53051E-13 3.90216E-13
 -1      1734 4.66667E+01 7.22101E+00 1.56953E+00-2.42936E+00 4.15723E-13 1.42775E-13
 -1      1735 4.14160E+01 5.56963E+00 1.26898E+00-5.73907E+00 5.72729E-13-2.61569E-13
 -1      1736 3.14615E+01 2.74566E+00 6.15420E-01-7.07888E+00 6.25944E-13-4.54303E-13
 -1      1737 2.03653E+01-1.16943E+00-4.86900E-02-6.89703E+00 4.50195E-13-6.57918E-13
 -1      1738 1.04083E+01-5.23841E+00-6.12538E-01-5.51209E+00 3.16636E-13-5.77371E-13
 -1      1739 3.13835E+00-8.89918E+00-1.06198E+00-3.35796E+00 3.37175E-13-3.08101E-13
 -1      1740-7.21493E-01-1.08820E+01-1.26637E+00-1.08408E+00 7.58837E-14-3.66096E-13
 -1      1741-1.00454E+00-1.10357E+01-1.26632E+00 9.95739E-01-2.01589E-13-5.25247E-13
 -1      1742 2.01230E+00-9.35380E+00-1.11952E+00 3.06199E+00-4.62297E-13-4.99961E-13
 -1      1743 8.14231E+00-5.57722E+00-6.90992E-01 5.16067E+00-6.39266E-13-6.51701E-13
 -1      1744 1.66975E+01-1.42818E+00-1.55495E-01 6.92699E+00-6.89004E-13-6.72129E-13
 -1      1745 2.65463E+01 2.18842E+00 4.27693E-01 7.73190E+00-6.38267E-13-4.29878E-13
 -1      1746 3.60354E+01 4.86016E+00 9.65324E-01 7.01332E+00-6.42764E-13-2.01172E-13
 -1      1747 4.29965E+01 6.57770E+00 1.31138E+00 4.40036E+00-5.06178E-13-7.85483E-14
 -1      1748 4.64146E+01 7.42688E+00 1.49724E+00 8.14131E-01-3.53828E-13 1.60830E-13
 -1      1749 4.58424E+01 7.10828E+00 1.49659E+00-2.50723E+00-3.30513E-13 2.57960E-13
 -1      1750 4.05704E+01 5.94370E+00 1.20942E+00-5.64232E+00-3.24407E-13 4.46532E-13
 -1      1751 3.21874E+01 3.84091E+00 7.35722E-01-7.54623E+00-6.14508E-13 4.49862E-13
 -1      1752 2.23905E+01 7.82846E-01 1.67934E-01-7.56830E+00-1.05471E-12 4.20552E-13
 -1      1753 1.30234E+01-3.13443E+00-3.97191E-01-6.32799E+00-9.97091E-13 7.12430E-13
 -1      1754 5.40936E+00-7.15152E+00-8.92786E-01-4.43812E+00-7.62501E-13 9.33510E-13
 -1      1755 6.40660E-01-9.79384E+00-1.11576E+00-2.55183E+00-2.77001E-13 1.01347E-12
 -1      1756 2.28054E+01 1.97889E+00-2.40952E-02-2.70333E+00-1.32318E-13 4.07202E-13
 -1      1757 1.98358E+01 3.72346E+00-3.49707E-02-2.11840E+00-1.29244E-13-2.34802E-13
 -1      1758 2.00599E+01 3.56240E+00-4.25012E-02-2.40552E+00-1.58441E-13-1.80737E-13
 -1      1759 2.03654E+01 3.17996E+00-4.50514E-02-2.55222E+00-1.69835E-13-1.17684E-13
 -1      1760 2.05739E+01 2.80448E+00-1.41847E-01-2.82205E+00-1.90795E-13-3.77337E-14
 -1      1761 2.04363E+01 2.69396E+00-2.72056E-03-2.18393E+00-1.71625E-13-1.33331E-13
 -1      1762 1.93712E+01 4.21200E+00-2.02947E-02-1.23720E+00-5.13363E-14-2.82333E-13
 -1      1763 1.94458E+01 4.16945E+00-1.68310E-02-1.45926E+00-7.45523E-14-2.81646E-13
 -1      1764 1.92707E+01 4.32552E+00-1.68560E-02-8.33744E-01-1.12683E-14-2.92948E-13
 -1      1765 1.93156E+01 4.29934E+00-1.40238E-02-1.04057E+00-2.54499E-14-2.93024E-13
 -1      1766 1.95394E+01 3.81715E+00-8.95810E-03-1.08436E+00-4.26734E-14-2.78813E-13
 -1      1767 1.92155E+01 4.39160E+00-1.47627E-02-4.51297E-01 3.71074E-14-2.72005E-13
 -1      1768 1.92392E+01 4.37733E+00-1.30235E-02-6.46410E-01 1.27974E-14-2.81053E-13
 -1      1769 1.94372E+01 3.94662E+00-8.77719E-03-7.07238E-01 3.00367E-15-2.76697E-13
 -1      1770 1.91943E+01 4.41999E+00-1.35222E-02-8.04502E-02 8.28627E-14-2.56531E-13
 -1      1771 1.92013E+01 4.41556E+00-1.29841E-02-2.70041E-01 6.25941E-14-2.69387E-13
 -1      1772 1.93827E+01 4.01714E+00-8.65552E-03-3.44641E-01 4.92750E-14-2.54090E-13
 -1      1773 1.92034E+01 4.41425E+00-1.29321E-02 2.88580E-01 1.13016E-13-2.32533E-13
 -1      1774 1.91949E+01 4.41917E+00-1.36079E-02 9.88252E-02 1.00476E-13-2.44929E-13
 -1      1775 1.93666E+01 4.03868E+00-8.61281E-03 1.02626E-02 1.00918E-13-2.41753E-13
 -1      1776 1.92442E+01 4.37342E+00-1.30265E-02 6.65698E-01 1.44301E-13-2.08777E-13
 -1      1777 1.92189E+01 4.38851E+00-1.48722E-02 4.70072E-01 1.27954E-13-2.26130E-13
 -1      1778 1.93860E+01 4.01392E+00-8.67464E-03 3.65369E-01 1.28810E-13-2.21130E-13
 -1      1779 1.93222E+01 4.29367E+00-1.40707E-02 1.05433E+00 1.77795E-13-1.66527E-13
 -1      1780 1.92765E+01 4.32033E+00-1.70227E-02 8.50253E-01 1.58511E-13-1.89751E-13
 -1      1781 1.94435E+01 3.94051E+00-8.73831E-03 7.25332E-01 1.59562E-13-1.87222E-13
 -1      1782 1.94571E+01 4.15793E+00-1.70477E-02 1.47857E+00 2.27310E-13-9.93441E-14
 -1      1783 1.93792E+01 4.20341E+00-2.06137E-02 1.25140E+00 2.03068E-13-1.35034E-13
 -1      1784 1.95487E+01 3.80751E+00-8.88773E-03 1.09993E+00 2.04167E-13-1.26319E-13
 -1      1785 1.96852E+01 3.93182E+00-2.48389E-02 1.94177E+00 2.54472E-13-2.23675E-14
 -1      1786 1.95535E+01 4.01190E+00-2.70120E-02 1.68511E+00 2.38778E-13-7.32366E-14
 -1      1787 1.97259E+01 3.58929E+00-8.46795E-03 1.49448E+00 2.45924E-13-7.19719E-14
 -1      1788 2.00849E+01 3.52437E+00-4.47762E-02 2.43607E+00 2.59671E-13 1.25382E-13
 -1      1789 1.98505E+01 3.68822E+00-3.96829E-02 2.14612E+00 2.54208E-13 3.96835E-14
 -1      1790 2.00207E+01 3.23478E+00-5.18024E-03 1.89316E+00 2.62922E-13 1.81001E-14
 -1      1791 2.09089E+01 2.67765E+00-5.71867E-02 2.82708E+00 2.21731E-13 3.83346E-13
 -1      1792 2.04140E+01 3.09493E+00-5.01612E-02 2.58317E+00 2.31553E-13 2.26721E-13
 -1      1793 2.05232E+01 2.61253E+00 3.19306E-03 2.20732E+00 2.49742E-13 1.67637E-13
 -1      1794 2.16972E+01 1.21029E+00-1.21558E-01 2.30692E+00 1.58790E-13 6.53366E-13
 -1      1795 2.12535E+01 2.25808E+00 1.08788E-04 2.71323E+00 1.96780E-13 4.78964E-13
 -1      1796 2.09284E+01 1.68401E+00-2.25449E-02 2.10959E+00 2.06796E-13 3.67126E-13
 -1      1797 2.09275E+01 7.77606E-01-6.19404E-02 1.50233E+00 1.62821E-13 5.88970E-13
 -1      1798 2.17670E+01 2.45124E+00 9.05842E-02-3.02242E+00-1.77391E-13 1.35045E-13
 -1      1799 2.00962E+01 2.99976E-01-8.49600E-03 6.33502E-01 1.52052E-13 4.96792E-13
 -1      1800 2.06371E+01 4.41347E-01-1.21664E-02 1.01136E+00 1.38820E-13 5.39184E-13
 -1      1801 2.07356E+01 8.45300E-01 2.05925E-03 1.38716E+00 1.70509E-13 4.00301E-13
 -1      1802 2.14883E+01 1.73973E+00 7.92985E-02-2.30912E+00-1.79357E-13 7.46903E-14
 -1      1803 2.05192E+01 5.03760E-01 3.26564E-02-8.92077E-01-1.32672E-13 5.69022E-14
 -1      1804 2.01005E+01 3.57142E-01 8.37233E-03-5.97928E-01-1.08384E-13 2.04350E-14
 -1      1805 1.99165E+01 2.64171E-01 2.75967E-02-3.54403E-01-1.06416E-13 3.27125E-14
 -1      1806 1.97417E+01 1.87124E-01 1.12283E-02-2.11799E-01-9.71705E-14 1.19436E-14
 -1      1807 2.02210E+01 4.92273E-01-6.28742E-03-6.77571E-01-1.14932E-13-2.74056E-14
 -1      1808 1.96343E+01 1.43559E-01 1.69335E-02-7.03217E-02-8.37373E-14 1.94419E-14
 -1      1809 1.95777E+01 1.06366E-01 7.99702E-03 7.66370E-03-7.50667E-14-2.18272E-15
 -1      1810 1.99208E+01 2.58722E-01-6.29643E-03-2.35683E-01-1.00947E-13-3.39780E-14
 -1      1811 1.95324E+01 8.37645E-02 9.11229E-03 9.24594E-02-7.45545E-14 6.24197E-15
 -1      1812 1.95469E+01 6.48198E-02 5.44641E-03 1.38577E-01-7.93137E-14 2.09902E-16
 -1      1813 1.97726E+01 1.46668E-01-5.28063E-03 2.29242E-02-8.73850E-14-2.57943E-14
 -1      1814 1.95468E+01 5.28198E-02 4.80166E-03 1.92280E-01-8.49379E-14 1.09017E-14
 -1      1815 1.96054E+01 4.34923E-02 4.11892E-03 2.22099E-01-5.10192E-14-3.19070E-14
 -1      1816 1.97318E+01 8.97748E-02-4.25231E-03 1.82051E-01-7.90972E-14-9.45338E-15
 -1      1817 1.96375E+01 3.74149E-02 2.55686E-03 2.59185E-01-4.59877E-14-1.71557E-14
 -1      1818 1.97258E+01 3.36281E-02 3.50067E-03 2.81067E-01-4.79315E-14-2.45349E-14
 -1      1819 1.97677E+01 6.11891E-02-3.30171E-03 2.86845E-01-5.41219E-14-1.75189E-14
 -1      1820 1.97819E+01 3.10704E-02 1.37952E-03 3.10070E-01-3.77411E-14-1.66074E-14
 -1      1821 1.98924E+01 3.05340E-02 3.23156E-03 3.28847E-01-4.89975E-14-6.68687E-15
 -1      1822 1.98593E+01 4.85653E-02-2.58690E-03 3.63183E-01-3.81219E-14-1.43146E-14
 -1      1823 1.99676E+01 2.99604E-02 7.56691E-04 3.54820E-01-9.14532E-14-6.97402E-15
 -1      1824 2.00967E+01 3.10493E-02 3.09455E-03 3.73171E-01-7.92814E-14 1.11871E-14
 -1      1825 1.99935E+01 4.51218E-02-2.12664E-03 4.26441E-01-6.09154E-14-5.05143E-15
 -1      1826 2.01883E+01 3.11852E-02 4.25881E-04 3.98705E-01-8.90019E-14-1.93500E-14
 -1      1827 2.03345E+01 3.24009E-02 2.91379E-03 4.17592E-01-7.09443E-14-7.33389E-14
 -1      1828 2.01629E+01 4.61398E-02-1.86155E-03 4.85336E-01-1.18905E-13-6.10433E-15
 -1      1829 2.04412E+01 3.19185E-02 2.33855E-04 4.43078E-01-6.42485E-14-9.42302E-14
 -1      1830 2.06030E+01 3.15743E-02 2.49908E-03 4.61720E-01-2.63197E-14-1.45628E-13
 -1      1831 2.03636E+01 4.73242E-02-1.71448E-03 5.43361E-01-7.55503E-14-3.80585E-14
 -1      1832 2.07238E+01 2.88934E-02 7.77783E-05 4.85189E-01-2.95002E-14-2.00291E-13
 -1      1833 2.08986E+01 2.49130E-02 1.62828E-03 5.00763E-01-2.58023E-14-2.44083E-13
 -1      1834 2.05933E+01 4.39009E-02-1.61037E-03 5.98937E-01-8.73620E-14-1.23326E-13
 -1      1835 2.10324E+01 1.80956E-02-1.14425E-04 5.17470E-01 8.94750E-15-2.53667E-13
 -1      1836 2.12146E+01 7.95935E-03 6.08225E-05 5.24690E-01 1.20481E-14-2.05596E-13
 -1      1837 2.08497E+01 3.00863E-02-1.47644E-03 6.44807E-01-5.94197E-15-1.83226E-13
 -1      1838 2.13589E+01-5.21938E-03-3.88675E-04 5.26641E-01-1.15989E-14-1.91162E-13
 -1      1839 2.15378E+01-2.42160E-02-2.40519E-03 5.17452E-01-4.36034E-15-1.56429E-13
 -1      1840 2.11289E+01-9.81083E-04-1.23343E-03 6.67093E-01 1.28048E-14-1.05913E-13
 -1      1841 2.16881E+01-4.58180E-02-7.69297E-04 4.93283E-01 2.85709E-15-1.75160E-13
 -1      1842 2.18467E+01-7.56743E-02-5.80457E-03 4.57181E-01 1.54367E-14-1.34317E-13
 -1      1843 2.14232E+01-5.63784E-02-7.76846E-04 6.44648E-01-1.15830E-14-1.22224E-13
 -1      1844 2.19947E+01-1.06437E-01-1.27360E-03 3.93120E-01 1.43332E-15-1.13160E-13
 -1      1845 2.21093E+01-1.46528E-01-9.79812E-03 3.18961E-01-1.21752E-14-1.28272E-13
 -1      1846 2.17193E+01-1.40740E-01 5.58949E-05 5.49906E-01 2.56260E-14-1.11102E-13
 -1      1847 2.22414E+01-1.83712E-01-1.97504E-03 2.02174E-01-5.83760E-14-1.42966E-13
 -1      1848 2.22832E+01-2.27695E-01-1.33992E-02 8.26054E-02-6.67222E-14-1.55636E-13
 -1      1849 2.19950E+01-2.50757E-01 1.50149E-03 3.53359E-01-4.64910E-14-9.00752E-14
 -1      1850 2.23785E+01-2.62098E-01-2.94902E-03-9.16400E-02-3.40422E-14-1.29316E-13
 -1      1851 2.23199E+01-2.94788E-01-1.48435E-02-2.52384E-01-4.08137E-14-7.26293E-14
 -1      1852 2.22167E+01-3.67007E-01 3.80899E-03 3.46404E-02-3.93110E-14-7.62414E-14
 -1      1853 2.23507E+01-3.08893E-01-4.33135E-03-4.69360E-01-1.09282E-13-8.52583E-14
 -1      1854 2.21766E+01-3.06364E-01-1.20743E-02-6.45979E-01-7.04480E-14-1.61497E-13
 -1      1855 2.23379E+01-4.46121E-01 6.99696E-03-3.97501E-01-7.00663E-14-2.04871E-14
 -1      1856 2.21148E+01-2.77350E-01-5.97724E-03-8.59653E-01 6.95537E-15-1.87684E-13
 -1      1857 2.18373E+01-2.15759E-01-4.02111E-03-1.00063E+00 6.04235E-14-2.16428E-13
 -1      1858 2.23055E+01-4.23494E-01 9.99426E-03-8.79228E-01-8.11213E-14-5.19003E-14
 -1      1859 2.16726E+01-1.28247E-01-6.67116E-03-1.13238E+00 1.02759E-13-3.06598E-13
 -1      1860 2.13418E+01-4.15689E-03 7.47505E-03-1.16997E+00 1.21720E-14-2.46175E-13
 -1      1861 2.20826E+01-2.40038E-01 1.02453E-02-1.27444E+00 3.26323E-14-7.70139E-14
 -1      1862 2.11089E+01 1.28540E-01-4.29838E-03-1.13426E+00-2.13414E-14-1.66029E-13
 -1      1863 2.08089E+01 2.77689E-01 1.67382E-02-1.01783E+00 1.07570E-14-8.63172E-14
 -1      1864 2.16912E+01 1.04065E-01 4.77379E-03-1.39685E+00 4.69248E-14-9.91368E-14
 -1      1865 2.05977E+01 4.02750E-01 2.31347E-03-7.77854E-01 9.26603E-15-1.25189E-13
 -1      1866 2.04210E+01 5.05088E-01 1.79859E-02-5.17727E-01 6.95173E-14-9.75227E-14
 -1      1867 2.12516E+01 5.03347E-01-6.12880E-03-1.09935E+00 9.38485E-15-1.93042E-14
 -1      1868 2.03390E+01 5.54633E-01 1.17016E-02-1.36509E-01 5.37070E-14-2.08359E-13
 -1      1869 2.03453E+01 5.51581E-01 1.12067E-02 1.80357E-01 2.99344E-14-2.79236E-13
 -1      1870 2.09597E+01 7.69893E-01-1.64400E-02-4.02257E-01-2.08340E-15-2.63343E-13
 -1      1871 2.04383E+01 4.96908E-01 1.81595E-02 5.57469E-01-2.91243E-14-4.02357E-13
 -1      1872 2.06261E+01 3.90553E-01 1.99435E-03 8.11749E-01-9.73761E-14-4.59095E-13
 -1      1873 2.09705E+01 7.62256E-01-1.59898E-02 4.54258E-01-6.84747E-14-4.16932E-13
 -1      1874 2.08436E+01 2.63719E-01 1.64735E-02 1.04208E+00-9.48807E-14-4.15932E-13
 -1      1875 2.11507E+01 1.14563E-01-4.40987E-03 1.15057E+00-1.06771E-13-4.09305E-13
 -1      1876 2.12797E+01 4.84790E-01-5.44669E-03 1.13518E+00-7.48113E-14-4.76266E-13
 -1      1877 2.13847E+01-1.66619E-02 6.80136E-03 1.17676E+00-1.45268E-13-3.73697E-13
 -1      1878 2.17182E+01-1.37555E-01-6.64166E-03 1.13295E+00-6.68411E-14-4.18979E-13
 -1      1879 2.17266E+01 8.50360E-02 5.14364E-03 1.41088E+00-6.78573E-14-3.18560E-13
 -1      1880 2.18810E+01-2.21358E-01-4.62330E-03 9.96171E-01 2.46530E-14-4.04229E-13
 -1      1881 2.21588E+01-2.78716E-01-5.72452E-03 8.53273E-01 7.25583E-14-4.30949E-13
 -1      1882 2.21170E+01-2.51213E-01 1.00754E-02 1.27217E+00-3.10880E-14-3.02542E-13
 -1      1883 2.22195E+01-3.04333E-01-1.23587E-02 6.40283E-01 9.12465E-16-4.14628E-13
 -1      1884 2.23940E+01-3.03582E-01-4.02521E-03 4.65801E-01 1.62179E-14-4.26078E-13
 -1      1885 2.23372E+01-4.23464E-01 9.56084E-03 8.72667E-01 4.02924E-14-3.95655E-13
 -1      1886 2.23647E+01-2.87221E-01-1.47944E-02 2.53849E-01-3.83495E-14-3.97342E-13
 -1      1887 2.24263E+01-2.52635E-01-2.53796E-03 9.80467E-02-8.73347E-15-3.61065E-13
 -1      1888 2.23703E+01-4.36865E-01 6.52115E-03 3.97744E-01 3.96289E-14-2.95878E-13
 -1      1889 2.23359E+01-2.17135E-01-1.31054E-02-6.87070E-02-8.31106E-15-3.31502E-13
 -1      1890 2.23013E+01-1.72319E-01-1.46062E-03-1.81879E-01 3.51420E-14-2.84091E-13
 -1      1891 2.22557E+01-3.52254E-01 3.42174E-03-2.02056E-02 2.70027E-14-1.72739E-13
 -1      1892 2.21776E+01-1.34774E-01-9.41277E-03-2.90112E-01 3.85993E-14-2.50955E-13
 -1      1893 2.20753E+01-9.43575E-02-6.81598E-04-3.57297E-01 8.89393E-15-2.56797E-13
 -1      1894 2.20474E+01-2.33522E-01 1.16371E-03-3.20984E-01 6.83676E-14-7.86542E-14
 -1      1895 2.19388E+01-6.34868E-02-5.42337E-03-4.12418E-01-1.11134E-13-2.94667E-13
 -1      1896 2.17980E+01-3.33879E-02-8.37073E-05-4.41293E-01 4.08071E-14-2.68885E-13
 -1      1897 2.17916E+01-1.22532E-01-2.48760E-04-4.98100E-01-8.20910E-14-1.02142E-13
 -1      1898 2.16623E+01-1.17058E-02-2.07439E-03-4.56309E-01 6.52814E-14-4.50021E-13
 -1      1899 2.15070E+01 7.60679E-03 3.76733E-04-4.58058E-01-4.60381E-14-4.28217E-13
 -1      1900 2.15220E+01-3.76288E-02-1.06263E-03-5.72782E-01-1.16328E-13-3.54023E-13
 -1      1901 2.13803E+01 2.08778E-02 3.15216E-04-4.46740E-01 3.86122E-14-4.40079E-13
 -1      1902 2.12275E+01 3.13747E-02 7.07313E-04-4.31847E-01 2.52021E-14-3.10218E-13
 -1      1903 2.12604E+01 1.83805E-02-1.49490E-03-5.74716E-01 8.45932E-15-2.78600E-13
 -1      1904 2.11142E+01 3.82071E-02 1.78458E-03-4.05645E-01-6.53486E-14-2.29168E-13
 -1      1905 2.09743E+01 4.24445E-02 9.12108E-04-3.82248E-01 2.19215E-15-2.29331E-13
 -1      1906 2.10201E+01 5.00626E-02-1.68650E-03-5.31596E-01 1.17037E-13-2.40744E-13
 -1      1907 2.08764E+01 4.48889E-02 2.52416E-03-3.49473E-01 1.23651E-13-2.08191E-13
 -1      1908 2.07549E+01 4.51435E-02 1.00589E-03-3.23162E-01 1.23682E-13-1.83995E-13
 -1      1909 2.08079E+01 6.40844E-02-1.72154E-03-4.65067E-01 7.37983E-14-2.64951E-14
 -1      1910 2.06726E+01 4.48816E-02 2.75297E-03-2.89259E-01 5.17759E-14-2.66410E-13
 -1      1911 2.05711E+01 4.28802E-02 1.01228E-03-2.63493E-01 5.21653E-15-2.38074E-13
 -1      1912 2.06265E+01 6.66219E-02-1.65340E-03-3.90206E-01 5.78414E-14-1.67033E-13
 -1      1913 2.05036E+01 4.11340E-02 2.66144E-03-2.31673E-01 3.99685E-14-1.48444E-13
 -1      1914 2.04216E+01 3.80628E-02 9.57924E-04-2.08340E-01-7.17046E-14-1.27283E-13
 -1      1915 2.04757E+01 6.24668E-02-1.51975E-03-3.16519E-01 2.37938E-14-1.09754E-13
 -1      1916 2.03675E+01 3.56502E-02 2.39350E-03-1.80240E-01-1.45010E-13-4.26147E-15
 -1      1917 2.03031E+01 3.22638E-02 8.67471E-04-1.60174E-01-9.26678E-15 6.86227E-14
 -1      1918 2.03533E+01 5.49698E-02-1.34899E-03-2.49343E-01-5.43879E-14 1.18485E-13
 -1      1919 2.02608E+01 2.96965E-02 2.04803E-03-1.36392E-01 3.05265E-14-1.23750E-14
 -1      1920 2.02115E+01 2.64397E-02 7.60836E-04-1.19765E-01 1.56145E-13 1.86029E-13
 -1      1921 2.02562E+01 4.62988E-02-1.16261E-03-1.91146E-01 1.19142E-14 2.40107E-13
 -1      1922 2.01791E+01 2.40151E-02 1.68736E-03-1.00267E-01 3.40012E-13 4.02348E-15
 -1      1923 2.01425E+01 2.11242E-02 6.52107E-04-8.68678E-02 3.90639E-13 1.03945E-13
 -1      1924 2.01808E+01 3.77571E-02-9.76275E-04-1.42559E-01 1.44712E-13 3.66759E-13
 -1      1925 2.01182E+01 1.89971E-02 1.34659E-03-7.12676E-02 3.55482E-13 2.28308E-13
 -1      1926 2.00919E+01 1.65759E-02 5.49310E-04-6.06877E-02 3.44061E-13 4.85299E-13
 -1      1927 2.01237E+01 3.00591E-02-8.00355E-04-1.03122E-01 4.61117E-13 3.40936E-13
 -1      1928 2.00741E+01 1.48103E-02 1.04130E-03-4.84319E-02 2.45778E-13 4.74195E-13
 -1      1929 2.00560E+01 1.28761E-02 4.52745E-04-4.01872E-02 3.22228E-13 4.39108E-13
 -1      1930 2.00815E+01 2.35375E-02-6.40464E-04-7.17986E-02 3.32712E-13 5.06977E-13
 -1      1931 2.00433E+01 1.14704E-02 7.73574E-04-3.06887E-02-2.84366E-14 3.67584E-13
 -1      1932 2.00315E+01 9.98667E-03 3.67022E-04-2.43157E-02-2.29071E-13 2.11647E-13
 -1      1933 2.00510E+01 1.82665E-02-4.98107E-04-4.73281E-02 6.95598E-14 4.43068E-13
 -1      1934 2.00227E+01 8.80429E-03 5.25666E-04-1.70085E-02-1.58819E-13 1.93198E-13
 -1      1935 2.00158E+01 7.59278E-03 2.80617E-04-1.21849E-02-4.83260E-14 2.27081E-13
 -1      1936 2.00296E+01 1.41746E-02-3.51870E-04-2.84886E-02-2.09179E-13 3.50766E-13
 -1      1937 2.00102E+01 6.43080E-03 3.72364E-04-7.04910E-03-6.22639E-14 6.36099E-14
 -1      1938 2.00066E+01 5.03813E-03 2.17585E-04-3.83646E-03-2.38619E-13-1.09556E-14
 -1      1939 2.00068E+01 6.04257E-03-2.34922E-04-5.04927E-03-2.27605E-13 1.27682E-13
 -1      1940 2.00154E+01 1.02068E-02-3.68480E-04-1.45849E-02-2.63005E-13 7.41667E-14
 -1      1941 1.96386E+01 1.46707E-01 8.31530E-03 2.29575E-01 1.02515E-13 4.34602E-13
 -1      1942 1.98970E+01 2.07748E-01 1.67316E-02 4.05489E-01 1.23155E-13 4.73012E-13
 -1      1943 2.01138E+01 3.54817E-01-1.77641E-03 6.21389E-01 1.49717E-13 3.46092E-13
 -1      1944 1.94302E+01 7.94661E-02 7.51103E-03 1.54799E-02 8.31930E-14 3.69343E-13
 -1      1945 1.95270E+01 1.08261E-01 1.46081E-02 1.09106E-01 8.53675E-14 4.05361E-13
 -1      1946 1.97484E+01 1.73358E-01-2.29372E-03 2.11713E-01 1.14287E-13 3.28257E-13
 -1      1947 1.93863E+01 4.70986E-02 5.19979E-03-1.06652E-01 5.46663E-14 3.17395E-13
 -1      1948 1.93914E+01 6.16676E-02 8.92269E-03-5.17651E-02 6.70163E-14 3.42675E-13
 -1      1949 1.95853E+01 9.32877E-02-3.27191E-03-1.74546E-02 8.87480E-14 2.35915E-13
 -1      1950 1.94487E+01 3.13421E-02 3.90721E-03-1.82533E-01 1.12633E-14 2.58393E-13
 -1      1951 1.93987E+01 3.87205E-02 5.15268E-03-1.47064E-01 1.93511E-14 2.86671E-13
 -1      1952 1.95569E+01 5.53764E-02-3.43209E-03-1.54003E-01 4.58206E-14 1.70138E-13
 -1      1953 1.95836E+01 2.48721E-02 3.38736E-03-2.36259E-01 5.21714E-14 2.27969E-13
 -1      1954 1.94974E+01 2.81265E-02 3.20453E-03-2.10044E-01 2.99302E-14 2.55003E-13
 -1      1955 1.96191E+01 3.80511E-02-3.08167E-03-2.43330E-01 3.46014E-14 1.41172E-13
 -1      1956 1.97735E+01 2.44066E-02 3.28323E-03-2.82181E-01 4.78928E-14 1.70470E-13
 -1      1957 1.96598E+01 2.50356E-02 2.30474E-03-2.59018E-01 3.81832E-14 1.91027E-13
 -1      1958 1.97460E+01 3.24514E-02-2.68489E-03-3.10789E-01 6.03948E-14 8.25747E-14
 -1      1959 2.00117E+01 2.82354E-02 3.42331E-03-3.29908E-01 6.39481E-14 1.27971E-13
 -1      1960 1.98732E+01 2.71008E-02 1.96850E-03-3.05504E-01 7.08300E-14 1.60539E-13
 -1      1961 1.99242E+01 3.45304E-02-2.43688E-03-3.72172E-01 6.97815E-14 7.74107E-14
 -1      1962 2.02988E+01 3.52272E-02 3.72301E-03-3.86301E-01 9.33194E-15 1.81865E-13
 -1      1963 2.01342E+01 3.29442E-02 1.94619E-03-3.57463E-01 2.15819E-14 1.44301E-13
 -1      1964 2.01486E+01 4.20722E-02-2.37429E-03-4.38227E-01 4.64041E-14 1.21602E-13
 -1      1965 2.06404E+01 4.42754E-02 4.09461E-03-4.56101E-01-3.27579E-14 2.67677E-13
 -1      1966 2.04457E+01 4.14547E-02 2.08776E-03-4.20499E-01-7.03647E-16 2.30908E-13
 -1      1967 2.04199E+01 5.34282E-02-2.48425E-03-5.16463E-01-2.81114E-14 1.63728E-13
 -1      1968 2.10445E+01 5.37708E-02 4.39022E-03-5.41614E-01-1.92069E-14 2.83184E-13
 -1      1969 2.08145E+01 5.12613E-02 2.26114E-03-4.97972E-01-3.57299E-14 3.01260E-13
 -1      1970 2.07426E+01 6.66994E-02-2.74871E-03-6.11489E-01-5.80627E-14 2.13899E-13
 -1      1971 2.15192E+01 6.08882E-02 4.35365E-03-6.41351E-01 1.02306E-13 1.76572E-13
 -1      1972 2.12491E+01 6.01030E-02 2.30956E-03-5.90141E-01 2.51390E-14 2.20155E-13
 -1      1973 2.11228E+01 7.88553E-02-3.15434E-03-7.24166E-01 8.44472E-14 1.59037E-13
 -1      1974 2.20690E+01 6.05654E-02 3.58485E-03-7.47260E-01 8.10719E-14 1.57484E-13
 -1      1975 2.17567E+01 6.39269E-02 2.03143E-03-6.92128E-01 6.04417E-14 1.65773E-13
 -1      1976 2.15661E+01 8.45190E-02-3.68442E-03-8.49376E-01 8.11300E-14 7.14765E-14
 -1      1977 2.26887E+01 4.42690E-02 1.56258E-03-8.40142E-01 3.32687E-15 2.28042E-13
 -1      1978 2.23392E+01 5.56866E-02 1.19202E-03-7.90295E-01 3.61451E-14 2.07759E-13
 -1      1979 2.20750E+01 7.43599E-02-4.28677E-03-9.71986E-01 2.31384E-14 1.52574E-13
 -1      1980 2.33559E+01-7.28410E-04-2.17046E-03-8.83378E-01-6.48909E-14 1.82930E-13
 -1      1981 2.29869E+01 2.42099E-02-4.02484E-04-8.56940E-01-8.28059E-15 2.21502E-13
 -1      1982 2.26446E+01 3.35654E-02-4.79496E-03-1.06086E+00 3.13140E-14 1.70448E-13
 -1      1983 2.40212E+01-8.92546E-02-7.52906E-03-8.17272E-01 8.48280E-14 1.81251E-13
 -1      1984 2.36695E+01-4.53801E-02-2.75430E-03-8.44446E-01 5.32547E-14 1.79736E-13
 -1      1985 2.32577E+01-5.76853E-02-4.78050E-03-1.06207E+00 6.81373E-14 1.74377E-13
 -1      1986 2.45985E+01-2.28546E-01-1.31092E-02-5.61817E-01-1.53419E-14 1.22910E-13
 -1      1987 2.43252E+01-1.65917E-01-5.55832E-03-6.83756E-01 6.25220E-14 1.42028E-13
 -1      1988 2.38774E+01-2.16722E-01-3.37890E-03-8.96112E-01 6.44762E-14 1.03232E-13
 -1      1989 2.49626E+01-3.95680E-01-1.55017E-02-4.42947E-02-1.23948E-13 3.16975E-14
 -1      1990 2.48491E+01-3.31302E-01-8.12274E-03-2.98907E-01-8.16534E-14 5.45757E-14
 -1      1991 2.44365E+01-4.36845E-01 6.12279E-04-4.71819E-01-2.94105E-14-3.79076E-14
 -1      1992 2.49655E+01-5.05846E-01-1.05543E-02 7.28864E-01-3.57631E-14 1.70003E-14
 -1      1993 2.50915E+01-4.86560E-01-9.78304E-03 3.44238E-01-1.11867E-13-4.83207E-15
 -1      1994 2.48268E+01-6.48883E-01 7.81891E-03 2.62703E-01-1.08188E-13-1.20746E-13
 -1      1995 2.44861E+01-4.08155E-01 2.18437E-04 1.55301E+00 9.23081E-14 8.53137E-14
 -1      1996 2.48854E+01-5.00742E-01-1.12794E-02 1.14360E+00-1.15654E-14 7.46573E-14
 -1      1997 2.48981E+01-6.83383E-01 1.59896E-02 1.21640E+00-4.25354E-15-7.37674E-14
 -1      1998 2.35556E+01 2.15074E-03 4.77006E-03 1.97476E+00 2.58241E-13 1.77143E-13
 -1      1999 2.41581E+01-2.22123E-01-1.23242E-02 1.76789E+00 1.93011E-13 1.68456E-13
 -1      2000 2.45214E+01-3.45782E-01 1.39736E-02 2.03033E+00 1.32456E-13 6.72171E-14
 -1      2001 2.25130E+01 5.78138E-01-1.07787E-02 1.51315E+00 3.88335E-14-2.18454E-14
 -1      2002 2.31057E+01 3.36308E-01-1.16842E-02 1.73670E+00 1.57353E-13 1.32491E-13
 -1      2003 2.37661E+01 3.70592E-01-6.62701E-03 2.12619E+00 1.75247E-13 8.27585E-14
 -1      2004 2.19637E+01 9.04095E-01-3.50491E-02 1.99661E-01-6.71824E-14 1.96874E-14
 -1      2005 2.22598E+01 8.33958E-01-5.54992E-03 8.17076E-01-5.11605E-14 1.42247E-16
 -1      2006 2.30634E+01 1.07774E+00-3.11703E-02 1.13996E+00-2.01922E-14 7.71067E-14
 -1      2007 2.23292E+01 6.81301E-01-3.94235E-02-1.24163E+00 5.74853E-14-1.33227E-14
 -1      2008 2.21452E+01 8.61151E-01 3.53518E-03-5.90325E-01-4.10921E-14-1.67887E-14
 -1      2009 2.29423E+01 1.23323E+00-3.20314E-02-5.40436E-01-4.16334E-14 1.31607E-13
 -1      2010 2.33822E+01 1.18252E-01-1.44566E-02-1.95719E+00 8.48852E-14-2.03167E-13
 -1      2011 2.28058E+01 3.91527E-01 4.76855E-03-1.64406E+00 1.04527E-13-1.31721E-13
 -1      2012 2.35052E+01 6.92974E-01-9.30366E-03-1.88865E+00 1.47306E-13-1.79008E-13
 -1      2013 2.44602E+01-3.41888E-01 9.58932E-03-1.73413E+00 1.25982E-13-5.25309E-14
 -1      2014 2.37940E+01-1.66654E-01-5.28185E-03-1.82415E+00 8.36124E-14-2.41779E-13
 -1      2015 2.43002E+01-1.02947E-01 2.69488E-03-2.19104E+00 9.40220E-14-2.98444E-13
 -1      2016 2.50878E+01-4.94249E-01 2.09371E-02-9.63240E-01-1.20931E-13-9.97024E-14
 -1      2017 2.46066E+01-4.73232E-01-1.54002E-02-1.28035E+00-9.16281E-15-1.14925E-14
 -1      2018 2.48316E+01-6.17121E-01 1.32408E-03-1.58487E+00 1.73195E-14-3.13144E-13
 -1      2019 2.51629E+01-4.13970E-01 1.70326E-02-1.47758E-01 9.97206E-14-1.11060E-13
 -1      2020 2.49802E+01-4.82113E-01-1.75370E-02-4.84867E-01-3.67206E-14-5.11826E-14
 -1      2021 2.49125E+01-7.11249E-01-5.46724E-03-6.27618E-01-1.40495E-14-1.49823E-13
 -1      2022 2.48219E+01-2.52416E-01 8.02175E-03 4.38972E-01 6.71529E-14-3.92915E-16
 -1      2023 2.49068E+01-3.38119E-01-1.47081E-02 1.93515E-01 9.28736E-14-1.00491E-13
 -1      2024 2.46287E+01-5.38737E-01-8.77837E-03 2.09620E-01 9.33836E-14 1.62268E-13
 -1      2025 2.42478E+01-1.07593E-01 8.85912E-04 7.50181E-01-2.33537E-15-2.15120E-13
 -1      2026 2.45086E+01-1.74004E-01-9.67527E-03 6.16524E-01 7.60156E-14-1.04187E-13
 -1      2027 2.41333E+01-2.99670E-01-7.40596E-03 7.44075E-01 1.52308E-13-7.13891E-14
 -1      2028 2.35861E+01-1.09703E-02-2.68984E-03 8.48466E-01-5.99549E-14-6.15551E-13
 -1      2029 2.39305E+01-5.07686E-02-4.61223E-03 8.02404E-01-1.06880E-13-4.31453E-13
 -1      2030 2.35488E+01-1.05909E-01-4.52599E-03 9.89142E-01 3.75160E-14-4.26190E-13
 -1      2031 2.29306E+01 4.11331E-02-3.64537E-03 8.16671E-01 7.59191E-14-4.67040E-13
 -1      2032 2.32912E+01 2.25198E-02-6.22143E-04 8.25017E-01-6.89743E-14-6.31057E-13
 -1      2033 2.29551E+01 1.53292E-02-2.11818E-03 1.03038E+00-4.32180E-14-7.23179E-13
 -1      2034 2.23331E+01 6.26398E-02-3.29998E-03 7.20702E-01 1.16226E-13-5.40994E-13
 -1      2035 2.26696E+01 5.74213E-02 1.96263E-03 7.56610E-01 1.75505E-13-3.49027E-13
 -1      2036 2.23993E+01 7.62053E-02-7.34422E-04 9.54711E-01 1.02193E-13-5.91832E-13
 -1      2037 2.18166E+01 6.64373E-02-2.52507E-03 6.02782E-01 2.82329E-13-5.20629E-13
 -1      2038 2.21099E+01 6.83973E-02 3.30081E-03 6.48806E-01 1.65690E-13-4.57632E-13
 -1      2039 2.19058E+01 9.78378E-02-1.76285E-04 8.25865E-01 2.08603E-13-3.39300E-13
 -1      2040 2.13866E+01 6.14237E-02-1.74454E-03 4.86173E-01-9.11320E-14-5.37745E-13
 -1      2041 2.16308E+01 6.65661E-02 3.74765E-03 5.32537E-01 1.72950E-13-4.94108E-13
 -1      2042 2.14842E+01 9.78013E-02-8.13533E-05 6.83092E-01 1.86735E-13-1.51332E-13
 -1      2043 2.10385E+01 5.28809E-02-1.11074E-03 3.81790E-01-2.90040E-13-5.06488E-13
 -1      2044 2.12353E+01 5.89558E-02 3.65197E-03 4.23781E-01-2.99287E-13-5.90521E-13
 -1      2045 2.11347E+01 8.76347E-02-1.74290E-04 5.47364E-01-1.75105E-13-2.58016E-13
 -1      2046 2.07629E+01 4.36173E-02-6.46889E-04 2.93458E-01 5.62252E-14-2.64532E-13
 -1      2047 2.09177E+01 4.94964E-02 3.27738E-03 3.29311E-01-9.98993E-14-4.19691E-13
 -1      2048 2.08518E+01 7.39392E-02-3.01393E-04 4.28079E-01-1.89792E-13-3.35255E-13
 -1      2049 2.05490E+01 3.49679E-02-3.28249E-04 2.21330E-01-3.39341E-13-5.15655E-14
 -1      2050 2.06682E+01 4.01645E-02 2.79480E-03 2.50829E-01-1.30165E-13-2.04094E-13
 -1      2051 2.06276E+01 6.00913E-02-3.97331E-04 3.28069E-01-2.06246E-13-8.32474E-14
 -1      2052 2.03860E+01 2.74641E-02-1.19418E-04 1.63873E-01-2.67495E-13-7.60630E-14
 -1      2053 2.04761E+01 3.18293E-02 2.30251E-03 1.87536E-01-3.73724E-13-6.11424E-14
 -1      2054 2.04531E+01 4.76049E-02-4.45838E-04 2.46799E-01-4.01944E-13 9.34056E-15
 -1      2055 2.02640E+01 2.12326E-02 1.18046E-05 1.18944E-01-3.64985E-14-6.61860E-14
 -1      2056 2.03308E+01 2.47800E-02 1.85021E-03 1.37574E-01-1.58299E-13-6.28230E-14
 -1      2057 2.03197E+01 3.70087E-02-4.52338E-04 1.82226E-01-1.14238E-13-2.43649E-14
 -1      2058 2.01744E+01 1.62149E-02 9.07452E-05 8.43184E-02 6.91439E-15 7.76534E-14
 -1      2059 2.02229E+01 1.90260E-02 1.45855E-03 9.87787E-02 4.83744E-14 2.85691E-14
 -1      2060 2.02196E+01 2.83528E-02-4.29117E-04 1.31796E-01-3.53536E-14 2.30168E-13
 -1      2061 2.01101E+01 1.22818E-02 1.35160E-04 5.79307E-02 2.03638E-13 2.31056E-14
 -1      2062 2.01445E+01 1.44586E-02 1.13149E-03 6.90408E-02 4.11221E-14 1.23856E-13
 -1      2063 2.01459E+01 2.14826E-02-3.88225E-04 9.29457E-02 9.32162E-14 4.19579E-13
 -1      2064 2.00654E+01 9.28434E-03 1.55393E-04 3.79610E-02 2.74227E-13 1.84676E-13
 -1      2065 2.00890E+01 1.09303E-02 8.63973E-04 4.64573E-02 2.91140E-13 1.57613E-13
 -1      2066 2.00929E+01 1.61730E-02-3.40258E-04 6.33219E-02 2.28322E-13 4.11634E-13
 -1      2067 2.00356E+01 7.05058E-03 1.53528E-04 2.28686E-02-2.89647E-15 2.39983E-13
 -1      2068 2.00509E+01 8.27775E-03 6.45895E-04 2.93869E-02 1.00969E-13 1.35343E-13
 -1      2069 2.00559E+01 1.21791E-02-2.91847E-04 4.08735E-02 1.47750E-13 4.54184E-13
 -1      2070 2.00169E+01 5.35292E-03 1.25042E-04 1.14951E-02-3.14654E-13 2.18709E-13
 -1      2071 2.00261E+01 6.28616E-03 4.62140E-04 1.65130E-02-1.04411E-13 1.97949E-13
 -1      2072 2.00310E+01 9.18170E-03-2.51874E-04 2.39369E-02-1.13946E-13 2.49605E-13
 -1      2073 2.00065E+01 3.85647E-03 1.57735E-04 3.27898E-03 1.25492E-13 1.59276E-13
 -1      2074 2.00111E+01 4.63187E-03 2.98235E-04 6.92428E-03-2.04808E-13 1.67546E-13
 -1      2075 2.00151E+01 6.81433E-03-1.96471E-04 1.13143E-02-1.52771E-13 3.31469E-13
 -1      2076 2.00024E+01 2.09080E-03 1.87310E-04-6.14159E-04-2.25808E-14 3.61375E-13
 -1      2077 2.00042E+01 3.42963E-03 1.82300E-04 1.43235E-03 1.33461E-13 2.28899E-13
 -1      2078 2.00070E+01 5.11634E-03-1.01961E-04 3.90318E-03 5.10813E-14 3.15061E-13
 -1      2079 2.00033E+01 2.66501E-03 5.37175E-05 2.02940E-04 1.16737E-13 7.39224E-13
 -1      2080 2.00023E+01 3.17810E-02-1.15488E-04 1.81968E-02 3.53436E-13 2.52836E-13
 -1      2081 2.00038E+01 2.59404E-02 2.24380E-04 1.63773E-02 3.43836E-13 5.59127E-13
 -1      2082 2.00049E+01 1.87897E-02-1.75550E-05 1.33575E-02 2.00621E-13 3.73801E-13
 -1      2083 2.00056E+01 1.42029E-02 2.09401E-04 1.02453E-02 1.26411E-13 4.94762E-13
 -1      2084 2.00065E+01 2.81562E-02-6.04632E-05 2.03423E-02 1.72829E-13 5.65266E-13
 -1      2085 2.00052E+01 9.07574E-03 5.85317E-05 6.55585E-03 2.88029E-14 4.55225E-13
 -1      2086 2.00048E+01 6.12278E-03 1.41584E-04 3.56970E-03 4.09063E-14 4.94466E-13
 -1      2087 2.00067E+01 7.59491E-03 7.09302E-05 5.23490E-03 7.76488E-15 5.08285E-13
 -1      2088 2.00077E+01 1.60375E-02-1.59455E-04 1.26718E-02-1.22385E-13 5.36107E-13
 -1      2089 1.99993E+01 4.53631E-02-2.07398E-04 1.93914E-02 3.06063E-13-3.92371E-13
 -1      2090 2.00009E+01 3.91847E-02 1.46329E-04 1.92602E-02 3.52361E-13-4.51474E-14
 -1      2091 2.00026E+01 4.25984E-02 4.37241E-05 2.47749E-02 1.03833E-13 7.16627E-14
 -1      2092 1.99964E+01 5.78366E-02-2.77221E-04 1.66965E-02 3.15723E-13-2.39289E-13
 -1      2093 1.99979E+01 5.22313E-02 2.16752E-05 1.82489E-02 3.07246E-13-8.22510E-14
 -1      2094 1.99981E+01 5.67990E-02 1.58865E-04 2.45346E-02 1.58606E-13-2.47791E-13
 -1      2095 1.99943E+01 6.69135E-02-3.05715E-04 1.06887E-02 2.41400E-13-3.12716E-13
 -1      2096 1.99953E+01 6.30459E-02-1.11514E-04 1.35681E-02 2.77371E-13-2.29902E-13
 -1      2097 1.99941E+01 6.88356E-02 2.61607E-04 1.95679E-02 1.58670E-13-2.91959E-13
 -1      2098 1.99934E+01 7.10992E-02-2.85494E-04 2.62126E-03 6.26701E-14-3.49172E-13
 -1      2099 1.99937E+01 6.96957E-02-2.22493E-04 6.22227E-03 2.71767E-13-3.98720E-13
 -1      2100 1.99914E+01 7.68057E-02 3.28912E-04 1.08717E-02 8.62560E-14-2.87453E-13
 -1      2101 1.99937E+01 6.97294E-02-2.16907E-04-5.91287E-03 7.71390E-14-3.54770E-13
 -1      2102 1.99934E+01 7.10484E-02-2.91255E-04-2.31201E-03 7.76181E-14-1.57480E-13
 -1      2103 1.99905E+01 7.95295E-02 3.50193E-04 1.51259E-04-8.47855E-14-2.70691E-13
 -1      2104 1.99953E+01 6.30748E-02-1.11793E-04-1.32572E-02 9.86869E-14-4.25944E-13
 -1      2105 1.99943E+01 6.68674E-02-3.07329E-04-1.03739E-02 1.23092E-13-2.97782E-13
 -1      2106 1.99914E+01 7.66185E-02 3.21642E-04-1.05575E-02-8.13940E-14-4.18387E-13
 -1      2107 1.99977E+01 5.25182E-02 1.64886E-05-1.79216E-02 1.24044E-13-4.27472E-13
 -1      2108 1.99963E+01 5.79407E-02-2.77370E-04-1.63508E-02 2.13845E-13-3.39492E-13
 -1      2109 1.99940E+01 6.86274E-02 2.56224E-04-1.91896E-02 3.09493E-13-3.20664E-13
 -1      2110 2.00007E+01 3.94548E-02 1.37537E-04-1.90975E-02 4.94231E-13 5.36026E-13
 -1      2111 1.99991E+01 4.56973E-02-2.10145E-04-1.91482E-02 3.50530E-13 8.08039E-14
 -1      2112 1.99979E+01 5.67176E-02 1.47759E-04-2.41992E-02 4.65094E-13 3.84845E-14
 -1      2113 2.00036E+01 2.61649E-02 2.13335E-04-1.64221E-02 2.78726E-13-1.70440E-14
 -1      2114 2.00021E+01 3.20241E-02-1.18277E-04-1.81227E-02 3.66153E-13 1.47401E-13
 -1      2115 2.00022E+01 4.24988E-02 1.24464E-05-2.46054E-02 4.27996E-13 3.03162E-13
 -1      2116 2.00052E+01 1.39519E-02 2.72268E-06-1.04409E-02-7.79775E-14-1.50684E-13
 -1      2117 2.00047E+01 1.90481E-02-9.79545E-07-1.35173E-02 8.13345E-14-1.10855E-13
 -1      2118 2.00062E+01 2.81760E-02-3.15661E-05-2.03965E-02-1.70674E-14-2.90850E-13
 -1      2119 1.04646E+01-5.30333E+00-1.19544E-01 6.32791E+00 3.28404E-13 6.88380E-13
 -1      2120 6.73646E+00-6.65337E+00-3.44822E-01 5.06239E+00 2.72338E-13 4.20913E-13
 -1      2121 4.06769E-01-7.03632E+00-3.85449E-01 5.92933E-01 1.29480E-13 6.77014E-13
 -1      2122 5.06691E-01-6.42915E+00-2.89873E-01-9.93510E-01-1.34434E-13 7.83262E-13
 -1      2123 2.99292E+00-6.36039E+00-2.89320E-01 3.71076E+00 2.78444E-13 1.03362E-13
 -1      2124 1.18265E+00-7.36383E+00-4.32320E-01 2.10739E+00 1.89987E-13 2.60736E-13
 -1      2125 2.17971E+00-4.55107E+00-1.64810E-01 1.81977E+00-6.77652E-14 4.86999E-13
 -1      2126 1.92458E+01-3.76788E+00 2.30470E-03 6.63968E+00 2.25597E-13 6.58473E-13
 -1      2127 1.47063E+01-5.51413E+00-2.87506E-01 6.01463E+00 1.28064E-13 6.21669E-13
 -1      2128 2.74585E+01-1.65430E+00 3.77254E-02 5.33083E+00 4.55636E-13 3.26517E-13
 -1      2129 2.23579E+01-3.25617E+00-2.23054E-01 5.48801E+00 3.75810E-13 4.23717E-13
 -1      2130 2.31873E+01-5.02760E+00 5.05992E-02 5.26501E+00 5.87308E-14 2.22433E-13
 -1      2131 1.95407E+01 4.02994E+00-2.57762E-02-1.66387E+00-8.79019E-14-2.85307E-13
 -1      2132 1.96680E+01 3.95315E+00-2.39873E-02-1.91826E+00-1.09962E-13-2.65558E-13
 -1      2133 1.99888E+01 3.26502E+00-7.78617E-03-1.86795E+00-1.35112E-13-2.27129E-13
 -1      2134 1.97101E+01 3.60620E+00-9.01918E-03-1.47713E+00-8.64664E-14-2.68566E-13
 -1      2135 4.00323E+01 5.75640E+00 4.26801E-01 1.42409E+00 4.61853E-13 4.17000E-13
 -1      2136 3.64355E+01 4.55305E+00 1.07083E-01 1.77710E+00 5.28688E-13 3.73701E-13
 -1      2137 4.02955E+01 7.27918E+00 3.15287E-01-1.12907E-01 3.42504E-13 2.71387E-13
 -1      2138 4.00119E+01 6.76747E+00 3.08490E-01 8.00569E-01 4.25715E-13 4.36151E-13
 -1      2139 3.96734E+01 6.18124E+00 3.40045E-01-1.39901E+00 5.69655E-13 1.67255E-13
 -1      2140 4.02131E+01 6.88500E+00 2.79655E-01-2.50503E-01 4.64406E-13 2.83523E-13
 -1      2141 3.55796E+01 3.48228E+00 1.49110E-01-3.23069E+00 4.96617E-13-6.06182E-14
 -1      2142 3.91508E+01 4.70529E+00 3.75483E-01-2.38445E+00 5.38708E-13 2.23710E-14
 -1      2143 2.84853E+01-4.45677E-01-7.28800E-02-4.55251E+00 4.40592E-13-1.24345E-13
 -1      2144 3.34763E+01 1.52736E+00 2.87321E-01-4.43746E+00 4.40065E-13-2.03171E-14
 -1      2145 1.93966E+01-3.84166E+00-2.59477E-01-5.85757E+00 1.28508E-13-4.53360E-13
 -1      2146 2.47256E+01-1.85076E+00 7.61262E-02-6.28951E+00 2.79998E-13-3.02536E-13
 -1      2147 1.08405E+01-6.15654E+00-3.74807E-01-5.75739E+00 6.71685E-14-3.54765E-13
 -1      2148 1.52781E+01-4.44240E+00-8.91958E-02-6.72818E+00 4.87388E-14-5.10259E-13
 -1      2149 3.86196E+00-7.32354E+00-4.56385E-01-3.96040E+00 1.11633E-13-1.99313E-13
 -1      2150 6.87073E+00-5.94165E+00-2.31761E-01-5.39786E+00 1.25011E-13-2.59667E-13
 -1      2151 7.39161E-01-6.74871E+00-3.35589E-01-1.32720E+00-1.14561E-13-4.27880E-13
 -1      2152 1.90556E+00-6.80012E+00-3.48349E-01-2.82922E+00 6.00631E-14-3.11529E-13
 -1      2153 1.07842E+00-7.13548E+00-4.03710E-01 2.45764E+00-1.87739E-13-4.86666E-13
 -1      2154 2.79973E-01-6.96910E+00-3.70299E-01 9.46430E-01-3.68802E-14-4.84557E-13
 -1      2155 5.33110E+00-6.16667E+00-2.88848E-01 5.09169E+00-2.82330E-13-3.89966E-13
 -1      2156 2.81509E+00-7.46610E+00-4.76589E-01 3.74792E+00-1.93789E-13-4.04399E-13
 -1      2157 1.25892E+01-4.37320E+00-1.25913E-01 6.74809E+00-3.39062E-13-5.11563E-13
 -1      2158 8.70753E+00-6.21501E+00-4.14164E-01 5.65589E+00-2.69562E-13-4.71025E-13
 -1      2159 2.12592E+01-2.10187E+00 6.01123E-02 6.92194E+00-3.88967E-13-2.78000E-13
 -1      2160 1.66121E+01-4.04547E+00-2.77545E-01 6.29695E+00-3.48943E-13-3.61988E-13
 -1      2161 2.93071E+01 6.55004E-01 1.98009E-01 5.75089E+00-4.68986E-13-5.41789E-14
 -1      2162 2.46286E+01-1.08109E+00-1.30574E-01 5.71543E+00-4.11338E-13-2.24820E-13
 -1      2163 3.54445E+01 3.47699E+00 2.86698E-01 3.64479E+00-4.62769E-13 1.03251E-14
 -1      2164 3.16577E+01 2.09439E+00 3.54793E-02 4.18710E+00-5.48762E-13 7.99361E-15
 -1      2165 3.87412E+01 6.05620E+00 2.54100E-01 1.42624E+00-4.89053E-13 1.07137E-13
 -1      2166 3.69659E+01 5.12963E+00 2.29279E-01 2.77703E+00-5.27772E-13 2.50355E-14
 -1      2167 3.96077E+01 7.23107E+00 2.89350E-01-1.92704E-01-4.30600E-13 2.98275E-13
 -1      2168 3.84476E+01 7.19193E+00 1.76470E-01 7.38727E-01-4.67959E-13 1.34531E-13
 -1      2169 3.81492E+01 6.58272E+00 1.92453E-01-1.38809E+00-3.48055E-13 3.42948E-13
 -1      2170 3.96874E+01 6.93670E+00 2.78320E-01-4.55695E-01-3.35287E-13 3.33344E-13
 -1      2171 3.48988E+01 8.24852E+00 2.86210E-01 1.15735E-01-3.96627E-13 3.52579E-13
 -1      2172 3.49585E+01 3.94516E+00 1.53100E-01-3.38957E+00-3.65805E-13 3.98348E-13
 -1      2173 3.76877E+01 5.06055E+00 2.72850E-01-2.32939E+00-3.74228E-13 2.91711E-13
 -1      2174 2.89417E+01 9.85947E-01-5.16030E-03-5.16926E+00-6.02074E-13 2.85882E-13
 -1      2175 3.32827E+01 2.46633E+00 2.75862E-01-4.84888E+00-3.94587E-13 3.91909E-13
 -1      2176 2.13060E+01-2.22735E+00-1.73932E-01-6.14377E+00-6.94500E-13 1.40832E-13
 -1      2177 2.60512E+01-3.51086E-01 1.76296E-01-6.45659E+00-7.13762E-13 5.21805E-14
 -1      2178 1.39405E+01-5.12818E+00-2.76924E-01-6.31695E+00-4.06786E-13 3.43031E-13
 -1      2179 1.82825E+01-3.33461E+00 2.87786E-02-6.99859E+00-5.31020E-13 1.38500E-13
 -1      2180 7.18170E+00-6.39509E+00-3.23823E-01-5.50284E+00-2.07112E-13 6.49175E-13
 -1      2181 1.06239E+01-4.98489E+00-9.92747E-02-6.54173E+00-3.87024E-13 6.74238E-13
 -1      2182 1.51626E+01-5.50914E+00-5.13749E-02-7.03038E+00-3.87468E-14 1.40025E-13
 -1      2183 1.66865E+00-6.86179E+00-3.59621E-01-2.96857E+00-7.98528E-14 8.89622E-13
 -1      2184 3.53853E+00-6.25304E+00-2.78854E-01-4.39760E+00-2.35090E-13 9.25038E-13
 -1      2185 3.43638E+01 1.69855E+00 1.13834E-01 2.44399E+00 5.22351E-13 3.18745E-13
 -1      2186 3.06736E+01 5.50034E-03-3.25254E-02 3.29233E+00 5.00100E-13 2.99538E-13
 -1      2187 2.95986E+01-2.30111E+00 1.30924E-01 2.46685E+00 1.93956E-13 7.07767E-14
 -1      2188 2.07268E+01 1.10895E+00-2.01307E-02-1.58780E+00-1.63612E-13 3.87156E-14
 -1      2189 3.61794E+01 5.70885E+00 3.47716E-01 1.43281E-01 5.91249E-13 2.07445E-13
 -1      2190 3.40643E+01 2.46106E+00 1.16090E-01 2.20247E-02 4.53804E-13 2.08611E-13
 -1      2191 2.06293E+01 1.33196E+00-1.90959E-02-1.64049E+00-1.66662E-13-4.83918E-14
 -1      2192 6.88569E+00-5.14468E+00-8.61368E-02 5.39799E+00 1.22069E-13 3.68372E-13
 -1      2193 1.53571E+01-5.75775E+00-2.12024E-02 6.63627E+00 2.17049E-14 4.14876E-13
 -1      2194 2.00062E+01 1.21730E-02 7.81471E-05-9.14179E-03-1.62027E-13-7.84106E-14
 -1      2195 2.40184E+00-4.58332E+00-1.40151E-01-2.36920E+00-9.11632E-14 8.79852E-13
 -1      2196 7.53864E+00-5.24198E+00-1.14608E-01-6.01810E+00 3.23075E-14 7.05380E-13
 -1      2197 2.19798E+01-4.41737E+00-3.42346E-03-5.88807E+00-2.52243E-13-9.31477E-14
 -1      2198 2.85247E+01-1.27082E+00 1.37594E-01-4.02903E+00-5.08260E-13 7.56617E-14
 -1      2199 3.50360E+01 6.14816E+00 2.70421E-01-3.05527E-02-3.71703E-13 3.33539E-13
 -1      2200 3.53256E+01 7.17919E+00 2.52476E-01 1.86348E-02-5.22082E-13 1.58040E-13
 -1      2201 3.41853E+01 4.01307E+00 2.78593E-01 6.58789E-01-4.64934E-13 1.40110E-13
 -1      2202 3.07391E+01 2.23716E-02 1.80861E-01 2.75312E+00-4.08437E-13 1.14242E-13
 -1      2203 2.48958E+01-3.27822E+00 8.70937E-02 5.18996E+00-1.64702E-13-3.10862E-14
 -1      2204 1.71046E+01-5.17881E+00-3.34874E-02 6.80163E+00-8.91509E-14-2.74392E-13
 -1      2205 9.01370E+00-5.72282E+00-1.71805E-01 6.44429E+00-2.23710E-14-4.04926E-13
 -1      2206 3.35454E+00-5.27544E+00-2.19053E-01 3.96339E+00-4.37150E-14-4.78617E-13
 -1      2207 1.78528E+00-4.66343E+00-1.58559E-01-3.22998E-01-7.52037E-14-4.65405E-13
 -1      2208 4.61708E+00-5.12601E+00-1.63438E-01-4.34091E+00-5.43454E-14-3.18412E-13
 -1      2209 1.10703E+01-5.83187E+00-1.20567E-01-6.43767E+00-7.56062E-14-2.20851E-13
 -1      2210 1.97897E+01-5.27340E+00-2.82341E-02-6.12508E+00-1.33782E-13-3.34871E-13
 -1      2211 2.80754E+01-2.69488E+00 9.79777E-02-3.84787E+00 1.56541E-13 4.45199E-14
 -1      2212 3.37533E+01 1.58467E+00 2.50003E-01-1.17675E+00 3.79065E-13 2.38587E-13
 -1      2213 3.62505E+01 6.84310E+00 3.09027E-01-3.46000E-01 4.71678E-13 1.82576E-13
 -1      2214 3.64129E+01 7.77581E+00 3.10855E-01 8.85023E-02 4.25160E-13 2.78624E-13
 -1      2215 3.31386E+01 2.47014E+00 2.55953E-01-1.70346E+00-3.67956E-13 3.43614E-13
 -1      2216 2.01724E+01 5.17813E-01 4.39120E-03 6.32718E-01 1.47646E-13 2.35563E-13
 -1      2217 2.04279E+01 7.08011E-01 2.08585E-02 9.29130E-01 1.59815E-13 2.50614E-13
 -1      2218 1.95598E+01 3.57209E+00-1.12938E-02-5.64422E-01 1.44673E-14-2.42803E-13
 -1      2219 1.95989E+01 3.52278E+00-1.02777E-02-7.42928E-01-8.47065E-15-2.61680E-13
 -1      2220 1.96491E+01 3.42772E+00-1.30362E-02-9.01881E-01-1.54292E-14-2.63541E-13
 -1      2221 1.97137E+01 3.34245E+00-1.26437E-02-1.08715E+00-4.75690E-14-2.48177E-13
 -1      2222 1.97879E+01 3.09389E+00 5.36748E-04-7.51627E-01-6.27216E-15-2.39726E-13
 -1      2223 1.95069E+01 3.66272E+00-9.58194E-03 9.54293E-02 1.12024E-13-2.18695E-13
 -1      2224 1.95061E+01 3.66353E+00-9.58362E-03-7.65600E-02 9.15550E-14-2.31797E-13
 -1      2225 1.95366E+01 3.61995E+00-9.58739E-03 4.25652E-01 1.40202E-13-2.02963E-13
 -1      2226 1.95168E+01 3.64436E+00-1.02020E-02 2.51881E-01 1.19791E-13-2.20731E-13
 -1      2227 1.96675E+01 3.29899E+00-4.07141E-04 1.60090E-01 1.10439E-13-2.08867E-13
 -1      2228 1.96051E+01 3.51559E+00-1.03921E-02 7.56332E-01 1.72986E-13-1.71585E-13
 -1      2229 1.95651E+01 3.56597E+00-1.13743E-02 5.80627E-01 1.45599E-13-1.89451E-13
 -1      2230 1.97094E+01 3.22982E+00-5.12261E-05 4.61259E-01 1.41890E-13-1.87207E-13
 -1      2231 1.97236E+01 3.33034E+00-1.26620E-02 1.10006E+00 2.23056E-13-9.30098E-14
 -1      2232 1.96570E+01 3.41828E+00-1.31161E-02 9.14747E-01 1.86215E-13-1.28710E-13
 -1      2233 1.97949E+01 3.08545E+00 6.18471E-04 7.62852E-01 1.71965E-13-1.38696E-13
 -1      2234 1.99085E+01 3.03130E+00-1.78388E-02 1.44259E+00 2.47071E-13-5.24025E-14
 -1      2235 1.98065E+01 3.17771E+00-1.54523E-02 1.25384E+00 2.29695E-13-8.21296E-14
 -1      2236 1.99334E+01 2.84586E+00 2.17754E-03 1.05986E+00 2.15413E-13-7.03998E-14
 -1      2237 2.01865E+01 2.55841E+00-2.81240E-02 1.74788E+00 2.60400E-13 2.87634E-14
 -1      2238 2.00363E+01 2.80276E+00-1.73022E-02 1.57284E+00 2.54607E-13-1.97811E-14
 -1      2239 2.01345E+01 2.47940E+00 5.94275E-03 1.32273E+00 2.32707E-13-2.61006E-14
 -1      2240 1.99221E+01 2.86964E-01 5.63739E-03 2.24317E-01 1.27278E-13 1.89963E-13
 -1      2241 2.00661E+01 3.82784E-01 2.02904E-02 3.89408E-01 1.35000E-13 2.18421E-13
 -1      2242 2.02426E+01 6.53043E-01-2.69844E-03 6.44969E-01 1.54367E-13 1.18825E-13
 -1      2243 2.04206E+01 8.67023E-01 1.26055E-02-9.50888E-01-1.03638E-13-8.17632E-14
 -1      2244 2.02226E+01 6.46329E-01-3.10538E-03-6.35387E-01-9.53395E-14-6.94093E-14
 -1      2245 3.30040E+01 3.67861E+00-9.57300E-02 1.16218E+00 5.04485E-13 2.60625E-13
 -1      2246 3.28736E+01 5.33049E+00-1.93991E-01 1.23468E+00 5.27134E-13 2.55768E-13
 -1      2247 2.01625E+01 4.91905E-01 1.55523E-02-4.08830E-01-9.38893E-14-6.04922E-14
 -1      2248 2.00390E+01 3.72583E-01 1.00205E-03-2.27395E-01-8.44411E-14-6.21041E-14
 -1      2249 2.02781E+01 7.75001E-01-1.77807E-03-6.22148E-01-1.00227E-13-1.11688E-13
 -1      2250 1.99863E+01 2.92242E-01 1.07397E-02-7.65955E-02-8.01075E-14-3.54864E-14
 -1      2251 1.99288E+01 2.26791E-01 1.81244E-03 3.44757E-02-7.86894E-14-4.37456E-14
 -1      2252 2.01351E+01 4.56178E-01-4.34494E-03-2.15041E-01-7.62553E-14-7.77840E-14
 -1      2253 1.98991E+01 1.82882E-01 6.40705E-03 1.34709E-01-7.10752E-14-4.63109E-14
 -1      2254 1.98916E+01 1.47316E-01 2.11587E-03 2.06297E-01-6.03998E-14-3.03525E-14
 -1      2255 2.00411E+01 2.82577E-01-4.21909E-03 5.78361E-02-7.19745E-14-6.71478E-14
 -1      2256 1.98848E+01 1.23650E-01 3.64120E-03 2.75444E-01-5.34082E-14-1.52906E-14
 -1      2257 1.99134E+01 1.05587E-01 2.31605E-03 3.25238E-01-4.56950E-14-3.20561E-14
 -1      2258 2.00006E+01 1.86930E-01-3.58113E-03 2.42719E-01-7.13354E-14-4.37974E-14
 -1      2259 1.99262E+01 9.39867E-02 1.96678E-03 3.76714E-01-6.42774E-14-2.66558E-14
 -1      2260 1.99812E+01 8.65350E-02 2.48505E-03 4.15319E-01-4.80984E-14-1.41763E-14
 -1      2261 2.00064E+01 1.37126E-01-2.87826E-03 3.74803E-01-5.92073E-14-2.35225E-14
 -1      2262 2.00105E+01 8.21807E-02 9.62856E-04 4.57938E-01-2.67891E-14-4.53176E-14
 -1      2263 2.00861E+01 8.08593E-02 2.60761E-03 4.91729E-01-5.30842E-14-3.72494E-14
 -1      2264 2.00501E+01 1.14917E-01-2.31620E-03 4.77693E-01-6.60508E-14-5.78987E-14
 -1      2265 2.01297E+01 8.02450E-02 4.00310E-04 5.30931E-01-1.21912E-13-1.64777E-14
 -1      2266 2.02225E+01 8.14170E-02 2.63137E-03 5.63268E-01-1.41850E-13-2.65081E-14
 -1      2267 2.01254E+01 1.08515E-01-1.93702E-03 5.66698E-01-8.72755E-14-7.49961E-14
 -1      2268 2.02793E+01 8.13359E-02 1.60081E-04 6.01644E-01-1.21606E-13-1.93219E-14
 -1      2269 2.03873E+01 8.13502E-02 2.46284E-03 6.33237E-01-7.13480E-14-3.54627E-14
 -1      2270 2.02284E+01 1.08445E-01-1.73001E-03 6.50559E-01-1.35699E-13-2.11930E-14
 -1      2271 2.04578E+01 7.82928E-02 1.89175E-04 6.70589E-01-6.91986E-14-1.91845E-14
 -1      2272 2.05791E+01 7.29334E-02 1.96699E-03 6.99385E-01-7.30197E-14-3.20708E-14
 -1      2273 2.03578E+01 1.05316E-01-1.68289E-03 7.32101E-01-7.93703E-14 8.95906E-15
 -1      2274 2.06648E+01 6.27088E-02 4.78596E-04 7.32416E-01-2.63404E-14-2.61096E-15
 -1      2275 2.07973E+01 4.68933E-02 9.73169E-04 7.53197E-01 3.19456E-14-1.27975E-14
 -1      2276 2.05147E+01 8.84389E-02-1.79999E-03 8.08042E-01-3.71679E-14 1.08319E-13
 -1      2277 2.09010E+01 2.45327E-02 1.04413E-03 7.74976E-01 3.97615E-14-2.43545E-14
 -1      2278 2.10411E+01-7.55662E-03-7.03629E-04 7.78915E-01-6.93204E-15-2.18629E-16
 -1      2279 2.07022E+01 4.51315E-02-2.10204E-03 8.68193E-01 1.32719E-14 3.62373E-14
 -1      2280 2.11666E+01-4.73242E-02 1.89155E-03 7.78296E-01-6.34921E-14 1.23194E-14
 -1      2281 2.13083E+01-1.01215E-01-3.20900E-03 7.52870E-01-2.79956E-14-2.02990E-14
 -1      2282 2.09255E+01-3.88283E-02-2.60180E-03 8.94363E-01-3.87001E-14 2.10010E-15
 -1      2283 2.14596E+01-1.62352E-01 2.94263E-03 7.14337E-01-7.75226E-15-6.29325E-14
 -1      2284 2.15935E+01-2.40573E-01-6.51954E-03 6.44370E-01-1.74331E-14-5.81867E-14
 -1      2285 2.11909E+01-1.76458E-01-3.23572E-03 8.59588E-01-5.46860E-14 4.33239E-14
 -1      2286 2.17721E+01-3.22162E-01 3.91803E-03 5.49234E-01-2.30916E-14-1.63937E-14
 -1      2287 2.18847E+01-4.19014E-01-1.02272E-02 4.20338E-01-3.18560E-14 8.81473E-15
 -1      2288 2.15035E+01-3.72653E-01-3.71526E-03 7.28915E-01-1.64285E-14 8.12221E-14
 -1      2289 2.20840E+01-5.09318E-01 4.05692E-03 2.51321E-01-1.63964E-14-2.75417E-14
 -1      2290 2.21573E+01-6.03290E-01-1.31323E-02 5.72806E-02 7.56686E-15 2.80927E-14
 -1      2291 2.18603E+01-6.10854E-01-3.36312E-03 4.64503E-01-3.67282E-14 6.14021E-14
 -1      2292 2.23546E+01-6.72656E-01 2.50292E-03-1.90908E-01-7.10543E-14 4.11406E-15
 -1      2293 2.23679E+01-7.20628E-01-1.29864E-02-4.35846E-01-1.02050E-13-7.74890E-15
 -1      2294 2.22381E+01-8.35573E-01-1.13830E-03 3.98909E-02-4.86333E-14 6.66275E-14
 -1      2295 2.25176E+01-7.20045E-01-1.96590E-03-7.38365E-01-8.49243E-14 2.37534E-14
 -1      2296 2.24552E+01-6.62332E-01-7.38076E-03-9.85934E-01-3.89693E-14 2.63190E-15
 -1      2297 2.25790E+01-9.38190E-01 4.12281E-03-5.31269E-01-9.13644E-14 9.73532E-14
 -1      2298 2.24951E+01-5.37471E-01-9.72830E-03-1.26683E+00-4.24335E-14 8.03730E-15
 -1      2299 2.23596E+01-3.28224E-01 4.17529E-03-1.42963E+00-1.03859E-14-7.55216E-14
 -1      2300 2.27865E+01-7.73283E-01 1.09514E-02-1.15356E+00-4.71689E-14 9.46813E-14
 -1      2301 2.22495E+01-6.13374E-02-1.68540E-02-1.56013E+00 3.31433E-14-9.58192E-14
 -1      2302 2.20746E+01 2.73449E-01 1.70005E-02-1.53525E+00 4.24437E-14-6.13424E-14
 -1      2303 2.27588E+01-2.42320E-01 1.28306E-02-1.61643E+00-4.30237E-14 1.06682E-13
 -1      2304 2.18594E+01 6.08767E-01-1.65179E-02-1.38877E+00-1.52135E-14-1.09350E-13
 -1      2305 2.17104E+01 9.34356E-01 2.11416E-02-1.12303E+00-3.53797E-14-1.22184E-13
 -1      2306 2.24866E+01 5.81200E-01 6.36492E-03-1.63553E+00-3.63901E-14 1.48528E-14
 -1      2307 2.15333E+01 1.17129E+00-6.78331E-03-6.85465E-01-3.33249E-14-1.82551E-13
 -1      2308 2.14779E+01 1.30099E+00 8.99784E-03-2.46481E-01-1.13255E-13-2.80911E-13
 -1      2309 2.21356E+01 1.36419E+00-8.80286E-03-1.03394E+00-1.28280E-13-1.99397E-13
 -1      2310 2.14847E+01 1.29511E+00 1.05226E-02 3.08801E-01-1.41615E-13-2.94032E-13
 -1      2311 2.15470E+01 1.15128E+00-7.31457E-03 7.43490E-01-9.04511E-14-3.67658E-13
 -1      2312 2.19809E+01 1.67623E+00-1.73262E-02 3.74112E-02-1.57681E-13-2.22186E-13
 -1      2313 2.17331E+01 9.04820E-01 2.13830E-02 1.16881E+00-4.11225E-14-4.28022E-13
 -1      2314 2.18879E+01 5.75225E-01-1.66243E-02 1.42299E+00-2.05161E-14-3.54785E-13
 -1      2315 2.21551E+01 1.33844E+00-5.69204E-03 1.09158E+00-1.16637E-13-2.58632E-13
 -1      2316 2.21027E+01 2.39904E-01 1.63099E-02 1.55443E+00-2.71326E-14-3.40798E-13
 -1      2317 2.22799E+01-9.04232E-02-1.67372E-02 1.56801E+00-1.93326E-14-1.88478E-13
 -1      2318 2.25125E+01 5.37525E-01 6.45808E-03 1.66320E+00-5.11427E-14-2.70071E-13
 -1      2319 2.23832E+01-3.49278E-01 3.05637E-03 1.42712E+00-7.25132E-14-2.20841E-13
 -1      2320 2.25193E+01-5.48400E-01-9.19964E-03 1.25938E+00-5.32083E-15-2.03640E-13
 -1      2321 2.27779E+01-2.74445E-01 1.27638E-02 1.61655E+00-6.02941E-14-1.94749E-13
 -1      2322 2.24743E+01-6.64369E-01-8.17482E-03 9.77513E-01 5.51291E-14-2.15781E-13
 -1      2323 2.25371E+01-7.13391E-01-1.75449E-03 7.31322E-01 1.03742E-13-1.63180E-13
 -1      2324 2.27950E+01-7.82730E-01 9.77546E-03 1.14327E+00 2.29821E-14-1.74165E-13
 -1      2325 2.23866E+01-7.07300E-01-1.33483E-02 4.34534E-01 8.19080E-14-2.65604E-13
 -1      2326 2.23756E+01-6.53740E-01 2.80962E-03 1.95719E-01 7.75352E-14-1.88252E-13
 -1      2327 2.25837E+01-9.25118E-01 3.25125E-03 5.27200E-01 5.35261E-14-8.93179E-14
 -1      2328 2.21812E+01-5.80621E-01-1.30911E-02-4.30312E-02 7.32240E-14-1.22140E-13
 -1      2329 2.21133E+01-4.83937E-01 4.44666E-03-2.28225E-01 1.26032E-13-1.90478E-14
 -1      2330 2.22460E+01-8.08298E-01-1.54400E-03-2.74472E-02 1.38219E-13-8.85938E-14
 -1      2331 2.19198E+01-3.92202E-01-1.00454E-02-3.86312E-01 1.13511E-13-9.46794E-14
 -1      2332 2.18156E+01-2.94378E-01 4.27195E-03-5.05279E-01 4.70678E-14-3.68092E-14
 -1      2333 2.18777E+01-5.76635E-01-3.60390E-03-4.30419E-01 8.26471E-14-5.62800E-14
 -1      2334 2.16446E+01-2.12330E-01-6.33788E-03-5.89148E-01-7.64348E-14-6.23244E-14
 -1      2335 2.15224E+01-1.33667E-01 3.37441E-03-6.48765E-01-1.56425E-13-1.30855E-13
 -1      2336 2.15347E+01-3.35678E-01-3.83020E-03-6.71652E-01-3.86233E-14-2.24806E-14
 -1      2337 2.13797E+01-7.22926E-02-3.07522E-03-6.75945E-01-2.02620E-13-1.80192E-13
 -1      2338 2.12529E+01-1.79595E-02 2.38643E-03-6.90787E-01-1.44022E-13-2.02223E-13
 -1      2339 2.12385E+01-1.38465E-01-3.30323E-03-7.78832E-01-1.88424E-13-2.66310E-15
 -1      2340 2.11368E+01 2.20562E-02-6.39280E-04-6.79930E-01-4.91366E-14-1.13935E-13
 -1      2341 2.10147E+01 5.46219E-02 1.57910E-03-6.65235E-01 9.47173E-14-1.48121E-13
 -1      2342 2.09915E+01 2.68381E-05-2.63964E-03-7.89904E-01-5.15086E-14 7.82661E-14
 -1      2343 2.09211E+01 7.71141E-02 9.63332E-04-6.31969E-01 1.62825E-13-1.01393E-13
 -1      2344 2.08093E+01 9.31659E-02 1.00719E-03-6.00449E-01 1.11240E-13-4.15184E-14
 -1      2345 2.07882E+01 8.47413E-02-2.08676E-03-7.39950E-01 1.16503E-13 1.19321E-13
 -1      2346 2.07339E+01 1.03050E-01 1.87874E-03-5.56326E-01 6.76166E-14-4.97042E-14
 -1      2347 2.06356E+01 1.07900E-01 6.36128E-04-5.17296E-01 9.81018E-14 7.08334E-14
 -1      2348 2.06216E+01 1.28000E-01-1.68616E-03-6.56565E-01 1.29919E-13 5.60783E-14
 -1      2349 2.05749E+01 1.09582E-01 2.28862E-03-4.70121E-01 1.51653E-14-9.61872E-14
 -1      2350 2.04911E+01 1.07567E-01 4.08816E-04-4.29763E-01-4.71088E-14-1.78994E-13
 -1      2351 2.04856E+01 1.42726E-01-1.40511E-03-5.59385E-01-1.34134E-14-1.05894E-13
 -1      2352 2.04425E+01 1.04437E-01 2.35883E-03-3.84365E-01 8.80403E-14-2.38968E-13
 -1      2353 2.03730E+01 9.87128E-02 2.74883E-04-3.46384E-01 1.14324E-13-1.51584E-13
 -1      2354 2.03751E+01 1.39673E-01-1.19943E-03-4.61256E-01-4.79528E-14-1.16414E-13
 -1      2355 2.03343E+01 9.31472E-02 2.22157E-03-3.05425E-01 9.41107E-14-5.27998E-14
 -1      2356 2.02780E+01 8.58325E-02 1.97810E-04-2.71749E-01 5.94244E-14 6.82699E-14
 -1      2357 2.02858E+01 1.26778E-01-1.03530E-03-3.69828E-01 2.22953E-13-6.62058E-14
 -1      2358 2.02474E+01 7.93811E-02 1.97305E-03-2.36415E-01 1.13077E-14 1.77291E-13
 -1      2359 2.02030E+01 7.18037E-02 1.53987E-04-2.07786E-01 1.17849E-13 2.35388E-13
 -1      2360 2.02145E+01 1.09443E-01-8.92495E-04-2.89044E-01 1.94270E-13 9.50100E-14
 -1      2361 2.01791E+01 6.54112E-02 1.67851E-03-1.78314E-01 6.65484E-14 4.48957E-13
 -1      2362 2.01448E+01 5.83386E-02 1.28969E-04-1.54733E-01 1.96952E-13 4.17072E-13
 -1      2363 2.01581E+01 9.10936E-02-7.61421E-04-2.20370E-01 1.61971E-13 2.88125E-13
 -1      2364 2.01264E+01 5.25309E-02 1.37927E-03-1.30796E-01 4.09323E-13 3.02356E-13
 -1      2365 2.01005E+01 4.63525E-02 1.13149E-04-1.11846E-01 4.43019E-13 2.48876E-13
 -1      2366 2.01142E+01 7.37442E-02-6.38780E-04-1.63712E-01 1.69502E-13 4.86029E-13
 -1      2367 2.00865E+01 4.13765E-02 1.09831E-03-9.28222E-02 3.60044E-13 1.96311E-13
 -1      2368 2.00674E+01 3.62383E-02 1.00310E-04-7.78887E-02 3.19170E-13 3.00583E-13
 -1      2369 2.00805E+01 5.84412E-02-5.24262E-04-1.18086E-01 3.83531E-13 2.29187E-13
 -1      2370 2.00568E+01 3.21598E-02 8.45717E-04-6.30385E-02 1.84059E-13 3.11211E-13
 -1      2371 2.00432E+01 2.80447E-02 9.23195E-05-5.14626E-02 1.00282E-14 3.04051E-13
 -1      2372 2.00549E+01 4.56109E-02-4.14248E-04-8.20862E-02 2.13788E-13 7.46744E-14
 -1      2373 2.00352E+01 2.46551E-02 6.00945E-04-4.00425E-02-2.73695E-13 2.42543E-13
 -1      2374 2.00259E+01 2.15636E-02 1.67258E-04-3.13067E-02-3.62573E-13 2.08822E-13
 -1      2375 2.00357E+01 3.52121E-02-3.09543E-04-5.41782E-02-7.68415E-14 6.12544E-16
 -1      2376 1.97602E+01 1.10373E-01 3.65810E-03-1.83630E-01 6.17134E-14 8.51482E-14
 -1      2377 1.97569E+01 1.36316E-01 7.20596E-03-1.21296E-01 9.69935E-14 1.34047E-13
 -1      2378 1.98024E+01 8.13809E-02 3.40936E-03-2.93661E-01 5.23927E-14 4.62945E-14
 -1      2379 1.97580E+01 9.31972E-02 4.08260E-03-2.49416E-01 3.03333E-14 5.56408E-14
 -1      2380 1.99004E+01 1.46937E-01-3.96391E-03-2.26399E-01 8.42223E-14 3.43180E-14
 -1      2381 1.99013E+01 7.19857E-02 3.51907E-03-3.80296E-01 6.14520E-14 4.25714E-14
 -1      2382 1.98263E+01 7.45937E-02 2.32535E-03-3.43586E-01 6.04361E-14 5.16863E-14
 -1      2383 1.99233E+01 1.11770E-01-3.23081E-03-3.55121E-01 6.46163E-14 1.04674E-14
 -1      2384 2.00466E+01 7.60923E-02 3.86571E-03-4.60717E-01 5.82381E-14 6.68694E-14
 -1      2385 1.99461E+01 7.22094E-02 1.33177E-03-4.24508E-01 5.34433E-14 6.35710E-14
 -1      2386 1.99938E+01 1.02398E-01-2.63455E-03-4.59984E-01 5.22201E-14 3.54752E-14
 -1      2387 2.02339E+01 8.99063E-02 4.37751E-03-5.46987E-01 2.70877E-15 1.23953E-13
 -1      2388 2.01092E+01 8.13275E-02 7.78212E-04-5.06333E-01 5.05055E-14 1.11103E-13
 -1      2389 2.01034E+01 1.10833E-01-2.23499E-03-5.59464E-01 3.20743E-14 8.77460E-14
 -1      2390 2.04625E+01 1.10258E-01 4.96784E-03-6.47477E-01-4.27305E-14 1.12593E-13
 -1      2391 2.03128E+01 9.86214E-02 4.90880E-04-5.99023E-01-1.59260E-14 9.32201E-14
 -1      2392 2.02474E+01 1.31835E-01-2.00209E-03-6.66610E-01 1.58792E-15 7.90690E-14
 -1      2393 2.07347E+01 1.33294E-01 5.49175E-03-7.66984E-01-1.54876E-14 6.39856E-14
 -1      2394 2.05577E+01 1.20760E-01 3.67691E-04-7.09093E-01-4.01354E-14 7.66080E-14
 -1      2395 2.04243E+01 1.60667E-01-1.89735E-03-7.90247E-01-1.03006E-14-8.60959E-15
 -1      2396 2.10541E+01 1.52941E-01 5.70382E-03-9.05625E-01 1.49291E-13 1.64256E-14
 -1      2397 2.08473E+01 1.43054E-01 3.53945E-04-8.39148E-01 6.38651E-14 3.00776E-14
 -1      2398 2.06348E+01 1.91180E-01-1.91190E-03-9.34900E-01 4.57697E-14-5.76528E-14
 -1      2399 2.14242E+01 1.58806E-01 5.21421E-03-1.05625E+00 5.56983E-14-2.50592E-15
 -1      2400 2.11862E+01 1.57674E-01 4.48151E-04-9.86094E-01 1.01503E-13 3.38324E-14
 -1      2401 2.08817E+01 2.13508E-01-2.10148E-03-1.09945E+00 1.01209E-13-1.42437E-14
 -1      2402 2.18479E+01 1.33526E-01 3.46321E-03-1.19997E+00-3.00996E-15 9.95364E-14
 -1      2403 2.15803E+01 1.51248E-01 7.30645E-04-1.13767E+00 3.44605E-14 6.24350E-14
 -1      2404 2.11705E+01 2.10998E-01-2.62759E-03-1.27423E+00 1.43068E-14 1.16809E-14
 -1      2405 2.23267E+01 5.05196E-02-2.34384E-04-1.29987E+00 3.18677E-14 1.22674E-13
 -1      2406 2.20360E+01 1.02176E-01 1.40604E-03-1.26693E+00 1.75310E-14 1.25570E-13
 -1      2407 2.15112E+01 1.56688E-01-3.79256E-03-1.43624E+00 8.40427E-15 1.24106E-14
 -1      2408 2.28596E+01-1.24497E-01-6.50128E-03-1.29397E+00 9.50151E-14 1.15742E-13
 -1      2409 2.25603E+01-2.04845E-02 2.81879E-03-1.32487E+00 1.05653E-13 1.67852E-13
 -1      2410 2.19218E+01 1.12822E-02-5.99132E-03-1.54237E+00 5.01504E-14 5.48265E-14
 -1      2411 2.34405E+01-4.19565E-01-1.53696E-02-1.09240E+00 6.98807E-14 1.72735E-14
 -1      2412 2.31588E+01-2.51174E-01 5.21452E-03-1.23337E+00 1.16195E-13 9.62746E-14
 -1      2413 2.24323E+01-2.71512E-01-9.42937E-03-1.52143E+00 1.17484E-13 4.22957E-14
 -1      2414 2.40464E+01-8.16611E-01-2.49872E-02-5.92197E-01-4.89817E-14 3.20215E-14
 -1      2415 2.38236E+01-6.03213E-01 7.69922E-03-8.87512E-01-1.14058E-15 3.74813E-14
 -1      2416 2.30807E+01-7.17226E-01-1.32773E-02-1.26972E+00 2.85288E-14 5.29479E-14
 -1      2417 2.46104E+01-1.18219E+00-3.04694E-02 2.64991E-01-1.39839E-13 4.60189E-14
 -1      2418 2.45044E+01-1.01270E+00 7.45040E-03-1.88848E-01-1.41860E-13 7.72650E-14
 -1      2419 2.38858E+01-1.26571E+00-1.48818E-02-6.67567E-01-1.13422E-13 1.54567E-13
 -1      2420 2.49935E+01-1.19788E+00-2.24885E-02 1.37867E+00 6.33174E-15 1.31718E-13
 -1      2421 2.50643E+01-1.26318E+00-1.61608E-03 8.63840E-01-6.42741E-14 9.58112E-14
 -1      2422 2.47867E+01-1.67822E+00-1.08211E-02 3.53053E-01-1.31180E-13 2.32184E-13
 -1      2423 2.49931E+01-4.86950E-01-2.21640E-03 2.29916E+00 1.45789E-13 1.80545E-13
 -1      2424 2.52450E+01-9.57936E-01-2.79827E-02 1.98419E+00 8.07063E-14 1.22735E-13
 -1      2425 2.55449E+01-1.45071E+00 1.65491E-03 1.64796E+00 4.69342E-14 3.11442E-13
 -1      2426 2.45452E+01 9.38478E-01 1.03652E-02 2.29508E+00 1.66585E-13 1.69895E-13
 -1      2427 2.48766E+01 1.64125E-01-6.02442E-02 2.50404E+00 2.28401E-13 1.94487E-13
 -1      2428 2.57901E+01-2.06721E-01-1.12813E-02 2.61506E+00 1.69850E-13 2.39666E-13
 -1      2429 2.40251E+01 2.10852E+00-2.21031E-02 9.41049E-01-9.41330E-14 2.19593E-13
 -1      2430 2.42089E+01 1.59883E+00-7.89298E-02 1.67754E+00 2.24404E-14 1.99590E-13
 -1      2431 2.54315E+01 1.73503E+00-1.70759E-02 2.31996E+00 1.01197E-13 2.39794E-13
 -1      2432 2.40345E+01 1.97917E+00-7.46166E-02-1.07652E+00 7.56201E-14 2.79186E-14
 -1      2433 2.39614E+01 2.24656E+00-3.63992E-02-2.40293E-01-1.22680E-14 1.40919E-13
 -1      2434 2.51669E+01 3.03231E+00 1.40678E-03 4.10286E-01 6.26721E-14 4.36253E-14
 -1      2435 2.46552E+01 6.74900E-01-6.86678E-02-2.38577E+00 2.17947E-13-1.91213E-13
 -1      2436 2.43458E+01 1.44641E+00 6.70455E-03-1.98194E+00 1.90549E-13-1.10322E-13
 -1      2437 2.53214E+01 2.41621E+00 3.62138E-03-1.83924E+00 1.83159E-13-1.59747E-13
 -1      2438 2.51931E+01-6.24773E-01-3.36310E-02-2.30482E+00 1.62719E-13-3.28530E-13
 -1      2439 2.48763E+01-2.51604E-02 5.60926E-03-2.44304E+00 2.35765E-13-2.28555E-13
 -1      2440 2.57183E+01 5.16962E-01-3.01333E-02-2.77501E+00 2.95472E-13-2.60798E-13
 -1      2441 2.52110E+01-1.22605E+00-5.57228E-03-1.30110E+00-6.92554E-14-4.04286E-13
 -1      2442 2.50532E+01-1.04704E+00-2.25270E-02-1.76524E+00 5.67959E-16-4.36306E-13
 -1      2443 2.57071E+01-1.16214E+00-1.52092E-02-2.11194E+00 1.22706E-13-4.31440E-13
 -1      2444 2.47616E+01-1.12751E+00 8.84757E-03-1.76008E-01-1.29532E-13-1.43474E-13
 -1      2445 2.47991E+01-1.24261E+00-2.96496E-02-6.54494E-01-1.08454E-13-3.41014E-13
 -1      2446 2.51090E+01-1.69199E+00-7.27224E-03-8.21430E-01-1.27377E-13-4.64856E-13
 -1      2447 2.41082E+01-7.39452E-01 1.00051E-02 6.53933E-01 6.41830E-14 5.07892E-14
 -1      2448 2.42876E+01-9.51069E-01-2.64291E-02 3.13168E-01-5.19463E-14-1.00187E-13
 -1      2449 2.42265E+01-1.44319E+00-1.50984E-02 3.29797E-01-1.25750E-13-3.58111E-13
 -1      2450 2.34394E+01-3.53036E-01 6.56960E-03 1.10922E+00 2.54024E-13-8.45465E-14
 -1      2451 2.36976E+01-5.38922E-01-1.73969E-02 9.27455E-01 2.65671E-13 9.13648E-14
 -1      2452 2.33806E+01-8.98087E-01-1.54208E-02 1.06989E+00 1.08337E-13-1.87626E-13
 -1      2453 2.28318E+01-7.73405E-02 3.42970E-03 1.26882E+00 1.91327E-13-4.02380E-13
 -1      2454 2.31188E+01-2.01044E-01-8.48451E-03 1.21077E+00 2.19674E-13-1.67439E-13
 -1      2455 2.26888E+01-3.96839E-01-1.15810E-02 1.42055E+00 3.38913E-13-1.30721E-13
 -1      2456 2.23032E+01 8.20815E-02 1.65724E-03 1.24136E+00-1.05257E-13-4.22555E-13
 -1      2457 2.25864E+01 1.49244E-02-1.75886E-03 1.26081E+00-1.01319E-16-3.49391E-13
 -1      2458 2.21492E+01-5.27598E-02-7.32745E-03 1.49632E+00 1.22299E-13-1.20436E-13
 -1      2459 2.18507E+01 1.55825E-01 8.74877E-04 1.11554E+00 1.44642E-13-2.94473E-13
 -1      2460 2.21114E+01 1.27752E-01 2.45266E-03 1.17483E+00-8.12521E-14-3.60654E-13
 -1      2461 2.17253E+01 1.39967E-01-4.33794E-03 1.40965E+00-9.15854E-14 7.89938E-14
 -1      2462 2.14678E+01 1.76851E-01 6.18021E-04 9.50475E-01 1.21079E-13-8.79360E-14
 -1      2463 2.16966E+01 1.71788E-01 4.61251E-03 1.02463E+00 1.49051E-13-1.79800E-13
 -1      2464 2.13838E+01 2.24938E-01-2.68984E-03 1.24305E+00 2.54495E-15 2.97136E-14
 -1      2465 2.11477E+01 1.69701E-01 5.78466E-04 7.80767E-01 3.96085E-14 1.76278E-13
 -1      2466 2.13415E+01 1.76389E-01 5.37604E-03 8.55359E-01 1.58268E-13 5.47886E-14
 -1      2467 2.11030E+01 2.44935E-01-1.91679E-03 1.04912E+00 5.66333E-14 1.94178E-13
 -1      2468 2.08839E+01 1.49833E-01 5.95522E-04 6.24197E-01-1.80681E-13 1.36927E-13
 -1      2469 2.10435E+01 1.61434E-01 5.30615E-03 6.92040E-01-5.89255E-14 1.79474E-13
 -1      2470 2.08700E+01 2.30853E-01-1.59047E-03 8.57943E-01 9.89957E-14 4.18147E-13
 -1      2471 2.06698E+01 1.25966E-01 6.04129E-04 4.88290E-01-1.42918E-13-9.95022E-15
 -1      2472 2.07983E+01 1.38731E-01 4.80511E-03 5.46541E-01-1.93039E-13 3.40061E-14
 -1      2473 2.06773E+01 2.01879E-01-1.44046E-03 6.84665E-01-3.98301E-14 4.76324E-13
 -1      2474 2.04989E+01 1.02556E-01 5.87374E-04 3.74818E-01-3.31002E-13 1.07101E-13
 -1      2475 2.06002E+01 1.14631E-01 4.12845E-03 4.23018E-01-1.65330E-13 2.96192E-14
 -1      2476 2.05194E+01 1.68731E-01-1.33313E-03 5.35381E-01-1.85387E-13 4.18136E-13
 -1      2477 2.03646E+01 8.16072E-02 5.47712E-04 2.82617E-01-3.27035E-13 1.49574E-13
 -1      2478 2.04431E+01 9.22052E-02 3.42328E-03 3.21481E-01-4.39930E-13 1.37758E-13
 -1      2479 2.03918E+01 1.36828E-01-1.21799E-03 4.11078E-01-3.91299E-13 2.60953E-13
 -1      2480 2.02609E+01 6.38101E-02 4.93728E-04 2.09214E-01-1.04388E-13 2.40616E-13
 -1      2481 2.03206E+01 7.27038E-02 2.76564E-03 2.39947E-01-1.56560E-13 1.48124E-13
 -1      2482 2.02902E+01 1.08557E-01-1.08525E-03 3.10111E-01-1.87774E-13 2.80430E-13
 -1      2483 2.01822E+01 4.92021E-02 4.33751E-04 1.51721E-01-1.34140E-13 4.30606E-13
 -1      2484 2.02268E+01 5.64364E-02 2.18833E-03 1.75652E-01-1.73786E-13 3.17041E-13
 -1      2485 2.02107E+01 8.46831E-02-9.40636E-04 2.29667E-01-1.66165E-13 2.27130E-13
 -1      2486 2.01236E+01 3.75307E-02 3.74145E-04 1.07285E-01 1.49433E-13 4.48115E-13
 -1      2487 2.01562E+01 4.32648E-02 1.70026E-03 1.25694E-01 6.51165E-14 4.07009E-13
 -1      2488 2.01496E+01 6.51739E-02-7.94267E-04 1.66578E-01-4.81773E-14 1.75022E-13
 -1      2489 2.00808E+01 2.84354E-02 3.16000E-04 7.33034E-02 2.01938E-13 4.76404E-13
 -1      2490 2.01041E+01 3.28698E-02 1.29652E-03 8.73397E-02 1.32228E-13 5.35012E-13
 -1      2491 2.01033E+01 4.96526E-02-6.51847E-04 1.17758E-01 1.57638E-13 3.88625E-13
 -1      2492 2.00504E+01 2.15180E-02 2.72786E-04 4.75280E-02 5.78500E-14 6.07594E-13
 -1      2493 2.00665E+01 2.48659E-02 9.69094E-04 5.81684E-02 1.16152E-13 6.14326E-13
 -1      2494 2.00690E+01 3.75859E-02-5.20207E-04 8.03982E-02 9.54510E-14 5.58119E-13
 -1      2495 2.00293E+01 1.61829E-02 2.03574E-04 2.80700E-02-7.16780E-14 5.73531E-13
 -1      2496 2.00399E+01 1.87834E-02 6.95339E-04 3.60880E-02 6.06810E-14 6.88483E-13
 -1      2497 2.00439E+01 2.84112E-02-4.08498E-04 5.21467E-02 1.76611E-14 8.74641E-13
 -1      2498 2.00149E+01 1.18020E-02 1.35422E-04 1.38478E-02-1.41126E-13 3.81608E-13
 -1      2499 2.00218E+01 1.40013E-02 5.05944E-04 1.97009E-02-8.54705E-14 5.36204E-13
 -1      2500 2.00259E+01 2.08781E-02-3.99292E-04 3.08480E-02 2.60745E-14 8.80801E-13
 -1      2501 2.00095E+01 9.11983E-03 2.88983E-04 7.61908E-03-1.05919E-13 2.45152E-13
 -1      2502 1.99942E+01 6.82996E-02-3.75818E-04 3.00741E-02 8.77822E-14-1.16349E-13
 -1      2503 1.99979E+01 6.22397E-02 1.72559E-04 3.17040E-02 8.72139E-15-2.93851E-13
 -1      2504 1.99881E+01 8.03178E-02-3.78833E-04 2.23098E-02-3.41546E-15-2.21395E-13
 -1      2505 1.99910E+01 7.57380E-02 3.93642E-05 2.62922E-02 4.87800E-14-1.23627E-13
 -1      2506 1.99903E+01 8.25384E-02 2.86473E-04 3.38651E-02-3.36304E-14-1.14358E-13
 -1      2507 2.00084E+01 3.70377E-02-2.20000E-04 2.89055E-02 8.06585E-14 5.74821E-13
 -1      2508 2.00113E+01 3.06488E-02 2.80787E-04 2.57889E-02-5.83006E-15 5.69309E-13
 -1      2509 2.00015E+01 5.31781E-02-3.17174E-04 3.24045E-02-8.80600E-14-1.65480E-13
 -1      2510 2.00053E+01 4.66057E-02 2.71606E-04 3.14422E-02-1.11708E-13 2.69435E-13
 -1      2511 2.00091E+01 4.86221E-02 1.40862E-04 3.74015E-02-1.91903E-13 2.32595E-13
 -1      2512 1.99996E+01 6.66179E-02 1.71135E-04 3.89576E-02-3.90098E-14-7.43931E-14
 -1      2513 1.99844E+01 8.75544E-02-3.27341E-04 1.05728E-02 3.08990E-14-2.56580E-13
 -1      2514 1.99859E+01 8.51057E-02-1.08384E-04 1.61410E-02 6.69599E-15-1.74096E-13
 -1      2515 1.99830E+01 9.43078E-02 3.72325E-04 2.29236E-02-2.49771E-14-1.17156E-13
 -1      2516 1.99836E+01 8.90651E-02-2.29558E-04-2.99454E-03-2.16581E-14-3.25024E-13
 -1      2517 1.99836E+01 8.91040E-02-2.39908E-04 3.12275E-03 1.86876E-14-3.29105E-13
 -1      2518 1.99791E+01 1.00395E-01 4.12880E-04 8.07514E-03 6.56679E-14-3.01748E-13
 -1      2519 1.99860E+01 8.46814E-02-1.01811E-04-1.59634E-02-3.21469E-14-3.25940E-13
 -1      2520 1.99844E+01 8.72040E-02-3.32076E-04-1.04201E-02-3.55874E-14-2.42221E-13
 -1      2521 1.99791E+01 1.00078E-01 4.05189E-04-8.10458E-03 1.70664E-13-3.18293E-13
 -1      2522 1.99909E+01 7.52658E-02 4.15717E-05-2.58946E-02 4.25960E-13-1.31169E-13
 -1      2523 1.99880E+01 7.97677E-02-3.77125E-04-2.19776E-02 1.68351E-13-3.02886E-13
 -1      2524 1.99830E+01 9.35227E-02 3.59718E-04-2.27371E-02 3.02356E-13-8.89677E-14
 -1      2525 1.99976E+01 6.17784E-02 1.66640E-04-3.13590E-02 5.69057E-13 3.97046E-13
 -1      2526 1.99940E+01 6.77980E-02-3.67123E-04-2.96700E-02 5.15306E-13-3.63201E-14
 -1      2527 1.99901E+01 8.15811E-02 2.63365E-04-3.34668E-02 4.50676E-13 4.13783E-15
 -1      2528 2.00049E+01 4.60098E-02 2.42188E-04-3.10997E-02 2.47341E-13-7.38467E-14
 -1      2529 2.00013E+01 5.27234E-02-2.71932E-04-3.21634E-02 3.91378E-13 3.34223E-13
 -1      2530 1.99991E+01 6.56212E-02 1.44074E-04-3.86382E-02 3.65818E-13 1.15590E-13
 -1      2531 2.00108E+01 3.00548E-02 2.42586E-04-2.57047E-02-3.43593E-13-5.82437E-13
 -1      2532 2.00080E+01 3.67019E-02-1.74130E-04-2.89859E-02-6.18681E-14-4.84070E-13
 -1      2533 2.00078E+01 4.75524E-02-1.39358E-04-3.70944E-02 9.35370E-14-4.54654E-13
 -1      2534 1.87116E+01-5.47506E+00 1.12967E-02 6.37723E+00-1.64369E-13 3.56807E-13
 -1      2535 1.47064E+01-5.04437E+00 1.00646E-01 6.43405E+00-5.59552E-14 2.40599E-13
 -1      2536 2.00101E+01 1.54563E-02 2.73229E-04-1.33800E-02-1.51947E-13-1.42308E-13
 -1      2537 3.37900E+00-2.59712E+00 7.97670E-02-1.39920E+00-1.69587E-13 8.50209E-13
 -1      2538 4.57216E+00-3.02704E+00 5.83939E-02-3.81640E+00-6.64468E-14 9.38249E-13
 -1      2539 1.97921E+01 1.70637E-01 4.47105E-03-2.46278E-02 1.00425E-13 1.48464E-13
 -1      2540 1.98480E+01 2.20766E-01 1.25880E-02 7.32276E-02 1.12215E-13 1.76247E-13
 -1      2541 1.99379E+01 2.22631E-01-4.50419E-03-4.70467E-02 1.23231E-13 8.71902E-14
 -1      2542 4.44541E+00-2.88347E+00 7.27667E-02 3.08644E+00-9.31616E-14 4.34153E-13
 -1      2543 3.55131E+00-2.46173E+00 1.04670E-01 1.04334E+00-2.38060E-13 6.76903E-13
 -1      2544 2.51516E+01-5.04255E+00-6.22917E-02 4.22329E+00 4.51028E-14 1.41054E-13
 -1      2545 2.21688E+01-5.55431E+00 1.78207E-02 5.08747E+00-1.15463E-13 2.38726E-13
 -1      2546 2.05549E+01 1.96177E+00-1.35908E-02-1.86023E+00-1.64375E-13-1.14918E-13
 -1      2547 2.04274E+01 1.22791E+00-5.26913E-03-1.24182E+00-1.43505E-13-1.00101E-13
 -1      2548 2.03928E+01 1.38935E+00 2.46135E-03-1.17479E+00-1.20863E-13-1.32669E-13
 -1      2549 2.03008E+01 2.37573E+00-7.89520E-03-1.78271E+00-1.45765E-13-1.55599E-13
 -1      2550 2.15015E+01-5.12546E+00 2.10289E-02-5.61422E+00-4.78229E-14-1.67311E-13
 -1      2551 2.47453E+01-4.25999E+00-1.01340E-02-4.87355E+00-2.84328E-13-2.23793E-13
 -1      2552 3.17360E+01 7.05836E+00-1.72375E-01-7.23566E-01-4.97991E-13 5.78287E-14
 -1      2553 3.22336E+01 5.78822E+00-1.04745E-01-7.83226E-01-4.66849E-13 1.45495E-13
 -1      2554 1.95143E+01 3.64724E+00-1.01649E-02-2.33023E-01 6.58498E-14-2.43793E-13
 -1      2555 1.95324E+01 3.62471E+00-9.53357E-03-4.06682E-01 3.25032E-14-2.38851E-13
 -1      2556 1.97046E+01 3.23512E+00-1.68176E-04-4.46933E-01 2.51194E-14-2.22367E-13
 -1      2557 1.96658E+01 3.30094E+00-4.40394E-04-1.42984E-01 7.38756E-14-2.12840E-13
 -1      2558 3.28894E+01 6.78618E+00-1.11973E-01 7.45171E-01 4.66349E-13 1.29591E-13
 -1      2559 3.28171E+01 7.11253E+00-1.35936E-01-1.62271E-01 3.84137E-13 1.62197E-13
 -1      2560 3.07964E+01 4.80254E-01-3.75847E-02-9.45377E-01-3.36287E-13 2.37033E-13
 -1      2561 3.18705E+01 2.22267E+00-1.43978E-01-1.58121E-02-2.89491E-13 2.44610E-13
 -1      2562 3.30848E+01 3.47601E+00-7.17968E-02-1.09585E+00 4.21996E-13 7.13318E-14
 -1      2563 3.14023E+01 8.32158E-01-9.40612E-02-7.20444E-01 3.51691E-13 3.17524E-14
 -1      2564 3.29487E+01 6.36581E+00-1.52173E-01-1.02362E+00 4.05620E-13-6.93889E-15
 -1      2565 3.31597E+01 5.05314E+00-9.89206E-02-1.34001E+00 3.81140E-13 3.45002E-14
 -1      2566 3.11828E+01 3.63300E+00-1.04685E-02-2.18438E+00 3.37341E-13-1.54626E-13
 -1      2567 3.11973E+01-3.95880E-01-5.81834E-02-1.50611E-01 2.64885E-13 2.73448E-13
 -1      2568 3.27644E+01 1.72199E+00-1.03266E-01 4.69097E-01 3.90132E-13 2.46136E-13
 -1      2569 3.12491E+01 2.13853E+00 5.34177E-03 1.82027E+00 3.76449E-13 4.15806E-13
 -1      2570 2.62531E+01-4.33470E+00-9.66007E-03-3.48873E+00-5.18474E-14 5.23748E-14
 -1      2571 2.93346E+01-2.86612E+00-1.27404E-01-2.10660E+00 1.78288E-13 2.28206E-13
 -1      2572 1.90330E+01-5.67353E+00 3.21219E-02-5.99910E+00-2.44749E-13-2.87811E-13
 -1      2573 2.29593E+01-5.30995E+00-6.00757E-02-5.37399E+00-1.92846E-13-1.80397E-13
 -1      2574 1.05538E+01-4.90604E+00 4.41691E-02-6.22490E+00-1.09412E-13-1.19599E-13
 -1      2575 1.44591E+01-5.30651E+00-1.79908E-02-6.88064E+00-1.44884E-13-1.88863E-13
 -1      2576 5.39422E+00-3.26588E+00 9.11090E-02-3.92321E+00-1.28314E-13-3.20466E-13
 -1      2577 7.59392E+00-3.99041E+00 5.27576E-02-5.53504E+00-8.39329E-14-2.42806E-13
 -1      2578 3.18511E+00-2.71239E+00 7.69872E-02 1.16519E+00-1.26982E-15-4.51528E-13
 -1      2579 3.54037E+00-2.60877E+00 7.40617E-02-1.53559E+00-6.19782E-14-2.90212E-13
 -1      2580 6.22949E+00-3.72747E+00 5.58308E-02 5.26023E+00 9.08718E-14-3.17329E-13
 -1      2581 4.27411E+00-3.19572E+00 6.39400E-02 3.46456E+00 1.21514E-13-4.04787E-13
 -1      2582 1.20438E+01-4.87681E+00-1.55642E-03 7.07988E+00 1.61038E-13-3.34455E-13
 -1      2583 8.66229E+00-4.59514E+00 3.96449E-02 6.16606E+00 1.32172E-13-2.59986E-13
 -1      2584 9.21824E+00-3.25033E+00 1.31255E-01 5.74193E+00 2.37976E-13-2.32619E-13
 -1      2585 2.01075E+01-5.16180E+00-3.93280E-02 6.43250E+00 3.28626E-14-5.45120E-14
 -1      2586 1.63375E+01-5.39656E+00 3.20664E-02 6.73418E+00 1.24234E-13-2.10774E-13
 -1      2587 2.66809E+01-3.55515E+00-5.97913E-02 3.75045E+00-1.52045E-13 5.19029E-14
 -1      2588 2.36889E+01-4.67280E+00-3.05003E-03 4.77473E+00-4.88498E-15-7.00551E-14
 -1      2589 3.02860E+01-4.64201E-01-1.37427E-01 1.02839E+00-3.79752E-13 1.16629E-13
 -1      2590 2.84739E+01-2.19064E+00-5.36262E-02 2.18086E+00-2.80088E-13 1.23623E-13
 -1      2591 2.75227E+01-3.47931E+00 4.02449E-02 2.06253E+00-2.03150E-13 8.17124E-14
 -1      2592 3.22682E+01 4.20894E+00-1.40773E-01-6.21082E-01-5.04985E-13 1.59983E-13
 -1      2593 3.13750E+01 2.55254E+00-6.14526E-02-3.67305E-01-4.19637E-13 1.82909E-13
 -1      2594 3.02395E+01 4.78946E+00-4.66255E-02-1.51522E+00-4.27131E-13 8.14626E-14
 -1      2595 3.11969E+01 7.10814E+00-1.48544E-01 5.75926E-01-4.45310E-13 2.46858E-13
 -1      2596 3.10114E+01 7.38410E+00-1.74983E-01 4.76135E-02-5.09148E-13 1.26019E-13
 -1      2597 3.18499E+01 4.59997E+00-7.88037E-02 8.63052E-01-3.41838E-13 3.63987E-13
 -1      2598 3.17792E+01 6.15094E+00-1.83504E-01 9.71797E-01-3.30513E-13 3.99944E-13
 -1      2599 2.92884E+01 6.07376E+00-8.81073E-02 1.09161E+00-4.40981E-13 2.49599E-13
 -1      2600 2.68189E+01-3.10496E+00-4.59225E-02-3.42290E+00-3.59088E-13-5.17364E-14
 -1      2601 2.93780E+01-1.48829E+00-6.18480E-02-2.38768E+00-3.47201E-13 1.34004E-13
 -1      2602 2.63712E+01-4.12552E+00 2.26656E-02-3.19447E+00-1.02252E-13-1.27537E-13
 -1      2603 1.46827E+01-5.03534E+00 8.92638E-02-6.84050E+00 1.35225E-13 9.12811E-14
 -1      2604 1.78133E+01-5.23793E+00 8.85495E-04-6.85821E+00 6.91947E-14-1.44173E-13
 -1      2605 7.11249E+00-3.89644E+00 7.06112E-02-5.46958E+00 6.90281E-14 7.50650E-13
 -1      2606 1.06801E+01-4.40611E+00 2.41466E-02-6.82942E+00 1.44718E-13 4.06120E-13
 -1      2607 1.37985E+01-4.21592E+00 1.26551E-01-6.68959E+00 2.42334E-13 2.03060E-13
 -1      2608 1.02421E+01-4.14876E+00 3.22025E-02 6.29930E+00 5.39013E-14 3.24518E-13
 -1      2609 6.72629E+00-3.61420E+00 8.44574E-02 4.69758E+00-1.65423E-14 3.14165E-13
 -1      2610 7.71545E+00-2.17208E+00 1.71328E-01 4.00609E+00-1.31548E-13 4.01373E-13
 -1      2611 2.04959E+01 8.79818E-01-6.74862E-03 1.19140E+00 1.87957E-13 2.82985E-13
 -1      2612 2.08371E+01 1.25885E+00-5.85115E-03 1.69422E+00 1.95219E-13 3.13029E-13
 -1      2613 2.06495E+01 1.71803E+00-1.57931E-02 1.88452E+00 2.17779E-13 2.39381E-13
 -1      2614 2.04645E+01 1.06769E+00-9.58194E-03 1.19565E+00 1.94433E-13 1.75621E-13
 -1      2615 2.99455E+01-2.23859E+00-1.28120E-01 7.92186E-01 2.18998E-13-4.54081E-14
 -1      2616 2.76767E+01-3.95063E+00-2.10148E-02 2.42272E+00 1.18766E-13 7.18869E-15
 -1      2617 3.09198E+01 6.26633E+00-2.71613E-02-8.27996E-01 3.29736E-13-7.44682E-14
 -1      2618 1.99218E+01 2.86039E+00 1.67595E-03-1.04987E+00-5.60325E-14-2.38920E-13
 -1      2619 1.97956E+01 3.19470E+00-1.48877E-02-1.24091E+00-7.19833E-14-2.55003E-13
 -1      2620 1.98943E+01 3.05261E+00-1.70993E-02-1.42861E+00-9.90101E-14-2.57479E-13
 -1      2621 2.00508E+01 3.69250E-01-4.08696E-03 2.23141E-01 1.44971E-13 9.14360E-14
 -1      2622 2.04338E+01 2.12190E+00-1.26575E-02 1.83370E+00 2.42509E-13 1.32689E-13
 -1      2623 3.05345E+01-1.09277E+00-8.50989E-02-7.00698E-01 2.27068E-13-6.30052E-14
 -1      2624 2.91657E+01-2.43210E+00-2.41110E-02-4.01630E-01 2.05835E-13-9.43551E-14
 -1      2625 2.99508E+01 3.48348E-01-1.40626E-01-2.12300E+00 2.88589E-13-2.09194E-13
 -1      2626 2.08663E+01-5.26195E+00 4.76484E-02-5.69834E+00 3.52496E-14-9.45771E-14
 -1      2627 3.09257E+01 5.61387E+00-2.43906E-02 1.50559E+00 4.75786E-13 6.47954E-14
 -1      2628 7.63620E+00-2.47636E+00 1.58534E-01-4.65613E+00 8.76660E-14 6.81288E-13
 -1      2629 2.00131E+01 1.50304E-02-5.04618E-06 1.52668E-02-1.30402E-13 4.50980E-13
 -1      2630 2.00137E+01 2.01570E-02 4.00173E-05 1.96800E-02-4.46619E-15 6.19514E-13
 -1      2631 1.40942E+01-4.05582E+00 1.45136E-01 6.12626E+00-1.24845E-13 1.86795E-13
 -1      2632 2.13244E+01-5.43218E+00 6.80669E-02 5.19520E+00-1.75082E-13 2.19925E-13
 -1      2633 2.00158E+01 1.68713E-02 2.43831E-04-1.90234E-02-3.64770E-13 4.09127E-14
 -1      2634 2.00131E+01 2.30350E-02-2.02254E-04-2.28364E-02-3.58343E-13-2.53714E-13
 -1      2635 2.00164E+01 3.21473E-02 2.02529E-04-3.20731E-02-4.97610E-13-2.60078E-13
 -1      2636 2.00218E+01 1.95274E-02 4.93401E-04-2.50769E-02-4.32841E-13 1.44963E-13
 -1      2637 3.04056E+01 3.03256E+00-4.74404E-02 1.21131E+00-2.80220E-13 2.97096E-13
 -1      2638 5.29619E+00-1.43339E+00 1.76381E-01-2.50818E-01-1.69727E-13 8.66918E-13
 -1      2639 2.04517E+01 1.82187E+00 1.24656E-02 1.51486E+00 2.24323E-13 9.40723E-14
 -1      2640 2.99393E+01 5.24663E-01-2.92314E-02-5.55273E-01-4.14849E-13 9.78662E-14
 -1      2641 2.00031E+01 2.86018E+00-1.52656E-02-1.53914E+00-1.09666E-13-2.42435E-13
 -1      2642 2.01480E+01 2.62776E+00-2.22557E-02-1.70589E+00-1.38659E-13-2.09112E-13
 -1      2643 2.03037E+01 2.07239E+00 4.53561E-03-1.43530E+00-1.31547E-13-1.88183E-13
 -1      2644 2.01018E+01 2.52643E+00 4.31522E-03-1.28972E+00-1.03357E-13-2.29045E-13
 -1      2645 2.93219E+01 6.72358E+00-9.46614E-02-4.00998E-01-5.02376E-13 1.16504E-14
 -1      2646 1.55505E+01-4.83832E+00 1.01387E-01 6.80277E+00 2.57544E-13-1.84075E-13
 -1      2647 5.69554E+00-1.75431E+00 1.76569E-01 2.31919E+00 1.47243E-13-3.88078E-13
 -1      2648 6.24237E+00-1.91190E+00 1.78753E-01-2.64131E+00-6.91669E-14-2.82163E-13
 -1      2649 1.10133E+01-3.68417E+00 1.43292E-01-5.87692E+00-1.77691E-13-1.24678E-13
 -1      2650 1.82143E+01-5.30774E+00 9.70374E-02-6.14122E+00-2.18187E-13-2.28852E-13
 -1      2651 2.68264E+01-4.63736E+00 4.29961E-02 2.45860E+00 1.29854E-13 5.76345E-14
 -1      2652 2.99510E+01-2.12949E+00 4.11185E-03-1.61422E-01 1.34663E-13 3.05644E-13
 -1      2653 2.95628E+01-1.12837E+00 1.99429E-02-6.35262E-01-2.49247E-13 3.06422E-14
 -1      2654 2.54219E+01-5.11005E+00 6.14864E-02-3.59013E+00-1.80134E-13 3.70676E-14
 -1      2655 2.28843E+01-5.18110E+00 7.24728E-02 5.02483E+00 9.27314E-14-3.85525E-14
 -1      2656 2.00171E+01 2.89218E-02 2.01363E-04 2.88151E-02-6.28389E-14 7.65396E-13
 -1      2657 2.00232E+01 2.73243E-02-3.63896E-04-3.55692E-02-4.21717E-13-1.26961E-14
 -1      2658 1.98322E+01 2.84920E+00-6.20853E-03 4.80934E-01 1.51198E-13-1.65284E-13
 -1      2659 1.98028E+01 2.90267E+00-5.99686E-03 3.38540E-01 1.34503E-13-1.86664E-13
 -1      2660 1.97827E+01 2.94412E+00-5.67171E-03 2.14168E-01 1.10222E-13-2.00844E-13
 -1      2661 1.97724E+01 2.96230E+00-5.60449E-03 6.93018E-02 1.01802E-13-1.89420E-13
 -1      2662 1.99229E+01 2.60778E+00 4.15707E-03 2.41159E-01 1.15378E-13-1.81833E-13
 -1      2663 2.00552E+01 2.37779E+00-1.03744E-02 9.86065E-01 2.07738E-13-6.06644E-14
 -1      2664 1.99845E+01 2.53364E+00-6.77044E-03 8.53943E-01 1.93073E-13-8.22419E-14
 -1      2665 2.02370E+01 1.94369E+00-1.16731E-02 1.16629E+00 2.19688E-13-8.93773E-15
 -1      2666 2.01409E+01 2.18860E+00-5.26796E-03 1.07256E+00 2.02662E-13-2.31330E-14
 -1      2667 2.02019E+01 1.94529E+00 6.55045E-03 8.57721E-01 1.82315E-13-3.15772E-14
 -1      2668 2.02510E+01 7.58362E-01-2.66861E-03 5.71437E-01 1.53044E-13 4.63285E-14
 -1      2669 2.03820E+01 9.76325E-01 9.18405E-03 8.44556E-01 1.61994E-13 6.31110E-14
 -1      2670 2.88375E+01 1.30618E+00-1.99475E-01-1.56658E+00-4.01748E-13 1.08705E-13
 -1      2671 2.85091E+01-1.06698E+00-3.45654E-02-6.03574E-01-3.08330E-13 1.47576E-13
 -1      2672 2.02535E+01 6.78086E-01 6.88082E-03-3.42168E-01-6.94397E-14-1.24549E-13
 -1      2673 2.01852E+01 5.36494E-01-2.09078E-03-1.67656E-01-6.86669E-14-1.08364E-13
 -1      2674 2.01639E+01 4.31342E-01 6.14295E-03-2.97655E-02-7.22206E-14-8.63404E-14
 -1      2675 2.01216E+01 3.47727E-01-6.96791E-04 8.81454E-02-6.68798E-14-9.60311E-14
 -1      2676 2.02358E+01 6.07772E-01-2.09632E-03-1.33416E-01-6.70615E-14-1.20043E-13
 -1      2677 2.01019E+01 2.88111E-01 4.10172E-03 1.87640E-01-4.53633E-14-6.90309E-14
 -1      2678 2.00877E+01 2.40817E-01 4.37023E-04 2.70105E-01-3.45413E-14-4.29322E-14
 -1      2679 2.01803E+01 4.03913E-01-2.40816E-03 1.16750E-01-4.55155E-14-8.61128E-14
 -1      2680 2.00752E+01 2.08313E-01 2.42450E-03 3.44036E-01-4.82747E-14-4.72376E-14
 -1      2681 2.00844E+01 1.84198E-01 1.19918E-03 4.05595E-01-6.10523E-14-4.15156E-14
 -1      2682 2.01412E+01 2.86416E-01-2.23552E-03 3.00451E-01-4.23177E-14-5.94206E-14
 -1      2683 2.00804E+01 1.68809E-01 1.22111E-03 4.64544E-01-6.84942E-14-3.85763E-14
 -1      2684 2.01087E+01 1.59260E-01 1.70459E-03 5.15013E-01-6.77661E-14-5.74126E-14
 -1      2685 2.01223E+01 2.24599E-01-1.91591E-03 4.41412E-01-6.64358E-14-4.44432E-14
 -1      2686 2.01133E+01 1.54090E-01 4.23991E-04 5.66698E-01-5.98302E-14-3.21376E-14
 -1      2687 2.01576E+01 1.52564E-01 2.02144E-03 6.12271E-01-8.13105E-14-4.53589E-14
 -1      2688 2.01231E+01 1.97957E-01-1.62365E-03 5.58505E-01-4.32920E-14-1.96755E-14
 -1      2689 2.01711E+01 1.51907E-01-1.53920E-05 6.61635E-01-9.86879E-14 1.44987E-15
 -1      2690 2.02295E+01 1.52444E-01 2.16562E-03 7.05446E-01-9.10505E-14 5.40364E-14
 -1      2691 2.01429E+01 1.90724E-01-1.44752E-03 6.64933E-01-6.91420E-14 5.78567E-14
 -1      2692 2.02532E+01 1.50618E-01-1.03443E-04 7.54767E-01-7.81493E-14 7.57102E-14
 -1      2693 2.03250E+01 1.46840E-01 2.11034E-03 7.97000E-01-4.79165E-14 5.84734E-14
 -1      2694 2.01821E+01 1.88601E-01-1.44651E-03 7.68438E-01-4.66094E-14 1.18510E-13
 -1      2695 2.03620E+01 1.37403E-01 1.99171E-04 8.45761E-01-6.36088E-14 9.50677E-14
 -1      2696 2.04477E+01 1.21831E-01 1.79199E-03 8.83427E-01-1.57088E-14 8.91922E-14
 -1      2697 2.02437E+01 1.76432E-01-1.68899E-03 8.71316E-01-3.72813E-14 1.00377E-13
 -1      2698 2.05034E+01 9.71190E-02 9.75023E-04 9.27896E-01-1.51827E-14 5.93420E-14
 -1      2699 2.06044E+01 6.08894E-02 1.10845E-03 9.54379E-01-3.34302E-14 3.07006E-14
 -1      2700 2.03347E+01 1.36630E-01-2.27421E-03 9.69960E-01-5.60221E-14 4.93588E-14
 -1      2701 2.06873E+01 1.21116E-02 2.33198E-03 9.86905E-01-1.45497E-14 1.97403E-14
 -1      2702 2.08056E+01-5.44772E-02-8.76773E-05 9.91461E-01-3.03637E-14 1.57364E-14
 -1      2703 2.04671E+01 4.85709E-02-3.32727E-03 1.05385E+00-2.32427E-14 8.70864E-14
 -1      2704 2.09279E+01-1.36002E-01 4.35181E-03 9.99482E-01-6.12197E-14 5.45350E-14
 -1      2705 2.10658E+01-2.41279E-01-1.99380E-03 9.67048E-01-3.24889E-14 9.53968E-14
 -1      2706 2.06592E+01-1.10108E-01-4.95300E-03 1.10395E+00-1.07588E-14 1.99467E-14
 -1      2707 2.12421E+01-3.60702E-01 6.96671E-03 9.32020E-01-1.63511E-15 1.01057E-13
 -1      2708 2.13994E+01-5.06316E-01-4.78817E-03 8.44061E-01 6.48949E-15 8.71805E-14
 -1      2709 2.09361E+01-3.58373E-01-7.10344E-03 1.09051E+00-3.31868E-14 5.29609E-14
 -1      2710 2.16431E+01-6.58051E-01 9.73871E-03 7.40931E-01-3.79833E-14 1.09609E-13
 -1      2711 2.18133E+01-8.28603E-01-8.41075E-03 5.78973E-01-5.45638E-14 1.20590E-13
 -1      2712 2.13257E+01-6.99668E-01-9.27181E-03 9.70851E-01-2.17264E-14 9.93335E-14
 -1      2713 2.21239E+01-9.84574E-01 1.08458E-02 3.80454E-01-3.17223E-14 1.34142E-13
 -1      2714 2.22893E+01-1.13314E+00-1.17914E-02 1.35239E-01-3.95031E-14 1.29967E-13
 -1      2715 2.18453E+01-1.09587E+00-1.00412E-02 6.90456E-01-3.96736E-14 1.95175E-13
 -1      2716 2.26362E+01-1.22951E+00 9.02493E-03-1.74067E-01-5.64989E-14 2.13535E-13
 -1      2717 2.27626E+01-1.26876E+00-1.18134E-02-4.84367E-01-4.65082E-14 2.15425E-13
 -1      2718 2.24753E+01-1.43914E+00-7.84208E-03 1.99253E-01 1.84003E-16 2.24161E-13
 -1      2719 2.30675E+01-1.20832E+00 4.15850E-04-8.78182E-01-7.76991E-14 2.14419E-13
 -1      2720 2.31164E+01-1.02354E+00-5.06855E-03-1.18603E+00-7.14027E-14 1.79193E-13
 -1      2721 2.31280E+01-1.51983E+00 1.61511E-03-5.07452E-01-4.69538E-14 2.18791E-13
 -1      2722 2.32505E+01-7.06053E-01-1.87042E-02-1.54919E+00-4.16173E-14 1.52634E-13
 -1      2723 2.31998E+01-2.30673E-01 6.61099E-03-1.71986E+00-7.53581E-14 1.51991E-13
 -1      2724 2.36194E+01-1.06720E+00 1.25118E-02-1.31422E+00-7.78167E-14 1.58320E-13
 -1      2725 2.30933E+01 3.35635E-01-3.48415E-02-1.83483E+00-1.35190E-13 1.34120E-13
 -1      2726 2.29786E+01 9.85660E-01 1.95810E-02-1.71773E+00-1.26931E-13 4.14421E-14
 -1      2727 2.37346E+01 4.51421E-02 1.13740E-02-1.87034E+00-1.17308E-13 1.15023E-13
 -1      2728 2.27253E+01 1.57333E+00-3.80199E-02-1.39261E+00-1.66462E-13-5.46264E-14
 -1      2729 2.26268E+01 2.06301E+00 7.25230E-03-9.51046E-01-2.35019E-13-1.15100E-13
 -1      2730 2.34777E+01 1.57413E+00 5.25144E-03-1.72558E+00-2.15824E-13 9.65814E-14
 -1      2731 2.24941E+01 2.29602E+00-2.42044E-02-2.50385E-01-2.01400E-13-2.48968E-13
 -1      2732 2.24734E+01 2.27904E+00-3.37883E-02 3.16229E-01-1.75466E-13-1.89969E-13
 -1      2733 2.31518E+01 2.62981E+00-2.80759E-03-6.72957E-01-2.87715E-13-7.19641E-14
 -1      2734 2.26533E+01 2.02640E+00 1.27413E-02 1.03328E+00-1.62224E-13-2.60839E-13
 -1      2735 2.27496E+01 1.51085E+00-3.89182E-02 1.44967E+00-1.49055E-13-2.29217E-13
 -1      2736 2.31435E+01 2.67178E+00 5.28205E-03 7.98768E-01-2.17777E-13-8.15559E-14
 -1      2737 2.29960E+01 9.23175E-01 1.68785E-02 1.75338E+00-5.87776E-14-2.30763E-13
 -1      2738 2.31212E+01 2.75009E-01-3.37402E-02 1.85430E+00-5.03330E-15-2.05920E-13
 -1      2739 2.35100E+01 1.51954E+00 1.02096E-02 1.77615E+00-6.37641E-14-1.77483E-13
 -1      2740 2.32086E+01-2.83378E-01 4.65663E-03 1.71505E+00-1.09437E-14-2.44654E-13
 -1      2741 2.32586E+01-7.37851E-01-1.65157E-02 1.53589E+00-7.31229E-15-1.94465E-13
 -1      2742 2.37488E+01-3.08211E-02 1.05130E-02 1.86912E+00 1.65649E-14-1.98780E-13
 -1      2743 2.31105E+01-1.03814E+00-6.66691E-03 1.17117E+00 3.19174E-14-1.62486E-13
 -1      2744 2.30601E+01-1.20620E+00 1.29165E-04 8.64171E-01 7.61773E-14-1.40848E-13
 -1      2745 2.36021E+01-1.09723E+00 1.09416E-02 1.29113E+00 9.00121E-15-6.03640E-14
 -1      2746 2.27526E+01-1.25390E+00-1.26886E-02 4.76805E-01 3.65491E-14-7.92858E-14
 -1      2747 2.26266E+01-1.20320E+00 9.08297E-03 1.73144E-01 5.70873E-14-4.32477E-14
 -1      2748 2.31027E+01-1.50727E+00 1.17337E-04 4.95127E-01 3.92470E-14-3.03986E-14
 -1      2749 2.22806E+01-1.09824E+00-1.18920E-02-1.25278E-01 1.32225E-13-1.18883E-13
 -1      2750 2.21190E+01-9.43505E-01 1.12503E-02-3.60016E-01 1.67054E-13-9.04452E-14
 -1      2751 2.24506E+01-1.40007E+00-7.75684E-03-1.93272E-01 7.45700E-14-5.50307E-14
 -1      2752 2.18128E+01-7.84222E-01-8.37862E-03-5.45786E-01 6.00015E-14-1.26884E-13
 -1      2753 2.16484E+01-6.11698E-01 9.74171E-03-6.96236E-01 8.78367E-14-1.62285E-13
 -1      2754 2.18267E+01-1.04403E+00-1.03045E-02-6.59686E-01 1.06431E-13-1.40594E-13
 -1      2755 2.14103E+01-4.59024E-01-4.79041E-03-7.87032E-01 1.55940E-13-6.78554E-14
 -1      2756 2.12607E+01-3.12828E-01 7.10961E-03-8.63323E-01 1.15483E-14-2.25276E-14
 -1      2757 2.13180E+01-6.42190E-01-9.19704E-03-9.14534E-01 1.91250E-13-1.97663E-13
 -1      2758 2.10890E+01-1.93023E-01-2.05488E-03-8.86573E-01-1.56128E-13 1.59294E-13
 -1      2759 2.09600E+01-8.72494E-02 4.56258E-03-9.07228E-01-7.63652E-14 2.59943E-13
 -1      2760 2.09390E+01-2.99920E-01-6.95755E-03-1.01029E+00 1.04884E-14 1.14919E-13
 -1      2761 2.08413E+01-5.37021E-03-2.11497E-04-8.87435E-01-7.83064E-14 2.85232E-13
 -1      2762 2.07326E+01 6.17317E-02 2.57255E-03-8.71024E-01-4.20900E-14 2.53883E-13
 -1      2763 2.06707E+01-5.07123E-02-4.77924E-03-1.00022E+00-7.18572E-14 3.88969E-13
 -1      2764 2.06522E+01 1.10721E-01 9.29113E-04-8.26779E-01 3.38095E-14 1.36280E-13
 -1      2765 2.05615E+01 1.47122E-01 1.19692E-03-7.88591E-01 8.77878E-14 1.84699E-13
 -1      2766 2.04851E+01 1.08736E-01-3.12021E-03-9.26709E-01-7.84925E-14 3.79822E-13
 -1      2767 2.05070E+01 1.71395E-01 1.57141E-03-7.32845E-01 4.49207E-14 7.69265E-14
 -1      2768 2.04317E+01 1.86050E-01 3.33895E-04-6.84188E-01 5.31551E-14 8.16616E-14
 -1      2769 2.03571E+01 1.96504E-01-1.99927E-03-8.20028E-01-6.76969E-14 2.11793E-13
 -1      2770 2.03943E+01 1.93528E-01 1.86959E-03-6.25469E-01-6.19754E-15 2.96038E-14
 -1      2771 2.03319E+01 1.94162E-01-1.56783E-04-5.74053E-01-1.30679E-13-1.01393E-13
 -1      2772 2.02675E+01 2.33143E-01-1.29667E-03-7.00632E-01-1.87090E-14 1.83515E-14
 -1      2773 2.03056E+01 1.91251E-01 1.93571E-03-5.17635E-01-1.27365E-13-2.13539E-14
 -1      2774 2.02544E+01 1.83734E-01-3.98362E-04-4.68293E-01 8.73081E-16-4.25242E-14
 -1      2775 2.02032E+01 2.36518E-01-8.77899E-04-5.81650E-01-6.80838E-14-1.32718E-13
 -1      2776 2.02354E+01 1.75111E-01 1.85287E-03-4.17145E-01 1.07066E-13-8.49112E-14
 -1      2777 2.01937E+01 1.63552E-01-4.84994E-04-3.72582E-01 1.84499E-13-1.16441E-13
 -1      2778 2.01559E+01 2.20311E-01-6.33892E-04-4.70933E-01-2.85695E-15-1.31388E-14
 -1      2779 2.01796E+01 1.52388E-01 1.68206E-03-3.28093E-01 2.28786E-13-2.22860E-13
 -1      2780 2.01461E+01 1.39474E-01-4.82307E-04-2.89543E-01 1.98157E-13-1.64030E-13
 -1      2781 2.01200E+01 1.94172E-01-4.89687E-04-3.72630E-01 7.52626E-14-2.36325E-13
 -1      2782 2.01354E+01 1.27786E-01 1.46658E-03-2.52068E-01 2.03156E-13-1.40222E-13
 -1      2783 2.01088E+01 1.15161E-01-4.33231E-04-2.19796E-01 1.62272E-13-4.20236E-14
 -1      2784 2.00923E+01 1.64476E-01-3.97638E-04-2.88386E-01 2.03471E-13-4.88486E-13
 -1      2785 2.01005E+01 1.04143E-01 1.23703E-03-1.89045E-01 9.18617E-14 7.61047E-14
 -1      2786 2.00798E+01 9.27188E-02-3.64782E-04-1.62731E-01 2.88232E-13 1.31635E-13
 -1      2787 2.00705E+01 1.35158E-01-3.31793E-04-2.18217E-01 2.80372E-13-3.51099E-13
 -1      2788 2.00732E+01 8.29903E-02 1.01464E-03-1.38050E-01 3.72122E-13 6.74273E-14
 -1      2789 2.00572E+01 7.31721E-02-3.00234E-04-1.17059E-01 3.36345E-13-4.39805E-14
 -1      2790 2.00533E+01 1.08434E-01-2.77895E-04-1.61152E-01 2.83026E-13-2.54090E-13
 -1      2791 2.00519E+01 6.49675E-02 8.10872E-04-9.76617E-02 1.73252E-13-2.31760E-13
 -1      2792 2.00398E+01 5.68747E-02-2.28309E-04-8.12560E-02 1.30943E-14-3.50519E-13
 -1      2793 2.00395E+01 8.52805E-02-2.40843E-04-1.15705E-01 8.56256E-14-4.74674E-13
 -1      2794 2.00353E+01 5.01301E-02 5.91036E-04-6.62648E-02-1.07708E-13-5.09924E-13
 -1      2795 2.00263E+01 4.38178E-02-1.06997E-04-5.37221E-02-2.39677E-13-4.70687E-13
 -1      2796 2.00282E+01 6.60349E-02-2.38552E-04-8.03933E-02-1.72539E-13-9.87681E-13
 -1      2797 2.00278E+01 1.64818E-01 2.04561E-03-3.93075E-01 6.19813E-14 4.32467E-14
 -1      2798 2.00071E+01 1.81572E-01 2.74669E-03-3.31210E-01 8.46931E-14 5.86960E-14
 -1      2799 2.93488E+01 1.26966E+00-8.18063E-02 1.42013E+00-1.29702E-13 1.53710E-13
 -1      2800 2.87697E+01 3.32981E+00-1.90485E-01 1.88600E+00-2.13912E-13 2.12302E-13
 -1      2801 2.00170E+01 2.06752E-01 1.33154E-03-2.55352E-01 9.82351E-14 4.83437E-14
 -1      2802 2.00259E+01 2.45909E-01 4.87356E-03-1.74160E-01 1.19436E-13 7.02781E-14
 -1      2803 2.00904E+01 2.55413E-01-2.79270E-03-2.91544E-01 1.01495E-13 6.61557E-14
 -1      2804 2.01512E+01 1.68907E-01 3.20954E-03-6.21358E-01 5.39716E-15 9.46839E-14
 -1      2805 2.00869E+01 1.58950E-01 1.62707E-04-5.67193E-01 2.35142E-14 9.63630E-14
 -1      2806 2.02539E+01 1.98845E-01 3.74641E-03-7.42308E-01 2.64875E-14 3.21353E-14
 -1      2807 2.01716E+01 1.81072E-01-6.21328E-04-6.82280E-01 3.30656E-14 6.84971E-14
 -1      2808 2.01370E+01 2.24532E-01-1.28447E-03-6.92399E-01 4.64736E-14 7.42471E-14
 -1      2809 2.03804E+01 2.38485E-01 4.23594E-03-8.80685E-01 2.01779E-14-4.09740E-14
 -1      2810 2.02808E+01 2.16436E-01-1.18849E-03-8.11246E-01 3.56235E-14 1.72488E-15
 -1      2811 2.01907E+01 2.64156E-01-9.08630E-04-8.27731E-01 6.49062E-14 3.06181E-14
 -1      2812 2.05303E+01 2.79043E-01 4.61197E-03-1.04076E+00 4.84817E-14-4.03274E-14
 -1      2813 2.04131E+01 2.57665E-01-1.54801E-03-9.60775E-01 1.70046E-14-2.97114E-14
 -1      2814 2.02577E+01 3.13655E-01-6.21226E-04-9.81668E-01 4.35572E-14-6.83250E-14
 -1      2815 2.07061E+01 3.06656E-01 4.76051E-03-1.22120E+00 7.63507E-14 1.24220E-14
 -1      2816 2.05697E+01 2.93924E-01-1.62029E-03-1.13287E+00 7.10264E-14 1.18261E-14
 -1      2817 2.03372E+01 3.60711E-01-5.14390E-04-1.15848E+00 2.67376E-14-1.50001E-14
 -1      2818 2.09149E+01 2.98497E-01 4.51353E-03-1.41257E+00-9.95395E-15 5.12993E-15
 -1      2819 2.07563E+01 3.07532E-01-1.19122E-03-1.32311E+00 3.71031E-14 1.67565E-14
 -1      2820 2.04324E+01 3.85861E-01-8.17151E-04-1.35725E+00 4.22461E-14 3.99331E-14
 -1      2821 2.11732E+01 2.18378E-01 3.63293E-03-1.59317E+00-5.07599E-15-7.85062E-14
 -1      2822 2.09866E+01 2.69719E-01 1.55135E-04-1.51735E+00-1.30950E-15-3.86980E-14
 -1      2823 2.05545E+01 3.57623E-01-1.98386E-03-1.56993E+00 3.88756E-14-7.20286E-14
 -1      2824 2.15136E+01 1.42107E-02 1.79912E-03-1.72299E+00 5.15812E-14-3.87153E-14
 -1      2825 2.12883E+01 1.36670E-01 3.11323E-03-1.68645E+00-6.00201E-16-3.93845E-14
 -1      2826 2.07303E+01 2.27447E-01-4.75671E-03-1.77778E+00-2.35051E-14-7.01932E-14
 -1      2827 2.19913E+01-3.76179E-01-1.69264E-03-1.73579E+00 6.16508E-14-5.07493E-15
 -1      2828 2.17119E+01-1.49990E-01 8.71203E-03-1.77828E+00 8.62025E-14-1.07344E-14
 -1      2829 2.10128E+01-7.19303E-02-1.00495E-02-1.94514E+00 4.02077E-14-3.87323E-14
 -1      2830 2.26829E+01-9.91945E-01-8.16136E-03-1.52867E+00-3.89255E-14 1.36636E-13
 -1      2831 2.23360E+01-6.47864E-01 1.77747E-02-1.70465E+00 1.27282E-14 4.57353E-14
 -1      2832 2.14952E+01-6.16549E-01-1.85447E-02-2.00748E+00-2.66931E-16 2.42287E-14
 -1      2833 2.36523E+01-1.75693E+00-1.74684E-02-9.62797E-01-2.09268E-13 2.23693E-13
 -1      2834 2.32456E+01-1.35602E+00 2.75799E-02-1.32886E+00-9.37871E-14 1.69577E-13
 -1      2835 2.23140E+01-1.43577E+00-2.87078E-02-1.84211E+00-1.19190E-13 1.46054E-13
 -1      2836 2.48538E+01-2.34474E+00-2.99648E-02 6.47412E-02-1.44550E-13 2.78108E-13
 -1      2837 2.44518E+01-2.08987E+00 3.04574E-02-4.98866E-01-2.49595E-13 2.02173E-13
 -1      2838 2.35782E+01-2.37994E+00-3.83185E-02-1.26255E+00-1.84218E-13 2.62439E-13
 -1      2839 2.60777E+01-1.98539E+00-1.23273E-02 1.48809E+00 7.87929E-14 3.07482E-13
 -1      2840 2.57875E+01-2.34557E+00 9.65377E-03 8.57891E-01-3.74939E-15 3.09464E-13
 -1      2841 2.52485E+01-2.99778E+00-6.33464E-02-1.07032E-01-8.87957E-14 2.03579E-13
 -1      2842 2.66104E+01-1.09745E-01-2.48905E-02 2.55923E+00 2.28192E-13 2.64093E-13
 -1      2843 2.66655E+01-1.27091E+00-7.75555E-02 2.28962E+00 2.03580E-13 3.65191E-13
 -1      2844 2.69655E+01-2.14131E+00-2.94131E-02 1.55386E+00 1.38636E-13 3.27363E-13
 -1      2845 2.75379E+01 3.51744E+00-1.43348E-01 2.05443E+00 2.81053E-13 1.15782E-13
 -1      2846 2.77934E+01 1.95149E+00-1.49606E-01 2.60654E+00 3.27599E-13 2.41938E-13
 -1      2847 2.69924E+01 4.79851E+00-2.33181E-01-1.58936E-01 2.47524E-13-1.35572E-13
 -1      2848 2.70582E+01 4.50977E+00-2.35034E-01 1.02317E+00 2.30427E-13-2.32323E-14
 -1      2849 2.75211E+01 3.03099E+00-2.18312E-01-2.25722E+00 2.72865E-13-2.77074E-13
 -1      2850 2.73570E+01 4.24596E+00-1.93202E-01-1.45312E+00 2.43083E-13-2.07521E-13
 -1      2851 2.74399E+01-8.88484E-01-6.43791E-02-2.35452E+00 3.62869E-13-3.70780E-13
 -1      2852 2.74252E+01 5.26986E-01-5.47440E-02-2.45025E+00 3.20952E-13-3.03584E-13
 -1      2853 2.49509E+01-2.28367E+00 2.43188E-02 5.50824E-02-2.48695E-13-3.46560E-13
 -1      2854 2.53475E+01-2.35928E+00-1.92285E-02-5.80047E-01-1.36050E-13-4.11883E-13
 -1      2855 2.36639E+01-1.61800E+00 3.17751E-02 1.06867E+00-8.42815E-15-3.82521E-13
 -1      2856 2.40788E+01-2.00307E+00-1.97752E-02 6.29885E-01-1.01956E-13-2.44857E-13
 -1      2857 2.41612E+01-2.64591E+00-3.12555E-02 9.13793E-01-1.75874E-13-7.40822E-14
 -1      2858 2.26495E+01-8.59349E-01 2.16311E-02 1.57536E+00 1.51639E-13-3.40428E-13
 -1      2859 2.30152E+01-1.23875E+00-1.07946E-02 1.34291E+00 4.52763E-14-4.18990E-13
 -1      2860 2.27195E+01-1.75145E+00-3.09927E-02 1.66745E+00 7.21298E-15-2.08928E-13
 -1      2861 2.19438E+01-2.78043E-01 1.14024E-02 1.72483E+00 2.61485E-13-1.66590E-13
 -1      2862 2.22394E+01-5.48273E-01-3.90730E-03 1.64812E+00 2.68307E-13-1.51769E-13
 -1      2863 2.17595E+01-8.52087E-01-2.24720E-02 1.93596E+00 6.88258E-14-4.45223E-13
 -1      2864 2.14713E+01 8.21648E-02 4.89104E-03 1.66472E+00-3.95907E-14 1.55685E-13
 -1      2865 2.17055E+01-7.58557E-02 4.28810E-04 1.68617E+00 1.46397E-13 1.26212E-13
 -1      2866 2.11827E+01-2.04573E-01-1.32062E-02 1.92336E+00 3.40793E-14 8.37114E-14
 -1      2867 2.11473E+01 2.66914E-01 1.29647E-03 1.49825E+00-6.47111E-14 1.18846E-13
 -1      2868 2.13361E+01 1.91679E-01 2.91217E-03 1.57261E+00-5.00775E-14 1.49069E-13
 -1      2869 2.08496E+01 1.78942E-01-6.56658E-03 1.76781E+00-1.40896E-14 2.20427E-13
 -1      2870 2.09117E+01 3.36708E-01-4.49509E-04 1.28898E+00 3.32470E-14 9.45336E-14
 -1      2871 2.10676E+01 3.13369E-01 4.14480E-03 1.38575E+00-2.89452E-14 1.28176E-13
 -1      2872 2.06521E+01 3.65991E-01-2.85779E-03 1.55023E+00-2.74335E-14 8.15842E-14
 -1      2873 2.07294E+01 3.40480E-01-1.13147E-03 1.07383E+00 1.92506E-14 2.45193E-13
 -1      2874 2.08598E+01 3.45783E-01 4.58583E-03 1.17442E+00 6.45485E-14 1.44327E-13
 -1      2875 2.05242E+01 4.28537E-01-1.10444E-03 1.31552E+00 3.16118E-15 2.08302E-13
 -1      2876 2.05818E+01 3.11119E-01-1.26833E-03 8.72624E-01 8.27547E-14 2.05367E-13
 -1      2877 2.06910E+01 3.30053E-01 4.53291E-03 9.66869E-01 4.30365E-14 1.91594E-13
 -1      2878 2.04307E+01 4.21143E-01-4.51104E-04 1.08845E+00 1.03056E-14 4.79843E-14
 -1      2879 2.04598E+01 2.68354E-01-1.15864E-03 6.94662E-01-9.57579E-14 3.30909E-13
 -1      2880 2.05505E+01 2.92160E-01 4.19275E-03 7.77802E-01 4.23327E-15 3.80860E-13
 -1      2881 2.03549E+01 3.79580E-01-3.07673E-04 8.81825E-01-7.20058E-14 2.24032E-13
 -1      2882 2.03586E+01 2.23045E-01-9.59594E-04 5.43024E-01-2.17887E-13 4.15947E-13
 -1      2883 2.04330E+01 2.47029E-01 3.70669E-03 6.13528E-01-1.03111E-13 4.25600E-13
 -1      2884 2.02899E+01 3.25017E-01-3.50635E-04 7.01322E-01-1.85950E-13 3.73568E-13
 -1      2885 2.02753E+01 1.80620E-01-7.49666E-04 4.17286E-01-3.61462E-13 3.30302E-13
 -1      2886 2.03354E+01 2.02523E-01 3.16947E-03 4.75414E-01-3.35041E-13 4.44769E-13
 -1      2887 2.02335E+01 2.69015E-01-4.26855E-04 5.48298E-01-2.59125E-13 5.66461E-13
 -1      2888 2.02077E+01 1.43406E-01-5.62335E-04 3.15216E-01-7.96766E-14 2.89177E-13
 -1      2889 2.02554E+01 1.62334E-01 2.63973E-03 3.62118E-01-2.41891E-13 2.63494E-13
 -1      2890 2.01848E+01 2.17294E-01-4.77904E-04 4.21589E-01-2.41978E-13 4.91500E-13
 -1      2891 2.01537E+01 1.12071E-01-4.07920E-04 2.33799E-01-1.45094E-13 1.42066E-13
 -1      2892 2.01909E+01 1.27846E-01 2.15108E-03 2.70988E-01-6.87293E-14 2.14031E-13
 -1      2893 2.01435E+01 1.72238E-01-4.89966E-04 3.18693E-01-6.62936E-14 3.45008E-13
 -1      2894 2.01113E+01 8.64457E-02-2.88785E-04 1.69825E-01 7.65852E-14 1.54868E-14
 -1      2895 2.01399E+01 9.92456E-02 1.71800E-03 1.98883E-01-3.46156E-14 6.15716E-14
 -1      2896 2.01093E+01 1.34454E-01-4.66881E-04 2.36527E-01-8.38885E-15 1.58894E-13
 -1      2897 2.00786E+01 6.59911E-02-1.99880E-04 1.20237E-01 8.17458E-14 1.52500E-13
 -1      2898 2.01001E+01 7.61318E-02 1.34527E-03 1.42647E-01 1.39234E-14 5.10909E-14
 -1      2899 2.00814E+01 1.03620E-01-4.24455E-04 1.71888E-01 8.31344E-14-4.85322E-14
 -1      2900 2.00538E+01 5.00599E-02-1.12321E-04 8.22593E-02-6.99299E-14 3.58336E-13
 -1      2901 2.00696E+01 5.79048E-02 1.03075E-03 9.93449E-02 7.40149E-14 3.88671E-13
 -1      2902 2.00591E+01 7.90680E-02-3.63307E-04 1.21754E-01-7.49455E-14-3.89144E-16
 -1      2903 2.00354E+01 3.79691E-02 1.26889E-04 5.36270E-02 4.80011E-14 4.39381E-13
 -1      2904 2.00466E+01 4.36761E-02 7.61954E-04 6.62956E-02-6.71319E-14 4.40991E-13
 -1      2905 2.00413E+01 5.99642E-02-2.98527E-04 8.33463E-02-1.10123E-13 9.94576E-15
 -1      2906 2.00219E+01 3.14269E-02 1.74219E-04 3.55660E-02-6.55571E-14 5.77353E-13
 -1      2907 2.00297E+01 3.60855E-02 5.47145E-04 4.52812E-02-1.12333E-14 3.94747E-13
 -1      2908 2.00272E+01 4.79609E-02-5.32598E-04 5.79332E-02-2.18540E-14 5.49001E-15
 -1      2909 2.00171E+01 4.14767E-02-4.51838E-04 4.17641E-02-2.64073E-13 4.05958E-13
 -1      2910 1.99690E+01 1.14006E-01-2.88282E-04 5.14915E-03 1.66269E-13-3.75528E-13
 -1      2911 1.99704E+01 1.12700E-01-1.51941E-04 1.37672E-02 1.42697E-13-7.69616E-14
 -1      2912 2.00242E+01 3.98735E-02 4.81436E-04-4.57203E-02-1.53737E-13-4.83940E-13
 -1      2913 2.00192E+01 3.60290E-02 6.58770E-05-3.89199E-02-3.21041E-13-4.68747E-13
 -1      2914 2.00205E+01 5.25368E-02-1.32926E-04-5.68698E-02-2.33934E-13-1.11102E-12
 -1      2915 1.99821E+01 9.68995E-02-4.80628E-04 3.84767E-02-4.52191E-14-1.37316E-13
 -1      2916 1.99881E+01 9.05772E-02 1.67488E-04 4.30610E-02-1.25678E-14-7.19161E-14
 -1      2917 1.99705E+01 1.12098E-01-1.35560E-04-1.41663E-02 3.11483E-13-9.46930E-14
 -1      2918 1.99691E+01 1.13687E-01-3.01516E-04-5.58997E-03 2.78618E-13-4.42863E-13
 -1      2919 1.99617E+01 1.29466E-01 5.10195E-04-4.23654E-04 2.79782E-13-3.26837E-13
 -1      2920 1.99731E+01 1.08748E-01-4.10520E-04 2.37106E-02 6.82381E-14-8.05718E-14
 -1      2921 1.99771E+01 1.04705E-01 1.76575E-05 3.09303E-02 4.46330E-14-9.19212E-14
 -1      2922 1.99747E+01 1.14913E-01 4.31049E-04 4.04913E-02 6.04027E-15-1.42028E-14
 -1      2923 1.99651E+01 1.26055E-01 4.98755E-04 2.16907E-02 1.92265E-13 2.40490E-14
 -1      2924 2.00491E+01 2.96419E-01 4.23490E-04-7.21150E-02 1.30183E-13 4.35997E-14
 -1      2925 2.00946E+01 3.70085E-01 7.60269E-03 4.47559E-02 1.31038E-13 5.27945E-14
 -1      2926 2.01289E+01 3.55882E-01-3.13585E-03-1.00795E-01 1.11758E-13 2.92834E-14
 -1      2927 1.65114E+01-3.91619E+00 3.52182E-02 5.79130E+00-1.08719E-13 7.21229E-14
 -1      2928 1.29999E+01-2.76604E+00 1.77553E-01 5.51552E+00-1.56403E-13 3.27016E-13
 -1      2929 1.99772E+01 1.03527E-01 3.08990E-05-3.08353E-02 4.18058E-13-7.15269E-14
 -1      2930 1.99732E+01 1.07674E-01-4.15104E-04-2.38254E-02 3.68283E-13-1.98352E-14
 -1      2931 1.99652E+01 1.24900E-01 4.75573E-04-2.22210E-02 3.82108E-13-9.19709E-14
 -1      2932 1.99880E+01 8.90745E-02 1.88320E-04-4.27380E-02 3.58231E-13-1.12315E-13
 -1      2933 1.99820E+01 9.54352E-02-4.71675E-04-3.82122E-02 4.01552E-13-4.18159E-14
 -1      2934 1.99747E+01 1.12985E-01 3.88347E-04-4.04773E-02 3.40449E-13-1.41339E-13
 -1      2935 2.00011E+01 7.05447E-02 2.81414E-04-4.79491E-02 1.75580E-13-7.65572E-14
 -1      2936 1.99941E+01 7.83258E-02-4.83588E-04-4.64796E-02 3.21044E-13 9.46335E-14
 -1      2937 1.99888E+01 9.50305E-02 2.94393E-04-5.25177E-02 2.03839E-13-6.35243E-14
 -1      2938 2.00153E+01 4.31646E-02 7.72094E-05-4.15995E-02-1.70966E-13-9.19689E-13
 -1      2939 2.03414E+01 1.60550E+00-8.59607E-03-1.18359E+00-1.14327E-13-1.66419E-13
 -1      2940 2.03279E+01 1.24412E+00 4.65109E-04-9.03447E-01-9.88365E-14-1.46840E-13
 -1      2941 2.02592E+01 1.87473E+00-8.09449E-04-1.15987E+00-1.04397E-13-2.08368E-13
 -1      2942 1.78719E+01-4.86975E+00-2.17464E-02 6.39546E+00 2.21878E-13-9.08301E-14
 -1      2943 1.44209E+01-3.98217E+00 1.39892E-01 6.48229E+00 2.48218E-13-1.81161E-13
 -1      2944 7.67734E+00-1.15771E+00 1.35612E-01 3.51990E+00 2.23488E-13-2.82940E-13
 -1      2945 6.58263E+00-6.03490E-01 1.25095E-01 1.11669E+00 8.55566E-14-2.33286E-13
 -1      2946 2.72093E+01 6.22196E+00-1.50420E-01-1.43318E-01-4.91884E-13 6.57512E-14
 -1      2947 2.78233E+01 5.66457E+00-1.77179E-01-1.23532E+00-4.42008E-13 3.10862E-14
 -1      2948 2.00745E+01 1.55304E-01 2.64928E-03-5.09204E-01 3.93695E-14 5.99888E-14
 -1      2949 2.00301E+01 1.56527E-01 1.23833E-03-4.55229E-01 4.70770E-14 2.71993E-14
 -1      2950 2.00823E+01 2.10364E-01-2.24698E-03-4.39292E-01 5.02865E-14 5.22863E-14
 -1      2951 2.00995E+01 2.03742E-01-1.73154E-03-5.67140E-01 6.30125E-15 7.30865E-14
 -1      2952 2.03385E+01 1.02186E+00 3.43302E-03-7.25209E-01-8.32411E-14-1.50811E-13
 -1      2953 2.02569E+01 8.04865E-01-2.98965E-03-4.80774E-01-7.81653E-14-1.38117E-13
 -1      2954 2.02843E+01 8.97258E-01 5.89729E-04-4.28083E-01-6.65123E-14-1.65720E-13
 -1      2955 2.03080E+01 1.24463E+00-1.89343E-03-7.48809E-01-9.27337E-14-1.83356E-13
 -1      2956 1.99225E+01 2.66685E+00-7.65946E-03 7.43753E-01 1.87225E-13-9.19755E-14
 -1      2957 1.98723E+01 2.76472E+00-6.51963E-03 6.01220E-01 1.62302E-13-1.37348E-13
 -1      2958 1.99820E+01 2.48430E+00 4.76455E-03 4.71431E-01 1.49372E-13-1.41706E-13
 -1      2959 2.00777E+01 2.26979E+00 5.93125E-03 6.84701E-01 1.77736E-13-8.02206E-14
 -1      2960 2.01293E+01 4.62374E-01-6.21274E-04 1.89774E-01 1.46637E-13 1.93890E-14
 -1      2961 2.02154E+01 5.92515E-01 1.03416E-02 3.66552E-01 1.48270E-13 3.62285E-14
 -1      2962 2.02894E+01 8.66330E-01 1.93047E-04 5.31479E-01 1.58264E-13-1.88157E-14
 -1      2963 2.01979E+01 5.42670E-01-2.41590E-03 1.62416E-01 1.39835E-13-8.64895E-15
 -1      2964 1.98663E+01 2.77247E+00-6.50603E-03-5.91287E-01 9.04523E-16-2.28159E-13
 -1      2965 1.99155E+01 2.67644E+00-7.69336E-03-7.34399E-01-1.43754E-14-2.35479E-13
 -1      2966 7.54294E+00-1.36701E+00 1.44299E-01-3.66451E+00 1.49034E-13 7.02050E-13
 -1      2967 9.76968E+00-2.38350E+00 7.46891E-02-5.48610E+00 2.74156E-13 4.40925E-13
 -1      2968 6.62459E+00-5.69543E-01 1.26564E-01 9.36534E-01-1.23419E-13 8.22065E-13
 -1      2969 6.61529E+00-6.20117E-01 1.51335E-01-1.58294E+00-8.66460E-14 8.22648E-13
 -1      2970 1.99580E+01-4.84886E+00 7.74109E-02-5.59144E+00 1.31464E-13-3.66061E-14
 -1      2971 2.31033E+01-5.09995E+00-8.52271E-03-4.59377E+00 1.89015E-14-1.29001E-13
 -1      2972 2.83118E+01-2.12601E+00-2.89655E-02-4.68955E-01-1.58980E-13-2.27596E-14
 -1      2973 2.90930E+01-5.40444E-01-1.67596E-01 5.72135E-01-1.86400E-13 9.56180E-14
 -1      2974 2.83467E+01 1.51068E-01-5.54338E-02 1.44840E+00-9.46049E-14 1.05499E-13
 -1      2975 2.40762E+01-5.03458E+00-9.53439E-02 3.87774E+00 9.86156E-14 6.41535E-14
 -1      2976 2.15281E+01-5.07014E+00 1.25368E-01 5.16880E+00 1.90681E-13-1.86379E-14
 -1      2977 2.73684E+01-4.23394E+00-8.48721E-02 1.24904E+00 1.65729E-13 4.04676E-14
 -1      2978 2.56164E+01-4.94783E+00 4.91518E-02 2.66941E+00 4.79547E-14 1.13499E-13
 -1      2979 1.68779E+01-4.48977E+00 1.35602E-01-6.00277E+00-1.73792E-13-1.71071E-13
 -1      2980 2.04883E+01-5.32975E+00-6.57724E-02-5.42516E+00-2.37588E-13-2.15730E-13
 -1      2981 1.07806E+01-2.57600E+00 1.31267E-01-5.25622E+00-1.51754E-13-1.34504E-13
 -1      2982 1.35119E+01-3.71265E+00 4.85487E-02-6.17904E+00-1.24678E-13 4.44089E-16
 -1      2983 7.00126E+00-5.78896E-01 1.59385E-01-1.36367E+00-3.58914E-14-1.92846E-13
 -1      2984 8.57940E+00-1.34037E+00 1.27215E-01-3.82157E+00-9.17044E-14-2.39697E-13
 -1      2985 1.19108E+01-3.26842E+00 8.75641E-02 6.31419E+00 2.32092E-13-2.39822E-13
 -1      2986 9.57048E+00-2.27456E+00 1.29034E-01 5.22919E+00 2.65704E-13-2.63845E-13
 -1      2987 1.47245E+01-3.23085E+00 1.45356E-01 5.98044E+00 1.99396E-13-2.27374E-13
 -1      2988 2.74613E+01-3.18681E+00-1.55752E-01 8.94491E-01-2.00215E-13 1.69600E-13
 -1      2989 2.63296E+01-4.06140E+00 4.15896E-02 2.04665E+00-7.24906E-14 1.15769E-13
 -1      2990 2.83732E+01 4.69310E+00-1.83876E-01-1.67357E+00-4.21524E-13 6.16174E-14
 -1      2991 2.88010E+01 3.37301E+00-9.95275E-02-1.96783E+00-4.20441E-13 1.16240E-13
 -1      2992 2.77891E+01 1.67286E+00-6.06684E-02-1.98708E+00-3.59379E-13 1.58082E-13
 -1      2993 2.67923E+01 4.53812E+00-8.33329E-02-1.52661E+00-3.93435E-13 7.13804E-14
 -1      2994 2.41592E+01-5.26339E+00 1.00116E-01-3.77445E+00-2.13635E-13-2.03657E-14
 -1      2995 2.64642E+01-4.92135E+00-1.58811E-01-2.34165E+00-1.28245E-13 1.15352E-13
 -1      2996 2.80626E+01 4.83649E+00-1.39024E-01 1.76047E+00-3.76144E-13 1.16379E-13
 -1      2997 2.73054E+01 5.79556E+00-1.83245E-01 1.01481E+00-4.40648E-13-1.33296E-14
 -1      2998 2.03598E+01 1.51945E+00-1.55242E-03 1.21372E+00 2.04278E-13 6.37385E-14
 -1      2999 2.84609E+01-3.32520E+00 1.31380E-02-2.61083E-01 5.73708E-14 3.31818E-13
 -1      3000 2.94723E+01-1.53137E+00-1.66728E-01 1.22689E+00 1.79065E-13 3.72202E-13
 -1      3001 2.52446E+01-4.59337E+00 2.15166E-02-3.18202E+00 3.33067E-16-8.36831E-14
 -1      3002 2.69731E+01-3.84522E+00-1.03481E-01-2.03579E+00-7.11514E-14 5.33878E-14
 -1      3003 2.73867E+01-2.93893E+00-1.52528E-02-6.10028E-01-7.02233E-14 7.70217E-15
 -1      3004 2.42651E+01-4.70319E+00 2.40133E-02-3.27270E+00 2.79290E-14 6.66134E-15
 -1      3005 9.74286E+00-1.96603E+00 5.62670E-02 4.73109E+00-1.14506E-13 3.30819E-13
 -1      3006 7.80694E+00-1.05716E+00 1.64240E-01 2.95088E+00-2.14315E-13 6.11344E-13
 -1      3007 1.28564E+01-3.13939E+00 1.68356E-01-6.11780E+00 2.77500E-13 3.28348E-13
 -1      3008 1.59735E+01-4.05635E+00 2.89625E-02-6.33175E+00 1.69045E-13 8.91370E-14
 -1      3009 2.32744E+01-5.34280E+00-2.66915E-02 4.19625E+00-6.85008E-14 2.71489E-13
 -1      3010 2.03259E+01-4.90371E+00 7.90641E-02 5.17857E+00-7.73132E-14 2.45456E-13
 -1      3011 2.46497E+01-4.81557E+00 5.43155E-02 2.83899E+00-5.56499E-15 2.03754E-13
 -1      3012 1.99763E+01 2.54695E+00-6.48243E-03-8.45751E-01-2.85175E-14-2.19309E-13
 -1      3013 2.00455E+01 2.39062E+00-1.07489E-02-9.75621E-01-6.69033E-14-2.07352E-13
 -1      3014 2.00707E+01 2.28425E+00 6.94826E-03-6.79518E-01-1.91298E-14-2.08811E-13
 -1      3015 1.99025E+01 2.64877E+00 3.96672E-03 4.81277E-03 8.40720E-14-1.83683E-13
 -1      3016 1.97717E+01 2.96287E+00-5.68140E-03-5.60066E-02 8.70777E-14-1.94695E-13
 -1      3017 1.97807E+01 2.94686E+00-5.58040E-03-2.01012E-01 5.81783E-14-2.04788E-13
 -1      3018 2.75147E+01-1.96503E+00 2.16204E-03-4.72432E-01-2.01027E-13 2.17271E-13
 -1      3019 1.87155E+01-4.27607E+00 9.45072E-02-5.69171E+00 1.42913E-13-1.00326E-13
 -1      3020 2.07900E+01-4.26743E+00 6.43167E-03-4.58201E+00 1.81653E-13-7.55403E-14
 -1      3021 1.74666E+01-3.36189E+00 7.51604E-02-5.44556E+00 1.26725E-13-2.34673E-14
 -1      3022 1.99888E+01 9.73246E-02 2.72185E-04 5.29784E-02-1.04047E-13-7.75327E-14
 -1      3023 1.99945E+01 7.99424E-02-4.68897E-04 4.69714E-02-1.05805E-13-7.59277E-14
 -1      3024 2.00013E+01 7.19845E-02 2.24133E-04 4.81029E-02-1.33749E-13 4.08928E-14
 -1      3025 2.73619E+01 3.31586E+00-1.06591E-01 1.89714E+00-2.05530E-13 4.29379E-14
 -1      3026 1.28061E+01-1.79976E+00 1.49237E-01 4.68344E+00-1.67588E-13 3.19356E-13
 -1      3027 2.89494E+01 1.12230E+00-1.26038E-01 2.50145E+00 3.54661E-13 4.37789E-13
 -1      3028 2.62947E+01 5.31353E+00-8.89196E-02 4.15529E-01-4.15473E-13 8.58740E-14
 -1      3029 2.61910E+01-2.14080E+00-1.08188E-02-1.38093E+00 9.52927E-14-4.27460E-13
 -1      3030 2.64318E+01-1.56186E+00-1.90201E-02-1.97146E+00 3.18079E-13-3.89228E-13
 -1      3031 2.00067E+01 6.11457E-02-4.23124E-04 4.75861E-02-2.75752E-13 1.28203E-13
 -1      3032 2.00129E+01 5.25136E-02 2.25454E-04 4.53164E-02-3.17586E-13 2.89539E-13
 -1      3033 2.00175E+01 5.65407E-02 4.52511E-04 5.30710E-02-3.93709E-13 2.74594E-13
 -1      3034 2.00043E+01 7.68914E-02 2.85576E-04 5.68359E-02-2.78095E-13 2.41590E-13
 -1      3035 1.89042E+01-4.15017E+00 9.76564E-02 5.26245E+00-7.10543E-15 2.94258E-13
 -1      3036 1.74615E+01-3.03030E+00 5.52502E-02 4.98245E+00 4.51028E-14 3.33449E-13
 -1      3037 2.07449E+01-4.25016E+00-2.68222E-02 4.39043E+00 5.07094E-14 3.78964E-13
 -1      3038 2.00103E+01 5.21343E-02-1.59039E-04-4.42997E-02 1.37995E-13-7.12707E-13
 -1      3039 2.00074E+01 6.57456E-02-9.80625E-05-5.36833E-02-3.47076E-14-4.69139E-13
 -1      3040 1.03053E+01-1.19241E+00 1.67514E-01 4.10966E+00 2.07438E-13-2.61319E-13
 -1      3041 2.01533E+01-4.56226E+00 9.32672E-02 5.30148E+00 2.25653E-13-1.33990E-14
 -1      3042 2.49968E+01-4.43476E+00 2.11971E-02 2.55339E+00 1.16303E-13 1.01107E-13
 -1      3043 8.78114E+00-2.98317E-02 1.77722E-01-1.36381E-01 3.08122E-14-1.67741E-13
 -1      3044 2.77817E+01-1.98274E+00-6.24244E-02-1.54255E+00 3.10068E-13-3.03993E-13
 -1      3045 1.97992E+01 2.90709E+00-6.01079E-03-3.25198E-01 4.54901E-14-1.81613E-13
 -1      3046 1.98277E+01 2.85497E+00-6.10511E-03-4.70277E-01 1.59441E-14-1.96275E-13
 -1      3047 1.99770E+01 2.49055E+00 4.68749E-03-4.62595E-01 1.24202E-14-2.02647E-13
 -1      3048 1.99206E+01 2.61038E+00 4.11780E-03-2.31527E-01 5.20523E-14-1.84223E-13
 -1      3049 2.90603E+01-7.86987E-01-1.45806E-01 2.06804E+00 2.58980E-13 4.32890E-13
 -1      3050 1.12292E+01-1.37181E+00 1.53517E-01-4.13481E+00-7.04437E-14-1.86157E-13
 -1      3051 1.65564E+01-3.57816E+00 1.46026E-01-5.58102E+00-1.13881E-13-1.51962E-13
 -1      3052 8.81211E+00-2.66388E-01 1.67263E-01 1.72827E+00-2.10099E-13 6.12260E-13
 -1      3053 8.70046E+00-4.88366E-01 1.70601E-01-2.48512E+00 1.22256E-13 6.24001E-13
 -1      3054 1.24907E+01-2.18699E+00 1.45828E-01-5.37122E+00 1.95524E-13 3.21271E-13
 -1      3055 2.27675E+01-4.89297E+00 1.08212E-01-4.06019E+00-2.33549E-13-4.60049E-14
 -1      3056 2.03135E+01 1.61689E+00-1.60873E-03 1.10317E+00 2.04453E-13-1.93465E-15
 -1      3057 2.03045E+01 1.40897E+00 2.36312E-03 8.47570E-01 1.81138E-13-1.13988E-14
 -1      3058 2.79805E+01-1.72144E+00-8.11256E-03 1.63221E+00 2.06855E-13 4.04649E-13
 -1      3059 2.73626E+01-3.87849E+00 4.31251E-02-6.74614E-01-5.85573E-14 2.16063E-13
 -1      3060 2.59077E+01-2.82730E+00-1.53798E-02-4.48980E-01-2.46925E-14-3.78034E-13
 -1      3061 2.02562E+01 1.54603E+00-5.69789E-03 7.22104E-01 1.61437E-13-1.33877E-14
 -1      3062 2.02068E+01 1.74358E+00-1.20340E-03 6.67472E-01 1.67797E-13-5.21343E-14
 -1      3063 2.02453E+01 5.41963E-01 3.42837E-03 4.14111E-02-3.48648E-14-8.66767E-14
 -1      3064 2.02149E+01 4.51148E-01-1.37148E-03 1.51517E-01-2.09041E-14-7.61126E-14
 -1      3065 2.01964E+01 3.84154E-01 2.39384E-03 2.41434E-01-4.12793E-14-6.45248E-14
 -1      3066 2.01775E+01 3.32109E-01-2.13215E-04 3.24010E-01-6.70941E-14-6.34718E-14
 -1      3067 2.02368E+01 5.01118E-01-7.53969E-04 1.77265E-01-2.63048E-14-8.48380E-14
 -1      3068 2.01552E+01 2.95994E-01 1.31406E-03 3.95237E-01-6.91065E-14-5.14533E-14
 -1      3069 2.01482E+01 2.70351E-01 6.45970E-04 4.61086E-01-4.88863E-14-5.28008E-14
 -1      3070 2.01894E+01 3.78330E-01-9.12971E-04 3.44083E-01-6.84703E-14-6.98198E-14
 -1      3071 2.01255E+01 2.54388E-01 4.47610E-04 5.21879E-01-1.21636E-14-5.41255E-14
 -1      3072 2.01297E+01 2.45457E-01 1.26046E-03 5.79038E-01-2.49329E-14-7.41533E-15
 -1      3073 2.01420E+01 3.15708E-01-8.69010E-04 4.80858E-01-2.98091E-14-7.42913E-14
 -1      3074 2.01088E+01 2.41153E-01-1.64062E-04 6.35762E-01-5.05048E-14 1.20399E-14
 -1      3075 2.01236E+01 2.40630E-01 1.70121E-03 6.89594E-01-7.85940E-14 1.03711E-14
 -1      3076 2.00987E+01 2.91542E-01-7.97270E-04 6.02235E-01-2.70152E-14-5.31452E-14
 -1      3077 2.01066E+01 2.40155E-01-4.82110E-04 7.46647E-01-6.52332E-14 7.49991E-14
 -1      3078 2.01323E+01 2.39775E-01 2.01659E-03 7.99919E-01-2.64750E-15 7.24281E-14
 -1      3079 2.00625E+01 2.87043E-01-8.20245E-04 7.19273E-01-2.08793E-14-1.92907E-14
 -1      3080 2.01227E+01 2.34805E-01-4.46618E-04 8.59632E-01-4.00936E-14 8.75753E-14
 -1      3081 2.01614E+01 2.25321E-01 2.23551E-03 9.12439E-01-5.30628E-14 7.29111E-14
 -1      3082 2.00377E+01 2.83543E-01-1.05101E-03 8.39193E-01-4.12530E-14 5.06823E-14
 -1      3083 2.01648E+01 2.06201E-01 4.34158E-05 9.74881E-01-4.55543E-14 1.06747E-13
 -1      3084 2.02207E+01 1.76654E-01 2.35882E-03 1.02437E+00-2.37415E-14 1.01208E-13
 -1      3085 2.00318E+01 2.60292E-01-1.63514E-03 9.65148E-01-3.21905E-14 1.07274E-13
 -1      3086 2.02468E+01 1.31917E-01 1.14794E-03 1.08689E+00-4.72330E-14 7.42816E-14
 -1      3087 2.03269E+01 6.94004E-02 2.32984E-03 1.12668E+00-3.68364E-14 6.27621E-14
 -1      3088 2.00581E+01 1.92817E-01-2.77537E-03 1.09575E+00-9.93971E-15 1.47191E-13
 -1      3089 2.03904E+01-1.38984E-02 3.08566E-03 1.18290E+00-2.23478E-14 3.45428E-14
 -1      3090 2.05050E+01-1.23298E-01 1.97554E-03 1.20223E+00-2.05557E-14 4.58445E-14
 -1      3091 2.01385E+01 5.23258E-02-4.72792E-03 1.22381E+00-4.10753E-14-1.75353E-14
 -1      3092 2.06275E+01-2.57537E-01 6.11394E-03 1.24012E+00-5.56473E-14 3.45772E-14
 -1      3093 2.07889E+01-4.25391E-01 9.31872E-04 1.22257E+00-3.46365E-14 1.00532E-14
 -1      3094 2.03064E+01-1.92540E-01-7.76193E-03 1.33364E+00-5.26553E-14 3.48955E-14
 -1      3095 2.09991E+01-6.17151E-01 1.04459E-02 1.22135E+00 6.29737E-15 6.86308E-15
 -1      3096 2.12176E+01-8.45115E-01-1.56590E-03 1.14371E+00-9.65721E-15 2.52552E-14
 -1      3097 2.06086E+01-5.68757E-01-1.19443E-02 1.39593E+00-8.77261E-15-5.28693E-14
 -1      3098 2.15481E+01-1.08379E+00 1.59694E-02 1.06693E+00-1.02390E-14 9.01243E-14
 -1      3099 2.18221E+01-1.34465E+00-6.20642E-03 8.99893E-01-1.61848E-14 1.45265E-13
 -1      3100 2.11049E+01-1.08444E+00-1.67338E-02 1.35853E+00 2.93678E-14-9.72139E-15
 -1      3101 2.22818E+01-1.57673E+00 1.82394E-02 6.97029E-01-4.29864E-15 1.94899E-13
 -1      3102 2.25859E+01-1.78793E+00-1.29554E-02 4.18977E-01 7.01900E-14 2.10890E-13
 -1      3103 2.18471E+01-1.67057E+00-1.81209E-02 1.12776E+00 6.34665E-14 2.04001E-13
 -1      3104 2.31456E+01-1.90185E+00 1.81744E-02 4.83467E-02 6.47399E-15 2.46520E-13
 -1      3105 2.34252E+01-1.91010E+00-1.21546E-02-3.30039E-01-7.64545E-14 2.47473E-13
 -1      3106 2.28131E+01-2.17471E+00-2.62358E-02 6.04096E-01 4.98590E-14 2.63030E-13
 -1      3107 2.39515E+01-1.75116E+00-2.41500E-03-8.64895E-01-1.15722E-13 2.48529E-13
 -1      3108 2.41139E+01-1.33589E+00-1.13345E-02-1.26605E+00-1.08646E-13 2.18477E-13
 -1      3109 2.39387E+01-2.15680E+00-4.58398E-03-3.24988E-01-7.58534E-14 2.79861E-13
 -1      3110 2.43512E+01-6.69277E-01-4.12731E-02-1.77322E+00-9.69225E-14 2.06286E-13
 -1      3111 2.43448E+01 2.26968E-01-3.31992E-03-1.93798E+00-1.54526E-13 1.91518E-13
 -1      3112 2.48132E+01-1.30646E+00-2.03232E-03-1.39424E+00-1.19827E-13 3.41234E-13
 -1      3113 2.44187E+01 3.62810E+00-9.08735E-02-1.16397E+00-3.44565E-13 8.54690E-14
 -1      3114 2.42667E+01 4.13903E+00-9.12210E-02-4.44336E-01-3.35558E-13 8.96921E-14
 -1      3115 2.44293E+01 3.97294E+00-7.40450E-02 8.02172E-01-3.34996E-13-5.53117E-15
 -1      3116 2.46089E+01 3.29903E+00-8.64518E-02 1.51383E+00-2.60580E-13-3.04878E-15
 -1      3117 2.43256E+01 9.15666E-02-2.05929E-02 1.91700E+00-3.08798E-14-1.21291E-13
 -1      3118 2.43547E+01-7.38748E-01-3.20056E-02 1.74180E+00 6.82848E-14-1.75490E-13
 -1      3119 2.40721E+01-1.37255E+00-1.29009E-02 1.23226E+00 1.02993E-13-1.02876E-13
 -1      3120 2.39116E+01-1.74818E+00 8.15796E-04 8.38692E-01 8.07418E-14 2.44223E-14
 -1      3121 2.47745E+01-1.32622E+00 1.63489E-03 1.36399E+00 1.10922E-13-1.24820E-13
 -1      3122 2.33775E+01-1.90353E+00-1.67071E-02 3.17019E-01-3.74865E-14 7.06221E-14
 -1      3123 2.31048E+01-1.87637E+00 1.77852E-02-5.87492E-02-2.07141E-14 9.25271E-14
 -1      3124 2.38612E+01-2.19426E+00-1.03433E-02 2.50092E-01 6.14692E-14 1.71738E-16
 -1      3125 2.25447E+01-1.74421E+00-1.22330E-02-4.17016E-01-7.24464E-14 1.01525E-13
 -1      3126 2.22433E+01-1.52137E+00 1.97559E-02-6.84969E-01 3.67104E-14 6.64080E-14
 -1      3127 2.27653E+01-2.11971E+00-1.75166E-02-6.14869E-01-4.50429E-14 1.91698E-13
 -1      3128 2.17854E+01-1.28056E+00-6.15128E-03-8.70955E-01 5.65377E-14 6.32682E-14
 -1      3129 2.15158E+01-1.01698E+00 1.53697E-02-1.02490E+00 1.01693E-13 3.26451E-14
 -1      3130 2.17903E+01-1.60644E+00-2.02034E-02-1.10636E+00 7.66238E-15 2.22701E-13
 -1      3131 2.11927E+01-7.77949E-01-1.65024E-03-1.08863E+00 2.14287E-13-1.05596E-14
 -1      3132 2.09797E+01-5.49976E-01 1.03241E-02-1.15466E+00 2.18805E-13 8.71342E-14
 -1      3133 2.10633E+01-1.00485E+00-1.63585E-02-1.30394E+00 1.21403E-13 2.39101E-13
 -1      3134 2.07718E+01-3.57848E-01 7.07487E-04-1.14550E+00 1.91089E-13 6.69390E-14
 -1      3135 2.06153E+01-1.89466E-01 6.13346E-03-1.15164E+00 1.64839E-14 1.59350E-13
 -1      3136 2.05765E+01-4.91452E-01-1.16017E-02-1.32067E+00 2.11207E-13 7.09748E-14
 -1      3137 2.04926E+01-5.48361E-02 1.73843E-03-1.10314E+00-1.17269E-13 3.18418E-13
 -1      3138 2.03819E+01 5.50762E-02 3.13566E-03-1.07246E+00-6.63015E-14 3.79433E-13
 -1      3139 2.02764E+01-1.14119E-01-7.36497E-03-1.23804E+00 6.31599E-14 9.97787E-14
 -1      3140 2.03158E+01 1.38647E-01 2.04555E-03-1.00568E+00-1.54127E-13 3.41430E-13
 -1      3141 2.02383E+01 2.01338E-01 1.17843E-03-9.54705E-01-1.59893E-13 2.64992E-13
 -1      3142 2.01060E+01 1.31491E-01-4.33617E-03-1.10782E+00-1.23119E-13 1.17544E-13
 -1      3143 2.02072E+01 2.45643E-01 2.05635E-03-8.81930E-01-2.07055E-13 1.82210E-13
 -1      3144 2.01526E+01 2.74106E-01-4.97169E-07-8.21960E-01-1.01393E-13 2.13495E-13
 -1      3145 2.00182E+01 2.71701E-01-2.36077E-03-9.59801E-01-2.79008E-13 7.61713E-14
 -1      3146 2.01416E+01 2.90962E-01 1.95295E-03-7.50312E-01-9.49485E-14-6.67733E-16
 -1      3147 2.01022E+01 2.96646E-01-6.48650E-04-6.88766E-01-1.51515E-13-1.55124E-13
 -1      3148 1.99796E+01 3.35713E-01-1.15711E-03-8.10781E-01-2.61922E-13 1.00200E-13
 -1      3149 2.01019E+01 2.95888E-01 1.80180E-03-6.22265E-01-6.16780E-14-1.53332E-13
 -1      3150 2.00725E+01 2.87716E-01-9.49693E-04-5.63759E-01-4.44044E-14-1.42912E-13
 -1      3151 1.99682E+01 3.48934E-01-4.75391E-04-6.70198E-01-1.30966E-13-4.47460E-14
 -1      3152 2.00771E+01 2.76728E-01 1.62849E-03-5.04484E-01-7.45022E-14-9.59807E-14
 -1      3153 2.00547E+01 2.61122E-01-1.03544E-03-4.51635E-01-4.96295E-15-1.59083E-13
 -1      3154 1.99702E+01 3.31110E-01-1.20323E-04-5.43117E-01 5.38721E-14-1.37466E-13
 -1      3155 2.00609E+01 2.45069E-01 1.44366E-03-4.00420E-01 5.04469E-14-1.55439E-13
 -1      3156 2.00433E+01 2.26364E-01-9.97218E-04-3.54450E-01 1.45414E-13-2.04381E-13
 -1      3157 1.99778E+01 2.96482E-01 4.26061E-05-4.31867E-01 3.67884E-14-1.71213E-13
 -1      3158 2.00494E+01 2.08640E-01 1.25466E-03-3.11332E-01 1.01648E-13-2.65736E-13
 -1      3159 2.00354E+01 1.89596E-01-8.94061E-04-2.72536E-01 1.09189E-13-2.90763E-13
 -1      3160 1.99865E+01 2.54702E-01 9.83971E-05-3.37008E-01 9.46761E-14-9.42060E-14
 -1      3161 2.00405E+01 1.72304E-01 1.06638E-03-2.37050E-01 1.98669E-13-4.03657E-13
 -1      3162 2.00293E+01 1.54554E-01-7.64217E-04-2.05121E-01 2.98325E-13-4.44787E-13
 -1      3163 1.99942E+01 2.11978E-01 1.04379E-04-2.57978E-01 2.18321E-13-2.06480E-13
 -1      3164 2.00332E+01 1.38876E-01 8.90285E-04-1.76498E-01 3.50013E-13-4.96298E-13
 -1      3165 2.00241E+01 1.23239E-01-6.33973E-04-1.50783E-01 2.41586E-13-5.10488E-13
 -1      3166 2.00001E+01 1.71971E-01 8.11344E-05-1.93484E-01 2.90603E-13-5.99689E-13
 -1      3167 2.00268E+01 1.09801E-01 7.59399E-04-1.28134E-01 2.70264E-15-5.81936E-13
 -1      3168 2.00194E+01 9.64817E-02-5.00368E-04-1.07779E-01-9.68891E-14-6.56575E-13
 -1      3169 2.00040E+01 1.36539E-01 2.78301E-05-1.41893E-01 6.51345E-14-7.15348E-13
 -1      3170 2.00212E+01 8.52268E-02 6.64691E-04-9.01958E-02-1.77775E-13-6.57507E-13
 -1      3171 2.00154E+01 7.48753E-02-1.09413E-04-7.47610E-02-2.97143E-13-9.23996E-13
 -1      3172 2.00056E+01 1.06131E-01-2.19201E-04-1.01324E-01-1.24653E-13-6.67587E-13
 -1      3173 2.01255E+01 3.42711E-01 2.76109E-03-8.66204E-01 4.86205E-14 9.16435E-15
 -1      3174 2.00933E+01 3.14339E-01-1.69213E-03-7.93706E-01 5.61109E-14 2.86192E-14
 -1      3175 2.01176E+01 2.92482E-01 2.31938E-03-7.25428E-01 6.66108E-14 2.33475E-14
 -1      3176 2.00937E+01 2.73921E-01-8.29928E-04-6.59649E-01 5.73917E-14 3.95548E-14
 -1      3177 2.00439E+01 3.64109E-01 6.69657E-05-7.61104E-01 5.73725E-14-1.39155E-15
 -1      3178 2.01480E+01 4.59690E-01 3.59667E-03-1.20867E+00 1.41538E-14-5.38213E-15
 -1      3179 2.01015E+01 4.31406E-01-2.92439E-03-1.11509E+00 9.82577E-15-5.32285E-14
 -1      3180 2.01653E+01 4.88722E-01 4.17916E-03-1.41514E+00 1.87895E-14-1.90891E-15
 -1      3181 2.01083E+01 4.77484E-01-3.14078E-03-1.31206E+00 2.41340E-14-1.15677E-14
 -1      3182 1.98790E+01 5.56620E-01 1.29745E-03-1.26495E+00 1.04946E-14-7.28481E-14
 -1      3183 2.02025E+01 4.54028E-01 5.11716E-03-1.64093E+00 6.82492E-14-4.69683E-14
 -1      3184 2.01259E+01 4.80261E-01-2.77360E-03-1.53350E+00 8.58741E-14-8.76518E-15
 -1      3185 1.98064E+01 5.79597E-01 9.37729E-04-1.48497E+00 6.73267E-14-5.81263E-14
 -1      3186 2.02940E+01 2.99879E-01 6.66604E-03-1.87506E+00 1.12463E-15-7.47714E-14
 -1      3187 2.01780E+01 3.94489E-01-1.24935E-03-1.77367E+00 1.26032E-14-4.34877E-14
 -1      3188 1.97424E+01 5.19750E-01-7.02491E-04-1.73639E+00 6.16654E-14 5.49123E-15
 -1      3189 2.05079E+01-5.14663E-02 9.19465E-03-2.09483E+00-2.33444E-14 8.12095E-15
 -1      3190 2.03164E+01 1.53655E-01 2.57194E-03-2.01831E+00-4.57707E-14-5.02943E-14
 -1      3191 1.97270E+01 3.09622E-01-4.62402E-03-2.02018E+00-3.07594E-14-2.51012E-14
 -1      3192 2.09660E+01-6.89938E-01 1.40079E-02-2.25295E+00-6.84518E-14 8.18228E-14
 -1      3193 2.06381E+01-3.27968E-01 1.10004E-02-2.23639E+00 3.90612E-14 2.93190E-14
 -1      3194 1.98420E+01-1.43499E-01-1.18278E-02-2.33010E+00-2.32080E-14 5.42075E-14
 -1      3195 2.18503E+01-1.68112E+00 1.69819E-02-2.24874E+00-1.93363E-13 1.14683E-13
 -1      3196 2.13088E+01-1.14556E+00 2.48437E-02-2.36242E+00-1.40712E-13 6.84353E-14
 -1      3197 2.02264E+01-9.42424E-01-2.36329E-02-2.64311E+00-1.03870E-13 4.34722E-14
 -1      3198 2.33815E+01-2.85645E+00 2.65801E-02-1.82981E+00-1.74704E-13 1.80196E-13
 -1      3199 2.25704E+01-2.28680E+00 4.71755E-02-2.20030E+00-1.73784E-13 1.83419E-13
 -1      3200 2.11826E+01-2.20934E+00-4.46651E-02-2.86534E+00-2.05165E-13 2.88797E-14
 -1      3201 2.71790E+01-3.05018E+00-1.19923E-01 7.68048E-01 5.01717E-14 2.85851E-13
 -1      3202 2.31680E+01-2.70738E+00 4.85508E-02 1.99664E+00-1.18738E-13-1.82372E-13
 -1      3203 2.39840E+01-3.24728E+00-7.66110E-03 1.53966E+00-7.77347E-14-9.85499E-14
 -1      3204 2.04194E+01 5.24507E-02 4.62954E-03 2.03618E+00-7.38733E-14 1.16421E-13
 -1      3205 2.06468E+01-2.07028E-01 9.45571E-03 2.10412E+00-3.49102E-14-2.01903E-14
 -1      3206 2.02333E+01 3.74850E-01-2.18428E-04 1.77884E+00-6.68619E-15 8.13134E-14
 -1      3207 2.03667E+01 2.42909E-01 6.92165E-03 1.88292E+00-2.32870E-14 1.06300E-13
 -1      3208 1.97474E+01 2.28232E-01-7.33331E-03 2.05741E+00-3.27858E-14 1.48293E-14
 -1      3209 2.01617E+01 5.13022E-01-2.27491E-03 1.51547E+00-1.14918E-13 2.12133E-13
 -1      3210 2.02447E+01 4.63592E-01 5.20606E-03 1.63221E+00-1.21534E-13 1.11167E-13
 -1      3211 1.97280E+01 5.20397E-01-1.91797E-03 1.74513E+00-1.31174E-13 2.33987E-13
 -1      3212 2.01384E+01 5.40286E-01-2.93532E-03 1.26554E+00 1.14497E-14 1.91683E-13
 -1      3213 2.01962E+01 5.38707E-01 4.14125E-03 1.38158E+00 1.53871E-14 2.51303E-13
 -1      3214 1.97786E+01 6.31249E-01 6.33446E-04 1.46261E+00-1.55119E-13 3.20854E-13
 -1      3215 2.01305E+01 5.08069E-01-2.93966E-03 1.03824E+00 8.28297E-14 2.02124E-13
 -1      3216 2.01757E+01 5.31130E-01 3.47829E-03 1.14626E+00 1.93229E-14 1.99317E-13
 -1      3217 1.98463E+01 6.36203E-01 1.48383E-03 1.21122E+00 3.54586E-14 2.79669E-13
 -1      3218 2.01242E+01 4.48424E-01-2.65741E-03 8.37718E-01-1.70451E-13 3.04416E-13
 -1      3219 2.01624E+01 4.82014E-01 3.02928E-03 9.33933E-01-5.33038E-14 2.49652E-13
 -1      3220 1.99078E+01 5.86071E-01 1.53351E-03 9.89914E-01-3.34610E-14 3.21200E-13
 -1      3221 2.01150E+01 3.80070E-01-2.26414E-03 6.65193E-01-3.29290E-13 4.20999E-13
 -1      3222 2.01484E+01 4.16124E-01 2.66625E-03 7.48156E-01-2.28944E-13 3.70472E-13
 -1      3223 1.99553E+01 5.11771E-01 1.26120E-03 7.97749E-01-3.09057E-13 3.28516E-13
 -1      3224 2.01028E+01 3.13109E-01-1.85716E-03 5.19929E-01-3.10777E-13 4.35315E-13
 -1      3225 2.01320E+01 3.47387E-01 2.33489E-03 5.89657E-01-2.85894E-13 3.98707E-13
 -1      3226 1.99882E+01 4.31236E-01 9.16120E-04 6.33534E-01-2.78131E-13 3.70081E-13
 -1      3227 2.00888E+01 2.52454E-01-1.48303E-03 3.99928E-01-1.08120E-13 1.68818E-13
 -1      3228 2.01139E+01 2.82984E-01 2.01586E-03 4.57309E-01-2.69604E-13 3.09678E-13
 -1      3229 2.00087E+01 3.54087E-01 6.03410E-04 4.95548E-01-1.96423E-13 1.37903E-13
 -1      3230 2.00743E+01 2.00045E-01-1.16038E-03 3.02487E-01-9.83885E-14 2.73431E-13
 -1      3231 2.00954E+01 2.26140E-01 1.70930E-03 3.48859E-01-8.41215E-14 2.45462E-13
 -1      3232 2.00200E+01 2.84936E-01 3.58761E-04 3.81525E-01-1.62447E-13 7.00766E-14
 -1      3233 2.00604E+01 1.56220E-01-8.90797E-04 2.24616E-01 1.11022E-13 1.14282E-13
 -1      3234 2.00778E+01 1.77863E-01 1.42225E-03 2.61488E-01 1.64787E-14 1.70630E-13
 -1      3235 2.00250E+01 2.25499E-01 1.84979E-04 2.88822E-01 8.51631E-14 1.87020E-13
 -1      3236 2.00476E+01 1.20445E-01-6.84426E-04 1.63264E-01 1.02750E-13 5.14298E-14
 -1      3237 2.00618E+01 1.38022E-01 1.15754E-03 1.92167E-01 2.62299E-13 1.12553E-13
 -1      3238 2.00257E+01 1.75953E-01 7.20865E-05 2.14618E-01 1.46800E-13 2.49741E-13
 -1      3239 2.00364E+01 9.19863E-02-5.02839E-04 1.15712E-01 3.10939E-14-7.68668E-14
 -1      3240 2.00477E+01 1.05849E-01 9.17696E-04 1.38039E-01-1.28263E-14-2.93280E-14
 -1      3241 2.00239E+01 1.35648E-01 3.37564E-05 1.56134E-01 1.27573E-13 2.65796E-13
 -1      3242 2.00270E+01 7.00199E-02-1.24154E-04 7.94911E-02-2.54884E-14-2.98470E-13
 -1      3243 2.00355E+01 8.03347E-02 6.85142E-04 9.62388E-02-3.00232E-14-1.22002E-13
 -1      3244 2.00205E+01 1.03478E-01-2.58399E-05 1.10752E-01 2.46245E-14-1.35701E-13
 -1      3245 2.00192E+01 6.10495E-02 1.23393E-04 6.07749E-02-3.06335E-13 9.95483E-14
 -1      3246 2.00254E+01 6.53588E-02 4.60958E-04 7.02112E-02-1.32156E-13-8.23344E-14
 -1      3247 2.00162E+01 8.31346E-02-1.53073E-04 8.17118E-02-2.66479E-13-9.96322E-14
 -1      3248 2.00119E+01 7.06897E-02-4.81896E-04 6.39883E-02-5.32189E-13 2.69444E-13
 -1      3249 2.00075E+01 2.28323E+00-4.34147E-03 2.58825E-01 1.27870E-13-1.48319E-13
 -1      3250 1.99897E+01 2.32536E+00-3.68858E-03 1.49416E-01 9.36161E-14-1.60748E-13
 -1      3251 2.01806E+01 4.14775E-01-9.51184E-04-1.35431E-01 9.01057E-14 6.44040E-14
 -1      3252 2.02136E+01 4.98971E-01 4.00709E-03-1.94574E-02 9.49239E-14 4.59223E-14
 -1      3253 1.99488E+01 1.45713E-01-2.38446E-04-6.80823E-03 2.12391E-13-2.98551E-13
 -1      3254 1.99487E+01 1.46005E-01-2.60773E-04 5.23594E-03 1.57504E-13-1.90292E-13
 -1      3255 1.99888E+01 1.02215E-01 2.50082E-04-6.48890E-02 1.86178E-13-1.29443E-13
 -1      3256 1.99785E+01 1.11599E-01-5.76232E-04-6.03627E-02 2.81544E-13-9.55186E-14
 -1      3257 1.99554E+01 1.38752E-01-4.85601E-05-3.17573E-02 3.05915E-13-5.53999E-14
 -1      3258 1.99511E+01 1.42537E-01-4.15565E-04-2.09313E-02 3.29077E-13-4.84871E-14
 -1      3259 1.99400E+01 1.63222E-01 5.89598E-04-1.61151E-02 2.46009E-13-2.14265E-13
 -1      3260 2.52284E+01-4.45994E+00-6.68834E-02 1.85282E+00-1.24206E-15 1.17953E-13
 -1      3261 2.36538E+01-4.47917E+00 9.09353E-02 3.10408E+00-1.05759E-13 1.65581E-13
 -1      3262 1.13462E+01-5.30211E-01 7.80628E-02-3.32114E+00-2.11081E-14-2.13857E-13
 -1      3263 1.33169E+01-1.70221E+00 7.83230E-02-4.75832E+00-4.86278E-14-1.42233E-13
 -1      3264 1.62500E+01-3.35510E+00-1.13171E-02 5.75166E+00 1.73472E-13-1.60087E-13
 -1      3265 1.42551E+01-2.38301E+00 1.17049E-01 5.43221E+00 1.78774E-13-2.79422E-13
 -1      3266 2.84274E+01-2.53968E+00-7.99387E-02-1.07882E+00 2.86157E-13-6.43374E-14
 -1      3267 2.81680E+01-3.57449E+00-3.79157E-02 2.58862E-01 2.59228E-13-6.52256E-15
 -1      3268 2.01120E+01 2.24538E+00-5.55393E-03-1.04353E+00-7.71234E-14-2.11075E-13
 -1      3269 2.01900E+01 2.04846E+00-1.01833E-02-1.12347E+00-9.99359E-14-2.14700E-13
 -1      3270 2.02795E+01 1.67061E+00 9.29833E-03-9.09732E-01-1.00523E-13-1.99999E-13
 -1      3271 2.01905E+01 1.99216E+00 9.31439E-03-8.34678E-01-6.10350E-14-1.83428E-13
 -1      3272 1.99696E+01 1.23609E-01 1.22627E-04-5.22883E-02 2.49609E-13-7.23967E-14
 -1      3273 1.99616E+01 1.30658E-01-5.15326E-04-4.39039E-02 3.01658E-13-5.90634E-14
 -1      3274 1.99501E+01 1.52359E-01 5.07470E-04-4.39673E-02 1.40479E-13-1.05103E-13
 -1      3275 1.99689E+01 1.32976E-01 5.20852E-04-6.55146E-02 2.70086E-13-8.11984E-14
 -1      3276 2.16878E+01-1.48095E+00 3.60867E-02 2.30099E+00-2.06866E-14-2.23710E-13
 -1      3277 2.22866E+01-2.07131E+00 1.33957E-02 2.13204E+00 2.55768E-14-2.15503E-13
 -1      3278 2.17130E+01-2.59000E+00-3.00442E-02 2.71814E+00-3.16353E-14-2.94292E-13
 -1      3279 2.78792E+01 1.79890E+00-1.42758E-01-2.61638E+00 2.70228E-13-2.58168E-13
 -1      3280 2.01360E+01 4.03367E-01 3.16412E-03-1.02584E+00 4.62970E-14-3.28414E-14
 -1      3281 2.00967E+01 3.70942E-01-2.40053E-03-9.43347E-01 6.77943E-14 1.21971E-14
 -1      3282 1.99985E+01 4.25275E-01 5.91933E-04-9.07655E-01 5.90875E-14 3.78197E-14
 -1      3283 1.99442E+01 4.95655E-01 1.06898E-03-1.07376E+00 2.98873E-14 4.94925E-15
 -1      3284 2.01446E+01 3.10195E-01 2.14054E-04-3.18280E-01 9.83236E-14 4.37827E-14
 -1      3285 2.01606E+01 3.54692E-01 2.84740E-03-2.31699E-01 9.51643E-14 6.27203E-14
 -1      3286 2.02147E+01 4.71861E-01-1.37156E-03-1.63721E-01 8.26818E-14 3.34485E-14
 -1      3287 2.68107E+01-1.20112E+00-9.74793E-02-1.30169E+00-2.49977E-13 2.27714E-13
 -1      3288 2.65042E+01-2.64139E+00 4.22866E-02-2.10467E-01-1.19269E-13 2.51188E-13
 -1      3289 2.08405E+01-5.44481E-01 1.49778E-02 2.24560E+00-4.52258E-14-1.09796E-13
 -1      3290 2.12227E+01-9.75816E-01 1.15319E-02 2.23388E+00-6.48626E-14-2.19216E-13
 -1      3291 1.99402E+01-3.45423E-01-1.66850E-02 2.38890E+00-1.54937E-13 1.62518E-14
 -1      3292 2.52595E+01-4.06034E+00-1.24535E-01 1.45619E+00-5.29438E-15 9.74741E-14
 -1      3293 2.39332E+01-4.30059E+00 1.03495E-01 2.86122E+00 1.86448E-13 1.65389E-14
 -1      3294 2.02890E+01 8.03214E-01 3.23398E-03-2.25118E-01-4.93894E-14-1.49015E-13
 -1      3295 2.02546E+01 6.55974E-01-2.43230E-03-7.57397E-02-4.42836E-14-1.30567E-13
 -1      3296 2.02764E+01 7.10120E-01-4.53605E-04-3.61785E-02-1.66236E-14-1.01812E-13
 -1      3297 2.70624E+01-3.99208E+00-9.29572E-03 6.06319E-01 2.56625E-13 8.08520E-14
 -1      3298 1.17763E+01-1.21942E+00 1.41406E-01-4.58339E+00 2.65010E-13 4.94105E-13
 -1      3299 1.40952E+01-2.22290E+00 2.71747E-02-5.27661E+00 1.81841E-13 4.18388E-13
 -1      3300 9.28485E+00 1.68414E-01 1.02625E-01-1.53457E+00 3.18408E-14 5.81007E-13
 -1      3301 1.01151E+01-5.36414E-01 9.05312E-02-3.50440E+00 1.68150E-13 5.46216E-13
 -1      3302 2.73268E+01-9.30613E-01-3.61551E-02 1.35295E+00-1.28987E-13 7.26919E-14
 -1      3303 2.71109E+01 4.75742E-01-1.13923E-01 1.90479E+00-2.35506E-14 1.49124E-13
 -1      3304 9.64676E+00 3.63753E-01 1.07260E-01 1.09954E+00 3.57492E-14-1.05263E-13
 -1      3305 9.95456E+00 2.90705E-01 7.42103E-02-1.20673E+00-1.94133E-14-1.55487E-13
 -1      3306 2.62225E+01-3.83899E+00 5.67183E-02-7.14386E-01-1.20482E-13 2.04420E-13
 -1      3307 2.03199E+01 1.04209E+00-2.61124E-04 6.05294E-01 1.65469E-13 2.28897E-15
 -1      3308 2.02887E+01 1.36396E+00 2.24383E-03 6.88414E-01 1.65111E-13 1.21173E-14
 -1      3309 2.02922E+01 1.20559E+00 1.29282E-03 5.02132E-01 1.48206E-13 6.22228E-15
 -1      3310 2.02674E+01 8.39947E-01-3.14622E-03 3.84788E-01 1.46929E-13 8.72322E-15
 -1      3311 1.02440E+01-2.00328E-01 5.34649E-02 2.63784E+00-4.09058E-13 4.41286E-13
 -1      3312 9.41260E+00 3.39832E-01 1.02332E-01 6.80778E-01-1.93956E-13 5.43024E-13
 -1      3313 1.56170E+01-2.59404E+00 1.02705E-01-5.13385E+00-7.03188E-14-1.39055E-13
 -1      3314 1.81825E+01-3.72730E+00-6.18150E-02-5.14192E+00-1.41144E-13-1.76137E-13
 -1      3315 2.16175E+01-4.64728E+00-8.90516E-02 4.33291E+00 2.29906E-13 4.93772E-14
 -1      3316 1.90875E+01-3.92254E+00 1.24837E-01 5.27009E+00 2.20754E-13-1.20147E-14
 -1      3317 1.84813E+01-3.24765E+00 7.68576E-02 4.91113E+00 1.51448E-13-3.29996E-14
 -1      3318 1.45725E+01-1.71227E+00 2.83594E-02 4.56422E+00-2.16317E-13 2.79138E-13
 -1      3319 1.22061E+01-6.73704E-01 1.48057E-01 3.77481E+00-2.80855E-13 3.62266E-13
 -1      3320 2.40715E+01 2.16488E+00-5.40456E-03-1.76034E+00-3.34129E-13 8.30881E-14
 -1      3321 2.54698E+01 3.56762E+00-7.68129E-02-1.74611E+00-3.69524E-13 1.60441E-13
 -1      3322 2.60058E+01 2.40629E+00-1.75083E-01-2.17550E+00-3.71099E-13 1.81841E-13
 -1      3323 2.42299E+01 1.11172E+00-8.19608E-02-2.03789E+00-2.41075E-13 1.27813E-13
 -1      3324 2.58036E+01 2.93158E+00-7.05301E-02 2.08666E+00-2.90656E-13-1.38917E-14
 -1      3325 2.42227E+01 1.82692E+00-2.41694E-02 1.82629E+00-1.14901E-13-7.98181E-14
 -1      3326 2.44022E+01 8.47538E-01-6.72669E-02 2.09566E+00-6.57287E-14-1.26523E-13
 -1      3327 2.66178E+01 1.37408E+00-1.01332E-01 2.20472E+00-1.37515E-13 8.22675E-14
 -1      3328 2.42660E+01-4.77400E+00-1.04444E-01-2.74367E+00-2.51466E-13 9.26238E-14
 -1      3329 2.51567E+01-3.58918E+00 3.05135E-02-1.03129E+00-1.29501E-13 1.24588E-13
 -1      3330 2.41490E+01-3.31666E+00 7.27839E-02-1.70374E+00-1.73267E-13 1.37470E-13
 -1      3331 2.17226E+01-4.21664E+00 1.15142E-01-4.01414E+00-2.63161E-13-4.23064E-14
 -1      3332 1.19005E+01-1.35238E+00 5.83463E-02 4.64971E+00 1.26898E-13-3.07074E-13
 -1      3333 1.02204E+01-2.41452E-01 7.83326E-02 2.91413E+00 7.70981E-14-2.22794E-13
 -1      3334 1.39475E+01-1.34744E+00 1.08426E-01 4.45949E+00 9.32240E-14-2.88346E-13
 -1      3335 1.99803E+01 2.34637E+00-3.90421E-03 6.00021E-02 8.30050E-14-1.63209E-13
 -1      3336 1.99800E+01 2.34705E+00-3.81266E-03-5.10153E-02 6.68490E-14-1.75259E-13
 -1      3337 2.00846E+01 2.07014E+00 5.59358E-03 8.60657E-02 8.04871E-14-1.48775E-13
 -1      3338 2.51007E+01 6.75237E-01-6.35788E-03-2.11549E+00-2.42285E-13 1.87430E-13
 -1      3339 1.64357E+01-2.55761E+00 1.20181E-01-5.21452E+00 1.38993E-13 9.80604E-14
 -1      3340 1.83213E+01-2.99033E+00-9.05349E-03-4.63096E+00 1.20697E-13-1.69222E-13
 -1      3341 1.54930E+01-1.74770E+00 5.89230E-02-4.66658E+00 2.19474E-13 2.25868E-13
 -1      3342 2.03124E+01 1.09374E+00 5.46432E-03-4.85003E-01-4.90668E-14-1.70777E-13
 -1      3343 2.02825E+01 9.35936E-01-2.46288E-03-3.37625E-01-4.86809E-14-1.67731E-13
 -1      3344 2.02923E+01 9.92182E-01 7.62748E-04-2.74134E-01-4.84448E-14-1.42802E-13
 -1      3345 1.12979E+01 3.14198E-01 1.19981E-01 1.75525E+00 6.50521E-16-1.69108E-13
 -1      3346 1.99784E+01 1.14649E-01-5.75626E-04 6.05329E-02-2.54682E-13 2.67985E-14
 -1      3347 1.99885E+01 1.05390E-01 1.72473E-04 6.51501E-02-3.37429E-13 2.67628E-13
 -1      3348 2.34422E+01-3.85649E+00-4.73503E-02 2.44686E+00-9.43204E-14 8.71178E-15
 -1      3349 2.48918E+01-3.43811E+00 5.93989E-02 1.15305E+00-1.12755E-13-5.36637E-14
 -1      3350 2.52098E+01 3.26361E-01-1.09762E-02 2.07719E+00-6.63115E-14-2.65760E-15
 -1      3351 2.07579E+01-3.36893E+00 1.09059E-01-3.90692E+00-1.93727E-13 1.55787E-14
 -1      3352 2.01233E+01 2.82022E-01 1.42242E-03-3.94571E-01 8.58582E-14 6.14779E-14
 -1      3353 2.01677E+01 3.64017E-01-1.23369E-03-3.43614E-01 9.49068E-14 4.30634E-14
 -1      3354 2.01234E+01 2.65457E-01 1.11271E-03-4.65027E-01 4.25749E-14 5.22321E-14
 -1      3355 2.02709E+01 1.41525E+00-3.98350E-03-7.32916E-01-8.28482E-14-1.99078E-13
 -1      3356 2.00845E+01 3.25472E-01-4.42854E-04-6.26156E-01 4.08031E-14 1.72657E-14
 -1      3357 2.01156E+01 2.63451E-01 1.78755E-03-5.95568E-01 6.67795E-15 4.63641E-14
 -1      3358 2.01023E+01 2.59672E-01 1.97247E-04-5.31187E-01-4.70113E-15 4.20063E-14
 -1      3359 2.24986E+01-3.62210E+00-9.57734E-02-2.89102E+00-1.89147E-13 6.39107E-14
 -1      3360 1.99998E+01 8.84049E-02-4.56821E-04-6.99157E-02-1.24981E-13-2.09052E-13
 -1      3361 1.99935E+01 1.07770E-01 4.90575E-04-7.95623E-02-8.14935E-15-4.04954E-13
 -1      3362 2.20970E+01-3.90135E+00 4.37168E-02 3.45620E+00 2.97679E-15 2.21299E-13
 -1      3363 2.02214E+01 5.75744E-01-2.10834E-03 8.71964E-02 1.11422E-13 2.08408E-14
 -1      3364 2.02684E+01 7.10442E-01 3.87399E-03 2.46227E-01 1.28086E-13 2.12166E-15
 -1      3365 2.02854E+01 8.73788E-01-7.69554E-04 3.07143E-01 1.27732E-13 3.46817E-14
 -1      3366 2.02553E+01 6.40100E-01-1.38786E-03 4.93413E-02 8.31649E-14 3.67100E-14
 -1      3367 1.11759E+01 6.64397E-01 2.05974E-02 5.36798E-01-2.40574E-13 3.19675E-13
 -1      3368 1.01277E+01 5.20455E-01 1.18345E-01-3.87903E-01-9.63101E-14 4.00784E-13
 -1      3369 1.10866E+01 5.14530E-01 2.72895E-02-1.45901E+00-3.23209E-14 3.40297E-13
 -1      3370 1.25124E+01-7.87285E-02 1.04232E-01 2.80297E+00-3.67359E-13 4.69395E-13
 -1      3371 2.02480E+01 1.55796E+00 5.77332E-03 5.00948E-01 1.54324E-13-6.60626E-14
 -1      3372 2.01549E+01 1.89103E+00-6.37766E-03 6.11842E-01 1.74295E-13-7.68751E-14
 -1      3373 2.01092E+01 2.02769E+00-3.37773E-03 5.23122E-01 1.61249E-13-8.10354E-14
 -1      3374 2.27337E+01-4.07402E+00 2.43079E-02 3.18616E+00 1.63262E-13-3.75212E-14
 -1      3375 2.00342E+01 2.22045E+00-3.56455E-03 3.43744E-01 1.40531E-13-1.49148E-13
 -1      3376 2.01172E+01 1.98637E+00 5.85448E-03 2.44977E-01 1.23470E-13-1.27798E-13
 -1      3377 2.00679E+01 2.13403E+00-5.13900E-03 4.47060E-01 1.60397E-13-1.17945E-13
 -1      3378 2.54943E+01-3.04676E+00 2.32687E-02 3.09203E-01-7.07195E-14 1.15571E-13
 -1      3379 1.99611E+01 1.33098E-01-5.53937E-04 4.33099E-02 8.58999E-14 2.19528E-13
 -1      3380 1.99692E+01 1.26600E-01 1.48664E-04 5.19869E-02-3.51723E-14 1.35994E-13
 -1      3381 1.99680E+01 1.36860E-01 4.46320E-04 6.51223E-02-1.76807E-13 2.13318E-13
 -1      3382 2.00099E+01 7.21681E-02 2.30350E-04-6.21778E-02-1.37898E-13-5.21016E-13
 -1      3383 1.99508E+01 1.43843E-01-4.12052E-04 1.96544E-02 1.97478E-13 6.72876E-14
 -1      3384 1.99551E+01 1.40533E-01-6.59190E-05 3.08820E-02 1.60343E-13 9.23326E-14
 -1      3385 1.99496E+01 1.55231E-01 5.69495E-04 4.25395E-02 9.89196E-14 2.28087E-13
 -1      3386 1.99398E+01 1.64290E-01 6.21902E-04 1.40569E-02 1.03892E-13-1.62754E-13
 -1      3387 1.55658E+01-1.69605E+00 1.09669E-01-4.41617E+00-4.77465E-14-1.35260E-13
 -1      3388 2.33932E+01-4.42795E+00 1.25087E-02-3.17249E+00 1.53572E-13-1.10837E-13
 -1      3389 2.51720E+01-4.28938E+00-5.06951E-02-2.04392E+00 3.10550E-14-1.10578E-13
 -1      3390 2.71329E+01-2.90113E+00-1.11114E-02-8.37371E-01 2.70849E-13-2.33889E-13
 -1      3391 2.05030E+01-1.30188E+00-2.49316E-02 2.69437E+00-4.87358E-14-4.35103E-14
 -1      3392 1.13715E+01 2.31327E-01 1.26686E-01-2.18012E+00 8.43076E-16-1.91076E-13
 -1      3393 1.30750E+01-6.30008E-02 5.54460E-02-2.86159E+00-3.52546E-14-1.73021E-13
 -1      3394 1.18040E+01 6.25563E-01 3.54206E-02-1.06981E+00 1.18655E-14-1.62197E-13
 -1      3395 1.21705E+01-5.28326E-01 1.31539E-01-3.61846E+00 1.83575E-13 4.74051E-13
 -1      3396 1.64458E+01-2.01297E+00 1.11178E-01 4.60171E+00-7.16927E-14 5.39915E-13
 -1      3397 1.55251E+01-1.09930E+00 2.19665E-02 3.93668E+00-1.63904E-13 5.45418E-13
 -1      3398 1.81283E+01-2.39090E+00 9.06583E-03 4.23376E+00 1.35031E-14 5.11605E-13
 -1      3399 2.10070E+01-3.66729E+00 2.57203E-02-3.92596E+00 1.50189E-13-1.37824E-13
 -1      3400 2.23759E+01-4.23775E+00 3.99308E-02-3.65655E+00 2.20778E-13-1.02746E-13
 -1      3401 2.33242E+01-3.86964E+00-2.13954E-03-2.45093E+00 1.74203E-13-9.16281E-14
 -1      3402 2.63900E+01 1.03077E+00-5.06193E-02-2.01756E+00-3.52565E-13 1.96294E-13
 -1      3403 2.00310E+01 2.22419E+00-3.60837E-03-3.35928E-01 3.76159E-14-1.62997E-13
 -1      3404 2.00635E+01 2.13977E+00-5.18213E-03-4.40715E-01 9.56869E-15-1.94834E-13
 -1      3405 2.67115E+01-3.58005E+00-5.76810E-02 3.85333E-02 1.34419E-13-4.06966E-14
 -1      3406 2.62762E+01-4.04815E+00 8.09027E-03 8.53830E-01 8.62123E-14 4.76216E-14
 -1      3407 2.53156E+01-3.90900E+00 1.49068E-02 1.19820E+00-1.16445E-13-1.35655E-14
 -1      3408 2.64474E+01-3.10297E+00-1.91624E-02-4.34662E-01 8.95213E-14-2.87917E-13
 -1      3409 2.62027E+01-3.48326E+00 1.62269E-03-8.58745E-01 2.79846E-14 3.40838E-14
 -1      3410 2.69878E+01-2.30850E+00-1.10575E-01 3.95421E-01-6.40616E-14 3.98015E-14
 -1      3411 2.64317E+01-1.70277E+00 1.07734E-03 1.03180E+00-7.37917E-14 1.84470E-13
 -1      3412 2.53561E+01-3.57573E+00-1.20216E-02-9.27130E-01 1.22836E-13 3.05728E-14
 -1      3413 2.01060E+01 2.03391E+00-3.22814E-03-5.17128E-01-7.43137E-15-1.90971E-13
 -1      3414 2.01530E+01 1.89300E+00-7.12027E-03-6.11266E-01-2.90670E-14-1.76342E-13
 -1      3415 2.01733E+01 1.81909E+00 5.52355E-03-3.82629E-01-8.41815E-16-1.64948E-13
 -1      3416 2.55518E+01-3.37464E+00-2.39717E-02 3.74459E-01-8.33222E-14-2.73851E-13
 -1      3417 2.02682E+01 6.20773E-01 1.84239E-03 1.10039E-01-9.63918E-15-1.01815E-13
 -1      3418 2.02415E+01 5.31062E-01-1.39018E-03 2.05028E-01-5.07528E-14-1.03717E-13
 -1      3419 2.12622E+01-3.33061E+00 6.63242E-02 3.61327E+00 1.20910E-14 1.18701E-13
 -1      3420 2.58837E+01 3.15861E-01-4.40333E-02 1.96795E+00-9.10244E-14 1.07938E-13
 -1      3421 2.56809E+01-6.46806E-01-7.64967E-02 1.80502E+00-2.73878E-14 5.27547E-14
 -1      3422 2.02155E+01 4.64772E-01 1.01783E-03 2.80255E-01-6.50700E-14-9.59652E-14
 -1      3423 2.01888E+01 4.14939E-01-3.97061E-04 3.56168E-01-5.84740E-14-9.41699E-14
 -1      3424 2.02365E+01 5.72348E-01 4.40467E-04 2.19342E-01-3.94796E-14-1.07470E-13
 -1      3425 2.01518E+01 3.80860E-01 3.10696E-04 4.19982E-01-4.81391E-14-7.76430E-14
 -1      3426 2.01276E+01 3.58466E-01 4.00332E-04 4.84564E-01-1.82860E-14-8.03218E-14
 -1      3427 2.01689E+01 4.59204E-01 1.84759E-04 3.60645E-01-4.43307E-14-6.75152E-14
 -1      3428 2.00834E+01 3.45644E-01-3.43423E-04 5.43097E-01-2.24152E-14-7.46823E-14
 -1      3429 2.00632E+01 3.40459E-01 1.04348E-03 6.02750E-01-2.83032E-14-9.00083E-14
 -1      3430 2.00865E+01 4.06390E-01 1.03748E-04 4.84752E-01-2.32727E-14-6.55254E-14
 -1      3431 2.00147E+01 3.39253E-01-8.45913E-04 6.61410E-01 9.41895E-15-9.91178E-14
 -1      3432 2.00000E+01 3.41579E-01 1.60032E-03 7.20827E-01 2.25229E-14-3.23918E-14
 -1      3433 1.99951E+01 3.92079E-01 5.74609E-05 6.03171E-01-4.88718E-15-6.38846E-14
 -1      3434 1.99504E+01 3.42300E-01-1.13146E-03 7.83923E-01-6.26834E-15-1.10478E-14
 -1      3435 1.99438E+01 3.41861E-01 2.15081E-03 8.45970E-01-3.18403E-14 7.33697E-15
 -1      3436 1.98995E+01 3.95361E-01-7.52618E-05 7.25845E-01 1.69030E-14-5.08427E-14
 -1      3437 1.98976E+01 3.33784E-01-1.12208E-03 9.16638E-01-5.46877E-14 3.60285E-14
 -1      3438 1.99042E+01 3.18789E-01 2.78308E-03 9.82296E-01-1.38788E-14 7.36364E-14
 -1      3439 1.98064E+01 3.94123E-01-4.39358E-04 8.60712E-01-1.43691E-14-3.19785E-16
 -1      3440 1.98688E+01 2.89263E-01-6.84326E-04 1.06250E+00-1.55087E-14 7.18808E-14
 -1      3441 1.98971E+01 2.45558E-01 3.56561E-03 1.13060E+00-2.92007E-14 2.44088E-14
 -1      3442 1.97263E+01 3.63038E-01-1.25715E-03 1.01382E+00-4.64485E-14-1.97067E-14
 -1      3443 1.98850E+01 1.79432E-01 4.13941E-04 1.22071E+00-4.19760E-14-1.30235E-14
 -1      3444 1.99484E+01 9.01494E-02 4.49721E-03 1.28720E+00-3.62848E-14-2.54343E-14
 -1      3445 1.96769E+01 2.71773E-01-2.81319E-03 1.18923E+00-5.01268E-14-4.32017E-14
 -1      3446 1.99798E+01-2.99058E-02 2.54129E-03 1.38470E+00-2.85468E-14 8.72708E-16
 -1      3447 2.00980E+01-1.83510E-01 5.34617E-03 1.44093E+00-4.66334E-14 1.88924E-14
 -1      3448 1.96878E+01 8.36970E-02-5.55896E-03 1.38766E+00-1.51871E-14-4.07952E-14
 -1      3449 2.02043E+01-3.74621E-01 6.32089E-03 1.53710E+00-7.61649E-14 4.74825E-14
 -1      3450 2.04025E+01-6.09152E-01 5.73969E-03 1.56658E+00-4.41200E-15 2.84548E-14
 -1      3451 1.98062E+01-2.43335E-01-1.01015E-02 1.60251E+00-4.00285E-14 1.40903E-15
 -1      3452 2.06285E+01-8.81511E-01 1.28530E-02 1.64160E+00 3.65671E-14 6.51931E-16
 -1      3453 2.09342E+01-1.20312E+00 4.95732E-03 1.61379E+00 2.75760E-14 5.15109E-14
 -1      3454 2.01016E+01-7.48736E-01-1.67369E-02 1.81033E+00 9.28467E-15 4.29461E-14
 -1      3455 2.13516E+01-1.56706E+00 2.01811E-02 1.62162E+00 7.58204E-14 8.65518E-14
 -1      3456 2.17783E+01-1.93046E+00-1.01815E-03 1.46820E+00 1.27742E-13 1.28023E-13
 -1      3457 2.06740E+01-1.46873E+00-2.75881E-02 1.96418E+00 7.67615E-14 5.68261E-14
 -1      3458 2.24185E+01-2.25134E+00 3.02884E-02 1.32144E+00 1.21420E-13 6.41900E-14
 -1      3459 2.29828E+01-2.56846E+00-1.31790E-02 1.00769E+00 7.39406E-14 6.36990E-14
 -1      3460 2.16980E+01-2.27419E+00-1.67310E-03 1.92921E+00 9.84109E-14-2.26295E-15
 -1      3461 2.51898E+01-2.08847E+00-6.26456E-02-9.00767E-01-1.37094E-13 2.81808E-13
 -1      3462 2.55308E+01-1.16985E+00-1.64136E-02-1.41303E+00-2.35520E-13 2.26224E-13
 -1      3463 2.02290E+01 5.12972E-01-1.31003E-03-1.93878E-01 8.95086E-14-1.93825E-14
 -1      3464 2.02582E+01 5.97287E-01 2.32457E-03-9.06396E-02 8.16964E-14-2.93820E-14
 -1      3465 2.42143E+01-2.69515E+00-1.82259E-02-1.33492E-01 6.91591E-14-2.97341E-14
 -1      3466 2.37141E+01-2.69422E+00 3.32746E-02-6.20986E-01 1.08401E-13 5.38490E-14
 -1      3467 2.28463E+01-2.50817E+00-8.36386E-03-1.02172E+00 1.34054E-13 5.90921E-14
 -1      3468 2.23431E+01-2.19353E+00 3.39513E-02-1.31185E+00 8.24022E-14 2.54384E-13
 -1      3469 2.30155E+01-2.94144E+00-1.94503E-02-1.41834E+00 1.40624E-13 3.76418E-14
 -1      3470 2.16973E+01-1.84085E+00-1.51741E-03-1.45571E+00-7.86064E-14 2.64270E-13
 -1      3471 2.12829E+01-1.46025E+00 2.22001E-02-1.57485E+00 1.27177E-15 2.53240E-13
 -1      3472 2.15764E+01-2.22464E+00-3.23603E-02-1.87394E+00 8.96861E-14 1.47960E-13
 -1      3473 2.08811E+01-1.11900E+00 4.01555E-03-1.55939E+00 5.60184E-14 2.13512E-13
 -1      3474 2.05827E+01-7.98675E-01 1.25686E-02-1.57709E+00 1.11593E-13 1.92147E-13
 -1      3475 2.06148E+01-1.36057E+00-2.41058E-02-1.89990E+00 1.54348E-14 1.89948E-13
 -1      3476 2.03556E+01-5.25195E-01 5.28770E-03-1.49589E+00 6.83394E-14 1.14080E-13
 -1      3477 2.01600E+01-2.89577E-01 6.29649E-03-1.45674E+00 9.60113E-14-5.08814E-14
 -1      3478 2.00473E+01-6.58670E-01-1.65020E-02-1.74188E+00 1.08243E-14 2.87832E-14
 -1      3479 2.00514E+01-9.80799E-02 5.12340E-03-1.35190E+00 1.91292E-13-6.93919E-14
 -1      3480 1.99332E+01 5.59136E-02 2.50022E-03-1.28613E+00 1.48946E-13-2.63277E-14
 -1      3481 1.97488E+01-1.49121E-01-9.39815E-03-1.51833E+00 8.64900E-14-8.66274E-14
 -1      3482 1.98957E+01 1.76275E-01 4.15154E-03-1.18039E+00-3.07024E-14 3.61217E-14
 -1      3483 1.98298E+01 2.65854E-01 3.44626E-04-1.10447E+00-2.07137E-13 1.51586E-14
 -1      3484 1.96225E+01 1.78231E-01-4.98404E-03-1.28811E+00 5.65531E-14-1.65368E-13
 -1      3485 1.98324E+01 3.31763E-01 3.20889E-03-1.00616E+00-2.53841E-13 1.61258E-13
 -1      3486 1.97991E+01 3.74589E-01-8.01574E-04-9.29061E-01-2.34837E-13 2.00657E-13
 -1      3487 1.95962E+01 3.66362E-01-2.28692E-03-1.07465E+00-1.19049E-13 3.39695E-14
 -1      3488 1.98221E+01 4.01997E-01 2.46960E-03-8.41174E-01-3.45177E-13 2.13754E-13
 -1      3489 1.98077E+01 4.13224E-01-1.36175E-03-7.67874E-01-3.09058E-13 1.13922E-13
 -1      3490 1.96239E+01 4.54831E-01-7.07893E-04-8.84753E-01-2.40338E-13 1.90382E-13
 -1      3491 1.98389E+01 4.15395E-01 1.92660E-03-6.91161E-01-2.09534E-13 9.91113E-14
 -1      3492 1.98346E+01 4.06871E-01-1.56862E-03-6.24332E-01-6.80624E-14 9.46749E-14
 -1      3493 1.96765E+01 4.76330E-01 1.38680E-04-7.19520E-01-3.01929E-13 1.81839E-13
 -1      3494 1.98671E+01 3.93866E-01 1.53977E-03-5.58555E-01 3.30481E-14-9.43762E-15
 -1      3495 1.98676E+01 3.74237E-01-1.56862E-03-4.99505E-01 7.95450E-14-6.19411E-14
 -1      3496 1.97369E+01 4.56066E-01 5.41835E-04-5.77845E-01-7.50132E-14 6.45726E-14
 -1      3497 1.98977E+01 3.53232E-01 1.25807E-03-4.43999E-01 8.57351E-15-1.31150E-13
 -1      3498 1.98999E+01 3.28481E-01-1.45273E-03-3.93154E-01 6.11675E-14-1.65685E-13
 -1      3499 1.97953E+01 4.12334E-01 6.88171E-04-4.57921E-01 4.19535E-14-1.38699E-13
 -1      3500 1.99258E+01 3.04324E-01 1.04254E-03-3.47028E-01 1.76905E-13-2.08849E-13
 -1      3501 1.99283E+01 2.78346E-01-1.28450E-03-3.04227E-01 2.75664E-13-1.06985E-13
 -1      3502 1.98469E+01 3.57798E-01 6.93815E-04-3.57727E-01 1.07401E-13-3.00616E-13
 -1      3503 1.99496E+01 2.54102E-01 8.66354E-04-2.66519E-01 2.16436E-13-1.18910E-13
 -1      3504 1.99515E+01 2.29329E-01-1.09537E-03-2.31251E-01 2.34530E-13-1.84209E-13
 -1      3505 1.98900E+01 3.00693E-01 6.16352E-04-2.75151E-01 2.31747E-13-2.82396E-13
 -1      3506 1.99682E+01 2.06902E-01 7.14851E-04-2.00900E-01 1.20401E-13-2.79643E-13
 -1      3507 1.99693E+01 1.84664E-01-9.02578E-04-1.72363E-01 1.14150E-13-4.43493E-13
 -1      3508 1.99242E+01 2.46262E-01 5.13056E-04-2.08157E-01 4.17457E-14-1.92565E-13
 -1      3509 1.99820E+01 1.65015E-01 6.29315E-04-1.48267E-01 9.99056E-14-6.63918E-13
 -1      3510 1.99825E+01 1.45932E-01-6.37788E-04-1.25682E-01-1.32022E-14-6.63182E-13
 -1      3511 1.99502E+01 1.97295E-01 3.53959E-04-1.54618E-01-5.54183E-14-3.34190E-13
 -1      3512 1.99889E+01 1.34294E-01 6.61314E-04-1.09870E-01 4.35855E-15-5.90345E-13
 -1      3513 1.99889E+01 1.18338E-01-3.17121E-04-9.21922E-02-8.20023E-14-5.00278E-13
 -1      3514 1.99746E+01 1.31716E-01-5.09159E-04-8.62498E-02 1.82326E-13-3.47108E-13
 -1      3515 1.99654E+01 1.59560E-01-1.75987E-04-1.15042E-01 4.31331E-14-5.81719E-13
 -1      3516 1.94647E+01 6.86522E-01 3.87402E-03-1.46768E+00 5.53567E-15-1.90246E-14
 -1      3517 1.94956E+01 6.77251E-01-5.06294E-03-1.35485E+00 7.07046E-15-8.64393E-14
 -1      3518 1.96224E+01 6.58061E-01 2.64262E-03-1.24928E+00 2.87114E-14-1.03077E-13
 -1      3519 1.96542E+01 6.24134E-01-4.25822E-03-1.15085E+00 1.84037E-14-6.72318E-14
 -1      3520 1.92983E+01 7.63605E-01 3.82605E-03-1.23265E+00-9.68424E-15-7.16886E-14
 -1      3521 1.91796E+01 4.12340E-01 1.10469E-02-2.04177E+00-4.15218E-14-1.41913E-14
 -1      3522 1.91477E+01 5.40573E-01-5.74392E-03-1.89267E+00-2.34001E-14-3.40203E-14
 -1      3523 1.91755E+01-6.01510E-02 1.72484E-02-2.42892E+00-6.40189E-14 3.37902E-14
 -1      3524 1.90430E+01 2.09739E-01-3.66147E-03-2.26047E+00-3.12651E-14 3.08242E-14
 -1      3525 1.84504E+01 4.64414E-01 1.43785E-04-2.12409E+00-5.65410E-14-7.76996E-14
 -1      3526 1.94773E+01-9.11704E-01 2.64355E-02-2.87699E+00-1.24291E-13 4.82188E-14
 -1      3527 1.91329E+01-4.37982E-01 5.29578E-03-2.70569E+00-7.12325E-14 5.89945E-14
 -1      3528 1.82610E+01-7.73772E-02 1.00457E-03-2.65645E+00-8.86327E-14 2.42430E-14
 -1      3529 2.56798E+01-1.66081E+00-2.65293E-02 1.09408E+00 8.11851E-16 4.51167E-14
 -1      3530 1.99965E+01 9.26503E-02-4.95458E-04 6.62554E-02-4.31797E-13 1.65483E-13
 -1      3531 2.00051E+01 8.29647E-02 3.91371E-05 6.60475E-02-5.31574E-13 4.55245E-13
 -1      3532 2.00064E+01 8.91103E-02 9.17022E-05 7.42433E-02-5.71609E-13 3.60238E-13
 -1      3533 1.99882E+01 1.13169E-01 1.12324E-04 7.51299E-02-5.00377E-13 3.49044E-13
 -1      3534 1.92356E+01 7.03778E-01-5.96842E-03 1.60522E+00-2.63025E-13 3.89217E-13
 -1      3535 1.92328E+01 6.32639E-01 6.99701E-03 1.75073E+00-1.23525E-13 3.62275E-13
 -1      3536 1.55208E+01-1.74991E+00-9.15050E-03 4.58357E+00 7.92526E-14-2.49765E-13
 -1      3537 1.36484E+01-6.20377E-01 4.22834E-02 3.73285E+00 6.65197E-14-2.72997E-13
 -1      3538 1.90841E+01 5.06720E-01-5.75191E-03 1.94014E+00-3.67157E-14 2.64654E-13
 -1      3539 1.91437E+01 3.31292E-01 1.22267E-02 2.10476E+00-6.82030E-14 2.17958E-13
 -1      3540 1.86059E+01 7.16082E-01 2.37271E-03 1.78970E+00-1.11846E-13 5.47182E-13
 -1      3541 1.95615E+01 7.21549E-01-4.57815E-03 1.09163E+00 6.76844E-14 3.11332E-13
 -1      3542 1.95321E+01 7.47252E-01 2.60673E-03 1.20476E+00-4.37508E-14 3.08696E-13
 -1      3543 1.96890E+01 6.48262E-01-3.87243E-03 8.89435E-01-1.22950E-13 3.80078E-13
 -1      3544 1.96644E+01 6.90113E-01 1.89253E-03 9.88613E-01-3.16933E-14 3.44015E-13
 -1      3545 1.93705E+01 8.01613E-01 3.82397E-03 9.83285E-01-3.63202E-14 3.97601E-13
 -1      3546 1.97876E+01 5.58875E-01-3.22336E-03 7.16072E-01-3.54772E-13 3.79504E-13
 -1      3547 1.97701E+01 6.06077E-01 1.53979E-03 8.01928E-01-1.91633E-13 4.22531E-13
 -1      3548 1.95437E+01 7.10115E-01 3.14494E-03 8.01216E-01-1.21354E-13 6.36120E-13
 -1      3549 1.98605E+01 4.67841E-01-2.64416E-03 5.68698E-01-2.21541E-13 1.13726E-13
 -1      3550 1.98496E+01 5.14304E-01 1.35702E-03 6.41847E-01-2.80428E-13 2.13927E-13
 -1      3551 1.96770E+01 6.07528E-01 2.45778E-03 6.45855E-01-1.51129E-13 2.13712E-13
 -1      3552 1.99126E+01 3.82891E-01-2.13891E-03 4.45025E-01-1.35444E-13 4.79046E-14
 -1      3553 1.99070E+01 4.25448E-01 1.22904E-03 5.06301E-01-1.31649E-13 1.13318E-13
 -1      3554 1.97770E+01 5.06399E-01 1.85315E-03 5.13793E-01-1.19032E-13-7.63729E-14
 -1      3555 1.99487E+01 3.07646E-01-1.70609E-03 3.42774E-01-2.45652E-13 1.23587E-13
 -1      3556 1.99467E+01 3.44900E-01 1.10913E-03 3.93242E-01-2.50529E-13 1.90317E-14
 -1      3557 1.98503E+01 4.13426E-01 1.35962E-03 4.02737E-01-1.96094E-13 1.11159E-13
 -1      3558 1.99729E+01 2.43274E-01-1.34602E-03 2.59527E-01 3.73482E-14 1.01176E-13
 -1      3559 1.99733E+01 2.74893E-01 9.81882E-04 3.00417E-01-5.63100E-14 2.17404E-14
 -1      3560 1.99028E+01 3.31691E-01 9.83908E-04 3.10646E-01-1.45183E-13-2.07523E-14
 -1      3561 1.99883E+01 1.89894E-01-1.03078E-03 1.92868E-01 1.22332E-13 3.10334E-13
 -1      3562 1.99902E+01 2.15905E-01 8.52945E-04 2.25503E-01 7.30538E-14 1.82688E-13
 -1      3563 1.99398E+01 2.62116E-01 7.32525E-04 2.35556E-01-1.06065E-14 5.36584E-14
 -1      3564 1.99977E+01 1.45912E-01-8.94855E-04 1.40469E-01 1.65291E-13 2.09382E-13
 -1      3565 2.00003E+01 1.67042E-01 6.42381E-04 1.65674E-01 2.25003E-13 3.36333E-13
 -1      3566 1.99650E+01 2.04230E-01 5.13306E-04 1.75015E-01 1.56413E-13 3.35147E-13
 -1      3567 2.46135E+01-2.93806E+00 7.28219E-03 3.54991E-01-1.24640E-14 1.70243E-13
 -1      3568 1.50752E+01-9.24145E-01 4.97681E-02-3.84137E+00-8.07791E-14-6.77583E-14
 -1      3569 1.69306E+01-1.96919E+00-3.89037E-02-4.33851E+00-1.22211E-13-5.28189E-14
 -1      3570 2.04459E+01-2.57093E+00 5.33118E-02 3.56058E+00-7.55472E-15 9.37258E-14
 -1      3571 1.99247E+01 1.81484E-01-2.15883E-04-2.70126E-02 1.27966E-13-1.40164E-13
 -1      3572 1.99215E+01 1.84394E-01-3.82390E-04-1.14577E-02 1.54434E-13-3.34942E-13
 -1      3573 2.63106E+01-4.23850E-01-7.88781E-02-1.78398E+00-2.47871E-13 2.96697E-13
 -1      3574 1.24584E+01 2.15977E-01 4.92901E-02 2.58503E+00-2.11046E-14-1.73007E-13
 -1      3575 1.18666E+01 6.86950E-01 2.29371E-02 9.12934E-01-2.67807E-14-1.12348E-13
 -1      3576 1.99885E+01 2.32647E+00-3.74384E-03-1.40673E-01 6.18818E-14-1.86110E-13
 -1      3577 2.00051E+01 2.28617E+00-4.27899E-03-2.50192E-01 4.35959E-14-1.63217E-13
 -1      3578 2.01155E+01 1.98837E+00 5.87319E-03-2.38283E-01 4.29509E-14-1.56668E-13
 -1      3579 2.00643E+01-2.75139E+00 7.91643E-02-3.84427E+00-1.60981E-13-2.27943E-14
 -1      3580 1.90300E+01 7.13942E-02-2.20187E-03 2.35337E+00-2.07820E-13 1.48536E-13
 -1      3581 1.92203E+01-2.68752E-01 1.96832E-02 2.53497E+00-2.08468E-13 1.13508E-13
 -1      3582 1.83323E+01 3.63693E-01-3.75501E-03 2.22988E+00-1.85627E-13 3.57648E-13
 -1      3583 2.02572E+01 1.45146E+00-4.96675E-03-6.28662E-01-5.44571E-14-1.65998E-13
 -1      3584 2.02972E+01 8.74374E-01 1.46055E-03-1.06490E-01-3.06138E-14-8.31873E-14
 -1      3585 2.02768E+01 7.33031E-01-2.33928E-03 1.55211E-02-1.32813E-14-9.03548E-14
 -1      3586 2.02795E+01 7.72138E-01 1.14437E-03 4.85702E-02-2.48535E-14-8.37334E-14
 -1      3587 1.37669E+01-6.50260E-02 3.78198E-03 2.93290E+00-3.31861E-13 4.37386E-13
 -1      3588 1.24766E+01 6.34681E-01 1.20768E-01 1.91154E+00-3.12157E-13 3.88065E-13
 -1      3589 2.31065E+01-3.67841E+00-3.78311E-02 2.25092E+00 1.18680E-13-1.15923E-13
 -1      3590 2.16774E+01-3.47141E+00 1.16342E-01 3.45985E+00 1.60798E-13-4.11004E-14
 -1      3591 1.93031E+01 6.27701E-01 6.31583E-03-1.72714E+00 2.36142E-14-8.21570E-15
 -1      3592 1.93186E+01 6.68356E-01-5.73679E-03-1.59749E+00 3.82585E-14-1.63319E-15
 -1      3593 1.90369E+01 7.88999E-01 4.02631E-03-1.45747E+00 1.27536E-14-2.11753E-14
 -1      3594 1.87438E+01 7.14513E-01 3.04650E-03-1.74304E+00 1.20620E-14-6.83870E-14
 -1      3595 1.99694E+01 4.35190E-01 1.36007E-03-7.58375E-01 5.79461E-14-2.01005E-14
 -1      3596 1.99900E+01 4.06246E-01-1.66981E-03-6.89450E-01 6.34374E-14-4.27678E-14
 -1      3597 1.23326E+01 1.35609E-01 9.39422E-02-2.80711E+00 7.36338E-14 3.71612E-13
 -1      3598 1.35413E+01-6.40442E-01 1.71759E-02-3.79447E+00 1.23956E-13 4.00076E-13
 -1      3599 1.94646E+01-3.35246E+00-6.52061E-02 4.35346E+00 9.39457E-14 3.31783E-14
 -1      3600 1.75015E+01-2.42610E+00 8.63730E-02 4.67025E+00 6.59577E-14-8.93174E-14
 -1      3601 1.70904E+01-1.71252E+00 5.35932E-02 4.08777E+00 3.76539E-14-1.66103E-13
 -1      3602 1.94065E+01 7.53591E-01-5.35888E-03 1.32723E+00-1.63374E-13 3.46997E-13
 -1      3603 1.93804E+01 7.45480E-01 4.11845E-03 1.45536E+00-2.20089E-13 2.92061E-13
 -1      3604 1.91531E+01 8.60212E-01 4.23206E-03 1.19841E+00-1.42554E-13 3.86989E-13
 -1      3605 2.52710E+01-2.44917E+00-7.29652E-03 5.09749E-01 9.50316E-14-1.00753E-14
 -1      3606 1.94739E+01-2.01291E+00 6.09629E-02-3.53864E+00-1.84887E-13-1.97997E-14
 -1      3607 2.40348E+01-3.10372E+00 2.00101E-02 8.78136E-01 6.62621E-15 1.42858E-13
 -1      3608 1.91930E+01-1.74655E+00 7.36797E-03 3.46164E+00-1.51580E-14 2.11207E-13
 -1      3609 1.99072E+01 2.08347E-01 6.50224E-04-2.30791E-03 9.51581E-14-2.03296E-13
 -1      3610 1.99213E+01 1.85361E-01-3.39852E-04 8.16318E-03 1.71609E-13-2.14379E-13
 -1      3611 1.99241E+01 1.83327E-01-2.63431E-04 2.40611E-02 1.65319E-13-1.30142E-13
 -1      3612 1.51593E+01-9.88575E-01 8.09729E-02-4.02676E+00 1.66809E-13 2.95285E-13
 -1      3613 1.67134E+01-1.57338E+00-3.57392E-02-4.03072E+00 1.99029E-13-5.62432E-14
 -1      3614 1.51655E+01-4.10510E-01 3.38799E-02-3.32809E+00 1.43406E-13 2.73830E-13
 -1      3615 2.02215E+01 1.60182E+00-1.67193E-03-5.90357E-01-4.28095E-14-1.57841E-13
 -1      3616 1.32117E+01 8.57085E-01 1.47718E-02 7.66862E-01 2.20301E-14-1.65812E-13
 -1      3617 1.23284E+01 9.36636E-01 9.06105E-02-1.86295E-02 3.51893E-14-1.39042E-13
 -1      3618 1.30560E+01 7.92369E-01 7.26166E-03-9.55191E-01 9.07607E-15-1.26583E-13
 -1      3619 2.29498E+01-2.86432E+00-2.03092E-03 1.39029E+00 9.56285E-14 3.15585E-14
 -1      3620 2.02769E+01 7.55355E-01 6.11964E-04-2.01614E-02 8.96566E-14-7.63206E-14
 -1      3621 2.02704E+01 7.06767E-01-1.97887E-03 1.55443E-02 8.70339E-14-3.17748E-14
 -1      3622 2.01246E+01 3.21077E-01-8.98498E-04-4.91797E-01 4.12669E-14 2.62148E-14
 -1      3623 1.99560E+01 1.61715E-01 6.77367E-04-8.91823E-02 1.94015E-13-6.19213E-14
 -1      3624 1.99597E+01 1.46926E-01-1.77471E-04-7.61084E-02 2.40264E-13 9.46219E-14
 -1      3625 1.99479E+01 1.57838E-01-5.12884E-04-6.67603E-02 1.84181E-13-5.07494E-15
 -1      3626 1.99745E+01 4.56000E-01 9.67326E-04-6.24218E-01 3.26578E-14-9.91983E-14
 -1      3627 2.00483E+01 3.86357E-01 9.67611E-04-6.27436E-01 6.32348E-14-5.86340E-14
 -1      3628 2.00687E+01 3.74324E-01-7.15354E-04-5.60842E-01 2.82943E-14-4.11273E-14
 -1      3629 1.95194E+01 6.89147E-01 3.15382E-03-1.04744E+00 9.30179E-14-8.05203E-14
 -1      3630 1.97602E+01 5.88282E-01 2.03726E-03-1.06254E+00 6.51817E-14-2.69919E-14
 -1      3631 1.97879E+01 5.46179E-01-3.41756E-03-9.76602E-01 7.13340E-14-2.90824E-15
 -1      3632 1.88453E+01-1.31063E+00 3.15526E-02-3.36555E+00-1.64827E-13 2.86594E-14
 -1      3633 1.75258E+01-7.71586E-01 1.61613E-02-3.37921E+00-1.33188E-13 5.26194E-14
 -1      3634 2.03005E+01 1.10740E+00 2.43929E-03 4.05829E-01 1.42375E-13 1.58772E-14
 -1      3635 2.02756E+01 1.28707E+00-1.81390E-03 4.40975E-01 1.43303E-13-3.16848E-14
 -1      3636 2.02484E+01 1.43415E+00-1.40581E-03 4.05351E-01 1.39956E-13-6.41738E-14
 -1      3637 2.02845E+01 9.48523E-01-2.49753E-03 2.57993E-01 1.06788E-13 6.68842E-15
 -1      3638 2.02025E+01 4.52772E-01 1.33479E-03-2.76831E-01 8.13107E-14 9.69629E-16
 -1      3639 2.02307E+01 5.63497E-01 1.76903E-04-2.11596E-01 8.48732E-14-4.94669E-14
 -1      3640 2.01765E+01 4.10077E-01-3.45934E-04-3.59035E-01 8.33038E-14 9.12587E-15
 -1      3641 2.02930E+01 8.16566E-01 3.71727E-03 1.30042E-01 8.74049E-14-2.44880E-14
 -1      3642 1.88932E+01 8.50773E-01 3.98810E-03 1.45908E+00-2.00566E-13 4.63962E-13
 -1      3643 1.41526E+01-3.36742E-02 6.82213E-02 2.85859E+00 1.91548E-14-1.79613E-13
 -1      3644 2.04321E+01-2.94940E+00 3.52990E-03 3.51802E+00 9.05803E-14-6.63150E-14
 -1      3645 2.01774E+01 1.81606E+00 6.23006E-03 3.88345E-01 1.55815E-13-1.04666E-13
 -1      3646 2.00032E+01 1.11636E-01-3.94550E-04 9.93930E-02 6.22300E-15 9.76933E-14
 -1      3647 2.00055E+01 1.28213E-01 5.49389E-04 1.19066E-01 1.04237E-13 1.19377E-13
 -1      3648 2.00083E+01 9.56848E-02 1.92746E-04 8.39409E-02-3.06982E-13 2.27896E-13
 -1      3649 1.26725E+01 5.21736E-01 6.80909E-02-1.82958E+00-5.61044E-14 2.71682E-13
 -1      3650 1.44662E+01-2.16877E-01 6.35502E-02-3.23873E+00-7.96117E-14-7.22547E-14
 -1      3651 1.59050E+01-3.44560E-01 2.58047E-02-3.15970E+00-1.73221E-13 5.51989E-15
 -1      3652 1.40379E+01 3.69700E-01-1.19682E-03-2.30359E+00-7.37388E-14-7.67233E-14
 -1      3653 2.42567E+01-3.56647E+00 5.21250E-02-1.47357E+00 1.52490E-13 4.70466E-14
 -1      3654 2.49185E+01-3.13389E+00-2.34255E-02-4.89081E-01 9.11974E-14 7.84563E-14
 -1      3655 2.00842E+01 2.07072E+00 5.62009E-03-7.78946E-02 6.05245E-14-1.76665E-13
 -1      3656 2.02882E+01 1.14772E+00-1.76874E-03-3.08094E-01-2.13620E-14-1.28609E-13
 -1      3657 2.02852E+01 1.00360E+00-2.44584E-03-1.89544E-01-2.23719E-14-1.10449E-13
 -1      3658 2.02881E+01 1.02337E+00-1.46681E-03-1.33019E-01-6.81500E-15-9.34280E-14
 -1      3659 2.01928E+01 1.62892E+00-1.61067E-03-2.66231E-01 2.37249E-14-1.40394E-13
 -1      3660 2.02185E+01 1.52142E+00-4.06076E-03-3.21586E-01-2.54709E-15-1.39904E-13
 -1      3661 2.01459E+01 1.76941E+00-2.73906E-03-1.49109E-01 4.92209E-14-1.56493E-13
 -1      3662 2.01648E+01 1.70348E+00-4.76683E-03-2.16899E-01 4.74399E-14-1.56037E-13
 -1      3663 2.02430E+01 1.45368E+00 6.86034E-03-1.70875E-01 3.89935E-14-1.18187E-13
 -1      3664 1.88893E+01-2.55048E+00 2.44960E-02-4.06318E+00 6.91634E-14-1.22513E-13
 -1      3665 2.00462E+01-3.20575E+00 5.63792E-02-4.13709E+00 1.13153E-13-7.55810E-14
 -1      3666 2.12097E+01-3.29481E+00-1.85882E-02-3.29495E+00 1.46695E-13-1.19919E-13
 -1      3667 2.01671E+01 1.70380E+00-4.04543E-03 2.24609E-01 1.17176E-13-1.38348E-13
 -1      3668 2.01472E+01 1.76864E+00-2.62861E-03 1.56312E-01 1.02051E-13-1.28108E-13
 -1      3669 1.92236E+01-7.30905E-01 5.68076E-03 2.84646E+00-5.88398E-14 1.29452E-13
 -1      3670 1.96649E+01-1.33557E+00 1.48448E-02 3.03411E+00 3.13820E-14 1.55328E-13
 -1      3671 1.99503E+01 1.58954E-01-8.17131E-04 7.09825E-02 3.19864E-14 4.01878E-13
 -1      3672 1.99642E+01 1.49455E-01 3.91931E-04 8.08752E-02-1.72056E-13 3.99121E-13
 -1      3673 1.50391E+01-2.67544E-01 8.67709E-02 3.30203E+00-2.58590E-13 7.00485E-13
 -1      3674 1.47197E+01 2.48396E-01 3.85950E-03 2.57106E+00-2.99755E-13 7.40692E-13
 -1      3675 1.62874E+01-7.18553E-01 5.84781E-03 3.43111E+00-9.78336E-14 7.74665E-13
 -1      3676 1.98981E+01 4.67999E-01-2.56370E-03-8.25143E-01 5.93828E-14 1.46031E-14
 -1      3677 1.98514E+01 5.15788E-01 1.60403E-03-7.51316E-01 7.08789E-14-7.10411E-14
 -1      3678 1.98749E+01 5.07370E-01 1.67042E-03-9.00992E-01 3.05485E-14 1.88132E-14
 -1      3679 1.99816E+01 1.57820E-01 5.52240E-04 1.27543E-01 2.11310E-13 3.29360E-13
 -1      3680 1.26595E+01 7.64737E-01 4.93878E-02 9.44171E-01-2.23079E-13 2.70922E-13
 -1      3681 1.99387E+01 1.67709E-01-1.89841E-04-5.49314E-02 6.96653E-14-1.14749E-13
 -1      3682 1.99303E+01 1.75022E-01-4.94255E-04-4.15466E-02 5.46175E-14 4.53921E-14
 -1      3683 1.99145E+01 2.00854E-01 7.07842E-04-3.80572E-02 3.48726E-14-1.22599E-13
 -1      3684 1.99304E+01 1.85477E-01 6.43582E-04-6.54969E-02 1.38099E-13 7.64878E-14
 -1      3685 2.02048E+01 1.57534E+00 5.74182E-03 9.37509E-02 8.94413E-14-1.16002E-13
 -1      3686 2.01325E+01 1.80766E+00-3.48877E-03 1.04574E-01 9.05145E-14-1.19331E-13
 -1      3687 2.01253E+01 1.82928E+00-3.04446E-03 3.09493E-02 7.40428E-14-1.56324E-13
 -1      3688 2.31725E+01-3.50200E+00-7.97430E-03-2.02179E+00 1.21063E-13 4.64375E-14
 -1      3689 1.82029E+01-3.19060E-01-4.37003E-03 2.83420E+00-1.37307E-13 2.69643E-13
 -1      3690 1.99935E+01 1.18164E-01 2.19657E-04 9.11079E-02-2.49715E-13 4.91430E-13
 -1      3691 2.02913E+01 9.04055E-01 3.23778E-03-8.98348E-03-5.25436E-15-6.31970E-14
 -1      3692 2.02691E+01 7.71032E-01-2.05673E-03 8.59709E-02-5.28601E-15-7.11478E-14
 -1      3693 2.23641E+01-3.06782E+00 4.51259E-02-2.31593E+00 1.03313E-13 1.74973E-14
 -1      3694 2.02506E+01 6.68397E-01 3.92753E-04 1.54310E-01-1.60062E-14-7.98339E-14
 -1      3695 2.02195E+01 5.88165E-01-1.20821E-03 2.31180E-01-3.18953E-14-6.27684E-14
 -1      3696 2.02564E+01 7.94060E-01 1.32079E-03 1.01376E-01-8.45552E-15-4.56080E-14
 -1      3697 2.01803E+01 5.29314E-01-4.51732E-05 2.89858E-01-3.16964E-14-5.99036E-14
 -1      3698 2.01409E+01 4.87430E-01-4.20292E-04 3.55105E-01-3.23414E-14-5.44877E-14
 -1      3699 2.01943E+01 6.21120E-01 1.30134E-03 2.27826E-01-2.31401E-14-3.37931E-14
 -1      3700 2.00853E+01 4.60432E-01-5.97264E-04 4.08499E-01-4.86968E-15-1.93286E-14
 -1      3701 2.00411E+01 4.45662E-01 2.73756E-04 4.67945E-01-4.09584E-16-1.52232E-14
 -1      3702 2.00972E+01 5.28768E-01 1.07904E-03 3.39220E-01 1.00617E-15 9.93238E-16
 -1      3703 1.99725E+01 4.39710E-01-1.16267E-03 5.21145E-01-5.73093E-15-1.61542E-14
 -1      3704 1.99261E+01 4.41574E-01 9.13689E-04 5.80140E-01 1.67604E-14 7.55425E-15
 -1      3705 1.99736E+01 4.94926E-01 9.91587E-04 4.44831E-01 3.39036E-15 3.82622E-14
 -1      3706 1.98473E+01 4.46217E-01-1.66457E-03 6.38142E-01 3.16161E-14 8.11361E-15
 -1      3707 1.98013E+01 4.54006E-01 1.57209E-03 7.01221E-01 1.89012E-14 1.69302E-14
 -1      3708 1.98290E+01 4.97911E-01 9.68966E-04 5.54557E-01 1.85233E-14 1.28591E-14
 -1      3709 1.97152E+01 4.58155E-01-2.08128E-03 7.68720E-01-5.04657E-15 3.72673E-14
 -1      3710 1.96740E+01 4.60249E-01 2.37004E-03 8.39558E-01-8.94844E-15 3.90774E-14
 -1      3711 1.96686E+01 5.15544E-01 9.00697E-04 6.78240E-01 1.06424E-14 4.07551E-14
 -1      3712 1.95844E+01 4.51527E-01-2.36574E-03 9.21305E-01-3.10176E-14 2.22613E-14
 -1      3713 1.95550E+01 4.34406E-01 3.45273E-03 1.00302E+00-7.39243E-14 1.51810E-15
 -1      3714 1.94983E+01 5.23842E-01 6.00406E-04 8.25601E-01-3.05241E-14 1.37893E-14
 -1      3715 1.94690E+01 3.97817E-01-2.36918E-03 1.10421E+00-8.49111E-14-1.95532E-14
 -1      3716 1.94634E+01 3.44923E-01 5.00230E-03 1.19911E+00-5.78255E-14-2.81214E-14
 -1      3717 1.93280E+01 4.95001E-01-1.44052E-04 1.00768E+00-9.01634E-14 4.75909E-14
 -1      3718 1.93930E+01 2.62235E-01-1.83726E-03 1.32524E+00-3.11057E-14 4.86931E-15
 -1      3719 1.94304E+01 1.53267E-01 7.14166E-03 1.43408E+00-2.92949E-15-4.62464E-15
 -1      3720 1.91748E+01 3.94892E-01-1.66780E-03 1.23704E+00-1.57020E-14 4.26774E-14
 -1      3721 1.93972E+01 2.65690E-03-2.37539E-04 1.59015E+00-4.26086E-15 7.52247E-15
 -1      3722 1.95072E+01-1.86838E-01 9.71611E-03 1.70960E+00 3.27321E-16 5.02789E-14
 -1      3723 1.90689E+01 1.80675E-01-4.68415E-03 1.52755E+00 1.36135E-15 2.95568E-14
 -1      3724 1.95509E+01-4.30446E-01 3.70228E-03 1.89564E+00-9.28619E-15 7.35627E-14
 -1      3725 1.97713E+01-7.27682E-01 1.09749E-02 2.01288E+00 2.33527E-14 7.69732E-14
 -1      3726 1.90631E+01-2.03232E-01-1.07135E-02 1.89172E+00 1.55176E-16 3.00415E-14
 -1      3727 1.99561E+01-1.05878E+00 1.91972E-02 2.20769E+00 9.78037E-14 6.47438E-14
 -1      3728 2.02922E+01-1.53401E+00 3.76180E-03 2.33354E+00 1.06476E-13 8.28619E-14
 -1      3729 1.92563E+01-8.18130E-01-1.82722E-02 2.32053E+00 4.57786E-14 1.14971E-13
 -1      3730 2.02697E+01 7.66544E-01-2.02385E-03-6.33898E-02 7.60295E-14-1.04752E-13
 -1      3731 2.02885E+01 8.96258E-01 5.59008E-04 4.40811E-02 9.73501E-14-9.77596E-14
 -1      3732 1.77285E+01-1.08268E+00 3.86878E-02 3.56682E+00-5.79849E-14 5.14913E-13
 -1      3733 2.01163E+01 3.73537E-01 4.17407E-04-4.98461E-01 3.21745E-14-1.77343E-14
 -1      3734 2.01388E+01 3.84907E-01 2.92336E-04-4.28005E-01 7.58098E-14 7.20566E-15
 -1      3735 2.00770E+01 4.33945E-01 4.76585E-04-4.99627E-01 4.87410E-14-5.88436E-14
 -1      3736 2.02734E+01 1.27737E+00 5.70724E-03-2.16716E-01 1.91047E-14-1.09091E-13
 -1      3737 2.02452E+01 1.43099E+00 1.49087E-03-3.38147E-01-9.59974E-15-1.38150E-13
 -1      3738 2.12703E+01-2.42626E+00 1.71578E-03-2.39192E+00 1.28635E-13 1.92872E-14
 -1      3739 2.07031E+01-1.86526E+00 3.19188E-02-2.41984E+00 9.11823E-14 9.59376E-14
 -1      3740 2.02701E+01-1.39820E+00 1.24380E-02-2.22969E+00 1.50962E-14 1.19017E-13
 -1      3741 1.99019E+01-9.85060E-01 1.45558E-02-2.14646E+00 1.81539E-14 1.01865E-13
 -1      3742 1.97220E+01-1.56333E+00-1.48309E-02-2.69194E+00 7.21261E-14 1.14028E-14
 -1      3743 1.97058E+01-6.32052E-01 1.01883E-02-1.94971E+00 1.69477E-14 1.52945E-13
 -1      3744 1.94863E+01-3.30784E-01 3.83528E-03-1.82471E+00 1.19371E-16 7.90773E-14
 -1      3745 1.91883E+01-7.35338E-01-2.31322E-02-2.26539E+00 6.16208E-14 1.46757E-13
 -1      3746 1.94418E+01-8.82190E-02 9.83723E-03-1.63174E+00-3.64128E-14 5.65151E-14
 -1      3747 1.93293E+01 1.00899E-01-2.70698E-04-1.50558E+00 6.77904E-14 3.56137E-14
 -1      3748 1.89940E+01-9.52977E-02-9.00988E-03-1.81709E+00-4.42866E-14 2.57899E-13
 -1      3749 1.93539E+01 2.51656E-01 6.71474E-03-1.34502E+00 1.58056E-13-8.66620E-14
 -1      3750 1.93108E+01 3.61174E-01-1.95980E-03-1.22955E+00 5.52381E-15-4.81663E-14
 -1      3751 1.89893E+01 2.84671E-01-4.02541E-03-1.44618E+00 7.09019E-15 1.60854E-14
 -1      3752 1.93684E+01 4.44189E-01 4.59413E-03-1.09818E+00-1.03822E-13-3.03396E-14
 -1      3753 1.93647E+01 4.96863E-01-2.48410E-03-9.96613E-01-1.31352E-13 9.50957E-14
 -1      3754 1.90737E+01 4.99933E-01-1.12520E-03-1.14757E+00 1.73313E-14 3.83308E-14
 -1      3755 1.94349E+01 5.31985E-01 3.12154E-03-8.89934E-01-2.50042E-13 6.00766E-14
 -1      3756 1.94517E+01 5.46097E-01-2.57261E-03-8.02290E-01-3.39610E-13 7.97705E-14
 -1      3757 1.91986E+01 5.99047E-01 4.47654E-04-9.09034E-01-1.79716E-13 8.11931E-14
 -1      3758 1.95226E+01 5.49628E-01 2.11387E-03-7.15774E-01-3.28665E-13-4.51380E-14
 -1      3759 1.95482E+01 5.39334E-01-2.44033E-03-6.40925E-01-2.16204E-13-5.26690E-14
 -1      3760 1.93345E+01 6.20428E-01 1.17979E-03-7.18448E-01-3.61257E-13-1.04691E-13
 -1      3761 1.96138E+01 5.23489E-01 1.46344E-03-5.70672E-01-1.15897E-13-6.95526E-14
 -1      3762 1.96412E+01 4.99098E-01-2.20594E-03-5.07313E-01 1.27722E-14-4.74554E-15
 -1      3763 1.94652E+01 5.93049E-01 1.44843E-03-5.65476E-01-1.90255E-13-2.32900E-13
 -1      3764 1.96986E+01 4.72651E-01 1.05193E-03-4.50302E-01 7.62817E-15-8.81154E-14
 -1      3765 1.97242E+01 4.41395E-01-1.93219E-03-3.97206E-01-1.29836E-14-2.07449E-13
 -1      3766 1.95824E+01 5.37761E-01 1.47280E-03-4.42196E-01 4.47182E-14-1.89938E-13
 -1      3767 1.97725E+01 4.10411E-01 7.88148E-04-3.51133E-01 1.78823E-14-1.83838E-13
 -1      3768 1.97945E+01 3.77184E-01-1.64064E-03-3.07152E-01 5.21504E-14-2.34254E-13
 -1      3769 1.96827E+01 4.69113E-01 1.36814E-03-3.42804E-01-4.60470E-14-1.67763E-13
 -1      3770 1.98337E+01 3.45630E-01 6.10683E-04-2.70107E-01 1.44258E-13-2.31894E-13
 -1      3771 1.98516E+01 3.13362E-01-1.39582E-03-2.34121E-01 2.08227E-13-2.40907E-13
 -1      3772 1.97654E+01 3.97018E-01 1.22015E-03-2.62936E-01 1.07788E-13-7.58515E-14
 -1      3773 1.98827E+01 2.83676E-01 4.72265E-04-2.04788E-01 1.98817E-13-2.07260E-13
 -1      3774 1.98965E+01 2.54496E-01-1.13056E-03-1.75797E-01 6.05410E-14-2.49987E-13
 -1      3775 1.98315E+01 3.27496E-01 1.02686E-03-1.99003E-01 1.81519E-13-4.41153E-14
 -1      3776 1.99205E+01 2.27966E-01 3.85609E-04-1.52433E-01-2.61091E-14-9.99130E-14
 -1      3777 1.99311E+01 2.02874E-01-6.92065E-04-1.29817E-01-3.83735E-14-1.40185E-13
 -1      3778 1.98826E+01 2.64423E-01 7.60076E-04-1.48652E-01 1.40417E-13 2.03869E-14
 -1      3779 1.99420E+01 1.90021E-01 5.29012E-04-1.16014E-01-8.63369E-14-1.46081E-13
 -1      3780 1.99468E+01 1.73594E-01-3.02183E-04-1.00121E-01 3.04895E-14-1.04888E-13
 -1      3781 1.99306E+01 1.87983E-01-4.51527E-04-8.84843E-02 1.30362E-13 2.61684E-13
 -1      3782 1.99134E+01 2.19253E-01 3.34887E-04-1.12841E-01-8.76158E-14 3.43979E-13
 -1      3783 1.89962E+01 8.55680E-01 1.06668E-03-1.14066E+00-2.11918E-14-5.22474E-15
 -1      3784 1.91147E+01 8.16472E-01-5.66993E-03-1.04793E+00 1.36245E-14-2.12211E-14
 -1      3785 1.72835E+01 7.45799E-02 8.84377E-03-2.61814E+00-1.19136E-13 2.49801E-14
 -1      3786 1.73442E+01 3.85786E-01-1.95170E-02-2.28922E+00-9.99239E-14-8.44160E-15
 -1      3787 1.77656E+01 6.00041E-01 1.10498E-02-2.01404E+00-1.05519E-13-4.51707E-14
 -1      3788 1.78843E+01 7.32471E-01-1.46610E-02-1.80467E+00-6.34896E-14-7.07624E-14
 -1      3789 1.68803E+01 7.35900E-01 1.65399E-02-1.92641E+00-1.42253E-13 8.06325E-14
 -1      3790 1.81564E+01 9.08995E-01-1.20273E-02 1.50657E+00-1.97741E-13 4.83845E-13
 -1      3791 1.80233E+01 8.31619E-01 5.39584E-03 1.67687E+00-1.84323E-13 3.97920E-13
 -1      3792 1.99818E+01 1.29557E-01-4.99483E-04 8.99689E-02-2.35457E-13 4.43009E-13
 -1      3793 1.94065E+01 7.40649E-01-3.93004E-03 6.76013E-01-1.20765E-14 5.03799E-13
 -1      3794 1.93315E+01 7.96728E-01 1.26786E-04 7.53991E-01-1.57569E-14 5.35078E-13
 -1      3795 1.91918E+01 8.46879E-01-4.95135E-03 8.27232E-01-5.66206E-14 4.69317E-13
 -1      3796 1.90961E+01 8.95251E-01 3.66582E-04 9.17953E-01-1.02997E-13 5.10679E-13
 -1      3797 1.90947E+01 8.98281E-01 5.18307E-03 6.92945E-01-5.62019E-14 4.03989E-13
 -1      3798 1.96958E+01 5.22567E-01-2.54902E-03 4.35590E-01-1.11281E-13-3.38766E-15
 -1      3799 1.96541E+01 5.75904E-01 2.37206E-04 4.92874E-01-6.61709E-14 4.84835E-14
 -1      3800 1.97885E+01 4.25737E-01-2.05212E-03 3.41941E-01-2.05167E-13-8.49628E-14
 -1      3801 1.97587E+01 4.73546E-01 3.24358E-04 3.90154E-01-1.73892E-13-5.90835E-14
 -1      3802 1.96516E+01 5.45221E-01 2.35127E-03 3.70221E-01-1.54844E-13 1.15217E-13
 -1      3803 1.98566E+01 3.41211E-01-1.60097E-03 2.64001E-01-7.14919E-14-1.08557E-13
 -1      3804 1.98357E+01 3.82536E-01 3.81035E-04 3.03901E-01-1.31465E-13-1.37351E-13
 -1      3805 1.97552E+01 4.43427E-01 1.77774E-03 2.91577E-01-4.46283E-14-2.53147E-13
 -1      3806 1.99057E+01 2.68920E-01-1.38501E-03 2.00410E-01-1.30062E-13 1.39437E-13
 -1      3807 1.98914E+01 3.03805E-01 2.88302E-04 2.32477E-01-7.11430E-14 9.08044E-14
 -1      3808 1.98321E+01 3.55183E-01 1.48590E-03 2.25492E-01-2.68298E-13 8.09355E-14
 -1      3809 1.99398E+01 2.09781E-01-1.05182E-03 1.47786E-01 1.24635E-13 3.49597E-13
 -1      3810 1.99310E+01 2.39175E-01 5.59345E-04 1.74773E-01-3.69573E-14 2.51140E-13
 -1      3811 1.98876E+01 2.80191E-01 1.05424E-03 1.71223E-01-1.50163E-13 3.12028E-13
 -1      3812 1.36669E+01 8.37247E-01-1.63320E-02 1.24696E+00-2.08804E-13 2.80744E-13
 -1      3813 1.28507E+01 1.07039E+00 5.41450E-02-2.83075E-02-2.25955E-13 2.19644E-13
 -1      3814 1.53563E+01-3.50812E-01 5.02281E-03 3.19951E+00 3.55965E-14-2.37386E-13
 -1      3815 1.42731E+01 3.94524E-01 4.21588E-03 2.16631E+00-1.58450E-14-1.06970E-13
 -1      3816 1.85731E+01 9.66727E-01-8.81576E-03 1.22327E+00-2.43436E-13 5.46384E-13
 -1      3817 1.84398E+01 9.60188E-01 2.77827E-03 1.35600E+00-1.57222E-13 5.60386E-13
 -1      3818 1.79190E+01 1.08340E+00 1.39178E-02 1.25460E+00-2.51194E-13 3.79636E-13
 -1      3819 2.01251E+01 1.82926E+00-3.08040E-03-2.30127E-02 7.46409E-14-1.78619E-13
 -1      3820 2.01324E+01 1.80781E+00-3.48792E-03-9.67451E-02 5.83553E-14-1.74083E-13
 -1      3821 2.02064E+01 1.57773E+00 7.08700E-03-8.80253E-02 4.53017E-14-1.47856E-13
 -1      3822 2.01931E+01 1.61486E+00 5.95591E-03 3.71845E-03 7.69416E-14-1.64640E-13
 -1      3823 1.99302E+01 1.77712E-01-5.18567E-04 4.26515E-02 9.70181E-15 9.14579E-14
 -1      3824 1.99393E+01 1.71250E-01 4.89025E-05 5.64620E-02-1.98263E-14 3.17122E-13
 -1      3825 1.99361E+01 1.86355E-01 9.39300E-04 7.30103E-02-8.50693E-15 3.66470E-13
 -1      3826 1.99147E+01 2.03956E-01 9.10324E-04 3.76487E-02 3.91347E-14 5.21515E-14
 -1      3827 1.30955E+01 8.67102E-01 1.53382E-02-1.12131E+00-9.48872E-14 1.58543E-13
 -1      3828 1.40949E+01 4.08409E-01 5.54683E-04-2.32864E+00 8.27411E-14 1.33626E-13
 -1      3829 1.41880E+01 1.01687E+00 3.32822E-02-6.52812E-01-2.08076E-14 6.42229E-14
 -1      3830 2.01925E+01 1.62730E+00-1.99019E-03 2.69408E-01 1.42070E-13-1.25078E-13
 -1      3831 2.02371E+01 1.45640E+00 5.40422E-03 1.74225E-01 1.16439E-13-1.03399E-13
 -1      3832 2.02216E+01 1.52275E+00-3.12190E-03 3.25782E-01 1.41560E-13-1.04411E-13
 -1      3833 1.67228E+01-1.44046E-01-1.14434E-02-2.86642E+00-1.34984E-13 1.24380E-14
 -1      3834 1.76599E+01 7.13367E-01-1.37906E-02 1.89141E+00-1.66198E-13 5.02356E-13
 -1      3835 1.75582E+01 5.23263E-01 1.28142E-02 2.14797E+00-1.86512E-13 5.56724E-13
 -1      3836 1.72872E+01 9.50503E-01 4.08017E-03 1.60301E+00-1.32567E-13 5.14642E-13
 -1      3837 1.99660E+01 1.55653E-01-1.61166E-04 9.80938E-02 6.79889E-14 5.43969E-13
 -1      3838 2.02601E+01 1.42155E+00 3.91552E-03-4.27735E-01-2.89486E-14-1.50969E-13
 -1      3839 2.05112E+01-2.20853E+00-2.99524E-02 2.71310E+00 8.52647E-14-1.90473E-15
 -1      3840 1.91838E+01-1.73403E+00 4.70152E-02 3.27470E+00 6.20654E-14-1.25312E-14
 -1      3841 1.99594E+01 1.76622E-01 1.67949E-04 1.17799E-01 2.00087E-13 4.63631E-13
 -1      3842 2.02899E+01 1.02680E+00-6.20407E-04 2.12429E-01 1.16489E-13-4.14185E-14
 -1      3843 1.89171E+01 9.31323E-01-6.39795E-03 1.00576E+00-1.57846E-13 4.97952E-13
 -1      3844 1.88005E+01 9.60181E-01 1.05712E-03 1.11336E+00-2.27122E-13 5.21146E-13
 -1      3845 1.84016E+01 1.07544E+00 8.52822E-03 1.01510E+00-1.98257E-13 5.47556E-13
 -1      3846 1.95713E+01 6.29282E-01-3.15975E-03 5.46379E-01 2.42878E-14 1.16940E-13
 -1      3847 1.95146E+01 6.86036E-01 1.46087E-04 6.13504E-01 1.26992E-13 4.07480E-13
 -1      3848 1.95134E+01 6.58410E-01 3.08911E-03 4.62468E-01 1.13074E-13 2.82595E-13
 -1      3849 1.69044E+01-4.42936E-01-1.91931E-02 3.11996E+00-1.75748E-13 7.00742E-13
 -1      3850 1.99290E+01 2.07126E-01-3.43284E-04 1.16581E-01 1.20526E-13 3.68548E-13
 -1      3851 1.50765E+01 1.64571E-01 4.71917E-02-2.67117E+00 1.20108E-13 1.93455E-13
 -1      3852 1.61777E+01-2.78620E-01-6.09451E-03-2.91084E+00 2.02577E-13 8.63528E-14
 -1      3853 1.52817E+01 5.06929E-01-1.13144E-03-2.06383E+00 1.43173E-13 4.29335E-14
 -1      3854 1.40995E+01 8.02353E-01 5.10172E-02 1.51347E+00 1.86739E-14-1.75708E-13
 -1      3855 1.40998E+01 9.30419E-01-7.96924E-03 6.62653E-01 5.49231E-14-1.52395E-13
 -1      3856 1.51934E+01 5.50051E-01 2.05827E-02 1.88572E+00 2.37887E-14-1.15563E-13
 -1      3857 2.10891E+01-2.88616E+00-7.68054E-03-3.00685E+00 7.41482E-14 9.93997E-16
 -1      3858 2.02505E+01 6.65656E-01 6.36892E-04-1.41578E-01 5.95659E-14-9.00564E-14
 -1      3859 2.02610E+01 7.97626E-01 1.05078E-03-8.33685E-02 6.40101E-14-1.19166E-13
 -1      3860 2.02186E+01 5.88475E-01-1.40360E-03-2.27438E-01 5.73545E-14-7.74305E-14
 -1      3861 2.02707E+01 1.11557E+00-3.48816E-03-1.29443E-01 1.18388E-14-9.43362E-14
 -1      3862 1.87748E+01 8.77777E-01-7.65880E-03-1.23364E+00 4.49228E-14-4.41880E-15
 -1      3863 1.86472E+01 9.61796E-01 7.22602E-03-1.03553E+00 2.17507E-14 7.16918E-15
 -1      3864 1.86396E+01 8.89339E-01 2.42919E-03-1.34802E+00 3.81771E-14-3.74064E-14
 -1      3865 1.98999E+01 5.12077E-01 9.04274E-05-5.92723E-01 2.21931E-14-9.13479E-14
 -1      3866 1.99566E+01 4.89910E-01-1.41205E-03-5.32275E-01 3.98137E-14-9.48367E-14
 -1      3867 1.92936E+01 7.73824E-01 5.63271E-04-9.73300E-01 7.53083E-14-7.39693E-14
 -1      3868 1.93930E+01 7.23268E-01-4.33158E-03-8.94656E-01 7.79973E-14-7.26003E-14
 -1      3869 1.90308E+01 8.73324E-01 5.67789E-03-8.85618E-01 2.11009E-14-2.04166E-14
 -1      3870 1.59408E+01 4.48210E-01 4.19756E-02-2.40508E+00-1.51257E-13 3.65532E-14
 -1      3871 2.02757E+01 1.11415E+00-1.93761E-03 1.54275E-01 1.27253E-13-9.93477E-14
 -1      3872 2.02756E+01 1.28713E+00 3.69099E-03 2.82315E-01 1.28987E-13-7.75686E-14
 -1      3873 1.97019E+01 5.99010E-01 2.36158E-03-8.89870E-01 6.79545E-14-3.07912E-14
 -1      3874 1.93315E+01 7.78742E-01 4.01902E-03 5.69380E-01 8.94705E-14 2.96315E-13
 -1      3875 2.01623E+01 4.64058E-01 1.92016E-04-3.66486E-01 8.21728E-14-4.53245E-14
 -1      3876 2.02653E+01 1.11530E+00-2.29756E-03-8.33264E-02 1.96597E-14-9.98774E-14
 -1      3877 1.87898E+01 1.00394E+00 6.66774E-03 8.37846E-01-1.38826E-13 5.08029E-13
 -1      3878 2.02557E+01 1.22535E+00-2.74430E-03 1.22910E-01 1.17491E-13-8.13795E-14
 -1      3879 2.02383E+01 1.30664E+00-1.55338E-03 9.50947E-02 9.65584E-14-9.08389E-14
 -1      3880 1.47818E+01 8.02568E-01 6.60694E-02 1.86597E+00-2.07062E-13 4.34496E-13
 -1      3881 1.46009E+01 1.01224E+00-1.34847E-02 1.07519E+00-1.17873E-13 2.65246E-13
 -1      3882 1.39336E+01 7.68754E-01 6.24127E-02-1.67872E+00-5.07970E-14-1.30684E-13
 -1      3883 1.49848E+01 5.83148E-01 9.21783E-03-2.00947E+00-1.03458E-13-2.46868E-14
 -1      3884 1.55350E+01 6.80950E-01-2.17490E-02-1.86506E+00-1.12887E-13 4.52412E-14
 -1      3885 1.40045E+01 9.38819E-01-1.49096E-02-8.00065E-01-1.95313E-14-3.73625E-14
 -1      3886 1.71549E+01 2.43816E-01-1.04824E-02 2.46763E+00-1.28377E-13 6.83228E-13
 -1      3887 1.71292E+01-1.39940E-01 2.36965E-02 2.83854E+00-8.43778E-14 7.27961E-13
 -1      3888 1.98857E+01 2.32175E-01-3.25294E-05-1.31725E-02 7.58702E-14-4.17264E-13
 -1      3889 1.98851E+01 2.31700E-01-5.73582E-04 6.97395E-03 6.51448E-14-1.48888E-13
 -1      3890 2.02230E+01 1.35765E+00-3.21857E-03 7.92576E-02 9.25852E-14-1.14568E-13
 -1      3891 2.02126E+01 1.39674E+00-2.81338E-03 4.30939E-02 8.10857E-14-1.18783E-13
 -1      3892 2.02585E+01 1.17229E+00 4.45245E-03 3.93515E-02 9.22708E-14-8.53795E-14
 -1      3893 1.99064E+01 2.24291E-01-3.21859E-04 9.45830E-02 1.08741E-14 1.94151E-13
 -1      3894 1.98848E+01 2.63040E-01 2.09377E-04 1.23942E-01-3.81851E-15 1.51948E-13
 -1      3895 1.98918E+01 2.35623E-01-4.98843E-04 7.75776E-02-3.09154E-14 5.57454E-14
 -1      3896 2.02494E+01 1.19381E+00-1.57316E-03-5.91890E-02 4.17618E-14-1.07014E-13
 -1      3897 1.82239E+01 8.28004E-01 5.38015E-03-1.62292E+00 1.69263E-14-6.93983E-14
 -1      3898 1.83646E+01 8.69495E-01-1.06038E-02-1.47297E+00 4.35636E-14-3.85784E-14
 -1      3899 1.81736E+01 1.00242E+00 9.26404E-03-1.22956E+00 6.27370E-14 1.71133E-14
 -1      3900 1.55607E+01 4.78155E-01 8.08835E-03 2.24700E+00-1.63100E-13 7.93771E-13
 -1      3901 1.66205E+01-9.26502E-01 3.57766E-02 3.54342E+00 5.79276E-14-1.99465E-13
 -1      3902 1.66810E+01-3.86270E-01 4.22543E-02 2.91825E+00 2.29831E-14-1.72239E-13
 -1      3903 1.65435E+01 6.30499E-01 2.72268E-03 2.10266E+00-1.19963E-13 8.52462E-13
 -1      3904 1.97372E+01 5.82248E-01 2.41466E-04-7.07163E-01 6.49872E-14-7.54441E-14
 -1      3905 1.98050E+01 5.42632E-01-2.29858E-03-6.44320E-01 4.57396E-14-1.21699E-13
 -1      3906 1.97995E+01 5.82163E-01 2.29750E-03-5.50278E-01 3.71753E-14-1.19587E-13
 -1      3907 1.80980E+01-1.68868E+00 3.85029E-03 3.64700E+00 4.19387E-14-9.03132E-14
 -1      3908 1.98964E+01 2.21126E-01-1.92171E-04-5.01049E-02 1.18804E-13 1.04778E-13
 -1      3909 1.98888E+01 2.26539E-01-7.30861E-04-3.46157E-02 1.13599E-13-2.86516E-13
 -1      3910 1.98655E+01 2.55850E-01-3.17158E-04-2.46024E-02 5.05586E-14-3.32688E-13
 -1      3911 1.75875E+01 9.50099E-01 1.12688E-02-1.50880E+00-4.20393E-14 5.01400E-15
 -1      3912 2.02568E+01 8.89559E-01-2.59372E-03 4.86165E-02 1.80193E-14-1.01297E-13
 -1      3913 2.02365E+01 7.80116E-01-1.35805E-03 1.16909E-01 9.54595E-15-7.65949E-14
 -1      3914 2.02036E+01 6.91024E-01-6.80895E-04 1.61167E-01 2.44948E-16-8.76127E-14
 -1      3915 2.01620E+01 6.25190E-01-1.02791E-03 2.18642E-01-5.14488E-15-5.66562E-14
 -1      3916 2.02140E+01 7.89098E-01 1.88263E-03 1.10919E-01 4.21099E-15-1.29319E-13
 -1      3917 2.22416E+01-2.95122E+00 1.28864E-02 2.21396E+00 1.61196E-13-1.00825E-13
 -1      3918 2.01055E+01 5.78937E-01-9.12819E-04 2.59444E-01-3.17168E-15-3.08778E-14
 -1      3919 2.00494E+01 5.49536E-01-4.43439E-04 3.11591E-01 6.57937E-15-3.18745E-14
 -1      3920 2.01228E+01 6.50591E-01 1.97883E-03 1.92925E-01 7.62002E-15-7.41178E-14
 -1      3921 1.99724E+01 5.33836E-01-1.43126E-03 3.52372E-01 1.34876E-14-2.06838E-14
 -1      3922 1.99054E+01 5.30530E-01 1.14344E-04 4.03784E-01 1.60921E-14-6.75339E-15
 -1      3923 1.99895E+01 5.87796E-01 1.85115E-03 2.71628E-01 1.05835E-14-7.49285E-14
 -1      3924 1.98102E+01 5.34922E-01-2.01681E-03 4.49011E-01 2.95598E-14-2.06554E-16
 -1      3925 1.97350E+01 5.47110E-01 7.21296E-04 5.04552E-01 3.61197E-14 1.51755E-14
 -1      3926 1.98199E+01 5.80174E-01 1.70194E-03 3.53927E-01 3.32795E-14-2.06561E-14
 -1      3927 1.96233E+01 5.60689E-01-2.59550E-03 5.58820E-01-7.86244E-15 1.17516E-14
 -1      3928 1.95427E+01 5.77088E-01 1.39717E-03 6.23323E-01-1.77066E-15-8.21969E-15
 -1      3929 1.96187E+01 6.07353E-01 1.99779E-03 4.48912E-01 5.75686E-15 2.70288E-14
 -1      3930 1.94152E+01 5.88201E-01-3.39687E-03 6.91765E-01 8.33316E-15 5.56293E-15
 -1      3931 1.93332E+01 5.97296E-01 2.30802E-03 7.70304E-01-4.17231E-14 1.35511E-14
 -1      3932 1.93875E+01 6.47186E-01 2.43305E-03 5.66758E-01-2.20900E-14-2.87966E-14
 -1      3933 1.91907E+01 5.93007E-01-4.33901E-03 8.60233E-01-6.83229E-14 5.29002E-14
 -1      3934 1.91147E+01 5.80467E-01 3.70434E-03 9.59112E-01-5.15009E-14 8.63592E-14
 -1      3935 1.91273E+01 6.75141E-01 2.32857E-03 7.18299E-01-9.97501E-15 5.83289E-14
 -1      3936 1.89599E+01 5.44553E-01-5.31948E-03 1.07920E+00-5.09236E-14 5.67499E-14
 -1      3937 1.89022E+01 4.93077E-01 5.90925E-03 1.20577E+00-1.38282E-14 7.07529E-14
 -1      3938 1.88428E+01 6.64717E-01 2.32460E-03 9.21781E-01-4.27457E-14 7.48332E-14
 -1      3939 1.87408E+01 4.05631E-01-6.18630E-03 1.36833E+00 9.79400E-16-1.47264E-15
 -1      3940 1.87226E+01 2.92795E-01 9.21201E-03 1.53125E+00-1.54646E-14 2.49179E-15
 -1      3941 1.85407E+01 5.81188E-01 1.70340E-03 1.19873E+00-4.43811E-14-1.83691E-14
 -1      3942 1.85682E+01 1.30564E-01-5.57347E-03 1.75162E+00-1.75364E-14-3.54175E-14
 -1      3943 1.86253E+01-7.64802E-02 1.38918E-02 1.96074E+00-6.25455E-15-1.35199E-14
 -1      3944 1.82381E+01 3.79216E-01 5.84245E-05 1.57942E+00-9.59837E-15-2.72512E-14
 -1      3945 1.85105E+01-3.49030E-01-3.00008E-03 2.25310E+00 6.01198E-14-7.75942E-15
 -1      3946 1.87069E+01-7.10878E-01 1.39967E-02 2.50814E+00 1.02390E-13 3.21561E-14
 -1      3947 1.79691E+01-1.26277E-02-7.56751E-03 2.10920E+00 3.23580E-14-5.55844E-14
 -1      3948 2.08113E+01-2.00653E+00-5.38757E-03 2.34037E+00 8.60579E-14-1.08641E-14
 -1      3949 2.00323E+01 4.79642E-01-2.30589E-04-4.80893E-01 6.64545E-14-8.25221E-14
 -1      3950 2.00805E+01 4.82159E-01-5.72277E-04-4.18162E-01 8.00708E-14-5.05706E-14
 -1      3951 1.99658E+01 5.39187E-01 1.70283E-03-4.50973E-01 7.27771E-14-5.24166E-14
 -1      3952 1.85626E+01-6.05395E-01-4.29187E-03-2.46274E+00 1.04062E-13 1.39849E-13
 -1      3953 1.84445E+01-2.13026E-01 4.75208E-03-2.18567E+00 7.50385E-14 1.84497E-13
 -1      3954 1.85574E+01 2.67150E-02 1.27005E-02-1.89062E+00 2.63933E-14 2.52781E-13
 -1      3955 1.85006E+01 2.31319E-01-6.06000E-03-1.68179E+00-4.79511E-14 2.27856E-13
 -1      3956 1.79230E+01 1.07314E-01-2.06788E-05-2.03535E+00 9.68776E-14 1.87751E-13
 -1      3957 1.86404E+01 3.97675E-01 8.52996E-03-1.46091E+00-1.00801E-13 2.35263E-13
 -1      3958 1.86509E+01 5.11072E-01-6.42148E-03-1.29490E+00-1.19318E-14 1.32144E-13
 -1      3959 1.81632E+01 4.83290E-01-5.25512E-04-1.51883E+00-4.75716E-14 3.18518E-13
 -1      3960 1.87968E+01 5.99374E-01 5.36023E-03-1.13124E+00 1.67307E-14 2.46371E-14
 -1      3961 1.88421E+01 6.52093E-01-5.40325E-03-1.00079E+00-1.12450E-13 3.15243E-14
 -1      3962 1.84393E+01 6.91079E-01 2.46840E-03-1.13546E+00-9.78222E-14 3.80370E-14
 -1      3963 1.89785E+01 6.87659E-01 3.37085E-03-8.77756E-01-1.81210E-13-7.95738E-15
 -1      3964 1.90388E+01 6.98515E-01-4.47359E-03-7.75135E-01-2.60914E-13-9.78813E-14
 -1      3965 1.87075E+01 7.76370E-01 3.15903E-03-8.56277E-01-1.48421E-13-4.00761E-14
 -1      3966 1.91602E+01 6.99082E-01 2.02066E-03-6.82484E-01-3.84517E-13-5.67915E-14
 -1      3967 1.92232E+01 6.83639E-01-3.67924E-03-6.01116E-01-3.71544E-13-4.51642E-14
 -1      3968 1.89532E+01 7.82516E-01 3.18487E-03-6.48726E-01-2.19810E-13-8.13293E-14
 -1      3969 1.93278E+01 6.62645E-01 1.18428E-03-5.30387E-01-3.12162E-13-2.01086E-13
 -1      3970 1.93870E+01 6.31792E-01-3.02430E-03-4.65345E-01-2.27899E-13-2.31827E-13
 -1      3971 1.91688E+01 7.39527E-01 2.91140E-03-4.93513E-01-3.53732E-13-9.00994E-14
 -1      3972 1.94750E+01 5.98751E-01 6.94028E-04-4.10796E-01 1.77027E-15-2.35552E-13
 -1      3973 1.95273E+01 5.60206E-01-2.47919E-03-3.58571E-01 1.11914E-13-1.61206E-13
 -1      3974 1.93527E+01 6.68340E-01 2.56837E-03-3.75555E-01-1.50236E-13-1.05194E-13
 -1      3975 1.95996E+01 5.21828E-01 4.11120E-04-3.16275E-01 6.36457E-14-1.13287E-13
 -1      3976 1.96438E+01 4.80945E-01-2.01747E-03-2.74331E-01-4.27633E-14-1.11624E-13
 -1      3977 1.95060E+01 5.83567E-01 2.20673E-03-2.85054E-01 8.51029E-14-1.37467E-13
 -1      3978 1.97022E+01 4.41737E-01 2.66349E-04-2.41515E-01 3.32913E-14-8.16356E-14
 -1      3979 1.97379E+01 4.02160E-01-1.64562E-03-2.07966E-01 1.84954E-13-2.15204E-14
 -1      3980 1.96309E+01 4.95395E-01 1.86313E-03-2.15199E-01 6.50143E-14 3.48769E-15
 -1      3981 1.97843E+01 3.64696E-01 1.65694E-04-1.82616E-01 2.45968E-13 3.98535E-14
 -1      3982 1.98115E+01 3.27925E-01-1.74248E-03-1.56550E-01 1.69015E-13 7.93671E-14
 -1      3983 1.97318E+01 4.10831E-01 1.98397E-03-1.60898E-01 1.61877E-13 1.28849E-13
 -1      3984 1.98478E+01 2.95491E-01 1.14122E-04-1.35767E-01 1.53524E-13 1.81427E-13
 -1      3985 1.98702E+01 2.63704E-01-7.53313E-04-1.14827E-01 1.32519E-13 2.35777E-13
 -1      3986 1.98071E+01 3.36081E-01 1.72705E-03-1.18995E-01 2.00924E-13 2.84507E-13
 -1      3987 2.02694E+01 1.12764E+00 3.41250E-04 1.02649E-01 1.09777E-13-1.00739E-13
 -1      3988 1.95379E+01 6.74922E-01 3.51176E-04-8.31956E-01 6.85449E-14-9.05316E-14
 -1      3989 1.96198E+01 6.25723E-01-3.23554E-03-7.62981E-01 7.24721E-14-7.50600E-14
 -1      3990 1.95939E+01 6.63168E-01 3.10560E-03-6.51966E-01 5.73714E-14-1.07030E-13
 -1      3991 1.93417E+01 7.65938E-01 4.28492E-03-7.60845E-01 5.11692E-14-5.59285E-14
 -1      3992 2.01383E+01 4.99415E-01-7.77401E-04-3.62531E-01 7.49695E-14-4.32679E-14
 -1      3993 2.01794E+01 5.34380E-01 1.74852E-04-2.91787E-01 6.95834E-14-6.20787E-14
 -1      3994 2.01978E+01 6.29055E-01 1.05263E-03-2.26429E-01 5.47767E-14-9.30823E-14
 -1      3995 2.00983E+01 5.49661E-01 1.40426E-03-3.45752E-01 8.90714E-14-6.60888E-14
 -1      3996 1.77701E+01-6.40129E-01-1.11267E-02 2.82402E+00 6.61519E-14-1.40724E-13
 -1      3997 1.67495E+01-5.94040E-02 1.82277E-03 2.50609E+00 4.51939E-14-1.61144E-13
 -1      3998 2.02716E+01 1.01054E+00 6.02585E-04 2.06571E-02 7.47641E-14-8.21921E-14
 -1      3999 1.97243E+01 4.40509E-01-1.76122E-03 2.29846E-01-8.24155E-14 1.79815E-13
 -1      4000 1.96801E+01 4.90298E-01-3.95362E-04 2.63159E-01 2.58153E-14 1.88258E-13
 -1      4001 1.96117E+01 5.42349E-01-2.20379E-03 2.90854E-01 6.15704E-15 1.35122E-13
 -1      4002 1.95520E+01 5.98503E-01-6.61853E-04 3.29774E-01 9.03609E-15 4.00481E-13
 -1      4003 1.96000E+01 5.49056E-01 2.48631E-03 2.25012E-01 6.53927E-14 5.53692E-13
 -1      4004 1.98589E+01 2.96329E-01-3.32534E-04 1.45329E-01-2.22411E-13 9.20298E-15
 -1      4005 1.53995E+01 1.08115E+00-2.01678E-02 1.03938E+00 3.75576E-14 2.56720E-13
 -1      4006 1.48018E+01 1.23460E+00 3.74330E-02 3.60409E-01-4.92471E-14-1.06707E-13
 -1      4007 1.77039E+01 1.16091E+00-1.22629E-02 9.00165E-01-1.53283E-13 2.29203E-13
 -1      4008 1.74282E+01 1.15652E+00-7.95991E-03 1.03165E+00-1.62715E-13 3.12770E-13
 -1      4009 1.86845E+01 1.01877E+00-5.70479E-03 6.33081E-01-9.96601E-14 3.00434E-13
 -1      4010 1.85110E+01 1.07082E+00-2.14814E-03 7.00337E-01-1.52138E-13 3.08030E-13
 -1      4011 1.77986E+01-1.41065E+00 2.48783E-03-3.54267E+00 1.55848E-13-1.86179E-14
 -1      4012 1.84249E+01-1.99154E+00 6.80865E-02-3.91737E+00 8.16656E-14-1.47336E-13
 -1      4013 1.70205E+01 1.03428E+00 3.77006E-04-1.22278E+00-1.01033E-13 1.71944E-13
 -1      4014 1.73471E+01 1.06193E+00-1.36813E-02-1.08372E+00-1.47869E-14 1.33546E-13
 -1      4015 1.92673E+01 7.78585E-01-3.40600E-03 4.41373E-01 7.89033E-14 4.09164E-13
 -1      4016 1.91630E+01 8.41841E-01-1.42964E-03 4.92109E-01 1.64621E-14 3.30102E-13
 -1      4017 1.47673E+01 1.11825E+00-1.06903E-02-4.09109E-01 7.31012E-15 5.88323E-14
 -1      4018 1.52128E+01 9.89668E-01 3.58581E-02-1.31424E+00 1.11259E-13 8.51636E-14
 -1      4019 1.56493E+01 1.18318E+00 1.03573E-02-2.99686E-01 1.93152E-14-1.98756E-15
 -1      4020 2.02255E+01 1.33904E+00-4.53946E-03-7.12711E-02 4.79963E-14-1.28727E-13
 -1      4021 2.02674E+01 1.05734E+00 3.88850E-03 3.00045E-03 3.35292E-14-1.17501E-13
 -1      4022 2.02469E+01 1.03867E+00 1.75837E-03 2.08087E-02 4.02329E-14-1.47309E-13
 -1      4023 2.02150E+01 1.38338E+00-2.80107E-03-3.19573E-02 6.07686E-14-1.48948E-13
 -1      4024 1.98806E+01 2.40132E-01-3.06006E-04 3.13375E-02-2.72830E-14 1.89667E-13
 -1      4025 1.98872E+01 2.33432E-01-8.89697E-04 5.15890E-02-5.55226E-14 2.32227E-13
 -1      4026 1.98588E+01 2.79321E-01 9.13662E-04 7.22356E-02-1.95810E-13 1.00859E-13
 -1      4027 1.98592E+01 2.69063E-01 6.25681E-04 1.99191E-02-1.67397E-14 4.60692E-14
 -1      4028 1.97135E+01-2.37762E+00-2.79561E-03-3.44841E+00 6.58518E-14-2.49594E-14
 -1      4029 1.98084E+01 3.52338E-01-1.30695E-03 1.77718E-01-2.89842E-13 1.87670E-13
 -1      4030 1.97760E+01 3.94837E-01-2.72609E-04 2.06120E-01-2.60684E-13 1.52120E-13
 -1      4031 1.97149E+01 4.45438E-01 1.84056E-03 1.79039E-01-1.63640E-13 5.70720E-13
 -1      4032 1.99176E+01 2.01221E-01-1.73066E-04-7.68980E-02 1.16257E-13 1.70931E-13
 -1      4033 1.99072E+01 2.09973E-01-4.42315E-04-6.42546E-02 3.41914E-14 1.90796E-13
 -1      4034 1.98848E+01 2.39978E-01 3.75215E-04-6.17893E-02 4.79892E-14 7.38429E-14
 -1      4035 1.99084E+01 2.16450E-01 4.70064E-06-8.78445E-02 3.25051E-14 2.88783E-13
 -1      4036 1.90132E+01 9.02975E-01-4.33704E-03 5.31304E-01-1.56196E-14 3.60998E-13
 -1      4037 1.88780E+01 9.63866E-01-1.84200E-03 5.89000E-01-3.80967E-14 4.36217E-13
 -1      4038 1.86615E+01 1.04980E+00 7.46499E-03 4.60650E-01-9.51885E-14 2.65514E-13
 -1      4039 1.89931E+01 9.22585E-01 5.58180E-03 3.95057E-01 5.77472E-14 4.97306E-13
 -1      4040 1.94626E+01 6.56220E-01-2.72790E-03 3.61347E-01-3.51603E-14 5.32721E-13
 -1      4041 1.93832E+01 7.17300E-01-1.01380E-03 4.06043E-01 8.70923E-14 4.75160E-13
 -1      4042 1.94481E+01 6.65454E-01 3.25127E-03 2.76837E-01 5.35938E-14 5.14548E-13
 -1      4043 1.61620E+01 8.56673E-01 9.08135E-03-1.61620E+00-1.25746E-13 1.31961E-13
 -1      4044 1.65169E+01 9.53988E-01-2.89063E-02-1.39009E+00-7.92090E-14 1.95478E-13
 -1      4045 1.64332E+01 1.19466E+00 2.73240E-02-9.15903E-01-9.02761E-14 2.99503E-13
 -1      4046 1.54493E+01 1.04895E+00 4.58968E-02-1.22958E+00-8.51088E-14 6.76388E-14
 -1      4047 1.82605E+01 1.10820E+00-8.25673E-03 7.52642E-01-2.47748E-13 2.82793E-13
 -1      4048 1.80359E+01 1.13853E+00-5.00300E-03 8.34538E-01-1.94763E-13 2.64606E-13
 -1      4049 1.82366E+01 1.16220E+00 1.15217E-02 5.34988E-01-2.24055E-13 2.00609E-13
 -1      4050 1.72123E+01-4.04865E-01 3.98600E-02-2.87948E+00 2.10434E-13 1.09551E-13
 -1      4051 1.83490E+01-9.85359E-01-1.62669E-02-2.86733E+00 1.18087E-13 1.24111E-13
 -1      4052 2.02638E+01 8.68689E-01-3.68894E-04-4.46480E-02 7.29598E-14-8.31314E-14
 -1      4053 2.02562E+01 9.64354E-01-4.44927E-04-2.01412E-02 7.03924E-14-5.71740E-14
 -1      4054 2.02371E+01 7.61749E-01-1.31503E-03-1.22066E-01 6.39034E-14-8.42229E-14
 -1      4055 1.87905E+01 9.34777E-01-1.71175E-03-7.43238E-01-4.15689E-15 6.70453E-14
 -1      4056 1.89638E+01 8.79500E-01-4.94632E-03-6.85715E-01 2.92552E-14 1.69919E-14
 -1      4057 1.98979E+01 5.74131E-01-9.05624E-04-4.02708E-01 5.91286E-14-4.11616E-14
 -1      4058 1.99738E+01 5.65998E-01-1.15505E-03-3.54551E-01 9.56239E-14-3.14123E-14
 -1      4059 1.86200E+01-1.09537E+00-7.82822E-03 2.90870E+00 5.64394E-14-2.63591E-14
 -1      4060 2.02440E+01 1.01290E+00-2.32153E-03-1.84805E-02 6.46080E-14-7.63212E-14
 -1      4061 1.97016E+01 6.26572E-01-1.19855E-03-4.83276E-01 2.73410E-14-6.44514E-14
 -1      4062 1.97958E+01 5.94841E-01-1.79110E-03-4.37044E-01 3.89531E-14-5.41102E-14
 -1      4063 1.98185E+01 6.26421E-01 2.46702E-03-3.39041E-01 6.08416E-14-6.09113E-15
 -1      4064 1.98982E+01 2.32085E-01-4.06675E-05-1.00899E-01 3.82343E-14 1.40259E-13
 -1      4065 1.92499E+01 7.91726E-01 4.24835E-03 3.33807E-01 7.16793E-16 4.69837E-13
 -1      4066 1.43402E+01 1.15868E+00 5.11426E-02-3.45877E-02 1.49305E-14-4.17470E-14
 -1      4067 1.48086E+01 1.03839E+00-6.49030E-03-7.03159E-01-4.91017E-14 3.15208E-14
 -1      4068 1.49279E+01 1.00941E+00-3.03027E-05 6.02055E-01 1.69916E-14-1.18390E-13
 -1      4069 1.85442E+01 9.82843E-01-6.85409E-03-7.86846E-01-5.38827E-15 2.27218E-14
 -1      4070 1.85428E+01 1.01854E+00 8.20582E-03-5.74316E-01 3.40037E-14 5.31385E-14
 -1      4071 1.83304E+01 1.02606E+00-1.99778E-03-8.57146E-01 5.91394E-14 2.93758E-15
 -1      4072 1.76744E+01 1.24290E+00 1.35835E-02 6.26057E-01-1.62924E-13 1.51664E-13
 -1      4073 1.65139E+01 1.25881E+00 4.27943E-03 5.58417E-01 6.50319E-14 6.59785E-14
 -1      4074 1.65620E+01 1.16469E+00-2.90215E-03 9.84078E-01 1.02167E-14 3.04553E-13
 -1      4075 1.73182E+01 1.53468E-01 2.01452E-02 2.11659E+00 4.61916E-14-1.49119E-13
 -1      4076 1.61685E+01 3.41709E-01 1.25236E-02 2.16183E+00-5.78487E-15-1.80558E-13
 -1      4077 1.57688E+01 6.58518E-01-1.53121E-02 1.57885E+00 1.81860E-14-1.37496E-13
 -1      4078 1.73934E+01 3.51887E-01-1.07092E-02 1.80991E+00-1.20802E-14-6.57678E-14
 -1      4079 1.96604E+01-2.05841E+00-1.99672E-02-3.17329E+00 6.49775E-14 1.80984E-14
 -1      4080 2.02484E+01-2.38441E+00 4.41488E-02-3.19985E+00 7.06698E-14 3.65255E-14
 -1      4081 2.02080E+01 1.40839E+00-2.98933E-03 2.32104E-02 8.06748E-14-1.61689E-13
 -1      4082 2.02077E+01 1.40783E+00-3.16681E-03-1.50431E-02 7.54001E-14-1.65393E-13
 -1      4083 2.02467E+01 1.22565E+00 5.21180E-03-2.40200E-03 5.45645E-14-1.33002E-13
 -1      4084 2.02476E+01 1.23617E+00 5.80496E-03 1.97591E-02 8.51785E-14-1.31033E-13
 -1      4085 1.58688E+01 6.74983E-01 5.10948E-03-1.66309E+00 8.82888E-14 1.03432E-13
 -1      4086 1.98336E+01 2.96728E-01 1.11119E-03-1.37657E-03-5.67201E-14-1.91879E-13
 -1      4087 1.98246E+01 3.01393E-01-1.15726E-03 2.40735E-02-1.34960E-13 1.10845E-13
 -1      4088 1.98154E+01 3.36832E-01 1.00180E-03 1.27568E-01-2.01320E-13 6.29027E-14
 -1      4089 1.61483E+01 1.07975E+00 7.09651E-04 1.15005E+00 2.26585E-14 4.23936E-13
 -1      4090 1.77515E+01 1.06898E+00-3.13082E-03-1.00795E+00 4.39832E-14 8.63570E-14
 -1      4091 1.80176E+01 1.05229E+00-1.00817E-02-9.13695E-01 7.47908E-14 8.24097E-14
 -1      4092 1.80044E+01 1.11650E+00 1.11554E-02-6.47358E-01 2.39457E-14 7.70831E-14
 -1      4093 1.59452E+01 2.58015E-01 4.11358E-02 2.64718E+00-1.73032E-13 1.04301E-12
 -1      4094 1.98698E+01 2.62380E-01 6.22542E-04-8.78934E-02 6.81743E-14 2.69483E-13
 -1      4095 1.98461E+01 2.79251E-01-7.31546E-04-5.09864E-02-3.47620E-14-1.25115E-13
 -1      4096 1.98142E+01 3.13684E-01-9.36001E-04-5.11329E-02 3.41825E-15-7.17326E-14
 -1      4097 1.73325E+01 1.17303E+00 2.06371E-02-7.47988E-01 5.60316E-16 2.13277E-13
 -1      4098 1.93224E+01-1.41894E+00 2.75446E-02-2.88629E+00 1.04820E-13 4.89214E-15
 -1      4099 1.97809E+01 3.51818E-01-1.44533E-04-6.50716E-02 2.16334E-13-8.46054E-14
 -1      4100 2.01371E+01 6.92820E-01-1.25290E-03 1.22137E-01 1.46813E-14-8.19413E-14
 -1      4101 2.00800E+01 6.45082E-01-9.14542E-04 1.59537E-01 1.39401E-14-7.87527E-14
 -1      4102 2.00052E+01 6.15070E-01-1.47840E-03 1.81920E-01 2.41835E-14-7.61221E-14
 -1      4103 1.99291E+01 6.01155E-01-6.58254E-04 2.18765E-01 3.36683E-14-7.50864E-14
 -1      4104 2.00343E+01 6.64315E-01 3.15816E-03 1.09947E-01 2.61365E-14-1.01508E-13
 -1      4105 1.98290E+01 6.01029E-01-2.36303E-03 2.45463E-01 3.82546E-14-5.78572E-14
 -1      4106 1.97388E+01 6.12660E-01 3.19649E-04 2.86927E-01 3.75238E-14-5.97500E-14
 -1      4107 1.98606E+01 6.39697E-01 3.27971E-03 1.54404E-01 4.48391E-14-5.18336E-14
 -1      4108 1.96150E+01 6.28604E-01-3.29721E-03 3.20972E-01 2.79459E-14-4.21425E-14
 -1      4109 1.95105E+01 6.54829E-01 7.51476E-04 3.70056E-01 2.89821E-15-4.51595E-14
 -1      4110 1.96449E+01 6.62713E-01 3.22657E-03 2.08465E-01 3.48322E-14-6.29952E-14
 -1      4111 1.93655E+01 6.78129E-01-3.48824E-03 4.14084E-01-2.10118E-14-1.48450E-14
 -1      4112 1.92438E+01 7.06541E-01 4.33120E-04 4.74039E-01-3.26498E-14-4.73277E-14
 -1      4113 1.93934E+01 7.16224E-01 5.28410E-03 2.81552E-01 2.28371E-15-7.48381E-14
 -1      4114 1.90699E+01 7.30075E-01-5.44444E-03 5.39607E-01-2.51949E-14-4.96169E-14
 -1      4115 1.89407E+01 7.52223E-01 2.18518E-03 6.20486E-01-1.28035E-14-7.77534E-15
 -1      4116 1.90802E+01 7.92056E-01 7.30795E-03 3.84338E-01-3.67719E-14-5.95102E-14
 -1      4117 1.87331E+01 7.56101E-01-7.90142E-03 7.09629E-01-3.08372E-14-1.81739E-14
 -1      4118 1.85972E+01 7.58360E-01 3.53059E-03 8.18949E-01-7.69428E-14-4.32607E-14
 -1      4119 1.87255E+01 8.50556E-01 1.05110E-02 5.25628E-01-1.30449E-14-8.43934E-14
 -1      4120 1.83492E+01 7.32312E-01-1.06572E-02 9.45425E-01-1.00098E-13-3.07501E-14
 -1      4121 1.82140E+01 6.98833E-01 6.40854E-03 1.09719E+00-6.17745E-14-5.03291E-14
 -1      4122 1.83026E+01 8.75793E-01 1.28944E-02 7.25313E-01-6.89344E-14-5.34138E-14
 -1      4123 1.79134E+01 6.22495E-01-1.45672E-02 1.28083E+00 4.54481E-15-7.34396E-14
 -1      4124 1.78008E+01 5.32580E-01 1.18630E-02 1.49301E+00 1.30252E-14-4.86788E-14
 -1      4125 1.77923E+01 8.34248E-01 1.11043E-02 1.00887E+00-5.18618E-14-8.43084E-14
 -1      4126 1.73138E+01 2.84563E-01 1.27205E-02-1.99358E+00 9.45639E-14 4.60586E-14
 -1      4127 1.73936E+01 4.76183E-01-1.51809E-02-1.69529E+00 1.16061E-13 8.13021E-14
 -1      4128 1.99980E+01 6.14413E-01 2.10943E-03-2.71975E-01 6.54715E-14-5.57707E-14
 -1      4129 2.00526E+01 5.72337E-01-1.22793E-03-3.17183E-01 9.43571E-14-7.28607E-14
 -1      4130 2.01129E+01 5.96227E-01-5.20212E-04-2.63274E-01 7.26920E-14-8.83347E-14
 -1      4131 1.77249E+01 6.30514E-01 8.36174E-03-1.44861E+00 9.20763E-14 1.38242E-13
 -1      4132 1.78386E+01 7.34585E-01-1.19284E-02-1.22989E+00-4.75019E-14 1.24474E-13
 -1      4133 1.71327E+01 7.53053E-01-6.69671E-03-1.39414E+00 1.28186E-13-9.60555E-14
 -1      4134 1.81153E+01 8.00761E-01 3.77669E-03-1.04930E+00-1.47047E-13 1.04433E-13
 -1      4135 1.82347E+01 8.38127E-01-1.24631E-02-9.02383E-01-1.22675E-13 4.12268E-15
 -1      4136 1.77174E+01 9.41539E-01 1.41051E-02-9.67691E-01-5.19521E-14 3.06903E-14
 -1      4137 1.84638E+01 8.70140E-01 3.02862E-03-7.68449E-01-8.87428E-14 7.11431E-14
 -1      4138 1.85829E+01 8.67008E-01-8.05741E-03-6.60402E-01-8.95582E-14 1.09828E-13
 -1      4139 1.81778E+01 1.00092E+00 1.68783E-02-6.79643E-01-1.30039E-13 1.88188E-13
 -1      4140 1.87667E+01 8.59640E-01 1.03039E-03-5.68904E-01-2.23107E-13-1.20805E-14
 -1      4141 1.88764E+01 8.33557E-01-6.03526E-03-4.89286E-01-3.06964E-13 2.56973E-14
 -1      4142 1.85637E+01 9.67818E-01 1.38005E-02-4.83246E-01-2.66378E-13 5.57598E-14
 -1      4143 1.90257E+01 8.05644E-01 3.62575E-04-4.23241E-01-3.60309E-13-1.88976E-15
 -1      4144 1.91217E+01 7.65368E-01-4.52836E-03-3.63413E-01-4.12770E-13-1.21448E-13
 -1      4145 1.88747E+01 8.97897E-01 1.06535E-02-3.45588E-01-4.32142E-13-1.12103E-13
 -1      4146 1.92426E+01 7.25110E-01-6.39689E-05-3.15647E-01-2.19608E-13-4.77653E-15
 -1      4147 1.93244E+01 6.77884E-01-3.43401E-03-2.70076E-01-2.69773E-14 2.95343E-14
 -1      4148 1.91294E+01 8.04213E-01 8.22603E-03-2.47308E-01-2.50921E-13 3.88412E-14
 -1      4149 1.94214E+01 6.32102E-01-2.88899E-04-2.35439E-01-3.61679E-14-8.12926E-14
 -1      4150 1.94893E+01 5.83123E-01-2.61390E-03-2.00398E-01 6.38991E-14-1.38205E-13
 -1      4151 1.93364E+01 6.99771E-01 6.36865E-03-1.77160E-01-1.43154E-13 1.00888E-13
 -1      4152 1.95663E+01 5.36618E-01-3.77889E-04-1.75190E-01 1.90292E-13-2.33022E-13
 -1      4153 1.96215E+01 4.89334E-01-1.96758E-03-1.48001E-01 8.98161E-14-9.89892E-14
 -1      4154 1.95024E+01 5.94037E-01 4.90153E-03-1.26972E-01 8.30532E-14-1.85528E-13
 -1      4155 1.96812E+01 4.45527E-01-3.64141E-04-1.29571E-01 7.67904E-14-1.15144E-13
 -1      4156 1.97227E+01 4.02152E-01-2.11247E-03-1.06930E-01 2.29251E-13-8.25131E-14
 -1      4157 1.96329E+01 4.93270E-01 3.44934E-03-9.12354E-02 8.71680E-14-2.39109E-13
 -1      4158 1.63674E+01 1.26650E+00-8.83080E-03 9.97512E-02 2.03240E-14 1.82935E-14
 -1      4159 1.65022E+01 1.18972E+00 3.33304E-03-5.63987E-01 6.79133E-15 7.67711E-14
 -1      4160 1.72480E+01 1.25052E+00 2.51893E-04 2.56767E-01-8.62721E-14 1.42858E-13
 -1      4161 1.94412E+01 6.42988E-01-2.41894E-03 1.85894E-01 9.46219E-14 5.98223E-13
 -1      4162 1.93537E+01 7.03982E-01-1.92045E-03 2.07465E-01 9.07292E-14 5.74121E-13
 -1      4163 1.98158E+01 3.22194E-01 1.05671E-03 5.85648E-02-1.60389E-13 4.17481E-13
 -1      4164 1.98152E+01 3.21459E-01-1.06512E-03 8.62346E-02-1.96037E-13 1.15009E-13
 -1      4165 1.97640E+01 3.81213E-01-4.33474E-04 1.12112E-01-1.05980E-13 3.45644E-13
 -1      4166 1.97808E+01 3.48267E-01-1.32299E-03 3.73326E-02-1.46166E-13 2.04305E-13
 -1      4167 1.95931E+01 5.29929E-01-2.02601E-03 1.53365E-01-2.52065E-14 6.06605E-13
 -1      4168 1.95269E+01 5.85645E-01-1.31320E-03 1.73625E-01-3.15247E-14 5.61748E-13
 -1      4169 1.94620E+01 6.41035E-01 6.14503E-03 1.12023E-01 2.05396E-14 7.67401E-13
 -1      4170 1.69421E+01 1.69522E-02-1.87048E-02-2.40880E+00 1.27452E-13 1.12257E-13
 -1      4171 1.97094E+01 4.29379E-01-1.58239E-03 1.23357E-01 4.19731E-14 4.16201E-13
 -1      4172 1.96594E+01 4.78766E-01-8.53121E-04 1.41762E-01 1.36092E-13 6.59911E-13
 -1      4173 1.96085E+01 5.27222E-01 4.63812E-03 9.59555E-02 4.99451E-14 6.63032E-13
 -1      4174 1.62869E+01 8.60238E-01-2.28168E-04-1.31964E+00 6.90637E-14 7.04235E-14
 -1      4175 1.64650E+01 4.87768E-01 1.90154E-02-2.00253E+00 1.04066E-13-4.21468E-14
 -1      4176 1.68999E+01 1.16049E+00-1.79987E-02-4.10607E-01-4.60048E-14 2.02909E-13
 -1      4177 1.73331E+01 1.15312E+00-1.20943E-02-3.66244E-01-1.01525E-15 1.79261E-13
 -1      4178 1.75427E+01 1.23210E+00-2.23687E-03 2.35903E-01-2.25635E-13 1.87821E-13
 -1      4179 1.92439E+01 7.65687E-01-2.95286E-03 2.19217E-01-1.81907E-14 4.47520E-13
 -1      4180 1.91294E+01 8.29776E-01-2.75552E-03 2.41125E-01-3.43622E-14 4.91007E-13
 -1      4181 1.92729E+01 7.65111E-01 8.07536E-03 1.25395E-01-2.73182E-14 5.75432E-13
 -1      4182 1.82365E+01 1.13085E+00-6.05985E-03 2.99200E-01-2.17947E-13 7.20376E-14
 -1      4183 1.79799E+01 1.17849E+00-9.22119E-03 3.24192E-01-2.75248E-13 1.21354E-13
 -1      4184 2.02368E+01 8.77675E-01 2.71137E-03-5.58212E-02 6.21965E-14-9.80641E-14
 -1      4185 2.02351E+01 1.04735E+00-1.26125E-03-4.27317E-03 8.57531E-14-1.21406E-13
 -1      4186 2.02157E+01 7.13490E-01 2.79876E-04-1.50614E-01 5.02999E-14-7.32575E-14
 -1      4187 2.02192E+01 7.87025E-01 1.29437E-03-1.14731E-01 6.62139E-14-6.08769E-14
 -1      4188 2.02060E+01 8.13486E-01-1.89270E-03-8.46743E-02 6.92987E-14-9.94300E-14
 -1      4189 2.01721E+01 6.46026E-01-1.50372E-03-2.13574E-01 5.09425E-14-7.34261E-14
 -1      4190 2.02187E+01 8.54601E-01-2.18058E-03 6.02073E-02 2.38435E-14-1.32413E-13
 -1      4191 2.01867E+01 7.63090E-01-9.57991E-04 1.00624E-01 1.23531E-14-1.09899E-13
 -1      4192 2.01572E+01 7.62436E-01 2.60038E-03 6.99592E-02 4.67445E-14-7.13794E-14
 -1      4193 1.97476E+01 3.87855E-01 2.12711E-03-3.42078E-02 1.74459E-13-1.19469E-13
 -1      4194 1.89740E+01 9.02050E-01 7.16087E-03-5.12787E-01 3.08704E-14 4.34482E-14
 -1      4195 1.91608E+01 8.23901E-01-1.27220E-03-6.49082E-01 3.66201E-14 1.38932E-14
 -1      4196 1.92993E+01 7.66633E-01-4.49569E-03-5.99567E-01 4.27827E-14-6.48692E-16
 -1      4197 1.97205E+01 4.06585E-01-8.54968E-04 1.61847E-03 1.51633E-13 2.17726E-13
 -1      4198 1.57836E+01 6.25821E-01-5.90920E-03 2.02588E+00-7.64334E-14 7.79410E-13
 -1      4199 1.86614E+01 1.01788E+00-4.66529E-03 2.78455E-01-9.62191E-14 2.01599E-13
 -1      4200 1.84679E+01 1.07599E+00-5.45010E-03 2.98717E-01-2.15347E-13 8.02223E-14
 -1      4201 1.83192E+01 1.14451E+00 1.77304E-02 1.06745E-01-2.58601E-13-1.57247E-13
 -1      4202 1.95754E+01 6.68419E-01-2.14158E-03-5.14936E-01 3.23022E-14-4.87354E-14
 -1      4203 1.95964E+01 6.88315E-01 3.90082E-03-3.99764E-01 2.17522E-14-9.12085E-15
 -1      4204 1.94588E+01 7.16725E-01-1.12004E-03-5.62439E-01 5.01401E-14-4.45479E-14
 -1      4205 1.71363E+01 6.52760E-01 9.50677E-03 1.48453E+00-2.03250E-15-9.31423E-14
 -1      4206 1.97222E+01 4.24084E-01 3.22399E-03 8.02944E-02 7.99329E-14 6.04926E-13
 -1      4207 1.97405E+01 6.47966E-01-1.68838E-03-2.60582E-01 8.87491E-14-5.01187E-14
 -1      4208 1.98445E+01 6.29491E-01-1.11222E-03-2.31043E-01 5.81277E-14-4.05140E-14
 -1      4209 1.98566E+01 2.74002E-01 5.57225E-04-7.25202E-02 4.41752E-14 1.05095E-13
 -1      4210 1.76650E+01 1.23007E+00 1.71791E-02-2.74068E-02-1.52120E-13-1.98498E-14
 -1      4211 1.62524E+01 8.99967E-01 1.83677E-02 1.72556E+00-9.38759E-14 7.25258E-13
 -1      4212 1.65109E+01 8.03500E-01 6.28118E-03 1.26014E+00 2.59174E-14-1.33268E-13
 -1      4213 1.56970E+01 9.84562E-01 2.11079E-02 1.03442E+00 3.75278E-14-1.22686E-13
 -1      4214 1.68807E+01 8.86143E-01-2.14474E-02 9.74255E-01-2.67923E-15-1.19088E-13
 -1      4215 1.77183E+01 1.12330E+00-8.29767E-03-3.77904E-01-1.98001E-14 1.38851E-13
 -1      4216 1.80322E+01 1.08621E+00-6.66342E-03-3.55332E-01-5.22249E-15 6.28542E-14
 -1      4217 1.74856E+01 1.17479E+00 1.62150E-02-3.32587E-02-6.70222E-14 1.10114E-13
 -1      4218 1.64785E+01 1.13944E+00-9.71506E-03-4.96616E-02 6.76542E-15 1.09479E-13
 -1      4219 1.67143E+01 1.15937E+00 1.71318E-02 3.69311E-01 3.70472E-15-2.81931E-14
 -1      4220 2.02277E+01 1.05996E+00-2.46168E-03-6.75041E-03 8.31640E-14-1.24109E-13
 -1      4221 1.53784E+01 1.10262E+00-3.09391E-02-5.29402E-01-6.67790E-14 7.03881E-14
 -1      4222 1.59982E+01 1.12007E+00-7.49810E-03-9.52365E-02-3.58351E-15 7.34443E-14
 -1      4223 1.99412E+01 6.23721E-01-1.74266E-03-2.17449E-01 9.95317E-15-1.75892E-14
 -1      4224 2.00217E+01 6.35462E-01-1.03445E-03-1.83084E-01 3.73238E-14-7.36066E-14
 -1      4225 1.98821E+01 6.46433E-01-2.39724E-04-1.40345E-01 5.22380E-14-5.90050E-14
 -1      4226 1.83218E+01 1.03686E+00-6.27491E-03-3.64432E-01 1.83408E-14 1.94986E-14
 -1      4227 1.85696E+01 9.84694E-01-4.60088E-03-3.45882E-01 1.03846E-14 3.87804E-15
 -1      4228 1.81479E+01 1.08872E+00 1.41624E-02-1.05369E-01 2.15431E-16 3.11979E-14
 -1      4229 1.86545E+01 9.80740E-01 9.73863E-03-1.49087E-01 2.03438E-14 3.52452E-15
 -1      4230 1.87970E+01 9.28899E-01-4.57031E-03-3.48287E-01 2.28902E-14 1.75239E-14
 -1      4231 1.89872E+01 8.70792E-01-5.68004E-03-3.24800E-01 2.81223E-14 1.90533E-14
 -1      4232 1.89893E+01 8.93140E-01-3.66366E-03 2.50949E-01-6.38138E-14 3.80792E-13
 -1      4233 1.88403E+01 9.56874E-01-3.86724E-03 2.72163E-01-4.92680E-14 3.12932E-13
 -1      4234 1.87196E+01 1.02504E+00 1.40142E-02 1.28650E-01-2.29375E-13 1.19329E-13
 -1      4235 1.90301E+01 8.95263E-01 1.06247E-02 1.32489E-01-8.80980E-14 4.73853E-13
 -1      4236 2.02346E+01 1.09088E+00-3.62495E-03 3.39269E-03 4.88609E-14-1.44961E-13
 -1      4237 2.02414E+01 9.52248E-01 2.24677E-03 3.86689E-02 3.79799E-14-1.34537E-13
 -1      4238 2.02178E+01 9.26811E-01 2.05274E-03 2.90457E-02 3.96637E-14-1.00700E-13
 -1      4239 2.02343E+01 1.11311E+00-1.98986E-03 1.05640E-02 5.59516E-14-1.42042E-13
 -1      4240 2.00575E+01 6.78254E-01-1.76596E-03 3.31364E-02 2.69160E-14-7.86690E-14
 -1      4241 1.99814E+01 6.49573E-01-1.81612E-03 5.40059E-02 2.79329E-14-6.94587E-14
 -1      4242 1.72705E+01 1.08645E+00 3.58425E-03-6.59342E-01 7.14667E-14-3.76834E-14
 -1      4243 1.66357E+01 9.62233E-01-7.86628E-03-1.05992E+00 9.87324E-14 3.14544E-14
 -1      4244 1.98601E+01 6.43754E-01-1.69330E-03-4.20181E-03 7.15325E-14-6.38167E-14
 -1      4245 1.97594E+01 6.51205E-01-9.72822E-04 1.43385E-02 4.90165E-14-5.08332E-14
 -1      4246 1.94064E+01 7.17389E-01-5.45328E-03 1.29177E-01 4.44446E-15-6.04673E-14
 -1      4247 1.92624E+01 7.55578E-01-3.82080E-03 1.71389E-01-1.21438E-14-7.56884E-14
 -1      4248 1.90297E+01 8.27384E-01-3.37556E-03 9.31876E-02-1.53282E-14-4.12613E-14
 -1      4249 1.88487E+01 8.68124E-01-3.58080E-03 1.41494E-01-6.98411E-15-4.44487E-14
 -1      4250 1.86129E+01 9.11011E-01-9.32184E-03 1.69787E-01 1.27435E-14-3.80106E-14
 -1      4251 1.84090E+01 9.48642E-01-4.79347E-03 2.40094E-01 2.41221E-14-1.24036E-14
 -1      4252 1.81142E+01 9.78446E-01-1.27207E-02 2.87153E-01-2.34464E-14-3.73963E-15
 -1      4253 1.78777E+01 9.99712E-01-4.28143E-03 3.88775E-01-5.35558E-14 2.50211E-14
 -1      4254 1.96632E+01 4.54518E-01-2.21128E-03 3.97947E-03 1.72842E-13 2.53172E-13
 -1      4255 1.96021E+01 5.01951E-01-2.90050E-03-7.29841E-03 1.23884E-13 2.99054E-13
 -1      4256 1.95342E+01 5.55187E-01-3.16318E-03-3.59596E-03 8.27184E-14 3.03093E-13
 -1      4257 2.01377E+01 6.75828E-01 2.02269E-03-1.89016E-01 6.49733E-14-1.02081E-13
 -1      4258 1.74887E+01 1.09571E+00-1.65198E-02-5.11943E-01-2.87392E-14 7.09472E-14
 -1      4259 1.79342E+01 1.08763E+00-5.82972E-03-3.49809E-01-1.73637E-13-6.58936E-14
 -1      4260 1.81414E+01 1.06160E+00-1.47375E-02-2.54335E-01-2.12820E-13-4.49011E-15
 -1      4261 1.83782E+01 1.02309E+00-9.53646E-03-2.22678E-01-2.52750E-13-5.53741E-14
 -1      4262 1.85594E+01 9.89578E-01-1.07830E-02-1.53221E-01-3.64129E-13-3.18691E-14
 -1      4263 1.87445E+01 9.35461E-01-8.02798E-03-1.35320E-01-3.36876E-13 1.61320E-13
 -1      4264 1.88934E+01 8.89978E-01-8.03199E-03-8.61126E-02-3.11164E-13 1.99359E-13
 -1      4265 1.90381E+01 8.30111E-01-6.33327E-03-7.80327E-02-2.13406E-13 3.28974E-13
 -1      4266 1.91590E+01 7.78340E-01-5.91778E-03-4.37635E-02-1.44136E-13 4.37021E-13
 -1      4267 1.92719E+01 7.17582E-01-4.98373E-03-4.19078E-02-1.62386E-13 5.05509E-13
 -1      4268 1.93691E+01 6.64438E-01-4.34830E-03-1.81117E-02-4.33082E-14 4.02637E-13
 -1      4269 1.94568E+01 6.06265E-01-3.91113E-03-2.00053E-02 3.26405E-14 4.35874E-13
 -1      4270 1.56910E+01 1.13277E+00 8.51010E-03 4.05445E-01 4.29702E-14-6.35316E-14
 -1      4271 1.96169E+01 6.77673E-01-1.97263E-03-2.73155E-01 2.80336E-14-2.72877E-14
 -1      4272 1.96638E+01 6.89336E-01 3.57276E-03-1.61181E-01 4.33898E-14-3.36220E-14
 -1      4273 1.94848E+01 7.16008E-01-3.45094E-03-2.98581E-01-1.69465E-14-4.79749E-15
 -1      4274 1.96343E+01 6.73281E-01-3.00373E-03 1.39509E-02 1.15164E-15-3.51759E-15
 -1      4275 1.72303E+01 1.01024E+00 4.90121E-03 6.03275E-01-5.87753E-14-5.06853E-14
 -1      4276 2.02276E+01 9.62435E-01 1.11383E-03-6.82576E-03 7.12599E-14-1.01559E-13
 -1      4277 1.93101E+01 7.90918E-01 4.82223E-03-4.55876E-01 3.15123E-16 4.27077E-14
 -1      4278 1.74995E+01 1.00954E+00-1.40475E-02 4.67064E-01-7.15222E-14 1.96010E-14
 -1      4279 2.01727E+01 7.95311E-01-1.94458E-03 1.69747E-02 4.48292E-14-4.32581E-14
 -1      4280 2.01234E+01 7.25741E-01-1.24753E-03 3.41401E-02 4.43766E-14-3.64202E-14
 -1      4281 2.00892E+01 7.15970E-01 1.63675E-03-2.24114E-02 9.70842E-15-2.57923E-14
 -1      4282 1.95157E+01 7.04610E-01 2.99381E-04 3.63259E-02-1.94694E-14-7.26307E-15
 -1      4283 1.94299E+01 7.48409E-01 3.84875E-03-8.04515E-02-4.47979E-14-3.46192E-14
 -1      4284 1.99072E+01 6.59698E-01 1.87948E-03-8.38779E-02 5.53187E-14-4.98786E-14
 -1      4285 1.91084E+01 8.45281E-01 6.48983E-03-6.78994E-02-1.97431E-15-3.32155E-14
 -1      4286 2.01000E+01 6.68159E-01-1.46264E-03-1.59701E-01 5.41725E-14-9.55781E-14
 -1      4287 2.01612E+01 7.26443E-01-5.72367E-04-1.14665E-01 5.58985E-14-8.11013E-14
 -1      4288 2.01807E+01 8.09050E-01 1.00562E-03-6.22617E-02 6.16698E-14-1.14607E-13
 -1      4289 2.00597E+01 6.84659E-01 2.22781E-03-1.07998E-01 2.26251E-14-5.29251E-14
 -1      4290 2.02101E+01 8.77564E-01 6.29926E-04 5.55572E-03 6.32743E-14-7.73492E-14
 -1      4291 2.01887E+01 8.31454E-01 2.79160E-04-3.21802E-02 5.84203E-14-8.06246E-14
 -1      4292 2.01428E+01 7.41877E-01 7.20408E-04-5.25038E-02 2.96346E-14-5.24032E-14
 -1      4293 1.92195E+01 8.02583E-01-1.34773E-03-2.22988E-01-2.46645E-15-1.57656E-14
 -1      4294 2.00758E+01 6.88778E-01-1.83140E-03-5.97705E-02 1.71717E-14-5.44444E-14
 -1      4295 1.93750E+01 7.51340E-01-1.24036E-03-2.08372E-01-2.78382E-14-2.00195E-14
 -1      4296 2.00022E+01 6.58984E-01 1.40189E-03-7.55247E-02-3.88086E-15-3.89942E-14
 -3
    1PSTEP                         3           1           1          
  100CL  101 1.000000000        4296                     0    1           1
 -4  TOSTRAIN    6    1
 -5  EXX         1    4    1    1
 -5  EYY         1    4    2    2
 -5  EZZ         1    4    3    3
 -5  EXY         1    4    1    2
 -5  EYZ         1    4    2    3
 -5  EZX         1    4    3    1
 -1         1 2.06636E-05 2.45829E-05-2.13555E-05 4.12480E-05-1.15209E-17-1.00085E-17
 -1         2 3.63018E-05-1.10568E-04 1.99661E-05 5.88716E-07 5.34930E-18-9.27739E-19
 -1         3 9.52347E-05-2.85736E-05-2.85610E-05 1.23830E-09-1.52785E-18-2.42775E-18
 -1         4 9.52344E-05-2.85739E-05-2.85611E-05-4.20672E-10 1.35119E-18-1.66946E-18
 -1         5 1.42756E-04-2.13797E-05-4.23796E-05 3.83896E-05-1.43360E-19 1.04348E-17
 -1         6 1.44811E-04 2.56617E-10-4.40353E-05-5.33123E-05-5.94617E-19 7.72706E-18
 -1         7 9.04313E-05-5.15659E-07-3.89811E-05-2.91178E-05-8.61856E-20 7.65162E-19
 -1         8 8.50786E-05 8.16603E-08-3.63121E-05-2.01245E-05-9.35971E-20-1.18450E-18
 -1         9 8.28504E-05 7.27774E-08-3.53611E-05-1.54729E-05-5.83526E-20-2.19961E-18
 -1        10 8.18572E-05 3.56529E-08-3.49138E-05-1.19002E-05-3.32857E-20-2.61224E-18
 -1        11 8.13537E-05 1.74888E-08-3.46954E-05-8.84419E-06-2.03850E-20-2.75094E-18
 -1        12 8.10879E-05 8.02074E-09-3.45851E-05-6.14477E-06 1.47734E-21-2.69382E-18
 -1        13 8.09441E-05 4.02631E-09-3.45282E-05-3.59437E-06 1.91178E-20-2.59083E-18
 -1        14 8.08827E-05 2.48694E-09-3.45046E-05-1.15301E-06 2.16175E-20-2.43662E-18
 -1        15 8.08859E-05 2.45003E-09-3.45057E-05 1.25480E-06 3.64871E-20-2.26152E-18
 -1        16 8.09537E-05 3.86940E-09-3.45317E-05 3.70164E-06 6.94443E-20-2.07003E-18
 -1        17 8.11042E-05 7.05210E-09-3.45906E-05 6.26502E-06 8.66472E-20-1.83309E-18
 -1        18 8.13758E-05 1.59809E-08-3.47026E-05 8.98531E-06 7.65208E-20-1.40264E-18
 -1        19 8.18828E-05 3.49981E-08-3.49233E-05 1.20792E-05 1.22376E-19-8.41962E-19
 -1        20 8.28749E-05 7.72490E-08-3.53742E-05 1.57031E-05 1.39853E-19 4.74868E-20
 -1        21 8.50428E-05 1.64063E-07-3.63491E-05 2.03383E-05 1.39310E-19 1.74798E-18
 -1        22 9.14487E-05-1.03519E-07-3.86513E-05 2.78715E-05 1.01644E-20 4.69949E-18
 -1        23 1.12566E-04-3.79905E-05-3.52761E-05-4.37219E-06-3.79762E-19 5.67618E-18
 -1        24 9.25516E-05-2.76227E-05-2.89197E-05 3.91195E-07-9.13770E-20 3.88909E-18
 -1        25 8.89783E-05-2.68114E-05-2.68862E-05 3.73992E-07-6.19012E-20 2.39268E-18
 -1        26 8.80035E-05-2.64868E-05-2.63891E-05 2.02006E-07-3.58847E-20 1.31739E-18
 -1        27 8.82009E-05-2.65170E-05-2.64339E-05 1.38158E-07-7.54720E-20 4.43693E-19
 -1        28 8.89743E-05-2.67261E-05-2.66768E-05 1.00324E-07-6.36793E-20-1.19518E-19
 -1        29 9.00667E-05-2.70409E-05-2.70122E-05 7.67151E-08 2.24724E-21-7.25980E-19
 -1        30 9.13595E-05-2.74219E-05-2.74046E-05 6.16813E-08 4.38014E-20-1.22957E-18
 -1        31 9.28044E-05-2.78516E-05-2.78416E-05 5.27711E-08 4.00704E-20-1.69870E-18
 -1        32 9.43931E-05-2.83261E-05-2.83216E-05 4.89600E-08-7.29506E-20-2.66176E-18
 -1        33 9.61394E-05-2.88484E-05-2.88488E-05 4.98143E-08 2.02840E-20-3.30223E-18
 -1        34 9.80637E-05-2.94239E-05-2.94287E-05 5.49962E-08-2.21738E-19-3.35944E-18
 -1        35 1.00175E-04-3.00549E-05-3.00630E-05 6.38146E-08 9.63352E-20-3.26028E-18
 -1        36 1.02450E-04-3.07339E-05-3.07430E-05 7.46404E-08-3.11188E-20-2.90613E-18
 -1        37 1.04805E-04-3.14353E-05-3.14411E-05 8.40793E-08-1.23345E-19-2.92017E-18
 -1        38 1.07060E-04-3.21058E-05-3.21009E-05 8.59544E-08-1.24625E-19-2.93483E-18
 -1        39 1.08912E-04-3.26553E-05-3.26293E-05 7.05417E-08-9.01635E-20-3.47589E-18
 -1        40 1.09922E-04-3.29538E-05-3.28956E-05 2.52424E-08-6.75583E-20-3.89382E-18
 -1        41 1.09556E-04-3.28439E-05-3.27487E-05-6.11152E-08 2.86331E-19-5.08980E-18
 -1        42 1.07333E-04-3.21820E-05-3.20618E-05-1.88542E-07 2.99586E-19-4.94720E-18
 -1        43 1.03072E-04-3.09142E-05-3.08059E-05-3.32226E-07-1.59885E-19-4.22609E-18
 -1        44 9.72139E-05-2.91689E-05-2.91295E-05-4.35069E-07 2.43028E-19-3.28323E-18
 -1        45 9.09884E-05-2.73108E-05-2.73887E-05-4.24846E-07-4.05429E-19-2.92483E-18
 -1        46 8.61853E-05-2.58751E-05-2.60672E-05-2.63092E-07-1.71302E-19-4.68065E-18
 -1        47 8.44406E-05-2.53532E-05-2.55913E-05 7.61633E-09 1.15283E-19-4.72684E-18
 -1        48 8.63974E-05-2.59387E-05-2.61259E-05 2.74773E-07 3.23955E-19-2.51319E-18
 -1        49 9.13460E-05-2.74179E-05-2.74889E-05 4.28707E-07-4.14591E-20-3.29043E-18
 -1        50 9.76235E-05-2.92916E-05-2.92469E-05 4.31382E-07-9.03875E-20-5.04813E-18
 -1        51 1.03459E-04-3.10302E-05-3.09200E-05 3.24456E-07-1.81517E-19-4.98343E-18
 -1        52 1.07670E-04-3.22834E-05-3.21641E-05 1.80821E-07 2.52207E-19-4.17612E-18
 -1        53 1.09864E-04-3.29368E-05-3.28441E-05 5.59356E-08-1.78208E-20-4.03499E-18
 -1        54 1.10252E-04-3.30542E-05-3.29987E-05-2.70502E-08 3.52765E-19-4.06299E-18
 -1        55 1.09336E-04-3.27840E-05-3.27604E-05-6.91060E-08-9.45319E-20-3.76462E-18
 -1        56 1.07652E-04-3.22853E-05-3.22826E-05-8.16130E-08-1.50201E-19-4.06991E-18
 -1        57 1.05644E-04-3.16890E-05-3.16971E-05-7.69014E-08 9.38662E-20-3.58753E-18
 -1        58 1.03618E-04-3.10860E-05-3.10980E-05-6.43126E-08-4.10110E-19-5.12231E-18
 -1        59 1.01757E-04-3.05309E-05-3.05428E-05-4.96478E-08-1.00806E-19-6.89960E-18
 -1        60 1.00150E-04-3.00506E-05-3.00605E-05-3.59511E-08-1.00883E-19-4.38443E-18
 -1        61 9.88232E-05-2.96535E-05-2.96610E-05-2.44979E-08 4.82021E-19-1.87058E-18
 -1        62 9.77679E-05-2.93368E-05-2.93421E-05-1.55741E-08-1.28042E-19-2.07322E-18
 -1        63 9.69543E-05-2.90923E-05-2.90956E-05-8.98258E-09-5.06856E-19-3.19356E-18
 -1        64 9.63455E-05-2.89089E-05-2.89109E-05-4.33394E-09-5.35871E-19-5.61330E-18
 -1        65 9.59042E-05-2.87757E-05-2.87767E-05-1.19568E-09-4.14189E-19-4.12923E-18
 -1        66 9.55960E-05-2.86825E-05-2.86829E-05 8.43583E-10 5.67089E-20-1.07219E-18
 -1        67 9.53917E-05-2.86205E-05-2.86206E-05 2.16314E-09 7.95449E-19 4.01157E-19
 -1        68 9.52680E-05-2.85826E-05-2.85829E-05 3.14275E-09 1.76728E-19 2.50762E-18
 -1        69 9.52071E-05-2.85637E-05-2.85643E-05 4.19785E-09-7.99128E-19-4.41614E-19
 -1        70 9.51952E-05-2.85595E-05-2.85599E-05 5.81430E-09 8.59592E-19 4.35324E-20
 -1        71 9.52181E-05-2.85663E-05-2.85630E-05 7.00924E-09-1.48665E-18-4.51984E-19
 -1        72 1.01796E-04-3.04695E-05-3.40311E-05-1.92364E-06 4.67986E-20 1.01362E-17
 -1        73 9.22964E-05-2.74354E-05-2.88248E-05-3.31515E-07 5.56163E-20 8.60580E-18
 -1        74 8.89486E-05-2.66557E-05-2.69244E-05-1.22355E-07 7.02020E-20 7.25836E-18
 -1        75 8.80113E-05-2.64306E-05-2.64267E-05-9.02010E-08 8.67299E-21 6.29164E-18
 -1        76 8.82096E-05-2.64886E-05-2.64532E-05-6.96066E-08 4.35147E-20 5.55621E-18
 -1        77 8.89815E-05-2.67116E-05-2.66867E-05-5.40811E-08 1.90158E-20 5.08236E-18
 -1        78 9.00780E-05-2.70350E-05-2.70199E-05-4.20065E-08-7.02826E-20 5.13509E-18
 -1        79 9.13898E-05-2.74258E-05-2.74170E-05-3.21717E-08 3.66054E-20 4.60515E-18
 -1        80 9.28839E-05-2.78728E-05-2.78691E-05-2.42433E-08-2.36470E-21 4.44291E-18
 -1        81 9.45769E-05-2.83801E-05-2.83822E-05-1.85293E-08 9.87989E-20 3.98174E-18
 -1        82 9.65225E-05-2.89631E-05-2.89724E-05-1.58548E-08 7.81659E-20 3.23708E-18
 -1        83 9.88021E-05-2.96460E-05-2.96644E-05-1.76478E-08-1.18800E-19 3.41913E-18
 -1        84 1.01516E-04-3.04578E-05-3.04875E-05-2.61410E-08 1.46630E-20 4.15646E-18
 -1        85 1.04764E-04-3.14283E-05-3.14708E-05-4.45495E-08 1.20772E-19 4.44715E-18
 -1        86 1.08620E-04-3.25784E-05-3.26324E-05-7.68798E-08-2.07773E-20 2.64137E-18
 -1        87 1.13067E-04-3.39030E-05-3.39598E-05-1.26546E-07-3.89174E-19 2.18237E-18
 -1        88 1.17901E-04-3.53431E-05-3.53785E-05-1.92131E-07-8.89477E-20 2.47282E-18
 -1        89 1.22580E-04-3.67428E-05-3.67087E-05-2.58072E-07 1.83933E-19 1.47821E-18
 -1        90 1.26066E-04-3.78025E-05-3.76276E-05-2.80455E-07-8.89517E-20 2.87847E-18
 -1        91 1.26788E-04-3.80621E-05-3.76850E-05-1.78149E-07-2.27973E-19 4.22811E-18
 -1        92 1.22999E-04-3.69926E-05-3.64502E-05 1.37335E-07-3.90926E-20 4.85543E-18
 -1        93 1.13876E-04-3.42999E-05-3.38305E-05 6.47914E-07-1.60314E-19 2.48472E-18
 -1        94 1.01126E-04-3.04236E-05-3.04202E-05 1.09353E-06 3.30338E-19-2.41510E-19
 -1        95 8.96604E-05-2.68312E-05-2.75093E-05 1.05638E-06-1.72236E-19 4.18805E-19
 -1        96 8.53506E-05-2.54007E-05-2.64579E-05 3.92934E-07 1.82195E-19 1.67729E-18
 -1        97 9.07218E-05-2.70183E-05-2.78097E-05-4.91557E-07-2.36913E-19 2.46299E-18
 -1        98 1.02714E-04-3.07387E-05-3.08782E-05-9.98990E-07 4.00116E-19 1.17595E-18
 -1        99 1.15329E-04-3.46366E-05-3.42705E-05-9.50801E-07-1.68407E-19-1.30205E-18
 -1       100 1.23949E-04-3.72673E-05-3.67424E-05-5.89620E-07-1.95147E-19 1.38172E-20
 -1       101 1.27222E-04-3.82374E-05-3.78161E-05-2.17503E-07 5.48454E-20-4.43150E-19
 -1       102 1.26172E-04-3.78918E-05-3.76553E-05 2.73231E-08 1.27687E-19-2.10848E-18
 -1       103 1.22583E-04-3.67900E-05-3.67056E-05 1.41760E-07-4.28157E-19-1.01044E-18
 -1       104 1.17988E-04-3.53980E-05-3.54031E-05 1.71307E-07 2.01188E-19 3.00043E-18
 -1       105 1.13370E-04-3.40080E-05-3.40522E-05 1.58676E-07-5.90088E-20 1.33625E-18
 -1       106 1.09233E-04-3.27666E-05-3.28206E-05 1.30730E-07-5.96341E-20-1.71176E-18
 -1       107 1.05764E-04-3.17271E-05-3.17771E-05 1.00987E-07 2.29765E-19-5.05426E-18
 -1       108 1.02976E-04-3.08920E-05-3.09334E-05 7.49295E-08 1.21347E-19-6.07210E-18
 -1       109 1.00801E-04-3.02405E-05-3.02727E-05 5.40233E-08-1.91996E-19-3.43288E-18
 -1       110 9.91425E-05-2.97435E-05-2.97678E-05 3.80323E-08-1.11907E-19-5.75140E-18
 -1       111 9.79025E-05-2.93719E-05-2.93897E-05 2.61542E-08 1.83029E-20-5.54649E-18
 -1       112 9.69930E-05-2.90991E-05-2.91120E-05 1.75125E-08-1.22532E-18-5.72293E-20
 -1       113 9.63393E-05-2.89029E-05-2.89122E-05 1.13346E-08 9.05596E-19 8.52904E-19
 -1       114 9.58807E-05-2.87652E-05-2.87718E-05 6.99251E-09-7.87536E-19-5.17487E-19
 -1       115 9.55694E-05-2.86717E-05-2.86764E-05 3.98532E-09 5.72932E-19-3.42343E-18
 -1       116 9.53687E-05-2.86113E-05-2.86147E-05 1.89011E-09 6.70967E-19-4.63034E-18
 -1       117 9.52510E-05-2.85758E-05-2.85786E-05 3.08337E-10 1.85120E-19-8.35926E-18
 -1       118 9.51968E-05-2.85592E-05-2.85618E-05-1.21301E-09-5.66074E-19-3.41127E-18
 -1       119 9.51914E-05-2.85572E-05-2.85589E-05-3.65174E-09 4.03460E-19-2.80083E-18
 -1       120 9.52175E-05-2.85653E-05-2.85630E-05-6.91125E-09 5.51185E-19-4.11681E-18
 -1       121 9.52428E-05-2.85909E-05-2.85635E-05-8.44676E-09-3.22097E-18-8.00338E-20
 -1       122 9.52496E-05-2.86130E-05-2.85608E-05-4.43002E-09 2.58331E-19 1.20051E-18
 -1       123 9.52453E-05-2.85983E-05-2.85658E-05-6.70017E-10 4.55441E-18 1.13437E-20
 -1       124 9.52299E-05-2.85470E-05-2.85803E-05 1.94743E-09 1.05691E-17 2.41475E-18
 -1       125 9.52078E-05-2.84726E-05-2.86013E-05 3.17766E-09 1.04828E-17-1.98673E-18
 -1       126 9.51848E-05-2.83951E-05-2.86234E-05 3.24122E-09 7.97814E-18-2.37129E-20
 -1       127 9.51655E-05-2.83300E-05-2.86420E-05 2.37733E-09 9.54622E-18-7.98219E-20
 -1       128 9.51546E-05-2.82930E-05-2.86526E-05 9.22134E-10 5.58379E-18 9.13745E-19
 -1       129 9.51542E-05-2.82918E-05-2.86530E-05-7.35792E-10 5.01476E-18 4.97126E-19
 -1       130 9.51645E-05-2.83266E-05-2.86430E-05-2.19813E-09 7.57904E-19-8.83149E-19
 -1       131 9.51832E-05-2.83896E-05-2.86250E-05-3.10815E-09-5.52900E-18-9.85352E-19
 -1       132 9.52057E-05-2.84657E-05-2.86033E-05-3.08689E-09-8.72403E-18 9.90462E-19
 -1       133 9.52277E-05-2.85396E-05-2.85824E-05-1.94084E-09-5.08095E-18-4.98453E-19
 -1       134 9.52433E-05-2.85921E-05-2.85676E-05 2.69613E-10-4.13898E-18 2.03831E-19
 -1       135 9.52488E-05-2.86092E-05-2.85619E-05 5.66509E-09-1.73368E-18 6.20358E-19
 -1       136 9.52414E-05-2.85900E-05-2.85634E-05 1.17706E-08 6.06767E-19 2.84448E-20
 -1       137 2.71317E-05-9.15936E-05 1.64297E-05-2.43216E-05 8.53957E-18 2.19548E-18
 -1       138 8.19603E-06-3.71960E-05 3.94959E-06-2.03000E-05 7.50768E-18 2.77064E-18
 -1       139 1.05697E-05 1.16257E-05-1.38906E-05 1.94626E-05 1.15904E-17 9.33430E-18
 -1       140 5.55712E-05 2.57742E-05-3.41742E-05 7.41497E-05 1.11470E-17 1.25856E-17
 -1       141 1.49919E-04-5.66708E-06-5.54884E-05 1.10294E-04 5.99022E-18 1.04537E-17
 -1       142 2.49873E-04-5.77793E-05-7.14780E-05 9.57878E-05 2.23940E-18 6.71274E-18
 -1       143 3.10851E-04-9.46276E-05-7.93556E-05 2.92067E-05 3.82568E-19 3.80307E-18
 -1       144 2.98248E-04-8.70104E-05-7.77075E-05-5.51305E-05 3.99489E-19-7.63388E-19
 -1       145 2.21011E-04-4.15538E-05-6.72408E-05-1.08399E-04 2.83788E-18-7.39629E-18
 -1       146 1.15943E-04 9.86025E-06-4.92693E-05-1.05996E-04 7.14070E-18-1.11131E-17
 -1       147 3.42142E-05 2.61827E-05-2.69870E-05-5.57076E-05 1.06582E-17-1.03668E-17
 -1       148 5.27592E-06-5.14012E-06-6.17750E-06-1.18324E-07 7.98201E-18-5.34139E-18
 -1       149 1.45577E-05-5.95260E-05 9.57113E-06 2.68923E-05 4.55068E-18-1.37495E-18
 -1       150 3.23918E-05-1.02678E-04 1.84466E-05 1.70301E-05 3.90810E-18-6.58522E-19
 -1       151 3.45027E-05-1.06563E-04 1.91716E-05-1.02262E-05-3.28014E-18-1.21271E-19
 -1       152 1.84560E-05-6.81394E-05 1.14891E-05-2.56188E-05-8.29669E-18-2.33696E-18
 -1       153 4.86494E-06-1.28385E-05-2.94319E-06-6.41379E-06-9.94163E-18-5.66707E-18
 -1       154 7.86764E-05 2.35329E-05-4.09794E-05 9.17600E-05-9.21572E-18-1.13642E-17
 -1       155 1.65478E-04-1.26709E-05-5.83388E-05 1.13884E-04-5.09766E-18-8.33565E-18
 -1       156 2.54095E-04-6.23735E-05-7.15670E-05 8.85078E-05-1.17081E-18-3.44933E-18
 -1       157 3.03978E-04-9.32107E-05-7.80495E-05 2.04943E-05-4.78282E-19 7.44542E-19
 -1       158 2.89594E-04-8.42293E-05-7.62137E-05-5.46362E-05-6.58145E-19 3.41947E-18
 -1       159 2.19926E-04-4.22993E-05-6.67522E-05-1.05127E-04-2.13664E-18 6.97532E-18
 -1       160 1.26587E-04 5.80349E-06-5.13461E-05-1.09365E-04-4.93079E-18 6.16471E-18
 -1       161 4.99066E-05 2.89466E-05-3.29803E-05-7.26635E-05-9.62102E-18 1.00886E-17
 -1       162 9.65986E-06 1.35609E-05-1.37700E-05-2.02098E-05-1.53902E-17 1.06108E-17
 -1       163 8.32953E-06-3.52639E-05 3.59262E-06 1.79811E-05-1.27661E-17 6.34512E-18
 -1       164 2.56349E-05-8.63636E-05 1.53166E-05 2.21307E-05-4.32643E-18 2.33344E-18
 -1       165 9.47828E-05-1.23632E-05-3.55240E-05-2.21702E-05-1.20334E-18-2.07602E-19
 -1       166 8.92641E-05-8.47155E-06-3.47865E-05-1.71899E-05-9.71904E-19-1.34772E-18
 -1       167 8.66230E-05-6.51196E-06-3.44432E-05-1.33871E-05-6.68961E-19-2.01264E-18
 -1       168 8.52668E-05-5.48607E-06-3.42740E-05-1.01664E-05-4.37019E-19-2.22658E-18
 -1       169 8.45097E-05-4.88376E-06-3.41935E-05-7.37200E-06-2.03990E-19-2.21548E-18
 -1       170 8.40621E-05-4.50978E-06-3.41544E-05-4.77432E-06 5.96397E-21-2.22024E-18
 -1       171 8.38272E-05-4.30587E-06-3.41374E-05-2.32705E-06 2.76928E-19-2.09430E-18
 -1       172 8.37573E-05-4.24332E-06-3.41332E-05 4.97685E-08 4.79584E-19-1.98065E-18
 -1       173 8.38396E-05-4.31468E-06-3.41391E-05 2.42876E-06 6.51353E-19-1.83065E-18
 -1       174 8.40886E-05-4.52983E-06-3.41574E-05 4.88285E-06 8.54138E-19-1.60765E-18
 -1       175 8.45431E-05-4.91175E-06-3.41963E-05 7.44742E-06 1.05577E-18-1.29953E-18
 -1       176 8.53325E-05-5.54744E-06-3.42776E-05 1.03108E-05 1.33905E-18-8.70651E-19
 -1       177 8.67187E-05-6.61167E-06-3.44468E-05 1.35766E-05 1.49645E-18-2.26674E-19
 -1       178 8.94124E-05-8.62046E-06-3.47907E-05 1.74285E-05 1.46932E-18 9.27832E-19
 -1       179 9.56819E-05-1.36210E-05-3.53789E-05 2.17224E-05 1.27398E-18 2.85244E-18
 -1       180 1.05360E-04-2.60458E-05-3.51778E-05 1.85360E-05 7.02693E-19 5.15727E-18
 -1       181 1.03224E-04-2.72611E-05-3.25531E-05-1.20023E-05-1.10625E-18 1.47791E-18
 -1       182 9.70266E-05-2.82634E-05-2.95043E-05-4.60876E-06-8.53717E-19 1.00022E-18
 -1       183 9.35398E-05-2.76384E-05-2.81947E-05-1.62527E-06-6.16968E-19 6.12120E-19
 -1       184 9.21499E-05-2.74442E-05-2.76948E-05-2.30316E-07-5.17989E-19 3.11563E-19
 -1       185 9.17697E-05-2.74205E-05-2.75588E-05 5.07329E-07-4.20445E-19 1.16905E-19
 -1       186 9.19938E-05-2.75309E-05-2.76168E-05 9.35912E-07-4.69400E-19-2.72920E-20
 -1       187 9.25958E-05-2.77319E-05-2.77929E-05 1.21022E-06-2.30302E-19-2.05597E-19
 -1       188 9.34554E-05-2.79968E-05-2.80497E-05 1.41281E-06-2.97257E-19-2.35875E-19
 -1       189 9.45116E-05-2.83125E-05-2.83680E-05 1.59121E-06-6.21318E-19-2.64442E-19
 -1       190 9.57377E-05-2.86753E-05-2.87385E-05 1.77157E-06-4.74099E-19-3.06827E-19
 -1       191 9.71242E-05-2.90865E-05-2.91571E-05 1.96268E-06-2.55207E-19-1.10796E-18
 -1       192 9.86649E-05-2.95491E-05-2.96199E-05 2.15524E-06 8.60723E-21-1.33461E-18
 -1       193 1.00342E-04-3.00644E-05-3.01190E-05 2.31821E-06 4.49501E-20-1.57784E-18
 -1       194 1.02109E-04-3.06271E-05-3.06374E-05 2.39372E-06-1.42952E-19-1.44646E-18
 -1       195 1.03877E-04-3.12190E-05-3.11438E-05 2.29317E-06-1.67871E-19-1.46258E-18
 -1       196 1.05489E-04-3.18011E-05-3.15883E-05 1.90021E-06-5.41621E-20-1.42906E-18
 -1       197 1.06718E-04-3.23035E-05-3.19023E-05 1.09063E-06-1.42707E-19-1.20392E-18
 -1       198 1.07270E-04-3.26169E-05-3.20055E-05-2.17709E-07-4.85835E-19-1.21405E-18
 -1       199 1.06833E-04-3.25958E-05-3.18257E-05-1.97695E-06-3.80098E-19-1.23549E-18
 -1       200 1.05185E-04-3.20900E-05-3.13318E-05-3.90291E-06-5.17385E-20-2.67588E-18
 -1       201 1.02360E-04-3.10265E-05-3.05704E-05-5.42228E-06 6.55517E-19-2.85562E-18
 -1       202 9.88182E-05-2.95318E-05-2.96871E-05-5.79518E-06-6.21585E-21-2.28587E-18
 -1       203 9.54792E-05-2.80125E-05-2.89043E-05-4.48695E-06-2.88918E-19-1.58794E-18
 -1       204 9.34601E-05-2.70528E-05-2.84495E-05-1.63119E-06 6.94729E-19-6.83308E-19
 -1       205 9.35305E-05-2.70845E-05-2.84661E-05 1.83419E-06 5.30597E-19-1.36825E-18
 -1       206 9.56680E-05-2.80939E-05-2.89502E-05 4.62735E-06-6.27049E-19-2.84622E-18
 -1       207 9.90734E-05-2.96333E-05-2.97531E-05 5.84842E-06-1.09758E-18-3.21895E-18
 -1       208 1.02631E-04-3.11219E-05-3.06458E-05 5.40696E-06 1.26133E-19-3.39233E-18
 -1       209 1.05444E-04-3.21676E-05-3.14096E-05 3.86409E-06 1.10766E-19-2.85253E-18
 -1       210 1.07085E-04-3.26603E-05-3.19061E-05 1.95960E-06 4.85902E-20-3.17767E-18
 -1       211 1.07544E-04-3.26819E-05-3.20948E-05 2.52758E-07 1.95876E-21-2.11966E-18
 -1       212 1.07058E-04-3.23856E-05-3.20121E-05-9.87282E-07 2.73418E-19-2.37837E-18
 -1       213 1.05944E-04-3.19171E-05-3.17328E-05-1.72231E-06-2.72648E-19-3.23531E-18
 -1       214 1.04500E-04-3.13849E-05-3.13388E-05-2.03808E-06 8.37647E-19-3.08159E-18
 -1       215 1.02954E-04-3.08586E-05-3.08994E-05-2.05897E-06-6.56398E-19-3.33080E-18
 -1       216 1.01464E-04-3.03779E-05-3.04647E-05-1.90068E-06-7.26821E-19-2.25812E-18
 -1       217 1.00119E-04-2.99610E-05-3.00657E-05-1.65214E-06 8.45851E-19-2.94026E-18
 -1       218 9.89624E-05-2.96133E-05-2.97186E-05-1.37375E-06 7.22855E-19-1.86458E-18
 -1       219 9.80048E-05-2.93321E-05-2.94285E-05-1.10237E-06 3.50778E-20-2.89554E-18
 -1       220 9.72363E-05-2.91110E-05-2.91941E-05-8.57808E-07-9.13564E-19-2.87219E-18
 -1       221 9.66367E-05-2.89413E-05-2.90101E-05-6.48496E-07-5.08357E-19-2.61365E-18
 -1       222 9.61813E-05-2.88144E-05-2.88696E-05-4.75874E-07 1.76737E-18-1.64120E-18
 -1       223 9.58450E-05-2.87220E-05-2.87654E-05-3.37386E-07 1.66682E-18 1.00286E-19
 -1       224 9.56048E-05-2.86570E-05-2.86906E-05-2.28458E-07 1.48490E-18 1.51061E-18
 -1       225 9.54403E-05-2.86132E-05-2.86392E-05-1.43740E-07 1.44592E-18 2.04349E-18
 -1       226 9.53345E-05-2.85855E-05-2.86060E-05-7.79882E-08-1.39541E-18 4.45854E-19
 -1       227 9.52734E-05-2.85705E-05-2.85864E-05-2.74163E-08 4.09220E-19 1.07846E-18
 -1       228 9.52436E-05-2.85661E-05-2.85756E-05 8.17175E-09-1.27725E-18 7.26796E-20
 -1       229 9.93361E-05-2.85083E-05-3.05352E-05 7.11065E-06 7.95854E-19 4.51279E-18
 -1       230 9.43540E-05-2.77696E-05-2.85062E-05 2.64069E-06 7.58220E-19 3.86084E-18
 -1       231 9.21592E-05-2.74124E-05-2.77031E-05 8.00158E-07 4.58433E-19 3.26528E-18
 -1       232 9.13780E-05-2.72947E-05-2.74366E-05-1.11328E-07 4.41489E-19 2.89640E-18
 -1       233 9.13979E-05-2.73510E-05-2.74342E-05-6.14483E-07 2.08461E-19 2.59095E-18
 -1       234 9.19036E-05-2.75260E-05-2.75824E-05-9.21677E-07-4.03375E-21 2.37174E-18
 -1       235 9.27321E-05-2.77831E-05-2.78302E-05-1.13948E-06 3.53622E-19 2.01968E-18
 -1       236 9.38076E-05-2.81044E-05-2.81548E-05-1.33075E-06 2.27692E-19 1.56854E-18
 -1       237 9.51090E-05-2.84859E-05-2.85497E-05-1.53794E-06 3.20977E-19 1.21318E-18
 -1       238 9.66518E-05-2.89339E-05-2.90193E-05-1.79198E-06 2.55363E-19 1.63271E-18
 -1       239 9.84762E-05-2.94621E-05-2.95752E-05-2.11483E-06-1.58891E-19 1.94801E-18
 -1       240 1.00637E-04-3.00894E-05-3.02329E-05-2.51768E-06-3.53153E-19 1.90034E-18
 -1       241 1.03187E-04-3.08370E-05-3.10069E-05-2.99387E-06 3.02828E-19 1.72519E-18
 -1       242 1.06159E-04-3.17237E-05-3.19026E-05-3.50460E-06 6.13269E-19 1.44492E-18
 -1       243 1.09525E-04-3.27589E-05-3.29047E-05-3.95459E-06 8.51934E-20 1.80610E-18
 -1       244 1.13148E-04-3.39285E-05-3.39582E-05-4.15829E-06-1.38869E-19 1.03227E-18
 -1       245 1.16700E-04-3.51706E-05-3.49476E-05-3.80890E-06 5.11348E-19 1.09399E-18
 -1       246 1.19600E-04-3.63341E-05-3.56838E-05-2.49321E-06-4.91703E-19 1.18219E-18
 -1       247 1.20987E-04-3.71233E-05-3.59242E-05 1.58121E-07-8.36670E-19 1.18566E-18
 -1       248 1.19889E-04-3.70636E-05-3.54635E-05 4.07964E-06-2.73261E-19 1.31742E-18
 -1       249 1.15708E-04-3.56266E-05-3.42934E-05 8.16577E-06 9.52737E-19 1.42219E-18
 -1       250 1.09096E-04-3.27440E-05-3.27422E-05 1.00856E-05 1.25690E-18 1.33225E-18
 -1       251 1.02599E-04-2.95031E-05-3.14169E-05 7.52853E-06-1.29967E-19 2.62382E-20
 -1       252 9.97200E-05-2.78901E-05-3.09024E-05 7.99814E-07-5.99157E-19-4.63100E-19
 -1       253 1.02326E-04-2.91519E-05-3.14319E-05-6.42234E-06 1.17129E-21-5.81078E-20
 -1       254 1.08811E-04-3.23505E-05-3.27638E-05-9.97746E-06 3.58474E-19-8.17254E-19
 -1       255 1.15616E-04-3.54220E-05-3.43306E-05-8.86989E-06 8.50411E-19 9.07821E-19
 -1       256 1.20053E-04-3.70928E-05-3.55203E-05-5.04102E-06-9.73598E-19-2.57071E-19
 -1       257 1.21369E-04-3.73049E-05-3.60155E-05-9.76729E-07 5.81462E-19-1.23699E-18
 -1       258 1.20147E-04-3.65799E-05-3.58203E-05 1.95020E-06 5.22940E-19-3.79679E-19
 -1       259 1.17385E-04-3.54374E-05-3.51329E-05 3.49948E-06-7.76436E-19-1.01614E-18
 -1       260 1.13966E-04-3.42080E-05-3.41927E-05 3.98744E-06-8.44349E-19-2.36634E-18
 -1       261 1.10490E-04-3.30599E-05-3.31910E-05 3.83362E-06 1.12568E-18-1.57132E-18
 -1       262 1.07301E-04-3.20624E-05-3.22475E-05 3.36901E-06 7.65248E-19-3.53344E-18
 -1       263 1.04551E-04-3.12325E-05-3.14217E-05 2.80263E-06 1.56893E-18-4.58012E-18
 -1       264 1.02276E-04-3.05622E-05-3.07326E-05 2.24727E-06-4.46230E-19-5.07524E-18
 -1       265 1.00451E-04-3.00330E-05-3.01766E-05 1.75422E-06-1.38889E-18-3.98566E-18
 -1       266 9.90214E-05-2.96230E-05-2.97394E-05 1.34022E-06 6.96516E-19-3.04292E-18
 -1       267 9.79231E-05-2.93108E-05-2.94027E-05 1.00459E-06-1.38895E-18-1.55249E-18
 -1       268 9.70949E-05-2.90770E-05-2.91483E-05 7.39015E-07-2.11607E-18-7.11538E-19
 -1       269 9.64821E-05-2.89052E-05-2.89596E-05 5.32642E-07 4.34764E-19-7.71674E-19
 -1       270 9.60378E-05-2.87815E-05-2.88226E-05 3.74516E-07-1.95074E-19-7.62534E-19
 -1       271 9.57239E-05-2.86948E-05-2.87255E-05 2.54620E-07 1.61865E-18-1.10157E-18
 -1       272 9.55095E-05-2.86360E-05-2.86592E-05 1.64198E-07 1.20482E-18-6.84843E-19
 -1       273 9.53707E-05-2.85983E-05-2.86161E-05 9.58696E-08 5.36145E-19 6.15834E-19
 -1       274 9.52888E-05-2.85766E-05-2.85906E-05 4.39769E-08-2.04617E-18 8.81086E-19
 -1       275 9.52484E-05-2.85668E-05-2.85774E-05 5.12198E-09 1.00155E-18 1.24452E-19
 -1       276 9.52368E-05-2.85699E-05-2.85706E-05-1.73527E-08-1.19728E-19-3.49263E-19
 -1       277 9.52438E-05-2.85676E-05-2.85752E-05-7.26715E-09 1.19809E-18 3.35369E-18
 -1       278 9.52402E-05-2.85437E-05-2.85841E-05 2.57681E-08 1.82052E-18 2.63090E-18
 -1       279 9.52239E-05-2.84980E-05-2.85968E-05 5.97962E-08 2.80999E-18 2.40940E-18
 -1       280 9.52007E-05-2.84371E-05-2.86130E-05 8.04965E-08 2.81098E-18 4.32489E-19
 -1       281 9.51759E-05-2.83723E-05-2.86302E-05 8.30800E-08 3.56576E-18-1.72143E-18
 -1       282 9.51536E-05-2.83136E-05-2.86459E-05 6.77255E-08 2.99936E-18-9.98427E-19
 -1       283 9.51383E-05-2.82732E-05-2.86567E-05 3.81962E-08 2.77213E-18-2.40718E-18
 -1       284 9.51328E-05-2.82586E-05-2.86607E-05 9.70276E-10 1.69265E-18-8.49541E-19
 -1       285 9.51381E-05-2.82725E-05-2.86570E-05-3.62794E-08 1.25441E-18-2.21358E-18
 -1       286 9.51531E-05-2.83121E-05-2.86463E-05-6.59591E-08 7.04372E-19-3.64660E-18
 -1       287 9.51746E-05-2.83689E-05-2.86311E-05-8.16259E-08-6.29650E-20-2.66936E-18
 -1       288 9.51995E-05-2.84342E-05-2.86137E-05-7.99898E-08 1.54395E-18 2.58024E-18
 -1       289 9.52226E-05-2.84951E-05-2.85975E-05-6.03575E-08 1.00777E-18 5.72997E-19
 -1       290 9.52383E-05-2.85397E-05-2.85849E-05-2.88082E-08-3.34880E-19-5.13655E-20
 -1       291 9.52479E-05-2.85552E-05-2.85824E-05-8.38681E-09-1.54577E-18 7.19248E-19
 -1       292 1.23471E-05-4.89681E-05 1.22271E-05 4.73586E-06 2.65905E-18 2.63586E-18
 -1       293 2.51476E-05-4.33572E-05 5.00361E-06 2.01889E-05 2.88055E-18 6.87103E-19
 -1       294 5.37984E-05-3.86139E-05-8.31044E-06 3.40152E-05 2.98685E-18 5.72928E-18
 -1       295 8.93818E-05-3.30856E-05-2.47373E-05 4.29732E-05 4.22373E-18 5.38078E-18
 -1       296 1.37511E-04-3.60142E-05-4.26637E-05 4.11903E-05 4.76922E-18 3.33032E-18
 -1       297 1.73747E-04-3.50738E-05-5.77848E-05 2.54375E-05 4.10896E-18 3.07812E-18
 -1       298 2.04292E-04-3.54262E-05-6.91039E-05 1.71948E-05 2.48657E-18 3.33858E-18
 -1       299 2.08026E-04-3.34154E-05-7.14373E-05-3.17585E-06 1.90519E-18 1.73430E-18
 -1       300 2.01175E-04-3.66463E-05-6.70505E-05-2.65152E-05 3.42233E-18-7.98329E-20
 -1       301 1.66262E-04-3.34129E-05-5.47248E-05-4.19751E-05 3.36272E-18-2.22240E-18
 -1       302 1.20953E-04-3.34978E-05-3.70356E-05-4.47002E-05 3.68735E-18-3.15054E-18
 -1       303 7.58368E-05-3.56249E-05-1.83168E-05-3.99525E-05 1.84420E-18-4.39864E-18
 -1       304 4.09502E-05-4.03021E-05-2.51967E-06-2.89321E-05 1.95283E-18-2.87258E-18
 -1       305 1.89310E-05-4.65773E-05 8.58783E-06-1.36179E-05 1.60417E-18-1.18849E-18
 -1       306 9.95288E-06-4.50714E-05 1.20324E-05-3.90278E-07-4.10983E-19-3.13169E-18
 -1       307 1.65114E-05-4.72067E-05 9.83622E-06 1.29094E-05-2.14119E-18-2.92205E-18
 -1       308 3.37452E-05-3.99529E-05 1.40863E-07 2.60905E-05-3.46627E-18-3.11827E-18
 -1       309 6.27022E-05-3.24290E-05-1.42691E-05 3.86609E-05-3.92663E-18-4.22945E-18
 -1       310 1.00850E-04-2.84965E-05-3.08991E-05 4.69281E-05-4.09752E-18-3.35870E-18
 -1       311 1.42415E-04-2.91358E-05-4.70350E-05 4.70930E-05-4.04448E-18-1.48591E-18
 -1       312 1.79317E-04-3.21452E-05-6.04087E-05 3.76628E-05-3.63521E-18-9.03361E-19
 -1       313 1.97862E-04-3.18839E-05-6.82374E-05 1.46916E-05-2.50976E-18 2.85662E-19
 -1       314 2.09717E-04-3.59692E-05-7.09402E-05-5.40795E-06-2.02684E-18 1.62337E-18
 -1       315 1.93223E-04-3.29316E-05-6.57331E-05-2.45942E-05-2.19360E-18 2.01615E-18
 -1       316 1.64939E-04-3.07200E-05-5.52835E-05-4.29529E-05-2.08526E-18 3.35891E-18
 -1       317 1.24878E-04-2.82440E-05-4.04884E-05-4.83042E-05-5.51186E-18 2.20758E-18
 -1       318 8.48136E-05-2.98010E-05-2.40645E-05-4.42826E-05-6.65958E-18 3.12576E-18
 -1       319 5.00911E-05-3.52988E-05-8.10562E-06-3.41902E-05-5.30560E-18 5.69677E-18
 -1       320 2.59372E-05-4.18117E-05 4.22663E-06-2.29067E-05-2.94365E-18 5.54468E-18
 -1       321 1.19631E-05-4.39770E-05 1.08895E-05-9.77091E-06-1.07991E-18 5.25616E-18
 -1       322 9.16859E-05-1.44345E-05-3.31852E-05-1.27333E-05-9.78090E-19-1.17043E-18
 -1       323 9.57047E-05-1.91153E-05-3.28858E-05-1.44216E-05-1.17440E-18-5.14936E-19
 -1       324 8.80350E-05-1.02615E-05-3.33862E-05-7.91425E-06-4.21676E-19-1.64266E-18
 -1       325 8.71819E-05-9.28407E-06-3.34326E-05-5.52410E-06-1.13243E-19-1.77434E-18
 -1       326 8.66859E-05-8.70965E-06-3.34625E-05-3.24128E-06 1.60848E-19-1.59661E-18
 -1       327 8.64603E-05-8.44560E-06-3.34774E-05-1.03016E-06 5.05104E-19-1.57579E-18
 -1       328 8.64704E-05-8.45538E-06-3.34776E-05 1.15738E-06 7.27187E-19-1.42448E-18
 -1       329 8.67174E-05-8.74108E-06-3.34627E-05 3.37079E-06 8.98251E-19-1.27979E-18
 -1       330 8.72269E-05-9.32933E-06-3.34327E-05 5.61867E-06 1.12588E-18-1.02393E-18
 -1       331 8.81067E-05-1.03380E-05-3.33843E-05 8.01238E-06 1.45146E-18-6.10525E-19
 -1       332 8.95476E-05-1.19790E-05-3.33100E-05 1.05034E-05 1.64149E-18-2.57789E-19
 -1       333 9.19594E-05-1.47124E-05-3.31865E-05 1.29186E-05 1.69868E-18 4.34938E-19
 -1       334 9.57940E-05-1.94580E-05-3.28225E-05 1.41656E-05 1.42544E-18 1.71539E-18
 -1       335 9.87119E-05-2.44282E-05-3.19231E-05 1.17331E-05 1.16888E-18 2.75192E-18
 -1       336 9.63879E-05-2.68001E-05-2.97933E-05 5.55722E-06 1.00710E-18 2.23005E-18
 -1       337 9.64854E-05-2.60158E-05-3.01563E-05-6.09870E-06-7.99500E-19-2.51982E-19
 -1       338 9.50640E-05-2.70182E-05-2.91366E-05-2.51685E-06-6.52958E-19-1.51597E-19
 -1       339 9.42211E-05-2.74274E-05-2.86106E-05-4.91853E-07-5.38704E-19-1.66322E-19
 -1       340 9.38830E-05-2.76635E-05-2.83721E-05 7.26275E-07-4.87056E-19-1.39730E-19
 -1       341 9.39313E-05-2.78533E-05-2.83150E-05 1.50090E-06-4.09026E-19-1.98706E-20
 -1       342 9.42644E-05-2.80386E-05-2.83798E-05 2.03649E-06-3.16761E-19-1.18335E-19
 -1       343 9.48132E-05-2.82355E-05-2.85312E-05 2.45370E-06-1.34529E-19-3.55406E-20
 -1       344 9.55367E-05-2.84549E-05-2.87474E-05 2.82409E-06-5.72478E-19 1.01193E-19
 -1       345 9.64142E-05-2.87095E-05-2.90145E-05 3.18463E-06-7.37300E-19-1.33893E-19
 -1       346 9.74377E-05-2.90164E-05-2.93219E-05 3.54160E-06-3.97798E-19-4.11936E-19
 -1       347 9.86041E-05-2.93978E-05-2.96589E-05 3.86873E-06-4.58414E-19-9.87611E-19
 -1       348 9.99085E-05-2.98802E-05-3.00124E-05 4.10182E-06 2.77237E-19-9.15955E-19
 -1       349 1.01335E-04-3.04913E-05-3.03637E-05 4.13270E-06-1.70014E-19-4.59289E-19
 -1       350 1.02844E-04-3.12498E-05-3.06886E-05 3.80786E-06 1.55584E-19-8.07233E-19
 -1       351 1.04359E-04-3.21433E-05-3.09585E-05 2.94152E-06-7.50691E-20-5.87721E-19
 -1       352 1.05738E-04-3.30908E-05-3.11467E-05 1.35996E-06-3.70431E-19-5.95947E-19
 -1       353 1.06748E-04-3.38931E-05-3.12374E-05-1.00359E-06-1.34575E-19-1.38939E-19
 -1       354 1.07065E-04-3.42050E-05-3.12378E-05-3.95683E-06-7.89812E-19-1.59403E-19
 -1       355 1.06349E-04-3.36029E-05-3.11834E-05-6.88621E-06-3.46266E-20-1.29728E-19
 -1       356 1.04461E-04-3.18298E-05-3.11252E-05-8.72653E-06 3.80612E-19-1.04156E-18
 -1       357 1.01783E-04-2.91851E-05-3.11019E-05-8.29209E-06 2.27241E-19-2.79760E-19
 -1       358 9.93494E-05-2.67153E-05-3.11146E-05-5.04261E-06 1.87155E-19-4.65582E-19
 -1       359 9.84050E-05-2.57432E-05-3.11268E-05 1.71761E-07-4.28334E-19-2.13671E-18
 -1       360 9.94713E-05-2.68236E-05-3.11200E-05 5.33000E-06-5.47005E-19-3.25555E-18
 -1       361 1.01971E-04-2.93377E-05-3.11172E-05 8.44609E-06-3.64373E-19-2.50329E-18
 -1       362 1.04656E-04-3.19619E-05-3.11530E-05 8.74991E-06-5.52327E-19-1.61529E-18
 -1       363 1.06514E-04-3.36746E-05-3.12239E-05 6.84320E-06 3.46178E-19-2.15877E-18
 -1       364 1.07207E-04-3.42214E-05-3.12922E-05 3.92536E-06 3.20341E-19-2.17469E-18
 -1       365 1.06896E-04-3.38794E-05-3.13068E-05 1.04218E-06-1.93966E-20-1.50738E-18
 -1       366 1.05929E-04-3.30743E-05-3.12352E-05-1.21803E-06 4.76897E-19-8.62621E-19
 -1       367 1.04628E-04-3.21443E-05-3.10728E-05-2.68211E-06 1.28168E-19-3.96150E-19
 -1       368 1.03223E-04-3.12813E-05-3.08368E-05-3.42573E-06-9.55799E-19-1.02588E-18
 -1       369 1.01854E-04-3.05626E-05-3.05549E-05-3.62493E-06-5.81604E-19-2.08020E-18
 -1       370 1.00597E-04-2.99994E-05-3.02556E-05-3.46576E-06 8.63297E-19-1.95334E-18
 -1       371 9.94897E-05-2.95740E-05-2.99621E-05-3.10324E-06 7.86004E-20-7.90640E-19
 -1       372 9.85442E-05-2.92601E-05-2.96908E-05-2.65037E-06 8.81021E-19 4.21272E-20
 -1       373 9.77574E-05-2.90324E-05-2.94511E-05-2.18153E-06 2.71778E-20-1.35699E-18
 -1       374 9.71177E-05-2.88696E-05-2.92469E-05-1.74089E-06 1.07308E-19 4.28341E-20
 -1       375 9.66088E-05-2.87549E-05-2.90782E-05-1.35111E-06-4.52695E-19 1.65490E-18
 -1       376 9.62124E-05-2.86755E-05-2.89426E-05-1.02066E-06 2.56978E-19 2.40624E-18
 -1       377 9.59101E-05-2.86217E-05-2.88365E-05-7.49278E-07 2.36382E-18 1.53233E-18
 -1       378 9.56848E-05-2.85862E-05-2.87554E-05-5.31808E-07 2.76565E-18 2.60572E-18
 -1       379 9.55210E-05-2.85635E-05-2.86951E-05-3.60768E-07 1.79415E-18 3.37769E-18
 -1       380 9.54050E-05-2.85497E-05-2.86516E-05-2.28234E-07-1.32858E-18 2.63559E-18
 -1       381 9.53256E-05-2.85427E-05-2.86206E-05-1.26820E-07-1.45664E-18 1.93985E-18
 -1       382 9.52778E-05-2.85452E-05-2.85994E-05-5.63908E-08-1.42154E-18 2.01276E-19
 -1       383 9.44751E-05-2.73441E-05-2.87317E-05 2.23443E-06 7.91999E-19 2.07574E-18
 -1       384 9.34147E-05-2.74893E-05-2.82311E-05 4.23544E-07 6.31034E-19 1.70229E-18
 -1       385 9.30607E-05-2.76054E-05-2.80411E-05-6.25415E-07 4.72175E-19 1.29068E-18
 -1       386 9.31918E-05-2.77535E-05-2.80391E-05-1.27978E-06 1.19411E-19 7.80016E-19
 -1       387 9.36642E-05-2.79413E-05-2.81631E-05-1.73857E-06 3.72411E-19 7.07481E-19
 -1       388 9.43948E-05-2.81665E-05-2.83803E-05-2.12017E-06 3.43384E-19 4.76584E-19
 -1       389 9.53454E-05-2.84290E-05-2.86751E-05-2.50299E-06 5.26067E-19 4.93717E-19
 -1       390 9.65094E-05-2.87346E-05-2.90425E-05-2.94223E-06-6.80807E-20 8.17365E-19
 -1       391 9.79021E-05-2.90948E-05-2.94845E-05-3.47563E-06-3.53355E-19 1.24639E-18
 -1       392 9.95529E-05-2.95282E-05-3.00057E-05-4.12193E-06-5.75639E-20 1.35053E-18
 -1       393 1.01496E-04-3.00624E-05-3.06100E-05-4.87165E-06 8.17824E-19 5.82322E-19
 -1       394 1.03763E-04-3.07370E-05-3.12937E-05-5.66810E-06 3.65353E-19 4.87834E-19
 -1       395 1.06366E-04-3.16080E-05-3.20393E-05-6.37591E-06 2.33906E-20 1.16758E-18
 -1       396 1.09281E-04-3.27476E-05-3.28058E-05-6.73815E-06 1.13621E-19 1.14238E-18
 -1       397 1.12416E-04-3.42257E-05-3.35236E-05-6.33652E-06 6.16641E-19 8.74069E-19
 -1       398 1.15552E-04-3.60377E-05-3.40992E-05-4.60458E-06 1.83173E-19 2.66064E-19
 -1       399 1.18247E-04-3.79404E-05-3.44435E-05-1.00236E-06-5.50952E-19-6.35209E-19
 -1       400 1.19727E-04-3.92111E-05-3.45318E-05 4.50759E-06-4.68492E-19-8.34045E-19
 -1       401 1.18915E-04-3.85439E-05-3.44686E-05 1.06274E-05 2.92640E-19-5.93850E-20
 -1       402 1.15220E-04-3.49339E-05-3.44416E-05 1.41818E-05 1.50613E-18 8.02703E-19
 -1       403 1.09962E-04-2.94432E-05-3.45664E-05 1.14203E-05 5.96867E-19 3.64489E-19
 -1       404 1.06735E-04-2.59050E-05-3.47055E-05 2.13595E-06-6.92727E-19 9.72438E-19
 -1       405 1.08431E-04-2.76049E-05-3.46834E-05-8.56787E-06 3.78597E-19-9.41729E-20
 -1       406 1.13588E-04-3.29766E-05-3.45577E-05-1.40801E-05 9.56019E-19-1.45474E-18
 -1       407 1.18183E-04-3.75948E-05-3.45598E-05-1.26015E-05 5.77257E-19-2.11913E-18
 -1       408 1.20052E-04-3.93462E-05-3.46160E-05-6.96569E-06-3.57276E-19-1.62559E-18
 -1       409 1.19240E-04-3.86289E-05-3.45806E-05-9.70053E-07 1.49237E-19 2.30728E-19
 -1       410 1.16846E-04-3.68245E-05-3.43241E-05 3.37033E-06 8.84283E-19 1.06597E-18
 -1       411 1.13820E-04-3.49207E-05-3.38339E-05 5.70282E-06 6.86644E-19-1.23852E-18
 -1       412 1.10723E-04-3.33199E-05-3.31823E-05 6.46760E-06 3.04560E-20-4.19047E-18
 -1       413 1.07834E-04-3.20879E-05-3.24642E-05 6.25874E-06-4.86086E-19-4.60269E-18
 -1       414 1.05277E-04-3.11675E-05-3.17578E-05 5.55687E-06 1.46752E-18-2.92934E-18
 -1       415 1.03092E-04-3.04823E-05-3.11129E-05 4.67608E-06 1.65523E-18-1.64665E-18
 -1       416 1.01276E-04-2.99692E-05-3.05537E-05 3.79376E-06-9.96190E-20-9.28309E-19
 -1       417 9.97989E-05-2.95831E-05-3.00867E-05 2.99610E-06-1.87807E-18-2.08557E-18
 -1       418 9.86220E-05-2.92923E-05-2.97077E-05 2.31554E-06-4.04786E-19-1.36771E-18
 -1       419 9.77007E-05-2.90742E-05-2.94072E-05 1.75592E-06-2.37251E-18 1.66834E-19
 -1       420 9.69918E-05-2.89123E-05-2.91736E-05 1.30738E-06-1.73572E-18-2.26692E-19
 -1       421 9.64558E-05-2.87936E-05-2.89955E-05 9.54689E-07-4.30066E-19 6.75184E-19
 -1       422 9.60581E-05-2.87082E-05-2.88622E-05 6.81530E-07 1.48294E-19 2.48533E-18
 -1       423 9.57690E-05-2.86481E-05-2.87645E-05 4.72467E-07 9.57913E-19 2.60669E-18
 -1       424 9.55643E-05-2.86070E-05-2.86948E-05 3.13768E-07 1.72586E-18 2.89170E-18
 -1       425 9.54241E-05-2.85801E-05-2.86466E-05 1.93747E-07 1.86399E-19 2.38942E-18
 -1       426 9.53324E-05-2.85640E-05-2.86144E-05 1.03519E-07-1.27195E-18 1.74933E-18
 -1       427 9.52768E-05-2.85576E-05-2.85936E-05 3.78416E-08-3.07464E-19 1.28450E-18
 -1       428 9.52561E-05-2.85585E-05-2.85845E-05 1.09128E-08 2.67587E-19 3.89264E-18
 -1       429 9.52107E-05-2.84102E-05-2.86286E-05 1.45006E-07 1.20130E-18 3.44006E-18
 -1       430 9.52472E-05-2.84814E-05-2.86137E-05 1.04375E-07 6.56949E-22 3.24672E-18
 -1       431 9.52596E-05-2.85287E-05-2.85987E-05 5.44405E-08-8.25527E-19 2.43592E-18
 -1       432 9.51682E-05-2.83352E-05-2.86427E-05 1.58812E-07 3.87497E-19-2.00956E-18
 -1       433 9.51270E-05-2.82651E-05-2.86552E-05 1.42072E-07 1.00829E-18-7.24538E-19
 -1       434 9.50954E-05-2.82118E-05-2.86646E-05 9.79737E-08 5.15185E-19-1.58509E-18
 -1       435 9.50784E-05-2.81833E-05-2.86696E-05 3.54268E-08-9.36781E-20-2.45936E-18
 -1       436 9.50785E-05-2.81838E-05-2.86695E-05-3.35443E-08-7.07488E-19-1.71133E-18
 -1       437 9.50957E-05-2.82130E-05-2.86642E-05-9.59538E-08 9.28207E-20-2.54612E-18
 -1       438 9.51265E-05-2.82654E-05-2.86549E-05-1.39504E-07 2.64763E-18-1.54085E-18
 -1       439 9.51669E-05-2.83349E-05-2.86423E-05-1.57318E-07 3.76779E-18 3.45691E-18
 -1       440 9.52091E-05-2.84101E-05-2.86281E-05-1.44641E-07 1.71005E-18-7.11426E-19
 -1       441 9.52464E-05-2.84821E-05-2.86131E-05-1.05237E-07-1.01045E-18-2.54035E-18
 -1       442 5.95732E-05-4.08314E-05-7.90949E-06 4.21942E-05 9.18078E-19 2.78203E-18
 -1       443 1.24440E-05-2.03877E-05 3.37036E-06-4.01723E-07-1.10597E-18 4.99845E-18
 -1       444 2.20748E-05-2.62941E-05 1.67689E-06 2.33086E-05 3.14990E-19 1.36669E-18
 -1       445 1.02372E-04-5.56048E-05-1.99737E-05 3.94369E-05-8.66515E-19 2.53056E-18
 -1       446 1.31458E-04-5.82590E-05-3.14974E-05 2.58428E-05 8.46662E-19 4.23940E-19
 -1       447 8.94222E-05-1.18416E-05-3.33147E-05-1.03885E-05-6.78858E-19-1.64123E-18
 -1       448 1.62433E-04-2.63110E-05-5.80839E-05-2.20764E-06 2.90003E-18 1.41200E-18
 -1       449 1.58566E-04-1.40650E-05-6.17788E-05-2.37267E-06 2.57413E-18 1.40573E-18
 -1       450 1.59869E-04-1.76080E-05-6.08197E-05 3.55721E-06 3.54801E-18 1.78353E-18
 -1       451 1.62520E-04-3.31811E-05-5.51622E-05-1.59373E-06 3.22471E-18 1.05964E-18
 -1       452 1.50455E-04-4.94257E-05-4.32282E-05-1.32990E-05 1.91130E-18 1.50624E-18
 -1       453 1.20917E-04-5.55899E-05-2.80913E-05-3.30717E-05-3.21025E-19-1.05763E-18
 -1       454 8.15531E-05-4.95674E-05-1.38916E-05-4.25492E-05-1.07488E-18-2.10820E-18
 -1       455 4.11740E-05-3.57218E-05-2.57367E-06-3.61720E-05-2.12605E-19-1.08632E-18
 -1       456 1.81420E-05-2.34912E-05 2.23964E-06-1.78901E-05-7.63124E-19-2.29737E-18
 -1       457 1.42142E-05-2.35679E-05 3.76208E-06 1.42035E-05-9.43118E-20-3.31762E-18
 -1       458 3.41209E-05-3.33687E-05-6.76415E-07 3.48496E-05-2.23617E-19-2.14183E-18
 -1       459 6.90095E-05-4.45956E-05-1.07117E-05 4.42013E-05-4.17164E-20-2.57560E-18
 -1       460 1.07609E-04-5.23074E-05-2.37510E-05 3.91036E-05-5.95252E-19-5.14837E-19
 -1       461 1.36576E-04-4.98036E-05-3.71545E-05 2.48207E-05-1.70862E-18 6.13252E-19
 -1       462 1.51833E-04-3.79811E-05-4.87118E-05 7.73308E-06-2.60378E-18 9.69217E-19
 -1       463 1.58177E-04-2.33982E-05-5.76486E-05 9.00681E-07-3.30279E-18 1.12772E-18
 -1       464 1.51148E-04-1.01424E-05-6.05316E-05-1.09127E-06-3.10639E-18 1.16857E-18
 -1       465 1.53519E-04-1.34712E-05-6.00722E-05 2.48487E-06-2.09799E-18 2.47111E-18
 -1       466 1.56106E-04-2.92036E-05-5.42960E-05-2.85138E-06-2.23617E-18 1.93949E-18
 -1       467 1.47589E-04-4.28266E-05-4.47166E-05-1.73251E-05-2.56683E-18 1.81487E-18
 -1       468 1.25030E-04-5.11028E-05-3.16907E-05-3.17186E-05-3.11856E-18-8.87585E-19
 -1       469 9.65719E-05-5.24117E-05-1.89486E-05-4.22154E-05-2.56969E-19-9.17707E-19
 -1       470 6.28487E-05-4.17063E-05-8.99330E-06-4.46110E-05 3.15414E-19 2.46947E-18
 -1       471 2.53072E-05-2.76736E-05 8.85390E-07-2.88998E-05-2.63639E-19 6.02230E-18
 -1       472 1.52461E-04-4.82686E-05-4.48942E-05 3.19523E-06 1.93321E-18 5.24949E-19
 -1       473 9.59116E-05-2.51151E-05-3.03269E-05 5.69788E-06 1.02262E-18 8.49276E-19
 -1       474 8.94258E-05-1.30793E-05-3.27387E-05-3.71081E-06 2.80259E-20-1.43825E-18
 -1       475 9.01973E-05-1.41192E-05-3.26260E-05-5.59848E-06-1.34188E-19-1.49444E-18
 -1       476 8.88676E-05-1.23304E-05-3.28190E-05 5.31482E-08 6.28829E-19-1.25428E-18
 -1       477 8.90208E-05-1.25316E-05-3.27988E-05 1.92964E-06 7.90264E-19-1.29483E-18
 -1       478 8.94619E-05-1.31188E-05-3.27373E-05 3.78300E-06 9.68755E-19-1.08185E-18
 -1       479 9.02508E-05-1.41810E-05-3.26222E-05 5.66165E-06 1.23402E-18-5.72715E-19
 -1       480 9.14638E-05-1.58468E-05-3.24302E-05 7.45016E-06 1.38402E-18-3.37420E-19
 -1       481 9.32940E-05-1.83985E-05-3.21182E-05 8.96589E-06 1.50765E-18-2.78859E-20
 -1       482 9.52884E-05-2.65264E-05-2.94510E-05 2.44699E-06 9.08966E-19 5.92429E-19
 -1       483 9.55646E-05-2.43633E-05-3.05049E-05-5.43327E-06-5.93092E-19-7.35192E-19
 -1       484 1.40962E-04-2.51169E-05-5.02080E-05 1.43685E-05 3.00893E-18 1.89608E-18
 -1       485 9.54273E-05-2.61129E-05-2.96975E-05-2.39370E-06-5.32383E-19-6.04109E-19
 -1       486 9.51729E-05-2.70291E-05-2.92006E-05-3.46647E-07-4.57737E-19-3.90433E-19
 -1       487 9.50225E-05-2.75290E-05-2.89237E-05 1.01688E-06-4.16031E-19-4.26780E-19
 -1       488 9.50325E-05-2.78276E-05-2.88009E-05 1.96144E-06-3.35016E-19-1.71374E-19
 -1       489 9.51955E-05-2.80216E-05-2.87879E-05 2.66439E-06-4.52592E-19-1.71438E-19
 -1       490 9.54944E-05-2.81651E-05-2.88546E-05 3.24319E-06-3.03125E-19-4.79174E-19
 -1       491 9.59184E-05-2.82981E-05-2.89793E-05 3.77083E-06-8.35415E-19-3.59715E-19
 -1       492 9.64679E-05-2.84602E-05-2.91454E-05 4.28289E-06-6.94491E-19 6.40264E-20
 -1       493 9.71559E-05-2.86977E-05-2.93386E-05 4.77863E-06-4.32131E-19 3.20218E-19
 -1       494 9.80089E-05-2.90689E-05-2.95455E-05 5.21766E-06 1.05448E-19 6.24324E-19
 -1       495 9.90666E-05-2.96453E-05-2.97525E-05 5.51352E-06 3.04824E-20 4.54429E-20
 -1       496 1.00379E-04-3.05053E-05-2.99475E-05 5.52686E-06-4.74845E-19 2.80365E-19
 -1       497 1.01994E-04-3.17124E-05-3.01237E-05 5.06319E-06-1.30589E-19 3.62988E-19
 -1       498 1.03920E-04-3.32637E-05-3.02862E-05 3.88612E-06-1.40069E-19 5.70303E-19
 -1       499 1.06062E-04-3.49983E-05-3.04627E-05 1.77032E-06-1.25723E-19 4.01933E-19
 -1       500 1.08119E-04-3.64835E-05-3.07072E-05-1.37075E-06-6.50682E-19 3.56113E-19
 -1       501 1.09519E-04-3.69626E-05-3.10987E-05-5.25494E-06-3.46652E-19 8.41861E-19
 -1       502 1.09522E-04-3.55443E-05-3.17061E-05-8.95130E-06-3.18913E-19 5.70756E-19
 -1       503 1.07691E-04-3.18443E-05-3.25071E-05-1.07893E-05-1.36912E-19 5.02983E-19
 -1       504 1.04670E-04-2.69172E-05-3.33247E-05-9.03909E-06-4.41326E-19-7.24039E-19
 -1       505 1.02278E-04-2.33000E-05-3.38663E-05-3.39732E-06-9.36213E-19-1.39016E-18
 -1       506 1.02365E-04-2.34132E-05-3.38499E-05 3.83677E-06-9.22814E-19-1.54488E-18
 -1       507 1.04847E-04-2.71580E-05-3.32966E-05 9.30737E-06-4.83251E-19-1.82224E-18
 -1       508 1.07871E-04-3.20867E-05-3.24823E-05 1.08637E-05-1.48163E-19-1.50201E-18
 -1       509 1.09617E-04-3.56618E-05-3.16971E-05 8.89460E-06-2.69781E-19-1.10212E-18
 -1       510 1.09542E-04-3.69499E-05-3.11162E-05 5.19387E-06 3.92557E-19-5.79390E-19
 -1       511 1.08113E-04-3.63837E-05-3.07485E-05 1.38695E-06 5.39535E-19-8.52650E-19
 -1       512 1.06073E-04-3.48605E-05-3.05262E-05-1.62995E-06 8.16494E-19-1.46367E-19
 -1       513 1.03982E-04-3.31244E-05-3.03725E-05-3.60418E-06 4.95887E-19-4.78035E-19
 -1       514 1.02127E-04-3.15888E-05-3.02334E-05-4.63627E-06-1.02483E-18-3.01440E-20
 -1       515 1.00594E-04-3.04027E-05-3.00833E-05-4.95389E-06-8.84009E-19 3.77402E-19
 -1       516 9.93715E-05-2.95659E-05-2.99168E-05-4.79315E-06 2.09671E-19 3.00218E-19
 -1       517 9.84103E-05-2.90162E-05-2.97397E-05-4.35052E-06 1.02172E-18 6.01841E-19
 -1       518 9.76581E-05-2.86789E-05-2.95615E-05-3.77131E-06 6.03813E-19 4.78654E-19
 -1       519 9.70701E-05-2.84880E-05-2.93912E-05-3.15414E-06-8.28663E-19-7.97353E-19
 -1       520 9.66110E-05-2.83926E-05-2.92354E-05-2.56039E-06 7.55676E-19-9.75337E-19
 -1       521 9.62539E-05-2.83563E-05-2.90980E-05-2.02419E-06 1.64194E-18-1.08990E-19
 -1       522 9.59779E-05-2.83544E-05-2.89807E-05-1.56093E-06 1.03715E-18 1.15727E-18
 -1       523 9.57664E-05-2.83705E-05-2.88833E-05-1.17385E-06 2.78434E-19 2.91982E-18
 -1       524 9.56060E-05-2.83946E-05-2.88043E-05-8.58892E-07 2.60128E-18 2.16254E-18
 -1       525 9.54856E-05-2.84202E-05-2.87419E-05-6.08197E-07 2.22235E-18 9.87979E-19
 -1       526 9.53959E-05-2.84441E-05-2.86933E-05-4.12427E-07 5.61399E-19 2.99771E-19
 -1       527 9.53301E-05-2.84654E-05-2.86560E-05-2.62420E-07-1.79841E-18 1.23196E-19
 -1       528 9.45986E-05-2.76079E-05-2.87059E-05-9.32738E-07 7.38313E-19 4.25156E-19
 -1       529 9.46369E-05-2.78444E-05-2.86229E-05-1.84507E-06 4.00264E-19 4.34302E-20
 -1       530 9.48882E-05-2.80094E-05-2.86605E-05-2.53991E-06 3.52169E-19 8.48493E-20
 -1       531 9.53158E-05-2.81357E-05-2.87897E-05-3.15256E-06 2.88669E-19 3.98111E-19
 -1       532 9.58965E-05-2.82424E-05-2.89926E-05-3.77814E-06 7.36390E-20 6.35604E-19
 -1       533 9.66219E-05-2.83471E-05-2.92582E-05-4.48366E-06-8.77086E-20 2.27034E-19
 -1       534 9.74966E-05-2.84729E-05-2.95787E-05-5.31128E-06-4.43344E-20-2.15843E-19
 -1       535 9.85388E-05-2.86574E-05-2.99461E-05-6.27415E-06 6.34438E-19-3.70724E-19
 -1       536 9.97848E-05-2.89651E-05-3.03484E-05-7.34371E-06 4.27018E-19-1.43098E-19
 -1       537 1.01299E-04-2.95055E-05-3.07671E-05-8.42626E-06-9.35806E-20 1.96240E-19
 -1       538 1.03195E-04-3.04544E-05-3.11755E-05-9.32686E-06 1.38741E-20 8.34422E-20
 -1       539 1.05653E-04-3.20610E-05-3.15445E-05-9.70167E-06 6.95163E-19 3.46329E-19
 -1       540 1.08915E-04-3.45978E-05-3.18611E-05-9.00783E-06 6.59052E-19 1.85919E-19
 -1       541 1.13163E-04-3.81414E-05-3.21704E-05-6.50758E-06-1.51970E-19 6.56714E-19
 -1       542 1.18178E-04-4.21012E-05-3.26298E-05-1.48889E-06-1.31546E-18 1.12504E-18
 -1       543 1.22815E-04-4.45979E-05-3.35554E-05 6.12439E-06-2.63436E-19 2.08212E-18
 -1       544 1.24499E-04-4.22390E-05-3.53276E-05 1.41264E-05 7.30386E-19 1.80801E-18
 -1       545 1.21322E-04-3.34988E-05-3.77211E-05 1.73039E-05 1.32095E-18 1.39821E-18
 -1       546 1.14977E-04-2.25448E-05-3.99521E-05 1.00228E-05 4.43104E-20 1.12915E-18
 -1       547 1.13786E-04-2.03655E-05-4.03945E-05-5.17147E-06 7.04731E-19-5.55587E-19
 -1       548 1.18529E-04-2.87901E-05-3.87730E-05-1.65469E-05 1.54497E-18-1.47358E-18
 -1       549 1.24187E-04-3.97655E-05-3.62363E-05-1.66469E-05 2.00330E-18-2.13716E-18
 -1       550 1.23966E-04-4.44799E-05-3.41146E-05-9.22830E-06-3.42693E-19-3.17316E-18
 -1       551 1.20088E-04-4.33290E-05-3.29242E-05-1.08145E-06-1.25704E-18-2.28345E-18
 -1       552 1.15018E-04-3.95670E-05-3.23562E-05 4.88045E-06-2.16724E-19-2.32646E-18
 -1       553 1.10473E-04-3.57421E-05-3.20419E-05 8.13786E-06 1.94449E-18-3.35029E-19
 -1       554 1.06929E-04-3.28372E-05-3.17615E-05 9.30105E-06 1.96553E-18-1.12187E-18
 -1       555 1.04287E-04-3.09348E-05-3.14385E-05 9.14077E-06-4.61198E-19 1.96870E-20
 -1       556 1.02303E-04-2.97953E-05-3.10731E-05 8.27185E-06-4.06494E-19 2.68019E-19
 -1       557 1.00775E-04-2.91519E-05-3.06919E-05 7.10508E-06 4.33173E-19 4.95645E-19
 -1       558 9.95654E-05-2.88035E-05-3.03224E-05 5.88592E-06 4.46543E-19 2.25690E-18
 -1       559 9.85938E-05-2.86212E-05-2.99843E-05 4.74554E-06 2.01916E-19 2.99338E-18
 -1       560 9.78100E-05-2.85294E-05-2.96882E-05 3.74349E-06-6.35821E-19 2.28763E-18
 -1       561 9.71807E-05-2.84863E-05-2.94375E-05 2.89767E-06-1.79507E-18 2.13363E-18
 -1       562 9.66805E-05-2.84692E-05-2.92310E-05 2.20363E-06-2.29465E-18 1.48783E-18
 -1       563 9.62884E-05-2.84660E-05-2.90649E-05 1.64618E-06-5.01812E-19 1.53934E-18
 -1       564 9.59857E-05-2.84700E-05-2.89339E-05 1.20606E-06-1.25615E-18 1.46629E-18
 -1       565 9.57560E-05-2.84775E-05-2.88325E-05 8.63531E-07 6.61336E-19 1.45229E-18
 -1       566 9.55846E-05-2.84862E-05-2.87556E-05 6.00193E-07 1.20597E-18 3.03258E-18
 -1       567 9.54590E-05-2.84947E-05-2.86983E-05 3.99869E-07-1.26481E-19 4.47719E-18
 -1       568 9.53685E-05-2.85027E-05-2.86562E-05 2.49177E-07 3.56416E-19 5.29675E-18
 -1       569 9.53049E-05-2.85123E-05-2.86250E-05 1.37195E-07-1.70443E-19 4.65076E-18
 -1       570 9.51046E-05-2.82075E-05-2.86702E-05 2.33708E-07-7.71486E-20-8.10927E-19
 -1       571 9.50425E-05-2.81280E-05-2.86778E-05 1.82174E-07-3.08426E-19-8.60835E-19
 -1       572 9.52458E-05-2.84043E-05-2.86464E-05 2.14813E-07-7.59060E-19 3.42829E-18
 -1       573 9.51769E-05-2.83040E-05-2.86598E-05 2.44947E-07-1.23101E-18 1.84862E-19
 -1       574 9.50014E-05-2.80765E-05-2.86822E-05 9.93780E-08 1.18391E-19-7.53558E-19
 -1       575 9.49874E-05-2.80597E-05-2.86835E-05-1.67225E-10 7.15909E-19-2.88733E-18
 -1       576 9.50026E-05-2.80795E-05-2.86814E-05-9.93313E-08 1.04675E-18-3.73668E-19
 -1       577 9.50433E-05-2.81319E-05-2.86764E-05-1.79942E-07 2.41900E-18-2.49246E-19
 -1       578 9.51045E-05-2.82116E-05-2.86684E-05-2.30977E-07 3.20412E-18 1.00808E-18
 -1       579 9.51761E-05-2.83075E-05-2.86579E-05-2.43184E-07 1.74221E-18-8.46357E-19
 -1       580 9.52427E-05-2.84055E-05-2.86443E-05-2.14689E-07-2.01350E-18-4.36395E-18
 -1       581 9.31996E-05-4.99953E-05-1.81523E-05 3.85864E-05-1.11581E-18 9.65154E-19
 -1       582 2.71485E-05-1.48890E-05-4.65530E-06-1.73947E-05-4.72909E-19 5.72255E-18
 -1       583 9.48151E-05-2.72279E-05-2.89567E-05 3.95683E-07 7.97526E-19 5.46160E-19
 -1       584 2.79310E-05-1.43911E-05-5.15489E-06 1.39605E-05-1.27325E-18 4.38625E-18
 -1       585 1.24489E-04-6.15164E-05-2.69120E-05 2.51057E-05-3.60571E-19 9.95025E-19
 -1       586 9.46585E-05-2.07225E-05-3.17052E-05-9.11802E-06-9.03387E-19-9.12192E-19
 -1       587 1.23020E-04-5.92305E-05-2.72427E-05-2.80499E-05-3.12449E-19-1.55163E-18
 -1       588 1.32980E-04-1.30244E-05-5.20064E-05-8.70663E-06-2.70542E-18 1.37405E-19
 -1       589 8.89983E-05-1.25069E-05-3.27997E-05-1.82414E-06 3.11524E-19-1.34178E-18
 -1       590 1.34483E-04-1.13072E-05-5.34773E-05 3.02902E-06 2.40324E-18-2.68562E-19
 -1       591 1.44030E-04-4.01435E-05-4.49004E-05 3.61442E-06-1.41216E-18 9.99022E-19
 -1       592 1.44229E-04-3.41814E-05-4.75502E-05-1.32627E-05 2.04220E-18-8.57303E-19
 -1       593 1.39220E-04-1.91919E-05-5.20545E-05-1.22052E-05 2.01874E-18-1.17955E-18
 -1       594 1.47892E-04-4.43315E-05-4.48187E-05 8.94831E-06 1.57674E-18 2.17661E-18
 -1       595 1.40015E-04-6.07491E-05-3.41499E-05-1.16775E-05-1.86638E-19 1.45504E-18
 -1       596 1.14417E-04-5.94450E-05-2.33881E-05-3.25802E-05-1.70804E-18-1.17890E-18
 -1       597 7.27758E-05-4.22478E-05-1.27185E-05-4.15574E-05-1.03116E-18-3.69333E-19
 -1       598 4.19594E-05-2.40789E-05-7.07737E-06-3.12607E-05-9.76576E-19-1.65823E-18
 -1       599 2.36016E-05-1.23723E-05-4.17237E-06-6.60586E-07 3.63786E-20-1.81900E-18
 -1       600 3.55684E-05-2.06099E-05-5.83155E-06 2.90595E-05 1.61000E-18-1.91387E-18
 -1       601 6.09514E-05-3.62577E-05-1.01604E-05 4.23612E-05 1.72117E-18-1.41163E-18
 -1       602 1.00444E-04-5.38743E-05-1.97333E-05 3.99019E-05 1.16345E-18-3.45022E-19
 -1       603 1.29734E-04-5.95645E-05-3.00667E-05 2.13452E-05-2.33834E-19 1.86691E-19
 -1       604 1.40720E-04-5.19957E-05-3.83322E-05 4.03549E-06-1.98437E-18 7.76676E-19
 -1       605 1.39911E-04-2.79090E-05-4.84529E-05-1.01040E-05-2.86726E-18 7.93882E-19
 -1       606 1.25535E-04-7.34747E-06-5.13022E-05 3.19380E-06-3.24710E-18 2.36481E-19
 -1       607 1.34482E-04-1.81232E-05-5.04380E-05 1.09528E-05-2.20472E-18 2.36068E-18
 -1       608 1.38610E-04-5.47853E-05-3.60881E-05-1.16205E-05-1.24904E-18-1.16096E-19
 -1       609 8.98667E-05-4.87743E-05-1.72911E-05-4.17100E-05 1.04757E-18-3.74084E-19
 -1       610 5.28209E-05-3.07197E-05-9.00967E-06-3.95286E-05 1.58882E-18 2.85175E-18
 -1       611 5.14562E-05-2.84678E-05-9.34427E-06 3.53312E-05-5.36119E-19 1.95305E-18
 -1       612 9.61965E-05-2.31764E-05-3.12977E-05 9.33055E-06 1.32351E-18 1.25662E-18
 -1       613 1.41937E-04-5.84179E-05-3.59859E-05 5.56836E-06 1.20315E-18-3.59195E-19
 -1       614 9.13731E-05-1.57401E-05-3.24368E-05-7.37887E-06-5.38994E-19-1.47263E-18
 -1       615 1.41018E-04-4.77423E-05-4.03135E-05-1.16663E-05 1.82461E-18-1.40525E-18
 -1       616 9.52959E-05-2.84803E-05-2.86350E-05-1.80343E-07-3.39591E-18 2.16610E-19
 -1       617 9.28361E-05-1.78582E-05-3.21539E-05-8.56334E-06-7.20022E-19-1.40803E-18
 -1       618 9.12943E-05-1.63301E-05-3.21330E-05 2.21918E-06 8.77488E-19-1.02550E-18
 -1       619 9.09890E-05-1.58821E-05-3.21939E-05 7.64737E-07 5.89907E-19-1.12765E-18
 -1       620 9.28175E-05-1.86780E-05-3.17797E-05 4.85003E-06 1.15089E-18-4.50349E-19
 -1       621 9.40079E-05-2.07298E-05-3.14128E-05 5.70772E-06 1.13548E-18-2.17706E-20
 -1       622 9.53653E-05-2.39664E-05-3.05894E-05 4.69586E-06 1.03706E-18-7.47829E-20
 -1       623 1.33041E-04-4.05572E-05-3.99370E-05-1.04801E-05-1.96316E-18 1.32632E-18
 -1       624 9.54785E-05-2.54163E-05-3.00245E-05-1.75968E-06-3.86920E-19-9.39591E-19
 -1       625 9.55687E-05-2.65752E-05-2.95679E-05 4.88146E-08-4.03291E-19-6.45363E-19
 -1       626 9.55477E-05-2.72274E-05-2.92797E-05 1.36016E-06-1.37572E-19-3.83612E-19
 -1       627 9.55224E-05-2.75852E-05-2.91157E-05 2.33739E-06-4.00883E-19-3.41854E-19
 -1       628 9.55319E-05-2.77634E-05-2.90434E-05 3.11559E-06-3.06032E-19-2.82050E-19
 -1       629 9.55962E-05-2.78423E-05-2.90371E-05 3.79403E-06-2.97820E-19 1.27131E-19
 -1       630 9.57337E-05-2.78893E-05-2.90759E-05 4.43729E-06-5.10391E-19 5.79913E-19
 -1       631 9.59723E-05-2.79747E-05-2.91416E-05 5.07670E-06-1.39125E-19 6.81888E-19
 -1       632 9.63579E-05-2.81812E-05-2.92184E-05 5.70913E-06-3.31010E-19 5.45531E-19
 -1       633 9.69622E-05-2.86129E-05-2.92925E-05 6.29253E-06-2.70962E-19 3.60954E-19
 -1       634 9.78898E-05-2.93962E-05-2.93547E-05 6.73788E-06-2.13081E-20 3.31606E-19
 -1       635 9.92785E-05-3.06695E-05-2.94046E-05 6.89713E-06-2.11817E-19 3.83090E-19
 -1       636 1.01282E-04-3.25455E-05-2.94601E-05 6.54848E-06-1.87422E-20 4.63136E-19
 -1       637 1.04012E-04-3.50201E-05-2.95696E-05 5.38328E-06-2.72544E-19 9.11539E-19
 -1       638 1.07389E-04-3.77951E-05-2.98303E-05 3.04174E-06-1.98894E-19 1.09409E-18
 -1       639 1.10953E-04-4.00718E-05-3.03790E-05-7.18573E-07 1.05655E-19 1.55697E-18
 -1       640 1.13695E-04-4.04577E-05-3.13858E-05-5.66491E-06-6.09741E-19 1.44500E-18
 -1       641 1.14072E-04-3.72229E-05-3.29592E-05-1.04743E-05-3.63557E-19 7.80174E-19
 -1       642 1.11462E-04-3.01768E-05-3.48768E-05-1.22601E-05-1.11849E-18 8.04238E-19
 -1       643 1.07294E-04-2.22157E-05-3.64923E-05-8.37852E-06-1.84642E-18 1.19299E-19
 -1       644 1.04873E-04-1.84688E-05-3.71423E-05 2.41654E-07-1.62178E-18-6.16125E-19
 -1       645 1.07570E-04-2.26003E-05-3.64459E-05 8.94176E-06-9.28833E-19-1.01295E-18
 -1       646 1.11700E-04-3.05992E-05-3.48060E-05 1.24144E-05-1.24418E-19-1.11467E-18
 -1       647 1.14144E-04-3.74789E-05-3.28735E-05 1.03402E-05 2.30395E-19-1.15857E-18
 -1       648 1.13578E-04-4.04272E-05-3.13557E-05 5.54672E-06 2.42416E-19-1.34040E-19
 -1       649 1.10787E-04-3.98971E-05-3.03850E-05 6.85355E-07 6.28190E-20-2.44808E-20
 -1       650 1.07211E-04-3.75317E-05-2.98656E-05-2.93335E-06 9.28313E-19-6.78094E-19
 -1       651 1.03866E-04-3.47326E-05-2.96314E-05-5.11157E-06 7.16686E-19-1.32957E-18
 -1       652 1.01189E-04-3.22664E-05-2.95396E-05-6.12461E-06 1.19581E-18-2.21473E-19
 -1       653 9.92293E-05-3.04001E-05-2.94989E-05-6.32777E-06-7.17742E-19 2.00156E-18
 -1       654 9.78752E-05-2.91330E-05-2.94610E-05-6.02302E-06-6.04353E-19 2.95623E-18
 -1       655 9.69723E-05-2.83549E-05-2.94073E-05-5.43349E-06-3.57226E-19 1.62020E-18
 -1       656 9.63827E-05-2.79332E-05-2.93352E-05-4.71284E-06 5.73304E-20 8.15955E-19
 -1       657 9.60011E-05-2.77510E-05-2.92497E-05-3.96206E-06-5.35864E-19-7.18631E-19
 -1       658 9.57539E-05-2.77181E-05-2.91579E-05-3.24379E-06-5.03818E-19-1.31077E-19
 -1       659 9.55922E-05-2.77703E-05-2.90662E-05-2.59341E-06 3.06253E-19-8.17118E-19
 -1       660 9.54847E-05-2.78648E-05-2.89797E-05-2.02753E-06 1.20554E-18-2.46129E-18
 -1       661 9.54114E-05-2.79741E-05-2.89014E-05-1.55037E-06 1.25902E-18-2.65510E-18
 -1       662 9.53598E-05-2.80820E-05-2.88332E-05-1.15824E-06 1.95345E-18-1.73210E-18
 -1       663 9.53220E-05-2.81795E-05-2.87752E-05-8.43032E-07 1.45291E-18-1.98869E-18
 -1       664 9.52935E-05-2.82631E-05-2.87272E-05-5.95084E-07-3.97902E-19-4.17240E-18
 -1       665 9.52690E-05-2.83301E-05-2.86879E-05-4.05634E-07-1.83146E-18-7.09906E-18
 -1       666 9.53369E-05-2.76264E-05-2.90181E-05-2.30067E-06 5.35479E-19 4.03575E-19
 -1       667 1.31556E-04-3.18398E-05-4.31757E-05 1.29404E-05-2.69409E-19 8.16831E-19
 -1       668 9.53551E-05-2.73356E-05-2.91503E-05-1.28676E-06 6.63254E-19 4.34394E-19
 -1       669 9.55043E-05-2.77397E-05-2.90413E-05-3.89254E-06 8.32254E-20 5.70520E-19
 -1       670 9.56744E-05-2.76531E-05-2.91512E-05-4.68553E-06 4.06666E-19 2.92922E-19
 -1       671 9.58926E-05-2.75166E-05-2.93030E-05-5.57249E-06 3.51293E-19-1.11028E-19
 -1       672 9.61629E-05-2.73740E-05-2.94797E-05-6.59364E-06 1.63885E-19-4.65900E-19
 -1       673 9.65100E-05-2.72966E-05-2.96616E-05-7.76112E-06 3.12474E-19 1.91053E-19
 -1       674 9.70001E-05-2.74077E-05-2.98241E-05-9.05052E-06 1.70923E-19 1.05171E-19
 -1       675 9.77747E-05-2.79158E-05-2.99388E-05-1.03848E-05 3.77332E-20-5.84090E-19
 -1       676 9.91033E-05-2.91499E-05-2.99800E-05-1.16061E-05-1.73623E-20-5.54355E-19
 -1       677 1.01440E-04-3.15716E-05-2.99442E-05-1.24263E-05 3.79261E-19-6.61116E-20
 -1       678 1.05474E-04-3.57076E-05-2.98976E-05-1.23113E-05-4.53128E-19 6.41150E-19
 -1       679 1.11843E-04-4.16628E-05-3.00742E-05-1.02794E-05-1.06482E-18 1.42163E-18
 -1       680 1.20542E-04-4.82354E-05-3.09772E-05-4.98953E-06-1.27651E-18 1.38175E-18
 -1       681 1.29796E-04-5.20004E-05-3.34196E-05 4.44017E-06 1.98590E-20 1.46473E-18
 -1       682 1.32669E-04-4.47725E-05-3.79436E-05 1.49978E-05 1.67293E-18 2.61850E-18
 -1       683 1.23862E-04-5.01199E-05-3.16012E-05 2.16383E-06-1.06691E-18-1.47594E-18
 -1       684 1.14716E-04-4.40019E-05-3.02945E-05 8.73498E-06-3.73747E-19-9.33414E-19
 -1       685 1.07467E-04-3.75267E-05-2.99716E-05 1.16239E-05 4.76411E-20-2.70270E-18
 -1       686 1.02715E-04-3.27251E-05-2.99978E-05 1.21992E-05 8.08806E-19-1.13722E-18
 -1       687 9.98917E-05-2.97396E-05-3.00664E-05 1.15434E-05-2.63838E-19 1.69495E-18
 -1       688 9.82972E-05-2.81277E-05-3.00725E-05 1.03135E-05-2.28183E-19 5.46633E-19
 -1       689 9.73995E-05-2.73948E-05-3.00010E-05 8.87177E-06 1.92493E-20 1.15043E-18
 -1       690 9.68678E-05-2.71658E-05-2.98709E-05 7.42010E-06 1.81916E-20 9.92576E-19
 -1       691 9.65195E-05-2.71967E-05-2.97084E-05 6.06687E-06 2.40671E-19 4.76805E-19
 -1       692 9.62637E-05-2.73441E-05-2.95357E-05 4.86475E-06-8.33439E-19 1.84431E-18
 -1       693 9.60590E-05-2.75302E-05-2.93684E-05 3.83272E-06-1.43735E-18 2.79686E-18
 -1       694 9.58880E-05-2.77159E-05-2.92157E-05 2.96952E-06-2.13941E-18 3.60626E-18
 -1       695 9.57439E-05-2.78837E-05-2.90823E-05 2.26260E-06-5.35673E-19 2.12388E-18
 -1       696 9.56235E-05-2.80272E-05-2.89693E-05 1.69394E-06-5.99711E-19 1.55575E-18
 -1       697 9.55244E-05-2.81458E-05-2.88761E-05 1.24360E-06 9.28592E-19 2.10128E-19
 -1       698 9.54442E-05-2.82414E-05-2.88009E-05 8.92115E-07-4.37053E-19-7.49079E-19
 -1       699 9.53798E-05-2.83161E-05-2.87413E-05 6.21464E-07-5.25718E-19 4.76897E-19
 -1       700 9.53288E-05-2.83737E-05-2.86947E-05 4.16112E-07 7.43700E-20-2.60948E-19
 -1       701 9.52812E-05-2.83874E-05-2.86685E-05 3.05123E-07-1.25858E-18 1.00376E-18
 -1       702 9.48695E-05-2.79040E-05-2.86995E-05 6.79136E-08 1.51965E-18-5.43571E-19
 -1       703 9.52562E-05-2.83710E-05-2.86650E-05-3.02133E-07-6.67428E-19-6.83896E-18
 -1       704 9.49930E-05-2.80362E-05-2.86958E-05 2.98893E-07-2.48932E-19-6.78090E-19
 -1       705 9.48710E-05-2.79071E-05-2.86988E-05-7.31053E-08 2.17833E-18-1.63579E-18
 -1       706 9.49121E-05-2.79487E-05-2.86986E-05 1.98776E-07 8.11096E-19 5.90384E-20
 -1       707 9.54223E-05-2.67661E-05-2.94219E-05 7.62660E-08 7.70281E-19 9.66143E-20
 -1       708 7.74925E-05-3.51080E-05-1.77998E-05 3.32163E-05-6.71313E-19 1.46555E-18
 -1       709 9.49151E-05-2.79563E-05-2.86967E-05-2.00058E-07 2.50039E-18-7.10105E-19
 -1       710 9.49962E-05-2.80465E-05-2.86928E-05-2.97515E-07 1.73097E-18-8.82730E-19
 -1       711 9.51002E-05-2.81646E-05-2.86867E-05-3.51498E-07 5.99528E-19 3.79836E-19
 -1       712 9.46182E-05-2.20276E-05-3.11059E-05-5.73158E-06-6.20388E-19-1.13215E-18
 -1       713 8.63066E-05-4.36715E-05-1.79653E-05 3.85431E-05 1.39419E-18-7.21513E-19
 -1       714 4.05634E-05-1.27778E-05-1.13953E-05 1.43355E-05 9.05928E-19-1.16636E-18
 -1       715 1.16271E-04-1.14026E-05-4.53914E-05-6.03147E-06-2.55293E-18 8.46689E-19
 -1       716 9.53886E-05-2.77429E-05-2.89904E-05-3.12815E-06 1.05146E-19 2.97049E-19
 -1       717 9.52452E-05-2.41021E-05-3.04940E-05-3.56917E-06-4.48520E-19-1.13224E-18
 -1       718 9.19018E-05-1.72427E-05-3.20025E-05 3.61109E-06 1.03523E-18-5.88471E-19
 -1       719 9.54695E-05-2.57432E-05-2.98787E-05 1.98421E-06 9.22635E-19-1.73982E-19
 -1       720 9.18585E-05-1.71913E-05-3.20061E-05-3.56148E-06-2.05126E-20-1.38596E-18
 -1       721 4.79357E-05-2.00932E-05-1.14354E-05-2.82250E-05 1.61268E-18 3.04244E-18
 -1       722 3.74283E-05-1.07176E-05-1.09083E-05-2.22742E-06-3.37309E-19 4.26624E-18
 -1       723 1.12741E-04-5.49552E-05-2.46839E-05-2.75345E-05 9.86555E-19-2.08277E-19
 -1       724 1.36657E-04-4.71893E-05-3.86173E-05 4.68499E-06-8.66568E-19 4.54751E-20
 -1       725 1.16821E-04-5.67105E-05-2.56702E-05 2.56032E-05 1.48294E-18 3.48187E-19
 -1       726 1.32458E-04-5.94682E-05-3.12960E-05 9.21390E-06 8.16288E-19 8.33295E-19
 -1       727 9.89477E-05-4.95792E-05-2.09329E-05-3.34657E-05-1.30920E-18-1.41199E-18
 -1       728 6.74341E-05-3.18315E-05-1.48275E-05-3.45640E-05-5.47554E-19-4.45222E-19
 -1       729 4.42981E-05-1.41669E-05-1.23904E-05-1.58250E-05-1.89927E-19-1.24088E-18
 -1       730 6.15415E-05-2.89498E-05-1.35150E-05 3.56703E-05 1.44311E-18-1.89262E-18
 -1       731 1.32219E-04-5.57208E-05-3.28994E-05 5.48032E-06-3.98099E-19 1.18353E-18
 -1       732 1.25760E-04-2.28557E-05-4.45705E-05-1.30026E-05-2.36423E-18 7.39830E-19
 -1       733 1.29412E-04-6.08356E-05-2.93552E-05-1.55853E-05-1.31577E-18 5.78735E-19
 -1       734 1.18710E-04-1.48120E-05-4.49807E-05 1.03389E-05-2.32995E-18-1.80842E-19
 -1       735 1.39325E-04-5.31904E-05-3.70610E-05 6.06869E-06 7.40611E-19 2.31161E-18
 -1       736 1.30744E-04-5.79871E-05-3.12674E-05-1.24717E-05-1.06336E-19-8.52327E-21
 -1       737 4.82430E-05-1.82971E-05-1.23619E-05 2.31436E-05-1.54973E-18 2.41971E-18
 -1       738 7.61542E-05-3.62033E-05-1.67502E-05-3.68923E-05 8.48277E-19 1.37759E-18
 -1       739 1.13739E-04-5.55068E-05-2.48288E-05 2.58410E-05-3.06904E-19 1.93279E-18
 -1       740 9.27924E-05-1.86374E-05-3.17831E-05-4.82177E-06-2.68384E-19-1.14243E-18
 -1       741 9.09824E-05-1.58751E-05-3.21941E-05-7.05503E-07 4.15672E-19-1.21261E-18
 -1       742 9.86402E-05-4.55468E-05-2.26042E-05-2.96680E-05 8.54167E-19-8.59904E-19
 -1       743 9.50992E-05-2.81554E-05-2.86903E-05 3.52000E-07-1.30469E-18 1.46594E-19
 -1       744 1.31068E-04-5.02455E-05-3.47068E-05-7.80389E-06 1.48749E-18-2.46804E-18
 -1       745 9.51960E-05-2.82728E-05-2.86814E-05 3.47847E-07-2.79272E-18 2.16558E-18
 -1       746 9.77783E-05-4.41423E-05-2.28137E-05 2.80407E-05 5.86703E-19 2.56562E-18
 -1       747 9.12706E-05-1.63036E-05-3.21342E-05-2.15908E-06 2.28822E-19-1.00555E-18
 -1       748 9.45586E-05-2.23450E-05-3.09501E-05 3.34232E-06 9.29222E-19-2.26086E-19
 -1       749 9.56637E-05-2.61768E-05-2.97800E-05 5.05271E-07 5.59873E-21-5.46513E-19
 -1       750 9.56715E-05-2.68668E-05-2.94877E-05 1.66274E-06-3.78081E-19-4.82760E-19
 -1       751 9.55616E-05-2.72107E-05-2.92932E-05 2.58152E-06-3.79762E-19-4.35847E-19
 -1       752 9.53945E-05-2.73288E-05-2.91710E-05 3.36399E-06-3.35422E-20-4.30229E-19
 -1       753 9.52132E-05-2.73179E-05-2.90979E-05 4.09013E-06-1.94389E-19-4.76676E-19
 -1       754 9.50597E-05-2.72687E-05-2.90532E-05 4.81681E-06-6.42517E-20 2.95263E-19
 -1       755 9.49884E-05-2.72803E-05-2.90176E-05 5.57650E-06-3.88707E-19 4.02694E-19
 -1       756 9.50797E-05-2.74728E-05-2.89743E-05 6.37562E-06-7.06837E-21 1.02151E-18
 -1       757 9.54545E-05-2.79968E-05-2.89104E-05 7.19001E-06-2.71143E-19 3.30152E-19
 -1       758 9.62884E-05-2.90374E-05-2.88219E-05 7.95364E-06-1.87764E-19 8.55172E-20
 -1       759 9.78202E-05-3.08023E-05-2.87223E-05 8.53547E-06-4.07709E-19 6.81246E-20
 -1       760 1.00339E-04-3.34753E-05-2.86568E-05 8.70000E-06 2.24040E-19-2.69077E-19
 -1       761 1.04139E-04-3.71053E-05-2.87263E-05 8.01851E-06 2.04885E-19 4.67685E-19
 -1       762 1.09143E-04-4.11687E-05-2.91387E-05 5.80120E-06 6.27201E-19 1.53636E-18
 -1       763 1.15236E-04-4.47392E-05-3.02188E-05 1.29273E-06-1.45788E-19 1.60655E-18
 -1       764 1.19388E-04-4.45751E-05-3.21362E-05-5.24193E-06-5.69534E-19 2.08016E-18
 -1       765 1.20186E-04-3.82689E-05-3.51670E-05-1.17891E-05-1.02718E-18 1.83565E-18
 -1       766 1.20123E-04-3.85611E-05-3.50721E-05 1.16096E-05 1.17698E-19-3.42041E-19
 -1       767 1.19274E-04-4.46751E-05-3.19909E-05 4.91033E-06 8.53216E-19-5.53245E-19
 -1       768 1.14527E-04-4.43128E-05-3.00920E-05-1.59823E-06 1.29587E-19 5.80418E-19
 -1       769 1.08802E-04-4.08263E-05-2.91319E-05-5.77037E-06-5.11267E-19 1.71586E-18
 -1       770 1.03783E-04-3.66539E-05-2.87707E-05-7.75688E-06 2.31600E-19 1.53208E-18
 -1       771 1.00060E-04-3.30580E-05-2.87159E-05-8.29448E-06 1.24088E-18 1.29636E-18
 -1       772 9.75620E-05-3.03889E-05-2.87887E-05-8.00716E-06 1.22254E-18 6.31459E-20
 -1       773 9.60282E-05-2.86194E-05-2.88894E-05-7.29846E-06-3.85577E-20 1.32546E-18
 -1       774 9.51695E-05-2.75687E-05-2.89716E-05-6.40920E-06-1.65735E-18 6.85386E-19
 -1       775 9.47489E-05-2.70364E-05-2.90195E-05-5.47395E-06-1.77274E-18 1.03817E-18
 -1       776 9.45943E-05-2.68504E-05-2.90329E-05-4.56881E-06-1.48976E-18-6.07253E-19
 -1       777 9.45890E-05-2.68785E-05-2.90186E-05-3.73593E-06 7.45973E-20-2.71957E-19
 -1       778 9.46584E-05-2.70263E-05-2.89851E-05-2.99661E-06 7.80857E-20-7.52688E-19
 -1       779 9.47574E-05-2.72299E-05-2.89403E-05-2.35882E-06 6.12994E-19-1.11058E-18
 -1       780 9.48603E-05-2.74489E-05-2.88905E-05-1.82189E-06 8.69366E-19-4.09958E-19
 -1       781 9.49537E-05-2.76589E-05-2.88406E-05-1.37967E-06 1.68013E-18-2.52356E-18
 -1       782 9.50316E-05-2.78467E-05-2.87935E-05-1.02252E-06 1.75553E-18-4.16608E-18
 -1       783 9.50925E-05-2.80067E-05-2.87510E-05-7.40176E-07-5.56302E-19-4.58733E-18
 -1       784 9.51360E-05-2.81377E-05-2.87136E-05-5.20749E-07-1.54718E-18-3.48663E-18
 -1       785 9.47882E-05-2.67449E-05-2.91612E-05-5.14425E-06 3.30395E-19 1.24071E-19
 -1       786 9.50702E-05-2.70556E-05-2.91489E-05-4.28506E-06 4.79666E-19-1.26790E-20
 -1       787 9.40561E-05-2.59216E-05-2.92001E-05-7.20345E-06 3.14084E-20-2.05706E-19
 -1       788 9.36435E-05-2.55801E-05-2.91695E-05-8.47228E-06 1.87697E-19-5.30857E-19
 -1       789 9.33031E-05-2.54983E-05-2.90586E-05-9.92876E-06 5.45317E-19-3.14413E-20
 -1       790 9.32391E-05-2.59703E-05-2.88287E-05-1.15866E-05 1.31682E-19-1.57677E-19
 -1       791 9.38504E-05-2.74585E-05-2.84515E-05-1.34417E-05-3.46879E-19 1.43322E-19
 -1       792 9.58051E-05-3.05988E-05-2.79368E-05-1.54193E-05-1.96116E-19 3.96130E-19
 -1       793 1.00331E-04-3.63398E-05-2.74269E-05-1.72850E-05-1.12900E-18 2.48144E-19
 -1       794 1.09160E-04-4.52679E-05-2.73356E-05-1.79466E-05-1.16625E-18 3.61220E-19
 -1       795 1.12614E-04-4.82813E-05-2.76136E-05 1.65919E-05-4.12955E-19-1.16201E-18
 -1       796 9.42897E-05-2.81454E-05-2.83473E-05 1.37542E-05-7.16658E-19 1.62095E-19
 -1       797 9.32807E-05-2.61145E-05-2.87859E-05 1.17343E-05-1.04560E-19 5.31342E-19
 -1       798 9.31442E-05-2.53071E-05-2.90729E-05 9.88808E-06-1.51249E-18 1.61615E-18
 -1       799 9.33928E-05-2.52011E-05-2.92246E-05 8.23635E-06-2.85114E-19 1.86627E-18
 -1       800 9.37610E-05-2.54506E-05-2.92754E-05 6.77461E-06 4.78749E-19 1.92419E-18
 -1       801 9.41248E-05-2.58522E-05-2.92593E-05 5.49616E-06-1.00468E-18 1.88839E-18
 -1       802 9.44343E-05-2.62921E-05-2.92034E-05 4.39500E-06-2.35439E-18 2.58135E-18
 -1       803 9.46772E-05-2.67118E-05-2.91278E-05 3.46227E-06-1.47486E-18 1.73145E-18
 -1       804 9.48584E-05-2.70847E-05-2.90457E-05 2.68549E-06-1.06512E-18-3.61476E-20
 -1       805 9.49886E-05-2.74021E-05-2.89654E-05 2.04920E-06-6.40410E-19 1.16087E-18
 -1       806 9.50791E-05-2.76645E-05-2.88919E-05 1.53636E-06 7.23549E-19 1.03805E-18
 -1       807 9.51396E-05-2.78759E-05-2.88272E-05 1.12870E-06 1.35180E-18 1.91260E-18
 -1       808 9.51783E-05-2.80433E-05-2.87721E-05 8.11341E-07 4.59456E-19 1.87578E-19
 -1       809 9.52005E-05-2.81730E-05-2.87260E-05 5.66728E-07-3.23367E-19-1.49344E-18
 -1       810 9.51970E-05-2.82253E-05-2.87023E-05 4.46928E-07-3.01961E-18 5.86268E-19
 -1       811 9.27478E-05-1.90144E-05-3.16011E-05 1.03778E-06 6.39700E-19-7.89371E-19
 -1       812 9.56259E-05-2.63148E-05-2.97048E-05-3.72101E-07 4.89866E-19 2.64922E-19
 -1       813 9.47015E-05-2.76964E-05-2.87165E-05-7.28411E-09 8.41061E-19-2.14956E-18
 -1       814 9.49682E-05-2.79694E-05-2.87138E-05-4.56476E-07 1.75802E-18-1.18443E-18
 -1       815 9.47359E-05-2.77330E-05-2.87156E-05-1.91129E-07 1.36628E-18 5.16318E-20
 -1       816 1.22413E-04-5.48089E-05-2.89102E-05 1.31665E-05-9.12982E-19 4.75377E-19
 -1       817 6.49368E-05-2.30270E-05-1.76992E-05-2.44012E-05-1.76289E-19-9.61740E-19
 -1       818 7.96146E-05-3.47042E-05-1.90300E-05 3.25029E-05 7.79654E-19-1.27272E-18
 -1       819 1.36327E-04-5.58272E-05-3.46509E-05-2.13271E-06 1.89737E-18 8.56033E-20
 -1       820 9.37078E-05-2.02022E-05-3.14995E-05-5.47259E-06-4.94686E-19-1.22892E-18
 -1       821 9.48303E-05-2.78286E-05-2.87151E-05-3.49681E-07 1.12910E-18-6.84967E-19
 -1       822 1.03073E-04-3.90680E-05-2.74020E-05 1.73348E-05 1.07983E-19-1.18109E-18
 -1       823 9.44486E-05-2.63450E-05-2.91869E-05-6.10346E-06 3.21725E-19 2.34552E-19
 -1       824 9.55988E-05-2.69403E-05-2.94249E-05-1.62318E-06 5.78330E-19 1.93817E-19
 -1       825 1.27063E-04-4.64248E-05-3.46073E-05-6.36972E-06-1.26052E-18 1.38118E-18
 -1       826 9.70014E-05-3.21297E-05-2.77978E-05 1.58349E-05-8.04085E-19-6.20551E-20
 -1       827 1.22299E-04-5.40422E-05-2.92346E-05 1.09707E-05 4.32089E-19-2.26082E-19
 -1       828 9.54326E-05-2.49673E-05-3.01996E-05-9.92293E-07-2.45237E-19-7.64456E-19
 -1       829 6.61478E-05-2.54336E-05-1.71517E-05-2.85752E-05 1.48518E-18 3.10307E-18
 -1       830 5.04401E-05-1.45734E-05-1.50768E-05-1.56986E-05 6.29339E-19 2.94288E-18
 -1       831 1.26683E-04-4.04349E-05-3.71420E-05 1.10275E-05-3.75050E-19 1.06236E-18
 -1       832 5.01993E-05-1.18963E-05-1.61453E-05-5.63790E-08-2.65251E-20-6.87672E-19
 -1       833 9.52378E-05-2.41751E-05-3.04538E-05 2.82880E-06 9.36168E-19 2.20466E-19
 -1       834 5.08449E-05-1.32679E-05-1.58442E-05 9.96317E-06-2.37053E-18 2.76151E-18
 -1       835 8.75163E-05-3.79378E-05-2.10923E-05-2.97723E-05-6.04358E-19-6.53658E-19
 -1       836 1.04629E-04-4.88366E-05-2.38298E-05 2.74110E-05 1.19939E-18 3.51634E-19
 -1       837 6.77712E-05-2.32394E-05-1.88442E-05 2.35362E-05-1.84848E-18 2.36206E-18
 -1       838 1.16092E-04-2.69771E-05-3.84686E-05-1.39148E-05-2.18122E-18 1.02120E-18
 -1       839 1.18709E-04-3.03841E-05-3.80372E-05 1.40613E-05-9.80547E-19-9.06458E-20
 -1       840 1.17804E-04-5.31390E-05-2.76308E-05-1.74418E-05-1.51366E-18 3.94490E-19
 -1       841 5.69610E-05-1.85387E-05-1.62012E-05 2.18581E-05 2.06305E-19-1.76680E-18
 -1       842 9.26062E-05-1.87880E-05-3.16375E-05 2.58291E-08 4.35069E-19-1.05208E-18
 -1       843 8.57810E-05-3.53535E-05-2.14868E-05-2.80645E-05 9.68092E-19-9.83551E-19
 -1       844 9.50680E-05-2.36535E-05-3.06072E-05-2.42429E-06-2.29060E-19-9.18868E-19
 -1       845 9.49588E-05-2.79478E-05-2.87190E-05 4.55806E-07-2.75440E-18 1.84923E-18
 -1       846 9.54784E-05-2.72108E-05-2.92574E-05-2.61403E-06 5.34510E-19 3.26420E-19
 -1       847 9.52992E-05-2.72274E-05-2.91735E-05-3.46777E-06 3.96515E-21 9.87556E-20
 -1       848 9.55155E-05-2.54770E-05-3.00172E-05 1.02565E-06 5.83931E-19 1.60308E-19
 -1       849 5.43379E-05-1.24570E-05-1.77847E-05-2.81705E-06-1.34623E-18 1.40946E-18
 -1       850 9.37937E-05-2.08002E-05-3.12825E-05 2.80839E-06 9.48842E-19-5.10927E-19
 -1       851 9.31552E-05-1.96854E-05-3.14880E-05 1.98710E-06 9.10509E-19-8.34220E-19
 -1       852 9.48200E-05-2.78091E-05-2.87190E-05 3.43027E-07 2.23103E-19 2.35704E-18
 -1       853 9.47304E-05-2.77224E-05-2.87178E-05 1.80523E-07 8.55331E-19 1.37255E-19
 -1       854 1.22046E-04-5.42335E-05-2.90744E-05-1.20954E-05 9.15782E-19-6.48515E-19
 -1       855 6.04323E-05-1.57161E-05-1.90081E-05-1.19099E-05-1.02342E-19-1.09011E-18
 -1       856 8.33443E-05-3.13676E-05-2.21787E-05 2.47279E-05-2.51522E-19 3.90381E-18
 -1       857 1.11467E-04-4.94146E-05-2.65794E-05-1.85331E-05 8.61016E-19-5.67899E-19
 -1       858 9.31392E-05-1.96683E-05-3.14885E-05-1.95135E-06 1.92917E-19-9.99289E-19
 -1       859 1.29555E-04-5.48532E-05-3.20823E-05 2.17846E-06-2.54070E-19-7.50326E-19
 -1       860 1.28603E-04-5.10172E-05-3.33411E-05 1.05985E-06 3.28612E-19 8.56757E-19
 -1       861 9.37729E-05-2.07899E-05-3.12834E-05-2.77325E-06-1.26440E-19-1.00725E-18
 -1       862 9.55819E-05-2.58701E-05-2.98763E-05 8.76184E-07-1.27826E-19-6.77049E-19
 -1       863 9.55178E-05-2.64966E-05-2.95805E-05 1.82482E-06-2.98910E-19-5.56353E-19
 -1       864 9.52629E-05-2.67552E-05-2.93604E-05 2.63092E-06-2.26220E-19-3.99075E-19
 -1       865 9.48824E-05-2.67647E-05-2.91933E-05 3.36764E-06-1.41121E-19-4.94728E-19
 -1       866 9.44299E-05-2.66307E-05-2.90568E-05 4.10235E-06 1.83292E-19-3.31883E-19
 -1       867 9.39621E-05-2.64608E-05-2.89291E-05 4.89056E-06 1.16336E-20-2.05536E-19
 -1       868 9.35513E-05-2.63766E-05-2.87891E-05 5.77527E-06-1.69076E-19 2.95137E-20
 -1       869 9.33023E-05-2.65273E-05-2.86178E-05 6.78857E-06-3.78336E-19-2.35717E-19
 -1       870 9.33739E-05-2.71033E-05-2.84017E-05 7.94804E-06-2.78996E-19-3.06667E-19
 -1       871 9.40038E-05-2.83465E-05-2.81391E-05 9.24355E-06-5.35728E-20-2.10795E-19
 -1       872 9.55379E-05-3.05478E-05-2.78535E-05 1.05975E-05-2.44111E-19 3.74869E-19
 -1       873 9.84134E-05-3.39878E-05-2.76118E-05 1.17913E-05 3.24720E-19 6.59284E-20
 -1       874 1.03266E-04-3.90666E-05-2.75428E-05 1.24048E-05 7.03276E-19 4.27730E-19
 -1       875 1.10411E-04-4.47190E-05-2.80829E-05 1.11876E-05 7.59135E-19-4.46161E-19
 -1       876 9.55804E-05-2.59270E-05-2.98512E-05-7.73450E-07 5.20851E-19-4.41510E-19
 -1       877 1.18574E-04-4.95296E-05-2.95609E-05-6.48440E-06 7.32659E-19 4.55575E-19
 -1       878 1.09863E-04-4.43663E-05-2.80542E-05-1.08695E-05 1.09407E-18 3.50423E-19
 -1       879 1.02772E-04-3.83301E-05-2.76131E-05-1.20430E-05-1.46291E-19 1.42714E-18
 -1       880 9.80326E-05-3.34899E-05-2.76614E-05-1.14080E-05 2.61797E-19 6.33821E-19
 -1       881 9.51354E-05-3.00248E-05-2.79046E-05-1.01277E-05-6.75292E-20-4.40834E-19
 -1       882 9.35795E-05-2.78135E-05-2.81853E-05-8.67382E-06 1.34070E-18-8.68694E-19
 -1       883 9.28922E-05-2.65502E-05-2.84322E-05-7.28522E-06-5.96114E-19-6.01843E-19
 -1       884 9.27320E-05-2.59500E-05-2.86207E-05-6.03281E-06-1.09754E-18 1.10086E-18
 -1       885 9.28698E-05-2.57884E-05-2.87491E-05-4.93414E-06-2.26254E-18 1.12046E-18
 -1       886 9.31554E-05-2.58963E-05-2.88253E-05-3.98627E-06-1.14105E-18 7.81896E-19
 -1       887 9.34955E-05-2.61539E-05-2.88607E-05-3.17910E-06 1.71087E-19 2.56854E-19
 -1       888 9.38351E-05-2.64795E-05-2.88667E-05-2.50050E-06 1.78096E-19-1.31602E-18
 -1       889 9.41446E-05-2.68206E-05-2.88531E-05-1.93748E-06 1.27014E-18-1.92924E-18
 -1       890 9.44108E-05-2.71459E-05-2.88279E-05-1.47729E-06 1.20353E-18-1.47334E-18
 -1       891 9.46291E-05-2.74365E-05-2.87969E-05-1.10668E-06-5.52480E-19-1.47573E-18
 -1       892 9.48017E-05-2.76854E-05-2.87641E-05-8.14285E-07-1.28124E-19-3.55400E-18
 -1       893 9.48921E-05-2.78370E-05-2.87379E-05-6.16495E-07 5.33992E-19-2.87014E-18
 -1       894 9.01337E-05-2.36246E-05-2.85038E-05-8.26467E-06-1.62008E-19-1.99404E-19
 -1       895 9.13791E-05-2.42527E-05-2.87683E-05-7.01531E-06 2.92959E-19-5.81738E-19
 -1       896 8.75703E-05-2.35016E-05-2.74585E-05-1.18180E-05-2.05025E-19-6.31003E-19
 -1       897 8.68030E-05-2.48338E-05-2.65597E-05-1.45701E-05-4.90185E-19-2.06679E-19
 -1       898 8.74757E-05-2.81725E-05-2.53793E-05-1.84615E-05-6.07127E-19 2.78174E-19
 -1       899 9.50846E-05-2.80890E-05-2.87123E-05 4.70893E-07-3.64224E-18 2.88813E-18
 -1       900 8.80648E-05-2.28759E-05-2.79393E-05 9.94974E-06-9.35905E-19 3.63549E-18
 -1       901 7.42948E-05-2.62795E-05-2.04693E-05 2.42223E-05 3.95965E-19-1.75415E-18
 -1       902 8.69977E-05-2.34904E-05-2.72209E-05 1.22583E-05-6.70234E-19 2.58845E-18
 -1       903 9.05201E-05-2.35269E-05-2.87113E-05 6.70418E-06-2.50183E-19 2.42150E-18
 -1       904 9.15739E-05-2.41936E-05-2.88772E-05 5.48578E-06-4.53472E-19 3.12414E-18
 -1       905 9.24508E-05-2.48905E-05-2.89544E-05 4.44710E-06-8.33374E-19 3.36401E-18
 -1       906 9.31554E-05-2.55494E-05-2.89739E-05 3.56088E-06-1.08480E-18-8.01814E-20
 -1       907 9.37073E-05-2.61376E-05-2.89584E-05 2.81108E-06-6.38379E-19-1.31069E-19
 -1       908 9.41311E-05-2.66429E-05-2.89235E-05 2.18496E-06-1.72907E-18 3.05418E-19
 -1       909 9.44510E-05-2.70655E-05-2.88795E-05 1.66968E-06-4.85988E-20-3.15118E-19
 -1       910 9.46883E-05-2.74104E-05-2.88332E-05 1.25463E-06 1.61102E-20 9.41254E-19
 -1       911 9.48608E-05-2.76889E-05-2.87883E-05 9.19982E-07 1.63702E-18 2.14295E-18
 -1       912 8.09922E-05-2.91311E-05-2.21534E-05-2.37704E-05-1.00818E-18 2.82763E-20
 -1       913 9.45023E-05-2.74599E-05-2.87326E-05-1.40310E-07 4.89872E-19-2.21191E-18
 -1       914 6.11515E-05-1.54381E-05-1.94748E-05 1.06704E-05-2.38744E-19-7.67074E-19
 -1       915 9.27425E-05-1.90088E-05-3.16013E-05-9.90541E-07 3.25859E-19-1.06434E-18
 -1       916 8.66000E-05-2.54402E-05-2.62114E-05 1.54337E-05-1.48844E-18 1.86461E-18
 -1       917 9.53693E-05-2.47501E-05-3.02681E-05-3.10960E-07-1.53850E-19-4.70750E-19
 -1       918 6.45987E-05-1.68334E-05-2.03342E-05 1.33338E-05-1.84914E-18 2.38321E-18
 -1       919 1.09811E-04-4.70075E-05-2.68682E-05 1.65152E-05 9.43179E-19-8.15574E-19
 -1       920 8.88047E-05-2.32683E-05-2.80873E-05-9.81005E-06 1.82247E-19-2.20536E-19
 -1       921 9.41563E-05-2.61796E-05-2.91329E-05-4.24792E-06 2.52268E-19-5.58969E-19
 -1       922 6.56192E-05-1.95704E-05-1.95716E-05-1.88305E-05 4.09514E-19 1.90935E-18
 -1       923 9.25851E-05-3.86817E-05-2.30409E-05 2.58035E-05 2.26552E-19-2.75617E-19
 -1       924 8.93205E-05-2.30179E-05-2.84159E-05 8.15422E-06-1.42682E-18 2.56191E-18
 -1       925 9.44978E-05-2.74511E-05-2.87344E-05 1.11596E-07 7.24051E-19-4.52833E-19
 -1       926 7.93897E-05-2.74215E-05-2.22282E-05-2.18200E-05 1.44554E-18 4.62224E-19
 -1       927 6.24857E-05-1.42257E-05-2.06061E-05-3.59089E-07 3.11795E-19-6.38375E-19
 -1       928 9.53931E-05-2.48162E-05-3.02471E-05 5.48429E-07 6.50477E-19-4.59566E-19
 -1       929 9.47005E-05-2.76528E-05-2.87349E-05-4.81189E-07 1.39833E-18 1.23090E-18
 -1       930 9.47592E-05-2.65494E-05-2.92327E-05-3.48176E-06 2.65953E-19-6.86781E-19
 -1       931 9.24738E-05-2.49622E-05-2.89334E-05-5.96661E-06 6.26020E-19-3.24324E-19
 -1       932 9.49322E-05-2.33585E-05-3.06745E-05 2.15343E-06 7.96396E-19-1.41614E-19
 -1       933 9.54958E-05-2.65053E-05-2.95674E-05-1.82645E-06 4.61031E-19-2.58276E-19
 -1       934 9.49850E-05-2.79061E-05-2.87478E-05 6.61580E-07 5.24164E-19 2.42934E-18
 -1       935 7.24400E-05-2.06166E-05-2.21466E-05-1.62364E-05-9.51321E-19 1.59348E-20
 -1       936 9.49259E-05-2.34227E-05-3.06412E-05-1.37436E-06 2.57425E-20-6.87763E-19
 -1       937 9.44966E-05-2.24477E-05-3.08745E-05-1.28073E-06 1.57986E-19-6.86374E-19
 -1       938 9.40878E-05-2.16557E-05-3.10413E-05-8.21071E-07 3.24153E-19-8.15737E-19
 -1       939 1.00806E-04-4.24498E-05-2.49153E-05-2.18177E-05 5.97592E-19-2.78558E-19
 -1       940 9.40709E-05-2.16353E-05-3.10439E-05 8.48706E-07 5.92571E-19-7.67603E-19
 -1       941 8.79277E-05-2.97302E-05-2.49049E-05 1.97824E-05-3.59106E-19 2.34235E-18
 -1       942 9.47411E-05-2.76718E-05-2.87442E-05 5.43756E-07 4.66720E-19 3.25566E-18
 -1       943 7.47863E-05-2.24258E-05-2.23661E-05 1.81273E-05-1.38559E-18 6.29750E-18
 -1       944 9.33973E-05-2.56299E-05-2.90431E-05-5.05991E-06 3.67704E-19-1.37831E-19
 -1       945 9.45804E-05-2.75363E-05-2.87331E-05-3.27605E-07 2.11320E-19 7.22873E-19
 -1       946 9.38408E-05-2.12226E-05-3.11222E-05 3.07668E-07 4.81803E-19-8.13065E-19
 -1       947 9.52857E-05-2.46926E-05-3.02544E-05 1.83451E-07 5.23236E-20-4.46745E-19
 -1       948 9.53724E-05-2.56482E-05-2.98819E-05 1.04315E-06-8.63551E-20-2.56482E-19
 -1       949 9.51644E-05-2.61361E-05-2.95836E-05 1.76858E-06-1.21269E-19-1.38168E-19
 -1       950 9.47130E-05-2.62507E-05-2.93410E-05 2.42779E-06 8.96719E-20 1.59973E-19
 -1       951 9.40813E-05-2.61055E-05-2.91326E-05 3.08153E-06 4.44916E-20 1.91831E-19
 -1       952 9.33242E-05-2.58097E-05-2.89348E-05 3.79157E-06 1.60378E-19 2.07364E-19
 -1       953 9.25005E-05-2.54798E-05-2.87232E-05 4.61744E-06 4.02399E-20 2.09445E-19
 -1       954 9.16809E-05-2.52447E-05-2.84729E-05 5.62204E-06-4.70133E-19 1.69025E-19
 -1       955 9.09722E-05-2.52677E-05-2.81594E-05 6.87852E-06-4.24273E-19 2.23820E-19
 -1       956 9.05386E-05-2.57601E-05-2.77627E-05 8.46983E-06 4.39708E-20 2.76880E-19
 -1       957 9.06398E-05-2.70035E-05-2.72744E-05 1.04848E-05-2.10362E-20 2.00641E-19
 -1       958 9.17153E-05-2.93977E-05-2.67129E-05 1.29885E-05-1.48785E-20 4.29892E-19
 -1       959 9.42748E-05-3.33745E-05-2.60943E-05 1.60992E-05 5.20268E-19 5.43492E-19
 -1       960 9.52811E-05-2.46523E-05-3.02690E-05-1.94100E-08 4.67057E-19-6.95982E-19
 -1       961 9.52093E-05-2.66809E-05-2.93693E-05-2.69949E-06 4.17382E-19-1.59332E-19
 -1       962 9.90168E-05-3.88323E-05-2.57825E-05-1.82557E-05 4.53978E-19 2.27820E-19
 -1       963 9.39445E-05-3.27607E-05-2.62002E-05-1.53134E-05 4.02014E-19 3.02571E-19
 -1       964 9.12090E-05-2.87747E-05-2.67613E-05-1.25645E-05 1.93685E-19 1.51794E-18
 -1       965 9.01455E-05-2.64071E-05-2.73166E-05-1.00023E-05-4.91130E-19 1.15588E-18
 -1       966 8.99614E-05-2.51368E-05-2.77827E-05-7.94285E-06 7.31406E-19-9.18176E-20
 -1       967 9.02733E-05-2.46031E-05-2.81445E-05-6.29667E-06-6.14643E-19 5.39816E-19
 -1       968 9.08356E-05-2.45502E-05-2.84081E-05-4.98295E-06-2.07910E-18-2.25049E-19
 -1       969 9.14935E-05-2.47878E-05-2.85882E-05-3.93126E-06-1.79415E-18-1.08619E-18
 -1       970 9.21553E-05-2.51839E-05-2.87021E-05-3.08486E-06-4.04284E-19-1.47366E-18
 -1       971 9.27697E-05-2.56488E-05-2.87662E-05-2.40202E-06 2.09783E-19-1.05026E-18
 -1       972 9.33110E-05-2.61236E-05-2.87946E-05-1.85220E-06-2.83186E-19-7.52337E-19
 -1       973 9.37679E-05-2.65708E-05-2.87987E-05-1.41052E-06 1.31246E-18-6.03428E-19
 -1       974 9.41447E-05-2.69740E-05-2.87875E-05-1.06165E-06 9.68189E-19-3.84347E-19
 -1       975 9.44422E-05-2.73179E-05-2.87675E-05-7.84914E-07 1.05662E-19 9.46297E-19
 -1       976 9.45798E-05-2.74934E-05-2.87512E-05-6.17161E-07-3.69503E-19 2.28554E-18
 -1       977 8.84028E-05-2.25424E-05-2.82260E-05-5.90424E-06-2.05840E-19 1.64427E-19
 -1       978 7.74472E-05-2.07987E-05-2.42549E-05-1.36565E-05-9.44981E-19 4.42494E-19
 -1       979 8.07857E-05-2.04561E-05-2.58585E-05-1.04015E-05-7.31144E-19 3.04281E-19
 -1       980 8.23328E-05-2.01681E-05-2.66478E-05 8.69022E-06-1.39549E-18 2.53766E-18
 -1       981 9.03075E-05-2.34744E-05-2.86430E-05 3.88355E-06-3.23248E-20 1.96211E-18
 -1       982 8.88510E-05-2.25388E-05-2.84197E-05 4.70541E-06-5.20768E-19 2.90087E-18
 -1       983 9.24083E-05-2.51380E-05-2.88303E-05 2.55918E-06-3.72602E-19 1.73115E-18
 -1       984 9.31368E-05-2.58221E-05-2.88493E-05 2.03142E-06-7.61206E-19-9.81111E-19
 -1       985 9.37011E-05-2.64024E-05-2.88423E-05 1.58561E-06-8.72191E-19-1.15079E-18
 -1       986 9.41302E-05-2.68833E-05-2.88202E-05 1.21136E-06-1.72327E-18 1.15192E-18
 -1       987 9.44568E-05-2.72746E-05-2.87914E-05 9.10699E-07 1.05296E-19 2.15507E-18
 -1       988 6.42346E-05-1.42644E-05-2.13782E-05 2.13918E-06-8.82125E-19 4.93913E-19
 -1       989 7.36956E-05-2.13824E-05-2.23770E-05 1.56924E-05 1.23639E-20-9.53872E-19
 -1       990 8.48958E-05-2.07542E-05-2.74915E-05 6.90521E-06-1.21369E-18 2.93865E-18
 -1       991 9.38431E-05-2.12254E-05-3.11219E-05-2.62142E-07 4.32868E-19-1.08117E-18
 -1       992 9.45827E-05-2.75250E-05-2.87389E-05 3.52604E-07-2.04027E-19 1.36374E-18
 -1       993 6.79836E-05-1.68822E-05-2.18550E-05-1.02896E-05 6.62493E-19 2.49246E-19
 -1       994 9.44988E-05-2.24510E-05-3.08781E-05 1.30160E-06 8.53422E-19-6.77655E-19
 -1       995 7.93640E-05-2.00548E-05-2.53919E-05 1.11773E-05-8.26700E-19 4.44834E-18
 -1       996 8.70615E-05-2.15996E-05-2.80552E-05 5.68462E-06-1.21066E-18 3.19530E-18
 -1       997 9.14788E-05-2.43511E-05-2.87692E-05 3.17390E-06 1.19661E-18 1.89492E-18
 -1       998 7.61503E-05-2.17694E-05-2.32937E-05-1.48058E-05 8.76120E-19 3.85328E-19
 -1       999 6.96705E-05-1.71383E-05-2.24706E-05 8.08662E-06 2.88802E-19-9.30954E-19
 -1      1000 9.53833E-05-2.56258E-05-2.98959E-05-9.95109E-07 2.75743E-19-6.76316E-19
 -1      1001 8.62550E-05-2.15914E-05-2.77134E-05-6.93608E-06 5.34981E-19 6.19471E-20
 -1      1002 9.39186E-05-2.58030E-05-2.91924E-05-3.10147E-06 2.15590E-19-5.14144E-19
 -1      1003 9.02060E-05-2.35264E-05-2.85770E-05-5.07040E-06 3.29197E-19-3.22727E-19
 -1      1004 9.49154E-05-2.36750E-05-3.05307E-05 2.78149E-07 5.55914E-19-4.11716E-19
 -1      1005 7.23905E-05-1.77568E-05-2.34071E-05 1.02161E-05-3.66312E-19 3.44304E-18
 -1      1006 6.89237E-05-1.68209E-05-2.22996E-05-9.01585E-06-4.88803E-19-1.41365E-19
 -1      1007 7.61921E-05-2.10919E-05-2.35571E-05 1.49489E-05-5.10212E-19 6.41865E-18
 -1      1008 9.42130E-05-2.71360E-05-2.87469E-05-2.07741E-08 2.26490E-19-2.17061E-18
 -1      1009 9.46747E-05-2.31589E-05-3.06487E-05 1.92446E-07 5.45465E-19-6.55151E-19
 -1      1010 9.41805E-05-2.70451E-05-2.87726E-05 6.14217E-07-9.92535E-19-7.29786E-19
 -1      1011 8.37042E-05-2.07995E-05-2.69612E-05-8.33235E-06 2.49623E-19-1.17348E-20
 -1      1012 8.56968E-05-2.99316E-05-2.38625E-05 1.99751E-05 2.23190E-19-7.85357E-19
 -1      1013 9.29354E-05-2.52259E-05-2.90186E-05-3.71286E-06 2.46714E-19-7.25090E-19
 -1      1014 9.42726E-05-2.71989E-05-2.87468E-05-2.89466E-07 7.02649E-19-6.65532E-19
 -1      1015 9.51440E-05-2.47240E-05-3.01797E-05 4.06726E-07 1.52160E-19-8.30247E-19
 -1      1016 9.50814E-05-2.55047E-05-2.98187E-05 9.48090E-07-1.65923E-20-6.83720E-19
 -1      1017 9.46742E-05-2.57967E-05-2.95189E-05 1.43808E-06 4.96839E-20-4.20397E-19
 -1      1018 9.39903E-05-2.57233E-05-2.92577E-05 1.92496E-06 1.26211E-19-3.02984E-19
 -1      1019 9.30788E-05-2.53850E-05-2.90120E-05 2.46388E-06 2.38350E-19 1.84859E-20
 -1      1020 9.19829E-05-2.48870E-05-2.87553E-05 3.10928E-06-1.46462E-19 2.49439E-21
 -1      1021 9.07523E-05-2.43501E-05-2.84586E-05 3.92199E-06-8.91821E-20-1.26916E-19
 -1      1022 8.94199E-05-2.38793E-05-2.80897E-05 5.00008E-06-1.34143E-19 5.80385E-19
 -1      1023 8.80637E-05-2.36365E-05-2.76130E-05 6.45226E-06-4.36116E-19 2.35513E-19
 -1      1024 8.67906E-05-2.38164E-05-2.69905E-05 8.44637E-06-9.04145E-20-2.84119E-19
 -1      1025 8.57971E-05-2.46861E-05-2.61897E-05 1.11992E-05-7.05550E-20-2.14154E-19
 -1      1026 8.55232E-05-2.67449E-05-2.51852E-05 1.50103E-05 6.35444E-19-5.86084E-19
 -1      1027 9.46619E-05-2.61105E-05-2.93792E-05-2.47874E-06 6.26975E-19-3.60501E-19
 -1      1028 8.49210E-05-2.59608E-05-2.52649E-05-1.45633E-05 7.34017E-19 1.15435E-18
 -1      1029 8.53571E-05-2.41285E-05-2.62437E-05-1.08184E-05 3.86316E-19 1.70659E-18
 -1      1030 8.62104E-05-2.31718E-05-2.70197E-05-8.05449E-06-7.90555E-19 1.45190E-18
 -1      1031 8.73403E-05-2.29407E-05-2.76006E-05-6.06138E-06-6.38482E-19-3.34522E-19
 -1      1032 8.85215E-05-2.31312E-05-2.80249E-05-4.57971E-06-9.87979E-19-6.13587E-19
 -1      1033 8.96642E-05-2.35785E-05-2.83227E-05-3.48029E-06-2.05422E-18 2.14007E-19
 -1      1034 9.07082E-05-2.41552E-05-2.85230E-05-2.64966E-06-2.18914E-18-1.01678E-18
 -1      1035 9.16300E-05-2.47806E-05-2.86500E-05-2.01459E-06 3.73112E-19-7.86757E-19
 -1      1036 9.24204E-05-2.53992E-05-2.87236E-05-1.52546E-06 7.02641E-19-5.76170E-19
 -1      1037 9.30824E-05-2.59768E-05-2.87595E-05-1.14782E-06 4.48885E-19 2.65343E-19
 -1      1038 9.36128E-05-2.64840E-05-2.87697E-05-8.51519E-07 1.75637E-18 8.17867E-19
 -1      1039 9.40453E-05-2.69265E-05-2.87641E-05-6.24252E-07 5.28884E-19 1.80985E-18
 -1      1040 9.17099E-05-2.44506E-05-2.88256E-05-4.36047E-06 4.25141E-19-5.90850E-19
 -1      1041 9.51626E-05-2.60837E-05-2.96055E-05-1.79346E-06 3.96544E-19-4.40104E-19
 -1      1042 9.29148E-05-2.57445E-05-2.87876E-05 1.24302E-06 1.30042E-19 4.01259E-18
 -1      1043 9.21235E-05-2.50318E-05-2.87540E-05 1.54634E-06 4.73258E-19 2.82070E-18
 -1      1044 7.21267E-05-1.61114E-05-2.39936E-05 2.68860E-06 6.81301E-19-3.12542E-19
 -1      1045 8.07718E-05-1.88086E-05-2.65546E-05 4.14097E-06-5.24442E-19 8.15885E-19
 -1      1046 8.62812E-05-2.11108E-05-2.79304E-05 3.06197E-06-1.02700E-18 1.19392E-18
 -1      1047 9.41199E-05-3.65113E-05-2.46614E-05-2.09957E-05 5.07137E-19-2.31256E-19
 -1      1048 7.85675E-05-1.84622E-05-2.57467E-05-5.00562E-06-4.61118E-19 1.71467E-18
 -1      1049 8.98493E-05-2.32650E-05-2.85367E-05 2.25107E-06 1.15374E-19 2.85222E-18
 -1      1050 7.35674E-05-1.73431E-05-2.40783E-05-6.11801E-06 3.02343E-19 8.96331E-19
 -1      1051 9.47093E-05-2.32628E-05-3.06214E-05-8.95147E-08 3.13738E-19-8.55601E-19
 -1      1052 9.41502E-05-2.70518E-05-2.87565E-05 2.81528E-07-8.28495E-19 1.99954E-18
 -1      1053 9.35355E-05-2.63510E-05-2.87938E-05 9.75821E-07-1.28673E-18 1.80579E-18
 -1      1054 9.44132E-05-2.73322E-05-2.87488E-05-4.69410E-07 1.80547E-19 9.61451E-19
 -1      1055 8.82620E-05-2.22264E-05-2.83016E-05 2.64233E-06 1.85687E-19 2.59943E-18
 -1      1056 9.11171E-05-2.42040E-05-2.86775E-05 1.88431E-06 2.81934E-20 3.35447E-18
 -1      1057 7.41779E-05-1.73955E-05-2.43215E-05-6.41126E-06-5.56481E-19 1.26606E-18
 -1      1058 8.37744E-05-1.99184E-05-2.73655E-05 3.57090E-06-1.74174E-18 1.17167E-18
 -1      1059 9.52192E-05-2.49611E-05-3.01113E-05-5.04670E-07 3.90356E-19-3.57951E-19
 -1      1060 8.79712E-05-2.22572E-05-2.81636E-05-3.35911E-06 1.23653E-19 3.69464E-19
 -1      1061 9.39666E-05-2.55737E-05-2.93116E-05-1.90089E-06 3.42172E-19 4.51755E-21
 -1      1062 9.29420E-05-2.50919E-05-2.90790E-05-2.29483E-06 3.15556E-19-1.21867E-19
 -1      1063 6.97652E-05-1.58729E-05-2.31080E-05-1.65681E-07-9.55807E-20-7.06859E-20
 -1      1064 8.55081E-05-2.10389E-05-2.76309E-05-3.75655E-06 1.95789E-19 1.53822E-19
 -1      1065 7.88386E-05-2.14396E-05-2.45868E-05 1.11809E-05 3.65271E-20-9.36348E-19
 -1      1066 9.46010E-05-2.30327E-05-3.06716E-05 5.16327E-08 4.40786E-19-9.11704E-19
 -1      1067 9.38077E-05-2.67108E-05-2.87566E-05 1.48808E-08-2.98175E-19-1.03705E-18
 -1      1068 8.24894E-05-1.98004E-05-2.68694E-05-4.26788E-06 2.18674E-19 9.72110E-19
 -1      1069 9.47399E-05-2.54307E-05-2.97039E-05 5.51321E-07 2.20836E-19-5.41542E-19
 -1      1070 9.41090E-05-2.54898E-05-2.94071E-05 8.14344E-07 2.69691E-19-4.89813E-19
 -1      1071 9.31623E-05-2.51822E-05-2.91335E-05 1.11291E-06 2.32670E-19-3.43406E-19
 -1      1072 9.19706E-05-2.46394E-05-2.88559E-05 1.48495E-06 1.51121E-19-4.42541E-19
 -1      1073 9.05245E-05-2.39205E-05-2.85418E-05 2.01893E-06-1.86748E-19-3.35496E-19
 -1      1074 8.88031E-05-2.31004E-05-2.81559E-05 2.75835E-06-1.36161E-19-6.00388E-19
 -1      1075 8.68547E-05-2.23195E-05-2.76566E-05 3.78049E-06-2.01878E-19-4.98687E-19
 -1      1076 8.46428E-05-2.16603E-05-2.69908E-05 5.24204E-06-5.47105E-19-2.57294E-19
 -1      1077 8.21662E-05-2.12638E-05-2.60996E-05 7.32672E-06-7.63856E-20-7.25178E-19
 -1      1078 7.91219E-05-2.08736E-05-2.49535E-05-1.01350E-05 5.73426E-19-4.96313E-19
 -1      1079 9.46981E-05-2.57186E-05-2.95629E-05-1.45962E-06 4.79780E-19-6.81606E-19
 -1      1080 8.17526E-05-2.07026E-05-2.61682E-05-7.09791E-06 6.10306E-19-3.20569E-19
 -1      1081 8.39655E-05-2.09633E-05-2.69991E-05-4.99078E-06-8.49496E-19 6.43621E-19
 -1      1082 8.59865E-05-2.15610E-05-2.76092E-05-3.52082E-06-8.02470E-19 9.92083E-19
 -1      1083 8.77331E-05-2.23085E-05-2.80394E-05-2.52043E-06-2.52750E-18-1.33965E-19
 -1      1084 8.92216E-05-2.31098E-05-2.83339E-05-1.80183E-06-2.58003E-18-3.69905E-19
 -1      1085 9.04810E-05-2.39170E-05-2.85277E-05-1.28959E-06-9.44849E-19 1.22102E-18
 -1      1086 9.15325E-05-2.46872E-05-2.86482E-05-9.23536E-07-2.95798E-19-2.09575E-19
 -1      1087 9.23965E-05-2.53915E-05-2.87167E-05-6.61398E-07 9.44752E-19-1.57733E-18
 -1      1088 9.30961E-05-2.60153E-05-2.87492E-05-4.67955E-07 1.18558E-18-1.29508E-18
 -1      1089 7.98893E-05-1.84999E-05-2.63226E-05-1.02372E-06-2.65642E-19 5.19471E-19
 -1      1090 9.12041E-05-2.43574E-05-2.86484E-05 7.34254E-07 2.42946E-19 4.51425E-18
 -1      1091 9.36120E-05-2.64828E-05-2.87688E-05 4.48408E-07-5.51409E-19 2.96810E-18
 -1      1092 9.21819E-05-2.51612E-05-2.87230E-05 6.41373E-07-2.52018E-19 4.43015E-18
 -1      1093 9.29581E-05-2.58538E-05-2.87585E-05 5.41747E-07 1.19016E-18 4.11405E-18
 -1      1094 7.94369E-05-1.86709E-05-2.60555E-05 6.52659E-08-3.87548E-19 6.28740E-19
 -1      1095 8.99818E-05-2.34452E-05-2.85154E-05 7.99325E-07-3.36833E-19 3.45068E-18
 -1      1096 8.42288E-05-2.01706E-05-2.74585E-05 5.50352E-07-1.52797E-18-8.69662E-19
 -1      1097 9.50133E-05-2.45909E-05-3.01808E-05-2.11774E-07 5.15478E-19-7.54641E-19
 -1      1098 9.51180E-05-2.53704E-05-2.98919E-05-8.71916E-07 3.61601E-19-4.05359E-19
 -1      1099 9.50001E-05-2.48861E-05-3.00487E-05 3.09034E-07 2.21620E-19-5.68885E-19
 -1      1100 8.99594E-05-2.33582E-05-2.85440E-05-2.99148E-06 1.78457E-19 2.81416E-19
 -1      1101 8.65730E-05-2.13322E-05-2.79601E-05 7.37910E-07-1.65394E-18-4.02597E-19
 -1      1102 9.16113E-05-2.43249E-05-2.88353E-05-2.64884E-06 3.07125E-20 7.69414E-20
 -1      1103 9.32528E-05-2.51382E-05-2.91926E-05-9.32902E-07 5.97619E-19-4.44517E-19
 -1      1104 7.60858E-05-1.81152E-05-2.48361E-05 4.76007E-06 4.36855E-19-6.47140E-19
 -1      1105 8.32089E-05-2.00923E-05-2.70511E-05-4.68871E-07-2.90948E-19 5.25429E-19
 -1      1106 9.42024E-05-2.54510E-05-2.94631E-05-7.96605E-07 1.88199E-20-2.42576E-19
 -1      1107 8.61204E-05-2.13896E-05-2.77435E-05-8.18532E-07 1.53238E-19-8.94410E-21
 -1      1108 8.84761E-05-2.25808E-05-2.82428E-05-9.96626E-07 1.06576E-19 3.67542E-20
 -1      1109 8.84622E-05-2.24327E-05-2.82980E-05 8.11450E-07-1.04434E-18 1.84470E-18
 -1      1110 9.49112E-05-2.41084E-05-3.03443E-05 8.40809E-08 3.15005E-19-7.98892E-19
 -1      1111 9.43852E-05-2.54249E-05-2.95556E-05-1.55852E-07-1.20510E-20-2.80296E-19
 -1      1112 9.08711E-05-2.39312E-05-2.86912E-05 1.10154E-07-1.34512E-19-4.09273E-19
 -1      1113 9.19683E-05-2.44891E-05-2.89205E-05-1.03833E-06-1.93246E-19 1.24919E-20
 -1      1114 9.48687E-05-2.51623E-05-2.98753E-05-1.19236E-07 1.87874E-19-1.28407E-19
 -1      1115 9.48414E-05-2.53323E-05-2.97887E-05-5.42033E-07 2.60730E-19-4.72414E-19
 -1      1116 1.16480E-04 2.56617E-10-4.17345E-05-4.12960E-05-1.78300E-19 4.16423E-18
 -1      1117 8.85309E-05 7.19870E-11-3.71971E-05-2.40288E-05-8.56562E-20 1.43466E-20
 -1      1118 8.40710E-05 4.15726E-11-3.57593E-05-1.77205E-05-5.48454E-20-1.64449E-18
 -1      1119 8.23933E-05 3.20725E-11-3.50943E-05-1.36633E-05-3.13402E-20-2.35787E-18
 -1      1120 8.16241E-05 2.72157E-11-3.47759E-05-1.03579E-05-2.32669E-20-2.63554E-18
 -1      1121 8.12315E-05 2.43144E-11-3.46180E-05-7.48497E-06-2.66683E-21-2.68405E-18
 -1      1122 8.10237E-05 2.25109E-11-3.45372E-05-4.86353E-06-1.78671E-22-2.58173E-18
 -1      1123 8.09199E-05 2.15157E-11-3.44984E-05-2.37078E-06 7.66466E-21-2.48293E-18
 -1      1124 8.08904E-05 2.12103E-11-3.44876E-05 5.07577E-08 1.14647E-20-2.30053E-18
 -1      1125 8.09263E-05 2.15622E-11-3.45007E-05 2.47499E-06 2.29013E-20-2.10611E-18
 -1      1126 8.10365E-05 2.26160E-11-3.45417E-05 4.97662E-06 2.94973E-20-1.89978E-18
 -1      1127 8.12521E-05 2.44828E-11-3.46242E-05 7.61529E-06 4.22325E-20-1.59390E-18
 -1      1128 8.16488E-05 2.75285E-11-3.47841E-05 1.05174E-05 5.23043E-20-1.06252E-18
 -1      1129 8.24197E-05 3.25455E-11-3.51052E-05 1.38685E-05 5.84188E-20-3.39872E-19
 -1      1130 8.40683E-05 4.20648E-11-3.57788E-05 1.79730E-05 7.28978E-20 9.44614E-19
 -1      1131 8.82266E-05 6.68265E-11-3.72650E-05 2.38759E-05 5.88688E-20 3.24377E-18
 -1      1132 1.06276E-04 1.63509E-10-4.05148E-05 3.60461E-05 7.66565E-20 7.41673E-18
 -1      1133 1.29708E-04-2.56616E-05-4.01357E-05-2.59903E-05-6.80591E-19 6.75339E-18
 -1      1134 9.71361E-05-2.87679E-05-3.14785E-05-6.71955E-07-2.06041E-19 5.10973E-18
 -1      1135 8.99570E-05-2.69679E-05-2.78305E-05 3.86212E-07-8.73503E-20 3.08010E-18
 -1      1136 8.81595E-05-2.65480E-05-2.66183E-05 2.49068E-07-8.96531E-20 1.88952E-18
 -1      1137 8.79444E-05-2.64653E-05-2.64075E-05 1.64215E-07-6.94120E-20 8.87029E-19
 -1      1138 8.85021E-05-2.66026E-05-2.65544E-05 1.17211E-07-5.46022E-20 1.62180E-19
 -1      1139 8.94695E-05-2.68728E-05-2.68441E-05 8.83283E-08-7.11690E-20-4.62493E-19
 -1      1140 9.06785E-05-2.72245E-05-2.72080E-05 6.98920E-08 3.34322E-20-9.71322E-19
 -1      1141 9.20539E-05-2.76314E-05-2.76224E-05 5.83860E-08-4.49167E-20-1.53374E-18
 -1      1142 9.35716E-05-2.80839E-05-2.80805E-05 5.22805E-08 5.65225E-20-2.10354E-18
 -1      1143 9.52374E-05-2.85822E-05-2.85837E-05 5.09256E-08-5.30508E-20-3.19488E-18
 -1      1144 9.70711E-05-2.91311E-05-2.91368E-05 5.39454E-08-6.61811E-20-3.23032E-18
 -1      1145 9.90907E-05-2.97352E-05-2.97437E-05 6.07913E-08-5.02566E-20-3.47679E-18
 -1      1146 1.01293E-04-3.03925E-05-3.04013E-05 7.02400E-08 1.02856E-20-3.09426E-18
 -1      1147 1.03629E-04-3.10873E-05-3.10917E-05 7.97097E-08-3.12366E-20-3.19833E-18
 -1      1148 1.05972E-04-3.17810E-05-3.17734E-05 8.43787E-08-1.74233E-19-2.96053E-18
 -1      1149 1.08084E-04-3.24019E-05-3.23721E-05 7.63627E-08-1.21533E-19-3.20018E-18
 -1      1150 1.09591E-04-3.28386E-05-3.27759E-05 4.47304E-08 6.21560E-20-3.46236E-18
 -1      1151 1.09993E-04-3.29439E-05-3.28427E-05-2.19976E-08-3.38218E-20-4.81381E-18
 -1      1152 1.08750E-04-3.25616E-05-3.24310E-05-1.28990E-07 3.36064E-19-5.17500E-18
 -1      1153 1.05488E-04-3.15868E-05-3.14587E-05-2.63745E-07 1.21711E-19-4.81300E-18
 -1      1154 1.00299E-04-3.00548E-05-2.99818E-05-3.85744E-07-9.63897E-20-3.57464E-18
 -1      1155 9.40216E-05-2.82178E-05-2.82526E-05-4.30992E-07-2.08615E-20-3.24827E-18
 -1      1156 8.82393E-05-2.65384E-05-2.66975E-05-3.44422E-07-3.06315E-19-3.91255E-18
 -1      1157 8.47866E-05-2.55403E-05-2.57827E-05-1.27819E-07-1.88266E-20-4.68632E-18
 -1      1158 8.48979E-05-2.55727E-05-2.58125E-05 1.41341E-07 1.53538E-19-3.94973E-18
 -1      1159 8.85366E-05-2.66250E-05-2.67781E-05 3.52231E-07 2.25013E-19-2.21245E-18
 -1      1160 9.44182E-05-2.83344E-05-2.83626E-05 4.31184E-07-2.16167E-19-4.64793E-18
 -1      1161 1.00705E-04-3.01754E-05-3.00983E-05 3.80151E-07-8.62468E-20-5.13826E-18
 -1      1162 1.05850E-04-3.16958E-05-3.15670E-05 2.56140E-07 1.41395E-19-4.75752E-18
 -1      1163 1.09066E-04-3.26581E-05-3.25294E-05 1.22676E-07-1.04473E-19-3.69563E-18
 -1      1164 1.10302E-04-3.30391E-05-3.29412E-05 1.86195E-08 2.31611E-19-4.36446E-18
 -1      1165 1.09957E-04-3.29512E-05-3.28921E-05-4.47909E-08 3.10491E-20-4.34364E-18
 -1      1166 1.08580E-04-3.25537E-05-3.25276E-05-7.33067E-08 2.18979E-19-3.68086E-18
 -1      1167 1.06675E-04-3.19952E-05-3.19914E-05-7.83848E-08-1.97989E-19-4.40437E-18
 -1      1168 1.04620E-04-3.13877E-05-3.13962E-05-7.06396E-08-1.25361E-19-3.99077E-18
 -1      1169 1.02654E-04-3.08040E-05-3.08176E-05-5.75888E-08-1.55037E-19-6.75509E-18
 -1      1170 1.00910E-04-3.02839E-05-3.02984E-05-4.36989E-08-7.13447E-20-5.88802E-18
 -1      1171 9.94419E-05-2.98444E-05-2.98575E-05-3.12087E-08 3.65980E-19-2.80510E-18
 -1      1172 9.82540E-05-2.94878E-05-2.94986E-05-2.09757E-08 4.18764E-20-1.76719E-18
 -1      1173 9.73246E-05-2.92080E-05-2.92164E-05-1.31046E-08-1.90677E-19-2.31456E-18
 -1      1174 9.66194E-05-2.89950E-05-2.90013E-05-7.34344E-09-4.73589E-19-4.27100E-18
 -1      1175 9.61001E-05-2.88378E-05-2.88422E-05-3.30640E-09-3.12492E-19-5.46453E-18
 -1      1176 9.57305E-05-2.87254E-05-2.87286E-05-5.85074E-10-5.75331E-20-1.99510E-18
 -1      1177 9.54785E-05-2.86486E-05-2.86508E-05 1.20924E-09 2.34650E-19-1.46075E-19
 -1      1178 9.53180E-05-2.85993E-05-2.86010E-05 2.45031E-09 2.41953E-19 1.81927E-18
 -1      1179 9.52283E-05-2.85714E-05-2.85730E-05 3.52799E-09-1.59578E-19 6.05117E-19
 -1      1180 9.51943E-05-2.85604E-05-2.85616E-05 4.81047E-09-1.54080E-19-1.09618E-20
 -1      1181 9.52039E-05-2.85636E-05-2.85611E-05 6.89178E-09-1.57850E-19-7.15048E-20
 -1      1182 9.52270E-05-2.85683E-05-2.85628E-05 3.14622E-09-3.15666E-19-1.27778E-18
 -1      1183 1.30527E-04-3.75774E-05-3.85256E-05 1.21315E-05-1.49528E-19 1.06836E-17
 -1      1184 9.62330E-05-2.80940E-05-3.12290E-05 7.98611E-07 1.73377E-20 9.47216E-18
 -1      1185 9.01569E-05-2.68667E-05-2.78074E-05 1.22080E-07 5.78431E-20 8.01452E-18
 -1      1186 8.82286E-05-2.64702E-05-2.66492E-05 1.37167E-08 3.61114E-20 6.85115E-18
 -1      1187 8.79641E-05-2.64215E-05-2.64281E-05-1.81399E-08 5.71913E-21 5.91613E-18
 -1      1188 8.85015E-05-2.65784E-05-2.65632E-05-2.47578E-08 3.94118E-20 5.35687E-18
 -1      1189 8.94630E-05-2.68601E-05-2.68487E-05-2.34105E-08-4.05525E-20 5.24290E-18
 -1      1190 9.06807E-05-2.72217E-05-2.72147E-05-1.90257E-08-3.87939E-20 4.91733E-18
 -1      1191 9.20882E-05-2.76428E-05-2.76396E-05-1.32864E-08-9.95429E-21 4.58797E-18
 -1      1192 9.36793E-05-2.81206E-05-2.81219E-05-7.18973E-09 7.26546E-20 4.38040E-18
 -1      1193 9.54900E-05-2.86653E-05-2.86727E-05-1.73372E-09 8.08598E-20 3.51587E-18
 -1      1194 9.75888E-05-2.92969E-05-2.93125E-05 1.76185E-09-7.30119E-20 3.13001E-18
 -1      1195 1.00067E-04-3.00419E-05-3.00680E-05 1.31875E-09-1.50911E-20 3.73256E-18
 -1      1196 1.03029E-04-3.09299E-05-3.09688E-05-6.10746E-09-8.53138E-20 4.43268E-18
 -1      1197 1.06565E-04-3.19865E-05-3.20387E-05-2.49840E-08 1.09892E-19 3.52273E-18
 -1      1198 1.10714E-04-3.32201E-05-3.32815E-05-6.10407E-08-7.50956E-20 2.52138E-18
 -1      1199 1.15385E-04-3.46001E-05-3.46558E-05-1.19401E-07-2.24351E-19 2.16457E-18
 -1      1200 1.20233E-04-3.60221E-05-3.60379E-05-1.98766E-07 5.37552E-20 1.95643E-18
 -1      1201 1.24496E-04-3.72640E-05-3.71807E-05-2.79357E-07 4.44990E-20 1.93820E-18
 -1      1202 1.26874E-04-3.79539E-05-3.76995E-05-3.06761E-07 1.39430E-20 3.65807E-18
 -1      1203 1.25632E-04-3.76048E-05-3.71459E-05-1.89939E-07-2.65598E-19 4.74746E-18
 -1      1204 1.19301E-04-3.57967E-05-3.52354E-05 1.44775E-07 6.36466E-20 4.12717E-18
 -1      1205 1.08092E-04-3.25553E-05-3.21906E-05 6.28427E-07 4.32384E-20 1.02036E-18
 -1      1206 9.52835E-05-2.87517E-05-2.89539E-05 9.72794E-07-9.41530E-20-2.37699E-19
 -1      1207 8.66356E-05-2.60495E-05-2.68924E-05 8.51353E-07 3.95591E-20 7.81176E-19
 -1      1208 8.68759E-05-2.59580E-05-2.70130E-05 2.51107E-07-7.46448E-20 2.18471E-18
 -1      1209 9.59028E-05-2.86123E-05-2.92551E-05-4.37309E-07 1.16755E-19 1.80249E-18
 -1      1210 1.08822E-04-3.25598E-05-3.25480E-05-8.04261E-07 1.59849E-19-3.43789E-19
 -1      1211 1.19898E-04-3.59752E-05-3.55297E-05-7.59114E-07-1.52439E-19-5.38078E-19
 -1      1212 1.26001E-04-3.78523E-05-3.73208E-05-4.91173E-07-1.82218E-19 1.16891E-19
 -1      1213 1.27063E-04-3.81687E-05-3.77739E-05-2.06709E-07 2.79094E-19-1.39445E-18
 -1      1214 1.24622E-04-3.74158E-05-3.72067E-05-7.43271E-09 9.79001E-20-2.29189E-18
 -1      1215 1.20415E-04-3.61359E-05-3.60690E-05 9.69035E-08-1.73188E-19 9.00820E-19
 -1      1216 1.15728E-04-3.47200E-05-3.47339E-05 1.33781E-07-3.71299E-19 2.47080E-18
 -1      1217 1.11303E-04-3.33891E-05-3.34377E-05 1.33137E-07 1.28345E-20-7.95682E-20
 -1      1218 1.07476E-04-3.22409E-05-3.22976E-05 1.15937E-07 2.51326E-19-3.34481E-18
 -1      1219 1.04337E-04-3.13004E-05-3.13529E-05 9.40039E-08 2.33154E-19-5.34255E-18
 -1      1220 1.01853E-04-3.05566E-05-3.06004E-05 7.29716E-08-1.58301E-19-4.52453E-18
 -1      1221 9.99384E-05-2.99830E-05-3.00178E-05 5.49949E-08 7.96385E-20-4.84442E-18
 -1      1222 9.84931E-05-2.95499E-05-2.95766E-05 4.05243E-08 1.96561E-19-5.99123E-18
 -1      1223 9.74228E-05-2.92289E-05-2.92490E-05 2.92864E-08-5.76771E-19-2.36770E-18
 -1      1224 9.66455E-05-2.89957E-05-2.90106E-05 2.07688E-08-2.83589E-19 7.16501E-19
 -1      1225 9.60932E-05-2.88299E-05-2.88407E-05 1.44353E-08-1.11924E-19 5.01616E-19
 -1      1226 9.57115E-05-2.87152E-05-2.87230E-05 9.80457E-09 1.39225E-19-2.51439E-18
 -1      1227 9.54581E-05-2.86389E-05-2.86447E-05 6.45689E-09 3.41302E-19-3.69340E-18
 -1      1228 9.53008E-05-2.85915E-05-2.85959E-05 4.00404E-09 5.67536E-19-6.89653E-18
 -1      1229 9.52162E-05-2.85659E-05-2.85695E-05 2.02739E-09-2.88695E-20-6.28046E-18
 -1      1230 9.51874E-05-2.85568E-05-2.85597E-05-1.75036E-10-1.86885E-19-2.70361E-18
 -1      1231 9.52004E-05-2.85599E-05-2.85605E-05-3.57623E-09 7.73075E-19-4.01095E-18
 -1      1232 9.52278E-05-2.85691E-05-2.85626E-05-3.03699E-09-2.00504E-19-3.26883E-18
 -1      1233 9.52393E-05-2.85809E-05-2.85630E-05-3.40587E-09-2.40500E-18-2.10234E-19
 -1      1234 9.52465E-05-2.86062E-05-2.85616E-05-6.04416E-09-2.95933E-18 7.52553E-19
 -1      1235 9.52481E-05-2.86113E-05-2.85628E-05-2.50121E-09 3.27367E-18 2.96048E-19
 -1      1236 9.52383E-05-2.85773E-05-2.85726E-05 5.92653E-10 7.02716E-18 6.21156E-19
 -1      1237 9.52192E-05-2.85118E-05-2.85906E-05 2.47350E-09 1.24885E-17-2.32702E-19
 -1      1238 9.51962E-05-2.84329E-05-2.86124E-05 3.11236E-09 7.91322E-18-1.62381E-18
 -1      1239 9.51747E-05-2.83589E-05-2.86329E-05 2.75185E-09 9.21188E-18 4.53435E-19
 -1      1240 9.51593E-05-2.83061E-05-2.86477E-05 1.61876E-09 8.64069E-18-1.98006E-20
 -1      1241 9.51535E-05-2.82864E-05-2.86532E-05 9.61882E-11 5.15993E-18 4.60625E-19
 -1      1242 9.51586E-05-2.83038E-05-2.86484E-05-1.43259E-09 3.80637E-18 2.22871E-19
 -1      1243 9.51733E-05-2.83544E-05-2.86342E-05-2.58045E-09-3.77287E-18-1.14255E-18
 -1      1244 9.51944E-05-2.84266E-05-2.86142E-05-3.01649E-09-6.87061E-18-4.35497E-19
 -1      1245 9.52170E-05-2.85045E-05-2.85926E-05-2.43499E-09-7.43265E-18 1.06850E-19
 -1      1246 9.52361E-05-2.85701E-05-2.85746E-05-7.09500E-10-4.06886E-18-5.94674E-20
 -1      1247 9.52473E-05-2.86067E-05-2.85643E-05 2.56845E-09-4.07389E-18 3.37600E-19
 -1      1248 9.52446E-05-2.86016E-05-2.85620E-05 8.88866E-09 1.13944E-19-4.44714E-20
 -1      1249 9.52398E-05-2.85819E-05-2.85631E-05 4.19052E-09 1.24872E-18-4.34283E-19
 -1      1250 3.51467E-05-1.09233E-04 1.84232E-05-1.34339E-05 6.56133E-18 9.19904E-19
 -1      1251 1.85994E-05-6.90942E-05 1.04758E-05-2.66461E-05 8.39410E-18 2.49959E-18
 -1      1252 7.17432E-06-1.27594E-05-4.85960E-06-3.98908E-06 9.24791E-18 5.92076E-18
 -1      1253 2.98734E-05 2.18420E-05-2.39696E-05 4.61801E-05 1.20431E-17 1.15959E-17
 -1      1254 1.02269E-04 1.37104E-05-4.48819E-05 9.64666E-05 8.95060E-18 1.19737E-17
 -1      1255 2.04272E-04-3.06504E-05-6.37209E-05 1.08358E-04 4.04331E-18 8.79898E-18
 -1      1256 2.91487E-04-8.00097E-05-7.56977E-05 6.69501E-05 1.14582E-18 5.55145E-18
 -1      1257 3.15619E-04-9.47100E-05-7.88834E-05-1.36969E-05 3.99376E-19 1.63583E-18
 -1      1258 2.68102E-04-6.66711E-05-7.26945E-05-8.65400E-05 1.44059E-18-4.26905E-18
 -1      1259 1.71151E-04-1.46490E-05-5.84544E-05-1.12621E-04 5.07881E-18-9.43595E-18
 -1      1260 7.28261E-05 2.17406E-05-3.81829E-05-8.30132E-05 9.68667E-18-1.16823E-17
 -1      1261 1.65754E-05 1.26272E-05-1.64745E-05-2.56815E-05 9.92045E-18-8.19674E-18
 -1      1262 8.87148E-06-3.41497E-05 1.88943E-06 1.75365E-05 5.82928E-18-3.39025E-18
 -1      1263 2.55314E-05-8.74596E-05 1.42168E-05 2.56922E-05 4.67732E-18-7.45918E-19
 -1      1264 3.63487E-05-1.12201E-04 1.91212E-05 3.78684E-06 7.34907E-19-7.27654E-19
 -1      1265 2.89315E-05-9.40538E-05 1.55444E-05-2.09867E-05-6.18249E-18-1.58872E-18
 -1      1266 1.12180E-05-4.28471E-05 4.44628E-06-1.99241E-05-9.30805E-18-4.16444E-18
 -1      1267 1.03190E-05 7.23878E-06-1.20706E-05 1.51289E-05-1.08115E-17-8.15523E-18
 -1      1268 4.73854E-05 2.72592E-05-3.11833E-05 6.74947E-05-1.09386E-17-1.14688E-17
 -1      1269 1.22538E-04 7.91870E-06-4.97512E-05 1.06504E-04-7.41831E-18-1.04033E-17
 -1      1270 2.15015E-04-3.77958E-05-6.51073E-05 1.06498E-04-2.89219E-18-5.96226E-18
 -1      1271 2.87773E-04-8.03151E-05-7.51110E-05 5.72392E-05-7.52906E-19-8.90232E-19
 -1      1272 3.07318E-04-9.26644E-05-7.73330E-05-1.80763E-05-4.03135E-19 1.66061E-18
 -1      1273 2.61949E-04-6.48074E-05-7.17163E-05-8.37095E-05-1.52339E-18 5.33292E-18
 -1      1274 1.76335E-04-1.72090E-05-5.91877E-05-1.12211E-04-3.48258E-18 6.74238E-18
 -1      1275 8.72894E-05 2.03885E-05-4.22195E-05-9.36650E-05-7.05663E-18 7.66395E-18
 -1      1276 2.70741E-05 2.40161E-05-2.33579E-05-4.61174E-05-1.31544E-17 1.10013E-17
 -1      1277 7.05597E-06-1.09616E-05-4.96510E-06 2.42946E-06-1.41929E-17 9.32753E-18
 -1      1278 1.76616E-05-6.53638E-05 9.62853E-06 2.40184E-05-1.02076E-17 4.11362E-18
 -1      1279 3.33846E-05-1.05522E-04 1.79080E-05 1.31295E-05 2.10234E-18 9.34304E-19
 -1      1280 1.04141E-04-2.19457E-05-3.77854E-05-1.71898E-05-2.54745E-19 3.17531E-18
 -1      1281 9.02506E-05-6.69095E-06-3.59805E-05-2.03159E-05-5.98746E-19-7.74982E-19
 -1      1282 9.25232E-05-6.75205E-06-3.71568E-05-2.56017E-05-8.12516E-19 8.92032E-20
 -1      1283 8.59276E-05-4.10730E-06-3.51338E-05-1.62536E-05-5.14387E-19-1.95935E-18
 -1      1284 8.71418E-05-4.10315E-06-3.55849E-05-1.86809E-05-6.27016E-19-1.46746E-18
 -1      1285 9.20981E-05-1.04771E-05-3.50709E-05-1.88499E-05-1.01088E-18-6.81438E-19
 -1      1286 8.41725E-05-3.19618E-06-3.47157E-05-1.26290E-05-3.56839E-19-2.50135E-18
 -1      1287 8.47597E-05-3.16594E-06-3.49291E-05-1.44474E-05-4.32887E-19-2.27682E-18
 -1      1288 8.79100E-05-7.40022E-06-3.45871E-05-1.52160E-05-7.81070E-19-1.65775E-18
 -1      1289 8.32715E-05-2.71544E-06-3.45123E-05-9.50250E-06-2.24014E-19-2.68545E-18
 -1      1290 8.35813E-05-2.69989E-06-3.46164E-05-1.10433E-05-2.58742E-19-2.61513E-18
 -1      1291 8.59395E-05-5.97021E-06-3.43402E-05-1.17521E-05-5.04355E-19-2.11274E-18
 -1      1292 8.27741E-05-2.42763E-06-3.44121E-05-6.75957E-06-8.95009E-20-2.64726E-18
 -1      1293 8.29445E-05-2.41989E-06-3.44644E-05-8.11422E-06-1.39469E-19-2.65389E-18
 -1      1294 8.48883E-05-5.17006E-06-3.42203E-05-8.75535E-06-3.33046E-19-2.18016E-18
 -1      1295 8.24877E-05-2.24730E-06-3.43613E-05-4.18609E-06 4.06046E-20-2.58459E-18
 -1      1296 8.25822E-05-2.24392E-06-3.43881E-05-5.46238E-06 1.50415E-20-2.64880E-18
 -1      1297 8.42858E-05-4.68460E-06-3.41629E-05-6.06451E-06-7.62297E-20-2.23316E-18
 -1      1298 8.23463E-05-2.14783E-06-3.43395E-05-1.74138E-06 1.75716E-19-2.44605E-18
 -1      1299 8.23877E-05-2.14655E-06-3.43505E-05-2.96168E-06 1.32920E-19-2.50498E-18
 -1      1300 8.39448E-05-4.39709E-06-3.41361E-05-3.54597E-06 1.06420E-19-2.10738E-18
 -1      1301 8.23187E-05-2.11693E-06-3.43372E-05 6.51882E-07 2.83013E-19-2.30517E-18
 -1      1302 8.23168E-05-2.11696E-06-3.43367E-05-5.51258E-07 2.45343E-19-2.39448E-18
 -1      1303 8.37923E-05-4.26439E-06-3.41260E-05-1.13720E-06 3.78096E-19-2.02785E-18
 -1      1304 8.23991E-05-2.15113E-06-3.43531E-05 3.06614E-06 4.07337E-19-2.12926E-18
 -1      1305 8.23538E-05-2.15242E-06-3.43409E-05 1.84309E-06 3.60838E-19-2.23290E-18
 -1      1306 8.37985E-05-4.26876E-06-3.41268E-05 1.23759E-06 5.36144E-19-1.88407E-18
 -1      1307 8.26041E-05-2.25484E-06-3.43925E-05 5.57652E-06 5.29300E-19-1.87447E-18
 -1      1308 8.25054E-05-2.25755E-06-3.43647E-05 4.29396E-06 4.90108E-19-2.00728E-18
 -1      1309 8.39639E-05-4.41111E-06-3.41385E-05 3.65079E-06 7.16416E-19-1.70115E-18
 -1      1310 8.29732E-05-2.43583E-06-3.44694E-05 8.22161E-06 6.33508E-19-1.48222E-18
 -1      1311 8.27991E-05-2.44374E-06-3.44164E-05 6.85760E-06 5.91745E-19-1.71233E-18
 -1      1312 8.43166E-05-4.70838E-06-3.41659E-05 6.15647E-06 8.88268E-19-1.43109E-18
 -1      1313 8.36283E-05-2.73077E-06-3.46232E-05 1.12048E-05 8.16500E-19-9.96627E-19
 -1      1314 8.33137E-05-2.74693E-06-3.45180E-05 9.64594E-06 7.38745E-19-1.28269E-18
 -1      1315 8.49369E-05-5.21229E-06-3.42234E-05 8.86433E-06 1.14826E-18-1.05818E-18
 -1      1316 8.48209E-05-3.20912E-06-3.49380E-05 1.46564E-05 9.25119E-19-2.10461E-19
 -1      1317 8.42293E-05-3.24485E-06-3.47226E-05 1.28131E-05 8.55305E-19-6.89935E-19
 -1      1318 8.60218E-05-6.04878E-06-3.43435E-05 1.19177E-05 1.34306E-18-5.40248E-19
 -1      1319 8.72423E-05-4.10604E-06-3.56055E-05 1.89212E-05 9.08496E-19 1.22063E-18
 -1      1320 8.60007E-05-4.16897E-06-3.51415E-05 1.65149E-05 8.45418E-19 3.63086E-19
 -1      1321 8.80362E-05-7.52681E-06-3.45894E-05 1.54495E-05 1.41338E-18 3.98953E-19
 -1      1322 9.33235E-05-6.80075E-06-3.70503E-05 2.49454E-05 7.03355E-19 3.62117E-18
 -1      1323 9.00635E-05-6.44822E-06-3.60017E-05 2.09938E-05 7.05261E-19 2.18916E-18
 -1      1324 9.23255E-05-1.07115E-05-3.50551E-05 1.94937E-05 1.30541E-18 1.93335E-18
 -1      1325 1.23217E-04-2.48424E-05-3.88978E-05 2.82336E-05 2.24252E-19 7.61737E-18
 -1      1326 9.98568E-05-1.43939E-05-3.72665E-05 2.39217E-05 2.60992E-19 4.91258E-18
 -1      1327 1.01506E-04-1.93188E-05-3.53375E-05 2.12434E-05 1.04530E-18 4.05686E-18
 -1      1328 1.02299E-04-2.77214E-05-3.46561E-05 7.26946E-06 4.34263E-19 7.57353E-18
 -1      1329 1.04874E-04-3.01526E-05-3.34385E-05-7.88532E-06-6.72015E-19 3.48321E-18
 -1      1330 9.80500E-05-2.77851E-05-3.06939E-05-4.92748E-06-6.28181E-19 2.67377E-18
 -1      1331 9.53363E-05-2.77996E-05-2.92030E-05-2.42912E-06-4.52051E-19 2.38693E-18
 -1      1332 9.31607E-05-2.75239E-05-2.81815E-05-1.98233E-06-4.37969E-19 1.67652E-18
 -1      1333 9.93572E-05-2.80174E-05-3.09422E-05-7.76508E-06-1.07282E-18 1.29758E-18
 -1      1334 9.15280E-05-2.71814E-05-2.75656E-05-7.68452E-07-3.38515E-19 1.46658E-18
 -1      1335 9.08767E-05-2.71040E-05-2.72834E-05-6.55125E-07-3.47158E-19 1.00088E-18
 -1      1336 9.46910E-05-2.77583E-05-2.88105E-05-2.98904E-06-7.20984E-19 7.92135E-19
 -1      1337 9.01997E-05-2.69414E-05-2.70633E-05-8.15643E-08-2.48392E-19 7.31175E-19
 -1      1338 9.02137E-05-2.69926E-05-2.70547E-05-1.80577E-08-2.96842E-19 3.45907E-19
 -1      1339 9.26183E-05-2.75198E-05-2.79310E-05-8.87200E-07-5.92374E-19 4.88579E-19
 -1      1340 9.00527E-05-2.69527E-05-2.70113E-05 2.82477E-07-1.94359E-19 2.43893E-19
 -1      1341 9.03879E-05-2.70774E-05-2.71093E-05 3.19254E-07-2.25089E-19 2.89844E-21
 -1      1342 9.18274E-05-2.74201E-05-2.76179E-05 1.56290E-07-4.79027E-19 2.48710E-19
 -1      1343 9.05257E-05-2.71184E-05-2.71575E-05 4.92840E-07-2.18128E-19-1.45485E-19
 -1      1344 9.10371E-05-2.72872E-05-2.73074E-05 5.15649E-07-1.78075E-19-3.67182E-19
 -1      1345 9.18018E-05-2.74696E-05-2.75820E-05 7.31375E-07-4.71779E-19-3.47449E-20
 -1      1346 9.13602E-05-2.73802E-05-2.74109E-05 6.26372E-07-8.24153E-20-4.60806E-19
 -1      1347 9.19814E-05-2.75771E-05-2.75927E-05 6.42558E-07-7.65771E-20-6.80902E-19
 -1      1348 9.22429E-05-2.76282E-05-2.77010E-05 1.07845E-06-3.43677E-19-1.42986E-19
 -1      1349 9.24304E-05-2.77060E-05-2.77340E-05 7.24399E-07-1.01079E-19-7.34801E-19
 -1      1350 9.31333E-05-2.79243E-05-2.79403E-05 7.38497E-07-1.29911E-19-9.36547E-19
 -1      1351 9.29886E-05-2.78625E-05-2.79186E-05 1.31435E-06-2.50507E-19-2.35254E-19
 -1      1352 9.36788E-05-2.80809E-05-2.81108E-05 8.10985E-07-2.86212E-19-1.01066E-18
 -1      1353 9.44568E-05-2.83199E-05-2.83397E-05 8.25814E-07-3.97030E-19-1.46115E-18
 -1      1354 9.39538E-05-2.81536E-05-2.82067E-05 1.50333E-06-4.25429E-19-2.44679E-19
 -1      1355 9.50866E-05-2.85010E-05-2.85358E-05 8.99656E-07-3.39676E-19-1.53052E-18
 -1      1356 9.59441E-05-2.87635E-05-2.87885E-05 9.16649E-07-2.48138E-19-1.99235E-18
 -1      1357 9.50982E-05-2.84935E-05-2.85514E-05 1.68199E-06-6.00462E-19-2.90217E-19
 -1      1358 9.66543E-05-2.89685E-05-2.90087E-05 9.95365E-07-3.25272E-20-2.19420E-18
 -1      1359 9.75995E-05-2.92582E-05-2.92872E-05 1.01450E-06-2.14634E-19-2.36184E-18
 -1      1360 9.64061E-05-2.88810E-05-2.89461E-05 1.86776E-06-2.69674E-19-7.61726E-19
 -1      1361 9.83873E-05-2.94874E-05-2.95305E-05 1.09407E-06-1.79556E-19-2.22035E-18
 -1      1362 9.94228E-05-2.98067E-05-2.98350E-05 1.11353E-06 3.89230E-21-2.30579E-18
 -1      1363 9.78721E-05-2.93185E-05-2.93870E-05 2.06054E-06-1.87737E-19-1.20502E-18
 -1      1364 1.00280E-04-3.00589E-05-3.00978E-05 1.18085E-06 1.47506E-19-2.22212E-18
 -1      1365 1.01392E-04-3.04055E-05-3.04236E-05 1.19641E-06 3.49736E-20-2.02706E-18
 -1      1366 9.94865E-05-2.98083E-05-2.98684E-05 2.24036E-06 1.27414E-19-1.59283E-18
 -1      1367 1.02294E-04-3.06759E-05-3.06975E-05 1.22710E-06-1.21483E-19-2.04664E-18
 -1      1368 1.03439E-04-3.10386E-05-3.10311E-05 1.23145E-06-1.25440E-19-2.13742E-18
 -1      1369 1.01220E-04-3.03482E-05-3.03779E-05 2.36299E-06-1.71744E-19-1.45512E-18
 -1      1370 1.04339E-04-3.13160E-05-3.12998E-05 1.18821E-06-1.89578E-19-2.05048E-18
 -1      1371 1.05429E-04-3.16692E-05-3.16142E-05 1.17043E-06-2.53102E-19-2.23867E-18
 -1      1372 1.03008E-04-3.09264E-05-3.08916E-05 2.35528E-06-7.54604E-20-1.51876E-18
 -1      1373 1.06247E-04-3.19326E-05-3.18508E-05 1.00436E-06-4.23781E-20-2.31581E-18
 -1      1374 1.07133E-04-3.22314E-05-3.21024E-05 9.50379E-07-1.28938E-19-2.56953E-18
 -1      1375 1.04728E-04-3.15139E-05-3.13689E-05 2.11434E-06-1.79887E-19-1.52996E-18
 -1      1376 1.07748E-04-3.24470E-05-3.22691E-05 6.09382E-07 3.42453E-21-2.33508E-18
 -1      1377 1.08221E-04-3.26231E-05-3.23971E-05 5.04898E-07-1.36084E-19-2.37745E-18
 -1      1378 1.06189E-04-3.20554E-05-3.17507E-05 1.51834E-06 2.96197E-20-1.35061E-18
 -1      1379 1.08482E-04-3.27430E-05-3.24481E-05-4.50141E-08-3.26687E-19-2.57921E-18
 -1      1380 1.08290E-04-3.27100E-05-3.23833E-05-2.07275E-07-2.33602E-19-2.90054E-18
 -1      1381 1.07124E-04-3.24605E-05-3.19619E-05 4.60757E-07-4.39557E-19-1.24335E-18
 -1      1382 1.08036E-04-3.26761E-05-3.22760E-05-9.44930E-07 2.65360E-20-3.04958E-18
 -1      1383 1.06960E-04-3.23485E-05-3.19614E-05-1.15297E-06 2.23206E-20-3.26682E-18
 -1      1384 1.07218E-04-3.26012E-05-3.19257E-05-1.08083E-06-4.79116E-19-1.13293E-18
 -1      1385 1.06081E-04-3.21077E-05-3.16746E-05-1.95762E-06 1.14965E-19-3.88702E-18
 -1      1386 1.04049E-04-3.14431E-05-3.10991E-05-2.16674E-06-1.60645E-19-3.75050E-18
 -1      1387 1.06184E-04-3.23304E-05-3.15891E-05-2.94569E-06-1.91542E-19-2.09921E-18
 -1      1388 1.02568E-04-3.09786E-05-3.06555E-05-2.79726E-06 2.12443E-19-3.31939E-18
 -1      1389 9.98001E-05-3.00338E-05-2.98890E-05-2.92773E-06 4.03909E-19-2.86633E-18
 -1      1390 1.03904E-04-3.15406E-05-3.09589E-05-4.70513E-06 2.19544E-19-3.00912E-18
 -1      1391 9.79602E-05-2.94083E-05-2.93701E-05-3.07614E-06 4.33790E-19-2.84561E-18
 -1      1392 9.50390E-05-2.83791E-05-2.85762E-05-3.03988E-06-6.58684E-20-2.56386E-18
 -1      1393 1.00617E-04-3.02646E-05-3.01304E-05-5.69005E-06 3.92534E-19-2.69591E-18
 -1      1394 9.33146E-05-2.77595E-05-2.81124E-05-2.48724E-06-5.09722E-19-2.30851E-18
 -1      1395 9.10717E-05-2.69519E-05-2.75111E-05-2.24624E-06-3.83441E-19-3.23794E-18
 -1      1396 9.70323E-05-2.87726E-05-2.92889E-05-5.23758E-06-2.90463E-19-1.73118E-18
 -1      1397 9.00320E-05-2.65657E-05-2.72399E-05-1.05203E-06 2.19726E-19-2.62183E-18
 -1      1398 8.92196E-05-2.62698E-05-2.70237E-05-6.69018E-07 3.73422E-19-2.73930E-18
 -1      1399 9.42246E-05-2.75537E-05-2.86627E-05-3.12496E-06 2.14425E-19-1.37732E-18
 -1      1400 8.92557E-05-2.62829E-05-2.70332E-05 7.77495E-07 3.46139E-19-2.84887E-18
 -1      1401 9.01679E-05-2.66143E-05-2.72764E-05 1.15614E-06 4.16634E-19-2.15337E-18
 -1      1402 9.32000E-05-2.70986E-05-2.84407E-05 1.03496E-07 6.64166E-19-9.31015E-19
 -1      1403 9.12683E-05-2.70214E-05-2.75644E-05 2.32443E-06-1.20808E-19-2.65174E-18
 -1      1404 9.35806E-05-2.78523E-05-2.81850E-05 2.55555E-06-4.57186E-19-3.10244E-18
 -1      1405 9.43592E-05-2.76092E-05-2.86943E-05 3.29931E-06 1.51659E-19-2.15987E-18
 -1      1406 9.53392E-05-2.84816E-05-2.86597E-05 3.07188E-06-6.10698E-19-3.56363E-18
 -1      1407 9.82870E-05-2.95177E-05-2.94620E-05 3.09828E-06-6.82143E-19-4.28027E-18
 -1      1408 9.72612E-05-2.88629E-05-2.93452E-05 5.33448E-06-9.54980E-19-3.15383E-18
 -1      1409 1.00135E-04-3.01427E-05-2.99851E-05 2.92120E-06 1.89318E-19-4.25539E-18
 -1      1410 1.02895E-04-3.10817E-05-3.07508E-05 2.78526E-06 1.06114E-19-4.19218E-18
 -1      1411 1.00885E-04-3.03626E-05-3.02014E-05 5.70711E-06-5.12677E-19-3.45926E-18
 -1      1412 1.04370E-04-3.15411E-05-3.11945E-05 2.14459E-06-2.39383E-19-3.80101E-18
 -1      1413 1.06381E-04-3.21958E-05-3.17654E-05 1.93572E-06 2.99026E-19-3.52904E-18
 -1      1414 1.04171E-04-3.16271E-05-3.10356E-05 4.67551E-06-2.94476E-21-2.96651E-18
 -1      1415 1.07256E-04-3.24331E-05-3.20522E-05 1.13978E-06 2.81367E-19-3.59878E-18
 -1      1416 1.08320E-04-3.27547E-05-3.23644E-05 9.36133E-07 4.78177E-20-3.27062E-18
 -1      1417 1.06437E-04-3.24018E-05-3.16682E-05 2.91566E-06 2.88812E-19-3.21934E-18
 -1      1418 1.08585E-04-3.27905E-05-3.24754E-05 2.20219E-07 1.19412E-19-2.85128E-18
 -1      1419 1.08789E-04-3.28264E-05-3.25446E-05 6.45537E-08 3.52217E-19-2.50748E-18
 -1      1420 1.07476E-04-3.26662E-05-3.20103E-05 1.08860E-06-1.85077E-19-2.78208E-18
 -1      1421 1.08561E-04-3.27158E-05-3.25035E-05-4.56884E-07 2.51949E-19-3.19254E-18
 -1      1422 1.08136E-04-3.25534E-05-3.23894E-05-5.53996E-07 1.39569E-19-3.11849E-18
 -1      1423 1.07424E-04-3.25342E-05-3.20610E-05-3.91951E-07 1.20246E-19-2.25566E-18
 -1      1424 1.07579E-04-3.23549E-05-3.22405E-05-8.63845E-07-4.74868E-20-3.34934E-18
 -1      1425 1.06776E-04-3.20815E-05-3.20136E-05-9.10287E-07-1.33889E-19-3.64492E-18
 -1      1426 1.06578E-04-3.21545E-05-3.18773E-05-1.37777E-06 1.25566E-19-2.68813E-18
 -1      1427 1.06044E-04-3.18431E-05-3.18032E-05-1.04409E-06 5.22687E-20-3.61798E-18
 -1      1428 1.05076E-04-3.15270E-05-3.15246E-05-1.05418E-06 3.96044E-19-3.38480E-18
 -1      1429 1.05259E-04-3.16547E-05-3.15382E-05-1.89779E-06-5.93254E-21-3.56026E-18
 -1      1430 1.04289E-04-3.12824E-05-3.12911E-05-1.06409E-06-5.66018E-19-3.18206E-18
 -1      1431 1.03305E-04-3.09692E-05-3.10050E-05-1.05172E-06-7.18841E-19-3.84485E-18
 -1      1432 1.03733E-04-3.11250E-05-3.11195E-05-2.06029E-06 9.81169E-20-3.40539E-18
 -1      1433 1.02545E-04-3.07396E-05-3.07752E-05-9.86340E-07-5.98765E-19-3.75760E-18
 -1      1434 1.01636E-04-3.04554E-05-3.05091E-05-9.62296E-07-3.03998E-19-4.45326E-18
 -1      1435 1.02195E-04-3.06207E-05-3.06812E-05-1.98674E-06-6.36367E-19-3.02623E-18
 -1      1436 1.00950E-04-3.02522E-05-3.02995E-05-8.59008E-07 5.75687E-19-4.63375E-18
 -1      1437 1.00161E-04-3.00089E-05-3.00674E-05-8.30619E-07 4.87057E-19-3.95059E-18
 -1      1438 1.00766E-04-3.01710E-05-3.02636E-05-1.77981E-06 1.13512E-19-2.55115E-18
 -1      1439 9.95718E-05-2.98366E-05-2.98861E-05-7.14796E-07 3.51687E-19-2.53092E-18
 -1      1440 9.89182E-05-2.96373E-05-2.96930E-05-6.86534E-07 6.07804E-19-1.87987E-18
 -1      1441 9.95106E-05-2.97880E-05-2.98902E-05-1.51404E-06 9.05857E-19-2.51780E-18
 -1      1442 9.84306E-05-2.94961E-05-2.95424E-05-5.73633E-07 1.58013E-19-2.47939E-18
 -1      1443 9.79085E-05-2.93384E-05-2.93876E-05-5.47916E-07-3.30393E-19-2.86087E-18
 -1      1444 9.84532E-05-2.94731E-05-2.95716E-05-1.23778E-06 4.52595E-19-2.37232E-18
 -1      1445 9.75178E-05-2.92261E-05-2.92666E-05-4.46217E-07-1.90431E-19-2.74874E-18
 -1      1446 9.71137E-05-2.91052E-05-2.91464E-05-4.24111E-07-6.67545E-19-3.33621E-18
 -1      1447 9.75924E-05-2.92217E-05-2.93094E-05-9.79073E-07-3.22567E-19-3.05384E-18
 -1      1448 9.68094E-05-2.90182E-05-2.90520E-05-3.37133E-07-7.35719E-19-3.36524E-18
 -1      1449 9.65058E-05-2.89281E-05-2.89615E-05-3.18880E-07-6.77956E-19-4.29608E-18
 -1      1450 9.69117E-05-2.90260E-05-2.91004E-05-7.51823E-07-8.59286E-19-2.50062E-18
 -1      1451 9.62752E-05-2.88625E-05-2.88898E-05-2.47206E-07 5.75502E-19-3.77866E-18
 -1      1452 9.60542E-05-2.87975E-05-2.88237E-05-2.32579E-07 8.09486E-19-3.32796E-18
 -1      1453 9.63881E-05-2.88776E-05-2.89384E-05-5.60803E-07 3.57998E-19-2.25733E-18
 -1      1454 9.58844E-05-2.87493E-05-2.87710E-05-1.75125E-07 6.22084E-19-1.62984E-18
 -1      1455 9.57292E-05-2.87042E-05-2.87244E-05-1.63661E-07 9.12897E-19-2.85001E-19
 -1      1456 9.59960E-05-2.87680E-05-2.88163E-05-4.05344E-07 2.04964E-18-8.47662E-19
 -1      1457 9.56083E-05-2.86700E-05-2.86868E-05-1.18501E-07 6.85793E-19-1.15996E-19
 -1      1458 9.55048E-05-2.86402E-05-2.86557E-05-1.09633E-07 1.14313E-18 7.45206E-19
 -1      1459 9.57112E-05-2.86893E-05-2.87271E-05-2.81808E-07 1.40078E-18 7.15228E-19
 -1      1460 9.54224E-05-2.86169E-05-2.86302E-05-7.45187E-08 1.10849E-18 1.21978E-18
 -1      1461 9.53590E-05-2.85991E-05-2.86109E-05-6.76580E-08 6.11350E-19 2.45151E-18
 -1      1462 9.55117E-05-2.86349E-05-2.86642E-05-1.85188E-07 1.62608E-18 1.60937E-18
 -1      1463 9.53065E-05-2.85842E-05-2.85948E-05-4.03854E-08-5.82546E-19 1.25696E-18
 -1      1464 9.52743E-05-2.85756E-05-2.85849E-05-3.49817E-08-1.16638E-18-1.97704E-20
 -1      1465 9.53791E-05-2.85992E-05-2.86220E-05-1.10151E-07-1.99577E-19 1.17340E-18
 -1      1466 9.52445E-05-2.85672E-05-2.85758E-05-1.40191E-08-4.79929E-19 2.89497E-19
 -1      1467 9.52363E-05-2.85661E-05-2.85727E-05-9.72367E-09 5.81675E-19 7.15070E-19
 -1      1468 9.52979E-05-2.85779E-05-2.85958E-05-5.21362E-08-8.02891E-19 7.28918E-19
 -1      1469 9.52221E-05-2.85619E-05-2.85683E-05 4.85378E-09 1.19514E-19 2.12125E-19
 -1      1470 9.52311E-05-2.85679E-05-2.85689E-05 8.22795E-09-1.10674E-18 3.51259E-19
 -1      1471 9.52547E-05-2.85684E-05-2.85808E-05-9.49587E-09-2.78141E-20 6.15467E-19
 -1      1472 9.52311E-05-2.85746E-05-2.85645E-05 8.01344E-09-3.35322E-19-2.47553E-19
 -1      1473 9.52403E-05-2.85764E-05-2.85698E-05 1.23911E-08-4.64456E-19 1.36237E-19
 -1      1474 9.63630E-05-2.83008E-05-2.97054E-05 2.94600E-06 4.70368E-19 6.50553E-18
 -1      1475 1.02261E-04-2.93176E-05-3.20713E-05 4.40858E-06 4.00594E-19 7.17162E-18
 -1      1476 1.02120E-04-2.66697E-05-3.26385E-05 1.26701E-05 7.60318E-19 5.03233E-18
 -1      1477 9.19213E-05-2.73952E-05-2.77288E-05 1.10052E-06 4.32569E-19 5.51776E-18
 -1      1478 9.38142E-05-2.75351E-05-2.86258E-05 1.42305E-06 3.73621E-19 6.08038E-18
 -1      1479 9.63726E-05-2.79974E-05-2.94989E-05 4.76747E-06 7.49677E-19 4.22175E-18
 -1      1480 9.02136E-05-2.70058E-05-2.70692E-05 2.66638E-07 2.32338E-19 4.74029E-18
 -1      1481 9.07654E-05-2.70042E-05-2.73220E-05 4.32728E-07 2.49312E-19 5.15274E-18
 -1      1482 9.30394E-05-2.75740E-05-2.81002E-05 1.73698E-06 6.23840E-19 3.63360E-18
 -1      1483 8.98642E-05-2.69358E-05-2.69453E-05-1.45770E-07 3.07069E-19 4.15812E-18
 -1      1484 8.98160E-05-2.68467E-05-2.69470E-05-5.05926E-08 2.24442E-19 4.50762E-18
 -1      1485 9.16298E-05-2.73413E-05-2.75622E-05 3.65593E-07 4.11096E-19 3.12384E-18
 -1      1486 9.02324E-05-2.70565E-05-2.70595E-05-3.72062E-07 1.50519E-19 3.75019E-18
 -1      1487 8.98817E-05-2.69102E-05-2.69569E-05-3.12326E-07 1.64908E-19 3.97694E-18
 -1      1488 9.12940E-05-2.73142E-05-2.74276E-05-3.45762E-07 3.60479E-19 2.73524E-18
 -1      1489 9.10195E-05-2.72961E-05-2.72999E-05-5.10516E-07 1.30546E-20 3.68740E-18
 -1      1490 9.04973E-05-2.71128E-05-2.71449E-05-4.68984E-07-2.51413E-20 3.68507E-18
 -1      1491 9.15836E-05-2.74329E-05-2.75019E-05-7.54197E-07 2.69777E-20 2.58161E-18
 -1      1492 9.20833E-05-2.76152E-05-2.76224E-05-6.10476E-07 2.80193E-19 3.20918E-18
 -1      1493 9.14468E-05-2.74050E-05-2.74332E-05-5.77288E-07 2.06997E-19 3.53916E-18
 -1      1494 9.22656E-05-2.76508E-05-2.77011E-05-1.01855E-06 1.81510E-19 2.34892E-18
 -1      1495 9.33666E-05-2.79976E-05-2.80109E-05-7.01684E-07 9.81202E-20 2.93295E-18
 -1      1496 9.26340E-05-2.77620E-05-2.77926E-05-6.70054E-07 3.69700E-20 3.02628E-18
 -1      1497 9.32245E-05-2.79410E-05-2.79880E-05-1.22364E-06 2.34932E-19 1.69229E-18
 -1      1498 9.48657E-05-2.84423E-05-2.84650E-05-8.04742E-07 2.15835E-19 2.70260E-18
 -1      1499 9.40299E-05-2.81767E-05-2.82152E-05-7.69371E-07 1.81273E-19 2.85614E-18
 -1      1500 9.44140E-05-2.82928E-05-2.83480E-05-1.42233E-06 3.15906E-19 1.49883E-18
 -1      1501 9.66143E-05-2.89600E-05-2.89949E-05-9.35001E-07 1.67227E-19 2.66302E-18
 -1      1502 9.56500E-05-2.86544E-05-2.87062E-05-8.91427E-07 1.43777E-19 2.76493E-18
 -1      1503 9.58326E-05-2.87076E-05-2.87801E-05-1.65148E-06 2.88630E-19 1.31021E-18
 -1      1504 9.86727E-05-2.95693E-05-2.96185E-05-1.10356E-06-1.71680E-19 2.55103E-18
 -1      1505 9.75408E-05-2.92101E-05-2.92795E-05-1.04801E-06-1.86066E-20 2.48465E-18
 -1      1506 9.75089E-05-2.91954E-05-2.92923E-05-1.93775E-06 1.48434E-19 1.82412E-18
 -1      1507 1.01117E-04-3.02942E-05-3.03582E-05-1.31607E-06-1.39299E-19 2.90384E-18
 -1      1508 9.97702E-05-2.98652E-05-2.99553E-05-1.24584E-06-1.95087E-19 2.53106E-18
 -1      1509 9.94913E-05-2.97724E-05-2.98982E-05-2.29806E-06-3.09870E-19 1.96155E-18
 -1      1510 1.04023E-04-3.11596E-05-3.12354E-05-1.56882E-06 1.34086E-19 3.09918E-18
 -1      1511 1.02414E-04-3.06453E-05-3.07556E-05-1.48344E-06 2.86502E-20 3.00792E-18
 -1      1512 1.01836E-04-3.04588E-05-3.06129E-05-2.73539E-06-8.42699E-20 1.92805E-18
 -1      1513 1.07439E-04-3.21846E-05-3.22617E-05-1.84068E-06 2.28012E-19 2.01324E-18
 -1      1514 1.05538E-04-3.15748E-05-3.16978E-05-1.74440E-06 4.87841E-19 2.83650E-18
 -1      1515 1.04588E-04-3.12745E-05-3.14468E-05-3.22840E-06 5.28147E-19 1.58845E-18
 -1      1516 1.11337E-04-3.33688E-05-3.34231E-05-2.07941E-06-2.45664E-19 2.03329E-18
 -1      1517 1.09161E-04-3.26689E-05-3.27832E-05-1.98579E-06 7.12335E-20 2.23855E-18
 -1      1518 1.07758E-04-3.22337E-05-3.23953E-05-3.71251E-06 2.56383E-19 1.66166E-18
 -1      1519 1.15535E-04-3.46703E-05-3.46554E-05-2.18245E-06-5.30053E-20 1.72189E-18
 -1      1520 1.13195E-04-3.39176E-05-3.39779E-05-2.12124E-06-2.82918E-19 1.54752E-18
 -1      1521 1.11271E-04-3.33340E-05-3.34242E-05-4.05101E-06-1.10594E-19 1.32037E-18
 -1      1522 1.19591E-04-3.59705E-05-3.58126E-05-1.97910E-06 2.27839E-19 1.29023E-18
 -1      1523 1.17363E-04-3.52590E-05-3.51856E-05-2.00375E-06 2.37583E-19 1.73372E-18
 -1      1524 1.14910E-04-3.45378E-05-3.44498E-05-4.00198E-06 3.65687E-19 1.00176E-18
 -1      1525 1.22688E-04-3.70312E-05-3.66421E-05-1.23898E-06-4.61094E-19 1.88019E-18
 -1      1526 1.21081E-04-3.65378E-05-3.62191E-05-1.42697E-06-1.57998E-19 1.29417E-18
 -1      1527 1.18233E-04-3.57406E-05-3.53213E-05-3.20714E-06 1.06329E-19 1.02037E-18
 -1      1528 1.23625E-04-3.74658E-05-3.68025E-05 2.41665E-07-4.59191E-19 2.76227E-18
 -1      1529 1.23386E-04-3.74554E-05-3.67910E-05-1.86531E-07-3.50394E-19 2.21833E-18
 -1      1530 1.20520E-04-3.67235E-05-3.58231E-05-1.26719E-06-7.28091E-19 1.32575E-18
 -1      1531 1.21101E-04-3.67892E-05-3.59782E-05 2.41370E-06-1.14416E-19 3.15890E-18
 -1      1532 1.23017E-04-3.75501E-05-3.65669E-05 1.74283E-06-2.83597E-19 2.98375E-18
 -1      1533 1.20822E-04-3.71104E-05-3.57272E-05 1.99631E-06-5.21971E-19 1.25780E-18
 -1      1534 1.14498E-04-3.46642E-05-3.41116E-05 4.63663E-06 6.01354E-19 2.03521E-18
 -1      1535 1.18878E-04-3.63093E-05-3.53235E-05 3.90977E-06 5.44245E-19 2.99897E-18
 -1      1536 1.18271E-04-3.64072E-05-3.49184E-05 6.03965E-06 2.51754E-19 1.29112E-18
 -1      1537 1.05056E-04-3.13878E-05-3.16445E-05 5.59734E-06 7.71048E-19 5.41572E-19
 -1      1538 1.11009E-04-3.35611E-05-3.31878E-05 5.21930E-06 4.25430E-19 1.63573E-18
 -1      1539 1.12784E-04-3.42923E-05-3.35475E-05 9.15817E-06 1.16082E-18 1.55086E-18
 -1      1540 9.64230E-05-2.82595E-05-2.95082E-05 4.05037E-06-1.54557E-19 4.55915E-19
 -1      1541 1.01615E-04-3.00318E-05-3.07929E-05 4.40248E-06 7.96740E-20 8.39621E-20
 -1      1542 1.05922E-04-3.12084E-05-3.20867E-05 8.95716E-06 5.26325E-19 6.16587E-19
 -1      1543 9.30563E-05-2.70338E-05-2.86821E-05 2.43527E-07-3.43551E-19 6.41012E-19
 -1      1544 9.48270E-05-2.74038E-05-2.91096E-05 1.26117E-06-3.80688E-19-2.48287E-20
 -1      1545 1.00866E-04-2.86813E-05-3.11441E-05 4.31603E-06-2.26449E-19-3.88841E-19
 -1      1546 9.69749E-05-2.85260E-05-2.95829E-05-3.73243E-06-2.10858E-19 1.18209E-18
 -1      1547 9.42902E-05-2.72391E-05-2.89334E-05-2.63970E-06-6.59098E-20 8.56483E-19
 -1      1548 1.00532E-04-2.83930E-05-3.11418E-05-2.78677E-06-4.18884E-19-6.73656E-20
 -1      1549 1.05925E-04-3.17769E-05-3.17669E-05-5.59514E-06 4.48789E-19 4.86620E-19
 -1      1550 1.00294E-04-2.96018E-05-3.03636E-05-5.03320E-06 9.96984E-20 9.09766E-19
 -1      1551 1.05146E-04-3.06185E-05-3.20716E-05-8.27742E-06 2.10752E-19-5.40989E-19
 -1      1552 1.15358E-04-3.50030E-05-3.42514E-05-4.86930E-06 3.41827E-19-3.03555E-19
 -1      1553 1.09542E-04-3.30228E-05-3.27244E-05-4.95778E-06 7.89190E-19 7.87741E-19
 -1      1554 1.12003E-04-3.38339E-05-3.35285E-05-9.49815E-06 8.20163E-19-9.62176E-20
 -1      1555 1.21755E-04-3.70066E-05-3.60989E-05-2.70109E-06-5.86008E-19-3.97894E-19
 -1      1556 1.17831E-04-3.58610E-05-3.50034E-05-3.15292E-06-7.09814E-19-8.18446E-19
 -1      1557 1.17827E-04-3.62792E-05-3.49160E-05-6.97584E-06-3.97960E-19 6.61586E-19
 -1      1558 1.24055E-04-3.75794E-05-3.69007E-05-4.75686E-07 1.81834E-19-6.22543E-19
 -1      1559 1.22614E-04-3.73152E-05-3.64451E-05-9.63881E-07 4.65471E-20-2.45216E-19
 -1      1560 1.20817E-04-3.72448E-05-3.57665E-05-2.99498E-06-4.89029E-20-6.81464E-19
 -1      1561 1.22990E-04-3.70931E-05-3.67356E-05 1.08223E-06 2.04678E-19-9.36421E-19
 -1      1562 1.23553E-04-3.74426E-05-3.68421E-05 7.28068E-07 5.27086E-19-9.19051E-19
 -1      1563 1.20897E-04-3.69820E-05-3.59217E-05 5.06446E-07 6.89498E-19-1.42204E-18
 -1      1564 1.19894E-04-3.60324E-05-3.59247E-05 1.87755E-06-6.97548E-19-9.50067E-19
 -1      1565 1.21638E-04-3.66892E-05-3.63893E-05 1.68343E-06-3.03364E-19-1.65292E-18
 -1      1566 1.18888E-04-3.60341E-05-3.54825E-05 2.73665E-06 6.67700E-21-5.79000E-19
 -1      1567 1.15947E-04-3.47699E-05-3.48068E-05 2.10538E-06-2.36404E-19 5.80601E-19
 -1      1568 1.18163E-04-3.55118E-05-3.54305E-05 2.03264E-06-7.96149E-19-1.01956E-18
 -1      1569 1.15762E-04-3.48362E-05-3.46688E-05 3.74708E-06-1.05144E-18-1.42448E-18
 -1      1570 1.11937E-04-3.35311E-05-3.36312E-05 2.00099E-06 6.04561E-19-2.85013E-19
 -1      1571 1.14164E-04-3.42328E-05-3.42748E-05 2.00144E-06 6.54871E-19 7.90096E-19
 -1      1572 1.12278E-04-3.36394E-05-3.36968E-05 3.90972E-06-1.19941E-23-2.13595E-18
 -1      1573 1.08293E-04-3.24273E-05-3.25429E-05 1.74238E-06 3.69811E-19-2.46844E-18
 -1      1574 1.10292E-04-3.30335E-05-3.31294E-05 1.77920E-06 6.01258E-19-1.24904E-18
 -1      1575 1.08917E-04-3.25619E-05-3.27227E-05 3.59929E-06 1.01800E-18-2.69182E-18
 -1      1576 1.05191E-04-3.14990E-05-3.16068E-05 1.43833E-06 8.93817E-19-4.73262E-18
 -1      1577 1.06871E-04-3.19952E-05-3.21044E-05 1.48867E-06 5.86737E-19-3.16941E-18
 -1      1578 1.05928E-04-3.16457E-05-3.18367E-05 3.08424E-06 9.84067E-19-3.69029E-18
 -1      1579 1.02660E-04-3.07474E-05-3.08389E-05 1.14564E-06 1.28359E-19-5.42311E-18
 -1      1580 1.04014E-04-3.11394E-05-3.12421E-05 1.19714E-06 3.70923E-19-5.17484E-18
 -1      1581 1.03405E-04-3.08946E-05-3.10781E-05 2.52434E-06 9.59252E-19-4.59829E-18
 -1      1582 1.00656E-04-3.01554E-05-3.02293E-05 8.88927E-07-1.02947E-18-3.55726E-18
 -1      1583 1.01716E-04-3.04574E-05-3.05458E-05 9.35811E-07-9.58486E-19-4.92360E-18
 -1      1584 1.01349E-04-3.02946E-05-3.04548E-05 2.00105E-06-1.21319E-18-4.04425E-18
 -1      1585 9.91077E-05-2.96994E-05-2.97571E-05 6.75322E-07 1.08137E-19-4.45719E-18
 -1      1586 9.99172E-05-2.99271E-05-2.99996E-05 7.15449E-07 3.89164E-19-3.55021E-18
 -1      1587 9.97199E-05-2.98251E-05-2.99577E-05 1.54817E-06 1.17208E-19-3.71458E-18
 -1      1588 9.79341E-05-2.93547E-05-2.93988E-05 5.03409E-07-3.00875E-19-3.94441E-18
 -1      1589 9.85406E-05-2.95232E-05-2.95809E-05 5.36495E-07-2.05300E-19-4.03559E-18
 -1      1590 9.84559E-05-2.94643E-05-2.95704E-05 1.17373E-06-3.14830E-19-2.61778E-18
 -1      1591 9.70611E-05-2.90988E-05-2.91320E-05 3.68214E-07-1.57197E-18-7.97026E-19
 -1      1592 9.75070E-05-2.92213E-05-2.92661E-05 3.94824E-07-1.38045E-18-3.02456E-18
 -1      1593 9.74940E-05-2.91917E-05-2.92748E-05 8.73273E-07-2.08858E-18-7.33765E-19
 -1      1594 9.64242E-05-2.89126E-05-2.89372E-05 2.63721E-07 8.04192E-19 8.72479E-20
 -1      1595 9.67455E-05-2.89996E-05-2.90340E-05 2.84747E-07-3.37240E-19-2.82980E-19
 -1      1596 9.67753E-05-2.89893E-05-2.90532E-05 6.37302E-07-7.88512E-19-5.78928E-19
 -1      1597 9.59699E-05-2.87800E-05-2.87981E-05 1.84044E-07-4.42504E-19-5.21136E-19
 -1      1598 9.61957E-05-2.88402E-05-2.88663E-05 2.00452E-07 2.76930E-19 3.23352E-20
 -1      1599 9.62487E-05-2.88419E-05-2.88904E-05 4.54971E-07 9.94073E-20-8.17832E-19
 -1      1600 9.56549E-05-2.86884E-05-2.87016E-05 1.23883E-07 1.25984E-18-2.02707E-18
 -1      1601 9.58086E-05-2.87285E-05-2.87481E-05 1.36604E-07 4.99844E-19-8.96932E-19
 -1      1602 9.58714E-05-2.87370E-05-2.87734E-05 3.15845E-07 6.93217E-19-1.10903E-18
 -1      1603 9.54455E-05-2.86276E-05-2.86373E-05 7.86442E-08 5.43395E-19-2.61877E-18
 -1      1604 9.55450E-05-2.86527E-05-2.86675E-05 8.85410E-08 7.92547E-19-2.17985E-18
 -1      1605 9.56088E-05-2.86645E-05-2.86918E-05 2.10573E-07 1.63580E-18-6.78127E-19
 -1      1606 9.53159E-05-2.85902E-05-2.85975E-05 4.44731E-08 2.77615E-19-3.54600E-18
 -1      1607 9.53746E-05-2.86040E-05-2.86154E-05 5.23184E-08 8.66730E-19-2.63453E-18
 -1      1608 9.54336E-05-2.86164E-05-2.86371E-05 1.31103E-07 8.14650E-19-4.34203E-19
 -1      1609 9.52468E-05-2.85705E-05-2.85762E-05 1.84128E-08-1.34672E-18-1.17069E-18
 -1      1610 9.52744E-05-2.85756E-05-2.85848E-05 2.48508E-08-7.93858E-19-3.43411E-18
 -1      1611 9.53243E-05-2.85869E-05-2.86029E-05 7.08973E-08-6.22976E-19 9.65816E-19
 -1      1612 9.52226E-05-2.85644E-05-2.85680E-05-1.32525E-09 4.79286E-19-1.48890E-18
 -1      1613 9.52268E-05-2.85628E-05-2.85700E-05 4.23205E-09-1.36552E-19-1.62220E-18
 -1      1614 9.52641E-05-2.85712E-05-2.85836E-05 2.55211E-08-9.68885E-19 8.15879E-19
 -1      1615 9.52281E-05-2.85690E-05-2.85667E-05-1.20121E-08-3.81543E-20-2.36237E-18
 -1      1616 9.52174E-05-2.85629E-05-2.85655E-05-8.58074E-09 6.12213E-19-1.83888E-18
 -1      1617 9.52391E-05-2.85678E-05-2.85738E-05-6.20369E-09 1.06490E-18-5.13756E-19
 -1      1618 9.52319E-05-2.85756E-05-2.85644E-05-7.83503E-09-1.26980E-18-1.33594E-18
 -1      1619 9.52465E-05-2.85876E-05-2.85685E-05-4.49341E-09 4.51149E-19 2.33962E-18
 -1      1620 9.52422E-05-2.85802E-05-2.85686E-05-7.11558E-09-7.15328E-19 7.25813E-19
 -1      1621 9.52416E-05-2.85679E-05-2.85751E-05 1.39585E-08 3.53808E-18 1.47604E-18
 -1      1622 9.52438E-05-2.85762E-05-2.85721E-05 9.77530E-09 1.66517E-18 1.73112E-18
 -1      1623 9.52423E-05-2.85583E-05-2.85796E-05 8.50684E-09 8.31486E-19 3.26682E-18
 -1      1624 9.52258E-05-2.85207E-05-2.85884E-05 3.15480E-08 6.25677E-18 2.14908E-18
 -1      1625 9.52342E-05-2.85458E-05-2.85812E-05 2.82531E-08 3.54410E-18 1.02775E-18
 -1      1626 9.52317E-05-2.85234E-05-2.85903E-05 4.31832E-08 2.62632E-18 2.28700E-18
 -1      1627 9.52034E-05-2.84546E-05-2.86069E-05 4.17350E-08 6.64607E-18-7.50126E-19
 -1      1628 9.52154E-05-2.84904E-05-2.85968E-05 4.03503E-08 6.15566E-18 1.91107E-18
 -1      1629 9.52122E-05-2.84691E-05-2.86048E-05 7.09704E-08 2.65596E-18 1.76381E-18
 -1      1630 9.51798E-05-2.83849E-05-2.86265E-05 4.23142E-08 5.69541E-18-6.69577E-19
 -1      1631 9.51923E-05-2.84220E-05-2.86160E-05 4.29354E-08 6.53032E-18-1.64890E-18
 -1      1632 9.51883E-05-2.84045E-05-2.86216E-05 8.26953E-08 3.68970E-18-2.04627E-18
 -1      1633 9.51594E-05-2.83241E-05-2.86437E-05 3.36556E-08 5.74878E-18-6.93959E-19
 -1      1634 9.51699E-05-2.83553E-05-2.86349E-05 3.60449E-08 5.83965E-18 8.42109E-20
 -1      1635 9.51649E-05-2.83410E-05-2.86382E-05 7.62385E-08 3.59559E-18-5.60770E-19
 -1      1636 9.51467E-05-2.82860E-05-2.86546E-05 1.79102E-08 4.43514E-18-9.07475E-19
 -1      1637 9.51526E-05-2.83037E-05-2.86495E-05 2.14695E-08 5.76269E-18-1.05389E-18
 -1      1638 9.51461E-05-2.82900E-05-2.86515E-05 5.35207E-08 2.38337E-18-1.70357E-18
 -1      1639 9.51441E-05-2.82780E-05-2.86568E-05-1.45618E-09 3.55929E-18-3.84246E-19
 -1      1640 9.51442E-05-2.82786E-05-2.86567E-05 2.51235E-09 3.43756E-18 2.66466E-19
 -1      1641 9.51358E-05-2.82617E-05-2.86590E-05 1.97816E-08 2.59443E-18-1.82704E-18
 -1      1642 9.51520E-05-2.83016E-05-2.86501E-05-2.04301E-08 9.74394E-19-1.33700E-18
 -1      1643 9.51464E-05-2.82850E-05-2.86549E-05-1.68677E-08 2.95248E-18-8.82855E-19
 -1      1644 9.51357E-05-2.82613E-05-2.86591E-05-1.78466E-08 1.83145E-18-1.55012E-18
 -1      1645 9.51688E-05-2.83518E-05-2.86359E-05-3.50952E-08-2.18135E-18-2.54794E-18
 -1      1646 9.51587E-05-2.83216E-05-2.86445E-05-3.26932E-08 4.46875E-19-2.63017E-18
 -1      1647 9.51457E-05-2.82888E-05-2.86519E-05-5.16674E-08 8.16806E-19-2.96901E-18
 -1      1648 9.51906E-05-2.84169E-05-2.86174E-05-4.22134E-08-3.92720E-18-7.86964E-19
 -1      1649 9.51784E-05-2.83805E-05-2.86278E-05-4.15143E-08-2.13167E-18-2.14657E-18
 -1      1650 9.51640E-05-2.83385E-05-2.86389E-05-7.45770E-08-1.04818E-20-3.44078E-18
 -1      1651 9.52137E-05-2.84853E-05-2.85982E-05-4.01392E-08-1.99076E-18 3.43625E-19
 -1      1652 9.52018E-05-2.84497E-05-2.86083E-05-4.14105E-08-3.68244E-18 2.01784E-18
 -1      1653 9.51870E-05-2.84012E-05-2.86225E-05-8.17295E-08 6.35287E-19 1.18055E-18
 -1      1654 9.52325E-05-2.85412E-05-2.85825E-05-2.86831E-08-1.47544E-18 3.49756E-19
 -1      1655 9.52240E-05-2.85156E-05-2.85899E-05-3.18211E-08-2.11405E-18 3.77041E-19
 -1      1656 9.52110E-05-2.84661E-05-2.86055E-05-7.10490E-08 8.37831E-19 1.12645E-18
 -1      1657 9.52436E-05-2.85732E-05-2.85732E-05-1.15260E-08-1.35511E-18 7.97897E-19
 -1      1658 9.52397E-05-2.85632E-05-2.85764E-05-1.58078E-08-2.25450E-18-1.81962E-19
 -1      1659 9.52297E-05-2.85198E-05-2.85910E-05-4.44941E-08 2.49855E-19-7.35607E-19
 -1      1660 9.52432E-05-2.85741E-05-2.85718E-05 2.65159E-09-6.47193E-19 2.69594E-19
 -1      1661 9.52460E-05-2.85782E-05-2.85725E-05-1.00752E-09-1.21753E-18 6.33200E-19
 -1      1662 9.52442E-05-2.85477E-05-2.85839E-05-1.88081E-08-9.08440E-19 9.46658E-19
 -1      1663 9.52465E-05-2.85593E-05-2.85793E-05-7.54863E-10-1.81819E-18 1.46272E-19
 -1      1664 2.07563E-05-6.88643E-05 1.44038E-05-7.79654E-06 5.35537E-18 2.28233E-18
 -1      1665 2.36802E-05-7.66720E-05 1.60939E-05 9.20333E-07 3.90514E-18 8.20351E-19
 -1      1666 1.92251E-05-4.07228E-05 4.67725E-06 8.43243E-07 5.08050E-18 1.65849E-18
 -1      1667 2.41272E-05-6.36256E-05 1.06235E-05-2.26444E-06 5.69757E-18 9.83776E-19
 -1      1668 3.43812E-05-1.42541E-05-1.08617E-05 2.56075E-05 6.99819E-18 7.29380E-18
 -1      1669 2.90411E-05-3.48632E-05-2.38910E-06 8.58490E-06 5.34901E-18 4.51299E-18
 -1      1670 7.16071E-05-2.77177E-06-2.92188E-05 5.60829E-05 7.95195E-18 8.65159E-18
 -1      1671 4.85563E-05-9.64551E-06-1.95315E-05 3.34646E-05 8.20097E-18 7.24128E-18
 -1      1672 1.39750E-04-1.91303E-05-4.88090E-05 7.32129E-05 5.61837E-18 6.49335E-18
 -1      1673 9.73490E-05-7.47665E-06-3.87020E-05 5.94306E-05 7.61483E-18 7.75459E-18
 -1      1674 2.05929E-04-4.39493E-05-6.44222E-05 5.86237E-05 3.40084E-18 4.66630E-18
 -1      1675 1.63429E-04-2.46364E-05-5.69370E-05 6.60774E-05 4.68367E-18 6.43237E-18
 -1      1676 2.51911E-04-6.30047E-05-7.41827E-05 2.54240E-05 1.36753E-18 3.43133E-18
 -1      1677 2.25432E-04-4.86044E-05-7.04257E-05 5.41797E-05 2.03330E-18 4.79675E-18
 -1      1678 2.50141E-04-6.08667E-05-7.46573E-05-2.56807E-05 1.12994E-18 7.43695E-19
 -1      1679 2.55366E-04-6.39037E-05-7.54323E-05 9.72569E-06 1.05540E-18 2.71516E-18
 -1      1680 2.10741E-04-4.17335E-05-6.72936E-05-6.55564E-05 3.05985E-18-3.46352E-18
 -1      1681 2.44124E-04-5.97523E-05-7.22792E-05-4.24033E-05 2.01086E-18-3.23143E-19
 -1      1682 1.42012E-04-1.47523E-05-5.22347E-05-7.43266E-05 4.61125E-18-6.38324E-18
 -1      1683 1.89084E-04-3.49048E-05-6.08119E-05-7.43194E-05 3.15477E-18-4.86028E-18
 -1      1684 7.82206E-05-5.02592E-06-3.22823E-05-5.26115E-05 6.72968E-18-6.74323E-18
 -1      1685 1.16345E-04-1.05166E-05-4.28769E-05-7.25480E-05 5.71747E-18-7.04731E-18
 -1      1686 3.95376E-05-1.88650E-05-1.24824E-05-2.26408E-05 4.84672E-18-4.80861E-18
 -1      1687 5.59934E-05-5.22671E-06-2.23784E-05-4.54964E-05 6.21892E-18-6.99734E-18
 -1      1688 2.57868E-05-4.64778E-05 3.35765E-06-2.39550E-06 3.15943E-18-2.49748E-18
 -1      1689 2.56962E-05-2.37168E-05-4.12503E-06-1.42707E-05 4.74423E-18-4.14284E-18
 -1      1690 2.39575E-05-7.07096E-05 1.34474E-05 2.77173E-06 2.55762E-18-8.84302E-19
 -1      1691 1.86118E-05-5.26623E-05 9.20450E-06 5.41862E-06 3.23736E-18-1.12258E-18
 -1      1692 2.21537E-05-7.31208E-05 1.56397E-05-3.19739E-06-1.65267E-18-1.60513E-18
 -1      1693 2.15063E-05-7.15378E-05 1.52919E-05 5.94223E-06 1.55134E-18-1.85966E-18
 -1      1694 1.91258E-05-5.70919E-05 1.07716E-05-4.81535E-06-5.00935E-18-2.43855E-18
 -1      1695 2.41029E-05-7.31271E-05 1.44375E-05 6.23074E-08-2.84942E-18-1.50941E-18
 -1      1696 2.16020E-05-2.71072E-05-1.21685E-06 9.84971E-06-6.67970E-18-4.10218E-18
 -1      1697 2.40548E-05-5.05469E-05 5.66804E-06 9.41389E-07-5.76745E-18-2.67133E-18
 -1      1698 4.29593E-05-4.49571E-06-1.75881E-05 3.82533E-05-7.57078E-18-6.67970E-18
 -1      1699 3.24606E-05-2.08197E-05-8.80918E-06 1.82628E-05-6.78812E-18-4.97378E-18
 -1      1700 8.87692E-05-1.87645E-06-3.57169E-05 6.68631E-05-6.80167E-18-7.01597E-18
 -1      1701 6.07074E-05-2.50867E-06-2.63564E-05 4.62918E-05-7.79016E-18-6.69580E-18
 -1      1702 1.50515E-04-1.89663E-05-5.24889E-05 7.86969E-05-4.71035E-18-4.90432E-18
 -1      1703 1.11263E-04-5.21639E-06-4.42195E-05 7.04175E-05-6.23501E-18-6.30785E-18
 -1      1704 2.11638E-04-4.49833E-05-6.58606E-05 6.31679E-05-2.63983E-18-2.29546E-18
 -1      1705 1.72523E-04-2.51990E-05-5.95453E-05 7.47494E-05-4.20933E-18-4.31648E-18
 -1      1706 2.46032E-04-6.10858E-05-7.31029E-05 1.97533E-05-1.39273E-18 5.24737E-19
 -1      1707 2.24783E-04-4.91969E-05-7.00395E-05 4.87143E-05-1.74849E-18-1.36245E-18
 -1      1708 2.47037E-04-6.07985E-05-7.36450E-05-2.74668E-05-1.16658E-18 2.22812E-18
 -1      1709 2.53167E-04-6.44152E-05-7.45173E-05 4.89944E-06-1.24471E-18 8.82688E-19
 -1      1710 2.06322E-04-4.04011E-05-6.63940E-05-6.27312E-05-2.13511E-18 4.60701E-18
 -1      1711 2.36428E-04-5.67442E-05-7.08835E-05-4.08430E-05-1.52932E-18 2.90532E-18
 -1      1712 1.46337E-04-1.52294E-05-5.35028E-05-7.60778E-05-3.43430E-18 4.92634E-18
 -1      1713 1.87752E-04-3.41316E-05-6.08561E-05-7.32798E-05-1.89630E-18 5.46421E-18
 -1      1714 8.80256E-05-1.48457E-06-3.69536E-05-6.19997E-05-7.28110E-18 6.06645E-18
 -1      1715 1.23402E-04-9.96140E-06-4.57056E-05-7.64082E-05-5.21264E-18 4.32156E-18
 -1      1716 4.64721E-05-7.59485E-06-1.91552E-05-3.44506E-05-1.07582E-17 6.90501E-18
 -1      1717 6.73885E-05-3.14990E-07-2.83117E-05-5.60919E-05-8.45339E-18 6.71189E-18
 -1      1718 2.70929E-05-3.23648E-05-2.40079E-06-9.35304E-06-8.70835E-18 6.43025E-18
 -1      1719 3.15332E-05-1.13000E-05-1.06972E-05-2.60351E-05-1.02220E-17 7.93839E-18
 -1      1720 2.40110E-05-6.00964E-05 9.65381E-06-4.47643E-07-3.90906E-18 3.78955E-18
 -1      1721 1.96868E-05-3.88892E-05 4.08594E-06-3.45413E-06-7.93924E-18 5.30963E-18
 -1      1722 2.31122E-05-7.36455E-05 1.54008E-05-3.01326E-06 1.89164E-18 2.15231E-18
 -1      1723 1.99634E-05-6.36876E-05 1.32059E-05 4.00857E-06-2.39244E-18 4.04204E-18
 -1      1724 1.14713E-04-3.38830E-05-3.37996E-05 4.37847E-05 4.48504E-18 4.63327E-18
 -1      1725 7.10806E-05-3.64708E-05-1.64101E-05 3.78562E-05 3.55415E-18 5.72637E-18
 -1      1726 9.52394E-05-2.85795E-05-2.85673E-05-1.38427E-08-1.86413E-18-5.59532E-19
 -1      1727 9.52395E-05-2.85679E-05-2.85730E-05-1.28925E-08 2.77203E-19 1.93408E-18
 -1      1728 1.80816E-05-4.90145E-05 8.83877E-06 1.19480E-05 2.79140E-18 1.37092E-18
 -1      1729 3.88947E-05-4.27831E-05-1.48715E-06 2.65109E-05 3.10776E-18 3.82340E-18
 -1      1730 1.14823E-05-4.94827E-05 1.17556E-05-2.50169E-06 9.76100E-19 3.63504E-18
 -1      1731 1.59211E-04-3.51275E-05-5.04458E-05 3.45568E-05 4.60024E-18 3.28818E-18
 -1      1732 1.92038E-04-3.40598E-05-6.35521E-05 2.20895E-05 3.28839E-18 3.18442E-18
 -1      1733 2.11203E-04-3.36999E-05-7.05383E-05 7.07976E-06 2.18619E-18 2.41531E-18
 -1      1734 2.09665E-04-3.45232E-05-6.95085E-05-1.50389E-05 2.57286E-18 8.83879E-19
 -1      1735 1.87450E-04-3.44565E-05-6.10796E-05-3.55276E-05 3.54536E-18-1.61868E-18
 -1      1736 1.45015E-04-3.27496E-05-4.59368E-05-4.38216E-05 3.87433E-18-2.81384E-18
 -1      1737 9.87177E-05-3.45924E-05-2.76545E-05-4.26959E-05 2.78674E-18-4.07296E-18
 -1      1738 5.79220E-05-3.89388E-05-1.03025E-05-3.41225E-05 1.96003E-18-3.57448E-18
 -1      1739 2.91748E-05-4.53433E-05 3.17269E-06-2.07874E-05 2.08624E-18-1.90752E-18
 -1      1740 1.39191E-05-4.89792E-05 1.05461E-05-6.71095E-06 4.69680E-19-2.26666E-18
 -1      1741 1.27908E-05-4.93069E-05 1.11702E-05 6.16410E-06-1.24810E-18-3.25134E-18
 -1      1742 2.45443E-05-4.58173E-05 5.15683E-06 1.89552E-05-2.86085E-18-3.09485E-18
 -1      1743 4.77275E-05-3.72029E-05-6.95484E-06 3.19470E-05-3.95818E-18-4.03442E-18
 -1      1744 8.17741E-05-3.04322E-05-2.25537E-05 4.28814E-05-4.26481E-18-4.16020E-18
 -1      1745 1.22674E-04-2.81133E-05-3.90130E-05 4.78642E-05-3.95141E-18-2.66222E-18
 -1      1746 1.63275E-04-2.97146E-05-5.38255E-05 4.34158E-05-3.97894E-18-1.24429E-18
 -1      1747 1.93475E-04-3.19746E-05-6.45756E-05 2.72403E-05-3.13360E-18-4.87044E-19
 -1      1748 2.08273E-04-3.30795E-05-6.97868E-05 5.03986E-06-2.19085E-18 9.95475E-19
 -1      1749 2.06005E-04-3.37782E-05-6.85172E-05-1.55209E-05-2.04601E-18 1.59708E-18
 -1      1750 1.82974E-04-3.13821E-05-6.06896E-05-3.49286E-05-2.00853E-18 2.76472E-18
 -1      1751 1.46735E-04-2.87430E-05-4.79656E-05-4.67148E-05-3.80466E-18 2.78589E-18
 -1      1752 1.05263E-04-2.84985E-05-3.23051E-05-4.68513E-05-6.52893E-18 2.60378E-18
 -1      1753 6.70615E-05-3.29633E-05-1.60185E-05-3.91733E-05-6.17318E-18 4.41050E-18
 -1      1754 3.72507E-05-4.05071E-05-1.76257E-06-2.74741E-05-4.72051E-18 5.77870E-18
 -1      1755 1.86359E-05-4.59586E-05 7.76283E-06-1.57970E-05-1.71439E-18 6.27376E-18
 -1      1756 1.05805E-04-2.31215E-05-3.55209E-05-1.67349E-05-8.19054E-19 2.52056E-18
 -1      1757 8.91868E-05-1.05561E-05-3.38226E-05-1.31139E-05-8.00085E-19-1.45356E-18
 -1      1758 9.04948E-05-1.16324E-05-3.39485E-05-1.48913E-05-9.80811E-19-1.11880E-18
 -1      1759 9.24994E-05-1.38863E-05-3.38507E-05-1.57994E-05-1.05135E-18-7.28554E-19
 -1      1760 9.41674E-05-1.58341E-05-3.40732E-05-1.74699E-05-1.18109E-18-2.33569E-19
 -1      1761 9.34712E-05-1.63625E-05-3.30562E-05-1.35195E-05-1.06244E-18-8.25354E-19
 -1      1762 8.62556E-05-7.58697E-06-3.37869E-05-7.65888E-06-3.17796E-19-1.74780E-18
 -1      1763 8.66669E-05-7.90120E-06-3.38163E-05-9.03350E-06-4.61514E-19-1.74351E-18
 -1      1764 8.56101E-05-6.90779E-06-3.37892E-05-5.16127E-06-6.97578E-20-1.81347E-18
 -1      1765 8.58571E-05-7.10059E-06-3.38024E-05-6.44164E-06-1.57548E-19-1.81397E-18
 -1      1766 8.76044E-05-9.72372E-06-3.34091E-05-6.71271E-06-2.64169E-19-1.72598E-18
 -1      1767 8.52496E-05-6.51719E-06-3.37947E-05-2.79374E-06 2.29712E-19-1.68382E-18
 -1      1768 8.53805E-05-6.62152E-06-3.37999E-05-4.00158E-06 7.92216E-20-1.73986E-18
 -1      1769 8.69324E-05-8.96139E-06-3.34472E-05-4.37814E-06 1.85950E-20-1.71288E-18
 -1      1770 8.51065E-05-6.35357E-06-3.37991E-05-4.98025E-07 5.12960E-19-1.58805E-18
 -1      1771 8.51455E-05-6.38544E-06-3.38002E-05-1.67168E-06 3.87487E-19-1.66762E-18
 -1      1772 8.65722E-05-8.54799E-06-3.34696E-05-2.13349E-06 3.05036E-19-1.57294E-18
 -1      1773 8.51573E-05-6.39474E-06-3.38011E-05 1.78645E-06 6.99623E-19-1.43951E-18
 -1      1774 8.51108E-05-6.35823E-06-3.37993E-05 6.11775E-07 6.21992E-19-1.51626E-18
 -1      1775 8.64646E-05-8.42244E-06-3.34771E-05 6.35304E-08 6.24729E-19-1.49657E-18
 -1      1776 8.54099E-05-6.64731E-06-3.38015E-05 4.12099E-06 8.93293E-19-1.29243E-18
 -1      1777 8.52706E-05-6.53667E-06-3.37957E-05 2.90997E-06 7.92097E-19-1.39984E-18
 -1      1778 8.65925E-05-8.56800E-06-3.34698E-05 2.26181E-06 7.97394E-19-1.36890E-18
 -1      1779 8.58967E-05-7.13696E-06-3.38039E-05 6.52680E-06 1.10064E-18-1.03088E-18
 -1      1780 8.56451E-05-6.94051E-06-3.37908E-05 5.26347E-06 9.81260E-19-1.17462E-18
 -1      1781 8.69712E-05-8.99959E-06-3.34473E-05 4.49015E-06 9.87762E-19-1.15898E-18
 -1      1782 8.67372E-05-7.97178E-06-3.38169E-05 9.15303E-06 1.40716E-18-6.14946E-19
 -1      1783 8.63063E-05-7.63884E-06-3.37876E-05 7.74675E-06 1.25709E-18-8.35929E-19
 -1      1784 8.76624E-05-9.78300E-06-3.34083E-05 6.80909E-06 1.26389E-18-7.81970E-19
 -1      1785 8.81574E-05-9.36321E-06-3.38568E-05 1.20205E-05 1.57530E-18-1.38463E-19
 -1      1786 8.74193E-05-8.79073E-06-3.37935E-05 1.04317E-05 1.47815E-18-4.53374E-19
 -1      1787 8.88172E-05-1.10758E-05-3.33477E-05 9.25152E-06 1.52239E-18-4.45539E-19
 -1      1788 9.06715E-05-1.18460E-05-3.39407E-05 1.50804E-05 1.60751E-18 7.76173E-19
 -1      1789 8.93140E-05-1.07382E-05-3.38157E-05 1.32855E-05 1.57367E-18 2.45640E-19
 -1      1790 9.07229E-05-1.31898E-05-3.32468E-05 1.17196E-05 1.62761E-18 1.12033E-19
 -1      1791 9.58226E-05-1.70374E-05-3.39674E-05 1.75010E-05 1.37265E-18 2.37307E-18
 -1      1792 9.28597E-05-1.43534E-05-3.38230E-05 1.59911E-05 1.43345E-18 1.40348E-18
 -1      1793 9.39926E-05-1.68827E-05-3.30358E-05 1.36643E-05 1.54602E-18 1.03772E-18
 -1      1794 1.01765E-04-2.50591E-05-3.33039E-05 1.42809E-05 9.82876E-19 4.04469E-18
 -1      1795 9.79813E-05-1.96096E-05-3.35875E-05 1.67962E-05 1.21813E-18 2.96504E-18
 -1      1796 9.72853E-05-2.18464E-05-3.24107E-05 1.30594E-05 1.28017E-18 2.27267E-18
 -1      1797 9.86322E-05-2.61050E-05-3.13022E-05 9.30013E-06 1.00781E-18 3.64600E-18
 -1      1798 1.00021E-04-1.95525E-05-3.41661E-05-1.87102E-05-1.09809E-18 8.35916E-19
 -1      1799 9.52796E-05-2.72682E-05-2.91778E-05 3.92168E-06 9.41252E-19 3.07536E-18
 -1      1800 9.76589E-05-2.73626E-05-3.01700E-05 6.26083E-06 8.59368E-19 3.33780E-18
 -1      1801 9.75305E-05-2.56000E-05-3.08201E-05 8.58719E-06 1.05556E-18 2.47805E-18
 -1      1802 9.97268E-05-2.25265E-05-3.28053E-05-1.42946E-05-1.11035E-18 4.62321E-19
 -1      1803 9.69444E-05-2.69610E-05-2.98774E-05-5.52238E-06-8.21331E-19 3.52245E-19
 -1      1804 9.51944E-05-2.70263E-05-2.91853E-05-3.70146E-06-6.70943E-19 1.26492E-19
 -1      1805 9.44236E-05-2.72336E-05-2.86981E-05-2.19393E-06-6.58753E-19 2.02507E-19
 -1      1806 9.37249E-05-2.73274E-05-2.84163E-05-1.31114E-06-6.01519E-19 7.39301E-20
 -1      1807 9.55962E-05-2.65340E-05-2.96203E-05-4.19449E-06-7.11481E-19-1.69648E-19
 -1      1808 9.32674E-05-2.73896E-05-2.81735E-05-4.35325E-07-5.18371E-19 1.20358E-19
 -1      1809 9.30639E-05-2.74731E-05-2.80820E-05 4.74420E-08-4.64694E-19-1.35095E-20
 -1      1810 9.45002E-05-2.72173E-05-2.88578E-05-1.45899E-06-6.24918E-19-2.10329E-19
 -1      1811 9.28790E-05-2.75176E-05-2.79798E-05 5.72367E-07-4.61527E-19 3.86409E-20
 -1      1812 9.29802E-05-2.76233E-05-2.79908E-05 8.57855E-07-4.90991E-19 1.29702E-21
 -1      1813 9.39532E-05-2.75406E-05-2.84812E-05 1.41912E-07-5.40953E-19-1.59679E-19
 -1      1814 9.29976E-05-2.76793E-05-2.79766E-05 1.19030E-06-5.25806E-19 6.74855E-20
 -1      1815 9.32909E-05-2.78064E-05-2.80502E-05 1.37490E-06-3.15833E-19-1.97520E-19
 -1      1816 9.38389E-05-2.77547E-05-2.83368E-05 1.12698E-06-4.89650E-19-5.85205E-20
 -1      1817 9.34549E-05-2.78791E-05-2.80949E-05 1.60448E-06-2.84686E-19-1.06203E-19
 -1      1818 9.38793E-05-2.80246E-05-2.82111E-05 1.73994E-06-2.96718E-19-1.51884E-19
 -1      1819 9.40494E-05-2.79435E-05-2.83428E-05 1.77571E-06-3.35040E-19-1.08451E-19
 -1      1820 9.41533E-05-2.81139E-05-2.82977E-05 1.91948E-06-2.33636E-19-1.02809E-19
 -1      1821 9.46775E-05-2.82769E-05-2.84460E-05 2.03572E-06-3.03318E-19-4.13946E-20
 -1      1822 9.45025E-05-2.81355E-05-2.84522E-05 2.24827E-06-2.35993E-19-8.86140E-20
 -1      1823 9.50400E-05-2.83836E-05-2.85644E-05 2.19651E-06-5.66139E-19-4.31722E-20
 -1      1824 9.56500E-05-2.85662E-05-2.87393E-05 2.31011E-06-4.90791E-19 6.92532E-20
 -1      1825 9.51459E-05-2.83443E-05-2.86368E-05 2.63987E-06-3.77096E-19-3.12706E-20
 -1      1826 9.60898E-05-2.86926E-05-2.88830E-05 2.46817E-06-5.50965E-19-1.19786E-19
 -1      1827 9.67805E-05-2.88992E-05-2.90817E-05 2.58509E-06-4.39179E-19-4.54002E-19
 -1      1828 9.59508E-05-2.85818E-05-2.88790E-05 3.00446E-06-7.36079E-19-3.77887E-20
 -1      1829 9.72929E-05-2.90500E-05-2.92461E-05 2.74286E-06-3.97729E-19-5.83330E-19
 -1      1830 9.80607E-05-2.92860E-05-2.94660E-05 2.85826E-06-1.62931E-19-9.01506E-19
 -1      1831 9.69044E-05-2.88631E-05-2.91666E-05 3.36367E-06-4.67692E-19-2.35600E-19
 -1      1832 9.86434E-05-2.94680E-05-2.96464E-05 3.00355E-06-1.82620E-19-1.23989E-18
 -1      1833 9.94794E-05-2.97389E-05-2.98830E-05 3.09996E-06-1.59729E-19-1.51099E-18
 -1      1834 9.80028E-05-2.92076E-05-2.94894E-05 3.70771E-06-5.40813E-19-7.63446E-19
 -1      1835 1.00129E-04-2.99600E-05-3.00727E-05 3.20339E-06 5.53894E-20-1.57032E-18
 -1      1836 1.01010E-04-3.02687E-05-3.03176E-05 3.24808E-06 7.45834E-20-1.27273E-18
 -1      1837 9.92434E-05-2.96399E-05-2.98353E-05 3.99166E-06-3.67835E-20-1.13426E-18
 -1      1838 1.01717E-04-3.05371E-05-3.05072E-05 3.26016E-06-7.18022E-20-1.18338E-18
 -1      1839 1.02599E-04-3.08801E-05-3.07451E-05 3.20328E-06-2.69926E-20-9.68368E-19
 -1      1840 1.00617E-04-3.01870E-05-3.01886E-05 4.12962E-06 7.92672E-20-6.55656E-19
 -1      1841 1.03343E-04-3.12001E-05-3.09212E-05 3.05365E-06 1.76893E-20-1.08432E-18
 -1      1842 1.04148E-04-3.15617E-05-3.11291E-05 2.83017E-06 9.55576E-20-8.31485E-19
 -1      1843 1.02097E-04-3.08719E-05-3.05277E-05 3.99068E-06-7.17033E-20-7.56626E-19
 -1      1844 1.04891E-04-3.19261E-05-3.12751E-05 2.43360E-06 8.87068E-21-7.00511E-19
 -1      1845 1.05506E-04-3.22685E-05-3.14220E-05 1.97452E-06-7.53727E-20-7.94063E-19
 -1      1846 1.03626E-04-3.16978E-05-3.08262E-05 3.40418E-06 1.58638E-19-6.87776E-19
 -1      1847 1.06177E-04-3.26454E-05-3.15204E-05 1.25155E-06-3.61375E-19-8.85027E-19
 -1      1848 1.06455E-04-3.28982E-05-3.15716E-05 5.11367E-07-4.13041E-19-9.63459E-19
 -1      1849 1.05094E-04-3.26176E-05-3.10560E-05 2.18746E-06-2.87801E-19-5.57608E-19
 -1      1850 1.06943E-04-3.32131E-05-3.16089E-05-5.67295E-07-2.10736E-19-8.00527E-19
 -1      1851 1.06727E-04-3.32681E-05-3.15351E-05-1.56238E-06-2.52647E-19-4.49611E-19
 -1      1852 1.06313E-04-3.34913E-05-3.11957E-05 2.14441E-07-2.43357E-19-4.71970E-19
 -1      1853 1.06879E-04-3.33943E-05-3.15089E-05-2.90556E-06-6.76511E-19-5.27789E-19
 -1      1854 1.06058E-04-3.31225E-05-3.13007E-05-3.99892E-06-4.36123E-19-9.99744E-19
 -1      1855 1.06998E-04-3.40457E-05-3.12407E-05-2.46072E-06-4.33737E-19-1.26826E-19
 -1      1856 1.05713E-04-3.29047E-05-3.12248E-05-5.32166E-06 4.30465E-20-1.16185E-18
 -1      1857 1.04301E-04-3.22178E-05-3.09070E-05-6.19439E-06 3.74048E-19-1.33979E-18
 -1      1858 1.06807E-04-3.38959E-05-3.12124E-05-5.44284E-06-5.02185E-19-3.21290E-19
 -1      1859 1.03396E-04-3.15620E-05-3.08094E-05-7.00997E-06 6.36128E-19-1.89799E-18
 -1      1860 1.01623E-04-3.05188E-05-3.04468E-05-7.24267E-06 7.53512E-20-1.52393E-18
 -1      1861 1.05483E-04-3.27042E-05-3.11549E-05-7.88941E-06 2.02007E-19-4.76751E-19
 -1      1862 1.00341E-04-2.95374E-05-3.03597E-05-7.02162E-06-1.32114E-19-1.02780E-18
 -1      1863 9.86692E-05-2.84285E-05-3.00439E-05-6.30084E-06 6.65913E-20-5.34339E-19
 -1      1864 1.03136E-04-3.04987E-05-3.11134E-05-8.64717E-06 2.90491E-19-6.13705E-19
 -1      1865 9.75055E-05-2.75107E-05-2.99896E-05-4.81529E-06 5.73600E-20-7.74962E-19
 -1      1866 9.64955E-05-2.67933E-05-2.98087E-05-3.20498E-06 4.30339E-19-6.03714E-19
 -1      1867 1.00488E-04-2.79538E-05-3.11077E-05-6.80553E-06 5.81012E-20-1.19501E-19
 -1      1868 9.60434E-05-2.64313E-05-2.97924E-05-8.45056E-07 3.32474E-19-1.28985E-18
 -1      1869 9.60782E-05-2.64541E-05-2.97993E-05 1.11650E-06 1.85308E-19-1.72860E-18
 -1      1870 9.87319E-05-2.62528E-05-3.11206E-05-2.49016E-06-1.29040E-20-1.63022E-18
 -1      1871 9.65893E-05-2.68573E-05-2.98209E-05 3.45100E-06-1.80306E-19-2.49078E-18
 -1      1872 9.76589E-05-2.76090E-05-3.00144E-05 5.02511E-06-6.02803E-19-2.84201E-18
 -1      1873 9.87936E-05-2.63053E-05-3.11230E-05 2.81207E-06-4.23894E-19-2.58101E-18
 -1      1874 9.88551E-05-2.85443E-05-3.00749E-05 6.45099E-06-5.87354E-19-2.57482E-18
 -1      1875 1.00560E-04-2.96635E-05-3.04000E-05 7.12261E-06-6.60969E-19-2.53379E-18
 -1      1876 1.00647E-04-2.80833E-05-3.11181E-05 7.02731E-06-4.63122E-19-2.94831E-18
 -1      1877 1.01846E-04-3.06386E-05-3.04933E-05 7.28473E-06-8.99282E-19-2.31336E-18
 -1      1878 1.03626E-04-3.16716E-05-3.08612E-05 7.01353E-06-4.13777E-19-2.59368E-18
 -1      1879 1.03331E-04-3.06404E-05-3.11350E-05 8.73405E-06-4.20070E-19-1.97203E-18
 -1      1880 1.04518E-04-3.23060E-05-3.09643E-05 6.16677E-06 1.52618E-19-2.50237E-18
 -1      1881 1.05925E-04-3.29745E-05-3.12846E-05 5.28217E-06 4.49166E-19-2.66778E-18
 -1      1882 1.05664E-04-3.28064E-05-3.11889E-05 7.87535E-06-1.92449E-19-1.87288E-18
 -1      1883 1.06259E-04-3.31737E-05-3.13662E-05 3.96366E-06 5.64799E-21-2.56674E-18
 -1      1884 1.07078E-04-3.34313E-05-3.15769E-05 2.88353E-06 1.00403E-19-2.63762E-18
 -1      1885 1.06959E-04-3.39404E-05-3.12598E-05 5.40223E-06 2.49425E-19-2.44929E-18
 -1      1886 1.06930E-04-3.32962E-05-3.16097E-05 1.57145E-06-2.37407E-19-2.45974E-18
 -1      1887 1.07157E-04-3.32370E-05-3.16888E-05 6.06956E-07-5.40711E-20-2.23517E-18
 -1      1888 1.07140E-04-3.40472E-05-3.13024E-05 2.46222E-06 2.45319E-19-1.83163E-18
 -1      1889 1.06690E-04-3.29237E-05-3.16607E-05-4.25329E-07-5.14473E-20-2.05216E-18
 -1      1890 1.06445E-04-3.26775E-05-3.16199E-05-1.12592E-06 2.17549E-19-1.75866E-18
 -1      1891 1.06478E-04-3.34762E-05-3.12744E-05-1.25082E-07 1.67160E-19-1.06934E-18
 -1      1892 1.05813E-04-3.23106E-05-3.15345E-05-1.79593E-06 2.38949E-19-1.55353E-18
 -1      1893 1.05256E-04-3.19845E-05-3.14046E-05-2.21184E-06 5.50571E-20-1.58970E-18
 -1      1894 1.05319E-04-3.26099E-05-3.11571E-05-1.98705E-06 4.23227E-19-4.86906E-19
 -1      1895 1.04569E-04-3.16357E-05-3.12763E-05-2.55307E-06-6.87972E-19-1.82413E-18
 -1      1896 1.03848E-04-3.12988E-05-3.10927E-05-2.73182E-06 2.52615E-19-1.66453E-18
 -1      1897 1.03945E-04-3.17140E-05-3.09570E-05-3.08348E-06-5.08181E-19-6.32308E-19
 -1      1898 1.03174E-04-3.09990E-05-3.09393E-05-2.82477E-06 4.04123E-19-2.78585E-18
 -1      1899 1.02403E-04-3.06886E-05-3.07333E-05-2.83560E-06-2.84997E-19-2.65087E-18
 -1      1900 1.02541E-04-3.09234E-05-3.06970E-05-3.54579E-06-7.20124E-19-2.19157E-18
 -1      1901 1.01781E-04-3.04443E-05-3.05716E-05-2.76553E-06 2.39027E-19-2.72430E-18
 -1      1902 1.01037E-04-3.01765E-05-3.03664E-05-2.67334E-06 1.56012E-19-1.92040E-18
 -1      1903 1.01216E-04-3.02823E-05-3.04054E-05-3.55776E-06 5.23677E-20-1.72467E-18
 -1      1904 1.00487E-04-2.99838E-05-3.02092E-05-2.51114E-06-4.04539E-19-1.41866E-18
 -1      1905 9.98159E-05-2.97625E-05-3.00196E-05-2.36629E-06 1.35707E-20-1.41967E-18
 -1      1906 1.00026E-04-2.97878E-05-3.01082E-05-3.29083E-06 7.24512E-19-1.49032E-18
 -1      1907 9.93439E-05-2.96133E-05-2.98756E-05-2.16341E-06 7.65461E-19-1.28880E-18
 -1      1908 9.87669E-05-2.94363E-05-2.97096E-05-2.00053E-06 7.65647E-19-1.13902E-18
 -1      1909 9.89961E-05-2.94179E-05-2.98253E-05-2.87899E-06 4.56846E-19-1.64018E-19
 -1      1910 9.83730E-05-2.93225E-05-2.95833E-05-1.79065E-06 3.20517E-19-1.64920E-18
 -1      1911 9.78949E-05-2.91845E-05-2.94437E-05-1.63114E-06 3.22931E-20-1.47379E-18
 -1      1912 9.81287E-05-2.91469E-05-2.95695E-05-2.41556E-06 3.58067E-19-1.03401E-18
 -1      1913 9.75738E-05-2.90988E-05-2.93370E-05-1.43417E-06 2.47423E-19-9.18937E-19
 -1      1914 9.71899E-05-2.89938E-05-2.92235E-05-1.28973E-06-4.43887E-19-7.87945E-19
 -1      1915 9.74162E-05-2.89513E-05-2.93475E-05-1.95941E-06 1.47296E-19-6.79429E-19
 -1      1916 9.69340E-05-2.89301E-05-2.91360E-05-1.11577E-06-8.97680E-19-2.63803E-20
 -1      1917 9.66342E-05-2.88521E-05-2.90464E-05-9.91554E-07-5.73666E-20 4.24807E-19
 -1      1918 9.68437E-05-2.88124E-05-2.91611E-05-1.54355E-06-3.36687E-19 7.33479E-19
 -1      1919 9.64344E-05-2.88054E-05-2.89766E-05-8.44332E-07 1.88973E-19-7.66072E-20
 -1      1920 9.62065E-05-2.87488E-05-2.89078E-05-7.41402E-07 9.66614E-19 1.15160E-18
 -1      1921 9.63935E-05-2.87153E-05-2.90091E-05-1.18328E-06 7.37531E-20 1.48638E-18
 -1      1922 9.60540E-05-2.87153E-05-2.88535E-05-6.20702E-07 2.10483E-18 2.49072E-20
 -1      1923 9.58856E-05-2.86753E-05-2.88021E-05-5.37753E-07 2.41824E-18 6.43466E-19
 -1      1924 9.60467E-05-2.86486E-05-2.88884E-05-8.82507E-07 8.95836E-19 2.27041E-18
 -1      1925 9.57717E-05-2.86517E-05-2.87610E-05-4.41180E-07 2.20060E-18 1.41334E-18
 -1      1926 9.56512E-05-2.86245E-05-2.87238E-05-3.75686E-07 2.12990E-18 3.00423E-18
 -1      1927 9.57855E-05-2.86039E-05-2.87949E-05-6.38372E-07 2.85453E-18 2.11056E-18
 -1      1928 9.55683E-05-2.86082E-05-2.86935E-05-2.99816E-07 1.52148E-18 2.93549E-18
 -1      1929 9.54856E-05-2.85907E-05-2.86676E-05-2.48778E-07 1.99474E-18 2.71829E-18
 -1      1930 9.55932E-05-2.85748E-05-2.87245E-05-4.44468E-07 2.05964E-18 3.13843E-18
 -1      1931 9.54268E-05-2.85798E-05-2.86460E-05-1.89978E-07-1.76036E-19 2.27552E-18
 -1      1932 9.53734E-05-2.85694E-05-2.86290E-05-1.50526E-07-1.41806E-18 1.31019E-18
 -1      1933 9.54555E-05-2.85566E-05-2.86727E-05-2.92983E-07 4.30608E-19 2.74280E-18
 -1      1934 9.53329E-05-2.85627E-05-2.86139E-05-1.05291E-07-9.83164E-19 1.19599E-18
 -1      1935 9.53020E-05-2.85582E-05-2.86035E-05-7.54305E-08-2.99161E-19 1.40574E-18
 -1      1936 9.53594E-05-2.85457E-05-2.86357E-05-1.76358E-07-1.29492E-18 2.17141E-18
 -1      1937 9.52771E-05-2.85560E-05-2.85935E-05-4.36373E-08-3.85444E-19 3.93775E-19
 -1      1938 9.52621E-05-2.85572E-05-2.85870E-05-2.37495E-08-1.47717E-18-6.78205E-20
 -1      1939 9.52620E-05-2.85520E-05-2.85908E-05-3.12574E-08-1.40898E-18 7.90415E-19
 -1      1940 9.52975E-05-2.85443E-05-2.86098E-05-9.02877E-08-1.62812E-18 4.59127E-19
 -1      1941 9.32958E-05-2.73685E-05-2.82252E-05 1.42118E-06 6.34620E-19 2.69039E-18
 -1      1942 9.44271E-05-2.74590E-05-2.86414E-05 2.51017E-06 7.62383E-19 2.92817E-18
 -1      1943 9.52756E-05-2.70418E-05-2.92493E-05 3.84669E-06 9.26839E-19 2.14247E-18
 -1      1944 9.24005E-05-2.73897E-05-2.78352E-05 9.58282E-08 5.15006E-19 2.28641E-18
 -1      1945 9.28102E-05-2.74011E-05-2.79808E-05 6.75420E-07 5.28459E-19 2.50937E-18
 -1      1946 9.37958E-05-2.73833E-05-2.84706E-05 1.31060E-06 7.07491E-19 2.03207E-18
 -1      1947 9.22411E-05-2.74779E-05-2.77373E-05-6.60228E-07 3.38411E-19 1.96483E-18
 -1      1948 9.22392E-05-2.74211E-05-2.77476E-05-3.20451E-07 4.14864E-19 2.12133E-18
 -1      1949 9.31349E-05-2.75302E-05-2.81279E-05-1.08053E-07 5.49390E-19 1.46043E-18
 -1      1950 9.25627E-05-2.76402E-05-2.78101E-05-1.12997E-06 6.97247E-20 1.59958E-18
 -1      1951 9.23123E-05-2.75355E-05-2.77433E-05-9.10393E-07 1.19789E-19 1.77463E-18
 -1      1952 9.30539E-05-2.76698E-05-2.80339E-05-9.53353E-07 2.83655E-19 1.05323E-18
 -1      1953 9.32150E-05-2.78630E-05-2.79960E-05-1.46256E-06 3.22964E-19 1.41124E-18
 -1      1954 9.27998E-05-2.77240E-05-2.78783E-05-1.30028E-06 1.85282E-19 1.57859E-18
 -1      1955 9.33742E-05-2.78416E-05-2.80963E-05-1.50633E-06 2.14200E-19 8.73920E-19
 -1      1956 9.41200E-05-2.81363E-05-2.82671E-05-1.74684E-06 2.96479E-19 1.05529E-18
 -1      1957 9.35788E-05-2.79694E-05-2.81102E-05-1.60344E-06 2.36373E-19 1.18255E-18
 -1      1958 9.39859E-05-2.80502E-05-2.82677E-05-1.92393E-06 3.73872E-19 5.11177E-19
 -1      1959 9.52487E-05-2.84586E-05-2.86122E-05-2.04229E-06 3.95870E-19 7.92204E-19
 -1      1960 9.45926E-05-2.82640E-05-2.84196E-05-1.89122E-06 4.38471E-19 9.93811E-19
 -1      1961 9.48311E-05-2.82952E-05-2.85240E-05-2.30392E-06 4.31982E-19 4.79210E-19
 -1      1962 9.66055E-05-2.88359E-05-2.90309E-05-2.39139E-06 5.77695E-20 1.12583E-18
 -1      1963 9.58273E-05-2.86091E-05-2.88009E-05-2.21286E-06 1.33600E-19 8.93291E-19
 -1      1964 9.58889E-05-2.85799E-05-2.88551E-05-2.71283E-06 2.87262E-19 7.52772E-19
 -1      1965 9.82184E-05-2.92813E-05-2.95300E-05-2.82348E-06-2.02787E-19 1.65705E-18
 -1      1966 9.72983E-05-2.90137E-05-2.92574E-05-2.60309E-06-4.35428E-21 1.42943E-18
 -1      1967 9.71650E-05-2.89134E-05-2.92595E-05-3.19715E-06-1.74021E-19 1.01355E-18
 -1      1968 1.00129E-04-2.98137E-05-3.01194E-05-3.35285E-06-1.18902E-19 1.75304E-18
 -1      1969 9.90402E-05-2.94941E-05-2.97975E-05-3.08268E-06-2.21185E-19 1.86494E-18
 -1      1970 9.86831E-05-2.93108E-05-2.97407E-05-3.78541E-06-3.59436E-19 1.32414E-18
 -1      1971 1.02379E-04-3.04580E-05-3.08080E-05-3.97027E-06 6.33329E-19 1.09307E-18
 -1      1972 1.01097E-04-3.00729E-05-3.04307E-05-3.65326E-06 1.55622E-19 1.36286E-18
 -1      1973 1.00477E-04-2.97954E-05-3.03031E-05-4.48293E-06 5.22768E-19 9.84514E-19
 -1      1974 1.04999E-04-3.12438E-05-3.15966E-05-4.62590E-06 5.01874E-19 9.74895E-19
 -1      1975 1.03509E-04-3.07794E-05-3.11626E-05-4.28460E-06 3.74160E-19 1.02622E-18
 -1      1976 1.02580E-04-3.04010E-05-3.09471E-05-5.25804E-06 5.02234E-19 4.42475E-19
 -1      1977 1.07976E-04-3.22039E-05-3.24682E-05-5.20088E-06 2.05943E-20 1.41169E-18
 -1      1978 1.06296E-04-3.16497E-05-3.19870E-05-4.89230E-06 2.23756E-19 1.28612E-18
 -1      1979 1.05019E-04-3.11755E-05-3.16624E-05-6.01706E-06 1.43238E-19 9.44506E-19
 -1      1980 1.11223E-04-3.33660E-05-3.33749E-05-5.46853E-06-4.01706E-19 1.13242E-18
 -1      1981 1.09427E-04-3.27225E-05-3.28749E-05-5.30486E-06-5.12602E-20 1.37120E-18
 -1      1982 1.07790E-04-3.21827E-05-3.24202E-05-6.56726E-06 1.93849E-19 1.05515E-18
 -1      1983 1.14525E-04-3.47302E-05-3.42243E-05-5.05930E-06 5.25124E-19 1.12203E-18
 -1      1984 1.12781E-04-3.40257E-05-3.37619E-05-5.22752E-06 3.29671E-19 1.11266E-18
 -1      1985 1.10840E-04-3.34931E-05-3.31656E-05-6.57473E-06 4.21803E-19 1.07948E-18
 -1      1986 1.17481E-04-3.62103E-05-3.48766E-05-3.47791E-06-9.49736E-20 7.60867E-19
 -1      1987 1.16079E-04-3.55325E-05-3.45398E-05-4.23278E-06 3.87041E-19 8.79220E-19
 -1      1988 1.14016E-04-3.51377E-05-3.38170E-05-5.54736E-06 3.99141E-19 6.39053E-19
 -1      1989 1.19457E-04-3.75229E-05-3.51694E-05-2.74205E-07-7.67273E-19 1.96220E-19
 -1      1990 1.18814E-04-3.70648E-05-3.50642E-05-1.85038E-06-5.05467E-19 3.37844E-19
 -1      1991 1.16988E-04-3.69904E-05-3.42824E-05-2.92079E-06-1.82053E-19-2.34668E-19
 -1      1992 1.19621E-04-3.80587E-05-3.49926E-05 4.51202E-06-2.21380E-19 1.05231E-19
 -1      1993 1.20193E-04-3.81480E-05-3.51966E-05 2.13100E-06-6.92516E-19-2.99208E-20
 -1      1994 1.19139E-04-3.85679E-05-3.45026E-05 1.62626E-06-6.69738E-19-7.47475E-19
 -1      1995 1.17183E-04-3.69241E-05-3.43961E-05 9.61389E-06 5.71423E-19 5.28099E-19
 -1      1996 1.19233E-04-3.79190E-05-3.48890E-05 7.07940E-06-7.15743E-20 4.62162E-19
 -1      1997 1.19516E-04-3.88457E-05-3.45162E-05 7.53010E-06-2.63440E-20-4.56643E-19
 -1      1998 1.12160E-04-3.36475E-05-3.36313E-05 1.22247E-05 1.59864E-18 1.09659E-18
 -1      1999 1.15373E-04-3.55517E-05-3.42529E-05 1.09441E-05 1.19483E-18 1.04280E-18
 -1      2000 1.17242E-04-3.66970E-05-3.44700E-05 1.25687E-05 8.19966E-19 4.16131E-19
 -1      2001 1.06394E-04-2.93930E-05-3.30387E-05 9.36714E-06 2.40425E-19-1.35234E-19
 -1      2002 1.09563E-04-3.13900E-05-3.35442E-05 1.07510E-05 9.74088E-19 8.20166E-19
 -1      2003 1.12652E-04-3.21774E-05-3.45125E-05 1.31621E-05 1.08485E-18 5.12323E-19
 -1      2004 1.03347E-04-2.70214E-05-3.28351E-05 1.23600E-06-4.15893E-19 1.21880E-19
 -1      2005 1.04816E-04-2.78205E-05-3.30175E-05 5.05809E-06-3.16684E-19 8.99973E-22
 -1      2006 1.08330E-04-2.77710E-05-3.46357E-05 7.05688E-06-1.25017E-19 4.77316E-19
 -1      2007 1.05413E-04-2.85983E-05-3.30599E-05-7.68631E-06 3.55833E-19-8.24534E-20
 -1      2008 1.04218E-04-2.75403E-05-3.28493E-05-3.65439E-06-2.54428E-19-1.03907E-19
 -1      2009 1.07533E-04-2.68564E-05-3.46890E-05-3.34555E-06-2.57683E-19 8.14708E-19
 -1      2010 1.11195E-04-3.28194E-05-3.36409E-05-1.21160E-05 5.25478E-19-1.25769E-18
 -1      2011 1.08033E-04-3.07221E-05-3.31163E-05-1.01775E-05 6.47054E-19-8.15375E-19
 -1      2012 1.10953E-04-3.02658E-05-3.46132E-05-1.16917E-05 9.11884E-19-1.10816E-18
 -1      2013 1.16952E-04-3.65849E-05-3.44091E-05-1.07351E-05 7.79886E-19-3.25181E-19
 -1      2014 1.13550E-04-3.47775E-05-3.37785E-05-1.12923E-05 5.17600E-19-1.49671E-18
 -1      2015 1.15858E-04-3.52086E-05-3.45546E-05-1.35636E-05 5.82041E-19-1.84750E-18
 -1      2016 1.20142E-04-3.82233E-05-3.50340E-05-5.96291E-06-7.48638E-19-6.17189E-19
 -1      2017 1.17873E-04-3.73838E-05-3.45496E-05-7.92598E-06-5.67512E-20-7.11375E-20
 -1      2018 1.19125E-04-3.84142E-05-3.45857E-05-9.81107E-06 1.07203E-19-1.93850E-18
 -1      2019 1.20390E-04-3.79426E-05-3.52745E-05-9.14695E-07 6.17335E-19-6.87513E-19
 -1      2020 1.19667E-04-3.79567E-05-3.50807E-05-3.00156E-06-2.27309E-19-3.16840E-19
 -1      2021 1.19655E-04-3.89684E-05-3.45993E-05-3.88526E-06-8.69797E-20-9.27478E-19
 -1      2022 1.18548E-04-3.66732E-05-3.50610E-05 2.71745E-06 4.15701E-19-2.43522E-21
 -1      2023 1.19108E-04-3.71703E-05-3.51682E-05 1.19795E-06 5.74950E-19-6.22080E-19
 -1      2024 1.18062E-04-3.77368E-05-3.44561E-05 1.29765E-06 5.78087E-19 1.00452E-18
 -1      2025 1.15618E-04-3.51534E-05-3.44818E-05 4.64398E-06-1.44591E-20-1.33170E-18
 -1      2026 1.16970E-04-3.58270E-05-3.48098E-05 3.81658E-06 4.70573E-19-6.44963E-19
 -1      2027 1.15359E-04-3.58926E-05-3.40833E-05 4.60618E-06 9.42854E-19-4.41933E-19
 -1      2028 1.12334E-04-3.37429E-05-3.36916E-05 5.25241E-06-3.71148E-19-3.81056E-18
 -1      2029 1.14034E-04-3.44217E-05-3.41359E-05 4.96726E-06-6.61635E-19-2.67089E-18
 -1      2030 1.12295E-04-3.41391E-05-3.35114E-05 6.12326E-06 2.32243E-19-2.63832E-18
 -1      2031 1.09140E-04-3.25569E-05-3.28341E-05 5.05558E-06 4.69976E-19-2.89120E-18
 -1      2032 1.10879E-04-3.31650E-05-3.33083E-05 5.10725E-06-4.26984E-19-3.90654E-18
 -1      2033 1.09291E-04-3.27170E-05-3.28250E-05 6.37856E-06-2.67540E-19-4.47682E-18
 -1      2034 1.06263E-04-3.16014E-05-3.20096E-05 4.46149E-06 7.19492E-19-3.34901E-18
 -1      2035 1.07866E-04-3.21145E-05-3.24578E-05 4.68378E-06 1.08646E-18-2.16065E-18
 -1      2036 1.06555E-04-3.16350E-05-3.21113E-05 5.91012E-06 6.32623E-19-3.66373E-18
 -1      2037 1.03797E-04-3.08466E-05-3.12735E-05 3.73151E-06 1.74775E-18-3.22294E-18
 -1      2038 1.05183E-04-3.12645E-05-3.16675E-05 4.01642E-06 1.02570E-18-2.83296E-18
 -1      2039 1.04174E-04-3.08279E-05-3.14346E-05 5.11250E-06 1.29135E-18-2.10043E-18
 -1      2040 1.01756E-04-3.02573E-05-3.06484E-05 3.00964E-06-5.64152E-19-3.32890E-18
 -1      2041 1.02903E-04-3.05895E-05-3.09783E-05 3.29665E-06 1.07064E-18-3.05876E-18
 -1      2042 1.02166E-04-3.02259E-05-3.08319E-05 4.22866E-06 1.15598E-18-9.36817E-19
 -1      2043 1.00109E-04-2.98016E-05-3.01358E-05 2.36346E-06-1.79549E-18-3.13540E-18
 -1      2044 1.01031E-04-3.00606E-05-3.04030E-05 2.62341E-06-1.85273E-18-3.65561E-18
 -1      2045 1.00517E-04-2.97749E-05-3.03185E-05 3.38844E-06-1.08398E-18-1.59724E-18
 -1      2046 9.88097E-05-2.94527E-05-2.97267E-05 1.81665E-06 3.48061E-19-1.63758E-18
 -1      2047 9.95325E-05-2.96514E-05-2.99375E-05 2.03859E-06-6.18423E-19-2.59809E-18
 -1      2048 9.91892E-05-2.94358E-05-2.98954E-05 2.65001E-06-1.17490E-18-2.07539E-18
 -1      2049 9.78031E-05-2.91888E-05-2.94073E-05 1.37014E-06-2.10068E-18-3.19215E-19
 -1      2050 9.83587E-05-2.93388E-05-2.95701E-05 1.55275E-06-8.05783E-19-1.26344E-18
 -1      2051 9.81412E-05-2.91812E-05-2.95557E-05 2.03090E-06-1.27676E-18-5.15341E-19
 -1      2052 9.70372E-05-2.89919E-05-2.91627E-05 1.01445E-06-1.65592E-18-4.70866E-19
 -1      2053 9.74563E-05-2.91033E-05-2.92860E-05 1.16094E-06-2.31353E-18-3.78501E-19
 -1      2054 9.73282E-05-2.89914E-05-2.92888E-05 1.52780E-06-2.48822E-18 5.78226E-20
 -1      2055 9.64648E-05-2.88474E-05-2.89788E-05 7.36319E-07-2.25944E-19-4.09723E-19
 -1      2056 9.67751E-05-2.89286E-05-2.90705E-05 8.51649E-07-9.79948E-19-3.88904E-19
 -1      2057 9.67083E-05-2.88513E-05-2.90832E-05 1.12807E-06-7.07186E-19-1.50830E-19
 -1      2058 9.60452E-05-2.87435E-05-2.88433E-05 5.21971E-07 4.28045E-20 4.80711E-19
 -1      2059 9.62703E-05-2.88014E-05-2.89101E-05 6.11487E-07 2.99460E-19 1.76856E-19
 -1      2060 9.62439E-05-2.87495E-05-2.89277E-05 8.15883E-07-2.18855E-19 1.42485E-18
 -1      2061 9.57448E-05-2.86705E-05-2.87457E-05 3.58618E-07 1.26062E-18 1.43034E-19
 -1      2062 9.59040E-05-2.87107E-05-2.87932E-05 4.27395E-07 2.54565E-19 7.66729E-19
 -1      2063 9.59028E-05-2.86770E-05-2.88124E-05 5.75378E-07 5.77053E-19 2.59739E-18
 -1      2064 9.55361E-05-2.86209E-05-2.86774E-05 2.34996E-07 1.69759E-18 1.14323E-18
 -1      2065 9.56449E-05-2.86477E-05-2.87100E-05 2.87593E-07 1.80230E-18 9.75699E-19
 -1      2066 9.56580E-05-2.86267E-05-2.87289E-05 3.91993E-07 1.41342E-18 2.54821E-18
 -1      2067 9.53972E-05-2.85889E-05-2.86316E-05 1.41567E-07-1.79304E-20 1.48561E-18
 -1      2068 9.54678E-05-2.86057E-05-2.86529E-05 1.81919E-07 6.25044E-19 8.37838E-19
 -1      2069 9.54873E-05-2.85929E-05-2.86701E-05 2.53027E-07 9.14644E-19 2.81161E-18
 -1      2070 9.53108E-05-2.85703E-05-2.86026E-05 7.11604E-08-1.94786E-18 1.35392E-18
 -1      2071 9.53527E-05-2.85794E-05-2.86155E-05 1.02223E-07-6.46356E-19 1.22540E-18
 -1      2072 9.53729E-05-2.85716E-05-2.86300E-05 1.48181E-07-7.05380E-19 1.54517E-18
 -1      2073 9.52633E-05-2.85626E-05-2.85855E-05 2.02984E-08 7.76855E-19 9.85995E-19
 -1      2074 9.52837E-05-2.85656E-05-2.85924E-05 4.28646E-08-1.26786E-18 1.03719E-18
 -1      2075 9.53005E-05-2.85602E-05-2.86036E-05 7.00406E-08-9.45726E-19 2.05195E-18
 -1      2076 9.52463E-05-2.85652E-05-2.85770E-05-3.80193E-09-1.39786E-19 2.23708E-18
 -1      2077 9.52527E-05-2.85613E-05-2.85814E-05 8.86694E-09 8.26186E-19 1.41699E-18
 -1      2078 9.52641E-05-2.85569E-05-2.85892E-05 2.41625E-08 3.16217E-19 1.95037E-18
 -1      2079 9.52502E-05-2.85636E-05-2.85798E-05 1.25629E-09 7.22658E-19 4.57615E-18
 -1      2080 9.52040E-05-2.84233E-05-2.86207E-05 1.12647E-07 2.18794E-18 1.56517E-18
 -1      2081 9.52188E-05-2.84536E-05-2.86128E-05 1.01383E-07 2.12851E-18 3.46126E-18
 -1      2082 9.52346E-05-2.84889E-05-2.86053E-05 8.26891E-08 1.24194E-18 2.31401E-18
 -1      2083 9.52443E-05-2.85121E-05-2.85988E-05 6.34233E-08 7.82541E-19 3.06281E-18
 -1      2084 9.52288E-05-2.84465E-05-2.86212E-05 1.25929E-07 1.06990E-18 3.49926E-18
 -1      2085 9.52498E-05-2.85357E-05-2.85915E-05 4.05838E-08 1.78304E-19 2.81806E-18
 -1      2086 9.52518E-05-2.85493E-05-2.85863E-05 2.20981E-08 2.53229E-19 3.06098E-18
 -1      2087 9.52592E-05-2.85450E-05-2.85915E-05 3.24065E-08 4.80683E-20 3.14652E-18
 -1      2088 9.52523E-05-2.85059E-05-2.86062E-05 7.84443E-08-7.57622E-19 3.31876E-18
 -1      2089 9.51702E-05-2.83541E-05-2.86362E-05 1.20042E-07 1.89468E-18-2.42897E-18
 -1      2090 9.51863E-05-2.83864E-05-2.86280E-05 1.19230E-07 2.18128E-18-2.79484E-19
 -1      2091 9.51894E-05-2.83723E-05-2.86357E-05 1.53369E-07 6.42777E-19 4.43626E-19
 -1      2092 9.51387E-05-2.82905E-05-2.86502E-05 1.03359E-07 1.95448E-18-1.48131E-18
 -1      2093 9.51532E-05-2.83197E-05-2.86429E-05 1.12970E-07 1.90200E-18-5.09173E-19
 -1      2094 9.51476E-05-2.82985E-05-2.86491E-05 1.51881E-07 9.81850E-19-1.53394E-18
 -1      2095 9.51159E-05-2.82442E-05-2.86604E-05 6.61681E-08 1.49438E-18-1.93586E-18
 -1      2096 9.51258E-05-2.82643E-05-2.86553E-05 8.39933E-08 1.71706E-18-1.42320E-18
 -1      2097 9.51113E-05-2.82356E-05-2.86601E-05 1.21134E-07 9.82244E-19-1.80737E-18
 -1      2098 9.51054E-05-2.82230E-05-2.86649E-05 1.62269E-08 3.87958E-19-2.16154E-18
 -1      2099 9.51089E-05-2.82303E-05-2.86631E-05 3.85188E-08 1.68237E-18-2.46827E-18
 -1      2100 9.50871E-05-2.81939E-05-2.86673E-05 6.73012E-08 5.33966E-19-1.77947E-18
 -1      2101 9.51089E-05-2.82301E-05-2.86631E-05-3.66035E-08 4.77527E-19-2.19619E-18
 -1      2102 9.51055E-05-2.82232E-05-2.86649E-05-1.43124E-08 4.80493E-19-9.74878E-19
 -1      2103 9.50786E-05-2.81796E-05-2.86698E-05 9.36368E-10-5.24863E-19-1.67570E-18
 -1      2104 9.51256E-05-2.82642E-05-2.86553E-05-8.20686E-08 6.10919E-19-2.63680E-18
 -1      2105 9.51160E-05-2.82445E-05-2.86603E-05-6.42194E-08 7.61996E-19-1.84341E-18
 -1      2106 9.50872E-05-2.81948E-05-2.86671E-05-6.53557E-08-5.03868E-19-2.59001E-18
 -1      2107 9.51523E-05-2.83181E-05-2.86431E-05-1.10943E-07 7.67889E-19-2.64626E-18
 -1      2108 9.51383E-05-2.82899E-05-2.86503E-05-1.01219E-07 1.32380E-18-2.10162E-18
 -1      2109 9.51113E-05-2.82365E-05-2.86597E-05-1.18793E-07 1.91591E-18-1.98506E-18
 -1      2110 9.51851E-05-2.83848E-05-2.86282E-05-1.18223E-07 3.05952E-18 3.31826E-18
 -1      2111 9.51690E-05-2.83523E-05-2.86365E-05-1.18536E-07 2.16995E-18 5.00215E-19
 -1      2112 9.51467E-05-2.82985E-05-2.86487E-05-1.49804E-07 2.87915E-18 2.38237E-19
 -1      2113 9.52175E-05-2.84523E-05-2.86129E-05-1.01661E-07 1.72545E-18-1.05511E-19
 -1      2114 9.52027E-05-2.84218E-05-2.86208E-05-1.12188E-07 2.26666E-18 9.12485E-19
 -1      2115 9.51879E-05-2.83722E-05-2.86352E-05-1.52319E-07 2.64950E-18 1.87672E-18
 -1      2116 9.52428E-05-2.85124E-05-2.85987E-05-6.46341E-08-4.82718E-19-9.32803E-19
 -1      2117 9.52335E-05-2.84875E-05-2.86054E-05-8.36787E-08 5.03499E-19-6.86247E-19
 -1      2118 9.52272E-05-2.84460E-05-2.86206E-05-1.26264E-07-1.05655E-19-1.80050E-18
 -1      2119 5.75783E-05-4.00326E-05-7.94250E-06 3.91728E-05 2.03246E-18 4.26124E-18
 -1      2120 4.20758E-05-4.08136E-05-1.76070E-06 3.13386E-05 1.68560E-18 2.60526E-18
 -1      2121 1.25395E-05-3.35368E-05 7.63532E-06 3.67054E-06 8.01399E-19 4.19070E-18
 -1      2122 1.20114E-05-3.09247E-05 7.08030E-06-6.15030E-06-8.32210E-19 4.84884E-18
 -1      2123 2.37516E-05-3.41499E-05 3.43295E-06 2.29713E-05 1.72371E-18 6.39510E-19
 -1      2124 1.67690E-05-3.61377E-05 6.77158E-06 1.30458E-05 1.17653E-18 1.61402E-18
 -1      2125 1.71166E-05-2.45502E-05 2.60285E-06 1.12652E-05-4.19493E-19 3.01459E-18
 -1      2126 9.70262E-05-4.54396E-05-2.21004E-05 4.11028E-05 1.39633E-18 4.07635E-18
 -1      2127 7.83181E-05-4.68560E-05-1.45008E-05 3.72334E-05 7.92399E-19 3.84849E-18
 -1      2128 1.33064E-04-4.71579E-05-3.66835E-05 3.30004E-05 2.82125E-18 2.02144E-18
 -1      2129 1.11437E-04-4.71268E-05-2.83504E-05 3.39734E-05 2.32680E-18 2.62284E-18
 -1      2130 1.17526E-04-5.71379E-05-2.57015E-05 3.25929E-05 3.63801E-19 1.37664E-18
 -1      2131 8.73307E-05-8.68826E-06-3.37951E-05-1.03002E-05-5.44152E-19-1.76617E-18
 -1      2132 8.80442E-05-9.23840E-06-3.38588E-05-1.18750E-05-6.80723E-19-1.64396E-18
 -1      2133 9.05315E-05-1.29966E-05-3.32568E-05-1.15635E-05-8.36409E-19-1.40602E-18
 -1      2134 8.87188E-05-1.09720E-05-3.33520E-05-9.14411E-06-5.35264E-19-1.66254E-18
 -1      2135 1.81797E-04-3.03872E-05-6.33800E-05 8.81582E-06 2.85916E-18 2.58176E-18
 -1      2136 1.66845E-04-3.05225E-05-5.80451E-05 1.10011E-05 3.27294E-18 2.31367E-18
 -1      2137 1.81034E-04-2.33527E-05-6.64625E-05-6.98945E-07 2.12055E-18 1.67989E-18
 -1      2138 1.80424E-04-2.53745E-05-6.53586E-05 4.95590E-06 2.63512E-18 2.69992E-18
 -1      2139 1.79605E-04-2.77276E-05-6.38874E-05-8.66053E-06 3.52662E-18 1.03507E-18
 -1      2140 1.81256E-04-2.50611E-05-6.59513E-05-1.55073E-06 2.87398E-18 1.75505E-18
 -1      2141 1.64239E-04-3.44588E-05-5.50927E-05-1.99995E-05 3.07404E-18-3.75236E-19
 -1      2142 1.79174E-04-3.40599E-05-6.08635E-05-1.47609E-05 3.33456E-18 1.38913E-19
 -1      2143 1.36385E-04-4.27115E-05-4.04037E-05-2.81822E-05 2.72745E-18-7.69529E-19
 -1      2144 1.56819E-04-4.09606E-05-4.86371E-05-2.74700E-05 2.72406E-18-1.26208E-19
 -1      2145 9.82235E-05-4.56324E-05-2.34570E-05-3.62612E-05 7.95364E-19-2.80580E-18
 -1      2146 1.20276E-04-4.42442E-05-3.23158E-05-3.89351E-05 1.73303E-18-1.87279E-18
 -1      2147 6.09518E-05-4.42678E-05-8.47614E-06-3.56410E-05 4.15470E-19-2.19614E-18
 -1      2148 7.92264E-05-4.28527E-05-1.59043E-05-4.16507E-05 3.02814E-19-3.15880E-18
 -1      2149 2.95045E-05-3.97391E-05 2.77184E-06-2.45167E-05 6.90755E-19-1.23413E-18
 -1      2150 4.15369E-05-3.77778E-05-2.43088E-06-3.34153E-05 7.73765E-19-1.60735E-18
 -1      2151 1.36402E-05-3.27133E-05 6.98703E-06-8.21600E-06-7.09284E-19-2.64910E-18
 -1      2152 1.92862E-05-3.46061E-05 5.33342E-06-1.75142E-05 3.71847E-19-1.92827E-18
 -1      2153 1.59056E-05-3.49424E-05 6.73051E-06 1.52140E-05-1.16255E-18-3.01374E-18
 -1      2154 1.18181E-05-3.30572E-05 7.79257E-06 5.85885E-06-2.28328E-19-3.00019E-18
 -1      2155 3.46084E-05-3.65683E-05-1.81798E-07 3.15200E-05-1.74785E-18-2.41394E-18
 -1      2156 2.47519E-05-3.88936E-05 4.37483E-06 2.32014E-05-1.20025E-18-2.50341E-18
 -1      2157 6.63758E-05-3.86294E-05-1.23367E-05 4.17739E-05-2.10022E-18-3.16663E-18
 -1      2158 5.09347E-05-4.14429E-05-5.53294E-06 3.50126E-05-1.66865E-18-2.91583E-18
 -1      2159 1.04151E-04-4.04651E-05-2.70814E-05 4.28501E-05-2.40811E-18-1.72159E-18
 -1      2160 8.52808E-05-4.25992E-05-1.92739E-05 3.89811E-05-2.15951E-18-2.24083E-18
 -1      2161 1.38339E-04-3.90311E-05-4.18601E-05 3.56007E-05-2.90342E-18-3.35425E-19
 -1      2162 1.19010E-04-4.01452E-05-3.42611E-05 3.53812E-05-2.54618E-18-1.39252E-18
 -1      2163 1.63407E-04-3.44875E-05-5.42369E-05 2.25630E-05-2.86477E-18 6.35275E-20
 -1      2164 1.47708E-04-3.53026E-05-4.80483E-05 2.59201E-05-3.39718E-18 4.95514E-20
 -1      2165 1.75467E-04-2.68686E-05-6.27863E-05 8.82909E-06-3.02772E-18 6.63439E-19
 -1      2166 1.68372E-04-2.87091E-05-5.90446E-05 1.71912E-05-3.26701E-18 1.54584E-19
 -1      2167 1.77865E-04-2.25622E-05-6.55347E-05-1.19293E-06-2.66561E-18 1.84648E-18
 -1      2168 1.72558E-04-2.09299E-05-6.43590E-05 4.57307E-06-2.89728E-18 8.32422E-19
 -1      2169 1.71984E-04-2.34274E-05-6.29862E-05-8.59293E-06-2.15485E-18 2.12309E-18
 -1      2170 1.78680E-04-2.40620E-05-6.52805E-05-2.82097E-06-2.07565E-18 2.06348E-18
 -1      2171 1.53992E-04-1.09857E-05-6.02762E-05 7.16453E-07-2.45555E-18 2.18259E-18
 -1      2172 1.60615E-04-3.13730E-05-5.48476E-05-2.09831E-05-2.26433E-18 2.46656E-18
 -1      2173 1.71846E-04-3.01315E-05-5.97696E-05-1.44201E-05-2.31664E-18 1.80587E-18
 -1      2174 1.36416E-04-3.66429E-05-4.27783E-05-3.20002E-05-3.72694E-18 1.76945E-18
 -1      2175 1.54572E-04-3.61964E-05-4.97564E-05-3.00169E-05-2.44274E-18 2.42717E-18
 -1      2176 1.04887E-04-4.07951E-05-2.80834E-05-3.80329E-05-4.29954E-18 8.71597E-19
 -1      2177 1.24303E-04-3.91397E-05-3.58749E-05-3.99694E-05-4.41812E-18 3.22296E-19
 -1      2178 7.41049E-05-4.39393E-05-1.39077E-05-3.91050E-05-2.51823E-18 2.12372E-18
 -1      2179 9.17819E-05-4.20380E-05-2.12170E-05-4.33246E-05-3.28818E-18 8.58044E-19
 -1      2180 4.37970E-05-4.02498E-05-2.66576E-06-3.40652E-05-1.28241E-18 4.01875E-18
 -1      2181 5.78529E-05-3.87727E-05-8.52842E-06-4.04964E-05-2.39541E-18 4.17368E-18
 -1      2182 8.01466E-05-4.78215E-05-1.40353E-05-4.35214E-05-2.39710E-19 8.66832E-19
 -1      2183 1.82623E-05-3.45452E-05 5.70630E-06-1.83769E-05-4.94244E-19 5.50741E-18
 -1      2184 2.61814E-05-3.44331E-05 2.54999E-06-2.72232E-05-1.45605E-18 5.72658E-18
 -1      2185 1.61048E-04-4.11655E-05-5.09756E-05 1.51295E-05 3.23372E-18 1.97359E-18
 -1      2186 1.46103E-04-4.37467E-05-4.39821E-05 2.03811E-05 3.09580E-18 1.85416E-18
 -1      2187 1.44046E-04-5.34284E-05-3.83730E-05 1.52710E-05 1.20046E-18 4.37916E-19
 -1      2188 9.71435E-05-2.43002E-05-3.12898E-05-9.82925E-06-1.01287E-18 2.39671E-19
 -1      2189 1.63631E-04-2.49966E-05-5.81846E-05 8.86978E-07 3.65982E-18 1.28453E-18
 -1      2190 1.58529E-04-3.71097E-05-5.16262E-05 1.36343E-07 2.80940E-18 1.29088E-18
 -1      2191 9.63594E-05-2.31005E-05-3.14642E-05-1.01554E-05-1.03171E-18-2.99558E-19
 -1      2192 4.02616E-05-3.42121E-05-2.89732E-06 3.34161E-05 7.55342E-19 2.28042E-18
 -1      2193 8.13847E-05-4.93263E-05-1.38143E-05 4.10817E-05 1.34255E-19 2.56834E-18
 -1      2194 9.52502E-05-2.85225E-05-2.85973E-05-5.65920E-08-1.00303E-18-4.85399E-19
 -1      2195 1.81852E-05-2.50563E-05 2.44901E-06-1.46665E-05-5.64124E-19 5.44642E-18
 -1      2196 4.35506E-05-3.55676E-05-3.82670E-06-3.72549E-05 2.00323E-19 4.36624E-18
 -1      2197 1.10981E-04-5.24299E-05-2.51055E-05-3.64500E-05-1.56193E-18-5.76618E-19
 -1      2198 1.37451E-04-4.69976E-05-3.82789E-05-2.49416E-05-3.14630E-18 4.68833E-19
 -1      2199 1.57669E-04-2.11608E-05-5.75468E-05-1.89136E-07-2.30118E-18 2.06485E-18
 -1      2200 1.57600E-04-1.66392E-05-5.95189E-05 1.15359E-07-3.23228E-18 9.78323E-19
 -1      2201 1.56656E-04-3.01242E-05-5.32424E-05 4.07822E-06-2.87822E-18 8.66515E-19
 -1      2202 1.46086E-04-4.40649E-05-4.30837E-05 1.70431E-05-2.52829E-18 7.07273E-19
 -1      2203 1.23110E-04-5.13004E-05-3.04676E-05 3.21283E-05-1.01983E-18-1.93335E-19
 -1      2204 8.88965E-05-4.90482E-05-1.71963E-05 4.21053E-05-5.51418E-19-1.69872E-18
 -1      2205 5.13433E-05-3.98828E-05-5.51937E-06 3.98932E-05-1.38913E-19-2.50669E-18
 -1      2206 2.38233E-05-2.96004E-05 1.70103E-06 2.45353E-05-2.70204E-19-2.96334E-18
 -1      2207 1.53899E-05-2.45307E-05 3.35660E-06-1.99951E-06-4.65550E-19-2.88118E-18
 -1      2208 2.95424E-05-3.07719E-05-5.12293E-08-2.68723E-05-3.36272E-19-1.97105E-18
 -1      2209 6.12192E-05-4.34133E-05-8.05762E-06-3.98522E-05-4.67562E-19-1.36711E-18
 -1      2210 1.01810E-04-5.33421E-05-2.08720E-05-3.79172E-05-8.28398E-19-2.07290E-18
 -1      2211 1.37402E-04-5.30805E-05-3.57913E-05-2.38202E-05 9.69217E-19 2.75286E-19
 -1      2212 1.58109E-04-4.10300E-05-4.92923E-05-7.28462E-06 2.34660E-18 1.47723E-18
 -1      2213 1.62404E-04-1.96417E-05-6.00908E-05-2.14190E-06 2.91930E-18 1.13037E-18
 -1      2214 1.61843E-04-1.54349E-05-6.16465E-05 5.47871E-07 2.63173E-18 1.72482E-18
 -1      2215 1.53909E-04-3.59440E-05-4.96508E-05-1.05452E-05-2.27778E-18 2.12732E-18
 -1      2216 9.53130E-05-2.63582E-05-2.95365E-05 3.91683E-06 9.13995E-19 1.45825E-18
 -1      2217 9.62345E-05-2.58410E-05-3.00948E-05 5.75176E-06 9.89348E-19 1.55141E-18
 -1      2218 8.80549E-05-1.09164E-05-3.30993E-05-3.49404E-06 8.95601E-20-1.50306E-18
 -1      2219 8.83102E-05-1.12086E-05-3.30799E-05-4.59908E-06-5.24375E-20-1.61992E-18
 -1      2220 8.86892E-05-1.17291E-05-3.30290E-05-5.58308E-06-9.55145E-20-1.63145E-18
 -1      2221 8.91179E-05-1.22280E-05-3.29976E-05-6.72998E-06-2.94476E-19-1.53634E-18
 -1      2222 8.98077E-05-1.35364E-05-3.26858E-05-4.65293E-06-3.88274E-20-1.48402E-18
 -1      2223 8.76715E-05-1.04118E-05-3.31452E-05 5.90753E-07 6.93482E-19-1.35381E-18
 -1      2224 8.76663E-05-1.04068E-05-3.31451E-05-4.73943E-07 5.66769E-19-1.43494E-18
 -1      2225 8.78737E-05-1.06579E-05-3.31264E-05 2.63499E-06 8.67915E-19-1.25644E-18
 -1      2226 8.77457E-05-1.05125E-05-3.31360E-05 1.55926E-06 7.41562E-19-1.36642E-18
 -1      2227 8.89425E-05-1.23864E-05-3.28112E-05 9.91033E-07 6.83667E-19-1.29299E-18
 -1      2228 8.83503E-05-1.12516E-05-3.30791E-05 4.68205E-06 1.07086E-18-1.06219E-18
 -1      2229 8.80891E-05-1.09531E-05-3.30985E-05 3.59436E-06 9.01325E-19-1.17279E-18
 -1      2230 8.92404E-05-1.27761E-05-3.27706E-05 2.85541E-06 8.78367E-19-1.15891E-18
 -1      2231 8.91826E-05-1.22998E-05-3.29946E-05 6.80988E-06 1.38082E-18-5.75771E-19
 -1      2232 8.87401E-05-1.17851E-05-3.30271E-05 5.66272E-06 1.15276E-18-7.96767E-19
 -1      2233 8.98527E-05-1.35867E-05-3.26832E-05 4.72242E-06 1.06454E-18-8.58594E-19
 -1      2234 9.04974E-05-1.39804E-05-3.28561E-05 8.93030E-06 1.52948E-18-3.24381E-19
 -1      2235 8.97990E-05-1.31410E-05-3.29081E-05 7.76186E-06 1.42192E-18-5.08432E-19
 -1      2236 9.08524E-05-1.49277E-05-3.25314E-05 6.56101E-06 1.33351E-18-4.35805E-19
 -1      2237 9.25113E-05-1.66147E-05-3.26266E-05 1.08202E-05 1.61200E-18 1.78062E-19
 -1      2238 9.14319E-05-1.52521E-05-3.27097E-05 9.73661E-06 1.57614E-18-1.22436E-19
 -1      2239 9.23281E-05-1.69654E-05-3.22773E-05 8.18833E-06 1.44057E-18-1.61575E-19
 -1      2240 9.44490E-05-2.71016E-05-2.88432E-05 1.38863E-06 7.87909E-19 1.17596E-18
 -1      2241 9.49769E-05-2.68720E-05-2.91160E-05 2.41062E-06 8.35714E-19 1.35213E-18
 -1      2242 9.54641E-05-2.58044E-05-2.98637E-05 3.99266E-06 9.55609E-19 7.35585E-19
 -1      2243 9.59842E-05-2.50616E-05-3.03508E-05-5.88645E-06-6.41558E-19-5.06150E-19
 -1      2244 9.53790E-05-2.58072E-05-2.98275E-05-3.93335E-06-5.90203E-19-4.29675E-19
 -1      2245 1.52043E-04-2.94946E-05-5.28595E-05 7.19443E-06 3.12301E-18 1.61317E-18
 -1      2246 1.49203E-04-2.13019E-05-5.55011E-05 7.64328E-06 3.26319E-18 1.58332E-18
 -1      2247 9.52869E-05-2.64834E-05-2.94322E-05-2.53085E-06-5.81220E-19-3.74473E-19
 -1      2248 9.48900E-05-2.68543E-05-2.91546E-05-1.40768E-06-5.22735E-19-3.84453E-19
 -1      2249 9.54577E-05-2.52757E-05-3.00843E-05-3.85139E-06-6.20453E-19-6.91404E-19
 -1      2250 9.47399E-05-2.71755E-05-2.89182E-05-4.74162E-07-4.95906E-19-2.19678E-19
 -1      2251 9.45724E-05-2.73923E-05-2.87851E-05 2.13421E-07-4.87124E-19-2.70805E-19
 -1      2252 9.52360E-05-2.65859E-05-2.94368E-05-1.33121E-06-4.72055E-19-4.81519E-19
 -1      2253 9.44870E-05-2.75655E-05-2.86580E-05 8.33913E-07-4.39989E-19-2.86686E-19
 -1      2254 9.45085E-05-2.77181E-05-2.86170E-05 1.27708E-06-3.73904E-19-1.87896E-19
 -1      2255 9.50360E-05-2.72785E-05-2.90539E-05 3.58033E-07-4.45557E-19-4.15678E-19
 -1      2256 9.45078E-05-2.78233E-05-2.85662E-05 1.70513E-06-3.30622E-19-9.46561E-20
 -1      2257 9.46713E-05-2.79482E-05-2.85875E-05 2.01338E-06-2.82874E-19-1.98443E-19
 -1      2258 9.49791E-05-2.76771E-05-2.88564E-05 1.50255E-06-4.41600E-19-2.71127E-19
 -1      2259 9.47498E-05-2.80213E-05-2.85910E-05 2.33204E-06-3.97908E-19-1.65012E-19
 -1      2260 9.50215E-05-2.81361E-05-2.86564E-05 2.57102E-06-2.97752E-19-8.77582E-20
 -1      2261 9.50768E-05-2.79235E-05-2.87902E-05 2.32021E-06-3.66521E-19-1.45616E-19
 -1      2262 9.51694E-05-2.81965E-05-2.86993E-05 2.83485E-06-1.65837E-19-2.80538E-19
 -1      2263 9.55290E-05-2.83132E-05-2.87976E-05 3.04404E-06-3.28617E-19-2.30591E-19
 -1      2264 9.53159E-05-2.80925E-05-2.88182E-05 2.95715E-06-4.08886E-19-3.58420E-19
 -1      2265 9.57403E-05-2.83751E-05-2.88694E-05 3.28671E-06-7.54694E-19-1.02004E-19
 -1      2266 9.61775E-05-2.85053E-05-2.89931E-05 3.48689E-06-8.78116E-19-1.64098E-19
 -1      2267 9.56828E-05-2.82310E-05-2.89148E-05 3.50813E-06-5.40277E-19-4.64262E-19
 -1      2268 9.64518E-05-2.85834E-05-2.90859E-05 3.72446E-06-7.52797E-19-1.19612E-19
 -1      2269 9.69625E-05-2.87408E-05-2.92292E-05 3.92004E-06-4.41678E-19-2.19531E-19
 -1      2270 9.61731E-05-2.83788E-05-2.90608E-05 4.02727E-06-8.40039E-19-1.31195E-19
 -1      2271 9.73057E-05-2.88528E-05-2.93363E-05 4.15126E-06-4.28373E-19-1.18761E-19
 -1      2272 9.78887E-05-2.90542E-05-2.94935E-05 4.32952E-06-4.52026E-19-1.98534E-19
 -1      2273 9.67939E-05-2.85787E-05-2.92411E-05 4.53205E-06-4.91340E-19 5.54609E-20
 -1      2274 9.83135E-05-2.92232E-05-2.96084E-05 4.53400E-06-1.63059E-19-1.61631E-20
 -1      2275 9.89665E-05-2.94885E-05-2.97728E-05 4.66265E-06 1.97759E-19-7.92226E-20
 -1      2276 9.75653E-05-2.88830E-05-2.94416E-05 5.00217E-06-2.30087E-19 6.70549E-19
 -1      2277 9.94921E-05-2.97433E-05-2.98887E-05 4.79747E-06 2.46143E-19-1.50766E-19
 -1      2278 1.00207E-04-3.00937E-05-3.00513E-05 4.82185E-06-4.29127E-20-1.35368E-21
 -1      2279 9.85205E-05-2.93567E-05-2.96491E-05 5.37453E-06 8.21591E-20 2.24326E-19
 -1      2280 1.00858E-04-3.04661E-05-3.01614E-05 4.81802E-06-3.93046E-19 7.62630E-20
 -1      2281 1.01617E-04-3.09178E-05-3.03111E-05 4.66062E-06-1.73307E-19-1.25661E-19
 -1      2282 9.97044E-05-3.00747E-05-2.98505E-05 5.53653E-06-2.39572E-19 1.30008E-20
 -1      2283 1.02416E-04-3.14338E-05-3.04106E-05 4.42209E-06-4.79905E-20-3.89583E-19
 -1      2284 1.03179E-04-3.19842E-05-3.05353E-05 3.98895E-06-1.07921E-19-3.60202E-19
 -1      2285 1.01166E-04-3.11084E-05-3.00361E-05 5.32126E-06-3.38533E-19 2.68195E-19
 -1      2286 1.04131E-04-3.26427E-05-3.06241E-05 3.40002E-06-1.42948E-19-1.01485E-19
 -1      2287 1.04826E-04-3.32446E-05-3.07140E-05 2.60209E-06-1.97203E-19 5.45670E-20
 -1      2288 1.02936E-04-3.24886E-05-3.02047E-05 4.51233E-06-1.01700E-19 5.02803E-19
 -1      2289 1.05884E-04-3.39797E-05-3.08017E-05 1.55580E-06-1.01500E-19-1.70497E-19
 -1      2290 1.06392E-04-3.45073E-05-3.08540E-05 3.54594E-07 4.68432E-20 1.73907E-19
 -1      2291 1.04974E-04-3.41330E-05-3.03724E-05 2.87549E-06-2.27366E-19 3.80108E-19
 -1      2292 1.07408E-04-3.51418E-05-3.09623E-05-1.18181E-06-4.39858E-19 2.54681E-20
 -1      2293 1.07562E-04-3.53672E-05-3.09865E-05-2.69809E-06-6.31738E-19-4.79701E-20
 -1      2294 1.07091E-04-3.57460E-05-3.05804E-05 2.46944E-07-3.01062E-19 4.12456E-19
 -1      2295 1.08258E-04-3.55940E-05-3.11488E-05-4.57083E-06-5.25725E-19 1.47044E-19
 -1      2296 1.07886E-04-3.52222E-05-3.11678E-05-6.10340E-06-2.41242E-19 1.62930E-20
 -1      2297 1.08854E-04-3.67292E-05-3.08959E-05-3.28881E-06-5.65588E-19 6.02662E-19
 -1      2298 1.07901E-04-3.46813E-05-3.14143E-05-7.84227E-06-2.62681E-19 4.97541E-20
 -1      2299 1.06937E-04-3.35112E-05-3.14535E-05-8.85009E-06-6.42934E-20-4.67509E-19
 -1      2300 1.09596E-04-3.62501E-05-3.13953E-05-7.14109E-06-2.91996E-19 5.86123E-19
 -1      2301 1.06062E-04-3.20530E-05-3.17776E-05-9.65793E-06 2.05174E-19-5.93163E-19
 -1      2302 1.04702E-04-3.02573E-05-3.18448E-05-9.50393E-06 2.62749E-19-3.79739E-19
 -1      2303 1.08703E-04-3.36848E-05-3.21053E-05-1.00065E-05-2.66340E-19 6.60414E-19
 -1      2304 1.03246E-04-2.83052E-05-3.21760E-05-8.59715E-06-9.41803E-20-6.76928E-19
 -1      2305 1.02018E-04-2.65958E-05-3.22490E-05-6.95211E-06-2.19011E-19-7.56378E-19
 -1      2306 1.06240E-04-2.93652E-05-3.29237E-05-1.01247E-05-2.25269E-19 9.19461E-20
 -1      2307 1.00876E-04-2.51746E-05-3.24674E-05-4.24336E-06-2.06299E-19-1.13008E-18
 -1      2308 1.00404E-04-2.45004E-05-3.24984E-05-1.52584E-06-7.01105E-19-1.73897E-18
 -1      2309 1.03471E-04-2.51135E-05-3.36130E-05-6.40055E-06-7.94107E-19-1.23436E-18
 -1      2310 1.00443E-04-2.45403E-05-3.24925E-05 1.91163E-06-8.76672E-19-1.82020E-18
 -1      2311 1.00970E-04-2.52886E-05-3.24609E-05 4.60256E-06-5.59942E-19-2.27598E-18
 -1      2312 1.02301E-04-2.33945E-05-3.38784E-05 2.31593E-07-9.76119E-19-1.37544E-18
 -1      2313 1.02168E-04-2.67691E-05-3.22380E-05 7.23546E-06-2.54566E-19-2.64966E-18
 -1      2314 1.03430E-04-2.85056E-05-3.21694E-05 8.80897E-06-1.27006E-19-2.19628E-18
 -1      2315 1.03596E-04-2.52684E-05-3.35892E-05 6.75739E-06-7.22043E-19-1.60106E-18
 -1      2316 1.04885E-04-3.04562E-05-3.18404E-05 9.62268E-06-1.67966E-19-2.10970E-18
 -1      2317 1.06248E-04-3.22352E-05-3.17790E-05 9.70672E-06-1.19679E-19-1.16676E-18
 -1      2318 1.06425E-04-2.96103E-05-3.28978E-05 1.02960E-05-3.16598E-19-1.67187E-18
 -1      2319 1.07081E-04-3.36436E-05-3.14625E-05 8.83455E-06-4.48890E-19-1.36711E-18
 -1      2320 1.08031E-04-3.47687E-05-3.14308E-05 7.79615E-06-3.29400E-20-1.26063E-18
 -1      2321 1.08840E-04-3.38650E-05-3.20870E-05 1.00072E-05-3.73250E-19-1.20559E-18
 -1      2322 1.07981E-04-3.52582E-05-3.11960E-05 6.05127E-06 3.41273E-19-1.33578E-18
 -1      2323 1.08341E-04-3.55905E-05-3.11851E-05 4.52723E-06 6.42206E-19-1.01016E-18
 -1      2324 1.09652E-04-3.63055E-05-3.13995E-05 7.07736E-06 1.42271E-19-1.07817E-18
 -1      2325 1.07632E-04-3.53298E-05-3.10339E-05 2.68997E-06 5.07045E-19-1.64421E-18
 -1      2326 1.07481E-04-3.50823E-05-3.10179E-05 1.21159E-06 4.79980E-19-1.16537E-18
 -1      2327 1.08858E-04-3.66724E-05-3.09253E-05 3.26362E-06 3.31352E-19-5.52920E-19
 -1      2328 1.06473E-04-3.44336E-05-3.09203E-05-2.66384E-07 4.53292E-19-7.56105E-19
 -1      2329 1.05986E-04-3.39012E-05-3.08779E-05-1.41282E-06 7.80197E-19-1.17915E-19
 -1      2330 1.07090E-04-3.56269E-05-3.06327E-05-1.69911E-07 8.55642E-19-5.48438E-19
 -1      2331 1.04955E-04-3.31673E-05-3.08015E-05-2.39145E-06 7.02683E-19-5.86110E-19
 -1      2332 1.04298E-04-3.25731E-05-3.07243E-05-3.12792E-06 2.91372E-19-2.27866E-19
 -1      2333 1.05009E-04-3.39946E-05-3.04473E-05-2.66450E-06 5.11626E-19-3.48400E-19
 -1      2334 1.03382E-04-3.19229E-05-3.06477E-05-3.64711E-06-4.73167E-19-3.85818E-19
 -1      2335 1.02674E-04-3.13876E-05-3.05393E-05-4.01617E-06-9.68344E-19-8.10058E-19
 -1      2336 1.03031E-04-3.23569E-05-3.03026E-05-4.15785E-06-2.39098E-19-1.39166E-19
 -1      2337 1.01916E-04-3.08823E-05-3.04538E-05-4.18442E-06-1.25431E-18-1.11547E-18
 -1      2338 1.01227E-04-3.04503E-05-3.03243E-05-4.27630E-06-8.91566E-19-1.25186E-18
 -1      2339 1.01338E-04-3.09954E-05-3.01587E-05-4.82134E-06-1.16644E-18-1.64861E-20
 -1      2340 1.00621E-04-3.00895E-05-3.02300E-05-4.20909E-06-3.04179E-19-7.05315E-19
 -1      2341 9.99899E-05-2.97632E-05-3.00916E-05-4.11812E-06 5.86345E-19-9.16942E-19
 -1      2342 9.99631E-05-2.99839E-05-3.00004E-05-4.88988E-06-3.18863E-19 4.84504E-19
 -1      2343 9.95125E-05-2.95214E-05-2.99928E-05-3.91219E-06 1.00796E-18-6.27673E-19
 -1      2344 9.89576E-05-2.92854E-05-2.98559E-05-3.71706E-06 6.88630E-19-2.57019E-19
 -1      2345 9.88731E-05-2.92908E-05-2.98284E-05-4.58065E-06 7.21207E-19 7.38655E-19
 -1      2346 9.85830E-05-2.91318E-05-2.97581E-05-3.44392E-06 4.18579E-19-3.07692E-19
 -1      2347 9.81097E-05-2.89665E-05-2.96305E-05-3.20231E-06 6.07296E-19 4.38492E-19
 -1      2348 9.80178E-05-2.88475E-05-2.96504E-05-4.06445E-06 8.04259E-19 3.47152E-19
 -1      2349 9.78160E-05-2.88742E-05-2.95384E-05-2.91027E-06 9.38800E-20-5.95444E-19
 -1      2350 9.74225E-05-2.87614E-05-2.94247E-05-2.66044E-06-2.91625E-19-1.10806E-18
 -1      2351 9.73488E-05-2.85836E-05-2.94758E-05-3.46286E-06-8.30349E-20-6.55534E-19
 -1      2352 9.71926E-05-2.87096E-05-2.93415E-05-2.37940E-06 5.45012E-19-1.47932E-18
 -1      2353 9.68728E-05-2.86346E-05-2.92440E-05-2.14428E-06 7.07718E-19-9.38375E-19
 -1      2354 9.68264E-05-2.84404E-05-2.93125E-05-2.85540E-06-2.96851E-19-7.20655E-19
 -1      2355 9.66935E-05-2.86085E-05-2.91714E-05-1.89073E-06 5.82589E-19-3.26856E-19
 -1      2356 9.64391E-05-2.85602E-05-2.90903E-05-1.68226E-06 3.67865E-19 4.22623E-19
 -1      2357 9.64195E-05-2.83746E-05-2.91658E-05-2.28941E-06 1.38019E-18-4.09845E-19
 -1      2358 9.63002E-05-2.85497E-05-2.90289E-05-1.46352E-06 6.99997E-20 1.09752E-18
 -1      2359 9.61020E-05-2.85197E-05-2.89633E-05-1.28629E-06 7.29544E-19 1.45717E-18
 -1      2360 9.61044E-05-2.83554E-05-2.90384E-05-1.78932E-06 1.20263E-18 5.88157E-19
 -1      2361 9.59953E-05-2.85183E-05-2.89128E-05-1.10385E-06 4.11967E-19 2.77926E-18
 -1      2362 9.58441E-05-2.85007E-05-2.88610E-05-9.57870E-07 1.21923E-18 2.58188E-18
 -1      2363 9.58621E-05-2.83625E-05-2.89311E-05-1.36420E-06 1.00268E-18 1.78363E-18
 -1      2364 9.57630E-05-2.85038E-05-2.88205E-05-8.09688E-07 2.53390E-18 1.87173E-18
 -1      2365 9.56503E-05-2.84944E-05-2.87807E-05-6.92378E-07 2.74250E-18 1.54066E-18
 -1      2366 9.56776E-05-2.83825E-05-2.88430E-05-1.01345E-06 1.04930E-18 3.00875E-18
 -1      2367 9.55893E-05-2.84995E-05-2.87489E-05-5.74614E-07 2.22885E-18 1.21526E-18
 -1      2368 9.55072E-05-2.84953E-05-2.87190E-05-4.82168E-07 1.97581E-18 1.86075E-18
 -1      2369 9.55387E-05-2.84074E-05-2.87724E-05-7.31008E-07 2.37424E-18 1.41878E-18
 -1      2370 9.54616E-05-2.85007E-05-2.86945E-05-3.90238E-07 1.13941E-18 1.92654E-18
 -1      2371 9.54035E-05-2.84997E-05-2.86727E-05-3.18578E-07 6.20794E-20 1.88222E-18
 -1      2372 9.54351E-05-2.84321E-05-2.87170E-05-5.08153E-07 1.32345E-18 4.62270E-19
 -1      2373 9.53697E-05-2.85052E-05-2.86541E-05-2.47882E-07-1.69430E-18 1.50146E-18
 -1      2374 9.53302E-05-2.85059E-05-2.86384E-05-1.93804E-07-2.24450E-18 1.29271E-18
 -1      2375 9.53581E-05-2.84543E-05-2.86742E-05-3.35389E-07-4.75685E-19 3.79195E-21
 -1      2376 9.39333E-05-2.77085E-05-2.83691E-05-1.13676E-06 3.82037E-19 5.27108E-19
 -1      2377 9.38755E-05-2.75853E-05-2.83846E-05-7.50882E-07 6.00436E-19 8.29816E-19
 -1      2378 9.41760E-05-2.79065E-05-2.83892E-05-1.81790E-06 3.24337E-19 2.86585E-19
 -1      2379 9.39468E-05-2.77878E-05-2.83394E-05-1.54401E-06 1.87778E-19 3.44442E-19
 -1      2380 9.45598E-05-2.77239E-05-2.86580E-05-1.40151E-06 5.21376E-19 2.12445E-19
 -1      2381 9.46602E-05-2.80927E-05-2.85165E-05-2.35422E-06 3.80418E-19 2.63537E-19
 -1      2382 9.43010E-05-2.79714E-05-2.84188E-05-2.12696E-06 3.74128E-19 3.19963E-19
 -1      2383 9.47180E-05-2.79251E-05-2.86370E-05-2.19837E-06 4.00006E-19 6.47982E-20
 -1      2384 9.53460E-05-2.82812E-05-2.87284E-05-2.85206E-06 3.60523E-19 4.13953E-19
 -1      2385 9.48764E-05-2.81525E-05-2.85913E-05-2.62791E-06 3.30840E-19 3.93535E-19
 -1      2386 9.50661E-05-2.80712E-05-2.87214E-05-2.84752E-06 3.23267E-19 2.19608E-19
 -1      2387 9.62171E-05-2.84837E-05-2.90131E-05-3.38611E-06 1.67694E-20 7.67329E-19
 -1      2388 9.56410E-05-2.83413E-05-2.88400E-05-3.13444E-06 3.12652E-19 6.87783E-19
 -1      2389 9.55752E-05-2.81881E-05-2.88881E-05-3.46335E-06 1.98555E-19 5.43190E-19
 -1      2390 9.72759E-05-2.87142E-05-2.93660E-05-4.00819E-06-2.64522E-19 6.97003E-19
 -1      2391 9.65862E-05-2.85494E-05-2.91569E-05-3.70823E-06-9.85892E-20 5.77077E-19
 -1      2392 9.62308E-05-2.82942E-05-2.91227E-05-4.12663E-06 9.82980E-21 4.89475E-19
 -1      2393 9.85386E-05-2.89942E-05-2.97853E-05-4.74800E-06-9.58752E-20 3.96102E-19
 -1      2394 9.77210E-05-2.87937E-05-2.95390E-05-4.38963E-06-2.48460E-19 4.74240E-19
 -1      2395 9.70319E-05-2.84098E-05-2.94162E-05-4.89201E-06-6.37649E-20-5.32975E-20
 -1      2396 1.00031E-04-2.93571E-05-3.02686E-05-5.60625E-06 9.24184E-19 1.01682E-19
 -1      2397 9.90678E-05-2.91011E-05-2.99845E-05-5.19473E-06 3.95355E-19 1.86195E-19
 -1      2398 9.79907E-05-2.85652E-05-2.97605E-05-5.78747E-06 2.83336E-19-3.56898E-19
 -1      2399 1.01786E-04-2.98572E-05-3.08080E-05-6.53866E-06 3.44799E-19-1.55125E-20
 -1      2400 1.00661E-04-2.95158E-05-3.04891E-05-6.10439E-06 6.28351E-19 2.09438E-19
 -1      2401 9.91348E-05-2.88113E-05-3.01461E-05-6.80610E-06 6.26533E-19-8.81752E-20
 -1      2402 1.03842E-04-3.05804E-05-3.13856E-05-7.42841E-06-1.86347E-20 6.16176E-19
 -1      2403 1.02546E-04-3.01098E-05-3.10416E-05-7.04272E-06 2.13327E-19 3.86503E-19
 -1      2404 1.00514E-04-2.92350E-05-3.05575E-05-7.88809E-06 8.85662E-20 7.23105E-20
 -1      2405 1.06246E-04-3.16544E-05-3.19686E-05-8.04682E-06 1.97276E-19 7.59411E-19
 -1      2406 1.04785E-04-3.09954E-05-3.16192E-05-7.84289E-06 1.08525E-19 7.77335E-19
 -1      2407 1.02216E-04-2.99787E-05-3.09721E-05-8.89103E-06 5.20264E-20 7.68273E-20
 -1      2408 1.09043E-04-3.32402E-05-3.25097E-05-8.01030E-06 5.88187E-19 7.16496E-19
 -1      2409 1.07455E-04-3.23305E-05-3.21863E-05-8.20156E-06 6.54042E-19 1.03908E-18
 -1      2410 1.04382E-04-3.12546E-05-3.13615E-05-9.54798E-06 3.10454E-19 3.39402E-19
 -1      2411 1.12243E-04-3.54624E-05-3.29602E-05-6.76247E-06 4.32599E-19 1.06928E-19
 -1      2412 1.10631E-04-3.42874E-05-3.27003E-05-7.63512E-06 7.19300E-19 5.95987E-19
 -1      2413 1.07222E-04-3.33256E-05-3.17032E-05-9.41838E-06 7.27284E-19 2.61832E-19
 -1      2414 1.15709E-04-3.82049E-05-3.33044E-05-3.66598E-06-3.03218E-19 1.98226E-19
 -1      2415 1.14297E-04-3.69172E-05-3.31354E-05-5.49412E-06-7.05750E-21 2.32018E-19
 -1      2416 1.10952E-04-3.63688E-05-3.20110E-05-7.86015E-06 1.76608E-19 3.27772E-19
 -1      2417 1.18925E-04-4.07437E-05-3.36139E-05 1.64042E-06-8.65668E-19 2.84879E-19
 -1      2418 1.18124E-04-3.98394E-05-3.35241E-05-1.16906E-06-8.78181E-19 4.78306E-19
 -1      2419 1.15571E-04-4.01286E-05-3.23853E-05-4.13256E-06-7.02136E-19 9.56843E-19
 -1      2420 1.20760E-04-4.13771E-05-3.41009E-05 8.53464E-06 3.91951E-20 8.15395E-19
 -1      2421 1.21161E-04-4.18190E-05-3.40093E-05 5.34758E-06-3.97887E-19 5.93117E-19
 -1      2422 1.20445E-04-4.33856E-05-3.30636E-05 2.18557E-06-8.12066E-19 1.43733E-18
 -1      2423 1.19713E-04-3.80200E-05-3.50193E-05 1.42329E-05 9.02500E-19 1.11766E-18
 -1      2424 1.21623E-04-4.05859E-05-3.48290E-05 1.22831E-05 4.99617E-19 7.59792E-19
 -1      2425 1.23712E-04-4.34032E-05-3.44124E-05 1.02016E-05 2.90549E-19 1.92797E-18
 -1      2426 1.15526E-04-3.06104E-05-3.63559E-05 1.42077E-05 1.03124E-18 1.05174E-18
 -1      2427 1.18312E-04-3.46705E-05-3.60594E-05 1.55012E-05 1.41392E-18 1.20394E-18
 -1      2428 1.23121E-04-3.78112E-05-3.66014E-05 1.61885E-05 1.05145E-18 1.48364E-18
 -1      2429 1.11425E-04-2.42495E-05-3.74390E-05 5.82554E-06-5.82706E-19 1.35939E-18
 -1      2430 1.13109E-04-2.68579E-05-3.72440E-05 1.03848E-05 1.38966E-19 1.23557E-18
 -1      2431 1.18648E-04-2.80442E-05-3.88906E-05 1.43617E-05 6.26460E-19 1.48443E-18
 -1      2432 1.11729E-04-2.48037E-05-3.75177E-05-6.66419E-06 4.68197E-19 1.72828E-19
 -1      2433 1.10945E-04-2.34806E-05-3.76133E-05-1.48753E-06-7.59153E-20 8.72358E-19
 -1      2434 1.15508E-04-2.15151E-05-4.02778E-05 2.53987E-06 3.87941E-19 2.70055E-19
 -1      2435 1.16540E-04-3.19098E-05-3.65129E-05-1.47690E-05 1.34919E-18-1.18370E-18
 -1      2436 1.13856E-04-2.79016E-05-3.68141E-05-1.22691E-05 1.17960E-18-6.82940E-19
 -1      2437 1.17121E-04-2.46728E-05-3.96079E-05-1.13857E-05 1.13391E-18-9.88911E-19
 -1      2438 1.20908E-04-3.89173E-05-3.52578E-05-1.42679E-05 1.00730E-18-2.03376E-18
 -1      2439 1.18487E-04-3.56654E-05-3.54750E-05-1.51236E-05 1.45949E-18-1.41485E-18
 -1      2440 1.21773E-04-3.42357E-05-3.76225E-05-1.71786E-05 1.82909E-18-1.61446E-18
 -1      2441 1.21812E-04-4.18461E-05-3.42908E-05-8.05441E-06-4.28721E-19-2.50272E-18
 -1      2442 1.20829E-04-4.07439E-05-3.44017E-05-1.09277E-05 3.51717E-21-2.70095E-18
 -1      2443 1.24096E-04-4.22366E-05-3.51366E-05-1.30739E-05 7.59597E-19-2.67081E-18
 -1      2444 1.19511E-04-4.07555E-05-3.37209E-05-1.08957E-06-8.01876E-19-8.88180E-19
 -1      2445 1.19909E-04-4.13022E-05-3.37934E-05-4.05163E-06-6.71379E-19-2.11104E-18
 -1      2446 1.21994E-04-4.39167E-05-3.34875E-05-5.08504E-06-7.88522E-19-2.87768E-18
 -1      2447 1.15843E-04-3.79758E-05-3.33363E-05 4.04816E-06 3.97325E-19 3.14401E-19
 -1      2448 1.17052E-04-3.91878E-05-3.34638E-05 1.93866E-06-3.21581E-19-6.20205E-19
 -1      2449 1.17448E-04-4.14601E-05-3.26195E-05 2.04160E-06-7.78453E-19-2.21687E-18
 -1      2450 1.12111E-04-3.51754E-05-3.29493E-05 6.86662E-06 1.57253E-18-5.23387E-19
 -1      2451 1.13641E-04-3.63952E-05-3.31667E-05 5.74139E-06 1.64463E-18 5.65590E-19
 -1      2452 1.12641E-04-3.76554E-05-3.21913E-05 6.62312E-06 6.70652E-19-1.16149E-18
 -1      2453 1.08829E-04-3.29901E-05-3.24901E-05 7.85460E-06 1.18440E-18-2.49092E-18
 -1      2454 1.10389E-04-3.39721E-05-3.27801E-05 7.49524E-06 1.35988E-18-1.03653E-18
 -1      2455 1.08625E-04-3.42857E-05-3.19008E-05 8.79388E-06 2.09803E-18-8.09223E-19
 -1      2456 1.06086E-04-3.14732E-05-3.19710E-05 7.68461E-06-6.51590E-19-2.61581E-18
 -1      2457 1.07535E-04-3.21927E-05-3.22960E-05 7.80500E-06-6.26589E-22-2.16290E-18
 -1      2458 1.05558E-04-3.18824E-05-3.16012E-05 9.26292E-06 7.57092E-19-7.45554E-19
 -1      2459 1.03827E-04-3.04745E-05-3.14337E-05 6.90570E-06 8.95405E-19-1.82293E-18
 -1      2460 1.05106E-04-3.09829E-05-3.17586E-05 7.27278E-06-5.02989E-19-2.23262E-18
 -1      2461 1.03260E-04-3.03634E-05-3.12567E-05 8.72638E-06-5.66958E-19 4.89009E-19
 -1      2462 1.01974E-04-2.98270E-05-3.09180E-05 5.88390E-06 7.49535E-19-5.44366E-19
 -1      2463 1.03065E-04-3.01837E-05-3.12186E-05 6.34292E-06 9.22693E-19-1.11305E-18
 -1      2464 1.01510E-04-2.94733E-05-3.08824E-05 7.69506E-06 1.57545E-20 1.83941E-19
 -1      2465 1.00460E-04-2.94037E-05-3.04507E-05 4.83332E-06 2.45195E-19 1.09124E-18
 -1      2466 1.01367E-04-2.96556E-05-3.07142E-05 5.29508E-06 9.79752E-19 3.39168E-19
 -1      2467 1.00143E-04-2.89780E-05-3.05061E-05 6.49457E-06 3.50588E-19 1.20205E-18
 -1      2468 9.92321E-05-2.91215E-05-3.00453E-05 3.86408E-06-1.11850E-18 8.47643E-19
 -1      2469 9.99690E-05-2.93010E-05-3.02675E-05 4.28406E-06-3.64778E-19 1.11103E-18
 -1      2470 9.90536E-05-2.87128E-05-3.01517E-05 5.31108E-06 6.12832E-19 2.58853E-18
 -1      2471 9.82468E-05-2.89293E-05-2.97054E-05 3.02275E-06-8.84731E-19-6.15964E-20
 -1      2472 9.88345E-05-2.90581E-05-2.98872E-05 3.38335E-06-1.19501E-18 2.10514E-19
 -1      2473 9.81770E-05-2.85756E-05-2.98343E-05 4.23840E-06-2.46568E-19 2.94868E-18
 -1      2474 9.74664E-05-2.87966E-05-2.94278E-05 2.32030E-06-2.04906E-18 6.63008E-19
 -1      2475 9.79267E-05-2.88890E-05-2.95730E-05 2.61868E-06-1.02347E-18 1.83357E-19
 -1      2476 9.74723E-05-2.85081E-05-2.95608E-05 3.31426E-06-1.14763E-18 2.58846E-18
 -1      2477 9.68571E-05-2.87045E-05-2.92063E-05 1.74953E-06-2.02450E-18 9.25932E-19
 -1      2478 9.72116E-05-2.87703E-05-2.93199E-05 1.99012E-06-2.72338E-18 8.52791E-19
 -1      2479 9.69100E-05-2.84778E-05-2.93324E-05 2.54477E-06-2.42233E-18 1.61542E-18
 -1      2480 9.63888E-05-2.86410E-05-2.90330E-05 1.29514E-06-6.46213E-19 1.48953E-18
 -1      2481 9.66571E-05-2.86872E-05-2.91202E-05 1.48539E-06-9.69180E-19 9.16958E-19
 -1      2482 9.64666E-05-2.84676E-05-2.91463E-05 1.91973E-06-1.16241E-18 1.73600E-18
 -1      2483 9.60349E-05-2.85981E-05-2.89000E-05 9.39224E-07-8.30390E-19 2.66565E-18
 -1      2484 9.62343E-05-2.86298E-05-2.89656E-05 1.08737E-06-1.07582E-18 1.96264E-18
 -1      2485 9.61220E-05-2.84679E-05-2.89979E-05 1.42175E-06-1.02864E-18 1.40604E-18
 -1      2486 9.57725E-05-2.85698E-05-2.87998E-05 6.64145E-07 9.25059E-19 2.77405E-18
 -1      2487 9.59176E-05-2.85910E-05-2.88483E-05 7.78105E-07 4.03103E-19 2.51958E-18
 -1      2488 9.58584E-05-2.84736E-05-2.88820E-05 1.03120E-06-2.98240E-19 1.08347E-18
 -1      2489 9.55820E-05-2.85520E-05-2.87260E-05 4.53783E-07 1.25009E-18 2.94917E-18
 -1      2490 9.56850E-05-2.85655E-05-2.87609E-05 5.40674E-07 8.18555E-19 3.31198E-18
 -1      2491 9.56602E-05-2.84817E-05-2.87931E-05 7.28980E-07 9.75855E-19 2.40577E-18
 -1      2492 9.54470E-05-2.85414E-05-2.86729E-05 2.94221E-07 3.58120E-19 3.76129E-18
 -1      2493 9.55177E-05-2.85494E-05-2.86973E-05 3.60090E-07 7.19035E-19 3.80297E-18
 -1      2494 9.55139E-05-2.84903E-05-2.87262E-05 4.97703E-07 5.90887E-19 3.45502E-18
 -1      2495 9.53541E-05-2.85365E-05-2.86354E-05 1.73767E-07-4.43721E-19 3.55043E-18
 -1      2496 9.54003E-05-2.85400E-05-2.86520E-05 2.23402E-07 3.75645E-19 4.26204E-18
 -1      2497 9.54071E-05-2.84982E-05-2.86767E-05 3.22813E-07 1.09331E-19 5.41444E-18
 -1      2498 9.52921E-05-2.85367E-05-2.86090E-05 8.57245E-08-8.73637E-19 2.36234E-18
 -1      2499 9.53212E-05-2.85366E-05-2.86202E-05 1.21958E-07-5.29103E-19 3.31936E-18
 -1      2500 9.53321E-05-2.85084E-05-2.86401E-05 1.90964E-07 1.61413E-19 5.45258E-18
 -1      2501 9.52700E-05-2.85420E-05-2.85967E-05 4.71657E-08-6.55691E-19 1.51761E-18
 -1      2502 9.51133E-05-2.82373E-05-2.86625E-05 1.86173E-07 5.43414E-19-7.20258E-19
 -1      2503 9.51391E-05-2.82723E-05-2.86566E-05 1.96263E-07 5.39896E-20-1.81908E-18
 -1      2504 9.50671E-05-2.81714E-05-2.86709E-05 1.38108E-07-2.11434E-20-1.37054E-18
 -1      2505 9.50870E-05-2.81980E-05-2.86666E-05 1.62761E-07 3.01971E-19-7.65308E-19
 -1      2506 9.50736E-05-2.81649E-05-2.86741E-05 2.09641E-07-2.08188E-19-7.07929E-19
 -1      2507 9.52254E-05-2.84067E-05-2.86374E-05 1.78939E-07 4.99315E-19 3.55842E-18
 -1      2508 9.52477E-05-2.84420E-05-2.86300E-05 1.59645E-07-3.60909E-20 3.52430E-18
 -1      2509 9.51697E-05-2.83199E-05-2.86510E-05 2.00599E-07-5.45133E-19-1.02440E-18
 -1      2510 9.51964E-05-2.83575E-05-2.86443E-05 1.94642E-07-6.91528E-19 1.66793E-18
 -1      2511 9.52118E-05-2.83531E-05-2.86532E-05 2.31533E-07-1.18797E-18 1.43987E-18
 -1      2512 9.51406E-05-2.82538E-05-2.86651E-05 2.41166E-07-2.41489E-19-4.60529E-19
 -1      2513 9.50390E-05-2.81317E-05-2.86757E-05 6.54507E-08 1.91279E-19-1.58835E-18
 -1      2514 9.50497E-05-2.81459E-05-2.86734E-05 9.99204E-08 4.14513E-20-1.07773E-18
 -1      2515 9.50221E-05-2.80986E-05-2.86802E-05 1.41908E-07-1.54620E-19-7.25249E-19
 -1      2516 9.50332E-05-2.81236E-05-2.86764E-05-1.85376E-08-1.34074E-19-2.01205E-18
 -1      2517 9.50331E-05-2.81234E-05-2.86765E-05 1.93313E-08 1.15685E-19-2.03732E-18
 -1      2518 9.49946E-05-2.80641E-05-2.86830E-05 4.99890E-08 4.06515E-19-1.86796E-18
 -1      2519 9.50504E-05-2.81480E-05-2.86728E-05-9.88210E-08-1.99004E-19-2.01773E-18
 -1      2520 9.50396E-05-2.81334E-05-2.86753E-05-6.45056E-08-2.20303E-19-1.49946E-18
 -1      2521 9.49951E-05-2.80656E-05-2.86826E-05-5.01712E-08 1.05649E-18-1.97039E-18
 -1      2522 9.50870E-05-2.82000E-05-2.86657E-05-1.60300E-07 2.63690E-18-8.11997E-19
 -1      2523 9.50677E-05-2.81740E-05-2.86701E-05-1.36052E-07 1.04217E-18-1.87501E-18
 -1      2524 9.50232E-05-2.81023E-05-2.86791E-05-1.40754E-07 1.87173E-18-5.50752E-19
 -1      2525 9.51382E-05-2.82741E-05-2.86555E-05-1.94127E-07 3.52273E-18 2.45790E-18
 -1      2526 9.51130E-05-2.82394E-05-2.86614E-05-1.83671E-07 3.18999E-18-2.24839E-19
 -1      2527 9.50739E-05-2.81692E-05-2.86725E-05-2.07175E-07 2.78990E-18 2.56152E-20
 -1      2528 9.51954E-05-2.83597E-05-2.86430E-05-1.92522E-07 1.53116E-18-4.57146E-19
 -1      2529 9.51694E-05-2.83218E-05-2.86499E-05-1.99107E-07 2.42282E-18 2.06900E-18
 -1      2530 9.51401E-05-2.82579E-05-2.86633E-05-2.39189E-07 2.26459E-18 7.15554E-19
 -1      2531 9.52463E-05-2.84441E-05-2.86287E-05-1.59124E-07-2.12700E-18-3.60557E-18
 -1      2532 9.52239E-05-2.84078E-05-2.86361E-05-1.79436E-07-3.82993E-19-2.99662E-18
 -1      2533 9.52077E-05-2.83560E-05-2.86512E-05-2.29632E-07 5.79039E-19-2.81453E-18
 -1      2534 9.69081E-05-5.28187E-05-1.88555E-05 3.94781E-05-1.01729E-18 2.20884E-18
 -1      2535 7.70928E-05-4.51737E-05-1.33236E-05 3.98298E-05-3.46225E-19 1.48945E-18
 -1      2536 9.52639E-05-2.85127E-05-2.86067E-05-8.28288E-08-9.40625E-19-8.80956E-19
 -1      2537 1.96867E-05-1.73083E-05-7.37133E-07-8.66171E-06-1.04982E-18 5.26346E-18
 -1      2538 2.60131E-05-2.10296E-05-1.92924E-06-2.36253E-05-4.11552E-19 5.80853E-18
 -1      2539 9.39978E-05-2.74682E-05-2.84969E-05-1.52458E-07 6.21678E-19 9.19061E-19
 -1      2540 9.41809E-05-2.73210E-05-2.86097E-05 4.53314E-07 6.94663E-19 1.09106E-18
 -1      2541 9.46309E-05-2.74162E-05-2.88223E-05-2.91242E-07 7.62860E-19 5.39749E-19
 -1      2542 2.51839E-05-2.01854E-05-1.88483E-06 1.91066E-05-5.76512E-19 2.68764E-18
 -1      2543 2.02782E-05-1.69454E-05-1.05810E-06 6.45879E-06-1.47376E-18 4.19027E-18
 -1      2544 1.27062E-04-5.98540E-05-2.90238E-05 2.61441E-05 2.79309E-19 8.72973E-19
 -1      2545 1.13475E-04-5.81443E-05-2.36501E-05 3.14939E-05-7.14684E-19 1.47797E-18
 -1      2546 9.50974E-05-2.00030E-05-3.22314E-05-1.15157E-05-1.01756E-18-7.11415E-19
 -1      2547 9.55267E-05-2.33273E-05-3.09612E-05-7.68745E-06-8.88366E-19-6.19672E-19
 -1      2548 9.51203E-05-2.25201E-05-3.11057E-05-7.27248E-06-7.48201E-19-8.21281E-19
 -1      2549 9.32877E-05-1.76768E-05-3.24326E-05-1.10358E-05-9.02345E-19-9.63235E-19
 -1      2550 1.09680E-04-5.51534E-05-2.32942E-05-3.47547E-05-2.96462E-19-1.03592E-18
 -1      2551 1.23935E-04-5.56216E-05-2.93130E-05-3.01696E-05-1.76035E-18-1.38575E-18
 -1      2552 1.41287E-04-1.14797E-05-5.62414E-05-4.47922E-06-3.08320E-18 3.57924E-19
 -1      2553 1.45374E-04-1.83355E-05-5.48157E-05-4.84854E-06-2.88965E-18 9.00820E-19
 -1      2554 8.77296E-05-1.04953E-05-3.31364E-05-1.44252E-06 4.07642E-19-1.50919E-18
 -1      2555 8.78468E-05-1.06293E-05-3.31269E-05-2.51756E-06 2.01210E-19-1.47860E-18
 -1      2556 8.92100E-05-1.27439E-05-3.27718E-05-2.76673E-06 1.55502E-19-1.37655E-18
 -1      2557 8.89314E-05-1.23745E-05-3.28117E-05-8.85139E-07 4.57325E-19-1.31758E-18
 -1      2558 1.47082E-04-1.45098E-05-5.72127E-05 4.61296E-06 2.88711E-18 8.02352E-19
 -1      2559 1.46305E-04-1.28182E-05-5.76896E-05-1.00454E-06 2.37720E-18 1.00416E-18
 -1      2560 1.46017E-04-4.16542E-05-4.48599E-05-5.85233E-06-2.08180E-18 1.46706E-18
 -1      2561 1.48795E-04-3.47395E-05-4.93902E-05-9.78844E-08-1.79211E-18 1.51428E-18
 -1      2562 1.52684E-04-3.06090E-05-5.25717E-05-6.78386E-06 2.61246E-18 4.41728E-19
 -1      2563 1.48480E-04-4.07633E-05-4.64971E-05-4.45989E-06 2.17709E-18 1.96300E-19
 -1      2564 1.48022E-04-1.65388E-05-5.68882E-05-6.33671E-06 2.51145E-18-4.30928E-20
 -1      2565 1.50826E-04-2.31671E-05-5.50609E-05-8.29528E-06 2.35920E-18 2.13452E-19
 -1      2566 1.43314E-04-2.72319E-05-4.97866E-05-1.35223E-05 2.08815E-18-9.57359E-19
 -1      2567 1.49207E-04-4.63695E-05-4.42790E-05-9.32357E-07 1.63975E-18 1.69237E-18
 -1      2568 1.53708E-04-3.84588E-05-4.97580E-05 2.90393E-06 2.41500E-18 1.52402E-18
 -1      2569 1.45743E-04-3.44657E-05-4.76712E-05 1.12683E-05 2.33029E-18 2.57413E-18
 -1      2570 1.31221E-04-5.81320E-05-3.13579E-05-2.15969E-05-3.21237E-19 3.24202E-19
 -1      2571 1.43965E-04-5.53727E-05-3.84188E-05-1.30409E-05 1.10368E-18 1.41285E-18
 -1      2572 9.86925E-05-5.42527E-05-1.89320E-05-3.71373E-05-1.51534E-18-1.78168E-18
 -1      2573 1.17001E-04-5.79986E-05-2.54994E-05-3.32676E-05-1.19368E-18-1.11681E-18
 -1      2574 5.72017E-05-3.85020E-05-7.85789E-06-3.85351E-05-6.77415E-19-7.40519E-19
 -1      2575 7.64593E-05-4.58993E-05-1.31608E-05-4.25944E-05-8.97008E-19-1.16912E-18
 -1      2576 3.02222E-05-2.33880E-05-2.60664E-06-2.42865E-05-7.94093E-19-1.98396E-18
 -1      2577 4.17868E-05-2.99258E-05-4.89664E-06-3.42645E-05-5.20078E-19-1.50285E-18
 -1      2578 1.89320E-05-1.75763E-05-3.08709E-07 7.21307E-06-7.94093E-21-2.79521E-18
 -1      2579 2.04799E-05-1.75862E-05-9.78179E-07-9.50602E-06-3.83812E-19-1.79656E-18
 -1      2580 3.49095E-05-2.67289E-05-3.30847E-06 3.25633E-05 5.62642E-19-1.96448E-18
 -1      2581 2.48269E-05-2.14149E-05-1.23608E-06 2.14473E-05 7.52377E-19-2.50574E-18
 -1      2582 6.43208E-05-4.04262E-05-1.02460E-05 4.38278E-05 9.96746E-19-2.07047E-18
 -1      2583 4.77569E-05-3.43130E-05-5.62144E-06 3.81708E-05 8.18234E-19-1.60936E-18
 -1      2584 4.83522E-05-2.88342E-05-7.90055E-06 3.55453E-05 1.47299E-18-1.44017E-18
 -1      2585 1.03180E-04-5.32488E-05-2.15382E-05 3.98202E-05 2.03076E-19-3.37331E-19
 -1      2586 8.54611E-05-4.90830E-05-1.54772E-05 4.16878E-05 7.68682E-19-1.30476E-18
 -1      2587 1.32216E-04-5.49594E-05-3.33215E-05 2.32171E-05-9.41265E-19 3.21449E-19
 -1      2588 1.19484E-04-5.60884E-05-2.71804E-05 2.95579E-05-3.02814E-20-4.33257E-19
 -1      2589 1.45079E-04-4.52799E-05-4.32570E-05 6.36625E-06-2.35086E-18 7.22307E-19
 -1      2590 1.38796E-04-5.10320E-05-3.78029E-05 1.35006E-05-1.73393E-18 7.65506E-19
 -1      2591 1.35973E-04-5.59437E-05-3.41560E-05 1.27680E-05-1.25763E-18 5.05890E-19
 -1      2592 1.47847E-04-2.58538E-05-5.27806E-05-3.84479E-06-3.12598E-18 9.90182E-19
 -1      2593 1.45846E-04-3.25787E-05-4.87606E-05-2.27380E-06-2.59764E-18 1.13185E-18
 -1      2594 1.37222E-04-2.03257E-05-5.02634E-05-9.37991E-06-2.64401E-18 5.04514E-19
 -1      2595 1.38614E-04-1.05065E-05-5.54288E-05 3.56526E-06-2.75646E-18 1.52815E-18
 -1      2596 1.37375E-04-8.88966E-06-5.56840E-05 2.94750E-07-3.15181E-18 7.80091E-19
 -1      2597 1.45208E-04-2.34827E-05-5.24466E-05 5.34270E-06-2.11610E-18 2.25353E-18
 -1      2598 1.42805E-04-1.58465E-05-5.50597E-05 6.01589E-06-2.04601E-18 2.47567E-18
 -1      2599 1.30917E-04-1.27920E-05-5.09369E-05 6.75756E-06-2.72978E-18 1.54509E-18
 -1      2600 1.32210E-04-5.30326E-05-3.40957E-05-2.11894E-05-2.22293E-18-3.20178E-19
 -1      2601 1.42110E-04-4.89674E-05-4.01370E-05-1.47809E-05-2.14935E-18 8.29669E-19
 -1      2602 1.31439E-04-5.73509E-05-3.16717E-05-1.97753E-05-6.32945E-19-7.89541E-19
 -1      2603 7.69836E-05-4.50807E-05-1.33569E-05-4.23460E-05 8.36869E-19 5.64971E-19
 -1      2604 9.23066E-05-5.03913E-05-1.79606E-05-4.24556E-05 4.27963E-19-8.92495E-19
 -1      2605 3.93344E-05-2.88160E-05-4.25811E-06-3.38593E-05 4.27116E-19 4.64703E-18
 -1      2606 5.71173E-05-3.62732E-05-8.84780E-06-4.22774E-05 8.96584E-19 2.51421E-18
 -1      2607 7.15491E-05-3.99688E-05-1.30868E-05-4.14118E-05 1.50010E-18 1.25710E-18
 -1      2608 5.46526E-05-3.44335E-05-8.55139E-06 3.89957E-05 3.33731E-19 2.00874E-18
 -1      2609 3.70724E-05-2.69401E-05-4.04367E-06 2.90803E-05-1.02279E-19 1.94500E-18
 -1      2610 3.95985E-05-2.16101E-05-7.10326E-06 2.47996E-05-8.14210E-19 2.48477E-18
 -1      2611 9.63521E-05-2.50806E-05-3.05688E-05 7.37532E-06 1.16355E-18 1.75181E-18
 -1      2612 9.74342E-05-2.37644E-05-3.15935E-05 1.04880E-05 1.20853E-18 1.93781E-18
 -1      2613 9.58990E-05-2.12955E-05-3.20288E-05 1.16661E-05 1.34815E-18 1.48187E-18
 -1      2614 9.59386E-05-2.41371E-05-3.08059E-05 7.40163E-06 1.20362E-18 1.08718E-18
 -1      2615 1.45979E-04-5.32562E-05-4.01914E-05 4.90401E-06 1.35569E-18-2.80791E-19
 -1      2616 1.37467E-04-5.83206E-05-3.39944E-05 1.49978E-05 7.35013E-19 4.48927E-20
 -1      2617 1.38324E-04-1.42927E-05-5.32524E-05-5.12569E-06 2.04093E-18-4.61051E-19
 -1      2618 9.07768E-05-1.48412E-05-3.25379E-05-6.49917E-06-3.46868E-19-1.47904E-18
 -1      2619 8.97220E-05-1.30453E-05-3.29141E-05-7.68185E-06-4.45609E-19-1.57859E-18
 -1      2620 9.03983E-05-1.38598E-05-3.28627E-05-8.84376E-06-6.12919E-19-1.59391E-18
 -1      2621 9.49586E-05-2.68799E-05-2.91910E-05 1.38135E-06 8.97441E-19 5.66033E-19
 -1      2622 9.42905E-05-1.90687E-05-3.22827E-05 1.13515E-05 1.50125E-18 8.21384E-19
 -1      2623 1.47085E-04-4.87028E-05-4.24649E-05-4.33766E-06 1.40570E-18-3.90059E-19
 -1      2624 1.42393E-04-5.32122E-05-3.83056E-05-2.48628E-06 1.27419E-18-5.84241E-19
 -1      2625 1.42326E-04-4.09272E-05-4.39541E-05-1.31424E-05 1.78639E-18-1.29511E-18
 -1      2626 1.06812E-04-5.49339E-05-2.20650E-05-3.52754E-05 2.18111E-19-5.85617E-19
 -1      2627 1.39280E-04-1.74120E-05-5.23155E-05 9.32030E-06 2.94535E-18 4.01176E-19
 -1      2628 3.96740E-05-2.29275E-05-6.61627E-06-2.88237E-05 5.42736E-19 4.21801E-18
 -1      2629 9.52788E-05-2.85185E-05-2.86116E-05 9.45090E-08-8.07249E-19 2.79178E-18
 -1      2630 9.52745E-05-2.84951E-05-2.86196E-05 1.21828E-07-2.76478E-20 3.83509E-18
 -1      2631 7.27019E-05-3.96553E-05-1.36494E-05 3.79245E-05-7.72706E-19 1.15631E-18
 -1      2632 1.09208E-04-5.64282E-05-2.23790E-05 3.21608E-05-1.08367E-18 1.36147E-18
 -1      2633 9.52890E-05-2.85140E-05-2.86170E-05-1.17764E-07-2.25810E-18 2.53269E-19
 -1      2634 9.52679E-05-2.84802E-05-2.86240E-05-1.41368E-07-2.21831E-18-1.57061E-18
 -1      2635 9.52701E-05-2.84421E-05-2.86399E-05-1.98548E-07-3.08044E-18-1.61001E-18
 -1      2636 9.53132E-05-2.85103E-05-2.86281E-05-1.55238E-07-2.67949E-18 8.97391E-19
 -1      2637 1.40524E-04-2.89281E-05-4.79947E-05 7.49860E-06-1.73451E-18 1.83933E-18
 -1      2638 2.70157E-05-1.46436E-05-4.67837E-06-1.55268E-06-1.05073E-18 5.36680E-18
 -1      2639 9.47685E-05-2.05589E-05-3.17600E-05 9.37768E-06 1.38867E-18 5.82348E-19
 -1      2640 1.41860E-04-4.02303E-05-4.36592E-05-3.43741E-06-2.56810E-18 6.05629E-19
 -1      2641 9.11888E-05-1.49342E-05-3.27345E-05-9.52800E-06-6.78888E-19-1.50078E-18
 -1      2642 9.22206E-05-1.62379E-05-3.26427E-05-1.05603E-05-8.58366E-19-1.29449E-18
 -1      2643 9.37172E-05-1.91432E-05-3.19442E-05-8.88519E-06-8.14334E-19-1.16494E-18
 -1      2644 9.21076E-05-1.66924E-05-3.23055E-05-7.98395E-06-6.39831E-19-1.41790E-18
 -1      2645 1.30158E-04-9.73611E-06-5.19442E-05-2.48237E-06-3.11009E-18 7.21566E-20
 -1      2646 8.08171E-05-4.53995E-05-1.48203E-05 4.21124E-05 1.59412E-18-1.13942E-18
 -1      2647 2.93755E-05-1.67426E-05-4.78953E-06 1.43569E-05 9.11619E-19-2.40219E-18
 -1      2648 3.22015E-05-1.82773E-05-5.33519E-06-1.63510E-05-4.28122E-19-1.74658E-18
 -1      2649 5.75027E-05-3.34817E-05-9.78785E-06-3.63810E-05-1.10008E-18-7.71859E-19
 -1      2650 9.41787E-05-5.14340E-05-1.79759E-05-3.80171E-05-1.35102E-18-1.41664E-18
 -1      2651 1.34308E-04-6.04675E-05-3.14938E-05 1.52199E-05 8.03834E-19 3.56813E-19
 -1      2652 1.45660E-04-5.29334E-05-3.97254E-05-9.99276E-07 8.33586E-19 1.89185E-18
 -1      2653 1.42359E-04-4.76343E-05-4.05257E-05-3.93258E-06-1.54294E-18 1.90159E-19
 -1      2654 1.28269E-04-6.07384E-05-2.87241E-05-2.22246E-05-1.11501E-18 2.29546E-19
 -1      2655 1.16271E-04-5.74672E-05-2.49451E-05 3.11061E-05 5.74077E-19-2.38546E-19
 -1      2656 9.52778E-05-2.84584E-05-2.86362E-05 1.78379E-07-3.89003E-19 4.73817E-18
 -1      2657 9.53101E-05-2.84739E-05-2.86454E-05-2.20190E-07-2.61063E-18-7.85951E-20
 -1      2658 9.03777E-05-1.47553E-05-3.24316E-05 2.97721E-06 9.35988E-19-1.02319E-18
 -1      2659 9.01610E-05-1.44589E-05-3.24650E-05 2.09572E-06 8.32640E-19-1.15554E-18
 -1      2660 9.00057E-05-1.42333E-05-3.24939E-05 1.32580E-06 6.82325E-19-1.24332E-18
 -1      2661 8.99306E-05-1.41321E-05-3.25049E-05 4.29011E-07 6.30204E-19-1.17260E-18
 -1      2662 9.11398E-05-1.60493E-05-3.21669E-05 1.49289E-06 7.14248E-19-1.12563E-18
 -1      2663 9.21188E-05-1.73126E-05-3.20965E-05 6.10421E-06 1.28600E-18-3.75542E-19
 -1      2664 9.15546E-05-1.64747E-05-3.22010E-05 5.28632E-06 1.19522E-18-5.09120E-19
 -1      2665 9.36069E-05-1.96377E-05-3.17424E-05 7.21988E-06 1.35998E-18-5.53318E-20
 -1      2666 9.27901E-05-1.83433E-05-3.19244E-05 6.63966E-06 1.25457E-18-1.43205E-19
 -1      2667 9.34111E-05-1.96059E-05-3.16076E-05 5.30970E-06 1.12862E-18-1.95478E-19
 -1      2668 9.53538E-05-2.53150E-05-3.00261E-05 3.53747E-06 9.47420E-19 2.86795E-19
 -1      2669 9.56494E-05-2.44811E-05-3.04682E-05 5.22821E-06 1.00281E-18 3.90685E-19
 -1      2670 1.35740E-04-3.46916E-05-4.40123E-05-9.69785E-06-2.48710E-18 6.72862E-19
 -1      2671 1.37331E-04-4.57588E-05-3.93677E-05-3.73641E-06-1.90874E-18 9.13631E-19
 -1      2672 9.54666E-05-2.57144E-05-2.98695E-05-2.11818E-06-4.29865E-19-7.71016E-19
 -1      2673 9.53566E-05-2.62783E-05-2.96124E-05-1.03787E-06-4.25080E-19-6.70827E-19
 -1      2674 9.53934E-05-2.67603E-05-2.93925E-05-1.84263E-07-4.47081E-19-5.34488E-19
 -1      2675 9.53215E-05-2.70883E-05-2.92452E-05 5.45662E-07-4.14018E-19-5.94478E-19
 -1      2676 9.54957E-05-2.60111E-05-2.97865E-05-8.25911E-07-4.15143E-19-7.43121E-19
 -1      2677 9.53061E-05-2.73510E-05-2.91091E-05 1.16158E-06-2.80821E-19-4.27334E-19
 -1      2678 9.53110E-05-2.75506E-05-2.90386E-05 1.67208E-06-2.13827E-19-2.65771E-19
 -1      2679 9.55232E-05-2.69022E-05-2.94175E-05 7.22735E-07-2.81763E-19-5.33078E-19
 -1      2680 9.52949E-05-2.76903E-05-2.89648E-05 2.12974E-06-2.98844E-19-2.92423E-19
 -1      2681 9.53753E-05-2.78166E-05-2.89495E-05 2.51082E-06-3.77943E-19-2.57002E-19
 -1      2682 9.55046E-05-2.74061E-05-2.91930E-05 1.85993E-06-2.61967E-19-3.67842E-19
 -1      2683 9.53779E-05-2.78841E-05-2.89216E-05 2.87575E-06-4.24012E-19-2.38806E-19
 -1      2684 9.55260E-05-2.79708E-05-2.89462E-05 3.18817E-06-4.19504E-19-3.55411E-19
 -1      2685 9.55023E-05-2.76739E-05-2.90761E-05 2.73255E-06-4.11269E-19-2.75125E-19
 -1      2686 9.55569E-05-2.80001E-05-2.89514E-05 3.50813E-06-3.70378E-19-1.98947E-19
 -1      2687 9.57677E-05-2.80730E-05-2.90049E-05 3.79025E-06-5.03351E-19-2.80793E-19
 -1      2688 9.55439E-05-2.78023E-05-2.90378E-05 3.45741E-06-2.67998E-19-1.21801E-19
 -1      2689 9.58358E-05-2.80924E-05-2.90329E-05 4.09584E-06-6.10925E-19 8.97527E-21
 -1      2690 9.61098E-05-2.81764E-05-2.91067E-05 4.36705E-06-5.63646E-19 3.34511E-19
 -1      2691 9.56481E-05-2.78653E-05-2.90549E-05 4.11625E-06-4.28022E-19 3.58161E-19
 -1      2692 9.62288E-05-2.82158E-05-2.91488E-05 4.67237E-06-4.83781E-19 4.68682E-19
 -1      2693 9.65730E-05-2.83395E-05-2.92355E-05 4.93381E-06-2.96626E-19 3.61979E-19
 -1      2694 9.58377E-05-2.79314E-05-2.91078E-05 4.75700E-06-2.88534E-19 7.33634E-19
 -1      2695 9.67656E-05-2.84346E-05-2.92840E-05 5.23566E-06-3.93769E-19 5.88515E-19
 -1      2696 9.71935E-05-2.86334E-05-2.93765E-05 5.46883E-06-9.72445E-20 5.52142E-19
 -1      2697 9.61491E-05-2.80770E-05-2.91797E-05 5.39386E-06-2.30789E-19 6.21382E-19
 -1      2698 9.74952E-05-2.88295E-05-2.94247E-05 5.74412E-06-9.39879E-20 3.67355E-19
 -1      2699 9.80274E-05-2.91464E-05-2.95165E-05 5.90806E-06-2.06949E-19 1.90052E-19
 -1      2700 9.66400E-05-2.83957E-05-2.92556E-05 6.00452E-06-3.46804E-19 3.05555E-19
 -1      2701 9.84904E-05-2.94990E-05-2.95595E-05 6.10941E-06-9.00699E-20 1.22202E-19
 -1      2702 9.91524E-05-2.99816E-05-2.96449E-05 6.13761E-06-1.87966E-19 9.74157E-20
 -1      2703 9.73975E-05-2.90026E-05-2.93239E-05 6.52386E-06-1.43883E-19 5.39106E-19
 -1      2704 9.98449E-05-3.05509E-05-2.96820E-05 6.18727E-06-3.78979E-19 3.37598E-19
 -1      2705 1.00661E-04-3.12400E-05-2.97588E-05 5.98648E-06-2.01122E-19 5.90551E-19
 -1      2706 9.85416E-05-3.00304E-05-2.93794E-05 6.83397E-06-6.66021E-20 1.23479E-19
 -1      2707 1.01658E-04-3.20735E-05-2.97974E-05 5.76965E-06-1.01220E-20 6.25590E-19
 -1      2708 1.02632E-04-3.29748E-05-2.98701E-05 5.22514E-06 4.01737E-20 5.39689E-19
 -1      2709 1.00218E-04-3.16051E-05-2.94306E-05 6.75077E-06-2.05443E-19 3.27853E-19
 -1      2710 1.03988E-04-3.40662E-05-2.99322E-05 4.58671E-06-2.35135E-19 6.78533E-19
 -1      2711 1.05069E-04-3.50956E-05-3.00182E-05 3.58412E-06-3.37777E-19 7.46511E-19
 -1      2712 1.02563E-04-3.37837E-05-2.95098E-05 6.01003E-06-1.34496E-19 6.14922E-19
 -1      2713 1.06743E-04-3.63095E-05-3.01474E-05 2.35519E-06-1.96375E-19 8.30401E-19
 -1      2714 1.07775E-04-3.72209E-05-3.02792E-05 8.37194E-07-2.44542E-19 8.04558E-19
 -1      2715 1.05605E-04-3.64116E-05-2.96898E-05 4.27425E-06-2.45598E-19 1.20823E-18
 -1      2716 1.09535E-04-3.82052E-05-3.05380E-05-1.07756E-06-3.49754E-19 1.32189E-18
 -1      2717 1.10223E-04-3.85428E-05-3.07617E-05-2.99846E-06-2.87908E-19 1.33358E-18
 -1      2718 1.09092E-04-3.89494E-05-3.00890E-05 1.23347E-06 1.14368E-21 1.38766E-18
 -1      2719 1.11571E-04-3.87081E-05-3.12255E-05-5.43636E-06-4.80994E-19 1.32736E-18
 -1      2720 1.11547E-04-3.78901E-05-3.15853E-05-7.34211E-06-4.42016E-19 1.10929E-18
 -1      2721 1.12302E-04-4.02795E-05-3.08611E-05-3.14137E-06-2.90670E-19 1.35442E-18
 -1      2722 1.11752E-04-3.65504E-05-3.22954E-05-9.59024E-06-2.57633E-19 9.44877E-19
 -1      2723 1.10795E-04-3.42505E-05-3.27816E-05-1.06468E-05-4.66500E-19 9.40891E-19
 -1      2724 1.13980E-04-3.88418E-05-3.21579E-05-8.13565E-06-4.81722E-19 9.80077E-19
 -1      2725 1.09538E-04-3.13424E-05-3.36358E-05-1.13585E-05-8.36887E-19 8.30258E-19
 -1      2726 1.07986E-04-2.81609E-05-3.41414E-05-1.06336E-05-7.85762E-19 2.56548E-19
 -1      2727 1.12941E-04-3.37079E-05-3.39170E-05-1.15783E-05-7.26185E-19 7.12044E-19
 -1      2728 1.06023E-04-2.49184E-05-3.48934E-05-8.62090E-06-1.03049E-18-3.38158E-19
 -1      2729 1.04789E-04-2.25105E-05-3.52366E-05-5.88743E-06-1.45488E-18-7.12514E-19
 -1      2730 1.09542E-04-2.60512E-05-3.57633E-05-1.06822E-05-1.33606E-18 5.97884E-19
 -1      2731 1.03869E-04-2.11664E-05-3.55297E-05-1.55000E-06-1.24675E-18-1.54124E-18
 -1      2732 1.03809E-04-2.12041E-05-3.55216E-05 1.95761E-06-1.08621E-18-1.17600E-18
 -1      2733 1.06494E-04-2.05471E-05-3.68443E-05-4.16593E-06-1.78108E-18-4.45483E-19
 -1      2734 1.04960E-04-2.27305E-05-3.51960E-05 6.39648E-06-1.00425E-18-1.61472E-18
 -1      2735 1.06229E-04-2.52494E-05-3.48432E-05 8.97416E-06-9.22722E-19-1.41896E-18
 -1      2736 1.06383E-04-2.03469E-05-3.68537E-05 4.94476E-06-1.34811E-18-5.04871E-19
 -1      2737 1.08162E-04-2.84795E-05-3.40899E-05 1.08543E-05-3.63867E-19-1.42853E-18
 -1      2738 1.09757E-04-3.16726E-05-3.35839E-05 1.14790E-05-3.11566E-20-1.27474E-18
 -1      2739 1.09767E-04-2.63645E-05-3.57079E-05 1.09952E-05-3.94744E-19-1.09871E-18
 -1      2740 1.10915E-04-3.45112E-05-3.27282E-05 1.06170E-05-6.77428E-20-1.51452E-18
 -1      2741 1.11833E-04-3.67165E-05-3.22511E-05 9.50789E-06-4.52683E-20-1.20384E-18
 -1      2742 1.13119E-04-3.40886E-05-3.38328E-05 1.15707E-05 1.02547E-19-1.23054E-18
 -1      2743 1.11543E-04-3.79491E-05-3.15637E-05 7.25009E-06 1.97585E-19-1.00587E-18
 -1      2744 1.11533E-04-3.86870E-05-3.12192E-05 5.34963E-06 4.71574E-19-8.71920E-19
 -1      2745 1.13943E-04-3.89578E-05-3.20977E-05 7.99273E-06 5.57205E-20-3.73684E-19
 -1      2746 1.10155E-04-3.84566E-05-3.07729E-05 2.95165E-06 2.26258E-19-4.90817E-19
 -1      2747 1.09452E-04-3.80662E-05-3.05616E-05 1.07185E-06 3.53397E-19-2.67724E-19
 -1      2748 1.12166E-04-4.01815E-05-3.08500E-05 3.06507E-06 2.42958E-19-1.88182E-19
 -1      2749 1.07684E-04-3.70421E-05-3.03171E-05-7.75533E-07 8.18538E-19-7.35941E-19
 -1      2750 1.06660E-04-3.61075E-05-3.01971E-05-2.22867E-06 1.03414E-18-5.59901E-19
 -1      2751 1.08919E-04-3.87282E-05-3.01091E-05-1.19644E-06 4.61623E-19-3.40666E-19
 -1      2752 1.05003E-04-3.48835E-05-3.00807E-05-3.37868E-06 3.71437E-19-7.85470E-19
 -1      2753 1.03947E-04-3.38530E-05-3.00060E-05-4.31003E-06 5.43752E-19-1.00462E-18
 -1      2754 1.05443E-04-3.61378E-05-2.97386E-05-4.08377E-06 6.58859E-19-8.70343E-19
 -1      2755 1.02617E-04-3.27652E-05-2.99533E-05-4.87210E-06 9.65345E-19-4.20057E-19
 -1      2756 1.01678E-04-3.18723E-05-2.98917E-05-5.34438E-06 7.14895E-20-1.39456E-19
 -1      2757 1.02445E-04-3.34992E-05-2.95807E-05-5.66140E-06 1.18393E-18-1.22363E-18
 -1      2758 1.00703E-04-3.10434E-05-2.98612E-05-5.48831E-06-9.66508E-19 9.86108E-19
 -1      2759 9.99275E-05-3.03648E-05-2.97965E-05-5.61617E-06-4.72737E-19 1.60917E-18
 -1      2760 1.00148E-04-3.13312E-05-2.95176E-05-6.25416E-06 6.49277E-20 7.11404E-19
 -1      2761 9.92523E-05-2.97986E-05-2.97666E-05-5.49364E-06-4.84754E-19 1.76572E-18
 -1      2762 9.86350E-05-2.93278E-05-2.96940E-05-5.39206E-06-2.60557E-19 1.57166E-18
 -1      2763 9.85112E-05-2.97642E-05-2.94799E-05-6.19186E-06-4.44830E-19 2.40790E-18
 -1      2764 9.81843E-05-2.89772E-05-2.96569E-05-5.11816E-06 2.09297E-19 8.43640E-19
 -1      2765 9.77001E-05-2.86747E-05-2.95781E-05-4.88176E-06 5.43448E-19 1.14338E-18
 -1      2766 9.73974E-05-2.87422E-05-2.94347E-05-5.73677E-06-4.85906E-19 2.35128E-18
 -1      2767 9.74054E-05-2.84818E-05-2.95331E-05-4.53666E-06 2.78080E-19 4.76212E-19
 -1      2768 9.70274E-05-2.83026E-05-2.94523E-05-4.23545E-06 3.29055E-19 5.05524E-19
 -1      2769 9.66605E-05-2.81429E-05-2.93718E-05-5.07636E-06-4.19076E-19 1.31110E-18
 -1      2770 9.68364E-05-2.82158E-05-2.94022E-05-3.87195E-06-3.83657E-20 1.83262E-19
 -1      2771 9.65415E-05-2.81208E-05-2.93237E-05-3.55366E-06-8.08963E-19-6.27670E-19
 -1      2772 9.61805E-05-2.78415E-05-2.92928E-05-4.33724E-06-1.15818E-19 1.13604E-19
 -1      2773 9.64175E-05-2.81001E-05-2.92720E-05-3.20441E-06-7.88449E-19-1.32191E-19
 -1      2774 9.61877E-05-2.80594E-05-2.91992E-05-2.89896E-06 5.40480E-21-2.63245E-19
 -1      2775 9.58693E-05-2.77342E-05-2.92038E-05-3.60069E-06-4.21471E-19-8.21585E-19
 -1      2776 9.61062E-05-2.80765E-05-2.91490E-05-2.58232E-06 6.62791E-19-5.25641E-19
 -1      2777 9.59277E-05-2.80687E-05-2.90842E-05-2.30646E-06 1.14214E-18-7.20826E-19
 -1      2778 9.56665E-05-2.77441E-05-2.91119E-05-2.91530E-06-1.76859E-20-8.13356E-20
 -1      2779 9.58733E-05-2.81048E-05-2.90377E-05-2.03105E-06 1.41630E-18-1.37961E-18
 -1      2780 9.57354E-05-2.81153E-05-2.89817E-05-1.79241E-06 1.22669E-18-1.01542E-18
 -1      2781 9.55329E-05-2.78176E-05-2.90226E-05-2.30676E-06 4.65911E-19-1.46297E-18
 -1      2782 9.56981E-05-2.81584E-05-2.89404E-05-1.56042E-06 1.25763E-18-8.68044E-19
 -1      2783 9.55925E-05-2.81779E-05-2.88935E-05-1.36064E-06 1.00454E-18-2.60146E-19
 -1      2784 9.54432E-05-2.79195E-05-2.89401E-05-1.78525E-06 1.25958E-18-3.02396E-18
 -1      2785 9.55661E-05-2.82208E-05-2.88579E-05-1.17028E-06 5.68667E-19 4.71124E-19
 -1      2786 9.54860E-05-2.82434E-05-2.88196E-05-1.00738E-06 1.78429E-18 8.14881E-19
 -1      2787 9.53813E-05-2.80281E-05-2.88668E-05-1.35087E-06 1.73564E-18-2.17347E-18
 -1      2788 9.54666E-05-2.82822E-05-2.87897E-05-8.54593E-07 2.30361E-18 4.17407E-19
 -1      2789 9.54064E-05-2.83043E-05-2.87591E-05-7.24648E-07 2.08214E-18-2.72260E-19
 -1      2790 9.53372E-05-2.81308E-05-2.88037E-05-9.97609E-07 1.75207E-18-1.57294E-18
 -1      2791 9.53914E-05-2.83374E-05-2.87346E-05-6.04572E-07 1.07251E-18-1.43470E-18
 -1      2792 9.53466E-05-2.83571E-05-2.87106E-05-5.03013E-07 8.10600E-20-2.16988E-18
 -1      2793 9.53045E-05-2.82214E-05-2.87508E-05-7.16267E-07 5.30063E-19-2.93846E-18
 -1      2794 9.53339E-05-2.83840E-05-2.86907E-05-4.10211E-07-6.66764E-19-3.15667E-18
 -1      2795 9.53008E-05-2.84002E-05-2.86721E-05-3.32565E-07-1.48371E-18-2.91378E-18
 -1      2796 9.52782E-05-2.82969E-05-2.87071E-05-4.97673E-07-1.06810E-18-6.11421E-18
 -1      2797 9.51321E-05-2.78292E-05-2.88369E-05-2.43332E-06 3.83693E-19 2.67718E-19
 -1      2798 9.50086E-05-2.77209E-05-2.88279E-05-2.05035E-06 5.24291E-19 3.63357E-19
 -1      2799 1.38059E-04-3.57639E-05-4.41301E-05 8.79127E-06-8.02987E-19 9.51536E-19
 -1      2800 1.32514E-04-2.49712E-05-4.67635E-05 1.16752E-05-1.32412E-18 1.31438E-18
 -1      2801 9.50217E-05-2.76131E-05-2.88847E-05-1.58075E-06 6.08122E-19 2.99271E-19
 -1      2802 9.50034E-05-2.74445E-05-2.89366E-05-1.07813E-06 7.39365E-19 4.35055E-19
 -1      2803 9.53079E-05-2.74804E-05-2.90788E-05-1.80480E-06 6.28301E-19 4.09535E-19
 -1      2804 9.57122E-05-2.79877E-05-2.90135E-05-3.84650E-06 3.34107E-20 5.86138E-19
 -1      2805 9.54245E-05-2.79389E-05-2.89218E-05-3.51119E-06 1.45565E-19 5.96533E-19
 -1      2806 9.61577E-05-2.79926E-05-2.92004E-05-4.59524E-06 1.63970E-19 1.98933E-19
 -1      2807 9.57976E-05-2.79535E-05-2.90783E-05-4.22364E-06 2.04692E-19 4.24030E-19
 -1      2808 9.55715E-05-2.76961E-05-2.90940E-05-4.28628E-06 2.87694E-19 4.59625E-19
 -1      2809 9.67026E-05-2.79852E-05-2.94353E-05-5.45186E-06 1.24910E-19-2.53649E-19
 -1      2810 9.62678E-05-2.79403E-05-2.92875E-05-5.02200E-06 2.20526E-19 1.06779E-20
 -1      2811 9.57702E-05-2.75847E-05-2.92256E-05-5.12405E-06 4.01800E-19 1.89541E-19
 -1      2812 9.73582E-05-2.80068E-05-2.97057E-05-6.44279E-06 3.00126E-19-2.49646E-19
 -1      2813 9.68392E-05-2.79323E-05-2.95370E-05-5.94766E-06 1.05266E-19-1.83928E-19
 -1      2814 9.60182E-05-2.74451E-05-2.93907E-05-6.07699E-06 2.69640E-19-4.22964E-19
 -1      2815 9.81555E-05-2.81266E-05-2.99955E-05-7.55983E-06 4.72647E-19 7.68979E-20
 -1      2816 9.75333E-05-2.79833E-05-2.98129E-05-7.01302E-06 4.39687E-19 7.32090E-20
 -1      2817 9.63293E-05-2.73348E-05-2.95709E-05-7.17152E-06 1.65520E-19-9.28578E-20
 -1      2818 9.91619E-05-2.84635E-05-3.02834E-05-8.74449E-06-6.16192E-20 3.17567E-20
 -1      2819 9.84020E-05-2.81857E-05-3.00969E-05-8.19069E-06 2.29686E-19 1.03731E-19
 -1      2820 9.67469E-05-2.73505E-05-2.97442E-05-8.40201E-06 2.61524E-19 2.47205E-19
 -1      2821 1.00508E-04-2.92128E-05-3.05421E-05-9.86248E-06-3.14227E-20-4.85991E-19
 -1      2822 9.95506E-05-2.86967E-05-3.03654E-05-9.39314E-06-8.10647E-21-2.39559E-19
 -1      2823 9.73704E-05-2.76578E-05-2.98839E-05-9.71859E-06 2.40658E-19-4.45892E-19
 -1      2824 1.02423E-04-3.06686E-05-3.07454E-05-1.06661E-05 3.19313E-19-2.39666E-19
 -1      2825 1.01173E-04-2.97655E-05-3.05923E-05-1.04400E-05-3.71507E-21-2.43808E-19
 -1      2826 9.83976E-05-2.85248E-05-2.99623E-05-1.10053E-05-1.45507E-19-4.34529E-19
 -1      2827 1.05260E-04-3.32051E-05-3.08868E-05-1.07454E-05 3.81646E-19-3.14163E-20
 -1      2828 1.03592E-04-3.17436E-05-3.07612E-05-1.10084E-05 5.33636E-19-6.64507E-20
 -1      2829 1.00178E-04-3.03465E-05-2.99634E-05-1.20414E-05 2.48906E-19-2.39772E-19
 -1      2830 1.09443E-04-3.71161E-05-3.10260E-05-9.46319E-06-2.40964E-19 8.45839E-19
 -1      2831 1.07262E-04-3.50190E-05-3.08984E-05-1.05526E-05 7.87939E-20 2.83125E-19
 -1      2832 1.03265E-04-3.36169E-05-2.99150E-05-1.24273E-05-1.65271E-21 1.49986E-19
 -1      2833 1.15165E-04-4.21304E-05-3.13624E-05-5.96017E-06-1.29547E-18 1.38476E-18
 -1      2834 1.12591E-04-3.97046E-05-3.11395E-05-8.22626E-06-5.80589E-19 1.04976E-18
 -1      2835 1.08349E-04-3.86731E-05-2.99627E-05-1.14035E-05-7.37844E-19 9.04141E-19
 -1      2836 1.21744E-04-4.66281E-05-3.22985E-05 4.00779E-07-8.94831E-19 1.72162E-18
 -1      2837 1.19379E-04-4.49264E-05-3.18006E-05-3.08822E-06-1.54511E-18 1.25154E-18
 -1      2838 1.15732E-04-4.49614E-05-3.04656E-05-7.81579E-06-1.14041E-18 1.62463E-18
 -1      2839 1.27033E-04-4.66904E-05-3.44763E-05 9.21200E-06 4.87775E-19 1.90347E-18
 -1      2840 1.26135E-04-4.80225E-05-3.34425E-05 5.31075E-06-2.32090E-20 1.91574E-18
 -1      2841 1.24604E-04-5.02539E-05-3.20884E-05-6.62579E-07-5.49685E-19 1.26025E-18
 -1      2842 1.26909E-04-3.85019E-05-3.79766E-05 1.58429E-05 1.41267E-18 1.63489E-18
 -1      2843 1.28905E-04-4.40348E-05-3.66473E-05 1.41739E-05 1.26023E-18 2.26070E-18
 -1      2844 1.31508E-04-4.86769E-05-3.56032E-05 9.61916E-06 8.58177E-19 2.02655E-18
 -1      2845 1.26313E-04-2.23854E-05-4.50474E-05 1.27179E-05 1.73970E-18 7.16802E-19
 -1      2846 1.29775E-04-3.01983E-05-4.32050E-05 1.61357E-05 2.02801E-18 1.49777E-18
 -1      2847 1.22013E-04-1.53774E-05-4.65260E-05-9.83888E-07 1.53249E-18-8.39277E-19
 -1      2848 1.22742E-04-1.68438E-05-4.62163E-05 6.33391E-06 1.42672E-18-1.43824E-19
 -1      2849 1.27035E-04-2.45707E-05-4.46854E-05-1.39733E-05 1.68930E-18-1.71525E-18
 -1      2850 1.24482E-04-1.85865E-05-4.60671E-05-8.99550E-06 1.50444E-18-1.28466E-18
 -1      2851 1.32028E-04-4.33388E-05-3.82372E-05-1.45756E-05 2.24633E-18-2.29533E-18
 -1      2852 1.29922E-04-3.65912E-05-4.01924E-05-1.51682E-05 1.98687E-18-1.87933E-18
 -1      2853 1.22041E-04-4.65534E-05-3.22659E-05 3.40986E-07-1.53954E-18-2.14537E-18
 -1      2854 1.24100E-04-4.74179E-05-3.29319E-05-3.59077E-06-8.42212E-19-2.54976E-18
 -1      2855 1.14951E-04-4.15557E-05-3.13428E-05 6.61561E-06-5.21728E-20-2.36798E-18
 -1      2856 1.17551E-04-4.39085E-05-3.16309E-05 3.89929E-06-6.31152E-19-1.51578E-18
 -1      2857 1.18878E-04-4.70709E-05-3.08849E-05 5.65682E-06-1.08874E-18-4.58602E-19
 -1      2858 1.09052E-04-3.64795E-05-3.10259E-05 9.75221E-06 9.38718E-19-2.10741E-18
 -1      2859 1.11381E-04-3.87622E-05-3.11606E-05 8.31322E-06 2.80272E-19-2.59374E-18
 -1      2860 1.10734E-04-4.07524E-05-3.01019E-05 1.03223E-05 4.46413E-20-1.29336E-18
 -1      2861 1.04875E-04-3.26887E-05-3.08969E-05 1.06775E-05 1.61871E-18-1.03127E-18
 -1      2862 1.06691E-04-3.43758E-05-3.10059E-05 1.02027E-05 1.66095E-18-9.39520E-19
 -1      2863 1.04866E-04-3.51105E-05-2.99748E-05 1.19845E-05 4.26067E-19-2.75614E-18
 -1      2864 1.02120E-04-3.02891E-05-3.07674E-05 1.03054E-05-2.45085E-19 9.63762E-19
 -1      2865 1.03467E-04-3.13697E-05-3.08974E-05 1.04382E-05 9.06264E-19 7.81315E-19
 -1      2866 1.01181E-04-3.12163E-05-3.00316E-05 1.19065E-05 2.10968E-19 5.18213E-19
 -1      2867 1.00318E-04-2.89412E-05-3.05855E-05 9.27487E-06-4.00593E-19 7.35711E-19
 -1      2868 1.01323E-04-2.95716E-05-3.07402E-05 9.73524E-06-3.10004E-19 9.22807E-19
 -1      2869 9.90375E-05-2.89236E-05-3.00720E-05 1.09436E-05-8.72214E-20 1.36455E-18
 -1      2870 9.90991E-05-2.82698E-05-3.03570E-05 7.97937E-06 2.05815E-19 5.85208E-19
 -1      2871 9.98683E-05-2.86103E-05-3.05245E-05 8.57843E-06-1.79185E-19 7.93469E-19
 -1      2872 9.78246E-05-2.77561E-05-3.00395E-05 9.59665E-06-1.69826E-19 5.05045E-19
 -1      2873 9.82265E-05-2.79904E-05-3.01052E-05 6.64751E-06 1.19170E-19 1.51786E-18
 -1      2874 9.88319E-05-2.81597E-05-3.02719E-05 7.27020E-06 3.99586E-19 8.93454E-19
 -1      2875 9.71238E-05-2.72781E-05-2.99378E-05 8.14372E-06 1.95690E-20 1.28949E-18
 -1      2876 9.75660E-05-2.79193E-05-2.98531E-05 5.40196E-06 5.12291E-19 1.27132E-18
 -1      2877 9.80508E-05-2.79934E-05-3.00086E-05 5.98538E-06 2.66418E-19 1.18606E-18
 -1      2878 9.66879E-05-2.71806E-05-2.97905E-05 6.73804E-06 6.37963E-20 2.97045E-19
 -1      2879 9.70459E-05-2.79488E-05-2.96172E-05 4.30029E-06-5.92787E-19 2.04849E-18
 -1      2880 9.74364E-05-2.79727E-05-2.97553E-05 4.81496E-06 2.62055E-20 2.35770E-18
 -1      2881 9.63861E-05-2.72704E-05-2.96221E-05 5.45892E-06-4.45750E-19 1.38687E-18
 -1      2882 9.66284E-05-2.80202E-05-2.94069E-05 3.36158E-06-1.34883E-18 2.57491E-18
 -1      2883 9.69417E-05-2.80189E-05-2.95252E-05 3.79803E-06-6.38308E-19 2.63467E-18
 -1      2884 9.61549E-05-2.74374E-05-2.94516E-05 4.34151E-06-1.15112E-18 2.31257E-18
 -1      2885 9.62922E-05-2.81036E-05-2.92263E-05 2.58320E-06-2.23762E-18 2.04473E-18
 -1      2886 9.65412E-05-2.80906E-05-2.93247E-05 2.94304E-06-2.07406E-18 2.75333E-18
 -1      2887 9.59662E-05-2.76233E-05-2.92913E-05 3.39422E-06-1.60411E-18 3.50666E-18
 -1      2888 9.60232E-05-2.81845E-05-2.90757E-05 1.95134E-06-4.93236E-19 1.79014E-18
 -1      2889 9.62185E-05-2.81670E-05-2.91556E-05 2.24168E-06-1.49742E-18 1.63115E-18
 -1      2890 9.58083E-05-2.78000E-05-2.91481E-05 2.60984E-06-1.49796E-18 3.04262E-18
 -1      2891 9.58107E-05-2.82568E-05-2.89531E-05 1.44733E-06-8.98199E-19 8.79459E-19
 -1      2892 9.59615E-05-2.82385E-05-2.90166E-05 1.67755E-06-4.25467E-19 1.32496E-18
 -1      2893 9.56762E-05-2.79556E-05-2.90249E-05 1.97286E-06-4.10389E-19 2.13577E-18
 -1      2894 9.56452E-05-2.83184E-05-2.88554E-05 1.05130E-06 4.74099E-19 9.58709E-20
 -1      2895 9.57599E-05-2.83011E-05-2.89048E-05 1.23118E-06-2.14287E-19 3.81157E-19
 -1      2896 9.55670E-05-2.80866E-05-2.89218E-05 1.46422E-06-5.19311E-20 9.83627E-19
 -1      2897 9.55185E-05-2.83692E-05-2.87790E-05 7.44325E-07 5.06046E-19 9.44048E-19
 -1      2898 9.56041E-05-2.83538E-05-2.88168E-05 8.83053E-07 8.61920E-20 3.16277E-19
 -1      2899 9.54783E-05-2.81937E-05-2.88378E-05 1.06407E-06 5.14642E-19-3.00437E-19
 -1      2900 9.54227E-05-2.84097E-05-2.87203E-05 5.09225E-07-4.32899E-19 2.21827E-18
 -1      2901 9.54854E-05-2.83966E-05-2.87487E-05 6.14993E-07 4.58187E-19 2.40606E-18
 -1      2902 9.54069E-05-2.82788E-05-2.87705E-05 7.53712E-07-4.63948E-19-2.40896E-21
 -1      2903 9.53523E-05-2.84414E-05-2.86756E-05 3.31977E-07 2.97150E-19 2.71998E-18
 -1      2904 9.53964E-05-2.84311E-05-2.86967E-05 4.10401E-07-4.15578E-19 2.72995E-18
 -1      2905 9.53493E-05-2.83444E-05-2.87175E-05 5.15953E-07-6.81714E-19 6.15690E-20
 -1      2906 9.52970E-05-2.84533E-05-2.86467E-05 2.20171E-07-4.05829E-19 3.57409E-18
 -1      2907 9.53273E-05-2.84428E-05-2.86628E-05 2.80312E-07-6.95392E-20 2.44367E-18
 -1      2908 9.53000E-05-2.83812E-05-2.86814E-05 3.58634E-07-1.35287E-19 3.39858E-20
 -1      2909 9.52609E-05-2.83977E-05-2.86572E-05 2.58540E-07-1.63474E-18 2.51308E-18
 -1      2910 9.49281E-05-2.79839E-05-2.86914E-05 3.18757E-08 1.02929E-18-2.32470E-18
 -1      2911 9.49365E-05-2.79923E-05-2.86909E-05 8.52255E-08 8.83364E-19-4.76429E-19
 -1      2912 9.52958E-05-2.84168E-05-2.86607E-05-2.83031E-07-9.51705E-19-2.99582E-18
 -1      2913 9.52782E-05-2.84274E-05-2.86501E-05-2.40933E-07-1.98740E-18-2.90177E-18
 -1      2914 9.52609E-05-2.83504E-05-2.86764E-05-3.52051E-07-1.44816E-18-6.87773E-18
 -1      2915 9.50149E-05-2.80837E-05-2.86865E-05 2.38189E-07-2.79928E-19-8.50053E-19
 -1      2916 9.50520E-05-2.81234E-05-2.86831E-05 2.66568E-07-7.78009E-20-4.45195E-19
 -1      2917 9.49379E-05-2.79953E-05-2.86901E-05-8.76961E-08 1.92823E-18-5.86195E-19
 -1      2918 9.49288E-05-2.79854E-05-2.86911E-05-3.46046E-08 1.72478E-18-2.74153E-18
 -1      2919 9.48702E-05-2.79010E-05-2.86993E-05-2.62262E-09 1.73199E-18-2.02327E-18
 -1      2920 9.49550E-05-2.80145E-05-2.86903E-05 1.46780E-07 4.22427E-19-4.98778E-19
 -1      2921 9.49797E-05-2.80402E-05-2.86883E-05 1.91473E-07 2.76299E-19-5.69036E-19
 -1      2922 9.49527E-05-2.79886E-05-2.86973E-05 2.50661E-07 3.73921E-20-8.79222E-20
 -1      2923 9.48909E-05-2.79220E-05-2.86992E-05 1.34276E-07 1.19021E-18 1.48875E-19
 -1      2924 9.50478E-05-2.72306E-05-2.90630E-05-4.46426E-07 8.05894E-19 2.69902E-19
 -1      2925 9.51488E-05-2.69551E-05-2.91990E-05 2.77060E-07 8.11187E-19 3.26823E-19
 -1      2926 9.53478E-05-2.70563E-05-2.92788E-05-6.23972E-07 6.91836E-19 1.81279E-19
 -1      2927 8.41702E-05-4.22866E-05-1.78255E-05 3.58509E-05-6.72968E-19 4.46439E-19
 -1      2928 6.56021E-05-3.19966E-05-1.37743E-05 3.41437E-05-9.68053E-19 2.02451E-18
 -1      2929 9.49815E-05-2.80459E-05-2.86866E-05-1.90885E-07 2.58798E-18-4.42785E-19
 -1      2930 9.49571E-05-2.80198E-05-2.86889E-05-1.47490E-07 2.27985E-18-1.22789E-19
 -1      2931 9.48932E-05-2.79276E-05-2.86979E-05-1.37559E-07 2.36543E-18-5.69344E-19
 -1      2932 9.50536E-05-2.81304E-05-2.86807E-05-2.64569E-07 2.21762E-18-6.95286E-19
 -1      2933 9.50169E-05-2.80907E-05-2.86844E-05-2.36551E-07 2.48580E-18-2.58860E-19
 -1      2934 9.49556E-05-2.79978E-05-2.86948E-05-2.50574E-07 2.10754E-18-8.74953E-19
 -1      2935 9.51422E-05-2.82375E-05-2.86724E-05-2.96828E-07 1.08692E-18-4.73926E-19
 -1      2936 9.50990E-05-2.81894E-05-2.86773E-05-2.87731E-07 1.98741E-18 5.85827E-19
 -1      2937 9.50486E-05-2.81033E-05-2.86898E-05-3.25110E-07 1.26186E-18-3.93246E-19
 -1      2938 9.52490E-05-2.83878E-05-2.86545E-05-2.57520E-07-1.05836E-18-5.69331E-18
 -1      2939 9.45826E-05-2.14016E-05-3.13937E-05-7.32698E-06-7.07732E-19-1.03021E-18
 -1      2940 9.50214E-05-2.31161E-05-3.08149E-05-5.59277E-06-6.11845E-19-9.09007E-19
 -1      2941 9.37955E-05-2.00133E-05-3.16238E-05-7.18016E-06-6.46265E-19-1.28990E-18
 -1      2942 9.20921E-05-4.86895E-05-1.86780E-05 3.95909E-05 1.37336E-18-5.62271E-19
 -1      2943 7.41601E-05-3.97639E-05-1.42464E-05 4.01284E-05 1.53652E-18-1.12126E-18
 -1      2944 3.80189E-05-1.66743E-05-8.66798E-06 2.17899E-05 1.38363E-18-1.75166E-18
 -1      2945 3.20293E-05-1.24562E-05-7.94593E-06 6.91284E-06 5.29647E-19-1.44461E-18
 -1      2946 1.20895E-04-9.02722E-06-4.84753E-05-8.87206E-07-3.04487E-18 4.07013E-19
 -1      2947 1.24653E-04-1.25203E-05-4.86835E-05-7.64724E-06-2.73634E-18 1.92435E-19
 -1      2948 9.53672E-05-2.79421E-05-2.88871E-05-3.15222E-06 2.43716E-19 3.71359E-19
 -1      2949 9.51559E-05-2.78708E-05-2.88321E-05-2.81809E-06 2.91429E-19 1.68377E-19
 -1      2950 9.53326E-05-2.76840E-05-2.90002E-05-2.71943E-06 3.11298E-19 3.23677E-19
 -1      2951 9.54231E-05-2.77408E-05-2.90128E-05-3.51087E-06 3.90078E-20 4.52440E-19
 -1      2952 9.53853E-05-2.41939E-05-3.04985E-05-4.48939E-06-5.15300E-19-9.33592E-19
 -1      2953 9.53161E-05-2.51015E-05-3.01025E-05-2.97622E-06-4.83881E-19-8.55011E-19
 -1      2954 9.53090E-05-2.47057E-05-3.02565E-05-2.65003E-06-4.11743E-19-1.02588E-18
 -1      2955 9.49293E-05-2.30819E-05-3.07984E-05-4.63549E-06-5.74065E-19-1.13506E-18
 -1      2956 9.10700E-05-1.57504E-05-3.23069E-05 4.60418E-06 1.15901E-18-5.69372E-19
 -1      2957 9.06897E-05-1.52144E-05-3.23696E-05 3.72184E-06 1.00473E-18-8.50251E-19
 -1      2958 9.15963E-05-1.67225E-05-3.20719E-05 2.91838E-06 9.24681E-19-8.77228E-19
 -1      2959 9.23572E-05-1.78824E-05-3.18968E-05 4.23862E-06 1.10027E-18-4.96603E-19
 -1      2960 9.51940E-05-2.65534E-05-2.94196E-05 1.17479E-06 9.07754E-19 1.20030E-19
 -1      2961 9.54028E-05-2.60725E-05-2.96764E-05 2.26913E-06 9.17864E-19 2.24274E-19
 -1      2962 9.53785E-05-2.48598E-05-3.02216E-05 3.29011E-06 9.79727E-19-1.16478E-19
 -1      2963 9.54088E-05-2.62666E-05-2.96409E-05 1.00543E-06 8.65646E-19-5.35413E-20
 -1      2964 9.06501E-05-1.51689E-05-3.23721E-05-3.66035E-06 5.59950E-21-1.41241E-18
 -1      2965 9.10231E-05-1.56947E-05-3.23108E-05-4.54628E-06-8.89912E-20-1.45772E-18
 -1      2966 3.76655E-05-1.74913E-05-8.13563E-06-2.26850E-05 9.22631E-19 4.34591E-18
 -1      2967 4.98206E-05-2.54134E-05-1.01960E-05-3.39616E-05 1.69714E-18 2.72956E-18
 -1      2968 3.21785E-05-1.23566E-05-8.04738E-06 5.79759E-06-7.64024E-19 5.08919E-18
 -1      2969 3.21711E-05-1.26195E-05-7.84389E-06-9.79912E-06-5.36304E-19 5.09236E-18
 -1      2970 1.01854E-04-5.17117E-05-2.12158E-05-3.46137E-05 8.13893E-19-2.26647E-19
 -1      2971 1.17313E-04-5.72780E-05-2.57596E-05-2.84376E-05 1.16996E-19-7.98646E-19
 -1      2972 1.37897E-04-5.05279E-05-3.75462E-05-2.90305E-06-9.84199E-19-1.40607E-19
 -1      2973 1.39549E-04-4.38955E-05-4.15874E-05 3.54179E-06-1.15392E-18 5.92076E-19
 -1      2974 1.34847E-04-3.96967E-05-4.09750E-05 8.96629E-06-5.85617E-19 6.53062E-19
 -1      2975 1.21977E-04-5.82325E-05-2.76563E-05 2.40050E-05 6.10499E-19 3.97126E-19
 -1      2976 1.09579E-04-5.50771E-05-2.29144E-05 3.19973E-05 1.18013E-18-1.15408E-19
 -1      2977 1.36495E-04-5.91380E-05-3.34533E-05 7.73213E-06 1.02592E-18 2.50722E-19
 -1      2978 1.28981E-04-6.02262E-05-2.92925E-05 1.65249E-05 2.96938E-19 7.02614E-19
 -1      2979 8.65912E-05-4.56849E-05-1.70516E-05-3.71600E-05-1.07594E-18-1.05900E-18
 -1      2980 1.05271E-04-5.45548E-05-2.19683E-05-3.35843E-05-1.47077E-18-1.33551E-18
 -1      2981 5.48289E-05-2.78551E-05-1.10958E-05-3.25385E-05-9.39571E-19-8.32633E-19
 -1      2982 6.95770E-05-3.70514E-05-1.37678E-05-3.82512E-05-7.71753E-19 2.75286E-21
 -1      2983 3.39386E-05-1.29861E-05-8.41583E-06-8.44175E-06-2.22148E-19-1.19368E-18
 -1      2984 4.25873E-05-1.88207E-05-9.73568E-06-2.36573E-05-5.67618E-19-1.48379E-18
 -1      2985 6.12624E-05-3.27045E-05-1.19293E-05 3.90878E-05 1.43657E-18-1.48453E-18
 -1      2986 4.86387E-05-2.46877E-05-9.80828E-06 3.23712E-05 1.64473E-18-1.63350E-18
 -1      2987 7.45243E-05-3.66276E-05-1.57273E-05 3.70218E-05 1.23423E-18-1.40745E-18
 -1      2988 1.35543E-04-5.41833E-05-3.54196E-05 5.53732E-06-1.23943E-18 1.05011E-18
 -1      2989 1.31122E-04-5.70131E-05-3.16136E-05 1.26697E-05-4.48742E-19 7.16590E-19
 -1      2990 1.28669E-04-1.79223E-05-4.81131E-05-1.03602E-05-2.60939E-18 3.81324E-19
 -1      2991 1.32471E-04-2.49401E-05-4.64367E-05-1.21818E-05-2.60261E-18 7.19766E-19
 -1      2992 1.30026E-04-3.16461E-05-4.23775E-05-1.23010E-05-2.22473E-18 9.78747E-19
 -1      2993 1.21218E-04-1.65456E-05-4.51546E-05-9.45046E-06-2.43543E-18 4.41834E-19
 -1      2994 1.22420E-04-5.97199E-05-2.65173E-05-2.33657E-05-1.32254E-18-1.26049E-19
 -1      2995 1.33277E-04-6.10141E-05-3.15317E-05-1.44959E-05-7.93988E-19 7.14102E-19
 -1      2996 1.26921E-04-1.68599E-05-4.76607E-05 1.08981E-05-2.32849E-18 7.20507E-19
 -1      2997 1.22008E-04-1.11480E-05-4.81596E-05 6.28216E-06-2.72766E-18-8.25063E-20
 -1      2998 9.47832E-05-2.18478E-05-3.12635E-05 7.51349E-06 1.26457E-18 3.94568E-19
 -1      2999 1.40260E-04-5.65115E-05-3.58455E-05-1.61623E-06 3.55119E-19 2.05416E-18
 -1      3000 1.42770E-04-4.91574E-05-4.07096E-05 7.59506E-06 1.10855E-18 2.30414E-18
 -1      3001 1.26744E-04-5.79677E-05-2.93993E-05-1.96982E-05 2.01170E-21-5.18067E-19
 -1      3002 1.34084E-04-5.66957E-05-3.35326E-05-1.26025E-05-4.40457E-19 3.30872E-19
 -1      3003 1.34633E-04-5.30969E-05-3.49980E-05-3.77637E-06-4.34713E-19 4.78574E-20
 -1      3004 1.22233E-04-5.70949E-05-2.78313E-05-2.02596E-05 1.72901E-19 4.11605E-20
 -1      3005 4.91228E-05-2.33608E-05-1.08418E-05 2.92877E-05-7.08967E-19 2.04813E-18
 -1      3006 3.84515E-05-1.64215E-05-8.86044E-06 1.82673E-05-1.32672E-18 3.78454E-18
 -1      3007 6.54651E-05-3.35562E-05-1.30797E-05-3.78721E-05 1.71778E-18 2.03246E-18
 -1      3008 8.18176E-05-4.21766E-05-1.68866E-05-3.91965E-05 1.04630E-18 5.51789E-19
 -1      3009 1.18501E-04-5.86529E-05-2.57437E-05 2.59768E-05-4.23940E-19 1.68061E-18
 -1      3010 1.03682E-04-5.25010E-05-2.16552E-05 3.20578E-05-4.78574E-19 1.51947E-18
 -1      3011 1.24181E-04-5.82228E-05-2.80759E-05 1.75747E-05-3.44107E-20 1.26134E-18
 -1      3012 9.14962E-05-1.64000E-05-3.22070E-05-5.23560E-06-1.76536E-19-1.35763E-18
 -1      3013 9.20552E-05-1.72372E-05-3.21028E-05-6.03956E-06-4.14163E-19-1.28361E-18
 -1      3014 9.23016E-05-1.78050E-05-3.19025E-05-4.20654E-06-1.18422E-19-1.29264E-18
 -1      3015 9.09842E-05-1.58246E-05-3.21972E-05 2.97934E-08 5.20446E-19-1.13709E-18
 -1      3016 8.99263E-05-1.41282E-05-3.25050E-05-3.46708E-07 5.39052E-19-1.20526E-18
 -1      3017 8.99919E-05-1.42175E-05-3.24945E-05-1.24436E-06 3.60151E-19-1.26773E-18
 -1      3018 1.33827E-04-4.86671E-05-3.64893E-05-2.92458E-06-1.24444E-18 1.34509E-18
 -1      3019 9.50953E-05-4.72337E-05-2.01778E-05-3.52344E-05 8.84779E-19-6.21087E-19
 -1      3020 1.05087E-04-5.00302E-05-2.35730E-05-2.83648E-05 1.12449E-18-4.67681E-19
 -1      3021 8.78696E-05-4.10687E-05-1.97917E-05-3.37106E-05 7.84458E-19-1.45319E-19
 -1      3022 9.50454E-05-2.80924E-05-2.86932E-05 3.27961E-07-6.44102E-19-4.79964E-19
 -1      3023 9.50983E-05-2.81822E-05-2.86800E-05 2.90776E-07-6.54981E-19-4.70029E-19
 -1      3024 9.51413E-05-2.82309E-05-2.86751E-05 2.97780E-07-8.27973E-19 2.53146E-19
 -1      3025 1.25710E-04-2.31464E-05-4.43329E-05 1.17442E-05-1.27246E-18 2.65810E-19
 -1      3026 6.33395E-05-2.70780E-05-1.50127E-05 2.89927E-05-1.03746E-18 1.97708E-18
 -1      3027 1.36431E-04-3.58320E-05-4.35598E-05 1.54852E-05 2.19551E-18 2.71008E-18
 -1      3028 1.17749E-04-1.21343E-05-4.55780E-05 2.57232E-06-2.57191E-18 5.31606E-19
 -1      3029 1.27793E-04-4.75945E-05-3.44089E-05-8.54862E-06 5.89906E-19-2.64617E-18
 -1      3030 1.28124E-04-4.51699E-05-3.56190E-05-1.22043E-05 1.96905E-18-2.40950E-18
 -1      3031 9.51833E-05-2.82892E-05-2.86704E-05 2.94580E-07-1.70704E-18 7.93635E-19
 -1      3032 9.52243E-05-2.83401E-05-2.86638E-05 2.80530E-07-1.96601E-18 1.79238E-18
 -1      3033 9.52402E-05-2.83279E-05-2.86751E-05 3.28535E-07-2.43725E-18 1.69987E-18
 -1      3034 9.51481E-05-2.82118E-05-2.86860E-05 3.51841E-07-1.72154E-18 1.49555E-18
 -1      3035 9.58093E-05-4.69082E-05-2.06122E-05 3.25771E-05-4.39928E-20 1.82154E-18
 -1      3036 8.74003E-05-3.94540E-05-2.03530E-05 3.08438E-05 2.79203E-19 2.06433E-18
 -1      3037 1.04895E-04-4.98361E-05-2.36917E-05 2.71788E-05 3.13879E-19 2.34596E-18
 -1      3038 9.52130E-05-2.83377E-05-2.86614E-05-2.74236E-07 8.54257E-19-4.41200E-18
 -1      3039 9.51797E-05-2.82688E-05-2.86764E-05-3.32325E-07-2.14857E-19-2.90419E-18
 -1      3040 5.05369E-05-2.06393E-05-1.22207E-05 2.54407E-05 1.28405E-18-1.61773E-18
 -1      3041 1.02352E-04-5.06487E-05-2.18288E-05 3.28187E-05 1.39697E-18-8.30225E-20
 -1      3042 1.25338E-04-5.68579E-05-2.92734E-05 1.58067E-05 7.19925E-19 6.25851E-19
 -1      3043 4.16037E-05-1.29404E-05-1.16556E-05-8.44265E-07 1.90768E-19-1.03836E-18
 -1      3044 1.35215E-04-4.90405E-05-3.71529E-05-9.54914E-06 1.91946E-18-1.88192E-18
 -1      3045 9.01373E-05-1.44326E-05-3.24661E-05-2.01313E-06 2.81606E-19-1.12427E-18
 -1      3046 9.03479E-05-1.47215E-05-3.24329E-05-2.91124E-06 9.87018E-20-1.21504E-18
 -1      3047 9.15638E-05-1.66855E-05-3.20741E-05-2.86369E-06 7.68875E-20-1.25448E-18
 -1      3048 9.11250E-05-1.60335E-05-3.21675E-05-1.43327E-06 3.22229E-19-1.14043E-18
 -1      3049 1.39715E-04-4.50540E-05-4.10848E-05 1.28022E-05 1.60312E-18 2.68001E-18
 -1      3050 5.52129E-05-2.27935E-05-1.33510E-05-2.55964E-05-4.36116E-19-1.15260E-18
 -1      3051 8.37432E-05-4.08995E-05-1.78450E-05-3.45491E-05-7.05049E-19-9.40736E-19
 -1      3052 4.21040E-05-1.40962E-05-1.14117E-05 1.06988E-05-1.30062E-18 3.79026E-18
 -1      3053 4.18847E-05-1.49985E-05-1.09192E-05-1.53841E-05 7.56824E-19 3.86289E-18
 -1      3054 6.23956E-05-2.84664E-05-1.40252E-05-3.32504E-05 1.21036E-18 1.98883E-18
 -1      3055 1.15252E-04-5.59794E-05-2.50198E-05-2.51345E-05-1.44589E-18-2.84788E-19
 -1      3056 9.44236E-05-2.13176E-05-3.13369E-05 6.82916E-06 1.26566E-18-1.19776E-20
 -1      3057 9.46718E-05-2.23004E-05-3.10080E-05 5.24686E-06 1.12133E-18-7.05637E-20
 -1      3058 1.35711E-04-4.81579E-05-3.75516E-05 1.01041E-05 1.28050E-18 2.50497E-18
 -1      3059 1.35777E-04-5.76201E-05-3.33434E-05-4.17618E-06-3.62570E-19 1.33757E-18
 -1      3060 1.27431E-04-5.04524E-05-3.30453E-05-2.77940E-06-1.52856E-19-2.34021E-18
 -1      3061 9.42575E-05-2.15672E-05-3.11731E-05 4.47017E-06 9.99373E-19-8.28765E-20
 -1      3062 9.37338E-05-2.05624E-05-3.13634E-05 4.13197E-06 1.03874E-18-3.22737E-19
 -1      3063 9.56269E-05-2.63459E-05-2.96797E-05 2.56355E-07-2.15830E-19-5.36570E-19
 -1      3064 9.56190E-05-2.67282E-05-2.95295E-05 9.37961E-07-1.29406E-19-4.71173E-19
 -1      3065 9.56210E-05-2.70261E-05-2.93893E-05 1.49459E-06-2.55538E-19-3.99440E-19
 -1      3066 9.56090E-05-2.72432E-05-2.93004E-05 2.00578E-06-4.15345E-19-3.92921E-19
 -1      3067 9.56507E-05-2.65223E-05-2.96291E-05 1.09736E-06-1.62839E-19-5.25188E-19
 -1      3068 9.55522E-05-2.73855E-05-2.92097E-05 2.44671E-06-4.27802E-19-3.18520E-19
 -1      3069 9.55567E-05-2.74967E-05-2.91663E-05 2.85434E-06-3.02630E-19-3.26862E-19
 -1      3070 9.56008E-05-2.70391E-05-2.93868E-05 2.13004E-06-4.23863E-19-4.32218E-19
 -1      3071 9.54719E-05-2.75400E-05-2.91121E-05 3.23068E-06-7.52985E-20-3.35063E-19
 -1      3072 9.55034E-05-2.75897E-05-2.91014E-05 3.58452E-06-1.54347E-19-4.59045E-20
 -1      3073 9.54646E-05-2.72697E-05-2.92295E-05 2.97674E-06-1.84532E-19-4.59898E-19
 -1      3074 9.54120E-05-2.75783E-05-2.90722E-05 3.93567E-06-3.12649E-19 7.45324E-20
 -1      3075 9.54803E-05-2.76045E-05-2.90836E-05 4.26891E-06-4.86534E-19 6.42023E-20
 -1      3076 9.52929E-05-2.73230E-05-2.91328E-05 3.72812E-06-1.67237E-19-3.28994E-19
 -1      3077 9.54034E-05-2.75794E-05-2.90691E-05 4.62210E-06-4.03825E-19 4.64280E-19
 -1      3078 9.55227E-05-2.76215E-05-2.90934E-05 4.95188E-06-1.63893E-20 4.48364E-19
 -1      3079 9.51270E-05-2.72927E-05-2.90747E-05 4.45264E-06-1.29253E-19-1.19419E-19
 -1      3080 9.54876E-05-2.76280E-05-2.90843E-05 5.32153E-06-2.48199E-19 5.42133E-19
 -1      3081 9.56815E-05-2.77322E-05-2.91132E-05 5.64843E-06-3.28484E-19 4.51355E-19
 -1      3082 9.50140E-05-2.72735E-05-2.90353E-05 5.19501E-06-2.55376E-19 3.13747E-19
 -1      3083 9.57284E-05-2.78251E-05-2.91013E-05 6.03498E-06-2.82003E-19 6.60814E-19
 -1      3084 9.60335E-05-2.80489E-05-2.91279E-05 6.34133E-06-1.46971E-19 6.26526E-19
 -1      3085 9.50199E-05-2.73750E-05-2.89964E-05 5.97473E-06-1.99275E-19 6.64079E-19
 -1      3086 9.62230E-05-2.82974E-05-2.91069E-05 6.72836E-06-2.92395E-19 4.59839E-19
 -1      3087 9.66924E-05-2.87113E-05-2.91265E-05 6.97471E-06-2.28035E-19 3.88527E-19
 -1      3088 9.52433E-05-2.77323E-05-2.89431E-05 6.78321E-06-6.15316E-20 9.11184E-19
 -1      3089 9.71124E-05-2.91997E-05-2.90945E-05 7.32272E-06-1.38344E-19 2.13837E-19
 -1      3090 9.78160E-05-2.98828E-05-2.91073E-05 7.44235E-06-1.27249E-19 2.83799E-19
 -1      3091 9.58297E-05-2.85134E-05-2.88666E-05 7.57600E-06-2.54276E-19-1.08552E-19
 -1      3092 9.85855E-05-3.07030E-05-2.90709E-05 7.67694E-06-3.44484E-19 2.14050E-19
 -1      3093 9.96013E-05-3.17255E-05-2.90863E-05 7.56829E-06-2.14416E-19 6.22336E-20
 -1      3094 9.69835E-05-2.99150E-05-2.87711E-05 8.25586E-06-3.25961E-19 2.16021E-19
 -1      3095 1.00863E-04-3.29525E-05-2.90674E-05 7.56077E-06 3.89842E-20 4.24857E-20
 -1      3096 1.02246E-04-3.43330E-05-2.91111E-05 7.08012E-06-5.97828E-20 1.56343E-19
 -1      3097 9.89659E-05-3.21322E-05-2.86853E-05 8.64144E-06-5.43069E-20-3.27284E-19
 -1      3098 1.04136E-04-3.59668E-05-2.91587E-05 6.60482E-06-6.33840E-20 5.57913E-19
 -1      3099 1.05845E-04-3.75686E-05-2.92830E-05 5.57076E-06-1.00191E-19 8.99260E-19
 -1      3100 1.02073E-04-3.52899E-05-2.86803E-05 8.40993E-06 1.81801E-19-6.01824E-20
 -1      3101 1.08330E-04-3.93655E-05-2.94918E-05 4.31494E-06-2.66054E-20 1.20652E-18
 -1      3102 1.10125E-04-4.07611E-05-2.97731E-05 2.59367E-06 4.34510E-19 1.30551E-18
 -1      3103 1.06446E-04-3.91393E-05-2.89099E-05 6.98134E-06 3.92887E-19 1.26286E-18
 -1      3104 1.12908E-04-4.21476E-05-3.02617E-05 2.99289E-07 4.00777E-20 1.52608E-18
 -1      3105 1.14295E-04-4.25430E-05-3.07938E-05-2.04310E-06-4.73290E-19 1.53198E-18
 -1      3106 1.11778E-04-4.29084E-05-2.96083E-05 3.73964E-06 3.08653E-19 1.62828E-18
 -1      3107 1.16560E-04-4.25519E-05-3.17263E-05-5.35411E-06-7.16373E-19 1.53851E-18
 -1      3108 1.16753E-04-4.07937E-05-3.25940E-05-7.83747E-06-6.72561E-19 1.35248E-18
 -1      3109 1.17082E-04-4.44621E-05-3.11389E-05-2.01183E-06-4.69574E-19 1.73247E-18
 -1      3110 1.16973E-04-3.79155E-05-3.40279E-05-1.09771E-05-5.99990E-19 1.27700E-18
 -1      3111 1.15608E-04-3.36928E-05-3.51184E-05-1.19970E-05-9.56565E-19 1.18560E-18
 -1      3112 1.20027E-04-4.16658E-05-3.35908E-05-8.63099E-06-7.41779E-19 2.11239E-18
 -1      3113 1.11226E-04-1.74773E-05-4.04996E-05-7.20551E-06-2.13307E-18 5.29098E-19
 -1      3114 1.09773E-04-1.48268E-05-4.10141E-05-2.75065E-06-2.07730E-18 5.55217E-19
 -1      3115 1.10760E-04-1.58744E-05-4.09272E-05 4.96583E-06-2.07375E-18-3.42354E-20
 -1      3116 1.12596E-04-1.93224E-05-4.02802E-05 9.37130E-06-1.61307E-18-1.88465E-20
 -1      3117 1.15735E-04-3.42855E-05-3.49798E-05 1.18671E-05-1.91152E-19-7.50850E-19
 -1      3118 1.17076E-04-3.82645E-05-3.38894E-05 1.07826E-05 4.22706E-19-1.08637E-18
 -1      3119 1.16608E-04-4.09062E-05-3.24894E-05 7.62826E-06 6.37571E-19-6.36856E-19
 -1      3120 1.16361E-04-4.24853E-05-3.16582E-05 5.19190E-06 4.99830E-19 1.51182E-19
 -1      3121 1.19866E-04-4.17098E-05-3.34897E-05 8.44372E-06 6.86653E-19-7.72719E-19
 -1      3122 1.14064E-04-4.24370E-05-3.07566E-05 1.96250E-06-2.32057E-19 4.37181E-19
 -1      3123 1.12678E-04-4.19673E-05-3.02416E-05-3.63685E-07-1.28231E-19 5.72786E-19
 -1      3124 1.16774E-04-4.45216E-05-3.10021E-05 1.54819E-06 3.80526E-19 1.05879E-21
 -1      3125 1.09865E-04-4.04949E-05-2.97732E-05-2.58153E-06-4.48479E-19 6.28488E-19
 -1      3126 1.08065E-04-3.90489E-05-2.95086E-05-4.24029E-06 2.27256E-19 4.11099E-19
 -1      3127 1.11460E-04-4.25907E-05-2.95772E-05-3.80633E-06-2.78842E-19 1.18670E-18
 -1      3128 1.05578E-04-3.72112E-05-2.93220E-05-5.39162E-06 3.49994E-19 3.91659E-19
 -1      3129 1.03887E-04-3.56016E-05-2.92108E-05-6.34459E-06 6.29526E-19 2.02088E-19
 -1      3130 1.06087E-04-3.87499E-05-2.89303E-05-6.84892E-06 4.74334E-20 1.37863E-18
 -1      3131 1.02031E-04-3.39774E-05-2.91718E-05-6.73915E-06 1.32654E-18-6.53696E-20
 -1      3132 1.00674E-04-3.26047E-05-2.91361E-05-7.14789E-06 1.35451E-18 5.39401E-19
 -1      3133 1.01760E-04-3.48521E-05-2.87328E-05-8.07202E-06 7.51542E-19 1.48015E-18
 -1      3134 9.94237E-05-3.13791E-05-2.91595E-05-7.09117E-06 1.18293E-18 4.14384E-19
 -1      3135 9.84301E-05-3.03615E-05-2.91506E-05-7.12923E-06 1.02043E-19 9.86454E-19
 -1      3136 9.87018E-05-3.17186E-05-2.87481E-05-8.17555E-06 1.30747E-18 4.39367E-19
 -1      3137 9.76599E-05-2.95388E-05-2.91886E-05-6.82893E-06-7.25951E-19 1.97116E-18
 -1      3138 9.69734E-05-2.88592E-05-2.91807E-05-6.63902E-06-4.10438E-19 2.34887E-18
 -1      3139 9.67279E-05-2.94992E-05-2.88384E-05-7.66405E-06 3.90989E-19 6.17678E-19
 -1      3140 9.65409E-05-2.83653E-05-2.92109E-05-6.22561E-06-9.54122E-19 2.11361E-18
 -1      3141 9.60836E-05-2.79548E-05-2.91939E-05-5.91008E-06-9.89816E-19 1.64042E-18
 -1      3142 9.55612E-05-2.80905E-05-2.89314E-05-6.85791E-06-7.62168E-19 7.27651E-19
 -1      3143 9.58710E-05-2.77007E-05-2.92086E-05-5.45957E-06-1.28177E-18 1.12797E-18
 -1      3144 9.55729E-05-2.74841E-05-2.91809E-05-5.08832E-06-6.27669E-19 1.32163E-18
 -1      3145 9.49401E-05-2.73003E-05-2.89968E-05-5.94163E-06-1.72719E-18 4.71536E-19
 -1      3146 9.54940E-05-2.73910E-05-2.91801E-05-4.64479E-06-5.87776E-19-4.13363E-21
 -1      3147 9.53017E-05-2.73038E-05-2.91442E-05-4.26379E-06-9.37948E-19-9.60292E-19
 -1      3148 9.46632E-05-2.69420E-05-2.90274E-05-5.01912E-06-1.62142E-18 6.20287E-19
 -1      3149 9.52980E-05-2.73106E-05-2.91311E-05-3.85211E-06-3.81816E-19-9.49197E-19
 -1      3150 9.51738E-05-2.73036E-05-2.90906E-05-3.48994E-06-2.74884E-19-8.84691E-19
 -1      3151 9.45889E-05-2.68637E-05-2.90267E-05-4.14884E-06-8.10741E-19-2.76999E-19
 -1      3152 9.52078E-05-2.73662E-05-2.90692E-05-3.12300E-06-4.61204E-19-5.94166E-19
 -1      3153 9.51269E-05-2.74046E-05-2.90275E-05-2.79583E-06-3.07230E-20-9.84797E-19
 -1      3154 9.46236E-05-2.69520E-05-2.90025E-05-3.36215E-06 3.33494E-19-8.50982E-19
 -1      3155 9.51758E-05-2.74935E-05-2.90016E-05-2.47879E-06 3.12290E-19-9.62240E-19
 -1      3156 9.51223E-05-2.75539E-05-2.89614E-05-2.19421E-06 9.00184E-19-1.26522E-18
 -1      3157 9.47087E-05-2.71279E-05-2.89630E-05-2.67346E-06 2.27738E-19-1.05989E-18
 -1      3158 9.51733E-05-2.76502E-05-2.89340E-05-1.92729E-06 6.29249E-19-1.64503E-18
 -1      3159 9.51370E-05-2.77178E-05-2.88971E-05-1.68713E-06 6.75935E-19-1.79996E-18
 -1      3160 9.48098E-05-2.73394E-05-2.89155E-05-2.08624E-06 5.86090E-19-5.83180E-19
 -1      3161 9.51832E-05-2.78103E-05-2.88703E-05-1.46745E-06 1.22985E-18-2.49883E-18
 -1      3162 9.51578E-05-2.78762E-05-2.88377E-05-1.26980E-06 1.84677E-18-2.75344E-18
 -1      3163 9.49077E-05-2.75539E-05-2.88655E-05-1.59700E-06 1.35151E-18-1.27821E-18
 -1      3164 9.51963E-05-2.79588E-05-2.88130E-05-1.09260E-06 2.16675E-18-3.07232E-18
 -1      3165 9.51777E-05-2.80181E-05-2.87849E-05-9.33422E-07 1.49553E-18-3.16016E-18
 -1      3166 9.49929E-05-2.77528E-05-2.88169E-05-1.19776E-06 1.79897E-18-3.71236E-18
 -1      3167 9.52076E-05-2.80879E-05-2.87629E-05-7.93208E-07 1.67306E-20-3.60246E-18
 -1      3168 9.51936E-05-2.81391E-05-2.87394E-05-6.67201E-07-5.99790E-19-4.06451E-18
 -1      3169 9.50619E-05-2.79269E-05-2.87720E-05-8.78384E-07 4.03214E-19-4.42834E-18
 -1      3170 9.52163E-05-2.81968E-05-2.87203E-05-5.58355E-07-1.10051E-18-4.07028E-18
 -1      3171 9.52045E-05-2.82367E-05-2.87009E-05-4.62806E-07-1.83945E-18-5.71997E-18
 -1      3172 9.51133E-05-2.80737E-05-2.87321E-05-6.27244E-07-7.71662E-19-4.13268E-18
 -1      3173 9.53420E-05-2.71227E-05-2.92271E-05-5.36222E-06 3.00984E-19 5.67318E-20
 -1      3174 9.52355E-05-2.72054E-05-2.91618E-05-4.91342E-06 3.47353E-19 1.77166E-19
 -1      3175 9.53770E-05-2.73500E-05-2.91462E-05-4.49074E-06 4.12353E-19 1.44532E-19
 -1      3176 9.52943E-05-2.73998E-05-2.91006E-05-4.08354E-06 3.55282E-19 2.44863E-19
 -1      3177 9.49269E-05-2.69004E-05-2.91540E-05-4.71160E-06 3.55163E-19-8.61426E-21
 -1      3178 9.52808E-05-2.65989E-05-2.94224E-05-7.48223E-06 8.76201E-20-3.33181E-20
 -1      3179 9.51092E-05-2.66579E-05-2.93466E-05-6.90295E-06 6.08264E-20-3.29510E-19
 -1      3180 9.53212E-05-2.64863E-05-2.94859E-05-8.76038E-06 1.16316E-19-1.18174E-20
 -1      3181 9.50764E-05-2.64480E-05-2.94233E-05-8.12225E-06 1.49401E-19-7.16094E-20
 -1      3182 9.38647E-05-2.57498E-05-2.91875E-05-7.83064E-06 6.49664E-20-4.50964E-19
 -1      3183 9.55467E-05-2.67061E-05-2.94850E-05-1.01581E-05 4.22495E-19-2.90756E-19
 -1      3184 9.51554E-05-2.64603E-05-2.94505E-05-9.49312E-06 5.31602E-19-5.42610E-20
 -1      3185 9.34867E-05-2.55362E-05-2.91184E-05-9.19264E-06 4.16784E-19-3.59829E-19
 -1      3186 9.62000E-05-2.75729E-05-2.93880E-05-1.16075E-05 6.96186E-21-4.62870E-19
 -1      3187 9.55238E-05-2.69454E-05-2.93952E-05-1.09798E-05 7.80201E-20-2.69209E-19
 -1      3188 9.32700E-05-2.57274E-05-2.89493E-05-1.07491E-05 3.81738E-19 3.39934E-20
 -1      3189 9.77171E-05-2.95552E-05-2.91797E-05-1.29680E-05-1.44514E-19 5.02740E-20
 -1      3190 9.65218E-05-2.82955E-05-2.92308E-05-1.24943E-05-2.83342E-19-3.11346E-19
 -1      3191 9.35025E-05-2.67005E-05-2.86458E-05-1.25059E-05-1.90417E-19-1.55388E-19
 -1      3192 1.00804E-04-3.32568E-05-2.88991E-05-1.39468E-05-4.23746E-19 5.06526E-19
 -1      3193 9.87293E-05-3.10604E-05-2.89620E-05-1.38443E-05 2.41806E-19 1.81498E-19
 -1      3194 9.47077E-05-2.90122E-05-2.81971E-05-1.44244E-05-1.43667E-19 3.35571E-19
 -1      3195 1.06426E-04-3.92443E-05-2.87323E-05-1.39208E-05-1.19700E-18 7.09949E-19
 -1      3196 1.03072E-04-3.59317E-05-2.86863E-05-1.46245E-05-8.71076E-19 4.23642E-19
 -1      3197 9.76962E-05-3.33488E-05-2.76611E-05-1.63621E-05-6.43004E-19 2.69112E-19
 -1      3198 1.15383E-04-4.70422E-05-2.91949E-05-1.13274E-05-1.08151E-18 1.11548E-18
 -1      3199 1.10678E-04-4.32003E-05-2.87519E-05-1.36209E-05-1.07581E-18 1.13546E-18
 -1      3200 1.04090E-04-4.07177E-05-2.73173E-05-1.77378E-05-1.27006E-18 1.78764E-19
 -1      3201 1.33952E-04-5.31804E-05-3.50407E-05 4.75458E-06 3.10570E-19 1.76956E-18
 -1      3202 1.14122E-04-4.60588E-05-2.89983E-05 1.23601E-05-7.35045E-19-1.12898E-18
 -1      3203 1.18860E-04-4.97152E-05-2.96604E-05 9.53126E-06-4.81207E-19-6.10074E-19
 -1      3204 9.71536E-05-2.89274E-05-2.92234E-05 1.26049E-05-4.57311E-19 7.20701E-19
 -1      3205 9.86003E-05-3.04948E-05-2.91546E-05 1.30255E-05-2.16110E-19-1.24988E-19
 -1      3206 9.58136E-05-2.71193E-05-2.94412E-05 1.10119E-05-4.13910E-20 5.03369E-19
 -1      3207 9.66276E-05-2.79485E-05-2.94094E-05 1.16561E-05-1.44158E-19 6.58049E-19
 -1      3208 9.37199E-05-2.71133E-05-2.85716E-05 1.27364E-05-2.02959E-19 9.17989E-20
 -1      3209 9.52784E-05-2.63562E-05-2.95461E-05 9.38146E-06-7.11400E-19 1.31321E-18
 -1      3210 9.57338E-05-2.67209E-05-2.95585E-05 1.01042E-05-7.52351E-19 6.88175E-19
 -1      3211 9.32021E-05-2.57020E-05-2.89354E-05 1.08032E-05-8.12028E-19 1.44849E-18
 -1      3212 9.51296E-05-2.61922E-05-2.95550E-05 7.83427E-06 7.08790E-20 1.18661E-18
 -1      3213 9.53968E-05-2.62923E-05-2.96015E-05 8.55266E-06 9.52532E-20 1.55569E-18
 -1      3214 9.32809E-05-2.52500E-05-2.91538E-05 9.05423E-06-9.60260E-19 1.98624E-18
 -1      3215 9.51379E-05-2.63343E-05-2.94977E-05 6.42722E-06 5.12755E-19 1.25124E-18
 -1      3216 9.53110E-05-2.62982E-05-2.95646E-05 7.09590E-06 1.19617E-19 1.23387E-18
 -1      3217 9.35952E-05-2.53244E-05-2.92536E-05 7.49804E-06 2.19505E-19 1.73128E-18
 -1      3218 9.51925E-05-2.66096E-05-2.94021E-05 5.18587E-06-1.05518E-18 1.88448E-18
 -1      3219 9.53185E-05-2.65125E-05-2.94776E-05 5.78149E-06-3.29976E-19 1.54546E-18
 -1      3220 9.39597E-05-2.56511E-05-2.92697E-05 6.12804E-06-2.07139E-19 1.98838E-18
 -1      3221 9.52461E-05-2.69226E-05-2.92895E-05 4.11786E-06-2.03846E-18 2.60619E-18
 -1      3222 9.53465E-05-2.68057E-05-2.93652E-05 4.63144E-06-1.41728E-18 2.29340E-18
 -1      3223 9.42924E-05-2.60724E-05-2.92327E-05 4.93844E-06-1.91321E-18 2.03367E-18
 -1      3224 9.52831E-05-2.72247E-05-2.91745E-05 3.21861E-06-1.92386E-18 2.69481E-18
 -1      3225 9.53669E-05-2.71091E-05-2.92451E-05 3.65026E-06-1.76982E-18 2.46819E-18
 -1      3226 9.45644E-05-2.65023E-05-2.91662E-05 3.92188E-06-1.72177E-18 2.29098E-18
 -1      3227 9.53024E-05-2.74940E-05-2.90660E-05 2.47575E-06-6.69317E-19 1.04507E-18
 -1      3228 9.53732E-05-2.73894E-05-2.91288E-05 2.83096E-06-1.66898E-18 1.91706E-18
 -1      3229 9.47729E-05-2.68986E-05-2.90868E-05 3.06768E-06-1.21595E-18 8.53687E-19
 -1      3230 9.53077E-05-2.77233E-05-2.89689E-05 1.87254E-06-6.09071E-19 1.69267E-18
 -1      3231 9.53669E-05-2.76333E-05-2.90226E-05 2.15960E-06-5.20752E-19 1.51952E-18
 -1      3232 9.49259E-05-2.72437E-05-2.90054E-05 2.36182E-06-1.00562E-18 4.33807E-19
 -1      3233 9.53036E-05-2.79125E-05-2.88851E-05 1.39048E-06 6.87280E-19 7.07458E-19
 -1      3234 9.53524E-05-2.78376E-05-2.89299E-05 1.61874E-06 1.02011E-19 1.05628E-18
 -1      3235 9.50345E-05-2.75335E-05-2.89283E-05 1.78795E-06 5.27200E-19 1.15774E-18
 -1      3236 9.52938E-05-2.80649E-05-2.88148E-05 1.01068E-06 6.36070E-19 3.18375E-19
 -1      3237 9.53333E-05-2.80041E-05-2.88513E-05 1.18960E-06 1.62375E-18 6.96758E-19
 -1      3238 9.51089E-05-2.77703E-05-2.88591E-05 1.32859E-06 9.08761E-19 1.54602E-18
 -1      3239 9.52807E-05-2.81847E-05-2.87572E-05 7.16312E-07 1.92486E-19-4.75842E-19
 -1      3240 9.53126E-05-2.81368E-05-2.87864E-05 8.54527E-07-7.94012E-20-1.81554E-19
 -1      3241 9.51582E-05-2.79597E-05-2.87992E-05 9.66546E-07 7.89736E-19 1.64540E-18
 -1      3242 9.52670E-05-2.82764E-05-2.87107E-05 4.92088E-07-1.57785E-19-1.84767E-18
 -1      3243 9.52915E-05-2.82406E-05-2.87337E-05 5.95764E-07-1.85858E-19-7.55251E-19
 -1      3244 9.51878E-05-2.81079E-05-2.87486E-05 6.85605E-07 1.52437E-19-8.40053E-19
 -1      3245 9.52423E-05-2.83084E-05-2.86855E-05 3.76225E-07-1.89636E-18 6.16251E-19
 -1      3246 9.52649E-05-2.82971E-05-2.86988E-05 4.34641E-07-8.18108E-19-5.09689E-19
 -1      3247 9.51965E-05-2.81984E-05-2.87140E-05 5.05835E-07-1.64963E-18-6.16771E-19
 -1      3248 9.51944E-05-2.82511E-05-2.86917E-05 3.96118E-07-3.29450E-18 1.66798E-18
 -1      3249 9.20180E-05-1.77034E-05-3.18645E-05 1.60225E-06 7.91579E-19-9.18165E-19
 -1      3250 9.18722E-05-1.74783E-05-3.18962E-05 9.24955E-07 5.79529E-19-9.95108E-19
 -1      3251 9.55070E-05-2.68530E-05-2.94265E-05-8.38383E-07 5.57797E-19 3.98692E-19
 -1      3252 9.55366E-05-2.65062E-05-2.95703E-05-1.20451E-07 5.87624E-19 2.84281E-19
 -1      3253 9.47866E-05-2.78041E-05-2.87076E-05-4.21462E-08 1.31480E-18-1.84817E-18
 -1      3254 9.47858E-05-2.78026E-05-2.87080E-05 3.24130E-08 9.75023E-19-1.17800E-18
 -1      3255 9.50382E-05-2.80690E-05-2.87002E-05-4.01694E-07 1.15253E-18-8.01315E-19
 -1      3256 9.49773E-05-2.80085E-05-2.87030E-05-3.73674E-07 1.74289E-18-5.91306E-19
 -1      3257 9.48277E-05-2.78470E-05-2.87062E-05-1.96593E-07 1.89376E-18-3.42952E-19
 -1      3258 9.48021E-05-2.78222E-05-2.87071E-05-1.29575E-07 2.03715E-18-3.00158E-19
 -1      3259 9.47183E-05-2.77093E-05-2.87161E-05-9.97603E-08 1.52292E-18-1.32640E-18
 -1      3260 1.26602E-04-5.71829E-05-2.99878E-05 1.14698E-05-7.70271E-21 7.30195E-19
 -1      3261 1.18906E-04-5.52505E-05-2.69593E-05 1.92158E-05-6.54677E-19 1.02504E-18
 -1      3262 5.46756E-05-1.88452E-05-1.50797E-05-2.05594E-05-1.30655E-19-1.32381E-18
 -1      3263 6.57335E-05-2.72418E-05-1.62194E-05-2.94562E-05-3.01067E-19-8.80385E-19
 -1      3264 8.21902E-05-3.91748E-05-1.84752E-05 3.56055E-05 1.07383E-18-9.91029E-19
 -1      3265 7.11184E-05-3.18793E-05-1.64027E-05 3.36280E-05 1.10665E-18-1.72969E-18
 -1      3266 1.39111E-04-5.25901E-05-3.73632E-05-6.67843E-06 1.77146E-18-3.98317E-19
 -1      3267 1.39294E-04-5.72072E-05-3.53141E-05 1.60248E-06 1.60475E-18-4.04458E-20
 -1      3268 9.25719E-05-1.80313E-05-3.19656E-05-6.45997E-06-4.77430E-19-1.30666E-18
 -1      3269 9.32312E-05-1.90738E-05-3.18178E-05-6.95482E-06-6.18653E-19-1.32910E-18
 -1      3270 9.41692E-05-2.10287E-05-3.13130E-05-5.63168E-06-6.22283E-19-1.23809E-18
 -1      3271 9.32858E-05-1.93703E-05-3.16451E-05-5.16705E-06-3.77836E-19-1.13551E-18
 -1      3272 9.49167E-05-2.79396E-05-2.87040E-05-3.23689E-07 1.54520E-18-4.48170E-19
 -1      3273 9.48693E-05-2.78936E-05-2.87057E-05-2.71786E-07 1.86741E-18-3.65631E-19
 -1      3274 9.47821E-05-2.77754E-05-2.87154E-05-2.72178E-07 8.69633E-19-6.50637E-19
 -1      3275 9.48995E-05-2.78946E-05-2.87146E-05-4.05566E-07 1.67196E-18-5.02657E-19
 -1      3276 1.05339E-04-3.80863E-05-2.86951E-05 1.42442E-05-1.28065E-19-1.38488E-18
 -1      3277 1.09066E-04-4.17205E-05-2.88152E-05 1.31984E-05 1.58342E-19-1.33407E-18
 -1      3278 1.07138E-04-4.33090E-05-2.74617E-05 1.68266E-05-1.95830E-19-1.82181E-18
 -1      3279 1.30392E-04-3.10573E-05-4.30771E-05-1.61966E-05 1.67289E-18-1.59819E-18
 -1      3280 9.53048E-05-2.68494E-05-2.93268E-05-6.35042E-06 2.86601E-19-2.03304E-19
 -1      3281 9.51722E-05-2.69398E-05-2.92510E-05-5.83976E-06 4.19679E-19 7.55061E-20
 -1      3282 9.46228E-05-2.65451E-05-2.91741E-05-5.61881E-06 3.65780E-19 2.34122E-19
 -1      3283 9.42630E-05-2.61330E-05-2.91948E-05-6.64708E-06 1.85016E-19 3.06381E-20
 -1      3284 9.54830E-05-2.73011E-05-2.92201E-05-1.97030E-06 6.08670E-19 2.71035E-19
 -1      3285 9.54922E-05-2.71159E-05-2.92940E-05-1.43433E-06 5.89112E-19 3.88269E-19
 -1      3286 9.55884E-05-2.66292E-05-2.95588E-05-1.01351E-06 5.11839E-19 2.07063E-19
 -1      3287 1.29525E-04-4.38814E-05-3.70493E-05-8.05805E-06-1.54748E-18 1.40973E-18
 -1      3288 1.29923E-04-5.05015E-05-3.38883E-05-1.30289E-06-7.38295E-19 1.55494E-18
 -1      3289 9.99968E-05-3.23863E-05-2.89230E-05 1.39014E-05-2.79970E-19-6.79692E-19
 -1      3290 1.02438E-04-3.49814E-05-2.88692E-05 1.38287E-05-4.01530E-19-1.35705E-18
 -1      3291 9.54707E-05-3.01071E-05-2.80720E-05 1.47884E-05-9.59137E-19 1.00605E-19
 -1      3292 1.26262E-04-5.52420E-05-3.08775E-05 9.01454E-06-3.27961E-20 6.03392E-19
 -1      3293 1.19963E-04-5.48171E-05-2.75537E-05 1.77123E-05 1.15421E-18 1.02359E-19
 -1      3294 9.54621E-05-2.51641E-05-3.01163E-05-1.39359E-06-3.05744E-19-9.22473E-19
 -1      3295 9.55167E-05-2.58080E-05-2.98838E-05-4.68865E-07-2.74137E-19-8.08271E-19
 -1      3296 9.55405E-05-2.55841E-05-2.99829E-05-2.23962E-07-1.02908E-19-6.30267E-19
 -1      3297 1.34585E-04-5.76572E-05-3.30019E-05 3.75341E-06 1.58861E-18 5.00596E-19
 -1      3298 5.76178E-05-2.28321E-05-1.44079E-05-2.83734E-05 1.64046E-18 3.05874E-18
 -1      3299 7.02570E-05-3.07601E-05-1.68311E-05-3.26647E-05 1.12563E-18 2.58996E-18
 -1      3300 4.38264E-05-1.26087E-05-1.30160E-05-9.49974E-06 1.97094E-19 3.59682E-18
 -1      3301 4.88041E-05-1.71338E-05-1.32527E-05-2.16939E-05 1.04090E-18 3.38114E-18
 -1      3302 1.31509E-04-4.34181E-05-3.78810E-05 8.37542E-06-7.98540E-19 4.49986E-19
 -1      3303 1.28583E-04-3.63017E-05-3.99520E-05 1.17916E-05-1.45796E-19 9.23160E-19
 -1      3304 4.52641E-05-1.22022E-05-1.37900E-05 6.80665E-06 2.21287E-19-6.51580E-19
 -1      3305 4.68813E-05-1.29425E-05-1.42827E-05-7.47022E-06-1.20160E-19-9.62441E-19
 -1      3306 1.30272E-04-5.58226E-05-3.17064E-05-4.42239E-06-7.45865E-19 1.26547E-18
 -1      3307 9.52730E-05-2.40657E-05-3.05183E-05 3.74706E-06 1.02433E-18 1.41688E-20
 -1      3308 9.46611E-05-2.24920E-05-3.09217E-05 4.26161E-06 1.02212E-18 7.50120E-20
 -1      3309 9.49056E-05-2.32499E-05-3.07050E-05 3.10844E-06 9.17465E-19 3.85185E-20
 -1      3310 9.53161E-05-2.49492E-05-3.01684E-05 2.38202E-06 9.09562E-19 5.40009E-20
 -1      3311 4.89910E-05-1.56647E-05-1.40936E-05 1.63295E-05-2.53231E-18 2.73168E-18
 -1      3312 4.41903E-05-1.19745E-05-1.34448E-05 4.21434E-06-1.20066E-18 3.36166E-18
 -1      3313 7.79259E-05-3.48093E-05-1.81152E-05-3.17810E-05-4.35243E-19-8.60797E-19
 -1      3314 9.19963E-05-4.36357E-05-2.09446E-05-3.18309E-05-8.73714E-19-1.09034E-18
 -1      3315 1.09707E-04-5.28848E-05-2.46672E-05 2.68228E-05 1.42333E-18 3.05633E-19
 -1      3316 9.63183E-05-4.61250E-05-2.10698E-05 3.26243E-05 1.36648E-18-7.43271E-20
 -1      3317 9.25360E-05-4.19767E-05-2.13964E-05 3.04022E-05 9.37507E-19-2.04294E-19
 -1      3318 7.17983E-05-2.90120E-05-1.82367E-05 2.82547E-05-1.33911E-18 1.72805E-18
 -1      3319 5.88751E-05-2.08569E-05-1.57698E-05 2.33679E-05-1.73859E-18 2.24263E-18
 -1      3320 1.11541E-04-2.40712E-05-3.75063E-05-1.08974E-05-2.06835E-18 5.14354E-19
 -1      3321 1.16298E-04-1.92870E-05-4.18478E-05-1.08092E-05-2.28747E-18 9.93146E-19
 -1      3322 1.20650E-04-2.54425E-05-4.14225E-05-1.34674E-05-2.29731E-18 1.12565E-18
 -1      3323 1.13910E-04-2.92032E-05-3.65926E-05-1.26155E-05-1.49235E-18 7.91223E-19
 -1      3324 1.18787E-04-2.28017E-05-4.13862E-05 1.29174E-05-1.79931E-18-8.60797E-20
 -1      3325 1.12771E-04-2.58698E-05-3.73289E-05 1.13056E-05-7.11269E-19-4.94125E-19
 -1      3326 1.15086E-04-3.07283E-05-3.63914E-05 1.29731E-05-4.06893E-19-7.83242E-19
 -1      3327 1.24933E-04-3.13375E-05-4.04710E-05 1.36483E-05-8.51427E-19 5.09279E-19
 -1      3328 1.22522E-04-5.72498E-05-2.83430E-05-1.69846E-05-1.55671E-18 5.73388E-19
 -1      3329 1.24878E-04-5.30731E-05-3.06654E-05-6.38416E-06-8.01651E-19 7.71276E-19
 -1      3330 1.19629E-04-5.03961E-05-2.94139E-05-1.05470E-05-1.07259E-18 8.51003E-19
 -1      3331 1.09300E-04-5.12760E-05-2.44602E-05-2.48494E-05-1.62908E-18-2.61932E-19
 -1      3332 5.85179E-05-2.35240E-05-1.47910E-05 2.87840E-05 7.85570E-19-1.90095E-18
 -1      3333 4.89018E-05-1.58623E-05-1.38827E-05 1.80399E-05 4.77290E-19-1.37939E-18
 -1      3334 6.81868E-05-2.64963E-05-1.74838E-05 2.76064E-05 5.77094E-19-1.78507E-18
 -1      3335 9.17979E-05-1.73645E-05-3.19138E-05 3.71442E-07 5.13841E-19-1.01034E-18
 -1      3336 9.17953E-05-1.73610E-05-3.19139E-05-3.15809E-07 4.13827E-19-1.08493E-18
 -1      3337 9.26757E-05-1.88425E-05-3.16230E-05 5.32788E-07 4.98254E-19-9.20990E-19
 -1      3338 1.18572E-04-3.26337E-05-3.68531E-05-1.30959E-05-1.49983E-18 1.16028E-18
 -1      3339 8.17475E-05-3.58304E-05-1.92536E-05-3.22804E-05 8.60453E-19 6.07084E-19
 -1      3340 9.15289E-05-4.04000E-05-2.19444E-05-2.86678E-05 7.47162E-19-1.04752E-18
 -1      3341 7.61889E-05-3.05395E-05-1.93556E-05-2.88884E-05 1.35867E-18 1.39827E-18
 -1      3342 9.51557E-05-2.38173E-05-3.05542E-05-3.00240E-06-3.03748E-19-1.05719E-18
 -1      3343 9.52499E-05-2.45147E-05-3.03238E-05-2.09006E-06-3.01358E-19-1.03834E-18
 -1      3344 9.52115E-05-2.42654E-05-3.04028E-05-1.69702E-06-2.99896E-19-8.84012E-19
 -1      3345 5.31792E-05-1.48151E-05-1.60174E-05 1.08658E-05 4.03002E-21-1.04677E-18
 -1      3346 9.49723E-05-2.79938E-05-2.87071E-05 3.74728E-07-1.57660E-18 1.65896E-19
 -1      3347 9.50327E-05-2.80534E-05-2.87048E-05 4.03310E-07-2.08884E-18 1.65674E-18
 -1      3348 1.17207E-04-5.17855E-05-2.82051E-05 1.51472E-05-5.83844E-19 5.39189E-20
 -1      3349 1.23359E-04-5.20165E-05-3.03652E-05 7.13795E-06-6.98011E-19-3.32216E-19
 -1      3350 1.19596E-04-3.44442E-05-3.65325E-05 1.28588E-05-4.10440E-19-1.64510E-20
 -1      3351 1.03504E-04-4.58524E-05-2.43220E-05-2.41857E-05-1.19929E-18 9.64559E-20
 -1      3352 9.54205E-05-2.74067E-05-2.91437E-05-2.44258E-06 5.31503E-19 3.80578E-19
 -1      3353 9.55186E-05-2.70759E-05-2.93370E-05-2.12713E-06 5.87519E-19 2.66583E-19
 -1      3354 9.54450E-05-2.74853E-05-2.91217E-05-2.87874E-06 2.63559E-19 3.23342E-19
 -1      3355 9.45118E-05-2.22134E-05-3.09991E-05-4.53710E-06-5.12871E-19-1.23239E-18
 -1      3356 9.51759E-05-2.71416E-05-2.91591E-05-3.87620E-06 2.52590E-19 1.06883E-19
 -1      3357 9.54098E-05-2.74846E-05-2.91044E-05-3.68685E-06 4.13397E-20 2.87016E-19
 -1      3358 9.53538E-05-2.74813E-05-2.90875E-05-3.28830E-06-2.91022E-20 2.60039E-19
 -1      3359 1.12448E-04-4.92522E-05-2.74225E-05-1.78968E-05-1.17093E-18 3.95644E-19
 -1      3360 9.51117E-05-2.81496E-05-2.86997E-05-4.32812E-07-7.73690E-19-1.29413E-18
 -1      3361 9.50527E-05-2.80497E-05-2.87138E-05-4.92529E-07-5.04483E-20-2.50686E-18
 -1      3362 1.10735E-04-5.02074E-05-2.57856E-05 2.13955E-05 1.84759E-20 1.36994E-18
 -1      3363 9.54731E-05-2.61431E-05-2.97203E-05 5.39787E-07 6.89754E-19 1.29014E-19
 -1      3364 9.54959E-05-2.55774E-05-2.99514E-05 1.52426E-06 7.92914E-19 1.31341E-20
 -1      3365 9.53499E-05-2.48171E-05-3.02311E-05 1.90136E-06 7.90720E-19 2.14696E-19
 -1      3366 9.55415E-05-2.58861E-05-2.98572E-05 3.05446E-07 5.14830E-19 2.27252E-19
 -1      3367 5.22400E-05-1.28312E-05-1.68166E-05 3.32304E-06-1.48927E-18 1.97899E-18
 -1      3368 4.73146E-05-1.21589E-05-1.46481E-05-2.40130E-06-5.96209E-19 2.48107E-18
 -1      3369 5.20194E-05-1.34269E-05-1.64431E-05-9.03199E-06-2.00082E-19 2.10662E-18
 -1      3370 5.95465E-05-1.83987E-05-1.72661E-05 1.73517E-05-2.27412E-18 2.90575E-18
 -1      3371 9.41850E-05-2.15151E-05-3.11238E-05 3.10111E-06 9.55338E-19-4.08959E-19
 -1      3372 9.32835E-05-1.97787E-05-3.15246E-05 3.78759E-06 1.07897E-18-4.75894E-19
 -1      3373 9.28665E-05-1.90670E-05-3.16403E-05 3.23837E-06 9.98209E-19-5.01648E-19
 -1      3374 1.14041E-04-5.19115E-05-2.65409E-05 1.97239E-05 1.01062E-18-2.32299E-19
 -1      3375 9.22340E-05-1.80416E-05-3.18094E-05 2.12794E-06 8.69951E-19-9.23297E-19
 -1      3376 9.29503E-05-1.92883E-05-3.15487E-05 1.51653E-06 7.64336E-19-7.91133E-19
 -1      3377 9.25202E-05-1.84991E-05-3.17415E-05 2.76751E-06 9.92936E-19-7.30137E-19
 -1      3378 1.25721E-04-5.09621E-05-3.19571E-05 1.91411E-06-4.37784E-19 7.15452E-19
 -1      3379 9.48634E-05-2.78812E-05-2.87086E-05 2.68109E-07 5.31761E-19 1.35898E-18
 -1      3380 9.49102E-05-2.79247E-05-2.87075E-05 3.21824E-07-2.17733E-19 8.41867E-19
 -1      3381 9.48896E-05-2.78747E-05-2.87191E-05 4.03138E-07-1.09452E-18 1.32054E-18
 -1      3382 9.51816E-05-2.82422E-05-2.86875E-05-3.84910E-07-8.53655E-19-3.22534E-18
 -1      3383 9.47987E-05-2.78155E-05-2.87085E-05 1.21670E-07 1.22248E-18 4.16542E-19
 -1      3384 9.48234E-05-2.78379E-05-2.87083E-05 1.91175E-07 9.92597E-19 5.71583E-19
 -1      3385 9.47755E-05-2.77610E-05-2.87185E-05 2.63340E-07 6.12359E-19 1.41197E-18
 -1      3386 9.47159E-05-2.77040E-05-2.87172E-05 8.70186E-08 6.43142E-19-1.00752E-18
 -1      3387 7.63891E-05-3.04699E-05-1.92917E-05-2.73382E-05-2.95588E-19-8.37292E-19
 -1      3388 1.17704E-04-5.45222E-05-2.70336E-05-1.96392E-05 9.50768E-19-6.86140E-19
 -1      3389 1.26067E-04-5.63131E-05-3.00737E-05-1.26528E-05 1.92250E-19-6.84561E-19
 -1      3390 1.33365E-04-5.25603E-05-3.46697E-05-5.18373E-06 1.67668E-18-1.44784E-18
 -1      3391 9.95287E-05-3.54538E-05-2.75489E-05 1.66794E-05-3.01696E-19-2.69343E-19
 -1      3392 5.36385E-05-1.53244E-05-1.59722E-05-1.34960E-05 5.18808E-21-1.18278E-18
 -1      3393 6.22726E-05-1.90578E-05-1.83245E-05-1.77146E-05-2.18258E-19-1.07107E-18
 -1      3394 5.52650E-05-1.39345E-05-1.75878E-05-6.62266E-06 7.34536E-20-1.00410E-18
 -1      3395 5.85218E-05-2.00902E-05-1.60054E-05-2.24000E-05 1.13643E-18 2.93460E-18
 -1      3396 8.10304E-05-3.32385E-05-2.00890E-05 2.84868E-05-4.43792E-19 3.34231E-18
 -1      3397 7.54680E-05-2.74449E-05-2.05037E-05 2.43699E-05-1.01461E-18 3.37638E-18
 -1      3398 8.97278E-05-3.72957E-05-2.24388E-05 2.62090E-05 8.36048E-20 3.16711E-18
 -1      3399 1.05235E-04-4.75100E-05-2.46485E-05-2.43035E-05 9.29725E-19-8.53200E-19
 -1      3400 1.12549E-04-5.22024E-05-2.57215E-05-2.26358E-05 1.36674E-18-6.36057E-19
 -1      3401 1.16599E-04-5.17441E-05-2.78024E-05-1.51724E-05 1.07839E-18-5.67228E-19
 -1      3402 1.24267E-04-3.27193E-05-3.94136E-05-1.24897E-05-2.18249E-18 1.21517E-18
 -1      3403 9.22134E-05-1.80192E-05-3.18103E-05-2.07956E-06 2.32860E-19-1.00903E-18
 -1      3404 9.24909E-05-1.84653E-05-3.17436E-05-2.72823E-06 5.92349E-20-1.20611E-18
 -1      3405 1.32395E-04-5.51248E-05-3.33197E-05 2.38540E-07 8.32117E-19-2.51886E-19
 -1      3406 1.30896E-04-5.68259E-05-3.17159E-05 5.28562E-06 5.33697E-19 2.94820E-19
 -1      3407 1.26114E-04-5.48008E-05-3.05099E-05 7.41743E-06-7.20838E-19-8.40151E-20
 -1      3408 1.30400E-04-5.25306E-05-3.34404E-05-2.69076E-06 5.54168E-19-1.78236E-18
 -1      3409 1.29748E-04-5.40217E-05-3.24486E-05-5.31604E-06 1.73245E-19 2.11070E-19
 -1      3410 1.31969E-04-4.93888E-05-3.57827E-05 2.44784E-06-3.96610E-19 2.46540E-19
 -1      3411 1.28296E-04-4.58696E-05-3.53220E-05 6.38736E-06-4.56802E-19 1.14185E-18
 -1      3412 1.25869E-04-5.32331E-05-3.11721E-05-5.73938E-06 7.60424E-19 1.89232E-19
 -1      3413 9.28417E-05-1.90329E-05-3.16438E-05-3.20127E-06-4.60034E-20-1.18220E-18
 -1      3414 9.32726E-05-1.97656E-05-3.15282E-05-3.78403E-06-1.79939E-19-1.09164E-18
 -1      3415 9.34566E-05-2.01645E-05-3.13913E-05-2.36866E-06-5.21093E-21-1.02111E-18
 -1      3416 1.26530E-04-5.25380E-05-3.17958E-05 2.31808E-06-5.15810E-19-1.69527E-18
 -1      3417 9.56258E-05-2.60012E-05-2.98326E-05 6.81196E-07-5.96713E-20-6.30281E-19
 -1      3418 9.56313E-05-2.63855E-05-2.96817E-05 1.26922E-06-3.14184E-19-6.42061E-19
 -1      3419 1.05912E-04-4.63295E-05-2.53008E-05 2.23679E-05 7.48565E-20 7.34814E-19
 -1      3420 1.22867E-04-3.54097E-05-3.76376E-05 1.21826E-05-5.63462E-19 6.68150E-19
 -1      3421 1.23323E-04-3.96577E-05-3.61272E-05 1.11739E-05-1.69565E-19 3.26597E-19
 -1      3422 9.55990E-05-2.66676E-05-2.95384E-05 1.73491E-06-4.02814E-19-5.94070E-19
 -1      3423 9.55447E-05-2.68646E-05-2.94357E-05 2.20485E-06-3.61982E-19-5.82957E-19
 -1      3424 9.55458E-05-2.61844E-05-2.97248E-05 1.35783E-06-2.44398E-19-6.65287E-19
 -1      3425 9.54166E-05-2.69752E-05-2.93309E-05 2.59989E-06-2.98004E-19-4.80647E-19
 -1      3426 9.53329E-05-2.70473E-05-2.92639E-05 2.99968E-06-1.13199E-19-4.97230E-19
 -1      3427 9.53860E-05-2.66263E-05-2.94678E-05 2.23257E-06-2.74428E-19-4.17951E-19
 -1      3428 9.51421E-05-2.70442E-05-2.91860E-05 3.36203E-06-1.38761E-19-4.62319E-19
 -1      3429 9.50510E-05-2.70419E-05-2.91431E-05 3.73131E-06-1.75211E-19-5.57194E-19
 -1      3430 9.50695E-05-2.67600E-05-2.92751E-05 3.00085E-06-1.44069E-19-4.05633E-19
 -1      3431 9.48247E-05-2.69758E-05-2.90811E-05 4.09444E-06 5.83079E-20-6.13586E-19
 -1      3432 9.47476E-05-2.69471E-05-2.90517E-05 4.46226E-06 1.39428E-19-2.00521E-19
 -1      3433 9.46545E-05-2.66974E-05-2.91242E-05 3.73392E-06-3.02542E-20-3.95476E-19
 -1      3434 9.45144E-05-2.68689E-05-2.89949E-05 4.85286E-06-3.88040E-20-6.83912E-20
 -1      3435 9.44790E-05-2.68663E-05-2.89693E-05 5.23696E-06-1.97107E-19 4.54192E-20
 -1      3436 9.41950E-05-2.65451E-05-2.89931E-05 4.49333E-06 1.04637E-19-3.14740E-19
 -1      3437 9.42753E-05-2.68341E-05-2.89073E-05 5.67443E-06-3.38543E-19 2.23034E-19
 -1      3438 9.43224E-05-2.69205E-05-2.88767E-05 6.08088E-06-8.59166E-20 4.55844E-19
 -1      3439 9.37539E-05-2.64175E-05-2.88600E-05 5.32822E-06-8.89518E-20-1.97975E-21
 -1      3440 9.42012E-05-2.70056E-05-2.88005E-05 6.57735E-06-9.60062E-20 4.44976E-19
 -1      3441 9.43921E-05-2.72602E-05-2.87582E-05 6.99897E-06-1.80767E-19 1.51102E-19
 -1      3442 9.34178E-05-2.64498E-05-2.87050E-05 6.27606E-06-2.87538E-19-1.21994E-19
 -1      3443 9.44335E-05-2.75533E-05-2.86615E-05 7.55675E-06-2.59852E-19-8.06220E-20
 -1      3444 9.48574E-05-2.80749E-05-2.86052E-05 7.96835E-06-2.24620E-19-1.57450E-19
 -1      3445 9.33153E-05-2.68117E-05-2.85115E-05 7.36192E-06-3.10309E-19-2.67439E-19
 -1      3446 9.51810E-05-2.86886E-05-2.84877E-05 8.57194E-06-1.76718E-19 5.40232E-21
 -1      3447 9.59591E-05-2.95929E-05-2.84238E-05 8.92005E-06-2.88683E-19 1.16953E-19
 -1      3448 9.36399E-05-2.77190E-05-2.82715E-05 8.59027E-06-9.40159E-20-2.52542E-19
 -1      3449 9.67369E-05-3.06562E-05-2.82980E-05 9.51537E-06-4.71497E-19 2.93940E-19
 -1      3450 9.80168E-05-3.20554E-05-2.82489E-05 9.69789E-06-2.73143E-20 1.76149E-19
 -1      3451 9.46772E-05-2.94388E-05-2.79950E-05 9.92031E-06-2.47796E-19 8.72262E-21
 -1      3452 9.94717E-05-3.36852E-05-2.81487E-05 1.01623E-05 2.26365E-19 4.03540E-21
 -1      3453 1.01398E-04-3.56422E-05-2.81637E-05 9.99012E-06 1.70705E-19 3.18880E-19
 -1      3454 9.68156E-05-3.22581E-05-2.77267E-05 1.12068E-05 5.74758E-20 2.65859E-19
 -1      3455 1.03884E-04-3.79933E-05-2.81675E-05 1.00386E-05 4.69362E-19 5.35800E-19
 -1      3456 1.06465E-04-4.03030E-05-2.83589E-05 9.08884E-06 7.90771E-19 7.92522E-19
 -1      3457 1.00585E-04-3.64889E-05-2.75675E-05 1.21592E-05 4.75195E-19 3.51780E-19
 -1      3458 1.09928E-04-4.27904E-05-2.86660E-05 8.18036E-06 7.51636E-19 3.97364E-19
 -1      3459 1.13130E-04-4.50445E-05-2.92261E-05 6.23809E-06 4.57723E-19 3.94320E-19
 -1      3460 1.06575E-04-4.18242E-05-2.77562E-05 1.19428E-05 6.09195E-19-1.40058E-20
 -1      3461 1.23024E-04-4.58410E-05-3.33002E-05-5.57618E-06-8.48676E-19 1.74451E-18
 -1      3462 1.23270E-04-4.20198E-05-3.48795E-05-8.74734E-06-1.45800E-18 1.40042E-18
 -1      3463 9.55977E-05-2.64540E-05-2.96376E-05-1.20020E-06 5.54101E-19-1.19987E-19
 -1      3464 9.56111E-05-2.60994E-05-2.97825E-05-5.61103E-07 5.05739E-19-1.81888E-19
 -1      3465 1.19182E-04-4.73998E-05-3.08284E-05-8.26377E-07 4.28135E-19-1.84071E-19
 -1      3466 1.16726E-04-4.67545E-05-2.98700E-05-3.84420E-06 6.71057E-19 3.33350E-19
 -1      3467 1.12387E-04-4.45694E-05-2.90943E-05-6.32494E-06 8.29847E-19 3.65809E-19
 -1      3468 1.09481E-04-4.24127E-05-2.86235E-05-8.12097E-06 5.10107E-19 1.57476E-18
 -1      3469 1.13827E-04-4.68583E-05-2.87698E-05-8.78022E-06 8.70535E-19 2.33027E-19
 -1      3470 1.05953E-04-3.97600E-05-2.83736E-05-9.01152E-06-4.86609E-19 1.63595E-18
 -1      3471 1.03402E-04-3.73894E-05-2.82124E-05-9.74907E-06 7.86980E-21 1.56767E-18
 -1      3472 1.05969E-04-4.13708E-05-2.77995E-05-1.16006E-05 5.55204E-19 9.15940E-19
 -1      3473 1.01027E-04-3.51645E-05-2.82125E-05-9.65334E-06 3.46781E-19 1.32174E-18
 -1      3474 9.91357E-05-3.32250E-05-2.82030E-05-9.76295E-06 6.90809E-19 1.18948E-18
 -1      3475 1.00144E-04-3.58942E-05-2.76209E-05-1.17613E-05 9.55501E-20 1.17587E-18
 -1      3476 9.76740E-05-3.15879E-05-2.83039E-05-9.26025E-06 4.23052E-19 7.06209E-19
 -1      3477 9.64046E-05-3.01879E-05-2.83563E-05-9.01790E-06 5.94355E-19-3.14979E-19
 -1      3478 9.64280E-05-3.17520E-05-2.77767E-05-1.07831E-05 6.70078E-20 1.78181E-19
 -1      3479 9.56156E-05-2.91192E-05-2.84803E-05-8.36892E-06 1.18419E-18-4.29569E-19
 -1      3480 9.48364E-05-2.82133E-05-2.85439E-05-7.96178E-06 9.22044E-19-1.62981E-19
 -1      3481 9.42684E-05-2.89093E-05-2.80443E-05-9.39917E-06 5.35414E-19-5.36266E-19
 -1      3482 9.44839E-05-2.75890E-05-2.86545E-05-7.30720E-06-1.90062E-19 2.23611E-19
 -1      3483 9.40475E-05-2.70629E-05-2.87065E-05-6.83719E-06-1.28228E-18 9.38386E-20
 -1      3484 9.31927E-05-2.71762E-05-2.83104E-05-7.97403E-06 3.50091E-19-1.02370E-18
 -1      3485 9.39617E-05-2.67568E-05-2.87907E-05-6.22860E-06-1.57139E-18 9.98262E-19
 -1      3486 9.37477E-05-2.64996E-05-2.88234E-05-5.75133E-06-1.45375E-18 1.24216E-18
 -1      3487 9.27951E-05-2.62467E-05-2.85288E-05-6.65259E-06-7.36970E-19 2.10287E-19
 -1      3488 9.38130E-05-2.64065E-05-2.88798E-05-5.20727E-06-2.13681E-18 1.32324E-18
 -1      3489 9.37340E-05-2.63270E-05-2.88935E-05-4.75350E-06-1.91322E-18 7.05232E-19
 -1      3490 9.27982E-05-2.58672E-05-2.86872E-05-5.47704E-06-1.48781E-18 1.17855E-18
 -1      3491 9.38747E-05-2.63660E-05-2.89255E-05-4.27861E-06-1.29711E-18 6.13547E-19
 -1      3492 9.38715E-05-2.63954E-05-2.89239E-05-3.86492E-06-4.21339E-19 5.86083E-19
 -1      3493 9.30171E-05-2.58413E-05-2.87891E-05-4.45417E-06-1.86909E-18 1.12567E-18
 -1      3494 9.40404E-05-2.65082E-05-2.89369E-05-3.45772E-06 2.04584E-19-5.84233E-20
 -1      3495 9.40752E-05-2.65980E-05-2.89244E-05-3.09217E-06 4.92422E-19-3.83445E-19
 -1      3496 9.33328E-05-2.60246E-05-2.88445E-05-3.57713E-06-4.64368E-19 3.99735E-19
 -1      3497 9.42444E-05-2.67450E-05-2.89239E-05-2.74856E-06 5.30742E-20-8.11879E-19
 -1      3498 9.42943E-05-2.68622E-05-2.89046E-05-2.43381E-06 3.78656E-19-1.02567E-18
 -1      3499 9.36732E-05-2.63165E-05-2.88647E-05-2.83475E-06 2.59712E-19-8.58613E-19
 -1      3500 9.44487E-05-2.70178E-05-2.88953E-05-2.14827E-06 1.09512E-18-1.29287E-18
 -1      3501 9.45008E-05-2.71417E-05-2.88727E-05-1.88331E-06 1.70649E-18-6.62291E-19
 -1      3502 9.39971E-05-2.66500E-05-2.88606E-05-2.21450E-06 6.64860E-19-1.86096E-18
 -1      3503 9.46337E-05-2.72906E-05-2.88582E-05-1.64988E-06 1.33984E-18-7.36109E-19
 -1      3504 9.46809E-05-2.74085E-05-2.88349E-05-1.43155E-06 1.45185E-18-1.14034E-18
 -1      3505 9.42838E-05-2.69833E-05-2.88409E-05-1.70331E-06 1.43462E-18-1.74817E-18
 -1      3506 9.47899E-05-2.75417E-05-2.88181E-05-1.24367E-06 7.45342E-19-1.73112E-18
 -1      3507 9.48294E-05-2.76469E-05-2.87957E-05-1.06701E-06 7.06644E-19-2.74543E-18
 -1      3508 9.45248E-05-2.72912E-05-2.88125E-05-1.28859E-06 2.58426E-19-1.19207E-18
 -1      3509 9.49156E-05-2.77608E-05-2.87784E-05-9.17841E-07 6.18463E-19-4.10997E-18
 -1      3510 9.49470E-05-2.78505E-05-2.87579E-05-7.78029E-07-8.17279E-20-4.10541E-18
 -1      3511 9.47187E-05-2.75613E-05-2.87805E-05-9.57159E-07-3.43065E-19-2.06879E-18
 -1      3512 9.49927E-05-2.79171E-05-2.87443E-05-6.80145E-07 2.69815E-20-3.65452E-18
 -1      3513 9.50167E-05-2.79916E-05-2.87261E-05-5.70714E-07-5.07633E-19-3.09696E-18
 -1      3514 9.49296E-05-2.79072E-05-2.87257E-05-5.33927E-07 1.12868E-18-2.14877E-18
 -1      3515 9.48457E-05-2.77620E-05-2.87508E-05-7.12166E-07 2.67015E-19-3.60112E-18
 -1      3516 9.17030E-05-2.45432E-05-2.87691E-05-9.08564E-06 3.42684E-20-1.17770E-19
 -1      3517 9.18761E-05-2.46187E-05-2.88425E-05-8.38717E-06 4.37696E-20-5.35100E-19
 -1      3518 9.24961E-05-2.49021E-05-2.89595E-05-7.73366E-06 1.77737E-19-6.38098E-19
 -1      3519 9.27060E-05-2.50993E-05-2.89893E-05-7.12432E-06 1.13928E-19-4.16196E-19
 -1      3520 9.08002E-05-2.39382E-05-2.86416E-05-7.63068E-06-5.99499E-20-4.43787E-19
 -1      3521 9.07265E-05-2.54517E-05-2.79358E-05-1.26395E-05-2.57041E-19-8.78503E-20
 -1      3522 9.04155E-05-2.47715E-05-2.81535E-05-1.17166E-05-1.44858E-19-2.10601E-19
 -1      3523 9.13730E-05-2.77046E-05-2.72255E-05-1.50362E-05-3.96305E-19 2.09182E-19
 -1      3524 9.03867E-05-2.62003E-05-2.75214E-05-1.39934E-05-1.93545E-19 1.90818E-19
 -1      3525 8.71956E-05-2.41465E-05-2.70205E-05-1.31492E-05-3.50016E-19-4.80998E-19
 -1      3526 9.40138E-05-3.22040E-05-2.63964E-05-1.78100E-05-7.69422E-19 2.98496E-19
 -1      3527 9.17271E-05-2.94259E-05-2.66818E-05-1.67495E-05-4.40963E-19 3.65205E-19
 -1      3528 8.70663E-05-2.64570E-05-2.59718E-05-1.64447E-05-5.48672E-19 1.50072E-19
 -1      3529 1.24695E-04-4.45561E-05-3.44391E-05 6.77287E-06 5.05573E-21 2.79256E-19
 -1      3530 9.50899E-05-2.81246E-05-2.87012E-05 4.10153E-07-2.67303E-18 1.02442E-18
 -1      3531 9.51436E-05-2.81836E-05-2.86970E-05 4.08865E-07-3.29070E-18 2.81818E-18
 -1      3532 9.51410E-05-2.81563E-05-2.87074E-05 4.59601E-07-3.53853E-18 2.23005E-18
 -1      3533 9.50199E-05-2.80158E-05-2.87157E-05 4.65090E-07-3.09757E-18 2.16075E-18
 -1      3534 9.06011E-05-2.41195E-05-2.85132E-05 9.93707E-06-1.62825E-18 2.40943E-18
 -1      3535 9.06709E-05-2.44728E-05-2.83458E-05 1.08378E-05-7.64681E-19 2.24266E-18
 -1      3536 7.64215E-05-3.04924E-05-1.97163E-05 2.83745E-05 4.90617E-19-1.54615E-18
 -1      3537 6.58183E-05-2.25123E-05-1.84101E-05 2.31081E-05 4.11804E-19-1.69004E-18
 -1      3538 9.01608E-05-2.48418E-05-2.80142E-05 1.20104E-05-2.27288E-19 1.63833E-18
 -1      3539 9.06700E-05-2.57881E-05-2.77633E-05 1.30295E-05-4.22210E-19 1.34926E-18
 -1      3540 8.75733E-05-2.31734E-05-2.75916E-05 1.10791E-05-6.92377E-19 3.38732E-18
 -1      3541 9.21260E-05-2.45026E-05-2.89977E-05 6.75773E-06 4.18998E-19 1.92729E-18
 -1      3542 9.19388E-05-2.43484E-05-2.89581E-05 7.45806E-06-2.70838E-19 1.91098E-18
 -1      3543 9.28367E-05-2.50347E-05-2.90717E-05 5.50602E-06-7.61121E-19 2.35286E-18
 -1      3544 9.26516E-05-2.48085E-05-2.90689E-05 6.11998E-06-1.96196E-19 2.12961E-18
 -1      3545 9.10898E-05-2.38604E-05-2.87991E-05 6.08701E-06-2.24839E-19 2.46134E-18
 -1      3546 9.34327E-05-2.56020E-05-2.90817E-05 4.43282E-06-2.19621E-18 2.34931E-18
 -1      3547 9.32751E-05-2.53591E-05-2.91014E-05 4.96431E-06-1.18630E-18 2.61567E-18
 -1      3548 9.20463E-05-2.45426E-05-2.89191E-05 4.95991E-06-7.51238E-19 3.93789E-18
 -1      3549 9.39092E-05-2.61405E-05-2.90531E-05 3.52051E-06-1.37145E-18 7.04019E-19
 -1      3550 9.37853E-05-2.59095E-05-2.90848E-05 3.97334E-06-1.73598E-18 1.32431E-18
 -1      3551 9.28288E-05-2.52206E-05-2.89663E-05 3.99815E-06-9.35560E-19 1.32298E-18
 -1      3552 9.42781E-05-2.66203E-05-2.90038E-05 2.75492E-06-8.38461E-19 2.96552E-19
 -1      3553 9.41855E-05-2.64143E-05-2.90404E-05 3.13424E-06-8.14967E-19 7.01491E-19
 -1      3554 9.34501E-05-2.58441E-05-2.89675E-05 3.18063E-06-7.36863E-19-4.72784E-19
 -1      3555 9.45568E-05-2.70307E-05-2.89458E-05 2.12193E-06-1.52070E-18 7.65060E-19
 -1      3556 9.44902E-05-2.68545E-05-2.89828E-05 2.43436E-06-1.55089E-18 1.17815E-19
 -1      3557 9.39324E-05-2.63907E-05-2.89416E-05 2.49314E-06-1.21391E-18 6.88126E-19
 -1      3558 9.47634E-05-2.73723E-05-2.88867E-05 1.60659E-06 2.31203E-19 6.26327E-19
 -1      3559 9.47169E-05-2.72257E-05-2.89213E-05 1.85972E-06-3.48586E-19 1.34584E-19
 -1      3560 9.43002E-05-2.68545E-05-2.89018E-05 1.92305E-06-8.98754E-19-1.28467E-19
 -1      3561 9.49127E-05-2.76490E-05-2.88309E-05 1.19394E-06 7.57290E-19 1.92111E-18
 -1      3562 9.48819E-05-2.75306E-05-2.88618E-05 1.39597E-06 4.52238E-19 1.13093E-18
 -1      3563 9.45760E-05-2.72383E-05-2.88564E-05 1.45820E-06-6.56596E-20 3.32171E-19
 -1      3564 9.50199E-05-2.78720E-05-2.87808E-05 8.69567E-07 1.02323E-18 1.29617E-18
 -1      3565 9.50001E-05-2.77774E-05-2.88075E-05 1.02560E-06 1.39288E-18 2.08206E-18
 -1      3566 9.47791E-05-2.75497E-05-2.88108E-05 1.08343E-06 9.68271E-19 2.07472E-18
 -1      3567 1.21394E-04-4.91633E-05-3.09302E-05 2.19757E-06-7.71594E-20 1.05390E-18
 -1      3568 7.30357E-05-2.60078E-05-1.99788E-05-2.37799E-05-5.00067E-19-4.19414E-19
 -1      3569 8.34906E-05-3.35081E-05-2.15587E-05-2.68574E-05-7.56533E-19-3.26902E-19
 -1      3570 1.00958E-04-4.15272E-05-2.52819E-05 2.20417E-05-4.67655E-20 5.80206E-19
 -1      3571 9.46207E-05-2.75994E-05-2.87242E-05-1.67221E-07 7.92171E-19-8.67684E-19
 -1      3572 9.46015E-05-2.75807E-05-2.87246E-05-7.09285E-08 9.56018E-19-2.07345E-18
 -1      3573 1.26007E-04-3.94923E-05-3.73567E-05-1.10437E-05-1.53443E-18 1.83674E-18
 -1      3574 5.89466E-05-1.68396E-05-1.78715E-05 1.60026E-05-1.30655E-19-1.07102E-18
 -1      3575 5.54936E-05-1.37139E-05-1.78244E-05 5.65149E-06-1.65774E-19-6.95467E-19
 -1      3576 9.18650E-05-1.74712E-05-3.18963E-05-8.70830E-07 3.83078E-19-1.15211E-18
 -1      3577 9.20027E-05-1.76861E-05-3.18651E-05-1.54881E-06 2.69879E-19-1.01039E-18
 -1      3578 9.29392E-05-1.92764E-05-3.15490E-05-1.47509E-06 2.65886E-19-9.69852E-19
 -1      3579 9.93619E-05-4.18782E-05-2.43558E-05-2.37979E-05-9.96534E-19-1.41117E-19
 -1      3580 9.05202E-05-2.68426E-05-2.72982E-05 1.45685E-05-1.28651E-18 9.19511E-19
 -1      3581 9.18808E-05-2.87654E-05-2.69798E-05 1.56927E-05-1.29051E-18 7.02668E-19
 -1      3582 8.67827E-05-2.44518E-05-2.67265E-05 1.38040E-05-1.14912E-18 2.21401E-18
 -1      3583 9.43963E-05-2.20200E-05-3.10360E-05-3.89172E-06-3.37117E-19-1.02760E-18
 -1      3584 9.54021E-05-2.48344E-05-3.02381E-05-6.59226E-07-1.89514E-19-5.14969E-19
 -1      3585 9.55123E-05-2.54729E-05-3.00252E-05 9.60829E-08-8.22176E-20-5.59339E-19
 -1      3586 9.54645E-05-2.52956E-05-3.00684E-05 3.00673E-07-1.53855E-19-5.18350E-19
 -1      3587 6.56443E-05-1.99821E-05-1.95561E-05 1.81560E-05-2.05438E-18 2.70759E-18
 -1      3588 5.83330E-05-1.49739E-05-1.81553E-05 1.18334E-05-1.93238E-18 2.40234E-18
 -1      3589 1.15340E-04-5.04715E-05-2.79346E-05 1.39343E-05 7.34699E-19-7.17609E-19
 -1      3590 1.08019E-04-4.76645E-05-2.54546E-05 2.14181E-05 9.95399E-19-2.54424E-19
 -1      3591 9.10140E-05-2.45959E-05-2.84426E-05-1.06918E-05 1.46184E-19-5.08588E-20
 -1      3592 9.10467E-05-2.44071E-05-2.85801E-05-9.88920E-06 2.36839E-19-1.01092E-20
 -1      3593 8.95188E-05-2.34441E-05-2.83035E-05-9.02243E-06 7.89509E-20-1.31086E-19
 -1      3594 8.82313E-05-2.33788E-05-2.77831E-05-1.07903E-05 7.46691E-20-4.23348E-19
 -1      3595 9.44686E-05-2.64573E-05-2.91429E-05-4.69470E-06 3.58714E-19-1.24431E-19
 -1      3596 9.46123E-05-2.66202E-05-2.91454E-05-4.26803E-06 3.92708E-19-2.64753E-19
 -1      3597 5.83988E-05-1.71065E-05-1.73644E-05-1.73773E-05 4.55836E-19 2.30054E-18
 -1      3598 6.53728E-05-2.24190E-05-1.83480E-05-2.34895E-05 7.67359E-19 2.47672E-18
 -1      3599 9.75709E-05-4.36775E-05-2.33278E-05 2.69500E-05 5.81568E-19 2.05353E-19
 -1      3600 8.66830E-05-3.66784E-05-2.11250E-05 2.89111E-05 4.08257E-19-5.52848E-19
 -1      3601 8.37527E-05-3.26463E-05-2.17132E-05 2.53052E-05 2.33080E-19-1.02825E-18
 -1      3602 9.13429E-05-2.41274E-05-2.88256E-05 8.21620E-06-1.01137E-18 2.14808E-18
 -1      3603 9.12166E-05-2.41422E-05-2.87316E-05 9.00938E-06-1.36245E-18 1.80800E-18
 -1      3604 8.99705E-05-2.32714E-05-2.85703E-05 7.41873E-06-8.82480E-19 2.39565E-18
 -1      3605 1.23847E-04-4.77537E-05-3.26374E-05 3.15559E-06 5.88291E-19-6.23760E-20
 -1      3606 9.55215E-05-3.74923E-05-2.46540E-05-2.19059E-05-1.14457E-18-1.22555E-19
 -1      3607 1.18857E-04-4.91437E-05-2.98063E-05 5.43608E-06 4.10248E-20 8.84355E-19
 -1      3608 9.38799E-05-3.57461E-05-2.48884E-05 2.14292E-05-9.38089E-20 1.30747E-18
 -1      3609 9.44976E-05-2.74476E-05-2.87334E-05-1.42871E-08 5.89074E-19-1.25850E-18
 -1      3610 9.45989E-05-2.75758E-05-2.87254E-05 5.05340E-08 1.06234E-18-1.32711E-18
 -1      3611 9.46153E-05-2.75897E-05-2.87262E-05 1.48950E-07 1.02340E-18-8.05641E-19
 -1      3612 7.34836E-05-2.64793E-05-1.98583E-05-2.49276E-05 1.03265E-18 1.82798E-18
 -1      3613 8.18862E-05-3.13175E-05-2.17987E-05-2.49521E-05 1.23210E-18-3.48157E-19
 -1      3614 7.27545E-05-2.36681E-05-2.09172E-05-2.06024E-05 8.87717E-19 1.69512E-18
 -1      3615 9.40070E-05-2.12578E-05-3.11841E-05-3.65459E-06-2.65012E-19-9.77111E-19
 -1      3616 6.16676E-05-1.48137E-05-2.00280E-05 4.74724E-06 1.36379E-19-1.02646E-18
 -1      3617 5.72390E-05-1.32812E-05-1.85185E-05-1.15325E-07 2.17848E-19-8.60718E-19
 -1      3618 6.10292E-05-1.48887E-05-1.97488E-05-5.91309E-06 5.61887E-20-7.83585E-19
 -1      3619 1.13379E-04-4.64221E-05-2.87032E-05 8.60654E-06 5.91986E-19 1.95354E-19
 -1      3620 9.54765E-05-2.53709E-05-3.00431E-05-1.24809E-07 5.55017E-19-4.72461E-19
 -1      3621 9.55187E-05-2.55893E-05-2.99768E-05 9.62265E-08 5.38781E-19-1.96701E-19
 -1      3622 9.53740E-05-2.72192E-05-2.92124E-05-3.04446E-06 2.55462E-19 1.62282E-19
 -1      3623 9.47966E-05-2.77395E-05-2.87364E-05-5.52081E-07 1.20104E-18-3.83323E-19
 -1      3624 9.48368E-05-2.78140E-05-2.87247E-05-4.71147E-07 1.48735E-18 5.85755E-19
 -1      3625 9.47652E-05-2.77446E-05-2.87249E-05-4.13278E-07 1.14017E-18-3.14163E-20
 -1      3626 9.44641E-05-2.63650E-05-2.91819E-05-3.86421E-06 2.02168E-19-6.14085E-19
 -1      3627 9.49149E-05-2.68020E-05-2.91878E-05-3.88413E-06 3.91454E-19-3.62972E-19
 -1      3628 9.50314E-05-2.68860E-05-2.92077E-05-3.47188E-06 1.75155E-19-2.54598E-19
 -1      3629 9.19606E-05-2.46077E-05-2.88544E-05-6.48415E-06 5.75826E-19-4.98459E-19
 -1      3630 9.32529E-05-2.54304E-05-2.90596E-05-6.57766E-06 4.03506E-19-1.67093E-19
 -1      3631 9.34527E-05-2.56627E-05-2.90649E-05-6.04563E-06 4.41591E-19-1.80032E-20
 -1      3632 9.15665E-05-3.32079E-05-2.48992E-05-2.08344E-05-1.02036E-18 1.77407E-19
 -1      3633 8.45356E-05-2.87342E-05-2.38577E-05-2.09189E-05-8.24494E-19 3.25734E-19
 -1      3634 9.50837E-05-2.37309E-05-3.05711E-05 2.51227E-06 8.81370E-19 9.82869E-20
 -1      3635 9.47142E-05-2.28336E-05-3.08124E-05 2.72985E-06 8.87113E-19-1.96144E-19
 -1      3636 9.43744E-05-2.20951E-05-3.09818E-05 2.50932E-06 8.66394E-19-3.97266E-19
 -1      3637 9.52415E-05-2.44575E-05-3.03448E-05 1.59710E-06 6.61068E-19 4.14045E-20
 -1      3638 9.55534E-05-2.67065E-05-2.95011E-05-1.71372E-06 5.03352E-19 6.00264E-21
 -1      3639 9.55315E-05-2.62180E-05-2.97052E-05-1.30988E-06 5.25405E-19-3.06224E-19
 -1      3640 9.54933E-05-2.68703E-05-2.94111E-05-2.22260E-06 5.15690E-19 5.64936E-20
 -1      3641 9.54616E-05-2.51069E-05-3.01389E-05 8.05024E-07 5.41078E-19-1.51593E-19
 -1      3642 8.87463E-05-2.29446E-05-2.81866E-05 9.03239E-06-1.24160E-18 2.87215E-18
 -1      3643 6.73438E-05-2.04758E-05-1.98450E-05 1.76960E-05 1.18585E-19-1.11189E-18
 -1      3644 1.01504E-04-4.32385E-05-2.49584E-05 2.17782E-05 5.60749E-19-4.10520E-19
 -1      3645 9.34794E-05-2.01858E-05-3.13895E-05 2.40404E-06 9.64569E-19-6.47932E-19
 -1      3646 9.50943E-05-2.80438E-05-2.87373E-05 6.15290E-07 3.85233E-20 6.04768E-19
 -1      3647 9.50805E-05-2.79696E-05-2.87599E-05 7.37073E-07 6.45280E-19 7.39000E-19
 -1      3648 9.51407E-05-2.81279E-05-2.87191E-05 5.19634E-07-1.90036E-18 1.41079E-18
 -1      3649 5.95024E-05-1.57163E-05-1.85246E-05-1.13260E-05-3.47310E-19 1.68184E-18
 -1      3650 6.91057E-05-2.17895E-05-2.00536E-05-2.00493E-05-4.92854E-19-4.47286E-19
 -1      3651 7.61936E-05-2.43991E-05-2.21063E-05-1.95600E-05-1.07232E-18 3.41593E-20
 -1      3652 6.63209E-05-1.82920E-05-2.05881E-05-1.42603E-05-4.56471E-19-4.74934E-19
 -1      3653 1.20529E-04-5.17101E-05-2.93093E-05-9.12208E-06 9.43979E-19 2.91234E-19
 -1      3654 1.23170E-04-5.04877E-05-3.12324E-05-3.02764E-06 5.64551E-19 4.85681E-19
 -1      3655 9.26729E-05-1.88392E-05-3.16231E-05-4.82205E-07 3.74676E-19-1.09364E-18
 -1      3656 9.49733E-05-2.35153E-05-3.06311E-05-1.90725E-06-1.32241E-19-7.96150E-19
 -1      3657 9.51660E-05-2.41963E-05-3.04242E-05-1.17337E-06-1.38493E-19-6.83733E-19
 -1      3658 9.51499E-05-2.41076E-05-3.04519E-05-8.23454E-07-4.21881E-20-5.78364E-19
 -1      3659 9.38315E-05-2.10878E-05-3.11816E-05-1.64809E-06 1.46868E-19-8.69107E-19
 -1      3660 9.41111E-05-2.16330E-05-3.10764E-05-1.99077E-06-1.57677E-20-8.66074E-19
 -1      3661 9.34089E-05-2.03501E-05-3.13206E-05-9.23053E-07 3.04701E-19-9.68768E-19
 -1      3662 9.35963E-05-2.06883E-05-3.12631E-05-1.34271E-06 2.93675E-19-9.65943E-19
 -1      3663 9.43085E-05-2.20060E-05-3.09625E-05-1.05780E-06 2.41388E-19-7.31636E-19
 -1      3664 9.35577E-05-3.91649E-05-2.32245E-05-2.51530E-05 4.28162E-19-7.58419E-19
 -1      3665 9.99570E-05-4.39834E-05-2.37892E-05-2.56106E-05 7.00496E-19-4.67867E-19
 -1      3666 1.05732E-04-4.59626E-05-2.56813E-05-2.03973E-05 9.08125E-19-7.42353E-19
 -1      3667 9.36054E-05-2.06910E-05-3.12634E-05 1.39044E-06 7.25374E-19-8.56440E-19
 -1      3668 9.34161E-05-2.03558E-05-3.13208E-05 9.67644E-07 6.31742E-19-7.93050E-19
 -1      3669 9.25771E-05-3.09509E-05-2.63911E-05 1.76209E-05-3.64243E-19 8.01371E-19
 -1      3670 9.55291E-05-3.44738E-05-2.61141E-05 1.87826E-05 1.94282E-19 9.61558E-19
 -1      3671 9.47754E-05-2.77423E-05-2.87313E-05 4.39415E-07 1.98011E-19 2.48781E-18
 -1      3672 9.48534E-05-2.78091E-05-2.87319E-05 5.00656E-07-1.06511E-18 2.47075E-18
 -1      3673 7.18731E-05-2.28824E-05-2.06891E-05 2.04411E-05-1.60079E-18 4.33636E-18
 -1      3674 6.97337E-05-1.98509E-05-2.13647E-05 1.59161E-05-1.85562E-18 4.58520E-18
 -1      3675 7.85772E-05-2.66978E-05-2.22134E-05 2.12402E-05-6.05638E-19 4.79556E-18
 -1      3676 9.40881E-05-2.61937E-05-2.91067E-05-5.10803E-06 3.67608E-19 9.03999E-20
 -1      3677 9.37913E-05-2.59053E-05-2.90883E-05-4.65100E-06 4.38774E-19-4.39778E-19
 -1      3678 9.39151E-05-2.59790E-05-2.91096E-05-5.57757E-06 1.89109E-19 1.16463E-19
 -1      3679 9.49242E-05-2.77944E-05-2.87680E-05 7.89550E-07 1.30811E-18 2.03889E-18
 -1      3680 5.91201E-05-1.45139E-05-1.89422E-05 5.84487E-06-1.38095E-18 1.67713E-18
 -1      3681 9.47067E-05-2.76849E-05-2.87243E-05-3.40051E-07 4.31262E-19-7.10353E-19
 -1      3682 9.46570E-05-2.76377E-05-2.87243E-05-2.57193E-07 3.38108E-19 2.80999E-19
 -1      3683 9.45428E-05-2.74938E-05-2.87328E-05-2.35592E-07 2.15878E-19-7.58947E-19
 -1      3684 9.46408E-05-2.75897E-05-2.87339E-05-4.05457E-07 8.54899E-19 4.73496E-19
 -1      3685 9.39546E-05-2.13706E-05-3.10871E-05 5.80362E-07 5.53684E-19-7.18108E-19
 -1      3686 9.32917E-05-2.01478E-05-3.13597E-05 6.47366E-07 5.60328E-19-7.38715E-19
 -1      3687 9.32258E-05-2.00352E-05-3.13782E-05 1.91591E-07 4.58360E-19-9.67723E-19
 -1      3688 1.15360E-04-4.97684E-05-2.81387E-05-1.25159E-05 7.49426E-19 2.87473E-19
 -1      3689 8.71425E-05-2.75172E-05-2.55691E-05 1.75451E-05-8.49994E-19 1.66922E-18
 -1      3690 9.50381E-05-2.79998E-05-2.87299E-05 5.64001E-07-1.54586E-18 3.04219E-18
 -1      3691 9.53292E-05-2.46872E-05-3.02637E-05-5.56120E-08-3.25271E-20-3.91219E-19
 -1      3692 9.54208E-05-2.52813E-05-3.00671E-05 5.32201E-07-3.27229E-20-4.40439E-19
 -1      3693 1.10814E-04-4.66218E-05-2.73512E-05-1.43367E-05 6.39556E-19 1.08321E-19
 -1      3694 9.54759E-05-2.57471E-05-2.98824E-05 9.55254E-07-9.90857E-20-4.94210E-19
 -1      3695 9.54448E-05-2.60825E-05-2.97310E-05 1.43111E-06-1.97447E-19-3.88566E-19
 -1      3696 9.53227E-05-2.51583E-05-3.00658E-05 6.27565E-07-5.23437E-20-2.82335E-19
 -1      3697 9.53404E-05-2.63083E-05-2.95853E-05 1.79436E-06-1.96216E-19-3.70832E-19
 -1      3698 9.52132E-05-2.64510E-05-2.94710E-05 2.19827E-06-2.00209E-19-3.37305E-19
 -1      3699 9.52742E-05-2.58931E-05-2.97301E-05 1.41035E-06-1.43248E-19-2.09196E-19
 -1      3700 9.49872E-05-2.64998E-05-2.93538E-05 2.52880E-06-3.01457E-20-1.19653E-19
 -1      3701 9.47967E-05-2.65083E-05-2.92655E-05 2.89680E-06-2.53552E-21-9.42387E-20
 -1      3702 9.49440E-05-2.61939E-05-2.94605E-05 2.09993E-06 6.22862E-21 6.14885E-21
 -1      3703 9.44807E-05-2.64366E-05-2.91658E-05 3.22614E-06-3.54773E-20-1.00002E-19
 -1      3704 9.42538E-05-2.63644E-05-2.90923E-05 3.59134E-06 1.03755E-19 4.67643E-20
 -1      3705 9.44037E-05-2.61783E-05-2.92360E-05 2.75371E-06 2.09878E-20 2.36861E-19
 -1      3706 9.38757E-05-2.62260E-05-2.89986E-05 3.95040E-06 1.95719E-19 5.02270E-20
 -1      3707 9.36411E-05-2.61279E-05-2.89287E-05 4.34089E-06 1.17007E-19 1.04806E-19
 -1      3708 9.37112E-05-2.59576E-05-2.90339E-05 3.43297E-06 1.14668E-19 7.96038E-20
 -1      3709 9.32303E-05-2.59799E-05-2.88290E-05 4.75874E-06-3.12408E-20 2.30702E-19
 -1      3710 9.30246E-05-2.59174E-05-2.87519E-05 5.19726E-06-5.53951E-20 2.41908E-19
 -1      3711 9.29222E-05-2.56443E-05-2.88302E-05 4.19863E-06 6.58817E-20 2.52294E-19
 -1      3712 9.26176E-05-2.58243E-05-2.86341E-05 5.70332E-06-1.92014E-19 1.37808E-19
 -1      3713 9.24936E-05-2.58721E-05-2.85399E-05 6.20917E-06-4.57627E-19 9.39750E-21
 -1      3714 9.21000E-05-2.53611E-05-2.86002E-05 5.11086E-06-1.88959E-19 8.53624E-20
 -1      3715 9.21447E-05-2.59151E-05-2.83925E-05 6.83558E-06-5.25640E-19-1.21044E-19
 -1      3716 9.21828E-05-2.61695E-05-2.82737E-05 7.42308E-06-3.57967E-19-1.74085E-19
 -1      3717 9.13310E-05-2.52540E-05-2.83192E-05 6.23800E-06-5.58154E-19 2.94610E-19
 -1      3718 9.19757E-05-2.64529E-05-2.80877E-05 8.20384E-06-1.92559E-19 3.01437E-20
 -1      3719 9.22967E-05-2.70381E-05-2.79427E-05 8.87764E-06-1.81353E-20-2.86287E-20
 -1      3720 9.07469E-05-2.55098E-05-2.79647E-05 7.65787E-06-9.72034E-20 2.64193E-19
 -1      3721 9.23643E-05-2.76973E-05-2.77153E-05 9.84380E-06-2.63771E-20 4.65670E-20
 -1      3722 9.31443E-05-2.87710E-05-2.75542E-05 1.05832E-05 2.02825E-21 3.11250E-19
 -1      3723 9.05528E-05-2.63742E-05-2.75217E-05 9.45625E-06 8.42711E-21 1.82970E-19
 -1      3724 9.37093E-05-2.99849E-05-2.72973E-05 1.17349E-05-5.74857E-20 4.55387E-19
 -1      3725 9.51731E-05-3.17256E-05-2.71530E-05 1.24607E-05 1.44565E-19 4.76499E-19
 -1      3726 9.10821E-05-2.81854E-05-2.69936E-05 1.17106E-05 9.61391E-22 1.85971E-19
 -1      3727 9.65140E-05-3.35779E-05-2.69047E-05 1.36667E-05 6.05457E-19 4.00797E-19
 -1      3728 9.88158E-05-3.62991E-05-2.67796E-05 1.44457E-05 6.59137E-19 5.12957E-19
 -1      3729 9.28915E-05-3.13788E-05-2.64273E-05 1.43652E-05 2.83393E-19 7.11723E-19
 -1      3730 9.54301E-05-2.53036E-05-3.00614E-05-3.92413E-07 4.70659E-19-6.48464E-19
 -1      3731 9.53306E-05-2.47164E-05-3.02612E-05 2.72883E-07 6.02644E-19-6.05178E-19
 -1      3732 8.59127E-05-3.05373E-05-2.35955E-05 2.20803E-05-3.58930E-19 3.18755E-18
 -1      3733 9.52578E-05-2.69595E-05-2.92693E-05-3.08571E-06 1.99176E-19-1.09784E-19
 -1      3734 9.53486E-05-2.69372E-05-2.93181E-05-2.64956E-06 4.69299E-19 4.46064E-20
 -1      3735 9.49840E-05-2.66156E-05-2.92990E-05-3.09293E-06 3.01730E-19-3.64270E-19
 -1      3736 9.47070E-05-2.28874E-05-3.07596E-05-1.34158E-06 1.18267E-19-6.75324E-19
 -1      3737 9.43592E-05-2.21096E-05-3.09589E-05-2.09329E-06-5.94273E-20-8.55213E-19
 -1      3738 1.04751E-04-4.19422E-05-2.69119E-05-1.48071E-05 7.96304E-19 1.19402E-19
 -1      3739 1.01205E-04-3.85036E-05-2.67591E-05-1.49800E-05 5.64465E-19 5.93894E-19
 -1      3740 9.85041E-05-3.56332E-05-2.69007E-05-1.38028E-05 9.34524E-20 7.36766E-19
 -1      3741 9.61574E-05-3.31428E-05-2.69547E-05-1.32876E-05 1.12384E-19 6.30593E-19
 -1      3742 9.61686E-05-3.55975E-05-2.60115E-05-1.66644E-05 4.46499E-19 7.05850E-20
 -1      3743 9.47255E-05-3.11755E-05-2.71997E-05-1.20696E-05 1.04915E-19 9.46804E-19
 -1      3744 9.32590E-05-2.94182E-05-2.73468E-05-1.12958E-05 7.39499E-22 4.89527E-19
 -1      3745 9.24565E-05-3.08805E-05-2.64716E-05-1.40238E-05 3.81463E-19 9.08500E-19
 -1      3746 9.26918E-05-2.82081E-05-2.76011E-05-1.01013E-05-2.25412E-19 3.49855E-19
 -1      3747 9.19004E-05-2.71324E-05-2.77587E-05-9.32027E-06 4.19655E-19 2.20465E-19
 -1      3748 9.05968E-05-2.75753E-05-2.70411E-05-1.12486E-05-2.74154E-19 1.59652E-18
 -1      3749 9.17923E-05-2.64597E-05-2.79760E-05-8.32632E-06 9.78444E-19-5.36479E-19
 -1      3750 9.14428E-05-2.58641E-05-2.81121E-05-7.61150E-06 3.41947E-20-2.98172E-19
 -1      3751 9.00243E-05-2.57662E-05-2.75534E-05-8.95254E-06 4.38917E-20 9.95768E-20
 -1      3752 9.15893E-05-2.55605E-05-2.82818E-05-6.79829E-06-6.42707E-19-1.87816E-19
 -1      3753 9.15068E-05-2.52943E-05-2.83855E-05-6.16951E-06-8.13130E-19 5.88688E-19
 -1      3754 9.01148E-05-2.48660E-05-2.79678E-05-7.10402E-06 1.07289E-19 2.37286E-19
 -1      3755 9.17825E-05-2.52353E-05-2.85092E-05-5.50911E-06-1.54788E-18 3.71903E-19
 -1      3756 9.18506E-05-2.51840E-05-2.85805E-05-4.96656E-06-2.10235E-18 4.93818E-19
 -1      3757 9.05653E-05-2.45746E-05-2.82802E-05-5.62735E-06-1.11253E-18 5.02624E-19
 -1      3758 9.21766E-05-2.52752E-05-2.86646E-05-4.43098E-06-2.03459E-18-2.79426E-19
 -1      3759 9.23196E-05-2.53542E-05-2.87081E-05-3.96763E-06-1.33841E-18-3.26046E-19
 -1      3760 9.11809E-05-2.46680E-05-2.85014E-05-4.44754E-06-2.23635E-18-6.48086E-19
 -1      3761 9.26490E-05-2.55290E-05-2.87606E-05-3.53273E-06-7.17458E-19-4.30564E-19
 -1      3762 9.28197E-05-2.56791E-05-2.87824E-05-3.14051E-06 7.90657E-20-2.93772E-20
 -1      3763 9.18420E-05-2.49854E-05-2.86477E-05-3.50056E-06-1.17777E-18-1.44176E-18
 -1      3764 9.31263E-05-2.58917E-05-2.88111E-05-2.78759E-06 4.72219E-20-5.45476E-19
 -1      3765 9.32969E-05-2.60728E-05-2.88172E-05-2.45890E-06-8.03744E-20-1.28421E-18
 -1      3766 9.24790E-05-2.54161E-05-2.87360E-05-2.73741E-06 2.76827E-19-1.17581E-18
 -1      3767 9.35673E-05-2.62932E-05-2.88290E-05-2.17368E-06 1.10700E-19-1.13804E-18
 -1      3768 9.37229E-05-2.64793E-05-2.88245E-05-1.90142E-06 3.22836E-19-1.45015E-18
 -1      3769 9.30549E-05-2.58862E-05-2.87817E-05-2.12212E-06-2.85053E-19-1.03853E-18
 -1      3770 9.39517E-05-2.66889E-05-2.88248E-05-1.67209E-06 8.93027E-19-1.43553E-18
 -1      3771 9.40857E-05-2.68652E-05-2.88137E-05-1.44932E-06 1.28903E-18-1.49133E-18
 -1      3772 9.35519E-05-2.63474E-05-2.87976E-05-1.62770E-06 6.67258E-19-4.69557E-19
 -1      3773 9.42737E-05-2.70537E-05-2.88069E-05-1.26773E-06 1.23077E-18-1.28304E-18
 -1      3774 9.43834E-05-2.72101E-05-2.87926E-05-1.08827E-06 3.74778E-19-1.54754E-18
 -1      3775 9.39664E-05-2.67727E-05-2.87937E-05-1.23192E-06 1.12369E-18-2.73094E-19
 -1      3776 9.45334E-05-2.73729E-05-2.87817E-05-9.43632E-07-1.61627E-19-6.18509E-19
 -1      3777 9.46212E-05-2.75059E-05-2.87661E-05-8.03628E-07-2.37550E-19-8.67809E-19
 -1      3778 9.43004E-05-2.71457E-05-2.87779E-05-9.20224E-07 8.69248E-19 1.26204E-19
 -1      3779 9.46897E-05-2.75845E-05-2.87575E-05-7.18184E-07-5.34466E-19-9.04310E-19
 -1      3780 9.47371E-05-2.76683E-05-2.87448E-05-6.19796E-07 1.88744E-19-6.49310E-19
 -1      3781 9.46396E-05-2.75765E-05-2.87430E-05-5.47760E-07 8.07003E-19 1.61995E-18
 -1      3782 9.45119E-05-2.74041E-05-2.87593E-05-6.98541E-07-5.42384E-19 2.12940E-18
 -1      3783 8.92342E-05-2.30643E-05-2.83548E-05-7.06124E-06-1.31188E-19-3.23435E-20
 -1      3784 8.98642E-05-2.34107E-05-2.85001E-05-6.48719E-06 8.43429E-20-1.31368E-19
 -1      3785 8.21831E-05-2.43482E-05-2.47551E-05-1.62075E-05-7.37511E-19 1.54639E-19
 -1      3786 8.20681E-05-2.29124E-05-2.54215E-05-1.41714E-05-6.18576E-19-5.22563E-20
 -1      3787 8.37252E-05-2.25379E-05-2.61840E-05-1.24678E-05-6.53213E-19-2.79627E-19
 -1      3788 8.41381E-05-2.20402E-05-2.66653E-05-1.11717E-05-3.93030E-19-4.38053E-19
 -1      3789 7.93076E-05-2.06341E-05-2.50873E-05-1.19254E-05-8.80621E-19 4.99154E-19
 -1      3790 8.51776E-05-2.15920E-05-2.72935E-05 9.32640E-06-1.22411E-18 2.99523E-18
 -1      3791 8.46295E-05-2.17952E-05-2.69099E-05 1.03806E-05-1.14105E-18 2.46331E-18
 -1      3792 9.49672E-05-2.79278E-05-2.87329E-05 5.56950E-07-1.45759E-18 2.74243E-18
 -1      3793 9.13592E-05-2.41910E-05-2.88003E-05 4.18484E-06-7.47595E-20 3.11875E-18
 -1      3794 9.09164E-05-2.38227E-05-2.87540E-05 4.66757E-06-9.75428E-20 3.31239E-18
 -1      3795 9.01868E-05-2.33770E-05-2.86503E-05 5.12096E-06-3.50509E-19 2.90529E-18
 -1      3796 8.96542E-05-2.30175E-05-2.85573E-05 5.68257E-06-6.37598E-19 3.16135E-18
 -1      3797 8.96363E-05-2.30080E-05-2.85367E-05 4.28966E-06-3.47917E-19 2.50089E-18
 -1      3798 9.30467E-05-2.56448E-05-2.88955E-05 2.69651E-06-6.88880E-19-2.09711E-20
 -1      3799 9.27681E-05-2.53353E-05-2.88989E-05 3.05112E-06-4.09629E-19 3.00136E-19
 -1      3800 9.36259E-05-2.62391E-05-2.88873E-05 2.11678E-06-1.27008E-18-5.25960E-19
 -1      3801 9.34120E-05-2.59722E-05-2.89016E-05 2.41524E-06-1.07647E-18-3.65755E-19
 -1      3802 9.27967E-05-2.54807E-05-2.88414E-05 2.29185E-06-9.58556E-19 7.13251E-19
 -1      3803 9.40701E-05-2.67395E-05-2.88617E-05 1.63429E-06-4.42569E-19-6.72021E-19
 -1      3804 9.39086E-05-2.65156E-05-2.88814E-05 1.88129E-06-8.13828E-19-8.50268E-19
 -1      3805 9.34365E-05-2.61127E-05-2.88468E-05 1.80500E-06-2.76271E-19-1.56710E-18
 -1      3806 9.44067E-05-2.71541E-05-2.88274E-05 1.24063E-06-8.05144E-19 8.63182E-19
 -1      3807 9.42867E-05-2.69701E-05-2.88490E-05 1.43914E-06-4.40409E-19 5.62122E-19
 -1      3808 9.39291E-05-2.66424E-05-2.88319E-05 1.39590E-06-1.66089E-18 5.01029E-19
 -1      3809 9.46532E-05-2.74849E-05-2.87901E-05 9.14864E-07 7.71551E-19 2.16417E-18
 -1      3810 9.45670E-05-2.73347E-05-2.88118E-05 1.08193E-06-2.28783E-19 1.55468E-18
 -1      3811 9.43012E-05-2.70782E-05-2.88062E-05 1.05995E-06-9.29578E-19 1.93160E-18
 -1      3812 6.39076E-05-1.55139E-05-2.07979E-05 7.71929E-06-1.29259E-18 1.73795E-18
 -1      3813 5.95874E-05-1.33384E-05-1.96295E-05-1.75237E-07-1.39876E-18 1.35969E-18
 -1      3814 7.36194E-05-2.36153E-05-2.14125E-05 1.98065E-05 2.20361E-19-1.46952E-18
 -1      3815 6.73976E-05-1.85175E-05-2.09337E-05 1.34105E-05-9.81036E-20-6.62208E-19
 -1      3816 8.70750E-05-2.19170E-05-2.79561E-05 7.57259E-06-1.50698E-18 3.38238E-18
 -1      3817 8.64328E-05-2.17742E-05-2.77010E-05 8.39427E-06-9.73279E-19 3.46905E-18
 -1      3818 8.37608E-05-2.04593E-05-2.70800E-05 7.76657E-06-1.55501E-18 2.35013E-18
 -1      3819 9.32250E-05-2.00350E-05-3.13781E-05-1.42459E-07 4.62063E-19-1.10574E-18
 -1      3820 9.32909E-05-2.01469E-05-3.13598E-05-5.98898E-07 3.61247E-19-1.07766E-18
 -1      3821 9.39571E-05-2.13635E-05-3.10865E-05-5.44919E-07 2.80439E-19-9.15297E-19
 -1      3822 9.38423E-05-2.11660E-05-3.11259E-05 2.30190E-08 4.76305E-19-1.01920E-18
 -1      3823 9.46527E-05-2.76248E-05-2.87281E-05 2.64033E-07 6.00589E-20 5.66168E-19
 -1      3824 9.47041E-05-2.76692E-05-2.87291E-05 3.49526E-07-1.22734E-19 1.96314E-18
 -1      3825 9.46663E-05-2.75941E-05-2.87419E-05 4.51969E-07-5.26619E-20 2.26862E-18
 -1      3826 9.45393E-05-2.74797E-05-2.87366E-05 2.33064E-07 2.42262E-19 3.22843E-19
 -1      3827 6.10988E-05-1.46007E-05-1.98735E-05-6.94143E-06-5.87402E-19 9.81460E-19
 -1      3828 6.65342E-05-1.81915E-05-2.07163E-05-1.44154E-05 5.12197E-19 8.27234E-19
 -1      3829 6.60617E-05-1.54739E-05-2.15628E-05-4.04122E-06-1.28802E-19 3.97589E-19
 -1      3830 9.38331E-05-2.10946E-05-3.11807E-05 1.66776E-06 8.79483E-19-7.74292E-19
 -1      3831 9.42790E-05-2.19827E-05-3.09650E-05 1.07853E-06 7.20814E-19-6.40091E-19
 -1      3832 9.41222E-05-2.16323E-05-3.10782E-05 2.01674E-06 8.76325E-19-6.46354E-19
 -1      3833 7.98547E-05-2.45594E-05-2.37385E-05-1.77445E-05-8.35631E-19 7.69940E-20
 -1      3834 8.30955E-05-2.18118E-05-2.63132E-05 1.17087E-05-1.02884E-18 3.10983E-18
 -1      3835 8.28447E-05-2.26097E-05-2.57697E-05 1.32970E-05-1.15460E-18 3.44639E-18
 -1      3836 8.09565E-05-2.01757E-05-2.60345E-05 9.92341E-06-8.20654E-19 3.18588E-18
 -1      3837 9.48540E-05-2.77814E-05-2.87460E-05 6.07247E-07 4.20884E-19 3.36743E-18
 -1      3838 9.44402E-05-2.21793E-05-3.09551E-05-2.64789E-06-1.79206E-19-9.34568E-19
 -1      3839 1.00870E-04-3.97757E-05-2.62892E-05 1.67954E-05 5.27817E-19-1.17658E-20
 -1      3840 9.37617E-05-3.57299E-05-2.47044E-05 2.02720E-05 3.84202E-19-7.75763E-20
 -1      3841 9.47924E-05-2.76727E-05-2.87650E-05 7.29233E-07 1.23863E-18 2.87010E-18
 -1      3842 9.51524E-05-2.40951E-05-3.04553E-05 1.31504E-06 7.21125E-19-2.56400E-19
 -1      3843 8.87603E-05-2.25805E-05-2.83854E-05 6.22616E-06-9.77143E-19 3.08256E-18
 -1      3844 8.81532E-05-2.22871E-05-2.82246E-05 6.89226E-06-1.40600E-18 3.22614E-18
 -1      3845 8.60782E-05-2.11791E-05-2.77837E-05 6.28393E-06-1.22731E-18 3.38963E-18
 -1      3846 9.23020E-05-2.49578E-05-2.88730E-05 3.38234E-06 1.50353E-19 7.23912E-19
 -1      3847 9.19463E-05-2.46113E-05-2.88573E-05 3.79788E-06 7.86141E-19 2.52249E-18
 -1      3848 9.19760E-05-2.47454E-05-2.88022E-05 2.86290E-06 6.99981E-19 1.74940E-18
 -1      3849 8.11574E-05-2.62310E-05-2.36078E-05 1.93140E-05-1.08793E-18 4.33794E-18
 -1      3850 9.46045E-05-2.74832E-05-2.87675E-05 7.21691E-07 7.46113E-19 2.28148E-18
 -1      3851 7.14903E-05-2.08216E-05-2.15482E-05-1.65358E-05 7.43536E-19 1.19757E-18
 -1      3852 7.74436E-05-2.44291E-05-2.27421E-05-1.80195E-05 1.25405E-18 5.34557E-19
 -1      3853 7.20474E-05-1.94154E-05-2.25606E-05-1.27761E-05 8.86311E-19 2.65790E-19
 -1      3854 6.59212E-05-1.63942E-05-2.10454E-05 9.36907E-06 1.15594E-19-1.08772E-18
 -1      3855 6.58240E-05-1.57006E-05-2.15097E-05 4.10214E-06 3.40004E-19-9.43436E-19
 -1      3856 7.15344E-05-1.91150E-05-2.23926E-05 1.16735E-05 1.47265E-19-7.15385E-19
 -1      3857 1.04559E-04-4.38600E-05-2.60408E-05-1.86138E-05 4.59012E-19 6.16746E-21
 -1      3858 9.54793E-05-2.57605E-05-2.98773E-05-8.76433E-07 3.68741E-19-5.57492E-19
 -1      3859 9.53401E-05-2.51476E-05-3.00788E-05-5.16091E-07 3.96253E-19-7.37692E-19
 -1      3860 9.54403E-05-2.60794E-05-2.97311E-05-1.40795E-06 3.55052E-19-4.79331E-19
 -1      3861 9.49387E-05-2.36410E-05-3.05685E-05-8.01315E-07 7.32878E-20-5.83986E-19
 -1      3862 8.81610E-05-2.26304E-05-2.81116E-05-7.63682E-06 2.78094E-19-2.73540E-20
 -1      3863 8.74120E-05-2.20692E-05-2.79785E-05-6.41041E-06 1.34647E-19 4.43807E-20
 -1      3864 8.74860E-05-2.23965E-05-2.78869E-05-8.34488E-06 2.36334E-19-2.31563E-19
 -1      3865 9.40298E-05-2.59901E-05-2.91596E-05-3.66924E-06 1.37385E-19-5.65487E-19
 -1      3866 9.43336E-05-2.61745E-05-2.92160E-05-3.29503E-06 2.46466E-19-5.87085E-19
 -1      3867 9.07678E-05-2.38782E-05-2.86650E-05-6.02519E-06 4.66194E-19-4.57905E-19
 -1      3868 9.13207E-05-2.42540E-05-2.87582E-05-5.53835E-06 4.82841E-19-4.49430E-19
 -1      3869 8.93673E-05-2.30363E-05-2.84075E-05-5.48240E-06 1.30624E-19-1.26388E-19
 -1      3870 7.52081E-05-2.06981E-05-2.32129E-05-1.48886E-05-9.36355E-19 2.26290E-19
 -1      3871 9.49619E-05-2.36570E-05-3.05661E-05 9.55036E-07 7.87756E-19-6.15010E-19
 -1      3872 9.47062E-05-2.28412E-05-3.07863E-05 1.74766E-06 7.98492E-19-4.80186E-19
 -1      3873 9.29594E-05-2.52965E-05-2.89900E-05-5.50872E-06 4.20671E-19-1.90612E-19
 -1      3874 9.09364E-05-2.39138E-05-2.87097E-05 3.52474E-06 5.53865E-19 1.83433E-18
 -1      3875 9.53476E-05-2.65937E-05-2.94653E-05-2.26872E-06 5.08689E-19-2.80580E-19
 -1      3876 9.49113E-05-2.36361E-05-3.05546E-05-5.15830E-07 1.21702E-19-6.18288E-19
 -1      3877 8.80317E-05-2.20715E-05-2.82451E-05 5.18667E-06-8.59396E-19 3.14494E-18
 -1      3878 9.47092E-05-2.30978E-05-3.07003E-05 7.60872E-07 7.27324E-19-5.03778E-19
 -1      3879 9.45084E-05-2.26875E-05-3.07859E-05 5.88682E-07 5.97742E-19-5.62336E-19
 -1      3880 6.91485E-05-1.73894E-05-2.19487E-05 1.15512E-05-1.28181E-18 2.68974E-18
 -1      3881 6.81013E-05-1.60190E-05-2.23687E-05 6.65592E-06-7.29693E-19 1.64201E-18
 -1      3882 6.51629E-05-1.63335E-05-2.07061E-05-1.03921E-05-3.14451E-19-8.09036E-19
 -1      3883 7.05100E-05-1.86431E-05-2.21960E-05-1.24396E-05-6.40450E-19-1.52817E-19
 -1      3884 7.30344E-05-1.89192E-05-2.32692E-05-1.15456E-05-6.98822E-19 2.80064E-19
 -1      3885 6.53685E-05-1.55146E-05-2.14187E-05-4.95278E-06-1.20911E-19-2.31293E-19
 -1      3886 8.13568E-05-2.33310E-05-2.49053E-05 1.52758E-05-7.94713E-19 4.22951E-18
 -1      3887 8.17335E-05-2.51705E-05-2.41575E-05 1.75719E-05-5.22335E-19 4.50642E-18
 -1      3888 9.43621E-05-2.73025E-05-2.87400E-05-8.15439E-08 4.69672E-19-2.58306E-18
 -1      3889 9.43605E-05-2.73031E-05-2.87409E-05 4.31721E-08 4.03277E-19-9.21687E-19
 -1      3890 9.43650E-05-2.24204E-05-3.08448E-05 4.90642E-07 5.73146E-19-7.09231E-19
 -1      3891 9.42592E-05-2.22200E-05-3.08839E-05 2.66772E-07 5.01959E-19-7.35322E-19
 -1      3892 9.47882E-05-2.33648E-05-3.05943E-05 2.43604E-07 5.71200E-19-5.28540E-19
 -1      3893 9.44723E-05-2.73692E-05-2.87596E-05 5.85514E-07 6.73158E-20 1.20189E-18
 -1      3894 9.43133E-05-2.71545E-05-2.87816E-05 7.67262E-07-2.36383E-20 9.40633E-19
 -1      3895 9.43869E-05-2.72941E-05-2.87558E-05 4.80242E-07-1.91381E-19 3.45091E-19
 -1      3896 9.47224E-05-2.32406E-05-3.06406E-05-3.66408E-07 2.58525E-19-6.62468E-19
 -1      3897 8.55897E-05-2.20989E-05-2.71913E-05-1.00467E-05 1.04782E-19-4.29607E-19
 -1      3898 8.62234E-05-2.20795E-05-2.75278E-05-9.11837E-06 2.69679E-19-2.38818E-19
 -1      3899 8.50957E-05-2.12021E-05-2.73502E-05-7.61157E-06 3.88371E-19 1.05940E-19
 -1      3900 7.34041E-05-1.99643E-05-2.28742E-05 1.39100E-05-1.00967E-18 4.91377E-18
 -1      3901 8.04175E-05-2.82065E-05-2.22496E-05 2.19355E-05 3.58596E-19-1.23478E-18
 -1      3902 7.99248E-05-2.57298E-05-2.30770E-05 1.80653E-05 1.42278E-19-1.06624E-18
 -1      3903 7.78740E-05-2.06351E-05-2.45213E-05 1.30165E-05-7.42625E-19 5.27714E-18
 -1      3904 9.31544E-05-2.54237E-05-2.90266E-05-4.37768E-06 4.02301E-19-4.67035E-19
 -1      3905 9.35375E-05-2.57056E-05-2.90790E-05-3.98865E-06 2.83150E-19-7.53376E-19
 -1      3906 9.34486E-05-2.55161E-05-2.91058E-05-3.40648E-06 2.30132E-19-7.40303E-19
 -1      3907 8.85879E-05-3.39011E-05-2.34236E-05 2.25767E-05 2.59609E-19-5.59068E-19
 -1      3908 9.44292E-05-2.73702E-05-2.87403E-05-3.10173E-07 7.35456E-19 6.48626E-19
 -1      3909 9.43861E-05-2.73328E-05-2.87397E-05-2.14288E-07 7.03234E-19-1.77367E-18
 -1      3910 9.42324E-05-2.71605E-05-2.87462E-05-1.52301E-07 3.12982E-19-2.05950E-18
 -1      3911 8.23765E-05-2.06168E-05-2.64286E-05-9.34018E-06-2.60243E-19 3.10391E-20
 -1      3912 9.51937E-05-2.46986E-05-3.02214E-05 3.00960E-07 1.11548E-19-6.27079E-19
 -1      3913 9.52519E-05-2.51926E-05-3.00302E-05 7.23720E-07 5.90940E-20-4.74159E-19
 -1      3914 9.52215E-05-2.55707E-05-2.98527E-05 9.97699E-07 1.51643E-21-5.42364E-19
 -1      3915 9.51181E-05-2.58244E-05-2.97009E-05 1.35350E-06-3.18490E-20-3.50729E-19
 -1      3916 9.51274E-05-2.51223E-05-2.99955E-05 6.86643E-07 2.60681E-20-8.00544E-19
 -1      3917 1.10110E-04-4.58456E-05-2.74964E-05 1.37054E-05 9.97883E-19-6.24151E-19
 -1      3918 9.49147E-05-2.59640E-05-2.95535E-05 1.60608E-06-1.96343E-20-1.91148E-19
 -1      3919 9.46888E-05-2.60245E-05-2.94291E-05 1.92889E-06 4.07291E-20-1.97319E-19
 -1      3920 9.48908E-05-2.56517E-05-2.96669E-05 1.19430E-06 4.71717E-20-4.58825E-19
 -1      3921 9.43460E-05-2.59879E-05-2.93014E-05 2.18135E-06 8.34944E-20-1.28042E-19
 -1      3922 9.40294E-05-2.59101E-05-2.91936E-05 2.49961E-06 9.96174E-20-4.18068E-20
 -1      3923 9.43456E-05-2.57600E-05-2.93873E-05 1.68150E-06 6.55168E-20-4.63843E-19
 -1      3924 9.35732E-05-2.57502E-05-2.90741E-05 2.77959E-06 1.82989E-19-1.27882E-21
 -1      3925 9.31938E-05-2.55887E-05-2.89711E-05 3.12342E-06 2.23598E-19 9.39438E-20
 -1      3926 9.35492E-05-2.55538E-05-2.91349E-05 2.19098E-06 2.06016E-19-1.27871E-19
 -1      3927 9.26472E-05-2.53597E-05-2.88467E-05 3.45936E-06-4.86721E-20 7.27477E-20
 -1      3928 9.22339E-05-2.51720E-05-2.87358E-05 3.85866E-06-1.09614E-20-5.08842E-20
 -1      3929 9.25521E-05-2.51375E-05-2.88849E-05 2.77898E-06 3.56374E-20 1.67321E-19
 -1      3930 9.16179E-05-2.49302E-05-2.85925E-05 4.28235E-06 5.15861E-20 3.44368E-20
 -1      3931 9.12061E-05-2.47778E-05-2.84611E-05 4.76855E-06-2.58286E-19 8.38871E-20
 -1      3932 9.13936E-05-2.46181E-05-2.86094E-05 3.50850E-06-1.36748E-19-1.78265E-19
 -1      3933 9.05434E-05-2.45853E-05-2.82831E-05 5.32526E-06-4.22951E-19 3.27476E-19
 -1      3934 9.01876E-05-2.45478E-05-2.81182E-05 5.93736E-06-3.18815E-19 5.34604E-19
 -1      3935 9.01145E-05-2.41131E-05-2.82781E-05 4.44661E-06-6.17499E-20 3.61083E-19
 -1      3936 8.95151E-05-2.44849E-05-2.78889E-05 6.68077E-06-3.15241E-19 3.51309E-19
 -1      3937 8.92974E-05-2.46635E-05-2.76793E-05 7.46430E-06-8.56037E-20 4.37994E-19
 -1      3938 8.87749E-05-2.37563E-05-2.78569E-05 5.70626E-06-2.64617E-19 4.63253E-19
 -1      3939 8.86711E-05-2.48321E-05-2.73815E-05 8.47060E-06 6.06272E-21-9.11677E-21
 -1      3940 8.87237E-05-2.53654E-05-2.71209E-05 9.47918E-06-9.57335E-20 1.54246E-20
 -1      3941 8.74563E-05-2.37216E-05-2.73089E-05 7.42071E-06-2.74741E-19-1.13714E-19
 -1      3942 8.82416E-05-2.58964E-05-2.67391E-05 1.08434E-05-1.08559E-19-2.19251E-19
 -1      3943 8.87813E-05-2.69916E-05-2.64322E-05 1.21379E-05-3.87183E-20-8.36933E-20
 -1      3944 8.63064E-05-2.42488E-05-2.65959E-05 9.77738E-06-5.94199E-20-1.68697E-19
 -1      3945 8.86483E-05-2.81014E-05-2.59593E-05 1.39478E-05 3.72172E-19-4.80331E-20
 -1      3946 9.00759E-05-3.01292E-05-2.56419E-05 1.55266E-05 6.33839E-19 1.99063E-19
 -1      3947 8.55960E-05-2.57195E-05-2.56881E-05 1.30569E-05 2.00313E-19-3.44096E-19
 -1      3948 1.01976E-04-3.92777E-05-2.68896E-05 1.44880E-05 5.32744E-19-6.72630E-20
 -1      3949 9.47069E-05-2.63332E-05-2.93038E-05-2.97696E-06 4.11385E-19-5.10851E-19
 -1      3950 9.49334E-05-2.63896E-05-2.93780E-05-2.58862E-06 4.95676E-19-3.13056E-19
 -1      3951 9.43028E-05-2.59575E-05-2.92848E-05-2.79174E-06 4.50525E-19-3.24484E-19
 -1      3952 8.92645E-05-2.93948E-05-2.56737E-05-1.52455E-05 6.44195E-19 8.65738E-19
 -1      3953 8.81284E-05-2.73705E-05-2.60223E-05-1.35304E-05 4.64522E-19 1.14213E-18
 -1      3954 8.83125E-05-2.64016E-05-2.64883E-05-1.17038E-05 1.63387E-19 1.56484E-18
 -1      3955 8.77765E-05-2.53193E-05-2.67888E-05-1.04111E-05-2.96841E-19 1.41053E-18
 -1      3956 8.51945E-05-2.50933E-05-2.57577E-05-1.25998E-05 5.99719E-19 1.16227E-18
 -1      3957 8.81837E-05-2.47477E-05-2.71567E-05-9.04371E-06-6.24004E-19 1.45639E-18
 -1      3958 8.80930E-05-2.42013E-05-2.74049E-05-8.01605E-06-7.38635E-20 8.18032E-19
 -1      3959 8.58016E-05-2.36452E-05-2.66403E-05-9.40229E-06-2.94491E-19 1.97178E-18
 -1      3960 8.86448E-05-2.40061E-05-2.76833E-05-7.00290E-06 1.03571E-19 1.52516E-19
 -1      3961 8.88004E-05-2.38044E-05-2.78746E-05-6.19536E-06-6.96121E-19 1.95151E-19
 -1      3962 8.68154E-05-2.30545E-05-2.73173E-05-7.02901E-06-6.05566E-19 2.35468E-19
 -1      3963 8.93866E-05-2.38424E-05-2.80784E-05-5.43372E-06-1.12178E-18-4.92598E-20
 -1      3964 8.96693E-05-2.38656E-05-2.82174E-05-4.79845E-06-1.61518E-18-6.05932E-19
 -1      3965 8.79696E-05-2.30325E-05-2.78190E-05-5.30076E-06-9.18797E-19-2.48090E-19
 -1      3966 9.02373E-05-2.40456E-05-2.83607E-05-4.22490E-06-2.38034E-18-3.51567E-19
 -1      3967 9.05678E-05-2.42011E-05-2.84559E-05-3.72120E-06-2.30003E-18-2.79588E-19
 -1      3968 8.91311E-05-2.33543E-05-2.81788E-05-4.01592E-06-1.36073E-18-5.03467E-19
 -1      3969 9.10886E-05-2.44573E-05-2.85521E-05-3.28335E-06-1.93243E-18-1.24482E-18
 -1      3970 9.14210E-05-2.46829E-05-2.86127E-05-2.88071E-06-1.41080E-18-1.43512E-18
 -1      3971 9.02194E-05-2.38666E-05-2.84266E-05-3.05508E-06-2.18977E-18-5.57758E-19
 -1      3972 9.18816E-05-2.49712E-05-2.86735E-05-2.54302E-06 1.09590E-20-1.45818E-18
 -1      3973 9.21903E-05-2.52249E-05-2.87082E-05-2.21973E-06 6.92802E-19-9.97942E-19
 -1      3974 9.11974E-05-2.44679E-05-2.85893E-05-2.32486E-06-9.30034E-19-6.51204E-19
 -1      3975 9.25856E-05-2.55152E-05-2.87430E-05-1.95789E-06 3.93997E-19-7.01298E-19
 -1      3976 9.28575E-05-2.57694E-05-2.87592E-05-1.69824E-06-2.64725E-19-6.91005E-19
 -1      3977 9.20488E-05-2.50899E-05-2.86888E-05-1.76462E-06 5.26827E-19-8.50987E-19
 -1      3978 9.31885E-05-2.60428E-05-2.87758E-05-1.49509E-06 2.06089E-19-5.05363E-19
 -1      3979 9.34176E-05-2.62795E-05-2.87793E-05-1.28741E-06 1.14496E-18-1.33221E-19
 -1      3980 9.27701E-05-2.56878E-05-2.87430E-05-1.33219E-06 4.02469E-19 2.15906E-20
 -1      3981 9.36896E-05-2.65268E-05-2.87835E-05-1.13048E-06 1.52266E-18 2.46712E-19
 -1      3982 9.38744E-05-2.67381E-05-2.87789E-05-9.69116E-07 1.04628E-18 4.91320E-19
 -1      3983 9.33713E-05-2.62348E-05-2.87658E-05-9.96035E-07 1.00210E-18 7.97634E-19
 -1      3984 9.40912E-05-2.69471E-05-2.87756E-05-8.40462E-07 9.50385E-19 1.12312E-18
 -1      3985 9.42444E-05-2.71292E-05-2.87663E-05-7.10836E-07 8.20357E-19 1.45957E-18
 -1      3986 9.38368E-05-2.66979E-05-2.87677E-05-7.36638E-07 1.24382E-18 1.76124E-18
 -1      3987 9.49096E-05-2.35871E-05-3.05656E-05 6.35449E-07 6.79570E-19-6.23622E-19
 -1      3988 9.20729E-05-2.46979E-05-2.88738E-05-5.15020E-06 4.24325E-19-5.60434E-19
 -1      3989 9.25383E-05-2.50440E-05-2.89376E-05-4.72322E-06 4.48637E-19-4.64657E-19
 -1      3990 9.23526E-05-2.48378E-05-2.89239E-05-4.03598E-06 3.55157E-19-6.62566E-19
 -1      3991 9.10032E-05-2.39899E-05-2.87049E-05-4.70999E-06 3.16762E-19-3.46223E-19
 -1      3992 9.51845E-05-2.63898E-05-2.94862E-05-2.24424E-06 4.64097E-19-2.67849E-19
 -1      3993 9.53289E-05-2.62833E-05-2.95903E-05-1.80630E-06 4.30754E-19-3.84296E-19
 -1      3994 9.52797E-05-2.58600E-05-2.97476E-05-1.40170E-06 3.39094E-19-5.76224E-19
 -1      3995 9.49188E-05-2.60964E-05-2.94904E-05-2.14037E-06 5.51394E-19-4.09121E-19
 -1      3996 8.55497E-05-2.84181E-05-2.45243E-05 1.74820E-05 4.09513E-19-8.71134E-19
 -1      3997 7.98420E-05-2.42134E-05-2.38344E-05 1.55139E-05 2.79772E-19-9.97557E-19
 -1      3998 9.50868E-05-2.41481E-05-3.04002E-05 1.27877E-07 4.62825E-19-5.08809E-19
 -1      3999 9.32986E-05-2.60774E-05-2.88153E-05 1.42286E-06-5.10191E-19 1.11314E-18
 -1      4000 9.30148E-05-2.57791E-05-2.88167E-05 1.62908E-06 1.59809E-19 1.16541E-18
 -1      4001 9.26174E-05-2.54310E-05-2.88020E-05 1.80053E-06 3.81152E-20 8.36472E-19
 -1      4002 9.22509E-05-2.50805E-05-2.87896E-05 2.04146E-06 5.59377E-20 2.47917E-18
 -1      4003 9.25452E-05-2.53889E-05-2.87725E-05 1.39293E-06 4.04812E-19 3.42762E-18
 -1      4004 9.41436E-05-2.69584E-05-2.87948E-05 8.99657E-07-1.37683E-18 5.69706E-20
 -1      4005 7.18154E-05-1.68222E-05-2.36399E-05 6.43428E-06 2.32504E-19 1.58921E-18
 -1      4006 6.86675E-05-1.53198E-05-2.27309E-05 2.23110E-06-3.04869E-19-6.60568E-19
 -1      4007 8.26632E-05-1.97456E-05-2.70081E-05 5.57245E-06-9.48898E-19 1.41887E-18
 -1      4008 8.13508E-05-1.93788E-05-2.65876E-05 6.38641E-06-1.00729E-18 1.93619E-18
 -1      4009 8.75264E-05-2.18326E-05-2.81746E-05 3.91907E-06-6.16945E-19 1.85983E-18
 -1      4010 8.66209E-05-2.13420E-05-2.79842E-05 4.33542E-06-9.41809E-19 1.90686E-18
 -1      4011 8.67668E-05-3.21475E-05-2.33995E-05-2.19308E-05 9.64771E-19-1.15263E-19
 -1      4012 9.04854E-05-3.59021E-05-2.31520E-05-2.42504E-05 5.05560E-19-9.12086E-19
 -1      4013 7.95721E-05-1.93905E-05-2.57908E-05-7.56957E-06-6.25443E-19 1.06442E-18
 -1      4014 8.11080E-05-1.97053E-05-2.63638E-05-6.70875E-06-9.15395E-20 8.26717E-19
 -1      4015 9.06415E-05-2.38123E-05-2.86532E-05 2.73231E-06 4.88449E-19 2.53292E-18
 -1      4016 9.00516E-05-2.33649E-05-2.85851E-05 3.04639E-06 1.01909E-19 2.04349E-18
 -1      4017 6.87381E-05-1.57558E-05-2.27445E-05-2.53258E-06 4.52534E-20 3.64198E-19
 -1      4018 7.09770E-05-1.70711E-05-2.29757E-05-8.13580E-06 6.88742E-19 5.27202E-19
 -1      4019 7.28153E-05-1.67367E-05-2.39970E-05-1.85520E-06 1.19569E-19-1.23051E-20
 -1      4020 9.44053E-05-2.25107E-05-3.08280E-05-4.41202E-07 2.97120E-19-7.96882E-19
 -1      4021 9.49953E-05-2.39240E-05-3.04454E-05 1.85742E-08 2.07562E-19-7.27388E-19
 -1      4022 9.49275E-05-2.39806E-05-3.03996E-05 1.28816E-07 2.49061E-19-9.11912E-19
 -1      4023 9.42897E-05-2.22871E-05-3.08682E-05-1.97831E-07 3.76187E-19-9.22061E-19
 -1      4024 9.43270E-05-2.72570E-05-2.87454E-05 1.93994E-07-1.68895E-19 1.17413E-18
 -1      4025 9.43686E-05-2.72974E-05-2.87479E-05 3.19360E-07-3.43711E-19 1.43760E-18
 -1      4026 9.41652E-05-2.70409E-05-2.87643E-05 4.47173E-07-1.21216E-18 6.24366E-19
 -1      4027 9.41822E-05-2.70899E-05-2.87516E-05 1.23309E-07-1.03626E-19 2.85190E-19
 -1      4028 9.72745E-05-3.94802E-05-2.47789E-05-2.13473E-05 4.07645E-19-1.54512E-19
 -1      4029 9.38242E-05-2.66180E-05-2.88073E-05 1.10016E-06-1.79426E-18 1.16177E-18
 -1      4030 9.36078E-05-2.63709E-05-2.88168E-05 1.27598E-06-1.61376E-18 9.41697E-19
 -1      4031 9.32415E-05-2.60456E-05-2.87917E-05 1.10833E-06-1.01301E-18 3.53303E-18
 -1      4032 9.45585E-05-2.74953E-05-2.87420E-05-4.76035E-07 7.19688E-19 1.05815E-18
 -1      4033 9.44970E-05-2.74384E-05-2.87410E-05-3.97766E-07 2.11661E-19 1.18112E-18
 -1      4034 9.43462E-05-2.72647E-05-2.87479E-05-3.82505E-07 2.97076E-19 4.57122E-19
 -1      4035 9.44929E-05-2.74099E-05-2.87498E-05-5.43799E-07 2.01222E-19 1.78771E-18
 -1      4036 8.92551E-05-2.28556E-05-2.84723E-05 3.28903E-06-9.66928E-20 2.23475E-18
 -1      4037 8.85208E-05-2.23761E-05-2.83543E-05 3.64619E-06-2.35837E-19 2.70039E-18
 -1      4038 8.73538E-05-2.16709E-05-2.81234E-05 2.85165E-06-5.89262E-19 1.64366E-18
 -1      4039 8.91173E-05-2.27477E-05-2.84244E-05 2.44559E-06 3.57483E-19 3.07856E-18
 -1      4040 9.17457E-05-2.46750E-05-2.87542E-05 2.23691E-06-2.17659E-19 3.29780E-18
 -1      4041 9.12778E-05-2.42732E-05-2.87199E-05 2.51360E-06 5.39143E-19 2.94147E-18
 -1      4042 9.16549E-05-2.46189E-05-2.87182E-05 1.71375E-06 3.31771E-19 3.18530E-18
 -1      4043 7.57251E-05-1.90221E-05-2.42691E-05-1.00050E-05-7.78428E-19 8.16897E-19
 -1      4044 7.73304E-05-1.90115E-05-2.50961E-05-8.60533E-06-4.90344E-19 1.21010E-18
 -1      4045 7.65078E-05-1.78262E-05-2.50526E-05-5.66988E-06-5.58851E-19 1.85408E-18
 -1      4046 7.20041E-05-1.71410E-05-2.33504E-05-7.61171E-06-5.26859E-19 4.18711E-19
 -1      4047 8.53834E-05-2.07975E-05-2.77089E-05 4.65921E-06-1.53368E-18 1.75062E-18
 -1      4048 8.42659E-05-2.03368E-05-2.74159E-05 5.16619E-06-1.20568E-18 1.63804E-18
 -1      4049 8.51644E-05-2.05345E-05-2.76578E-05 3.31183E-06-1.38701E-18 1.24187E-18
 -1      4050 8.24849E-05-2.65739E-05-2.38208E-05-1.78254E-05 1.30268E-18 6.78167E-19
 -1      4051 8.88071E-05-3.08818E-05-2.48827E-05-1.77501E-05 7.31009E-19 7.68312E-19
 -1      4052 9.52538E-05-2.48111E-05-3.01910E-05-2.76392E-07 4.51656E-19-5.14623E-19
 -1      4053 9.50813E-05-2.43447E-05-3.03173E-05-1.24684E-07 4.35762E-19-3.53934E-19
 -1      4054 9.52808E-05-2.52809E-05-3.00046E-05-7.55648E-07 3.95592E-19-5.21380E-19
 -1      4055 8.81455E-05-2.23898E-05-2.81871E-05-4.60099E-06-2.57328E-20 4.15043E-19
 -1      4056 8.90545E-05-2.28960E-05-2.83711E-05-4.24490E-06 1.81104E-19 1.05189E-19
 -1      4057 9.39329E-05-2.56903E-05-2.92500E-05-2.49295E-06 3.66035E-19-2.54810E-19
 -1      4058 9.43062E-05-2.58371E-05-2.93480E-05-2.19484E-06 5.91957E-19-1.94457E-19
 -1      4059 9.02428E-05-3.18049E-05-2.50725E-05 1.80062E-05 3.49388E-19-1.63181E-19
 -1      4060 9.49564E-05-2.40933E-05-3.03781E-05-1.14403E-07 3.99954E-19-4.72464E-19
 -1      4061 9.29238E-05-2.51598E-05-2.90460E-05-2.99171E-06 1.69254E-19-3.98985E-19
 -1      4062 9.34187E-05-2.54446E-05-2.91381E-05-2.70551E-06 2.41138E-19-3.34968E-19
 -1      4063 9.34755E-05-2.53327E-05-2.91953E-05-2.09883E-06 3.76639E-19-3.77070E-20
 -1      4064 9.44220E-05-2.73208E-05-2.87578E-05-6.24615E-07 2.36688E-19 8.68273E-19
 -1      4065 9.05293E-05-2.37359E-05-2.86107E-05 2.06642E-06 4.43751E-21 2.90852E-18
 -1      4066 6.65582E-05-1.50415E-05-2.18977E-05-2.14115E-07 9.24267E-20-2.58444E-19
 -1      4067 6.90430E-05-1.62011E-05-2.26695E-05-4.35289E-06-3.03962E-19 1.95122E-19
 -1      4068 6.96435E-05-1.65189E-05-2.27678E-05 3.72700E-06 1.05188E-19-7.32892E-19
 -1      4069 8.69116E-05-2.18018E-05-2.79285E-05-4.87095E-06-3.33561E-20 1.40658E-19
 -1      4070 8.68325E-05-2.16513E-05-2.79058E-05-3.55529E-06 2.10499E-19 3.28953E-19
 -1      4071 8.58249E-05-2.12975E-05-2.76617E-05-5.30614E-06 3.66101E-19 1.81852E-20
 -1      4072 8.23690E-05-1.93500E-05-2.69601E-05 3.87559E-06-1.00858E-18 9.38873E-19
 -1      4073 7.68331E-05-1.76030E-05-2.53692E-05 3.45687E-06 4.02579E-19 4.08445E-19
 -1      4074 7.72068E-05-1.81097E-05-2.53376E-05 6.09191E-06 6.32446E-20 1.88533E-18
 -1      4075 8.22198E-05-2.40383E-05-2.48637E-05 1.31027E-05 2.85948E-19-9.23121E-19
 -1      4076 7.64868E-05-2.14886E-05-2.35264E-05 1.33828E-05-3.58136E-20-1.11774E-18
 -1      4077 7.41705E-05-1.93691E-05-2.35405E-05 9.77382E-06 1.12579E-19-8.51162E-19
 -1      4078 8.23382E-05-2.31567E-05-2.54014E-05 1.12042E-05-7.47821E-20-4.07133E-19
 -1      4079 9.65903E-05-3.78598E-05-2.52408E-05-1.96442E-05 4.02235E-19 1.12033E-19
 -1      4080 9.97641E-05-4.03436E-05-2.53097E-05-1.98086E-05 4.37476E-19 2.26121E-19
 -1      4081 9.42207E-05-2.21576E-05-3.08948E-05 1.43683E-07 4.99416E-19-1.00093E-18
 -1      4082 9.42207E-05-2.21597E-05-3.08945E-05-9.31242E-08 4.66762E-19-1.02386E-18
 -1      4083 9.46544E-05-2.30948E-05-3.06499E-05-1.48696E-08 3.37780E-19-8.23344E-19
 -1      4084 9.46430E-05-2.30470E-05-3.06635E-05 1.22318E-07 5.27296E-19-8.11156E-19
 -1      4085 7.45940E-05-1.94627E-05-2.36096E-05-1.02953E-05 5.46545E-19 6.40304E-19
 -1      4086 9.40200E-05-2.69223E-05-2.87523E-05-8.52163E-09-3.51125E-19-1.18782E-18
 -1      4087 9.39739E-05-2.68840E-05-2.87569E-05 1.49026E-07-8.35468E-19 6.86185E-19
 -1      4088 9.38763E-05-2.67051E-05-2.87841E-05 7.89708E-07-1.24626E-18 3.89398E-19
 -1      4089 7.53530E-05-1.79283E-05-2.46081E-05 7.11938E-06 1.40270E-19 2.62436E-18
 -1      4090 8.30085E-05-2.02645E-05-2.69014E-05-6.23968E-06 2.72277E-19 5.34590E-19
 -1      4091 8.43092E-05-2.07141E-05-2.72907E-05-5.65620E-06 4.62990E-19 5.10156E-19
 -1      4092 8.41245E-05-2.04199E-05-2.72625E-05-4.00745E-06 1.48235E-19 4.77182E-19
 -1      4093 7.55022E-05-2.16090E-05-2.29516E-05 1.63873E-05-1.07115E-18 6.45671E-18
 -1      4094 9.42425E-05-2.71369E-05-2.87573E-05-5.44102E-07 4.22031E-19 1.66823E-18
 -1      4095 9.41072E-05-2.70207E-05-2.87539E-05-3.15630E-07-2.15193E-19-7.74522E-19
 -1      4096 9.39067E-05-2.68110E-05-2.87586E-05-3.16537E-07 2.11605E-20-4.44059E-19
 -1      4097 8.08305E-05-1.92043E-05-2.63382E-05-4.63040E-06 3.46920E-21 1.32028E-18
 -1      4098 9.39992E-05-3.43997E-05-2.54452E-05-1.78675E-05 6.48887E-19 3.02831E-20
 -1      4099 9.36923E-05-2.65829E-05-2.87617E-05-4.02824E-07 1.33921E-18-5.23747E-19
 -1      4100 9.49030E-05-2.54663E-05-2.97630E-05 7.56085E-07 9.08846E-20-5.07256E-19
 -1      4101 9.46986E-05-2.56125E-05-2.96115E-05 9.87608E-07 8.62960E-20-4.87517E-19
 -1      4102 9.43863E-05-2.56478E-05-2.94646E-05 1.12617E-06 1.49707E-19-4.71232E-19
 -1      4103 9.40425E-05-2.56065E-05-2.93320E-05 1.35426E-06 2.08423E-19-4.64820E-19
 -1      4104 9.44478E-05-2.54615E-05-2.95544E-05 6.80623E-07 1.61797E-19-6.28380E-19
 -1      4105 9.35685E-05-2.54617E-05-2.91970E-05 1.51953E-06 2.36814E-19-3.58164E-19
 -1      4106 9.31185E-05-2.52813E-05-2.90720E-05 1.77621E-06 2.32290E-19-3.69881E-19
 -1      4107 9.36556E-05-2.53307E-05-2.92705E-05 9.55832E-07 2.77575E-19-3.20875E-19
 -1      4108 9.25114E-05-2.50234E-05-2.89351E-05 1.98697E-06 1.72998E-19-2.60882E-19
 -1      4109 9.19705E-05-2.47549E-05-2.88040E-05 2.29083E-06 1.79414E-20-2.79559E-19
 -1      4110 9.25960E-05-2.49130E-05-2.89956E-05 1.29050E-06 2.15628E-19-3.89971E-19
 -1      4111 9.12531E-05-2.44309E-05-2.86504E-05 2.56338E-06-1.30073E-19-9.18979E-20
 -1      4112 9.06273E-05-2.41273E-05-2.84984E-05 2.93452E-06-2.02117E-19-2.92981E-19
 -1      4113 9.13188E-05-2.43018E-05-2.87029E-05 1.74294E-06 1.41378E-20-4.63283E-19
 -1      4114 8.97738E-05-2.37584E-05-2.83116E-05 3.34043E-06-1.55968E-19-3.07152E-19
 -1      4115 8.91161E-05-2.34793E-05-2.81224E-05 3.84110E-06-7.92592E-20-4.81327E-20
 -1      4116 8.97161E-05-2.34962E-05-2.83541E-05 2.37923E-06-2.27637E-19-3.68396E-19
 -1      4117 8.81365E-05-2.31498E-05-2.78794E-05 4.39294E-06-1.90897E-19-1.12505E-19
 -1      4118 8.74694E-05-2.29612E-05-2.76339E-05 5.06968E-06-4.76313E-19-2.67803E-19
 -1      4119 8.79389E-05-2.27154E-05-2.79157E-05 3.25389E-06-8.07531E-20-5.22436E-19
 -1      4120 8.63461E-05-2.27107E-05-2.73100E-05 5.85263E-06-6.19656E-19-1.90357E-19
 -1      4121 8.57258E-05-2.27014E-05-2.69878E-05 6.79211E-06-3.82415E-19-3.11562E-19
 -1      4122 8.58858E-05-2.19946E-05-2.73363E-05 4.49003E-06-4.26738E-19-3.30656E-19
 -1      4123 8.44336E-05-2.26056E-05-2.65493E-05 7.92892E-06 2.81341E-20-4.54628E-19
 -1      4124 8.39880E-05-2.29106E-05-2.61341E-05 9.24245E-06 8.06311E-20-3.01345E-19
 -1      4125 8.35174E-05-2.14608E-05-2.65564E-05 6.24538E-06-3.21049E-19-5.21908E-19
 -1      4126 8.20219E-05-2.33971E-05-2.50799E-05-1.23412E-05 5.85396E-19 2.85126E-19
 -1      4127 8.21683E-05-2.25588E-05-2.56006E-05-1.04947E-05 7.18473E-19 5.03297E-19
 -1      4128 9.43481E-05-2.56459E-05-2.94363E-05-1.68365E-06 4.05300E-19-3.45247E-19
 -1      4129 9.46728E-05-2.59194E-05-2.94701E-05-1.96351E-06 5.84115E-19-4.51043E-19
 -1      4130 9.49248E-05-2.58928E-05-2.95870E-05-1.62979E-06 4.49998E-19-5.46834E-19
 -1      4131 8.34917E-05-2.23308E-05-2.61822E-05-8.96758E-06 5.69999E-19 8.55784E-19
 -1      4132 8.39133E-05-2.19686E-05-2.65899E-05-7.61363E-06-2.94059E-19 7.70553E-19
 -1      4133 8.05182E-05-2.08798E-05-2.55830E-05-8.63038E-06 7.93527E-19-5.94630E-19
 -1      4134 8.51142E-05-2.20713E-05-2.70050E-05-6.49569E-06-9.10291E-19 6.46489E-19
 -1      4135 8.56522E-05-2.20406E-05-2.73062E-05-5.58618E-06-7.59419E-19 2.55214E-20
 -1      4136 8.30033E-05-2.08472E-05-2.65884E-05-5.99047E-06-3.21611E-19 1.89987E-19
 -1      4137 8.66753E-05-2.22376E-05-2.76054E-05-4.75707E-06-5.49361E-19 4.40410E-19
 -1      4138 8.72628E-05-2.24068E-05-2.78239E-05-4.08820E-06-5.54408E-19 6.79888E-19
 -1      4139 8.51068E-05-2.12260E-05-2.73177E-05-4.20731E-06-8.05005E-19 1.16497E-18
 -1      4140 8.81359E-05-2.27176E-05-2.80328E-05-3.52179E-06-1.38114E-18-7.47846E-20
 -1      4141 8.87056E-05-2.29884E-05-2.81859E-05-3.02891E-06-1.90026E-18 1.59079E-19
 -1      4142 8.69965E-05-2.19307E-05-2.78365E-05-2.99152E-06-1.64901E-18 3.45178E-19
 -1      4143 8.94471E-05-2.33437E-05-2.83288E-05-2.62006E-06-2.23049E-18-1.16990E-20
 -1      4144 8.99689E-05-2.36657E-05-2.84317E-05-2.24970E-06-2.55524E-18-7.51818E-19
 -1      4145 8.85815E-05-2.27033E-05-2.81958E-05-2.13936E-06-2.67516E-18-6.93971E-19
 -1      4146 9.05956E-05-2.40364E-05-2.85256E-05-1.95401E-06-1.35948E-18-2.95692E-20
 -1      4147 9.10574E-05-2.43733E-05-2.85910E-05-1.67190E-06-1.67003E-19 1.82831E-19
 -1      4148 8.99320E-05-2.35099E-05-2.84375E-05-1.53095E-06-1.55332E-18 2.40445E-19
 -1      4149 9.15803E-05-2.47345E-05-2.86493E-05-1.45748E-06-2.23897E-19-5.03240E-19
 -1      4150 9.19770E-05-2.50614E-05-2.86874E-05-1.24056E-06 3.95565E-19-8.55554E-19
 -1      4151 9.10693E-05-2.43003E-05-2.85928E-05-1.09670E-06-8.86190E-19 6.24547E-19
 -1      4152 9.24066E-05-2.53959E-05-2.87202E-05-1.08451E-06 1.17800E-18-1.44252E-18
 -1      4153 9.27393E-05-2.56977E-05-2.87391E-05-9.16198E-07 5.56004E-19-6.12790E-19
 -1      4154 9.20131E-05-2.50389E-05-2.86859E-05-7.86019E-07 5.14139E-19-1.14851E-18
 -1      4155 9.30841E-05-2.59939E-05-2.87542E-05-8.02106E-07 4.75369E-19-7.12799E-19
 -1      4156 9.33459E-05-2.62572E-05-2.87598E-05-6.61951E-07 1.41917E-18-5.10795E-19
 -1      4157 9.27802E-05-2.57030E-05-2.87352E-05-5.64790E-07 5.39612E-19-1.48020E-18
 -1      4158 7.61433E-05-1.73384E-05-2.52333E-05 6.17507E-07 1.25815E-19 1.13248E-19
 -1      4159 7.68776E-05-1.79140E-05-2.52583E-05-3.49135E-06 4.20427E-20 4.75247E-19
 -1      4160 8.03466E-05-1.86855E-05-2.64253E-05 1.58951E-06-5.34068E-19 8.84365E-19
 -1      4161 9.16621E-05-2.47078E-05-2.87032E-05 1.15077E-06 5.85755E-19 3.70329E-18
 -1      4162 9.11574E-05-2.42931E-05-2.86629E-05 1.28431E-06 5.61656E-19 3.55408E-18
 -1      4163 9.38991E-05-2.67755E-05-2.87635E-05 3.62544E-07-9.92882E-19 2.58441E-18
 -1      4164 9.39005E-05-2.67752E-05-2.87718E-05 5.33833E-07-1.21356E-18 7.11961E-19
 -1      4165 9.35703E-05-2.64184E-05-2.87809E-05 6.94029E-07-6.56065E-19 2.13970E-18
 -1      4166 9.36986E-05-2.65980E-05-2.87621E-05 2.31106E-07-9.04837E-19 1.26475E-18
 -1      4167 9.25463E-05-2.54638E-05-2.87568E-05 9.49401E-07-1.56040E-19 3.75517E-18
 -1      4168 9.21504E-05-2.51049E-05-2.87384E-05 1.07482E-06-1.95153E-19 3.47749E-18
 -1      4169 9.17518E-05-2.47591E-05-2.86894E-05 6.93477E-07 1.27150E-19 4.75058E-18
 -1      4170 8.06791E-05-2.40955E-05-2.43163E-05-1.49116E-05 7.88988E-19 6.94921E-19
 -1      4171 9.32430E-05-2.61093E-05-2.87772E-05 7.63639E-07 2.59833E-19 2.57648E-18
 -1      4172 9.29335E-05-2.58038E-05-2.87729E-05 8.77573E-07 8.42476E-19 4.08516E-18
 -1      4173 9.26139E-05-2.55082E-05-2.87432E-05 5.94010E-07 3.09184E-19 4.10448E-18
 -1      4174 7.63280E-05-1.91703E-05-2.44970E-05-8.16919E-06 4.27540E-19 4.35957E-19
 -1      4175 7.76810E-05-2.12260E-05-2.41278E-05-1.23966E-05 6.44222E-19-2.60908E-19
 -1      4176 7.88436E-05-1.85909E-05-2.58863E-05-2.54185E-06-2.84792E-19 1.25610E-18
 -1      4177 8.09087E-05-1.92533E-05-2.64665E-05-2.26723E-06-6.28575E-21 1.10971E-18
 -1      4178 8.17799E-05-1.91907E-05-2.68318E-05 1.46035E-06-1.39678E-18 1.16270E-18
 -1      4179 9.05479E-05-2.38409E-05-2.85992E-05 1.35705E-06-1.12609E-19 2.77036E-18
 -1      4180 8.99107E-05-2.33724E-05-2.85262E-05 1.49268E-06-2.12718E-19 3.03957E-18
 -1      4181 9.06710E-05-2.39008E-05-2.85872E-05 7.76254E-07-1.69113E-19 3.56220E-18
 -1      4182 8.52334E-05-2.06584E-05-2.76964E-05 1.85219E-06-1.34920E-18 4.45948E-19
 -1      4183 8.39481E-05-2.00605E-05-2.74130E-05 2.00690E-06-1.70392E-18 7.51238E-19
 -1      4184 9.51079E-05-2.47341E-05-3.01506E-05-3.45560E-07 3.85026E-19-6.07064E-19
 -1      4185 9.48631E-05-2.39181E-05-3.04095E-05-2.64530E-08 5.30853E-19-7.51564E-19
 -1      4186 9.52457E-05-2.54824E-05-2.98975E-05-9.32375E-07 3.11380E-19-4.53499E-19
 -1      4187 9.51559E-05-2.51387E-05-3.00028E-05-7.10242E-07 4.09895E-19-3.76857E-19
 -1      4188 9.50594E-05-2.49892E-05-3.00368E-05-5.24174E-07 4.28992E-19-6.15519E-19
 -1      4189 9.51371E-05-2.57389E-05-2.97474E-05-1.32212E-06 3.15359E-19-4.54543E-19
 -1      4190 9.50620E-05-2.48113E-05-3.01152E-05 3.72712E-07 1.47603E-19-8.19698E-19
 -1      4191 9.50386E-05-2.52031E-05-2.99329E-05 6.22909E-07 7.64714E-20-6.80327E-19
 -1      4192 9.48938E-05-2.51691E-05-2.98728E-05 4.33081E-07 2.89371E-19-4.41873E-19
 -1      4193 9.34792E-05-2.63670E-05-2.87548E-05-2.11762E-07 1.07999E-18-7.39573E-19
 -1      4194 8.90535E-05-2.28205E-05-2.83603E-05-3.17439E-06 1.91103E-19 2.68964E-19
 -1      4195 9.00669E-05-2.34475E-05-2.85557E-05-4.01813E-06 2.26696E-19 8.60054E-20
 -1      4196 9.08128E-05-2.39134E-05-2.86871E-05-3.71161E-06 2.64846E-19-4.01472E-21
 -1      4197 9.33277E-05-2.62348E-05-2.87571E-05 1.00191E-08 9.38683E-19 1.34783E-18
 -1      4198 7.42744E-05-1.95595E-05-2.34702E-05 1.25411E-05-4.73158E-19 4.82492E-18
 -1      4199 8.74164E-05-2.18055E-05-2.81355E-05 1.72377E-06-5.95642E-19 1.24799E-18
 -1      4200 8.64131E-05-2.12512E-05-2.79458E-05 1.84920E-06-1.33310E-18 4.96615E-19
 -1      4201 8.55742E-05-2.07456E-05-2.77209E-05 6.60802E-07-1.60086E-18-9.73436E-19
 -1      4202 9.22643E-05-2.47788E-05-2.89299E-05-3.18770E-06 1.99967E-19-3.01695E-19
 -1      4203 9.23272E-05-2.47227E-05-2.89596E-05-2.47473E-06 1.34656E-19-5.64629E-20
 -1      4204 9.16386E-05-2.43837E-05-2.88275E-05-3.48176E-06 3.10391E-19-2.75772E-19
 -1      4205 8.06552E-05-2.13856E-05-2.53676E-05 9.18994E-06-1.25802E-20-5.76596E-19
 -1      4206 9.33050E-05-2.61598E-05-2.87651E-05 4.97060E-07 4.94823E-19 3.74478E-18
 -1      4207 9.30793E-05-2.51128E-05-2.91345E-05-1.61313E-06 5.49399E-19-3.10259E-19
 -1      4208 9.36000E-05-2.53502E-05-2.92539E-05-1.43026E-06 3.59838E-19-2.50801E-19
 -1      4209 9.41630E-05-2.70626E-05-2.87554E-05-4.48934E-07 2.73466E-19 6.50587E-19
 -1      4210 8.23374E-05-1.94028E-05-2.69112E-05-1.69661E-07-9.41695E-19-1.22880E-19
 -1      4211 7.60806E-05-1.89584E-05-2.44160E-05 1.06820E-05-5.81130E-19 4.48969E-18
 -1      4212 7.74664E-05-1.97698E-05-2.47049E-05 7.80090E-06 1.60443E-19-8.24987E-19
 -1      4213 7.33110E-05-1.77661E-05-2.37303E-05 6.40356E-06 2.32315E-19-7.59483E-19
 -1      4214 7.91490E-05-1.98649E-05-2.54833E-05 6.03110E-06-1.65841E-20-7.37213E-19
 -1      4215 8.27801E-05-1.99510E-05-2.69561E-05-2.33940E-06-1.22574E-19 8.59552E-19
 -1      4216 8.43255E-05-2.05784E-05-2.73438E-05-2.19968E-06-3.23308E-20 3.89097E-19
 -1      4217 8.15635E-05-1.94084E-05-2.65805E-05-2.05887E-07-4.14899E-19 6.81659E-19
 -1      4218 7.68550E-05-1.81009E-05-2.52147E-05-3.07429E-07 4.18785E-20 6.77724E-19
 -1      4219 7.79112E-05-1.83813E-05-2.54522E-05 2.28621E-06 2.29361E-20-1.74530E-19
 -1      4220 9.48117E-05-2.38458E-05-3.04227E-05-4.17883E-08 5.14825E-19-7.68293E-19
 -1      4221 7.16993E-05-1.66743E-05-2.36916E-05-3.27725E-06-4.13392E-19 4.35739E-19
 -1      4222 7.45926E-05-1.75102E-05-2.44904E-05-5.89559E-07-2.21850E-20 4.54648E-19
 -1      4223 9.40695E-05-2.55148E-05-2.93868E-05-1.34611E-06 6.16142E-20-1.08886E-19
 -1      4224 9.44349E-05-2.55749E-05-2.95151E-05-1.13338E-06 2.31052E-19-4.55660E-19
 -1      4225 9.37535E-05-2.53244E-05-2.93276E-05-8.68802E-07 3.23378E-19-3.65269E-19
 -1      4226 8.57745E-05-2.12276E-05-2.76851E-05-2.25601E-06 1.13537E-19 1.20707E-19
 -1      4227 8.70264E-05-2.18324E-05-2.79566E-05-2.14117E-06 6.42854E-20 2.40074E-20
 -1      4228 8.48432E-05-2.07615E-05-2.74135E-05-6.52286E-07 1.33466E-21 1.93131E-19
 -1      4229 8.74160E-05-2.19930E-05-2.80040E-05-9.22918E-07 1.25939E-19 2.18194E-20
 -1      4230 8.81888E-05-2.24229E-05-2.82016E-05-2.15606E-06 1.41701E-19 1.08481E-19
 -1      4231 8.91792E-05-2.29698E-05-2.83956E-05-2.01066E-06 1.74090E-19 1.17950E-19
 -1      4232 8.91545E-05-2.28693E-05-2.84209E-05 1.55349E-06-3.95038E-19 2.35728E-18
 -1      4233 8.83544E-05-2.23527E-05-2.83001E-05 1.68482E-06-3.04991E-19 1.93720E-18
 -1      4234 8.76564E-05-2.18811E-05-2.81398E-05 7.96403E-07-1.41994E-18 7.38702E-19
 -1      4235 8.93256E-05-2.29379E-05-2.84143E-05 8.20171E-07-5.45368E-19 2.93338E-18
 -1      4236 9.48022E-05-2.37068E-05-3.04823E-05 2.10023E-08 3.02472E-19-8.97378E-19
 -1      4237 9.50240E-05-2.43850E-05-3.02659E-05 2.39379E-07 2.35114E-19-8.32847E-19
 -1      4238 9.49482E-05-2.44721E-05-3.01968E-05 1.79807E-07 2.45537E-19-6.23380E-19
 -1      4239 9.47664E-05-2.36027E-05-3.05057E-05 6.53960E-08 3.46367E-19-8.79308E-19
 -1      4240 9.45454E-05-2.54212E-05-2.96309E-05 2.05130E-07 1.66623E-19-4.86999E-19
 -1      4241 9.42242E-05-2.54491E-05-2.94815E-05 3.34322E-07 1.72918E-19-4.29983E-19
 -1      4242 8.06832E-05-1.95037E-05-2.62071E-05-4.08164E-06 4.42409E-19-2.33278E-19
 -1      4243 7.78543E-05-1.91720E-05-2.51774E-05-6.56142E-06 6.11201E-19 1.94719E-19
 -1      4244 9.36549E-05-2.53037E-05-2.92993E-05-2.60112E-08 4.42820E-19-3.95056E-19
 -1      4245 9.31636E-05-2.51254E-05-2.91627E-05 8.87619E-08 3.03435E-19-3.14681E-19
 -1      4246 9.13944E-05-2.42995E-05-2.87743E-05 7.99670E-07 2.75131E-20-3.74322E-19
 -1      4247 9.06519E-05-2.39143E-05-2.86154E-05 1.06098E-06-7.51760E-20-4.68547E-19
 -1      4248 8.94404E-05-2.32405E-05-2.83833E-05 5.76876E-07-9.48909E-20-2.55427E-19
 -1      4249 8.85208E-05-2.27877E-05-2.81840E-05 8.75916E-07-4.32351E-20-2.75159E-19
 -1      4250 8.73448E-05-2.22384E-05-2.79357E-05 1.05107E-06 7.88899E-20-2.35303E-19
 -1      4251 8.63134E-05-2.17743E-05-2.76766E-05 1.48629E-06 1.49328E-19-7.67835E-20
 -1      4252 8.48787E-05-2.12000E-05-2.73358E-05 1.77761E-06-1.45145E-19-2.31478E-20
 -1      4253 8.37098E-05-2.07729E-05-2.69881E-05 2.40670E-06-3.31536E-19 1.54894E-19
 -1      4254 9.29883E-05-2.59228E-05-2.87502E-05 2.46348E-08 1.06997E-18 1.56726E-18
 -1      4255 9.26304E-05-2.56086E-05-2.87339E-05-4.51806E-08 7.66904E-19 1.85129E-18
 -1      4256 9.22312E-05-2.52577E-05-2.87141E-05-2.22607E-08 5.12066E-19 1.87629E-18
 -1      4257 9.49255E-05-2.55528E-05-2.97240E-05-1.17010E-06 4.02215E-19-6.31930E-19
 -1      4258 8.17380E-05-1.97427E-05-2.66279E-05-3.16917E-06-1.77910E-19 4.39198E-19
 -1      4259 8.38556E-05-2.04328E-05-2.72018E-05-2.16548E-06-1.07490E-18-4.07913E-19
 -1      4260 8.48923E-05-2.08400E-05-2.75031E-05-1.57445E-06-1.31746E-18-2.77945E-20
 -1      4261 8.60671E-05-2.13690E-05-2.77615E-05-1.37848E-06-1.56464E-18-3.42792E-19
 -1      4262 8.69797E-05-2.17857E-05-2.79784E-05-9.48508E-07-2.25413E-18-1.97286E-19
 -1      4263 8.79346E-05-2.23118E-05-2.81525E-05-8.37696E-07-2.08542E-18 9.98646E-19
 -1      4264 8.87086E-05-2.27411E-05-2.83002E-05-5.33078E-07-1.92625E-18 1.23413E-18
 -1      4265 8.94807E-05-2.32353E-05-2.84133E-05-4.83060E-07-1.32109E-18 2.03650E-18
 -1      4266 9.01298E-05-2.36552E-05-2.85101E-05-2.70917E-07-8.92271E-19 2.70537E-18
 -1      4267 9.07529E-05-2.41071E-05-2.85801E-05-2.59430E-07-1.00525E-18 3.12934E-18
 -1      4268 9.12910E-05-2.45000E-05-2.86401E-05-1.12120E-07-2.68099E-19 2.49251E-18
 -1      4269 9.17909E-05-2.49029E-05-2.86801E-05-1.23842E-07 2.02060E-19 2.69827E-18
 -1      4270 7.30887E-05-1.70337E-05-2.39934E-05 2.50990E-06 2.66008E-19-3.93288E-19
 -1      4271 9.24485E-05-2.47943E-05-2.90016E-05-1.69096E-06 1.73540E-19-1.68924E-19
 -1      4272 9.26472E-05-2.48137E-05-2.90589E-05-9.97786E-07 2.68604E-19-2.08136E-19
 -1      4273 9.17670E-05-2.44210E-05-2.88748E-05-1.84836E-06-1.04907E-19-2.96982E-20
 -1      4274 9.25390E-05-2.48386E-05-2.90251E-05 8.63625E-08 7.12947E-21-2.17747E-20
 -1      4275 8.05987E-05-1.98110E-05-2.60345E-05 3.73456E-06-3.63848E-19-3.13767E-19
 -1      4276 9.49452E-05-2.43151E-05-3.02661E-05-4.22547E-08 4.41133E-19-6.28701E-19
 -1      4277 9.08160E-05-2.38264E-05-2.86928E-05-2.82209E-06 1.95049E-21 2.64381E-19
 -1      4278 8.19089E-05-2.01719E-05-2.65084E-05 2.89135E-06-4.42757E-19 1.21339E-19
 -1      4279 9.49272E-05-2.50282E-05-2.99636E-05 1.05081E-07 2.77514E-19-2.67788E-19
 -1      4280 9.47905E-05-2.52900E-05-2.97904E-05 2.11343E-07 2.74712E-19-2.25458E-19
 -1      4281 9.46379E-05-2.52919E-05-2.97139E-05-1.38737E-07 6.00998E-20-1.59667E-19
 -1      4282 9.19248E-05-2.45247E-05-2.88847E-05 2.24875E-07-1.20525E-19-4.49616E-20
 -1      4283 9.14485E-05-2.41986E-05-2.88078E-05-4.98033E-07-2.77320E-19-2.14310E-19
 -1      4284 9.38510E-05-2.53001E-05-2.93723E-05-5.19244E-07 3.42449E-19-3.08772E-19
 -1      4285 8.97758E-05-2.32819E-05-2.84744E-05-4.20330E-07-1.22220E-20-2.05620E-19
 -1      4286 9.47618E-05-2.55305E-05-2.96757E-05-9.88624E-07 3.35353E-19-5.91674E-19
 -1      4287 9.49687E-05-2.53416E-05-2.98422E-05-7.09834E-07 3.46038E-19-5.02056E-19
 -1      4288 9.49411E-05-2.49783E-05-2.99805E-05-3.85430E-07 3.81765E-19-7.09473E-19
 -1      4289 9.45413E-05-2.53997E-05-2.96242E-05-6.68559E-07 1.40060E-19-3.27631E-19
 -1      4290 9.49839E-05-2.46936E-05-3.01222E-05 3.43926E-08 3.91698E-19-4.78828E-19
 -1      4291 9.49485E-05-2.48821E-05-3.00275E-05-1.99211E-07 3.61649E-19-4.99105E-19
 -1      4292 9.48573E-05-2.52437E-05-2.98318E-05-3.25023E-07 1.83452E-19-3.24401E-19
 -1      4293 9.03769E-05-2.36327E-05-2.86094E-05-1.38040E-06-1.52689E-20-9.75961E-20
 -1      4294 9.46179E-05-2.53973E-05-2.96725E-05-3.70008E-07 1.06301E-19-3.37037E-19
 -1      4295 9.11904E-05-2.40990E-05-2.87578E-05-1.28992E-06-1.72332E-19-1.23931E-19
 -1      4296 9.43054E-05-2.54386E-05-2.95094E-05-4.67534E-07-2.40244E-20-2.41393E-19
 -3
    1PSTEP                         4           1           1          
  100CL  101 1.000000000        4296                     0    1           1
 -4  ERROR       1    1
 -5  STR(%)      1    1    0    0
 -1         1 4.00539E+01
 -1         2 2.54020E+01
 -1         3 4.30321E-03
 -1         4 4.92523E-03
 -1         5 1.40281E+01
 -1         6 1.31306E+01
 -1         7 1.31306E+01
 -1         8 3.62525E+00
 -1         9 1.79889E+00
 -1        10 1.27853E+00
 -1        11 1.03198E+00
 -1        12 8.86176E-01
 -1        13 7.92210E-01
 -1        14 7.34752E-01
 -1        15 7.37018E-01
 -1        16 7.96694E-01
 -1        17 8.87093E-01
 -1        18 1.04074E+00
 -1        19 1.29566E+00
 -1        20 1.80670E+00
 -1        21 3.46614E+00
 -1        22 8.60419E+00
 -1        23 1.31306E+01
 -1        24 4.34431E+00
 -1        25 3.36318E+00
 -1        26 2.13400E+00
 -1        27 1.41674E+00
 -1        28 1.09164E+00
 -1        29 8.66906E-01
 -1        30 7.00499E-01
 -1        31 5.70626E-01
 -1        32 4.64269E-01
 -1        33 4.56602E-01
 -1        34 4.86899E-01
 -1        35 5.05984E-01
 -1        36 5.92467E-01
 -1        37 7.45570E-01
 -1        38 8.71075E-01
 -1        39 9.24698E-01
 -1        40 9.24698E-01
 -1        41 9.57088E-01
 -1        42 9.75458E-01
 -1        43 1.30691E+00
 -1        44 1.99761E+00
 -1        45 2.82876E+00
 -1        46 3.08503E+00
 -1        47 3.09290E+00
 -1        48 3.09290E+00
 -1        49 2.79979E+00
 -1        50 1.94952E+00
 -1        51 1.29989E+00
 -1        52 9.62160E-01
 -1        53 9.58373E-01
 -1        54 9.04038E-01
 -1        55 9.04038E-01
 -1        56 8.44305E-01
 -1        57 7.18048E-01
 -1        58 5.70729E-01
 -1        59 4.55322E-01
 -1        60 3.76824E-01
 -1        61 3.22062E-01
 -1        62 2.64215E-01
 -1        63 2.09339E-01
 -1        64 1.60677E-01
 -1        65 1.19523E-01
 -1        66 9.30085E-02
 -1        67 7.76678E-02
 -1        68 6.22850E-02
 -1        69 4.68099E-02
 -1        70 3.03897E-02
 -1        71 1.64975E-02
 -1        72 1.40281E+01
 -1        73 3.42444E+00
 -1        74 2.44355E+00
 -1        75 1.70009E+00
 -1        76 1.20448E+00
 -1        77 1.01032E+00
 -1        78 8.64366E-01
 -1        79 7.55554E-01
 -1        80 6.76320E-01
 -1        81 6.21846E-01
 -1        82 5.87331E-01
 -1        83 6.40633E-01
 -1        84 7.38425E-01
 -1        85 8.34643E-01
 -1        86 9.05665E-01
 -1        87 9.27304E-01
 -1        88 1.17563E+00
 -1        89 1.48269E+00
 -1        90 1.63777E+00
 -1        91 1.97544E+00
 -1        92 2.02812E+00
 -1        93 2.45685E+00
 -1        94 3.43537E+00
 -1        95 4.67508E+00
 -1        96 5.30417E+00
 -1        97 5.30417E+00
 -1        98 4.69690E+00
 -1        99 2.66054E+00
 -1       100 1.64559E+00
 -1       101 1.72997E+00
 -1       102 1.89458E+00
 -1       103 1.89458E+00
 -1       104 1.75962E+00
 -1       105 1.49054E+00
 -1       106 1.24644E+00
 -1       107 9.96892E-01
 -1       108 7.66772E-01
 -1       109 5.70215E-01
 -1       110 4.14566E-01
 -1       111 3.19726E-01
 -1       112 2.41042E-01
 -1       113 1.77737E-01
 -1       114 1.27979E-01
 -1       115 8.95596E-02
 -1       116 6.02412E-02
 -1       117 4.76865E-02
 -1       118 3.72615E-02
 -1       119 2.51980E-02
 -1       120 1.57237E-02
 -1       121 5.16419E-03
 -1       122 5.48458E-03
 -1       123 5.48458E-03
 -1       124 4.47515E-03
 -1       125 2.11853E-03
 -1       126 3.35503E-03
 -1       127 4.76851E-03
 -1       128 5.25851E-03
 -1       129 5.25851E-03
 -1       130 4.77718E-03
 -1       131 3.33917E-03
 -1       132 1.94776E-03
 -1       133 4.31597E-03
 -1       134 5.14776E-03
 -1       135 5.14776E-03
 -1       136 5.48828E-03
 -1       137 2.50436E+01
 -1       138 4.83606E+01
 -1       139 4.83606E+01
 -1       140 2.20225E+01
 -1       141 1.30096E+01
 -1       142 1.30096E+01
 -1       143 1.27236E+01
 -1       144 1.25100E+01
 -1       145 1.22491E+01
 -1       146 1.39598E+01
 -1       147 3.32852E+01
 -1       148 3.32852E+01
 -1       149 2.66235E+01
 -1       150 2.48009E+01
 -1       151 2.47174E+01
 -1       152 2.48209E+01
 -1       153 4.00539E+01
 -1       154 1.50142E+01
 -1       155 1.19277E+01
 -1       156 1.25536E+01
 -1       157 1.25536E+01
 -1       158 1.22543E+01
 -1       159 1.22543E+01
 -1       160 1.15351E+01
 -1       161 2.11764E+01
 -1       162 4.84562E+01
 -1       163 4.84562E+01
 -1       164 2.54020E+01
 -1       165 6.02564E+00
 -1       166 2.27190E+00
 -1       167 1.49607E+00
 -1       168 1.14909E+00
 -1       169 9.61019E-01
 -1       170 8.50324E-01
 -1       171 7.78892E-01
 -1       172 7.37018E-01
 -1       173 7.82622E-01
 -1       174 8.53468E-01
 -1       175 9.70085E-01
 -1       176 1.16317E+00
 -1       177 1.51731E+00
 -1       178 2.24658E+00
 -1       179 3.89959E+00
 -1       180 1.40281E+01
 -1       181 4.34431E+00
 -1       182 3.36318E+00
 -1       183 2.13400E+00
 -1       184 1.45984E+00
 -1       185 1.09164E+00
 -1       186 8.66906E-01
 -1       187 7.00499E-01
 -1       188 5.70626E-01
 -1       189 4.64269E-01
 -1       190 4.24140E-01
 -1       191 4.56602E-01
 -1       192 4.86899E-01
 -1       193 5.05984E-01
 -1       194 5.97792E-01
 -1       195 7.45570E-01
 -1       196 8.71075E-01
 -1       197 9.24698E-01
 -1       198 8.90507E-01
 -1       199 9.57088E-01
 -1       200 9.75458E-01
 -1       201 1.30691E+00
 -1       202 1.99761E+00
 -1       203 2.82876E+00
 -1       204 3.08503E+00
 -1       205 3.09290E+00
 -1       206 2.79979E+00
 -1       207 1.94952E+00
 -1       208 1.29989E+00
 -1       209 9.62160E-01
 -1       210 9.58373E-01
 -1       211 8.86472E-01
 -1       212 9.04038E-01
 -1       213 8.44305E-01
 -1       214 7.18048E-01
 -1       215 5.94916E-01
 -1       216 5.07017E-01
 -1       217 4.24978E-01
 -1       218 3.39098E-01
 -1       219 2.64215E-01
 -1       220 2.09339E-01
 -1       221 1.63783E-01
 -1       222 1.26653E-01
 -1       223 9.51516E-02
 -1       224 7.76678E-02
 -1       225 6.22850E-02
 -1       226 4.68099E-02
 -1       227 3.03897E-02
 -1       228 1.76540E-02
 -1       229 3.42444E+00
 -1       230 2.44355E+00
 -1       231 1.70009E+00
 -1       232 1.20448E+00
 -1       233 1.01032E+00
 -1       234 8.64366E-01
 -1       235 7.55554E-01
 -1       236 6.76320E-01
 -1       237 6.21846E-01
 -1       238 5.87331E-01
 -1       239 5.66048E-01
 -1       240 6.40633E-01
 -1       241 7.38425E-01
 -1       242 8.34643E-01
 -1       243 9.05665E-01
 -1       244 1.02183E+00
 -1       245 1.21126E+00
 -1       246 1.48269E+00
 -1       247 1.63777E+00
 -1       248 1.97544E+00
 -1       249 2.02812E+00
 -1       250 2.45685E+00
 -1       251 3.43537E+00
 -1       252 4.67508E+00
 -1       253 5.30417E+00
 -1       254 4.69690E+00
 -1       255 2.66054E+00
 -1       256 1.64559E+00
 -1       257 1.54520E+00
 -1       258 1.72997E+00
 -1       259 1.89458E+00
 -1       260 1.75962E+00
 -1       261 1.49054E+00
 -1       262 1.24644E+00
 -1       263 1.02064E+00
 -1       264 8.07163E-01
 -1       265 6.16621E-01
 -1       266 4.56819E-01
 -1       267 3.30393E-01
 -1       268 2.41042E-01
 -1       269 1.77737E-01
 -1       270 1.29440E-01
 -1       271 9.30737E-02
 -1       272 6.49649E-02
 -1       273 4.76865E-02
 -1       274 3.72615E-02
 -1       275 2.51980E-02
 -1       276 1.57237E-02
 -1       277 8.55795E-03
 -1       278 9.98442E-03
 -1       279 9.98442E-03
 -1       280 7.02009E-03
 -1       281 6.88685E-03
 -1       282 9.91176E-03
 -1       283 1.11601E-02
 -1       284 1.11601E-02
 -1       285 1.11317E-02
 -1       286 9.80490E-03
 -1       287 6.91520E-03
 -1       288 6.53432E-03
 -1       289 9.93284E-03
 -1       290 9.93284E-03
 -1       291 9.77987E-03
 -1       292 3.16587E+01
 -1       293 3.03020E+01
 -1       294 4.83606E+01
 -1       295 2.32222E+01
 -1       296 1.22104E+01
 -1       297 1.30096E+01
 -1       298 1.27236E+01
 -1       299 1.25100E+01
 -1       300 1.22491E+01
 -1       301 1.15720E+01
 -1       302 1.39598E+01
 -1       303 3.32852E+01
 -1       304 3.26121E+01
 -1       305 2.63251E+01
 -1       306 2.69394E+01
 -1       307 2.69394E+01
 -1       308 3.62012E+01
 -1       309 4.00539E+01
 -1       310 1.50610E+01
 -1       311 1.05099E+01
 -1       312 1.19277E+01
 -1       313 1.25536E+01
 -1       314 1.17054E+01
 -1       315 1.22543E+01
 -1       316 1.15351E+01
 -1       317 1.10736E+01
 -1       318 2.30631E+01
 -1       319 4.84562E+01
 -1       320 3.03265E+01
 -1       321 3.16587E+01
 -1       322 1.04996E+00
 -1       323 2.44233E+00
 -1       324 7.80698E-01
 -1       325 6.84934E-01
 -1       326 6.19349E-01
 -1       327 5.72723E-01
 -1       328 5.76209E-01
 -1       329 6.22113E-01
 -1       330 6.91184E-01
 -1       331 7.88207E-01
 -1       332 9.24502E-01
 -1       333 1.13844E+00
 -1       334 1.30162E+00
 -1       335 2.18740E+00
 -1       336 1.89316E+00
 -1       337 1.73801E+00
 -1       338 1.27019E+00
 -1       339 9.01868E-01
 -1       340 6.95286E-01
 -1       341 5.90812E-01
 -1       342 4.93469E-01
 -1       343 4.02190E-01
 -1       344 3.19364E-01
 -1       345 3.53014E-01
 -1       346 3.82302E-01
 -1       347 4.02286E-01
 -1       348 4.85904E-01
 -1       349 5.78756E-01
 -1       350 6.55541E-01
 -1       351 6.71955E-01
 -1       352 5.88546E-01
 -1       353 4.71258E-01
 -1       354 5.34082E-01
 -1       355 9.34337E-01
 -1       356 1.35534E+00
 -1       357 1.75351E+00
 -1       358 1.97123E+00
 -1       359 1.86309E+00
 -1       360 1.97172E+00
 -1       361 1.73598E+00
 -1       362 1.34080E+00
 -1       363 9.07931E-01
 -1       364 5.03737E-01
 -1       365 4.78958E-01
 -1       366 5.90817E-01
 -1       367 6.70374E-01
 -1       368 6.54859E-01
 -1       369 5.84243E-01
 -1       370 5.21007E-01
 -1       371 4.61690E-01
 -1       372 3.89392E-01
 -1       373 3.14581E-01
 -1       374 2.44704E-01
 -1       375 1.83702E-01
 -1       376 1.33069E-01
 -1       377 9.51516E-02
 -1       378 6.92826E-02
 -1       379 5.00721E-02
 -1       380 3.60940E-02
 -1       381 2.58000E-02
 -1       382 1.67075E-02
 -1       383 1.14769E+00
 -1       384 8.85603E-01
 -1       385 6.85940E-01
 -1       386 5.65917E-01
 -1       387 5.27693E-01
 -1       388 4.90852E-01
 -1       389 4.58702E-01
 -1       390 4.32100E-01
 -1       391 4.71014E-01
 -1       392 6.17200E-01
 -1       393 8.18831E-01
 -1       394 1.02038E+00
 -1       395 1.19230E+00
 -1       396 1.34378E+00
 -1       397 1.39549E+00
 -1       398 1.39549E+00
 -1       399 1.23590E+00
 -1       400 1.17014E+00
 -1       401 1.39413E+00
 -1       402 2.24933E+00
 -1       403 2.79017E+00
 -1       404 3.12220E+00
 -1       405 3.13476E+00
 -1       406 2.82793E+00
 -1       407 1.94063E+00
 -1       408 1.14059E+00
 -1       409 1.11828E+00
 -1       410 1.36873E+00
 -1       411 1.40225E+00
 -1       412 1.38726E+00
 -1       413 1.25896E+00
 -1       414 1.11717E+00
 -1       415 9.43976E-01
 -1       416 7.62269E-01
 -1       417 5.93941E-01
 -1       418 4.49077E-01
 -1       419 3.30393E-01
 -1       420 2.36581E-01
 -1       421 1.75792E-01
 -1       422 1.29440E-01
 -1       423 9.30737E-02
 -1       424 6.49649E-02
 -1       425 4.34391E-02
 -1       426 2.84197E-02
 -1       427 1.81793E-02
 -1       428 9.50651E-03
 -1       429 1.23521E-02
 -1       430 1.57443E-02
 -1       431 1.57443E-02
 -1       432 1.00361E-02
 -1       433 1.48115E-02
 -1       434 1.71240E-02
 -1       435 1.71240E-02
 -1       436 1.69170E-02
 -1       437 1.69170E-02
 -1       438 1.45950E-02
 -1       439 9.89139E-03
 -1       440 1.22421E-02
 -1       441 1.50926E-02
 -1       442 3.03020E+01
 -1       443 3.26543E+01
 -1       444 3.26543E+01
 -1       445 1.74955E+01
 -1       446 9.85960E+00
 -1       447 9.06015E-01
 -1       448 9.35458E+00
 -1       449 1.05797E+01
 -1       450 1.04000E+01
 -1       451 9.17575E+00
 -1       452 7.73269E+00
 -1       453 1.27070E+01
 -1       454 2.14981E+01
 -1       455 2.45970E+01
 -1       456 3.82286E+01
 -1       457 3.82286E+01
 -1       458 2.77330E+01
 -1       459 2.42304E+01
 -1       460 1.39950E+01
 -1       461 7.63948E+00
 -1       462 7.93554E+00
 -1       463 9.46879E+00
 -1       464 1.16524E+01
 -1       465 1.12855E+01
 -1       466 9.22452E+00
 -1       467 7.01097E+00
 -1       468 9.92608E+00
 -1       469 1.74025E+01
 -1       470 3.03265E+01
 -1       471 2.98001E+01
 -1       472 6.47589E+00
 -1       473 1.05060E+00
 -1       474 4.77221E-01
 -1       475 5.04838E-01
 -1       476 4.16074E-01
 -1       477 4.44729E-01
 -1       478 4.77679E-01
 -1       479 5.05138E-01
 -1       480 5.05138E-01
 -1       481 5.94094E-01
 -1       482 8.85603E-01
 -1       483 7.77341E-01
 -1       484 7.92235E+00
 -1       485 6.85759E-01
 -1       486 5.57425E-01
 -1       487 4.24244E-01
 -1       488 3.75198E-01
 -1       489 3.12566E-01
 -1       490 2.41053E-01
 -1       491 2.35339E-01
 -1       492 2.64731E-01
 -1       493 3.41020E-01
 -1       494 4.28811E-01
 -1       495 5.03070E-01
 -1       496 5.62539E-01
 -1       497 6.33746E-01
 -1       498 6.63713E-01
 -1       499 7.04797E-01
 -1       500 8.55627E-01
 -1       501 9.33510E-01
 -1       502 1.21038E+00
 -1       503 1.36172E+00
 -1       504 1.66290E+00
 -1       505 1.96190E+00
 -1       506 1.96265E+00
 -1       507 1.65989E+00
 -1       508 1.35229E+00
 -1       509 1.18481E+00
 -1       510 9.00102E-01
 -1       511 8.46079E-01
 -1       512 6.96874E-01
 -1       513 6.91994E-01
 -1       514 6.70166E-01
 -1       515 6.09213E-01
 -1       516 5.51163E-01
 -1       517 4.93131E-01
 -1       518 4.24869E-01
 -1       519 3.51911E-01
 -1       520 2.81840E-01
 -1       521 2.18996E-01
 -1       522 1.65360E-01
 -1       523 1.21352E-01
 -1       524 8.64615E-02
 -1       525 5.96839E-02
 -1       526 3.98239E-02
 -1       527 2.56157E-02
 -1       528 5.35332E-01
 -1       529 4.69952E-01
 -1       530 3.96184E-01
 -1       531 3.17648E-01
 -1       532 3.15358E-01
 -1       533 3.71464E-01
 -1       534 5.16315E-01
 -1       535 7.03858E-01
 -1       536 9.03384E-01
 -1       537 1.09927E+00
 -1       538 1.26318E+00
 -1       539 1.38062E+00
 -1       540 1.62197E+00
 -1       541 1.80517E+00
 -1       542 1.85591E+00
 -1       543 2.36081E+00
 -1       544 2.12983E+00
 -1       545 3.82382E+00
 -1       546 7.92235E+00
 -1       547 8.32812E+00
 -1       548 6.80885E+00
 -1       549 2.68675E+00
 -1       550 2.15793E+00
 -1       551 2.03039E+00
 -1       552 1.86714E+00
 -1       553 1.71545E+00
 -1       554 1.49152E+00
 -1       555 1.32886E+00
 -1       556 1.19452E+00
 -1       557 1.01747E+00
 -1       558 8.32184E-01
 -1       559 6.59257E-01
 -1       560 5.08617E-01
 -1       561 3.83328E-01
 -1       562 2.82576E-01
 -1       563 2.03684E-01
 -1       564 1.43313E-01
 -1       565 9.81212E-02
 -1       566 6.50846E-02
 -1       567 4.25033E-02
 -1       568 3.08457E-02
 -1       569 2.15650E-02
 -1       570 2.00439E-02
 -1       571 2.39428E-02
 -1       572 1.59651E-02
 -1       573 1.67413E-02
 -1       574 2.40958E-02
 -1       575 2.40958E-02
 -1       576 2.39388E-02
 -1       577 2.34745E-02
 -1       578 1.93604E-02
 -1       579 2.10328E-02
 -1       580 2.05346E-02
 -1       581 1.34618E+01
 -1       582 2.98001E+01
 -1       583 6.85940E-01
 -1       584 3.26543E+01
 -1       585 7.99577E+00
 -1       586 8.61051E-01
 -1       587 8.37828E+00
 -1       588 7.46344E+00
 -1       589 4.44585E-01
 -1       590 8.32812E+00
 -1       591 4.38679E+00
 -1       592 6.80885E+00
 -1       593 8.32812E+00
 -1       594 4.45257E+00
 -1       595 6.81931E+00
 -1       596 1.13502E+01
 -1       597 1.68569E+01
 -1       598 2.45970E+01
 -1       599 3.82286E+01
 -1       600 2.77330E+01
 -1       601 1.79446E+01
 -1       602 1.22710E+01
 -1       603 7.91094E+00
 -1       604 4.02911E+00
 -1       605 5.51081E+00
 -1       606 8.42346E+00
 -1       607 6.75495E+00
 -1       608 4.68683E+00
 -1       609 1.26458E+01
 -1       610 2.04955E+01
 -1       611 2.22245E+01
 -1       612 1.30966E+00
 -1       613 5.34302E+00
 -1       614 5.04838E-01
 -1       615 4.07302E+00
 -1       616 1.67075E-02
 -1       617 4.61465E-01
 -1       618 3.49380E-01
 -1       619 3.28070E-01
 -1       620 3.59278E-01
 -1       621 3.41969E-01
 -1       622 5.19818E-01
 -1       623 3.36881E+00
 -1       624 3.62857E-01
 -1       625 3.31338E-01
 -1       626 2.64079E-01
 -1       627 2.11881E-01
 -1       628 1.61751E-01
 -1       629 1.28129E-01
 -1       630 1.87268E-01
 -1       631 2.83513E-01
 -1       632 3.83871E-01
 -1       633 4.82396E-01
 -1       634 5.69646E-01
 -1       635 6.81298E-01
 -1       636 8.17486E-01
 -1       637 9.35467E-01
 -1       638 1.04204E+00
 -1       639 1.36523E+00
 -1       640 1.51626E+00
 -1       641 1.58197E+00
 -1       642 1.66290E+00
 -1       643 3.20982E+00
 -1       644 5.07971E+00
 -1       645 3.27428E+00
 -1       646 1.82717E+00
 -1       647 1.73002E+00
 -1       648 1.45293E+00
 -1       649 1.35431E+00
 -1       650 1.05304E+00
 -1       651 9.52779E-01
 -1       652 8.48528E-01
 -1       653 7.22137E-01
 -1       654 6.16998E-01
 -1       655 5.42609E-01
 -1       656 4.60233E-01
 -1       657 3.79033E-01
 -1       658 3.04325E-01
 -1       659 2.38761E-01
 -1       660 1.83244E-01
 -1       661 1.37594E-01
 -1       662 1.01023E-01
 -1       663 7.24177E-02
 -1       664 5.05864E-02
 -1       665 3.84034E-02
 -1       666 2.77942E-01
 -1       667 3.46060E+00
 -1       668 3.24526E-01
 -1       669 1.82523E-01
 -1       670 2.50739E-01
 -1       671 3.93569E-01
 -1       672 5.60052E-01
 -1       673 7.52371E-01
 -1       674 9.71262E-01
 -1       675 1.21371E+00
 -1       676 1.46908E+00
 -1       677 1.71636E+00
 -1       678 2.18622E+00
 -1       679 2.64647E+00
 -1       680 3.15507E+00
 -1       681 4.09853E+00
 -1       682 4.09511E+00
 -1       683 3.16102E+00
 -1       684 2.98276E+00
 -1       685 2.36324E+00
 -1       686 1.83611E+00
 -1       687 1.58556E+00
 -1       688 1.33881E+00
 -1       689 1.10027E+00
 -1       690 8.85677E-01
 -1       691 7.00671E-01
 -1       692 5.45489E-01
 -1       693 4.18118E-01
 -1       694 3.15484E-01
 -1       695 2.34165E-01
 -1       696 1.70770E-01
 -1       697 1.22160E-01
 -1       698 8.55132E-02
 -1       699 5.84378E-02
 -1       700 3.84978E-02
 -1       701 2.23737E-02
 -1       702 3.37671E-02
 -1       703 3.38803E-02
 -1       704 3.21880E-02
 -1       705 3.32874E-02
 -1       706 3.37671E-02
 -1       707 4.18896E-01
 -1       708 1.11682E+01
 -1       709 3.32874E-02
 -1       710 3.06444E-02
 -1       711 3.84034E-02
 -1       712 3.40142E-01
 -1       713 1.00200E+01
 -1       714 1.56273E+01
 -1       715 5.60486E+00
 -1       716 2.18480E-01
 -1       717 3.71274E-01
 -1       718 3.59278E-01
 -1       719 4.89629E-01
 -1       720 3.58465E-01
 -1       721 1.56111E+01
 -1       722 1.27871E+01
 -1       723 7.53797E+00
 -1       724 3.06350E+00
 -1       725 8.01696E+00
 -1       726 4.95284E+00
 -1       727 9.13899E+00
 -1       728 1.24770E+01
 -1       729 1.62545E+01
 -1       730 1.34875E+01
 -1       731 4.90096E+00
 -1       732 4.38090E+00
 -1       733 7.40115E+00
 -1       734 5.07971E+00
 -1       735 4.47241E+00
 -1       736 4.47340E+00
 -1       737 1.45517E+01
 -1       738 1.07245E+01
 -1       739 7.08210E+00
 -1       740 3.58465E-01
 -1       741 3.27388E-01
 -1       742 7.10332E+00
 -1       743 2.45341E-02
 -1       744 2.86410E+00
 -1       745 2.09994E-02
 -1       746 6.42054E+00
 -1       747 3.48160E-01
 -1       748 2.44450E-01
 -1       749 1.88146E-01
 -1       750 1.51923E-01
 -1       751 9.71680E-02
 -1       752 1.08573E-01
 -1       753 1.64261E-01
 -1       754 2.31960E-01
 -1       755 3.21462E-01
 -1       756 4.39718E-01
 -1       757 5.74468E-01
 -1       758 7.19359E-01
 -1       759 8.61864E-01
 -1       760 1.11461E+00
 -1       761 1.41273E+00
 -1       762 1.49490E+00
 -1       763 2.77430E+00
 -1       764 2.18680E+00
 -1       765 2.60208E+00
 -1       766 1.82717E+00
 -1       767 2.56977E+00
 -1       768 2.09542E+00
 -1       769 1.64316E+00
 -1       770 1.39643E+00
 -1       771 1.13853E+00
 -1       772 8.92348E-01
 -1       773 7.58758E-01
 -1       774 6.25166E-01
 -1       775 5.10679E-01
 -1       776 4.07863E-01
 -1       777 3.19163E-01
 -1       778 2.47109E-01
 -1       779 1.92360E-01
 -1       780 1.45393E-01
 -1       781 1.06658E-01
 -1       782 7.64936E-02
 -1       783 5.36743E-02
 -1       784 4.56284E-02
 -1       785 2.93681E-01
 -1       786 1.84931E-01
 -1       787 6.09461E-01
 -1       788 8.12412E-01
 -1       789 1.06063E+00
 -1       790 1.39628E+00
 -1       791 1.88770E+00
 -1       792 2.55346E+00
 -1       793 4.95954E+00
 -1       794 6.51486E+00
 -1       795 4.27031E+00
 -1       796 2.12517E+00
 -1       797 1.58631E+00
 -1       798 1.21178E+00
 -1       799 9.48735E-01
 -1       800 7.52751E-01
 -1       801 5.83067E-01
 -1       802 4.42279E-01
 -1       803 3.29030E-01
 -1       804 2.40068E-01
 -1       805 1.74796E-01
 -1       806 1.28500E-01
 -1       807 9.29779E-02
 -1       808 6.60247E-02
 -1       809 4.55047E-02
 -1       810 2.91052E-02
 -1       811 2.73467E-01
 -1       812 2.40074E-01
 -1       813 4.46781E-02
 -1       814 5.01792E-02
 -1       815 4.67991E-02
 -1       816 6.23194E+00
 -1       817 9.99132E+00
 -1       818 7.45081E+00
 -1       819 2.86410E+00
 -1       820 3.02909E-01
 -1       821 5.01792E-02
 -1       822 5.15699E+00
 -1       823 4.31327E-01
 -1       824 1.89549E-01
 -1       825 3.02226E+00
 -1       826 2.89488E+00
 -1       827 4.79100E+00
 -1       828 1.88674E-01
 -1       829 8.23842E+00
 -1       830 8.61232E+00
 -1       831 2.30967E+00
 -1       832 8.68368E+00
 -1       833 2.65541E-01
 -1       834 8.95380E+00
 -1       835 7.20831E+00
 -1       836 6.44873E+00
 -1       837 8.23243E+00
 -1       838 3.36881E+00
 -1       839 3.40088E+00
 -1       840 7.18906E+00
 -1       841 9.79042E+00
 -1       842 2.59144E-01
 -1       843 6.57290E+00
 -1       844 2.81196E-01
 -1       845 4.15686E-02
 -1       846 1.25821E-01
 -1       847 1.13393E-01
 -1       848 2.35410E-01
 -1       849 8.95380E+00
 -1       850 2.73564E-01
 -1       851 2.73564E-01
 -1       852 4.58753E-02
 -1       853 4.58753E-02
 -1       854 4.07159E+00
 -1       855 6.92973E+00
 -1       856 5.33695E+00
 -1       857 4.00839E+00
 -1       858 2.78615E-01
 -1       859 2.66331E+00
 -1       860 2.56977E+00
 -1       861 2.81196E-01
 -1       862 1.01872E-01
 -1       863 1.06011E-01
 -1       864 1.35766E-01
 -1       865 1.72313E-01
 -1       866 2.36219E-01
 -1       867 3.23274E-01
 -1       868 4.32899E-01
 -1       869 5.60232E-01
 -1       870 7.05471E-01
 -1       871 9.56623E-01
 -1       872 1.24266E+00
 -1       873 1.56042E+00
 -1       874 3.11822E+00
 -1       875 3.54962E+00
 -1       876 1.32837E-01
 -1       877 2.78722E+00
 -1       878 2.74629E+00
 -1       879 2.09660E+00
 -1       880 1.55457E+00
 -1       881 1.26665E+00
 -1       882 9.82948E-01
 -1       883 7.42050E-01
 -1       884 5.89249E-01
 -1       885 4.71063E-01
 -1       886 3.88878E-01
 -1       887 3.12574E-01
 -1       888 2.45393E-01
 -1       889 1.88405E-01
 -1       890 1.41462E-01
 -1       891 1.03650E-01
 -1       892 7.41289E-02
 -1       893 5.90516E-02
 -1       894 1.06063E+00
 -1       895 7.97203E-01
 -1       896 1.80016E+00
 -1       897 2.59911E+00
 -1       898 4.41674E+00
 -1       899 3.56187E-02
 -1       900 1.54758E+00
 -1       901 6.57068E+00
 -1       902 2.09401E+00
 -1       903 9.38245E-01
 -1       904 7.21086E-01
 -1       905 5.49811E-01
 -1       906 4.15177E-01
 -1       907 3.09948E-01
 -1       908 2.28286E-01
 -1       909 1.65479E-01
 -1       910 1.17525E-01
 -1       911 8.14959E-02
 -1       912 6.51486E+00
 -1       913 6.01087E-02
 -1       914 5.92799E+00
 -1       915 2.73993E-01
 -1       916 2.97103E+00
 -1       917 9.75534E-02
 -1       918 6.64925E+00
 -1       919 4.62885E+00
 -1       920 1.38359E+00
 -1       921 2.74412E-01
 -1       922 6.43545E+00
 -1       923 4.75417E+00
 -1       924 1.21147E+00
 -1       925 8.36492E-02
 -1       926 4.62444E+00
 -1       927 5.34715E+00
 -1       928 1.30494E-01
 -1       929 5.90516E-02
 -1       930 1.86731E-01
 -1       931 5.84643E-01
 -1       932 1.54865E-01
 -1       933 1.10777E-01
 -1       934 5.63779E-02
 -1       935 4.56177E+00
 -1       936 1.58868E-01
 -1       937 1.94983E-01
 -1       938 1.94983E-01
 -1       939 4.28970E+00
 -1       940 1.92258E-01
 -1       941 3.94336E+00
 -1       942 1.09068E-01
 -1       943 3.82114E+00
 -1       944 4.12634E-01
 -1       945 6.01087E-02
 -1       946 1.92258E-01
 -1       947 1.37272E-01
 -1       948 1.14865E-01
 -1       949 1.41716E-01
 -1       950 1.81239E-01
 -1       951 2.30398E-01
 -1       952 3.23274E-01
 -1       953 4.32899E-01
 -1       954 5.60232E-01
 -1       955 7.13427E-01
 -1       956 9.44698E-01
 -1       957 1.26144E+00
 -1       958 1.81313E+00
 -1       959 3.54962E+00
 -1       960 8.78819E-02
 -1       961 1.40235E-01
 -1       962 2.74629E+00
 -1       963 2.38982E+00
 -1       964 1.85734E+00
 -1       965 1.26426E+00
 -1       966 9.45367E-01
 -1       967 7.24241E-01
 -1       968 5.89249E-01
 -1       969 4.71063E-01
 -1       970 3.71315E-01
 -1       971 2.88785E-01
 -1       972 2.21405E-01
 -1       973 1.67034E-01
 -1       974 1.24142E-01
 -1       975 9.05942E-02
 -1       976 6.74127E-02
 -1       977 9.37983E-01
 -1       978 3.62572E+00
 -1       979 2.48741E+00
 -1       980 3.23216E+00
 -1       981 6.13367E-01
 -1       982 8.11146E-01
 -1       983 3.50980E-01
 -1       984 2.63162E-01
 -1       985 1.95169E-01
 -1       986 1.42247E-01
 -1       987 1.02821E-01
 -1       988 5.91977E+00
 -1       989 4.38329E+00
 -1       990 1.44502E+00
 -1       991 1.93131E-01
 -1       992 1.09068E-01
 -1       993 5.91977E+00
 -1       994 1.91073E-01
 -1       995 3.23216E+00
 -1       996 1.08532E+00
 -1       997 4.64719E-01
 -1       998 3.54304E+00
 -1       999 3.92716E+00
 -1      1000 1.19354E-01
 -1      1001 1.28556E+00
 -1      1002 2.39190E-01
 -1      1003 6.87910E-01
 -1      1004 1.16050E-01
 -1      1005 3.85871E+00
 -1      1006 3.91298E+00
 -1      1007 3.17488E+00
 -1      1008 7.98811E-02
 -1      1009 1.16050E-01
 -1      1010 1.20737E-01
 -1      1011 1.79035E+00
 -1      1012 3.76200E+00
 -1      1013 3.54404E-01
 -1      1014 6.49162E-02
 -1      1015 9.87369E-02
 -1      1016 1.44584E-01
 -1      1017 1.81239E-01
 -1      1018 2.31473E-01
 -1      1019 2.99950E-01
 -1      1020 3.96834E-01
 -1      1021 5.35718E-01
 -1      1022 7.13427E-01
 -1      1023 9.44698E-01
 -1      1024 1.24065E+00
 -1      1025 1.87931E+00
 -1      1026 3.13020E+00
 -1      1027 1.85038E-01
 -1      1028 2.70067E+00
 -1      1029 1.68823E+00
 -1      1030 1.22180E+00
 -1      1031 9.45367E-01
 -1      1032 7.19335E-01
 -1      1033 5.47017E-01
 -1      1034 4.16386E-01
 -1      1035 3.16503E-01
 -1      1036 2.39352E-01
 -1      1037 1.79547E-01
 -1      1038 1.53424E-01
 -1      1039 1.02517E-01
 -1      1040 5.00066E-01
 -1      1041 1.48797E-01
 -1      1042 2.01358E-01
 -1      1043 2.66183E-01
 -1      1044 3.23216E+00
 -1      1045 2.74441E+00
 -1      1046 7.89450E-01
 -1      1047 4.13538E+00
 -1      1048 1.98501E+00
 -1      1049 4.57293E-01
 -1      1050 3.56519E+00
 -1      1051 1.37272E-01
 -1      1052 1.01829E-01
 -1      1053 1.51001E-01
 -1      1054 6.75774E-02
 -1      1055 6.01487E-01
 -1      1056 3.49277E-01
 -1      1057 2.56804E+00
 -1      1058 1.35486E+00
 -1      1059 8.35072E-02
 -1      1060 6.99932E-01
 -1      1061 2.34533E-01
 -1      1062 2.93439E-01
 -1      1063 2.92888E+00
 -1      1064 9.65503E-01
 -1      1065 3.13020E+00
 -1      1066 1.22100E-01
 -1      1067 1.53424E-01
 -1      1068 1.31369E+00
 -1      1069 1.79198E-01
 -1      1070 2.73180E-01
 -1      1071 3.16123E-01
 -1      1072 3.49561E-01
 -1      1073 5.88969E-01
 -1      1074 8.35733E-01
 -1      1075 1.17419E+00
 -1      1076 1.65301E+00
 -1      1077 1.87931E+00
 -1      1078 2.37831E+00
 -1      1079 1.91527E-01
 -1      1080 2.39050E+00
 -1      1081 1.40977E+00
 -1      1082 8.45843E-01
 -1      1083 5.88594E-01
 -1      1084 4.30749E-01
 -1      1085 3.16760E-01
 -1      1086 2.47315E-01
 -1      1087 1.92461E-01
 -1      1088 1.53424E-01
 -1      1089 2.74441E+00
 -1      1090 2.92044E-01
 -1      1091 1.41925E-01
 -1      1092 2.33776E-01
 -1      1093 1.83686E-01
 -1      1094 1.74675E+00
 -1      1095 3.62567E-01
 -1      1096 1.28006E+00
 -1      1097 1.21772E-01
 -1      1098 1.56917E-01
 -1      1099 1.30654E-01
 -1      1100 6.17491E-01
 -1      1101 6.29413E-01
 -1      1102 3.90742E-01
 -1      1103 2.93252E-01
 -1      1104 2.65202E+00
 -1      1105 1.18321E+00
 -1      1106 2.88490E-01
 -1      1107 8.35733E-01
 -1      1108 6.17491E-01
 -1      1109 4.72535E-01
 -1      1110 6.89806E-02
 -1      1111 2.88490E-01
 -1      1112 6.17491E-01
 -1      1113 3.16123E-01
 -1      1114 1.63195E-01
 -1      1115 1.89824E-01
 -1      1116 1.31306E+01
 -1      1117 8.37794E+00
 -1      1118 2.71207E+00
 -1      1119 1.53871E+00
 -1      1120 1.15526E+00
 -1      1121 9.59080E-01
 -1      1122 8.39193E-01
 -1      1123 7.63481E-01
 -1      1124 7.35885E-01
 -1      1125 7.66856E-01
 -1      1126 8.41893E-01
 -1      1127 9.63915E-01
 -1      1128 1.16820E+00
 -1      1129 1.55118E+00
 -1      1130 2.63642E+00
 -1      1131 6.03517E+00
 -1      1132 1.13161E+01
 -1      1133 1.31306E+01
 -1      1134 8.73747E+00
 -1      1135 3.85374E+00
 -1      1136 2.74859E+00
 -1      1137 1.77537E+00
 -1      1138 1.25419E+00
 -1      1139 9.79274E-01
 -1      1140 7.83703E-01
 -1      1141 6.35563E-01
 -1      1142 5.17447E-01
 -1      1143 4.60435E-01
 -1      1144 4.71750E-01
 -1      1145 4.96441E-01
 -1      1146 5.49226E-01
 -1      1147 6.69018E-01
 -1      1148 8.08323E-01
 -1      1149 8.97887E-01
 -1      1150 9.24698E-01
 -1      1151 9.40893E-01
 -1      1152 9.66273E-01
 -1      1153 1.14118E+00
 -1      1154 1.65226E+00
 -1      1155 2.41319E+00
 -1      1156 2.95690E+00
 -1      1157 3.08896E+00
 -1      1158 3.09290E+00
 -1      1159 2.94634E+00
 -1      1160 2.37466E+00
 -1      1161 1.62470E+00
 -1      1162 1.13102E+00
 -1      1163 9.60267E-01
 -1      1164 9.31206E-01
 -1      1165 9.04038E-01
 -1      1166 8.74172E-01
 -1      1167 7.81177E-01
 -1      1168 6.44389E-01
 -1      1169 5.13025E-01
 -1      1170 4.16073E-01
 -1      1171 3.49443E-01
 -1      1172 2.93138E-01
 -1      1173 2.36777E-01
 -1      1174 1.85008E-01
 -1      1175 1.40100E-01
 -1      1176 1.06266E-01
 -1      1177 8.53381E-02
 -1      1178 6.99764E-02
 -1      1179 5.45475E-02
 -1      1180 3.85998E-02
 -1      1181 2.34436E-02
 -1      1182 1.07114E-02
 -1      1183 1.40281E+01
 -1      1184 8.72626E+00
 -1      1185 2.93399E+00
 -1      1186 2.07182E+00
 -1      1187 1.45229E+00
 -1      1188 1.10740E+00
 -1      1189 9.37345E-01
 -1      1190 8.09960E-01
 -1      1191 7.15937E-01
 -1      1192 6.49083E-01
 -1      1193 6.04588E-01
 -1      1194 6.13982E-01
 -1      1195 6.89529E-01
 -1      1196 7.86534E-01
 -1      1197 8.70154E-01
 -1      1198 9.16485E-01
 -1      1199 1.05147E+00
 -1      1200 1.32916E+00
 -1      1201 1.56023E+00
 -1      1202 1.80660E+00
 -1      1203 2.00178E+00
 -1      1204 2.24248E+00
 -1      1205 2.94611E+00
 -1      1206 4.05522E+00
 -1      1207 4.98962E+00
 -1      1208 5.30417E+00
 -1      1209 5.00053E+00
 -1      1210 3.67872E+00
 -1      1211 2.15307E+00
 -1      1212 1.68778E+00
 -1      1213 1.81228E+00
 -1      1214 1.89458E+00
 -1      1215 1.82710E+00
 -1      1216 1.62508E+00
 -1      1217 1.36849E+00
 -1      1218 1.12167E+00
 -1      1219 8.81832E-01
 -1      1220 6.68494E-01
 -1      1221 4.92390E-01
 -1      1222 3.67146E-01
 -1      1223 2.80384E-01
 -1      1224 2.09390E-01
 -1      1225 1.52858E-01
 -1      1226 1.08769E-01
 -1      1227 7.49004E-02
 -1      1228 5.39639E-02
 -1      1229 4.24740E-02
 -1      1230 3.12298E-02
 -1      1231 2.04609E-02
 -1      1232 1.00135E-02
 -1      1233 4.73370E-03
 -1      1234 5.32438E-03
 -1      1235 5.48458E-03
 -1      1236 4.97986E-03
 -1      1237 3.29684E-03
 -1      1238 2.73678E-03
 -1      1239 4.06177E-03
 -1      1240 5.01351E-03
 -1      1241 5.25851E-03
 -1      1242 5.01785E-03
 -1      1243 4.05817E-03
 -1      1244 2.64346E-03
 -1      1245 3.13187E-03
 -1      1246 4.73186E-03
 -1      1247 5.14776E-03
 -1      1248 5.31802E-03
 -1      1249 5.20675E-03
 -1      1250 2.52228E+01
 -1      1251 3.67021E+01
 -1      1252 4.83606E+01
 -1      1253 3.51916E+01
 -1      1254 1.75160E+01
 -1      1255 1.30096E+01
 -1      1256 1.28666E+01
 -1      1257 1.26168E+01
 -1      1258 1.23796E+01
 -1      1259 1.31044E+01
 -1      1260 2.36225E+01
 -1      1261 3.32852E+01
 -1      1262 2.99544E+01
 -1      1263 2.57122E+01
 -1      1264 2.47592E+01
 -1      1265 2.47692E+01
 -1      1266 3.24374E+01
 -1      1267 4.00539E+01
 -1      1268 2.75340E+01
 -1      1269 1.34709E+01
 -1      1270 1.22407E+01
 -1      1271 1.25536E+01
 -1      1272 1.24040E+01
 -1      1273 1.22543E+01
 -1      1274 1.18947E+01
 -1      1275 1.63557E+01
 -1      1276 3.48163E+01
 -1      1277 4.84562E+01
 -1      1278 3.69291E+01
 -1      1279 2.54020E+01
 -1      1280 1.31306E+01
 -1      1281 4.82545E+00
 -1      1282 9.57814E+00
 -1      1283 2.03539E+00
 -1      1284 2.94857E+00
 -1      1285 4.14877E+00
 -1      1286 1.38730E+00
 -1      1287 1.64748E+00
 -1      1288 1.88399E+00
 -1      1289 1.09054E+00
 -1      1290 1.21381E+00
 -1      1291 1.32258E+00
 -1      1292 9.23597E-01
 -1      1293 9.96502E-01
 -1      1294 1.05505E+00
 -1      1295 8.21267E-01
 -1      1296 8.68250E-01
 -1      1297 9.05671E-01
 -1      1298 7.56822E-01
 -1      1299 7.85551E-01
 -1      1300 8.14608E-01
 -1      1301 7.37018E-01
 -1      1302 7.35885E-01
 -1      1303 7.57955E-01
 -1      1304 7.89658E-01
 -1      1305 7.59820E-01
 -1      1306 7.59820E-01
 -1      1307 8.70280E-01
 -1      1308 8.25081E-01
 -1      1309 8.18045E-01
 -1      1310 1.00541E+00
 -1      1311 9.28589E-01
 -1      1312 9.11777E-01
 -1      1313 1.22941E+00
 -1      1314 1.10195E+00
 -1      1315 1.06663E+00
 -1      1316 1.66201E+00
 -1      1317 1.40649E+00
 -1      1318 1.34024E+00
 -1      1319 2.85636E+00
 -1      1320 2.02664E+00
 -1      1321 1.88194E+00
 -1      1322 6.25189E+00
 -1      1323 3.68287E+00
 -1      1324 3.07308E+00
 -1      1325 1.40281E+01
 -1      1326 1.13161E+01
 -1      1327 8.96383E+00
 -1      1328 1.40281E+01
 -1      1329 8.73747E+00
 -1      1330 4.34431E+00
 -1      1331 3.85374E+00
 -1      1332 3.36318E+00
 -1      1333 3.85374E+00
 -1      1334 2.74859E+00
 -1      1335 2.13400E+00
 -1      1336 2.74859E+00
 -1      1337 1.79692E+00
 -1      1338 1.43829E+00
 -1      1339 1.79692E+00
 -1      1340 1.25419E+00
 -1      1341 1.09164E+00
 -1      1342 1.27574E+00
 -1      1343 9.79274E-01
 -1      1344 8.66906E-01
 -1      1345 9.79274E-01
 -1      1346 7.83703E-01
 -1      1347 7.00499E-01
 -1      1348 7.83703E-01
 -1      1349 6.35563E-01
 -1      1350 5.70626E-01
 -1      1351 6.35563E-01
 -1      1352 5.17447E-01
 -1      1353 4.64269E-01
 -1      1354 5.17447E-01
 -1      1355 4.44204E-01
 -1      1356 4.40371E-01
 -1      1357 4.44204E-01
 -1      1358 4.56602E-01
 -1      1359 4.71750E-01
 -1      1360 4.40371E-01
 -1      1361 4.86899E-01
 -1      1362 4.96441E-01
 -1      1363 4.71750E-01
 -1      1364 5.05984E-01
 -1      1365 5.49226E-01
 -1      1366 4.96441E-01
 -1      1367 5.95129E-01
 -1      1368 6.71681E-01
 -1      1369 5.51888E-01
 -1      1370 7.45570E-01
 -1      1371 8.08323E-01
 -1      1372 6.71681E-01
 -1      1373 8.71075E-01
 -1      1374 8.97887E-01
 -1      1375 8.08323E-01
 -1      1376 9.24698E-01
 -1      1377 9.24698E-01
 -1      1378 8.97887E-01
 -1      1379 9.07602E-01
 -1      1380 9.23797E-01
 -1      1381 9.07602E-01
 -1      1382 9.57088E-01
 -1      1383 9.66273E-01
 -1      1384 9.23797E-01
 -1      1385 9.75458E-01
 -1      1386 1.14118E+00
 -1      1387 9.66273E-01
 -1      1388 1.30691E+00
 -1      1389 1.65226E+00
 -1      1390 1.14118E+00
 -1      1391 1.99761E+00
 -1      1392 2.41319E+00
 -1      1393 1.65226E+00
 -1      1394 2.82876E+00
 -1      1395 2.95690E+00
 -1      1396 2.41319E+00
 -1      1397 3.08503E+00
 -1      1398 3.08896E+00
 -1      1399 2.95690E+00
 -1      1400 3.09290E+00
 -1      1401 3.09290E+00
 -1      1402 3.08896E+00
 -1      1403 2.94634E+00
 -1      1404 2.79979E+00
 -1      1405 2.94634E+00
 -1      1406 2.37466E+00
 -1      1407 1.94952E+00
 -1      1408 2.37466E+00
 -1      1409 1.62470E+00
 -1      1410 1.29989E+00
 -1      1411 1.62470E+00
 -1      1412 1.13102E+00
 -1      1413 9.62160E-01
 -1      1414 1.13102E+00
 -1      1415 9.60267E-01
 -1      1416 9.58373E-01
 -1      1417 9.60267E-01
 -1      1418 9.22423E-01
 -1      1419 8.95255E-01
 -1      1420 9.22423E-01
 -1      1421 9.04038E-01
 -1      1422 9.04038E-01
 -1      1423 8.95255E-01
 -1      1424 8.74172E-01
 -1      1425 8.44305E-01
 -1      1426 8.74172E-01
 -1      1427 7.81177E-01
 -1      1428 7.18048E-01
 -1      1429 7.81177E-01
 -1      1430 6.56482E-01
 -1      1431 5.82823E-01
 -1      1432 6.56482E-01
 -1      1433 5.38873E-01
 -1      1434 4.81169E-01
 -1      1435 5.50966E-01
 -1      1436 4.40150E-01
 -1      1437 4.00901E-01
 -1      1438 4.65998E-01
 -1      1439 3.57961E-01
 -1      1440 3.30580E-01
 -1      1441 3.82038E-01
 -1      1442 2.93138E-01
 -1      1443 2.64215E-01
 -1      1444 3.01657E-01
 -1      1445 2.36777E-01
 -1      1446 2.09339E-01
 -1      1447 2.36777E-01
 -1      1448 1.86561E-01
 -1      1449 1.62230E-01
 -1      1450 1.86561E-01
 -1      1451 1.43665E-01
 -1      1452 1.23088E-01
 -1      1453 1.45218E-01
 -1      1454 1.07337E-01
 -1      1455 9.40800E-02
 -1      1456 1.10902E-01
 -1      1457 8.53381E-02
 -1      1458 7.76678E-02
 -1      1459 8.64097E-02
 -1      1460 6.99764E-02
 -1      1461 6.22850E-02
 -1      1462 6.99764E-02
 -1      1463 5.45475E-02
 -1      1464 4.68099E-02
 -1      1465 5.45475E-02
 -1      1466 3.85998E-02
 -1      1467 3.03897E-02
 -1      1468 3.85998E-02
 -1      1469 2.40218E-02
 -1      1470 1.70757E-02
 -1      1471 2.40218E-02
 -1      1472 1.09929E-02
 -1      1473 1.15711E-02
 -1      1474 3.42444E+00
 -1      1475 8.72626E+00
 -1      1476 8.72626E+00
 -1      1477 2.44355E+00
 -1      1478 2.93399E+00
 -1      1479 2.93399E+00
 -1      1480 1.70009E+00
 -1      1481 2.07182E+00
 -1      1482 2.07182E+00
 -1      1483 1.20448E+00
 -1      1484 1.45229E+00
 -1      1485 1.45229E+00
 -1      1486 1.01032E+00
 -1      1487 1.10740E+00
 -1      1488 1.10740E+00
 -1      1489 8.64366E-01
 -1      1490 9.37345E-01
 -1      1491 9.37345E-01
 -1      1492 7.55554E-01
 -1      1493 8.09960E-01
 -1      1494 8.09960E-01
 -1      1495 6.76320E-01
 -1      1496 7.15937E-01
 -1      1497 7.15937E-01
 -1      1498 6.21846E-01
 -1      1499 6.49083E-01
 -1      1500 6.49083E-01
 -1      1501 5.87331E-01
 -1      1502 6.04588E-01
 -1      1503 6.04588E-01
 -1      1504 6.03340E-01
 -1      1505 5.76689E-01
 -1      1506 5.76689E-01
 -1      1507 6.89529E-01
 -1      1508 6.40633E-01
 -1      1509 6.03340E-01
 -1      1510 7.86534E-01
 -1      1511 7.38425E-01
 -1      1512 6.89529E-01
 -1      1513 8.70154E-01
 -1      1514 8.34643E-01
 -1      1515 7.86534E-01
 -1      1516 9.16485E-01
 -1      1517 9.05665E-01
 -1      1518 8.70154E-01
 -1      1519 1.09873E+00
 -1      1520 9.74566E-01
 -1      1521 9.63746E-01
 -1      1522 1.34698E+00
 -1      1523 1.19345E+00
 -1      1524 1.11654E+00
 -1      1525 1.56023E+00
 -1      1526 1.48269E+00
 -1      1527 1.34698E+00
 -1      1528 1.80660E+00
 -1      1529 1.63777E+00
 -1      1530 1.56023E+00
 -1      1531 2.00178E+00
 -1      1532 1.97544E+00
 -1      1533 1.80660E+00
 -1      1534 2.24248E+00
 -1      1535 2.02812E+00
 -1      1536 2.00178E+00
 -1      1537 2.94611E+00
 -1      1538 2.45685E+00
 -1      1539 2.24248E+00
 -1      1540 4.05522E+00
 -1      1541 3.43537E+00
 -1      1542 2.94611E+00
 -1      1543 4.98962E+00
 -1      1544 4.67508E+00
 -1      1545 4.05522E+00
 -1      1546 5.30417E+00
 -1      1547 5.30417E+00
 -1      1548 4.98962E+00
 -1      1549 4.69690E+00
 -1      1550 5.00053E+00
 -1      1551 5.00053E+00
 -1      1552 2.66054E+00
 -1      1553 3.67872E+00
 -1      1554 3.67872E+00
 -1      1555 1.64559E+00
 -1      1556 2.15307E+00
 -1      1557 2.15307E+00
 -1      1558 1.63759E+00
 -1      1559 1.59540E+00
 -1      1560 1.59540E+00
 -1      1561 1.81228E+00
 -1      1562 1.72997E+00
 -1      1563 1.63759E+00
 -1      1564 1.89458E+00
 -1      1565 1.89458E+00
 -1      1566 1.81228E+00
 -1      1567 1.75962E+00
 -1      1568 1.82710E+00
 -1      1569 1.82710E+00
 -1      1570 1.49054E+00
 -1      1571 1.62508E+00
 -1      1572 1.62508E+00
 -1      1573 1.24644E+00
 -1      1574 1.36849E+00
 -1      1575 1.36849E+00
 -1      1576 1.00877E+00
 -1      1577 1.13354E+00
 -1      1578 1.13354E+00
 -1      1579 7.86968E-01
 -1      1580 9.02027E-01
 -1      1581 9.13903E-01
 -1      1582 5.93418E-01
 -1      1583 6.91697E-01
 -1      1584 7.11892E-01
 -1      1585 4.35693E-01
 -1      1586 5.13517E-01
 -1      1587 5.36720E-01
 -1      1588 3.25060E-01
 -1      1589 3.72479E-01
 -1      1590 3.93606E-01
 -1      1591 2.41042E-01
 -1      1592 2.80384E-01
 -1      1593 2.85717E-01
 -1      1594 1.77737E-01
 -1      1595 2.09390E-01
 -1      1596 2.09390E-01
 -1      1597 1.28709E-01
 -1      1598 1.53589E-01
 -1      1599 1.53589E-01
 -1      1600 9.13166E-02
 -1      1601 1.10526E-01
 -1      1602 1.11257E-01
 -1      1603 6.26030E-02
 -1      1604 7.72622E-02
 -1      1605 7.90193E-02
 -1      1606 4.76865E-02
 -1      1607 5.39639E-02
 -1      1608 5.63257E-02
 -1      1609 3.72615E-02
 -1      1610 4.24740E-02
 -1      1611 4.24740E-02
 -1      1612 2.51980E-02
 -1      1613 3.12298E-02
 -1      1614 3.12298E-02
 -1      1615 1.57237E-02
 -1      1616 2.04609E-02
 -1      1617 2.04609E-02
 -1      1618 1.04439E-02
 -1      1619 7.02126E-03
 -1      1620 6.86107E-03
 -1      1621 7.73450E-03
 -1      1622 7.73450E-03
 -1      1623 9.27119E-03
 -1      1624 7.22979E-03
 -1      1625 7.73450E-03
 -1      1626 9.98442E-03
 -1      1627 4.56931E-03
 -1      1628 5.74762E-03
 -1      1629 8.50226E-03
 -1      1630 5.12094E-03
 -1      1631 4.50269E-03
 -1      1632 6.95347E-03
 -1      1633 7.34013E-03
 -1      1634 6.63340E-03
 -1      1635 8.39931E-03
 -1      1636 8.20930E-03
 -1      1637 7.96430E-03
 -1      1638 1.05359E-02
 -1      1639 8.20930E-03
 -1      1640 8.20930E-03
 -1      1641 1.11601E-02
 -1      1642 7.95445E-03
 -1      1643 8.19511E-03
 -1      1644 1.11459E-02
 -1      1645 6.57203E-03
 -1      1646 7.29104E-03
 -1      1647 1.04683E-02
 -1      1648 4.43148E-03
 -1      1649 5.12718E-03
 -1      1650 8.36005E-03
 -1      1651 5.42515E-03
 -1      1652 4.24104E-03
 -1      1653 6.72476E-03
 -1      1654 7.54030E-03
 -1      1655 7.12441E-03
 -1      1656 8.23358E-03
 -1      1657 7.54030E-03
 -1      1658 7.54030E-03
 -1      1659 9.93284E-03
 -1      1660 7.63407E-03
 -1      1661 7.46381E-03
 -1      1662 9.85635E-03
 -1      1663 1.37169E-02
 -1      1664 2.83511E+01
 -1      1665 2.85303E+01
 -1      1666 3.93313E+01
 -1      1667 2.76728E+01
 -1      1668 4.83606E+01
 -1      1669 4.83606E+01
 -1      1670 2.26223E+01
 -1      1671 3.57914E+01
 -1      1672 1.26100E+01
 -1      1673 1.71165E+01
 -1      1674 1.30096E+01
 -1      1675 1.30096E+01
 -1      1676 1.27236E+01
 -1      1677 1.28666E+01
 -1      1678 1.25100E+01
 -1      1679 1.26168E+01
 -1      1680 1.22491E+01
 -1      1681 1.23796E+01
 -1      1682 1.27659E+01
 -1      1683 1.19106E+01
 -1      1684 2.36225E+01
 -1      1685 1.39598E+01
 -1      1686 3.32852E+01
 -1      1687 3.32852E+01
 -1      1688 2.96178E+01
 -1      1689 3.29486E+01
 -1      1690 2.55630E+01
 -1      1691 2.64743E+01
 -1      1692 2.58284E+01
 -1      1693 2.58701E+01
 -1      1694 2.58801E+01
 -1      1695 2.58284E+01
 -1      1696 3.81275E+01
 -1      1697 3.05110E+01
 -1      1698 4.00539E+01
 -1      1699 4.00539E+01
 -1      1700 1.50376E+01
 -1      1701 2.75575E+01
 -1      1702 1.12188E+01
 -1      1703 1.27620E+01
 -1      1704 1.22407E+01
 -1      1705 1.19277E+01
 -1      1706 1.25536E+01
 -1      1707 1.25536E+01
 -1      1708 1.19799E+01
 -1      1709 1.21295E+01
 -1      1710 1.22543E+01
 -1      1711 1.22543E+01
 -1      1712 1.15351E+01
 -1      1713 1.18947E+01
 -1      1714 1.61250E+01
 -1      1715 1.13044E+01
 -1      1716 3.57597E+01
 -1      1717 2.21198E+01
 -1      1718 4.84562E+01
 -1      1719 4.84562E+01
 -1      1720 2.78643E+01
 -1      1721 3.93914E+01
 -1      1722 2.85303E+01
 -1      1723 2.85303E+01
 -1      1724 1.77163E+01
 -1      1725 3.57914E+01
 -1      1726 1.04439E-02
 -1      1727 1.21408E-02
 -1      1728 3.09803E+01
 -1      1729 3.93313E+01
 -1      1730 3.16587E+01
 -1      1731 1.26100E+01
 -1      1732 1.28666E+01
 -1      1733 1.26168E+01
 -1      1734 1.23796E+01
 -1      1735 1.19106E+01
 -1      1736 1.27659E+01
 -1      1737 2.36225E+01
 -1      1738 3.29486E+01
 -1      1739 2.94686E+01
 -1      1740 2.66322E+01
 -1      1741 2.69394E+01
 -1      1742 3.15703E+01
 -1      1743 3.81275E+01
 -1      1744 2.75575E+01
 -1      1745 1.27855E+01
 -1      1746 1.12188E+01
 -1      1747 1.22407E+01
 -1      1748 1.21295E+01
 -1      1749 1.19799E+01
 -1      1750 1.18947E+01
 -1      1751 1.13044E+01
 -1      1752 1.70684E+01
 -1      1753 3.57597E+01
 -1      1754 3.93914E+01
 -1      1755 3.09926E+01
 -1      1756 9.57814E+00
 -1      1757 1.27302E+00
 -1      1758 1.66093E+00
 -1      1759 2.35711E+00
 -1      1760 4.23399E+00
 -1      1761 1.74615E+00
 -1      1762 8.70858E-01
 -1      1763 9.64894E-01
 -1      1764 7.67629E-01
 -1      1765 8.22976E-01
 -1      1766 7.32816E-01
 -1      1767 6.99121E-01
 -1      1768 7.34837E-01
 -1      1769 6.52141E-01
 -1      1770 6.54871E-01
 -1      1771 6.75808E-01
 -1      1772 5.96036E-01
 -1      1773 6.79416E-01
 -1      1774 6.56614E-01
 -1      1775 5.74466E-01
 -1      1776 7.37790E-01
 -1      1777 7.02367E-01
 -1      1778 5.99161E-01
 -1      1779 8.30634E-01
 -1      1780 7.72326E-01
 -1      1781 6.56648E-01
 -1      1782 9.75687E-01
 -1      1783 8.79146E-01
 -1      1784 7.39695E-01
 -1      1785 1.22091E+00
 -1      1786 1.04383E+00
 -1      1787 8.56354E-01
 -1      1788 1.69251E+00
 -1      1789 1.32787E+00
 -1      1790 1.03147E+00
 -1      1791 2.60061E+00
 -1      1792 1.77410E+00
 -1      1793 1.22003E+00
 -1      1794 8.10774E+00
 -1      1795 3.04350E+00
 -1      1796 1.74451E+00
 -1      1797 2.80592E+00
 -1      1798 5.18498E+00
 -1      1799 2.16835E+00
 -1      1800 2.65880E+00
 -1      1801 2.04028E+00
 -1      1802 3.39332E+00
 -1      1803 2.55059E+00
 -1      1804 1.93600E+00
 -1      1805 1.70209E+00
 -1      1806 1.36501E+00
 -1      1807 1.50410E+00
 -1      1808 1.18085E+00
 -1      1809 9.96755E-01
 -1      1810 1.08603E+00
 -1      1811 8.93464E-01
 -1      1812 7.81096E-01
 -1      1813 7.98577E-01
 -1      1814 7.28859E-01
 -1      1815 6.45656E-01
 -1      1816 6.43049E-01
 -1      1817 5.96984E-01
 -1      1818 5.32048E-01
 -1      1819 5.42141E-01
 -1      1820 4.86408E-01
 -1      1821 4.33229E-01
 -1      1822 4.47829E-01
 -1      1823 3.91816E-01
 -1      1824 3.71752E-01
 -1      1825 3.60777E-01
 -1      1826 3.88577E-01
 -1      1827 4.04808E-01
 -1      1828 3.36189E-01
 -1      1829 4.19452E-01
 -1      1830 4.34600E-01
 -1      1831 3.67658E-01
 -1      1832 4.44592E-01
 -1      1833 4.54135E-01
 -1      1834 3.92294E-01
 -1      1835 4.95944E-01
 -1      1836 5.41848E-01
 -1      1837 4.44095E-01
 -1      1838 5.88274E-01
 -1      1839 6.62163E-01
 -1      1840 5.32330E-01
 -1      1841 7.00556E-01
 -1      1842 7.63308E-01
 -1      1843 6.17149E-01
 -1      1844 7.71515E-01
 -1      1845 7.98326E-01
 -1      1846 6.63748E-01
 -1      1847 7.56622E-01
 -1      1848 7.39526E-01
 -1      1849 6.30250E-01
 -1      1850 6.80882E-01
 -1      1851 7.14173E-01
 -1      1852 5.29902E-01
 -1      1853 7.45585E-01
 -1      1854 7.54770E-01
 -1      1855 5.02670E-01
 -1      1856 9.54897E-01
 -1      1857 1.12062E+00
 -1      1858 7.34209E-01
 -1      1859 1.33112E+00
 -1      1860 1.67647E+00
 -1      1861 1.14484E+00
 -1      1862 1.87556E+00
 -1      1863 2.29113E+00
 -1      1864 1.55442E+00
 -1      1865 2.39999E+00
 -1      1866 2.52813E+00
 -1      1867 1.86237E+00
 -1      1868 2.47406E+00
 -1      1869 2.47799E+00
 -1      1870 1.91716E+00
 -1      1871 2.53231E+00
 -1      1872 2.38575E+00
 -1      1873 1.91741E+00
 -1      1874 2.26789E+00
 -1      1875 1.84275E+00
 -1      1876 1.85385E+00
 -1      1877 1.64516E+00
 -1      1878 1.32034E+00
 -1      1879 1.53839E+00
 -1      1880 1.10391E+00
 -1      1881 9.35046E-01
 -1      1882 1.12436E+00
 -1      1883 7.32949E-01
 -1      1884 7.31055E-01
 -1      1885 7.05834E-01
 -1      1886 7.18666E-01
 -1      1887 6.82715E-01
 -1      1888 4.91348E-01
 -1      1889 7.38644E-01
 -1      1890 7.47428E-01
 -1      1891 5.34888E-01
 -1      1892 7.87206E-01
 -1      1893 7.57340E-01
 -1      1894 6.30596E-01
 -1      1895 7.49582E-01
 -1      1896 6.86454E-01
 -1      1897 6.62617E-01
 -1      1898 6.51145E-01
 -1      1899 5.89579E-01
 -1      1900 6.19551E-01
 -1      1901 5.57962E-01
 -1      1902 5.14012E-01
 -1      1903 5.52625E-01
 -1      1904 4.84353E-01
 -1      1905 4.43334E-01
 -1      1906 4.91349E-01
 -1      1907 4.07185E-01
 -1      1908 3.64245E-01
 -1      1909 4.25541E-01
 -1      1910 3.26840E-01
 -1      1911 2.89398E-01
 -1      1912 3.51986E-01
 -1      1913 2.54460E-01
 -1      1914 2.27021E-01
 -1      1915 2.79642E-01
 -1      1916 1.96520E-01
 -1      1917 1.73742E-01
 -1      1918 2.14203E-01
 -1      1919 1.48426E-01
 -1      1920 1.29861E-01
 -1      1921 1.58385E-01
 -1      1922 1.10902E-01
 -1      1923 9.51516E-02
 -1      1924 1.14110E-01
 -1      1925 8.22171E-02
 -1      1926 7.34752E-02
 -1      1927 8.22171E-02
 -1      1928 6.38699E-02
 -1      1929 5.61786E-02
 -1      1930 5.96773E-02
 -1      1931 4.91895E-02
 -1      1932 4.14520E-02
 -1      1933 4.30831E-02
 -1      1934 3.63049E-02
 -1      1935 2.80948E-02
 -1      1936 3.09470E-02
 -1      1937 2.35486E-02
 -1      1938 1.71807E-02
 -1      1939 1.32437E-02
 -1      1940 2.12537E-02
 -1      1941 1.42389E+00
 -1      1942 1.79562E+00
 -1      1943 1.52042E+00
 -1      1944 1.04504E+00
 -1      1945 1.29285E+00
 -1      1946 1.01665E+00
 -1      1947 8.48132E-01
 -1      1948 9.45211E-01
 -1      1949 7.85772E-01
 -1      1950 7.15141E-01
 -1      1951 7.88121E-01
 -1      1952 6.25929E-01
 -1      1953 6.41624E-01
 -1      1954 6.96029E-01
 -1      1955 5.46805E-01
 -1      1956 5.83586E-01
 -1      1957 6.23203E-01
 -1      1958 5.09273E-01
 -1      1959 5.40274E-01
 -1      1960 5.67511E-01
 -1      1961 4.74777E-01
 -1      1962 5.09715E-01
 -1      1963 5.26973E-01
 -1      1964 4.45401E-01
 -1      1965 5.18531E-01
 -1      1966 5.29173E-01
 -1      1967 4.51557E-01
 -1      1968 6.28917E-01
 -1      1969 5.91624E-01
 -1      1970 5.44107E-01
 -1      1971 7.78628E-01
 -1      1972 7.29732E-01
 -1      1973 7.18016E-01
 -1      1974 9.27514E-01
 -1      1975 8.79404E-01
 -1      1976 9.19608E-01
 -1      1977 1.04898E+00
 -1      1978 1.01347E+00
 -1      1979 1.10634E+00
 -1      1980 1.18280E+00
 -1      1981 1.12472E+00
 -1      1982 1.26804E+00
 -1      1983 1.30338E+00
 -1      1984 1.20866E+00
 -1      1985 1.36963E+00
 -1      1986 1.43909E+00
 -1      1987 1.30338E+00
 -1      1988 1.39549E+00
 -1      1989 1.43684E+00
 -1      1990 1.35930E+00
 -1      1991 1.31570E+00
 -1      1992 1.57279E+00
 -1      1993 1.40396E+00
 -1      1994 1.20302E+00
 -1      1995 1.71113E+00
 -1      1996 1.68478E+00
 -1      1997 1.28214E+00
 -1      1998 2.35309E+00
 -1      1999 2.13872E+00
 -1      2000 1.82173E+00
 -1      2001 3.11277E+00
 -1      2002 2.62351E+00
 -1      2003 2.51975E+00
 -1      2004 3.89864E+00
 -1      2005 3.27878E+00
 -1      2006 2.95618E+00
 -1      2007 4.21947E+00
 -1      2008 3.90492E+00
 -1      2009 3.12848E+00
 -1      2010 3.76241E+00
 -1      2011 4.06605E+00
 -1      2012 2.98135E+00
 -1      2013 2.30059E+00
 -1      2014 3.31877E+00
 -1      2015 2.38428E+00
 -1      2016 1.39309E+00
 -1      2017 1.90057E+00
 -1      2018 1.54061E+00
 -1      2019 1.33174E+00
 -1      2020 1.38194E+00
 -1      2021 1.12944E+00
 -1      2022 1.54935E+00
 -1      2023 1.45697E+00
 -1      2024 1.24351E+00
 -1      2025 1.64841E+00
 -1      2026 1.56611E+00
 -1      2027 1.38549E+00
 -1      2028 1.57344E+00
 -1      2029 1.64092E+00
 -1      2030 1.39475E+00
 -1      2031 1.37475E+00
 -1      2032 1.50929E+00
 -1      2033 1.32311E+00
 -1      2034 1.18181E+00
 -1      2035 1.30386E+00
 -1      2036 1.18806E+00
 -1      2037 9.82310E-01
 -1      2038 1.09521E+00
 -1      2039 1.03057E+00
 -1      2040 7.84716E-01
 -1      2041 8.91456E-01
 -1      2042 8.53123E-01
 -1      2043 6.05281E-01
 -1      2044 7.00552E-01
 -1      2045 6.78105E-01
 -1      2046 4.52948E-01
 -1      2047 5.32849E-01
 -1      2048 5.21509E-01
 -1      2049 3.30393E-01
 -1      2050 3.93606E-01
 -1      2051 3.89735E-01
 -1      2052 2.38811E-01
 -1      2053 2.83487E-01
 -1      2054 2.83487E-01
 -1      2055 1.76764E-01
 -1      2056 2.08417E-01
 -1      2057 2.06186E-01
 -1      2058 1.29440E-01
 -1      2059 1.53589E-01
 -1      2060 1.52616E-01
 -1      2061 9.30737E-02
 -1      2062 1.11257E-01
 -1      2063 1.11257E-01
 -1      2064 6.49649E-02
 -1      2065 7.90193E-02
 -1      2066 7.90193E-02
 -1      2067 4.55628E-02
 -1      2068 5.42020E-02
 -1      2069 5.42020E-02
 -1      2070 3.28406E-02
 -1      2071 3.80531E-02
 -1      2072 3.59294E-02
 -1      2073 2.16887E-02
 -1      2074 2.77204E-02
 -1      2075 2.32995E-02
 -1      2076 1.26151E-02
 -1      2077 1.73523E-02
 -1      2078 1.38429E-02
 -1      2079 9.03223E-03
 -1      2080 9.68609E-03
 -1      2081 1.11683E-02
 -1      2082 1.28644E-02
 -1      2083 1.28644E-02
 -1      2084 1.40482E-02
 -1      2085 1.28644E-02
 -1      2086 1.21511E-02
 -1      2087 1.26254E-02
 -1      2088 1.57443E-02
 -1      2089 8.46149E-03
 -1      2090 8.52810E-03
 -1      2091 1.11941E-02
 -1      2092 1.23616E-02
 -1      2093 1.08492E-02
 -1      2094 1.24238E-02
 -1      2095 1.41421E-02
 -1      2096 1.35179E-02
 -1      2097 1.59678E-02
 -1      2098 1.41421E-02
 -1      2099 1.41421E-02
 -1      2100 1.71240E-02
 -1      2101 1.40244E-02
 -1      2102 1.40385E-02
 -1      2103 1.70205E-02
 -1      2104 1.33610E-02
 -1      2105 1.40244E-02
 -1      2106 1.69170E-02
 -1      2107 1.07551E-02
 -1      2108 1.22000E-02
 -1      2109 1.57560E-02
 -1      2110 8.21285E-03
 -1      2111 8.40329E-03
 -1      2112 1.22432E-02
 -1      2113 1.10875E-02
 -1      2114 9.38820E-03
 -1      2115 1.10667E-02
 -1      2116 1.25127E-02
 -1      2117 1.25127E-02
 -1      2118 1.36673E-02
 -1      2119 3.93313E+01
 -1      2120 3.03020E+01
 -1      2121 3.21565E+01
 -1      2122 3.21565E+01
 -1      2123 3.14782E+01
 -1      2124 3.21565E+01
 -1      2125 3.26543E+01
 -1      2126 2.03588E+01
 -1      2127 3.29281E+01
 -1      2128 1.10350E+01
 -1      2129 1.65409E+01
 -1      2130 1.36776E+01
 -1      2131 1.02755E+00
 -1      2132 1.20104E+00
 -1      2133 9.77989E-01
 -1      2134 8.43356E-01
 -1      2135 1.10391E+01
 -1      2136 1.11821E+01
 -1      2137 1.15449E+01
 -1      2138 1.16517E+01
 -1      2139 1.13246E+01
 -1      2140 1.14550E+01
 -1      2141 1.03739E+01
 -1      2142 1.07124E+01
 -1      2143 1.08462E+01
 -1      2144 9.65233E+00
 -1      2145 2.29961E+01
 -1      2146 1.33334E+01
 -1      2147 2.70551E+01
 -1      2148 2.73916E+01
 -1      2149 2.54610E+01
 -1      2150 2.86045E+01
 -1      2151 3.25840E+01
 -1      2152 3.22769E+01
 -1      2153 3.25840E+01
 -1      2154 3.25840E+01
 -1      2155 3.19671E+01
 -1      2156 2.73362E+01
 -1      2157 3.21421E+01
 -1      2158 3.02158E+01
 -1      2159 1.45280E+01
 -1      2160 2.70244E+01
 -1      2161 9.07471E+00
 -1      2162 1.13503E+01
 -1      2163 9.93163E+00
 -1      2164 9.22274E+00
 -1      2165 1.10112E+01
 -1      2166 1.06983E+01
 -1      2167 1.16789E+01
 -1      2168 1.21030E+01
 -1      2169 1.17699E+01
 -1      2170 1.14955E+01
 -1      2171 1.14690E+01
 -1      2172 1.03798E+01
 -1      2173 1.07394E+01
 -1      2174 9.04231E+00
 -1      2175 9.27302E+00
 -1      2176 1.64946E+01
 -1      2177 1.04999E+01
 -1      2178 3.29294E+01
 -1      2179 2.02328E+01
 -1      2180 3.03265E+01
 -1      2181 3.93914E+01
 -1      2182 2.38645E+01
 -1      2183 3.07294E+01
 -1      2184 3.00633E+01
 -1      2185 9.74272E+00
 -1      2186 9.34315E+00
 -1      2187 8.16775E+00
 -1      2188 2.90275E+00
 -1      2189 9.78790E+00
 -1      2190 7.91524E+00
 -1      2191 2.09017E+00
 -1      2192 3.14782E+01
 -1      2193 2.38988E+01
 -1      2194 1.24362E-02
 -1      2195 3.12272E+01
 -1      2196 3.00633E+01
 -1      2197 1.36643E+01
 -1      2198 8.46853E+00
 -1      2199 1.02550E+01
 -1      2200 1.05606E+01
 -1      2201 8.70217E+00
 -1      2202 7.78751E+00
 -1      2203 1.08172E+01
 -1      2204 1.91127E+01
 -1      2205 2.59817E+01
 -1      2206 3.29808E+01
 -1      2207 3.82286E+01
 -1      2208 3.14128E+01
 -1      2209 2.30475E+01
 -1      2210 1.71025E+01
 -1      2211 1.02199E+01
 -1      2212 8.45422E+00
 -1      2213 9.96714E+00
 -1      2214 1.04899E+01
 -1      2215 8.11774E+00
 -1      2216 1.09915E+00
 -1      2217 1.47188E+00
 -1      2218 5.48285E-01
 -1      2219 5.81077E-01
 -1      2220 5.94886E-01
 -1      2221 6.42768E-01
 -1      2222 4.91029E-01
 -1      2223 4.96142E-01
 -1      2224 4.94399E-01
 -1      2225 5.33421E-01
 -1      2226 5.10469E-01
 -1      2227 4.30402E-01
 -1      2228 5.84432E-01
 -1      2229 5.49896E-01
 -1      2230 4.61204E-01
 -1      2231 6.46673E-01
 -1      2232 5.98161E-01
 -1      2233 4.91409E-01
 -1      2234 7.14820E-01
 -1      2235 6.46673E-01
 -1      2236 5.05138E-01
 -1      2237 8.66265E-01
 -1      2238 7.59298E-01
 -1      2239 5.49616E-01
 -1      2240 8.85603E-01
 -1      2241 1.01665E+00
 -1      2242 9.68102E-01
 -1      2243 1.25767E+00
 -1      2244 1.02376E+00
 -1      2245 8.54905E+00
 -1      2246 9.16120E+00
 -1      2247 9.77973E-01
 -1      2248 7.93814E-01
 -1      2249 7.31550E-01
 -1      2250 7.29647E-01
 -1      2251 6.26355E-01
 -1      2252 6.21592E-01
 -1      2253 5.59765E-01
 -1      2254 5.07528E-01
 -1      2255 4.90835E-01
 -1      2256 4.83005E-01
 -1      2257 4.34334E-01
 -1      2258 3.99721E-01
 -1      2259 4.03018E-01
 -1      2260 3.57378E-01
 -1      2261 3.43882E-01
 -1      2262 3.21621E-01
 -1      2263 2.80209E-01
 -1      2264 2.76810E-01
 -1      2265 2.77352E-01
 -1      2266 2.94176E-01
 -1      2267 2.38196E-01
 -1      2268 3.08872E-01
 -1      2269 3.23516E-01
 -1      2270 2.50035E-01
 -1      2271 3.61661E-01
 -1      2272 3.71653E-01
 -1      2273 3.02875E-01
 -1      2274 4.15549E-01
 -1      2275 4.57358E-01
 -1      2276 3.84916E-01
 -1      2277 4.94487E-01
 -1      2278 5.40913E-01
 -1      2279 4.65941E-01
 -1      2280 5.70648E-01
 -1      2281 6.09040E-01
 -1      2282 5.32805E-01
 -1      2283 6.44643E-01
 -1      2284 6.52850E-01
 -1      2285 5.98142E-01
 -1      2286 6.67834E-01
 -1      2287 6.26129E-01
 -1      2288 6.48729E-01
 -1      2289 6.46671E-01
 -1      2290 5.88027E-01
 -1      2291 6.84255E-01
 -1      2292 6.63442E-01
 -1      2293 6.94855E-01
 -1      2294 7.80212E-01
 -1      2295 7.33796E-01
 -1      2296 9.33923E-01
 -1      2297 8.94569E-01
 -1      2298 1.07236E+00
 -1      2299 1.28286E+00
 -1      2300 1.07194E+00
 -1      2301 1.35853E+00
 -1      2302 1.55761E+00
 -1      2303 1.28605E+00
 -1      2304 1.70820E+00
 -1      2305 1.81706E+00
 -1      2306 1.51231E+00
 -1      2307 1.96656E+00
 -1      2308 1.91250E+00
 -1      2309 1.81240E+00
 -1      2310 1.91287E+00
 -1      2311 1.96719E+00
 -1      2312 1.96228E+00
 -1      2313 1.81580E+00
 -1      2314 1.69794E+00
 -1      2315 1.81127E+00
 -1      2316 1.54413E+00
 -1      2317 1.34654E+00
 -1      2318 1.50609E+00
 -1      2319 1.26280E+00
 -1      2320 1.04637E+00
 -1      2321 1.26855E+00
 -1      2322 9.04017E-01
 -1      2323 7.01919E-01
 -1      2324 1.04245E+00
 -1      2325 6.74908E-01
 -1      2326 6.62519E-01
 -1      2327 8.73090E-01
 -1      2328 5.87916E-01
 -1      2329 6.43846E-01
 -1      2330 7.71477E-01
 -1      2331 6.41406E-01
 -1      2332 6.81184E-01
 -1      2333 6.94434E-01
 -1      2334 6.70270E-01
 -1      2335 6.62513E-01
 -1      2336 6.81080E-01
 -1      2337 6.32036E-01
 -1      2338 5.96728E-01
 -1      2339 6.39689E-01
 -1      2340 5.67703E-01
 -1      2341 5.36085E-01
 -1      2342 5.80188E-01
 -1      2343 5.07069E-01
 -1      2344 4.77410E-01
 -1      2345 5.22147E-01
 -1      2346 4.43279E-01
 -1      2347 4.07130E-01
 -1      2348 4.59000E-01
 -1      2349 3.70651E-01
 -1      2350 3.33246E-01
 -1      2351 3.88390E-01
 -1      2352 2.98210E-01
 -1      2353 2.63272E-01
 -1      2354 3.16875E-01
 -1      2355 2.31850E-01
 -1      2356 2.01349E-01
 -1      2357 2.50418E-01
 -1      2358 1.74531E-01
 -1      2359 1.49214E-01
 -1      2360 1.92178E-01
 -1      2361 1.27210E-01
 -1      2362 1.08252E-01
 -1      2363 1.43356E-01
 -1      2364 9.08066E-02
 -1      2365 7.78721E-02
 -1      2366 1.03907E-01
 -1      2367 6.44832E-02
 -1      2368 5.48780E-02
 -1      2369 7.30727E-02
 -1      2370 4.49480E-02
 -1      2371 3.79590E-02
 -1      2372 4.97539E-02
 -1      2373 3.08548E-02
 -1      2374 2.57078E-02
 -1      2375 3.27198E-02
 -1      2376 5.50625E-01
 -1      2377 6.10636E-01
 -1      2378 4.98823E-01
 -1      2379 5.17935E-01
 -1      2380 5.02642E-01
 -1      2381 4.43518E-01
 -1      2382 4.61939E-01
 -1      2383 4.33068E-01
 -1      2384 3.88175E-01
 -1      2385 4.04250E-01
 -1      2386 3.56916E-01
 -1      2387 3.73729E-01
 -1      2388 3.87030E-01
 -1      2389 3.16503E-01
 -1      2390 4.21239E-01
 -1      2391 4.01782E-01
 -1      2392 3.43411E-01
 -1      2393 5.66758E-01
 -1      2394 4.93665E-01
 -1      2395 4.43889E-01
 -1      2396 7.61344E-01
 -1      2397 6.60529E-01
 -1      2398 6.10086E-01
 -1      2399 9.61884E-01
 -1      2400 8.61108E-01
 -1      2401 8.03621E-01
 -1      2402 1.14579E+00
 -1      2403 1.05983E+00
 -1      2404 1.00133E+00
 -1      2405 1.30348E+00
 -1      2406 1.22774E+00
 -1      2407 1.18123E+00
 -1      2408 1.38805E+00
 -1      2409 1.36220E+00
 -1      2410 1.32190E+00
 -1      2411 1.50873E+00
 -1      2412 1.50873E+00
 -1      2413 1.50130E+00
 -1      2414 1.52054E+00
 -1      2415 1.60033E+00
 -1      2416 1.71357E+00
 -1      2417 1.51303E+00
 -1      2418 1.54591E+00
 -1      2419 1.83054E+00
 -1      2420 1.87747E+00
 -1      2421 1.76548E+00
 -1      2422 2.10836E+00
 -1      2423 2.18958E+00
 -1      2424 1.76198E+00
 -1      2425 2.24532E+00
 -1      2426 3.30700E+00
 -1      2427 3.03658E+00
 -1      2428 2.97683E+00
 -1      2429 5.52227E+00
 -1      2430 5.35626E+00
 -1      2431 5.87309E+00
 -1      2432 5.73144E+00
 -1      2433 5.72516E+00
 -1      2434 8.12524E+00
 -1      2435 4.81839E+00
 -1      2436 4.97181E+00
 -1      2437 7.56849E+00
 -1      2438 2.31369E+00
 -1      2439 2.75734E+00
 -1      2440 4.74780E+00
 -1      2441 1.64926E+00
 -1      2442 2.04928E+00
 -1      2443 2.42234E+00
 -1      2444 1.57433E+00
 -1      2445 1.58549E+00
 -1      2446 2.09416E+00
 -1      2447 1.61794E+00
 -1      2448 1.49271E+00
 -1      2449 1.94877E+00
 -1      2450 1.55885E+00
 -1      2451 1.54209E+00
 -1      2452 1.79129E+00
 -1      2453 1.43939E+00
 -1      2454 1.44688E+00
 -1      2455 1.60348E+00
 -1      2456 1.29391E+00
 -1      2457 1.35806E+00
 -1      2458 1.41019E+00
 -1      2459 1.15585E+00
 -1      2460 1.22674E+00
 -1      2461 1.26169E+00
 -1      2462 9.80726E-01
 -1      2463 1.06732E+00
 -1      2464 1.10600E+00
 -1      2465 7.97226E-01
 -1      2466 8.88080E-01
 -1      2467 9.24829E-01
 -1      2468 6.26599E-01
 -1      2469 7.10763E-01
 -1      2470 7.45720E-01
 -1      2471 4.78847E-01
 -1      2472 5.51279E-01
 -1      2473 5.83937E-01
 -1      2474 3.56860E-01
 -1      2475 4.16203E-01
 -1      2476 4.45972E-01
 -1      2477 2.59578E-01
 -1      2478 3.06485E-01
 -1      2479 3.32952E-01
 -1      2480 1.89738E-01
 -1      2481 2.20132E-01
 -1      2482 2.43130E-01
 -1      2483 1.36377E-01
 -1      2484 1.59552E-01
 -1      2485 1.73498E-01
 -1      2486 9.55975E-02
 -1      2487 1.13781E-01
 -1      2488 1.20717E-01
 -1      2489 6.50247E-02
 -1      2490 7.90792E-02
 -1      2491 8.16029E-02
 -1      2492 4.29712E-02
 -1      2493 5.37341E-02
 -1      2494 5.37940E-02
 -1      2495 2.96327E-02
 -1      2496 3.71424E-02
 -1      2497 3.66745E-02
 -1      2498 1.98721E-02
 -1      2499 2.49923E-02
 -1      2500 2.62053E-02
 -1      2501 1.69618E-02
 -1      2502 1.74277E-02
 -1      2503 1.50400E-02
 -1      2504 2.05334E-02
 -1      2505 1.93772E-02
 -1      2506 2.19933E-02
 -1      2507 1.41586E-02
 -1      2508 1.58547E-02
 -1      2509 1.33887E-02
 -1      2510 1.45467E-02
 -1      2511 1.63532E-02
 -1      2512 1.83926E-02
 -1      2513 2.06099E-02
 -1      2514 2.06099E-02
 -1      2515 2.40193E-02
 -1      2516 2.05064E-02
 -1      2517 2.06099E-02
 -1      2518 2.40958E-02
 -1      2519 2.04279E-02
 -1      2520 2.04279E-02
 -1      2521 2.40173E-02
 -1      2522 1.90347E-02
 -1      2523 2.01957E-02
 -1      2524 2.37067E-02
 -1      2525 1.46259E-02
 -1      2526 1.69777E-02
 -1      2527 2.14175E-02
 -1      2528 1.66374E-02
 -1      2529 1.54621E-02
 -1      2530 2.01966E-02
 -1      2531 1.78136E-02
 -1      2532 1.63884E-02
 -1      2533 2.07837E-02
 -1      2534 1.54787E+01
 -1      2535 2.18819E+01
 -1      2536 1.59000E-02
 -1      2537 3.12272E+01
 -1      2538 2.98001E+01
 -1      2539 6.85940E-01
 -1      2540 7.85772E-01
 -1      2541 6.10636E-01
 -1      2542 3.26543E+01
 -1      2543 3.26543E+01
 -1      2544 8.92768E+00
 -1      2545 1.27456E+01
 -1      2546 1.65169E+00
 -1      2547 1.29953E+00
 -1      2548 8.19196E-01
 -1      2549 9.55507E-01
 -1      2550 1.28904E+01
 -1      2551 9.15218E+00
 -1      2552 9.55793E+00
 -1      2553 8.46612E+00
 -1      2554 5.08654E-01
 -1      2555 5.31967E-01
 -1      2556 4.60903E-01
 -1      2557 4.30330E-01
 -1      2558 9.36408E+00
 -1      2559 9.45391E+00
 -1      2560 5.69888E+00
 -1      2561 6.80566E+00
 -1      2562 8.08172E+00
 -1      2563 6.64237E+00
 -1      2564 9.45391E+00
 -1      2565 8.84135E+00
 -1      2566 7.56849E+00
 -1      2567 6.09263E+00
 -1      2568 6.81416E+00
 -1      2569 6.18746E+00
 -1      2570 9.76316E+00
 -1      2571 7.27600E+00
 -1      2572 1.64242E+01
 -1      2573 1.20286E+01
 -1      2574 2.07269E+01
 -1      2575 1.91775E+01
 -1      2576 3.14128E+01
 -1      2577 2.45970E+01
 -1      2578 3.82286E+01
 -1      2579 3.82286E+01
 -1      2580 2.77330E+01
 -1      2581 3.29808E+01
 -1      2582 2.10875E+01
 -1      2583 2.28388E+01
 -1      2584 2.28388E+01
 -1      2585 1.31330E+01
 -1      2586 1.82507E+01
 -1      2587 7.77521E+00
 -1      2588 1.09530E+01
 -1      2589 5.98232E+00
 -1      2590 5.83430E+00
 -1      2591 5.97002E+00
 -1      2592 7.48980E+00
 -1      2593 6.72317E+00
 -1      2594 6.48712E+00
 -1      2595 9.85448E+00
 -1      2596 1.00379E+01
 -1      2597 7.98974E+00
 -1      2598 9.02022E+00
 -1      2599 7.58921E+00
 -1      2600 7.30646E+00
 -1      2601 5.84890E+00
 -1      2602 6.53256E+00
 -1      2603 2.14862E+01
 -1      2604 1.50242E+01
 -1      2605 2.51478E+01
 -1      2606 2.54110E+01
 -1      2607 1.65706E+01
 -1      2608 2.62633E+01
 -1      2609 2.74394E+01
 -1      2610 2.74394E+01
 -1      2611 1.60141E+00
 -1      2612 1.74853E+00
 -1      2613 1.30564E+00
 -1      2614 1.18013E+00
 -1      2615 5.90945E+00
 -1      2616 7.60131E+00
 -1      2617 8.32812E+00
 -1      2618 5.04838E-01
 -1      2619 6.42768E-01
 -1      2620 7.05426E-01
 -1      2621 7.85772E-01
 -1      2622 1.22405E+00
 -1      2623 5.27446E+00
 -1      2624 4.70802E+00
 -1      2625 5.44094E+00
 -1      2626 1.05120E+01
 -1      2627 8.12524E+00
 -1      2628 2.51478E+01
 -1      2629 1.86546E-02
 -1      2630 1.86546E-02
 -1      2631 1.78432E+01
 -1      2632 1.07288E+01
 -1      2633 1.67075E-02
 -1      2634 1.59000E-02
 -1      2635 1.86211E-02
 -1      2636 2.12537E-02
 -1      2637 5.57087E+00
 -1      2638 3.12272E+01
 -1      2639 9.51876E-01
 -1      2640 4.76996E+00
 -1      2641 6.83740E-01
 -1      2642 7.55714E-01
 -1      2643 6.61258E-01
 -1      2644 4.83151E-01
 -1      2645 7.94345E+00
 -1      2646 1.51078E+01
 -1      2647 3.29808E+01
 -1      2648 3.14128E+01
 -1      2649 2.07269E+01
 -1      2650 1.41036E+01
 -1      2651 6.66939E+00
 -1      2652 5.63594E+00
 -1      2653 4.53681E+00
 -1      2654 9.08477E+00
 -1      2655 1.00910E+01
 -1      2656 1.87650E-02
 -1      2657 2.11616E-02
 -1      2658 4.13530E-01
 -1      2659 3.97054E-01
 -1      2660 3.86399E-01
 -1      2661 3.72072E-01
 -1      2662 3.38725E-01
 -1      2663 4.32208E-01
 -1      2664 4.32208E-01
 -1      2665 4.68031E-01
 -1      2666 4.23554E-01
 -1      2667 3.50624E-01
 -1      2668 7.02711E-01
 -1      2669 7.85210E-01
 -1      2670 4.43981E+00
 -1      2671 3.69896E+00
 -1      2672 5.24308E-01
 -1      2673 4.60141E-01
 -1      2674 4.44382E-01
 -1      2675 3.77791E-01
 -1      2676 3.47097E-01
 -1      2677 3.44162E-01
 -1      2678 3.19639E-01
 -1      2679 2.97709E-01
 -1      2680 2.93539E-01
 -1      2681 2.62224E-01
 -1      2682 2.37980E-01
 -1      2683 2.37159E-01
 -1      2684 2.01402E-01
 -1      2685 1.86816E-01
 -1      2686 1.84591E-01
 -1      2687 1.81734E-01
 -1      2688 1.44940E-01
 -1      2689 2.11304E-01
 -1      2690 2.25999E-01
 -1      2691 1.57698E-01
 -1      2692 2.74122E-01
 -1      2693 3.12267E-01
 -1      2694 2.35391E-01
 -1      2695 3.62446E-01
 -1      2696 4.06341E-01
 -1      2697 3.33692E-01
 -1      2698 4.55603E-01
 -1      2699 4.92733E-01
 -1      2700 4.33134E-01
 -1      2701 5.36358E-01
 -1      2702 5.66093E-01
 -1      2703 5.26021E-01
 -1      2704 6.21919E-01
 -1      2705 6.57522E-01
 -1      2706 6.25472E-01
 -1      2707 7.25616E-01
 -1      2708 7.40599E-01
 -1      2709 7.49392E-01
 -1      2710 7.99590E-01
 -1      2711 8.20132E-01
 -1      2712 8.76476E-01
 -1      2713 8.73416E-01
 -1      2714 9.48831E-01
 -1      2715 9.88751E-01
 -1      2716 1.11043E+00
 -1      2717 1.14937E+00
 -1      2718 1.20363E+00
 -1      2719 1.22488E+00
 -1      2720 1.36332E+00
 -1      2721 1.44074E+00
 -1      2722 1.39617E+00
 -1      2723 1.47184E+00
 -1      2724 1.54911E+00
 -1      2725 1.51231E+00
 -1      2726 1.66290E+00
 -1      2727 1.62243E+00
 -1      2728 2.43636E+00
 -1      2729 2.58586E+00
 -1      2730 2.43636E+00
 -1      2731 3.52080E+00
 -1      2732 3.52118E+00
 -1      2733 4.14476E+00
 -1      2734 2.61847E+00
 -1      2735 2.46708E+00
 -1      2736 4.17699E+00
 -1      2737 1.74353E+00
 -1      2738 1.58973E+00
 -1      2739 2.55073E+00
 -1      2740 1.54115E+00
 -1      2741 1.45741E+00
 -1      2742 1.77860E+00
 -1      2743 1.31887E+00
 -1      2744 1.17651E+00
 -1      2745 1.59147E+00
 -1      2746 1.12721E+00
 -1      2747 1.10020E+00
 -1      2748 1.40362E+00
 -1      2749 9.49560E-01
 -1      2750 8.74957E-01
 -1      2751 1.20368E+00
 -1      2752 8.24827E-01
 -1      2753 8.22387E-01
 -1      2754 1.00291E+00
 -1      2755 7.70261E-01
 -1      2756 7.59347E-01
 -1      2757 9.00654E-01
 -1      2758 6.96152E-01
 -1      2759 6.65675E-01
 -1      2760 7.85333E-01
 -1      2761 6.13105E-01
 -1      2762 5.84080E-01
 -1      2763 6.69568E-01
 -1      2764 5.46886E-01
 -1      2765 5.17870E-01
 -1      2766 5.79804E-01
 -1      2767 4.76682E-01
 -1      2768 4.42551E-01
 -1      2769 5.01421E-01
 -1      2770 4.01951E-01
 -1      2771 3.65472E-01
 -1      2772 4.19633E-01
 -1      2773 3.28118E-01
 -1      2774 2.93082E-01
 -1      2775 3.41679E-01
 -1      2776 2.60300E-01
 -1      2777 2.28879E-01
 -1      2778 2.71543E-01
 -1      2779 2.01120E-01
 -1      2780 1.74302E-01
 -1      2781 2.11002E-01
 -1      2782 1.51477E-01
 -1      2783 1.29473E-01
 -1      2784 1.60419E-01
 -1      2785 1.11187E-01
 -1      2786 9.37422E-02
 -1      2787 1.19309E-01
 -1      2788 7.94396E-02
 -1      2789 6.60508E-02
 -1      2790 8.67202E-02
 -1      2791 5.51351E-02
 -1      2792 4.52052E-02
 -1      2793 6.15020E-02
 -1      2794 3.91137E-02
 -1      2795 3.20095E-02
 -1      2796 4.44949E-02
 -1      2797 3.37063E-01
 -1      2798 3.73947E-01
 -1      2799 3.92370E+00
 -1      2800 5.10778E+00
 -1      2801 3.97239E-01
 -1      2802 4.29929E-01
 -1      2803 3.01234E-01
 -1      2804 2.48941E-01
 -1      2805 2.50086E-01
 -1      2806 3.11101E-01
 -1      2807 2.83049E-01
 -1      2808 2.16631E-01
 -1      2809 4.54942E-01
 -1      2810 3.82516E-01
 -1      2811 3.22154E-01
 -1      2812 6.31955E-01
 -1      2813 5.38184E-01
 -1      2814 4.76810E-01
 -1      2815 8.27877E-01
 -1      2816 7.28114E-01
 -1      2817 6.56211E-01
 -1      2818 1.03527E+00
 -1      2819 9.37323E-01
 -1      2820 8.61816E-01
 -1      2821 1.23845E+00
 -1      2822 1.15649E+00
 -1      2823 1.09249E+00
 -1      2824 1.42485E+00
 -1      2825 1.36613E+00
 -1      2826 1.34140E+00
 -1      2827 1.66917E+00
 -1      2828 1.54849E+00
 -1      2829 1.59272E+00
 -1      2830 1.99569E+00
 -1      2831 1.90410E+00
 -1      2832 1.95129E+00
 -1      2833 2.25119E+00
 -1      2834 2.22582E+00
 -1      2835 2.41635E+00
 -1      2836 2.75794E+00
 -1      2837 2.50549E+00
 -1      2838 2.90077E+00
 -1      2839 3.11418E+00
 -1      2840 3.22967E+00
 -1      2841 3.62680E+00
 -1      2842 3.95947E+00
 -1      2843 3.11247E+00
 -1      2844 4.09682E+00
 -1      2845 7.92235E+00
 -1      2846 5.87309E+00
 -1      2847 8.32812E+00
 -1      2848 8.12524E+00
 -1      2849 7.56849E+00
 -1      2850 8.32812E+00
 -1      2851 3.37988E+00
 -1      2852 5.44094E+00
 -1      2853 2.59571E+00
 -1      2854 2.65948E+00
 -1      2855 2.42495E+00
 -1      2856 2.50657E+00
 -1      2857 3.07189E+00
 -1      2858 2.03935E+00
 -1      2859 2.11519E+00
 -1      2860 2.67300E+00
 -1      2861 1.66382E+00
 -1      2862 1.77578E+00
 -1      2863 2.09968E+00
 -1      2864 1.45721E+00
 -1      2865 1.53854E+00
 -1      2866 1.71084E+00
 -1      2867 1.26667E+00
 -1      2868 1.33384E+00
 -1      2869 1.46219E+00
 -1      2870 1.05887E+00
 -1      2871 1.14740E+00
 -1      2872 1.21954E+00
 -1      2873 8.58930E-01
 -1      2874 9.51576E-01
 -1      2875 9.92971E-01
 -1      2876 6.79964E-01
 -1      2877 7.66428E-01
 -1      2878 7.93174E-01
 -1      2879 5.27053E-01
 -1      2880 6.02373E-01
 -1      2881 6.23080E-01
 -1      2882 4.00723E-01
 -1      2883 4.63367E-01
 -1      2884 4.81803E-01
 -1      2885 2.99030E-01
 -1      2886 3.49406E-01
 -1      2887 3.66801E-01
 -1      2888 2.18924E-01
 -1      2889 2.58371E-01
 -1      2890 2.74825E-01
 -1      2891 1.57042E-01
 -1      2892 1.87227E-01
 -1      2893 2.02468E-01
 -1      2894 1.10141E-01
 -1      2895 1.32737E-01
 -1      2896 1.46465E-01
 -1      2897 7.52989E-02
 -1      2898 9.18172E-02
 -1      2899 1.03837E-01
 -1      2900 5.04706E-02
 -1      2901 6.17612E-02
 -1      2902 7.19755E-02
 -1      2903 3.46718E-02
 -1      2904 4.05006E-02
 -1      2905 4.84678E-02
 -1      2906 2.19693E-02
 -1      2907 2.66097E-02
 -1      2908 3.04358E-02
 -1      2909 1.91694E-02
 -1      2910 2.89315E-02
 -1      2911 2.89315E-02
 -1      2912 2.97480E-02
 -1      2913 2.52939E-02
 -1      2914 3.61419E-02
 -1      2915 2.80654E-02
 -1      2916 2.61159E-02
 -1      2917 2.86131E-02
 -1      2918 2.86916E-02
 -1      2919 3.35272E-02
 -1      2920 2.89315E-02
 -1      2921 2.88550E-02
 -1      2922 3.29775E-02
 -1      2923 3.37671E-02
 -1      2924 4.77114E-01
 -1      2925 5.52418E-01
 -1      2926 3.71711E-01
 -1      2927 1.23150E+01
 -1      2928 1.66964E+01
 -1      2929 2.83809E-02
 -1      2930 2.86131E-02
 -1      2931 3.32874E-02
 -1      2932 2.50024E-02
 -1      2933 2.70595E-02
 -1      2934 3.19659E-02
 -1      2935 2.97181E-02
 -1      2936 2.88819E-02
 -1      2937 3.45239E-02
 -1      2938 2.72075E-02
 -1      2939 6.00596E-01
 -1      2940 5.58741E-01
 -1      2941 4.00803E-01
 -1      2942 1.11455E+01
 -1      2943 1.39823E+01
 -1      2944 2.16802E+01
 -1      2945 2.69280E+01
 -1      2946 7.01416E+00
 -1      2947 6.53415E+00
 -1      2948 2.68064E-01
 -1      2949 3.07332E-01
 -1      2950 2.48211E-01
 -1      2951 2.00501E-01
 -1      2952 5.74308E-01
 -1      2953 5.28517E-01
 -1      2954 3.67065E-01
 -1      2955 3.55708E-01
 -1      2956 4.32208E-01
 -1      2957 4.18479E-01
 -1      2958 3.54329E-01
 -1      2959 3.59278E-01
 -1      2960 5.87784E-01
 -1      2961 6.87616E-01
 -1      2962 5.04723E-01
 -1      2963 4.54262E-01
 -1      2964 4.17843E-01
 -1      2965 4.31651E-01
 -1      2966 2.27056E+01
 -1      2967 1.80533E+01
 -1      2968 2.27207E+01
 -1      2969 2.12936E+01
 -1      2970 1.00919E+01
 -1      2971 7.95812E+00
 -1      2972 3.87517E+00
 -1      2973 3.72514E+00
 -1      2974 3.26205E+00
 -1      2975 7.96395E+00
 -1      2976 1.01440E+01
 -1      2977 5.14793E+00
 -1      2978 6.47430E+00
 -1      2979 1.29979E+01
 -1      2980 1.02446E+01
 -1      2981 1.85370E+01
 -1      2982 1.46670E+01
 -1      2983 2.72415E+01
 -1      2984 2.04257E+01
 -1      2985 1.57161E+01
 -1      2986 2.06103E+01
 -1      2987 1.17537E+01
 -1      2988 4.46503E+00
 -1      2989 6.40595E+00
 -1      2990 5.92217E+00
 -1      2991 4.94586E+00
 -1      2992 3.87486E+00
 -1      2993 4.99288E+00
 -1      2994 9.37569E+00
 -1      2995 7.11023E+00
 -1      2996 5.91733E+00
 -1      2997 6.75159E+00
 -1      2998 8.22347E-01
 -1      2999 5.64586E+00
 -1      3000 4.46249E+00
 -1      3001 6.42584E+00
 -1      3002 4.58011E+00
 -1      3003 3.76845E+00
 -1      3004 6.00568E+00
 -1      3005 1.83881E+01
 -1      3006 2.36030E+01
 -1      3007 1.56100E+01
 -1      3008 1.16851E+01
 -1      3009 7.53893E+00
 -1      3010 1.02719E+01
 -1      3011 6.01747E+00
 -1      3012 4.31651E-01
 -1      3013 4.31651E-01
 -1      3014 3.58465E-01
 -1      3015 3.27729E-01
 -1      3016 3.71731E-01
 -1      3017 3.85986E-01
 -1      3018 4.13489E+00
 -1      3019 9.87457E+00
 -1      3020 7.32065E+00
 -1      3021 8.91390E+00
 -1      3022 2.83610E-02
 -1      3023 2.22890E-02
 -1      3024 2.06377E-02
 -1      3025 4.27016E+00
 -1      3026 1.28600E+01
 -1      3027 6.00873E+00
 -1      3028 5.34228E+00
 -1      3029 2.51102E+00
 -1      3030 2.77542E+00
 -1      3031 1.88703E-02
 -1      3032 1.84822E-02
 -1      3033 2.16865E-02
 -1      3034 2.27667E-02
 -1      3035 9.94116E+00
 -1      3036 8.79437E+00
 -1      3037 6.75132E+00
 -1      3038 2.74566E-02
 -1      3039 3.61419E-02
 -1      3040 1.45574E+01
 -1      3041 9.01846E+00
 -1      3042 6.45896E+00
 -1      3043 1.59409E+01
 -1      3044 3.46856E+00
 -1      3045 3.96372E-01
 -1      3046 4.12690E-01
 -1      3047 3.53313E-01
 -1      3048 3.37774E-01
 -1      3049 4.27384E+00
 -1      3050 1.43658E+01
 -1      3051 1.08080E+01
 -1      3052 1.36694E+01
 -1      3053 1.41991E+01
 -1      3054 1.31678E+01
 -1      3055 8.27007E+00
 -1      3056 5.56956E-01
 -1      3057 4.30894E-01
 -1      3058 4.28376E+00
 -1      3059 5.93678E+00
 -1      3060 3.01256E+00
 -1      3061 2.93210E-01
 -1      3062 3.01864E-01
 -1      3063 2.59742E-01
 -1      3064 2.26112E-01
 -1      3065 2.08001E-01
 -1      3066 1.81902E-01
 -1      3067 1.70034E-01
 -1      3068 1.54524E-01
 -1      3069 1.29459E-01
 -1      3070 1.24546E-01
 -1      3071 1.35162E-01
 -1      3072 1.18351E-01
 -1      3073 1.02870E-01
 -1      3074 1.46195E-01
 -1      3075 1.75764E-01
 -1      3076 1.36417E-01
 -1      3077 2.09614E-01
 -1      3078 2.57737E-01
 -1      3079 1.98111E-01
 -1      3080 3.02488E-01
 -1      3081 3.52667E-01
 -1      3082 2.76711E-01
 -1      3083 4.11795E-01
 -1      3084 4.61057E-01
 -1      3085 3.80590E-01
 -1      3086 5.28432E-01
 -1      3087 5.72057E-01
 -1      3088 5.07093E-01
 -1      3089 6.44503E-01
 -1      3090 7.00329E-01
 -1      3091 6.46914E-01
 -1      3092 7.71581E-01
 -1      3093 8.39675E-01
 -1      3094 7.90612E-01
 -1      3095 9.66048E-01
 -1      3096 1.02504E+00
 -1      3097 9.88237E-01
 -1      3098 1.17410E+00
 -1      3099 1.22738E+00
 -1      3100 1.26367E+00
 -1      3101 1.26847E+00
 -1      3102 1.43007E+00
 -1      3103 1.45382E+00
 -1      3104 2.06977E+00
 -1      3105 2.14528E+00
 -1      3106 2.13460E+00
 -1      3107 1.85153E+00
 -1      3108 1.88438E+00
 -1      3109 2.48055E+00
 -1      3110 2.09202E+00
 -1      3111 2.13249E+00
 -1      3112 2.39444E+00
 -1      3113 4.40734E+00
 -1      3114 5.34228E+00
 -1      3115 5.07971E+00
 -1      3116 4.17699E+00
 -1      3117 1.82717E+00
 -1      3118 1.77860E+00
 -1      3119 2.14990E+00
 -1      3120 2.01135E+00
 -1      3121 2.19847E+00
 -1      3122 1.77417E+00
 -1      3123 1.72487E+00
 -1      3124 2.33260E+00
 -1      3125 1.49874E+00
 -1      3126 1.34810E+00
 -1      3127 1.86929E+00
 -1      3128 1.22474E+00
 -1      3129 1.17461E+00
 -1      3130 1.51980E+00
 -1      3131 1.04566E+00
 -1      3132 9.93530E-01
 -1      3133 1.26748E+00
 -1      3134 8.70438E-01
 -1      3135 8.07243E-01
 -1      3136 1.01544E+00
 -1      3137 7.40448E-01
 -1      3138 6.87878E-01
 -1      3139 8.25553E-01
 -1      3140 6.21082E-01
 -1      3141 5.83888E-01
 -1      3142 6.91962E-01
 -1      3143 5.26644E-01
 -1      3144 4.85456E-01
 -1      3145 5.67923E-01
 -1      3146 4.34048E-01
 -1      3147 3.93448E-01
 -1      3148 4.59271E-01
 -1      3149 3.49098E-01
 -1      3150 3.11744E-01
 -1      3151 3.63513E-01
 -1      3152 2.75717E-01
 -1      3153 2.42935E-01
 -1      3154 2.83136E-01
 -1      3155 2.15560E-01
 -1      3156 1.87802E-01
 -1      3157 2.19734E-01
 -1      3158 1.64318E-01
 -1      3159 1.41494E-01
 -1      3160 1.68876E-01
 -1      3161 1.22126E-01
 -1      3162 1.03840E-01
 -1      3163 1.26026E-01
 -1      3164 8.87582E-02
 -1      3165 7.44556E-02
 -1      3166 9.15759E-02
 -1      3167 6.30460E-02
 -1      3168 5.21304E-02
 -1      3169 6.50840E-02
 -1      3170 4.81074E-02
 -1      3171 4.20159E-02
 -1      3172 4.96514E-02
 -1      3173 3.43625E-01
 -1      3174 2.72210E-01
 -1      3175 2.17835E-01
 -1      3176 1.83727E-01
 -1      3177 2.39306E-01
 -1      3178 6.80916E-01
 -1      3179 5.84757E-01
 -1      3180 8.91837E-01
 -1      3181 7.82391E-01
 -1      3182 7.10936E-01
 -1      3183 1.13717E+00
 -1      3184 1.01594E+00
 -1      3185 9.36519E-01
 -1      3186 1.43268E+00
 -1      3187 1.30500E+00
 -1      3188 1.22846E+00
 -1      3189 1.80203E+00
 -1      3190 1.67839E+00
 -1      3191 1.64199E+00
 -1      3192 2.36984E+00
 -1      3193 2.13491E+00
 -1      3194 2.22058E+00
 -1      3195 3.80300E+00
 -1      3196 3.57288E+00
 -1      3197 3.75650E+00
 -1      3198 4.83497E+00
 -1      3199 4.58067E+00
 -1      3200 5.73720E+00
 -1      3201 4.28547E+00
 -1      3202 3.62653E+00
 -1      3203 3.71567E+00
 -1      3204 1.85537E+00
 -1      3205 1.98064E+00
 -1      3206 1.46256E+00
 -1      3207 1.58594E+00
 -1      3208 1.85574E+00
 -1      3209 1.15602E+00
 -1      3210 1.27530E+00
 -1      3211 1.39905E+00
 -1      3212 9.17206E-01
 -1      3213 1.02450E+00
 -1      3214 1.08026E+00
 -1      3215 7.26711E-01
 -1      3216 8.19214E-01
 -1      3217 8.50743E-01
 -1      3218 5.64278E-01
 -1      3219 6.41869E-01
 -1      3220 6.67909E-01
 -1      3221 4.30198E-01
 -1      3222 4.93884E-01
 -1      3223 5.12673E-01
 -1      3224 3.22257E-01
 -1      3225 3.73574E-01
 -1      3226 3.85654E-01
 -1      3227 2.37117E-01
 -1      3228 2.77776E-01
 -1      3229 2.84549E-01
 -1      3230 1.72783E-01
 -1      3231 2.04481E-01
 -1      3232 2.07432E-01
 -1      3233 1.25330E-01
 -1      3234 1.49635E-01
 -1      3235 1.51648E-01
 -1      3236 8.92456E-02
 -1      3237 1.07569E-01
 -1      3238 1.10739E-01
 -1      3239 6.22312E-02
 -1      3240 7.57690E-02
 -1      3241 7.95013E-02
 -1      3242 4.20013E-02
 -1      3243 5.19712E-02
 -1      3244 5.57647E-02
 -1      3245 2.57394E-02
 -1      3246 3.38015E-02
 -1      3247 3.73049E-02
 -1      3248 2.50523E-02
 -1      3249 3.11423E-01
 -1      3250 3.00768E-01
 -1      3251 2.82300E-01
 -1      3252 3.29485E-01
 -1      3253 3.89828E-02
 -1      3254 3.92226E-02
 -1      3255 4.42913E-02
 -1      3256 4.04118E-02
 -1      3257 4.00433E-02
 -1      3258 4.00433E-02
 -1      3259 4.57386E-02
 -1      3260 5.59239E+00
 -1      3261 6.65702E+00
 -1      3262 1.31229E+01
 -1      3263 1.12342E+01
 -1      3264 8.73539E+00
 -1      3265 1.04692E+01
 -1      3266 3.46856E+00
 -1      3267 4.10356E+00
 -1      3268 4.03873E-01
 -1      3269 3.82187E-01
 -1      3270 3.21525E-01
 -1      3271 3.30687E-01
 -1      3272 4.04118E-02
 -1      3273 4.17333E-02
 -1      3274 4.84892E-02
 -1      3275 5.01792E-02
 -1      3276 3.76012E+00
 -1      3277 4.06987E+00
 -1      3278 4.71365E+00
 -1      3279 6.80885E+00
 -1      3280 4.95690E-01
 -1      3281 4.12448E-01
 -1      3282 3.62504E-01
 -1      3283 5.20394E-01
 -1      3284 2.33746E-01
 -1      3285 2.57037E-01
 -1      3286 2.14812E-01
 -1      3287 3.19554E+00
 -1      3288 3.96161E+00
 -1      3289 2.36549E+00
 -1      3290 2.62906E+00
 -1      3291 2.51002E+00
 -1      3292 4.84598E+00
 -1      3293 6.40398E+00
 -1      3294 2.75765E-01
 -1      3295 2.60006E-01
 -1      3296 1.88410E-01
 -1      3297 3.90847E+00
 -1      3298 1.19248E+01
 -1      3299 9.48145E+00
 -1      3300 1.06997E+01
 -1      3301 1.21117E+01
 -1      3302 2.68658E+00
 -1      3303 2.88513E+00
 -1      3304 1.21555E+01
 -1      3305 1.24691E+01
 -1      3306 5.74984E+00
 -1      3307 3.92680E-01
 -1      3308 3.03755E-01
 -1      3309 2.54995E-01
 -1      3310 3.77585E-01
 -1      3311 1.17528E+01
 -1      3312 1.08705E+01
 -1      3313 9.84266E+00
 -1      3314 8.17365E+00
 -1      3315 7.23285E+00
 -1      3316 8.23435E+00
 -1      3317 6.94977E+00
 -1      3318 9.70032E+00
 -1      3319 1.13921E+01
 -1      3320 3.28932E+00
 -1      3321 4.48684E+00
 -1      3322 3.87486E+00
 -1      3323 2.51586E+00
 -1      3324 4.24030E+00
 -1      3325 3.33758E+00
 -1      3326 2.61403E+00
 -1      3327 3.43074E+00
 -1      3328 7.29511E+00
 -1      3329 5.64380E+00
 -1      3330 5.17207E+00
 -1      3331 8.16403E+00
 -1      3332 1.16390E+01
 -1      3333 1.27089E+01
 -1      3334 8.62062E+00
 -1      3335 2.93607E-01
 -1      3336 2.93266E-01
 -1      3337 2.66306E-01
 -1      3338 2.98545E+00
 -1      3339 8.64869E+00
 -1      3340 6.83811E+00
 -1      3341 7.40566E+00
 -1      3342 3.26235E-01
 -1      3343 3.22026E-01
 -1      3344 2.34935E-01
 -1      3345 9.23705E+00
 -1      3346 3.68783E-02
 -1      3347 3.30513E-02
 -1      3348 5.25112E+00
 -1      3349 4.69648E+00
 -1      3350 2.61403E+00
 -1      3351 7.19869E+00
 -1      3352 2.01882E-01
 -1      3353 1.57685E-01
 -1      3354 1.72150E-01
 -1      3355 3.37092E-01
 -1      3356 1.49162E-01
 -1      3357 1.47958E-01
 -1      3358 1.65936E-01
 -1      3359 6.85196E+00
 -1      3360 4.20159E-02
 -1      3361 4.79038E-02
 -1      3362 6.32624E+00
 -1      3363 3.27153E-01
 -1      3364 3.62519E-01
 -1      3365 2.50475E-01
 -1      3366 2.37742E-01
 -1      3367 8.95380E+00
 -1      3368 1.08705E+01
 -1      3369 8.78306E+00
 -1      3370 8.59312E+00
 -1      3371 2.59007E-01
 -1      3372 3.16421E-01
 -1      3373 3.16421E-01
 -1      3374 5.61987E+00
 -1      3375 3.11472E-01
 -1      3376 2.73515E-01
 -1      3377 3.16421E-01
 -1      3378 3.90663E+00
 -1      3379 3.98212E-02
 -1      3380 3.90316E-02
 -1      3381 4.37219E-02
 -1      3382 3.84034E-02
 -1      3383 3.98212E-02
 -1      3384 3.98212E-02
 -1      3385 4.58753E-02
 -1      3386 4.52767E-02
 -1      3387 8.59981E+00
 -1      3388 5.80478E+00
 -1      3389 4.27249E+00
 -1      3390 2.86410E+00
 -1      3391 4.02593E+00
 -1      3392 1.15921E+01
 -1      3393 8.46053E+00
 -1      3394 7.80671E+00
 -1      3395 8.42537E+00
 -1      3396 8.25257E+00
 -1      3397 6.78469E+00
 -1      3398 5.87874E+00
 -1      3399 5.55586E+00
 -1      3400 5.77318E+00
 -1      3401 4.03999E+00
 -1      3402 3.36881E+00
 -1      3403 3.13388E-01
 -1      3404 3.18540E-01
 -1      3405 2.76371E+00
 -1      3406 3.80807E+00
 -1      3407 4.44762E+00
 -1      3408 2.76371E+00
 -1      3409 3.52158E+00
 -1      3410 2.81663E+00
 -1      3411 2.43972E+00
 -1      3412 3.32068E+00
 -1      3413 3.19830E-01
 -1      3414 3.19830E-01
 -1      3415 2.79905E-01
 -1      3416 2.91217E+00
 -1      3417 1.45009E-01
 -1      3418 1.26898E-01
 -1      3419 5.34543E+00
 -1      3420 2.85527E+00
 -1      3421 2.06842E+00
 -1      3422 1.28967E-01
 -1      3423 1.01590E-01
 -1      3424 1.03942E-01
 -1      3425 1.16467E-01
 -1      3426 1.22169E-01
 -1      3427 1.20888E-01
 -1      3428 1.40443E-01
 -1      3429 1.68287E-01
 -1      3430 1.54039E-01
 -1      3431 2.00240E-01
 -1      3432 2.34090E-01
 -1      3433 2.04266E-01
 -1      3434 2.77617E-01
 -1      3435 3.22368E-01
 -1      3436 2.79746E-01
 -1      3437 3.77180E-01
 -1      3438 4.36309E-01
 -1      3439 3.78086E-01
 -1      3440 4.99975E-01
 -1      3441 5.67350E-01
 -1      3442 4.96566E-01
 -1      3443 6.39969E-01
 -1      3444 7.12415E-01
 -1      3445 6.32852E-01
 -1      3446 8.37991E-01
 -1      3447 9.09243E-01
 -1      3448 8.31047E-01
 -1      3449 1.05226E+00
 -1      3450 1.17863E+00
 -1      3451 1.09964E+00
 -1      3452 1.33751E+00
 -1      3453 1.48657E+00
 -1      3454 1.40154E+00
 -1      3455 2.26548E+00
 -1      3456 2.30656E+00
 -1      3457 2.33932E+00
 -1      3458 2.52226E+00
 -1      3459 3.16196E+00
 -1      3460 3.33392E+00
 -1      3461 2.60453E+00
 -1      3462 2.81217E+00
 -1      3463 1.61193E-01
 -1      3464 1.86456E-01
 -1      3465 2.67850E+00
 -1      3466 2.44132E+00
 -1      3467 2.42085E+00
 -1      3468 2.19472E+00
 -1      3469 2.76676E+00
 -1      3470 1.86988E+00
 -1      3471 1.74651E+00
 -1      3472 2.42144E+00
 -1      3473 1.47550E+00
 -1      3474 1.34655E+00
 -1      3475 1.82558E+00
 -1      3476 1.20259E+00
 -1      3477 1.07950E+00
 -1      3478 1.41061E+00
 -1      3479 9.37648E-01
 -1      3480 8.70853E-01
 -1      3481 1.12480E+00
 -1      3482 7.50404E-01
 -1      3483 6.83608E-01
 -1      3484 8.62499E-01
 -1      3485 6.07207E-01
 -1      3486 5.49964E-01
 -1      3487 6.65649E-01
 -1      3488 4.90871E-01
 -1      3489 4.39463E-01
 -1      3490 5.30156E-01
 -1      3491 3.98371E-01
 -1      3492 3.54020E-01
 -1      3493 4.29971E-01
 -1      3494 3.15868E-01
 -1      3495 2.79841E-01
 -1      3496 3.50726E-01
 -1      3497 2.46251E-01
 -1      3498 2.18877E-01
 -1      3499 2.78984E-01
 -1      3500 1.90382E-01
 -1      3501 1.66899E-01
 -1      3502 2.16899E-01
 -1      3503 1.43427E-01
 -1      3504 1.24060E-01
 -1      3505 1.64933E-01
 -1      3506 1.05154E-01
 -1      3507 9.00716E-02
 -1      3508 1.22556E-01
 -1      3509 7.53113E-02
 -1      3510 6.39016E-02
 -1      3511 8.88893E-02
 -1      3512 5.63630E-02
 -1      3513 5.23400E-02
 -1      3514 5.46154E-02
 -1      3515 6.65902E-02
 -1      3516 1.06063E+00
 -1      3517 9.36519E-01
 -1      3518 8.04808E-01
 -1      3519 7.03332E-01
 -1      3520 9.28915E-01
 -1      3521 1.84393E+00
 -1      3522 1.59822E+00
 -1      3523 2.57628E+00
 -1      3524 2.24340E+00
 -1      3525 2.19963E+00
 -1      3526 4.68814E+00
 -1      3527 3.48510E+00
 -1      3528 3.50792E+00
 -1      3529 2.19847E+00
 -1      3530 3.00764E-02
 -1      3531 2.83091E-02
 -1      3532 3.23620E-02
 -1      3533 3.85937E-02
 -1      3534 1.37968E+00
 -1      3535 1.56695E+00
 -1      3536 7.01074E+00
 -1      3537 8.18055E+00
 -1      3538 1.84016E+00
 -1      3539 2.10959E+00
 -1      3540 1.82080E+00
 -1      3541 8.45498E-01
 -1      3542 9.43490E-01
 -1      3543 6.52077E-01
 -1      3544 7.36919E-01
 -1      3545 8.29666E-01
 -1      3546 4.96045E-01
 -1      3547 5.66439E-01
 -1      3548 6.35449E-01
 -1      3549 3.72103E-01
 -1      3550 4.28728E-01
 -1      3551 4.82494E-01
 -1      3552 2.75008E-01
 -1      3553 3.19489E-01
 -1      3554 3.62562E-01
 -1      3555 2.01541E-01
 -1      3556 2.34177E-01
 -1      3557 2.69117E-01
 -1      3558 1.46989E-01
 -1      3559 1.70137E-01
 -1      3560 1.96882E-01
 -1      3561 1.05251E-01
 -1      3562 1.23012E-01
 -1      3563 1.41502E-01
 -1      3564 7.37603E-02
 -1      3565 8.72369E-02
 -1      3566 9.95103E-02
 -1      3567 3.48890E+00
 -1      3568 8.25309E+00
 -1      3569 6.86159E+00
 -1      3570 5.78877E+00
 -1      3571 5.34539E-02
 -1      3572 5.23934E-02
 -1      3573 2.98545E+00
 -1      3574 7.85921E+00
 -1      3575 7.30583E+00
 -1      3576 3.00690E-01
 -1      3577 3.11076E-01
 -1      3578 2.76304E-01
 -1      3579 6.86159E+00
 -1      3580 2.54810E+00
 -1      3581 2.93295E+00
 -1      3582 2.53252E+00
 -1      3583 2.92052E-01
 -1      3584 1.43114E-01
 -1      3585 1.42850E-01
 -1      3586 9.97128E-02
 -1      3587 7.44084E+00
 -1      3588 7.80152E+00
 -1      3589 4.70993E+00
 -1      3590 5.53879E+00
 -1      3591 1.38994E+00
 -1      3592 1.22211E+00
 -1      3593 1.22211E+00
 -1      3594 1.59187E+00
 -1      3595 2.84047E-01
 -1      3596 2.29671E-01
 -1      3597 7.52389E+00
 -1      3598 7.33693E+00
 -1      3599 5.60145E+00
 -1      3600 6.10249E+00
 -1      3601 5.66242E+00
 -1      3602 1.08010E+00
 -1      3603 1.21163E+00
 -1      3604 1.07486E+00
 -1      3605 2.56977E+00
 -1      3606 6.51486E+00
 -1      3607 3.78265E+00
 -1      3608 5.24697E+00
 -1      3609 7.18790E-02
 -1      3610 6.41637E-02
 -1      3611 6.47623E-02
 -1      3612 6.43143E+00
 -1      3613 5.59867E+00
 -1      3614 5.52995E+00
 -1      3615 3.19830E-01
 -1      3616 5.63757E+00
 -1      3617 7.01541E+00
 -1      3618 6.13844E+00
 -1      3619 3.70158E+00
 -1      3620 1.31666E-01
 -1      3621 1.85284E-01
 -1      3622 1.19607E-01
 -1      3623 5.90516E-02
 -1      3624 5.46154E-02
 -1      3625 5.46154E-02
 -1      3626 2.30571E-01
 -1      3627 1.85831E-01
 -1      3628 1.50062E-01
 -1      3629 6.90923E-01
 -1      3630 5.97052E-01
 -1      3631 5.07985E-01
 -1      3632 5.73720E+00
 -1      3633 5.46580E+00
 -1      3634 2.10203E-01
 -1      3635 1.99658E-01
 -1      3636 2.14214E-01
 -1      3637 1.95138E-01
 -1      3638 1.50163E-01
 -1      3639 1.21807E-01
 -1      3640 1.18299E-01
 -1      3641 1.82952E-01
 -1      3642 1.37953E+00
 -1      3643 6.24933E+00
 -1      3644 4.69151E+00
 -1      3645 2.73564E-01
 -1      3646 5.09413E-02
 -1      3647 6.12013E-02
 -1      3648 4.05617E-02
 -1      3649 7.69462E+00
 -1      3650 7.27655E+00
 -1      3651 5.53832E+00
 -1      3652 5.74575E+00
 -1      3653 3.42941E+00
 -1      3654 2.67850E+00
 -1      3655 2.66568E-01
 -1      3656 2.20032E-01
 -1      3657 1.73771E-01
 -1      3658 1.28211E-01
 -1      3659 2.36799E-01
 -1      3660 2.38089E-01
 -1      3661 2.34488E-01
 -1      3662 2.36799E-01
 -1      3663 1.94983E-01
 -1      3664 5.43130E+00
 -1      3665 5.69651E+00
 -1      3666 4.14904E+00
 -1      3667 2.32911E-01
 -1      3668 2.32863E-01
 -1      3669 3.41912E+00
 -1      3670 4.55018E+00
 -1      3671 7.74714E-02
 -1      3672 7.53180E-02
 -1      3673 6.02679E+00
 -1      3674 5.23520E+00
 -1      3675 4.57905E+00
 -1      3676 3.53158E-01
 -1      3677 3.43523E-01
 -1      3678 4.21980E-01
 -1      3679 6.89369E-02
 -1      3680 7.80152E+00
 -1      3681 5.51440E-02
 -1      3682 5.34539E-02
 -1      3683 6.01087E-02
 -1      3684 5.95802E-02
 -1      3685 1.92258E-01
 -1      3686 2.32863E-01
 -1      3687 2.25701E-01
 -1      3688 3.39781E+00
 -1      3689 3.45720E+00
 -1      3690 4.59983E-02
 -1      3691 1.17413E-01
 -1      3692 1.19572E-01
 -1      3693 3.37734E+00
 -1      3694 1.08368E-01
 -1      3695 1.10438E-01
 -1      3696 1.26068E-01
 -1      3697 1.23864E-01
 -1      3698 1.38741E-01
 -1      3699 1.28290E-01
 -1      3700 1.58503E-01
 -1      3701 1.76776E-01
 -1      3702 1.61478E-01
 -1      3703 2.01356E-01
 -1      3704 2.33309E-01
 -1      3705 2.05819E-01
 -1      3706 2.79746E-01
 -1      3707 3.23274E-01
 -1      3708 2.76836E-01
 -1      3709 3.78086E-01
 -1      3710 4.32899E-01
 -1      3711 3.78086E-01
 -1      3712 4.96566E-01
 -1      3713 5.60232E-01
 -1      3714 4.96566E-01
 -1      3715 6.36829E-01
 -1      3716 7.09449E-01
 -1      3717 6.36829E-01
 -1      3718 8.25084E-01
 -1      3719 9.50660E-01
 -1      3720 8.29062E-01
 -1      3721 1.10903E+00
 -1      3722 1.25205E+00
 -1      3723 1.10307E+00
 -1      3724 1.52789E+00
 -1      3725 1.68677E+00
 -1      3726 1.53728E+00
 -1      3727 2.55502E+00
 -1      3728 3.33392E+00
 -1      3729 2.68137E+00
 -1      3730 1.10359E-01
 -1      3731 1.09188E-01
 -1      3732 4.64016E+00
 -1      3733 1.26814E-01
 -1      3734 1.33028E-01
 -1      3735 1.63483E-01
 -1      3736 1.76925E-01
 -1      3737 2.20032E-01
 -1      3738 2.74629E+00
 -1      3739 2.42144E+00
 -1      3740 2.24321E+00
 -1      3741 1.97220E+00
 -1      3742 2.56805E+00
 -1      3743 1.70595E+00
 -1      3744 1.56199E+00
 -1      3745 2.12358E+00
 -1      3746 1.26546E+00
 -1      3747 1.12361E+00
 -1      3748 1.56080E+00
 -1      3749 9.64157E-01
 -1      3750 8.43708E-01
 -1      3751 1.10482E+00
 -1      3752 7.33145E-01
 -1      3753 6.56745E-01
 -1      3754 8.34804E-01
 -1      3755 5.89249E-01
 -1      3756 5.30156E-01
 -1      3757 6.56745E-01
 -1      3758 4.71063E-01
 -1      3759 4.29971E-01
 -1      3760 5.30156E-01
 -1      3761 3.80096E-01
 -1      3762 3.41944E-01
 -1      3763 4.21189E-01
 -1      3764 3.00679E-01
 -1      3765 2.67089E-01
 -1      3766 3.30050E-01
 -1      3767 2.33399E-01
 -1      3768 2.04905E-01
 -1      3769 2.55095E-01
 -1      3770 1.77719E-01
 -1      3771 1.54248E-01
 -1      3772 1.94220E-01
 -1      3773 1.32802E-01
 -1      3774 1.13896E-01
 -1      3775 1.45588E-01
 -1      3776 9.71219E-02
 -1      3777 8.23615E-02
 -1      3778 1.07368E-01
 -1      3779 7.07708E-02
 -1      3780 6.32322E-02
 -1      3781 6.32322E-02
 -1      3782 7.90034E-02
 -1      3783 9.99305E-01
 -1      3784 8.67593E-01
 -1      3785 4.02123E+00
 -1      3786 3.11241E+00
 -1      3787 2.54326E+00
 -1      3788 2.14378E+00
 -1      3789 3.05656E+00
 -1      3790 2.38987E+00
 -1      3791 2.66309E+00
 -1      3792 4.89732E-02
 -1      3793 5.81589E-01
 -1      3794 6.67227E-01
 -1      3795 7.66116E-01
 -1      3796 8.74696E-01
 -1      3797 7.12256E-01
 -1      3798 3.30464E-01
 -1      3799 3.83079E-01
 -1      3800 2.45724E-01
 -1      3801 2.86555E-01
 -1      3802 3.07071E-01
 -1      3803 1.80324E-01
 -1      3804 2.11727E-01
 -1      3805 2.29165E-01
 -1      3806 1.29886E-01
 -1      3807 1.53863E-01
 -1      3808 1.68708E-01
 -1      3809 9.21583E-02
 -1      3810 1.10173E-01
 -1      3811 1.22534E-01
 -1      3812 6.28451E+00
 -1      3813 7.43678E+00
 -1      3814 5.47698E+00
 -1      3815 5.15564E+00
 -1      3816 1.32824E+00
 -1      3817 1.49630E+00
 -1      3818 2.33859E+00
 -1      3819 2.26137E-01
 -1      3820 2.33562E-01
 -1      3821 1.94057E-01
 -1      3822 1.92694E-01
 -1      3823 7.74714E-02
 -1      3824 7.74714E-02
 -1      3825 1.09068E-01
 -1      3826 9.63584E-02
 -1      3827 7.43678E+00
 -1      3828 6.17761E+00
 -1      3829 5.91977E+00
 -1      3830 2.32318E-01
 -1      3831 1.91665E-01
 -1      3832 2.32318E-01
 -1      3833 4.48926E+00
 -1      3834 2.66309E+00
 -1      3835 3.10160E+00
 -1      3836 3.23216E+00
 -1      3837 8.27227E-02
 -1      3838 2.81196E-01
 -1      3839 4.08924E+00
 -1      3840 4.15190E+00
 -1      3841 9.52817E-02
 -1      3842 1.42680E-01
 -1      3843 1.01178E+00
 -1      3844 1.14839E+00
 -1      3845 1.26517E+00
 -1      3846 4.39948E-01
 -1      3847 5.07265E-01
 -1      3848 4.07849E-01
 -1      3849 3.88225E+00
 -1      3850 1.05944E-01
 -1      3851 4.98924E+00
 -1      3852 4.08374E+00
 -1      3853 4.73140E+00
 -1      3854 4.92757E+00
 -1      3855 4.63715E+00
 -1      3856 4.15522E+00
 -1      3857 3.37734E+00
 -1      3858 1.26096E-01
 -1      3859 1.03618E-01
 -1      3860 1.15066E-01
 -1      3861 1.46268E-01
 -1      3862 1.17309E+00
 -1      3863 1.11177E+00
 -1      3864 1.33457E+00
 -1      3865 2.56801E-01
 -1      3866 2.12961E-01
 -1      3867 7.42557E-01
 -1      3868 6.36276E-01
 -1      3869 8.12946E-01
 -1      3870 4.09375E+00
 -1      3871 1.60784E-01
 -1      3872 1.72969E-01
 -1      3873 4.98638E-01
 -1      3874 5.39043E-01
 -1      3875 1.25506E-01
 -1      3876 1.66127E-01
 -1      3877 9.48232E-01
 -1      3878 1.53561E-01
 -1      3879 1.54154E-01
 -1      3880 5.25398E+00
 -1      3881 4.88924E+00
 -1      3882 5.42136E+00
 -1      3883 4.23738E+00
 -1      3884 3.76935E+00
 -1      3885 4.63006E+00
 -1      3886 3.07295E+00
 -1      3887 3.55912E+00
 -1      3888 6.99949E-02
 -1      3889 8.17652E-02
 -1      3890 1.54154E-01
 -1      3891 1.54154E-01
 -1      3892 1.16050E-01
 -1      3893 1.14902E-01
 -1      3894 1.11779E-01
 -1      3895 1.14902E-01
 -1      3896 1.66127E-01
 -1      3897 1.79525E+00
 -1      3898 1.58697E+00
 -1      3899 1.53795E+00
 -1      3900 3.83993E+00
 -1      3901 5.16634E+00
 -1      3902 4.07265E+00
 -1      3903 3.20352E+00
 -1      3904 3.83519E-01
 -1      3905 3.14408E-01
 -1      3906 2.96797E-01
 -1      3907 4.25809E+00
 -1      3908 6.25125E-02
 -1      3909 6.25125E-02
 -1      3910 7.23987E-02
 -1      3911 2.13888E+00
 -1      3912 1.18004E-01
 -1      3913 1.06801E-01
 -1      3914 1.29724E-01
 -1      3915 1.43150E-01
 -1      3916 1.21660E-01
 -1      3917 4.08924E+00
 -1      3918 1.61478E-01
 -1      3919 1.81239E-01
 -1      3920 1.62912E-01
 -1      3921 2.06356E-01
 -1      3922 2.30935E-01
 -1      3923 2.06356E-01
 -1      3924 2.65174E-01
 -1      3925 3.11612E-01
 -1      3926 2.65711E-01
 -1      3927 3.60054E-01
 -1      3928 4.14867E-01
 -1      3929 3.48392E-01
 -1      3930 4.84308E-01
 -1      3931 5.47975E-01
 -1      3932 4.66276E-01
 -1      3933 6.36829E-01
 -1      3934 7.13427E-01
 -1      3935 6.24572E-01
 -1      3936 8.29062E-01
 -1      3937 9.44698E-01
 -1      3938 8.29062E-01
 -1      3939 1.09267E+00
 -1      3940 1.25104E+00
 -1      3941 1.09267E+00
 -1      3942 1.57037E+00
 -1      3943 1.84622E+00
 -1      3944 1.55998E+00
 -1      3945 2.47166E+00
 -1      3946 3.33991E+00
 -1      3947 2.50476E+00
 -1      3948 3.54962E+00
 -1      3949 1.85885E-01
 -1      3950 1.62637E-01
 -1      3951 2.12114E-01
 -1      3952 2.54525E+00
 -1      3953 2.27901E+00
 -1      3954 1.77279E+00
 -1      3955 1.47625E+00
 -1      3956 2.19445E+00
 -1      3957 1.24303E+00
 -1      3958 1.08358E+00
 -1      3959 1.45502E+00
 -1      3960 9.45367E-01
 -1      3961 8.34804E-01
 -1      3962 1.08358E+00
 -1      3963 7.21788E-01
 -1      3964 6.54292E-01
 -1      3965 8.32351E-01
 -1      3966 5.68133E-01
 -1      3967 5.09040E-01
 -1      3968 6.33176E-01
 -1      3969 4.43724E-01
 -1      3970 3.93850E-01
 -1      3971 4.81701E-01
 -1      3972 3.43909E-01
 -1      3973 3.02644E-01
 -1      3974 3.66445E-01
 -1      3975 2.64068E-01
 -1      3976 2.30378E-01
 -1      3977 2.77928E-01
 -1      3978 2.00476E-01
 -1      3979 1.73290E-01
 -1      3980 2.09449E-01
 -1      3981 1.60229E-01
 -1      3982 1.38783E-01
 -1      3983 1.66485E-01
 -1      3984 1.13330E-01
 -1      3985 9.65556E-02
 -1      3986 1.27971E-01
 -1      3987 1.39478E-01
 -1      3988 5.42354E-01
 -1      3989 4.56350E-01
 -1      3990 4.27235E-01
 -1      3991 5.93988E-01
 -1      3992 1.44516E-01
 -1      3993 1.29787E-01
 -1      3994 1.34075E-01
 -1      3995 1.66917E-01
 -1      3996 3.44610E+00
 -1      3997 3.75675E+00
 -1      3998 1.01966E-01
 -1      3999 1.98263E-01
 -1      4000 2.32260E-01
 -1      4001 2.64672E-01
 -1      4002 3.08582E-01
 -1      4003 2.33770E-01
 -1      4004 1.31492E-01
 -1      4005 3.54544E+00
 -1      4006 4.57597E+00
 -1      4007 2.09471E+00
 -1      4008 2.98828E+00
 -1      4009 8.00298E-01
 -1      4010 9.37384E-01
 -1      4011 4.37991E+00
 -1      4012 5.35414E+00
 -1      4013 2.23621E+00
 -1      4014 1.88768E+00
 -1      4015 4.61006E-01
 -1      4016 5.35330E-01
 -1      4017 4.74248E+00
 -1      4018 4.74248E+00
 -1      4019 3.39868E+00
 -1      4020 1.66127E-01
 -1      4021 1.37272E-01
 -1      4022 1.18004E-01
 -1      4023 1.65201E-01
 -1      4024 9.27391E-02
 -1      4025 1.05448E-01
 -1      4026 1.11283E-01
 -1      4027 9.08550E-02
 -1      4028 4.21254E+00
 -1      4029 1.46624E-01
 -1      4030 1.73085E-01
 -1      4031 1.76180E-01
 -1      4032 6.33145E-02
 -1      4033 6.38431E-02
 -1      4034 6.62468E-02
 -1      4035 6.74950E-02
 -1      4036 6.07427E-01
 -1      4037 7.06317E-01
 -1      4038 6.95469E-01
 -1      4039 5.29390E-01
 -1      4040 3.50129E-01
 -1      4041 4.06998E-01
 -1      4042 3.07730E-01
 -1      4043 3.09688E+00
 -1      4044 2.52772E+00
 -1      4045 2.27653E+00
 -1      4046 3.24051E+00
 -1      4047 1.22009E+00
 -1      4048 1.39994E+00
 -1      4049 1.07216E+00
 -1      4050 3.66256E+00
 -1      4051 3.41803E+00
 -1      4052 8.56946E-02
 -1      4053 9.97784E-02
 -1      4054 1.01431E-01
 -1      4055 8.18957E-01
 -1      4056 6.93920E-01
 -1      4057 2.36862E-01
 -1      4058 2.09786E-01
 -1      4059 3.65581E+00
 -1      4060 9.97784E-02
 -1      4061 3.23921E-01
 -1      4062 2.66315E-01
 -1      4063 2.63986E-01
 -1      4064 7.90858E-02
 -1      4065 4.03285E-01
 -1      4066 4.13801E+00
 -1      4067 3.42093E+00
 -1      4068 3.42802E+00
 -1      4069 9.51743E-01
 -1      4070 8.32717E-01
 -1      4071 1.12553E+00
 -1      4072 2.04963E+00
 -1      4073 2.98828E+00
 -1      4074 3.23216E+00
 -1      4075 3.13020E+00
 -1      4076 3.75675E+00
 -1      4077 3.52868E+00
 -1      4078 2.50476E+00
 -1      4079 3.44083E+00
 -1      4080 3.51799E+00
 -1      4081 1.57179E-01
 -1      4082 1.57615E-01
 -1      4083 1.29686E-01
 -1      4084 1.19075E-01
 -1      4085 3.55411E+00
 -1      4086 1.16653E-01
 -1      4087 1.27626E-01
 -1      4088 1.35869E-01
 -1      4089 3.23216E+00
 -1      4090 1.55202E+00
 -1      4091 1.29962E+00
 -1      4092 1.13959E+00
 -1      4093 3.49801E+00
 -1      4094 8.50472E-02
 -1      4095 9.11991E-02
 -1      4096 1.27971E-01
 -1      4097 1.64935E+00
 -1      4098 3.26260E+00
 -1      4099 1.53424E-01
 -1      4100 1.61891E-01
 -1      4101 1.80219E-01
 -1      4102 2.27210E-01
 -1      4103 2.52327E-01
 -1      4104 2.26189E-01
 -1      4105 2.73798E-01
 -1      4106 3.08037E-01
 -1      4107 2.94652E-01
 -1      4108 3.24756E-01
 -1      4109 3.73198E-01
 -1      4110 3.32842E-01
 -1      4111 4.92902E-01
 -1      4112 5.62344E-01
 -1      4113 4.69265E-01
 -1      4114 6.85726E-01
 -1      4115 7.74580E-01
 -1      4116 7.12351E-01
 -1      4117 9.43808E-01
 -1      4118 1.05944E+00
 -1      4119 1.00496E+00
 -1      4120 1.29885E+00
 -1      4121 1.44683E+00
 -1      4122 1.41360E+00
 -1      4123 1.55998E+00
 -1      4124 1.87931E+00
 -1      4125 1.76616E+00
 -1      4126 2.53949E+00
 -1      4127 2.03327E+00
 -1      4128 2.13030E-01
 -1      4129 1.88283E-01
 -1      4130 1.70162E-01
 -1      4131 2.03937E+00
 -1      4132 1.80615E+00
 -1      4133 2.38440E+00
 -1      4134 1.31579E+00
 -1      4135 1.17757E+00
 -1      4136 1.90013E+00
 -1      4137 8.95605E-01
 -1      4138 7.82589E-01
 -1      4139 1.12781E+00
 -1      4140 6.53965E-01
 -1      4141 5.67806E-01
 -1      4142 7.17219E-01
 -1      4143 4.88883E-01
 -1      4144 4.23567E-01
 -1      4145 5.09672E-01
 -1      4146 3.66573E-01
 -1      4147 3.16632E-01
 -1      4148 3.73755E-01
 -1      4149 2.81909E-01
 -1      4150 2.43333E-01
 -1      4151 2.82037E-01
 -1      4152 2.15906E-01
 -1      4153 1.86004E-01
 -1      4154 2.19888E-01
 -1      4155 1.66485E-01
 -1      4156 1.53424E-01
 -1      4157 1.72943E-01
 -1      4158 2.98828E+00
 -1      4159 3.15480E+00
 -1      4160 2.74441E+00
 -1      4161 2.79113E-01
 -1      4162 3.20661E-01
 -1      4163 1.21877E-01
 -1      4164 1.31331E-01
 -1      4165 1.46463E-01
 -1      4166 1.47674E-01
 -1      4167 2.17567E-01
 -1      4168 2.49979E-01
 -1      4169 2.62910E-01
 -1      4170 3.12185E+00
 -1      4171 1.67344E-01
 -1      4172 1.92522E-01
 -1      4173 2.08731E-01
 -1      4174 2.97175E+00
 -1      4175 2.96067E+00
 -1      4176 1.86588E+00
 -1      4177 1.53022E+00
 -1      4178 2.04963E+00
 -1      4179 3.55922E-01
 -1      4180 4.09930E-01
 -1      4181 3.27305E-01
 -1      4182 1.03476E+00
 -1      4183 1.31746E+00
 -1      4184 1.02640E-01
 -1      4185 1.18911E-01
 -1      4186 1.38135E-01
 -1      4187 1.20212E-01
 -1      4188 1.39344E-01
 -1      4189 1.52857E-01
 -1      4190 1.14696E-01
 -1      4191 1.37619E-01
 -1      4192 1.54926E-01
 -1      4193 1.53424E-01
 -1      4194 6.58711E-01
 -1      4195 6.52700E-01
 -1      4196 5.58778E-01
 -1      4197 1.47674E-01
 -1      4198 3.51679E+00
 -1      4199 6.15450E-01
 -1      4200 7.09432E-01
 -1      4201 9.54739E-01
 -1      4202 3.72573E-01
 -1      4203 3.42091E-01
 -1      4204 4.45404E-01
 -1      4205 2.50476E+00
 -1      4206 1.62805E-01
 -1      4207 2.93346E-01
 -1      4208 2.63893E-01
 -1      4209 8.37166E-02
 -1      4210 2.01223E+00
 -1      4211 3.54544E+00
 -1      4212 2.89111E+00
 -1      4213 3.28959E+00
 -1      4214 2.26566E+00
 -1      4215 1.24845E+00
 -1      4216 1.07436E+00
 -1      4217 1.46498E+00
 -1      4218 2.31851E+00
 -1      4219 2.19938E+00
 -1      4220 1.21936E-01
 -1      4221 2.74846E+00
 -1      4222 2.61003E+00
 -1      4223 2.61512E-01
 -1      4224 2.40009E-01
 -1      4225 2.90871E-01
 -1      4226 9.00618E-01
 -1      4227 7.67832E-01
 -1      4228 1.00947E+00
 -1      4229 7.26612E-01
 -1      4230 6.58711E-01
 -1      4231 6.17491E-01
 -1      4232 4.64914E-01
 -1      4233 5.37011E-01
 -1      4234 5.50974E-01
 -1      4235 4.17551E-01
 -1      4236 1.03126E-01
 -1      4237 8.38587E-02
 -1      4238 9.98175E-02
 -1      4239 9.55402E-02
 -1      4240 2.33844E-01
 -1      4241 2.80835E-01
 -1      4242 2.56745E+00
 -1      4243 2.97784E+00
 -1      4244 2.83216E-01
 -1      4245 3.04688E-01
 -1      4246 4.83526E-01
 -1      4247 6.03230E-01
 -1      4248 6.03230E-01
 -1      4249 7.26612E-01
 -1      4250 8.35733E-01
 -1      4251 1.00496E+00
 -1      4252 1.17870E+00
 -1      4253 1.41811E+00
 -1      4254 1.68555E-01
 -1      4255 1.88073E-01
 -1      4256 2.13118E-01
 -1      4257 1.74222E-01
 -1      4258 2.07709E+00
 -1      4259 1.34492E+00
 -1      4260 1.06295E+00
 -1      4261 7.37628E-01
 -1      4262 6.09004E-01
 -1      4263 5.30565E-01
 -1      4264 4.51642E-01
 -1      4265 3.96658E-01
 -1      4266 3.39663E-01
 -1      4267 3.04402E-01
 -1      4268 2.69679E-01
 -1      4269 2.40545E-01
 -1      4270 2.79045E+00
 -1      4271 3.04781E-01
 -1      4272 3.04688E-01
 -1      4273 3.53433E-01
 -1      4274 3.16123E-01
 -1      4275 1.81303E+00
 -1      4276 9.53763E-02
 -1      4277 5.04117E-01
 -1      4278 1.69988E+00
 -1      4279 1.46925E-01
 -1      4280 1.71197E-01
 -1      4281 2.25843E-01
 -1      4282 3.32842E-01
 -1      4283 4.66807E-01
 -1      4284 2.90871E-01
 -1      4285 6.17491E-01
 -1      4286 1.90676E-01
 -1      4287 1.73370E-01
 -1      4288 1.55798E-01
 -1      4289 2.39157E-01
 -1      4290 1.26213E-01
 -1      4291 1.42484E-01
 -1      4292 1.76510E-01
 -1      4293 6.17491E-01
 -1      4294 2.39157E-01
 -1      4295 5.04117E-01
 -1      4296 2.88490E-01
 -3
 9999
